 vasp.6.3.0 20Jan22 (build Apr  1 2022 16:44:48) gamma-only
 executed on        HPECrayEX_GCC date 2023.02.21  01:39:48

 INCAR:
   SYSTEM = MgO-rocksalt
   ISMEAR = 0
   SIGMA = 0.05
   EDIFF = 1E-6
   ALGO = ALL
   ISTART = 0
   IBRION = -1
   NSW = 0
   ISYM = 0
   DIPOL = 0.5 0.5 0.5
   IDIPOL = 3
   LDIPOL = .TRUE.
   GGA = PE
   IVDW = 1
   VDW_C6 = 1.75 0.70 0.14 0.63 0.70
   VDW_R0 = 1.452 1.342 1.001 1.243 1.342
   ENCUT = 520
   PREC = Accurate
   LASPH = .TRUE.
   LREAL = Auto
   ISPIN = 1
   NELM = 200
   NELMIN = 8
   NCORE = 8
   KPAR = 1
   LWAVE = .FALSE.
   LCHARG = .FALSE.

 POTCAR:    PAW_PBE C 08Apr2002
 POTCAR:    PAW_PBE O 08Apr2002
 POTCAR:    PAW_PBE H 15Jun2001
 POTCAR:    PAW_PBE Mg_pv 13Apr2007
 POTCAR:    PAW_PBE O 08Apr2002
 POTCAR:    PAW_PBE C 08Apr2002
   VRHFIN =C: s2p2

   TITEL  = PAW_PBE C 08Apr2002
   POMASS =   12.011; ZVAL   =    4.000    mass and valenz
   ENMAX  =  400.000; ENMIN  =  300.000 eV

[...]

   TITEL  = PAW_PBE H 15Jun2001
   POMASS =    1.000; ZVAL   =    1.000    mass and valenz
   ENMAX  =  250.000; ENMIN  =  200.000 eV

   TITEL  = PAW_PBE Mg_pv 13Apr2007
   POMASS =   24.305; ZVAL   =    8.000    mass and valenz
   ENMAX  =  403.929; ENMIN  =  302.947 eV

   TITEL  = PAW_PBE O 08Apr2002
   POMASS =   16.000; ZVAL   =    6.000    mass and valenz
   ENMAX  =  400.000; ENMIN  =  300.000 eV

 Optimization of the real space projectors (new method)

 maximal supplied QI-value         = 25.13
 optimisation between [QCUT,QGAM] = [ 11.56, 23.12] = [ 37.43,149.72] Ry
 Optimized for a Real-space Cutoff    1.04 Angstroem

   l    n(q)    QCUT    max X(q) W(low)/X(q) W(high)/X(q)  e(spline)
   0      7    11.561   115.676    0.20E-03    0.60E-03    0.21E-06
   0      7    11.561    87.132    0.20E-03    0.59E-03    0.21E-06
   1      7    11.561     4.429    0.23E-03    0.35E-03    0.15E-06
   1      7    11.561     2.733    0.18E-03    0.25E-03    0.12E-06
 Optimization of the real space projectors (new method)

[...]

   l    n(q)    QCUT    max X(q) W(low)/X(q) W(high)/X(q)  e(spline)
   1      8    11.527     2.974    0.44E-04    0.56E-04    0.12E-06
   1      8    11.527     4.279    0.12E-03    0.12E-03    0.26E-06
   0      9    11.527    16.381    0.46E-04    0.64E-04    0.78E-07
   0      9    11.527     5.611    0.26E-04    0.43E-04    0.55E-07
   2      8    11.527     4.652    0.22E-03    0.72E-04    0.47E-07
 Optimization of the real space projectors (new method)

 maximal supplied QI-value         = 24.76
 optimisation between [QCUT,QGAM] = [ 11.64, 23.27] = [ 37.91,151.63] Ry
 Optimized for a Real-space Cutoff    1.14 Angstroem

   l    n(q)    QCUT    max X(q) W(low)/X(q) W(high)/X(q)  e(spline)
   0      8    11.635    20.381    0.10E-03    0.33E-03    0.24E-06
   0      8    11.635    15.268    0.11E-03    0.35E-03    0.26E-06
   1      7    11.635     5.964    0.24E-03    0.31E-03    0.30E-06
   1      7    11.635     5.382    0.22E-03    0.25E-03    0.26E-06
  PAW_PBE C 08Apr2002                   :
  PAW_PBE O 08Apr2002                   :
  PAW_PBE H 15Jun2001                   :
  PAW_PBE Mg_pv 13Apr2007               :
  PAW_PBE O 08Apr2002                   :

 POSCAR:  C  O  H Mg  O
  positions in direct lattice
 exchange correlation table for  LEXCH =        8
   RHO(1)=    0.500       N(1)  =     2000
   RHO(2)=  100.500       N(2)  =     4000

 ion  position               nearest neighbor table
   1  0.528  0.555  0.794-  12 1.10  11 1.10   9 1.10   5 1.44
   2  0.321  0.401  0.795-  16 1.10  15 1.10  13 1.10   6 1.44
   3  0.474  0.195  0.795-  20 1.10  19 1.10  17 1.10   7 1.44
   4  0.680  0.347  0.794-  24 1.10  23 1.10  21 1.10   8 1.44
   5  0.508  0.487  0.756-  10 1.00   1 1.44
   6  0.388  0.382  0.756-  14 1.00   2 1.44
   7  0.492  0.263  0.756-  18 1.00   3 1.44
   8  0.612  0.367  0.756-  22 1.00   4 1.44
   9  0.519  0.542  0.844-   1 1.10
  10  0.552  0.448  0.759-   5 1.00
  11  0.590  0.572  0.786-   1 1.10
  12  0.489  0.603  0.779-   1 1.10
  13  0.334  0.392  0.845-   2 1.10
  14  0.427  0.427  0.759-   6 1.00
  15  0.303  0.463  0.787-   2 1.10
  16  0.272  0.362  0.780-   2 1.10
  17  0.483  0.209  0.845-   3 1.10
  18  0.448  0.302  0.759-   7 1.00
  19  0.412  0.177  0.787-   3 1.10
  20  0.513  0.147  0.780-   3 1.10
  21  0.667  0.355  0.844-   4 1.10
  22  0.573  0.323  0.758-   8 1.00
  23  0.696  0.285  0.786-   4 1.10
  24  0.729  0.384  0.779-   4 1.10
  25  0.125  0.000  0.351- 153 2.12 155 2.12 156 2.12 172 2.12 195 2.12
  26  0.250  0.125  0.351- 154 2.12 155 2.12 156 2.12 164 2.12 171 2.12
  27  0.125  0.125  0.450- 159 2.11 155 2.12 153 2.12 154 2.12 161 2.12 170 2.12
  28  0.250  0.000  0.450- 160 2.11 156 2.12 153 2.12 154 2.12 169 2.12 194 2.12
  29  0.125  1.000  0.550- 159 2.12 160 2.12 199 2.12 176 2.12 153 2.12 157 2.14
  30  0.250  0.125  0.550- 168 2.11 175 2.11 154 2.12 159 2.12 160 2.12 158 2.15
  31  0.125  0.125  0.647- 159 2.10 158 2.11 174 2.12 157 2.12 165 2.12
  32  0.250  1.000  0.647- 160 2.09 158 2.11 198 2.11 173 2.12 157 2.12
  33  0.125  0.250  0.351- 161 2.12 155 2.12 163 2.12 164 2.12 180 2.12
  34  0.250  0.375  0.351- 162 2.12 163 2.12 164 2.12 179 2.12 188 2.12
  35  0.125  0.375  0.450- 167 2.11 163 2.12 161 2.12 162 2.12 178 2.12 185 2.12
  36  0.250  0.250  0.450- 168 2.11 164 2.12 162 2.12 154 2.12 161 2.12 177 2.12
  37  0.125  0.250  0.550- 168 2.11 184 2.12 167 2.12 161 2.12 159 2.12 165 2.15
  38  0.250  0.375  0.550- 183 2.10 168 2.12 192 2.12 162 2.13 167 2.13 166 2.15
  39  0.125  0.375  0.647- 167 2.09 166 2.10 182 2.11 189 2.12 165 2.12
  40  0.250  0.250  0.647- 168 2.08 181 2.09 165 2.12 158 2.12 166 2.12
  41  0.375  0.000  0.351- 169 2.12 156 2.12 171 2.12 211 2.12 236 2.12
  42  0.000  0.125  0.351- 170 2.12 155 2.12 172 2.12 180 2.12 235 2.12
  43  0.375  0.125  0.450- 175 2.11 171 2.12 154 2.12 169 2.12 177 2.12 234 2.12
  44  0.000  0.000  0.450- 176 2.11 172 2.12 153 2.12 170 2.12 210 2.12 233 2.12
  45  0.375  1.000  0.550- 175 2.11 215 2.12 240 2.12 169 2.12 160 2.12 173 2.15
  46  0.000  0.125  0.550- 239 2.11 159 2.11 176 2.12 184 2.12 170 2.12 174 2.14
  47  0.375  0.125  0.647- 175 2.08 181 2.10 173 2.12 158 2.12 238 2.12
  48  0.000  1.000  0.648- 176 2.10 237 2.11 157 2.11 214 2.12 174 2.12
  49  0.375  0.250  0.351- 177 2.12 171 2.12 164 2.12 179 2.12 244 2.12
  50  0.000  0.375  0.351- 178 2.12 163 2.12 180 2.12 204 2.12 243 2.12
  51  0.375  0.375  0.450- 179 2.12 177 2.12 162 2.12 201 2.12 242 2.12 183 2.13
  52  0.000  0.250  0.450- 184 2.11 180 2.12 178 2.12 161 2.12 170 2.12 241 2.12
  53  0.376  0.251  0.550- 248 2.11 183 2.11 181 2.12 168 2.13 175 2.13 177 2.13
  54  0.000  0.375  0.550- 247 2.11 167 2.11 208 2.12 178 2.12 184 2.12 182 2.15
  55  0.375  0.375  0.651- 246 2.13 166 2.13 181 2.14 205 2.15 183 2.16
  56  0.000  0.250  0.647- 184 2.09 165 2.11 245 2.11 174 2.12 182 2.12
  57  0.125  0.500  0.351- 185 2.12 163 2.12 187 2.12 188 2.12 204 2.12
  58  0.250  0.625  0.351- 186 2.12 187 2.12 188 2.12 196 2.12 203 2.12
  59  0.125  0.625  0.450- 191 2.11 187 2.12 185 2.12 186 2.12 193 2.12 202 2.12
  60  0.250  0.500  0.450- 192 2.11 188 2.12 186 2.12 162 2.12 185 2.12 201 2.12
[...]
 266  0.500  0.625  0.450- 138 2.12 123 2.12  75 2.12 140 2.12 148 2.12 142 2.13
 267  0.875  0.625  0.351- 139 2.12 122 2.12 137 2.12  74 2.12 145 2.12
 268  0.500  0.500  0.351- 140 2.12 114 2.12 121 2.12 138 2.12  73 2.12
 269  0.875  0.500  0.650-  80 2.11 143 2.12 128 2.12 119 2.12 141 2.15
 270  0.500  0.626  0.650- 152 2.10  79 2.12 127 2.12 144 2.13 142 2.14
 271  0.875  0.625  0.549- 143 2.10 139 2.11  78 2.11 149 2.12 126 2.12 141 2.12
 272  0.500  0.500  0.550- 142 2.10 125 2.11  77 2.11 118 2.12 140 2.13 144 2.16
 273  0.875  0.750  0.450- 145 2.12 132 2.12 139 2.12  84 2.12 147 2.12 149 2.12
 274  0.500  0.875  0.450- 146 2.12 108 2.12 131 2.12  83 2.12 148 2.12 150 2.12
 275  0.875  0.875  0.351- 147 2.12 105 2.12 130 2.12 145 2.12  82 2.12
 276  0.500  0.750  0.351- 148 2.12 129 2.12 138 2.12 146 2.12  81 2.12
 277  0.875  0.750  0.650-  88 2.11 151 2.11 143 2.12 136 2.12 149 2.14
 278  0.500  0.875  0.650- 152 2.11 112 2.11 135 2.12  87 2.12 150 2.15
 279  0.875  0.875  0.549- 151 2.10 147 2.11  86 2.12 109 2.12 149 2.12 134 2.12
 280  0.500  0.750  0.549- 152 2.09 148 2.11 150 2.11 133 2.12  85 2.12 142 2.13

IMPORTANT INFORMATION: All symmetrisations will be switched off!
NOSYMM: (Re-)initialisation of all symmetry stuff for point group C_1.

                                     Primitive cell

  volume of cell :    6122.6422

  direct lattice vectors                    reciprocal lattice vectors
    16.934285261  0.000000000  0.000000000     0.059051798  0.000000000  0.000000000
     0.000000000 16.934285261  0.000000000     0.000000000  0.059051798  0.000000000
     0.000000000  0.000000000 21.350356973     0.000000000  0.000000000  0.046837624

  length of vectors
    16.934285261 16.934285261 21.350356973     0.059051798  0.059051798  0.046837624

  position of ions in fractional coordinates (direct lattice)
     0.527697817  0.554917398  0.793855915
     0.320743285  0.401023348  0.794525226
     0.473900184  0.195109725  0.794567180
     0.679838993  0.346598032  0.793859388
     0.508155801  0.487029642  0.756249271
     0.388337104  0.382453515  0.756302694
     0.492348468  0.262579403  0.756168770
     0.612200349  0.366804741  0.756201248
     0.519004007  0.542257809  0.844005403
     0.552315633  0.447850318  0.758695887
     0.589511506  0.572185211  0.785555578
     0.489273453  0.603463142  0.778871865
     0.334026370  0.391850155  0.844521562
     0.427366719  0.426739399  0.758858400
     0.302853723  0.462768635  0.786793976
     0.272350605  0.362353950  0.779612259
     0.483293388  0.208558700  0.844518117
     0.448127493  0.301720371  0.758789701
     0.412118886  0.177179305  0.787036137
     0.512525746  0.146671172  0.779673154
     0.667211098  0.355460994  0.843993279
     0.572733810  0.322854287  0.758497488
     0.696444743  0.284596584  0.785609300
     0.728806066  0.384494568  0.778903471
     0.125000000  0.000000000  0.351282183
     0.250000000  0.125000000  0.351282183
     0.125000000  0.125000000  0.450427394
     0.250000000  0.000000000  0.450427394
     0.124961126  0.999958047  0.549684610
     0.249976803  0.124972072  0.549552161
     0.124889510  0.124785179  0.647495998
     0.249805217  0.999854149  0.647465063
     0.125000000  0.250000000  0.351282183
     0.250000000  0.375000000  0.351282183
     0.125000000  0.375000000  0.450427394
     0.250000000  0.250000000  0.450427394
     0.124957007  0.250003723  0.549594080
     0.250468305  0.374988454  0.549977695
     0.124845454  0.375017262  0.647294198
     0.249768083  0.249646609  0.646861069
     0.375000000  0.000000000  0.351282183
     0.000000000  0.125000000  0.351282183
     0.375000000  0.125000000  0.450427394
     0.000000000  0.000000000  0.450427394
     0.375012780  0.999937819  0.549575986
     0.000007582  0.124920898  0.549659781
     0.374649623  0.124724989  0.646801648
     0.000010119  0.999902407  0.647579627
     0.375000000  0.250000000  0.351282183
[...]
   8.46714263 14.81749960  9.61678566
  14.81749960 14.81749960  7.50000000
   8.46714263 12.70071395  7.50000000
  14.82133627 12.70387475 13.88068815
   8.46737335 14.81749822 13.88049175
  14.81905231 14.81758001 11.72945377
   8.46743443 12.70422213 11.72862687

--------------------------------------- Iteration      FINAL  ---------------------------------------

--------------------OUTCAR has been truncated-------------------------

[...]

--------------------OUTCAR has been truncated-------------------------

  DFT-D2 method for vdW energy calculation

  Parameters of vdW forcefield:
         C6(Jnm^6/mol)     R0(A)
   C        1.750          1.452
   O        0.700          1.342
   H        0.140          1.001
   Mg       0.630          1.243
   O        0.700          1.342

  vdW correction parametrized for the method pbe

  IVDW =   1
  VDW_RADIUS =    50.000 A
  VDW_S6 =     0.750
  VDW_SR =     1.000
  VDW_D =    20.000
  LVDW_EWALD = F

  Number of pair interactions contributing to vdW energy: 3393028
  Edisp (eV):  -15.30294

  FORCE on cell =-STRESS in cart. coord.  units (eV):
  Direction    XX          YY          ZZ          XY          YZ          ZX
  Alpha Z  3649.39383  3649.39383  3649.39383
  Ewald  630898.83805630905.91642************    -1.80021    -6.39237    -2.73541
  Hartree672633.52296672639.77775************    -1.13745    -4.41870    -2.53246
  E(xc)  -10053.81340-10053.80959-10074.20829    -0.00196    -0.00511     0.00057
  Local  ************************************     2.83351    10.65222     5.22845
  n-local-11402.73610-11402.72030-11478.41769    -0.01766    -0.07597     0.01283
  augment  4215.61273  4215.60804  4183.97042     0.00109     0.01433     0.00658
  Kinetic 30112.02339 30112.01081 30321.23268     0.11321     0.28574    -0.08665
  Fock        0.00000     0.00000     0.00000     0.00000     0.00000     0.00000
  vdW       -21.77653   -21.77757   -18.73495    -0.00009     0.00089     0.00168
  Total    -101.34251  -101.37557     8.23234    -0.00956     0.06104    -0.10440
  in kB     -26.51938   -26.52803     2.15424    -0.00250     0.01597    -0.02732

 VOLUME and BASIS-vectors are now :
  energy-cutoff  :      520.00
  volume of cell :     6122.64
      direct lattice vectors                 reciprocal lattice vectors
    16.934285261  0.000000000  0.000000000     0.059051798  0.000000000  0.000000000
     0.000000000 16.934285261  0.000000000     0.000000000  0.059051798  0.000000000
     0.000000000  0.000000000 21.350356973     0.000000000  0.000000000  0.046837624

  length of vectors
    16.934285261 16.934285261 21.350356973     0.059051798  0.059051798  0.046837624

 FORCES acting on ions:
    Electron-Ion                     Ewald-Force                    Non-Local-Force
   -.387E+02 -.195E+03 -.102E+04   0.399E+02 0.201E+03 0.102E+04   -.118E+01 -.574E+01 -.334E+01
   0.195E+03 -.372E+02 -.102E+04   -.201E+03 0.383E+02 0.102E+04   0.571E+01 -.112E+01 -.340E+01
   0.371E+02 0.195E+03 -.102E+04   -.382E+02 -.201E+03 0.102E+04   0.110E+01 0.569E+01 -.342E+01
   -.195E+03 0.396E+02 -.102E+04   0.201E+03 -.408E+02 0.102E+04   -.572E+01 0.122E+01 -.334E+01
   0.388E+02 -.107E+03 -.153E+04   -.681E+02 0.103E+03 0.152E+04   0.294E+02 0.418E+01 0.190E+02
   0.107E+03 0.365E+02 -.153E+04   -.103E+03 -.655E+02 0.151E+04   -.415E+01 0.290E+02 0.195E+02
   -.363E+02 0.108E+03 -.153E+04   0.652E+02 -.104E+03 0.151E+04   -.289E+02 -.408E+01 0.195E+02
   -.107E+03 -.402E+02 -.153E+04   0.103E+03 0.696E+02 0.152E+04   0.398E+01 -.294E+02 0.189E+02
   0.301E+01 -.188E+02 -.253E+03   -.376E+01 0.178E+02 0.259E+03   0.745E+00 0.103E+01 -.545E+01
   -.577E+02 0.206E+02 -.265E+03   0.632E+02 -.256E+02 0.265E+03   -.549E+01 0.502E+01 -.216E+00
   -.652E+02 -.475E+02 -.241E+03   0.705E+02 0.490E+02 0.240E+03   -.534E+01 -.154E+01 0.905E+00
   0.325E+02 -.750E+02 -.240E+03   -.359E+02 0.793E+02 0.238E+03   0.338E+01 -.439E+01 0.176E+01
   0.182E+02 0.361E+01 -.253E+03   -.171E+02 -.439E+01 0.258E+03   -.108E+01 0.787E+00 -.543E+01
   -.204E+02 -.579E+02 -.265E+03   0.254E+02 0.635E+02 0.265E+03   -.500E+01 -.551E+01 -.229E+00
   0.480E+02 -.649E+02 -.241E+03   -.496E+02 0.702E+02 0.240E+03   0.160E+01 -.534E+01 0.845E+00
   0.749E+02 0.329E+02 -.239E+03   -.793E+02 -.363E+02 0.238E+03   0.437E+01 0.340E+01 0.175E+01
   -.384E+01 0.181E+02 -.253E+03   0.464E+01 -.170E+02 0.258E+03   -.806E+00 -.110E+01 -.542E+01
   0.577E+02 -.203E+02 -.265E+03   -.632E+02 0.253E+02 0.266E+03   0.548E+01 -.499E+01 -.237E+00
   0.649E+02 0.480E+02 -.241E+03   -.702E+02 -.497E+02 0.240E+03   0.534E+01 0.160E+01 0.821E+00
   -.329E+02 0.750E+02 -.239E+03   0.362E+02 -.793E+02 0.238E+03   -.339E+01 0.437E+01 0.174E+01
   -.188E+02 -.312E+01 -.254E+03   0.178E+02 0.388E+01 0.259E+03   0.103E+01 -.760E+00 -.544E+01
   0.209E+02 0.568E+02 -.265E+03   -.260E+02 -.623E+02 0.265E+03   0.504E+01 0.545E+01 -.191E+00
   -.471E+02 0.655E+02 -.241E+03   0.486E+02 -.708E+02 0.240E+03   -.149E+01 0.536E+01 0.900E+00
   -.754E+02 -.319E+02 -.240E+03   0.798E+02 0.352E+02 0.238E+03   -.442E+01 -.333E+01 0.176E+01
   0.548E+01 0.550E+01 0.207E+04   -.547E+01 -.549E+01 -.206E+04   -.579E-02 -.595E-02 -.700E+01
   0.919E+01 0.911E+01 0.208E+04   -.916E+01 -.909E+01 -.207E+04   -.204E-01 -.204E-01 -.701E+01
   0.111E+02 0.125E+02 0.721E+03   -.111E+02 -.125E+02 -.721E+03   -.145E-01 -.861E-02 0.414E+00
   0.127E+02 0.112E+02 0.721E+03   -.127E+02 -.112E+02 -.722E+03   -.722E-02 -.126E-01 0.407E+00
   0.151E+02 0.151E+02 -.647E+03   -.150E+02 -.150E+02 0.647E+03   -.102E-01 -.138E-01 -.174E+00
   0.350E+02 0.342E+02 -.613E+03   -.349E+02 -.341E+02 0.613E+03   -.673E-01 -.799E-01 -.759E-01
   0.393E+02 0.372E+02 -.200E+04   -.392E+02 -.372E+02 0.199E+04   -.107E+00 0.714E-03 0.611E+01
   0.391E+02 0.399E+02 -.200E+04   -.390E+02 -.398E+02 0.199E+04   -.164E-01 -.113E+00 0.611E+01
   0.737E+01 0.550E+01 0.208E+04   -.734E+01 -.549E+01 -.207E+04   -.202E-01 -.764E-02 -.701E+01
   0.111E+02 -.459E-01 0.208E+04   -.110E+02 0.453E-01 -.207E+04   -.402E-01 0.150E-03 -.705E+01
   0.142E+02 -.252E-01 0.730E+03   -.141E+02 0.224E-01 -.731E+03   -.638E-01 0.210E-02 0.386E+00
   0.190E+02 0.113E+02 0.741E+03   -.189E+02 -.112E+02 -.741E+03   -.793E-01 -.440E-01 0.316E+00
   0.307E+02 0.174E+02 -.622E+03   -.306E+02 -.174E+02 0.622E+03   -.137E+00 -.348E-01 -.819E-01
   0.554E+02 0.292E+00 -.577E+03   -.549E+02 -.300E+00 0.577E+03   -.494E+00 0.786E-02 -.245E+00
   0.774E+02 0.162E+01 -.196E+04   -.770E+02 -.161E+01 0.196E+04   -.412E+00 -.846E-02 0.612E+01
   0.119E+03 0.665E+02 -.191E+04   -.118E+03 -.665E+02 0.190E+04   -.653E+00 0.406E-01 0.618E+01
   0.560E+01 0.743E+01 0.208E+04   -.559E+01 -.740E+01 -.207E+04   -.808E-02 -.201E-01 -.701E+01
   -.549E-01 0.724E+01 0.207E+04   0.548E-01 -.723E+01 -.206E+04   0.245E-04 -.573E-02 -.700E+01
   0.116E+02 0.188E+02 0.741E+03   -.115E+02 -.187E+02 -.742E+03   -.461E-01 -.835E-01 0.323E+00
   -.748E-01 0.777E+01 0.712E+03   0.753E-01 -.777E+01 -.712E+03   -.224E-03 0.147E-02 0.442E+00
   0.177E+02 0.313E+02 -.621E+03   -.176E+02 -.312E+02 0.621E+03   -.344E-01 -.130E+00 -.892E-01
   -.334E+00 0.184E+02 -.643E+03   0.336E+00 -.184E+02 0.643E+03   -.976E-03 0.862E-02 -.169E+00
   0.701E+02 0.118E+03 -.190E+04   -.702E+02 -.118E+03 0.189E+04   0.866E-01 -.510E+00 0.621E+01
   -.230E+00 0.182E+02 -.201E+04   0.230E+00 -.182E+02 0.201E+04   0.570E-03 0.108E-01 0.613E+01
   0.750E+01 0.737E+01 0.208E+04   -.746E+01 -.733E+01 -.208E+04   -.274E-01 -.276E-01 -.708E+01
   -.570E-01 -.504E-01 0.207E+04   0.570E-01 0.501E-01 -.207E+04   -.301E-04 0.199E-03 -.700E+01
   0.143E+02 -.889E-01 0.759E+03   -.141E+02 0.929E-01 -.760E+03   -.948E-01 -.264E-02 0.416E+00
   -.153E+00 0.799E+01 0.722E+03   0.157E+00 -.799E+01 -.723E+03   -.283E-02 0.305E-03 0.432E+00
   0.388E+02 0.378E+02 -.547E+03   -.384E+02 -.374E+02 0.547E+03   -.390E+00 -.405E+00 -.828E+00
   -.217E+00 0.210E-02 -.630E+03   0.214E+00 0.917E-03 0.630E+03   0.228E-02 -.636E-02 -.133E+00
   0.133E+03 0.558E+01 -.170E+04   -.133E+03 -.556E+01 0.170E+04   -.326E+00 -.251E-01 0.343E+01
   -.113E+01 0.219E+02 -.199E+04   0.114E+01 -.219E+02 0.199E+04   -.358E-02 0.510E-01 0.613E+01
   0.737E+01 -.556E+01 0.208E+04   -.735E+01 0.555E+01 -.207E+04   -.204E-01 0.798E-02 -.701E+01
   0.915E+01 -.913E+01 0.208E+04   -.913E+01 0.911E+01 -.207E+04   -.208E-01 0.203E-01 -.701E+01
   0.111E+02 -.126E+02 0.721E+03   -.111E+02 0.126E+02 -.721E+03   -.156E-01 0.554E-02 0.416E+00
   0.189E+02 -.114E+02 0.741E+03   -.188E+02 0.114E+02 -.741E+03   -.872E-01 0.452E-01 0.325E+00
[...]
   -.487E+01 -.585E+01 0.156E+04   0.485E+01 0.584E+01 -.156E+04   0.176E-01 0.108E-01 0.352E+01
   0.450E-01 -.585E+01 0.157E+04   -.452E-01 0.582E+01 -.157E+04   0.263E-03 0.428E-01 0.343E+01
   -.458E+02 -.250E+02 -.151E+04   0.457E+02 0.249E+02 0.151E+04   0.764E-01 0.861E-01 -.523E+01
   0.475E+01 -.111E+03 -.142E+04   -.474E+01 0.111E+03 0.143E+04   -.152E-01 0.435E+00 -.509E+01
   -.163E+02 -.167E+02 -.470E+03   0.162E+02 0.167E+02 0.470E+03   0.535E-01 0.492E-01 0.384E+00
   0.285E+00 -.297E+02 -.395E+03   -.282E+00 0.294E+02 0.395E+03   -.322E-02 0.332E+00 -.367E+00
   -.655E+01 -.648E+01 0.536E+03   0.653E+01 0.647E+01 -.536E+03   0.186E-01 0.157E-01 -.452E-02
   0.506E-01 0.818E-01 0.543E+03   -.513E-01 -.842E-01 -.543E+03   0.861E-03 0.719E-03 0.877E-02
   -.384E+01 0.373E-01 0.155E+04   0.384E+01 -.372E-01 -.156E+04   0.771E-02 0.220E-02 0.353E+01
   0.374E-01 -.579E+01 0.156E+04   -.378E-01 0.577E+01 -.156E+04   0.673E-03 0.299E-01 0.350E+01
   -.177E+02 -.175E+02 -.153E+04   0.177E+02 0.174E+02 0.154E+04   0.448E-01 0.429E-01 -.524E+01
   0.105E+00 0.129E+00 -.152E+04   -.105E+00 -.128E+00 0.152E+04   -.676E-03 -.121E-02 -.522E+01
   -.928E+01 0.147E+00 -.481E+03   0.926E+01 -.149E+00 0.481E+03   0.192E-01 0.104E-02 0.383E+00
   0.364E+00 -.238E+02 -.454E+03   -.362E+00 0.236E+02 0.454E+03   -.187E-02 0.225E+00 0.461E+00
   -.157E+00 0.189E+00 0.286E+02   -.324E-11 0.143E-11 -.227E-10   0.163E+00 -.240E+00 -.286E+02

 POSITION                                       TOTAL-FORCE (eV/Angst)
      8.93619      9.39713     16.94911        -0.000272     -0.004047     -0.000590
      5.43156      6.79104     16.96340         0.002034     -0.003156      0.006832
      8.02516      3.30404     16.96429        -0.002503     -0.001667     -0.000089
     11.51259      5.86939     16.94918        -0.003062     -0.004178      0.004173
      8.60526      8.24750     16.14619        -0.002151     -0.004734      0.012357
      6.57621      6.47658     16.14733         0.005251     -0.003284      0.011698
      8.33757      4.44659     16.14447        -0.001682      0.001510      0.018318
     10.36718      6.21158     16.14517        -0.007144      0.001363      0.011258
      8.78896      9.18275     18.01982        -0.002201     -0.004066      0.002839
      9.35307      7.58403     16.19843        -0.000452     -0.002037     -0.001472
      9.98296      9.68955     16.77189        -0.001035     -0.001128      0.003577
      8.28550     10.21922     16.62919        -0.003243      0.000824      0.000237
      5.65650      6.63570     18.03084         0.004249     -0.001496      0.001594
      7.23715      7.22653     16.20190         0.002714      0.000793     -0.002252
      5.12861      7.83666     16.79833        -0.000409      0.000681      0.003466
      4.61206      6.13621     16.64500         0.000051     -0.001013      0.001541
      8.18423      3.53179     18.03076        -0.001263      0.003000     -0.002875
      7.58872      5.10942     16.20043         0.000637      0.001480     -0.003913
      6.97894      3.00040     16.80350         0.002075      0.001911      0.002974
      8.67926      2.48377     16.64630         0.000123      0.000033      0.000601
     11.29874      6.01948     18.01956        -0.003976      0.002776      0.004907
      9.69884      5.46731     16.19419         0.000196     -0.000132     -0.001700
     11.79379      4.81944     16.77304         0.000648     -0.001863      0.002248
     12.34181      6.51114     16.62987         0.003067      0.005421     -0.001813
      2.11679      0.00000      7.50000         0.001568      0.001805      0.383581
      4.23357      2.11679      7.50000         0.005811      0.006437      0.388716
      2.11679      2.11679      9.61679         0.003730      0.002605     -0.029092
      4.23357      0.00000      9.61679         0.001721      0.002970     -0.030361
      2.11613     16.93357     11.73596         0.000163     -0.000148      0.001379
      4.23318      2.11631     11.73313         0.000601      0.000873      0.000534
      2.11491      2.11315     13.82427        -0.002874      0.001102      0.053857
      4.23027     16.93182     13.82361        -0.000681     -0.000186      0.058315
      2.11679      4.23357      7.50000         0.005982      0.002554      0.387660
      4.23357      6.35036      7.50000         0.011310     -0.000292      0.399156
      2.11679      6.35036      9.61679         0.026737     -0.000556     -0.015336
      4.23357      4.23357      9.61679         0.034156      0.016508      0.000565
      2.11606      4.23363     11.73403         0.001998     -0.000282      0.003389
      4.24150      6.35016     11.74222        -0.003280      0.000007      0.001003
      2.11417      6.35065     13.81996        -0.002810      0.000735      0.053530
      4.22964      4.22759     13.81071        -0.005870     -0.000216      0.052841
      6.35036      0.00000      7.50000         0.002461      0.005813      0.387295
      0.00000      2.11679      7.50000        -0.000020      0.001852      0.383740
      6.35036      2.11679      9.61679         0.017044      0.036184      0.000696
      0.00000      0.00000      9.61679         0.000154     -0.000670     -0.029182
      6.35057     16.93323     11.73364        -0.001984      0.001710      0.005533
      0.00013      2.11545     11.73543         0.000910      0.001318      0.005209
      6.34442      2.11213     13.80945        -0.000781     -0.004488      0.052581
      0.00017     16.93263     13.82606         0.000481      0.001450      0.056176
      6.35036      4.23357      7.50000         0.007571      0.008241      0.406242
      0.00000      6.35036      7.50000        -0.000019      0.000108      0.384891
      6.35036      6.35036      9.61679         0.042993      0.001508      0.069437
      0.00000      4.23357      9.61679         0.000975     -0.000014     -0.032844
      6.35886      4.24285     11.75145        -0.002516     -0.004067     -0.001591
      0.00024      6.35081     11.73452        -0.000182     -0.003020      0.007824
      6.34269      6.34982     13.90288        -0.002583     -0.001530      0.028481
      0.00032      4.23111     13.82379        -0.000646      0.001568      0.060412
      2.11679      8.46714      7.50000         0.005683     -0.002267      0.387081
      4.23357     10.58393      7.50000         0.005942     -0.005228      0.388605
      2.11679     10.58393      9.61679         0.003976     -0.001005     -0.028764
      4.23357      8.46714      9.61679         0.037104     -0.016484      0.000831
[...]
      8.46714     10.58393      9.61679         0.000565      0.022633      0.024236
     14.81750     10.58393      7.50000         0.006564      0.001447     -0.469181
      8.46714      8.46714      7.50000         0.000053      0.012177     -0.495764
     14.82182      8.47146     13.88180        -0.002126     -0.000977      0.009876
      8.46703     10.60770     13.88565         0.000653     -0.006301      0.011502
     14.81975     10.58609     11.72934         0.000664     -0.002330     -0.000753
      8.46792      8.47391     11.74418         0.000008     -0.003253      0.004200
     14.81750     12.70071      9.61679         0.006308      0.004613      0.030674
      8.46714     14.81750      9.61679         0.000214     -0.001465      0.023028
     14.81750     14.81750      7.50000         0.003795      0.002498     -0.467020
      8.46714     12.70071      7.50000         0.000173      0.008492     -0.475214
     14.82134     12.70387     13.88069         0.000119      0.000971      0.008492
      8.46737     14.81750     13.88049        -0.000300     -0.000267      0.011293
     14.81905     14.81758     11.72945         0.000325     -0.000590      0.003472
      8.46743     12.70422     11.72863        -0.000098     -0.001960     -0.004436
    total drift:                                0.005968     -0.051043      0.050840

  FREE ENERGIE OF THE ION-ELECTRON SYSTEM (eV)
  free  energy   TOTEN  =     -1626.19404446 eV

  energy  without entropy=    -1626.19404446  energy(sigma->0) =    -1626.19404446