 vasp.6.4.2 20Jul23 (build Feb 22 2024 13:53:45) complex
 executed on              LinuxNV date 2024.08.28  18:53:32
 OpenACC runtime initialized ...    4 GPUs detected

 INCAR:
   SYSTEM = Oxide-Surface
   ISMEAR = 0
   SIGMA = 0.05
   EDIFF = 1E-5
   ALGO = Normal
   IBRION = -1
   NSW = 0
   ISYM = 0
   DIPOL = 0.5 0.5 0.5
   IDIPOL = 3
   LDIPOL = .TRUE.
   ISTART = 0
   LHFCALC = .FALSE.
   GGA = PE
   HFRCUT = -1
   ENCUT = 520
   PREC = Normal
   PRECFOCK = Normal
   LASPH = .TRUE.
   LREAL = Auto
   ISPIN = 1
   NELM = 200
   NELMIN = 8
   NCORE = 1
   KPAR = 1
   LWAVE = .TRUE.
   LCHARG = .FALSE.

 POTCAR:    PAW_PBE C 08Apr2002
 POTCAR:    PAW_PBE H 15Jun2001
 POTCAR:    PAW_PBE Ti_pv 07Sep2000
 POTCAR:    PAW_PBE O 08Apr2002
 POTCAR:    PAW_PBE C 08Apr2002
   VRHFIN =C: s2p2

   TITEL  = PAW_PBE C 08Apr2002
   POMASS =   12.011; ZVAL   =    4.000    mass and valenz
   ENMAX  =  400.000; ENMIN  =  300.000 eV

   TITEL  = PAW_PBE H 15Jun2001
   POMASS =    1.000; ZVAL   =    1.000    mass and valenz
   ENMAX  =  250.000; ENMIN  =  200.000 eV

   TITEL  = PAW_PBE Ti_pv 07Sep2000
   POMASS =   47.880; ZVAL   =   10.000    mass and valenz
   ENMAX  =  222.335; ENMIN  =  166.751 eV

   TITEL  = PAW_PBE O 08Apr2002
   POMASS =   16.000; ZVAL   =    6.000    mass and valenz
   ENMAX  =  400.000; ENMIN  =  300.000 eV

 Optimization of the real space projectors (new method)

 maximal supplied QI-value         = 25.13
 optimisation between [QCUT,QGAM] = [ 11.56, 23.12] = [ 37.43,149.72] Ry
 Optimized for a Real-space Cutoff    1.04 Angstroem

   l    n(q)    QCUT    max X(q) W(low)/X(q) W(high)/X(q)  e(spline)
   0      7    11.561   115.676    0.20E-03    0.60E-03    0.21E-06
   0      7    11.561    87.132    0.20E-03    0.59E-03    0.21E-06
   1      7    11.561     4.429    0.23E-03    0.35E-03    0.15E-06
   1      7    11.561     2.733    0.18E-03    0.25E-03    0.12E-06
 Optimization of the real space projectors (new method)

[...]

   l    n(q)    QCUT    max X(q) W(low)/X(q) W(high)/X(q)  e(spline)
   1     10    11.641     4.216    0.33E-04    0.72E-04    0.48E-07
   1     10    11.641     5.422    0.11E-03    0.20E-03    0.10E-06
   2      9    11.641    72.084    0.36E-03    0.27E-03    0.57E-06
   2      9    11.641    65.965    0.35E-03    0.27E-03    0.57E-06
   0     10    11.641    41.531    0.11E-03    0.93E-04    0.16E-06
   0     10    11.641    16.290    0.82E-04    0.72E-04    0.13E-06
 Optimization of the real space projectors (new method)

 maximal supplied QI-value         = 24.76
 optimisation between [QCUT,QGAM] = [ 11.64, 23.27] = [ 37.91,151.63] Ry
 Optimized for a Real-space Cutoff    1.04 Angstroem

   l    n(q)    QCUT    max X(q) W(low)/X(q) W(high)/X(q)  e(spline)
   0      7    11.635    20.381    0.14E-03    0.49E-03    0.18E-06
   0      7    11.635    15.268    0.16E-03    0.52E-03    0.19E-06
   1      7    11.635     5.964    0.30E-03    0.44E-03    0.22E-06
   1      7    11.635     5.382    0.27E-03    0.34E-03    0.19E-06
  PAW_PBE C 08Apr2002                   :
  PAW_PBE H 15Jun2001                   :
  PAW_PBE Ti_pv 07Sep2000               :
  PAW_PBE O 08Apr2002                   :

 POSCAR:  C  H Ti  O
  positions in direct lattice
 exchange correlation table for  LEXCH =        8
   RHO(1)=    0.500       N(1)  =     2000
   RHO(2)=  100.500       N(2)  =     4000

 ion  position               nearest neighbor table
   1  0.500  0.500  0.834-   2 1.10   3 1.10   4 1.10   5 1.10
   2  0.496  0.576  0.859-   1 1.10
   3  0.504  0.424  0.859-   1 1.10
   4  0.571  0.504  0.810-   1 1.10
   5  0.430  0.496  0.810-   1 1.10
   6  0.750  0.625  0.192-  87 1.95 147 1.95 146 1.95  86 1.95  89 1.98 168 1.98  16 2.96  36 2.96

   7  0.000  0.750  0.192-  88 1.95 108 1.95  89 1.95 109 1.95  90 1.98  37 2.96  17 2.96
   8  0.000  0.625  0.322-  90 1.95 150 1.95  91 1.95 151 1.95  93 1.98  92 1.98  18 2.96  38 2.96

[...]

  85  0.500  0.500  0.707- 239 1.82 244 1.95 185 1.95 184 1.95 245 1.95  75 2.96  55 2.96
  86  0.750  0.750  0.141-   6 1.95  16 1.95
  87  0.750  0.750  0.243-   6 1.95  16 1.95   9 1.98
  88  0.098  0.625  0.192-   7 1.95  37 1.95  46 1.98
  89  0.902  0.625  0.192-   7 1.95  37 1.95   6 1.98
  90  0.000  0.750  0.271-   8 1.95  18 1.95   7 1.98
  91  0.000  0.750  0.373-   8 1.95  18 1.95  11 1.98
  92  0.848  0.625  0.322-   9 1.95  39 1.95   8 1.98
  93  0.152  0.625  0.322-  49 1.95  79 1.95   8 1.98
  94  0.750  0.750  0.401-  10 1.95  20 1.95   9 1.98
  95  0.750  0.750  0.503-  10 1.95  20 1.95  13 2.11
  96  0.098  0.625  0.452-  11 1.95  41 1.95  50 1.98
  97  0.902  0.625  0.452-  11 1.95  41 1.95  10 1.98
  98  0.000  0.750  0.532-  22 1.90  12 1.90  11 2.00
  99  0.000  0.750  0.634-  15 1.81  12 2.02  22 2.02
 100  0.850  0.625  0.583-  12 1.95  13 1.97  43 1.97
 101  0.150  0.625  0.583-  12 1.95  53 1.97  83 1.97
 102  0.750  0.750  0.662-  13 1.86  14 2.10  24 2.10
 103  0.750  0.750  0.765-  14 1.83  24 1.83
 104  0.094  0.625  0.719-  45 1.95  15 1.95  54 2.03
 105  0.906  0.625  0.719-  45 1.95  15 1.95  14 2.03
 106  0.750  0.000  0.141-  16 1.95  26 1.95
 107  0.750  0.000  0.243-  16 1.95  26 1.95  19 1.98
 108  0.098  0.875  0.192-   7 1.95  17 1.95  56 1.98
 109  0.902  0.875  0.192-   7 1.95  17 1.95  16 1.98
 110  0.000  0.000  0.271-  18 1.95  28 1.95  17 1.98
 111  0.000  0.000  0.373-  18 1.95  28 1.95  21 1.98
 112  0.848  0.875  0.322-   9 1.95  19 1.95  18 1.98
 113  0.152  0.875  0.322-  49 1.95  59 1.95  18 1.98
 114  0.750  0.000  0.401-  20 1.95  30 1.95  19 1.98
 115  0.750  0.000  0.503-  20 1.95  30 1.95  23 2.11
 116  0.098  0.875  0.452-  11 1.95  21 1.95  60 1.98
 117  0.902  0.875  0.452-  11 1.95  21 1.95  20 1.98
 118  0.000  0.000  0.532-  32 1.89  22 1.89  21 2.00
 119  1.000  0.000  0.634-  25 1.81  32 2.02  22 2.02
 120  0.850  0.875  0.583-  22 1.95  13 1.97  23 1.97
 121  0.150  0.875  0.583-  22 1.95  53 1.97  63 1.97
 122  0.750  0.000  0.662-  23 1.86  24 2.10  34 2.10
 123  0.750  0.000  0.765-  24 1.83  34 1.83
 124  0.094  0.875  0.719-  15 1.95  25 1.95  64 2.03
 125  0.906  0.875  0.719-  15 1.95  25 1.95  24 2.03
 126  0.750  0.250  0.141-  26 1.95  36 1.95
 127  0.750  0.250  0.243-  26 1.95  36 1.95  29 1.98
 128  0.098  0.125  0.192-  17 1.95  27 1.95  66 1.98
 129  0.902  0.125  0.192-  17 1.95  27 1.95  26 1.98
 130  0.000  0.250  0.271-  28 1.95  38 1.95  27 1.98
 131  0.000  0.250  0.373-  28 1.95  38 1.95  31 1.98
 132  0.848  0.125  0.322-  19 1.95  29 1.95  28 1.98
 133  0.152  0.125  0.322-  59 1.95  69 1.95  28 1.98
 134  0.750  0.250  0.401-  30 1.95  40 1.95  29 1.98
 135  0.750  0.250  0.503-  30 1.95  40 1.95  33 2.11
 136  0.098  0.125  0.452-  21 1.95  31 1.95  70 1.98
 137  0.902  0.125  0.452-  21 1.95  31 1.95  30 1.98
 138  0.000  0.250  0.532-  32 1.90  42 1.90  31 2.00
 139  1.000  0.250  0.634-  35 1.81  42 2.02  32 2.02
 140  0.850  0.125  0.583-  32 1.95  33 1.97  23 1.97
 141  0.150  0.125  0.583-  32 1.95  73 1.97  63 1.97
 142  0.750  0.250  0.662-  33 1.86  44 2.10  34 2.10
 143  0.750  0.250  0.765-  44 1.83  34 1.83
 144  0.094  0.125  0.719-  35 1.95  25 1.95  74 2.03
[...]
 231  0.500  0.500  0.373-  48 1.95  78 1.95  81 1.98
 232  0.348  0.375  0.322-  69 1.95  79 1.95  78 1.98
 233  0.652  0.375  0.322-  29 1.95  39 1.95  78 1.98
 234  0.250  0.500  0.401-  50 1.95  80 1.95  79 1.98
 235  0.250  0.500  0.503-  50 1.95  80 1.95  83 2.11
 236  0.598  0.375  0.452-  71 1.95  81 1.95  40 1.98
 237  0.402  0.375  0.452-  71 1.95  81 1.95  80 1.98
 238  0.500  0.500  0.532-  52 1.90  82 1.90  81 2.00
 239  0.500  0.500  0.635-  85 1.82  82 2.02  52 2.02
 240  0.350  0.375  0.583-  82 1.95  83 1.97  73 1.97
 241  0.650  0.375  0.583-  82 1.95  43 1.97  33 1.97
 242  0.249  0.500  0.662-  83 1.86  84 2.10  54 2.10
 243  0.251  0.500  0.765-  54 1.83  84 1.84
 244  0.594  0.374  0.719-  75 1.94  85 1.95  44 2.03
 245  0.406  0.374  0.719-  75 1.94  85 1.95  84 2.03

IMPORTANT INFORMATION: All symmetrisations will be switched off!
NOSYMM: (Re-)initialisation of all symmetry stuff for point group C_1.

                                     Primitive cell

  volume of cell :    3846.0501

  direct lattice vectors                    reciprocal lattice vectors
    13.003980404  0.000000000  0.000000000     0.076899531  0.000000000  0.000000000
     0.000000000 11.830378115  0.000000000     0.000000000  0.084528152  0.000000000
     0.000000000  0.000000000 25.000000000     0.000000000  0.000000000  0.040000000

  length of vectors
    13.003980404 11.830378115 25.000000000     0.076899531  0.084528152  0.040000000

  position of ions in fractional coordinates (direct lattice)
     0.500064753  0.500001971  0.833925908
     0.496116025  0.575765153  0.859097683
     0.504021055  0.424236392  0.859102374
     0.570575345  0.504286181  0.809848038
     0.429538220  0.495704177  0.809856132
     0.750000008  0.625000007  0.191872994
     0.000000008  0.750000007  0.191872994
     0.000000008  0.625000007  0.321912798
     0.750000008  0.750000007  0.321912798
     0.750000008  0.625000007  0.451952602
     0.000000008  0.750000007  0.451952602
     0.999998729  0.625016586  0.579214663
     0.750021378  0.750038300  0.587267412
     0.750117211  0.625133254  0.721168073
     0.000025095  0.750082334  0.706350679
     0.750000008  0.875000007  0.191872994
     0.000000008  0.000000007  0.191872994
     0.000000008  0.875000007  0.321912798
     0.750000008  0.000000007  0.321912798
     0.750000008  0.875000007  0.451952602
     0.000000008  0.000000007  0.451952602
     0.999995895  0.875019834  0.579234708
     0.749960162  0.000003641  0.587339263
     0.749868689  0.875032817  0.721416409
     0.999999847  0.999999993  0.706360792
     0.750000008  0.125000007  0.191872994
     0.000000008  0.250000007  0.191872994
     0.000000008  0.125000007  0.321912798
     0.750000008  0.250000007  0.321912798
     0.750000008  0.125000007  0.451952602
     0.000000008  0.250000007  0.451952602
     0.000004299  0.124980173  0.579234710
     0.750020916  0.249964339  0.587281564
     0.749849713  0.124984901  0.721421855
     0.999975965  0.249917711  0.706350689
     0.750000008  0.375000007  0.191872994
     0.000000008  0.500000007  0.191872994
     0.000000008  0.375000007  0.321912798
     0.750000008  0.500000007  0.321912798
     0.750000008  0.375000007  0.451952602
     0.000000008  0.500000007  0.451952602
     0.000001195  0.374983469  0.579214669
     0.750045966  0.499996875  0.587270533
     0.750061553  0.374909750  0.721212007
     0.000000696  0.500000012  0.706329162
     0.250000008  0.625000007  0.191872994
     0.500000008  0.750000007  0.191872994
     0.500000008  0.625000007  0.321912798
     0.250000008  0.750000007  0.321912798
     0.250000008  0.625000007  0.451952602
     0.500000008  0.750000007  0.451952602
     0.499999026  0.624688363  0.579585883
     0.249979194  0.750035526  0.587281864
     0.249940088  0.625089729  0.721213004
     0.500006830  0.749974620  0.706192418
     0.250000008  0.875000007  0.191872994
     0.500000008  0.000000007  0.191872994
     0.500000008  0.875000007  0.321912798
[...]
   0.226E+01 -.434E+02 -.220E+03   -.252E+01 0.479E+02 0.223E+03   0.262E+00 -.452E+01 -.320E+01   -.201E-05 -.256E-04 -.173E-03
   -.226E+01 0.434E+02 -.220E+03   0.252E+01 -.479E+02 0.223E+03   -.262E+00 0.452E+01 -.320E+01   0.248E-06 0.228E-04 -.174E-03
   -.355E+02 -.243E+01 -.254E+03   0.402E+02 0.269E+01 0.251E+03   -.473E+01 -.257E+00 0.282E+01   0.109E-04 -.406E-05 -.117E-03
   0.355E+02 0.244E+01 -.254E+03   -.403E+02 -.270E+01 0.251E+03   0.473E+01 0.257E+00 0.282E+01   -.148E-04 -.244E-06 -.118E-03
   -.142E+01 -.576E+00 0.280E+04   0.142E+01 0.577E+00 -.281E+04   -.345E-03 -.105E-02 0.437E+00   0.272E-03 0.378E-03 0.116E-02
   -.115E-03 -.592E+00 0.298E+04   0.608E-04 0.593E+00 -.298E+04   0.331E-05 -.528E-04 -.389E+01   0.470E-04 0.138E-03 -.220E-03
   -.979E-03 -.137E+00 0.143E+04   0.953E-03 0.137E+00 -.143E+04   -.747E-05 0.387E-05 -.435E-01   0.510E-04 -.173E-05 0.849E-03
   -.388E+00 -.200E+00 0.143E+04   0.388E+00 0.201E+00 -.143E+04   0.387E-04 -.245E-05 0.204E+00   -.566E-04 0.142E-04 0.306E-03
   -.581E+00 -.283E+00 -.132E+02   0.578E+00 0.284E+00 0.141E+02   0.506E-03 -.432E-04 -.138E+00   -.311E-04 -.972E-04 0.802E-03
   -.118E-01 -.445E+00 -.213E+01   0.121E-01 0.448E+00 0.104E+01   -.706E-04 -.876E-03 0.348E+00   -.229E-04 -.641E-04 0.767E-03
   -.324E-01 -.131E+01 -.140E+04   0.325E-01 0.131E+01 0.140E+04   0.257E-03 -.991E-03 0.731E-02   -.535E-04 -.362E-04 0.938E-03
   -.434E+01 -.338E+01 -.143E+04   0.434E+01 0.338E+01 0.143E+04   -.233E-02 -.291E-02 -.485E-01   -.325E-04 -.805E-04 0.108E-02
   -.342E+02 -.140E+02 -.274E+04   0.342E+02 0.140E+02 0.274E+04   0.887E-03 0.318E-02 -.168E+00   0.964E-04 -.260E-03 0.796E-03
   -.541E-01 -.477E+01 -.283E+04   0.536E-01 0.477E+01 0.283E+04   0.773E-03 -.129E-02 0.954E+00   0.132E-05 0.121E-03 0.125E-02
   -.114E+01 -.563E+00 0.280E+04   0.114E+01 0.564E+00 -.281E+04   -.254E-03 0.106E-02 0.437E+00   0.327E-03 -.160E-04 0.821E-03
   -.427E-03 -.410E-04 0.298E+04   0.431E-03 -.258E-05 -.298E+04   -.273E-05 0.203E-05 -.389E+01   -.107E-05 0.554E-04 -.492E-03
   -.901E-03 -.137E+00 0.143E+04   0.952E-03 0.137E+00 -.143E+04   -.571E-05 0.607E-05 -.435E-01   -.238E-04 -.689E-06 0.807E-03
   -.386E+00 -.988E-03 0.143E+04   0.386E+00 0.992E-03 -.143E+04   0.101E-03 0.464E-05 0.202E+00   -.297E-04 0.163E-04 0.265E-03
   -.783E+00 -.321E+00 -.138E+02   0.781E+00 0.329E+00 0.147E+02   0.338E-03 -.501E-03 -.139E+00   -.110E-03 -.144E-04 0.776E-03
   -.615E-03 -.177E-04 -.256E+01   0.633E-03 -.182E-04 0.147E+01   -.352E-05 -.556E-06 0.346E+00   -.770E-05 0.373E-04 0.751E-03
   -.510E-01 -.124E+01 -.140E+04   0.510E-01 0.125E+01 0.140E+04   -.151E-03 -.226E-02 0.554E-02   0.261E-04 -.260E-04 0.100E-02
   -.329E+01 -.156E-02 -.144E+04   0.329E+01 0.172E-02 0.144E+04   0.655E-03 -.837E-04 -.425E-01   -.559E-04 -.146E-04 0.118E-02
   -.126E+02 -.996E+01 -.276E+04   0.126E+02 0.996E+01 0.276E+04   0.125E-01 0.887E-03 -.180E+00   0.185E-03 0.692E-03 0.113E-02
   -.351E-02 -.335E-03 -.284E+04   0.352E-02 0.344E-03 0.284E+04   -.104E-04 -.324E-05 0.963E+00   -.365E-05 0.140E-04 0.152E-02
   -.114E+01 0.564E+00 0.280E+04   0.114E+01 -.564E+00 -.281E+04   -.255E-03 -.107E-02 0.437E+00   0.252E-03 -.472E-04 0.801E-03
   -.102E-02 0.593E+00 0.298E+04   0.949E-03 -.593E+00 -.298E+04   0.481E-06 0.533E-04 -.389E+01   0.800E-04 -.297E-03 -.232E-03
   0.421E-03 0.137E+00 0.143E+04   -.410E-03 -.137E+00 -.143E+04   0.477E-05 -.271E-05 -.435E-01   -.254E-04 -.436E-05 0.786E-03
   -.388E+00 0.200E+00 0.143E+04   0.388E+00 -.201E+00 -.143E+04   0.372E-04 0.601E-05 0.204E+00   -.361E-04 -.229E-04 0.341E-03
   -.788E+00 0.306E+00 -.139E+02   0.786E+00 -.312E+00 0.147E+02   0.388E-03 0.392E-03 -.140E+00   -.747E-04 0.743E-04 0.805E-03
   0.101E-01 0.445E+00 -.213E+01   -.102E-01 -.448E+00 0.104E+01   0.634E-04 0.876E-03 0.348E+00   -.494E-04 0.301E-04 0.807E-03
   0.470E-01 0.124E+01 -.140E+04   -.471E-01 -.124E+01 0.140E+04   0.150E-03 0.226E-02 0.554E-02   0.302E-04 0.436E-04 0.962E-03
   -.437E+01 0.338E+01 -.143E+04   0.437E+01 -.338E+01 0.143E+04   -.221E-02 0.204E-02 -.485E-01   -.664E-04 0.978E-04 0.930E-03
   -.126E+02 0.989E+01 -.276E+04   0.126E+02 -.989E+01 0.276E+04   0.129E-01 -.579E-03 -.180E+00   0.190E-03 -.432E-03 0.149E-02
   0.408E-01 0.477E+01 -.283E+04   -.403E-01 -.477E+01 0.283E+04   -.745E-03 0.129E-02 0.954E+00   0.151E-04 -.138E-03 0.130E-02
   -.142E+01 0.575E+00 0.280E+04   0.142E+01 -.576E+00 -.281E+04   -.348E-03 0.106E-02 0.437E+00   0.230E-03 -.314E-03 0.115E-02
   -.755E-03 -.111E-03 0.298E+04   0.582E-03 0.265E-05 -.298E+04   0.277E-06 -.190E-05 -.389E+01   0.176E-03 0.106E-03 0.794E-04
   0.253E-03 0.137E+00 0.143E+04   -.324E-03 -.137E+00 -.143E+04   0.504E-05 -.684E-05 -.435E-01   0.523E-04 0.632E-05 0.849E-03
   -.390E+00 0.909E-03 0.143E+04   0.390E+00 -.919E-03 -.143E+04   -.721E-04 -.825E-05 0.203E+00   -.829E-04 -.787E-05 0.426E-03
   -.585E+00 0.299E+00 -.132E+02   0.582E+00 -.301E+00 0.141E+02   0.546E-03 0.159E-03 -.138E+00   -.599E-04 0.369E-04 0.833E-03
   -.107E-02 0.523E-05 -.170E+01   0.116E-02 -.538E-05 0.603E+00   -.441E-05 -.311E-06 0.346E+00   -.669E-04 -.149E-05 0.802E-03
   0.246E-01 0.131E+01 -.140E+04   -.246E-01 -.131E+01 0.140E+04   -.267E-03 0.993E-03 0.731E-02   -.333E-04 0.183E-04 0.906E-03
   -.563E+01 0.296E-02 -.143E+04   0.563E+01 -.366E-02 0.143E+04   -.304E-02 0.729E-03 -.489E-01   -.480E-04 -.273E-05 0.926E-03
   -.340E+02 0.142E+02 -.274E+04   0.340E+02 -.142E+02 0.274E+04   0.126E-03 -.247E-02 -.169E+00   0.844E-04 0.483E-05 0.116E-02
   -.913E-02 0.212E-03 -.283E+04   0.916E-02 -.233E-03 0.283E+04   -.661E-05 0.252E-05 0.949E+00   -.555E-05 0.221E-05 0.111E-02
   0.142E+01 -.575E+00 0.280E+04   -.142E+01 0.576E+00 -.281E+04   0.348E-03 -.105E-02 0.437E+00   -.403E-03 0.209E-03 0.109E-02
   -.631E-04 -.104E+01 0.298E+04   0.663E-04 0.104E+01 -.298E+04   -.252E-05 -.146E-03 -.390E+01   0.856E-05 0.165E-03 0.677E-03
   0.828E-03 -.135E+00 0.143E+04   -.854E-03 0.139E+00 -.143E+04   0.746E-05 -.735E-03 -.437E-01   0.141E-05 -.695E-04 0.107E-02
   0.388E+00 -.200E+00 0.143E+04   -.388E+00 0.201E+00 -.143E+04   -.369E-04 -.506E-05 0.204E+00   0.329E-04 -.535E-04 0.318E-03
   0.585E+00 -.298E+00 -.133E+02   -.582E+00 0.301E+00 0.141E+02   -.547E-03 -.158E-03 -.138E+00   0.123E-03 -.394E-04 0.803E-03
   0.831E-02 -.240E+00 -.108E+01   -.851E-02 0.226E+00 0.151E-01   0.371E-04 0.909E-02 0.339E+00   -.331E-04 -.240E-05 0.788E-03
   0.104E-01 -.313E+01 -.139E+04   -.104E-01 0.315E+01 0.139E+04   -.348E-04 -.226E-01 0.149E-01   -.371E-04 -.840E-04 0.832E-03
   0.437E+01 -.338E+01 -.143E+04   -.437E+01 0.338E+01 0.143E+04   0.220E-02 -.203E-02 -.485E-01   0.103E-03 -.368E-05 0.104E-02
   0.339E+02 -.142E+02 -.274E+04   -.339E+02 0.142E+02 0.274E+04   -.120E-03 0.246E-02 -.169E+00   -.691E-04 -.170E-03 0.973E-03
   0.208E+00 -.341E+02 -.280E+04   -.206E+00 0.342E+02 0.280E+04   -.234E-02 -.192E-01 0.997E+00   -.228E-04 -.545E-05 0.894E-03
   0.114E+01 -.564E+00 0.280E+04   -.114E+01 0.564E+00 -.281E+04   0.255E-03 0.106E-02 0.437E+00   -.303E-03 0.996E-04 0.651E-03
   0.394E-03 -.605E-04 0.298E+04   -.445E-03 -.325E-05 -.298E+04   0.367E-05 -.129E-05 -.389E+01   0.478E-04 0.729E-04 0.412E-03
   0.801E-03 -.137E+00 0.143E+04   -.838E-03 0.139E+00 -.143E+04   0.574E-05 -.517E-03 -.438E-01   0.130E-04 0.619E-04 0.983E-03
   0.386E+00 0.960E-03 0.143E+04   -.386E+00 -.978E-03 -.143E+04   -.100E-03 -.448E-05 0.202E+00   0.304E-04 -.297E-05 0.287E-03
   0.788E+00 -.305E+00 -.139E+02   -.786E+00 0.312E+00 0.147E+02   -.388E-03 -.390E-03 -.140E+00   0.113E-03 -.418E-04 0.788E-03
[...]
   -.531E+02 0.840E-01 0.857E+03   0.571E+02 -.845E-01 -.857E+03   -.355E+01 0.135E-02 0.155E+00   0.273E-04 0.296E-05 0.464E-03
   0.531E+02 0.846E-01 0.857E+03   -.571E+02 -.852E-01 -.857E+03   0.355E+01 0.140E-02 0.155E+00   -.277E-04 0.159E-04 0.468E-03
   0.223E+00 -.199E-02 0.384E+03   -.222E+00 0.222E-02 -.388E+03   -.185E-02 -.516E-03 0.414E+01   0.580E-04 0.328E-06 0.578E-03
   0.641E+00 -.646E-02 -.416E+03   -.637E+00 0.664E-02 0.423E+03   -.302E-02 -.443E-03 -.717E+01   0.730E-04 0.257E-05 0.514E-03
   -.555E+02 0.385E-01 -.140E+01   0.602E+02 -.401E-01 0.115E+01   -.519E+01 0.153E-01 0.343E+00   -.393E-04 0.101E-04 0.498E-03
   0.555E+02 0.338E-01 -.140E+01   -.602E+02 -.352E-01 0.115E+01   0.519E+01 0.150E-01 0.343E+00   0.382E-04 0.267E-04 0.495E-03
   0.126E-02 0.434E-03 -.450E+03   -.125E-02 -.469E-03 0.444E+03   0.386E-07 0.337E-04 0.651E+01   -.817E-05 -.708E-05 0.595E-03
   0.813E-02 -.387E-03 -.119E+04   -.848E-02 0.418E-03 0.118E+04   0.369E-03 -.281E-04 0.241E+01   -.153E-04 0.248E-05 0.446E-03
   -.248E+02 0.182E+01 -.842E+03   0.277E+02 -.184E+01 0.841E+03   -.298E+01 0.174E-01 0.871E+00   0.598E-04 0.248E-04 0.592E-03
   0.248E+02 0.185E+01 -.842E+03   -.277E+02 -.187E+01 0.841E+03   0.298E+01 0.200E-01 0.877E+00   -.424E-04 0.382E-04 0.564E-03
   0.114E+02 -.132E+00 -.134E+04   -.114E+02 0.139E+00 0.134E+04   0.665E-01 -.773E-02 -.225E+01   0.203E-04 0.967E-06 0.538E-03
   0.395E+02 -.122E-01 -.201E+04   -.395E+02 0.919E-02 0.203E+04   0.388E-01 0.272E-02 -.207E+02   -.111E-03 -.272E-05 0.852E-04
   -.393E+02 0.217E+02 -.171E+04   0.452E+02 -.217E+02 0.171E+04   -.590E+01 -.222E-01 -.353E+01   -.604E-05 -.362E-04 0.397E-03
   0.394E+02 0.216E+02 -.171E+04   -.453E+02 -.216E+02 0.171E+04   0.590E+01 -.318E-01 -.345E+01   -.400E-04 -.220E-04 0.374E-03
   0.328E-02 0.243E-02 0.951E+02   -.448E-12 0.444E-12 0.293E-10   -.113E-02 -.253E-02 -.953E+02   -.296E-04 -.167E-04 0.134E+00

 POSITION                                       TOTAL-FORCE (eV/Angst)
      6.50283      5.91521     20.84815         0.000193     -0.002691      0.083459
      6.45148      6.81152     21.47744         0.002857     -0.017654     -0.004208
      6.55428      5.01888     21.47756        -0.002968      0.020068     -0.005776
      7.41975      5.96590     20.24620         0.027024     -0.000624      0.019844
      5.58571      5.86437     20.24640        -0.025692      0.000919      0.020720
      9.75299      7.39399      4.79682         0.001016     -0.000238     -3.579290
      0.00000      8.87278      4.79682        -0.000013      0.000442      2.634139
      0.00000      7.39399      8.04782         0.000009      0.000380      0.518739
      9.75299      8.87278      8.04782        -0.000126      0.000531     -0.713126
      9.75299      7.39399     11.29882        -0.002821      0.000853      0.707483
      0.00000      8.87278     11.29882         0.000190      0.001861     -0.745697
     13.00396      7.39418     14.48037         0.000362      0.000172      0.067556
      9.75326      8.87324     14.68169         0.001393     -0.003396     -0.027326
      9.75451      7.39556     18.02920         0.013361      0.012355      0.108739
      0.00033      8.87376     17.65877         0.000189     -0.000260      0.169730
      9.75299     10.35158      4.79682         0.000745      0.001595     -3.579874
      0.00000      0.00000      4.79682        -0.000009      0.000014      2.635650
      0.00000     10.35158      8.04782         0.000013     -0.000038      0.518850
      9.75299      0.00000      8.04782        -0.000328      0.000026     -0.714118
      9.75299     10.35158     11.29882        -0.001132      0.007340      0.712669
      0.00000      0.00000     11.29882        -0.000001      0.000001     -0.746431
     13.00393     10.35182     14.48087        -0.000096     -0.001512      0.067034
      9.75247      0.00004     14.68348         0.003567      0.000059     -0.024194
      9.75128     10.35197     18.03541         0.001064      0.003912      0.119995
     13.00398     11.83038     17.65902        -0.000013      0.000021      0.172203
      9.75299      1.47880      4.79682         0.000752     -0.001617     -3.579829
      0.00000      2.95759      4.79682        -0.000001     -0.000451      2.634135
      0.00000      1.47880      8.04782        -0.000018      0.000044      0.518845
      9.75299      2.95759      8.04782        -0.000124     -0.000528     -0.712913
      9.75299      1.47880     11.29882        -0.001127     -0.005853      0.713659
      0.00000      2.95759     11.29882        -0.000185     -0.001859     -0.745691
      0.00006      1.47856     14.48087         0.000082      0.001530      0.067038
      9.75326      2.95717     14.68204         0.001421      0.003219     -0.027381
      9.75103      1.47862     18.03555         0.000681     -0.003560      0.120104
     13.00367      2.95662     17.65877        -0.000194      0.000259      0.169740
      9.75299      4.43639      4.79682         0.001020      0.000262     -3.579244
      0.00000      5.91519      4.79682        -0.000005     -0.000003      2.636223
      0.00000      4.43639      8.04782        -0.000022     -0.000384      0.518735
      9.75299      5.91519      8.04782         0.000071     -0.000026     -0.714833
      9.75299      4.43639     11.29882        -0.002817     -0.002339      0.708521
      0.00000      5.91519     11.29882         0.000006     -0.000001     -0.747605
      0.00002      4.43620     14.48037        -0.000375     -0.000188      0.067560
      9.75358      5.91515     14.68176        -0.000664      0.000026     -0.027457
      9.75379      4.43532     18.03030         0.012776     -0.012074      0.109412
      0.00001      5.91519     17.65823         0.000008     -0.000016      0.171317
      3.25100      7.39399      4.79682        -0.001025     -0.000258     -3.579236
      6.50199      8.87278      4.79682         0.000000      0.001002      2.636829
      6.50199      7.39399      8.04782        -0.000026      0.003137      0.519334
      3.25100      8.87278      8.04782         0.000106      0.000530     -0.712910
      3.25100      7.39399     11.29882         0.002800      0.002322      0.708573
      6.50199      8.87278     11.29882        -0.000201     -0.004962     -0.720413
      6.50198      7.39030     14.48965        -0.000067     -0.001611      0.065750
      3.25072      8.87320     14.68205        -0.001428     -0.003211     -0.027390
      3.25022      7.39505     18.03033        -0.012730      0.012034      0.109425
      6.50208      8.87248     17.65481        -0.000243      0.019414      0.165183
      3.25100     10.35158      4.79682        -0.000765      0.001611     -3.579822
      6.50199      0.00000      4.79682        -0.000008      0.000008      2.637995
      6.50199     10.35158      8.04782        -0.000026      0.001230      0.521183
      3.25100      0.00000      8.04782         0.000309     -0.000025     -0.714107
      3.25100     10.35158     11.29882         0.001110      0.005830      0.713681
[...]
      6.50199      5.91519      9.32220        -0.000007      0.000000     -0.094990
      4.52538      4.43639      8.04782         0.441825      0.000832      0.046213
      8.47860      4.43639      8.04782        -0.441849      0.000864      0.046229
      3.25100      5.91519     10.02443        -0.000584     -0.000291     -0.126364
      3.25100      5.91519     12.57320         0.001285     -0.000261      0.060195
      7.77637      4.43639     11.29882        -0.485067      0.013694      0.093322
      5.22761      4.43639     11.29882         0.484778      0.013623      0.093404
      6.50199      5.91519     13.29981        -0.000007     -0.000008     -0.035280
      6.50199      5.91519     15.86380        -0.000014      0.000006     -0.032938
      4.55308      4.43637     14.57527        -0.012307     -0.005096     -0.008216
      8.45091      4.43645     14.57512         0.012315     -0.004986     -0.008645
      3.24438      5.91546     16.54148        -0.003075     -0.001051      0.083093
      3.26188      5.91464     19.11442        -0.007719     -0.000264      0.087211
      7.72812      4.42967     17.96827         0.003896     -0.009232      0.088849
      5.27493      4.42915     17.96517        -0.006666     -0.010746      0.088337
    total drift:                                0.002121     -0.000116     -0.034802

  FREE ENERGIE OF THE ION-ELECTRON SYSTEM (eV)
  free  energy   TOTEN  =     -2143.65804170 eV

  energy  without entropy=    -2143.65804170  energy(sigma->0) =    -2143.65804170

 writing wavefunctions

     |            E. Caldeweyher, S. Ehlert & S. Grimme          |
     |          Mulliken Center for Theoretical Chemistry        |
     |                    University of Bonn                     |

Rational (Becke-Johnson) damping: hse06-D4-ATM
  s6         1.0000
  s8         1.1953
  s9         1.0000
  a1         0.3866
  a2         5.1913
 alp        16.0000

Dispersion energy:      -1.4429725006794E+00 Eh