 vasp.6.4.2 20Jul23 (build Feb 22 2024 13:53:45) complex
 executed on              LinuxNV date 2024.08.28  19:00:11
 OpenACC runtime initialized ...    4 GPUs detected

 INCAR:
   SYSTEM = Oxide-Surface
   ISMEAR = 0
   SIGMA = 0.05
   EDIFF = 1E-5
   ALGO = Normal
   IBRION = -1
   NSW = 0
   ISYM = 0
   DIPOL = 0.5 0.5 0.5
   IDIPOL = 3
   LDIPOL = .TRUE.
   ISTART = 1
   LHFCALC = .TRUE.
   HFSCREEN = 0.2
   GGA = PE
   HFRCUT = -1
   ENCUT = 520
   PREC = Normal
   PRECFOCK = Normal
   LASPH = .TRUE.
   LREAL = Auto
   ISPIN = 1
   NELM = 200
   NELMIN = 8
   NCORE = 1
   KPAR = 1
   LWAVE = .FALSE.
   LCHARG = .FALSE.

 POTCAR:    PAW_PBE C 08Apr2002
 POTCAR:    PAW_PBE H 15Jun2001
 POTCAR:    PAW_PBE Ti_pv 07Sep2000
 POTCAR:    PAW_PBE O 08Apr2002
 POTCAR:    PAW_PBE C 08Apr2002
   VRHFIN =C: s2p2

   TITEL  = PAW_PBE C 08Apr2002
   POMASS =   12.011; ZVAL   =    4.000    mass and valenz
   ENMAX  =  400.000; ENMIN  =  300.000 eV

   TITEL  = PAW_PBE H 15Jun2001
   POMASS =    1.000; ZVAL   =    1.000    mass and valenz
   ENMAX  =  250.000; ENMIN  =  200.000 eV

   TITEL  = PAW_PBE Ti_pv 07Sep2000
   POMASS =   47.880; ZVAL   =   10.000    mass and valenz
   ENMAX  =  222.335; ENMIN  =  166.751 eV

   TITEL  = PAW_PBE O 08Apr2002
   POMASS =   16.000; ZVAL   =    6.000    mass and valenz
   ENMAX  =  400.000; ENMIN  =  300.000 eV

 Optimization of the real space projectors (new method)

 maximal supplied QI-value         = 25.13
 optimisation between [QCUT,QGAM] = [ 11.56, 23.12] = [ 37.43,149.72] Ry
 Optimized for a Real-space Cutoff    1.04 Angstroem

   l    n(q)    QCUT    max X(q) W(low)/X(q) W(high)/X(q)  e(spline)
   0      7    11.561   115.676    0.20E-03    0.60E-03    0.21E-06
   0      7    11.561    87.132    0.20E-03    0.59E-03    0.21E-06
   1      7    11.561     4.429    0.23E-03    0.35E-03    0.15E-06
   1      7    11.561     2.733    0.18E-03    0.25E-03    0.12E-06
 Optimization of the real space projectors (new method)

[...]

   l    n(q)    QCUT    max X(q) W(low)/X(q) W(high)/X(q)  e(spline)
   1     10    11.641     4.216    0.33E-04    0.72E-04    0.48E-07
   1     10    11.641     5.422    0.11E-03    0.20E-03    0.10E-06
   2      9    11.641    72.084    0.36E-03    0.27E-03    0.57E-06
   2      9    11.641    65.965    0.35E-03    0.27E-03    0.57E-06
   0     10    11.641    41.531    0.11E-03    0.93E-04    0.16E-06
   0     10    11.641    16.290    0.82E-04    0.72E-04    0.13E-06
 Optimization of the real space projectors (new method)

 maximal supplied QI-value         = 24.76
 optimisation between [QCUT,QGAM] = [ 11.64, 23.27] = [ 37.91,151.63] Ry
 Optimized for a Real-space Cutoff    1.04 Angstroem

   l    n(q)    QCUT    max X(q) W(low)/X(q) W(high)/X(q)  e(spline)
   0      7    11.635    20.381    0.14E-03    0.49E-03    0.18E-06
   0      7    11.635    15.268    0.16E-03    0.52E-03    0.19E-06
   1      7    11.635     5.964    0.30E-03    0.44E-03    0.22E-06
   1      7    11.635     5.382    0.27E-03    0.34E-03    0.19E-06
  PAW_PBE C 08Apr2002                   :
  PAW_PBE H 15Jun2001                   :
  PAW_PBE Ti_pv 07Sep2000               :
  PAW_PBE O 08Apr2002                   :

 POSCAR:  C  H Ti  O
  positions in direct lattice
 exchange correlation table for  LEXCH =        8
   RHO(1)=    0.500       N(1)  =     2000
   RHO(2)=  100.500       N(2)  =     4000

 ion  position               nearest neighbor table
   1  0.500  0.500  0.834-   2 1.10   3 1.10   4 1.10   5 1.10
   2  0.496  0.576  0.859-   1 1.10
   3  0.504  0.424  0.859-   1 1.10
   4  0.571  0.504  0.810-   1 1.10
   5  0.430  0.496  0.810-   1 1.10
   6  0.750  0.625  0.192-  87 1.95 147 1.95 146 1.95  86 1.95  89 1.98 168 1.98  16 2.96  36 2.96

   7  0.000  0.750  0.192-  88 1.95 108 1.95  89 1.95 109 1.95  90 1.98  37 2.96  17 2.96
   8  0.000  0.625  0.322-  90 1.95 150 1.95  91 1.95 151 1.95  93 1.98  92 1.98  18 2.96  38 2.96

[...]

  85  0.500  0.500  0.707- 239 1.82 244 1.95 185 1.95 184 1.95 245 1.95  75 2.96  55 2.96
  86  0.750  0.750  0.141-   6 1.95  16 1.95
  87  0.750  0.750  0.243-   6 1.95  16 1.95   9 1.98
  88  0.098  0.625  0.192-   7 1.95  37 1.95  46 1.98
  89  0.902  0.625  0.192-   7 1.95  37 1.95   6 1.98
  90  0.000  0.750  0.271-   8 1.95  18 1.95   7 1.98
  91  0.000  0.750  0.373-   8 1.95  18 1.95  11 1.98
  92  0.848  0.625  0.322-   9 1.95  39 1.95   8 1.98
  93  0.152  0.625  0.322-  49 1.95  79 1.95   8 1.98
  94  0.750  0.750  0.401-  10 1.95  20 1.95   9 1.98
  95  0.750  0.750  0.503-  10 1.95  20 1.95  13 2.11
  96  0.098  0.625  0.452-  11 1.95  41 1.95  50 1.98
  97  0.902  0.625  0.452-  11 1.95  41 1.95  10 1.98
  98  0.000  0.750  0.532-  22 1.90  12 1.90  11 2.00
  99  0.000  0.750  0.634-  15 1.81  12 2.02  22 2.02
 100  0.850  0.625  0.583-  12 1.95  13 1.97  43 1.97
 101  0.150  0.625  0.583-  12 1.95  53 1.97  83 1.97
 102  0.750  0.750  0.662-  13 1.86  14 2.10  24 2.10
 103  0.750  0.750  0.765-  14 1.83  24 1.83
 104  0.094  0.625  0.719-  45 1.95  15 1.95  54 2.03
 105  0.906  0.625  0.719-  45 1.95  15 1.95  14 2.03
 106  0.750  0.000  0.141-  16 1.95  26 1.95
 107  0.750  0.000  0.243-  16 1.95  26 1.95  19 1.98
 108  0.098  0.875  0.192-   7 1.95  17 1.95  56 1.98
 109  0.902  0.875  0.192-   7 1.95  17 1.95  16 1.98
 110  0.000  0.000  0.271-  18 1.95  28 1.95  17 1.98
 111  0.000  0.000  0.373-  18 1.95  28 1.95  21 1.98
 112  0.848  0.875  0.322-   9 1.95  19 1.95  18 1.98
 113  0.152  0.875  0.322-  49 1.95  59 1.95  18 1.98
 114  0.750  0.000  0.401-  20 1.95  30 1.95  19 1.98
 115  0.750  0.000  0.503-  20 1.95  30 1.95  23 2.11
 116  0.098  0.875  0.452-  11 1.95  21 1.95  60 1.98
 117  0.902  0.875  0.452-  11 1.95  21 1.95  20 1.98
 118  0.000  0.000  0.532-  32 1.89  22 1.89  21 2.00
 119  1.000  0.000  0.634-  25 1.81  32 2.02  22 2.02
 120  0.850  0.875  0.583-  22 1.95  13 1.97  23 1.97
 121  0.150  0.875  0.583-  22 1.95  53 1.97  63 1.97
 122  0.750  0.000  0.662-  23 1.86  24 2.10  34 2.10
 123  0.750  0.000  0.765-  24 1.83  34 1.83
 124  0.094  0.875  0.719-  15 1.95  25 1.95  64 2.03
 125  0.906  0.875  0.719-  15 1.95  25 1.95  24 2.03
 126  0.750  0.250  0.141-  26 1.95  36 1.95
 127  0.750  0.250  0.243-  26 1.95  36 1.95  29 1.98
 128  0.098  0.125  0.192-  17 1.95  27 1.95  66 1.98
 129  0.902  0.125  0.192-  17 1.95  27 1.95  26 1.98
 130  0.000  0.250  0.271-  28 1.95  38 1.95  27 1.98
 131  0.000  0.250  0.373-  28 1.95  38 1.95  31 1.98
 132  0.848  0.125  0.322-  19 1.95  29 1.95  28 1.98
 133  0.152  0.125  0.322-  59 1.95  69 1.95  28 1.98
 134  0.750  0.250  0.401-  30 1.95  40 1.95  29 1.98
 135  0.750  0.250  0.503-  30 1.95  40 1.95  33 2.11
 136  0.098  0.125  0.452-  21 1.95  31 1.95  70 1.98
 137  0.902  0.125  0.452-  21 1.95  31 1.95  30 1.98
 138  0.000  0.250  0.532-  32 1.90  42 1.90  31 2.00
 139  1.000  0.250  0.634-  35 1.81  42 2.02  32 2.02
 140  0.850  0.125  0.583-  32 1.95  33 1.97  23 1.97
 141  0.150  0.125  0.583-  32 1.95  73 1.97  63 1.97
 142  0.750  0.250  0.662-  33 1.86  44 2.10  34 2.10
 143  0.750  0.250  0.765-  44 1.83  34 1.83
 144  0.094  0.125  0.719-  35 1.95  25 1.95  74 2.03
[...]
 231  0.500  0.500  0.373-  48 1.95  78 1.95  81 1.98
 232  0.348  0.375  0.322-  69 1.95  79 1.95  78 1.98
 233  0.652  0.375  0.322-  29 1.95  39 1.95  78 1.98
 234  0.250  0.500  0.401-  50 1.95  80 1.95  79 1.98
 235  0.250  0.500  0.503-  50 1.95  80 1.95  83 2.11
 236  0.598  0.375  0.452-  71 1.95  81 1.95  40 1.98
 237  0.402  0.375  0.452-  71 1.95  81 1.95  80 1.98
 238  0.500  0.500  0.532-  52 1.90  82 1.90  81 2.00
 239  0.500  0.500  0.635-  85 1.82  82 2.02  52 2.02
 240  0.350  0.375  0.583-  82 1.95  83 1.97  73 1.97
 241  0.650  0.375  0.583-  82 1.95  43 1.97  33 1.97
 242  0.249  0.500  0.662-  83 1.86  84 2.10  54 2.10
 243  0.251  0.500  0.765-  54 1.83  84 1.84
 244  0.594  0.374  0.719-  75 1.94  85 1.95  44 2.03
 245  0.406  0.374  0.719-  75 1.94  85 1.95  84 2.03

IMPORTANT INFORMATION: All symmetrisations will be switched off!
NOSYMM: (Re-)initialisation of all symmetry stuff for point group C_1.

                                     Primitive cell

  volume of cell :    3846.0501

  direct lattice vectors                    reciprocal lattice vectors
    13.003980404  0.000000000  0.000000000     0.076899531  0.000000000  0.000000000
     0.000000000 11.830378115  0.000000000     0.000000000  0.084528152  0.000000000
     0.000000000  0.000000000 25.000000000     0.000000000  0.000000000  0.040000000

  length of vectors
    13.003980404 11.830378115 25.000000000     0.076899531  0.084528152  0.040000000

  position of ions in fractional coordinates (direct lattice)
     0.500064753  0.500001971  0.833925908
     0.496116025  0.575765153  0.859097683
     0.504021055  0.424236392  0.859102374
     0.570575345  0.504286181  0.809848038
     0.429538220  0.495704177  0.809856132
     0.750000008  0.625000007  0.191872994
     0.000000008  0.750000007  0.191872994
     0.000000008  0.625000007  0.321912798
     0.750000008  0.750000007  0.321912798
     0.750000008  0.625000007  0.451952602
     0.000000008  0.750000007  0.451952602
     0.999998729  0.625016586  0.579214663
     0.750021378  0.750038300  0.587267412
     0.750117211  0.625133254  0.721168073
     0.000025095  0.750082334  0.706350679
     0.750000008  0.875000007  0.191872994
     0.000000008  0.000000007  0.191872994
     0.000000008  0.875000007  0.321912798
     0.750000008  0.000000007  0.321912798
     0.750000008  0.875000007  0.451952602
     0.000000008  0.000000007  0.451952602
     0.999995895  0.875019834  0.579234708
     0.749960162  0.000003641  0.587339263
     0.749868689  0.875032817  0.721416409
     0.999999847  0.999999993  0.706360792
     0.750000008  0.125000007  0.191872994
     0.000000008  0.250000007  0.191872994
     0.000000008  0.125000007  0.321912798
     0.750000008  0.250000007  0.321912798
     0.750000008  0.125000007  0.451952602
     0.000000008  0.250000007  0.451952602
     0.000004299  0.124980173  0.579234710
     0.750020916  0.249964339  0.587281564
     0.749849713  0.124984901  0.721421855
     0.999975965  0.249917711  0.706350689
     0.750000008  0.375000007  0.191872994
     0.000000008  0.500000007  0.191872994
     0.000000008  0.375000007  0.321912798
     0.750000008  0.500000007  0.321912798
     0.750000008  0.375000007  0.451952602
     0.000000008  0.500000007  0.451952602
     0.000001195  0.374983469  0.579214669
     0.750045966  0.499996875  0.587270533
     0.750061553  0.374909750  0.721212007
     0.000000696  0.500000012  0.706329162
     0.250000008  0.625000007  0.191872994
     0.500000008  0.750000007  0.191872994
     0.500000008  0.625000007  0.321912798
     0.250000008  0.750000007  0.321912798
     0.250000008  0.625000007  0.451952602
     0.500000008  0.750000007  0.451952602
     0.499999026  0.624688363  0.579585883
     0.249979194  0.750035526  0.587281864
     0.249940088  0.625089729  0.721213004
     0.500006830  0.749974620  0.706192418
     0.250000008  0.875000007  0.191872994
     0.500000008  0.000000007  0.191872994
     0.500000008  0.875000007  0.321912798
[...]
   0.227E+01 -.436E+02 -.220E+03   -.252E+01 0.479E+02 0.223E+03   0.255E+00 -.439E+01 -.311E+01   -.393E-05 -.369E-03 -.213E-01
   -.227E+01 0.436E+02 -.220E+03   0.252E+01 -.479E+02 0.223E+03   -.255E+00 0.439E+01 -.311E+01   0.517E-05 0.370E-03 -.213E-01
   -.356E+02 -.244E+01 -.254E+03   0.402E+02 0.269E+01 0.251E+03   -.461E+01 -.249E+00 0.274E+01   0.686E-03 0.318E-05 -.245E-01
   0.356E+02 0.245E+01 -.254E+03   -.403E+02 -.270E+01 0.251E+03   0.461E+01 0.250E+00 0.273E+01   -.684E-03 -.324E-05 -.245E-01
   -.142E+01 -.576E+00 0.280E+04   0.142E+01 0.577E+00 -.281E+04   -.438E-03 -.756E-02 0.614E+00   -.117E-03 -.285E-04 0.202E+00
   -.709E-04 -.592E+00 0.299E+04   0.608E-04 0.593E+00 -.298E+04   0.213E-05 -.784E-04 -.420E+01   0.223E-05 -.195E-04 0.201E+00
   -.916E-03 -.137E+00 0.143E+04   0.953E-03 0.137E+00 -.143E+04   -.728E-05 -.487E-02 -.868E-01   -.214E-05 0.260E-04 0.165E+00
   -.388E+00 -.200E+00 0.143E+04   0.388E+00 0.201E+00 -.143E+04   0.313E-04 -.555E-04 0.234E+00   0.495E-04 0.979E-05 0.163E+00
   -.583E+00 -.283E+00 -.132E+02   0.578E+00 0.284E+00 0.141E+02   0.841E-03 0.806E-02 -.171E+00   0.271E-03 0.816E-04 0.616E-01
   -.118E-01 -.445E+00 -.232E+01   0.121E-01 0.448E+00 0.104E+01   -.768E-04 -.100E-02 0.391E+00   -.376E-05 0.930E-04 0.565E-01
   -.324E-01 -.131E+01 -.140E+04   0.325E-01 0.131E+01 0.140E+04   0.258E-02 -.403E-02 0.166E+00   0.353E-05 0.130E-03 -.541E-01
   -.434E+01 -.338E+01 -.143E+04   0.434E+01 0.338E+01 0.143E+04   -.143E-02 -.870E-02 -.255E+00   0.714E-03 0.358E-03 -.643E-01
   -.342E+02 -.140E+02 -.274E+04   0.342E+02 0.140E+02 0.274E+04   0.927E-02 -.325E-02 -.474E+00   0.185E-02 0.804E-03 -.183E+00
   -.542E-01 -.476E+01 -.283E+04   0.536E-01 0.477E+01 0.283E+04   0.171E-02 -.500E-02 0.127E+01   0.131E-04 0.417E-03 -.171E+00
   -.114E+01 -.563E+00 0.280E+04   0.114E+01 0.564E+00 -.281E+04   -.320E-03 0.750E-02 0.614E+00   -.803E-04 -.341E-04 0.202E+00
   -.427E-03 0.565E-05 0.299E+04   0.431E-03 -.258E-05 -.298E+04   0.640E-06 0.141E-05 -.418E+01   -.175E-05 -.504E-05 0.201E+00
   -.914E-03 -.137E+00 0.143E+04   0.952E-03 0.137E+00 -.143E+04   -.571E-05 0.482E-02 -.869E-01   -.555E-05 -.675E-05 0.165E+00
   -.386E+00 -.962E-03 0.143E+04   0.386E+00 0.992E-03 -.143E+04   0.105E-03 -.140E-05 0.229E+00   0.616E-04 -.241E-05 0.163E+00
   -.783E+00 -.321E+00 -.138E+02   0.781E+00 0.329E+00 0.147E+02   0.403E-03 -.905E-02 -.172E+00   0.206E-03 0.102E-03 0.618E-01
   -.625E-03 0.211E-04 -.275E+01   0.633E-03 -.182E-04 0.147E+01   -.222E-05 -.371E-06 0.394E+00   0.334E-05 -.269E-06 0.566E-01
   -.511E-01 -.124E+01 -.140E+04   0.510E-01 0.125E+01 0.140E+04   -.606E-04 -.545E-02 0.159E+00   0.519E-05 0.152E-03 -.540E-01
   -.329E+01 -.141E-02 -.144E+04   0.329E+01 0.172E-02 0.144E+04   0.428E-02 -.950E-04 -.239E+00   0.563E-03 0.703E-05 -.642E-01
   -.126E+02 -.996E+01 -.276E+04   0.126E+02 0.996E+01 0.276E+04   0.180E-01 0.101E-01 -.484E+00   0.864E-03 0.433E-03 -.184E+00
   -.352E-02 -.310E-03 -.284E+04   0.352E-02 0.344E-03 0.284E+04   -.101E-04 -.579E-05 0.130E+01   0.472E-05 -.687E-05 -.171E+00
   -.114E+01 0.564E+00 0.280E+04   0.114E+01 -.564E+00 -.281E+04   -.321E-03 -.751E-02 0.614E+00   -.866E-04 0.364E-04 0.202E+00
   -.933E-03 0.592E+00 0.299E+04   0.949E-03 -.593E+00 -.298E+04   -.143E-05 0.775E-04 -.420E+01   -.467E-05 0.210E-04 0.201E+00
   0.387E-03 0.137E+00 0.143E+04   -.410E-03 -.137E+00 -.143E+04   0.739E-05 -.482E-02 -.869E-01   0.254E-05 0.602E-05 0.165E+00
   -.388E+00 0.200E+00 0.143E+04   0.388E+00 -.201E+00 -.143E+04   0.336E-04 0.589E-04 0.234E+00   0.533E-04 -.672E-05 0.163E+00
   -.788E+00 0.305E+00 -.138E+02   0.786E+00 -.312E+00 0.147E+02   0.443E-03 0.886E-02 -.172E+00   0.220E-03 -.915E-04 0.618E-01
   0.995E-02 0.445E+00 -.232E+01   -.102E-01 -.448E+00 0.104E+01   0.683E-04 0.100E-02 0.391E+00   0.100E-06 -.881E-04 0.565E-01
   0.473E-01 0.124E+01 -.140E+04   -.471E-01 -.124E+01 0.140E+04   0.607E-04 0.545E-02 0.159E+00   -.668E-05 -.151E-03 -.540E-01
   -.437E+01 0.338E+01 -.143E+04   0.437E+01 -.338E+01 0.143E+04   -.144E-02 0.673E-02 -.255E+00   0.732E-03 -.367E-03 -.643E-01
   -.126E+02 0.989E+01 -.276E+04   0.126E+02 -.989E+01 0.276E+04   0.182E-01 -.905E-02 -.484E+00   0.869E-03 -.413E-03 -.184E+00
   0.409E-01 0.476E+01 -.283E+04   -.403E-01 -.477E+01 0.283E+04   -.163E-02 0.500E-02 0.127E+01   -.997E-05 -.413E-03 -.171E+00
   -.142E+01 0.575E+00 0.280E+04   0.142E+01 -.576E+00 -.281E+04   -.434E-03 0.757E-02 0.614E+00   -.959E-04 0.221E-04 0.202E+00
   -.583E-03 -.133E-05 0.298E+04   0.582E-03 0.265E-05 -.298E+04   0.776E-06 -.155E-06 -.418E+01   0.314E-05 -.283E-05 0.201E+00
   0.301E-03 0.137E+00 0.143E+04   -.324E-03 -.137E+00 -.143E+04   0.835E-05 0.487E-02 -.868E-01   -.175E-05 -.209E-04 0.165E+00
   -.390E+00 0.898E-03 0.143E+04   0.390E+00 -.919E-03 -.143E+04   -.647E-04 0.752E-06 0.230E+00   0.446E-04 -.640E-05 0.163E+00
   -.586E+00 0.298E+00 -.132E+02   0.582E+00 -.301E+00 0.141E+02   0.874E-03 -.787E-02 -.171E+00   0.267E-03 -.943E-04 0.616E-01
   -.114E-02 0.788E-05 -.189E+01   0.116E-02 -.538E-05 0.603E+00   -.375E-05 0.160E-06 0.394E+00   -.179E-05 -.399E-05 0.564E-01
   0.245E-01 0.131E+01 -.140E+04   -.246E-01 -.131E+01 0.140E+04   -.258E-02 0.404E-02 0.166E+00   -.112E-05 -.133E-03 -.541E-01
   -.563E+01 0.267E-02 -.143E+04   0.563E+01 -.366E-02 0.143E+04   -.501E-02 0.688E-03 -.252E+00   0.880E-03 -.203E-05 -.647E-01
   -.340E+02 0.142E+02 -.274E+04   0.340E+02 -.142E+02 0.274E+04   0.648E-02 0.533E-02 -.472E+00   0.183E-02 -.823E-03 -.183E+00
   -.913E-02 0.205E-03 -.283E+04   0.916E-02 -.233E-03 0.283E+04   0.207E-04 0.348E-05 0.128E+01   -.998E-06 0.506E-05 -.171E+00
   0.142E+01 -.575E+00 0.280E+04   -.142E+01 0.576E+00 -.281E+04   0.440E-03 -.757E-02 0.614E+00   0.110E-03 -.254E-04 0.202E+00
   -.479E-04 -.104E+01 0.298E+04   0.663E-04 0.104E+01 -.298E+04   -.179E-05 -.191E-03 -.420E+01   -.773E-05 -.745E-04 0.201E+00
   0.817E-03 -.135E+00 0.143E+04   -.854E-03 0.139E+00 -.143E+04   0.978E-05 -.565E-02 -.871E-01   0.274E-05 0.285E-04 0.165E+00
   0.388E+00 -.200E+00 0.143E+04   -.388E+00 0.201E+00 -.143E+04   -.331E-04 -.609E-04 0.234E+00   -.503E-04 0.160E-04 0.162E+00
   0.586E+00 -.298E+00 -.132E+02   -.582E+00 0.301E+00 0.141E+02   -.876E-03 0.787E-02 -.171E+00   -.254E-03 0.892E-04 0.615E-01
   0.822E-02 -.243E+00 -.126E+01   -.851E-02 0.226E+00 0.151E-01   0.441E-04 0.881E-02 0.383E+00   0.613E-05 0.116E-03 0.560E-01
   0.103E-01 -.313E+01 -.139E+04   -.104E-01 0.315E+01 0.139E+04   0.376E-04 -.178E-01 0.154E+00   0.993E-05 0.537E-03 -.557E-01
   0.437E+01 -.338E+01 -.143E+04   -.437E+01 0.338E+01 0.143E+04   0.143E-02 -.672E-02 -.255E+00   -.726E-03 0.369E-03 -.643E-01
   0.339E+02 -.142E+02 -.274E+04   -.339E+02 0.142E+02 0.274E+04   -.642E-02 -.535E-02 -.472E+00   -.183E-02 0.832E-03 -.183E+00
   0.209E+00 -.342E+02 -.280E+04   -.206E+00 0.342E+02 0.280E+04   -.255E-02 -.430E-02 0.131E+01   -.220E-04 0.195E-02 -.171E+00
   0.114E+01 -.564E+00 0.280E+04   -.114E+01 0.564E+00 -.281E+04   0.323E-03 0.751E-02 0.614E+00   0.897E-04 -.453E-04 0.202E+00
   0.442E-03 0.663E-05 0.298E+04   -.445E-03 -.325E-05 -.298E+04   0.389E-06 0.184E-06 -.418E+01   0.263E-06 -.260E-05 0.201E+00
   0.808E-03 -.137E+00 0.143E+04   -.838E-03 0.139E+00 -.143E+04   0.824E-05 0.431E-02 -.873E-01   -.280E-05 -.165E-04 0.165E+00
   0.386E+00 0.958E-03 0.143E+04   -.386E+00 -.978E-03 -.143E+04   -.102E-03 0.335E-05 0.229E+00   -.676E-04 -.868E-05 0.163E+00
   0.788E+00 -.305E+00 -.138E+02   -.786E+00 0.312E+00 0.147E+02   -.441E-03 -.886E-02 -.172E+00   -.218E-03 0.991E-04 0.617E-01
[...]
   -.529E+02 0.839E-01 0.857E+03   0.571E+02 -.845E-01 -.857E+03   -.341E+01 0.754E-03 0.170E+00   0.292E-03 -.973E-05 0.987E-01
   0.529E+02 0.845E-01 0.857E+03   -.571E+02 -.852E-01 -.857E+03   0.341E+01 0.815E-03 0.170E+00   -.302E-03 -.505E-05 0.987E-01
   0.224E+00 -.192E-02 0.384E+03   -.222E+00 0.222E-02 -.388E+03   -.197E-02 -.511E-03 0.401E+01   -.910E-04 -.902E-05 0.639E-01
   0.642E+00 -.634E-02 -.415E+03   -.637E+00 0.664E-02 0.423E+03   -.250E-02 -.517E-03 -.697E+01   -.279E-03 -.526E-05 0.745E-02
   -.551E+02 0.372E-01 -.147E+01   0.602E+02 -.401E-01 0.115E+01   -.507E+01 0.168E-01 0.342E+00   0.272E-03 -.457E-04 0.353E-01
   0.551E+02 0.326E-01 -.147E+01   -.602E+02 -.352E-01 0.115E+01   0.507E+01 0.165E-01 0.342E+00   -.272E-03 -.510E-04 0.353E-01
   0.125E-02 0.427E-03 -.451E+03   -.125E-02 -.469E-03 0.444E+03   0.125E-05 0.331E-04 0.629E+01   -.965E-07 -.316E-05 -.875E-02
   0.807E-02 -.373E-03 -.119E+04   -.848E-02 0.418E-03 0.118E+04   0.363E-03 -.334E-04 0.221E+01   0.615E-06 -.245E-05 -.614E-01
   -.246E+02 0.181E+01 -.842E+03   0.277E+02 -.184E+01 0.841E+03   -.279E+01 0.150E-01 0.856E+00   -.116E-02 -.224E-03 -.358E-01
   0.246E+02 0.184E+01 -.842E+03   -.277E+02 -.187E+01 0.841E+03   0.279E+01 0.176E-01 0.861E+00   0.116E-02 -.218E-03 -.358E-01
   0.114E+02 -.132E+00 -.134E+04   -.114E+02 0.139E+00 0.134E+04   0.626E-01 -.798E-02 -.228E+01   -.959E-03 0.522E-05 -.758E-01
   0.395E+02 -.127E-01 -.200E+04   -.395E+02 0.919E-02 0.203E+04   0.247E-01 0.306E-02 -.199E+02   -.157E-02 0.276E-04 -.137E+00
   -.389E+02 0.217E+02 -.171E+04   0.452E+02 -.217E+02 0.171E+04   -.582E+01 -.113E-01 -.355E+01   0.154E-02 -.142E-02 -.111E+00
   0.389E+02 0.216E+02 -.171E+04   -.453E+02 -.216E+02 0.171E+04   0.582E+01 -.218E-01 -.347E+01   -.153E-02 -.141E-02 -.111E+00
   0.340E-02 0.249E-02 0.972E+02   -.448E-12 0.444E-12 0.293E-10   -.717E-03 -.247E-02 -.931E+02   0.677E-05 -.369E-05 0.631E+01

 POSITION                                       TOTAL-FORCE (eV/Angst)
      6.50283      5.91521     20.84815         0.000202     -0.002770      0.071449
      6.45148      6.81152     21.47744         0.013433     -0.208161     -0.140045
      6.55428      5.01888     21.47756        -0.013575      0.210599     -0.141642
      7.41975      5.96590     20.24620        -0.141654     -0.010752      0.138385
      5.58571      5.86437     20.24640         0.143010      0.011095      0.139214
      9.75299      7.39399      4.79682         0.001117     -0.000466     -4.039690
      0.00000      8.87278      4.79682        -0.000015      0.000499      3.224817
      0.00000      7.39399      8.04782         0.000020      0.000248      0.556573
      9.75299      8.87278      8.04782        -0.000141      0.000619     -0.812100
      9.75299      7.39399     11.29882        -0.003479      0.001056      0.777311
      0.00000      8.87278     11.29882         0.000238      0.002328     -0.843562
     13.00396      7.39418     14.48037         0.000451      0.000516     -0.007794
      9.75326      8.87324     14.68169         0.001491     -0.003199      0.160287
      9.75451      7.39556     18.02920         0.005581      0.019092      0.373873
      0.00033      8.87376     17.65877         0.000136      0.003056     -0.086787
      9.75299     10.35158      4.79682         0.000833      0.001993     -4.040281
      0.00000      0.00000      4.79682        -0.000006     -0.000000      3.226451
      0.00000     10.35158      8.04782         0.000018      0.000219      0.556742
      9.75299      0.00000      8.04782        -0.000371      0.000028     -0.812958
      9.75299     10.35158     11.29882        -0.001123      0.008009      0.783120
      0.00000      0.00000     11.29882         0.000000      0.000002     -0.844182
     13.00393     10.35182     14.48087        -0.000202     -0.000979     -0.008464
      9.75247      0.00004     14.68348         0.003353      0.000141      0.162900
      9.75128     10.35197     18.03541         0.000280      0.005126      0.386477
     13.00398     11.83038     17.65902        -0.000012      0.000021     -0.084260
      9.75299      1.47880      4.79682         0.000836     -0.002014     -4.040234
      0.00000      2.95759      4.79682         0.000002     -0.000497      3.224819
      0.00000      1.47880      8.04782        -0.000023     -0.000216      0.556747
      9.75299      2.95759      8.04782        -0.000141     -0.000616     -0.811851
      9.75299      1.47880     11.29882        -0.001124     -0.006352      0.784215
      0.00000      2.95759     11.29882        -0.000228     -0.002324     -0.843555
      0.00006      1.47856     14.48087         0.000186      0.000998     -0.008458
      9.75326      2.95717     14.68204         0.001439      0.003150      0.160162
      9.75103      1.47862     18.03555         0.000066     -0.004736      0.386562
     13.00367      2.95662     17.65877        -0.000145     -0.003054     -0.086776
      9.75299      4.43639      4.79682         0.001118      0.000494     -4.039644
      0.00000      5.91519      4.79682        -0.000007     -0.000002      3.227030
      0.00000      4.43639      8.04782        -0.000026     -0.000246      0.556571
      9.75299      5.91519      8.04782         0.000101     -0.000028     -0.813760
      9.75299      4.43639     11.29882        -0.003481     -0.002713      0.778448
      0.00000      5.91519     11.29882         0.000010     -0.000001     -0.845799
      0.00002      4.43620     14.48037        -0.000470     -0.000531     -0.007791
      9.75358      5.91515     14.68176        -0.001143     -0.000187      0.163205
      9.75379      4.43532     18.03030         0.005581     -0.018356      0.374924
      0.00001      5.91519     17.65823         0.000011     -0.000020     -0.084529
      3.25100      7.39399      4.79682        -0.001135     -0.000494     -4.039643
      6.50199      8.87278      4.79682        -0.000000      0.001128      3.227759
      6.50199      7.39399      8.04782        -0.000033      0.003280      0.557309
      3.25100      8.87278      8.04782         0.000123      0.000617     -0.811823
      3.25100      7.39399     11.29882         0.003461      0.002697      0.778509
      6.50199      8.87278     11.29882        -0.000242     -0.007622     -0.816176
      6.50198      7.39030     14.48965        -0.000043     -0.000304     -0.007433
      3.25072      8.87320     14.68205        -0.001442     -0.003144      0.160152
      3.25022      7.39505     18.03033        -0.005533      0.018315      0.374956
      6.50208      8.87248     17.65481         0.000523      0.011596     -0.093631
      3.25100     10.35158      4.79682        -0.000853      0.002015     -4.040233
      6.50199      0.00000      4.79682        -0.000012      0.000001      3.229012
      6.50199     10.35158      8.04782        -0.000034      0.001582      0.559282
      3.25100      0.00000      8.04782         0.000356     -0.000026     -0.812941
      3.25100     10.35158     11.29882         0.001110      0.006323      0.784249
[...]
      6.50199      5.91519      9.32220        -0.000008     -0.000004     -0.275452
      4.52538      4.43639      8.04782         0.296730      0.000767      0.057284
      8.47860      4.43639      8.04782        -0.296764      0.000807      0.057297
      3.25100      5.91519     10.02443        -0.000687     -0.000311      0.055739
      3.25100      5.91519     12.57320         0.001208     -0.000310     -0.239307
      7.77637      4.43639     11.29882        -0.728696      0.014712      0.106530
      5.22761      4.43639     11.29882         0.728352      0.014628      0.106621
      6.50199      5.91519     13.29981        -0.000009     -0.000006      0.200096
      6.50199      5.91519     15.86380        -0.000002      0.000005      0.022274
      4.55308      4.43637     14.57527        -0.103879     -0.004822      0.019916
      8.45091      4.43645     14.57512         0.103795     -0.004613      0.019643
      3.24438      5.91546     16.54148        -0.001488     -0.001487     -0.045958
      3.26188      5.91464     19.11442        -0.011351     -0.000045     -0.616424
      7.72812      4.42967     17.96827        -0.299320     -0.006101     -0.053043
      5.27493      4.42915     17.96517         0.296397     -0.008335     -0.051517
    total drift:                                0.002155     -0.000147     -0.033475

  FREE ENERGIE OF THE ION-ELECTRON SYSTEM (eV)
  free  energy   TOTEN  =     -2645.75018429 eV

  energy  without entropy=    -2645.75018429  energy(sigma->0) =    -2645.75018429

     |            E. Caldeweyher, S. Ehlert & S. Grimme          |
     |          Mulliken Center for Theoretical Chemistry        |
     |                    University of Bonn                     |

Rational (Becke-Johnson) damping: hse06-D4-ATM
  s6         1.0000
  s8         1.1953
  s9         1.0000
  a1         0.3866
  a2         5.1913
 alp        16.0000

Dispersion energy:      -1.4429725006794E+00 Eh