 vasp.6.2.1 16May21 (build Aug 23 2021 11:19:13) complex

 executed on SGIICEXA-Intel19-HMP date 2024.11.01  19:56:02

 INCAR:
   SYSTEM = Oxide-Surface
   ISMEAR = 0
   SIGMA = 0.05
   EDIFF = 1E-5
   ALGO = Normal
   IBRION = -1
   NSW = 0
   ISYM = 0
   DIPOL = 0.5 0.5 0.5
   IDIPOL = 3
   LDIPOL = .TRUE.
   ISTART = 0
   GGA = PE
   IVDW = 11
   ENCUT = 520
   PREC = Normal
   PRECFOCK = Normal
   LASPH = .TRUE.
   LREAL = Auto
   ISPIN = 1
   NELM = 200
   NELMIN = 8
   NCORE = 1
   KPAR = 1
   LWAVE = .TRUE.
   LCHARG = .FALSE.

 POTCAR:    PAW_PBE C 08Apr2002
 POTCAR:    PAW_PBE O 08Apr2002
 POTCAR:    PAW_PBE Mg_sv 12Apr2007
 POTCAR:    PAW_PBE O 08Apr2002
 POTCAR:    PAW_PBE C 08Apr2002
   VRHFIN =C: s2p2

   TITEL  = PAW_PBE C 08Apr2002
   POMASS =   12.011; ZVAL   =    4.000    mass and valenz
   ENMAX  =  400.000; ENMIN  =  300.000 eV

[...]

   TITEL  = PAW_PBE Mg_sv 12Apr2007
   POMASS =   24.305; ZVAL   =   10.000    mass and valenz
   ENMAX  =  495.223; ENMIN  =  371.417 eV

   TITEL  = PAW_PBE O 08Apr2002
   POMASS =   16.000; ZVAL   =    6.000    mass and valenz
   ENMAX  =  400.000; ENMIN  =  300.000 eV

 Optimization of the real space projectors (new method)

 maximal supplied QI-value         = 25.13
 optimisation between [QCUT,QGAM] = [ 11.56, 23.12] = [ 37.43,149.72] Ry
 Optimized for a Real-space Cutoff    1.04 Angstroem

   l    n(q)    QCUT    max X(q) W(low)/X(q) W(high)/X(q)  e(spline)
   0      7    11.561   115.676    0.20E-03    0.60E-03    0.21E-06
   0      7    11.561    87.132    0.20E-03    0.59E-03    0.21E-06
   1      7    11.561     4.429    0.23E-03    0.35E-03    0.15E-06
   1      7    11.561     2.733    0.18E-03    0.25E-03    0.12E-06
 Optimization of the real space projectors (new method)

[...]

   l    n(q)    QCUT    max X(q) W(low)/X(q) W(high)/X(q)  e(spline)
   0      8    11.497     8.730    0.49E-04    0.64E-04    0.16E-07
   0      8    11.497     8.910    0.67E-04    0.91E-04    0.30E-07
   1      7    11.497     2.513    0.13E-03    0.16E-04    0.93E-07
   1      7    11.497     3.341    0.38E-03    0.12E-03    0.27E-06
   2      7    11.497     3.683    0.37E-03    0.44E-03    0.72E-07
 Optimization of the real space projectors (new method)

 maximal supplied QI-value         = 24.76
 optimisation between [QCUT,QGAM] = [ 11.64, 23.27] = [ 37.91,151.63] Ry
 Optimized for a Real-space Cutoff    1.04 Angstroem

   l    n(q)    QCUT    max X(q) W(low)/X(q) W(high)/X(q)  e(spline)
   0      7    11.635    20.381    0.14E-03    0.49E-03    0.18E-06
   0      7    11.635    15.268    0.16E-03    0.52E-03    0.19E-06
   1      7    11.635     5.964    0.30E-03    0.44E-03    0.22E-06
   1      7    11.635     5.382    0.27E-03    0.34E-03    0.19E-06
  PAW_PBE C 08Apr2002                   :
  PAW_PBE O 08Apr2002                   :
  PAW_PBE Mg_sv 12Apr2007               :
  PAW_PBE O 08Apr2002                   :

 POSCAR:  C  O Mg  O
  positions in direct lattice
 exchange correlation table for  LEXCH =        8
   RHO(1)=    0.500       N(1)  =     2000
   RHO(2)=  100.500       N(2)  =     4000

 ion  position               nearest neighbor table
   1  0.500  0.750  0.724-   3 1.26   2 1.26  56 1.47
   2  0.500  0.887  0.747-   1 1.26
   3  0.500  0.613  0.747-   1 1.26
   4  0.000  0.750  0.352-  36 2.11  38 2.11  39 2.11  46 2.11  55 2.11
   5  0.250  0.000  0.352-  37 2.11  38 2.11  39 2.11  47 2.11  54 2.11
   6  0.000  0.000  0.451-  42 2.11  38 2.11  36 2.11  37 2.11  44 2.11  53 2.11
   7  0.250  0.750  0.451-  39 2.11  37 2.11  36 2.11  45 2.11  52 2.11  43 2.13
   8  1.000  0.750  0.549-  36 2.10  50 2.11  42 2.11
   9  0.252  0.001  0.551-  58 2.09  51 2.10  41 2.11  43 2.12
  10  0.000  0.002  0.649-  48 2.09  41 2.10  57 2.10  42 2.12
  11  0.237  0.750  0.647-  40 2.00  43 2.08  49 2.10  41 2.10
  12  0.000  0.250  0.352-  44 2.11  38 2.11  46 2.11  47 2.11  63 2.11
  13  0.250  0.500  0.352-  45 2.11  39 2.11  46 2.11  47 2.11  62 2.11
  14  0.000  0.500  0.451-  50 2.11  46 2.11  45 2.11  36 2.11  44 2.11  61 2.11
  15  0.250  0.250  0.451-  47 2.11  44 2.11  45 2.11  37 2.11  60 2.11  51 2.12
  16  0.000  0.250  0.550-  44 2.11  51 2.11  67 2.11  50 2.11  42 2.11
  17  0.252  0.499  0.551-  66 2.09  51 2.10  49 2.11  43 2.12
  18  0.000  0.498  0.649-  48 2.09  49 2.10  65 2.10  50 2.12
  19  0.248  0.250  0.649-  48 2.09  51 2.11  49 2.12  41 2.12
  20  0.500  0.750  0.352-  52 2.11  39 2.11  54 2.11  55 2.11  62 2.11
  21  0.750  0.000  0.352-  53 2.11  38 2.11  54 2.11  55 2.11  63 2.11
  22  0.500  0.000  0.451-  54 2.11  52 2.11  53 2.11  37 2.11  60 2.11
  23  0.750  0.750  0.451-  55 2.11  52 2.11  53 2.11  36 2.11  61 2.11  59 2.13
  24  0.500  0.750  0.548-  52 2.07  59 2.09  43 2.09  66 2.09  58 2.09
  25  0.748  0.001  0.551-  58 2.09  67 2.10  57 2.11  59 2.12
  26  0.500  0.011  0.658-  64 2.02
  27  0.763  0.750  0.647-  40 2.00  59 2.08  65 2.10  57 2.10
  28  0.500  0.250  0.352-  60 2.11  54 2.11  47 2.11  62 2.11  63 2.11
  29  0.750  0.500  0.352-  61 2.11  55 2.11  46 2.11  62 2.11  63 2.11
  30  0.500  0.500  0.451-  62 2.11  52 2.11  60 2.11  61 2.11  45 2.11
  31  0.750  0.250  0.451-  63 2.11  53 2.11  60 2.11  61 2.11  44 2.11  67 2.12
  32  0.500  0.250  0.551-  51 2.11  67 2.11
  33  0.748  0.499  0.551-  66 2.09  67 2.10  65 2.11  59 2.12
  34  0.500  0.489  0.658-  64 2.02
  35  0.752  0.250  0.649-  48 2.09  67 2.11  65 2.12  57 2.12
  36  0.000  0.750  0.451-   8 2.10   4 2.11   7 2.11   6 2.11  14 2.11  23 2.11
  37  0.250  0.000  0.451-   5 2.11   6 2.11   7 2.11  15 2.11  22 2.11
  38  0.000  0.000  0.352-   6 2.11   5 2.11   4 2.11  12 2.11  21 2.11
  39  0.250  0.750  0.352-   7 2.11   5 2.11   4 2.11  13 2.11  20 2.11
  40  0.000  0.750  0.649-  11 2.00  27 2.00
  41  0.248  0.999  0.650-  10 2.10  11 2.10   9 2.11  19 2.12
  42  0.000  0.999  0.549-   8 2.11   6 2.11  16 2.11  10 2.12
  43  0.252  0.750  0.550-  11 2.08  24 2.09   9 2.12  17 2.12   7 2.13
  44  0.000  0.250  0.451-  12 2.11   6 2.11  14 2.11  15 2.11  31 2.11  16 2.11
  45  0.250  0.500  0.451-  13 2.11   7 2.11  14 2.11  15 2.11  30 2.11
  46  0.000  0.500  0.352-  14 2.11  12 2.11  13 2.11   4 2.11  29 2.11
  47  0.250  0.250  0.352-  15 2.11  12 2.11  13 2.11   5 2.11  28 2.11
  48  0.000  0.250  0.650-  19 2.09  35 2.09  10 2.09  18 2.09
  49  0.248  0.501  0.650-  18 2.10  11 2.10  17 2.11  19 2.12
  50  0.000  0.501  0.549-   8 2.11  14 2.11  16 2.11  18 2.12
  51  0.251  0.250  0.550-   9 2.10  17 2.10  32 2.11  19 2.11  16 2.11  15 2.12
  52  0.500  0.750  0.451-  24 2.07  20 2.11  22 2.11  23 2.11   7 2.11  30 2.11
  53  0.750  0.000  0.451-  21 2.11   6 2.11  22 2.11  23 2.11  31 2.11
  54  0.500  0.000  0.352-  22 2.11  20 2.11  21 2.11   5 2.11  28 2.11
  55  0.750  0.750  0.352-  23 2.11  20 2.11  21 2.11   4 2.11  29 2.11
  56  0.500  0.750  0.655-   1 1.47
  57  0.752  0.999  0.650-  10 2.10  27 2.10  25 2.11  35 2.12
  58  0.500  0.998  0.551-  24 2.09   9 2.09  25 2.09
  59  0.748  0.750  0.550-  27 2.08  24 2.09  25 2.12  33 2.12  23 2.13
  60  0.500  0.250  0.451-  28 2.11  22 2.11  15 2.11  30 2.11  31 2.11
  61  0.750  0.500  0.451-  29 2.11  23 2.11  14 2.11  30 2.11  31 2.11
  62  0.500  0.500  0.352-  30 2.11  20 2.11  28 2.11  29 2.11  13 2.11
  63  0.750  0.250  0.352-  31 2.11  21 2.11  28 2.11  29 2.11  12 2.11
  64  0.500  0.250  0.652-  26 2.02  34 2.02
  65  0.752  0.501  0.650-  18 2.10  27 2.10  33 2.11  35 2.12
  66  0.500  0.502  0.551-  24 2.09  17 2.09  33 2.09
  67  0.749  0.250  0.550-  25 2.10  33 2.10  32 2.11  35 2.11  16 2.11  31 2.12

IMPORTANT INFORMATION: All symmetrisations will be switched off!
NOSYMM: (Re-)initialisation of all symmetry stuff for point group C_1.

                                     Primitive cell

  volume of cell :    1519.8199

  direct lattice vectors                    reciprocal lattice vectors
     8.440984654  0.000000000  0.000000000     0.118469591  0.000000000  0.000000000
     0.000000000  8.440984654  0.000000000     0.000000000  0.118469591  0.000000000
     0.000000000  0.000000000 21.330738491     0.000000000  0.000000000  0.046880702

  length of vectors
     8.440984654  8.440984654 21.330738491     0.118469591  0.118469591  0.046880702

  position of ions in fractional coordinates (direct lattice)
     0.499999999  0.749992575  0.723945469
     0.500000054  0.886923811  0.747131544
     0.500000003  0.613085469  0.747130390
     0.000000000  0.750000000  0.351605267
     0.250000000  0.000000000  0.351605267
     0.000000000  0.000000000  0.450535089
     0.250000000  0.750000000  0.450535089
     0.999999975  0.749999946  0.548865087
     0.252039878  0.000756628  0.550788885
     0.000000022  0.002311195  0.648546918
     0.237174188  0.749999934  0.647363126
     0.000000000  0.250000000  0.351605267
     0.250000000  0.500000000  0.351605267
     0.000000000  0.500000000  0.450535089
     0.250000000  0.250000000  0.450535089
     0.000000013  0.249999998  0.549624541
     0.252039900  0.499243377  0.550788959
     0.000000021  0.497688821  0.648546972
     0.247666318  0.250000068  0.648931672
     0.500000000  0.750000000  0.351605267
     0.750000000  0.000000000  0.351605267
     0.500000000  0.000000000  0.450535089
     0.750000000  0.750000000  0.450535089
     0.500000019  0.750000015  0.547754495
     0.747960121  0.000756607  0.550788926
     0.499999989  0.011207993  0.658121991
     0.762825847  0.749999939  0.647363220
     0.500000000  0.250000000  0.351605267
     0.750000000  0.500000000  0.351605267
     0.500000000  0.500000000  0.450535089
     0.750000000  0.250000000  0.450535089
     0.499999992  0.250000035  0.551140650
     0.747960100  0.499243403  0.550789001
     0.499999989  0.488792575  0.658122307
     0.752333689  0.250000066  0.648931633
     0.000000000  0.750000000  0.450535089
     0.250000000  0.000000000  0.450535089
     0.000000000  0.000000000  0.351605267
     0.250000000  0.750000000  0.351605267
     0.000000022  0.750000036  0.649408351
     0.248158655  0.998502614  0.649732587
     0.000000003  0.999457034  0.549345342
     0.252314547  0.750000035  0.550267426
     0.000000000  0.250000000  0.450535089
     0.250000000  0.500000000  0.450535089
     0.000000000  0.500000000  0.351605267
     0.250000000  0.250000000  0.351605267
     0.000000004  0.249999984  0.650138735
     0.248158633  0.501497394  0.649732528
     0.000000002  0.500542928  0.549345336
     0.250533587  0.249999977  0.549905895
     0.500000000  0.750000000  0.450535089
     0.750000000  0.000000000  0.450535089
     0.500000000  0.000000000  0.351605267
     0.750000000  0.750000000  0.351605267
     0.499999960  0.750000818  0.655054079
     0.751841360  0.998502595  0.649732592
     0.499999996  0.997699832  0.551095612
     0.747685455  0.750000036  0.550267463
     0.500000000  0.250000000  0.450535089
     0.750000000  0.500000000  0.450535089
     0.500000000  0.500000000  0.351605267
     0.750000000  0.250000000  0.351605267
     0.500000007  0.249999918  0.651663796
     0.751841378  0.501497418  0.649732540
     0.499999996  0.502300219  0.551095607
     0.749466420  0.249999975  0.549905909

[...]
 k1-k3    =   16.0000    1.3333   -4.0000
 VDW_RADIUS   =   50.2022 A
 VDW_CNRADIUS =   21.1671 A
 Edisp (eV)   -9.45719

 E6    (eV) :    -4.3575
 E8    (eV) :    -5.0996
 % E8        : 53.92

  FORCE on cell =-STRESS in cart. coord.  units (eV):
  Direction    XX          YY          ZZ          XY          YZ          ZX
  Alpha Z  1087.03595  1087.03595  1087.03595
  Ewald  208534.09029209441.52227************     0.00010    -0.02651    -0.00000
  Hartree224863.09024225399.32891************     0.00005    -0.00055    -0.00003
  E(xc)   -3278.74835 -3276.97533 -3283.24794     0.00000    -0.00010     0.00000
  Local  ************************444740.33279    -0.00014     0.02029     0.00004
  n-local -5960.11114 -5965.02505 -5958.72100    -0.00000     0.00114    -0.00000
  augment   929.67439   928.52537   922.28214     0.00000     0.00004     0.00000
  Kinetic 11284.46960 11245.79880 11286.00835    -0.00001     0.00182    -0.00000
  Fock        0.00000     0.00000     0.00000     0.00000     0.00000     0.00000
  vdW       -12.00843   -12.03557    -7.36024     0.00000    -0.00000     0.00000
  Total     -31.90432   -34.29752    -8.80525     0.00000    -0.00388    -0.00000
  in kB     -33.63318   -36.15606    -9.28240     0.00000    -0.00409    -0.00000

 VOLUME and BASIS-vectors are now :
  energy-cutoff  :      520.00
  volume of cell :     1519.82
      direct lattice vectors                 reciprocal lattice vectors
     8.440984654  0.000000000  0.000000000     0.118469591  0.000000000  0.000000000
     0.000000000  8.440984654  0.000000000     0.000000000  0.118469591  0.000000000
     0.000000000  0.000000000 21.330738491     0.000000000  0.000000000  0.046880702

  length of vectors
     8.440984654  8.440984654 21.330738491     0.118469591  0.118469591  0.046880702

 FORCES acting on ions
    electron-ion (+dipol)            ewald-force                    non-local-force                 convergence-correction
   0.117E-03 -.482E-01 -.127E+04   -.119E-03 0.585E-01 0.127E+04   0.158E-05 -.802E-03 -.224E+01   0.317E-07 -.347E-08 0.188E-03
   -.535E-04 -.214E+03 -.204E+04   0.722E-04 0.256E+03 0.207E+04   -.187E-04 -.426E+02 -.273E+02   0.629E-07 0.814E-04 0.804E-03
   0.518E-04 0.214E+03 -.204E+04   -.511E-04 -.256E+03 0.207E+04   -.722E-06 0.426E+02 -.273E+02   0.552E-07 -.811E-04 0.805E-03
   0.206E-04 0.282E-04 0.299E+04   -.210E-04 -.272E-04 -.298E+04   0.566E-06 -.688E-06 -.903E+01   -.275E-06 -.582E-08 -.152E-02
   -.617E-01 -.102E+01 0.299E+04   0.613E-01 0.107E+01 -.298E+04   -.228E-03 -.336E-01 -.920E+01   0.206E-04 -.111E-04 -.151E-02
   0.973E-04 -.330E+01 0.106E+04   -.101E-03 0.348E+01 -.106E+04   0.299E-05 -.140E+00 0.241E+00   -.225E-06 0.315E-05 -.165E-02
   0.293E+01 0.166E-03 0.106E+04   -.298E+01 -.163E-03 -.106E+04   0.303E-01 -.265E-05 0.108E+01   0.241E-04 -.148E-06 -.163E-02
   0.478E-04 0.264E-04 -.831E+03   -.562E-04 0.548E-04 0.831E+03   0.882E-05 -.584E-04 0.101E+00   -.784E-07 0.180E-06 -.150E-02
   0.334E+01 -.917E+01 -.863E+03   -.259E+01 0.946E+01 0.865E+03   -.751E+00 -.286E+00 -.164E+01   0.175E-04 -.514E-04 -.158E-02
   -.195E-05 -.228E+02 -.283E+04   0.849E-05 0.238E+02 0.282E+04   -.678E-05 -.981E+00 0.793E+01   -.200E-06 -.403E-04 -.361E-03
   0.521E+02 -.569E-03 -.271E+04   -.593E+02 0.116E-02 0.270E+04   0.720E+01 -.434E-03 0.891E+01   0.502E-03 -.181E-06 -.487E-03
   0.214E-04 -.292E-04 0.298E+04   -.217E-04 0.281E-04 -.298E+04   0.385E-06 0.939E-06 -.917E+01   -.166E-06 -.230E-06 -.148E-02
   -.617E-01 0.102E+01 0.299E+04   0.613E-01 -.107E+01 -.298E+04   -.227E-03 0.336E-01 -.920E+01   0.208E-04 0.111E-04 -.151E-02
   0.999E-04 0.330E+01 0.106E+04   -.104E-03 -.348E+01 -.106E+04   0.319E-05 0.140E+00 0.241E+00   -.160E-06 -.300E-05 -.166E-02
   -.211E+01 -.172E-03 0.106E+04   0.221E+01 0.170E-03 -.106E+04   -.752E-01 0.184E-05 0.617E+00   -.988E-05 0.780E-07 -.164E-02
   0.642E-04 -.116E-03 -.863E+03   -.615E-04 0.421E-04 0.863E+03   -.311E-05 0.559E-04 -.224E+00   -.150E-06 -.336E-06 -.157E-02
   0.334E+01 0.917E+01 -.863E+03   -.259E+01 -.946E+01 0.865E+03   -.751E+00 0.286E+00 -.163E+01   0.176E-04 0.514E-04 -.158E-02
   0.140E-04 0.228E+02 -.283E+04   -.681E-05 -.238E+02 0.282E+04   -.746E-05 0.981E+00 0.793E+01   -.151E-06 0.409E-04 -.359E-03
   0.372E+02 -.485E-03 -.281E+04   -.383E+02 0.405E-04 0.280E+04   0.106E+01 0.350E-03 0.808E+01   0.643E-04 -.163E-06 -.291E-03
   -.208E-04 0.340E-04 0.299E+04   0.212E-04 -.324E-04 -.298E+04   -.638E-06 -.113E-05 -.896E+01   0.328E-06 -.990E-07 -.155E-02
   0.617E-01 -.102E+01 0.299E+04   -.613E-01 0.107E+01 -.298E+04   0.227E-03 -.336E-01 -.920E+01   -.204E-04 -.111E-04 -.151E-02
   -.101E-03 -.831E+01 0.105E+04   0.104E-03 0.865E+01 -.105E+04   -.302E-05 -.244E+00 0.870E+00   0.138E-06 -.322E-04 -.162E-02
   -.293E+01 0.168E-03 0.106E+04   0.298E+01 -.165E-03 -.106E+04   -.303E-01 -.255E-05 0.108E+01   -.241E-04 -.615E-07 -.163E-02
   -.738E-04 0.301E-03 -.842E+03   0.818E-04 -.288E-03 0.835E+03   -.826E-05 -.847E-05 0.616E+01   0.796E-07 0.515E-06 -.817E-03
   -.334E+01 -.917E+01 -.863E+03   0.259E+01 0.946E+01 0.865E+03   0.751E+00 -.286E+00 -.164E+01   -.173E-04 -.515E-04 -.158E-02
   0.579E-05 -.972E+02 -.273E+04   -.118E-04 0.101E+03 0.273E+04   0.656E-05 -.415E+01 0.179E+01   -.106E-06 -.167E-03 -.771E-03
   -.521E+02 -.549E-03 -.271E+04   0.593E+02 0.114E-02 0.270E+04   -.720E+01 -.435E-03 0.891E+01   -.502E-03 -.167E-06 -.487E-03
   -.214E-04 -.339E-04 0.298E+04   0.218E-04 0.325E-04 -.297E+04   -.270E-06 0.935E-06 -.920E+01   -.888E-08 0.137E-06 -.154E-02
   0.617E-01 0.102E+01 0.299E+04   -.613E-01 -.107E+01 -.298E+04   0.227E-03 0.336E-01 -.920E+01   -.207E-04 0.113E-04 -.151E-02
   -.104E-03 0.831E+01 0.105E+04   0.108E-03 -.865E+01 -.105E+04   -.331E-05 0.244E+00 0.870E+00   0.258E-06 0.323E-04 -.162E-02
   0.211E+01 -.177E-03 0.106E+04   -.221E+01 0.175E-03 -.106E+04   0.752E-01 0.171E-05 0.617E+00   0.100E-04 -.303E-07 -.164E-02
   -.693E-04 -.607E-03 -.872E+03   0.655E-04 0.571E-03 0.872E+03   0.437E-05 0.265E-04 -.669E+00   -.264E-06 -.280E-06 -.155E-02
   -.334E+01 0.917E+01 -.863E+03   0.259E+01 -.946E+01 0.865E+03   0.751E+00 0.286E+00 -.163E+01   -.175E-04 0.515E-04 -.158E-02
   -.212E-04 0.972E+02 -.273E+04   0.145E-04 -.101E+03 0.273E+04   0.693E-05 0.415E+01 0.179E+01   0.443E-09 0.166E-03 -.771E-03
   -.372E+02 -.515E-03 -.281E+04   0.383E+02 0.682E-04 0.280E+04   -.106E+01 0.352E-03 0.808E+01   -.641E-04 -.625E-07 -.291E-03
   0.440E-04 0.483E-04 0.639E+03   -.429E-04 -.361E-04 -.639E+03   -.142E-05 -.166E-04 0.303E+00   -.508E-07 -.395E-07 -.948E-03
   0.942E-01 -.216E+01 0.632E+03   -.208E+00 0.225E+01 -.631E+03   0.151E+00 -.134E+00 -.342E+00   0.194E-05 0.421E-06 -.955E-03
   0.127E-04 -.471E+00 0.180E+04   -.131E-04 0.504E+00 -.181E+04   0.701E-06 -.472E-01 0.347E+01   -.900E-07 0.683E-06 -.652E-03
   0.146E+00 0.204E-04 0.180E+04   -.155E+00 -.191E-04 -.181E+04   0.130E-01 -.163E-05 0.353E+01   0.674E-05 -.137E-06 -.679E-03
   -.467E-04 -.159E-04 -.171E+04   0.491E-04 0.176E-03 0.172E+04   -.257E-05 -.222E-03 -.515E+01   -.342E-07 0.143E-06 -.572E-03
   0.342E+02 -.268E+02 -.168E+04   -.334E+02 0.269E+02 0.168E+04   -.846E+00 -.103E+00 -.516E+01   0.385E-04 -.451E-04 -.523E-03
   0.423E-04 -.610E+01 -.508E+03   -.435E-04 0.618E+01 0.508E+03   0.138E-05 -.732E-01 0.563E-01   -.183E-07 -.596E-05 -.864E-03
   0.114E+01 0.991E-04 -.505E+03   -.143E+01 -.386E-04 0.504E+03   0.273E+00 -.870E-04 0.834E+00   0.779E-04 0.357E-07 -.785E-03
   0.549E-04 -.667E-04 0.634E+03   -.557E-04 0.577E-04 -.634E+03   0.967E-06 0.126E-04 -.847E-01   -.220E-07 -.200E-07 -.956E-03
   0.941E-01 0.216E+01 0.632E+03   -.208E+00 -.225E+01 -.631E+03   0.151E+00 0.134E+00 -.342E+00   0.186E-05 -.367E-06 -.955E-03
   0.129E-04 0.471E+00 0.180E+04   -.134E-04 -.504E+00 -.181E+04   0.701E-06 0.472E-01 0.347E+01   -.371E-07 -.612E-06 -.652E-03
   -.206E+00 -.207E-04 0.180E+04   0.210E+00 0.194E-04 -.181E+04   -.544E-02 0.173E-05 0.344E+01   0.515E-05 0.358E-07 -.654E-03
   0.195E-04 -.108E-03 -.173E+04   -.213E-04 -.488E-04 0.173E+04   0.194E-05 0.219E-03 -.504E+01   -.192E-07 -.209E-06 -.512E-03
   0.342E+02 0.268E+02 -.168E+04   -.334E+02 -.269E+02 0.168E+04   -.845E+00 0.104E+00 -.516E+01   0.385E-04 0.453E-04 -.523E-03
   0.459E-04 0.610E+01 -.508E+03   -.466E-04 -.618E+01 0.508E+03   0.633E-06 0.732E-01 0.565E-01   -.911E-08 0.604E-05 -.864E-03
   0.227E+01 -.175E-03 -.512E+03   -.239E+01 0.110E-03 0.512E+03   0.124E+00 0.936E-04 0.317E+00   0.103E-05 -.544E-07 -.862E-03
   -.482E-04 0.867E-04 0.644E+03   0.472E-04 -.812E-04 -.645E+03   0.140E-05 -.782E-05 0.506E+00   0.300E-07 0.162E-07 -.929E-03
   -.942E-01 -.216E+01 0.632E+03   0.208E+00 0.225E+01 -.631E+03   -.151E+00 -.134E+00 -.342E+00   -.191E-05 0.408E-06 -.955E-03
   -.128E-04 -.823E+00 0.180E+04   0.132E-04 0.870E+00 -.181E+04   -.692E-06 -.658E-01 0.348E+01   0.734E-07 -.118E-05 -.673E-03
   -.146E+00 0.206E-04 0.180E+04   0.155E+00 -.194E-04 -.181E+04   -.130E-01 -.162E-05 0.353E+01   -.674E-05 -.919E-07 -.679E-03
   0.937E-05 -.491E-02 -.146E+04   -.904E-05 0.709E-02 0.143E+04   0.828E-07 -.262E-02 0.226E+02   -.449E-07 0.473E-07 -.103E-02
   -.342E+02 -.268E+02 -.168E+04   0.334E+02 0.269E+02 0.168E+04   0.846E+00 -.103E+00 -.516E+01   -.384E-04 -.452E-04 -.522E-03
   -.441E-04 -.698E+01 -.539E+03   0.441E-04 0.738E+01 0.541E+03   0.503E-06 -.392E+00 -.181E+01   -.168E-07 -.872E-04 -.778E-03
   -.114E+01 0.100E-03 -.505E+03   0.143E+01 -.393E-04 0.504E+03   -.273E+00 -.876E-04 0.834E+00   -.778E-04 -.131E-08 -.785E-03
   -.549E-04 -.824E-04 0.628E+03   0.554E-04 0.748E-04 -.628E+03   -.468E-06 0.106E-04 -.294E+00   0.152E-07 -.513E-07 -.944E-03
   -.941E-01 0.216E+01 0.632E+03   0.208E+00 -.225E+01 -.631E+03   -.151E+00 0.134E+00 -.342E+00   -.191E-05 -.335E-06 -.955E-03
   -.131E-04 0.823E+00 0.180E+04   0.135E-04 -.870E+00 -.181E+04   -.721E-06 0.658E-01 0.348E+01   0.919E-07 0.121E-05 -.673E-03
   0.206E+00 -.209E-04 0.180E+04   -.210E+00 0.197E-04 -.181E+04   0.544E-02 0.173E-05 0.344E+01   -.518E-05 0.275E-08 -.654E-03
   -.181E-04 -.198E-02 -.168E+04   0.196E-04 0.172E-02 0.169E+04   -.163E-05 0.423E-03 -.408E+01   -.382E-07 -.167E-06 -.518E-03
   -.342E+02 0.268E+02 -.168E+04   0.334E+02 -.269E+02 0.168E+04   0.845E+00 0.104E+00 -.516E+01   -.385E-04 0.453E-04 -.523E-03
   -.512E-04 0.698E+01 -.539E+03   0.510E-04 -.738E+01 0.541E+03   0.750E-06 0.392E+00 -.181E+01   0.977E-08 0.873E-04 -.778E-03
   -.227E+01 -.192E-03 -.512E+03   0.239E+01 0.127E-03 0.512E+03   -.124E+00 0.936E-04 0.317E+00   -.909E-06 -.497E-07 -.862E-03
   0.309E-04 -.986E-02 0.585E+02   0.473E-12 0.712E-13 -.944E-11   -.312E-04 0.991E-02 -.587E+02   0.234E-06 -.376E-06 -.632E-01

 POSITION                                       TOTAL-FORCE (eV/Angst)
      4.22049      6.33068     15.44229        -0.000000      0.009441      0.125069
      4.22049      7.48651     15.93687         0.000000     -0.171573     -0.103773
      4.22049      5.17505     15.93684         0.000000      0.162633     -0.099980
      0.00000      6.33074      7.50000        -0.000000     -0.000000      0.355817
      2.11025      0.00000      7.50000        -0.000708      0.009932      0.380768
      0.00000      0.00000      9.61025        -0.000001      0.042755      0.132631
      2.11025      6.33074      9.61025        -0.023743      0.000000      0.056315
      8.44098      6.33074     11.70770         0.000000      0.000022     -0.008652
      2.12746      0.00639     11.74873        -0.006009     -0.003323     -0.022575
      0.00000      0.01951     13.83398        -0.000000     -0.010476     -0.031622
      2.00198      6.33074     13.80873        -0.040886      0.000152     -0.075231
      0.00000      2.11025      7.50000        -0.000000     -0.000001      0.381208
      2.11025      4.22049      7.50000        -0.000708     -0.009934      0.380768
      0.00000      4.22049      9.61025        -0.000001     -0.042758      0.132618
      2.11025      2.11025      9.61025         0.022297     -0.000001      0.130111
      0.00000      2.11025     11.72390        -0.000001     -0.000019     -0.013767
      2.12746      4.21411     11.74874        -0.005999      0.003322     -0.022620
      0.00000      4.20098     13.83399        -0.000000      0.010471     -0.031570
      2.09055      2.11025     13.84219         0.005754     -0.000096     -0.026499
      4.22049      6.33074      7.50000         0.000000     -0.000000      0.344136
      6.33074      0.00000      7.50000         0.000708      0.009932      0.380769
      4.22049      0.00000      9.61025         0.000001      0.089456      0.147920
      6.33074      6.33074      9.61025         0.023743      0.000000      0.056317
      4.22049      6.33074     11.68401        -0.000000      0.000004     -0.049179
      6.31352      0.00639     11.74873         0.006009     -0.003325     -0.022496
      4.22049      0.09461     14.03823         0.000000      0.008861      0.021620
      6.43900      6.33074     13.80874         0.040885      0.000152     -0.075321
      4.22049      2.11025      7.50000         0.000000     -0.000001      0.385145
      6.33074      4.22049      7.50000         0.000708     -0.009934      0.380768
      4.22049      4.22049      9.61025         0.000001     -0.089456      0.147913
      6.33074      2.11025      9.61025        -0.022297     -0.000001      0.130113
      4.22049      2.11025     11.75624         0.000000     -0.000011     -0.020240
      6.31352      4.21411     11.74874         0.005998      0.003323     -0.022541
      4.22049      4.12589     14.03823         0.000000     -0.009278      0.020950
      6.35044      2.11025     13.84219        -0.005754     -0.000096     -0.026579
      0.00000      6.33074      9.61025        -0.000000     -0.000005      0.060298
      2.11025      0.00000      9.61025         0.036918     -0.040552      0.069093
      0.00000      0.00000      7.50000         0.000000     -0.013303     -0.532433
      2.11025      6.33074      7.50000         0.003747     -0.000001     -0.515163
      0.00000      6.33074     13.85236        -0.000000     -0.000062      0.030473
      2.09470      8.42835     13.85928        -0.010823      0.014794      0.017617
      0.00000      8.43640     11.71794         0.000000      0.005316      0.004608
      2.12978      6.33074     11.73761        -0.010144     -0.000027      0.010862
      0.00000      2.11025      9.61025         0.000000      0.000003      0.026859
      2.11025      4.22049      9.61025         0.036916      0.040551      0.069103
      0.00000      4.22049      7.50000         0.000000      0.013302     -0.532432
      2.11025      2.11025      7.50000        -0.001656     -0.000000     -0.538926
      0.00000      2.11025     13.86794         0.000000      0.000062      0.023510
      2.09470      4.23313     13.85927        -0.010684     -0.014730      0.017938
      0.00000      4.22508     11.71794        -0.000000     -0.005317      0.004723
      2.11475      2.11025     11.72990         0.004850      0.000028      0.012715
      4.22049      6.33074      9.61025         0.000000     -0.000003     -0.023266
      6.33074      0.00000      9.61025        -0.036918     -0.040552      0.069095
      4.22049      0.00000      7.50000        -0.000000     -0.018744     -0.528267
      6.33074      6.33074      7.50000        -0.003747     -0.000001     -0.515163
      4.22049      6.33075     13.97279         0.000000     -0.000448      0.150316
      6.34628      8.42835     13.85928         0.010823      0.014790      0.017712
      4.22049      8.42157     11.75528         0.000000      0.008504     -0.010304
      6.31120      6.33074     11.73761         0.010143     -0.000027      0.010682
      4.22049      2.11025      9.61025         0.000000      0.000002      0.122514
      6.33074      4.22049      9.61025        -0.036916      0.040551      0.069104
      4.22049      4.22049      7.50000        -0.000000      0.018742     -0.528266
      6.33074      2.11025      7.50000         0.001656     -0.000000     -0.538926
      4.22049      2.11025     13.90047        -0.000000      0.000160      0.017018
      6.34628      4.23313     13.85927         0.010684     -0.014726      0.018033
      4.22049      4.23991     11.75528         0.000001     -0.008512     -0.010093
      6.32623      2.11025     11.72990        -0.004851      0.000028      0.012655
    total drift:                               -0.000000      0.000041     -0.252052

  FREE ENERGIE OF THE ION-ELECTRON SYSTEM (eV)
  free  energy   TOTEN  =      -405.56216979 eV

  energy  without entropy=     -405.56216979  energy(sigma->0) =     -405.56216979

 writing wavefunctions