 vasp.6.2.1 16May21 (build Aug 23 2021 11:19:13) complex

 executed on SGIICEXA-Intel19-HMP date 2024.11.01  20:09:43

 INCAR:
   SYSTEM = Oxide-Surface
   ISMEAR = 0
   SIGMA = 0.05
   EDIFF = 1E-5
   ALGO = Normal
   IBRION = -1
   NSW = 0
   ISYM = 0
   DIPOL = 0.5 0.5 0.5
   IDIPOL = 3
   LDIPOL = .TRUE.
   ISTART = 1
   LHFCALC = .TRUE.
   GGA = PE
   IVDW = 21
   VDW_SR = 0.96
   HFRCUT = -1
   ENCUT = 520
   PREC = Normal
   PRECFOCK = Normal
   LASPH = .TRUE.
   LREAL = Auto
   ISPIN = 1
   NELM = 200
   NELMIN = 8
   NCORE = 1
   KPAR = 1
   LWAVE = .FALSE.
   LCHARG = .FALSE.

 POTCAR:    PAW_PBE C 08Apr2002
 POTCAR:    PAW_PBE O 08Apr2002
 POTCAR:    PAW_PBE Mg_sv 12Apr2007
 POTCAR:    PAW_PBE O 08Apr2002
 POTCAR:    PAW_PBE C 08Apr2002
   VRHFIN =C: s2p2

   TITEL  = PAW_PBE C 08Apr2002
   POMASS =   12.011; ZVAL   =    4.000    mass and valenz
   ENMAX  =  400.000; ENMIN  =  300.000 eV

[...]

   TITEL  = PAW_PBE Mg_sv 12Apr2007
   POMASS =   24.305; ZVAL   =   10.000    mass and valenz
   ENMAX  =  495.223; ENMIN  =  371.417 eV

   TITEL  = PAW_PBE O 08Apr2002
   POMASS =   16.000; ZVAL   =    6.000    mass and valenz
   ENMAX  =  400.000; ENMIN  =  300.000 eV

 Optimization of the real space projectors (new method)

 maximal supplied QI-value         = 25.13
 optimisation between [QCUT,QGAM] = [ 11.56, 23.12] = [ 37.43,149.72] Ry
 Optimized for a Real-space Cutoff    1.04 Angstroem

   l    n(q)    QCUT    max X(q) W(low)/X(q) W(high)/X(q)  e(spline)
   0      7    11.561   115.676    0.20E-03    0.60E-03    0.21E-06
   0      7    11.561    87.132    0.20E-03    0.59E-03    0.21E-06
   1      7    11.561     4.429    0.23E-03    0.35E-03    0.15E-06
   1      7    11.561     2.733    0.18E-03    0.25E-03    0.12E-06
 Optimization of the real space projectors (new method)

[...]

   l    n(q)    QCUT    max X(q) W(low)/X(q) W(high)/X(q)  e(spline)
   0      8    11.497     8.730    0.49E-04    0.64E-04    0.16E-07
   0      8    11.497     8.910    0.67E-04    0.91E-04    0.30E-07
   1      7    11.497     2.513    0.13E-03    0.16E-04    0.93E-07
   1      7    11.497     3.341    0.38E-03    0.12E-03    0.27E-06
   2      7    11.497     3.683    0.37E-03    0.44E-03    0.72E-07
 Optimization of the real space projectors (new method)

 maximal supplied QI-value         = 24.76
 optimisation between [QCUT,QGAM] = [ 11.64, 23.27] = [ 37.91,151.63] Ry
 Optimized for a Real-space Cutoff    1.04 Angstroem

   l    n(q)    QCUT    max X(q) W(low)/X(q) W(high)/X(q)  e(spline)
   0      7    11.635    20.381    0.14E-03    0.49E-03    0.18E-06
   0      7    11.635    15.268    0.16E-03    0.52E-03    0.19E-06
   1      7    11.635     5.964    0.30E-03    0.44E-03    0.22E-06
   1      7    11.635     5.382    0.27E-03    0.34E-03    0.19E-06
  PAW_PBE C 08Apr2002                   :
  PAW_PBE O 08Apr2002                   :
  PAW_PBE Mg_sv 12Apr2007               :
  PAW_PBE O 08Apr2002                   :

 POSCAR:  C  O Mg  O
  positions in direct lattice
 exchange correlation table for  LEXCH =        8
   RHO(1)=    0.500       N(1)  =     2000
   RHO(2)=  100.500       N(2)  =     4000

 ion  position               nearest neighbor table
   1  0.500  0.750  0.724-   3 1.26   2 1.26  56 1.47
   2  0.500  0.887  0.747-   1 1.26
   3  0.500  0.613  0.747-   1 1.26
   4  0.000  0.750  0.352-  36 2.11  38 2.11  39 2.11  46 2.11  55 2.11
   5  0.250  0.000  0.352-  37 2.11  38 2.11  39 2.11  47 2.11  54 2.11
   6  0.000  0.000  0.451-  42 2.11  38 2.11  36 2.11  37 2.11  44 2.11  53 2.11
   7  0.250  0.750  0.451-  39 2.11  37 2.11  36 2.11  45 2.11  52 2.11  43 2.13
   8  1.000  0.750  0.549-  36 2.10  50 2.11  42 2.11
   9  0.252  0.001  0.551-  58 2.09  51 2.10  41 2.11  43 2.12
  10  0.000  0.002  0.649-  48 2.09  41 2.10  57 2.10  42 2.12
  11  0.237  0.750  0.647-  40 2.00  43 2.08  49 2.10  41 2.10
  12  0.000  0.250  0.352-  44 2.11  38 2.11  46 2.11  47 2.11  63 2.11
  13  0.250  0.500  0.352-  45 2.11  39 2.11  46 2.11  47 2.11  62 2.11
  14  0.000  0.500  0.451-  50 2.11  46 2.11  45 2.11  36 2.11  44 2.11  61 2.11
  15  0.250  0.250  0.451-  47 2.11  44 2.11  45 2.11  37 2.11  60 2.11  51 2.12
  16  0.000  0.250  0.550-  44 2.11  51 2.11  67 2.11  50 2.11  42 2.11
  17  0.252  0.499  0.551-  66 2.09  51 2.10  49 2.11  43 2.12
  18  0.000  0.498  0.649-  48 2.09  49 2.10  65 2.10  50 2.12
  19  0.248  0.250  0.649-  48 2.09  51 2.11  49 2.12  41 2.12
  20  0.500  0.750  0.352-  52 2.11  39 2.11  54 2.11  55 2.11  62 2.11
  21  0.750  0.000  0.352-  53 2.11  38 2.11  54 2.11  55 2.11  63 2.11
  22  0.500  0.000  0.451-  54 2.11  52 2.11  53 2.11  37 2.11  60 2.11
  23  0.750  0.750  0.451-  55 2.11  52 2.11  53 2.11  36 2.11  61 2.11  59 2.13
  24  0.500  0.750  0.548-  52 2.07  59 2.09  43 2.09  66 2.09  58 2.09
  25  0.748  0.001  0.551-  58 2.09  67 2.10  57 2.11  59 2.12
  26  0.500  0.011  0.658-  64 2.02
  27  0.763  0.750  0.647-  40 2.00  59 2.08  65 2.10  57 2.10
  28  0.500  0.250  0.352-  60 2.11  54 2.11  47 2.11  62 2.11  63 2.11
  29  0.750  0.500  0.352-  61 2.11  55 2.11  46 2.11  62 2.11  63 2.11
  30  0.500  0.500  0.451-  62 2.11  52 2.11  60 2.11  61 2.11  45 2.11
  31  0.750  0.250  0.451-  63 2.11  53 2.11  60 2.11  61 2.11  44 2.11  67 2.12
  32  0.500  0.250  0.551-  51 2.11  67 2.11
  33  0.748  0.499  0.551-  66 2.09  67 2.10  65 2.11  59 2.12
  34  0.500  0.489  0.658-  64 2.02
  35  0.752  0.250  0.649-  48 2.09  67 2.11  65 2.12  57 2.12
  36  0.000  0.750  0.451-   8 2.10   4 2.11   7 2.11   6 2.11  14 2.11  23 2.11
  37  0.250  0.000  0.451-   5 2.11   6 2.11   7 2.11  15 2.11  22 2.11
  38  0.000  0.000  0.352-   6 2.11   5 2.11   4 2.11  12 2.11  21 2.11
  39  0.250  0.750  0.352-   7 2.11   5 2.11   4 2.11  13 2.11  20 2.11
  40  0.000  0.750  0.649-  11 2.00  27 2.00
  41  0.248  0.999  0.650-  10 2.10  11 2.10   9 2.11  19 2.12
  42  0.000  0.999  0.549-   8 2.11   6 2.11  16 2.11  10 2.12
  43  0.252  0.750  0.550-  11 2.08  24 2.09   9 2.12  17 2.12   7 2.13
  44  0.000  0.250  0.451-  12 2.11   6 2.11  14 2.11  15 2.11  31 2.11  16 2.11
  45  0.250  0.500  0.451-  13 2.11   7 2.11  14 2.11  15 2.11  30 2.11
  46  0.000  0.500  0.352-  14 2.11  12 2.11  13 2.11   4 2.11  29 2.11
  47  0.250  0.250  0.352-  15 2.11  12 2.11  13 2.11   5 2.11  28 2.11
  48  0.000  0.250  0.650-  19 2.09  35 2.09  10 2.09  18 2.09
  49  0.248  0.501  0.650-  18 2.10  11 2.10  17 2.11  19 2.12
  50  0.000  0.501  0.549-   8 2.11  14 2.11  16 2.11  18 2.12
  51  0.251  0.250  0.550-   9 2.10  17 2.10  32 2.11  19 2.11  16 2.11  15 2.12
  52  0.500  0.750  0.451-  24 2.07  20 2.11  22 2.11  23 2.11   7 2.11  30 2.11
  53  0.750  0.000  0.451-  21 2.11   6 2.11  22 2.11  23 2.11  31 2.11
  54  0.500  0.000  0.352-  22 2.11  20 2.11  21 2.11   5 2.11  28 2.11
  55  0.750  0.750  0.352-  23 2.11  20 2.11  21 2.11   4 2.11  29 2.11
  56  0.500  0.750  0.655-   1 1.47
  57  0.752  0.999  0.650-  10 2.10  27 2.10  25 2.11  35 2.12
  58  0.500  0.998  0.551-  24 2.09   9 2.09  25 2.09
  59  0.748  0.750  0.550-  27 2.08  24 2.09  25 2.12  33 2.12  23 2.13
  60  0.500  0.250  0.451-  28 2.11  22 2.11  15 2.11  30 2.11  31 2.11
  61  0.750  0.500  0.451-  29 2.11  23 2.11  14 2.11  30 2.11  31 2.11
  62  0.500  0.500  0.352-  30 2.11  20 2.11  28 2.11  29 2.11  13 2.11
  63  0.750  0.250  0.352-  31 2.11  21 2.11  28 2.11  29 2.11  12 2.11
  64  0.500  0.250  0.652-  26 2.02  34 2.02
  65  0.752  0.501  0.650-  18 2.10  27 2.10  33 2.11  35 2.12
  66  0.500  0.502  0.551-  24 2.09  17 2.09  33 2.09
  67  0.749  0.250  0.550-  25 2.10  33 2.10  32 2.11  35 2.11  16 2.11  31 2.12

IMPORTANT INFORMATION: All symmetrisations will be switched off!
NOSYMM: (Re-)initialisation of all symmetry stuff for point group C_1.

                                     Primitive cell

  volume of cell :    1519.8199

  direct lattice vectors                    reciprocal lattice vectors
     8.440984654  0.000000000  0.000000000     0.118469591  0.000000000  0.000000000
     0.000000000  8.440984654  0.000000000     0.000000000  0.118469591  0.000000000
     0.000000000  0.000000000 21.330738491     0.000000000  0.000000000  0.046880702

  length of vectors
     8.440984654  8.440984654 21.330738491     0.118469591  0.118469591  0.046880702

  position of ions in fractional coordinates (direct lattice)
     0.499999999  0.749992575  0.723945469
     0.500000054  0.886923811  0.747131544
     0.500000003  0.613085469  0.747130390
     0.000000000  0.750000000  0.351605267
     0.250000000  0.000000000  0.351605267
     0.000000000  0.000000000  0.450535089
     0.250000000  0.750000000  0.450535089
     0.999999975  0.749999946  0.548865087
     0.252039878  0.000756628  0.550788885
     0.000000022  0.002311195  0.648546918
     0.237174188  0.749999934  0.647363126
     0.000000000  0.250000000  0.351605267
     0.250000000  0.500000000  0.351605267
     0.000000000  0.500000000  0.450535089
     0.250000000  0.250000000  0.450535089
     0.000000013  0.249999998  0.549624541
     0.252039900  0.499243377  0.550788959
     0.000000021  0.497688821  0.648546972
     0.247666318  0.250000068  0.648931672
     0.500000000  0.750000000  0.351605267
     0.750000000  0.000000000  0.351605267
     0.500000000  0.000000000  0.450535089
     0.750000000  0.750000000  0.450535089
     0.500000019  0.750000015  0.547754495
     0.747960121  0.000756607  0.550788926
     0.499999989  0.011207993  0.658121991
     0.762825847  0.749999939  0.647363220
     0.500000000  0.250000000  0.351605267
     0.750000000  0.500000000  0.351605267
     0.500000000  0.500000000  0.450535089
     0.750000000  0.250000000  0.450535089
     0.499999992  0.250000035  0.551140650
     0.747960100  0.499243403  0.550789001
     0.499999989  0.488792575  0.658122307
     0.752333689  0.250000066  0.648931633
     0.000000000  0.750000000  0.450535089
     0.250000000  0.000000000  0.450535089
     0.000000000  0.000000000  0.351605267
     0.250000000  0.750000000  0.351605267
     0.000000022  0.750000036  0.649408351
     0.248158655  0.998502614  0.649732587
     0.000000003  0.999457034  0.549345342
     0.252314547  0.750000035  0.550267426
     0.000000000  0.250000000  0.450535089
     0.250000000  0.500000000  0.450535089
     0.000000000  0.500000000  0.351605267
     0.250000000  0.250000000  0.351605267
     0.000000004  0.249999984  0.650138735
     0.248158633  0.501497394  0.649732528
     0.000000002  0.500542928  0.549345336
     0.250533587  0.249999977  0.549905895
     0.500000000  0.750000000  0.450535089
     0.750000000  0.000000000  0.450535089
     0.500000000  0.000000000  0.351605267
     0.750000000  0.750000000  0.351605267
     0.499999960  0.750000818  0.655054079
     0.751841360  0.998502595  0.649732592
     0.499999996  0.997699832  0.551095612
     0.747685455  0.750000036  0.550267463
     0.500000000  0.250000000  0.450535089
     0.750000000  0.500000000  0.450535089
     0.500000000  0.500000000  0.351605267
     0.750000000  0.250000000  0.351605267
     0.500000007  0.249999918  0.651663796
     0.751841378  0.501497418  0.649732540
[...]
   O         196.994          4.873         19.189          3.55354991
   O         137.825          4.592         16.051          2.97234809
   O         194.509          4.863         19.068          3.53107193
   O         230.757          5.004         20.769          3.84603837
   O         243.897          5.050         21.352          3.95402822
   O         242.061          5.044         21.271          3.93911296
   O         240.940          5.040         21.222          3.92998134
   O         197.273          4.875         19.203          3.55606762
   O         197.362          4.875         19.207          3.55686695
   O         197.534          4.876         19.215          3.55841994
   O         194.509          4.863         19.068          3.53106945
   O         230.757          5.004         20.769          3.84604298
   O         248.907          5.067         21.570          3.99443328

  vdW correction parametrized for the method           

  IVDW =  21
  VDW_RADIUS =    50.000 A
  VDW_IDAMPF =  0
  VDW_S6 =     1.000
  VDW_SR =     0.960
  VDW_D =    20.000
  LVDW_ONECELL = F F F
  LVDW_SAMETYPE T T T T
  LVDW_EWALD = F

  Number of pair interactions contributing to vdW energy:  791441
  Edisp (eV):   -4.07696

 VOLUME and BASIS-vectors are now :
  energy-cutoff  :      520.00
  volume of cell :     1519.82
      direct lattice vectors                 reciprocal lattice vectors
     8.440984654  0.000000000  0.000000000     0.118469591  0.000000000  0.000000000
     0.000000000  8.440984654  0.000000000     0.000000000  0.118469591  0.000000000
     0.000000000  0.000000000 21.330738491     0.000000000  0.000000000  0.046880702

  length of vectors
     8.440984654  8.440984654 21.330738491     0.118469591  0.118469591  0.046880702

 FORCES acting on ions
    electron-ion (+dipol)            ewald-force                    non-local-force                 convergence-correction
   0.118E-03 -.483E-01 -.127E+04   -.119E-03 0.585E-01 0.127E+04   0.100E-05 -.684E-03 -.272E+01   -.106E-08 -.387E-06 0.977E-01
   -.532E-04 -.213E+03 -.204E+04   0.722E-04 0.256E+03 0.207E+04   -.163E-04 -.380E+02 -.243E+02   -.797E-09 0.129E-02 0.153E+00
   0.518E-04 0.213E+03 -.204E+04   -.511E-04 -.256E+03 0.207E+04   -.490E-06 0.380E+02 -.243E+02   -.272E-08 -.129E-02 0.153E+00
   0.203E-04 0.289E-04 0.299E+04   -.210E-04 -.272E-04 -.298E+04   0.283E-06 -.174E-05 -.592E+01   0.435E-07 -.757E-06 -.215E+00
   -.643E-01 -.102E+01 0.299E+04   0.613E-01 0.107E+01 -.298E+04   0.159E-02 -.254E-01 -.603E+01   -.156E-04 -.302E-04 -.215E+00
   0.970E-04 -.328E+01 0.106E+04   -.101E-03 0.348E+01 -.106E+04   0.210E-05 -.100E+00 0.134E+00   -.161E-07 -.512E-04 -.930E-01
   0.291E+01 0.169E-03 0.106E+04   -.298E+01 -.163E-03 -.106E+04   0.289E-01 -.345E-05 0.678E+00   -.328E-04 -.130E-05 -.930E-01
   0.473E-04 0.338E-04 -.831E+03   -.562E-04 0.548E-04 0.831E+03   0.528E-05 -.450E-04 0.467E-01   0.187E-07 0.101E-06 0.553E-01
   0.338E+01 -.915E+01 -.863E+03   -.259E+01 0.946E+01 0.865E+03   -.452E+00 -.174E+00 -.984E+00   -.156E-03 -.186E-03 0.583E-01
   -.164E-05 -.228E+02 -.283E+04   0.849E-05 0.238E+02 0.282E+04   -.413E-05 -.596E+00 0.504E+01   -.452E-08 0.527E-03 0.187E+00
   0.516E+02 -.516E-03 -.271E+04   -.593E+02 0.116E-02 0.270E+04   0.445E+01 -.325E-03 0.561E+01   0.251E-03 -.702E-07 0.183E+00
   0.212E-04 -.272E-04 0.299E+04   -.217E-04 0.281E-04 -.298E+04   0.267E-06 0.303E-05 -.601E+01   0.327E-07 -.280E-05 -.215E+00
   -.643E-01 0.102E+01 0.299E+04   0.613E-01 -.107E+01 -.298E+04   0.159E-02 0.254E-01 -.603E+01   -.199E-04 0.318E-04 -.215E+00
   0.996E-04 0.328E+01 0.106E+04   -.104E-03 -.348E+01 -.106E+04   0.222E-05 0.100E+00 0.134E+00   -.880E-08 0.522E-04 -.930E-01
   -.211E+01 -.174E-03 0.106E+04   0.221E+01 0.170E-03 -.106E+04   -.513E-01 0.180E-05 0.365E+00   -.434E-04 0.586E-06 -.931E-01
   0.643E-04 -.122E-03 -.863E+03   -.615E-04 0.421E-04 0.863E+03   -.190E-05 0.458E-04 -.140E+00   0.684E-08 -.636E-06 0.568E-01
   0.338E+01 0.915E+01 -.863E+03   -.259E+01 -.946E+01 0.865E+03   -.452E+00 0.174E+00 -.984E+00   -.156E-03 0.186E-03 0.583E-01
   0.144E-04 0.228E+02 -.283E+04   -.681E-05 -.238E+02 0.282E+04   -.453E-05 0.596E+00 0.504E+01   -.721E-08 -.528E-03 0.187E+00
   0.371E+02 -.528E-03 -.281E+04   -.383E+02 0.405E-04 0.280E+04   0.645E+00 0.253E-03 0.512E+01   -.149E-02 0.104E-05 0.186E+00
   -.206E-04 0.340E-04 0.299E+04   0.212E-04 -.324E-04 -.298E+04   -.262E-06 -.447E-06 -.588E+01   -.264E-07 0.953E-07 -.215E+00
   0.643E-01 -.102E+01 0.299E+04   -.613E-01 0.107E+01 -.298E+04   -.159E-02 -.254E-01 -.603E+01   0.156E-04 -.302E-04 -.215E+00
   -.100E-03 -.829E+01 0.105E+04   0.104E-03 0.865E+01 -.105E+04   -.214E-05 -.179E+00 0.532E+00   0.402E-08 -.637E-04 -.930E-01
   -.291E+01 0.172E-03 0.106E+04   0.298E+01 -.165E-03 -.106E+04   -.289E-01 -.336E-05 0.678E+00   0.328E-04 -.132E-05 -.930E-01
   -.734E-04 0.316E-03 -.842E+03   0.818E-04 -.288E-03 0.835E+03   -.495E-05 -.136E-04 0.383E+01   -.680E-08 -.302E-07 0.539E-01
   -.338E+01 -.915E+01 -.863E+03   0.259E+01 0.946E+01 0.865E+03   0.452E+00 -.174E+00 -.984E+00   0.156E-03 -.186E-03 0.583E-01
   0.536E-05 -.969E+02 -.273E+04   -.118E-04 0.101E+03 0.273E+04   0.393E-05 -.254E+01 0.119E+01   -.232E-08 -.182E-02 0.195E+00
   -.516E+02 -.496E-03 -.271E+04   0.593E+02 0.114E-02 0.270E+04   -.445E+01 -.326E-03 0.561E+01   -.251E-03 -.691E-07 0.183E+00
   -.213E-04 -.348E-04 0.298E+04   0.218E-04 0.325E-04 -.297E+04   -.247E-06 0.525E-05 -.603E+01   -.933E-08 0.173E-06 -.215E+00
   0.643E-01 0.102E+01 0.299E+04   -.613E-01 -.107E+01 -.298E+04   -.159E-02 0.254E-01 -.603E+01   0.199E-04 0.318E-04 -.215E+00
   -.104E-03 0.829E+01 0.105E+04   0.108E-03 -.865E+01 -.105E+04   -.228E-05 0.179E+00 0.532E+00   0.654E-08 0.634E-04 -.930E-01
   0.211E+01 -.180E-03 0.106E+04   -.221E+01 0.175E-03 -.106E+04   0.513E-01 0.167E-05 0.365E+00   0.434E-04 0.586E-06 -.931E-01
   -.697E-04 -.620E-03 -.872E+03   0.655E-04 0.571E-03 0.872E+03   0.249E-05 0.251E-04 -.385E+00   -.989E-11 -.164E-05 0.583E-01
   -.338E+01 0.915E+01 -.863E+03   0.259E+01 -.946E+01 0.865E+03   0.452E+00 0.174E+00 -.984E+00   0.156E-03 0.186E-03 0.583E-01
   -.216E-04 0.969E+02 -.273E+04   0.145E-04 -.101E+03 0.273E+04   0.427E-05 0.254E+01 0.119E+01   -.572E-09 0.182E-02 0.195E+00
   -.371E+02 -.558E-03 -.281E+04   0.383E+02 0.682E-04 0.280E+04   -.645E+00 0.254E-03 0.512E+01   0.149E-02 0.105E-05 0.186E+00
   0.441E-04 0.496E-04 0.639E+03   -.429E-04 -.361E-04 -.639E+03   -.134E-05 -.152E-04 0.269E+00   -.100E-07 -.446E-06 -.531E-01
   0.841E-01 -.215E+01 0.632E+03   -.208E+00 0.225E+01 -.631E+03   0.141E+00 -.124E+00 -.302E+00   -.337E-05 -.492E-04 -.531E-01
   0.127E-04 -.468E+00 0.180E+04   -.131E-04 0.504E+00 -.181E+04   0.629E-06 -.428E-01 0.305E+01   -.262E-07 -.197E-04 -.129E+00
   0.143E+00 0.281E-04 0.181E+04   -.155E+00 -.191E-04 -.181E+04   0.139E-01 -.211E-05 0.311E+01   -.526E-05 -.224E-05 -.129E+00
   -.467E-04 -.120E-05 -.171E+04   0.491E-04 0.176E-03 0.172E+04   -.216E-05 -.205E-03 -.465E+01   -.102E-07 -.334E-06 0.113E+00
   0.342E+02 -.268E+02 -.168E+04   -.334E+02 0.269E+02 0.168E+04   -.741E+00 -.114E+00 -.468E+01   -.421E-03 -.585E-04 0.112E+00
   0.422E-04 -.609E+01 -.508E+03   -.435E-04 0.618E+01 0.508E+03   0.127E-05 -.704E-01 0.619E-01   -.900E-08 0.629E-05 0.343E-01
   0.113E+01 0.106E-03 -.505E+03   -.143E+01 -.386E-04 0.504E+03   0.254E+00 -.818E-04 0.759E+00   0.399E-04 0.487E-07 0.351E-01
   0.548E-04 -.674E-04 0.634E+03   -.557E-04 0.577E-04 -.634E+03   0.891E-06 0.117E-04 -.765E-01   -.300E-08 0.369E-06 -.531E-01
   0.840E-01 0.215E+01 0.632E+03   -.208E+00 -.225E+01 -.631E+03   0.141E+00 0.124E+00 -.302E+00   -.442E-05 0.493E-04 -.531E-01
   0.129E-04 0.468E+00 0.180E+04   -.134E-04 -.504E+00 -.181E+04   0.622E-06 0.428E-01 0.305E+01   -.923E-08 0.248E-04 -.129E+00
   -.207E+00 -.215E-04 0.180E+04   0.210E+00 0.194E-04 -.181E+04   -.399E-02 -.256E-06 0.303E+01   -.246E-04 0.135E-05 -.129E+00
   0.194E-04 -.121E-03 -.173E+04   -.213E-04 -.488E-04 0.173E+04   0.179E-05 0.201E-03 -.456E+01   -.181E-08 0.541E-06 0.114E+00
   0.342E+02 0.268E+02 -.168E+04   -.334E+02 -.269E+02 0.168E+04   -.740E+00 0.114E+00 -.468E+01   -.421E-03 0.583E-04 0.112E+00
   0.459E-04 0.609E+01 -.508E+03   -.466E-04 -.618E+01 0.508E+03   0.585E-06 0.704E-01 0.620E-01   -.125E-07 -.578E-05 0.343E-01
   0.226E+01 -.181E-03 -.512E+03   -.239E+01 0.110E-03 0.512E+03   0.117E+00 0.861E-04 0.288E+00   -.174E-03 0.387E-06 0.347E-01
   -.483E-04 0.888E-04 0.644E+03   0.472E-04 -.812E-04 -.645E+03   0.131E-05 -.852E-05 0.463E+00   0.872E-08 -.498E-06 -.531E-01
   -.841E-01 -.215E+01 0.632E+03   0.208E+00 0.225E+01 -.631E+03   -.141E+00 -.124E+00 -.302E+00   0.339E-05 -.492E-04 -.531E-01
   -.127E-04 -.819E+00 0.180E+04   0.132E-04 0.870E+00 -.181E+04   -.620E-06 -.607E-01 0.307E+01   -.297E-08 -.452E-04 -.129E+00
   -.143E+00 0.283E-04 0.181E+04   0.155E+00 -.194E-04 -.181E+04   -.139E-01 -.205E-05 0.311E+01   0.526E-05 -.225E-05 -.129E+00
   0.913E-05 -.480E-02 -.146E+04   -.904E-05 0.709E-02 0.143E+04   -.271E-07 -.239E-02 0.207E+02   0.186E-08 -.231E-06 0.115E+00
   -.342E+02 -.268E+02 -.168E+04   0.334E+02 0.269E+02 0.168E+04   0.741E+00 -.114E+00 -.468E+01   0.421E-03 -.585E-04 0.112E+00
   -.442E-04 -.695E+01 -.539E+03   0.441E-04 0.738E+01 0.541E+03   0.408E-06 -.372E+00 -.161E+01   -.580E-09 -.210E-03 0.357E-01
   -.113E+01 0.107E-03 -.505E+03   0.143E+01 -.393E-04 0.504E+03   -.254E+00 -.823E-04 0.759E+00   -.399E-04 0.426E-07 0.351E-01
   -.549E-04 -.845E-04 0.628E+03   0.554E-04 0.748E-04 -.628E+03   -.445E-06 0.111E-04 -.262E+00   -.447E-08 0.232E-06 -.531E-01
   -.840E-01 0.215E+01 0.632E+03   0.208E+00 -.225E+01 -.631E+03   -.141E+00 0.124E+00 -.302E+00   0.443E-05 0.493E-04 -.531E-01
   -.130E-04 0.819E+00 0.180E+04   0.135E-04 -.870E+00 -.181E+04   -.592E-06 0.607E-01 0.307E+01   -.724E-08 0.444E-04 -.129E+00
   0.207E+00 -.216E-04 0.180E+04   -.210E+00 0.197E-04 -.181E+04   0.399E-02 -.294E-06 0.303E+01   0.246E-04 0.130E-05 -.129E+00
   -.180E-04 -.201E-02 -.168E+04   0.196E-04 0.172E-02 0.169E+04   -.145E-05 0.390E-03 -.372E+01   0.422E-08 0.782E-06 0.113E+00
   -.342E+02 0.268E+02 -.168E+04   0.334E+02 -.269E+02 0.168E+04   0.740E+00 0.114E+00 -.468E+01   0.421E-03 0.583E-04 0.112E+00
   -.513E-04 0.695E+01 -.539E+03   0.510E-04 -.738E+01 0.541E+03   0.652E-06 0.372E+00 -.161E+01   0.282E-08 0.211E-03 0.357E-01
   -.226E+01 -.198E-03 -.512E+03   0.239E+01 0.127E-03 0.512E+03   -.117E+00 0.861E-04 0.288E+00   0.175E-03 0.393E-06 0.347E-01
   0.322E-04 -.966E-02 0.633E+02   0.473E-12 0.712E-13 -.944E-11   -.226E-04 0.818E-02 -.508E+02   0.108E-07 0.310E-05 -.374E+00

 POSITION                                       TOTAL-FORCE (eV/Angst)
      4.22049      6.33068     15.44229        -0.000000      0.009437      0.124329
      4.22049      7.48651     15.93687        -0.000000     -1.150623     -0.677438
      4.22049      5.17505     15.93684         0.000000      1.141768     -0.673724
      0.00000      6.33074      7.50000        -0.000000     -0.000002      0.510947
      2.11025      0.00000      7.50000        -0.001154      0.011268      0.536995
      0.00000      0.00000      9.61025        -0.000001      0.045438      0.073464
      2.11025      6.33074      9.61025        -0.024186      0.000000     -0.011910
      8.44098      6.33074     11.70770         0.000000      0.000023      0.042551
      2.12746      0.00639     11.74873        -0.002587      0.002461      0.044344
      0.00000      0.01951     13.83398        -0.000000      0.000551     -0.132513
      2.00198      6.33074     13.80873        -0.106746      0.000162     -0.152645
      0.00000      2.11025      7.50000        -0.000000     -0.000000      0.538382
      2.11025      4.22049      7.50000        -0.001150     -0.011270      0.536992
      0.00000      4.22049      9.61025        -0.000001     -0.045441      0.073450
      2.11025      2.11025      9.61025         0.023276     -0.000002      0.068068
      0.00000      2.11025     11.72390        -0.000001     -0.000018      0.040581
      2.12746      4.21411     11.74874        -0.002579     -0.002464      0.044294
      0.00000      4.20098     13.83399        -0.000000     -0.000556     -0.132466
      2.09055      2.11025     13.84219        -0.005537     -0.000105     -0.124106
      4.22049      6.33074      7.50000         0.000000     -0.000001      0.496606
      6.33074      0.00000      7.50000         0.001154      0.011268      0.536995
      4.22049      0.00000      9.61025         0.000001      0.093362      0.078160
      6.33074      6.33074      9.61025         0.024186      0.000000     -0.011909
      4.22049      6.33074     11.68401        -0.000000      0.000006     -0.070176
      6.31352      0.00639     11.74873         0.002587      0.002459      0.044424
      4.22049      0.09461     14.03823         0.000000      0.029257      0.011564
      6.43900      6.33074     13.80874         0.106746      0.000162     -0.152735
      4.22049      2.11025      7.50000         0.000000      0.000001      0.541526
      6.33074      4.22049      7.50000         0.001150     -0.011270      0.536992
      4.22049      4.22049      9.61025         0.000001     -0.093363      0.078149
      6.33074      2.11025      9.61025        -0.023276     -0.000002      0.068069
      4.22049      2.11025     11.75624         0.000000     -0.000011      0.040066
      6.31352      4.21411     11.74874         0.002578     -0.002463      0.044374
      4.22049      4.12589     14.03823         0.000000     -0.029697      0.010841
      6.35044      2.11025     13.84219         0.005537     -0.000105     -0.124187
      0.00000      6.33074      9.61025        -0.000000     -0.000006      0.056233
      2.11025      0.00000      9.61025         0.043346     -0.045088      0.058333
      0.00000      0.00000      7.50000         0.000000     -0.014641     -0.439011
      2.11025      6.33074      7.50000         0.005237      0.000004     -0.419415
      0.00000      6.33074     13.85236        -0.000000     -0.000069     -0.117060
      2.09470      8.42835     13.85928        -0.029758      0.013399     -0.135093
      0.00000      8.43640     11.71794         0.000000      0.000460      0.026612
      2.12978      6.33074     11.73761        -0.003219     -0.000030      0.042351
      0.00000      2.11025      9.61025         0.000000      0.000003      0.017134
      2.11025      4.22049      9.61025         0.043346      0.045086      0.058343
      0.00000      4.22049      7.50000         0.000000      0.014638     -0.439025
      2.11025      2.11025      7.50000        -0.000907     -0.000002     -0.444962
      0.00000      2.11025     13.86794         0.000000      0.000067     -0.125114
      2.09470      4.23313     13.85927        -0.029603     -0.013328     -0.134752
      0.00000      4.22508     11.71794        -0.000000     -0.000461      0.026731
      2.11475      2.11025     11.72990         0.012344      0.000030      0.036491
      4.22049      6.33074      9.61025         0.000000     -0.000004     -0.018055
      6.33074      0.00000      9.61025        -0.043346     -0.045088      0.058335
      4.22049      0.00000      7.50000        -0.000000     -0.020802     -0.434406
      6.33074      6.33074      7.50000        -0.005237      0.000004     -0.419415
      4.22049      6.33075     13.97279         0.000000     -0.000524      0.989865
      6.34628      8.42835     13.85928         0.029758      0.013395     -0.134998
      4.22049      8.42157     11.75528         0.000000     -0.002209     -0.040197
      6.31120      6.33074     11.73761         0.003219     -0.000031      0.042170
      4.22049      2.11025      9.61025        -0.000000      0.000002      0.108460
      6.33074      4.22049      9.61025        -0.043346      0.045087      0.058345
      4.22049      4.22049      7.50000        -0.000000      0.020805     -0.434411
      6.33074      2.11025      7.50000         0.000908     -0.000002     -0.444962
      4.22049      2.11025     13.90047        -0.000000      0.000171     -0.118682
      6.34628      4.23313     13.85927         0.029603     -0.013324     -0.134657
      4.22049      4.23991     11.75528         0.000001      0.002199     -0.039977
      6.32623      2.11025     11.72990        -0.012344      0.000030      0.036431
    total drift:                                0.000000      0.000070     -0.242385

  FREE ENERGIE OF THE ION-ELECTRON SYSTEM (eV)
  free  energy   TOTEN  =      -499.28830559 eV

  energy  without entropy=     -499.28830559  energy(sigma->0) =     -499.28830559