 vasp.6.3.0 20Jan22 (build Mar 11 2022 13:48:16) complex

 executed on             LinuxIFC date 2023.12.26  17:50:48

 INCAR:
   SYSTEM = MgO-rocksalt
   ISMEAR = 0
   SIGMA = 0.05
   EDIFF = 1E-6
   ALGO = ALL
   ISTART = 0
   IBRION = -1
   NSW = 0
   ISYM = 0
   DIPOL = 0.5 0.5 0.5
   IDIPOL = 3
   LDIPOL = .TRUE.
   GGA = RE
   AGGAC = 0.0
   LUSE_VDW = .TRUE.
   LASPH = .TRUE.
   ENCUT = 520
   PREC = Accurate
   LASPH = .TRUE.
   LREAL = Auto
   ISPIN = 1
   NELM = 200
   NELMIN = 8
   NCORE = 2
   KPAR = 1
   LWAVE = .FALSE.
   LCHARG = .FALSE.

 POTCAR:    PAW_PBE C 08Apr2002
 POTCAR:    PAW_PBE H 15Jun2001
 POTCAR:    PAW_PBE Mg_pv 13Apr2007
 POTCAR:    PAW_PBE O 08Apr2002
|           W    W    AA    RRRRR   N    N  II  N    N   GGGG   !!!           |
|           W    W   A  A   R    R  NN   N  II  NN   N  G    G  !!!           |
|           W    W  A    A  R    R  N N  N  II  N N  N  G       !!!           |
|           W WW W  AAAAAA  RRRRR   N  N N  II  N  N N  G  GGG   !            |
|           WW  WW  A    A  R   R   N   NN  II  N   NN  G    G                |
|           W    W  A    A  R    R  N    N  II  N    N   GGGG   !!!           |
|     For optimal performance we recommend to set                             |
|       NCORE = 2 up to number-of-cores-per-socket                            |
|     This setting can greatly improve the performance of VASP for DFT.       |
|     The default, NCORE=1 might be grossly inefficient on modern             |
|     multi-core architectures or massively parallel machines. Do your        |
|     Unfortunately you need to use the default for GW and RPA                |
|     calculations (for HF NCORE is supported but not extensively tested      |
|     yet).                                                                   |

   TITEL  = PAW_PBE C 08Apr2002
   POMASS =   12.011; ZVAL   =    4.000    mass and valenz
   ENMAX  =  400.000; ENMIN  =  300.000 eV

   TITEL  = PAW_PBE H 15Jun2001
   POMASS =    1.000; ZVAL   =    1.000    mass and valenz
   ENMAX  =  250.000; ENMIN  =  200.000 eV

   TITEL  = PAW_PBE Mg_pv 13Apr2007
   POMASS =   24.305; ZVAL   =    8.000    mass and valenz
   ENMAX  =  403.929; ENMIN  =  302.947 eV

   TITEL  = PAW_PBE O 08Apr2002
   POMASS =   16.000; ZVAL   =    6.000    mass and valenz
   ENMAX  =  400.000; ENMIN  =  300.000 eV

 Optimization of the real space projectors (new method)

 maximal supplied QI-value         = 25.13
 optimisation between [QCUT,QGAM] = [ 11.56, 23.12] = [ 37.43,149.72] Ry
 Optimized for a Real-space Cutoff    1.04 Angstroem

   l    n(q)    QCUT    max X(q) W(low)/X(q) W(high)/X(q)  e(spline)
   0      7    11.561   115.676    0.20E-03    0.60E-03    0.21E-06
   0      7    11.561    87.132    0.20E-03    0.59E-03    0.21E-06
   1      7    11.561     4.429    0.23E-03    0.35E-03    0.15E-06
   1      7    11.561     2.733    0.18E-03    0.25E-03    0.12E-06
 Optimization of the real space projectors (new method)

[...]

   l    n(q)    QCUT    max X(q) W(low)/X(q) W(high)/X(q)  e(spline)
   1      8    11.527     2.974    0.44E-04    0.56E-04    0.12E-06
   1      8    11.527     4.279    0.12E-03    0.12E-03    0.26E-06
   0      9    11.527    16.381    0.46E-04    0.64E-04    0.78E-07
   0      9    11.527     5.611    0.26E-04    0.43E-04    0.55E-07
   2      8    11.527     4.652    0.22E-03    0.72E-04    0.47E-07
 Optimization of the real space projectors (new method)

 maximal supplied QI-value         = 24.76
 optimisation between [QCUT,QGAM] = [ 11.64, 23.27] = [ 37.91,151.63] Ry
 Optimized for a Real-space Cutoff    1.14 Angstroem

   l    n(q)    QCUT    max X(q) W(low)/X(q) W(high)/X(q)  e(spline)
   0      8    11.635    20.381    0.10E-03    0.33E-03    0.24E-06
   0      8    11.635    15.268    0.11E-03    0.35E-03    0.26E-06
   1      7    11.635     5.964    0.24E-03    0.31E-03    0.30E-06
   1      7    11.635     5.382    0.22E-03    0.25E-03    0.26E-06
|               ----> ADVICE to this user running VASP <----                  |
|     You enforced a specific xc type in the INCAR file but a different       |
|     type was found in the POTCAR file.                                      |
|     I HOPE YOU KNOW WHAT YOU ARE DOING!                                     |

  PAW_PBE C 08Apr2002                   :
  PAW_PBE H 15Jun2001                   :
  PAW_PBE Mg_pv 13Apr2007               :
  PAW_PBE O 08Apr2002                   :

 POSCAR:  C  H Mg  O
  positions in direct lattice
 exchange correlation table for  LEXCH =       40
   RHO(1)=    0.500       N(1)  =     2000
   RHO(2)=  100.500       N(2)  =     4000

 ion  position               nearest neighbor table
   1  0.478  0.466  0.793-   7 1.08   2 1.39   6 1.39
   2  0.560  0.456  0.791-   8 1.08   1 1.39   3 1.39
   3  0.593  0.380  0.793-   9 1.08   4 1.39   2 1.39
   4  0.543  0.313  0.796-  10 1.08   3 1.39   5 1.39
   5  0.461  0.323  0.798-  11 1.08   6 1.39   4 1.39
   6  0.428  0.400  0.796-  12 1.08   5 1.39   1 1.39
   7  0.452  0.526  0.792-   1 1.08
   8  0.599  0.508  0.789-   2 1.08
   9  0.657  0.372  0.792-   3 1.08
  10  0.569  0.254  0.797-   4 1.08
  11  0.422  0.271  0.800-   5 1.08
  12  0.364  0.408  0.797-   6 1.08
  13  0.125  0.000  0.353- 143 2.09 144 2.09 160 2.09 183 2.09 141 2.09
  14  0.250  0.125  0.353- 143 2.09 144 2.09 152 2.09 159 2.09 142 2.09
  15  0.125  0.125  0.451- 141 2.09 142 2.09 149 2.09 158 2.09 143 2.09 147 2.09
  16  0.250  0.000  0.451- 141 2.09 142 2.09 157 2.09 182 2.09 144 2.09 148 2.09
  17  0.125  0.000  0.549- 148 2.09 147 2.09 164 2.09 187 2.09 141 2.09 145 2.12
  18  0.250  0.125  0.549- 163 2.09 156 2.09 147 2.09 148 2.09 142 2.10 146 2.12
  19  0.125  0.125  0.647- 147 2.07 146 2.09 153 2.09 145 2.09 162 2.09
  20  0.250  0.000  0.647- 148 2.08 146 2.09 161 2.09 186 2.09 145 2.09
  21  0.125  0.250  0.353- 143 2.09 151 2.09 152 2.09 168 2.09 149 2.09
  22  0.250  0.375  0.353- 151 2.09 152 2.09 167 2.09 176 2.09 150 2.09
  23  0.125  0.375  0.451- 149 2.09 150 2.09 166 2.09 173 2.09 151 2.09 155 2.09
  24  0.250  0.250  0.451- 142 2.09 149 2.09 150 2.09 165 2.09 152 2.09 156 2.09
  25  0.125  0.250  0.549- 156 2.09 155 2.09 147 2.09 172 2.09 149 2.10 153 2.12
  26  0.250  0.375  0.549- 171 2.08 156 2.09 180 2.09 155 2.09 150 2.10 154 2.12
  27  0.125  0.375  0.647- 155 2.07 177 2.09 153 2.09 170 2.09 154 2.09
  28  0.250  0.250  0.647- 156 2.07 169 2.09 154 2.09 146 2.09 153 2.09
  29  0.375  0.000  0.353- 144 2.09 159 2.09 199 2.09 224 2.09 157 2.09
  30  0.000  0.125  0.353- 143 2.09 160 2.09 168 2.09 223 2.09 158 2.09
  31  0.375  0.125  0.451- 142 2.09 157 2.09 165 2.09 222 2.09 159 2.09 163 2.09
  32  0.000  0.000  0.451- 141 2.09 158 2.09 198 2.09 221 2.09 160 2.09 164 2.09
  33  0.375  0.000  0.549- 163 2.09 228 2.09 148 2.09 203 2.09 157 2.10 161 2.12
  34  1.000  0.125  0.549- 172 2.09 147 2.09 227 2.09 164 2.09 158 2.10 162 2.12
  35  0.375  0.125  0.647- 163 2.07 169 2.09 226 2.09 146 2.09 161 2.09
  36  1.000  0.000  0.647- 164 2.07 225 2.09 162 2.09 145 2.09 202 2.09
  37  0.375  0.250  0.353- 152 2.09 159 2.09 167 2.09 232 2.09 165 2.09
  38  0.000  0.375  0.353- 151 2.09 168 2.09 192 2.09 231 2.09 166 2.09
  39  0.375  0.375  0.451- 171 2.09 165 2.09 150 2.09 189 2.09 230 2.09 167 2.09
  40  0.000  0.250  0.451- 149 2.09 158 2.09 166 2.09 229 2.09 168 2.09 172 2.09
  41  0.375  0.250  0.549- 171 2.08 236 2.09 156 2.09 163 2.09 165 2.10 169 2.12
  42  1.000  0.375  0.549- 172 2.09 196 2.09 155 2.09 235 2.09 166 2.10 170 2.12
  43  0.376  0.375  0.647- 234 2.08 171 2.08 193 2.09 169 2.09 154 2.10
  44  1.000  0.250  0.647- 172 2.08 170 2.09 162 2.09 153 2.09 233 2.09
  45  0.125  0.500  0.353- 151 2.09 175 2.09 176 2.09 192 2.09 173 2.09
  46  0.250  0.625  0.353- 175 2.09 176 2.09 184 2.09 191 2.09 174 2.09
  47  0.125  0.625  0.451- 173 2.09 174 2.09 181 2.09 190 2.09 175 2.09 179 2.09
  48  0.250  0.500  0.451- 150 2.09 173 2.09 174 2.09 189 2.09 176 2.09 180 2.09
  49  0.125  0.500  0.549- 180 2.09 155 2.09 196 2.09 179 2.09 173 2.09 177 2.12
  50  0.250  0.625  0.549- 195 2.09 180 2.09 179 2.09 188 2.09 174 2.09 178 2.12
  51  0.125  0.625  0.647- 179 2.08 178 2.09 177 2.09 194 2.09 185 2.09
  52  0.250  0.500  0.647- 180 2.07 193 2.08 154 2.09 178 2.09 177 2.09
  53  0.125  0.750  0.353- 175 2.09 183 2.09 184 2.09 200 2.09 181 2.09
  54  0.250  0.875  0.353- 144 2.09 183 2.09 184 2.09 199 2.09 182 2.09
  55  0.125  0.875  0.451- 141 2.09 181 2.09 182 2.09 198 2.09 183 2.09 187 2.09
  56  0.250  0.750  0.451- 174 2.09 181 2.09 182 2.09 197 2.09 184 2.09 188 2.09
  57  0.125  0.750  0.549- 179 2.09 188 2.09 187 2.09 204 2.09 181 2.10 185 2.12
  58  0.250  0.875  0.549- 203 2.09 188 2.09 187 2.09 148 2.09 182 2.10 186 2.12
  59  0.125  0.875  0.647- 187 2.07 202 2.09 185 2.09 145 2.09 186 2.09
  60  0.250  0.750  0.647- 188 2.08 178 2.09 201 2.09 185 2.09 186 2.09
[...]
 254  0.500  0.625  0.451-  63 2.09 111 2.09 128 2.09 136 2.09 126 2.09 130 2.10
 255  0.875  0.625  0.353-  62 2.09 110 2.09 125 2.09 133 2.09 127 2.09
 256  0.500  0.500  0.353-  61 2.09 102 2.09 109 2.09 126 2.09 128 2.09
 257  0.875  0.500  0.649- 131 2.09 107 2.09  68 2.09 116 2.09 129 2.12
 258  0.500  0.625  0.649-  67 2.09 115 2.09 140 2.09 132 2.10 130 2.13
 259  0.875  0.625  0.549- 131 2.08 137 2.09  66 2.09 114 2.09 129 2.09 127 2.09
 260  0.500  0.500  0.549- 130 2.08  65 2.08 113 2.09 128 2.09 132 2.09 106 2.09
 261  0.875  0.750  0.451-  72 2.09 120 2.09 127 2.09 135 2.09 133 2.09 137 2.10
 262  0.500  0.875  0.451-  71 2.09  96 2.09 119 2.09 136 2.09 134 2.09 138 2.10
 263  0.875  0.875  0.353-  70 2.09  93 2.09 118 2.09 133 2.09 135 2.09
 264  0.500  0.750  0.353-  69 2.09 117 2.09 126 2.09 134 2.09 136 2.09
 265  0.875  0.750  0.649-  76 2.09 139 2.09 131 2.09 124 2.09 137 2.12
 266  0.500  0.875  0.649- 123 2.09  75 2.09 140 2.09 100 2.09 138 2.12
 267  0.875  0.875  0.549- 139 2.07 122 2.09  74 2.09 137 2.09  97 2.09 135 2.09
 268  0.500  0.750  0.549- 140 2.07  73 2.09 121 2.09 138 2.09 130 2.09 136 2.09

IMPORTANT INFORMATION: All symmetrisations will be switched off!
NOSYMM: (Re-)initialisation of all symmetry stuff for point group C_1.

                                     Primitive cell

  volume of cell :    5928.4515

  direct lattice vectors                    reciprocal lattice vectors
    16.698223653  0.000000000  0.000000000     0.059886610  0.000000000  0.000000000
     0.000000000 16.698223653  0.000000000     0.000000000  0.059886610  0.000000000
     0.000000000  0.000000000 21.261833870     0.000000000  0.000000000  0.047032632

  length of vectors
    16.698223653 16.698223653 21.261833870     0.059886610  0.059886610  0.047032632

  position of ions in fractional coordinates (direct lattice)
     0.477761197  0.466085758  0.792915877
     0.560262331  0.456132937  0.791352140
     0.592955920  0.379607261  0.792793700
     0.543117846  0.313201931  0.796071148
     0.460527847  0.323156833  0.797745221
     0.427920168  0.399561042  0.796041289
     0.452177094  0.525718317  0.791661137
     0.599161219  0.507866999  0.788542760
     0.657433706  0.371870280  0.791514355
[...]
   2.08727796 12.52366774  7.50000000
   4.17455591 14.61094570  7.50000000
   2.08727796 14.61094570  9.58727796
   4.17455591 12.52366774  9.58727796
   2.08747045 12.52345308 11.68232709
   4.17469787 14.61068524 11.68259352
   2.08715114 14.61088746 13.75019069
   4.17453433 12.52317589 13.75156128
[...]
   8.34911183 10.43638978  9.58727796
  14.61094570 10.43638978  7.50000000
   8.34911183  8.34911183  7.50000000
  14.61088301  8.34901702 13.80067881
   8.34888663 10.43530300 13.80848490
  14.61104777 10.43652919 11.67574474
   8.34863928  8.35447652 11.67312910
  14.61094570 12.52366774  9.58727796
   8.34911183 14.61094570  9.58727796
  14.61094570 14.61094570  7.50000000
   8.34911183 12.52366774  7.50000000
  14.61131878 12.52365221 13.80092766
   8.34897530 14.61057115 13.80133142
  14.61066682 14.61084509 11.67544789
   8.34882620 12.52301254 11.67701547

--------------------------------------- Iteration      FINAL  ---------------------------------------

--------------------OUTCAR has been truncated-------------------------

[...]

--------------------OUTCAR has been truncated-------------------------

  FORCE on cell =-STRESS in cart. coord.  units (eV):
  Direction    XX          YY          ZZ          XY          YZ          ZX
  Alpha Z  3692.57228  3692.57228  3692.57228
  Ewald  656509.61986656507.28556************    -2.04437   -53.94217   -41.11144
  Hartree696840.56644696839.10004************    -1.20911   -31.38663   -23.72860
  E(xc)  -10216.68394-10216.70685-10234.18728    -0.00964    -0.24090    -0.18941
  Local  ************************************     3.10280    83.21505    63.23419
  n-local-11275.55637-11275.56000-11349.80656     0.00227     0.17248     0.12610
  augment  4304.18648  4304.18350  4269.05133     0.00104     0.01078     0.00630
  Kinetic 29809.80228 29809.98331 29992.66487     0.14725     1.94973     1.50215
  Fock        0.00000     0.00000     0.00000     0.00000     0.00000     0.00000
  Total      63.76873    63.74333   133.61543    -0.00977    -0.22167    -0.16071
  in kB      17.23364    17.22678    36.10987    -0.00264    -0.05991    -0.04343

 VOLUME and BASIS-vectors are now :
  energy-cutoff  :      520.00
  volume of cell :     5928.45
      direct lattice vectors                 reciprocal lattice vectors
    16.698223653  0.000000000  0.000000000     0.059886610  0.000000000  0.000000000
     0.000000000 16.698223653  0.000000000     0.000000000  0.059886610  0.000000000
     0.000000000  0.000000000 21.261833870     0.000000000  0.000000000  0.047032632

  length of vectors
    16.698223653 16.698223653 21.261833870     0.059886610  0.059886610  0.047032632

 FORCES acting on ions:
    Electron-Ion                     Ewald-Force                    Non-Local-Force
   0.706E+02 -.164E+03 -.960E+03   -.712E+02 0.165E+03 0.960E+03   0.362E+00 -.583E+00 -.981E-01
   -.107E+03 -.143E+03 -.963E+03   0.108E+03 0.144E+03 0.963E+03   -.552E+00 -.645E+00 -.859E-01
   -.177E+03 0.213E+02 -.960E+03   0.178E+03 -.215E+02 0.960E+03   -.563E+00 0.103E+00 -.446E-01
   -.700E+02 0.164E+03 -.954E+03   0.705E+02 -.166E+03 0.954E+03   -.282E+00 0.595E+00 -.701E-01
   0.107E+03 0.143E+03 -.951E+03   -.108E+03 -.144E+03 0.951E+03   0.457E+00 0.554E+00 -.115E+00
   0.177E+03 -.217E+02 -.954E+03   -.178E+03 0.219E+02 0.954E+03   0.526E+00 -.800E-01 -.152E-01
   0.316E+02 -.735E+02 -.241E+03   -.341E+02 0.792E+02 0.240E+03   0.238E+01 -.553E+01 0.139E+00
   -.481E+02 -.640E+02 -.242E+03   0.519E+02 0.690E+02 0.241E+03   -.365E+01 -.483E+01 0.364E+00
   -.794E+02 0.956E+01 -.241E+03   0.855E+02 -.103E+02 0.241E+03   -.596E+01 0.714E+00 0.125E+00
   -.316E+02 0.735E+02 -.238E+03   0.341E+02 -.792E+02 0.238E+03   -.241E+01 0.553E+01 -.117E+00
   0.480E+02 0.639E+02 -.236E+03   -.518E+02 -.689E+02 0.237E+03   0.363E+01 0.482E+01 -.259E+00
   0.793E+02 -.978E+01 -.238E+03   -.855E+02 0.105E+02 0.238E+03   0.597E+01 -.749E+00 -.157E+00
   0.295E+01 0.285E+01 0.213E+04   -.295E+01 -.284E+01 -.212E+04   -.299E-02 -.303E-02 -.651E+01
   0.563E+01 0.564E+01 0.213E+04   -.562E+01 -.563E+01 -.213E+04   -.895E-02 -.928E-02 -.652E+01
   0.572E+01 0.683E+01 0.722E+03   -.571E+01 -.682E+01 -.722E+03   -.808E-02 -.663E-02 0.385E+00
   0.682E+01 0.555E+01 0.722E+03   -.682E+01 -.554E+01 -.722E+03   -.548E-02 -.583E-02 0.386E+00
   0.715E+01 0.694E+01 -.691E+03   -.714E+01 -.693E+01 0.691E+03   -.733E-02 -.830E-02 -.190E+00
   0.181E+02 0.181E+02 -.677E+03   -.181E+02 -.181E+02 0.677E+03   -.357E-01 -.314E-01 -.153E+00
   0.180E+02 0.185E+02 -.209E+04   -.179E+02 -.185E+02 0.208E+04   -.125E-01 -.246E-02 0.548E+01
   0.184E+02 0.175E+02 -.209E+04   -.184E+02 -.175E+02 0.208E+04   -.771E-02 -.118E-01 0.547E+01
   0.435E+01 0.364E+01 0.213E+04   -.434E+01 -.364E+01 -.213E+04   -.807E-02 -.515E-02 -.652E+01
   0.750E+01 0.618E+00 0.214E+04   -.749E+01 -.617E+00 -.213E+04   -.118E-01 -.949E-03 -.653E+01
   0.841E+01 0.873E+00 0.727E+03   -.837E+01 -.875E+00 -.727E+03   -.312E-01 0.137E-02 0.395E+00
   0.124E+02 0.785E+01 0.732E+03   -.123E+02 -.782E+01 -.733E+03   -.248E-01 -.200E-01 0.396E+00
   0.151E+02 0.974E+01 -.680E+03   -.150E+02 -.973E+01 0.681E+03   -.416E-01 -.109E-01 -.167E+00
   0.333E+02 0.249E+01 -.658E+03   -.331E+02 -.248E+01 0.658E+03   -.202E+00 -.300E-02 -.528E-01
   0.340E+02 0.222E+01 -.207E+04   -.340E+02 -.222E+01 0.207E+04   -.842E-02 -.142E-02 0.547E+01
   0.586E+02 0.334E+02 -.205E+04   -.585E+02 -.334E+02 0.205E+04   -.936E-01 -.443E-01 0.547E+01
   0.352E+01 0.422E+01 0.213E+04   -.352E+01 -.421E+01 -.213E+04   -.487E-02 -.770E-02 -.652E+01
   -.383E+00 0.421E+01 0.213E+04   0.382E+00 -.420E+01 -.213E+04   0.743E-03 -.413E-02 -.651E+01
   0.760E+01 0.124E+02 0.732E+03   -.758E+01 -.123E+02 -.733E+03   -.160E-01 -.261E-01 0.386E+00
   -.474E+00 0.370E+01 0.718E+03   0.474E+00 -.369E+01 -.719E+03   0.317E-03 -.336E-02 0.376E+00
   0.931E+01 0.146E+02 -.680E+03   -.930E+01 -.146E+02 0.681E+03   -.738E-02 -.356E-01 -.171E+00
   -.109E+01 0.970E+01 -.689E+03   0.109E+01 -.970E+01 0.689E+03   0.274E-03 -.222E-02 -.191E+00
   0.319E+02 0.586E+02 -.205E+04   -.319E+02 -.585E+02 0.205E+04   -.508E-01 -.931E-01 0.548E+01
   -.110E+01 0.874E+01 -.209E+04   0.110E+01 -.874E+01 0.209E+04   0.109E-02 -.206E-02 0.549E+01
   0.541E+01 0.556E+01 0.214E+04   -.540E+01 -.555E+01 -.213E+04   -.829E-02 -.898E-02 -.653E+01
   -.498E+00 0.477E+00 0.213E+04   0.497E+00 -.477E+00 -.213E+04   0.114E-02 -.758E-03 -.651E+01
   0.117E+02 0.145E+01 0.748E+03   -.117E+02 -.144E+01 -.748E+03   0.189E-01 -.154E-02 0.269E+00
   -.805E+00 0.488E+01 0.723E+03   0.803E+00 -.487E+01 -.724E+03   0.176E-02 -.181E-02 0.389E+00
   0.252E+02 0.260E+02 -.641E+03   -.251E+02 -.259E+02 0.642E+03   -.856E-01 -.105E+00 -.166E+00
   -.175E+01 0.115E+01 -.682E+03   0.175E+01 -.115E+01 0.682E+03   0.140E-02 0.722E-02 -.190E+00
   0.939E+02 0.116E+02 -.194E+04   -.936E+02 -.116E+02 0.194E+04   -.359E+00 -.244E-01 0.567E+01
   -.258E+01 0.122E+02 -.209E+04   0.258E+01 -.122E+02 0.208E+04   -.221E-02 -.782E-03 0.547E+01
   0.450E+01 -.294E+01 0.213E+04   -.449E+01 0.294E+01 -.213E+04   -.811E-02 0.433E-02 -.652E+01
   0.592E+01 -.569E+01 0.213E+04   -.590E+01 0.568E+01 -.213E+04   -.101E-01 0.940E-02 -.652E+01
   0.620E+01 -.697E+01 0.723E+03   -.619E+01 0.696E+01 -.724E+03   -.743E-02 0.471E-02 0.380E+00
   0.129E+02 -.636E+01 0.734E+03   -.128E+02 0.633E+01 -.734E+03   -.253E-01 0.194E-01 0.366E+00
   0.162E+02 -.789E+01 -.679E+03   -.162E+02 0.788E+01 0.679E+03   -.533E-01 0.898E-02 -.165E+00
   0.202E+02 -.189E+02 -.674E+03   -.202E+02 0.189E+02 0.674E+03   -.279E-01 0.283E-01 -.134E+00
   0.205E+02 -.192E+02 -.209E+04   -.204E+02 0.192E+02 0.208E+04   -.184E-01 0.955E-02 0.547E+01
   0.656E+02 -.289E+02 -.204E+04   -.654E+02 0.289E+02 0.204E+04   -.156E+00 0.367E-01 0.548E+01
   0.307E+01 -.354E+01 0.213E+04   -.307E+01 0.354E+01 -.212E+04   -.347E-02 0.390E-02 -.652E+01
   0.423E+01 -.568E+00 0.213E+04   -.422E+01 0.566E+00 -.213E+04   -.414E-02 0.894E-03 -.652E+01
   0.387E+01 -.744E+00 0.718E+03   -.386E+01 0.742E+00 -.719E+03   -.471E-02 0.145E-02 0.373E+00
   0.730E+01 -.704E+01 0.723E+03   -.729E+01 0.703E+01 -.723E+03   -.614E-02 0.691E-02 0.390E+00
   0.780E+01 -.874E+01 -.690E+03   -.780E+01 0.873E+01 0.690E+03   -.747E-02 0.670E-02 -.181E+00
   0.979E+01 -.168E+01 -.689E+03   -.979E+01 0.168E+01 0.689E+03   -.265E-02 0.346E-02 -.182E+00
   0.907E+01 -.162E+01 -.209E+04   -.908E+01 0.162E+01 0.209E+04   0.663E-02 -.640E-03 0.548E+01
   0.210E+02 -.223E+02 -.208E+04   -.209E+02 0.223E+02 0.208E+04   -.515E-02 0.208E-01 0.547E+01
[...]
   -.330E+01 -.357E+01 0.160E+04   0.329E+01 0.357E+01 -.161E+04   0.708E-02 0.673E-02 0.353E+01
   0.401E+00 -.374E+01 0.161E+04   -.400E+00 0.373E+01 -.161E+04   -.818E-03 0.488E-02 0.351E+01
   -.275E+02 -.117E+02 -.158E+04   0.274E+02 0.117E+02 0.159E+04   0.203E-01 0.283E-02 -.527E+01
   0.316E+01 -.642E+02 -.154E+04   -.316E+01 0.640E+02 0.155E+04   0.516E-02 0.144E+00 -.521E+01
   -.103E+02 -.957E+01 -.506E+03   0.103E+02 0.956E+01 0.506E+03   0.560E-02 0.153E-01 0.315E+00
   0.214E+01 -.198E+02 -.458E+03   -.212E+01 0.197E+02 0.458E+03   -.175E-01 0.144E+00 0.218E-01
   -.403E+01 -.417E+01 0.540E+03   0.403E+01 0.417E+01 -.540E+03   0.304E-02 0.167E-02 -.444E-01
   0.378E+00 -.981E+00 0.543E+03   -.376E+00 0.983E+00 -.543E+03   -.313E-02 -.332E-02 -.319E-01
   -.238E+01 -.371E+00 0.160E+04   0.238E+01 0.371E+00 -.161E+04   0.351E-02 0.648E-03 0.353E+01
   0.276E+00 -.424E+01 0.160E+04   -.275E+00 0.422E+01 -.161E+04   -.568E-03 0.153E-01 0.352E+01
   -.107E+02 -.109E+02 -.159E+04   0.107E+02 0.109E+02 0.160E+04   0.494E-02 0.669E-02 -.528E+01
   0.824E+00 -.349E+01 -.159E+04   -.825E+00 0.349E+01 0.159E+04   0.103E-02 -.593E-03 -.527E+01
   -.535E+01 -.912E+00 -.512E+03   0.536E+01 0.913E+00 0.512E+03   -.211E-02 -.215E-02 0.317E+00
   0.832E+00 -.156E+02 -.499E+03   -.829E+00 0.156E+02 0.499E+03   -.263E-02 0.439E-01 0.325E+00
   -.506E-01 -.124E+00 0.753E+02   0.458E-11 -.138E-11 -.400E-10   0.685E-01 0.115E+00 -.755E+02

 POSITION                                       TOTAL-FORCE (eV/Angst)
      7.97776      7.78280     16.85885        -0.205228      0.485653      0.046752
      9.35539      7.61661     16.82560         0.317740      0.410196      0.052718
      9.90131      6.33877     16.85625         0.520280     -0.058900      0.043186
      9.06910      5.22992     16.92593         0.207773     -0.490430      0.073720
      7.69000      5.39615     16.96153        -0.296220     -0.427329      0.084241
      7.14551      6.67196     16.92530        -0.514204      0.069430      0.067235
      7.55055      8.77856     16.83217        -0.076249      0.171732      0.010164
     10.00493      8.48048     16.76587         0.116358      0.148970      0.010165
     10.97798      6.20957     16.82905         0.185380     -0.028055      0.007113
      9.49825      4.23497     16.94734         0.067581     -0.172862      0.011892
      7.03982      4.53118     17.00941        -0.120312     -0.160489      0.017113
      6.07001      6.80475     16.94960        -0.207068      0.021421      0.012967
      2.08728      0.00000      7.50000         0.000979      0.000902     -0.022340
      4.17456      2.08728      7.50000         0.002526      0.002836     -0.021759
      2.08728      2.08728      9.58728         0.002529      0.002097      0.013426
      4.17456      0.00000      9.58728         0.001810      0.002008      0.016552
      2.08759      0.00022     11.68226        -0.001784     -0.001213      0.031409
      4.17526      2.08784     11.68286        -0.002317     -0.001400      0.029250
      2.08769      2.08732     13.75107        -0.002883      0.000583      0.460763
      4.17479      0.00014     13.75142        -0.000125     -0.000472      0.456846
      2.08728      4.17456      7.50000         0.002421      0.001617     -0.021906
      4.17456      6.26183      7.50000         0.003615      0.000220     -0.017601
      2.08728      6.26183      9.58728         0.009449     -0.000417      0.014940
      4.17456      4.17456      9.58728         0.008404      0.006816      0.019857
      2.08788      4.17464     11.68287        -0.001522      0.000386      0.028691
      4.17662      6.26179     11.68314        -0.001626      0.001227      0.030573
      2.08795      6.26171     13.75144        -0.002226      0.000908      0.459307
      4.17639      4.17583     13.75111        -0.007129     -0.005047      0.448226
      6.26183      0.00000      7.50000         0.001254      0.002262     -0.022061
      0.00000      2.08728      7.50000        -0.000286      0.001422     -0.022461
      6.26183      2.08728      9.58728         0.005563      0.008818      0.016960
      0.00000      0.00000      9.58728        -0.000191      0.001402      0.015234
      6.26182      0.00018     11.68263         0.000910      0.000910      0.029566
     16.69816      2.08763     11.68228        -0.000080     -0.002440      0.032112
      6.26334      2.08898     13.74974        -0.007267     -0.007836      0.452023
     16.69814      0.00003     13.75009         0.000302     -0.000900      0.459475
      6.26183      4.17456      7.50000         0.002151      0.002617     -0.017754
      0.00000      6.26183      7.50000        -0.000395      0.000082     -0.023049
      6.26183      6.26183      9.58728        -0.005752      0.000943      0.018659
      0.00000      4.17456      9.58728        -0.000468      0.000636      0.015521
      6.26342      4.17672     11.68303        -0.002342     -0.004225      0.030672
     16.69820      6.26141     11.68254        -0.000365      0.001114      0.030843
      6.27228      6.26334     13.75547        -0.041845     -0.003048      0.378422
     16.69821      4.17450     13.75121        -0.000851     -0.000325      0.457729
      2.08728      8.34911      7.50000         0.002487     -0.001312     -0.021915
      4.17456     10.43639      7.50000         0.002835     -0.002547     -0.021742
      2.08728     10.43639      9.58728         0.001979     -0.001830      0.011076
      4.17456      8.34911      9.58728         0.009174     -0.007023      0.019444
      2.08764      8.34882     11.68205        -0.000015     -0.000829      0.030580
      4.17474     10.43597     11.68207         0.000407     -0.001221      0.030276
      2.08756     10.43601     13.75072        -0.003725      0.000576      0.460081
      4.17614      8.34818     13.74835        -0.009553      0.006358      0.444556
      2.08728     12.52367      7.50000         0.001062     -0.001069     -0.022226
      4.17456     14.61095      7.50000         0.001138     -0.000357     -0.022232
      2.08728     14.61095      9.58728         0.001490     -0.000126      0.011781
      4.17456     12.52367      9.58728         0.002024     -0.002040      0.014511
      2.08747     12.52345     11.68233        -0.002030      0.000731      0.030212
      4.17470     14.61069     11.68259        -0.001600      0.002416      0.029669
      2.08715     14.61089     13.75019        -0.000636      0.000388      0.461969
      4.17453     12.52318     13.75156        -0.000119      0.002230      0.458102
[...]
      8.34911     10.43639      9.58728        -0.002311      0.018575      0.042384
     14.61095     10.43639      7.50000         0.001795      0.002058     -0.721078
      8.34911      8.34911      7.50000        -0.000299      0.001390     -0.725838
     14.61088      8.34902     13.80068        -0.002832     -0.000088      0.195886
      8.34889     10.43530     13.80848         0.001658     -0.012933      0.196479
     14.61105     10.43653     11.67574        -0.000237      0.000060     -0.005091
      8.34864      8.35448     11.67313        -0.000789     -0.002766      0.002443
     14.61095     12.52367      9.58728         0.002952      0.000709      0.053337
      8.34911     14.61095      9.58728        -0.000906     -0.001295      0.061731
     14.61095     14.61095      7.50000         0.000789      0.000067     -0.720796
      8.34911     12.52367      7.50000        -0.000232      0.004380     -0.724254
     14.61132     12.52365     13.80093        -0.000958     -0.000860      0.192881
      8.34898     14.61057     13.80133        -0.000354      0.000359      0.192812
     14.61067     14.61085     11.67545         0.000557     -0.000631     -0.006583
      8.34883     12.52301     11.67702         0.000073     -0.000574     -0.008493
    total drift:                                0.017900     -0.009172     -0.207604

  FREE ENERGIE OF THE ION-ELECTRON SYSTEM (eV)
  free  energy   TOTEN  =      -974.29420832 eV

  energy  without entropy=     -974.29420832  energy(sigma->0) =     -974.29420832