 vasp.6.3.0 20Jan22 (build Aug 21 2024 11:13:42) complex
 executed on        HPECrayEX_GCC date 2024.11.26  23:36:14

 INCAR:
   SYSTEM = TiO2
   ISMEAR = 0
   SIGMA = 0.05
   EDIFF = 1E-4
   ALGO = ALL
   ISTART = 0
   IBRION = -1
   NSW = 0
   ISYM = 0
   ISIF = 2
   EDIFFG = -0.01
   DIPOL = 0.5 0.5 0.5
   IDIPOL = 3
   LDIPOL = .TRUE.
   GGA = MK
   LUSE_VDW = .TRUE.
   PARAM1 = 0.1234
   PARAM2 = 0.711357
   ZAB_VDW = -1.8867
   AGGAC = 0.0
   ENCUT = 600
   PREC = Accurate
   LASPH = .TRUE.
   LREAL = .FALSE.
   ISPIN = 1
   NELM = 200
   NELMIN = 8
   NCORE = 16
   KPAR = 1
   LWAVE = .FALSE.
   LCHARG = .FALSE.

 POTCAR:    PAW_PBE C 08Apr2002
 POTCAR:    PAW_PBE H 15Jun2001
 POTCAR:    PAW_PBE Ti_pv 07Sep2000
 POTCAR:    PAW_PBE O 08Apr2002
|               ----> ADVICE to this user running VASP <----                  |
|     You have switched on vdW-DFT.                                           |
|     This routine was written and supplied by Jiri Klimes. We recommend      |
|     that you carefully read and cite the following publications:            |
|       J. Klimes, D.R. Bowler, A. Michelides                                 |
|          J. Phys.: Cond Matt. 22 022201 (2010)                              |
|       J. Klimes, D.R. Bowler, A. Michelides                                 |
|          Phys. Rev. B. 83, 195131 (2011)                                    |
|     and references therein.                                                 |

   TITEL  = PAW_PBE C 08Apr2002
   POMASS =   12.011; ZVAL   =    4.000    mass and valenz
   ENMAX  =  400.000; ENMIN  =  300.000 eV

   TITEL  = PAW_PBE H 15Jun2001
   POMASS =    1.000; ZVAL   =    1.000    mass and valenz
   ENMAX  =  250.000; ENMIN  =  200.000 eV

   TITEL  = PAW_PBE Ti_pv 07Sep2000
   POMASS =   47.880; ZVAL   =   10.000    mass and valenz
   ENMAX  =  222.335; ENMIN  =  166.751 eV

   TITEL  = PAW_PBE O 08Apr2002
   POMASS =   16.000; ZVAL   =    6.000    mass and valenz
   ENMAX  =  400.000; ENMIN  =  300.000 eV

  PAW_PBE C 08Apr2002                   :
  PAW_PBE H 15Jun2001                   :
  PAW_PBE Ti_pv 07Sep2000               :
  PAW_PBE O 08Apr2002                   :

 POSCAR:  C  H Ti  O
  positions in direct lattice
 exchange correlation table for  LEXCH =       43
   RHO(1)=    0.500       N(1)  =     2000
   RHO(2)=  100.500       N(2)  =     4000

 ion  position               nearest neighbor table
   1  0.500  0.500  0.846-   2 1.09   3 1.09   4 1.09   5 1.09
   2  0.497  0.576  0.869-   1 1.09
   3  0.503  0.424  0.869-   1 1.09
   4  0.571  0.503  0.825-   1 1.09
   5  0.429  0.496  0.825-   1 1.09
   6  0.750  0.625  0.265-  86 1.94  87 1.94 146 1.94 147 1.94 168 1.96  89 1.96  16 2.94  36 2.94

   7  0.000  0.750  0.265-  89 1.94 109 1.94 108 1.94  88 1.94  90 1.96  37 2.94  17 2.94
   8  0.000  0.625  0.382-  90 1.94  91 1.94 150 1.94 151 1.94  92 1.96  93 1.96  18 2.94  38 2.94

[...]

  85  0.500  0.500  0.732- 239 1.83 244 1.93 185 1.93 184 1.93 245 1.93  75 2.94  55 2.94
  86  0.750  0.750  0.219-   6 1.94  16 1.94
  87  0.750  0.750  0.311-   6 1.94  16 1.94   9 1.96
  88  0.098  0.625  0.265-   7 1.94  37 1.94  46 1.96
  89  0.902  0.625  0.265-   7 1.94  37 1.94   6 1.96
  90  0.000  0.750  0.336-   8 1.94  18 1.94   7 1.96
  91  0.000  0.750  0.428-   8 1.94  18 1.94  11 1.96
  92  0.848  0.625  0.382-   9 1.94  39 1.94   8 1.96
  93  0.152  0.625  0.382-  49 1.94  79 1.94   8 1.96
  94  0.750  0.750  0.454-  10 1.94  20 1.94   9 1.96
  95  0.750  0.750  0.546-  10 1.94  20 1.94  13 2.09
  96  0.098  0.625  0.500-  11 1.94  41 1.94  50 1.96
  97  0.902  0.625  0.500-  11 1.94  41 1.94  10 1.96
  98  0.000  0.750  0.572-  22 1.89  12 1.89  11 1.98
  99  0.000  0.750  0.665-  15 1.81  12 1.99  22 2.00
 100  0.850  0.625  0.618-  12 1.94  13 1.96  43 1.96
 101  0.150  0.625  0.618-  12 1.94  53 1.96  83 1.96
 102  0.750  0.750  0.690-  13 1.86  14 2.07  24 2.07
 103  0.750  0.750  0.783-  14 1.83  24 1.83
 104  0.094  0.625  0.743-  45 1.93  15 1.93  54 2.01
 105  0.906  0.625  0.743-  45 1.93  15 1.93  14 2.01
 106  0.750  0.000  0.219-  16 1.94  26 1.94
 107  0.750  0.000  0.311-  16 1.94  26 1.94  19 1.96
 108  0.098  0.875  0.265-   7 1.94  17 1.94  56 1.96
 109  0.902  0.875  0.265-   7 1.94  17 1.94  16 1.96
 110  0.000  0.000  0.336-  18 1.94  28 1.94  17 1.96
 111  0.000  0.000  0.428-  18 1.94  28 1.94  21 1.96
 112  0.848  0.875  0.382-   9 1.94  19 1.94  18 1.96
 113  0.152  0.875  0.382-  49 1.94  59 1.94  18 1.96
 114  0.750  0.000  0.454-  20 1.94  30 1.94  19 1.96
 115  0.750  0.000  0.546-  20 1.94  30 1.94  23 2.09
 116  0.098  0.875  0.500-  11 1.94  21 1.94  60 1.96
 117  0.902  0.875  0.500-  11 1.94  21 1.94  20 1.96
 118  0.000  1.000  0.572-  22 1.89  32 1.89  21 1.98
 119  0.000  1.000  0.665-  25 1.81  22 1.99  32 1.99
 120  0.850  0.875  0.619-  22 1.94  23 1.96  13 1.96
 121  0.150  0.875  0.619-  22 1.94  63 1.96  53 1.96
 122  0.750  0.000  0.690-  23 1.86  24 2.07  34 2.07
 123  0.750  0.000  0.783-  24 1.83  34 1.83
 124  0.094  0.875  0.743-  15 1.93  25 1.93  64 2.02
 125  0.906  0.875  0.743-  15 1.93  25 1.93  24 2.02
 126  0.750  0.250  0.219-  26 1.94  36 1.94
 127  0.750  0.250  0.311-  26 1.94  36 1.94  29 1.96
 128  0.098  0.125  0.265-  17 1.94  27 1.94  66 1.96
 129  0.902  0.125  0.265-  17 1.94  27 1.94  26 1.96
 130  0.000  0.250  0.336-  28 1.94  38 1.94  27 1.96
 131  0.000  0.250  0.428-  28 1.94  38 1.94  31 1.96
 132  0.848  0.125  0.382-  19 1.94  29 1.94  28 1.96
 133  0.152  0.125  0.382-  59 1.94  69 1.94  28 1.96
 134  0.750  0.250  0.454-  30 1.94  40 1.94  29 1.96
 135  0.750  0.250  0.546-  30 1.94  40 1.94  33 2.09
 136  0.098  0.125  0.500-  21 1.94  31 1.94  70 1.96
 137  0.902  0.125  0.500-  21 1.94  31 1.94  30 1.96
 138  1.000  0.250  0.572-  32 1.89  42 1.89  31 1.98
 139  1.000  0.250  0.665-  35 1.81  42 1.99  32 2.00
 140  0.850  0.125  0.619-  32 1.94  23 1.96  33 1.96
 141  0.150  0.125  0.619-  32 1.94  63 1.96  73 1.96
 142  0.750  0.250  0.690-  33 1.86  44 2.07  34 2.07
 143  0.750  0.250  0.783-  44 1.83  34 1.83
 144  0.094  0.125  0.743-  35 1.93  25 1.93  74 2.02
[...]
 231  0.500  0.500  0.428-  48 1.94  78 1.94  81 1.96
 232  0.348  0.375  0.382-  69 1.94  79 1.94  78 1.96
 233  0.652  0.375  0.382-  29 1.94  39 1.94  78 1.96
 234  0.250  0.500  0.454-  50 1.94  80 1.94  79 1.96
 235  0.250  0.500  0.546-  50 1.94  80 1.94  83 2.09
 236  0.598  0.375  0.500-  71 1.94  81 1.94  40 1.96
 237  0.402  0.375  0.500-  71 1.94  81 1.94  80 1.96
 238  0.500  0.500  0.573-  52 1.89  82 1.89  81 1.99
 239  0.500  0.500  0.665-  85 1.83  52 2.00  82 2.00
 240  0.350  0.375  0.619-  82 1.94  83 1.96  73 1.96
 241  0.650  0.375  0.619-  82 1.94  43 1.96  33 1.96
 242  0.249  0.500  0.690-  83 1.86  84 2.07  54 2.07
 243  0.251  0.500  0.783-  54 1.83  84 1.83
 244  0.594  0.374  0.742-  75 1.92  85 1.93  44 2.01
 245  0.406  0.374  0.742-  75 1.92  85 1.93  84 2.01

IMPORTANT INFORMATION: All symmetrisations will be switched off!
NOSYMM: (Re-)initialisation of all symmetry stuff for point group C_1.

                                     Primitive cell

  volume of cell :    4157.1448

  direct lattice vectors                    reciprocal lattice vectors
    12.893495846  0.000000000  0.000000000     0.077558485  0.000000000  0.000000000
     0.000000000 11.761907618  0.000000000     0.000000000  0.085020222  0.000000000
     0.000000000  0.000000000 27.412377441     0.000000000  0.000000000  0.036479871

  length of vectors
    12.893495846 11.761907618 27.412377441     0.077558485  0.085020222  0.036479871

  position of ions in fractional coordinates (direct lattice)
     0.500059382  0.500003291  0.846236309
     0.496865752  0.575690968  0.869072309
     0.503248360  0.424309333  0.869076739
     0.571043841  0.503492264  0.824522601
     0.429072249  0.496499283  0.824523067
     0.750000000  0.625000000  0.264823466
     0.000000000  0.750000000  0.264823466
     0.000000000  0.625000000  0.382411733
     0.750000000  0.750000000  0.382411733
     0.750000000  0.625000000  0.500000000
     0.000000000  0.750000000  0.500000000
     0.000001066  0.625012148  0.615623716
     0.750022322  0.750015875  0.622132681
     0.750151147  0.625151247  0.743363821
     0.000022843  0.750065975  0.730987267
     0.750000000  0.875000000  0.264823466
     0.000000000  0.000000000  0.264823466
     0.000000000  0.875000000  0.382411733
     0.750000000  0.000000000  0.382411733
     0.750000000  0.875000000  0.500000000
     0.000000000  0.000000000  0.500000000
     0.999999659  0.875010996  0.615647555
     0.749986164  0.000003195  0.622189382
     0.749918136  0.875045362  0.743566919
     0.999999770  0.000000004  0.730996536
     0.750000000  0.125000000  0.264823466
     0.000000000  0.250000000  0.264823466
     0.000000000  0.125000000  0.382411733
     0.750000000  0.250000000  0.382411733
     0.750000000  0.125000000  0.500000000
     0.000000000  0.250000000  0.500000000
     0.000000384  0.124989004  0.615647556
     0.750014692  0.249988612  0.622144972
     0.749900433  0.124972652  0.743572075
     0.999978150  0.249934014  0.730987266
     0.750000000  0.375000000  0.264823466
     0.000000000  0.500000000  0.264823466
     0.000000000  0.375000000  0.382411733
     0.750000000  0.500000000  0.382411733
     0.750000000  0.375000000  0.500000000
     0.000000000  0.500000000  0.500000000
     0.999998904  0.374987844  0.615623716
     0.750053595  0.499997871  0.622144408
     0.750102741  0.374886709  0.743400123
     0.000000857  0.499999985  0.730965013
     0.250000000  0.625000000  0.264823466
     0.500000000  0.750000000  0.264823466
     0.500000000  0.625000000  0.382411733
     0.250000000  0.750000000  0.382411733
     0.250000000  0.625000000  0.500000000
     0.500000000  0.750000000  0.500000000
     0.500001984  0.624637396  0.615995431
     0.249985349  0.750011242  0.622145218
     0.249899006  0.625112711  0.743400994
     0.500005947  0.750084969  0.730788702
     0.250000000  0.875000000  0.264823466
     0.500000000  0.000000000  0.264823466
     0.500000000  0.875000000  0.382411733
     0.250000000  0.000000000  0.382411733
     0.250000000  0.875000000  0.500000000
[...]
     0.500000000  0.500000000  0.428355971
     0.347680320  0.375000000  0.382411733
     0.652319680  0.375000000  0.382411733
     0.250000000  0.500000000  0.454055762
     0.250000000  0.500000000  0.545944238
     0.597680320  0.375000000  0.500000000
     0.402319680  0.375000000  0.500000000
     0.499999900  0.500000007  0.572502605
     0.499999903  0.500000000  0.665368740
     0.349765748  0.375028049  0.618657471
     0.650234033  0.375033997  0.618651248
     0.249300009  0.500020015  0.690090553
     0.250860631  0.499956247  0.783038718
     0.594020562  0.374338331  0.741935187
     0.405920627  0.374307864  0.741840836

  ion indices of the primitive-cell ions
   primitive index   ion index
                 1           1
                 2           2
                 3           3
                 4           4
                 5           5
                 6           6
[...]
   3.22318506  8.82156295 17.05447955
   3.22207179  7.35251796 20.37838864
   6.44682460  8.82243011 20.03265573
   3.22337396 10.29166917  7.25944080
   6.44674792  0.00000000  7.25944080
   6.44674792 10.29166917 10.48281476
   3.22337396  0.00000000 10.48281476
   3.22337396 10.29166917 13.70618872
[...]
   6.44674792  5.88095381 11.74225556
   4.48281476  4.41071536 10.48281476
   8.41068109  4.41071536 10.48281476
   3.22337396  5.88095381 12.44674792
   3.22337396  5.88095381 14.96562952
   7.70618872  4.41071536 13.70618872
   5.18730713  4.41071536 13.70618872
   6.44674663  5.88095389 15.69365750
   6.44674668  5.88095381 18.23933905
   4.50970322  4.41104526 16.95887210
   8.38378980  4.41111523 16.95870152
   3.21434862  5.88118923 18.91702271
   3.23447050  5.88043919 21.46495289
   7.65900165  4.40293287 20.33820737
   5.23373592  4.40257452 20.33562099

--------------------------------------- Iteration      FINAL  ---------------------------------------

--------------------OUTCAR has been truncated-------------------------

[...]

--------------------OUTCAR has been truncated-------------------------

  FORCE on cell =-STRESS in cart. coord.  units (eV):
  Direction    XX          YY          ZZ          XY          YZ          ZX
  Alpha Z  5299.09550  5299.09550  5299.09550
  Ewald  672128.52272689982.57982************    -0.23539     0.00641    -0.04828
  Hartree714330.57418723960.13433************    -0.17332     0.00042    -0.04191
  E(xc)   -8650.70577 -8645.19481 -8647.55336    -0.00025     0.00002    -0.00001
  Local  ************************************     0.43650    -0.00478     0.09046
  n-local -5465.56422 -5386.24509 -5513.74090    -0.00055    -0.00027     0.00041
  augment  5246.67191  5222.53591  5251.89437    -0.00183     0.00008    -0.00010
  Kinetic 28773.30396 28292.04199 28810.49339    -0.01952    -0.00004    -0.00177
  Fock        0.00000     0.00000     0.00000     0.00000     0.00000     0.00000
  Total     125.84449    81.46204    59.57359     0.00563     0.00184    -0.00121
  in kB      48.50088    31.39574    22.95986     0.00217     0.00071    -0.00047

 VOLUME and BASIS-vectors are now :
  energy-cutoff  :      600.00
  volume of cell :     4157.14
      direct lattice vectors                 reciprocal lattice vectors
    12.893495846  0.000000000  0.000000000     0.077558485  0.000000000  0.000000000
     0.000000000 11.761907618  0.000000000     0.000000000  0.085020222  0.000000000
     0.000000000  0.000000000 27.412377441     0.000000000  0.000000000  0.036479871

  length of vectors
    12.893495846 11.761907618 27.412377441     0.077558485  0.085020222  0.036479871

 FORCES acting on ions:
    Electron-Ion                     Ewald-Force                    Non-Local-Force
   0.185E-01 0.163E-02 -.126E+04   -.165E-01 -.305E-02 0.126E+04   -.249E-02 -.233E-02 -.761E+00
   0.184E+01 -.437E+02 -.303E+03   -.207E+01 0.486E+02 0.306E+03   0.218E+00 -.465E+01 -.331E+01
   -.184E+01 0.437E+02 -.303E+03   0.206E+01 -.486E+02 0.306E+03   -.217E+00 0.465E+01 -.331E+01
   -.359E+02 -.199E+01 -.329E+03   0.410E+02 0.221E+01 0.326E+03   -.487E+01 -.214E+00 0.285E+01
   0.359E+02 0.200E+01 -.329E+03   -.410E+02 -.222E+01 0.326E+03   0.487E+01 0.215E+00 0.285E+01
   -.403E+00 -.152E+00 0.337E+04   0.403E+00 0.153E+00 -.337E+04   -.118E-03 -.140E-04 0.369E+00
   -.221E-03 -.183E+00 0.355E+04   0.172E-03 0.183E+00 -.355E+04   0.144E-04 0.113E-05 -.369E+01
   -.789E-03 -.794E-01 0.172E+04   0.846E-03 0.794E-01 -.172E+04   -.120E-04 0.269E-04 -.367E-01
   -.192E+00 -.971E-01 0.171E+04   0.192E+00 0.975E-01 -.171E+04   0.113E-03 -.917E-05 0.198E+00
   -.473E+00 -.280E+00 -.104E+02   0.469E+00 0.279E+00 0.112E+02   0.625E-03 0.339E-05 -.123E+00
   -.104E-01 -.474E+00 -.411E+00   0.107E-01 0.476E+00 -.522E+00   -.707E-04 -.889E-03 0.301E+00
   -.255E-01 -.136E+01 -.168E+04   0.255E-01 0.136E+01 0.168E+04   -.294E-04 -.187E-02 0.251E-01
   -.416E+01 -.350E+01 -.172E+04   0.416E+01 0.350E+01 0.172E+04   -.309E-02 -.267E-02 -.455E-01
   -.339E+02 -.139E+02 -.331E+04   0.339E+02 0.139E+02 0.331E+04   0.570E-02 0.786E-02 -.116E+00
   -.486E-01 -.506E+01 -.337E+04   0.480E-01 0.505E+01 0.337E+04   0.694E-03 0.150E-02 0.872E+00
   -.360E+00 -.152E+00 0.337E+04   0.361E+00 0.152E+00 -.337E+04   -.141E-05 0.200E-04 0.369E+00
   -.111E-03 -.107E-04 0.355E+04   0.144E-03 -.561E-07 -.355E+04   0.774E-05 -.430E-05 -.369E+01
   -.856E-03 -.799E-01 0.172E+04   0.851E-03 0.800E-01 -.172E+04   -.208E-04 0.241E-04 -.367E-01
   -.211E+00 -.984E-03 0.171E+04   0.210E+00 0.999E-03 -.171E+04   0.180E-03 -.110E-05 0.198E+00
   -.725E+00 -.319E+00 -.111E+02   0.723E+00 0.325E+00 0.119E+02   0.587E-03 -.259E-03 -.124E+00
   -.449E-03 0.107E-04 -.921E+00   0.477E-03 -.114E-05 -.983E-02   -.723E-05 0.292E-05 0.300E+00
   -.349E-01 -.134E+01 -.168E+04   0.351E-01 0.134E+01 0.168E+04   -.155E-03 -.169E-02 0.253E-01
   -.314E+01 -.644E-02 -.173E+04   0.313E+01 0.644E-02 0.173E+04   0.106E-02 -.735E-04 -.436E-01
   -.124E+02 -.100E+02 -.333E+04   0.124E+02 0.100E+02 0.333E+04   0.122E-01 0.688E-03 -.129E+00
   -.285E-02 0.169E-03 -.338E+04   0.283E-02 -.146E-03 0.338E+04   -.310E-04 0.798E-05 0.880E+00
   -.360E+00 0.152E+00 0.337E+04   0.361E+00 -.152E+00 -.337E+04   -.815E-06 -.111E-04 0.369E+00
   -.183E-03 0.183E+00 0.355E+04   0.144E-03 -.183E+00 -.355E+04   -.200E-04 0.229E-04 -.369E+01
   0.487E-03 0.799E-01 0.172E+04   -.510E-03 -.800E-01 -.172E+04   0.155E-04 -.246E-04 -.368E-01
   -.193E+00 0.972E-01 0.171E+04   0.192E+00 -.976E-01 -.171E+04   0.123E-03 0.964E-05 0.198E+00
   -.730E+00 0.304E+00 -.111E+02   0.728E+00 -.309E+00 0.119E+02   0.653E-03 0.156E-03 -.124E+00
   0.881E-02 0.474E+00 -.411E+00   -.903E-02 -.476E+00 -.522E+00   0.798E-04 0.883E-03 0.301E+00
   0.322E-01 0.134E+01 -.168E+04   -.324E-01 -.134E+01 0.168E+04   0.150E-03 0.168E-02 0.253E-01
   -.421E+01 0.351E+01 -.172E+04   0.421E+01 -.352E+01 0.172E+04   -.287E-02 0.206E-02 -.454E-01
   -.123E+02 0.995E+01 -.333E+04   0.123E+02 -.995E+01 0.333E+04   0.121E-01 -.541E-03 -.129E+00
   0.371E-01 0.506E+01 -.337E+04   -.364E-01 -.505E+01 0.337E+04   -.677E-03 -.149E-02 0.872E+00
   -.402E+00 0.152E+00 0.337E+04   0.403E+00 -.153E+00 -.337E+04   -.599E-04 0.129E-04 0.369E+00
   -.177E-03 -.418E-04 0.355E+04   0.171E-03 0.628E-07 -.355E+04   0.796E-05 -.621E-05 -.369E+01
   0.418E-03 0.793E-01 0.172E+04   -.435E-03 -.794E-01 -.172E+04   0.761E-05 -.229E-04 -.367E-01
   -.174E+00 0.866E-03 0.171E+04   0.174E+00 -.927E-03 -.171E+04   0.173E-04 -.509E-05 0.198E+00
   -.477E+00 0.294E+00 -.104E+02   0.472E+00 -.295E+00 0.112E+02   0.685E-03 0.950E-04 -.123E+00
   -.101E-02 -.122E-04 0.883E-01   0.101E-02 0.380E-05 -.102E+01   -.867E-06 0.465E-05 0.301E+00
   0.194E-01 0.136E+01 -.168E+04   -.195E-01 -.136E+01 0.168E+04   0.334E-04 0.188E-02 0.251E-01
   -.538E+01 0.545E-02 -.172E+04   0.538E+01 -.587E-02 0.172E+04   -.292E-02 0.573E-03 -.469E-01
   -.337E+02 0.140E+02 -.331E+04   0.337E+02 -.140E+02 0.331E+04   0.507E-02 -.748E-02 -.118E+00
   -.820E-02 -.115E-03 -.337E+04   0.817E-02 0.148E-03 0.337E+04   0.169E-05 -.889E-05 0.863E+00
   0.403E+00 -.152E+00 0.337E+04   -.403E+00 0.153E+00 -.337E+04   0.706E-04 -.685E-04 0.369E+00
   0.197E-03 -.248E+00 0.355E+04   -.164E-03 0.249E+00 -.355E+04   -.600E-05 -.494E-04 -.369E+01
   0.748E-03 -.464E-01 0.172E+04   -.771E-03 0.501E-01 -.172E+04   0.766E-05 -.676E-03 -.369E-01
   0.193E+00 -.971E-01 0.171E+04   -.192E+00 0.975E-01 -.171E+04   -.120E-03 -.833E-05 0.198E+00
   0.477E+00 -.294E+00 -.104E+02   -.472E+00 0.295E+00 0.112E+02   -.688E-03 -.770E-04 -.123E+00
   0.896E-02 -.233E+00 0.627E+00   -.920E-02 0.216E+00 -.152E+01   0.298E-04 0.106E-01 0.291E+00
   0.130E-01 -.262E+01 -.167E+04   -.131E-01 0.264E+01 0.167E+04   -.524E-04 -.272E-01 0.309E-01
   0.421E+01 -.351E+01 -.172E+04   -.421E+01 0.351E+01 0.172E+04   0.286E-02 -.204E-02 -.454E-01
   0.337E+02 -.140E+02 -.331E+04   -.337E+02 0.140E+02 0.331E+04   -.509E-02 0.744E-02 -.118E+00
   0.154E+00 -.342E+02 -.334E+04   -.153E+00 0.342E+02 0.334E+04   -.166E-02 -.159E-01 0.921E+00
   0.360E+00 -.152E+00 0.337E+04   -.361E+00 0.152E+00 -.337E+04   0.269E-04 -.403E-04 0.369E+00
   0.145E-03 -.806E-05 0.355E+04   -.146E-03 -.171E-06 -.355E+04   0.769E-05 -.260E-05 -.369E+01
   0.756E-03 -.483E-01 0.172E+04   -.764E-03 0.501E-01 -.172E+04   0.730E-05 -.507E-03 -.369E-01
   0.211E+00 0.101E-02 0.171E+04   -.210E+00 -.100E-02 -.171E+04   -.180E-03 -.143E-04 0.198E+00
   0.730E+00 -.304E+00 -.111E+02   -.728E+00 0.308E+00 0.119E+02   -.628E-03 -.160E-03 -.124E+00
[...]
   -.549E+02 0.347E-01 0.103E+04   0.590E+02 -.351E-01 -.103E+04   -.344E+01 0.622E-03 0.164E+00
   0.549E+02 0.353E-01 0.103E+04   -.590E+02 -.358E-01 -.103E+04   0.344E+01 0.691E-03 0.164E+00
   0.156E+00 -.195E-02 0.452E+03   -.154E+00 0.214E-02 -.457E+03   -.265E-02 -.507E-03 0.408E+01
   0.538E+00 -.627E-02 -.480E+03   -.532E+00 0.649E-02 0.487E+03   -.637E-02 -.497E-03 -.678E+01
   -.567E+02 0.163E-01 -.200E+00   0.615E+02 -.177E-01 -.876E-02   -.501E+01 0.935E-02 0.292E+00
   0.567E+02 0.115E-01 -.198E+00   -.615E+02 -.128E-01 -.109E-01   0.501E+01 0.908E-02 0.292E+00
   0.149E-02 -.260E-04 -.553E+03   -.155E-02 0.172E-04 0.547E+03   0.514E-04 -.106E-04 0.634E+01
   0.706E-02 -.166E-03 -.143E+04   -.735E-02 0.153E-03 0.142E+04   0.261E-03 -.234E-04 0.196E+01
   -.274E+02 0.178E+01 -.101E+04   0.305E+02 -.180E+01 0.101E+04   -.300E+01 0.269E-01 0.812E+00
   0.274E+02 0.179E+01 -.101E+04   -.305E+02 -.181E+01 0.101E+04   0.300E+01 0.272E-01 0.818E+00
   0.116E+02 -.118E+00 -.160E+04   -.117E+02 0.125E+00 0.160E+04   0.976E-01 -.621E-02 -.189E+01
   0.395E+02 -.440E-02 -.240E+04   -.395E+02 0.110E-02 0.243E+04   0.443E-01 0.341E-02 -.206E+02
   -.411E+02 0.220E+02 -.205E+04   0.472E+02 -.220E+02 0.205E+04   -.591E+01 -.112E-01 -.364E+01
   0.411E+02 0.219E+02 -.205E+04   -.472E+02 -.219E+02 0.205E+04   0.591E+01 -.189E-01 -.357E+01
   0.296E-02 0.301E-02 0.974E+02   0.149E-11 -.221E-11 -.273E-11   -.275E-02 -.297E-02 -.973E+02

 POSITION                                       TOTAL-FORCE (eV/Angst)
      6.44751      5.88099     23.19735        -0.000447     -0.003720     -0.018049
      6.40634      6.77122     23.82334        -0.010706      0.234536      0.151672
      6.48863      4.99069     23.82346         0.010592     -0.231134      0.149527
      7.36275      5.92203     22.60212         0.225189      0.006887     -0.148916
      5.53224      5.83978     22.60214        -0.224912     -0.006606     -0.148772
      9.67012      7.35119      7.25944         0.000124      0.000323     -3.645168
      0.00000      8.82143      7.25944        -0.000037      0.000225      2.510604
      0.00000      7.35119     10.48281         0.000046      0.000068      0.542385
      9.67012      8.82143     10.48281        -0.000454      0.000452     -0.734038
      9.67012      7.35119     13.70619        -0.003948     -0.000908      0.653983
      0.00000      8.82143     13.70619         0.000180      0.001109     -0.641316
      0.00001      7.35134     16.87571        -0.000004     -0.000306     -0.026602
      9.67041      8.82162     17.05414         0.000139     -0.000356     -0.054380
      9.67207      7.35297     20.37737         0.004204     -0.000244      0.224229
      0.00029      8.82221     20.03810         0.000095     -0.002255      0.030744
      9.67012     10.29167      7.25944         0.000272      0.000215     -3.645234
      0.00000      0.00000      7.25944         0.000040     -0.000015      2.510422
      0.00000     10.29167     10.48281        -0.000027      0.000056      0.542460
      9.67012      0.00000     10.48281        -0.000642      0.000014     -0.733695
      9.67012     10.29167     13.70619        -0.001852      0.006076      0.657223
      0.00000      0.00000     13.70619         0.000021      0.000012     -0.640604
     12.89349     10.29180     16.87636        -0.000022     -0.000232     -0.025835
      9.66994      0.00004     17.05569        -0.001585     -0.000016     -0.053824
      9.66907     10.29220     20.38294        -0.000023      0.001481      0.230870
     12.89349      0.00000     20.03835        -0.000056      0.000031      0.030106
      9.67012      1.47024      7.25944         0.000177     -0.000217     -3.645018
      0.00000      2.94048      7.25944        -0.000059     -0.000183      2.510606
      0.00000      1.47024     10.48281        -0.000009     -0.000039      0.542450
      9.67012      2.94048     10.48281        -0.000406     -0.000403     -0.733857
      9.67012      1.47024     13.70619        -0.001848     -0.004610      0.658286
      0.00000      2.94048     13.70619        -0.000139     -0.001123     -0.641325
      0.00000      1.47011     16.87636        -0.000011      0.000234     -0.025814
      9.67031      2.94034     17.05447         0.000115      0.000249     -0.054457
      9.66884      1.46992     20.38308        -0.000188     -0.001399      0.230861
     12.89321      2.93970     20.03810         0.000002      0.002252      0.030899
      9.67012      4.41072      7.25944         0.000302     -0.000211     -3.645074
      0.00000      5.88095      7.25944         0.000001     -0.000048      2.510530
      0.00000      4.41072     10.48281        -0.000010     -0.000102      0.542372
      9.67012      5.88095     10.48281        -0.000170     -0.000066     -0.734107
      9.67012      4.41072     13.70619        -0.003932     -0.000565      0.654944
      0.00000      5.88095     13.70619        -0.000001     -0.000004     -0.641906
     12.89348      4.41057     16.87571         0.000009      0.000306     -0.026599
      9.67081      5.88093     17.05446         0.001984      0.000091     -0.054008
      9.67145      4.40938     20.37836         0.004493      0.000304      0.224080
      0.00001      5.88095     20.03749        -0.000032      0.000024      0.032221
      3.22337      7.35119      7.25944        -0.000179      0.000151     -3.644994
      6.44675      8.82143      7.25944         0.000027      0.000386      2.511806
      6.44675      7.35119     10.48281        -0.000017      0.003035      0.543067
      3.22337      8.82143     10.48281         0.000415      0.000398     -0.733826
      3.22337      7.35119     13.70619         0.003928      0.000556      0.655040
      6.44675      8.82143     13.70619        -0.000211     -0.006362     -0.610539
      6.44677      7.34693     16.88590        -0.000089     -0.006517     -0.021817
      3.22319      8.82156     17.05448        -0.000143     -0.000243     -0.054484
      3.22207      7.35252     20.37839        -0.004448     -0.000405      0.224032
      6.44682      8.82243     20.03266        -0.000021     -0.004694      0.030013
      3.22337     10.29167      7.25944        -0.000107      0.000081     -3.645307
      6.44675      0.00000      7.25944         0.000006     -0.000011      2.511613
      6.44675     10.29167     10.48281        -0.000001      0.001282      0.544976
      3.22337      0.00000     10.48281         0.000624     -0.000008     -0.733693
      3.22337     10.29167     13.70619         0.001852      0.004587      0.658273
[...]
      6.44675      5.88095     11.74226        -0.000011     -0.000025      0.088571
      4.48281      4.41072     10.48281         0.650411      0.000186      0.052245
      8.41068      4.41072     10.48281        -0.650404      0.000225      0.052252
      3.22337      5.88095     12.44675        -0.000837     -0.000313     -0.310464
      3.22337      5.88095     14.96563         0.000462     -0.000281      0.421577
      7.70619      4.41072     13.70619        -0.232580      0.007884      0.082955
      5.18731      4.41072     13.70619         0.232293      0.007830      0.083002
      6.44675      5.88095     15.69366        -0.000008     -0.000020     -0.143934
      6.44675      5.88095     18.23934        -0.000021     -0.000036      0.180817
      4.50970      4.41105     16.95887         0.088817     -0.001361     -0.022770
      8.38379      4.41112     16.95870        -0.088831     -0.001346     -0.022816
      3.21435      5.88119     18.91702        -0.000053      0.000206     -0.041289
      3.23447      5.88044     21.46495         0.004500      0.000113      0.219702
      7.65900      4.40293     20.33821         0.190751     -0.006929      0.068339
      5.23374      4.40257     20.33562        -0.190732     -0.006941      0.066738
    total drift:                                0.000215      0.000033      0.103585

  FREE ENERGIE OF THE ION-ELECTRON SYSTEM (eV)
  free  energy   TOTEN  =     -1761.77873349 eV

  energy  without entropy=    -1761.77873349  energy(sigma->0) =    -1761.77873349