 vasp.6.3.0 20Jan22 (build Apr  1 2022 16:44:48) complex
 executed on        HPECrayEX_GCC date 2023.01.26  19:00:55

 INCAR:
   SYSTEM = MgO-rocksalt
   ISMEAR = 0
   SIGMA = 0.05
   EDIFF = 1E-6
   ALGO = ALL
   ISTART = 0
   IBRION = -1
   NSW = 0
   ISYM = 0
   DIPOL = 0.5 0.5 0.5
   IDIPOL = 3
   LDIPOL = .TRUE.
   GGA = MK
   LUSE_VDW = .TRUE.
   PARAM1 = 0.1234
   PARAM2 = 0.711357
   ZAB_VDW = -1.8867
   AGGAC = 0.0
   ENCUT = 600
   PREC = Accurate
   LASPH = .TRUE.
   LREAL = .FALSE.
   ISPIN = 1
   NELM = 200
   NELMIN = 8
   NCORE = 8
   KPAR = 1
   LWAVE = .FALSE.
   LCHARG = .FALSE.

 POTCAR:    PAW_PBE N 08Apr2002
 POTCAR:    PAW_PBE O 08Apr2002
 POTCAR:    PAW_PBE Mg_pv 13Apr2007
 POTCAR:    PAW_PBE O 08Apr2002
|               ----> ADVICE to this user running VASP <----                  |
|     You have switched on vdW-DFT.                                           |
|     This routine was written and supplied by Jiri Klimes. We recommend      |
|     that you carefully read and cite the following publications:            |
|       J. Klimes, D.R. Bowler, A. Michelides                                 |
|          J. Phys.: Cond Matt. 22 022201 (2010)                              |
|       J. Klimes, D.R. Bowler, A. Michelides                                 |
|          Phys. Rev. B. 83, 195131 (2011)                                    |
|     and references therein.                                                 |

   TITEL  = PAW_PBE N 08Apr2002
   POMASS =   14.001; ZVAL   =    5.000    mass and valenz
   ENMAX  =  400.000; ENMIN  =  300.000 eV

[...]

   TITEL  = PAW_PBE Mg_pv 13Apr2007
   POMASS =   24.305; ZVAL   =    8.000    mass and valenz
   ENMAX  =  403.929; ENMIN  =  302.947 eV

   TITEL  = PAW_PBE O 08Apr2002
   POMASS =   16.000; ZVAL   =    6.000    mass and valenz
   ENMAX  =  400.000; ENMIN  =  300.000 eV

  PAW_PBE N 08Apr2002                   :
  PAW_PBE O 08Apr2002                   :
  PAW_PBE Mg_pv 13Apr2007               :
  PAW_PBE O 08Apr2002                   :

 POSCAR:  N  O Mg  O
  positions in direct lattice
 exchange correlation table for  LEXCH =       43
   RHO(1)=    0.500       N(1)  =     2000
   RHO(2)=  100.500       N(2)  =     4000

 ion  position               nearest neighbor table
   1  0.546  0.546  0.757-   3 1.18
   2  0.707  0.707  0.756-   4 1.18
   3  0.520  0.520  0.810-   1 1.18
   4  0.734  0.734  0.809-   2 1.18
   5  0.000  0.750  0.350-  37 2.14  39 2.14  40 2.14  47 2.14  56 2.14
   6  0.250  0.000  0.350-  38 2.14  39 2.14  40 2.14  48 2.14  55 2.14
   7  0.000  0.000  0.450-  39 2.14  38 2.14  37 2.14  45 2.14  54 2.14  43 2.14
   8  0.250  0.750  0.450-  40 2.14  38 2.14  37 2.14  46 2.14  53 2.14  44 2.14
   9  1.000  0.750  0.550-  60 2.14  51 2.14  43 2.14  44 2.14  37 2.15  41 2.15
  10  0.250  0.000  0.550-  59 2.14  43 2.14  44 2.14  52 2.14  38 2.14  42 2.16
  11  0.001  0.001  0.649-  43 2.13  42 2.13  49 2.13  58 2.14  41 2.14
  12  0.249  0.751  0.649-  41 2.11  44 2.12  57 2.13  42 2.14  50 2.14
  13  0.000  0.250  0.350-  45 2.14  39 2.14  47 2.14  48 2.14  64 2.14
  14  0.250  0.500  0.350-  46 2.14  40 2.14  47 2.14  48 2.14  63 2.14
  15  0.000  0.500  0.450-  47 2.14  45 2.14  46 2.14  37 2.14  62 2.14  51 2.14
  16  0.250  0.250  0.450-  48 2.14  45 2.14  46 2.14  38 2.14  61 2.14  52 2.14
  17  0.000  0.250  0.550-  51 2.14  43 2.14  68 2.14  52 2.14  45 2.14  49 2.16
  18  0.251  0.500  0.550-  67 2.14  44 2.14  52 2.14  51 2.14  46 2.15  50 2.15
  19  0.002  0.500  0.649-  50 2.11  51 2.12  66 2.13  49 2.14  41 2.14
  20  0.250  0.250  0.649-  52 2.13  42 2.13  49 2.13  50 2.14  65 2.14
  21  0.500  0.750  0.350-  53 2.14  40 2.14  55 2.14  56 2.14  63 2.14
  22  0.750  0.000  0.350-  54 2.14  39 2.14  55 2.14  56 2.14  64 2.14
  23  0.500  0.000  0.450-  55 2.14  53 2.14  54 2.14  38 2.14  61 2.14  59 2.14
  24  0.750  0.750  0.450-  56 2.14  53 2.14  54 2.14  37 2.14  62 2.14  60 2.15
  25  0.501  0.750  0.550-  67 2.13  60 2.13  44 2.14  59 2.14  53 2.15  57 2.17
  26  0.750  1.000  0.550-  60 2.14  59 2.14  43 2.14  68 2.14  54 2.15  58 2.15
  27  0.500  0.002  0.649-  65 2.11  59 2.12  57 2.13  42 2.14  58 2.14
  28  0.753  0.753  0.652-  58 2.13  41 2.13  60 2.17  57 2.17  66 2.17
  29  0.500  0.250  0.350-  61 2.14  55 2.14  48 2.14  63 2.14  64 2.14
  30  0.750  0.500  0.350-  62 2.14  56 2.14  47 2.14  63 2.14  64 2.14
  31  0.500  0.500  0.450-  63 2.14  53 2.14  61 2.14  62 2.14  46 2.14  67 2.15
  32  0.750  0.250  0.450-  64 2.14  54 2.14  61 2.14  62 2.14  45 2.14  68 2.14
  33  0.500  0.251  0.550-  67 2.14  68 2.14  52 2.14  59 2.14  61 2.15  65 2.15
  34  0.750  0.501  0.550-  67 2.13  60 2.13  68 2.14  51 2.14  62 2.15  66 2.17
  35  0.498  0.498  0.652-  65 2.13  50 2.13  67 2.17  66 2.17  57 2.17
  36  0.751  0.249  0.649-  58 2.11  68 2.12  66 2.13  49 2.14  65 2.14
  37  0.000  0.750  0.450-   5 2.14   7 2.14   8 2.14  15 2.14  24 2.14   9 2.15
  38  0.250  0.000  0.450-   6 2.14   7 2.14   8 2.14  16 2.14  23 2.14  10 2.14
  39  0.000  0.000  0.350-   7 2.14   6 2.14   5 2.14  13 2.14  22 2.14
  40  0.250  0.750  0.350-   8 2.14   6 2.14   5 2.14  14 2.14  21 2.14
  41  0.001  0.750  0.651-  12 2.11  28 2.13  11 2.14  19 2.14   9 2.15
  42  0.250  0.000  0.651-  11 2.13  20 2.13  27 2.14  12 2.14  10 2.16
  43  0.000  0.000  0.550-  11 2.13  10 2.14  17 2.14   7 2.14   9 2.14  26 2.14
  44  0.250  0.750  0.550-  12 2.12  18 2.14  10 2.14  25 2.14   8 2.14   9 2.14
  45  0.000  0.250  0.450-  13 2.14   7 2.14  15 2.14  16 2.14  32 2.14  17 2.14
  46  0.250  0.500  0.450-  14 2.14   8 2.14  15 2.14  16 2.14  31 2.14  18 2.15
  47  0.000  0.500  0.350-  15 2.14  13 2.14  14 2.14   5 2.14  30 2.14
  48  0.250  0.250  0.350-  16 2.14  13 2.14  14 2.14   6 2.14  29 2.14
  49  0.000  0.250  0.651-  11 2.13  20 2.13  19 2.14  36 2.14  17 2.16
  50  0.249  0.500  0.651-  19 2.11  35 2.13  20 2.14  12 2.14  18 2.15
  51  1.000  0.500  0.550-  19 2.12  17 2.14   9 2.14  34 2.14  15 2.14  18 2.14
  52  0.250  0.250  0.550-  20 2.13  33 2.14  18 2.14  10 2.14  17 2.14  16 2.14
  53  0.500  0.750  0.450-  21 2.14   8 2.14  23 2.14  24 2.14  31 2.14  25 2.15
  54  0.750  0.000  0.450-  22 2.14   7 2.14  23 2.14  24 2.14  32 2.14  26 2.15
  55  0.500  0.000  0.350-  23 2.14  21 2.14  22 2.14   6 2.14  29 2.14
  56  0.750  0.750  0.350-  24 2.14  21 2.14  22 2.14   5 2.14  30 2.14
  57  0.498  0.752  0.652-  27 2.13  12 2.13  25 2.17  35 2.17  28 2.17
  58  0.750  0.001  0.651-  36 2.11  28 2.13  11 2.14  27 2.14  26 2.15
  59  0.500  1.000  0.550-  27 2.12  10 2.14  26 2.14  25 2.14  23 2.14  33 2.14
  60  0.750  0.750  0.551-  34 2.13  25 2.13  26 2.14   9 2.14  24 2.15  28 2.17
  61  0.500  0.250  0.450-  29 2.14  23 2.14  16 2.14  31 2.14  32 2.14  33 2.15
  62  0.750  0.500  0.450-  30 2.14  24 2.14  15 2.14  31 2.14  32 2.14  34 2.15
  63  0.500  0.500  0.350-  31 2.14  21 2.14  29 2.14  30 2.14  14 2.14
  64  0.750  0.250  0.350-  32 2.14  22 2.14  29 2.14  30 2.14  13 2.14
  65  0.500  0.249  0.651-  27 2.11  35 2.13  20 2.14  36 2.14  33 2.15
  66  0.752  0.498  0.652-  19 2.13  36 2.13  34 2.17  35 2.17  28 2.17
  67  0.500  0.500  0.551-  34 2.13  25 2.13  33 2.14  18 2.14  31 2.15  35 2.17
  68  0.750  0.250  0.550-  36 2.12  33 2.14  17 2.14  34 2.14  32 2.14  26 2.14

IMPORTANT INFORMATION: All symmetrisations will be switched off!
NOSYMM: (Re-)initialisation of all symmetry stuff for point group C_1.

                                     Primitive cell

  volume of cell :    1563.6717

  direct lattice vectors                    reciprocal lattice vectors
     8.546113626  0.000000000  0.000000000     0.117012252  0.000000000  0.000000000
     0.000000000  8.546113626  0.000000000     0.000000000  0.117012252  0.000000000
     0.000000000  0.000000000 21.409585219     0.000000000  0.000000000  0.046708051

  length of vectors
     8.546113626  8.546113626 21.409585219     0.117012252  0.117012252  0.046708051

  position of ions in fractional coordinates (direct lattice)
     0.546243915  0.546243915  0.756787421
     0.706614210  0.706614222  0.756306563
     0.519932206  0.519932223  0.810024028
     0.734028198  0.734028240  0.809367406
     0.000000000  0.750000000  0.350310383
     0.250000000  0.000000000  0.350310383
     0.000000000  0.000000000  0.450103461
     0.250000000  0.750000000  0.450103461
     0.999674252  0.750051947  0.550437484
     0.250084252  0.000063431  0.550220237
     0.000610343  0.000610344  0.649381764
     0.248533863  0.750610463  0.649234544
     0.000000000  0.250000000  0.350310383
     0.250000000  0.500000000  0.350310383
     0.000000000  0.500000000  0.450103461
     0.250000000  0.250000000  0.450103461
     0.000063429  0.250084255  0.550220236
     0.250544462  0.500073023  0.550469990
     0.001705900  0.499619075  0.649233676
     0.249650879  0.249650881  0.649419949
     0.500000000  0.750000000  0.350310383
     0.750000000  0.000000000  0.350310383
     0.500000000  0.000000000  0.450103461
     0.750000000  0.750000000  0.450103461
     0.500604685  0.749503550  0.550330800
     0.750051946  0.999674252  0.550437483
     0.499619072  0.001705907  0.649233675
     0.752516077  0.752516079  0.651819518
     0.500000000  0.250000000  0.350310383
     0.750000000  0.500000000  0.350310383
     0.500000000  0.500000000  0.450103461
     0.750000000  0.250000000  0.450103461
     0.500073021  0.250544464  0.550469990
     0.749503547  0.500604688  0.550330800
     0.497887102  0.497887100  0.652030816
     0.750610463  0.248533868  0.649234543
     0.000000000  0.750000000  0.450103461
     0.250000000  0.000000000  0.450103461
     0.000000000  0.000000000  0.350310383
     0.250000000  0.750000000  0.350310383
     0.001397713  0.750355047  0.650879985
     0.249826297  0.000411573  0.651167066
     0.000074825  0.000074824  0.549905667
     0.250479047  0.750048529  0.550004386
     0.000000000  0.250000000  0.450103461
     0.250000000  0.500000000  0.450103461
     0.000000000  0.500000000  0.350310383
     0.250000000  0.250000000  0.350310383
     0.000411568  0.249826300  0.651167065
     0.248925468  0.499890982  0.650964099
     0.999692605  0.500065754  0.550007403
     0.250083176  0.250083176  0.549928201
     0.500000000  0.750000000  0.450103461
     0.750000000  0.000000000  0.450103461
     0.500000000  0.000000000  0.350310383
     0.750000000  0.750000000  0.350310383
     0.498103301  0.752177901  0.651593367
     0.750355046  0.001397714  0.650879984
     0.500065751  0.999692607  0.550007403
     0.749781762  0.749781764  0.550618747
     0.500000000  0.250000000  0.450103461
     0.750000000  0.500000000  0.450103461
     0.500000000  0.500000000  0.350310383
     0.750000000  0.250000000  0.350310383
     0.499890982  0.248925470  0.650964098
     0.752177900  0.498103302  0.651593364
     0.500368842  0.500368844  0.550648800
     0.750048529  0.250479050  0.550004385

  ion indices of the primitive-cell ions
   primitive index   ion index
                 1           1
                 2           2
                 3           3
                 4           4
                 5           5
[...]
   2.13652841  4.27305681  7.50000000
   0.00000000  4.27305681  9.63652841
   2.13652841  2.13652841  9.63652841
   0.00054207  2.13724846 11.77998704
   2.14118144  4.27368088 11.78533416
   0.01457882  4.26980138 13.89982372
   2.13354478  2.13354479 13.90381174
   4.27305681  6.40958522  7.50000000
   6.40958522  0.00000000  7.50000000
   4.27305681  0.00000000  9.63652841
   6.40958522  6.40958522  9.63652841
   4.27822452  6.40534250 11.78235416
   6.41002916  8.54332975 11.78463820
   4.26980136  0.01457888 13.89982370
   6.43108790  6.43108792 13.95518553
   4.27305681  2.13652841  7.50000000
   6.40958522  4.27305681  7.50000000
   4.27305681  4.27305681  9.63652841
   6.40958522  2.13652841  9.63652841
   4.27368086  2.14118146 11.78533416
   6.40534248  4.27822454 11.78235416
   4.25499975  4.25499973 13.95970931
   6.41480230  2.12399868 13.89984227
   0.00000000  6.40958522  9.63652841
   2.13652841  0.00000000  9.63652841
   0.00000000  0.00000000  7.50000000
   2.13652841  6.40958522  7.50000000
   0.01194501  6.41261949 13.93507051
   2.13504392  0.00351735 13.94121678
   0.00063946  0.00063946 11.77325223
   2.14062239  6.40999995 11.77536578
   0.00000000  2.13652841  9.63652841
   2.13652841  4.27305681  9.63652841
   0.00000000  4.27305681  7.50000000
   2.13652841  2.13652841  7.50000000
   0.00351731  2.13504394 13.94121678
   2.12734533  4.27212513 13.93687135
   8.54348659  4.27361875 11.77543037
   2.13723924  2.13723924 11.77373469
   4.27305681  6.40958522  9.63652841
   6.40958522  0.00000000  9.63652841
   4.27305681  0.00000000  7.50000000
   6.40958522  6.40958522  7.50000000
   4.25684741  6.42819781 13.95034372
   6.41261948  0.01194503 13.93507049
   4.27361873  8.54348661 11.77543037
   6.40772014  6.40772015 11.78851899
   4.27305681  2.13652841  9.63652841
   6.40958522  4.27305681  9.63652841
   4.27305681  4.27305681  7.50000000
   6.40958522  2.13652841  7.50000000
   4.27212513  2.12734535 13.93687133
   6.42819780  4.25684742 13.95034365
   4.27620898  4.27620899 11.78916241
   6.40999995  2.14062242 11.77536576

--------------------------------------- Iteration      FINAL  ---------------------------------------

--------------------OUTCAR has been truncated-------------------------

[...]

--------------------OUTCAR has been truncated-------------------------

  FORCE on cell =-STRESS in cart. coord.  units (eV):
  Direction    XX          YY          ZZ          XY          YZ          ZX
  Alpha Z   919.36582   919.36582   919.36582
  Ewald  150582.09791150582.09798************   318.41955     1.31565     1.31550
  Hartree161360.93580161360.93585************   240.25600    -0.06033    -0.06041
  E(xc)   -2552.60218 -2552.60218 -2550.74634     0.52695     0.00686     0.00686
  Local  ************************320177.42676  -574.43234    -0.94952    -0.94931
  n-local -2895.10972 -2895.10972 -2927.33683    -7.86970    -0.00741    -0.00744
  augment  1066.55300  1066.55300  1056.22499     2.04753    -0.01145    -0.01141
  Kinetic  7747.02295  7747.02293  7740.36894    20.65236    -0.40362    -0.40361
  Fock        0.00000     0.00000     0.00000     0.00000     0.00000     0.00000
  Total     -50.21002   -50.21003   -20.25918    -0.39965    -0.10983    -0.10981
  in kB     -51.44645   -51.44646   -20.75807    -0.40949    -0.11253    -0.11252

 VOLUME and BASIS-vectors are now :
  energy-cutoff  :      600.00
  volume of cell :     1563.67
      direct lattice vectors                 reciprocal lattice vectors
     8.546113626  0.000000000  0.000000000     0.117012252  0.000000000  0.000000000
     0.000000000  8.546113626  0.000000000     0.000000000  0.117012252  0.000000000
     0.000000000  0.000000000 21.409585219     0.000000000  0.000000000  0.046708051

  length of vectors
     8.546113626  8.546113626 21.409585219     0.117012252  0.117012252  0.046708051

 FORCES acting on ions:
    Electron-Ion                     Ewald-Force                    Non-Local-Force
   0.437E+02 0.437E+02 -.106E+04   -.406E+02 -.406E+02 0.102E+04   -.302E+01 -.302E+01 0.403E+02
   -.416E+02 -.416E+02 -.106E+04   0.382E+02 0.382E+02 0.102E+04   0.335E+01 0.335E+01 0.402E+02
   0.132E+03 0.132E+03 -.155E+04   -.144E+03 -.144E+03 0.160E+04   0.124E+02 0.124E+02 -.576E+02
   -.134E+03 -.134E+03 -.155E+04   0.147E+03 0.147E+03 0.160E+04   -.129E+02 -.129E+02 -.574E+02
   -.217E+00 -.182E+00 0.204E+04   0.218E+00 0.184E+00 -.203E+04   -.103E-02 -.103E-02 -.673E+01
   0.182E+00 -.203E+00 0.203E+04   -.183E+00 0.205E+00 -.203E+04   0.732E-03 -.122E-02 -.674E+01
   -.651E+00 -.651E+00 0.735E+03   0.657E+00 0.657E+00 -.735E+03   -.512E-02 -.512E-02 0.360E+00
   0.118E+01 -.572E+00 0.736E+03   -.117E+01 0.576E+00 -.737E+03   -.922E-02 -.295E-02 0.414E+00
   -.635E+01 -.379E+01 -.552E+03   0.622E+01 0.381E+01 0.553E+03   0.120E+00 -.934E-02 -.526E+00
   0.372E+01 -.393E+01 -.563E+03   -.373E+01 0.395E+01 0.563E+03   0.962E-02 -.152E-01 -.261E+00
   -.214E+02 -.214E+02 -.188E+04   0.215E+02 0.215E+02 0.187E+04   -.158E+00 -.158E+00 0.596E+01
   0.255E+02 -.223E+02 -.186E+04   -.260E+02 0.224E+02 0.185E+04   0.506E+00 -.143E+00 0.596E+01
   -.203E+00 0.182E+00 0.203E+04   0.205E+00 -.183E+00 -.203E+04   -.123E-02 0.727E-03 -.674E+01
   0.199E+00 0.204E+00 0.203E+04   -.199E+00 -.205E+00 -.203E+04   0.413E-03 0.109E-02 -.674E+01
   -.125E+01 0.671E+00 0.736E+03   0.125E+01 -.673E+00 -.736E+03   0.267E-02 0.228E-02 0.414E+00
   0.579E+00 0.579E+00 0.735E+03   -.576E+00 -.576E+00 -.735E+03   -.962E-03 -.955E-03 0.367E+00
   -.393E+01 0.372E+01 -.563E+03   0.395E+01 -.373E+01 0.563E+03   -.152E-01 0.961E-02 -.261E+00
   0.613E+01 0.401E+01 -.553E+03   -.598E+01 -.403E+01 0.554E+03   -.136E+00 0.144E-01 -.516E+00
   -.263E+02 0.229E+02 -.186E+04   0.268E+02 -.231E+02 0.185E+04   -.487E+00 0.149E+00 0.597E+01
   0.207E+02 0.207E+02 -.188E+04   -.208E+02 -.208E+02 0.188E+04   0.153E+00 0.153E+00 0.595E+01
   0.219E+00 -.200E+00 0.204E+04   -.219E+00 0.200E+00 -.203E+04   0.295E-03 -.211E-03 -.673E+01
   -.182E+00 -.217E+00 0.204E+04   0.184E+00 0.218E+00 -.203E+04   -.103E-02 -.103E-02 -.673E+01
   0.671E+00 -.125E+01 0.736E+03   -.673E+00 0.125E+01 -.736E+03   0.228E-02 0.266E-02 0.414E+00
   -.116E+01 -.116E+01 0.737E+03   0.117E+01 0.117E+01 -.737E+03   -.125E-02 -.124E-02 0.572E+00
   0.626E+01 -.604E+01 -.544E+03   -.613E+01 0.590E+01 0.544E+03   -.119E+00 0.135E+00 0.162E+00
   -.379E+01 -.635E+01 -.552E+03   0.381E+01 0.622E+01 0.553E+03   -.934E-02 0.120E+00 -.526E+00
   0.229E+02 -.263E+02 -.186E+04   -.231E+02 0.268E+02 0.185E+04   0.149E+00 -.487E+00 0.597E+01
   -.391E+02 -.391E+02 -.174E+04   0.399E+02 0.399E+02 0.174E+04   -.791E+00 -.791E+00 0.349E+01
   0.204E+00 0.199E+00 0.203E+04   -.205E+00 -.199E+00 -.203E+04   0.109E-02 0.418E-03 -.674E+01
   -.200E+00 0.219E+00 0.204E+04   0.200E+00 -.219E+00 -.203E+04   -.216E-03 0.294E-03 -.673E+01
   0.126E+01 0.126E+01 0.737E+03   -.127E+01 -.127E+01 -.737E+03   -.481E-03 -.487E-03 0.577E+00
   -.572E+00 0.118E+01 0.736E+03   0.576E+00 -.117E+01 -.737E+03   -.296E-02 -.922E-02 0.414E+00
   0.401E+01 0.613E+01 -.553E+03   -.403E+01 -.598E+01 0.554E+03   0.144E-01 -.136E+00 -.516E+00
   -.604E+01 0.626E+01 -.544E+03   0.590E+01 -.613E+01 0.544E+03   0.135E+00 -.119E+00 0.161E+00
   0.402E+02 0.402E+02 -.175E+04   -.410E+02 -.410E+02 0.174E+04   0.769E+00 0.769E+00 0.358E+01
   -.223E+02 0.255E+02 -.186E+04   0.224E+02 -.260E+02 0.185E+04   -.143E+00 0.506E+00 0.596E+01
   -.711E+00 -.513E+00 0.551E+03   0.736E+00 0.516E+00 -.551E+03   -.325E-01 -.583E-02 -.955E-01
   0.518E+00 -.577E+00 0.551E+03   -.529E+00 0.582E+00 -.551E+03   0.155E-01 -.664E-02 -.873E-01
   -.135E+00 -.135E+00 0.153E+04   0.136E+00 0.136E+00 -.153E+04   -.195E-02 -.195E-02 0.362E+01
   0.170E+00 -.120E+00 0.153E+04   -.171E+00 0.121E+00 -.153E+04   0.150E-02 -.140E-02 0.362E+01
   -.312E+02 -.117E+02 -.140E+04   0.310E+02 0.115E+02 0.140E+04   0.279E+00 0.123E+00 -.502E+01
   0.103E+02 -.107E+02 -.143E+04   -.102E+02 0.106E+02 0.144E+04   -.108E+00 0.103E+00 -.500E+01
   -.359E+01 -.359E+01 -.416E+03   0.358E+01 0.358E+01 0.415E+03   0.137E-01 0.137E-01 0.224E+00
   0.389E+01 -.349E+01 -.410E+03   -.390E+01 0.349E+01 0.410E+03   0.161E-01 0.671E-02 0.312E+00
   -.577E+00 0.518E+00 0.551E+03   0.582E+00 -.529E+00 -.551E+03   -.664E-02 0.156E-01 -.873E-01
   0.676E+00 0.594E+00 0.551E+03   -.710E+00 -.604E+00 -.551E+03   0.449E-01 0.146E-01 -.104E+00
   -.185E+00 0.135E+00 0.153E+04   0.186E+00 -.137E+00 -.153E+04   -.181E-02 0.240E-02 0.362E+01
   0.120E+00 0.120E+00 0.153E+04   -.121E+00 -.121E+00 -.153E+04   0.155E-02 0.154E-02 0.362E+01
   -.107E+02 0.103E+02 -.143E+04   0.106E+02 -.102E+02 0.144E+04   0.103E+00 -.108E+00 -.500E+01
   0.303E+02 0.120E+02 -.140E+04   -.301E+02 -.119E+02 0.141E+04   -.283E+00 -.121E+00 -.501E+01
   -.408E+01 0.365E+01 -.410E+03   0.410E+01 -.365E+01 0.410E+03   -.175E-01 -.105E-01 0.315E+00
   0.343E+01 0.343E+01 -.416E+03   -.342E+01 -.342E+01 0.416E+03   -.102E-01 -.102E-01 0.224E+00
   0.737E+00 -.674E+00 0.553E+03   -.781E+00 0.711E+00 -.553E+03   0.586E-01 -.492E-01 -.806E-01
   -.513E+00 -.711E+00 0.551E+03   0.516E+00 0.736E+00 -.551E+03   -.583E-02 -.325E-01 -.955E-01
   0.135E+00 -.185E+00 0.153E+04   -.137E+00 0.186E+00 -.153E+04   0.240E-02 -.181E-02 0.362E+01
   -.171E+00 -.171E+00 0.153E+04   0.171E+00 0.171E+00 -.153E+04   -.379E-04 -.367E-04 0.363E+01
   0.389E+02 -.382E+02 -.134E+04   -.385E+02 0.378E+02 0.135E+04   -.367E+00 0.354E+00 -.451E+01
   -.117E+02 -.312E+02 -.140E+04   0.115E+02 0.310E+02 0.140E+04   0.123E+00 0.279E+00 -.502E+01
   0.365E+01 -.408E+01 -.410E+03   -.365E+01 0.410E+01 0.410E+03   -.105E-01 -.175E-01 0.315E+00
   -.396E+01 -.396E+01 -.408E+03   0.399E+01 0.399E+01 0.408E+03   -.219E-01 -.219E-01 -.286E+00
   0.594E+00 0.676E+00 0.551E+03   -.604E+00 -.710E+00 -.551E+03   0.146E-01 0.449E-01 -.104E+00
   -.674E+00 0.737E+00 0.553E+03   0.711E+00 -.781E+00 -.553E+03   -.492E-01 0.586E-01 -.806E-01
   0.186E+00 0.186E+00 0.153E+04   -.187E+00 -.187E+00 -.153E+04   0.110E-02 0.111E-02 0.363E+01
   -.120E+00 0.170E+00 0.153E+04   0.121E+00 -.171E+00 -.153E+04   -.140E-02 0.150E-02 0.362E+01
   0.120E+02 0.303E+02 -.140E+04   -.119E+02 -.301E+02 0.141E+04   -.121E+00 -.283E+00 -.501E+01
   -.382E+02 0.389E+02 -.134E+04   0.378E+02 -.385E+02 0.135E+04   0.354E+00 -.367E+00 -.451E+01
   0.417E+01 0.417E+01 -.409E+03   -.419E+01 -.419E+01 0.410E+03   0.196E-01 0.196E-01 -.332E+00
   -.349E+01 0.389E+01 -.410E+03   0.349E+01 -.390E+01 0.410E+03   0.671E-02 0.161E-01 0.312E+00
   0.155E+00 0.155E+00 0.540E+02   0.000E+00 0.483E-12 -.432E-11   -.155E+00 -.155E+00 -.540E+02

 POSITION                                       TOTAL-FORCE (eV/Angst)
      4.66826      4.66826     16.20250         0.054665      0.054666      0.417008
      6.03881      6.03881     16.19221        -0.056099     -0.056102      0.428476
      4.44340      4.44340     17.34228         0.192306      0.192302     -0.590298
      6.27309      6.27309     17.32822        -0.202654     -0.202656     -0.590540
      0.00000      6.40959      7.50000         0.000533      0.000404      0.483508
      2.13653      0.00000      7.50000        -0.000326      0.000500      0.485831
      0.00000      0.00000      9.63653         0.001148      0.001150      0.021718
      2.13653      6.40959      9.63653         0.002345      0.000524      0.023067
      8.54333      6.41003     11.78464        -0.005962      0.001827     -0.002647
      2.13725      0.00054     11.77999        -0.001311      0.002092     -0.004593
      0.00522      0.00522     13.90299        -0.003172     -0.003157     -0.158179
      2.12400      6.41480     13.89984         0.002135     -0.005023     -0.148330
      0.00000      2.13653      7.50000         0.000494     -0.000327      0.485836
      2.13653      4.27306      7.50000        -0.000308     -0.000438      0.483875
      0.00000      4.27306      9.63653         0.000750      0.000186      0.023884
      2.13653      2.13653      9.63653         0.001558      0.001565      0.022821
      0.00054      2.13725     11.77999         0.002099     -0.001312     -0.004600
      2.14118      4.27368     11.78533         0.005482     -0.002727     -0.002603
      0.01458      4.26980     13.89982        -0.002299      0.004554     -0.148474
      2.13354      2.13354     13.90381         0.002646      0.002641     -0.159438
      4.27306      6.40959      7.50000        -0.000217      0.000169      0.483132
      6.40959      0.00000      7.50000         0.000410      0.000533      0.483490
      4.27306      0.00000      9.63653         0.000192      0.000748      0.023887
      6.40959      6.40959      9.63653         0.003044      0.003050      0.026739
      4.27822      6.40534     11.78235         0.005647     -0.005773     -0.006882
      6.41003      8.54333     11.78464         0.001821     -0.005967     -0.002645
      4.26980      0.01458     13.89982         0.004555     -0.002296     -0.148472
      6.43109      6.43109     13.95519        -0.010131     -0.010129     -0.079764
      4.27306      2.13653      7.50000        -0.000436     -0.000301      0.483866
      6.40959      4.27306      7.50000         0.000166     -0.000217      0.483134
      4.27306      4.27306      9.63653        -0.001757     -0.001757      0.027543
      6.40959      2.13653      9.63653         0.000522      0.002343      0.023064
      4.27368      2.14118     11.78533        -0.002722      0.005486     -0.002606
      6.40534      4.27822     11.78235        -0.005773      0.005642     -0.006895
      4.25500      4.25500     13.95971         0.008883      0.008884     -0.082099
      6.41480      2.12400     13.89984        -0.005019      0.002126     -0.148309
      0.00000      6.40959      9.63653        -0.008110     -0.002531      0.047487
      2.13653      0.00000      9.63653         0.004514     -0.002330      0.027258
      0.00000      0.00000      7.50000        -0.000574     -0.000575     -0.250707
      2.13653      6.40959      7.50000         0.000424     -0.000406     -0.249456
      0.01195      6.41262     13.93507         0.005208      0.001807     -0.134677
      2.13504      0.00352     13.94122        -0.001176      0.000202     -0.142844
      0.00064      0.00064     11.77325         0.001212      0.001211      0.003447
      2.14062      6.41000     11.77537         0.000470      0.001599      0.003563
      0.00000      2.13653      9.63653        -0.002334      0.004521      0.027255
      2.13653      4.27306      9.63653         0.011018      0.004664      0.048054
      0.00000      4.27306      7.50000        -0.000501      0.000699     -0.249461
      2.13653      2.13653      7.50000         0.000462      0.000465     -0.250920
      0.00352      2.13504     13.94122         0.000204     -0.001172     -0.142841
      2.12735      4.27213     13.93687        -0.006616     -0.001779     -0.135371
      8.54349      4.27362     11.77543        -0.001007     -0.001157      0.003593
      2.13724      2.13724     11.77373        -0.001729     -0.001727      0.002944
      4.27306      6.40959      9.63653         0.014989     -0.012557      0.039969
      6.40959      0.00000      9.63653        -0.002540     -0.008113      0.047489
      4.27306      0.00000      7.50000         0.000699     -0.000506     -0.249457
      6.40959      6.40959      7.50000         0.000052      0.000050     -0.248287
      4.25685      6.42820     13.95034         0.011147     -0.011470     -0.068421
      6.41262      0.01195     13.93507         0.001809      0.005210     -0.134672
      4.27362      8.54349     11.77543        -0.001148     -0.001003      0.003594
      6.40772      6.40772     11.78852         0.000584      0.000587     -0.005170
      4.27306      2.13653      9.63653         0.004651      0.011010      0.048047
      6.40959      4.27306      9.63653        -0.012553      0.014990      0.039977
      4.27306      4.27306      7.50000         0.000255      0.000261     -0.248552
      6.40959      2.13653      7.50000        -0.000407      0.000424     -0.249464
      4.27213      2.12735     13.93687        -0.001772     -0.006612     -0.135366
      6.42820      4.25685     13.95034        -0.011459      0.011151     -0.068419
      4.27621      4.27621     11.78916        -0.000584     -0.000584     -0.005666
      6.41000      2.14062     11.77537         0.001599      0.000460      0.003568
    total drift:                                0.000109      0.000098      0.008959

  FREE ENERGIE OF THE ION-ELECTRON SYSTEM (eV)
  free  energy   TOTEN  =      -284.11387424 eV

  energy  without entropy=     -284.11387424  energy(sigma->0) =     -284.11387424