 vasp.6.3.0 20Jan22 (build Apr  1 2022 16:44:48) complex
 executed on        HPECrayEX_GCC date 2023.02.14  20:31:02

 INCAR:
   SYSTEM = MgO-rocksalt
   ISMEAR = 0
   SIGMA = 0.05
   EDIFF = 1E-7
   ALGO = ALL
   ISTART = 0
   IBRION = 2
   NSW = 1000
   ISYM = 0
   ISIF = 2
   EDIFFG = -0.01
   DIPOL = 0.5 0.5 0.5
   IDIPOL = 3
   LDIPOL = .TRUE.
   GGA = PE
   IVDW = 1
   VDW_C6 = 1.75 0.70 0.14 0.63 0.70
   VDW_R0 = 1.452 1.342 1.001 1.243 1.342
   ENCUT = 520
   PREC = Accurate
   LASPH = .TRUE.
   LREAL = Auto
   ISPIN = 1
   NELM = 200
   NELMIN = 8
   NCORE = 8
   KPAR = 1
   LWAVE = .FALSE.
   LCHARG = .FALSE.

 POTCAR:    PAW_PBE C 08Apr2002
 POTCAR:    PAW_PBE O 08Apr2002
 POTCAR:    PAW_PBE H 15Jun2001
 POTCAR:    PAW_PBE Mg 13Apr2007
 POTCAR:    PAW_PBE O 08Apr2002
 POTCAR:    PAW_PBE C 08Apr2002
   VRHFIN =C: s2p2

   TITEL  = PAW_PBE C 08Apr2002
   POMASS =   12.011; ZVAL   =    4.000    mass and valenz
   ENMAX  =  400.000; ENMIN  =  300.000 eV

[...]

   TITEL  = PAW_PBE H 15Jun2001
   POMASS =    1.000; ZVAL   =    1.000    mass and valenz
   ENMAX  =  250.000; ENMIN  =  200.000 eV

[...]

   TITEL  = PAW_PBE O 08Apr2002
   POMASS =   16.000; ZVAL   =    6.000    mass and valenz
   ENMAX  =  400.000; ENMIN  =  300.000 eV

 Optimization of the real space projectors (new method)

 maximal supplied QI-value         = 25.13
 optimisation between [QCUT,QGAM] = [ 11.56, 23.12] = [ 37.43,149.72] Ry
 Optimized for a Real-space Cutoff    1.04 Angstroem

   l    n(q)    QCUT    max X(q) W(low)/X(q) W(high)/X(q)  e(spline)
   0      7    11.561   115.676    0.20E-03    0.60E-03    0.21E-06
   0      7    11.561    87.132    0.20E-03    0.59E-03    0.21E-06
   1      7    11.561     4.429    0.23E-03    0.35E-03    0.15E-06
   1      7    11.561     2.733    0.18E-03    0.25E-03    0.12E-06
 Optimization of the real space projectors (new method)

[...]

   l    n(q)    QCUT    max X(q) W(low)/X(q) W(high)/X(q)  e(spline)
   0      9    11.527    28.265    0.62E-04    0.53E-04    0.73E-07
   0      9    11.527    10.429    0.52E-04    0.40E-04    0.58E-07
   1      8    11.527    13.073    0.98E-04    0.18E-03    0.86E-07
   1      8    11.527     9.625    0.79E-04    0.15E-03    0.74E-07
   2      8    11.527     4.652    0.22E-03    0.72E-04    0.47E-07
 Optimization of the real space projectors (new method)

 maximal supplied QI-value         = 24.76
 optimisation between [QCUT,QGAM] = [ 11.64, 23.27] = [ 37.91,151.63] Ry
 Optimized for a Real-space Cutoff    1.14 Angstroem

   l    n(q)    QCUT    max X(q) W(low)/X(q) W(high)/X(q)  e(spline)
   0      8    11.635    20.381    0.10E-03    0.33E-03    0.24E-06
   0      8    11.635    15.268    0.11E-03    0.35E-03    0.26E-06
   1      7    11.635     5.964    0.24E-03    0.31E-03    0.30E-06
   1      7    11.635     5.382    0.22E-03    0.25E-03    0.26E-06
  PAW_PBE C 08Apr2002                   :
  PAW_PBE O 08Apr2002                   :
  PAW_PBE H 15Jun2001                   :
  PAW_PBE Mg 13Apr2007                  :
  PAW_PBE O 08Apr2002                   :

 POSCAR:  C  O  H Mg  O
  positions in direct lattice
 exchange correlation table for  LEXCH =        8
   RHO(1)=    0.500       N(1)  =     2000
   RHO(2)=  100.500       N(2)  =     4000

 ion  position               nearest neighbor table
   1  0.528  0.556  0.792-  12 1.10  11 1.10   9 1.10   5 1.44
   2  0.320  0.401  0.793-  16 1.10  15 1.10  13 1.10   6 1.44
   3  0.474  0.195  0.793-  20 1.10  19 1.10  17 1.10   7 1.44
   4  0.681  0.347  0.791-  24 1.10  23 1.10  21 1.10   8 1.44
   5  0.508  0.488  0.754-  10 1.00   1 1.44 144 2.27
   6  0.388  0.383  0.754-  14 1.00   2 1.44  55 2.27
   7  0.492  0.262  0.754-  18 1.00   3 1.44 120 2.26
   8  0.613  0.367  0.754-  22 1.00   4 1.44 103 2.26
   9  0.520  0.543  0.842-   1 1.10
  10  0.552  0.449  0.757-   5 1.00
  11  0.590  0.573  0.783-   1 1.10
  12  0.489  0.604  0.777-   1 1.10
  13  0.333  0.392  0.843-   2 1.10
  14  0.426  0.427  0.757-   6 1.00
  15  0.301  0.463  0.785-   2 1.10
  16  0.272  0.362  0.778-   2 1.10
  17  0.484  0.209  0.843-   3 1.10
  18  0.448  0.301  0.757-   7 1.00
  19  0.413  0.176  0.786-   3 1.10
  20  0.513  0.147  0.778-   3 1.10
  21  0.668  0.355  0.842-   4 1.10
  22  0.574  0.323  0.757-   8 1.00
  23  0.698  0.285  0.783-   4 1.10
  24  0.729  0.385  0.777-   4 1.10
  25  0.125  0.000  0.351- 153 2.12 155 2.12 156 2.12 172 2.12 195 2.12  28 2.99  44 2.99  67 2.99
                            27 2.99  66 2.99  42 2.99  82 2.99  26 2.99
  26  0.250  0.125  0.351- 154 2.12 155 2.12 156 2.12 164 2.12 171 2.12  28 2.99  36 2.99  43 2.99
                            27 2.99  41 2.99  33 2.99  49 2.99  25 2.99
  27  0.125  0.125  0.450- 155 2.12 154 2.12 153 2.12 161 2.12 170 2.12 159 2.12  33 2.99  42 2.99
                            25 2.99  26 2.99  44 2.99  52 2.99  36 2.99  28 2.99  46 3.00  37 3.00
  28  0.250  0.000  0.450- 156 2.12 154 2.12 153 2.12 169 2.12 194 2.12 160 2.12  41 2.99  66 2.99
                            25 2.99  26 2.99  67 2.99  83 2.99  43 2.99  27 2.99  70 3.00  45 3.00
  29  0.125  0.000  0.550- 159 2.12 160 2.12 176 2.12 199 2.12 153 2.13 157 2.15  48 2.98  71 2.98
                            31 2.98  32 2.98  46 2.99  86 2.99  30 2.99  70 2.99  28 3.00  27 3.00
  30  0.250  0.125  0.550- 159 2.12 160 2.12 168 2.12 175 2.12 154 2.13 158 2.15  40 2.98  47 2.98
                            31 2.98  32 2.98  37 2.99  53 2.99  29 2.99  45 2.99  28 3.00  27 3.00
  31  0.125  0.125  0.649- 159 2.11 158 2.12 157 2.12 165 2.12 174 2.12  30 2.98  37 2.98  46 2.98
                            29 2.98  32 2.99  48 2.99  56 2.99  40 2.99
  32  0.250  0.000  0.649- 160 2.11 158 2.12 157 2.12 173 2.12 198 2.12  30 2.98  45 2.98  70 2.98
                            29 2.98  31 2.99  71 2.99  87 2.99  47 2.99
  33  0.125  0.250  0.351- 161 2.12 155 2.12 163 2.12 164 2.12 180 2.12  35 2.99  36 2.99  52 2.99
                            27 2.99  42 2.99  50 2.99  26 2.99  34 2.99
  34  0.250  0.375  0.351- 162 2.12 163 2.12 164 2.12 179 2.12 188 2.12  36 2.99  51 2.99  60 2.99
                            35 2.99  57 2.99  49 2.99  73 2.99  33 2.99
  35  0.125  0.375  0.450- 163 2.12 162 2.12 161 2.12 178 2.12 185 2.12 167 2.12  50 2.99  57 2.99
                            33 2.99  34 2.99  60 2.99  76 2.99  52 2.99  36 2.99  61 3.00  54 3.00
  36  0.250  0.250  0.450- 164 2.12 161 2.12 162 2.12 154 2.12 177 2.12 168 2.12  34 2.99  49 2.99
                            26 2.99  33 2.99  27 2.99  51 2.99  35 2.99  43 2.99  38 3.00  53 3.00
  37  0.125  0.250  0.550- 159 2.12 167 2.12 168 2.12 184 2.12 161 2.13 165 2.15  40 2.98  56 2.98
                            31 2.98  39 2.98  54 2.99  30 2.99  38 2.99  46 2.99  35 3.00  36 3.00
  38  0.250  0.375  0.550- 167 2.12 168 2.12 183 2.12 192 2.12 162 2.13 166 2.15  55 2.98  64 2.98
                            39 2.98  40 2.98  53 2.99  77 2.99  37 2.99  61 2.99  36 3.00  35 3.00
  39  0.125  0.375  0.649- 167 2.11 166 2.12 165 2.12 182 2.12 189 2.12  38 2.98  54 2.98  61 2.98
                            37 2.98  40 2.99  64 2.99  80 2.99  56 2.99
  40  0.250  0.250  0.649- 168 2.11 165 2.12 166 2.12 158 2.12 181 2.12  37 2.98  38 2.98  53 2.98
                            30 2.98  47 2.99  31 2.99  55 2.99  39 2.99
  41  0.375  0.000  0.351- 169 2.12 156 2.12 171 2.12 211 2.12 236 2.12  43 2.99  83 2.99 108 2.99
                            28 2.99 106 2.99  66 2.99 146 2.99  26 2.99
  42  0.000  0.125  0.351- 170 2.12 155 2.12 172 2.12 180 2.12 235 2.12  44 2.99  52 2.99 107 2.99
                            27 2.99 105 2.99  25 2.99 113 2.99  33 2.99
  43  0.375  0.125  0.450- 171 2.12 169 2.12 154 2.12 177 2.12 234 2.12 175 2.12  49 2.99 106 2.99
                            26 2.99  41 2.99 108 2.99 116 2.99  36 2.99  28 2.99 110 3.00  53 3.00
  44  0.000  0.000  0.450- 172 2.12 170 2.12 153 2.12 210 2.12 233 2.12 176 2.12  82 2.99 105 2.99
                            25 2.99  42 2.99 107 2.99 147 2.99  27 2.99  67 2.99 109 3.00  86 3.00
  45  0.375  0.000  0.550- 160 2.12 175 2.12 215 2.12 240 2.12 169 2.13 173 2.15  87 2.98 112 2.98
                            32 2.98  47 2.98  70 2.99 150 2.99  30 2.99 110 2.99  83 3.00  28 3.00
  46  0.000  0.125  0.550- 159 2.12 176 2.12 184 2.12 239 2.12 170 2.13 174 2.15  56 2.98 111 2.98
                            31 2.98  48 2.98  29 2.99 117 2.99  37 2.99 109 2.99  52 3.00  44 3.00
  47  0.375  0.125  0.649- 175 2.11 173 2.12 158 2.12 181 2.12 238 2.12  45 2.98  53 2.98 110 2.98
                            30 2.98  32 2.99 112 2.99 120 2.99  40 2.99
  48  0.000  0.000  0.649- 176 2.11 174 2.12 157 2.12 214 2.12 237 2.12  46 2.98  86 2.98 109 2.98
                            29 2.98  71 2.99 111 2.99 151 2.99  31 2.99
  49  0.375  0.250  0.351- 177 2.12 171 2.12 164 2.12 179 2.12 244 2.12  43 2.99  51 2.99 116 2.99
                            36 2.99 106 2.99 114 2.99  34 2.99  26 2.99
  50  0.000  0.375  0.351- 178 2.12 163 2.12 180 2.12 204 2.12 243 2.12  52 2.99  76 2.99 115 2.99
                            35 2.99 113 2.99  57 2.99 137 2.99  33 2.99
  51  0.375  0.375  0.450- 179 2.12 177 2.12 162 2.12 201 2.12 242 2.12 183 2.12  73 2.99 114 2.99
                            34 2.99  49 2.99 116 2.99 140 2.99  36 2.99  60 2.99 118 3.00  77 3.00
  52  0.000  0.250  0.450- 180 2.12 170 2.12 178 2.12 161 2.12 241 2.12 184 2.12  50 2.99 113 2.99
                            33 2.99  42 2.99  27 2.99 115 2.99  35 2.99 107 2.99  54 3.00 117 3.00
  53  0.375  0.250  0.550- 168 2.12 175 2.12 183 2.12 248 2.12 177 2.13 181 2.15  55 2.98 120 2.98
                            40 2.98  47 2.98 118 2.99  38 2.99  30 2.99 110 2.99  51 3.00  43 3.00
  54  0.000  0.375  0.550- 167 2.12 184 2.12 208 2.12 247 2.12 178 2.13 182 2.15  80 2.98 119 2.98
                            39 2.98  56 2.98  61 2.99 141 2.99  37 2.99 117 2.99  76 3.00  35 3.00
  55  0.375  0.375  0.649- 183 2.11 181 2.12 166 2.12 205 2.12 246 2.12   6 2.27  53 2.98  77 2.98
                           118 2.98  38 2.98  64 2.99 120 2.99 144 2.99  40 2.99
  56  0.000  0.250  0.649- 184 2.11 174 2.12 182 2.12 165 2.12 245 2.12  46 2.98  54 2.98 117 2.98
                            37 2.98 111 2.99  31 2.99 119 2.99  39 2.99
  57  0.125  0.500  0.351- 185 2.12 163 2.12 187 2.12 188 2.12 204 2.12  59 2.99  60 2.99  76 2.99
                            35 2.99  50 2.99  74 2.99  58 2.99  34 2.99
  58  0.250  0.625  0.351- 186 2.12 187 2.12 188 2.12 196 2.12 203 2.12  60 2.99  68 2.99  75 2.99
                            59 2.99  73 2.99  65 2.99  81 2.99  57 2.99
  59  0.125  0.625  0.450- 187 2.12 186 2.12 185 2.12 193 2.12 202 2.12 191 2.12  65 2.99  74 2.99
                            57 2.99  58 2.99  76 2.99  84 2.99  68 2.99  60 2.99  78 3.00  69 3.00
  60  0.250  0.500  0.450- 188 2.12 185 2.12 186 2.12 162 2.12 201 2.12 192 2.12  58 2.99  73 2.99
                            34 2.99  57 2.99  35 2.99  75 2.99  51 2.99  59 2.99  61 3.00  77 3.00
  61  0.125  0.500  0.550- 167 2.12 191 2.12 192 2.12 208 2.12 185 2.13 189 2.15  64 2.98  80 2.98
[...]
   8.46714263 12.70071395 11.73873783

--------------------------------------- Iteration      FINAL  ---------------------------------------

--------------------OUTCAR has been truncated-------------------------

[...]

--------------------OUTCAR has been truncated-------------------------

  Number of pair interactions contributing to vdW energy: 3393028
  Edisp (eV):  -15.30294

  FORCE on cell =-STRESS in cart. coord.  units (eV):
  Direction    XX          YY          ZZ          XY          YZ          ZX
  Alpha Z  1068.68370  1068.68370  1068.68370
  Ewald  201580.02626201586.81205************    -1.81819    -5.87418    -3.63710
  Hartree217352.55552217358.51621************    -1.15696    -3.99092    -3.36470
  E(xc)   -4850.85691 -4850.85287 -4852.31489    -0.00202    -0.00379    -0.00142
  Local  ************************418738.51521     2.87132     9.69567     6.98123
  n-local -2524.73778 -2524.72670 -2601.95437    -0.01886    -0.07143     0.01057
  augment   893.20191   893.20183   904.63544     0.00093     0.02006    -0.00368
  Kinetic 18876.52119 18876.50820 19108.25825     0.11317     0.28892    -0.09181
  Fock        0.00000     0.00000     0.00000     0.00000     0.00000     0.00000
  vdW       -21.77653   -21.77757   -18.73495    -0.00009     0.00089     0.00168
  Total    -117.53929  -117.57360    -2.40510    -0.01069     0.06524    -0.10523
  in kB     -30.75776   -30.76674    -0.62937    -0.00280     0.01707    -0.02754

 VOLUME and BASIS-vectors are now :
  energy-cutoff  :      520.00
  volume of cell :     6122.64
      direct lattice vectors                 reciprocal lattice vectors
    16.934285261  0.000000000  0.000000000     0.059051798  0.000000000  0.000000000
     0.000000000 16.934285261  0.000000000     0.000000000  0.059051798  0.000000000
     0.000000000  0.000000000 21.350356973     0.000000000  0.000000000  0.046837624

  length of vectors
    16.934285261 16.934285261 21.350356973     0.059051798  0.059051798  0.046837624

 FORCES acting on ions:
    Electron-Ion                     Ewald-Force                    Non-Local-Force
   -.381E+02 -.193E+03 -.618E+03   0.393E+02 0.199E+03 0.621E+03   -.118E+01 -.574E+01 -.334E+01
   0.193E+03 -.367E+02 -.618E+03   -.199E+03 0.378E+02 0.621E+03   0.572E+01 -.112E+01 -.339E+01
   0.366E+02 0.193E+03 -.618E+03   -.377E+02 -.199E+03 0.621E+03   0.110E+01 0.569E+01 -.341E+01
   -.193E+03 0.390E+02 -.618E+03   0.199E+03 -.402E+02 0.621E+03   -.572E+01 0.122E+01 -.334E+01
   0.412E+02 -.109E+03 -.808E+03   -.705E+02 0.104E+03 0.789E+03   0.294E+02 0.419E+01 0.190E+02
   0.109E+03 0.387E+02 -.806E+03   -.105E+03 -.677E+02 0.787E+03   -.416E+01 0.290E+02 0.194E+02
   -.386E+02 0.109E+03 -.806E+03   0.674E+02 -.105E+03 0.786E+03   -.289E+02 -.409E+01 0.195E+02
   -.109E+03 -.426E+02 -.808E+03   0.105E+03 0.720E+02 0.789E+03   0.399E+01 -.294E+02 0.189E+02
   0.305E+01 -.186E+02 -.178E+03   -.379E+01 0.176E+02 0.183E+03   0.745E+00 0.103E+01 -.545E+01
   -.571E+02 0.204E+02 -.148E+03   0.626E+02 -.254E+02 0.148E+03   -.549E+01 0.502E+01 -.216E+00
   -.651E+02 -.474E+02 -.137E+03   0.704E+02 0.489E+02 0.136E+03   -.534E+01 -.154E+01 0.905E+00
   0.326E+02 -.743E+02 -.133E+03   -.359E+02 0.787E+02 0.131E+03   0.338E+01 -.439E+01 0.176E+01
   0.180E+02 0.364E+01 -.178E+03   -.169E+02 -.442E+01 0.183E+03   -.108E+01 0.787E+00 -.543E+01
   -.202E+02 -.574E+02 -.148E+03   0.252E+02 0.629E+02 0.148E+03   -.500E+01 -.551E+01 -.229E+00
   0.479E+02 -.648E+02 -.137E+03   -.495E+02 0.701E+02 0.137E+03   0.160E+01 -.534E+01 0.845E+00
   0.743E+02 0.330E+02 -.133E+03   -.786E+02 -.364E+02 0.131E+03   0.437E+01 0.340E+01 0.175E+01
   -.387E+01 0.179E+02 -.178E+03   0.467E+01 -.168E+02 0.183E+03   -.806E+00 -.110E+01 -.542E+01
   0.571E+02 -.201E+02 -.148E+03   -.626E+02 0.251E+02 0.148E+03   0.548E+01 -.499E+01 -.237E+00
   0.648E+02 0.479E+02 -.138E+03   -.701E+02 -.495E+02 0.137E+03   0.534E+01 0.160E+01 0.821E+00
   -.329E+02 0.743E+02 -.133E+03   0.363E+02 -.787E+02 0.131E+03   -.339E+01 0.437E+01 0.174E+01
   -.186E+02 -.315E+01 -.178E+03   0.176E+02 0.391E+01 0.183E+03   0.103E+01 -.760E+00 -.544E+01
   0.207E+02 0.563E+02 -.147E+03   -.258E+02 -.617E+02 0.148E+03   0.504E+01 0.545E+01 -.191E+00
   -.470E+02 0.653E+02 -.137E+03   0.485E+02 -.707E+02 0.136E+03   -.149E+01 0.536E+01 0.900E+00
   -.747E+02 -.319E+02 -.133E+03   0.791E+02 0.352E+02 0.131E+03   -.442E+01 -.333E+01 0.176E+01
   0.141E+01 0.141E+01 0.303E+03   -.141E+01 -.141E+01 -.301E+03   -.141E-02 -.753E-03 -.228E+01
   0.241E+01 0.239E+01 0.305E+03   -.240E+01 -.238E+01 -.302E+03   -.237E-02 -.207E-02 -.228E+01
   0.287E+01 0.323E+01 0.107E+03   -.287E+01 -.322E+01 -.107E+03   -.241E-02 -.140E-02 0.110E+00
   0.326E+01 0.288E+01 0.107E+03   -.326E+01 -.288E+01 -.107E+03   -.110E-02 -.215E-02 0.107E+00
   0.382E+01 0.382E+01 -.888E+02   -.382E+01 -.382E+01 0.888E+02   -.533E-02 -.528E-02 -.469E-01
   0.892E+01 0.874E+01 -.808E+02   -.890E+01 -.872E+01 0.808E+02   -.238E-01 -.274E-01 -.108E-01
   0.987E+01 0.944E+01 -.284E+03   -.984E+01 -.944E+01 0.282E+03   -.403E-01 0.194E-02 0.233E+01
   0.990E+01 0.101E+02 -.284E+03   -.990E+01 -.100E+02 0.282E+03   -.599E-02 -.419E-01 0.233E+01
   0.194E+01 0.143E+01 0.304E+03   -.193E+01 -.143E+01 -.302E+03   -.219E-02 -.742E-03 -.228E+01
   0.295E+01 -.872E-02 0.306E+03   -.293E+01 0.855E-02 -.304E+03   -.481E-02 -.266E-03 -.229E+01
   0.385E+01 -.369E-02 0.109E+03   -.383E+01 0.286E-02 -.109E+03   -.509E-03 0.514E-03 0.112E+00
   0.520E+01 0.305E+01 0.112E+03   -.516E+01 -.303E+01 -.112E+03   0.834E-03 -.195E-02 0.998E-01
   0.779E+01 0.449E+01 -.828E+02   -.775E+01 -.448E+01 0.828E+02   -.477E-01 -.129E-01 -.942E-02
   0.145E+02 0.932E-01 -.710E+02   -.144E+02 -.956E-01 0.711E+02   -.180E+00 0.332E-02 -.743E-01
   0.194E+02 0.405E+00 -.276E+03   -.193E+02 -.402E+00 0.274E+03   -.153E+00 -.412E-02 0.233E+01
   0.296E+02 0.167E+02 -.263E+03   -.294E+02 -.167E+02 0.261E+03   -.244E+00 0.121E-01 0.235E+01
   0.145E+01 0.195E+01 0.304E+03   -.145E+01 -.195E+01 -.302E+03   -.117E-03 -.244E-02 -.228E+01
   -.123E-01 0.186E+01 0.304E+03   0.123E-01 -.186E+01 -.301E+03   0.169E-04 -.131E-02 -.228E+01
   0.311E+01 0.517E+01 0.112E+03   -.309E+01 -.513E+01 -.112E+03   -.167E-02 0.494E-03 0.102E+00
   -.158E-01 0.197E+01 0.104E+03   0.159E-01 -.197E+01 -.105E+03   0.673E-04 -.173E-03 0.124E+00
   0.454E+01 0.794E+01 -.825E+02   -.453E+01 -.790E+01 0.825E+02   -.122E-01 -.462E-01 -.134E-01
   -.751E-01 0.470E+01 -.878E+02   0.757E-01 -.470E+01 0.878E+02   0.384E-03 0.285E-02 -.420E-01
   0.175E+02 0.295E+02 -.261E+03   -.176E+02 -.293E+02 0.259E+03   0.279E-01 -.192E+00 0.235E+01
   -.545E-01 0.463E+01 -.289E+03   0.545E-01 -.464E+01 0.287E+03   0.587E-03 0.490E-02 0.234E+01
   0.200E+01 0.197E+01 0.307E+03   -.199E+01 -.196E+01 -.304E+03   -.331E-02 -.310E-02 -.229E+01
   -.121E-01 -.115E-01 0.304E+03   0.121E-01 0.114E-01 -.302E+03   -.957E-05 0.703E-03 -.228E+01
   0.410E+01 -.108E-01 0.117E+03   -.406E+01 0.121E-01 -.117E+03   0.335E-02 0.544E-03 0.195E+00
   -.324E-01 0.205E+01 0.107E+03   0.335E-01 -.205E+01 -.107E+03   -.172E-03 -.219E-04 0.114E+00
   0.104E+02 0.101E+02 -.629E+02   -.103E+02 -.100E+02 0.631E+02   -.143E+00 -.149E+00 -.289E+00
   -.489E-01 -.494E-02 -.845E+02   0.482E-01 0.598E-02 0.845E+02   0.569E-03 -.325E-02 -.266E-01
   0.331E+02 0.141E+01 -.208E+03   -.331E+02 -.141E+01 0.207E+03   -.128E+00 -.128E-01 0.129E+01
   -.283E+00 0.558E+01 -.284E+03   0.284E+00 -.559E+01 0.282E+03   -.187E-02 0.204E-01 0.234E+01
   0.194E+01 -.145E+01 0.304E+03   -.193E+01 0.144E+01 -.302E+03   -.319E-02 0.790E-03 -.228E+01
   0.240E+01 -.240E+01 0.305E+03   -.239E+01 0.239E+01 -.302E+03   -.238E-02 0.261E-02 -.228E+01
   0.287E+01 -.324E+01 0.107E+03   -.286E+01 0.324E+01 -.107E+03   -.261E-02 0.563E-03 0.111E+00
   0.519E+01 -.308E+01 0.112E+03   -.515E+01 0.306E+01 -.112E+03   0.504E-03 0.201E-02 0.103E+00
[...]
   -.505E+01 -.604E+01 0.878E+03   0.504E+01 0.603E+01 -.882E+03   0.174E-01 0.107E-01 0.343E+01
   0.391E-01 -.632E+01 0.888E+03   -.393E-01 0.629E+01 -.892E+03   0.276E-03 0.425E-01 0.334E+01
   -.461E+02 -.258E+02 -.820E+03   0.460E+02 0.257E+02 0.825E+03   0.764E-01 0.863E-01 -.516E+01
   0.484E+01 -.112E+03 -.734E+03   -.482E+01 0.112E+03 0.739E+03   -.150E-01 0.440E+00 -.503E+01
   -.167E+02 -.173E+02 -.255E+03   0.166E+02 0.172E+02 0.254E+03   0.546E-01 0.492E-01 0.370E+00
   0.330E+00 -.331E+02 -.172E+03   -.327E+00 0.327E+02 0.173E+03   -.309E-02 0.333E+00 -.375E+00
   -.671E+01 -.665E+01 0.315E+03   0.670E+01 0.663E+01 -.315E+03   0.186E-01 0.157E-01 0.153E-01
   0.418E-01 0.478E-01 0.323E+03   -.424E-01 -.501E-01 -.323E+03   0.871E-03 0.661E-03 0.286E-01
   -.392E+01 0.295E-01 0.876E+03   0.392E+01 -.294E-01 -.880E+03   0.756E-02 0.216E-02 0.344E+01
   0.336E-01 -.614E+01 0.881E+03   -.341E-01 0.611E+01 -.885E+03   0.690E-03 0.297E-01 0.342E+01
   -.182E+02 -.179E+02 -.843E+03   0.182E+02 0.178E+02 0.848E+03   0.454E-01 0.437E-01 -.517E+01
   0.109E+00 0.127E+00 -.828E+03   -.109E+00 -.126E+00 0.833E+03   -.657E-03 -.120E-02 -.515E+01
   -.956E+01 0.915E-01 -.266E+03   0.954E+01 -.933E-01 0.265E+03   0.190E-01 0.943E-03 0.370E+00
   0.366E+00 -.257E+02 -.239E+03   -.364E+00 0.255E+02 0.239E+03   -.194E-02 0.226E+00 0.448E+00
   -.172E+00 0.194E+00 -.494E+01   -.650E-12 -.796E-12 0.819E-11   0.177E+00 -.237E+00 0.496E+01

 POSITION                                       TOTAL-FORCE (eV/Angst)
      8.93619      9.39713     16.94911        -0.000516     -0.003587     -0.000562
      5.43156      6.79104     16.96340         0.001401     -0.003348      0.006822
      8.02516      3.30404     16.96429        -0.002407     -0.002382     -0.000233
     11.51259      5.86939     16.94918        -0.002484     -0.003988      0.004155
      8.60526      8.24750     16.14619        -0.003807     -0.002298     -0.005437
      6.57621      6.47658     16.14733         0.002710     -0.004875     -0.006083
      8.33757      4.44659     16.14447        -0.000079     -0.000897      0.000417
     10.36718      6.21158     16.14517        -0.004692      0.002963     -0.006572
      8.78896      9.18275     18.01982        -0.002185     -0.004454      0.002845
      9.35307      7.58403     16.19843        -0.000189     -0.002347     -0.003115
      9.98296      9.68955     16.77189        -0.000834     -0.001156      0.003499
      8.28550     10.21922     16.62919        -0.003158      0.000683      0.000205
      5.65650      6.63570     18.03084         0.004587     -0.001514      0.001590
      7.23715      7.22653     16.20190         0.002975      0.001007     -0.003891
      5.12861      7.83666     16.79833        -0.000404      0.000816      0.003405
      4.61206      6.13621     16.64500         0.000173     -0.000944      0.001503
      8.18423      3.53179     18.03076        -0.001275      0.003304     -0.002876
      7.58872      5.10942     16.20043         0.000385      0.001710     -0.005551
      6.97894      3.00040     16.80350         0.001899      0.001896      0.002909
      8.67926      2.48377     16.64630         0.000030      0.000124      0.000559
     11.29874      6.01948     18.01956        -0.004324      0.002740      0.004912
      9.69884      5.46731     16.19419        -0.000067     -0.000398     -0.003363
     11.79379      4.81944     16.77304         0.000639     -0.002084      0.002168
     12.34181      6.51114     16.62987         0.002943      0.005304     -0.001850
      2.11679      0.00000      7.50000         0.000749      0.001748      0.442372
      4.23357      2.11679      7.50000         0.005611      0.006189      0.448043
      2.11679      2.11679      9.61679         0.003309      0.001999     -0.026310
      4.23357      0.00000      9.61679         0.001589      0.002933     -0.027104
      2.11613     -0.00071     11.73596        -0.001805     -0.000217     -0.003511
      4.23318      2.11631     11.73313         0.001031      0.002097     -0.002244
      2.11491      2.11315     13.82427        -0.001164      0.001357     -0.000424
      4.23027     -0.00247     13.82361        -0.000205      0.000248      0.000395
      2.11679      4.23357      7.50000         0.005743      0.002462      0.446937
      4.23357      6.35036      7.50000         0.011169     -0.000270      0.458524
      2.11679      6.35036      9.61679         0.026194     -0.000149     -0.012704
      4.23357      4.23357      9.61679         0.033687      0.016344      0.003851
      2.11606      4.23363     11.73403         0.002966     -0.000322      0.000549
      4.24150      6.35016     11.74222        -0.001943      0.000568     -0.003236
      2.11417      6.35065     13.81996         0.000706     -0.000454     -0.001720
      4.22964      4.22759     13.81071        -0.000889      0.000620     -0.003663
      6.35036      0.00000      7.50000         0.003256      0.005689      0.445976
      0.00000      2.11679      7.50000         0.000002      0.000919      0.442478
      6.35036      2.11679      9.61679         0.017352      0.035221      0.003457
      0.00000      0.00000      9.61679         0.000147     -0.000810     -0.022738
      6.35057     -0.00105     11.73364        -0.000089      0.002403     -0.000179
      0.00013      2.11545     11.73543         0.000840     -0.000441     -0.000119
      6.34442      2.11213     13.80945        -0.000112     -0.000317     -0.003700
      0.00017     -0.00165     13.82606         0.000442      0.001123     -0.001404
      6.35036      4.23357      7.50000         0.007500      0.008152      0.465629
      0.00000      6.35036      7.50000        -0.000011      0.000866      0.443549
      6.35036      6.35036      9.61679         0.042643      0.001925      0.070147
      0.00000      4.23357      9.61679         0.001005     -0.000212     -0.029948
      6.35886      4.24285     11.75145        -0.002120     -0.003469     -0.003306
      0.00024      6.35081     11.73452        -0.000328     -0.001091      0.002166
      6.34269      6.34982     13.90288         0.002816     -0.000258      0.000849
      0.00032      4.23111     13.82379        -0.000862      0.001563      0.002025
      2.11679      8.46714      7.50000         0.004801     -0.002314      0.445743
      4.23357     10.58393      7.50000         0.005755     -0.005095      0.447953
      2.11679     10.58393      9.61679         0.003487     -0.001366     -0.025972
      4.23357      8.46714      9.61679         0.036704     -0.016381      0.003910
[...]
      8.46714     10.58393      9.61679         0.000572      0.022443      0.024507
     14.81750     10.58393      7.50000         0.006520      0.001386     -0.464822
      8.46714      8.46714      7.50000         0.000064      0.012053     -0.491410
     14.82182      8.47146     13.88180        -0.001461     -0.000400      0.000103
      8.46703     10.60770     13.88565         0.000626     -0.002570      0.000190
     14.81975     10.58609     11.72934         0.001217     -0.002062      0.001163
      8.46792      8.47391     11.74418         0.000005     -0.001602      0.002536
     14.81750     12.70071      9.61679         0.006327      0.004610      0.031746
      8.46714     14.81750      9.61679         0.000217     -0.001514      0.024230
     14.81750     14.81750      7.50000         0.003753      0.002454     -0.462611
      8.46714     12.70071      7.50000         0.000177      0.008450     -0.470746
     14.82134     12.70387     13.88069         0.000534      0.001403     -0.001212
      8.46737     14.81750     13.88049        -0.000288     -0.000286      0.001704
     14.81905     14.81758     11.72945         0.000379     -0.000612      0.005324
      8.46743     12.70422     11.72863        -0.000122     -0.000417     -0.002045
    total drift:                                0.005229     -0.043351      0.016777

  FREE ENERGIE OF THE ION-ELECTRON SYSTEM (eV)
  free  energy   TOTEN  =     -1631.12562188 eV

  energy  without entropy=    -1631.12562188  energy(sigma->0) =    -1631.12562188

 d Force = 0.3623875E-04[ 0.296E-04, 0.429E-04]  d Energy = 0.3687237E-04-0.634E-06
 d Force = 0.5606563E+00[ 0.561E+00, 0.561E+00]  d Ewald  = 0.5606566E+00-0.284E-06

 Conjugate gradient step on ions:
 trial-energy change:   -0.000037  1 .order   -0.000036   -0.000043   -0.000030
  (g-gl).g = 0.120E-03      g.g   = 0.131E-03  gl.gl    = 0.190E-03
 g(Force)  = 0.131E-03   g(Stress)= 0.000E+00 ortho     =-0.136E-05
 gamma     =   0.63079
 trial     =   0.32874
 opt step  =   0.76632  (harmonic =   1.05682) maximal distance =0.00128935
 next E    = -1631.125643   (d E  =  -0.00006)

 reached required accuracy - stopping structural energy minimisation