 vasp.6.3.0 20Jan22 (build Aug 21 2024 11:13:42) complex
 executed on        HPECrayEX_GCC date 2024.11.27  00:27:46

 INCAR:
   SYSTEM = TiO2
   ISMEAR = 0
   SIGMA = 0.05
   EDIFF = 1E-4
   ALGO = ALL
   ISTART = 0
   IBRION = -1
   NSW = 0
   ISYM = 0
   ISIF = 2
   EDIFFG = -0.01
   DIPOL = 0.5 0.5 0.5
   IDIPOL = 3
   LDIPOL = .TRUE.
   GGA = PE
   IVDW = 21
   ENCUT = 600
   PREC = Accurate
   LASPH = .TRUE.
   LREAL = .FALSE.
   ISPIN = 1
   NELM = 200
   NELMIN = 8
   NCORE = 16
   KPAR = 1
   LWAVE = .FALSE.
   LCHARG = .FALSE.

 POTCAR:    PAW_PBE N 08Apr2002
 POTCAR:    PAW_PBE H 15Jun2001
 POTCAR:    PAW_PBE Ti_pv 07Sep2000
 POTCAR:    PAW_PBE O 08Apr2002
 POTCAR:    PAW_PBE N 08Apr2002
   VRHFIN =N: s2p3

   TITEL  = PAW_PBE N 08Apr2002
   POMASS =   14.001; ZVAL   =    5.000    mass and valenz
   ENMAX  =  400.000; ENMIN  =  300.000 eV

   TITEL  = PAW_PBE H 15Jun2001
   POMASS =    1.000; ZVAL   =    1.000    mass and valenz
   ENMAX  =  250.000; ENMIN  =  200.000 eV

   TITEL  = PAW_PBE Ti_pv 07Sep2000
   POMASS =   47.880; ZVAL   =   10.000    mass and valenz
   ENMAX  =  222.335; ENMIN  =  166.751 eV

   TITEL  = PAW_PBE O 08Apr2002
   POMASS =   16.000; ZVAL   =    6.000    mass and valenz
   ENMAX  =  400.000; ENMIN  =  300.000 eV

  PAW_PBE N 08Apr2002                   :
  PAW_PBE H 15Jun2001                   :
  PAW_PBE Ti_pv 07Sep2000               :
  PAW_PBE O 08Apr2002                   :

 POSCAR:  N  H Ti  O
  positions in direct lattice
 exchange correlation table for  LEXCH =        8
   RHO(1)=    0.500       N(1)  =     2000
   RHO(2)=  100.500       N(2)  =     4000

 ion  position               nearest neighbor table
   1  0.614  0.500  0.812-   2 1.01   3 1.02   4 1.02  52 2.25
   2  0.550  0.500  0.843-   1 1.01
   3  0.672  0.428  0.814-   1 1.02
   4  0.672  0.572  0.814-   1 1.02
   5  0.815  0.833  0.271-  89 1.92  55 1.92  57 1.92  54 1.97  56 1.97  22 3.03   8 3.03   6 3.03

   6  0.598  0.667  0.306- 120 1.92  53 1.92  56 1.92  58 1.92  57 1.97  59 1.97  37 3.03   7 3.03
                             5 3.03  11 3.06
   7  0.315  0.667  0.271- 125 1.92  59 1.92  61 1.92  53 1.97  60 1.97  40 3.03   6 3.03   8 3.03

   8  0.098  0.833  0.306-  92 1.92  54 1.92  60 1.92  62 1.92  55 1.97  61 1.97  23 3.03   5 3.03
                             7 3.03   9 3.06
   9  0.950  0.833  0.414-  97 1.92  65 1.92  63 1.92  55 1.96  64 1.97  62 1.97  12 2.99  10 3.04
                            26 3.04   8 3.06
  10  0.731  0.666  0.446-  58 1.89 128 1.92  64 1.92  66 1.95  67 1.97  65 1.98  11 3.00   9 3.04
                            41 3.04  15 3.08
  11  0.450  0.666  0.413- 133 1.92  69 1.92  67 1.92  59 1.96  68 1.97  58 1.98  10 3.00  12 3.04
                            44 3.04   6 3.06
  12  0.230  0.833  0.447-  62 1.90 100 1.92  68 1.92  70 1.95  63 1.96  69 1.99   9 2.99  27 3.04
                            11 3.04  13 3.08
  13  0.091  0.833  0.556- 105 1.92  73 1.92  71 1.92  72 1.97  70 1.97  63 1.99  16 2.94  14 3.03
                            30 3.04  12 3.08
  14  0.870  0.666  0.585-  66 1.87 136 1.92  72 1.93  75 1.94  74 1.99  73 1.99  15 2.96  13 3.03
                            45 3.05  19 3.14
  15  0.590  0.666  0.556- 141 1.91  77 1.92  75 1.93  67 1.97  76 1.97  66 1.98  14 2.96  16 3.04
                            48 3.05  10 3.08
  16  0.368  0.833  0.586-  70 1.87 108 1.92  76 1.92  71 1.94  78 1.98  77 1.99  13 2.94  15 3.04
                            31 3.04  17 3.17
  17  0.236  0.833  0.702-  79 1.86  81 1.92 113 1.92  80 2.00  78 2.05  71 2.07  20 2.84  34 3.06
                            18 3.07  16 3.17
  18  0.006  0.666  0.725-  74 1.79  82 1.83 144 1.95  80 1.97  81 2.03  19 2.85  17 3.07  49 3.09

[...]

  21  0.815  0.167  0.271-  89 1.92  87 1.92 121 1.92  86 1.97  88 1.97  22 3.03  24 3.03  38 3.03

[...]

  37  0.815  0.500  0.271-  57 1.92 121 1.92 119 1.92 118 1.97 120 1.97  38 3.03   6 3.03  40 3.03

  38  0.598  0.333  0.306- 120 1.92 117 1.92  88 1.92 122 1.92 121 1.97 123 1.97  37 3.03  39 3.03
                            21 3.03  43 3.06
  39  0.315  0.333  0.271- 125 1.92 123 1.92  93 1.92 117 1.97 124 1.97  40 3.03  38 3.03  24 3.03

  40  0.098  0.500  0.306-  60 1.92 124 1.92 118 1.92 126 1.92 119 1.97 125 1.97   7 3.03  39 3.03
                            37 3.03  41 3.05
  41  0.952  0.500  0.413- 129 1.92  65 1.92 127 1.92 119 1.96 126 1.96 128 1.98  44 2.99  10 3.04
                            42 3.04  40 3.05
  42  0.731  0.334  0.446- 122 1.89 128 1.92  96 1.92 130 1.95 131 1.97 129 1.98  43 3.00  25 3.04
                            41 3.04  47 3.08
  43  0.450  0.334  0.413- 133 1.92 101 1.92 131 1.92 123 1.96 132 1.97 122 1.98  42 3.00  28 3.04
                            44 3.04  38 3.06
  44  0.231  0.500  0.448- 126 1.92 132 1.92  68 1.92 127 1.94 134 1.96 133 1.99  41 2.99  11 3.04
                            43 3.04  45 3.05
  45  0.093  0.500  0.557- 135 1.91 137 1.92  73 1.92 134 1.95 136 1.99 127 1.99  48 2.95  14 3.05
                            46 3.05  44 3.05
  46  0.870  0.334  0.585- 130 1.87 136 1.92 104 1.93 139 1.94 138 1.99 137 1.99  47 2.96  29 3.03
                            45 3.05  51 3.14
  47  0.590  0.334  0.556- 141 1.91 109 1.92 139 1.93 131 1.97 140 1.97 130 1.98  46 2.96  32 3.04
                            48 3.05  42 3.08
  48  0.370  0.500  0.590- 134 1.92 140 1.92  76 1.92 135 1.93 142 1.96 141 2.01  45 2.95  15 3.05
                            47 3.05  49 3.10
  49  0.240  0.500  0.703- 143 1.85  81 1.92 145 1.92 142 2.00 144 2.03 135 2.08  52 2.87  50 3.09
                            18 3.09  48 3.10
  50  0.006  0.334  0.725- 138 1.79 146 1.83 144 1.95 112 1.97 145 2.03  51 2.85  33 3.07  49 3.09

  51  0.735  0.333  0.699- 146 1.88 148 1.92 116 1.92 147 1.99 139 2.02 138 2.05  50 2.85  36 3.06
                            52 3.07  46 3.14
  52  0.511  0.500  0.732- 143 1.83 142 1.89  83 1.97 147 1.97 148 2.04   1 2.25  49 2.87  51 3.07
                            19 3.07
  53  0.494  0.667  0.242-   6 1.92   7 1.97
  54  0.994  0.833  0.242-   8 1.92   5 1.97
  55  0.919  0.833  0.336-   5 1.92   9 1.96   8 1.97
  56  0.636  0.833  0.300-  22 1.92   6 1.92   5 1.97
  57  0.778  0.667  0.277-  37 1.92   5 1.92   6 1.97
  58  0.628  0.667  0.383-  10 1.89   6 1.92  11 1.98
  59  0.419  0.667  0.336-   7 1.92  11 1.96   6 1.97
  60  0.136  0.667  0.300-  40 1.92   8 1.92   7 1.97
  61  0.278  0.833  0.277-  23 1.92   7 1.92   8 1.97
  62  0.128  0.833  0.383-  12 1.90   8 1.92   9 1.97
  63  0.055  0.834  0.478-   9 1.92  12 1.96  13 1.99
  64  0.770  0.833  0.441-  26 1.92  10 1.92   9 1.97
  65  0.913  0.667  0.419-   9 1.92  41 1.92  10 1.98
  66  0.766  0.666  0.523-  14 1.87  10 1.95  15 1.98
  67  0.555  0.666  0.478-  11 1.92  15 1.97  10 1.97
  68  0.270  0.667  0.442-  44 1.92  12 1.92  11 1.97
  69  0.412  0.833  0.419-  27 1.92  11 1.92  12 1.99
  70  0.267  0.833  0.524-  16 1.87  12 1.95  13 1.97
  71  0.198  0.833  0.620-  13 1.92  16 1.94  17 2.07
  72  0.909  0.833  0.582-  30 1.92  14 1.93  13 1.97
  73  0.054  0.667  0.560-  13 1.92  45 1.92  14 1.99
  74  0.915  0.667  0.663-  18 1.79  14 1.99  19 2.05
  75  0.699  0.668  0.619-  15 1.93  14 1.94  19 2.02
  76  0.410  0.667  0.584-  16 1.92  48 1.92  15 1.97
  77  0.553  0.833  0.560-  31 1.92  15 1.92  16 1.99
  78  0.413  0.836  0.664-  20 1.79  16 1.98  17 2.05
  79  0.351  0.833  0.760-  20 1.83  17 1.86
  80  0.057  0.833  0.734-  34 1.96  18 1.97  17 2.00
  81  0.197  0.666  0.704-  17 1.92  49 1.92  18 2.03
  82  0.847  0.664  0.759-  18 1.83  19 1.88
  83  0.558  0.669  0.733-  20 1.94  52 1.97  19 1.99
  84  0.697  0.834  0.701-  35 1.91  19 1.92  20 2.03
  85  0.494  0.000  0.242-  22 1.92  23 1.97
  86  0.994  0.167  0.242-  24 1.92  21 1.97
  87  0.919  0.167  0.336-  21 1.92  25 1.96  24 1.97
  88  0.636  0.167  0.300-  22 1.92  38 1.92  21 1.97
  89  0.778  0.000  0.277-   5 1.92  21 1.92  22 1.97
  90  0.628  0.000  0.383-  26 1.89  22 1.92  27 1.98
  91  0.419  0.000  0.336-  23 1.92  27 1.96  22 1.97
  92  0.136  0.000  0.300-   8 1.92  24 1.92  23 1.97
  93  0.278  0.167  0.277-  23 1.92  39 1.92  24 1.97
  94  0.128  0.167  0.383-  28 1.90  24 1.92  25 1.97
  95  0.055  0.166  0.478-  25 1.92  28 1.96  29 1.99
  96  0.770  0.167  0.441-  26 1.92  42 1.92  25 1.97
  97  0.913  0.000  0.419-   9 1.92  25 1.92  26 1.99
  98  0.766  0.000  0.524-  30 1.87  26 1.95  31 1.98
  99  0.555  0.000  0.478-  27 1.92  26 1.96  31 1.98
 100  0.270  1.000  0.442-  12 1.92  28 1.92  27 1.97
 101  0.412  0.167  0.419-  27 1.92  43 1.92  28 1.99
 102  0.267  0.167  0.524-  32 1.87  28 1.95  29 1.97
 103  0.198  0.167  0.620-  29 1.92  32 1.94  33 2.07
 104  0.909  0.167  0.582-  30 1.92  46 1.93  29 1.97
 105  0.054  0.000  0.561-  29 1.92  13 1.92  30 2.00
 106  0.915  1.000  0.664-  34 1.79  30 1.99  35 2.04
 107  0.698  0.000  0.619-  31 1.92  30 1.93  35 2.07
 108  0.409  0.000  0.582-  32 1.92  16 1.92  31 1.97
 109  0.553  0.167  0.560-  31 1.92  47 1.92  32 1.99
 110  0.413  0.164  0.664-  36 1.79  32 1.98  33 2.05
 111  0.351  0.167  0.760-  36 1.83  33 1.86
 112  0.057  0.167  0.734-  34 1.96  50 1.97  33 2.00
[...]
 134  0.268  0.500  0.525-  48 1.92  45 1.95  44 1.96
 135  0.197  0.500  0.621-  45 1.91  48 1.93  49 2.08
 136  0.909  0.500  0.582-  46 1.92  14 1.92  45 1.99
 137  0.054  0.333  0.560-  29 1.92  45 1.92  46 1.99
 138  0.915  0.333  0.663-  50 1.79  46 1.99  51 2.05
 139  0.699  0.332  0.619-  47 1.93  46 1.94  51 2.02
 140  0.410  0.333  0.584-  32 1.92  48 1.92  47 1.97
 141  0.553  0.500  0.561-  47 1.91  15 1.91  48 2.01
 142  0.414  0.500  0.667-  52 1.89  48 1.96  49 2.00
 143  0.349  0.500  0.762-  52 1.83  49 1.85
 144  0.057  0.500  0.734-  50 1.95  18 1.95  49 2.03
 145  0.197  0.334  0.704-  33 1.92  49 1.92  50 2.03
 146  0.847  0.336  0.759-  50 1.83  51 1.88
 147  0.558  0.331  0.733-  36 1.94  52 1.97  51 1.99
 148  0.695  0.500  0.700-  51 1.92  19 1.92  52 2.04

IMPORTANT INFORMATION: All symmetrisations will be switched off!
NOSYMM: (Re-)initialisation of all symmetry stuff for point group C_1.

                                     Primitive cell

  volume of cell :    2859.6974

  direct lattice vectors                    reciprocal lattice vectors
    10.250982430  0.000000000  0.000000000     0.097551626 -0.000000000  0.000000000
     0.000000000 11.253211329  0.000000000     0.000000000  0.088863523  0.000000000
     0.000000000  0.000000000 24.790090512     0.000000000  0.000000000  0.040338699

  length of vectors
    10.250982430 11.253211329 24.790090512     0.097551626  0.088863523  0.040338699

  position of ions in fractional coordinates (direct lattice)
     0.613613132  0.499999537  0.811640581
     0.550448546  0.500000230  0.843037462
     0.672326445  0.427568488  0.814353961
     0.672326926  0.572432552  0.814354004
     0.814826118  0.833333333  0.271169148
     0.598301032  0.666666667  0.306373894
     0.314826118  0.666666667  0.271169148
     0.098301032  0.833333333  0.306373894
     0.950318131  0.833355642  0.413564056
     0.731156641  0.666341584  0.446184047
     0.449830903  0.666455742  0.413434080
[...]
   O          49.795          3.875          9.648          1.78660517
   O          51.987          3.903          9.858          1.82550841
   O          51.756          3.900          9.836          1.82145174
   O          52.393          3.908          9.896          1.83262968
   O          36.259          3.676          8.233          1.52456208
   O          51.156          3.893          9.779          1.81085452
   O          53.514          3.922         10.001          1.85211602
   O          37.570          3.697          8.380          1.55187849
   O          49.584          3.872          9.627          1.78281242
   O          51.529          3.897          9.814          1.81745485

  vdW correction parametrized for the method pbe

  IVDW =  21
  VDW_RADIUS =    50.000 A
  VDW_IDAMPF =  0
  VDW_S6 =     1.000
  VDW_SR =     0.950
  VDW_D =    20.000
  LVDW_ONECELL = F F F
  LVDW_SAMETYPE T T T T
  LVDW_EWALD = F

  Number of pair interactions contributing to vdW energy: 1997274
  Edisp (eV):  -18.68841

  FORCE on cell =-STRESS in cart. coord.  units (eV):
  Direction    XX          YY          ZZ          XY          YZ          ZX
  Alpha Z  2785.53063  2785.53063  2785.53063
  Ewald  332626.56673325769.64187************    -0.00144     0.00048 -2105.01893
  Hartree354628.50564350475.44981************    -0.00026     0.00031 -1365.58622
  E(xc)   -5188.48671 -5193.15096 -5199.91362     0.00000     0.00000    -1.75477
  Local  ************************696298.57171     0.00119    -0.00072  3468.61102
  n-local -3271.87814 -3240.79113 -3286.89219     0.00006    -0.00003     0.03000
  augment  3133.33745  3127.59908  3119.66484    -0.00007    -0.00003    -1.90925
  Kinetic 17193.38881 17246.22814 17304.27756     0.00018    -0.00001   -10.72447
  Fock        0.00000     0.00000     0.00000     0.00000     0.00000     0.00000
  vdW       -19.09666   -26.97637   -21.69252    -0.00000     0.00000    -1.17925
  Total      30.40832    49.53240    35.08392    -0.00035    -0.00000   -17.53187
  in kB      17.03660    27.75108    19.65616    -0.00019    -0.00000    -9.82243

 VOLUME and BASIS-vectors are now :
  energy-cutoff  :      600.00
  volume of cell :     2859.70
      direct lattice vectors                 reciprocal lattice vectors
    10.250982430  0.000000000  0.000000000     0.097551626 -0.000000000  0.000000000
     0.000000000 11.253211329  0.000000000     0.000000000  0.088863523  0.000000000
     0.000000000  0.000000000 24.790090512     0.000000000  0.000000000  0.040338699

  length of vectors
    10.250982430 11.253211329 24.790090512     0.097551626  0.088863523  0.040338699

 FORCES acting on ions:
    Electron-Ion                     Ewald-Force                    Non-Local-Force
   -.176E+02 -.120E-02 -.151E+04   0.822E+01 0.179E-02 0.149E+04   0.927E+01 0.188E-03 0.174E+02
   0.435E+02 -.570E-03 -.317E+03   -.486E+02 0.601E-03 0.323E+03   0.494E+01 -.687E-04 -.567E+01
   -.426E+02 0.554E+02 -.305E+03   0.473E+02 -.618E+02 0.305E+03   -.447E+01 0.605E+01 -.324E+00
   -.426E+02 -.554E+02 -.305E+03   0.473E+02 0.618E+02 0.305E+03   -.447E+01 -.605E+01 -.324E+00
   0.431E+01 -.150E+00 0.300E+04   0.588E+00 0.150E+00 -.300E+04   -.102E+01 -.229E-03 -.332E+01
   0.473E+01 -.203E+00 0.245E+04   -.629E+01 0.204E+00 -.246E+04   -.139E+00 -.816E-03 -.450E-01
   0.460E+01 0.225E-02 0.300E+04   0.268E+00 -.723E-02 -.300E+04   -.102E+01 0.137E-02 -.332E+01
   0.363E+01 0.636E-01 0.246E+04   -.522E+01 -.716E-01 -.246E+04   -.132E+00 0.159E-02 -.489E-01
   0.449E+00 0.294E+00 0.112E+04   -.615E+00 -.297E+00 -.112E+04   0.181E+00 -.887E-05 0.446E-01
   0.243E+00 -.145E+01 0.705E+03   -.157E+00 0.143E+01 -.704E+03   -.789E-01 0.162E-01 -.127E+00
   0.210E+01 -.132E+00 0.112E+04   -.226E+01 0.128E+00 -.112E+04   0.175E+00 0.602E-02 0.271E-01
   -.413E+01 0.419E+00 0.699E+03   0.421E+01 -.419E+00 -.699E+03   -.683E-01 -.652E-04 -.131E+00
   -.397E+01 -.233E+01 -.693E+03   0.367E+01 0.232E+01 0.693E+03   0.308E+00 0.125E-01 0.140E+00
   -.864E+01 -.412E+01 -.104E+04   0.879E+01 0.413E+01 0.104E+04   -.150E+00 -.126E-01 -.256E+00
   0.253E+01 -.193E+01 -.670E+03   -.279E+01 0.193E+01 0.670E+03   0.272E+00 0.416E-02 0.962E-01
   0.156E+01 -.626E+00 -.106E+04   -.139E+01 0.641E+00 0.106E+04   -.160E+00 -.174E-01 -.305E+00
   0.297E+02 -.102E+02 -.246E+04   -.306E+02 0.102E+02 0.246E+04   0.899E+00 -.757E-02 -.384E-01
   -.776E+02 -.208E+02 -.282E+04   0.778E+02 0.207E+02 0.282E+04   -.162E+00 0.121E+00 0.722E+00
   -.939E+01 -.390E+02 -.239E+04   0.857E+01 0.391E+02 0.239E+04   0.824E+00 -.300E-01 0.784E-01
   -.516E+02 -.348E+02 -.281E+04   0.517E+02 0.347E+02 0.281E+04   -.106E+00 0.520E-01 0.729E+00
   0.431E+01 0.150E+00 0.300E+04   0.588E+00 -.150E+00 -.300E+04   -.102E+01 0.246E-03 -.332E+01
   0.471E+01 0.121E-04 0.246E+04   -.629E+01 -.833E-05 -.246E+04   -.135E+00 0.142E-04 -.499E-01
   0.445E+01 0.344E-04 0.300E+04   0.432E+00 -.105E-04 -.300E+04   -.102E+01 0.632E-05 -.332E+01
   0.363E+01 -.636E-01 0.246E+04   -.522E+01 0.716E-01 -.246E+04   -.132E+00 -.159E-02 -.489E-01
   0.449E+00 -.294E+00 0.112E+04   -.615E+00 0.297E+00 -.112E+04   0.181E+00 0.794E-05 0.446E-01
   -.137E+01 -.308E-04 0.702E+03   0.143E+01 0.108E-04 -.702E+03   -.534E-01 -.137E-05 -.131E+00
   0.187E+01 0.615E-04 0.112E+04   -.203E+01 -.510E-04 -.112E+04   0.174E+00 0.134E-04 0.315E-01
   -.413E+01 -.418E+00 0.699E+03   0.421E+01 0.419E+00 -.699E+03   -.683E-01 0.784E-04 -.131E+00
   -.397E+01 0.233E+01 -.693E+03   0.367E+01 -.232E+01 0.693E+03   0.308E+00 -.126E-01 0.140E+00
   -.711E+01 -.460E-04 -.106E+04   0.727E+01 0.420E-04 0.106E+04   -.143E+00 0.720E-05 -.260E+00
   -.212E+01 0.159E-03 -.685E+03   0.182E+01 -.143E-03 0.685E+03   0.317E+00 -.154E-05 0.175E+00
   0.156E+01 0.626E+00 -.106E+04   -.139E+01 -.641E+00 0.106E+04   -.160E+00 0.174E-01 -.305E+00
   0.297E+02 0.102E+02 -.246E+04   -.306E+02 -.102E+02 0.246E+04   0.899E+00 0.753E-02 -.384E-01
   -.672E+02 -.670E-04 -.283E+04   0.674E+02 0.468E-04 0.283E+04   -.177E+00 -.160E-04 0.727E+00
   0.121E+02 -.870E-04 -.246E+04   -.130E+02 0.540E-04 0.246E+04   0.841E+00 -.228E-04 0.241E-03
   -.516E+02 0.348E+02 -.281E+04   0.517E+02 -.347E+02 0.281E+04   -.106E+00 -.520E-01 0.729E+00
   0.426E+01 0.158E-03 0.300E+04   0.647E+00 0.344E-05 -.300E+04   -.102E+01 0.167E-04 -.332E+01
   0.473E+01 0.203E+00 0.245E+04   -.629E+01 -.204E+00 -.246E+04   -.139E+00 0.821E-03 -.449E-01
   0.460E+01 -.210E-02 0.300E+04   0.268E+00 0.724E-02 -.300E+04   -.102E+01 -.138E-02 -.332E+01
   0.281E+01 -.485E-04 0.245E+04   -.436E+01 0.171E-04 -.246E+04   -.147E+00 -.306E-04 -.509E-01
   0.145E+01 -.179E-04 0.112E+04   -.161E+01 0.282E-04 -.112E+04   0.175E+00 0.523E-06 0.708E-01
   0.243E+00 0.145E+01 0.705E+03   -.157E+00 -.143E+01 -.704E+03   -.789E-01 -.162E-01 -.127E+00
   0.210E+01 0.132E+00 0.112E+04   -.226E+01 -.128E+00 -.112E+04   0.175E+00 -.603E-02 0.271E-01
   -.695E+01 -.247E-04 0.683E+03   0.704E+01 0.606E-04 -.683E+03   -.807E-01 0.101E-05 -.343E-01
   -.200E+01 0.119E-03 -.695E+03   0.175E+01 -.107E-03 0.695E+03   0.259E+00 -.470E-05 0.145E+00
   -.864E+01 0.412E+01 -.104E+04   0.879E+01 -.413E+01 0.104E+04   -.150E+00 0.126E-01 -.256E+00
   0.253E+01 0.193E+01 -.670E+03   -.279E+01 -.193E+01 0.670E+03   0.272E+00 -.416E-02 0.962E-01
   0.591E+00 -.160E-03 -.110E+04   -.423E+00 0.147E-03 0.110E+04   -.153E+00 0.869E-05 -.174E+00
   0.481E+02 -.347E-04 -.246E+04   -.488E+02 0.469E-04 0.246E+04   0.636E+00 0.369E-05 0.514E-01
   -.776E+02 0.208E+02 -.282E+04   0.778E+02 -.207E+02 0.282E+04   -.162E+00 -.121E+00 0.722E+00
   -.939E+01 0.390E+02 -.239E+04   0.857E+01 -.391E+02 0.239E+04   0.824E+00 0.300E-01 0.784E-01
   0.234E+02 -.386E-03 -.275E+04   -.228E+02 0.425E-03 0.275E+04   -.689E+00 0.242E-04 -.484E+00
   -.332E+02 -.170E+00 0.203E+04   0.380E+02 0.171E+00 -.204E+04   -.655E+01 -.140E-02 0.170E+02
   -.336E+02 -.140E+00 0.203E+04   0.384E+02 0.139E+00 -.204E+04   -.655E+01 0.105E-02 0.170E+02
   0.833E+02 0.132E+00 0.122E+04   -.880E+02 -.131E+00 -.122E+04   0.342E+01 -.418E-02 -.420E+01
   0.754E+02 -.551E-01 0.149E+04   -.822E+02 0.563E-01 -.149E+04   0.702E+01 -.221E-02 -.249E+01
   -.877E+02 -.124E+00 0.172E+04   0.947E+02 0.122E+00 -.172E+04   -.650E+01 0.334E-02 -.279E+00
   -.740E+02 -.714E+00 0.938E+03   0.800E+02 0.754E+00 -.941E+03   -.576E+01 -.357E-01 0.403E+01
   0.840E+02 0.604E-01 0.122E+04   -.887E+02 -.445E-01 -.122E+04   0.341E+01 -.170E-01 -.408E+01
   0.747E+02 0.940E-01 0.149E+04   -.815E+02 -.103E+00 -.149E+04   0.703E+01 0.214E-01 -.251E+01
[...]
   0.924E+02 -.689E-04 -.963E+03   -.996E+02 0.616E-04 0.970E+03   0.699E+01 0.134E-04 -.720E+01
   0.703E+02 0.117E-03 -.633E+03   -.760E+02 -.105E-03 0.636E+03   0.554E+01 -.270E-05 -.266E+01
   -.821E+02 0.183E+00 -.410E+03   0.883E+02 -.140E+00 0.407E+03   -.595E+01 -.419E-01 0.242E+01
   -.749E+02 0.939E+01 -.113E+04   0.777E+02 -.967E+01 0.112E+04   -.253E+01 0.273E+00 0.915E+01
   0.852E+02 0.886E+01 -.932E+03   -.919E+02 -.915E+01 0.938E+03   0.644E+01 0.295E+00 -.559E+01
   0.797E+02 0.342E+00 -.645E+03   -.858E+02 -.315E+00 0.648E+03   0.595E+01 -.309E-01 -.279E+01
   -.730E+02 0.402E-04 -.413E+03   0.788E+02 -.354E-04 0.411E+03   -.555E+01 0.113E-04 0.204E+01
   -.679E+02 0.618E-03 -.116E+04   0.742E+02 -.654E-03 0.115E+04   -.604E+01 0.401E-04 0.560E+01
   0.109E+03 -.401E-03 -.201E+04   -.115E+03 0.416E-03 0.203E+04   0.579E+01 -.255E-04 -.201E+02
   0.453E+02 -.142E-03 -.179E+04   -.485E+02 0.163E-03 0.179E+04   0.303E+01 0.106E-05 -.730E+01
   -.515E+02 0.629E+01 -.146E+04   0.564E+02 -.612E+01 0.146E+04   -.467E+01 -.167E+00 0.272E+01
   0.121E+02 0.306E+02 -.201E+04   -.175E+02 -.305E+02 0.203E+04   0.532E+01 -.914E-01 -.194E+02
   0.776E+02 0.464E+02 -.172E+04   -.823E+02 -.459E+02 0.173E+04   0.449E+01 -.488E+00 -.615E+01
   -.695E+02 -.252E-03 -.137E+04   0.737E+02 0.289E-03 0.137E+04   -.402E+01 -.117E-05 0.426E+01
   -.810E+01 -.211E-03 0.560E+02   0.000E+00 0.576E-12 -.109E-10   0.811E+01 0.527E-03 -.561E+02

 POSITION                                       TOTAL-FORCE (eV/Angst)
      6.29014      5.62660     20.12064        -0.095922      0.000768     -0.068795
      5.64264      5.62661     20.89897        -0.219888     -0.000039      0.283610
      6.89201      4.81152     20.18791         0.210073     -0.283057      0.048249
      6.89201      6.44170     20.18791         0.209580      0.282336      0.048154
      8.35277      9.37768      6.72231         3.915067      0.000527      1.398350
      6.13317      7.50214      7.59504        -1.694473      0.000138     -1.950794
      3.22728      7.50214      6.72231         3.886617     -0.003523      1.385464
      1.00768      9.37768      7.59504        -1.723853     -0.006374     -1.958244
      9.74169      9.37793     10.25229         0.003656     -0.001493     -0.000752
      7.49507      7.49848     11.06094        -0.002190     -0.004700     -0.006061
      4.61121      7.49977     10.24907         0.002567     -0.001104     -0.002722
      2.36284      9.37725     11.06881        -0.005038     -0.000305     -0.004361
      0.93080      9.37865     13.79543        -0.007173      0.001174     -0.004036
      8.91328      7.49715     14.51368        -0.031936     -0.011561     -0.014939
      6.04392      7.49854     13.77627        -0.005125      0.000171     -0.004446
      3.77696      9.37771     14.53651        -0.020241     -0.001248     -0.002179
      2.41950      9.37116     17.40584        -0.012327     -0.006358      0.028431
      0.05863      7.49132     17.97235        -0.128423      0.001530     -0.000224
      7.53118      7.50065     17.33638        -0.024328      0.017556      0.003261
      5.20459      9.39314     17.96452        -0.151025      0.014524      0.015831
      8.35277      1.87554      6.72231         3.914977     -0.000433      1.398470
      6.13317      0.00000      7.59504        -1.709020      0.000016     -1.954455
      3.22728      0.00000      6.72231         3.905594      0.000028      1.390988
      1.00768      1.87554      7.59504        -1.723766      0.006373     -1.958299
      9.74169      1.87528     10.25229         0.003668      0.001494     -0.000743
      7.49210      0.00000     11.06267        -0.008862     -0.000024     -0.004823
      4.61327     11.25321     10.25164         0.003605      0.000022      0.001247
      2.36284      1.87596     11.06881        -0.005029      0.000364     -0.004346
      0.93080      1.87456     13.79543        -0.007190     -0.001186     -0.004029
      8.90274      0.00000     14.52548        -0.028971      0.000001      0.001800
      6.05033      0.00000     13.78516        -0.008118      0.000013      0.003999
      3.77696      1.87550     14.53651        -0.020248      0.001235     -0.002135
      2.41950      1.88205     17.40584        -0.012409      0.006317      0.028412
      0.07898     11.25321     17.97376        -0.153717     -0.000039      0.014854
      7.56066     11.25321     17.38837        -0.010288     -0.000058      0.030635
      5.20459      1.86007     17.96453        -0.150976     -0.014448      0.015781
      8.35277      5.62661      6.72231         3.927629      0.000177      1.397615
      6.13317      3.75107      7.59504        -1.694521     -0.000136     -1.950578
      3.22728      3.75107      6.72231         3.886667      0.003665      1.385291
      1.00768      5.62661      7.59504        -1.695590     -0.000065     -1.884549
      9.75442      5.62661     10.24832         0.002302      0.000008      0.010454
      7.49507      3.75473     11.06094        -0.002204      0.004671     -0.006055
      4.61121      3.75344     10.24907         0.002536      0.001080     -0.002727
      2.36621      5.62661     11.09685         0.002098      0.000035      0.012850
      0.95801      5.62661     13.80161        -0.002160      0.000005      0.022058
      8.91328      3.75606     14.51368        -0.031932      0.011549     -0.014950
      6.04392      3.75467     13.77627        -0.005118     -0.000161     -0.004431
      3.79273      5.62661     14.62351        -0.001584     -0.000007      0.032987
      2.45660      5.62661     17.42571        -0.032285      0.000014      0.062596
      0.05863      3.76189     17.97235        -0.128397     -0.001578     -0.000024
      7.53118      3.75256     17.33639        -0.024303     -0.017552      0.003465
      5.23824      5.62661     18.13439        -0.147027      0.000061      0.010325
      5.06431      7.50214      6.00000        -1.696999     -0.000086      0.528131
     10.18980      9.37768      6.00000        -1.693739      0.000355      0.526300
      9.42163      9.37768      8.31734        -1.284501     -0.002662      0.027342
      6.51574      9.37768      7.44462         0.144365     -0.001013      0.029639
      7.97020      7.50214      6.87273         0.544565      0.001531     -1.201075
      6.43691      7.50214      9.49092         0.173657      0.005090      0.454903
      4.29614      7.50214      8.31734        -1.289383     -0.001023      0.033823
      1.39025      7.50214      7.44462         0.155239      0.012620      0.021244
[...]
      2.74648      5.62661     13.01541         0.234209     -0.000006     -0.113360
      2.02372      5.62661     15.39187        -0.242581      0.000004      0.135068
      9.32287      5.62661     14.43390        -0.216732      0.000007      0.082198
      0.55217      3.75204     13.89438         0.225526      0.001760     -0.089248
      9.37647      3.74777     16.44460         0.297703     -0.001581      0.040526
      7.16316      3.73893     15.34654        -0.218148     -0.002529      0.134015
      4.19808      3.75175     14.46694        -0.212961     -0.004871      0.092190
      5.67001      5.62661     13.91593         0.224493      0.000014     -0.090869
      4.24382      5.62660     16.53143         0.243071      0.000002     -0.104615
      3.57527      5.62661     18.90209        -0.093067     -0.000013      0.315618
      0.57980      5.62661     18.20394        -0.166133      0.000020      0.205739
      2.01544      3.75440     17.44145         0.195828      0.005962     -0.102771
      8.68412      3.78207     18.81858        -0.044833      0.001116      0.336960
      5.71967      3.72089     18.15914        -0.183156     -0.001417      0.180614
      7.12062      5.62660     17.35687         0.178516      0.000034     -0.154875
    total drift:                                0.004602      0.000315     -0.096881

  FREE ENERGIE OF THE ION-ELECTRON SYSTEM (eV)
  free  energy   TOTEN  =     -1313.94525131 eV

  energy  without entropy=    -1313.94525131  energy(sigma->0) =    -1313.94525131