 vasp.6.3.0 20Jan22 (build Aug 21 2024 11:13:42) complex
 executed on        HPECrayEX_GCC date 2024.11.26  11:24:38

 INCAR:
   SYSTEM = MgO-rocksalt
   ISMEAR = 0
   SIGMA = 0.05
   EDIFF = 1E-4
   ALGO = ALL
   ISTART = 0
   IBRION = -1
   NSW = 0
   ISYM = 0
   DIPOL = 0.5 0.5 0.5
   IDIPOL = 3
   LDIPOL = .TRUE.
   LHFCALC = .TRUE.
   GGA = PE
   IVDW = 13
   VDW_S8 = 1.2007
   VDW_A1 = 0.4009
   VDW_A2 = 5.0293
   ENCUT = 520
   PREC = Accurate
   LASPH = .TRUE.
   LREAL = Auto
   ISPIN = 1
   NELM = 200
   NELMIN = 8
   NCORE = 8
   KPAR = 1
   LWAVE = .FALSE.
   LCHARG = .FALSE.

 POTCAR:    PAW_PBE C 08Apr2002
 POTCAR:    PAW_PBE H 15Jun2001
 POTCAR:    PAW_PBE O 08Apr2002
 POTCAR:    PAW_PBE Mg_pv 13Apr2007
 POTCAR:    PAW_PBE O 08Apr2002
 POTCAR:    PAW_PBE C 08Apr2002
   VRHFIN =C: s2p2

   TITEL  = PAW_PBE C 08Apr2002
   POMASS =   12.011; ZVAL   =    4.000    mass and valenz
   ENMAX  =  400.000; ENMIN  =  300.000 eV

   TITEL  = PAW_PBE H 15Jun2001
   POMASS =    1.000; ZVAL   =    1.000    mass and valenz
   ENMAX  =  250.000; ENMIN  =  200.000 eV

[...]

   TITEL  = PAW_PBE Mg_pv 13Apr2007
   POMASS =   24.305; ZVAL   =    8.000    mass and valenz
   ENMAX  =  403.929; ENMIN  =  302.947 eV

   TITEL  = PAW_PBE O 08Apr2002
   POMASS =   16.000; ZVAL   =    6.000    mass and valenz
   ENMAX  =  400.000; ENMIN  =  300.000 eV

 Optimization of the real space projectors (new method)

 maximal supplied QI-value         = 25.13
 optimisation between [QCUT,QGAM] = [ 11.56, 23.12] = [ 37.43,149.72] Ry
 Optimized for a Real-space Cutoff    1.04 Angstroem

   l    n(q)    QCUT    max X(q) W(low)/X(q) W(high)/X(q)  e(spline)
   0      7    11.561   115.676    0.20E-03    0.60E-03    0.21E-06
   0      7    11.561    87.132    0.20E-03    0.59E-03    0.21E-06
   1      7    11.561     4.429    0.23E-03    0.35E-03    0.15E-06
   1      7    11.561     2.733    0.18E-03    0.25E-03    0.12E-06
 Optimization of the real space projectors (new method)

[...]

   l    n(q)    QCUT    max X(q) W(low)/X(q) W(high)/X(q)  e(spline)
   1      8    11.527     2.974    0.44E-04    0.56E-04    0.12E-06
   1      8    11.527     4.279    0.12E-03    0.12E-03    0.26E-06
   0      9    11.527    16.381    0.46E-04    0.64E-04    0.78E-07
   0      9    11.527     5.611    0.26E-04    0.43E-04    0.55E-07
   2      8    11.527     4.652    0.22E-03    0.72E-04    0.47E-07
 Optimization of the real space projectors (new method)

 maximal supplied QI-value         = 24.76
 optimisation between [QCUT,QGAM] = [ 11.64, 23.27] = [ 37.91,151.63] Ry
 Optimized for a Real-space Cutoff    1.14 Angstroem

   l    n(q)    QCUT    max X(q) W(low)/X(q) W(high)/X(q)  e(spline)
   0      8    11.635    20.381    0.10E-03    0.33E-03    0.24E-06
   0      8    11.635    15.268    0.11E-03    0.35E-03    0.26E-06
   1      7    11.635     5.964    0.24E-03    0.31E-03    0.30E-06
   1      7    11.635     5.382    0.22E-03    0.25E-03    0.26E-06
  PAW_PBE C 08Apr2002                   :
  PAW_PBE H 15Jun2001                   :
  PAW_PBE O 08Apr2002                   :
  PAW_PBE Mg_pv 13Apr2007               :
  PAW_PBE O 08Apr2002                   :

 POSCAR:  C  H  O Mg  O
  positions in direct lattice
  velocities in cartesian coordinates
|           W    W    AA    RRRRR   N    N  II  N    N   GGGG   !!!           |
|           W    W   A  A   R    R  NN   N  II  NN   N  G    G  !!!           |
|           W    W  A    A  R    R  N N  N  II  N N  N  G       !!!           |
|           W WW W  AAAAAA  RRRRR   N  N N  II  N  N N  G  GGG   !            |
|           WW  WW  A    A  R   R   N   NN  II  N   NN  G    G                |
|           W    W  A    A  R    R  N    N  II  N    N   GGGG   !!!           |
|     Specifying the vdW parameters                                           |
|     VDW_S8 = 1.201                                                          |
|     VDW_A1 = 0.401                                                          |
|     VDW_A2 = 5.029                                                          |
|     in the INCAR file will overwrite the defaults for pbe0. Please make     |
|     sure that is what you intended.                                         |

 ion  position               nearest neighbor table
   1  0.495  0.539  0.801-   7 1.10   8 1.11   5 1.11  21 1.42
   2  0.333  0.392  0.800-  12 1.10   9 1.10  11 1.10  22 1.43
   3  0.448  0.189  0.788-  16 1.10  13 1.10  15 1.10  23 1.44
   4  0.683  0.419  0.790-  20 1.10  19 1.10  17 1.10  24 1.43
   5  0.497  0.515  0.849-   1 1.11
   6  0.571  0.420  0.759-  24 1.03
   7  0.544  0.582  0.796-   1 1.10
   8  0.439  0.573  0.797-   1 1.11
   9  0.355  0.387  0.848-   2 1.10
  10  0.442  0.427  0.758-  22 1.13  21 1.31
  11  0.307  0.452  0.793-   2 1.10
  12  0.286  0.348  0.792-   2 1.10
  13  0.452  0.198  0.839-   3 1.10
  14  0.456  0.301  0.761-  23 1.01
  15  0.385  0.187  0.774-   3 1.10
  16  0.476  0.133  0.775-   3 1.10
  17  0.688  0.483  0.779-   4 1.10
  18  0.619  0.257  0.710- 230 0.98
  19  0.672  0.413  0.841-   4 1.10
  20  0.738  0.390  0.777-   4 1.10
  21  0.500  0.479  0.755-  10 1.31   1 1.42 127 2.12
  22  0.395  0.378  0.756-  10 1.13   2 1.43  48 2.17
  23  0.489  0.252  0.755-  14 1.01   3 1.44 103 2.17
  24  0.620  0.384  0.755-   6 1.03   4 1.43  96 2.15
  25  0.000  0.375  0.352- 153 2.11 156 2.11 163 2.11 187 2.11 236 2.11
  26  0.125  0.000  0.352- 154 2.11 155 2.11 164 2.11 171 2.11 188 2.11
  27  0.000  0.000  0.451- 155 2.11 154 2.11 161 2.11 185 2.11 234 2.11 159 2.12
  28  0.125  0.375  0.451- 156 2.11 153 2.11 162 2.11 169 2.11 186 2.11 160 2.12
  29  0.000  0.375  0.550- 160 2.10 191 2.11 167 2.12 240 2.12 153 2.12 157 2.15
  30  0.125  1.000  0.550- 192 2.11 175 2.11 168 2.11 159 2.11 154 2.12 158 2.15
  31  0.000  1.000  0.649- 158 2.10 189 2.10 159 2.11 165 2.11 238 2.11
  32  0.125  0.375  0.649- 173 2.08 160 2.11 190 2.11 157 2.11 166 2.12
  33  0.000  0.125  0.352- 161 2.11 155 2.11 163 2.11 164 2.11 244 2.11
  34  0.125  0.250  0.352- 162 2.11 156 2.11 163 2.11 164 2.11 179 2.11
  35  0.000  0.250  0.451- 163 2.11 161 2.11 162 2.11 153 2.11 242 2.11 167 2.12
  36  0.125  0.125  0.451- 164 2.11 161 2.11 162 2.11 154 2.11 177 2.11 168 2.12
  37  0.000  0.125  0.550- 168 2.10 159 2.11 167 2.11 248 2.12 161 2.12 165 2.15
  38  0.125  0.250  0.550- 183 2.09 160 2.11 167 2.11 168 2.12 162 2.12 166 2.15
  39  0.001  0.250  0.649- 166 2.09 246 2.10 167 2.11 157 2.11 165 2.12
  40  0.125  0.125  0.649- 181 2.10 168 2.11 165 2.11 166 2.11 158 2.11
  41  0.250  0.375  0.352- 169 2.11 156 2.11 172 2.11 179 2.11 203 2.11
  42  0.375  0.000  0.352- 170 2.11 171 2.11 180 2.11 204 2.11 219 2.11
  43  0.250  0.000  0.451- 171 2.11 170 2.11 154 2.11 177 2.11 201 2.11 175 2.12
  44  0.375  0.375  0.451- 172 2.11 169 2.11 178 2.11 202 2.11 217 2.11 176 2.13
  45  0.251  0.375  0.551- 176 2.09 207 2.11 183 2.12 160 2.13 169 2.13 173 2.14
  46  0.375  1.000  0.550- 208 2.10 184 2.11 175 2.11 170 2.12 223 2.12 174 2.16
  47  0.250  1.000  0.649- 181 2.10 205 2.10 158 2.11 175 2.11 174 2.11
  48  0.374  0.376  0.655- 206 2.13 173 2.13 221 2.15  22 2.17 182 2.17 176 2.25
  49  0.250  0.125  0.352- 177 2.11 171 2.11 164 2.11 179 2.11 180 2.11
  50  0.375  0.250  0.352- 178 2.11 172 2.11 179 2.11 180 2.11 227 2.11
  51  0.250  0.250  0.451- 183 2.11 179 2.11 177 2.11 178 2.11 162 2.11 169 2.11
  52  0.375  0.125  0.451- 180 2.11 177 2.11 178 2.11 170 2.11 225 2.11 184 2.11
  53  0.250  0.125  0.550- 183 2.10 168 2.11 184 2.11 175 2.11 177 2.12 181 2.15
  54  0.375  0.251  0.551- 176 2.09 182 2.10 183 2.12 178 2.14 184 2.14 231 2.15
  55  0.249  0.250  0.648- 182 2.06 183 2.10 166 2.11 173 2.11 181 2.13
  56  0.373  0.124  0.648- 182 2.09 184 2.10 181 2.10 174 2.10 229 2.15
  57  0.000  0.875  0.352- 185 2.11 155 2.11 188 2.11 195 2.11 268 2.11
  58  0.125  0.500  0.352- 186 2.11 156 2.11 187 2.11 196 2.11 203 2.11
  59  0.000  0.500  0.451- 187 2.11 186 2.11 153 2.11 193 2.11 266 2.11 191 2.12
  60  0.125  0.875  0.451- 188 2.11 185 2.11 154 2.11 194 2.11 201 2.11 192 2.12
[...]
 266  0.875  0.500  0.451- 138 2.11 108 2.11  59 2.11 139 2.11 148 2.11 142 2.12
 267  0.750  0.500  0.352- 139 2.11 122 2.11 138 2.11 105 2.11 145 2.11
 268  0.875  0.875  0.352- 140 2.11 106 2.11 137 2.11  57 2.11 146 2.11
 269  0.750  0.875  0.651- 111 2.09 144 2.11 151 2.11 128 2.12 141 2.15
 270  0.875  0.500  0.651- 112 2.10 143 2.10  63 2.11 152 2.11 142 2.15
 271  0.751  0.500  0.550- 143 2.10 109 2.10 142 2.10 139 2.11 149 2.11 126 2.14
 272  0.875  0.875  0.550- 110 2.10 141 2.11 144 2.11  61 2.11 150 2.11 140 2.12
 273  0.750  0.625  0.451- 145 2.11 139 2.11 132 2.11 147 2.11 148 2.11 149 2.12
 274  0.875  0.750  0.451- 146 2.11 140 2.11  67 2.11 147 2.11 148 2.11 150 2.12
 275  0.750  0.750  0.352- 147 2.11 137 2.11 145 2.11 146 2.11 130 2.11
 276  0.875  0.625  0.352- 148 2.11 138 2.11 145 2.11 146 2.11  65 2.11
 277  0.751  0.626  0.651- 151 2.09 152 2.10 143 2.10 136 2.13 149 2.15
 278  0.875  0.750  0.651- 144 2.10  71 2.11 152 2.11 151 2.11 150 2.15
 279  0.750  0.750  0.550- 141 2.10 150 2.11 151 2.11 149 2.11 147 2.12 134 2.12
 280  0.875  0.625  0.550- 150 2.11 142 2.11 152 2.11  69 2.11 149 2.11 148 2.12

IMPORTANT INFORMATION: All symmetrisations will be switched off!
NOSYMM: (Re-)initialisation of all symmetry stuff for point group C_1.

                                     Primitive cell

  volume of cell :    6079.2794

  direct lattice vectors                    reciprocal lattice vectors
    16.881969308  0.000000000  0.000000000     0.059234796  0.000000000  0.000000000
     0.000000000 16.881969308  0.000000000     0.000000000  0.059234796  0.000000000
     0.000000000  0.000000000 21.330738491     0.000000000  0.000000000  0.046880702

  length of vectors
    16.881969308 16.881969308 21.330738491     0.059234796  0.059234796  0.046880702

  position of ions in fractional coordinates (direct lattice)
     0.494741545  0.539182070  0.801215795
     0.333236186  0.392243334  0.799604030
     0.448229860  0.189366262  0.787931134
     0.682716199  0.419263148  0.789829254
     0.497166009  0.514550325  0.849238886
     0.571002783  0.419976555  0.759115837
     0.544114108  0.581568107  0.796056678
     0.439018612  0.573160207  0.796742407
     0.354861461  0.387358676  0.848279834
     0.441581041  0.427193141  0.758326944
     0.307468089  0.451776984  0.793135907
     0.285906951  0.348447997  0.792309085
     0.452370826  0.197583293  0.839083781
     0.455769056  0.301229752  0.760710025
     0.385089841  0.187357266  0.774469186
     0.476218009  0.133167581  0.774776164
     0.688138344  0.482984513  0.778888956
     0.618621301  0.257367617  0.709885387
     0.672458705  0.412621021  0.840614496
     0.738320853  0.389771534  0.777025622
     0.499687436  0.478597566  0.755218860
     0.395496029  0.378436229  0.755605663
     0.488774222  0.251847682  0.755436829
     0.619772686  0.383702220  0.754595811
     0.000000000  0.375000000  0.351605267
     0.125000000  0.000000000  0.351605267
     0.000000000  0.000000000  0.450535089
     0.125000000  0.375000000  0.450535089
[...]
   2.11024616  0.00000000  7.50000000
   0.00000000  0.00000000  9.61024616
   2.11024616  6.33073849  9.61024616
   0.00685086  6.33333309 11.73261356
   2.11086168 16.87940571 11.73253103
   0.00681438 16.87473741 13.83755263
   2.11481464  6.33583631 13.83567595
   0.00000000  2.11024616  7.50000000
   2.11024616  4.22049233  7.50000000
   0.00000000  4.22049233  9.61024616
   2.11024616  2.11024616  9.61024616
   0.00586811  2.10817184 11.73328737
   2.11283284  4.22332674 11.72991925
   0.01438318  4.21987790 13.83814633
   2.11113146  2.10459391 13.83630988
   4.22049233  6.33073849  7.50000000
   6.33073849  0.00000000  7.50000000
   4.22049233  0.00000000  9.61024616
   6.33073849  6.33073849  9.61024616
   4.23514440  6.33489342 11.74496199
   6.32681140 16.87764253 11.72833993
   4.21259105 16.87434585 13.83567096
   6.32001676  6.34640351 13.98071676
   4.22049233  2.11024616  7.50000000
   6.33073849  4.22049233  7.50000000
   4.22049233  4.22049233  9.61024616
   6.33073849  2.11024616  9.61024616
   4.21693063  2.11075898 11.72967733
   6.32419230  4.23758326 11.74584417
   4.20979214  4.22268410 13.82313809
   6.30474684  2.09500861 13.82017595
   0.00000000 14.77172314  7.50000000
   2.11024616  8.44098465  7.50000000
   0.00000000  8.44098465  9.61024616
   2.11024616 14.77172314  9.61024616
[...]
  14.77172314  8.44098465  9.61024616
  12.66147698  8.44098465  7.50000000
  14.77172314 14.77172314  7.50000000
  12.66849653 14.77063513 13.88517724
  14.77658113  8.44421274 13.88376136
  12.67015879  8.44101692 11.72294058
  14.77202142 14.77456091 11.72779920
  12.66147698 10.55123082  9.61024616
  14.77172314 12.66147698  9.61024616
  12.66147698 12.66147698  7.50000000
  14.77172314 10.55123082  7.50000000
  12.67798027 10.56612262 13.88279690
  14.77860535 12.66624663 13.88391124
  12.66576920 12.66578419 11.72692325
  14.77483967 10.55317847 11.72694951

--------------------------------------- Iteration      FINAL  ---------------------------------------

--------------------OUTCAR has been truncated-------------------------

[...]

--------------------OUTCAR has been truncated-------------------------

 VOLUME and BASIS-vectors are now :
  energy-cutoff  :      520.00
  volume of cell :     6079.28
      direct lattice vectors                 reciprocal lattice vectors
    16.881969308  0.000000000  0.000000000     0.059234796  0.000000000  0.000000000
     0.000000000 16.881969308  0.000000000     0.000000000  0.059234796  0.000000000
     0.000000000  0.000000000 21.330738491     0.000000000  0.000000000  0.046880702

  length of vectors
    16.881969308 16.881969308 21.330738491     0.059234796  0.059234796  0.046880702

 FORCES acting on ions:
    Electron-Ion                     Ewald-Force                    Non-Local-Force
   0.844E+01 -.199E+03 -.102E+04   -.867E+01 0.202E+03 0.102E+04   0.237E+00 -.339E+01 -.301E+01
   0.199E+03 -.244E+02 -.102E+04   -.203E+03 0.252E+02 0.102E+04   0.397E+01 -.768E+00 -.332E+01
   0.638E+02 0.190E+03 -.104E+04   -.662E+02 -.195E+03 0.104E+04   0.243E+01 0.439E+01 -.270E+01
   -.194E+03 -.514E+02 -.104E+04   0.198E+03 0.534E+02 0.104E+04   -.424E+01 -.205E+01 -.286E+01
   -.186E+01 -.802E+01 -.253E+03   0.206E+01 0.606E+01 0.258E+03   -.198E+00 0.196E+01 -.490E+01
   0.228E+02 -.274E+02 -.271E+03   -.276E+02 0.308E+02 0.271E+03   0.497E+01 -.352E+01 -.501E+00
   -.451E+02 -.705E+02 -.238E+03   0.491E+02 0.740E+02 0.238E+03   -.400E+01 -.348E+01 0.541E+00
   0.539E+02 -.638E+02 -.238E+03   -.584E+02 0.665E+02 0.238E+03   0.448E+01 -.276E+01 0.458E+00
   0.111E+02 0.227E+01 -.254E+03   -.938E+01 -.267E+01 0.259E+03   -.174E+01 0.395E+00 -.505E+01
   0.222E+01 -.242E+02 -.265E+03   -.634E+00 0.259E+02 0.265E+03   -.162E+01 -.173E+01 -.117E+00
   0.573E+02 -.602E+02 -.239E+03   -.594E+02 0.651E+02 0.238E+03   0.213E+01 -.487E+01 0.663E+00
   0.748E+02 0.383E+02 -.239E+03   -.788E+02 -.419E+02 0.238E+03   0.399E+01 0.363E+01 0.792E+00
   0.242E+01 0.225E+02 -.260E+03   -.205E+01 -.219E+02 0.265E+03   -.349E+00 -.652E+00 -.536E+01
   0.296E+02 -.299E+02 -.273E+03   -.332E+02 0.356E+02 0.273E+03   0.371E+01 -.582E+01 -.685E+00
   0.694E+02 0.350E+02 -.247E+03   -.746E+02 -.351E+02 0.245E+03   0.518E+01 0.144E+00 0.138E+01
   -.200E+02 0.792E+02 -.247E+03   0.224E+02 -.840E+02 0.246E+03   -.239E+01 0.481E+01 0.147E+01
   -.393E+02 -.682E+02 -.246E+03   0.397E+02 0.734E+02 0.245E+03   -.427E+00 -.522E+01 0.111E+01
   -.163E+02 0.157E+02 -.337E+03   0.150E+02 -.142E+02 0.345E+03   0.133E+01 -.152E+01 -.751E+01
   -.213E+02 0.199E+01 -.259E+03   0.204E+02 -.255E+01 0.264E+03   0.826E+00 0.554E+00 -.530E+01
   -.790E+02 0.229E+02 -.246E+03   0.838E+02 -.254E+02 0.244E+03   -.473E+01 0.249E+01 0.143E+01
   -.217E+02 -.106E+03 -.153E+04   0.285E+02 0.899E+02 0.151E+04   -.594E+01 0.145E+02 0.184E+02
   0.111E+03 0.435E+02 -.153E+04   -.100E+03 -.608E+02 0.151E+04   -.985E+01 0.152E+02 0.181E+02
   -.114E+03 0.116E+03 -.157E+04   0.149E+03 -.116E+03 0.156E+04   -.304E+02 -.234E+00 0.129E+02
   -.114E+03 0.117E+03 -.157E+04   0.110E+03 -.149E+03 0.155E+04   0.338E+01 0.283E+02 0.133E+02
   0.141E+01 0.833E+00 0.209E+04   -.129E+01 -.765E+00 -.208E+04   -.760E-01 -.454E-01 -.676E+01
   0.608E+01 0.503E+01 0.208E+04   -.603E+01 -.505E+01 -.208E+04   -.319E-01 0.135E-01 -.677E+01
   0.232E+01 0.641E+01 0.714E+03   -.221E+01 -.647E+01 -.714E+03   -.708E-01 0.370E-01 0.474E+00
   0.147E+02 0.105E+00 0.733E+03   -.144E+02 -.462E-01 -.733E+03   -.158E+00 -.382E-01 0.380E+00
   0.498E+01 0.226E+01 -.632E+03   -.457E+01 -.209E+01 0.632E+03   -.361E+00 -.148E+00 -.904E-01
   0.176E+02 0.149E+02 -.648E+03   -.175E+02 -.149E+02 0.648E+03   -.114E+00 0.307E-01 -.112E+00
   0.568E+01 0.163E+02 -.202E+04   -.530E+01 -.165E+02 0.202E+04   -.333E+00 0.158E+00 0.571E+01
   0.816E+02 0.176E+01 -.197E+04   -.807E+02 -.151E+01 0.197E+04   -.799E+00 -.221E+00 0.571E+01
   0.183E+01 0.685E+01 0.208E+04   -.172E+01 -.685E+01 -.208E+04   -.733E-01 0.181E-02 -.675E+01
   0.811E+01 0.565E+01 0.209E+04   -.802E+01 -.559E+01 -.208E+04   -.630E-01 -.403E-01 -.680E+01
   0.340E+01 0.848E+01 0.724E+03   -.310E+01 -.843E+01 -.724E+03   -.194E+00 -.314E-01 0.482E+00
   0.127E+02 0.124E+02 0.724E+03   -.126E+02 -.124E+02 -.724E+03   -.582E-01 -.252E-01 0.436E+00
   0.752E+01 0.178E+02 -.646E+03   -.708E+01 -.179E+02 0.646E+03   -.384E+00 0.254E-01 -.111E+00
   0.353E+02 0.177E+02 -.623E+03   -.349E+02 -.175E+02 0.623E+03   -.404E+00 -.180E+00 -.194E-01
   0.561E+01 0.236E+02 -.200E+04   -.521E+01 -.235E+02 0.200E+04   -.351E+00 -.851E-01 0.569E+01
   0.457E+02 0.377E+02 -.200E+04   -.453E+02 -.377E+02 0.200E+04   -.312E+00 -.269E-01 0.571E+01
   0.104E+02 0.329E+00 0.209E+04   -.103E+02 -.253E+00 -.209E+04   -.365E-01 -.506E-01 -.687E+01
   0.407E+01 0.652E+01 0.209E+04   -.414E+01 -.656E+01 -.208E+04   0.452E-01 0.262E-01 -.676E+01
   0.121E+02 0.109E+02 0.724E+03   -.121E+02 -.109E+02 -.725E+03   0.179E-01 0.989E-02 0.436E+00
   0.102E+02 0.781E+00 0.761E+03   -.102E+02 -.531E+00 -.761E+03   0.270E-02 -.159E+00 0.163E+00
   0.550E+02 -.155E+00 -.580E+03   -.542E+02 0.395E+00 0.580E+03   -.701E+00 -.209E+00 -.467E+00
   0.121E+02 0.303E+02 -.620E+03   -.123E+02 -.303E+02 0.620E+03   0.249E+00 -.153E-02 0.238E-01
   0.398E+02 0.431E+02 -.200E+04   -.400E+02 -.430E+02 0.200E+04   0.167E+00 -.467E-01 0.572E+01
   0.142E+03 0.569E+01 -.171E+04   -.142E+03 -.473E+01 0.171E+04   0.234E-01 -.833E+00 0.122E+01
   0.844E+01 0.889E+01 0.209E+04   -.845E+01 -.885E+01 -.208E+04   0.593E-02 -.295E-01 -.678E+01
   0.533E+01 0.758E+01 0.209E+04   -.543E+01 -.746E+01 -.209E+04   0.678E-01 -.819E-01 -.680E+01
   0.175E+02 0.107E+02 0.746E+03   -.175E+02 -.105E+02 -.746E+03   0.197E-01 -.118E+00 0.223E+00
   0.676E+01 0.174E+02 0.743E+03   -.690E+01 -.173E+02 -.743E+03   0.101E+00 -.590E-01 0.317E+00
   0.341E+02 0.357E+02 -.612E+03   -.342E+02 -.355E+02 0.612E+03   0.469E-01 -.183E+00 -.412E-01
   0.219E+02 0.378E+02 -.536E+03   -.227E+02 -.368E+02 0.538E+03   0.644E+00 -.857E+00 -.128E+01
   0.129E+03 0.647E+02 -.191E+04   -.128E+03 -.643E+02 0.191E+04   -.908E+00 -.378E+00 0.577E+01
   0.610E+02 0.127E+03 -.189E+04   -.622E+02 -.126E+03 0.188E+04   0.974E+00 -.398E+00 0.590E+01
   0.845E+00 -.767E+00 0.208E+04   -.793E+00 0.709E+00 -.207E+04   -.348E-01 0.388E-01 -.676E+01
   0.765E+01 -.506E+01 0.209E+04   -.754E+01 0.508E+01 -.208E+04   -.688E-01 -.924E-02 -.680E+01
   0.851E+00 -.681E+01 0.724E+03   -.734E+00 0.687E+01 -.725E+03   -.751E-01 -.342E-01 0.461E+00
   0.822E+01 -.276E+00 0.715E+03   -.817E+01 0.213E+00 -.715E+03   -.300E-01 0.401E-01 0.450E+00
[...]
   -.740E+01 -.342E+01 0.157E+04   0.737E+01 0.348E+01 -.157E+04   0.374E-01 -.703E-01 0.302E+01
   -.315E+01 -.956E+00 0.156E+04   0.317E+01 0.904E+00 -.157E+04   -.234E-01 0.652E-01 0.305E+01
   -.205E+02 -.196E+01 -.153E+04   0.204E+02 0.165E+01 0.154E+04   0.107E+00 0.272E+00 -.445E+01
   -.512E+02 -.242E+02 -.151E+04   0.514E+02 0.245E+02 0.151E+04   -.124E+00 -.213E+00 -.445E+01
   -.316E+02 -.150E+02 -.429E+03   0.311E+02 0.152E+02 0.428E+03   0.457E+00 -.109E+00 0.387E+00
   -.820E+01 -.183E+01 -.484E+03   0.824E+01 0.169E+01 0.484E+03   -.369E-01 0.120E+00 0.228E+00
   -.120E+02 -.110E+02 0.550E+03   0.119E+02 0.110E+02 -.550E+03   0.102E+00 0.392E-01 -.143E+00
   -.612E+01 -.726E+01 0.537E+03   0.611E+01 0.721E+01 -.537E+03   0.135E-01 0.578E-01 -.106E+00
   -.568E+01 -.531E+01 0.157E+04   0.566E+01 0.526E+01 -.157E+04   0.239E-01 0.575E-01 0.302E+01
   -.443E+01 -.547E+01 0.157E+04   0.443E+01 0.547E+01 -.157E+04   -.832E-03 -.476E-02 0.303E+01
   -.514E+02 -.575E+02 -.150E+04   0.509E+02 0.574E+02 0.150E+04   0.424E+00 0.801E-01 -.447E+01
   -.177E+02 -.195E+02 -.153E+04   0.176E+02 0.194E+02 0.154E+04   0.617E-01 0.122E+00 -.445E+01
   -.163E+02 -.175E+02 -.472E+03   0.162E+02 0.173E+02 0.472E+03   0.121E+00 0.155E+00 0.214E+00
   -.163E+02 -.167E+02 -.471E+03   0.162E+02 0.167E+02 0.471E+03   0.684E-01 0.231E-01 0.221E+00
   0.401E+02 -.541E+02 0.289E+02   -.628E-11 0.711E-12 -.100E-10   -.332E+02 0.449E+02 -.277E+02

 POSITION                                       TOTAL-FORCE (eV/Angst)
      8.35221      9.10246     17.09052         0.026407     -0.191272     -0.216960
      5.62568      6.62184     17.05614         0.215629     -0.047269     -0.232123
      7.56700      3.19688     16.80715         0.173943      0.227011     -0.162949
     11.52559      7.07799     16.84764        -0.234703     -0.166037     -0.166441
      8.39314      8.68662     18.11489        -0.007698      0.092551     -0.274830
      9.63965      7.09003     16.19250         0.343366     -0.280385     -0.091332
      9.18572      9.81801     16.98048        -0.205343     -0.182746      0.021197
      7.41150      9.67607     16.99510         0.233756     -0.148027      0.015892
      5.99076      6.53938     18.09444        -0.075672      0.015489     -0.272191
      7.45476      7.21186     16.17567        -0.106203     -0.159854     -0.076815
      5.19067      7.62689     16.91817         0.117616     -0.245188      0.027462
      4.82667      5.88249     16.90054         0.197982      0.173277      0.034077
      7.63691      3.33560     17.89828        -0.000097     -0.019187     -0.292053
      7.69428      5.08535     16.22651         0.282715     -0.382378     -0.094774
      6.50107      3.16296     16.52000         0.270615      0.033406      0.063735
      8.03950      2.24813     16.52655        -0.099620      0.227343      0.066238
     11.61713      8.15373     16.61428        -0.043256     -0.263976      0.047968
     10.44355      4.34487     15.14238         0.057620     -0.069103     -0.436826
     11.35243      6.96586     17.93093         0.028405      0.017449     -0.295110
     12.46431      6.58011     16.57453        -0.223528      0.110480      0.064023
      8.43571      8.07967     16.10938        -0.146673      0.286562      0.373850
      6.67675      6.38875     16.11763        -0.186452      0.365670      0.378771
      8.25147      4.25168     16.11403        -0.628936     -0.055786      0.270628
     10.46298      6.47765     16.09609         0.089088      0.610527      0.282804
      0.00000      6.33074      7.50000         0.025055      0.015788      0.577793
      2.11025      0.00000      7.50000         0.010659     -0.004495      0.579376
      0.00000      0.00000      9.61025         0.026310     -0.014095      0.041022
      2.11025      6.33074      9.61025         0.069324      0.014740      0.078763
      0.00685      6.33333     11.73261         0.003885      0.002086      0.011576
      2.11086     16.87941     11.73253         0.002318     -0.001336      0.009069
      0.00681     16.87474     13.83755         0.003441     -0.002181     -0.193382
      2.11481      6.33584     13.83568         0.009722      0.005859     -0.192329
      0.00000      2.11025      7.50000         0.024408     -0.000964      0.572541
      2.11025      4.22049      7.50000         0.021020      0.013774      0.589760
      0.00000      4.22049      9.61025         0.068490      0.011677      0.034771
      2.11025      2.11025      9.61025         0.019919      0.009295      0.047600
      0.00587      2.10817     11.73329         0.005422      0.000646      0.010682
      2.11283      4.22333     11.72992         0.006662      0.000657      0.008638
      0.01438      4.21988     13.83815         0.001338      0.002907     -0.193132
      2.11113      2.10459     13.83631         0.004574      0.001155     -0.194299
      4.22049      6.33074      7.50000         0.012485      0.017507      0.612524
      6.33074      0.00000      7.50000        -0.014579     -0.008839      0.577682
      4.22049      0.00000      9.61025        -0.007696     -0.005598      0.045977
      6.33074      6.33074      9.61025         0.020314      0.065405      0.186042
      4.23514      6.33489     11.74496         0.010925      0.004007      0.012299
      6.32681     16.87764     11.72834        -0.003284      0.002222      0.009080
      4.21259     16.87435     13.83567        -0.001278      0.002066     -0.194471
      6.32002      6.34640     13.98072         0.013051      0.019560     -0.037979
      4.22049      2.11025      7.50000        -0.001458      0.009673      0.586626
      6.33074      4.22049      7.50000        -0.020713      0.027700      0.592954
      4.22049      4.22049      9.61025         0.002292      0.048634      0.083949
      6.33074      2.11025      9.61025        -0.028478      0.029478      0.083756
      4.21693      2.11076     11.72968         0.000247      0.002258      0.008809
      6.32419      4.23758     11.74584        -0.011106      0.013137      0.027204
      4.20979      4.22268     13.82314         0.010708      0.003817     -0.200850
      6.30475      2.09501     13.82018        -0.020936      0.000727     -0.204595
      0.00000     14.77172      7.50000         0.011678     -0.012977      0.577515
      2.11025      8.44098      7.50000         0.022731      0.002827      0.592064
      0.00000      8.44098      9.61025         0.029990      0.012802      0.046655
      2.11025     14.77172      9.61025         0.011549     -0.016034      0.048545
[...]
     14.77172      8.44098      9.61025         0.011563     -0.023762      0.044934
     12.66148      8.44098      7.50000         0.012767     -0.023479     -0.417911
     14.77172     14.77172      7.50000        -0.005660      0.024056     -0.407035
     12.66850     14.77064     13.88518         0.004511      0.008206     -0.127028
     14.77658      8.44421     13.88376        -0.004712     -0.005010     -0.126931
     12.67016      8.44102     11.72294         0.011454     -0.003622      0.022789
     14.77202     14.77456     11.72780        -0.002837      0.000514      0.012995
     12.66148     10.55123      9.61025         0.036573      0.010741      0.032825
     14.77172     12.66148      9.61025         0.005524      0.020777      0.053758
     12.66148     12.66148      7.50000         0.008006      0.019277     -0.416988
     14.77172     10.55123      7.50000         0.002016     -0.003771     -0.414519
     12.67798     10.56612     13.88280         0.010952     -0.001451     -0.123519
     14.77861     12.66625     13.88391         0.000769      0.003373     -0.126316
     12.66577     12.66578     11.72692         0.002705      0.003238      0.013958
     14.77484     10.55318     11.72695        -0.000168      0.000147      0.012361
    total drift:                               -0.001303     -0.006578     -0.021488

  FREE ENERGIE OF THE ION-ELECTRON SYSTEM (eV)
  free  energy   TOTEN  =     -2039.44254848 eV

  energy  without entropy=    -2039.44254848  energy(sigma->0) =    -2039.44254848