 vasp.6.3.0 20Jan22 (build Apr  1 2022 16:44:48) complex
 executed on        HPECrayEX_GCC date 2022.11.13  12:59:45

 INCAR:
   SYSTEM = MgO-rocksalt
   ISMEAR = 0
   SIGMA = 0.05
   EDIFF = 1E-6
   ALGO = ALL
   ISTART = 0
   IBRION = -1
   NSW = 0
   ISYM = 0
   DIPOL = 0.5 0.5 0.5
   IDIPOL = 3
   LDIPOL = .TRUE.
   LHFCALC = .TRUE.
   GGA = B5
   AEXX = 0.2
   AGGAX = 0.72
   AGGAC = 0.81
   ALDAC = 0.19
   IVDW = 1
   VDW_S6 = 1.05
   VDW_C6 = 1.75 0.70 0.14 0.63 0.70
   VDW_R0 = 1.452 1.342 1.001 1.243 1.342
   ENCUT = 600
   PREC = Accurate
   LASPH = .TRUE.
   LREAL = .FALSE.
   ISPIN = 1
   NELM = 200
   NELMIN = 8
   NCORE = 8
   KPAR = 1
   LWAVE = .FALSE.
   LCHARG = .FALSE.

 POTCAR:    PAW_PBE C 08Apr2002
 POTCAR:    PAW_PBE O 08Apr2002
 POTCAR:    PAW_PBE H 15Jun2001
 POTCAR:    PAW_PBE Mg_pv 13Apr2007
 POTCAR:    PAW_PBE O 08Apr2002
 POTCAR:    PAW_PBE C 08Apr2002
   VRHFIN =C: s2p2

   TITEL  = PAW_PBE C 08Apr2002
   POMASS =   12.011; ZVAL   =    4.000    mass and valenz
   ENMAX  =  400.000; ENMIN  =  300.000 eV

[...]

   TITEL  = PAW_PBE H 15Jun2001
   POMASS =    1.000; ZVAL   =    1.000    mass and valenz
   ENMAX  =  250.000; ENMIN  =  200.000 eV

   TITEL  = PAW_PBE Mg_pv 13Apr2007
   POMASS =   24.305; ZVAL   =    8.000    mass and valenz
   ENMAX  =  403.929; ENMIN  =  302.947 eV

   TITEL  = PAW_PBE O 08Apr2002
   POMASS =   16.000; ZVAL   =    6.000    mass and valenz
   ENMAX  =  400.000; ENMIN  =  300.000 eV

  PAW_PBE C 08Apr2002                   :
  PAW_PBE O 08Apr2002                   :
  PAW_PBE H 15Jun2001                   :
  PAW_PBE Mg_pv 13Apr2007               :
  PAW_PBE O 08Apr2002                   :

 POSCAR:  C  O  H Mg  O
  positions in direct lattice
 exchange correlation table for  LEXCH =       12
   RHO(1)=    0.500       N(1)  =     2000
   RHO(2)=  100.500       N(2)  =     4000

 ion  position               nearest neighbor table
   1  0.500  0.424  0.797-   3 1.10   5 1.11   6 1.11   2 1.43
   2  0.500  0.261  0.779-   4 1.00   1 1.43
   3  0.500  0.428  0.849-   1 1.10
   4  0.500  0.257  0.732-   2 1.00
   5  0.607  0.487  0.781-   1 1.11
   6  0.393  0.487  0.781-   1 1.11
   7  0.250  0.000  0.352-  39 2.11  41 2.11  42 2.11  49 2.11  58 2.11
   8  0.500  0.250  0.352-  40 2.11  41 2.11  42 2.11  50 2.11  57 2.11
   9  0.250  0.250  0.451-  41 2.11  40 2.11  39 2.11  47 2.11  56 2.11  45 2.12
  10  0.500  0.000  0.451-  42 2.11  40 2.11  39 2.11  48 2.11  55 2.11  46 2.12
  11  0.250  0.000  0.550-  62 2.11  46 2.11  53 2.11  45 2.11  39 2.12  43 2.13
  12  0.500  0.250  0.550-  46 2.11  45 2.11  61 2.11  54 2.11  40 2.12  44 2.16
  13  0.248  0.250  0.649-  60 2.09  43 2.11  45 2.11  51 2.11  44 2.13
  14  0.500  0.998  0.649-  52 2.09  46 2.11  59 2.11  43 2.11  44 2.13
  15  0.250  0.500  0.352-  47 2.11  41 2.11  49 2.11  50 2.11  66 2.11
  16  0.500  0.750  0.352-  48 2.11  42 2.11  49 2.11  50 2.11  65 2.11
  17  0.250  0.750  0.451-  49 2.11  47 2.11  48 2.11  39 2.11  64 2.11  53 2.11
  18  0.500  0.500  0.451-  50 2.11  47 2.11  48 2.11  40 2.11  63 2.11  54 2.12
  19  0.250  0.500  0.550-  70 2.11  45 2.11  53 2.11  54 2.11  47 2.12  51 2.13
  20  0.500  0.750  0.550-  53 2.11  69 2.11  46 2.11  54 2.11  48 2.12  52 2.13
  21  0.250  0.750  0.649-  68 2.11  53 2.11  43 2.11  51 2.11  52 2.11
  22  0.500  0.503  0.648-  52 2.08  54 2.10  51 2.11  67 2.11  44 2.14
  23  0.750  0.000  0.352-  55 2.11  42 2.11  57 2.11  58 2.11  65 2.11
  24  0.000  0.250  0.352-  56 2.11  41 2.11  57 2.11  58 2.11  66 2.11
  25  0.750  0.250  0.451-  57 2.11  55 2.11  56 2.11  40 2.11  63 2.11  61 2.12
  26  0.000  0.000  0.451-  58 2.11  55 2.11  56 2.11  39 2.11  64 2.11  62 2.11
  27  0.750  0.000  0.550-  62 2.11  46 2.11  69 2.11  61 2.11  55 2.12  59 2.13
  28  0.000  0.250  0.550-  70 2.11  62 2.11  45 2.11  61 2.11  56 2.12  60 2.13
  29  0.752  0.250  0.649-  60 2.09  59 2.11  61 2.11  67 2.11  44 2.13
  30  1.000  1.000  0.649-  68 2.11  62 2.11  59 2.11  43 2.11  60 2.11
  31  0.750  0.500  0.352-  63 2.11  57 2.11  50 2.11  65 2.11  66 2.11
  32  0.000  0.750  0.352-  64 2.11  58 2.11  49 2.11  65 2.11  66 2.11
  33  0.750  0.750  0.451-  65 2.11  55 2.11  63 2.11  64 2.11  48 2.11  69 2.11
  34  0.000  0.500  0.451-  66 2.11  56 2.11  63 2.11  64 2.11  47 2.11  70 2.12
  35  0.750  0.500  0.550-  70 2.11  61 2.11  69 2.11  54 2.11  63 2.12  67 2.13
  36  0.000  0.750  0.550-  62 2.11  53 2.11  69 2.11  70 2.11  64 2.12  68 2.14
  37  0.750  0.750  0.649-  68 2.11  69 2.11  59 2.11  67 2.11  52 2.11
  38  0.000  0.501  0.649-  68 2.11  70 2.11  51 2.11  67 2.11  60 2.11
  39  0.250  0.000  0.451-   7 2.11   9 2.11  10 2.11  17 2.11  26 2.11  11 2.12
  40  0.500  0.250  0.451-   8 2.11   9 2.11  10 2.11  18 2.11  25 2.11  12 2.12
  41  0.250  0.250  0.352-   9 2.11   8 2.11   7 2.11  15 2.11  24 2.11
  42  0.500  0.000  0.352-  10 2.11   8 2.11   7 2.11  16 2.11  23 2.11
  43  0.250  0.000  0.650-  13 2.11  14 2.11  21 2.11  30 2.11  11 2.13
  44  0.500  0.250  0.651-  13 2.13  29 2.13  14 2.13  22 2.14  12 2.16
  45  0.250  0.250  0.550-  12 2.11  13 2.11  19 2.11  11 2.11  28 2.11   9 2.12
  46  0.500  0.001  0.550-  14 2.11  12 2.11  11 2.11  27 2.11  20 2.11  10 2.12
  47  0.250  0.500  0.451-  15 2.11   9 2.11  17 2.11  18 2.11  34 2.11  19 2.12
  48  0.500  0.750  0.451-  16 2.11  10 2.11  17 2.11  18 2.11  33 2.11  20 2.12
  49  0.250  0.750  0.352-  17 2.11  15 2.11  16 2.11   7 2.11  32 2.11
  50  0.500  0.500  0.352-  18 2.11  15 2.11  16 2.11   8 2.11  31 2.11
  51  0.250  0.500  0.650-  22 2.11  13 2.11  38 2.11  21 2.11  19 2.13
  52  0.500  0.750  0.650-  22 2.08  14 2.09  37 2.11  21 2.11  20 2.13
  53  0.250  0.750  0.550-  21 2.11  19 2.11  20 2.11  36 2.11  11 2.11  17 2.11
  54  0.500  0.500  0.550-  22 2.10  12 2.11  35 2.11  19 2.11  20 2.11  18 2.12
  55  0.750  0.000  0.451-  23 2.11  10 2.11  25 2.11  26 2.11  33 2.11  27 2.12
  56  0.000  0.250  0.451-  24 2.11   9 2.11  25 2.11  26 2.11  34 2.11  28 2.12
  57  0.750  0.250  0.352-  25 2.11  23 2.11  24 2.11   8 2.11  31 2.11
  58  0.000  0.000  0.352-  26 2.11  23 2.11  24 2.11   7 2.11  32 2.11
  59  0.750  0.000  0.650-  29 2.11  14 2.11  37 2.11  30 2.11  27 2.13
  60  1.000  0.250  0.650-  29 2.09  13 2.09  38 2.11  30 2.11  28 2.13
  61  0.750  0.250  0.550-  12 2.11  29 2.11  35 2.11  27 2.11  28 2.11  25 2.12
  62  0.000  0.000  0.550-  11 2.11  27 2.11  28 2.11  30 2.11  36 2.11  26 2.11
  63  0.750  0.500  0.451-  31 2.11  25 2.11  18 2.11  33 2.11  34 2.11  35 2.12
  64  0.000  0.750  0.451-  32 2.11  26 2.11  17 2.11  33 2.11  34 2.11  36 2.12
  65  0.750  0.750  0.352-  33 2.11  23 2.11  31 2.11  32 2.11  16 2.11
  66  0.000  0.500  0.352-  34 2.11  24 2.11  31 2.11  32 2.11  15 2.11
  67  0.750  0.500  0.650-  22 2.11  29 2.11  38 2.11  37 2.11  35 2.13
  68  1.000  0.750  0.650-  37 2.11  21 2.11  38 2.11  30 2.11  36 2.14
  69  0.750  0.750  0.550-  37 2.11  35 2.11  20 2.11  36 2.11  27 2.11  33 2.11
  70  1.000  0.500  0.550-  35 2.11  19 2.11  38 2.11  28 2.11  36 2.11  34 2.12

IMPORTANT INFORMATION: All symmetrisations will be switched off!
NOSYMM: (Re-)initialisation of all symmetry stuff for point group C_1.

                                     Primitive cell

  volume of cell :    1519.6535

  direct lattice vectors                    reciprocal lattice vectors
     8.440582262  0.000000000  0.000000000     0.118475239  0.000000000  0.000000000
     0.000000000  8.440582262  0.000000000     0.000000000  0.118475239  0.000000000
     0.000000000  0.000000000 21.330436697     0.000000000  0.000000000  0.046881366

  length of vectors
     8.440582262  8.440582262 21.330436697     0.118475239  0.118475239  0.046881366

  position of ions in fractional coordinates (direct lattice)
     0.500007950  0.423538946  0.797305998
     0.499997293  0.261322271  0.778749189
     0.499999098  0.427712657  0.848792037
     0.499999728  0.257003410  0.731858941
     0.606865213  0.487367829  0.780560956
     0.393128610  0.487371186  0.780560438
     0.250000000  0.000000000  0.351610242
     0.500000000  0.250000000  0.351610242
     0.250000000  0.250000000  0.450536747
     0.500000000  0.000000000  0.450536747
     0.249947257  0.000140630  0.550034656
     0.499999962  0.250114921  0.549873617
     0.247651587  0.249886623  0.648653702
     0.500000010  0.997796352  0.648513959
     0.250000000  0.500000000  0.351610242
     0.500000000  0.750000000  0.351610242
     0.250000000  0.750000000  0.450536747
     0.500000000  0.500000000  0.450536747
     0.249818180  0.500105696  0.550057229
     0.499999954  0.750344835  0.549815484
     0.249550492  0.750422058  0.648546005
     0.500000003  0.503365070  0.647999862
     0.750000000  0.000000000  0.351610242
     0.000000000  0.250000000  0.351610242
     0.750000000  0.250000000  0.450536747
     0.000000000  0.000000000  0.450536747
     0.750052717  0.000140607  0.550034637
     0.000000043  0.250149466  0.549909637
     0.752348417  0.249886561  0.648653600
     0.999999966  0.999884218  0.648582637
     0.750000000  0.500000000  0.351610242
     0.000000000  0.750000000  0.351610242
     0.750000000  0.750000000  0.450536747
     0.000000000  0.500000000  0.450536747
     0.750181805  0.500105729  0.550057181
     0.000000004  0.750147592  0.549979124
     0.750449460  0.750422116  0.648545999
     0.000000041  0.500549134  0.648586276
     0.250000000  0.000000000  0.450536747
     0.500000000  0.250000000  0.450536747
     0.250000000  0.250000000  0.351610242
     0.500000000  0.000000000  0.351610242
     0.250216116  0.000284277  0.649751112
     0.499999995  0.250475063  0.651274809
     0.250424837  0.250246866  0.549841910
     0.499999947  0.000573106  0.549787672
     0.250000000  0.500000000  0.450536747
     0.500000000  0.750000000  0.450536747
     0.250000000  0.750000000  0.351610242
     0.500000000  0.500000000  0.351610242
     0.250194782  0.500035773  0.650078286
     0.499999992  0.750297672  0.649771502
     0.250039447  0.750036329  0.549674223
     0.500000007  0.499790244  0.549780438
     0.750000000  0.000000000  0.450536747
     0.000000000  0.250000000  0.450536747
     0.750000000  0.250000000  0.351610242
     0.000000000  0.000000000  0.351610242
     0.749783882  0.000284228  0.649751073
     0.999999991  0.250260896  0.649879826
     0.749575172  0.250246927  0.549841906
     0.000000042  0.000172639  0.549660549
     0.750000000  0.500000000  0.450536747
     0.000000000  0.750000000  0.450536747
     0.750000000  0.750000000  0.351610242
     0.000000000  0.500000000  0.351610242
     0.749805250  0.500035835  0.650078209
     0.999999956  0.750189015  0.650098344
     0.749960496  0.750036271  0.549674251
     0.999999976  0.500087726  0.549717201

  ion indices of the primitive-cell ions
   primitive index   ion index
                 1           1
                 2           2
                 3           3
                 4           4
                 5           5
                 6           6
                 7           7
                 8           8
                 9           9
                10          10
[...]
   4.22029121  8.42198219 13.83308595
   2.11014557  4.22029113  7.50000000
   4.22029113  6.33043670  7.50000000
   2.11014557  6.33043670  9.61014557
   4.22029113  4.22029113  9.61014557
   2.10861090  4.22118327 11.73296089
   4.22029075  6.33334731 11.72780437
   2.10635146  6.33399911 13.83376950
   4.22029116  4.24869428 13.82212004
   6.33043670  0.00000000  7.50000000
   0.00000000  2.11014557  7.50000000
   6.33043670  2.11014557  9.61014557
   0.00000000  0.00000000  9.61014557
   6.33088166  0.00118680 11.73247901
   0.00000036  2.11140715 11.72981269
   6.35025871  2.10918808 13.83606455
   8.44058198  8.43960499 13.83455088
   6.33043670  4.22029113  7.50000000
   0.00000000  6.33043670  7.50000000
   6.33043670  6.33043670  9.61014557
   0.00000000  4.22029113  9.61014557
   6.33197124  4.22118354 11.73295988
   0.00000004  6.33168245 11.73129488
   6.33423040  6.33399960 13.83376937
   0.00000035  4.22492615 13.83462849
   2.11014557  0.00000000  9.61014557
   4.22029113  2.11014557  9.61014557
   2.11014557  2.11014557  7.50000000
   4.22029113  0.00000000  7.50000000
   2.11196971  0.00239947 13.85947497
   4.22029109  2.11415537 13.89197609
   2.11373144  2.11222926 11.72836805
   4.22029069  0.00483734 11.72721113
   2.11014557  4.22029113  9.61014557
   4.22029113  6.33043670  9.61014557
   2.11014557  6.33043670  7.50000000
   4.22029113  4.22029113  7.50000000
   2.11178964  4.22059308 13.86645372
   4.22029107  6.33294922 13.85990988
   2.11047852  6.33074333 11.72479122
   4.22029119  4.21852066 11.72705683
   6.33043670  0.00000000  9.61014557
   0.00000000  2.11014557  9.61014557
   6.33043670  2.11014557  7.50000000
   0.00000000  0.00000000  7.50000000
   6.32861253  0.00239905 13.85947414
   8.44058219  2.11234768 13.86222049
   6.32685090  2.11222978 11.72836797
   0.00000036  0.00145718 11.72449954
   6.33043670  4.22029113  9.61014557
   0.00000000  6.33043670  9.61014557
   6.33043670  6.33043670  7.50000000
   0.00000000  4.22029113  7.50000000
   6.32879289  4.22059360 13.86645208
   8.44058189  6.33203209 13.86688157
   6.33010326  6.33074284 11.72479182
   8.44058206  4.22103159 11.72570797

--------------------------------------- Iteration      FINAL  ---------------------------------------

--------------------OUTCAR has been truncated-------------------------

[...]

--------------------OUTCAR has been truncated-------------------------

  DFT-D2 method for vdW energy calculation

  Parameters of vdW forcefield:
         C6(Jnm^6/mol)     R0(A)
   C        1.750          1.452
   O        0.700          1.342
   H        0.140          1.001
   Mg       0.630          1.243
   O        0.700          1.342

  vdW correction parametrized for the method        ¼Øo

  IVDW =   1
  VDW_RADIUS =    50.000 A
  VDW_S6 =     1.050
  VDW_SR =     1.000
  VDW_D =    20.000
  LVDW_EWALD = F

  Number of pair interactions contributing to vdW energy:  862555
  Edisp (eV):   -5.31982

 VOLUME and BASIS-vectors are now :
  energy-cutoff  :      600.00
  volume of cell :     1519.65
      direct lattice vectors                 reciprocal lattice vectors
     8.440582262  0.000000000  0.000000000     0.118475239  0.000000000  0.000000000
     0.000000000  8.440582262  0.000000000     0.000000000  0.118475239  0.000000000
     0.000000000  0.000000000 21.330436697     0.000000000  0.000000000  0.046881366

  length of vectors
     8.440582262  8.440582262 21.330436697     0.118475239  0.118475239  0.046881366

 FORCES acting on ions:
    Electron-Ion                     Ewald-Force                    Non-Local-Force
   -.656E-02 -.118E+03 -.963E+03   0.471E-02 0.123E+03 0.965E+03   -.279E-02 -.447E+01 -.182E+01
   0.899E-02 0.166E+03 -.151E+04   -.126E-01 -.202E+03 0.153E+04   0.369E-02 0.319E+02 -.229E+02
   0.295E-02 -.128E+02 -.240E+03   -.311E-02 0.130E+02 0.246E+03   0.490E-03 -.173E+00 -.566E+01
   -.118E-02 0.165E+02 -.213E+03   0.129E-02 -.170E+02 0.206E+03   -.123E-03 0.538E+00 0.718E+01
   -.485E+02 -.391E+02 -.234E+03   0.528E+02 0.417E+02 0.233E+03   -.445E+01 -.264E+01 0.166E+01
   0.485E+02 -.391E+02 -.234E+03   -.528E+02 0.417E+02 0.233E+03   0.444E+01 -.263E+01 0.166E+01
   0.291E+00 0.169E+00 0.209E+04   -.293E+00 -.171E+00 -.208E+04   0.176E-02 0.120E-02 -.640E+01
   0.653E-05 0.143E+00 0.209E+04   -.259E-05 -.143E+00 -.208E+04   -.367E-05 0.196E-03 -.639E+01
   0.148E+01 0.600E+00 0.732E+03   -.146E+01 -.590E+00 -.732E+03   -.115E-01 -.624E-02 0.451E+00
   -.529E-04 0.913E+00 0.732E+03   0.264E-04 -.881E+00 -.732E+03   0.188E-04 -.214E-01 0.438E+00
   0.523E+01 0.386E+01 -.617E+03   -.527E+01 -.388E+01 0.617E+03   0.238E-01 0.106E-01 -.459E+00
   -.878E-04 0.363E+01 -.607E+03   0.691E-04 -.367E+01 0.606E+03   0.127E-04 0.280E-01 0.584E+00
   0.380E+02 0.131E+02 -.194E+04   -.390E+02 -.132E+02 0.193E+04   0.897E+00 0.928E-01 0.563E+01
   -.121E-03 0.276E+02 -.195E+04   0.902E-04 -.286E+02 0.194E+04   0.282E-04 0.955E+00 0.564E+01
   0.306E+00 -.170E+00 0.209E+04   -.309E+00 0.173E+00 -.208E+04   0.236E-02 -.158E-02 -.640E+01
   -.132E-03 -.139E+00 0.209E+04   -.194E-05 0.141E+00 -.208E+04   0.926E-04 -.873E-03 -.638E+01
   0.124E+01 -.543E+00 0.731E+03   -.127E+01 0.543E+00 -.731E+03   0.255E-01 0.156E-03 0.369E+00
   0.382E-04 -.928E+00 0.733E+03   -.606E-04 0.915E+00 -.734E+03   0.152E-04 0.966E-02 0.452E+00
   0.665E+01 -.406E+01 -.612E+03   -.671E+01 0.406E+01 0.613E+03   0.591E-01 0.153E-02 -.329E+00
   0.676E-05 -.338E+01 -.611E+03   -.137E-04 0.344E+01 0.611E+03   0.273E-04 -.459E-01 -.283E+00
   0.185E+02 -.115E+02 -.198E+04   -.187E+02 0.116E+02 0.197E+04   0.146E+00 -.911E-01 0.560E+01
   -.984E-05 -.318E+02 -.190E+04   -.103E-03 0.330E+02 0.189E+04   0.811E-04 -.106E+01 0.573E+01
   -.291E+00 0.170E+00 0.209E+04   0.293E+00 -.171E+00 -.208E+04   -.176E-02 0.111E-02 -.640E+01
   -.583E-05 0.127E+00 0.209E+04   0.248E-05 -.127E+00 -.208E+04   0.904E-05 -.255E-03 -.638E+01
   -.148E+01 0.600E+00 0.732E+03   0.146E+01 -.590E+00 -.732E+03   0.115E-01 -.624E-02 0.451E+00
   0.601E-04 0.687E+00 0.730E+03   -.327E-04 -.712E+00 -.731E+03   -.185E-04 0.167E-01 0.360E+00
   -.523E+01 0.386E+01 -.617E+03   0.527E+01 -.388E+01 0.617E+03   -.238E-01 0.105E-01 -.459E+00
   0.711E-04 0.214E+01 -.615E+03   -.533E-04 -.215E+01 0.616E+03   -.126E-04 0.441E-02 -.308E+00
   -.380E+02 0.131E+02 -.194E+04   0.390E+02 -.132E+02 0.193E+04   -.897E+00 0.928E-01 0.563E+01
   -.501E-04 0.108E+02 -.199E+04   0.389E-04 -.109E+02 0.198E+04   0.165E-04 0.115E+00 0.558E+01
   -.306E+00 -.170E+00 0.209E+04   0.309E+00 0.173E+00 -.208E+04   -.235E-02 -.148E-02 -.640E+01
   0.132E-03 -.125E+00 0.209E+04   0.177E-05 0.125E+00 -.208E+04   -.961E-04 -.166E-03 -.640E+01
   -.124E+01 -.543E+00 0.731E+03   0.127E+01 0.543E+00 -.731E+03   -.255E-01 0.159E-03 0.369E+00
   -.367E-04 -.686E+00 0.731E+03   0.607E-04 0.723E+00 -.731E+03   -.128E-04 -.239E-01 0.393E+00
   -.665E+01 -.406E+01 -.612E+03   0.671E+01 0.406E+01 0.613E+03   -.591E-01 0.154E-02 -.329E+00
   0.521E-04 -.199E+01 -.623E+03   -.401E-04 0.201E+01 0.624E+03   -.186E-04 -.931E-02 -.248E+00
   -.185E+02 -.115E+02 -.198E+04   0.187E+02 0.116E+02 0.197E+04   -.146E+00 -.912E-01 0.560E+01
   0.116E-03 -.112E+02 -.198E+04   -.567E-04 0.113E+02 0.197E+04   -.450E-04 -.101E+00 0.559E+01
   0.854E+00 0.519E+00 0.548E+03   -.868E+00 -.540E+00 -.548E+03   0.186E-01 0.261E-01 -.113E+00
   -.129E-04 0.475E+00 0.550E+03   0.585E-05 -.486E+00 -.550E+03   0.663E-05 0.130E-01 -.620E-01
   0.235E+00 0.101E+00 0.157E+04   -.235E+00 -.101E+00 -.157E+04   0.586E-03 0.290E-03 0.313E+01
   -.211E-04 0.137E+00 0.157E+04   0.120E-05 -.136E+00 -.157E+04   0.199E-04 -.452E-03 0.313E+01
   0.172E+02 0.150E+02 -.149E+04   -.172E+02 -.150E+02 0.150E+04   -.152E-01 -.202E-01 -.450E+01
   -.300E-03 0.183E+02 -.141E+04   0.265E-03 -.184E+02 0.141E+04   0.495E-04 0.717E-01 -.165E+01
   0.467E+01 0.212E+01 -.454E+03   -.471E+01 -.214E+01 0.454E+03   0.417E-01 0.104E-01 0.234E+00
   -.102E-03 0.289E+01 -.455E+03   0.931E-04 -.292E+01 0.455E+03   0.168E-04 0.313E-01 0.243E+00
   0.939E+00 -.520E+00 0.549E+03   -.947E+00 0.528E+00 -.548E+03   0.116E-01 -.116E-01 -.116E+00
   -.420E-04 -.403E+00 0.549E+03   0.829E-05 0.390E+00 -.549E+03   0.464E-04 0.152E-01 -.345E-01
   0.217E+00 -.100E+00 0.157E+04   -.223E+00 0.100E+00 -.157E+04   0.734E-02 0.104E-03 0.312E+01
   -.103E-04 -.139E+00 0.157E+04   -.592E-05 0.138E+00 -.157E+04   0.177E-04 0.131E-02 0.313E+01
   0.278E+02 -.162E+02 -.148E+04   -.278E+02 0.162E+02 0.148E+04   -.947E-02 0.383E-01 -.447E+01
   0.623E-04 -.148E+02 -.149E+04   -.109E-03 0.148E+02 0.149E+04   0.516E-04 -.702E-01 -.447E+01
   0.401E+01 -.197E+01 -.459E+03   -.402E+01 0.199E+01 0.459E+03   0.863E-02 -.152E-01 0.178E+00
   0.816E-04 -.309E+01 -.448E+03   -.868E-04 0.312E+01 0.448E+03   0.885E-05 -.358E-01 0.413E+00
   -.854E+00 0.519E+00 0.548E+03   0.868E+00 -.540E+00 -.548E+03   -.186E-01 0.260E-01 -.113E+00
   0.139E-04 0.373E+00 0.548E+03   -.713E-05 -.385E+00 -.548E+03   -.516E-05 0.142E-01 -.533E-01
   -.235E+00 0.101E+00 0.157E+04   0.235E+00 -.101E+00 -.157E+04   -.584E-03 0.290E-03 0.313E+01
   0.201E-04 0.120E+00 0.157E+04   -.140E-05 -.125E+00 -.157E+04   -.220E-04 0.608E-02 0.312E+01
   -.172E+02 0.150E+02 -.149E+04   0.172E+02 -.150E+02 0.150E+04   0.152E-01 -.202E-01 -.450E+01
   0.949E-04 0.545E+01 -.150E+04   -.729E-04 -.545E+01 0.150E+04   -.353E-04 -.938E-02 -.442E+01
   -.467E+01 0.212E+01 -.454E+03   0.471E+01 -.214E+01 0.454E+03   -.417E-01 0.104E-01 0.234E+00
   0.137E-03 0.244E+01 -.462E+03   -.129E-03 -.245E+01 0.462E+03   -.139E-04 0.131E-01 0.165E+00
   -.939E+00 -.520E+00 0.549E+03   0.947E+00 0.528E+00 -.548E+03   -.116E-01 -.116E-01 -.116E+00
   0.490E-04 -.331E+00 0.547E+03   -.696E-05 0.328E+00 -.547E+03   -.478E-04 0.306E-02 -.119E+00
   -.217E+00 -.100E+00 0.157E+04   0.223E+00 0.100E+00 -.157E+04   -.734E-02 0.102E-03 0.312E+01
   0.132E-04 -.121E+00 0.157E+04   0.586E-05 0.126E+00 -.157E+04   -.218E-04 -.558E-02 0.312E+01
   -.278E+02 -.162E+02 -.148E+04   0.278E+02 0.162E+02 0.148E+04   0.937E-02 0.383E-01 -.447E+01
   -.102E-03 -.524E+01 -.151E+04   0.808E-04 0.525E+01 0.151E+04   0.939E-05 -.136E-01 -.441E+01
   -.401E+01 -.197E+01 -.459E+03   0.402E+01 0.199E+01 0.459E+03   -.863E-02 -.152E-01 0.178E+00
   -.633E-04 -.258E+01 -.460E+03   0.721E-04 0.260E+01 0.459E+03   -.742E-05 -.222E-01 0.188E+00
   0.241E-03 -.261E+02 0.358E+02   -.199E-12 -.426E-13 -.711E-11   -.451E-03 0.225E+02 -.314E+02

 POSITION                                       TOTAL-FORCE (eV/Angst)
      4.22036      3.57492     17.00689        -0.004770      0.173138      0.093307
      4.22027      2.20571     16.61106         0.000522      0.177406     -0.495772
      4.22028      3.61014     18.10510         0.000351     -0.011308     -0.279176
      4.22029      2.16926     15.61087        -0.000017      0.007396      0.491116
      5.12230      4.11367     16.64971        -0.263699     -0.183220      0.074767
      3.31823      4.11370     16.64970         0.267689     -0.184856      0.076094
      2.11015      0.00000      7.50000        -0.000797     -0.000591      0.467114
      4.22029      2.11015      7.50000        -0.000001     -0.000115      0.465078
      2.11015      2.11015      9.61015         0.003075      0.002462      0.035342
      4.22029      0.00000      9.61015        -0.000006      0.008480      0.031766
      2.10970      0.00119     11.73248        -0.003928     -0.003236      0.003979
      4.22029      2.11112     11.72904        -0.000005     -0.002830     -0.007215
      2.09032      2.10919     13.83607        -0.006987     -0.004254     -0.103064
      4.22029      8.42198     13.83309        -0.000002     -0.006896     -0.098177
      2.11015      4.22029      7.50000        -0.000927      0.000577      0.467711
      4.22029      6.33044      7.50000        -0.000031      0.000217      0.463137
      2.11015      6.33044      9.61015        -0.010783      0.000370      0.039627
      4.22029      4.22029      9.61015        -0.000006     -0.001770      0.032208
      2.10861      4.22118     11.73296        -0.002891      0.003255     -0.002903
      4.22029      6.33335     11.72780         0.000020      0.001977     -0.001182
      2.10635      6.33400     13.83377        -0.003327      0.004825     -0.120635
      4.22029      4.24869     13.82212        -0.000024      0.003673     -0.087735
      6.33044      0.00000      7.50000         0.000802     -0.000561      0.467086
      0.00000      2.11015      7.50000         0.000007     -0.000011      0.463900
      6.33044      2.11015      9.61015        -0.003079      0.002462      0.035349
      0.00000      0.00000      9.61015         0.000006     -0.006575      0.040918
      6.33088      0.00119     11.73248         0.003926     -0.003251      0.003987
      0.00000      2.11141     11.72981         0.000003     -0.004874      0.002472
      6.35026      2.10919     13.83606         0.006999     -0.004288     -0.103059
      8.44058      8.43960     13.83455         0.000003     -0.004871     -0.109895
      6.33044      4.22029      7.50000         0.000929      0.000557      0.467704
      0.00000      6.33044      7.50000         0.000026      0.000063      0.470022
      6.33044      6.33044      9.61015         0.010774      0.000367      0.039700
      0.00000      4.22029      9.61015         0.000010      0.010454      0.037634
      6.33197      4.22118     11.73296         0.002883      0.003275     -0.002905
      0.00000      6.33168     11.73129        -0.000007      0.002318     -0.003658
      6.33423      6.33400     13.83377         0.003276      0.004780     -0.120683
      0.00000      4.22493     13.83463         0.000009      0.000193     -0.122175
      2.11015      0.00000      9.61015         0.006694      0.008772      0.045079
      4.22029      2.11015      9.61015        -0.000000      0.004264      0.044634
      2.11015      2.11015      7.50000         0.000158      0.000056     -0.434905
      4.22029      0.00000      7.50000         0.000003     -0.000202     -0.434493
      2.11197      0.00240     13.85947        -0.003199      0.000223     -0.016072
      4.22029      2.11416     13.89198         0.000021      0.007893      0.014174
      2.11373      2.11223     11.72837         0.001988     -0.002718      0.015100
      4.22029      0.00484     11.72721         0.000010      0.005373      0.012952
      2.11015      4.22029      9.61015         0.004933     -0.004483      0.046109
      4.22029      6.33044      9.61015         0.000019      0.003695      0.050201
      2.11015      6.33044      7.50000         0.002436      0.000015     -0.436523
      4.22029      4.22029      7.50000         0.000004      0.000441     -0.434491
      2.11179      4.22059     13.86645         0.008128      0.001928     -0.009861
      4.22029      6.33295     13.85991         0.000010     -0.005742     -0.017234
      2.11048      6.33074     11.72479         0.003023     -0.002120      0.007693
      4.22029      4.21852     11.72706         0.000004     -0.001296      0.016989
      6.33044      0.00000      9.61015        -0.006698      0.008760      0.045075
      0.00000      2.11015      9.61015         0.000000      0.004425      0.053792
      6.33044      2.11015      7.50000        -0.000161      0.000055     -0.434921
      0.00000      0.00000      7.50000        -0.000007      0.001968     -0.436917
      6.32861      0.00240     13.85947         0.003223      0.000233     -0.016054
      8.44058      2.11235     13.86222        -0.000018     -0.003100     -0.014332
      6.32685      2.11223     11.72837        -0.001993     -0.002725      0.015097
      0.00000      0.00146     11.72450        -0.000008      0.004604      0.007916
      6.33044      4.22029      9.61015        -0.004938     -0.004468      0.046107
      0.00000      6.33044      9.61015        -0.000013      0.000442      0.036997
      6.33044      6.33044      7.50000        -0.002435      0.000009     -0.436581
      0.00000      4.22029      7.50000        -0.000006     -0.001882     -0.436802
      6.32879      4.22059     13.86645        -0.008158      0.001932     -0.009782
      8.44058      6.33203     13.86688        -0.000016     -0.004853     -0.015572
      6.33010      6.33074     11.72479        -0.003024     -0.002117      0.007683
      8.44058      4.22103     11.72571         0.000000     -0.004120      0.007153
    total drift:                                0.000035      0.003067      0.007983

  FREE ENERGIE OF THE ION-ELECTRON SYSTEM (eV)
  free  energy   TOTEN  =      -474.41283952 eV

  energy  without entropy=     -474.41283952  energy(sigma->0) =     -474.41283952