 vasp.6.3.0 20Jan22 (build Apr  1 2022 16:44:48) complex
 executed on        HPECrayEX_GCC date 2023.01.23  21:57:53

 INCAR:
   SYSTEM = MgO-rocksalt
   ISMEAR = 0
   SIGMA = 0.05
   EDIFF = 1E-8
   ALGO = ALL
   ISTART = 0
   IBRION = 5
   POTIM = 0.01
   NFREE = 2
   ISYM = 0
   DIPOL = 0.5 0.5 0.5
   IDIPOL = 3
   LDIPOL = .TRUE.
   GGA = PE
   IVDW = 1
   VDW_C6 = 1.75 0.70 0.63 0.70
   VDW_R0 = 1.452 1.342 1.243 1.342
   ENCUT = 600
   PREC = Accurate
   LASPH = .TRUE.
   LREAL = .FALSE.
   ISPIN = 1
   NELM = 200
   NELMIN = 8
   NCORE = 8
   KPAR = 1
   LWAVE = .FALSE.
   LCHARG = .FALSE.

 POTCAR:    PAW_PBE C 08Apr2002
 POTCAR:    PAW_PBE O 08Apr2002
 POTCAR:    PAW_PBE Mg_pv 13Apr2007
 POTCAR:    PAW_PBE O 08Apr2002
 POTCAR:    PAW_PBE C 08Apr2002
   VRHFIN =C: s2p2

   TITEL  = PAW_PBE C 08Apr2002
   POMASS =   12.011; ZVAL   =    4.000    mass and valenz
   ENMAX  =  400.000; ENMIN  =  300.000 eV

[...]

   TITEL  = PAW_PBE Mg_pv 13Apr2007
   POMASS =   24.305; ZVAL   =    8.000    mass and valenz
   ENMAX  =  403.929; ENMIN  =  302.947 eV

   TITEL  = PAW_PBE O 08Apr2002
   POMASS =   16.000; ZVAL   =    6.000    mass and valenz
   ENMAX  =  400.000; ENMIN  =  300.000 eV

  PAW_PBE C 08Apr2002                   :
  PAW_PBE O 08Apr2002                   :
  PAW_PBE Mg_pv 13Apr2007               :
  PAW_PBE O 08Apr2002                   :

 POSCAR:  C  O Mg  O
  positions in direct lattice
 exchange correlation table for  LEXCH =        8
   RHO(1)=    0.500       N(1)  =     2000
   RHO(2)=  100.500       N(2)  =     4000

 ion  position               nearest neighbor table
   1  0.625  0.625  0.771-   3 1.18   2 1.18
   2  0.527  0.527  0.773-   1 1.18
   3  0.723  0.723  0.773-   1 1.18
   4  0.250  0.000  0.351-  36 2.12  38 2.12  39 2.12  46 2.12  55 2.12
   5  0.500  0.250  0.351-  37 2.12  38 2.12  39 2.12  47 2.12  54 2.12
   6  0.250  0.250  0.450-  38 2.12  37 2.12  36 2.12  44 2.12  53 2.12  42 2.12
   7  0.500  0.000  0.450-  39 2.12  37 2.12  36 2.12  45 2.12  52 2.12  43 2.12
   8  0.250  1.000  0.550-  43 2.12  50 2.12  42 2.12  59 2.12  36 2.13  40 2.15
   9  0.500  0.250  0.550-  58 2.12  42 2.12  51 2.12  43 2.12  37 2.13  41 2.14
  10  0.250  0.250  0.648-  42 2.11  40 2.12  57 2.12  48 2.12  41 2.12
  11  0.500  0.000  0.648-  43 2.10  41 2.11  40 2.12  56 2.12  49 2.12
  12  0.250  0.500  0.351-  44 2.12  38 2.12  46 2.12  47 2.12  63 2.12
  13  0.500  0.750  0.351-  45 2.12  39 2.12  46 2.12  47 2.12  62 2.12
  14  0.250  0.750  0.450-  46 2.12  44 2.12  45 2.12  36 2.12  61 2.12  50 2.12
  15  0.500  0.500  0.450-  47 2.12  44 2.12  45 2.12  37 2.12  60 2.12  51 2.13
  16  0.250  0.500  0.550-  50 2.12  42 2.12  51 2.12  67 2.12  44 2.13  48 2.14
  17  0.500  0.750  0.550-  51 2.11  66 2.11  50 2.12  43 2.12  45 2.13  49 2.16
  18  0.250  0.750  0.648-  50 2.10  65 2.11  40 2.12  48 2.12  49 2.12
  19  0.498  0.498  0.649-  41 2.11  48 2.11  51 2.11  64 2.13  49 2.13
  20  0.750  0.000  0.351-  52 2.12  39 2.12  54 2.12  55 2.12  62 2.12
  21  0.000  0.250  0.351-  53 2.12  38 2.12  54 2.12  55 2.12  63 2.12
  22  0.750  0.250  0.450-  54 2.12  52 2.12  53 2.12  37 2.12  60 2.12  58 2.12
  23  0.000  0.000  0.450-  55 2.12  52 2.12  53 2.12  36 2.12  61 2.12  59 2.12
  24  0.750  0.000  0.550-  43 2.12  59 2.12  66 2.12  58 2.12  52 2.13  56 2.14
  25  1.000  0.250  0.550-  67 2.12  58 2.12  42 2.12  59 2.12  53 2.13  57 2.15
  26  0.750  0.250  0.648-  58 2.10  56 2.11  57 2.12  41 2.12  64 2.12
  27  0.000  0.000  0.648-  59 2.11  57 2.12  40 2.12  65 2.12  56 2.12
  28  0.750  0.500  0.351-  60 2.12  54 2.12  47 2.12  62 2.12  63 2.12
  29  0.000  0.750  0.351-  61 2.12  55 2.12  46 2.12  62 2.12  63 2.12
  30  0.750  0.750  0.450-  62 2.12  52 2.12  60 2.12  61 2.12  45 2.12  66 2.13
  31  0.000  0.500  0.450-  63 2.12  53 2.12  60 2.12  61 2.12  44 2.12  67 2.12
  32  0.750  0.500  0.550-  51 2.11  66 2.11  58 2.12  67 2.12  60 2.13  64 2.16
  33  0.000  0.750  0.550-  67 2.12  59 2.12  66 2.12  50 2.12  61 2.13  65 2.14
  34  0.752  0.752  0.649-  56 2.11  65 2.11  66 2.11  49 2.13  64 2.13
  35  0.000  0.500  0.648-  67 2.10  48 2.11  57 2.12  65 2.12  64 2.12
  36  0.250  0.000  0.450-   4 2.12   6 2.12   7 2.12  14 2.12  23 2.12   8 2.13
  37  0.500  0.250  0.450-   5 2.12   6 2.12   7 2.12  15 2.12  22 2.12   9 2.13
  38  0.250  0.250  0.351-   6 2.12   5 2.12   4 2.12  12 2.12  21 2.12
  39  0.500  0.000  0.351-   7 2.12   5 2.12   4 2.12  13 2.12  20 2.12
  40  0.250  1.000  0.651-  10 2.12  27 2.12  18 2.12  11 2.12   8 2.15
  41  0.500  0.249  0.650-  19 2.11  11 2.11  10 2.12  26 2.12   9 2.14
  42  0.250  0.250  0.550-  10 2.11   8 2.12  25 2.12  16 2.12   9 2.12   6 2.12
  43  0.500  1.000  0.550-  11 2.10  17 2.12   8 2.12  24 2.12   9 2.12   7 2.12
  44  0.250  0.500  0.450-  12 2.12   6 2.12  14 2.12  15 2.12  31 2.12  16 2.13
  45  0.500  0.750  0.450-  13 2.12   7 2.12  14 2.12  15 2.12  30 2.12  17 2.13
  46  0.250  0.750  0.351-  14 2.12  12 2.12  13 2.12   4 2.12  29 2.12
  47  0.500  0.500  0.351-  15 2.12  12 2.12  13 2.12   5 2.12  28 2.12
  48  0.249  0.500  0.650-  19 2.11  35 2.11  10 2.12  18 2.12  16 2.14
  49  0.500  0.750  0.652-  11 2.12  18 2.12  19 2.13  34 2.13  17 2.16
  50  0.250  0.750  0.550-  18 2.10  17 2.12   8 2.12  16 2.12  33 2.12  14 2.12
  51  0.500  0.500  0.550-  19 2.11  17 2.11  32 2.11  16 2.12   9 2.12  15 2.13
  52  0.750  0.000  0.450-  20 2.12   7 2.12  22 2.12  23 2.12  30 2.12  24 2.13
  53  0.000  0.250  0.450-  21 2.12   6 2.12  22 2.12  23 2.12  31 2.12  25 2.13
  54  0.750  0.250  0.351-  22 2.12  20 2.12  21 2.12   5 2.12  28 2.12
  55  0.000  0.000  0.351-  23 2.12  20 2.12  21 2.12   4 2.12  29 2.12
  56  0.750  0.001  0.650-  34 2.11  26 2.11  27 2.12  11 2.12  24 2.14
  57  1.000  0.250  0.651-  10 2.12  27 2.12  26 2.12  35 2.12  25 2.15
  58  0.750  0.250  0.550-  26 2.10  32 2.12  25 2.12   9 2.12  24 2.12  22 2.12
  59  0.000  0.000  0.550-  27 2.11  25 2.12   8 2.12  24 2.12  33 2.12  23 2.12
  60  0.750  0.500  0.450-  28 2.12  22 2.12  15 2.12  30 2.12  31 2.12  32 2.13
  61  0.000  0.750  0.450-  29 2.12  23 2.12  14 2.12  30 2.12  31 2.12  33 2.13
  62  0.750  0.750  0.351-  30 2.12  20 2.12  28 2.12  29 2.12  13 2.12
  63  0.000  0.500  0.351-  31 2.12  21 2.12  28 2.12  29 2.12  12 2.12
  64  0.750  0.500  0.652-  35 2.12  26 2.12  19 2.13  34 2.13  32 2.16
  65  0.001  0.750  0.650-  34 2.11  18 2.11  27 2.12  35 2.12  33 2.14
  66  0.750  0.750  0.550-  34 2.11  17 2.11  32 2.11  24 2.12  33 2.12  30 2.13
  67  1.000  0.500  0.550-  35 2.10  32 2.12  25 2.12  33 2.12  16 2.12  31 2.12

IMPORTANT INFORMATION: All symmetrisations will be switched off!
NOSYMM: (Re-)initialisation of all symmetry stuff for point group C_1.

                                     Primitive cell

  volume of cell :    1530.6606

  direct lattice vectors                    reciprocal lattice vectors
     8.467142631  0.000000000  0.000000000     0.118103597  0.000000000  0.000000000
     0.000000000  8.467142631  0.000000000     0.000000000  0.118103597  0.000000000
     0.000000000  0.000000000 21.350356973     0.000000000  0.000000000  0.046837624

  length of vectors
     8.467142631  8.467142631 21.350356973     0.118103597  0.118103597  0.046837624

  position of ions in fractional coordinates (direct lattice)
     0.625000781  0.625000788  0.771474314
     0.526655283  0.526655309  0.772804739
     0.723344168  0.723344152  0.772805082
     0.250000000  0.000000000  0.351282183
     0.500000000  0.250000000  0.351282183
     0.250000000  0.250000000  0.450427394
     0.500000000  0.000000000  0.450427394
     0.250078438  0.999921519  0.550068769
     0.499955822  0.249907048  0.550110864
     0.249726458  0.249726458  0.648370669
     0.500077443  0.000346500  0.648346683
     0.250000000  0.500000000  0.351282183
     0.500000000  0.750000000  0.351282183
     0.250000000  0.750000000  0.450427394
     0.500000000  0.500000000  0.450427394
     0.249907049  0.499955821  0.550110863
     0.500313412  0.749686464  0.550371124
     0.249653379  0.749922486  0.648346707
     0.497959788  0.497959785  0.648975368
     0.750000000  0.000000000  0.351282183
     0.000000000  0.250000000  0.351282183
     0.750000000  0.250000000  0.450427394
     0.000000000  0.000000000  0.450427394
     0.750044075  0.000092961  0.550110806
     0.999921518  0.250078438  0.550068769
     0.749922487  0.249653373  0.648346705
     0.000273420  0.000273420  0.648370578
     0.750000000  0.500000000  0.351282183
     0.000000000  0.750000000  0.351282183
     0.750000000  0.750000000  0.450427394
     0.000000000  0.500000000  0.450427394
     0.749686464  0.500313410  0.550371124
     0.000092962  0.750044074  0.550110807
     0.752040199  0.752040199  0.648975102
     0.000346497  0.500077440  0.648346684
     0.250000000  0.000000000  0.450427394
     0.500000000  0.250000000  0.450427394
     0.250000000  0.250000000  0.351282183
     0.500000000  0.000000000  0.351282183
     0.250067555  0.999932327  0.650665711
     0.499768035  0.249268357  0.650289571
     0.249915206  0.249915206  0.549693468
     0.500035371  0.999605497  0.549784276
     0.250000000  0.500000000  0.450427394
     0.500000000  0.750000000  0.450427394
     0.250000000  0.750000000  0.351282183
     0.500000000  0.500000000  0.351282183
     0.249268357  0.499768033  0.650289571
     0.500171478  0.749828496  0.651640008
     0.250394469  0.749964535  0.549784275
     0.500052177  0.500052177  0.550031482
     0.750000000  0.000000000  0.450427394
     0.000000000  0.250000000  0.450427394
     0.750000000  0.250000000  0.351282183
     0.000000000  0.000000000  0.351282183
     0.750231901  0.000731537  0.650289464
     0.999932326  0.250067550  0.650665711
     0.749964536  0.250394465  0.549784274
     0.000084749  0.000084748  0.549693420
     0.750000000  0.500000000  0.450427394
     0.000000000  0.750000000  0.450427394
     0.750000000  0.750000000  0.351282183
     0.000000000  0.500000000  0.351282183
     0.749828500  0.500171477  0.651640006
     0.000731541  0.750231902  0.650289465
     0.749947744  0.749947745  0.550031413
     0.999605497  0.500035370  0.549784276

  ion indices of the primitive-cell ions
   primitive index   ion index
                 1           1
                 2           2
                 3           3
                 4           4
                 5           5
                 6           6
                 7           7
                 8           8
                 9           9
                10          10
                11          11
                12          12
                13          13
                14          14
                15          15
                16          16
                17          17
                18          18
                19          19
                20          20
                21          21
                22          22
                23          23
                24          24
                25          25
                26          26
                27          27
                28          28
                29          29
[...]
      2.11447      2.11447     13.84295         0.000706      0.000705      0.001373
      4.23423      0.00293     13.84243         0.001113     -0.000397     -0.000574
      2.11679      4.23357      7.50000         0.000192      0.000189      0.391597
      4.23357      6.35036      7.50000         0.000503     -0.000500      0.396353
      2.11679      6.35036      9.61679         0.014327      0.002347      0.023241
      4.23357      4.23357      9.61679         0.006597      0.006597      0.028129
      2.11600      4.23320     11.74506        -0.000330     -0.000343      0.001472
      4.23623      6.34770     11.75062        -0.000564      0.000421      0.001565
      2.11385      6.34970     13.84243        -0.000000     -0.000627     -0.000915
      4.21630      4.21630     13.85586         0.000648      0.000649     -0.004466
      6.35036      0.00000      7.50000        -0.000188     -0.000196      0.391610
      0.00000      2.11679      7.50000        -0.000222      0.000220      0.394446
      6.35036      2.11679      9.61679         0.002347      0.014327      0.023241
      0.00000      0.00000      9.61679         0.003920      0.003920      0.017718
      6.35073      0.00079     11.74506         0.000523      0.000365      0.001880
      8.46648      2.11745     11.74416         0.000416     -0.000583      0.001259
      6.34970      2.11385     13.84243        -0.000627      0.000000     -0.000914
      0.00232      0.00232     13.84294        -0.001160     -0.001161      0.001406
      6.35036      4.23357      7.50000        -0.000500      0.000503      0.396353
      0.00000      6.35036      7.50000        -0.000196     -0.000188      0.391610
      6.35036      6.35036      9.61679        -0.006583     -0.006583      0.028171
      0.00000      4.23357      9.61679        -0.014346     -0.002332      0.023183
      6.34770      4.23622     11.75062         0.000421     -0.000564      0.001565
      0.00079      6.35073     11.74506         0.000366      0.000523      0.001880
      6.36763      6.36763     13.85585        -0.000772     -0.000772      0.000431
      0.00293      4.23423     13.84243        -0.000397      0.001114     -0.000574
      2.11679      0.00000      9.61679         0.002158     -0.002115      0.046637
      4.23357      2.11679      9.61679         0.000020      0.000031      0.059884
      2.11679      2.11679      7.50000         0.000507      0.000507     -0.475638
      4.23357      0.00000      7.50000         0.000576      0.001413     -0.476026
      2.11736      8.46657     13.89195        -0.000027      0.000359      0.004649
      4.23161      2.11059     13.88391        -0.000361      0.000180      0.000177
      2.11607      2.11607     11.73615        -0.000947     -0.000947     -0.000382
      4.23387      8.46380     11.73809        -0.001132     -0.000094     -0.001502
      2.11679      4.23357      9.61679         0.000031      0.000020      0.059883
      4.23357      6.35036      9.61679         0.008659     -0.008666      0.060622
      2.11679      6.35036      7.50000        -0.001408     -0.000581     -0.476027
      4.23357      4.23357      7.50000        -0.001885     -0.001885     -0.476643
      2.11059      4.23161     13.88391         0.000180     -0.000361      0.000177
      4.23502      6.34890     13.91275        -0.003727      0.000244     -0.004557
      2.12013      6.35006     11.73809         0.000121      0.001008     -0.001758
      4.23401      4.23401     11.74337         0.000154      0.000154     -0.002781
      6.35036      0.00000      9.61679        -0.000064     -0.000032      0.059832
      0.00000      2.11679      9.61679        -0.002115      0.002158      0.046637
      6.35036      2.11679      7.50000        -0.000581     -0.001408     -0.476027
      0.00000      0.00000      7.50000        -0.000503     -0.000503     -0.475646
      6.35232      0.00619     13.88391         0.000093      0.001174     -0.001011
      8.46657      2.11736     13.89195         0.000359     -0.000027      0.004648
      6.35006      2.12013     11.73809         0.001008      0.000122     -0.001758
      0.00072      0.00072     11.73615         0.001091      0.001091     -0.000584
      6.35036      4.23357      9.61679        -0.008666      0.008659      0.060622
      0.00000      6.35036      9.61679        -0.000032     -0.000064      0.059832
      6.35036      6.35036      7.50000         0.001880      0.001880     -0.476655
      0.00000      4.23357      7.50000         0.001413      0.000576     -0.476026
      6.34890      4.23502     13.91275         0.000244     -0.003727     -0.004557
      0.00619      6.35232     13.88391         0.001174      0.000093     -0.001012
      6.34991      6.34991     11.74337        -0.000324     -0.000324     -0.002985
      8.46380      4.23387     11.73809        -0.000094     -0.001132     -0.001501
    total drift:                                0.000001      0.000001      0.016366

  FREE ENERGIE OF THE ION-ELECTRON SYSTEM (eV)
  free  energy   TOTEN  =      -398.85638614 eV

  energy  without entropy=     -398.85638614  energy(sigma->0) =     -398.85638614

 d Force =-0.1340691E-03[-0.846E-03, 0.578E-03]  d Energy =-0.1389121E-03 0.484E-05
 d Force =-0.3104076E+02[-0.311E+02,-0.310E+02]  d Ewald  =-0.3104078E+02 0.165E-04

 Finite differences progress:
  Degree of freedom:   9/  9
  Displacement:        2/  2
  Total:              18/ 18

 SECOND DERIVATIVES (NOT SYMMETRIZED)
               1X          1Y          1Z          2X          2Y          2Z          3X          3Y          3Z
  1X   -93.371185  -82.435841   -0.000693   46.357907   40.745917   -1.687204   46.366418   40.756151    1.687885
  1Y   -82.435575  -93.366614   -0.000661   40.746168   46.354094   -1.686818   40.756253   46.362713    1.687524
  1Z     0.000412   -0.000880  -10.458092   -0.448418   -0.451291    5.417844    0.454702    0.451859    5.416307
  2X    46.357312   40.742634   -0.456733  -48.135927  -44.991984    1.313176    1.746538    4.477775   -0.651057
  2Y    40.739226   46.351556   -0.452136  -44.985285  -48.137757    1.313363    4.477788    1.748418   -0.650509
  2Z    -1.691496   -1.691129    5.422580    1.314478    1.317809   -3.565161    0.650500    0.649254   -2.702541
  3X    46.365656   40.754155    0.458501    1.750499    4.481912    0.656276  -48.150198  -45.001896   -1.314906
  3Y    40.754392   46.360759    0.452618    4.480104    1.749048    0.650543  -44.992713  -48.145303   -1.314847
  3Z     1.685540    1.690615    5.426526   -0.649394   -0.649736   -2.701750   -1.326628   -1.322011   -3.560907

 Eigenvectors and eigenvalues of the dynamical matrix

   1 f  =   69.995386 THz   439.793979 2PiTHz 2334.794752 cm-1   289.477525 meV
             X         Y         Z           dx          dy          dz
      5.291971  5.291971 16.471252    -0.604070   -0.604051   -0.000007
      4.459265  4.459266 16.499657     0.259770    0.259756   -0.010557
      6.124658  6.124658 16.499664     0.259858    0.259844    0.010558
      2.116786  0.000000  7.500000            0           0           0
      4.233571  2.116786  7.500000            0           0           0
      2.116786  2.116786  9.616786            0           0           0
      4.233571  0.000000  9.616786            0           0           0
      2.117450  8.466478 11.744165            0           0           0
      4.233197  2.115999 11.745063            0           0           0
      2.114470  2.114470 13.842945            0           0           0
      4.234227  0.002934 13.842433            0           0           0
      2.116786  4.233571  7.500000            0           0           0
      4.233571  6.350357  7.500000            0           0           0
      2.116786  6.350357  9.616786            0           0           0
      4.233571  4.233571  9.616786            0           0           0
      2.115999  4.233197 11.745063            0           0           0
      4.236225  6.347702 11.750620            0           0           0
      2.113851  6.349701 13.842434            0           0           0
      4.216297  4.216297 13.855856            0           0           0
      6.350357  0.000000  7.500000            0           0           0
      0.000000  2.116786  7.500000            0           0           0
      6.350357  2.116786  9.616786            0           0           0
      0.000000  0.000000  9.616786            0           0           0
      6.350730  0.000787 11.745062            0           0           0
      8.466478  2.117450 11.744165            0           0           0
      6.349701  2.113851 13.842434            0           0           0
      0.002315  0.002315 13.842943            0           0           0
      6.350357  4.233571  7.500000            0           0           0
      0.000000  6.350357  7.500000            0           0           0
      6.350357  6.350357  9.616786            0           0           0
      0.000000  4.233571  9.616786            0           0           0
      6.347702  4.236225 11.750620            0           0           0
      0.000787  6.350730 11.745062            0           0           0
      6.367632  6.367632 13.855850            0           0           0
      0.002934  4.234227 13.842433            0           0           0
      2.116786  0.000000  9.616786            0           0           0
      4.233571  2.116786  9.616786            0           0           0
      2.116786  2.116786  7.500000            0           0           0
      4.233571  0.000000  7.500000            0           0           0
      2.117358  8.466570 13.891945            0           0           0
      4.231607  2.110591 13.883914            0           0           0
      2.116068  2.116068 11.736152            0           0           0
      4.233871  8.463802 11.738091            0           0           0
      2.116786  4.233571  9.616786            0           0           0
      4.233571  6.350357  9.616786            0           0           0
      2.116786  6.350357  7.500000            0           0           0
      4.233571  4.233571  7.500000            0           0           0
      2.110591  4.231607 13.883914            0           0           0
      4.235023  6.348905 13.912747            0           0           0
      2.120126  6.350057 11.738091            0           0           0
      4.234013  4.234013 11.743368            0           0           0
      6.350357  0.000000  9.616786            0           0           0
      0.000000  2.116786  9.616786            0           0           0
      6.350357  2.116786  7.500000            0           0           0
      0.000000  0.000000  7.500000            0           0           0
      6.352321  0.006194 13.883912            0           0           0
      8.466570  2.117358 13.891945            0           0           0
      6.350057  2.120126 11.738091            0           0           0
      0.000718  0.000718 11.736151            0           0           0
      6.350357  4.233571  9.616786            0           0           0
      0.000000  6.350357  9.616786            0           0           0
      6.350357  6.350357  7.500000            0           0           0
      0.000000  4.233571  7.500000            0           0           0
      6.348905  4.235023 13.912747            0           0           0
      0.006194  6.352321 13.883912            0           0           0
      6.349915  6.349915 11.743367            0           0           0
      8.463802  4.233871 11.738091            0           0           0

[...]

   9 f  =    1.156783 THz     7.268279 2PiTHz   38.586112 cm-1     4.784066 meV
             X         Y         Z           dx          dy          dz
      5.291971  5.291971 16.471252    -0.384056    0.371784   -0.000344
      4.459265  4.459266 16.499657    -0.433209    0.418617   -0.008072
      6.124658  6.124658 16.499664    -0.426291    0.411727    0.007632
      2.116786  0.000000  7.500000            0           0           0
      4.233571  2.116786  7.500000            0           0           0
      2.116786  2.116786  9.616786            0           0           0
      4.233571  0.000000  9.616786            0           0           0
      2.117450  8.466478 11.744165            0           0           0
      4.233197  2.115999 11.745063            0           0           0
      2.114470  2.114470 13.842945            0           0           0
      4.234227  0.002934 13.842433            0           0           0
      2.116786  4.233571  7.500000            0           0           0
      4.233571  6.350357  7.500000            0           0           0
      2.116786  6.350357  9.616786            0           0           0
      4.233571  4.233571  9.616786            0           0           0
      2.115999  4.233197 11.745063            0           0           0
      4.236225  6.347702 11.750620            0           0           0
      2.113851  6.349701 13.842434            0           0           0
      4.216297  4.216297 13.855856            0           0           0
      6.350357  0.000000  7.500000            0           0           0
      0.000000  2.116786  7.500000            0           0           0
      6.350357  2.116786  9.616786            0           0           0
      0.000000  0.000000  9.616786            0           0           0
      6.350730  0.000787 11.745062            0           0           0
      8.466478  2.117450 11.744165            0           0           0
      6.349701  2.113851 13.842434            0           0           0
      0.002315  0.002315 13.842943            0           0           0
      6.350357  4.233571  7.500000            0           0           0
      0.000000  6.350357  7.500000            0           0           0
      6.350357  6.350357  9.616786            0           0           0
      0.000000  4.233571  9.616786            0           0           0
      6.347702  4.236225 11.750620            0           0           0
      0.000787  6.350730 11.745062            0           0           0
      6.367632  6.367632 13.855850            0           0           0
      0.002934  4.234227 13.842433            0           0           0
      2.116786  0.000000  9.616786            0           0           0
      4.233571  2.116786  9.616786            0           0           0
      2.116786  2.116786  7.500000            0           0           0
      4.233571  0.000000  7.500000            0           0           0
      2.117358  8.466570 13.891945            0           0           0
      4.231607  2.110591 13.883914            0           0           0
      2.116068  2.116068 11.736152            0           0           0
      4.233871  8.463802 11.738091            0           0           0
      2.116786  4.233571  9.616786            0           0           0
      4.233571  6.350357  9.616786            0           0           0
      2.116786  6.350357  7.500000            0           0           0
      4.233571  4.233571  7.500000            0           0           0
      2.110591  4.231607 13.883914            0           0           0
      4.235023  6.348905 13.912747            0           0           0
      2.120126  6.350057 11.738091            0           0           0
      4.234013  4.234013 11.743368            0           0           0
      6.350357  0.000000  9.616786            0           0           0
      0.000000  2.116786  9.616786            0           0           0
      6.350357  2.116786  7.500000            0           0           0
      0.000000  0.000000  7.500000            0           0           0
      6.352321  0.006194 13.883912            0           0           0
      8.466570  2.117358 13.891945            0           0           0
      6.350057  2.120126 11.738091            0           0           0
      0.000718  0.000718 11.736151            0           0           0
      6.350357  4.233571  9.616786            0           0           0
      0.000000  6.350357  9.616786            0           0           0
      6.350357  6.350357  7.500000            0           0           0
      0.000000  4.233571  7.500000            0           0           0
      6.348905  4.235023 13.912747            0           0           0
      0.006194  6.352321 13.883912            0           0           0
      6.349915  6.349915 11.743367            0           0           0
      8.463802  4.233871 11.738091            0           0           0

 Finite differences POTIM=   1.0000000000000000E-002