 vasp.6.3.0 20Jan22 (build Mar 11 2022 13:48:16) complex

 executed on             LinuxIFC date 2024.02.12  07:04:56

 INCAR:
   SYSTEM = Oxide-Surface
   ISMEAR = 0
   SIGMA = 0.05
   EDIFF = 1E-5
   ALGO = ALL
   ISTART = 0
   IBRION = -1
   NSW = 0
   ISYM = 2
   DIPOL = 0.5 0.5 0.5
   IDIPOL = 3
   LDIPOL = .TRUE.
   GGA = PE
   IVDW = 263
   ENCUT = 600
   PREC = Accurate
   LASPH = .TRUE.
   LREAL = .FALSE.
   ISPIN = 1
   NELM = 200
   NELMIN = 8
   NCORE = 19
   KPAR = 1
   LWAVE = .FALSE.
   LCHARG = .FALSE.

 POTCAR:    PAW_PBE C 08Apr2002
 POTCAR:    PAW_PBE O 08Apr2002
 POTCAR:    PAW_PBE Mg_pv 13Apr2007
 POTCAR:    PAW_PBE O 08Apr2002
 POTCAR:    PAW_PBE C 08Apr2002
   VRHFIN =C: s2p2

   TITEL  = PAW_PBE C 08Apr2002
   POMASS =   12.011; ZVAL   =    4.000    mass and valenz
   ENMAX  =  400.000; ENMIN  =  300.000 eV

[...]

   TITEL  = PAW_PBE Mg_pv 13Apr2007
   POMASS =   24.305; ZVAL   =    8.000    mass and valenz
   ENMAX  =  403.929; ENMIN  =  302.947 eV

   TITEL  = PAW_PBE O 08Apr2002
   POMASS =   16.000; ZVAL   =    6.000    mass and valenz
   ENMAX  =  400.000; ENMIN  =  300.000 eV

  PAW_PBE C 08Apr2002                   :
  PAW_PBE O 08Apr2002                   :
  PAW_PBE Mg_pv 13Apr2007               :
  PAW_PBE O 08Apr2002                   :

 POSCAR:  C  O Mg  O
  positions in direct lattice
 exchange correlation table for  LEXCH =        8
   RHO(1)=    0.500       N(1)  =     2000
   RHO(2)=  100.500       N(2)  =     4000

 ion  position               nearest neighbor table
   1  0.625  0.625  0.771-   3 1.18   2 1.18
   2  0.526  0.526  0.773-   1 1.18
   3  0.724  0.724  0.773-   1 1.18
   4  0.000  0.750  0.352-  36 2.11  38 2.11  39 2.11  46 2.11  55 2.11
   5  0.250  0.000  0.352-  37 2.11  38 2.11  39 2.11  47 2.11  54 2.11
   6  0.000  0.000  0.451-  38 2.11  37 2.11  36 2.11  44 2.11  53 2.11  42 2.12
   7  0.250  0.750  0.451-  39 2.11  37 2.11  36 2.11  45 2.11  52 2.11  43 2.12
   8  0.000  0.750  0.550-  50 2.11  42 2.11  59 2.11  43 2.11  36 2.12  40 2.14
   9  0.250  1.000  0.550-  51 2.11  42 2.11  58 2.11  43 2.11  37 2.12  41 2.15
  10  0.000  0.000  0.649-  48 2.11  41 2.11  40 2.11  57 2.11  42 2.11
  11  0.250  0.750  0.649-  40 2.10  43 2.11  49 2.11  41 2.11  56 2.12
  12  0.000  0.250  0.352-  44 2.11  38 2.11  46 2.11  47 2.11  63 2.11
  13  0.250  0.500  0.352-  45 2.11  39 2.11  46 2.11  47 2.11  62 2.11
  14  0.000  0.500  0.451-  46 2.11  44 2.11  45 2.11  36 2.11  61 2.11  50 2.12
  15  0.250  0.250  0.451-  47 2.11  44 2.11  45 2.11  37 2.11  60 2.11  51 2.12
  16  1.000  0.250  0.550-  51 2.11  42 2.11  67 2.11  50 2.11  44 2.12  48 2.15
  17  0.250  0.500  0.550-  43 2.11  51 2.11  66 2.11  50 2.11  45 2.12  49 2.14
  18  0.000  0.500  0.649-  49 2.10  50 2.11  40 2.11  48 2.11  65 2.12
  19  0.250  0.250  0.649-  41 2.11  48 2.11  64 2.11  49 2.11  51 2.11
  20  0.500  0.750  0.352-  52 2.11  39 2.11  54 2.11  55 2.11  62 2.11
  21  0.750  0.000  0.352-  53 2.11  38 2.11  54 2.11  55 2.11  63 2.11
  22  0.500  0.000  0.451-  54 2.11  52 2.11  53 2.11  37 2.11  60 2.11  58 2.12
  23  0.750  0.750  0.451-  55 2.11  52 2.11  53 2.11  36 2.11  61 2.11  59 2.12
  24  0.500  0.750  0.550-  66 2.11  59 2.11  43 2.11  58 2.11  52 2.13  56 2.16
  25  0.750  0.000  0.550-  58 2.11  42 2.11  59 2.11  67 2.11  53 2.12  57 2.14
  26  0.500  0.000  0.649-  64 2.10  58 2.11  57 2.11  41 2.11  56 2.12
  27  0.752  0.752  0.649-  57 2.10  40 2.10  59 2.11  56 2.12  65 2.12
  28  0.500  0.250  0.352-  60 2.11  54 2.11  47 2.11  62 2.11  63 2.11
  29  0.750  0.500  0.352-  61 2.11  55 2.11  46 2.11  62 2.11  63 2.11
  30  0.500  0.500  0.451-  62 2.11  52 2.11  60 2.11  61 2.11  45 2.11  66 2.12
  31  0.750  0.250  0.451-  63 2.11  53 2.11  60 2.11  61 2.11  44 2.11  67 2.12
  32  0.500  0.250  0.550-  67 2.11  51 2.11  66 2.11  58 2.11  60 2.12  64 2.14
  33  0.750  0.500  0.550-  66 2.11  59 2.11  67 2.11  50 2.11  61 2.13  65 2.16
  34  0.498  0.498  0.649-  64 2.10  49 2.10  66 2.11  56 2.12  65 2.12
  35  0.750  0.250  0.649-  57 2.10  67 2.11  64 2.11  48 2.11  65 2.12
  36  0.000  0.750  0.451-   4 2.11   6 2.11   7 2.11  14 2.11  23 2.11   8 2.12
  37  0.250  0.000  0.451-   5 2.11   6 2.11   7 2.11  15 2.11  22 2.11   9 2.12
  38  0.000  0.000  0.352-   6 2.11   5 2.11   4 2.11  12 2.11  21 2.11
  39  0.250  0.750  0.352-   7 2.11   5 2.11   4 2.11  13 2.11  20 2.11
  40  0.001  0.750  0.651-  27 2.10  11 2.10  18 2.11  10 2.11   8 2.14
  41  0.250  1.000  0.651-  10 2.11  19 2.11  11 2.11  26 2.11   9 2.15
  42  0.000  0.000  0.550-  16 2.11   9 2.11   8 2.11  25 2.11  10 2.11   6 2.12
  43  0.250  0.750  0.550-  24 2.11  11 2.11   9 2.11  17 2.11   8 2.11   7 2.12
  44  0.000  0.250  0.451-  12 2.11   6 2.11  14 2.11  15 2.11  31 2.11  16 2.12
  45  0.250  0.500  0.451-  13 2.11   7 2.11  14 2.11  15 2.11  30 2.11  17 2.12
  46  0.000  0.500  0.352-  14 2.11  12 2.11  13 2.11   4 2.11  29 2.11
  47  0.250  0.250  0.352-  15 2.11  12 2.11  13 2.11   5 2.11  28 2.11
  48  1.000  0.250  0.651-  10 2.11  19 2.11  35 2.11  18 2.11  16 2.15
  49  0.249  0.500  0.651-  34 2.10  18 2.10  11 2.11  19 2.11  17 2.14
  50  1.000  0.500  0.550-  33 2.11  18 2.11  16 2.11   8 2.11  17 2.11  14 2.12
  51  0.250  0.250  0.550-   9 2.11  16 2.11  17 2.11  32 2.11  19 2.11  15 2.12
  52  0.500  0.750  0.451-  20 2.11   7 2.11  22 2.11  23 2.11  30 2.11  24 2.13
  53  0.750  0.000  0.451-  21 2.11   6 2.11  22 2.11  23 2.11  31 2.11  25 2.12
  54  0.500  0.000  0.352-  22 2.11  20 2.11  21 2.11   5 2.11  28 2.11
  55  0.750  0.750  0.352-  23 2.11  20 2.11  21 2.11   4 2.11  29 2.11
  56  0.500  0.750  0.652-  11 2.12  26 2.12  34 2.12  27 2.12  24 2.16
  57  0.750  0.001  0.651-  27 2.10  35 2.10  26 2.11  10 2.11  25 2.14
  58  0.500  1.000  0.550-  24 2.11  26 2.11   9 2.11  25 2.11  32 2.11  22 2.12
  59  0.750  0.750  0.550-  33 2.11  24 2.11   8 2.11  25 2.11  27 2.11  23 2.12
  60  0.500  0.250  0.451-  28 2.11  22 2.11  15 2.11  30 2.11  31 2.11  32 2.12
  61  0.750  0.500  0.451-  29 2.11  23 2.11  14 2.11  30 2.11  31 2.11  33 2.13
  62  0.500  0.500  0.352-  30 2.11  20 2.11  28 2.11  29 2.11  13 2.11
  63  0.750  0.250  0.352-  31 2.11  21 2.11  28 2.11  29 2.11  12 2.11
  64  0.500  0.249  0.651-  34 2.10  26 2.10  35 2.11  19 2.11  32 2.14
  65  0.750  0.500  0.652-  35 2.12  18 2.12  34 2.12  27 2.12  33 2.16
  66  0.500  0.500  0.550-  33 2.11  24 2.11  17 2.11  32 2.11  34 2.11  30 2.12
  67  0.750  0.250  0.550-  33 2.11  35 2.11  16 2.11  32 2.11  25 2.11  31 2.12

  LATTYP: Found a simple tetragonal cell.
 ALAT       =     8.4409846542
 C/A-ratio  =     2.5270438657

  Lattice vectors:

 A1 = (   8.4409846542,   0.0000000000,   0.0000000000)
 A2 = (   0.0000000000,   8.4409846542,   0.0000000000)
 A3 = (   0.0000000000,   0.0000000000,  21.3307384906)

Analysis of symmetry for initial positions (statically):
 Subroutine PRICEL returns:
 Original cell was already a primitive cell.

 Routine SETGRP: Setting up the symmetry group for a
 simple tetragonal supercell.

 Subroutine GETGRP returns: Found  4 space group operations
 (whereof  2 operations were pure point group operations)
 out of a pool of 16 trial point group operations.

The static configuration has the point symmetry C_1h.
 The point group associated with its full space group is C_2v.

Analysis of symmetry for dynamics (positions and initial velocities):
 Subroutine PRICEL returns:
 Original cell was already a primitive cell.

[...]

The dynamic configuration has the point symmetry C_1h.
 The point group associated with its full space group is C_2v.

Analysis of constrained symmetry for selective dynamics:
 Subroutine PRICEL returns:
 Original cell was already a primitive cell.

 Routine SETGRP: Setting up the symmetry group for a
 simple tetragonal supercell.

 Subroutine GETGRP returns: Found  4 space group operations
 (whereof  2 operations were pure point group operations)
 out of a pool of 16 trial point group operations.

The constrained configuration has the point symmetry C_1h.
 The point group associated with its full space group is C_2v.

 Subroutine INISYM returns: Found  4 space group operations
 (whereof  2 operations are pure point group operations),
 and found     1 'primitive' translations

                                     Primitive cell

  volume of cell :    1519.8199

  direct lattice vectors                    reciprocal lattice vectors
     8.440984654  0.000000000  0.000000000     0.118469591  0.000000000  0.000000000
     0.000000000  8.440984654  0.000000000     0.000000000  0.118469591  0.000000000
     0.000000000  0.000000000 21.330738491     0.000000000  0.000000000  0.046880702

  length of vectors
     8.440984654  8.440984654 21.330738491     0.118469591  0.118469591  0.046880702

  position of ions in fractional coordinates (direct lattice)
     0.625002899  0.625002901  0.771290819
     0.526143413  0.526143399  0.772694230
     0.723854540  0.723854548  0.772693667
     0.000000000  0.750000000  0.351605267
     0.250000000  0.000000000  0.351605267
     0.000000000  0.000000000  0.450535089
     0.250000000  0.750000000  0.450535089
     0.000170472  0.750065529  0.550134920
     0.250061573  0.999938530  0.550145492
     0.000200186  0.000200186  0.648841524
     0.249828182  0.749789003  0.648754906
     0.000000000  0.250000000  0.351605267
     0.250000000  0.500000000  0.351605267
     0.000000000  0.500000000  0.450535089
     0.250000000  0.250000000  0.450535089
     0.999938525  0.250061567  0.550145489
     0.249829706  0.499934572  0.550134937
     0.000171958  0.500211139  0.648754903
     0.249799949  0.249799949  0.648841577
     0.500000000  0.750000000  0.351605267
     0.750000000  0.000000000  0.351605267
     0.500000000  0.000000000  0.450535089
     0.750000000  0.750000000  0.450535089
     0.500270350  0.749729670  0.550330173
     0.750065521  0.000170473  0.550134923
     0.500211148  0.000171955  0.648754900
     0.751918702  0.751918715  0.649114650
     0.500000000  0.250000000  0.351605267
     0.750000000  0.500000000  0.351605267
     0.500000000  0.500000000  0.450535089
     0.750000000  0.250000000  0.450535089
     0.499934575  0.249829699  0.550134936
     0.749729660  0.500270350  0.550330171
     0.498081444  0.498081442  0.649114742
     0.749788996  0.249828183  0.648754905
     0.000000000  0.750000000  0.450535089
     0.250000000  0.000000000  0.450535089
     0.000000000  0.000000000  0.351605267
     0.250000000  0.750000000  0.351605267
     0.000660961  0.750176837  0.650529582
     0.250168661  0.999831464  0.651058193
     0.000114890  0.000114892  0.549832723
     0.250404141  0.749981448  0.549877119
     0.000000000  0.250000000  0.450535089
     0.250000000  0.500000000  0.450535089
     0.000000000  0.500000000  0.351605267
     0.250000000  0.250000000  0.351605267
     0.999831464  0.250168659  0.651058194
     0.249339233  0.499823327  0.650529652
     0.999595943  0.500018646  0.549877121
     0.249885200  0.249885199  0.549832736
     0.500000000  0.750000000  0.450535089
     0.750000000  0.000000000  0.450535089
     0.500000000  0.000000000  0.351605267
[...]
   O          20.883          3.286          5.664          2.298          1.938          1.055
   O          22.318          3.320          5.843          2.772          3.399          1.085
   O          22.320          3.320          5.844          2.773          3.404          1.085
   O          22.407          3.322          5.854          2.808          3.536          1.087
   O          22.088          3.315          5.814          2.755          3.339          1.080
   O          20.878          3.286          5.663          2.320          1.993          1.055
   O          20.863          3.285          5.661          2.300          1.942          1.054
   O          20.900          3.286          5.666          2.299          1.939          1.055
   O          20.883          3.286          5.664          2.298          1.938          1.055
   O          22.318          3.320          5.843          2.772          3.399          1.085
   O          22.316          3.320          5.843          2.769          3.389          1.085
   O          21.958          3.312          5.798          2.741          3.289          1.078
   O          22.088          3.315          5.814          2.755          3.339          1.080
   O          20.878          3.286          5.663          2.320          1.993          1.055
   O          20.823          3.284          5.656          2.357          2.090          1.054
   O          20.883          3.286          5.664          2.298          1.938          1.055
   O          20.900          3.286          5.666          2.299          1.939          1.055
   O          22.316          3.320          5.843          2.769          3.389          1.085
   O          22.318          3.320          5.843          2.772          3.399          1.085
   O          22.088          3.315          5.814          2.755          3.339          1.080
   O          21.958          3.312          5.798          2.741          3.289          1.078
   O          20.823          3.284          5.656          2.357          2.090          1.054
   O          20.878          3.286          5.663          2.320          1.993          1.055

  vdW correction parametrized for the method pbe

  IVDW = 263
  VDW_RADIUS =    50.000 A
  VDW_SR =     0.830
  VDW_D =     6.000
  SCSRAD =   120.000 A
  LVDWSCS = T
  LSCSGRAD = T
  LSCALER0 = T
  ITIM =  1
  Edisp (eV):  -17.95590

  FORCE on cell =-STRESS in cart. coord.  units (eV):
  Direction    XX          YY          ZZ          XY          YZ          ZX
  Alpha Z   926.92928   926.92928   926.92928
  Ewald  157974.00566157974.00577************   384.42009    -0.00181    -0.00180
  Hartree168418.11644168418.11645************   173.07154    -0.00055    -0.00054
  E(xc)   -2530.83780 -2530.83780 -2536.78921     1.03662     0.00000     0.00000
  Local  ************************335769.01912  -521.25172     0.00202     0.00200
  n-local -2863.37336 -2863.75250 -2881.36553    -2.88219    -0.00018    -0.00019
  augment  1059.78193  1059.78193  1051.80305    -1.38521    -0.00005    -0.00005
  Kinetic  7614.29407  7615.49443  7686.57091   -32.96260     0.00019     0.00021
  Fock        0.00000     0.00000     0.00000     0.00000     0.00000     0.00000
  vdW       -23.48078   -23.59438   -16.52495     0.02503     0.00000    -0.00000
  Total     -42.60260   -42.60260   -12.12613     0.07155    -0.00000    -0.00000
  in kB     -44.91119   -44.91119   -12.78323     0.07543    -0.00000    -0.00000

 VOLUME and BASIS-vectors are now :
  energy-cutoff  :      600.00
  volume of cell :     1519.82
      direct lattice vectors                 reciprocal lattice vectors
     8.440984654  0.000000000  0.000000000     0.118469591  0.000000000  0.000000000
     0.000000000  8.440984654  0.000000000     0.000000000  0.118469591  0.000000000
     0.000000000  0.000000000 21.330738491     0.000000000  0.000000000  0.046880702

  length of vectors
     8.440984654  8.440984654 21.330738491     0.118469591  0.118469591  0.046880702

 FORCES acting on ions:
    Electron-Ion                     Ewald-Force                    Non-Local-Force
   0.291E-02 0.290E-02 -.103E+04   -.281E-01 -.281E-01 0.103E+04   -.146E-19 0.263E-19 0.364E+00
   0.188E+03 0.188E+03 -.156E+04   -.232E+03 -.232E+03 0.156E+04   0.443E+02 0.443E+02 -.280E+01
   -.188E+03 -.188E+03 -.156E+04   0.232E+03 0.232E+03 0.156E+04   -.443E+02 -.443E+02 -.280E+01
   -.212E+00 -.188E+00 0.209E+04   0.218E+00 0.194E+00 -.209E+04   0.147E-03 0.793E-04 -.704E+01
   0.199E+00 -.187E+00 0.209E+04   -.193E+00 0.193E+00 -.209E+04   -.335E-03 0.335E-03 -.705E+01
   -.918E+00 -.918E+00 0.739E+03   0.945E+00 0.945E+00 -.740E+03   -.153E-01 -.153E-01 0.501E+00
   0.938E+00 -.945E+00 0.741E+03   -.884E+00 0.967E+00 -.741E+03   -.332E-01 -.116E-01 0.521E+00
   -.652E+01 -.387E+01 -.598E+03   0.653E+01 0.388E+01 0.599E+03   0.428E-02 -.302E-02 -.406E+00
   0.376E+01 -.375E+01 -.610E+03   -.376E+01 0.376E+01 0.611E+03   0.449E-02 -.449E-02 -.176E+00
   -.194E+02 -.194E+02 -.197E+04   0.194E+02 0.194E+02 0.196E+04   -.662E-02 -.662E-02 0.602E+01
   0.253E+02 -.210E+02 -.195E+04   -.256E+02 0.210E+02 0.194E+04   0.267E+00 0.661E-04 0.602E+01
   -.187E+00 0.199E+00 0.209E+04   0.193E+00 -.193E+00 -.209E+04   0.335E-03 -.335E-03 -.705E+01
   0.224E+00 0.200E+00 0.209E+04   -.218E+00 -.194E+00 -.209E+04   -.147E-03 -.793E-04 -.704E+01
   -.925E+00 0.958E+00 0.741E+03   0.884E+00 -.967E+00 -.741E+03   0.332E-01 0.116E-01 0.521E+00
   0.931E+00 0.931E+00 0.739E+03   -.945E+00 -.945E+00 -.740E+03   0.153E-01 0.153E-01 0.501E+00
   -.375E+01 0.376E+01 -.610E+03   0.376E+01 -.376E+01 0.611E+03   -.449E-02 0.449E-02 -.176E+00
   0.654E+01 0.388E+01 -.598E+03   -.653E+01 -.388E+01 0.599E+03   -.428E-02 0.302E-02 -.406E+00
   -.253E+02 0.210E+02 -.195E+04   0.256E+02 -.210E+02 0.194E+04   -.267E+00 -.661E-04 0.602E+01
   0.194E+02 0.194E+02 -.197E+04   -.194E+02 -.194E+02 0.196E+04   0.662E-02 0.662E-02 0.602E+01
   0.228E+00 -.216E+00 0.209E+04   -.221E+00 0.221E+00 -.209E+04   -.115E-02 0.115E-02 -.706E+01
   -.188E+00 -.212E+00 0.209E+04   0.194E+00 0.218E+00 -.209E+04   0.793E-04 0.147E-03 -.704E+01
   0.958E+00 -.925E+00 0.741E+03   -.967E+00 0.884E+00 -.741E+03   0.116E-01 0.332E-01 0.521E+00
   -.945E+00 -.945E+00 0.743E+03   0.927E+00 0.927E+00 -.743E+03   0.189E-01 0.189E-01 0.581E+00
   0.670E+01 -.669E+01 -.593E+03   -.669E+01 0.669E+01 0.593E+03   -.115E-01 0.115E-01 0.506E-01
   -.387E+01 -.652E+01 -.598E+03   0.388E+01 0.653E+01 0.599E+03   -.302E-02 0.428E-02 -.406E+00
   0.210E+02 -.253E+02 -.195E+04   -.210E+02 0.256E+02 0.194E+04   -.661E-04 -.267E+00 0.602E+01
   -.348E+02 -.348E+02 -.185E+04   0.353E+02 0.353E+02 0.184E+04   -.451E+00 -.451E+00 0.572E+01
   0.200E+00 0.224E+00 0.209E+04   -.194E+00 -.218E+00 -.209E+04   -.793E-04 -.147E-03 -.704E+01
   -.216E+00 0.228E+00 0.209E+04   0.221E+00 -.221E+00 -.209E+04   0.115E-02 -.115E-02 -.706E+01
   0.958E+00 0.958E+00 0.743E+03   -.927E+00 -.927E+00 -.743E+03   -.189E-01 -.189E-01 0.581E+00
   -.945E+00 0.938E+00 0.741E+03   0.967E+00 -.884E+00 -.741E+03   -.116E-01 -.332E-01 0.521E+00
   0.388E+01 0.654E+01 -.598E+03   -.388E+01 -.653E+01 0.599E+03   0.302E-02 -.428E-02 -.406E+00
   -.669E+01 0.670E+01 -.593E+03   0.669E+01 -.669E+01 0.593E+03   0.115E-01 -.115E-01 0.506E-01
   0.348E+02 0.348E+02 -.185E+04   -.353E+02 -.353E+02 0.184E+04   0.451E+00 0.451E+00 0.572E+01
   -.210E+02 0.253E+02 -.195E+04   0.210E+02 -.256E+02 0.194E+04   0.661E-04 0.267E+00 0.602E+01
   -.722E+00 -.573E+00 0.555E+03   0.744E+00 0.599E+00 -.555E+03   0.853E-02 0.304E-02 -.774E-01
   0.631E+00 -.572E+00 0.554E+03   -.606E+00 0.606E+00 -.554E+03   0.608E-02 -.608E-02 -.115E+00
   -.127E+00 -.127E+00 0.157E+04   0.158E+00 0.158E+00 -.158E+04   -.268E-02 -.268E-02 0.349E+01
   0.182E+00 -.128E+00 0.157E+04   -.149E+00 0.159E+00 -.158E+04   -.411E-02 -.296E-02 0.349E+01
   -.290E+02 -.111E+02 -.147E+04   0.291E+02 0.111E+02 0.148E+04   -.548E-01 0.167E-01 -.511E+01
   0.991E+01 -.985E+01 -.150E+04   -.985E+01 0.985E+01 0.150E+04   -.358E-01 0.358E-01 -.502E+01
   -.369E+01 -.369E+01 -.451E+03   0.371E+01 0.371E+01 0.451E+03   0.137E-01 0.137E-01 0.221E+00
   0.367E+01 -.381E+01 -.446E+03   -.366E+01 0.383E+01 0.445E+03   0.166E-01 0.905E-02 0.286E+00
   -.572E+00 0.631E+00 0.554E+03   0.606E+00 -.606E+00 -.554E+03   -.608E-02 0.608E-02 -.115E+00
   0.781E+00 0.631E+00 0.555E+03   -.744E+00 -.599E+00 -.555E+03   -.853E-02 -.304E-02 -.774E-01
   -.123E+00 0.186E+00 0.157E+04   0.149E+00 -.159E+00 -.158E+04   0.411E-02 0.296E-02 0.349E+01
   0.186E+00 0.186E+00 0.157E+04   -.158E+00 -.158E+00 -.158E+04   0.268E-02 0.268E-02 0.349E+01
   -.985E+01 0.991E+01 -.150E+04   0.985E+01 -.985E+01 0.150E+04   0.358E-01 -.358E-01 -.502E+01
   0.290E+02 0.112E+02 -.147E+04   -.291E+02 -.111E+02 0.148E+04   0.548E-01 -.167E-01 -.511E+01
   -.362E+01 0.387E+01 -.446E+03   0.366E+01 -.383E+01 0.445E+03   -.166E-01 -.905E-02 0.286E+00
   0.375E+01 0.375E+01 -.451E+03   -.371E+01 -.371E+01 0.451E+03   -.137E-01 -.137E-01 0.221E+00
   0.844E+00 -.786E+00 0.556E+03   -.836E+00 0.836E+00 -.556E+03   0.292E-01 -.292E-01 -.148E+00
   -.573E+00 -.722E+00 0.555E+03   0.599E+00 0.744E+00 -.555E+03   0.304E-02 0.853E-02 -.774E-01
   0.186E+00 -.123E+00 0.157E+04   -.159E+00 0.149E+00 -.158E+04   0.296E-02 0.411E-02 0.349E+01
   -.126E+00 -.126E+00 0.157E+04   0.152E+00 0.152E+00 -.158E+04   0.578E-02 0.578E-02 0.349E+01
   0.361E+02 -.361E+02 -.143E+04   -.360E+02 0.360E+02 0.143E+04   -.900E-01 0.900E-01 -.463E+01
   -.111E+02 -.290E+02 -.147E+04   0.111E+02 0.291E+02 0.148E+04   0.167E-01 -.548E-01 -.511E+01
   0.387E+01 -.362E+01 -.446E+03   -.384E+01 0.366E+01 0.445E+03   -.905E-02 -.166E-01 0.286E+00
   -.383E+01 -.383E+01 -.436E+03   0.389E+01 0.389E+01 0.436E+03   -.379E-01 -.379E-01 0.252E+00
   0.631E+00 0.781E+00 0.555E+03   -.599E+00 -.744E+00 -.555E+03   -.304E-02 -.853E-02 -.774E-01
   -.786E+00 0.844E+00 0.556E+03   0.836E+00 -.836E+00 -.556E+03   -.292E-01 0.292E-01 -.148E+00
   0.185E+00 0.185E+00 0.157E+04   -.152E+00 -.152E+00 -.158E+04   -.578E-02 -.578E-02 0.349E+01
   -.128E+00 0.182E+00 0.157E+04   0.159E+00 -.149E+00 -.158E+04   -.296E-02 -.411E-02 0.349E+01
   0.112E+02 0.290E+02 -.147E+04   -.111E+02 -.291E+02 0.148E+04   -.167E-01 0.548E-01 -.511E+01
   -.361E+02 0.361E+02 -.143E+04   0.360E+02 -.360E+02 0.143E+04   0.900E-01 -.900E-01 -.463E+01
   0.389E+01 0.389E+01 -.436E+03   -.389E+01 -.389E+01 0.436E+03   0.379E-01 0.379E-01 0.252E+00
   -.381E+01 0.367E+01 -.446E+03   0.383E+01 -.366E+01 0.445E+03   0.905E-02 0.166E-01 0.286E+00
   0.121E+01 0.121E+01 0.222E+02   0.156E-12 0.117E-12 0.796E-12   -.919E-16 -.243E-16 -.222E+02

 POSITION                                       TOTAL-FORCE (eV/Angst)
      5.27564      5.27564     16.45220         0.000000      0.000000      0.020154
      4.44117      4.44117     16.48214         0.169634      0.169634     -0.011807
      6.11005      6.11005     16.48213        -0.169634     -0.169634     -0.011807
      0.00000      6.33074      7.50000        -0.001082     -0.000468      0.512162
      2.11025      0.00000      7.50000         0.000572     -0.000572      0.515285
      0.00000      0.00000      9.61025         0.006672      0.006672      0.115494
      2.11025      6.33074      9.61025         0.012178      0.004748      0.118597
      0.00144      6.33129     11.73478        -0.000533      0.000837     -0.044847
      2.11077      8.44047     11.73501         0.000863     -0.000863     -0.046899
      0.00169      0.00169     13.84027         0.002545      0.002545     -0.169418
      2.10880      6.32896     13.83842        -0.009681      0.004872     -0.168083
      0.00000      2.11025      7.50000        -0.000572      0.000572      0.515285
      2.11025      4.22049      7.50000         0.001082      0.000468      0.512162
      0.00000      4.22049      9.61025        -0.012178     -0.004748      0.118597
      2.11025      2.11025      9.61025        -0.006672     -0.006672      0.115494
      8.44047      2.11077     11.73501        -0.000863      0.000863     -0.046899
      2.10881      4.21994     11.73478         0.000533     -0.000837     -0.044847
      0.00145      4.22227     13.83842         0.009681     -0.004872     -0.168083
      2.10856      2.10856     13.84027        -0.002545     -0.002545     -0.169418
      4.22049      6.33074      7.50000         0.001142     -0.001142      0.516710
      6.33074      0.00000      7.50000        -0.000468     -0.001082      0.512162
      4.22049      0.00000      9.61025        -0.004748     -0.012178      0.118597
      6.33074      6.33074      9.61025        -0.004073     -0.004073      0.119565
      4.22277      6.32846     11.73895        -0.003544      0.003544     -0.047989
      6.33129      0.00144     11.73478         0.000837     -0.000533     -0.044847
      4.22227      0.00145     13.83842        -0.004872      0.009681     -0.168083
      6.34693      6.34693     13.84609         0.012811      0.012811     -0.144996
      4.22049      2.11025      7.50000         0.000468      0.001082      0.512162
      6.33074      4.22049      7.50000        -0.001142      0.001142      0.516710
      4.22049      4.22049      9.61025         0.004073      0.004073      0.119565
      6.33074      2.11025      9.61025         0.004748      0.012178      0.118597
      4.21994      2.10881     11.73478        -0.000837      0.000533     -0.044847
      6.32846      4.22277     11.73895         0.003544     -0.003544     -0.047989
      4.20430      4.20430     13.84610        -0.012811     -0.012811     -0.144996
      6.32896      2.10880     13.83842         0.004872     -0.009681     -0.168083
      0.00000      6.33074      9.61025         0.001466      0.000584      0.068507
      2.11025      0.00000      9.61025         0.001840     -0.001840      0.057233
      0.00000      0.00000      7.50000        -0.000817     -0.000817     -0.474086
      2.11025      6.33074      7.50000        -0.001101     -0.000963     -0.474173
      0.00558      6.33223     13.87628         0.003963      0.000511     -0.026455
      2.11167      8.43956     13.88755        -0.001952      0.001952     -0.026424
      0.00097      0.00097     11.72834         0.000622      0.000622      0.013888
      2.11366      6.33058     11.72929        -0.000420     -0.000181      0.015383
      0.00000      2.11025      9.61025        -0.001840      0.001840      0.057233
      2.11025      4.22049      9.61025        -0.001466     -0.000584      0.068507
      0.00000      4.22049      7.50000         0.001101      0.000963     -0.474173
      2.11025      2.11025      7.50000         0.000817      0.000817     -0.474086
      8.43956      2.11167     13.88755         0.001952     -0.001952     -0.026424
      2.10467      4.21900     13.87628        -0.003963     -0.000511     -0.026455
      8.43757      4.22065     11.72929         0.000420      0.000181      0.015383
      2.10928      2.10928     11.72834        -0.000622     -0.000622      0.013888
      4.22049      6.33074      9.61025         0.007481     -0.007481      0.066101
      6.33074      0.00000      9.61025         0.000584      0.001466      0.068507
      4.22049      0.00000      7.50000         0.000963      0.001101     -0.474173
      6.33074      6.33074      7.50000         0.001590      0.001590     -0.474211
      4.22320      6.32804     13.90361        -0.007208      0.007208     -0.034456
      6.33223      0.00558     13.87628         0.000511      0.003963     -0.026455
      4.22065      8.43757     11.72929         0.000181      0.000420      0.015383
      6.33049      6.33049     11.73277        -0.002199     -0.002199      0.013751
      4.22049      2.11025      9.61025        -0.000584     -0.001466      0.068507
      6.33074      4.22049      9.61025        -0.007481      0.007481      0.066101
      4.22049      4.22049      7.50000        -0.001590     -0.001590     -0.474211
      6.33074      2.11025      7.50000        -0.000963     -0.001101     -0.474173
      4.21900      2.10467     13.87628        -0.000511     -0.003963     -0.026455
      6.32804      4.22320     13.90361         0.007208     -0.007208     -0.034456
      4.22074      4.22074     11.73277         0.002199      0.002199      0.013751
      6.33058      2.11366     11.72929        -0.000181     -0.000420      0.015383
    total drift:                                1.209442      1.209929     -0.007649

  FREE ENERGIE OF THE ION-ELECTRON SYSTEM (eV)
  free  energy   TOTEN  =      -413.17954180 eV

  energy  without entropy=     -413.17954180  energy(sigma->0) =     -413.17954180