 vasp.6.3.0 20Jan22 (build Apr  1 2022 16:44:48) complex
 executed on        HPECrayEX_GCC date 2022.10.25  00:11:00

 INCAR:
   SYSTEM = MgO-rocksalt
   ISMEAR = 0
   SIGMA = 0.05
   EDIFF = 1E-6
   ALGO = ALL
   ISTART = 0
   IBRION = -1
   NSW = 0
   ISYM = 0
   DIPOL = 0.5 0.5 0.5
   IDIPOL = 3
   LDIPOL = .TRUE.
   LHFCALC = .TRUE.
   GGA = B5
   AEXX = 0.2
   AGGAX = 0.72
   AGGAC = 0.81
   ALDAC = 0.19
   IVDW = 1
   VDW_S6 = 1.05
   VDW_C6 = 1.75 0.14 0.63 0.70
   VDW_R0 = 1.452 1.001 1.243 1.342
   ENCUT = 600
   PREC = Accurate
   LASPH = .TRUE.
   LREAL = .FALSE.
   ISPIN = 1
   NELM = 200
   NELMIN = 8
   NCORE = 8
   KPAR = 1
   LWAVE = .FALSE.
   LCHARG = .FALSE.

 POTCAR:    PAW_PBE C 08Apr2002
 POTCAR:    PAW_PBE H 15Jun2001
 POTCAR:    PAW_PBE Mg_pv 13Apr2007
 POTCAR:    PAW_PBE O 08Apr2002
 POTCAR:    PAW_PBE C 08Apr2002
   VRHFIN =C: s2p2

   TITEL  = PAW_PBE C 08Apr2002
   POMASS =   12.011; ZVAL   =    4.000    mass and valenz
   ENMAX  =  400.000; ENMIN  =  300.000 eV

   TITEL  = PAW_PBE H 15Jun2001
   POMASS =    1.000; ZVAL   =    1.000    mass and valenz
   ENMAX  =  250.000; ENMIN  =  200.000 eV

   TITEL  = PAW_PBE Mg_pv 13Apr2007
   POMASS =   24.305; ZVAL   =    8.000    mass and valenz
   ENMAX  =  403.929; ENMIN  =  302.947 eV

   TITEL  = PAW_PBE O 08Apr2002
   POMASS =   16.000; ZVAL   =    6.000    mass and valenz
   ENMAX  =  400.000; ENMIN  =  300.000 eV

  PAW_PBE C 08Apr2002                   :
  PAW_PBE H 15Jun2001                   :
  PAW_PBE Mg_pv 13Apr2007               :
  PAW_PBE O 08Apr2002                   :

 POSCAR:  C  H Mg  O
  positions in direct lattice
 exchange correlation table for  LEXCH =       12
   RHO(1)=    0.500       N(1)  =     2000
   RHO(2)=  100.500       N(2)  =     4000

 ion  position               nearest neighbor table
   1  0.506  0.497  0.791-   5 1.10   3 1.10   4 1.10   2 1.53
   2  0.674  0.499  0.817-   7 1.10   8 1.10   6 1.10   1 1.53
   3  0.486  0.391  0.762-   1 1.10
   4  0.484  0.603  0.762-   1 1.10
   5  0.417  0.496  0.828-   1 1.10
   6  0.761  0.500  0.779-   2 1.10
   7  0.698  0.394  0.846-   2 1.10
   8  0.695  0.604  0.847-   2 1.10
   9  0.250  0.000  0.351-  41 2.12  43 2.12  44 2.12  51 2.12  60 2.12
  10  0.500  0.250  0.351-  42 2.12  43 2.12  44 2.12  52 2.12  59 2.12
  11  0.250  0.250  0.450-  43 2.12  42 2.12  41 2.12  49 2.12  58 2.12  47 2.12
  12  0.500  0.000  0.450-  44 2.12  42 2.12  41 2.12  50 2.12  57 2.12  48 2.12
  13  0.250  1.000  0.550-  55 2.12  47 2.12  48 2.12  64 2.12  41 2.13  45 2.15
  14  0.500  0.250  0.550-  56 2.12  63 2.12  47 2.12  48 2.12  42 2.13  46 2.15
  15  0.250  0.250  0.648-  47 2.10  62 2.12  53 2.12  45 2.12  46 2.12
  16  0.500  1.000  0.648-  48 2.11  46 2.11  54 2.11  45 2.12  61 2.12
  17  0.250  0.500  0.351-  49 2.12  43 2.12  51 2.12  52 2.12  68 2.12
  18  0.500  0.750  0.351-  50 2.12  44 2.12  51 2.12  52 2.12  67 2.12
  19  0.250  0.750  0.450-  51 2.12  49 2.12  50 2.12  41 2.12  66 2.12  55 2.12
  20  0.500  0.500  0.450-  52 2.12  49 2.12  50 2.12  42 2.12  65 2.12  56 2.13
  21  0.250  0.500  0.550-  56 2.12  47 2.12  55 2.12  72 2.12  49 2.13  53 2.14
  22  0.500  0.750  0.550-  56 2.12  71 2.12  55 2.12  48 2.12  50 2.13  54 2.15
  23  0.250  0.750  0.648-  55 2.10  70 2.12  53 2.12  45 2.12  54 2.12
  24  0.500  0.500  0.649-  53 2.12  46 2.12  54 2.12  69 2.12  56 2.12
  25  0.750  0.000  0.351-  57 2.12  44 2.12  59 2.12  60 2.12  67 2.12
  26  0.000  0.250  0.351-  58 2.12  43 2.12  59 2.12  60 2.12  68 2.12
  27  0.750  0.250  0.450-  59 2.12  57 2.12  58 2.12  42 2.12  65 2.12  63 2.12
  28  0.000  0.000  0.450-  60 2.12  57 2.12  58 2.12  41 2.12  66 2.12  64 2.12
  29  0.750  1.000  0.550-  48 2.12  71 2.12  63 2.12  64 2.12  57 2.13  61 2.15
  30  0.000  0.250  0.550-  72 2.12  47 2.12  63 2.12  64 2.12  58 2.13  62 2.15
  31  0.750  0.250  0.648-  63 2.10  62 2.12  61 2.12  69 2.12  46 2.12
  32  0.000  1.000  0.649-  64 2.11  45 2.12  61 2.12  70 2.12  62 2.12
  33  0.750  0.500  0.351-  65 2.12  59 2.12  52 2.12  67 2.12  68 2.12
  34  0.000  0.750  0.351-  66 2.12  60 2.12  51 2.12  67 2.12  68 2.12
  35  0.750  0.750  0.450-  67 2.12  57 2.12  65 2.12  66 2.12  50 2.12  71 2.12
  36  0.000  0.500  0.450-  68 2.12  58 2.12  65 2.12  66 2.12  49 2.12  72 2.12
  37  0.750  0.500  0.550-  56 2.11  63 2.12  71 2.12  72 2.12  65 2.13  69 2.15
  38  0.000  0.750  0.550-  72 2.12  55 2.12  71 2.12  64 2.12  66 2.13  70 2.15
  39  0.750  0.750  0.648-  71 2.10  70 2.12  61 2.12  69 2.12  54 2.12
  40  0.000  0.500  0.648-  72 2.11  53 2.11  69 2.12  62 2.12  70 2.12
  41  0.250  0.000  0.450-   9 2.12  11 2.12  12 2.12  19 2.12  28 2.12  13 2.13
  42  0.500  0.250  0.450-  10 2.12  11 2.12  12 2.12  20 2.12  27 2.12  14 2.13
  43  0.250  0.250  0.351-  11 2.12  10 2.12   9 2.12  17 2.12  26 2.12
  44  0.500  0.000  0.351-  12 2.12  10 2.12   9 2.12  18 2.12  25 2.12
  45  0.250  1.000  0.651-  32 2.12  15 2.12  23 2.12  16 2.12  13 2.15
  46  0.500  0.249  0.651-  16 2.11  31 2.12  15 2.12  24 2.12  14 2.15
  47  0.250  0.250  0.550-  15 2.10  13 2.12  14 2.12  30 2.12  21 2.12  11 2.12
  48  0.500  1.000  0.550-  16 2.11  29 2.12  13 2.12  14 2.12  22 2.12  12 2.12
  49  0.250  0.500  0.450-  17 2.12  11 2.12  19 2.12  20 2.12  36 2.12  21 2.13
  50  0.500  0.750  0.450-  18 2.12  12 2.12  19 2.12  20 2.12  35 2.12  22 2.13
  51  0.250  0.750  0.351-  19 2.12  17 2.12  18 2.12   9 2.12  34 2.12
  52  0.500  0.500  0.351-  20 2.12  17 2.12  18 2.12  10 2.12  33 2.12
  53  0.250  0.500  0.651-  40 2.11  23 2.12  15 2.12  24 2.12  21 2.14
  54  0.500  0.750  0.651-  16 2.11  39 2.12  23 2.12  24 2.12  22 2.15
  55  0.250  0.750  0.550-  23 2.10  13 2.12  22 2.12  38 2.12  21 2.12  19 2.12
  56  0.500  0.500  0.550-  37 2.11  22 2.12  14 2.12  21 2.12  24 2.12  20 2.13
  57  0.750  0.000  0.450-  25 2.12  12 2.12  27 2.12  28 2.12  35 2.12  29 2.13
  58  0.000  0.250  0.450-  26 2.12  11 2.12  27 2.12  28 2.12  36 2.12  30 2.13
  59  0.750  0.250  0.351-  27 2.12  25 2.12  26 2.12  10 2.12  33 2.12
  60  0.000  0.000  0.351-  28 2.12  25 2.12  26 2.12   9 2.12  34 2.12
  61  0.750  1.000  0.651-  31 2.12  39 2.12  32 2.12  16 2.12  29 2.15
  62  1.000  0.250  0.651-  31 2.12  15 2.12  32 2.12  40 2.12  30 2.15
  63  0.750  0.250  0.550-  31 2.10  29 2.12  14 2.12  30 2.12  37 2.12  27 2.12
  64  0.000  1.000  0.550-  32 2.11  29 2.12  30 2.12  38 2.12  13 2.12  28 2.12
  65  0.750  0.500  0.450-  33 2.12  27 2.12  20 2.12  35 2.12  36 2.12  37 2.13
  66  0.000  0.750  0.450-  34 2.12  28 2.12  19 2.12  35 2.12  36 2.12  38 2.13
  67  0.750  0.750  0.351-  35 2.12  25 2.12  33 2.12  34 2.12  18 2.12
  68  0.000  0.500  0.351-  36 2.12  26 2.12  33 2.12  34 2.12  17 2.12
  69  0.750  0.500  0.651-  40 2.12  39 2.12  31 2.12  24 2.12  37 2.15
  70  1.000  0.750  0.651-  39 2.12  23 2.12  32 2.12  40 2.12  38 2.15
  71  0.750  0.750  0.550-  39 2.10  29 2.12  22 2.12  38 2.12  37 2.12  35 2.12
  72  1.000  0.500  0.550-  40 2.11  38 2.12  30 2.12  37 2.12  21 2.12  36 2.12

IMPORTANT INFORMATION: All symmetrisations will be switched off!
NOSYMM: (Re-)initialisation of all symmetry stuff for point group C_1.

                                     Primitive cell

  volume of cell :    1530.6606

  direct lattice vectors                    reciprocal lattice vectors
     8.467142631  0.000000000  0.000000000     0.118103597  0.000000000  0.000000000
     0.000000000  8.467142631  0.000000000     0.000000000  0.118103597  0.000000000
     0.000000000  0.000000000 21.350356973     0.000000000  0.000000000  0.046837624

  length of vectors
     8.467142631  8.467142631 21.350356973     0.118103597  0.118103597  0.046837624

  position of ions in fractional coordinates (direct lattice)
     0.506221773  0.497130010  0.791109569
     0.674306748  0.499163303  0.817386122
     0.486293717  0.391176626  0.762035266
     0.483516707  0.603074706  0.762343289
     0.416680643  0.495692231  0.828452512
     0.760837403  0.500395049  0.778919666
     0.697534045  0.394451052  0.846465507
     0.694857530  0.604243483  0.846577316
     0.250000000  0.000000000  0.351282183
     0.500000000  0.250000000  0.351282183
     0.250000000  0.250000000  0.450427394
     0.500000000  0.000000000  0.450427394
     0.250049000  0.999887428  0.550151639
     0.500012513  0.250069060  0.550241086
     0.249787297  0.249828199  0.648392770
     0.499996862  0.999810731  0.648426058
     0.250000000  0.500000000  0.351282183
     0.500000000  0.750000000  0.351282183
     0.250000000  0.750000000  0.450427394
     0.500000000  0.500000000  0.450427394
     0.250216504  0.499890100  0.550243113
     0.500011341  0.749693425  0.550245816
     0.249798205  0.749812471  0.648400545
     0.499798726  0.499801381  0.649485401
     0.750000000  0.000000000  0.351282183
     0.000000000  0.250000000  0.351282183
     0.750000000  0.250000000  0.450427394
     0.000000000  0.000000000  0.450427394
     0.749984589  0.999884396  0.550151503
     0.000011226  0.249921298  0.550133235
     0.750210093  0.249708964  0.648404737
     0.000041669  0.999826289  0.648515201
     0.750000000  0.500000000  0.351282183
     0.000000000  0.750000000  0.351282183
     0.750000000  0.750000000  0.450427394
     0.000000000  0.500000000  0.450427394
     0.749818155  0.499891841  0.550266190
     0.000007036  0.749859813  0.550137394
     0.750186713  0.749927601  0.648423583
     0.000241808  0.499823122  0.648373294
     0.250000000  0.000000000  0.450427394
     0.500000000  0.250000000  0.450427394
     0.250000000  0.250000000  0.351282183
     0.500000000  0.000000000  0.351282183
     0.249933235  0.999834510  0.650793397
     0.500005916  0.249355663  0.650868571
     0.250013524  0.249825482  0.549813547
     0.500022240  0.999883916  0.549822989
     0.250000000  0.500000000  0.450427394
     0.500000000  0.750000000  0.450427394
     0.250000000  0.750000000  0.351282183
     0.500000000  0.500000000  0.351282183
     0.249638996  0.499822187  0.650564612
     0.499994737  0.750254119  0.650899720
     0.250013251  0.749962470  0.549816648
     0.500062765  0.499891633  0.550037196
     0.750000000  0.000000000  0.450427394
     0.000000000  0.250000000  0.450427394
     0.750000000  0.250000000  0.351282183
     0.000000000  0.000000000  0.351282183
     0.750092408  0.999833081  0.650791825
     0.999984034  0.249782676  0.650786259
     0.750003455  0.249866832  0.549840873
     0.000003734  0.999891798  0.549844087
     0.750000000  0.500000000  0.450427394
     0.000000000  0.750000000  0.450427394
     0.750000000  0.750000000  0.351282183
     0.000000000  0.500000000  0.351282183
     0.750381654  0.499820036  0.650790948
     0.999982401  0.749877133  0.650794216
     0.749998824  0.749919167  0.549846441
     0.999966446  0.499896093  0.549769574

  ion indices of the primitive-cell ions
   primitive index   ion index
                 1           1
                 2           2
                 3           3
                 4           4
                 5           5
                 6           6
                 7           7
                 8           8
[...]
   6.35035697  0.00000000  7.50000000
   0.00000000  2.11678566  7.50000000
   6.35035697  2.11678566  9.61678566
   0.00000000  0.00000000  9.61678566
   6.35022648  8.46616379 11.74593097
   0.00009505  2.11611927 11.74554095
   6.35213586  2.11432142 13.84367260
   0.00035282  8.46567179 13.84603103
   6.35035697  4.23357132  7.50000000
   0.00000000  6.35035697  7.50000000
   6.35035697  6.35035697  9.61678566
   0.00000000  4.23357132  9.61678566
   6.34881727  4.23265552 11.74837958
   0.00005957  6.34916999 11.74562975
   6.35193790  6.34974396 13.84407497
   0.00204743  4.23207366 13.84300127
   2.11678566  0.00000000  9.61678566
   4.23357132  2.11678566  9.61678566
   2.11678566  2.11678566  7.50000000
   4.23357132  0.00000000  7.50000000
   2.11622035  8.46574141 13.89467133
   4.23362141  2.11132996 13.89627634
   2.11690016  2.11530799 11.73871549
   4.23375962  8.46615973 11.73891709
   2.11678566  4.23357132  9.61678566
   4.23357132  6.35035697  9.61678566
   2.11678566  6.35035697  7.50000000
   4.23357132  4.23357132  7.50000000
   2.11372898  4.23206575 13.88978670
   4.23352675  6.35250864 13.89694137
   2.11689785  6.35003920 11.73878170
   4.23410275  4.23265376 11.74349048
   6.35035697  0.00000000  9.61678566
   0.00000000  2.11678566  9.61678566
   6.35035697  2.11678566  7.50000000
   0.00000000  0.00000000  7.50000000
   6.35113941  8.46572930 13.89463777
   8.46700744  2.11494554 13.89451894
   6.35038623  2.11565811 11.73929892
   0.00003162  8.46622647 11.73936754
   6.35035697  4.23357132  9.61678566
   0.00000000  6.35035697  9.61678566
   6.35035697  6.35035697  7.50000000
   0.00000000  4.23357132  7.50000000
   6.35358850  4.23204753 13.89461905
   8.46699362  6.34931664 13.89468883
   6.35034702  6.34967255 11.73941779
   8.46685852  4.23269152 11.73777666

--------------------------------------- Iteration      FINAL  ---------------------------------------

--------------------OUTCAR has been truncated-------------------------

[...]

--------------------OUTCAR has been truncated-------------------------

  DFT-D2 method for vdW energy calculation

  Parameters of vdW forcefield:
         C6(Jnm^6/mol)     R0(A)
   C        1.750          1.452
   H        0.140          1.001
   Mg       0.630          1.243
   O        0.700          1.342

  vdW correction parametrized for the method ¦ÿ      

  IVDW =   1
  VDW_RADIUS =    50.000 A
  VDW_S6 =     1.050
  VDW_SR =     1.000
  VDW_D =    20.000
  LVDW_EWALD = F

  Number of pair interactions contributing to vdW energy:  906037
  Edisp (eV):   -5.31810

 VOLUME and BASIS-vectors are now :
  energy-cutoff  :      600.00
  volume of cell :     1530.66
      direct lattice vectors                 reciprocal lattice vectors
     8.467142631  0.000000000  0.000000000     0.118103597  0.000000000  0.000000000
     0.000000000  8.467142631  0.000000000     0.000000000  0.118103597  0.000000000
     0.000000000  0.000000000 21.350356973     0.000000000  0.000000000  0.046837624

  length of vectors
     8.467142631  8.467142631 21.350356973     0.118103597  0.118103597  0.046837624

 FORCES acting on ions:
    Electron-Ion                     Ewald-Force                    Non-Local-Force
   0.687E+02 0.886E+00 -.916E+03   -.686E+02 -.920E+00 0.916E+03   -.275E+00 0.312E-01 -.253E+00
   -.688E+02 -.820E+00 -.859E+03   0.692E+02 0.826E+00 0.859E+03   -.156E+00 -.189E-02 0.243E+00
   0.169E+02 0.468E+02 -.232E+03   -.178E+02 -.511E+02 0.229E+03   0.866E+00 0.448E+01 0.297E+01
   0.181E+02 -.466E+02 -.232E+03   -.191E+02 0.509E+02 0.229E+03   0.982E+00 -.448E+01 0.293E+01
   0.470E+02 0.743E+00 -.234E+03   -.507E+02 -.802E+00 0.238E+03   0.379E+01 0.609E-01 -.393E+01
   -.462E+02 -.647E+00 -.209E+03   0.498E+02 0.698E+00 0.205E+03   -.365E+01 -.517E-01 0.412E+01
   -.183E+02 0.461E+02 -.212E+03   0.193E+02 -.504E+02 0.215E+03   -.102E+01 0.438E+01 -.309E+01
   -.171E+02 -.464E+02 -.212E+03   0.180E+02 0.507E+02 0.215E+03   -.903E+00 -.440E+01 -.310E+01
   0.139E+00 0.524E-02 0.207E+04   -.138E+00 -.550E-02 -.206E+04   -.470E-03 0.183E-03 -.638E+01
   0.905E-01 0.227E+00 0.207E+04   -.905E-01 -.225E+00 -.206E+04   -.161E-04 -.121E-02 -.638E+01
   0.557E+00 0.795E+00 0.721E+03   -.549E+00 -.795E+00 -.721E+03   -.550E-02 -.500E-04 0.424E+00
   0.281E+00 0.160E-01 0.720E+03   -.282E+00 -.216E-01 -.721E+03   0.107E-02 0.338E-02 0.416E+00
   0.274E+01 0.738E-01 -.621E+03   -.273E+01 -.736E-01 0.621E+03   -.101E-01 0.285E-03 -.194E+00
   0.163E+01 0.554E+01 -.612E+03   -.163E+01 -.549E+01 0.613E+03   -.913E-03 -.464E-01 -.233E+00
   0.172E+02 0.196E+02 -.195E+04   -.173E+02 -.196E+02 0.194E+04   0.755E-01 0.781E-02 0.545E+01
   0.466E+01 0.392E+00 -.196E+04   -.467E+01 -.385E+00 0.195E+04   0.779E-02 -.489E-02 0.540E+01
   0.145E+00 -.590E-02 0.207E+04   -.143E+00 0.571E-02 -.206E+04   -.114E-02 0.135E-03 -.638E+01
   0.903E-01 -.228E+00 0.207E+04   -.902E-01 0.225E+00 -.206E+04   -.227E-04 0.156E-02 -.638E+01
   0.554E+00 -.813E+00 0.721E+03   -.545E+00 0.804E+00 -.721E+03   -.567E-02 0.549E-02 0.425E+00
   0.360E+00 -.339E-01 0.722E+03   -.355E+00 0.296E-01 -.722E+03   -.370E-02 0.251E-02 0.469E+00
   0.426E+01 -.834E-01 -.612E+03   -.420E+01 0.841E-01 0.613E+03   -.507E-01 -.165E-03 -.356E+00
   0.162E+01 -.555E+01 -.613E+03   -.162E+01 0.550E+01 0.613E+03   -.126E-02 0.470E-01 -.224E+00
   0.170E+02 -.196E+02 -.195E+04   -.171E+02 0.196E+02 0.194E+04   0.711E-01 -.714E-02 0.544E+01
   0.121E+02 -.584E+00 -.188E+04   -.121E+02 0.590E+00 0.188E+04   0.658E-01 -.444E-02 0.533E+01
   -.139E+00 0.542E-02 0.207E+04   0.138E+00 -.570E-02 -.206E+04   0.419E-03 0.196E-03 -.638E+01
   -.904E-01 0.222E+00 0.207E+04   0.904E-01 -.221E+00 -.206E+04   0.193E-04 -.577E-03 -.638E+01
   -.557E+00 0.875E+00 0.721E+03   0.549E+00 -.868E+00 -.722E+03   0.516E-02 -.483E-02 0.434E+00
   -.280E+00 0.123E-01 0.719E+03   0.283E+00 -.171E-01 -.720E+03   -.185E-02 0.289E-02 0.434E+00
   -.274E+01 0.814E-01 -.619E+03   0.273E+01 -.817E-01 0.619E+03   0.993E-02 0.788E-03 -.197E+00
   -.160E+01 0.405E+01 -.619E+03   0.160E+01 -.404E+01 0.619E+03   0.540E-03 -.108E-01 -.184E+00
   -.174E+02 0.267E+02 -.193E+04   0.175E+02 -.267E+02 0.193E+04   -.754E-01 0.458E-01 0.545E+01
   -.457E+01 0.157E+00 -.197E+04   0.458E+01 -.156E+00 0.196E+04   -.883E-02 -.435E-03 0.540E+01
   -.144E+00 -.608E-02 0.207E+04   0.143E+00 0.591E-02 -.206E+04   0.109E-02 0.129E-03 -.638E+01
   -.902E-01 -.222E+00 0.207E+04   0.902E-01 0.221E+00 -.206E+04   0.327E-04 0.899E-03 -.638E+01
   -.554E+00 -.894E+00 0.721E+03   0.546E+00 0.877E+00 -.722E+03   0.551E-02 0.103E-01 0.436E+00
   -.358E+00 -.317E-01 0.721E+03   0.354E+00 0.274E-01 -.722E+03   0.281E-02 0.254E-02 0.395E+00
   -.429E+01 -.897E-01 -.609E+03   0.423E+01 0.911E-01 0.609E+03   0.525E-01 -.886E-03 -.292E+00
   -.159E+01 -.405E+01 -.619E+03   0.159E+01 0.404E+01 0.619E+03   0.849E-03 0.994E-02 -.184E+00
   -.172E+02 -.266E+02 -.194E+04   0.172E+02 0.267E+02 0.193E+04   -.712E-01 -.448E-01 0.545E+01
   -.112E+02 -.172E+00 -.195E+04   0.112E+02 0.173E+00 0.194E+04   -.721E-01 -.290E-03 0.543E+01
   0.419E+00 0.746E-02 0.539E+03   -.416E+00 -.183E-02 -.539E+03   -.422E-02 -.665E-02 -.914E-01
   0.232E+00 0.682E+00 0.540E+03   -.234E+00 -.685E+00 -.540E+03   0.211E-02 0.449E-02 -.105E+00
   0.106E+00 0.164E+00 0.155E+04   -.105E+00 -.163E+00 -.156E+04   -.146E-02 -.170E-02 0.313E+01
   0.641E-01 0.463E-02 0.155E+04   -.644E-01 -.454E-02 -.156E+04   0.438E-03 -.126E-03 0.313E+01
   0.724E+01 0.204E+00 -.150E+04   -.720E+01 -.208E+00 0.150E+04   -.350E-01 0.424E-02 -.470E+01
   0.608E+01 0.265E+02 -.146E+04   -.608E+01 -.264E+02 0.147E+04   -.639E-02 -.703E-01 -.468E+01
   0.255E+01 0.329E+01 -.456E+03   -.254E+01 -.328E+01 0.456E+03   -.895E-02 -.143E-01 0.367E+00
   0.950E+00 0.892E-01 -.457E+03   -.951E+00 -.906E-01 0.456E+03   0.969E-03 0.124E-02 0.357E+00
   0.457E+00 -.269E-01 0.540E+03   -.471E+00 0.323E-01 -.540E+03   0.172E-01 -.641E-02 -.108E+00
   0.231E+00 -.703E+00 0.540E+03   -.232E+00 0.719E+00 -.540E+03   0.210E-02 -.187E-01 -.106E+00
   0.106E+00 -.164E+00 0.155E+04   -.105E+00 0.163E+00 -.156E+04   -.152E-02 0.132E-02 0.313E+01
   0.718E-01 -.416E-02 0.155E+04   -.714E-01 0.438E-02 -.156E+04   -.481E-03 -.290E-03 0.313E+01
   0.214E+02 -.207E+00 -.147E+04   -.213E+02 0.203E+00 0.147E+04   -.935E-01 0.371E-02 -.475E+01
   0.603E+01 -.263E+02 -.146E+04   -.603E+01 0.262E+02 0.147E+04   -.734E-02 0.775E-01 -.468E+01
   0.253E+01 -.328E+01 -.456E+03   -.252E+01 0.326E+01 0.456E+03   -.692E-02 0.192E-01 0.368E+00
   0.145E+01 -.637E-01 -.451E+03   -.145E+01 0.592E-01 0.451E+03   -.520E-03 0.460E-02 0.124E+00
   -.415E+00 0.845E-02 0.540E+03   0.410E+00 -.261E-02 -.540E+03   0.618E-02 -.692E-02 -.863E-01
   -.229E+00 0.647E+00 0.540E+03   0.229E+00 -.634E+00 -.540E+03   -.116E-02 -.160E-01 -.843E-01
   -.106E+00 0.172E+00 0.155E+04   0.105E+00 -.170E+00 -.156E+04   0.149E-02 -.262E-02 0.313E+01
   -.642E-01 0.429E-02 0.155E+04   0.645E-01 -.417E-02 -.156E+04   -.378E-03 -.150E-03 0.313E+01
   -.733E+01 0.227E+00 -.149E+04   0.730E+01 -.231E+00 0.150E+04   0.268E-01 0.432E-02 -.470E+01
   -.593E+01 0.115E+02 -.149E+04   0.592E+01 -.115E+02 0.150E+04   0.519E-02 -.126E-01 -.471E+01
   -.258E+01 0.380E+01 -.454E+03   0.257E+01 -.379E+01 0.453E+03   0.566E-02 -.134E-01 0.373E+00
   -.960E+00 0.531E-01 -.461E+03   0.964E+00 -.551E-01 0.460E+03   -.387E-02 0.222E-02 0.325E+00
   -.454E+00 -.279E-01 0.541E+03   0.466E+00 0.332E-01 -.541E+03   -.150E-01 -.625E-02 -.116E+00
   -.228E+00 -.666E+00 0.540E+03   0.229E+00 0.664E+00 -.540E+03   -.156E-02 0.297E-02 -.849E-01
   -.106E+00 -.171E+00 0.155E+04   0.105E+00 0.170E+00 -.156E+04   0.152E-02 0.224E-02 0.313E+01
   -.719E-01 -.392E-02 0.155E+04   0.714E-01 0.410E-02 -.156E+04   0.542E-03 -.227E-03 0.313E+01
   -.221E+02 -.254E+00 -.145E+04   0.220E+02 0.250E+00 0.145E+04   0.711E-01 0.398E-02 -.472E+01
   -.590E+01 -.115E+02 -.149E+04   0.589E+01 0.114E+02 0.150E+04   0.618E-02 0.196E-01 -.471E+01
   -.255E+01 -.378E+01 -.454E+03   0.255E+01 0.376E+01 0.453E+03   0.396E-02 0.184E-01 0.371E+00
   -.143E+01 -.417E-01 -.454E+03   0.144E+01 0.390E-01 0.454E+03   -.283E-02 0.288E-02 0.356E+00
   0.436E+00 -.461E-01 0.193E+02   -.313E-12 0.128E-12 -.614E-11   -.413E+00 0.404E-01 -.169E+02

 POSITION                                       TOTAL-FORCE (eV/Angst)
      4.28625      4.20927     16.89047        -0.256349     -0.002107     -0.135235
      5.70945      4.22649     17.45149         0.241066      0.005575      0.059158
      4.11752      3.31215     16.26972         0.062879      0.243546      0.169105
      4.09400      5.10632     16.27630         0.069906     -0.240476      0.167592
      3.52809      4.19710     17.68776         0.186931      0.003454     -0.172565
      6.44212      4.23692     16.63021        -0.190237     -0.002821      0.206035
      5.90612      3.33987     18.07234        -0.052645      0.197904     -0.138122
      5.88346      5.11622     18.07473        -0.046828     -0.200634     -0.138583
      2.11679      0.00000      7.50000         0.000207     -0.000011      0.510107
      4.23357      2.11679      7.50000         0.000004      0.000518      0.510719
      2.11679      2.11679      9.61679         0.002533      0.000209      0.029835
      4.23357      0.00000      9.61679        -0.000354     -0.001706      0.034462
      2.11720      8.46619     11.74593         0.000246      0.000499     -0.012937
      4.23368      2.11737     11.74784        -0.000075      0.002629     -0.007105
      2.11498      2.11533     13.84342        -0.002545     -0.002563     -0.073163
      4.23354      8.46554     13.84413        -0.001318      0.001452     -0.069790
      2.11679      4.23357      7.50000         0.000415      0.000012      0.510876
      4.23357      6.35036      7.50000         0.000011     -0.000522      0.510773
      2.11679      6.35036      9.61679         0.002571     -0.002977      0.029950
      4.23357      4.23357      9.61679         0.001488     -0.001394      0.038001
      2.11862      4.23264     11.74789         0.001619      0.000454     -0.009826
      4.23367      6.34776     11.74794        -0.000061     -0.001376     -0.007723
      2.11508      6.34877     13.84358        -0.003086      0.004733     -0.073319
      4.23187      4.23189     13.86675        -0.000265      0.000966     -0.079577
      6.35036      0.00000      7.50000        -0.000196     -0.000015      0.509528
      0.00000      2.11679      7.50000         0.000024      0.000313      0.509499
      6.35036      2.11679      9.61679        -0.002360      0.002097      0.030371
      0.00000      0.00000      9.61679         0.000839     -0.001467      0.028448
      6.35023      8.46616     11.74593        -0.001111      0.000518     -0.012310
      0.00010      2.11612     11.74554        -0.000718      0.001298     -0.013572
      6.35214      2.11432     13.84367         0.000556     -0.000510     -0.075029
      0.00035      8.46567     13.84603        -0.000420      0.000677     -0.068396
      6.35036      4.23357      7.50000        -0.000386      0.000017      0.511356
      0.00000      6.35036      7.50000         0.000022     -0.000311      0.509525
      6.35036      6.35036      9.61679        -0.002506     -0.004905      0.030410
      0.00000      4.23357      9.61679        -0.001012     -0.001307      0.034395
      6.34882      4.23266     11.74838        -0.002523      0.000437     -0.006320
      0.00006      6.34917     11.74563        -0.000669     -0.000372     -0.013388
      6.35194      6.34974     13.84407         0.001008      0.002566     -0.075334
      0.00205      4.23207     13.84300        -0.001504      0.001085     -0.076048
      2.11679      0.00000      9.61679        -0.001473     -0.001902      0.050890
      4.23357      2.11679      9.61679         0.000757      0.001486      0.055686
      2.11679      2.11679      7.50000        -0.000478     -0.000535     -0.392712
      4.23357      0.00000      7.50000         0.000154     -0.000002     -0.392552
      2.11622      8.46574     13.89467        -0.002128      0.000457     -0.136781
      4.23362      2.11133     13.89628        -0.001203      0.009748     -0.131073
      2.11690      2.11531     11.73872        -0.001690     -0.000905      0.015550
      4.23376      8.46616     11.73892         0.000130      0.000054      0.012625
      2.11679      4.23357      9.61679         0.005408     -0.001820      0.054965
      4.23357      6.35036      9.61679         0.000761     -0.005544      0.055745
      2.11679      6.35036      7.50000        -0.000501      0.000491     -0.392736
      4.23357      4.23357      7.50000        -0.000158     -0.000062     -0.393583
      2.11373      4.23207     13.88979         0.003086      0.001014     -0.135941
      4.23353      6.35251     13.89694        -0.001303     -0.008175     -0.131472
      2.11690      6.35004     11.73878        -0.001244      0.001791      0.015962
      4.23410      4.23265     11.74349        -0.001659      0.000729      0.008901
      6.35036      0.00000      9.61679         0.002041     -0.001984      0.052810
      0.00000      2.11679      9.61679        -0.000502     -0.005166      0.051577
      6.35036      2.11679      7.50000         0.000497     -0.000838     -0.392617
      0.00000      0.00000      7.50000        -0.000120     -0.000008     -0.392123
      6.35114      8.46573     13.89464         0.000875      0.000462     -0.135091
      8.46701      2.11495     13.89452         0.000157      0.001758     -0.138202
      6.35039      2.11566     11.73930         0.001271     -0.002336      0.014234
      0.00003      8.46623     11.73937        -0.000559      0.000599      0.009847
      6.35036      4.23357      9.61679        -0.004804     -0.001771      0.054335
      0.00000      6.35036      9.61679        -0.000624      0.001444      0.051821
      6.35036      6.35036      7.50000         0.000506      0.000794     -0.392638
      0.00000      4.23357      7.50000         0.000173     -0.000034     -0.392856
      6.35359      4.23205     13.89462        -0.004247      0.001024     -0.128148
      8.46699      6.34932     13.89469         0.000169     -0.000115     -0.138335
      6.35035      6.34967     11.73942         0.000880      0.003304      0.014507
      8.46686      4.23269     11.73778         0.000671      0.000556      0.015600
    total drift:                               -0.000044     -0.003447      0.011990

  FREE ENERGIE OF THE ION-ELECTRON SYSTEM (eV)
  free  energy   TOTEN  =      -484.57830996 eV

  energy  without entropy=     -484.57830996  energy(sigma->0) =     -484.57830996