 vasp.6.3.0 20Jan22 (build Apr  1 2022 16:44:48) complex
 executed on        HPECrayEX_GCC date 2022.10.11  00:42:04

 INCAR:
   SYSTEM = MgO-rocksalt
   ISMEAR = 0
   SIGMA = 0.05
   EDIFF = 1E-6
   ALGO = ALL
   ISTART = 0
   IBRION = -1
   NSW = 0
   ISYM = 0
   DIPOL = 0.5 0.5 0.5
   IDIPOL = 3
   LDIPOL = .TRUE.
   LHFCALC = .TRUE.
   GGA = B5
   AEXX = 0.2
   AGGAX = 0.72
   AGGAC = 0.81
   ALDAC = 0.19
   IVDW = 1
   VDW_S6 = 1.05
   VDW_C6 = 0.63 0.70
   VDW_R0 = 1.243 1.342
   ENCUT = 600
   PREC = Accurate
   LASPH = .TRUE.
   LREAL = .FALSE.
   ISPIN = 1
   NELM = 200
   NELMIN = 8
   NCORE = 8
   KPAR = 1
   LWAVE = .FALSE.
   LCHARG = .FALSE.

 POTCAR:    PAW_PBE Mg_pv 13Apr2007
 POTCAR:    PAW_PBE O 08Apr2002
 POTCAR:    PAW_PBE Mg_pv 13Apr2007
   VRHFIN =Mg: p6s2

   TITEL  = PAW_PBE Mg_pv 13Apr2007
   POMASS =   24.305; ZVAL   =    8.000    mass and valenz
   ENMAX  =  403.929; ENMIN  =  302.947 eV

   TITEL  = PAW_PBE O 08Apr2002
   POMASS =   16.000; ZVAL   =    6.000    mass and valenz
   ENMAX  =  400.000; ENMIN  =  300.000 eV

  PAW_PBE Mg_pv 13Apr2007               :
  PAW_PBE O 08Apr2002                   :

 POSCAR: Mg  O
  positions in direct lattice
 exchange correlation table for  LEXCH =       12
   RHO(1)=    0.500       N(1)  =     2000
   RHO(2)=  100.500       N(2)  =     4000

 ion  position               nearest neighbor table
   1  0.250  0.000  0.353-  35 2.09  36 2.09  43 2.09  52 2.09  33 2.09
   2  0.500  0.250  0.353-  35 2.09  36 2.09  44 2.09  51 2.09  34 2.09
   3  0.250  0.250  0.451-  33 2.09  34 2.09  41 2.09  50 2.09  35 2.09  39 2.09
   4  0.500  0.000  0.451-  33 2.09  34 2.09  42 2.09  49 2.09  36 2.09  40 2.09
   5  0.250  0.000  0.550-  40 2.09  56 2.09  39 2.09  47 2.09  33 2.10  37 2.12
   6  0.500  0.250  0.550-  48 2.09  39 2.09  55 2.09  40 2.09  34 2.10  38 2.12
   7  0.250  0.250  0.647-  39 2.08  37 2.09  38 2.09  54 2.09  45 2.09
   8  0.500  0.000  0.647-  40 2.08  46 2.09  38 2.09  37 2.09  53 2.09
   9  0.250  0.500  0.353-  35 2.09  43 2.09  44 2.09  60 2.09  41 2.09
  10  0.500  0.750  0.353-  36 2.09  43 2.09  44 2.09  59 2.09  42 2.09
  11  0.250  0.750  0.451-  33 2.09  41 2.09  42 2.09  58 2.09  43 2.09  47 2.09
  12  0.500  0.500  0.451-  34 2.09  41 2.09  42 2.09  57 2.09  44 2.09  48 2.10
  13  0.250  0.500  0.550-  48 2.09  39 2.09  47 2.09  64 2.09  41 2.10  45 2.12
  14  0.500  0.750  0.550-  48 2.09  63 2.09  47 2.09  40 2.09  42 2.10  46 2.12
  15  0.250  0.750  0.647-  47 2.08  37 2.09  46 2.09  62 2.09  45 2.09
  16  0.500  0.500  0.648-  38 2.09  46 2.09  61 2.09  45 2.09  48 2.09
  17  0.750  0.000  0.353-  36 2.09  51 2.09  52 2.09  59 2.09  49 2.09
  18  0.000  0.250  0.353-  35 2.09  51 2.09  52 2.09  60 2.09  50 2.09
  19  0.750  0.250  0.451-  34 2.09  49 2.09  50 2.09  57 2.09  51 2.09  55 2.09
  20  0.000  0.000  0.451-  33 2.09  49 2.09  50 2.09  58 2.09  52 2.09  56 2.10
  21  0.750  0.000  0.550-  40 2.09  56 2.09  55 2.09  63 2.09  49 2.10  53 2.12
  22  1.000  0.250  0.550-  55 2.09  39 2.09  56 2.09  64 2.09  50 2.10  54 2.12
  23  0.750  0.250  0.647-  55 2.08  53 2.09  38 2.09  54 2.09  61 2.09
  24  1.000  1.000  0.647-  56 2.08  62 2.09  54 2.09  53 2.09  37 2.09
  25  0.750  0.500  0.353-  44 2.09  51 2.09  59 2.09  60 2.09  57 2.09
  26  0.000  0.750  0.353-  43 2.09  52 2.09  59 2.09  60 2.09  58 2.09
  27  0.750  0.750  0.451-  42 2.09  49 2.09  57 2.09  58 2.09  59 2.09  63 2.09
  28  0.000  0.500  0.451-  41 2.09  50 2.09  57 2.09  58 2.09  60 2.09  64 2.10
  29  0.750  0.500  0.550-  48 2.09  55 2.09  63 2.09  64 2.09  57 2.10  61 2.12
  30  1.000  0.750  0.550-  63 2.09  47 2.09  56 2.09  64 2.09  58 2.10  62 2.12
  31  0.750  0.750  0.647-  63 2.08  53 2.09  46 2.09  62 2.09  61 2.09
  32  1.000  0.500  0.647-  64 2.08  45 2.08  61 2.08  62 2.09  54 2.09
  33  0.250  0.000  0.451-   3 2.09   4 2.09  11 2.09  20 2.09   1 2.09   5 2.10
  34  0.500  0.250  0.451-   3 2.09   4 2.09  12 2.09  19 2.09   2 2.09   6 2.10
  35  0.250  0.250  0.353-   1 2.09   2 2.09   9 2.09  18 2.09   3 2.09
  36  0.500  0.000  0.353-   1 2.09   2 2.09  10 2.09  17 2.09   4 2.09
  37  0.250  0.000  0.650-   7 2.09  15 2.09  24 2.09   8 2.09   5 2.12
  38  0.500  0.250  0.649-   8 2.09   7 2.09  23 2.09  16 2.09   6 2.12
  39  0.250  0.250  0.549-   7 2.08  22 2.09  13 2.09   5 2.09   6 2.09   3 2.09
  40  0.500  0.000  0.549-   8 2.08  21 2.09   5 2.09   6 2.09  14 2.09   4 2.09
  41  0.250  0.500  0.451-   3 2.09  11 2.09  12 2.09  28 2.09   9 2.09  13 2.10
  42  0.500  0.750  0.451-   4 2.09  11 2.09  12 2.09  27 2.09  10 2.09  14 2.10
  43  0.250  0.750  0.353-   1 2.09   9 2.09  10 2.09  26 2.09  11 2.09
  44  0.500  0.500  0.353-   2 2.09   9 2.09  10 2.09  25 2.09  12 2.09
  45  0.250  0.500  0.650-  32 2.08   7 2.09  15 2.09  16 2.09  13 2.12
  46  0.500  0.750  0.649-   8 2.09  15 2.09  31 2.09  16 2.09  14 2.12
  47  0.250  0.750  0.549-  15 2.08  30 2.09  13 2.09   5 2.09  14 2.09  11 2.09
  48  0.500  0.500  0.550-   6 2.09  14 2.09  13 2.09  29 2.09  16 2.09  12 2.10
  49  0.750  0.000  0.451-   4 2.09  19 2.09  20 2.09  27 2.09  17 2.09  21 2.10
  50  0.000  0.250  0.451-   3 2.09  19 2.09  20 2.09  28 2.09  18 2.09  22 2.10
  51  0.750  0.250  0.353-   2 2.09  17 2.09  18 2.09  25 2.09  19 2.09
  52  0.000  0.000  0.353-   1 2.09  17 2.09  18 2.09  26 2.09  20 2.09
  53  0.750  0.000  0.650-  23 2.09  31 2.09  24 2.09   8 2.09  21 2.12
  54  1.000  0.250  0.650-  24 2.09  23 2.09   7 2.09  32 2.09  22 2.12
  55  0.750  0.250  0.549-  23 2.08  22 2.09  29 2.09  21 2.09   6 2.09  19 2.09
  56  1.000  0.000  0.549-  24 2.08  22 2.09  30 2.09  21 2.09   5 2.09  20 2.10
  57  0.750  0.500  0.451-  12 2.09  19 2.09  27 2.09  28 2.09  25 2.09  29 2.10
  58  0.000  0.750  0.451-  11 2.09  20 2.09  27 2.09  28 2.09  26 2.09  30 2.10
  59  0.750  0.750  0.353-  10 2.09  17 2.09  25 2.09  26 2.09  27 2.09
  60  0.000  0.500  0.353-   9 2.09  18 2.09  25 2.09  26 2.09  28 2.09
  61  0.750  0.500  0.650-  32 2.08  23 2.09  31 2.09  16 2.09  29 2.12
  62  1.000  0.750  0.650-  24 2.09  31 2.09  15 2.09  32 2.09  30 2.12
  63  0.750  0.750  0.549-  31 2.08  30 2.09  29 2.09  21 2.09  14 2.09  27 2.09
  64  1.000  0.500  0.549-  32 2.08  22 2.09  30 2.09  29 2.09  13 2.09  28 2.10

IMPORTANT INFORMATION: All symmetrisations will be switched off!
NOSYMM: (Re-)initialisation of all symmetry stuff for point group C_1.

                                     Primitive cell

  volume of cell :    1482.1129

  direct lattice vectors                    reciprocal lattice vectors
     8.349111827  0.000000000  0.000000000     0.119773219  0.000000000  0.000000000
     0.000000000  8.349111827  0.000000000     0.000000000  0.119773219  0.000000000
     0.000000000  0.000000000 21.261833870     0.000000000  0.000000000  0.047032632

  length of vectors
     8.349111827  8.349111827 21.261833870     0.119773219  0.119773219  0.047032632

  position of ions in fractional coordinates (direct lattice)
     0.250000000  0.000000000  0.352744737
     0.500000000  0.250000000  0.352744737
     0.250000000  0.250000000  0.450914912
     0.500000000  0.000000000  0.450914912
     0.250002059  0.000000021  0.549701940
     0.499999985  0.250125161  0.549775393
     0.250052983  0.249810988  0.647256905
     0.499999998  0.000000017  0.647286844
     0.250000000  0.500000000  0.352744737
     0.500000000  0.750000000  0.352744737
     0.250000000  0.750000000  0.450914912
     0.500000000  0.500000000  0.450914912
     0.250118172  0.499999977  0.549775604
     0.500000000  0.749874868  0.549775364
     0.250053002  0.750189031  0.647256894
     0.500000008  0.499999949  0.647956803
     0.750000000  0.000000000  0.352744737
     0.000000000  0.250000000  0.352744737
     0.750000000  0.250000000  0.450914912
     0.000000000  0.000000000  0.450914912
     0.749997956  0.000000020  0.549701949
     0.999999991  0.249987696  0.549722026
     0.749947068  0.249810996  0.647256912
     0.999999968  0.999999984  0.647396083
     0.750000000  0.500000000  0.352744737
     0.000000000  0.750000000  0.352744737
     0.750000000  0.750000000  0.450914912
     0.000000000  0.500000000  0.450914912
     0.749881839  0.499999992  0.549775619
     0.999999987  0.750012315  0.549721997
     0.749947072  0.750189020  0.647256912
     0.999999997  0.500000019  0.647300533
     0.250000000  0.000000000  0.450914912
     0.500000000  0.250000000  0.450914912
     0.250000000  0.250000000  0.352744737
     0.500000000  0.000000000  0.352744737
     0.249940563  0.000000012  0.649608281
     0.500000000  0.249734324  0.649381278
     0.249916718  0.250009585  0.549418272
     0.500000016  0.000000041  0.549347396
     0.250000000  0.500000000  0.450914912
     0.500000000  0.750000000  0.450914912
     0.250000000  0.750000000  0.352744737
     0.500000000  0.500000000  0.352744737
     0.249632364  0.499999972  0.649687261
     0.499999991  0.750265729  0.649381281
     0.249916704  0.749990416  0.549418280
     0.500000002  0.499999951  0.549569470
     0.750000000  0.000000000  0.450914912
     0.000000000  0.250000000  0.450914912
     0.750000000  0.250000000  0.352744737
     0.000000000  0.000000000  0.352744737
     0.750059501  0.000000017  0.649608277
     0.999999995  0.249924609  0.649612784
     0.750083283  0.250009563  0.549418263
     0.999999989  0.000000014  0.549473329
     0.750000000  0.500000000  0.450914912
     0.000000000  0.750000000  0.450914912
     0.750000000  0.750000000  0.352744737
     0.000000000  0.500000000  0.352744737
     0.750367624  0.499999984  0.649687255
     0.999999980  0.750075386  0.649612778
     0.750083279  0.749990421  0.549418288
     0.999999990  0.499999963  0.549448751

  ion indices of the primitive-cell ions
   primitive index   ion index
                 1           1
                 2           2
                 3           3
                 4           4
                 5           5
                 6           6
                 7           7
                 8           8
                 9           9
                10          10
                11          11
                12          12
                13          13
                14          14
                15          15
                16          16
                17          17
                18          18
                19          19
                20          20
                21          21
                22          22
                23          23
                24          24
                25          25
                26          26
                27          27
                28          28
                29          29
                30          30
                31          31
                32          32
                33          33
                34          34
                35          35
                36          36
                37          37
                38          38
                39          39
                40          40
                41          41
                42          42
                43          43
                44          44
[...]
   0.50000000  0.75000000  0.45091491
   0.25000000  0.75000000  0.35274474
   0.50000000  0.50000000  0.35274474
   0.24963236  0.49999997  0.64968726
   0.49999999  0.75026573  0.64938128
   0.24991670  0.74999042  0.54941828
   0.50000000  0.49999995  0.54956947
   0.75000000  0.00000000  0.45091491
   0.00000000  0.25000000  0.45091491
   0.75000000  0.25000000  0.35274474
   0.00000000  0.00000000  0.35274474
   0.75005950  0.00000002  0.64960828
   1.00000000  0.24992461  0.64961278
   0.75008328  0.25000956  0.54941826
   0.99999999  0.00000001  0.54947333
   0.75000000  0.50000000  0.45091491
   0.00000000  0.75000000  0.45091491
   0.75000000  0.75000000  0.35274474
   0.00000000  0.50000000  0.35274474
   0.75036762  0.49999998  0.64968726
   0.99999998  0.75007539  0.64961278
   0.75008328  0.74999042  0.54941829
   0.99999999  0.49999996  0.54944875

 position of ions in cartesian coordinates  (Angst):
   2.08727796  0.00000000  7.50000000
   4.17455591  2.08727796  7.50000000
   2.08727796  2.08727796  9.58727796
   4.17455591  0.00000000  9.58727796
   2.08729515  0.00000018 11.68767132
   4.17455579  2.08832294 11.68923308
   2.08772032  2.08569988 13.76186878
   4.17455590  0.00000014 13.76250534
   2.08727796  4.17455591  7.50000000
   4.17455591  6.26183387  7.50000000
   2.08727796  6.26183387  9.58727796
   4.17455591  4.17455591  9.58727796
   2.08826458  4.17455572 11.68923756
   4.17455591  6.26078913 11.68923246
   2.08772048  6.26341211 13.76186856
   4.17455598  4.17455549 13.77674991
   6.26183387  0.00000000  7.50000000
   0.00000000  2.08727796  7.50000000
   6.26183387  2.08727796  9.58727796
   0.00000000  0.00000000  9.58727796
   6.26181681  0.00000017 11.68767152
   8.34911175  2.08717523 11.68809840
   6.26139194  2.08569994 13.76186893
   8.34911156  8.34911169 13.76482796
   6.26183387  4.17455591  7.50000000
   0.00000000  6.26183387  7.50000000
   6.26183387  6.26183387  9.58727796
   0.00000000  4.17455591  9.58727796
   6.26084733  4.17455585 11.68923788
   8.34911172  6.26193669 11.68809779
   6.26139197  6.26341202 13.76186893
   8.34911180  4.17455607 13.76279640
   2.08727796  0.00000000  9.58727796
   4.17455591  2.08727796  9.58727796
   2.08727796  2.08727796  7.50000000
   4.17455591  0.00000000  7.50000000
   2.08678171  0.00000010 13.81186335
   4.17455592  2.08505980 13.80703685
   2.08658262  2.08735798 11.68164002
   4.17455605  0.00000034 11.68013307
   2.08727796  4.17455591  9.58727796
   4.17455591  6.26183387  9.58727796
   2.08727796  6.26183387  7.50000000
   4.17455591  4.17455591  7.50000000
   2.08420852  4.17455568 13.81354261
   4.17455584  6.26405247 13.80703691
   2.08658251  6.26175385 11.68164019
   4.17455593  4.17455551 11.68485476
   6.26183387  0.00000000  9.58727796
   0.00000000  2.08727796  9.58727796
   6.26183387  2.08727796  7.50000000
   0.00000000  0.00000000  7.50000000
   6.26233065  0.00000014 13.81186327
   8.34911179  2.08664851 13.81195909
   6.26252921  2.08735780 11.68163983
   8.34911173  0.00000011 11.68281064
   6.26183387  4.17455591  9.58727796
   0.00000000  6.26183387  9.58727796
   6.26183387  6.26183387  7.50000000
   0.00000000  4.17455591  7.50000000
   6.26490320  4.17455578 13.81354248
   8.34911166  6.26246327 13.81195897
   6.26252917  6.26175390 11.68164037
   8.34911174  4.17455561 11.68228806

--------------------------------------- Iteration      FINAL  ---------------------------------------

--------------------OUTCAR has been truncated-------------------------

[...]

--------------------OUTCAR has been truncated-------------------------

  DFT-D2 method for vdW energy calculation

  Parameters of vdW forcefield:
         C6(Jnm^6/mol)     R0(A)
   Mg       0.630          1.243
   O        0.700          1.342

  vdW correction parametrized for the method È!ý      

  IVDW =   1
  VDW_RADIUS =    50.000 A
  VDW_S6 =     1.050
  VDW_SR =     1.000
  VDW_D =    20.000
  LVDW_EWALD = F

  Number of pair interactions contributing to vdW energy:  742612
  Edisp (eV):   -5.30656

 VOLUME and BASIS-vectors are now :
  energy-cutoff  :      600.00
  volume of cell :     1482.11
      direct lattice vectors                 reciprocal lattice vectors
     8.349111827  0.000000000  0.000000000     0.119773219  0.000000000  0.000000000
     0.000000000  8.349111827  0.000000000     0.000000000  0.119773219  0.000000000
     0.000000000  0.000000000 21.261833870     0.000000000  0.000000000  0.047032632

  length of vectors
     8.349111827  8.349111827 21.261833870     0.119773219  0.119773219  0.047032632

 FORCES acting on ions:
    Electron-Ion                     Ewald-Force                    Non-Local-Force
   -.107E-01 0.132E-04 0.212E+04   0.109E-01 -.468E-05 -.212E+04   -.893E-04 -.143E-06 -.644E+01
   0.278E-05 -.582E-01 0.212E+04   0.969E-06 0.592E-01 -.212E+04   0.167E-05 -.707E-03 -.644E+01
   -.124E+00 -.217E+00 0.703E+03   0.125E+00 0.223E+00 -.703E+03   -.488E-03 -.350E-02 0.428E+00
   0.180E-04 0.470E-04 0.703E+03   0.411E-06 -.247E-04 -.703E+03   -.135E-04 -.191E-04 0.397E+00
   -.447E-01 0.149E-03 -.709E+03   0.340E-01 -.126E-03 0.709E+03   0.701E-02 -.962E-05 -.148E+00
   -.541E-04 -.597E+00 -.709E+03   0.514E-04 0.640E+00 0.709E+03   0.959E-05 -.373E-01 -.242E+00
   -.143E+00 -.833E+00 -.211E+04   0.735E-01 0.796E+00 0.210E+04   0.417E-01 0.441E-01 0.536E+01
   -.546E-04 0.119E-03 -.211E+04   0.863E-04 -.855E-04 0.210E+04   -.195E-04 -.186E-04 0.536E+01
   -.283E-01 -.150E-04 0.212E+04   0.292E-01 0.514E-05 -.212E+04   -.622E-03 -.148E-05 -.644E+01
   -.748E-06 0.582E-01 0.212E+04   0.133E-05 -.592E-01 -.212E+04   0.499E-05 0.712E-03 -.644E+01
   -.124E+00 0.217E+00 0.703E+03   0.125E+00 -.223E+00 -.703E+03   -.494E-03 0.349E-02 0.428E+00
   -.182E-04 -.562E-04 0.702E+03   0.180E-04 0.395E-04 -.702E+03   0.799E-05 0.999E-05 0.464E+00
   -.426E+00 -.213E-03 -.710E+03   0.450E+00 0.186E-03 0.710E+03   -.244E-01 0.134E-04 -.171E+00
   0.418E-04 0.597E+00 -.709E+03   -.131E-04 -.640E+00 0.709E+03   -.221E-04 0.373E-01 -.241E+00
   -.143E+00 0.833E+00 -.211E+04   0.735E-01 -.796E+00 0.210E+04   0.417E-01 -.442E-01 0.536E+01
   0.786E-04 -.408E-03 -.211E+04   -.402E-04 0.348E-03 0.211E+04   -.329E-04 0.433E-04 0.549E+01
   0.107E-01 0.178E-04 0.212E+04   -.109E-01 -.536E-05 -.212E+04   0.878E-04 -.221E-05 -.644E+01
   -.652E-05 -.406E-01 0.212E+04   -.344E-06 0.409E-01 -.212E+04   0.437E-05 -.159E-03 -.644E+01
   0.124E+00 -.217E+00 0.703E+03   -.125E+00 0.223E+00 -.703E+03   0.487E-03 -.348E-02 0.428E+00
   -.219E-04 0.157E-04 0.703E+03   0.953E-05 -.799E-05 -.703E+03   0.989E-05 -.231E-05 0.441E+00
   0.448E-01 0.139E-03 -.709E+03   -.341E-01 -.135E-03 0.709E+03   -.700E-02 -.175E-05 -.148E+00
   -.498E-04 -.280E+00 -.709E+03   0.581E-04 0.282E+00 0.709E+03   -.483E-05 0.434E-03 -.180E+00
   0.143E+00 -.833E+00 -.211E+04   -.737E-01 0.796E+00 0.210E+04   -.417E-01 0.442E-01 0.536E+01
   -.305E-03 0.853E-04 -.211E+04   0.248E-03 -.391E-04 0.210E+04   0.475E-04 -.300E-04 0.536E+01
   0.283E-01 -.189E-04 0.212E+04   -.292E-01 0.548E-05 -.212E+04   0.620E-03 0.427E-05 -.644E+01
   -.774E-06 0.406E-01 0.212E+04   -.998E-06 -.409E-01 -.212E+04   -.529E-05 0.159E-03 -.644E+01
   0.124E+00 0.217E+00 0.703E+03   -.125E+00 -.223E+00 -.703E+03   0.498E-03 0.347E-02 0.428E+00
   0.935E-05 -.330E-04 0.702E+03   -.580E-05 0.207E-04 -.703E+03   -.330E-05 0.770E-05 0.426E+00
   0.426E+00 -.100E-03 -.710E+03   -.450E+00 0.107E-03 0.710E+03   0.244E-01 -.122E-04 -.171E+00
   -.831E-04 0.281E+00 -.709E+03   0.688E-04 -.282E+00 0.709E+03   0.120E-04 -.444E-03 -.180E+00
   0.143E+00 0.833E+00 -.211E+04   -.738E-01 -.796E+00 0.210E+04   -.417E-01 -.442E-01 0.536E+01
   -.121E-03 -.955E-04 -.211E+04   0.795E-04 0.521E-04 0.210E+04   0.287E-04 0.349E-04 0.532E+01
   0.561E-02 0.238E-04 0.527E+03   0.776E-03 -.244E-04 -.526E+03   -.821E-02 -.279E-05 -.871E-01
   -.841E-05 -.213E+00 0.526E+03   0.669E-05 0.201E+00 -.526E+03   -.113E-05 0.137E-01 -.101E+00
   -.158E-01 -.370E-01 0.160E+04   0.162E-01 0.377E-01 -.160E+04   -.511E-03 -.816E-03 0.310E+01
   0.272E-04 0.204E-04 0.160E+04   0.302E-06 -.378E-05 -.160E+04   -.662E-05 -.720E-05 0.310E+01
   -.157E+00 0.693E-04 -.160E+04   0.136E+00 -.592E-04 0.161E+04   0.319E-01 -.200E-04 -.470E+01
   -.760E-04 -.819E+00 -.160E+04   0.665E-04 0.818E+00 0.161E+04   0.968E-05 0.238E-01 -.457E+01
   -.180E+00 -.343E+00 -.525E+03   0.180E+00 0.348E+00 0.525E+03   0.617E-02 -.565E-02 0.317E+00
   0.283E-04 0.140E-03 -.525E+03   -.105E-04 -.117E-03 0.524E+03   -.219E-04 -.238E-04 0.317E+00
   -.104E+00 -.345E-04 0.526E+03   0.958E-01 0.312E-04 -.526E+03   0.972E-02 0.320E-05 -.996E-01
   -.613E-05 0.213E+00 0.526E+03   0.375E-05 -.201E+00 -.526E+03   -.343E-05 -.137E-01 -.101E+00
   -.158E-01 0.370E-01 0.160E+04   0.162E-01 -.377E-01 -.160E+04   -.506E-03 0.819E-03 0.310E+01
   -.982E-05 -.166E-04 0.160E+04   0.168E-05 0.414E-05 -.160E+04   0.351E-05 0.176E-05 0.310E+01
   -.813E+00 -.186E-03 -.160E+04   0.770E+00 0.175E-03 0.161E+04   0.834E-01 0.198E-04 -.465E+01
   -.693E-04 0.819E+00 -.160E+04   0.890E-04 -.819E+00 0.161E+04   -.286E-04 -.238E-01 -.457E+01
   -.180E+00 0.343E+00 -.525E+03   0.180E+00 -.348E+00 0.525E+03   0.617E-02 0.565E-02 0.317E+00
   0.313E-05 -.245E-03 -.528E+03   0.139E-04 0.235E-03 0.528E+03   -.168E-04 0.156E-04 0.162E+00
   -.561E-02 0.272E-04 0.527E+03   -.785E-03 -.306E-04 -.526E+03   0.821E-02 0.123E-06 -.871E-01
   -.234E-05 -.107E+00 0.526E+03   0.654E-05 0.111E+00 -.526E+03   -.623E-06 -.476E-02 -.943E-01
   0.158E-01 -.370E-01 0.160E+04   -.162E-01 0.377E-01 -.160E+04   0.508E-03 -.811E-03 0.310E+01
   -.237E-04 0.134E-04 0.160E+04   0.463E-07 -.262E-05 -.160E+04   0.349E-05 -.444E-05 0.310E+01
   0.158E+00 0.397E-04 -.160E+04   -.137E+00 -.561E-04 0.161E+04   -.319E-01 0.119E-04 -.470E+01
   -.917E-04 -.338E+00 -.160E+04   0.119E-03 0.375E+00 0.161E+04   -.189E-04 -.359E-01 -.472E+01
   0.180E+00 -.343E+00 -.525E+03   -.180E+00 0.348E+00 0.525E+03   -.617E-02 -.565E-02 0.317E+00
   -.108E-03 0.658E-04 -.526E+03   0.952E-04 -.548E-04 0.526E+03   0.153E-04 -.190E-04 0.255E+00
   0.104E+00 -.268E-04 0.526E+03   -.958E-01 0.277E-04 -.526E+03   -.972E-02 0.157E-05 -.996E-01
   0.366E-05 0.107E+00 0.526E+03   0.166E-05 -.111E+00 -.526E+03   0.858E-06 0.476E-02 -.942E-01
   0.158E-01 0.370E-01 0.160E+04   -.162E-01 -.377E-01 -.160E+04   0.508E-03 0.809E-03 0.310E+01
   0.822E-05 -.104E-04 0.160E+04   -.131E-05 0.290E-05 -.160E+04   -.314E-05 -.550E-06 0.310E+01
   0.813E+00 -.941E-04 -.160E+04   -.770E+00 0.117E-03 0.161E+04   -.834E-01 -.187E-04 -.465E+01
   -.207E-03 0.338E+00 -.160E+04   0.202E-03 -.375E+00 0.161E+04   0.131E-04 0.359E-01 -.472E+01
   0.180E+00 0.343E+00 -.525E+03   -.180E+00 -.348E+00 0.525E+03   -.617E-02 0.565E-02 0.317E+00
   -.600E-04 -.140E-03 -.526E+03   0.524E-04 0.126E-03 0.525E+03   0.133E-04 0.172E-04 0.299E+00
   0.421E-04 0.155E-04 0.200E+02   -.683E-13 -.576E-13 0.205E-11   -.561E-04 -.371E-04 -.175E+02

 POSITION                                       TOTAL-FORCE (eV/Angst)
      2.08728      0.00000      7.50000         0.000080      0.000011      0.311349
      4.17456      2.08728      7.50000         0.000008      0.000224      0.311907
      2.08728      2.08728      9.58728         0.000577      0.001664      0.047417
      4.17456      0.00000      9.58728         0.000004      0.000003      0.047768
      2.08730      0.00000     11.68767        -0.002744      0.000011      0.014445
      4.17456      2.08832     11.68923         0.000008      0.001387      0.000307
      2.08772      2.08570     13.76187        -0.022139      0.010387      0.134513
      4.17456      0.00000     13.76251         0.000011      0.000014      0.122081
      2.08728      4.17456      7.50000         0.000212     -0.000013      0.311785
      4.17456      6.26183      7.50000         0.000007     -0.000220      0.311904
      2.08728      6.26183      9.58728         0.000565     -0.001666      0.047426
      4.17456      4.17456      9.58728         0.000009     -0.000007      0.052994
      2.08826      4.17456     11.68924        -0.002863     -0.000011      0.017192
      4.17456      6.26079     11.68923         0.000006     -0.001384      0.000298
      2.08772      6.26341     13.76187        -0.022137     -0.010399      0.134541
      4.17456      4.17456     13.77675         0.000004     -0.000014      0.022465
      6.26183      0.00000      7.50000        -0.000078      0.000013      0.311337
      0.00000      2.08728      7.50000        -0.000003      0.000093      0.311577
      6.26183      2.08728      9.58728        -0.000581      0.001669      0.047339
      0.00000      0.00000      9.58728        -0.000002      0.000005      0.048526
      6.26182      0.00000     11.68767         0.002747      0.000003      0.014455
      8.34911      2.08718     11.68810         0.000004      0.002084      0.020816
      6.26139      2.08570     13.76187         0.022122      0.010398      0.134438
      8.34911      8.34911     13.76483        -0.000007      0.000015      0.122700
      6.26183      4.17456      7.50000        -0.000213     -0.000012      0.311784
      0.00000      6.26183      7.50000        -0.000007     -0.000093      0.311598
      6.26183      6.26183      9.58728        -0.000568     -0.001678      0.047433
      0.00000      4.17456      9.58728         0.000001     -0.000004      0.052994
      6.26085      4.17456     11.68924         0.002859     -0.000006      0.017215
      8.34911      6.26194     11.68810         0.000000     -0.002081      0.020793
      6.26139      6.26341     13.76187         0.022128     -0.010391      0.134545
      8.34911      4.17456     13.76280        -0.000011     -0.000007      0.145301
      2.08728      0.00000      9.58728        -0.003070     -0.000004      0.066360
      4.17456      2.08728      9.58728        -0.000003      0.004639      0.069990
      2.08728      2.08728      7.50000        -0.000167     -0.000268     -0.591407
      4.17456      0.00000      7.50000         0.000021      0.000009     -0.591331
      2.08678      0.00000     13.81186         0.015406     -0.000013      0.007679
      4.17456      2.08506     13.80704         0.000001      0.028380      0.059695
      2.08658      2.08736     11.68164         0.007281     -0.001694      0.008584
      4.17456      0.00000     11.68013        -0.000007     -0.000004      0.025112
      2.08728      4.17456      9.58728         0.002988      0.000001      0.070665
      4.17456      6.26183      9.58728        -0.000006     -0.004641      0.069990
      2.08728      6.26183      7.50000        -0.000162      0.000269     -0.591405
      4.17456      4.17456      7.50000        -0.000004     -0.000010     -0.591690
      2.08421      4.17456     13.81354         0.053690      0.000012      0.018802
      4.17456      6.26405     13.80704        -0.000013     -0.028377      0.059710
      2.08658      6.26175     11.68164         0.007281      0.001698      0.008596
      4.17456      4.17456     11.68485        -0.000002      0.000009      0.006774
      6.26183      0.00000      9.58728         0.003064     -0.000003      0.066358
      0.00000      2.08728      9.58728         0.000004     -0.001503      0.066217
      6.26183      2.08728      7.50000         0.000164     -0.000292     -0.591443
      0.00000      0.00000      7.50000        -0.000020      0.000006     -0.591135
      6.26233      0.00000     13.81186        -0.015411     -0.000003      0.007670
      8.34911      2.08665     13.81196         0.000007     -0.003473      0.004154
      6.26253      2.08736     11.68164        -0.007288     -0.001691      0.008631
      8.34911      0.00000     11.68281         0.000004     -0.000011     -0.005225
      6.26183      4.17456      9.58728        -0.002992      0.000003      0.070668
      0.00000      6.26183      9.58728         0.000007      0.001505      0.066232
      6.26183      6.26183      7.50000         0.000166      0.000296     -0.591428
      0.00000      4.17456      7.50000         0.000004     -0.000008     -0.591280
      6.26490      4.17456     13.81354        -0.053680      0.000004      0.018773
      8.34911      6.26246     13.81196         0.000011      0.003475      0.004187
      6.26253      6.26175     11.68164        -0.007282      0.001689      0.008577
      8.34911      4.17456     11.68229         0.000008      0.000006      0.001679
    total drift:                               -0.000019     -0.000025      0.019301

  FREE ENERGIE OF THE ION-ELECTRON SYSTEM (eV)
  free  energy   TOTEN  =      -438.96983217 eV

  energy  without entropy=     -438.96983217  energy(sigma->0) =     -438.96983217