 vasp.6.3.0 20Jan22 (build Apr  1 2022 16:44:48) complex
 executed on        HPECrayEX_GCC date 2022.11.13  17:33:51

 INCAR:
   SYSTEM = MgO-rocksalt
   ISMEAR = 0
   SIGMA = 0.05
   EDIFF = 1E-6
   ALGO = ALL
   ISTART = 0
   IBRION = -1
   NSW = 0
   ISYM = 0
   DIPOL = 0.5 0.5 0.5
   IDIPOL = 3
   LDIPOL = .TRUE.
   LHFCALC = .TRUE.
   GGA = B5
   AEXX = 0.2
   AGGAX = 0.72
   AGGAC = 0.81
   ALDAC = 0.19
   IVDW = 1
   VDW_S6 = 1.05
   VDW_C6 = 0.63 0.70
   VDW_R0 = 1.243 1.342
   ENCUT = 600
   PREC = Accurate
   LASPH = .TRUE.
   LREAL = .FALSE.
   ISPIN = 2
   MAGMOM = 0.0 0.0 0.0 0.0 0.0 0.0 0.0 0.0 0.0 0.0 0.0 0.0 0.0 0.0 0.0 0.0 0.0 0.0 0.0 0.0 0.0 0.0 0.0 0.0 0.0 0.0 0.0 0.0 0.0 0.0 0.0 0.0 0.0 0.0 0.0 0.0 0.0 0.0 0.0 0.0 0.0 0.0 0.0 0.0 0.0 0.0 0.0 0.0 0.0 0.0 0.0 0.0 0.0 0.0 0.0 0.0 0.0 0.0 0.0 0.0 0.0 0.0 0.0 0.0
   NELM = 200
   NELMIN = 8
   NCORE = 8
   KPAR = 1
   LWAVE = .FALSE.
   LCHARG = .FALSE.

 POTCAR:    PAW_PBE Mg_pv 13Apr2007
 POTCAR:    PAW_PBE O 08Apr2002
 POTCAR:    PAW_PBE Mg_pv 13Apr2007
   VRHFIN =Mg: p6s2

   TITEL  = PAW_PBE Mg_pv 13Apr2007
   POMASS =   24.305; ZVAL   =    8.000    mass and valenz
   ENMAX  =  403.929; ENMIN  =  302.947 eV

   TITEL  = PAW_PBE O 08Apr2002
   POMASS =   16.000; ZVAL   =    6.000    mass and valenz
   ENMAX  =  400.000; ENMIN  =  300.000 eV

  PAW_PBE Mg_pv 13Apr2007               :
  PAW_PBE O 08Apr2002                   :

 POSCAR: Mg  O
  positions in direct lattice
 exchange correlation table for  LEXCH =       12
   RHO(1)=    0.500       N(1)  =     2000
   RHO(2)=  100.500       N(2)  =     4000

 ion  position               nearest neighbor table
   1  0.250  0.000  0.351-  33 2.12  35 2.12  36 2.12  43 2.12  52 2.12
   2  0.500  0.250  0.351-  34 2.12  35 2.12  36 2.12  44 2.12  51 2.12
   3  0.250  0.250  0.450-  35 2.12  34 2.12  33 2.12  41 2.12  50 2.12  39 2.12
   4  0.500  0.000  0.450-  36 2.12  34 2.12  33 2.12  42 2.12  49 2.12  40 2.12
   5  0.250  0.000  0.550-  40 2.12  39 2.12  47 2.12  56 2.12  33 2.13  37 2.15
   6  0.500  0.250  0.550-  48 2.12  38 2.12  55 2.12  39 2.12  40 2.12  34 2.14
   7  0.250  0.249  0.648-  39 2.11  38 2.11  37 2.11  54 2.12  45 2.12
   8  0.499  0.000  0.648-  38 2.11  40 2.11  46 2.11  37 2.12  53 2.12
   9  0.250  0.500  0.351-  41 2.12  35 2.12  43 2.12  44 2.12  60 2.12
  10  0.500  0.750  0.351-  42 2.12  36 2.12  43 2.12  44 2.12  59 2.12
  11  0.250  0.750  0.450-  43 2.12  41 2.12  42 2.12  33 2.12  58 2.12  47 2.12
  12  0.500  0.500  0.450-  44 2.12  41 2.12  42 2.12  34 2.12  57 2.12  48 2.13
  13  0.251  0.500  0.550-  48 2.12  39 2.12  47 2.12  64 2.13  41 2.13  45 2.15
  14  0.500  0.750  0.550-  48 2.11  47 2.12  40 2.12  63 2.12  46 2.13  42 2.13
  15  0.250  0.751  0.649-  47 2.11  37 2.11  46 2.12  62 2.12  45 2.12
  16  0.497  0.500  0.651-  45 2.10  38 2.12  46 2.13  48 2.15  61 2.16
  17  0.750  0.000  0.351-  49 2.12  36 2.12  51 2.12  52 2.12  59 2.12
  18  0.000  0.250  0.351-  50 2.12  35 2.12  51 2.12  52 2.12  60 2.12
  19  0.750  0.250  0.450-  51 2.12  49 2.12  50 2.12  34 2.12  57 2.12  55 2.13
  20  0.000  0.000  0.450-  52 2.12  49 2.12  50 2.12  33 2.12  58 2.12  56 2.12
  21  0.750  0.000  0.550-  40 2.12  56 2.12  55 2.12  63 2.12  49 2.13  53 2.15
  22  1.000  0.250  0.550-  55 2.11  39 2.11  64 2.12  56 2.12  50 2.13  54 2.15
  23  0.749  0.248  0.649-  53 2.10  38 2.11  55 2.12  54 2.12  61 2.14
  24  0.000  0.000  0.649-  56 2.11  37 2.11  54 2.12  62 2.12  53 2.12
  25  0.750  0.500  0.351-  57 2.12  51 2.12  44 2.12  59 2.12  60 2.12
  26  0.000  0.750  0.351-  58 2.12  52 2.12  43 2.12  59 2.12  60 2.12
  27  0.750  0.750  0.450-  59 2.12  49 2.12  57 2.12  58 2.12  42 2.12  63 2.12
  28  0.000  0.500  0.450-  60 2.12  50 2.12  57 2.12  58 2.12  41 2.12  64 2.13
  29  0.749  0.500  0.550-  48 2.11  55 2.11  63 2.11  57 2.12  64 2.12  61 2.17
  30  0.000  0.750  0.550-  47 2.11  63 2.12  56 2.12  64 2.12  58 2.13  62 2.15
  31  0.750  0.753  0.648-  53 2.09  63 2.10  46 2.11  62 2.12  61 2.14
  32  0.003  0.500  0.649-  45 2.09  64 2.11  54 2.12  62 2.12  61 2.12
  33  0.250  0.000  0.450-   1 2.12   3 2.12   4 2.12  11 2.12  20 2.12   5 2.13
  34  0.500  0.250  0.450-   2 2.12   3 2.12   4 2.12  12 2.12  19 2.12   6 2.14
  35  0.250  0.250  0.351-   3 2.12   2 2.12   1 2.12   9 2.12  18 2.12
  36  0.500  0.000  0.351-   4 2.12   2 2.12   1 2.12  10 2.12  17 2.12
  37  0.250  1.000  0.651-  24 2.11  15 2.11   7 2.11   8 2.12   5 2.15
  38  0.500  0.249  0.650-   8 2.11   7 2.11  23 2.11   6 2.12  16 2.12
  39  0.249  0.250  0.550-   7 2.11  22 2.11  13 2.12   5 2.12   3 2.12   6 2.12
  40  0.500  1.000  0.550-   8 2.11  21 2.12   5 2.12   4 2.12  14 2.12   6 2.12
  41  0.250  0.500  0.450-   9 2.12   3 2.12  11 2.12  12 2.12  28 2.12  13 2.13
  42  0.500  0.750  0.450-  10 2.12   4 2.12  11 2.12  12 2.12  27 2.12  14 2.13
  43  0.250  0.750  0.351-  11 2.12   9 2.12  10 2.12   1 2.12  26 2.12
  44  0.500  0.500  0.351-  12 2.12   9 2.12  10 2.12   2 2.12  25 2.12
  45  0.250  0.500  0.651-  32 2.09  16 2.10  15 2.12   7 2.12  13 2.15
  46  0.500  0.751  0.650-   8 2.11  31 2.11  15 2.12  16 2.13  14 2.13
  47  0.250  0.750  0.550-  15 2.11  30 2.11  13 2.12  14 2.12   5 2.12  11 2.12
  48  0.500  0.500  0.550-  29 2.11  14 2.11   6 2.12  13 2.12  12 2.13  16 2.15
  49  0.750  0.000  0.450-  17 2.12   4 2.12  19 2.12  20 2.12  27 2.12  21 2.13
  50  0.000  0.250  0.450-  18 2.12   3 2.12  19 2.12  20 2.12  28 2.12  22 2.13
  51  0.750  0.250  0.351-  19 2.12  17 2.12  18 2.12   2 2.12  25 2.12
  52  0.000  0.000  0.351-  20 2.12  17 2.12  18 2.12   1 2.12  26 2.12
  53  0.750  0.000  0.651-  31 2.09  23 2.10  24 2.12   8 2.12  21 2.15
  54  1.000  0.250  0.651-  32 2.12  24 2.12  23 2.12   7 2.12  22 2.15
  55  0.750  0.251  0.550-  29 2.11  22 2.11  23 2.12  21 2.12   6 2.12  19 2.13
  56  1.000  0.000  0.550-  24 2.11  21 2.12  30 2.12  22 2.12   5 2.12  20 2.12
  57  0.750  0.500  0.450-  25 2.12  19 2.12  12 2.12  27 2.12  28 2.12  29 2.12
  58  0.000  0.750  0.450-  26 2.12  20 2.12  11 2.12  27 2.12  28 2.12  30 2.13
  59  0.750  0.750  0.351-  27 2.12  17 2.12  25 2.12  26 2.12  10 2.12
  60  0.000  0.500  0.351-  28 2.12  18 2.12  25 2.12  26 2.12   9 2.12
  61  0.752  0.501  0.651-  32 2.12  31 2.14  23 2.14  16 2.16  29 2.17
  62  1.000  0.750  0.651-  31 2.12  32 2.12  24 2.12  15 2.12  30 2.15
  63  0.750  0.750  0.550-  31 2.10  29 2.11  30 2.12  14 2.12  21 2.12  27 2.12
  64  0.999  0.500  0.550-  32 2.11  30 2.12  22 2.12  29 2.12  28 2.13  13 2.13

IMPORTANT INFORMATION: All symmetrisations will be switched off!
NOSYMM: (Re-)initialisation of all symmetry stuff for point group C_1.

                                     Primitive cell

  volume of cell :    1530.6606

  direct lattice vectors                    reciprocal lattice vectors
     8.467142631  0.000000000  0.000000000     0.118103597  0.000000000  0.000000000
     0.000000000  8.467142631  0.000000000     0.000000000  0.118103597  0.000000000
     0.000000000  0.000000000 21.350356973     0.000000000  0.000000000  0.046837624

  length of vectors
     8.467142631  8.467142631 21.350356973     0.118103597  0.118103597  0.046837624

  position of ions in fractional coordinates (direct lattice)
     0.250000000  0.000000000  0.351282183
     0.500000000  0.250000000  0.351282183
     0.250000000  0.250000000  0.450427394
     0.500000000  0.000000000  0.450427394
     0.249994189  0.000038498  0.550059457
     0.499865849  0.250274561  0.550426333
     0.250200922  0.249318378  0.648444818
     0.499451013  0.000153556  0.648347845
     0.250000000  0.500000000  0.351282183
     0.500000000  0.750000000  0.351282183
     0.250000000  0.750000000  0.450427394
     0.500000000  0.500000000  0.450427394
     0.250591829  0.499964044  0.550233449
     0.499842153  0.749572464  0.550412346
     0.250217814  0.750664754  0.648550983
     0.497292694  0.499644168  0.650901730
     0.750000000  0.000000000  0.351282183
     0.000000000  0.250000000  0.351282183
     0.750000000  0.250000000  0.450427394
     0.000000000  0.000000000  0.450427394
     0.749830653  0.000389041  0.550051103
     0.999750651  0.250046750  0.550330319
     0.749326459  0.248144603  0.649194989
     0.000377422  0.000206028  0.648631861
     0.750000000  0.500000000  0.351282183
     0.000000000  0.750000000  0.351282183
     0.750000000  0.750000000  0.450427394
     0.000000000  0.500000000  0.450427394
     0.749102685  0.499782279  0.549595095
     0.000014203  0.750046886  0.550262855
     0.749899213  0.753072152  0.648345012
     0.002912781  0.500038454  0.648626054
     0.250000000  0.000000000  0.450427394
     0.500000000  0.250000000  0.450427394
     0.250000000  0.250000000  0.351282183
     0.500000000  0.000000000  0.351282183
     0.249589783  0.999893872  0.650590383
     0.499571575  0.248824605  0.649635837
     0.249457448  0.250113299  0.549734442
     0.499983270  0.999742144  0.549595394
     0.250000000  0.500000000  0.450427394
     0.500000000  0.750000000  0.450427394
     0.250000000  0.750000000  0.351282183
     0.500000000  0.500000000  0.351282183
     0.249643718  0.500040756  0.650765042
     0.500317876  0.750649009  0.650343184
     0.249709261  0.749868087  0.549803576
     0.500427758  0.500084999  0.550242721
     0.750000000  0.000000000  0.450427394
     0.000000000  0.250000000  0.450427394
     0.750000000  0.250000000  0.351282183
     0.000000000  0.000000000  0.351282183
     0.750115623  0.000226859  0.650583810
     0.999774688  0.250221488  0.650878515
     0.750120547  0.250595458  0.550011592
     0.999802353  0.000018231  0.549797969
     0.750000000  0.500000000  0.450427394
     0.000000000  0.750000000  0.450427394
     0.750000000  0.750000000  0.351282183
     0.000000000  0.500000000  0.351282183
     0.752377861  0.500740553  0.651167790
     0.999774542  0.750020413  0.650779856
     0.750111337  0.749520086  0.549937664
     0.999337224  0.500065337  0.550036179

  ion indices of the primitive-cell ions
   primitive index   ion index
                 1           1
                 2           2
                 3           3
                 4           4
                 5           5
                 6           6
                 7           7
                 8           8
                 9           9
                10          10
                11          11
                12          12
                13          13
                14          14
                15          15
                16          16
                17          17
                18          18
                19          19
                20          20
                21          21
                22          22
                23          23
                24          24
                25          25
                26          26
                27          27
                28          28
                29          29
                30          30
                31          31
                32          32
                33          33
                34          34
                35          35
[...]
   0.50000000  0.75000000  0.45042739
   0.25000000  0.75000000  0.35128218
   0.50000000  0.50000000  0.35128218
   0.24964372  0.50004076  0.65076504
   0.50031788  0.75064901  0.65034318
   0.24970926  0.74986809  0.54980358
   0.50042776  0.50008500  0.55024272
   0.75000000  0.00000000  0.45042739
   0.00000000  0.25000000  0.45042739
   0.75000000  0.25000000  0.35128218
   0.00000000  0.00000000  0.35128218
   0.75011562  0.00022686  0.65058381
   0.99977469  0.25022149  0.65087851
   0.75012055  0.25059546  0.55001159
   0.99980235  0.00001823  0.54979797
   0.75000000  0.50000000  0.45042739
   0.00000000  0.75000000  0.45042739
   0.75000000  0.75000000  0.35128218
   0.00000000  0.50000000  0.35128218
   0.75237786  0.50074055  0.65116779
   0.99977454  0.75002041  0.65077986
   0.75011134  0.74952009  0.54993766
   0.99933722  0.50006534  0.55003618

 position of ions in cartesian coordinates  (Angst):
   2.11678566  0.00000000  7.50000000
   4.23357132  2.11678566  7.50000000
   2.11678566  2.11678566  9.61678566
   4.23357132  0.00000000  9.61678566
   2.11673646  0.00032597 11.74396577
   4.23243544  2.11911041 11.75179869
   2.11848690  2.11101427 13.84452835
   4.22892297  0.00130018 13.84245793
   2.11678566  4.23357132  7.50000000
   4.23357132  6.35035697  7.50000000
   2.11678566  6.35035697  9.61678566
   4.23357132  4.23357132  9.61678566
   2.12179676  4.23326687 11.74768056
   4.23223480  6.34673696 11.75150007
   2.11862992  6.35598554 13.84679501
   4.21064817  4.23055843 13.89698428
   6.35035697  0.00000000  7.50000000
   0.00000000  2.11678566  7.50000000
   6.35035697  2.11678566  9.61678566
   0.00000000  0.00000000  9.61678566
   6.34892309  0.00329407 11.74378741
   8.46503136  2.11718150 11.74974876
   6.34465400  2.10107575 13.86054477
   0.00319568  0.00174447 13.84852177
   6.35035697  4.23357132  7.50000000
   0.00000000  6.35035697  7.50000000
   6.35035697  6.35035697  9.61678566
   0.00000000  4.23357132  9.61678566
   6.34275928  4.23172784 11.73405146
   0.00012026  6.35075396 11.74830838
   6.34950359  6.37636932 13.84239745
   0.02466294  4.23389691 13.84839780
   2.11678566  0.00000000  9.61678566
   4.23357132  2.11678566  9.61678566
   2.11678566  2.11678566  7.50000000
   4.23357132  0.00000000  7.50000000
   2.11331229  8.46624403 13.89033691
   4.22994378  2.10683342 13.86995701
   2.11219180  2.11774497 11.73702659
   4.23342966  8.46495933 11.73405785
   2.11678566  4.23357132  9.61678566
   4.23357132  6.35035697  9.61678566
   2.11678566  6.35035697  7.50000000
   4.23357132  4.23357132  7.50000000
   2.11376897  4.23391641 13.89406594
   4.23626282  6.35585222 13.88505913
   2.11432393  6.34924004 11.73850261
   4.23719320  4.23429102 11.74787851
   6.35035697  0.00000000  9.61678566
   0.00000000  2.11678566  9.61678566
   6.35035697  2.11678566  7.50000000
   0.00000000  0.00000000  7.50000000
   6.35133597  0.00192085 13.89019658
   8.46523488  2.11866103 13.89648864
   6.35137766  2.12182749 11.74294382
   8.46546913  0.00015436 11.73838291
   6.35035697  4.23357132  9.61678566
   0.00000000  6.35035697  9.61678566
   6.35035697  6.35035697  7.50000000
   0.00000000  4.23357132  7.50000000
   6.37049066  4.23984168 13.90266477
   8.46523364  6.35052981 13.89438224
   6.35129968  6.34629347 11.74136543
   8.46153082  4.23412453 11.74346876

--------------------------------------- Iteration      FINAL  ---------------------------------------

--------------------OUTCAR has been truncated-------------------------

[...]

--------------------OUTCAR has been truncated-------------------------

  DFT-D2 method for vdW energy calculation

  Parameters of vdW forcefield:
         C6(Jnm^6/mol)     R0(A)
   Mg       0.630          1.243
   O        0.700          1.342

  vdW correction parametrized for the method ,Ëþ      

  IVDW =   1
  VDW_RADIUS =    50.000 A
  VDW_S6 =     1.050
  VDW_SR =     1.000
  VDW_D =    20.000
  LVDW_EWALD = F

  Number of pair interactions contributing to vdW energy:  719172
  Edisp (eV):   -5.01313

 VOLUME and BASIS-vectors are now :
  energy-cutoff  :      600.00
  volume of cell :     1530.66
      direct lattice vectors                 reciprocal lattice vectors
     8.467142631  0.000000000  0.000000000     0.118103597  0.000000000  0.000000000
     0.000000000  8.467142631  0.000000000     0.000000000  0.118103597  0.000000000
     0.000000000  0.000000000 21.350356973     0.000000000  0.000000000  0.046837624

  length of vectors
     8.467142631  8.467142631 21.350356973     0.118103597  0.118103597  0.046837624

 FORCES acting on ions:
    Electron-Ion                     Ewald-Force                    Non-Local-Force
   -.951E-02 0.384E-02 0.205E+04   0.804E-02 -.430E-02 -.205E+04   0.982E-03 0.303E-03 -.637E+01
   -.706E-02 -.117E+00 0.205E+04   0.506E-02 0.117E+00 -.205E+04   0.132E-02 -.188E-03 -.638E+01
   -.204E+00 -.670E+00 0.680E+03   0.171E+00 0.690E+00 -.680E+03   0.211E-01 -.126E-01 0.424E+00
   -.225E+00 -.336E-01 0.680E+03   0.229E+00 0.127E-01 -.681E+03   -.265E-02 0.135E-01 0.367E+00
   0.379E+00 0.266E+00 -.682E+03   -.419E+00 -.280E+00 0.682E+03   0.175E-01 0.451E-02 -.752E-01
   -.122E+01 -.256E+01 -.684E+03   0.139E+01 0.280E+01 0.684E+03   -.118E+00 -.177E+00 -.526E+00
   0.103E+01 -.141E+01 -.204E+04   -.124E+01 0.109E+01 0.203E+04   0.939E-01 0.272E+00 0.558E+01
   -.647E+00 0.127E+01 -.204E+04   0.514E+00 -.130E+01 0.203E+04   0.122E+00 -.150E-01 0.555E+01
   -.199E-01 -.353E-02 0.205E+04   0.206E-01 0.399E-02 -.205E+04   -.606E-03 -.299E-03 -.638E+01
   -.635E-02 0.116E+00 0.205E+04   0.402E-02 -.117E+00 -.205E+04   0.157E-02 0.523E-03 -.639E+01
   -.184E+00 0.660E+00 0.679E+03   0.180E+00 -.680E+00 -.680E+03   0.296E-02 0.129E-01 0.444E+00
   0.485E+00 0.256E-01 0.678E+03   -.522E+00 -.149E-01 -.678E+03   0.212E-01 -.765E-02 0.509E+00
   -.151E+00 -.216E+00 -.684E+03   0.245E+00 0.229E+00 0.684E+03   -.114E+00 -.628E-02 -.413E-01
   -.903E+00 0.253E+01 -.686E+03   0.105E+01 -.275E+01 0.686E+03   -.880E-01 0.167E+00 -.361E+00
   -.222E+00 0.143E+01 -.204E+04   0.212E-01 -.109E+01 0.203E+04   0.120E+00 -.286E+00 0.555E+01
   -.133E+02 -.331E+00 -.206E+04   0.134E+02 0.534E+00 0.205E+04   0.289E+00 -.124E+00 0.591E+01
   0.924E-02 0.471E-02 0.205E+04   -.813E-02 -.416E-02 -.205E+04   -.723E-03 -.422E-03 -.637E+01
   0.589E-02 -.106E+00 0.205E+04   -.485E-02 0.105E+00 -.205E+04   -.646E-03 0.914E-03 -.639E+01
   0.159E+00 0.155E-01 0.679E+03   -.145E+00 -.310E-01 -.679E+03   -.984E-02 0.890E-02 0.448E+00
   0.193E+00 -.825E-02 0.680E+03   -.205E+00 0.164E-01 -.680E+03   0.733E-02 -.528E-02 0.425E+00
   -.313E+00 0.189E+00 -.682E+03   0.356E+00 -.135E+00 0.682E+03   -.228E-01 -.600E-01 -.581E-01
   0.121E+01 -.127E+01 -.686E+03   -.136E+01 0.144E+01 0.687E+03   0.984E-01 -.113E+00 -.242E+00
   0.252E+00 -.103E+02 -.204E+04   0.107E+00 0.105E+02 0.204E+04   -.207E+00 0.510E-01 0.565E+01
   0.882E+00 -.223E-01 -.204E+04   -.712E+00 0.556E-02 0.203E+04   -.159E+00 0.567E-02 0.548E+01
   0.183E-01 -.333E-02 0.205E+04   -.194E-01 0.322E-02 -.205E+04   0.903E-03 0.118E-03 -.636E+01
   0.651E-02 0.106E+00 0.205E+04   -.448E-02 -.104E+00 -.205E+04   -.135E-02 -.106E-02 -.639E+01
   0.154E+00 -.220E-01 0.679E+03   -.155E+00 0.476E-01 -.679E+03   0.373E-03 -.148E-01 0.415E+00
   -.480E+00 0.166E-01 0.678E+03   0.508E+00 -.207E-01 -.679E+03   -.173E-01 0.287E-02 0.409E+00
   0.563E+00 -.207E+00 -.686E+03   -.574E+00 0.190E+00 0.687E+03   0.717E-01 0.355E-01 -.266E+00
   0.908E+00 0.131E+01 -.685E+03   -.104E+01 -.149E+01 0.685E+03   0.742E-01 0.112E+00 -.266E+00
   0.911E+00 0.106E+02 -.204E+04   -.687E+00 -.110E+02 0.203E+04   -.137E+00 -.186E-01 0.549E+01
   0.813E+01 -.907E-01 -.204E+04   -.881E+01 0.125E+00 0.203E+04   0.253E+00 -.136E-01 0.543E+01
   0.418E-01 0.403E-01 0.510E+03   -.349E-01 -.397E-01 -.510E+03   -.915E-02 -.109E-02 -.484E-01
   -.109E+00 -.469E+00 0.508E+03   0.116E+00 0.447E+00 -.508E+03   -.729E-02 0.264E-01 -.132E+00
   -.151E-01 -.107E+00 0.154E+04   0.133E-01 0.108E+00 -.155E+04   0.229E-02 -.164E-02 0.313E+01
   -.279E-01 0.160E-02 0.154E+04   0.280E-01 -.292E-02 -.155E+04   -.163E-03 0.164E-02 0.313E+01
   -.218E+00 0.135E+00 -.155E+04   0.150E+00 -.162E+00 0.155E+04   0.107E+00 0.397E-01 -.453E+01
   -.265E+01 -.447E+01 -.154E+04   0.284E+01 0.459E+01 0.155E+04   -.204E+00 -.560E-01 -.391E+01
   -.250E-01 -.930E+00 -.505E+03   -.163E-01 0.940E+00 0.505E+03   0.692E-01 -.180E-01 0.491E+00
   -.366E+00 0.200E+00 -.504E+03   0.394E+00 -.219E+00 0.503E+03   -.374E-01 0.318E-01 0.491E+00
   0.140E-01 -.348E-01 0.508E+03   -.491E-01 0.343E-01 -.508E+03   0.403E-01 0.930E-03 -.878E-01
   -.101E+00 0.455E+00 0.508E+03   0.111E+00 -.422E+00 -.508E+03   -.124E-01 -.403E-01 -.153E+00
   -.158E-01 0.107E+00 0.154E+04   0.159E-01 -.108E+00 -.155E+04   -.132E-03 0.166E-02 0.313E+01
   0.326E-01 -.616E-03 0.154E+04   -.360E-01 0.234E-02 -.155E+04   0.421E-02 -.215E-02 0.313E+01
   -.123E+01 -.153E+00 -.155E+04   0.104E+01 0.184E+00 0.155E+04   0.270E+00 -.393E-01 -.421E+01
   -.178E+01 0.398E+01 -.155E+04   0.205E+01 -.419E+01 0.155E+04   -.330E+00 0.182E+00 -.422E+01
   -.288E+00 0.877E+00 -.506E+03   0.253E+00 -.881E+00 0.506E+03   0.542E-01 0.108E-01 0.452E+00
   -.116E+01 -.102E+00 -.517E+03   0.133E+01 0.103E+00 0.518E+03   -.235E+00 -.117E-01 -.229E+00
   -.495E-01 0.757E-01 0.509E+03   0.514E-01 -.964E-01 -.509E+03   -.132E-02 0.238E-01 -.599E-01
   0.863E-01 -.388E+00 0.509E+03   -.697E-01 0.392E+00 -.508E+03   -.201E-01 -.498E-02 -.154E+00
   0.159E-01 -.474E-01 0.154E+04   -.134E-01 0.450E-01 -.155E+04   -.318E-02 0.298E-02 0.313E+01
   0.279E-01 0.100E-02 0.154E+04   -.278E-01 -.358E-03 -.155E+04   -.107E-03 -.789E-03 0.313E+01
   0.269E-01 -.731E+00 -.155E+04   0.478E-01 0.770E+00 0.155E+04   -.104E+00 -.140E-01 -.443E+01
   0.193E+01 -.125E+01 -.155E+04   -.224E+01 0.154E+01 0.155E+04   0.367E+00 -.338E+00 -.454E+01
   0.134E+00 -.161E+01 -.511E+03   -.112E+00 0.179E+01 0.511E+03   -.450E-01 -.247E+00 0.909E-01
   0.314E+00 -.441E-01 -.506E+03   -.334E+00 0.305E-01 0.506E+03   0.296E-01 0.171E-01 0.373E+00
   -.627E-01 -.532E-01 0.510E+03   0.110E+00 0.628E-01 -.510E+03   -.535E-01 -.106E-01 -.136E-01
   0.977E-01 0.394E+00 0.509E+03   -.101E+00 -.404E+00 -.509E+03   0.403E-02 0.107E-01 -.136E+00
   0.155E-01 0.463E-01 0.154E+04   -.155E-01 -.443E-01 -.155E+04   -.109E-03 -.251E-02 0.313E+01
   -.315E-01 -.101E-02 0.154E+04   0.352E-01 0.246E-03 -.155E+04   -.449E-02 0.948E-03 0.313E+01
   0.484E+01 0.110E-01 -.155E+04   -.463E+01 0.198E+00 0.155E+04   -.421E+00 -.255E+00 -.405E+01
   0.126E+01 0.139E+01 -.155E+04   -.156E+01 -.170E+01 0.155E+04   0.370E+00 0.371E+00 -.461E+01
   0.334E+00 0.167E+01 -.508E+03   -.304E+00 -.187E+01 0.508E+03   -.468E-01 0.283E+00 0.270E+00
   0.106E+01 0.228E-01 -.509E+03   -.133E+01 -.548E-02 0.509E+03   0.363E+00 -.210E-01 0.189E+00
   -.511E+00 0.246E+00 0.147E+02   -.139E-12 0.131E-12 -.159E-11   0.464E+00 -.227E+00 -.129E+02

 POSITION                                       TOTAL-FORCE (eV/Angst)
      2.11679      0.00000      7.50000        -0.000319     -0.000110      0.508369
      4.23357      2.11679      7.50000        -0.000471     -0.000033      0.510259
      2.11679      2.11679      9.61679        -0.008774      0.005588      0.024298
      4.23357      0.00000      9.61679         0.001117     -0.005724      0.025358
      2.11674      0.00033     11.74397        -0.019464     -0.007877     -0.056019
      4.23244      2.11911     11.75180         0.043041      0.040047     -0.093839
      2.11849      2.11101     13.84453        -0.094927     -0.025763     -0.142959
      4.22892      0.00130     13.84246         0.000651     -0.041805     -0.137674
      2.11679      4.23357      7.50000         0.000100      0.000137      0.510106
      4.23357      6.35036      7.50000        -0.000531     -0.000067      0.512449
      2.11679      6.35036      9.61679        -0.000989     -0.005516      0.024823
      4.23357      4.23357      9.61679        -0.011787      0.002198      0.037166
      2.12180      4.23327     11.74768        -0.027435      0.005506     -0.076923
      4.23223      6.34674     11.75150         0.045063     -0.036481     -0.059251
      2.11863      6.35599     13.84680        -0.064822      0.025195     -0.138956
      4.21065      4.23056     13.89698         0.358450      0.062855     -0.490223
      6.35036      0.00000      7.50000         0.000351      0.000091      0.509341
      0.00000      2.11679      7.50000         0.000358     -0.000330      0.513387
      6.35036      2.11679      9.61679         0.002614     -0.005217      0.037737
      0.00000      0.00000      9.61679        -0.003116      0.002235      0.027394
      6.34892      0.00329     11.74379         0.016105     -0.009710     -0.058900
      8.46503      2.11718     11.74975        -0.039884      0.048057     -0.022608
      6.34465      2.10108     13.86054         0.122968      0.284007     -0.238232
      0.00320      0.00174     13.84852        -0.003202     -0.009761     -0.125253
      6.35036      4.23357      7.50000        -0.000074      0.000030      0.506850
      0.00000      6.35036      7.50000         0.000566      0.000384      0.512268
      6.35036      6.35036      9.61679        -0.000451      0.008555      0.047316
      0.00000      4.23357      9.61679         0.008689     -0.000915      0.063404
      6.34276      4.23173     11.73405         0.062809      0.020453      0.285430
      0.00012      6.35075     11.74831        -0.044897     -0.049704     -0.014669
      6.34950      6.37637     13.84240         0.068390     -0.355478     -0.088300
      0.02466      4.23390     13.84840        -0.374198      0.017907     -0.101566
      2.11679      0.00000      9.61679        -0.003592     -0.000673      0.055777
      4.23357      2.11679      9.61679        -0.001819      0.008627      0.065097
      2.11679      2.11679      7.50000         0.000820     -0.000587     -0.392884
      4.23357      0.00000      7.50000        -0.000045      0.000559     -0.392580
      2.11331      8.46624     13.89034         0.055287      0.017877     -0.083508
      4.22994      2.10683     13.86996        -0.038383      0.069118      0.160196
      2.11219      2.11774     11.73703         0.037969     -0.009980      0.067996
      4.23343      8.46496     11.73406        -0.014335      0.017465      0.080666
      2.11679      4.23357      9.61679         0.010823      0.000564      0.061741
      4.23357      6.35036      9.61679        -0.003304     -0.012892      0.055764
      2.11679      6.35036      7.50000         0.000023      0.000610     -0.393144
      4.23357      4.23357      7.50000         0.001418     -0.000717     -0.392373
      2.11377      4.23392     13.89407         0.115093     -0.014638     -0.008365
      4.23626      6.35585     13.88506        -0.106860     -0.007237      0.030770
      2.11432      6.34924     11.73850         0.027555      0.009210      0.056880
      4.23719      4.23429     11.74788        -0.105995     -0.012278     -0.005153
      6.35036      0.00000      9.61679         0.000509      0.006311      0.052399
      0.00000      2.11679      9.61679        -0.006390     -0.001027      0.046925
      6.35036      2.11679      7.50000        -0.001039      0.000969     -0.392055
      0.00000      0.00000      7.50000         0.000046     -0.000246     -0.393299
      6.35134      0.00192     13.89020        -0.044494      0.024232     -0.060499
      8.46523      2.11866     13.89649         0.105392     -0.104754     -0.092189
      6.35138      2.12183     11.74294        -0.028992     -0.106565     -0.023487
      8.46547      0.00015     11.73838         0.014118      0.005802      0.042934
      6.35036      4.23357      9.61679        -0.013842     -0.002386      0.021853
      0.00000      6.35036      9.61679         0.000835      0.002730      0.046902
      6.35036      6.35036      7.50000        -0.000003     -0.000783     -0.391926
      0.00000      4.23357      7.50000        -0.001432      0.000319     -0.392367
      6.37049      4.23984     13.90266        -0.277251     -0.083016     -0.044543
      8.46523      6.35053     13.89438         0.124883      0.112780     -0.104772
      6.35130      6.34629     11.74137        -0.022784      0.118308     -0.038633
      8.46153      4.23412     11.74347         0.139855     -0.006455     -0.054700
    total drift:                               -0.003265     -0.000623      0.016397

  FREE ENERGIE OF THE ION-ELECTRON SYSTEM (eV)
  free  energy   TOTEN  =      -438.15105689 eV

  energy  without entropy=     -438.15105689  energy(sigma->0) =     -438.15105689