 vasp.6.4.1 05Apr23 (build Sep 19 2024 10:44:22) complex

 executed on             LinuxIFC date 2024.10.20  04:45:28

 INCAR:
   SYSTEM = TiO2
   ISMEAR = 0
   SIGMA = 0.05
   EDIFF = 1E-7
   ALGO = ALL
   ISTART = 0
   IBRION = 2
   NSW = 1000
   ISYM = 0
   ISIF = 2
   EDIFFG = -0.01
   DIPOL = 0.5 0.5 0.5
   IDIPOL = 3
   LDIPOL = .TRUE.
   METAGGA = R2SCAN
   LUSE_VDW = .TRUE.
   BPARAM = 11.95
   CPARAM = 0.0093
   LASPH = .TRUE.
   ENCUT = 600
   PREC = Accurate
   LASPH = .TRUE.
   LREAL = .FALSE.
   ISPIN = 1
   NELM = 200
   NELMIN = 8
   NCORE = 8
   KPAR = 1
   LWAVE = .FALSE.
   LCHARG = .FALSE.

 POTCAR:    PAW_PBE N 08Apr2002
 POTCAR:    PAW_PBE H 15Jun2001
 POTCAR:    PAW_PBE Ti_pv 07Sep2000
 POTCAR:    PAW_PBE O 08Apr2002
|           W    W    AA    RRRRR   N    N  II  N    N   GGGG   !!!           |
|           W    W   A  A   R    R  NN   N  II  NN   N  G    G  !!!           |
|           W    W  A    A  R    R  N N  N  II  N N  N  G       !!!           |
|           W WW W  AAAAAA  RRRRR   N  N N  II  N  N N  G  GGG   !            |
|           WW  WW  A    A  R   R   N   NN  II  N   NN  G    G                |
|           W    W  A    A  R    R  N    N  II  N    N   GGGG   !!!           |
|     For optimal performance we recommend to set                             |
|       NCORE = 2 up to number-of-cores-per-socket                            |
|     This setting can greatly improve the performance of VASP for DFT.       |
|     The default, NCORE=1 might be grossly inefficient on modern             |
|     multi-core architectures or massively parallel machines. Do your        |
|     Unfortunately you need to use the default for GW and RPA                |
|     calculations (for HF NCORE is supported but not extensively tested      |
|     yet).                                                                   |

   TITEL  = PAW_PBE N 08Apr2002
   POMASS =   14.001; ZVAL   =    5.000    mass and valenz
   ENMAX  =  400.000; ENMIN  =  300.000 eV

   TITEL  = PAW_PBE H 15Jun2001
   POMASS =    1.000; ZVAL   =    1.000    mass and valenz
   ENMAX  =  250.000; ENMIN  =  200.000 eV

   TITEL  = PAW_PBE Ti_pv 07Sep2000
   POMASS =   47.880; ZVAL   =   10.000    mass and valenz
   ENMAX  =  222.335; ENMIN  =  166.751 eV

   TITEL  = PAW_PBE O 08Apr2002
   POMASS =   16.000; ZVAL   =    6.000    mass and valenz
   ENMAX  =  400.000; ENMIN  =  300.000 eV

  PAW_PBE N 08Apr2002                   :
  PAW_PBE H 15Jun2001                   :
  PAW_PBE Ti_pv 07Sep2000               :
  PAW_PBE O 08Apr2002                   :

 POSCAR:  N  H Ti  O
  positions in direct lattice

 METAGGA = R2SCAN                                      LMAXTAU =  6    LMIXTAU =  F

 ion  position               nearest neighbor table
   1  0.610  0.500  0.772-   2 1.02   4 1.02   3 1.02  52 2.30
   2  0.547  0.500  0.801-   1 1.02
   3  0.669  0.428  0.775-   1 1.02
   4  0.669  0.572  0.775-   1 1.02
   5  0.807  0.833  0.295-  89 1.93  57 1.93  55 1.93  54 1.99  56 1.99   8 3.04  22 3.04   6 3.04

   6  0.591  0.667  0.327-  53 1.93 120 1.93  56 1.93  58 1.93  57 1.99  59 1.99   7 3.04  37 3.04
                             5 3.04  11 3.07
   7  0.307  0.667  0.295- 125 1.93  61 1.93  59 1.93  53 1.99  60 1.99   6 3.04  40 3.04   8 3.04

   8  0.091  0.833  0.327-  92 1.93  54 1.93  60 1.93  62 1.93  61 1.99  55 1.99  23 3.04   7 3.04
                             5 3.04   9 3.07
   9  0.944  0.833  0.422-  63 1.93  97 1.93  65 1.93  55 1.97  64 1.98  62 1.99  12 3.00  26 3.05
                            10 3.05   8 3.07
  10  0.726  0.667  0.452-  58 1.90  64 1.94 128 1.94  66 1.96  67 1.97  65 1.99  11 3.00   9 3.05
                            41 3.05  15 3.09
  11  0.444  0.667  0.422-  67 1.93 133 1.93  69 1.93  59 1.97  68 1.98  58 1.99  10 3.00  44 3.05
                            12 3.05   6 3.07
  12  0.226  0.833  0.452-  62 1.90  68 1.94 100 1.94  70 1.96  63 1.97  69 1.99   9 3.00  11 3.05
                            27 3.05  13 3.09
  13  0.085  0.833  0.550-  71 1.93 105 1.93  73 1.93  72 1.98  63 1.99  70 1.99  16 2.96  14 3.04
                            30 3.04  12 3.09
  14  0.864  0.667  0.576-  66 1.87  72 1.94 136 1.94  75 1.95  74 1.99  73 2.01  15 2.96  13 3.04
                            45 3.04
  15  0.585  0.667  0.550-  75 1.93  77 1.93 141 1.93  76 1.98  67 1.99  66 1.99  14 2.96  48 3.04
                            16 3.04  10 3.09
  16  0.364  0.833  0.576-  70 1.87 108 1.94  76 1.94  71 1.95  78 1.99  77 2.01  13 2.96  31 3.04
                            15 3.04
  17  0.232  0.833  0.679-  79 1.86 113 1.93  81 1.93  80 1.99  78 2.08  71 2.08  20 2.84  34 3.07
                            18 3.07
  18  0.004  0.667  0.700-  74 1.79  82 1.82 144 1.97  80 1.97  81 2.04  19 2.84  49 3.07  17 3.07

[...]

  21  0.807  0.167  0.295-  89 1.93 121 1.93  87 1.93  86 1.99  88 1.99  24 3.04  22 3.04  38 3.04

[...]

  37  0.807  0.500  0.295-  57 1.93 121 1.93 119 1.93 118 1.99 120 1.99  40 3.04   6 3.04  38 3.04

  38  0.591  0.333  0.327- 117 1.93 120 1.93  88 1.93 122 1.93 121 1.99 123 1.99  39 3.04  37 3.04
                            21 3.04  43 3.07
  39  0.307  0.333  0.295- 125 1.93  93 1.93 123 1.93 117 1.99 124 1.99  38 3.04  40 3.04  24 3.04

  40  0.091  0.500  0.327-  60 1.93 124 1.93 118 1.93 126 1.93 125 1.99 119 1.99   7 3.04  39 3.04
                            37 3.04  41 3.07
  41  0.944  0.500  0.422- 127 1.93 129 1.93  65 1.93 119 1.97 128 1.98 126 1.99  44 3.00  42 3.05
                            10 3.05  40 3.07
  42  0.726  0.333  0.452- 122 1.90  96 1.94 128 1.94 130 1.96 131 1.97 129 1.99  43 3.00  25 3.05
                            41 3.05  47 3.09
  43  0.444  0.333  0.422- 131 1.93 133 1.93 101 1.93 123 1.97 132 1.98 122 1.99  42 3.00  28 3.05
                            44 3.05  38 3.07
  44  0.226  0.500  0.452- 126 1.90  68 1.94 132 1.94 134 1.96 127 1.97 133 1.99  41 3.00  11 3.05
                            43 3.05  45 3.09
  45  0.085  0.500  0.550- 135 1.93  73 1.93 137 1.93 136 1.98 127 1.99 134 1.99  48 2.96  14 3.04
                            46 3.04  44 3.09
  46  0.864  0.333  0.576- 130 1.87 104 1.94 136 1.94 139 1.95 138 1.99 137 2.01  47 2.96  29 3.04
                            45 3.04
  47  0.585  0.333  0.550- 139 1.93 141 1.93 109 1.93 140 1.98 131 1.99 130 1.99  46 2.96  48 3.04
                            32 3.04  42 3.09
  48  0.364  0.500  0.576- 134 1.87  76 1.94 140 1.94 135 1.95 142 1.99 141 2.01  45 2.96  47 3.04
                            15 3.04
  49  0.232  0.500  0.679- 143 1.86  81 1.93 145 1.93 144 1.99 142 2.08 135 2.08  52 2.84  18 3.07
                            50 3.07
  50  0.004  0.333  0.700- 138 1.79 146 1.82 144 1.97 112 1.97 145 2.04  51 2.84  49 3.07  33 3.07

  51  0.732  0.333  0.679- 146 1.86 116 1.93 148 1.93 147 1.99 138 2.08 139 2.08  50 2.84  36 3.07
                            52 3.07
  52  0.504  0.500  0.700- 142 1.79 143 1.82  83 1.97 147 1.97 148 2.04   1 2.30  49 2.84  51 3.07
                            19 3.07
  53  0.487  0.667  0.269-   6 1.93   7 1.99
  54  0.987  0.833  0.269-   8 1.93   5 1.99
  55  0.911  0.833  0.353-   5 1.93   9 1.97   8 1.99
  56  0.627  0.833  0.321-  22 1.93   6 1.93   5 1.99
  57  0.771  0.667  0.300-  37 1.93   5 1.93   6 1.99
  58  0.623  0.667  0.395-  10 1.90   6 1.93  11 1.99
  59  0.411  0.667  0.353-   7 1.93  11 1.97   6 1.99
  60  0.127  0.667  0.321-  40 1.93   8 1.93   7 1.99
  61  0.271  0.833  0.300-  23 1.93   7 1.93   8 1.99
  62  0.123  0.833  0.395-  12 1.90   8 1.93   9 1.99
  63  0.049  0.833  0.480-   9 1.93  12 1.97  13 1.99
  64  0.764  0.833  0.448-  10 1.94  26 1.94   9 1.98
  65  0.908  0.667  0.427-  41 1.93   9 1.93  10 1.99
  66  0.763  0.667  0.521-  14 1.87  10 1.96  15 1.99
  67  0.549  0.667  0.480-  11 1.93  10 1.97  15 1.99
  68  0.264  0.667  0.448-  44 1.94  12 1.94  11 1.98
  69  0.408  0.833  0.427-  27 1.93  11 1.93  12 1.99
  70  0.263  0.833  0.521-  16 1.87  12 1.96  13 1.99
  71  0.193  0.833  0.606-  13 1.93  16 1.95  17 2.08
  72  0.904  0.833  0.573-  30 1.94  14 1.94  13 1.98
  73  0.049  0.667  0.553-  45 1.93  13 1.93  14 2.01
  74  0.912  0.667  0.645-  18 1.79  14 1.99  19 2.08
  75  0.693  0.667  0.606-  15 1.93  14 1.95  19 2.08
  76  0.404  0.667  0.573-  48 1.94  16 1.94  15 1.98
  77  0.549  0.833  0.553-  31 1.93  15 1.93  16 2.01
  78  0.412  0.833  0.645-  20 1.79  16 1.99  17 2.08
  79  0.347  0.833  0.731-  20 1.82  17 1.86
  80  0.054  0.833  0.708-  34 1.97  18 1.97  17 1.99
  81  0.195  0.667  0.680-  49 1.93  17 1.93  18 2.04
  82  0.847  0.667  0.731-  18 1.82  19 1.86
  83  0.554  0.667  0.708-  52 1.97  20 1.97  19 1.99
  84  0.695  0.833  0.680-  35 1.93  19 1.93  20 2.04
  85  0.487  0.000  0.269-  22 1.93  23 1.99
  86  0.987  0.167  0.269-  24 1.93  21 1.99
  87  0.911  0.167  0.353-  21 1.93  25 1.97  24 1.99
  88  0.627  0.167  0.321-  22 1.93  38 1.93  21 1.99
  89  0.771  0.000  0.300-   5 1.93  21 1.93  22 1.99
  90  0.623  0.000  0.395-  26 1.90  22 1.93  27 1.99
  91  0.411  0.000  0.353-  23 1.93  27 1.97  22 1.99
  92  0.127  0.000  0.321-   8 1.93  24 1.93  23 1.99
  93  0.271  0.167  0.300-  23 1.93  39 1.93  24 1.99
  94  0.123  0.167  0.395-  28 1.90  24 1.93  25 1.99
  95  0.049  0.167  0.480-  25 1.93  28 1.97  29 1.99
  96  0.764  0.167  0.448-  42 1.94  26 1.94  25 1.98
  97  0.908  0.000  0.427-  25 1.93   9 1.93  26 1.99
  98  0.763  1.000  0.521-  30 1.87  26 1.96  31 1.99
  99  0.549  0.000  0.480-  27 1.93  26 1.97  31 1.99
 100  0.264  0.000  0.448-  28 1.94  12 1.94  27 1.98
 101  0.408  0.167  0.427-  27 1.93  43 1.93  28 1.99
 102  0.263  0.167  0.521-  32 1.87  28 1.96  29 1.99
 103  0.193  0.167  0.606-  29 1.93  32 1.95  33 2.08
 104  0.904  0.167  0.573-  46 1.94  30 1.94  29 1.98
 105  0.049  1.000  0.553-  13 1.93  29 1.93  30 2.01
 106  0.912  0.000  0.645-  34 1.79  30 1.99  35 2.08
 107  0.693  0.000  0.606-  31 1.93  30 1.95  35 2.08
 108  0.404  0.000  0.573-  32 1.94  16 1.94  31 1.98
 109  0.549  0.167  0.553-  47 1.93  31 1.93  32 2.01
 110  0.412  0.167  0.645-  36 1.79  32 1.99  33 2.08
 111  0.347  0.167  0.731-  36 1.82  33 1.86
 112  0.054  0.167  0.708-  50 1.97  34 1.97  33 1.99
[...]
 134  0.263  0.500  0.521-  48 1.87  44 1.96  45 1.99
 135  0.193  0.500  0.606-  45 1.93  48 1.95  49 2.08
 136  0.904  0.500  0.573-  46 1.94  14 1.94  45 1.98
 137  0.049  0.333  0.553-  45 1.93  29 1.93  46 2.01
 138  0.912  0.333  0.645-  50 1.79  46 1.99  51 2.08
 139  0.693  0.333  0.606-  47 1.93  46 1.95  51 2.08
 140  0.404  0.333  0.573-  48 1.94  32 1.94  47 1.98
 141  0.549  0.500  0.553-  47 1.93  15 1.93  48 2.01
 142  0.412  0.500  0.645-  52 1.79  48 1.99  49 2.08
 143  0.347  0.500  0.731-  52 1.82  49 1.86
 144  0.054  0.500  0.708-  18 1.97  50 1.97  49 1.99
 145  0.195  0.333  0.680-  49 1.93  33 1.93  50 2.04
 146  0.847  0.333  0.731-  50 1.82  51 1.86
 147  0.554  0.333  0.708-  52 1.97  36 1.97  51 1.99
 148  0.695  0.500  0.680-  51 1.93  19 1.93  52 2.04

IMPORTANT INFORMATION: All symmetrisations will be switched off!
NOSYMM: (Re-)initialisation of all symmetry stuff for point group C_1.

[...]
   4.21912029  7.57047339  9.84497449
   1.30596721  7.57047339  8.96548189
[...]
   2.69600234  5.67785502 14.52429639
   1.98020428  5.67785508 16.91741867
   9.26838656  5.67785484 15.99425828
   0.50744176  3.78523701 15.43179882
   9.35743417  3.78523680 18.00779376
   7.10795845  3.78523669 16.91741974
   4.14063303  3.78523690 15.99425777
   5.63519624  5.67785482 15.43179909
   4.22968203  5.67785494 18.00779528
   3.56058124  5.67785522 20.38921807
   0.55082401  5.67785508 19.74018771
   2.00039109  3.78523683 18.97109465
   8.68833297  3.78523666 20.38921916
   5.67857817  3.78523695 19.74018743
   7.12814555  5.67785483 18.97109532

--------------------------------------- Iteration      FINAL  ---------------------------------------

--------------------OUTCAR has been truncated-------------------------

[...]

--------------------OUTCAR has been truncated-------------------------

  FORCE on cell =-STRESS in cart. coord.  units (eV):
  Direction    XX          YY          ZZ          XY          YZ          ZX
  Alpha Z  2451.71336  2451.71336  2451.71336
  Ewald  489743.03124482965.55385************    -0.00024     0.00001 -1992.88119
  Hartree510869.76764506801.14255************    -0.00013    -0.00001 -1296.14699
  E(xc)   -5509.75779 -5509.58047 -5507.65168    -0.00000     0.00000    -1.03637
  Local  ************************************     0.00036     0.00000  3285.59764
  n-local -3133.39960 -3107.55859 -3151.72765     0.00000    -0.00000     1.88023
  augment  3306.63741  3303.47801  3298.95936    -0.00000     0.00000    -1.72169
  Kinetic 17174.22559 17243.57289 17302.69092    -0.00000    -0.00000    -5.22746
  Fock        0.00000     0.00000     0.00000     0.00000     0.00000     0.00000
  Total     -48.33039   -19.11253   -15.48630    -0.00001    -0.00000    -9.53583
  in kB     -23.83266    -9.42476    -7.63660    -0.00000    -0.00000    -4.70231

 VOLUME and BASIS-vectors are now :
  energy-cutoff  :      600.00
  volume of cell :     3249.06
      direct lattice vectors                 reciprocal lattice vectors
    10.255507753  0.000000000  0.000000000     0.097508580 -0.000000000  0.000000000
     0.000000000 11.355710084  0.000000000     0.000000000  0.088061424  0.000000000
     0.000000000  0.000000000 27.898885647     0.000000000  0.000000000  0.035843726

  length of vectors
    10.255507753 11.355710084 27.898885647     0.097508580  0.088061424  0.035843726

 FORCES acting on ions:
    Electron-Ion                     Ewald-Force                    Non-Local-Force
   -.164E+02 0.530E-05 -.177E+04   0.678E+01 0.288E-05 0.175E+04   0.966E+01 0.356E-05 0.180E+02
   0.429E+02 -.697E-05 -.375E+03   -.478E+02 0.743E-05 0.381E+03   0.490E+01 -.119E-05 -.574E+01
   -.424E+02 0.552E+02 -.358E+03   0.469E+02 -.612E+02 0.358E+03   -.450E+01 0.606E+01 -.342E+00
   -.424E+02 -.552E+02 -.358E+03   0.469E+02 0.612E+02 0.358E+03   -.450E+01 -.606E+01 -.342E+00
   0.654E+01 0.408E-02 0.339E+04   -.133E+01 -.561E-02 -.338E+04   -.114E+01 0.234E-03 -.349E+01
   0.417E+01 -.945E-01 0.278E+04   -.582E+01 0.948E-01 -.279E+04   -.884E-01 -.729E-03 -.751E-01
   0.657E+01 0.163E+00 0.339E+04   -.139E+01 -.170E+00 -.338E+04   -.114E+01 0.179E-02 -.348E+01
   0.305E+01 0.132E+00 0.278E+04   -.474E+01 -.141E+00 -.279E+04   -.815E-01 0.186E-02 -.787E-01
   -.301E-02 0.160E+00 0.127E+04   -.138E+00 -.157E+00 -.127E+04   0.139E+00 -.144E-02 -.108E-01
   0.127E+01 -.147E+01 0.804E+03   -.124E+01 0.146E+01 -.804E+03   -.257E-01 0.212E-01 -.108E+00
   0.153E+01 -.186E+00 0.127E+04   -.167E+01 0.177E+00 -.127E+04   0.136E+00 0.108E-01 -.256E-01
   -.333E+01 0.278E+00 0.798E+03   0.334E+01 -.283E+00 -.798E+03   -.367E-02 0.236E-02 -.115E+00
   -.574E+01 -.230E+01 -.781E+03   0.548E+01 0.229E+01 0.781E+03   0.258E+00 0.796E-02 0.120E+00
   -.764E+01 -.416E+01 -.118E+04   0.770E+01 0.417E+01 0.118E+04   -.463E-01 -.485E-02 -.182E+00
   0.728E+00 -.166E+01 -.757E+03   -.956E+00 0.166E+01 0.757E+03   0.233E+00 0.769E-02 0.910E-01
   0.264E+01 -.894E+00 -.120E+04   -.257E+01 0.914E+00 0.120E+04   -.548E-01 -.173E-01 -.243E+00
   0.286E+02 -.107E+02 -.280E+04   -.296E+02 0.107E+02 0.280E+04   0.917E+00 0.873E-02 -.118E+00
   -.839E+02 -.216E+02 -.319E+04   0.839E+02 0.214E+02 0.319E+04   0.962E-01 0.135E+00 0.921E+00
   -.939E+01 -.399E+02 -.272E+04   0.852E+01 0.399E+02 0.272E+04   0.857E+00 -.198E-01 0.538E-02
   -.580E+02 -.340E+02 -.318E+04   0.580E+02 0.339E+02 0.318E+04   0.144E+00 0.503E-01 0.916E+00
   0.654E+01 -.408E-02 0.339E+04   -.133E+01 0.561E-02 -.338E+04   -.114E+01 -.235E-03 -.349E+01
   0.415E+01 -.391E-05 0.278E+04   -.582E+01 0.493E-05 -.279E+04   -.835E-01 -.640E-07 -.793E-01
   0.646E+01 -.465E-05 0.339E+04   -.125E+01 0.604E-05 -.338E+04   -.114E+01 -.368E-07 -.349E+01
   0.305E+01 -.132E+00 0.278E+04   -.474E+01 0.141E+00 -.279E+04   -.815E-01 -.186E-02 -.787E-01
   -.301E-02 -.160E+00 0.127E+04   -.138E+00 0.157E+00 -.127E+04   0.139E+00 0.144E-02 -.108E-01
   -.831E+00 -.108E-04 0.801E+03   0.838E+00 0.108E-04 -.801E+03   0.326E-02 -.170E-07 -.115E+00
   0.148E+01 -.140E-05 0.127E+04   -.162E+01 0.261E-05 -.127E+04   0.133E+00 0.133E-07 -.223E-01
   -.333E+01 -.278E+00 0.798E+03   0.334E+01 0.283E+00 -.798E+03   -.367E-02 -.236E-02 -.115E+00
   -.574E+01 0.230E+01 -.781E+03   0.548E+01 -.229E+01 0.781E+03   0.258E+00 -.796E-02 0.120E+00
   -.623E+01 -.305E-05 -.120E+04   0.628E+01 0.393E-05 0.120E+04   -.283E-01 -.987E-08 -.193E+00
   -.400E+01 -.298E-04 -.773E+03   0.374E+01 0.266E-04 0.773E+03   0.268E+00 -.115E-06 0.158E+00
   0.264E+01 0.894E+00 -.120E+04   -.257E+01 -.914E+00 0.120E+04   -.548E-01 0.173E-01 -.243E+00
   0.286E+02 0.107E+02 -.280E+04   -.296E+02 -.107E+02 0.280E+04   0.917E+00 -.873E-02 -.118E+00
   -.733E+02 -.457E-04 -.321E+04   0.734E+02 0.481E-04 0.321E+04   0.758E-01 0.432E-06 0.931E+00
   0.123E+02 0.253E-04 -.279E+04   -.131E+02 -.287E-04 0.279E+04   0.860E+00 0.142E-06 -.839E-01
   -.580E+02 0.340E+02 -.318E+04   0.580E+02 -.339E+02 0.318E+04   0.144E+00 -.503E-01 0.916E+00
   0.653E+01 0.346E-05 0.339E+04   -.129E+01 -.357E-05 -.338E+04   -.114E+01 0.764E-07 -.348E+01
   0.417E+01 0.945E-01 0.278E+04   -.582E+01 -.948E-01 -.279E+04   -.884E-01 0.730E-03 -.751E-01
   0.657E+01 -.163E+00 0.339E+04   -.139E+01 0.170E+00 -.338E+04   -.114E+01 -.179E-02 -.348E+01
   0.224E+01 0.591E-05 0.278E+04   -.389E+01 -.701E-05 -.279E+04   -.947E-01 0.320E-07 -.807E-01
   0.145E+01 0.119E-04 0.127E+04   -.156E+01 -.134E-04 -.127E+04   0.116E+00 0.364E-06 0.224E-01
   0.127E+01 0.147E+01 0.804E+03   -.124E+01 -.146E+01 -.804E+03   -.257E-01 -.212E-01 -.108E+00
   0.153E+01 0.186E+00 0.127E+04   -.167E+01 -.177E+00 -.127E+04   0.136E+00 -.108E-01 -.256E-01
   -.640E+01 0.291E-04 0.781E+03   0.642E+01 -.310E-04 -.781E+03   -.172E-01 0.415E-06 -.412E-01
   -.280E+01 0.882E-05 -.783E+03   0.262E+01 -.115E-04 0.783E+03   0.178E+00 0.113E-06 0.126E+00
   -.764E+01 0.416E+01 -.118E+04   0.770E+01 -.417E+01 0.118E+04   -.463E-01 0.485E-02 -.182E+00
   0.728E+00 0.166E+01 -.757E+03   -.956E+00 -.166E+01 0.757E+03   0.233E+00 -.769E-02 0.910E-01
   0.165E+01 0.618E-06 -.124E+04   -.158E+01 0.347E-05 0.124E+04   -.587E-01 0.562E-07 -.179E+00
   0.468E+02 0.438E-04 -.280E+04   -.474E+02 -.448E-04 0.280E+04   0.603E+00 0.111E-06 -.179E-01
   -.839E+02 0.216E+02 -.319E+04   0.839E+02 -.214E+02 0.319E+04   0.962E-01 -.135E+00 0.921E+00
   -.939E+01 0.399E+02 -.272E+04   0.852E+01 -.399E+02 0.272E+04   0.857E+00 0.198E-01 0.539E-02
   0.179E+02 0.251E-04 -.314E+04   -.174E+02 -.238E-04 0.314E+04   -.454E+00 -.233E-06 -.331E+00
   -.332E+02 -.125E-01 0.229E+04   0.384E+02 0.118E-01 -.230E+04   -.702E+01 0.102E-02 0.179E+02
   -.335E+02 -.730E-02 0.229E+04   0.386E+02 0.470E-02 -.230E+04   -.702E+01 0.339E-02 0.178E+02
   0.833E+02 0.120E+00 0.139E+04   -.883E+02 -.120E+00 -.139E+04   0.389E+01 -.171E-02 -.437E+01
   0.758E+02 0.139E-01 0.169E+04   -.830E+02 -.134E-01 -.169E+04   0.757E+01 -.636E-03 -.275E+01
   -.875E+02 -.246E-01 0.195E+04   0.949E+02 0.215E-01 -.195E+04   -.710E+01 0.642E-02 -.331E+00
   -.728E+02 -.721E+00 0.106E+04   0.787E+02 0.771E+00 -.107E+04   -.598E+01 -.468E-01 0.423E+01
   0.840E+02 0.953E-01 0.139E+04   -.889E+02 -.757E-01 -.139E+04   0.388E+01 -.212E-01 -.425E+01
   0.751E+02 0.149E+00 0.169E+04   -.823E+02 -.161E+00 -.169E+04   0.759E+01 0.261E-01 -.278E+01
[...]
   0.891E+02 0.192E-04 -.108E+04   -.962E+02 -.196E-04 0.109E+04   0.708E+01 0.655E-06 -.741E+01
   0.725E+02 0.603E-04 -.716E+03   -.787E+02 -.643E-04 0.719E+03   0.615E+01 0.227E-05 -.298E+01
   -.839E+02 0.324E+00 -.461E+03   0.905E+02 -.296E+00 0.458E+03   -.654E+01 -.255E-01 0.281E+01
   -.701E+02 0.100E+02 -.129E+04   0.726E+02 -.104E+02 0.128E+04   -.245E+01 0.349E+00 0.952E+01
   0.830E+02 0.931E+01 -.105E+04   -.896E+02 -.965E+01 0.105E+04   0.658E+01 0.348E+00 -.571E+01
   0.822E+02 0.176E+00 -.728E+03   -.889E+02 -.150E+00 0.731E+03   0.664E+01 -.239E-01 -.309E+01
   -.752E+02 0.348E-05 -.466E+03   0.814E+02 -.175E-05 0.464E+03   -.620E+01 -.144E-05 0.236E+01
   -.647E+02 0.119E-04 -.132E+04   0.707E+02 -.130E-04 0.131E+04   -.603E+01 0.173E-05 0.567E+01
   0.108E+03 0.242E-04 -.228E+04   -.114E+03 -.258E-04 0.230E+04   0.602E+01 0.181E-05 -.210E+02
   0.477E+02 0.754E-05 -.202E+04   -.516E+02 -.833E-05 0.202E+04   0.381E+01 -.709E-06 -.740E+01
   -.537E+02 0.663E+01 -.167E+04   0.589E+02 -.645E+01 0.167E+04   -.518E+01 -.185E+00 0.287E+01
   0.120E+02 0.305E+02 -.227E+04   -.175E+02 -.303E+02 0.229E+04   0.556E+01 -.197E+00 -.202E+02
   0.805E+02 0.460E+02 -.196E+04   -.857E+02 -.455E+02 0.196E+04   0.522E+01 -.471E+00 -.642E+01
   -.715E+02 0.663E-05 -.157E+04   0.760E+02 -.396E-05 0.157E+04   -.452E+01 -.344E-05 0.440E+01
   -.129E+02 -.744E-05 0.570E+02   0.796E-12 0.325E-11 -.164E-10   0.129E+02 0.105E-04 -.572E+02

 POSITION                                       TOTAL-FORCE (eV/Angst)
      6.27063      5.67785     21.67278        -0.007345      0.000012      0.006263
      5.62853      5.67786     22.46000         0.006254     -0.000001     -0.002426
      6.87629      4.86160     21.74250        -0.001721      0.000270      0.002795
      6.87629      6.49411     21.74250        -0.001729     -0.000280      0.002793
      8.27879      9.46309      8.23274         4.050291     -0.001295      1.743495
      6.06419      7.57047      9.11223        -1.720484     -0.000420     -1.990510
      3.15104      7.57047      8.23274         4.021823     -0.005546      1.730444
      0.93644      9.46309      9.11223        -1.749262     -0.007557     -1.993316
      9.68698      9.46339     11.78423         0.000509      0.001961      0.000551
      7.45230      7.56633     12.59361        -0.003224      0.002305     -0.001376
      4.55453      7.56766     11.78114        -0.000453      0.000633      0.000636
      2.31774      9.46263     12.60136        -0.001207     -0.002397     -0.001636
      0.87801      9.46428     15.33533        -0.002924     -0.000753      0.000463
      8.87709      7.56496     16.05601         0.002533      0.002424      0.001823
      5.99454      7.56740     15.31720         0.003947      0.000615     -0.000869
      3.73913      9.46320     16.07729        -0.005377      0.003989      0.002951
      2.37664      9.45642     18.95514        -0.005692      0.003705     -0.000355
      0.02242      7.55925     19.51688        -0.000349      0.001639     -0.001771
      7.49008      7.56873     18.88820         0.000667      0.004983     -0.000809
      5.17032      9.47783     19.50858         0.007703      0.003062      0.001186
      8.27879      1.89262      8.23274         4.050291      0.001295      1.743494
      6.06419      0.00000      9.11223        -1.737192      0.000001     -1.993373
      3.15104      0.00000      8.23274         4.041319      0.000001      1.738249
      0.93644      1.89262      9.11223        -1.749261      0.007558     -1.993313
      9.68698      1.89232     11.78423         0.000508     -0.001960      0.000548
      7.44866      0.00000     12.59555         0.003595      0.000000      0.007170
      4.55685      0.00000     11.78392        -0.001709      0.000001     -0.001277
      2.31774      1.89309     12.60136        -0.001204      0.002396     -0.001632
      0.87801      1.89143     15.33533        -0.002927      0.000754      0.000450
      8.86675      0.00000     16.06866        -0.003902      0.000001     -0.000939
      6.00072      0.00000     15.32596         0.006561     -0.000003      0.001079
      3.73913      1.89251     16.07729        -0.005373     -0.003987      0.002957
      2.37664      1.89929     18.95514        -0.005693     -0.003706     -0.000356
      0.04311     -0.00000     19.51882        -0.004832      0.000003     -0.003104
      7.52005      0.00000     18.93990         0.001512     -0.000003     -0.007693
      5.17032      1.87788     19.50858         0.007697     -0.003065      0.001186
      8.27879      5.67786      8.23274         4.066441     -0.000000      1.743917
      6.06419      3.78524      9.11223        -1.720486      0.000419     -1.990509
      3.15104      3.78524      8.23274         4.021824      0.005544      1.730446
      0.93644      5.67786      9.11223        -1.724515     -0.000001     -1.915594
      9.70058      5.67786     11.78073         0.004651     -0.000001     -0.003965
      7.45230      3.78938     12.59361        -0.003224     -0.002306     -0.001377
      4.55453      3.78805     11.78114        -0.000457     -0.000634      0.000639
      2.32059      5.67786     12.63058        -0.001814     -0.000001     -0.001153
      0.90635      5.67785     15.34280        -0.001276     -0.000003     -0.000163
      8.87709      3.79075     16.05601         0.002536     -0.002422      0.001821
      5.99454      3.78831     15.31720         0.003948     -0.000610     -0.000865
      3.75624      5.67786     16.16506        -0.000381      0.000004     -0.001594
      2.41297      5.67786     18.97500         0.004943     -0.000001      0.004915
      0.02242      3.79646     19.51688        -0.000345     -0.001639     -0.001770
      7.49008      3.78698     18.88820         0.000671     -0.004979     -0.000802
      5.20391      5.67786     19.67865        -0.006209      0.000001      0.001631
      4.99611      7.57047      7.50000        -1.901082      0.000373      1.163484
     10.12387      9.46309      7.50000        -1.898356      0.000784      1.159507
      9.34687      9.46309      9.84497        -1.022115     -0.001722     -0.176908
      6.43372      9.46309      8.96548         0.387968     -0.000184     -0.070912
      7.90927      7.57047      8.37949         0.260381      0.003404     -1.111362
      6.39322      7.57047     11.01797        -0.073905      0.003083      0.393368
      4.21912      7.57047      9.84497        -1.027254     -0.001576     -0.166570
      1.30597      7.57047      8.96548         0.399062      0.014327     -0.080202
[...]
      2.70860      5.67786     14.54969         0.002734     -0.000000      0.006333
      1.97322      5.67786     16.93805         0.003384      0.000000      0.002076
      9.27248      5.67786     15.98396        -0.003093     -0.000002      0.000398
      0.51514      3.78625     15.42430        -0.000669      0.002553      0.002122
      9.35972      3.78006     17.98650         0.001370      0.001926      0.004254
      7.11549      3.77098     16.89566        -0.001074      0.003689     -0.000991
      4.14673      3.78562     16.01317        -0.000082      0.001723      0.001160
      5.63876      5.67786     15.44870        -0.005407      0.000000      0.000469
      4.22004      5.67786     18.06944         0.002958      0.000001      0.004294
      3.54169      5.67786     20.44658         0.001888      0.000000      0.001312
      0.53655      5.67786     19.74072        -0.007136     -0.000002      0.003216
      1.99502      3.78819     18.99012         0.000680     -0.000271      0.000880
      8.65368      3.82020     20.36563         0.001318     -0.001630      0.004845
      5.67707      3.75635     19.70217        -0.002669      0.003618      0.004145
      7.10361      5.67786     18.90548         0.000982     -0.000001     -0.000474
    total drift:                               -0.001010      0.000003     -0.141908

  FREE ENERGIE OF THE ION-ELECTRON SYSTEM (eV)
  free  energy   TOTEN  =     -1646.35973638 eV

  energy  without entropy=    -1646.35973638  energy(sigma->0) =    -1646.35973638

 d Force = 0.2134339E-04[-0.603E-06, 0.433E-04]  d Energy = 0.1198331E-04 0.936E-05
 d Force = 0.7293647E+01[ 0.729E+01, 0.729E+01]  d Ewald  = 0.7293647E+01-0.530E-08

 reached required accuracy - stopping structural energy minimisation