 vasp.6.3.0 20Jan22 (build Apr  1 2022 16:44:48) complex
 executed on        HPECrayEX_GCC date 2023.01.23  22:16:31

 INCAR:
   SYSTEM = MgO-rocksalt
   ISMEAR = 0
   SIGMA = 0.05
   EDIFF = 1E-8
   ALGO = ALL
   ISTART = 0
   IBRION = 5
   POTIM = 0.01
   NFREE = 2
   ISYM = 0
   DIPOL = 0.5 0.5 0.5
   IDIPOL = 3
   LDIPOL = .TRUE.
   GGA = RE
   AGGAC = 0.0
   LUSE_VDW = .TRUE.
   LASPH = .TRUE.
   ENCUT = 600
   PREC = Accurate
   LASPH = .TRUE.
   LREAL = .FALSE.
   ISPIN = 1
   NELM = 200
   NELMIN = 8
   NCORE = 8
   KPAR = 1
   LWAVE = .FALSE.
   LCHARG = .FALSE.

 POTCAR:    PAW_PBE C 08Apr2002
 POTCAR:    PAW_PBE O 08Apr2002
 POTCAR:    PAW_PBE H 15Jun2001
 POTCAR:    PAW_PBE Mg_pv 13Apr2007
 POTCAR:    PAW_PBE O 08Apr2002
|               ----> ADVICE to this user running VASP <----                  |
|     You have switched on vdW-DFT.                                           |
|     This routine was written and supplied by Jiri Klimes. We recommend      |
|     that you carefully read and cite the following publications:            |
|       J. Klimes, D.R. Bowler, A. Michelides                                 |
|          J. Phys.: Cond Matt. 22 022201 (2010)                              |
|       J. Klimes, D.R. Bowler, A. Michelides                                 |
|          Phys. Rev. B. 83, 195131 (2011)                                    |
|     and references therein.                                                 |

   TITEL  = PAW_PBE C 08Apr2002
   POMASS =   12.011; ZVAL   =    4.000    mass and valenz
   ENMAX  =  400.000; ENMIN  =  300.000 eV

[...]

   TITEL  = PAW_PBE H 15Jun2001
   POMASS =    1.000; ZVAL   =    1.000    mass and valenz
   ENMAX  =  250.000; ENMIN  =  200.000 eV

   TITEL  = PAW_PBE Mg_pv 13Apr2007
   POMASS =   24.305; ZVAL   =    8.000    mass and valenz
   ENMAX  =  403.929; ENMIN  =  302.947 eV

   TITEL  = PAW_PBE O 08Apr2002
   POMASS =   16.000; ZVAL   =    6.000    mass and valenz
   ENMAX  =  400.000; ENMIN  =  300.000 eV

  PAW_PBE C 08Apr2002                   :
  PAW_PBE O 08Apr2002                   :
  PAW_PBE H 15Jun2001                   :
  PAW_PBE Mg_pv 13Apr2007               :
  PAW_PBE O 08Apr2002                   :

 POSCAR:  C  O  H Mg  O
  positions in direct lattice
 exchange correlation table for  LEXCH =       40
   RHO(1)=    0.500       N(1)  =     2000
   RHO(2)=  100.500       N(2)  =     4000

 ion  position               nearest neighbor table
   1  0.500  0.894  0.812-   3 1.09   6 1.10   5 1.10   2 1.44
   2  0.500  0.739  0.785-   4 0.99   1 1.44
   3  0.500  0.880  0.862-   1 1.09
   4  0.500  0.750  0.739-   2 0.99
   5  0.605  0.961  0.798-   1 1.10
   6  0.395  0.961  0.798-   1 1.10
   7  0.000  0.750  0.350-  39 2.14  41 2.14  42 2.14  49 2.14  58 2.14
   8  0.250  0.000  0.350-  40 2.14  41 2.14  42 2.14  50 2.14  57 2.14
   9  0.000  0.000  0.450-  41 2.14  40 2.14  39 2.14  47 2.14  56 2.14  45 2.14
  10  0.250  0.750  0.450-  42 2.14  40 2.14  39 2.14  48 2.14  55 2.14  46 2.14
  11  0.000  0.750  0.550-  53 2.14  45 2.14  46 2.14  62 2.14  39 2.15  43 2.16
  12  0.250  1.000  0.550-  45 2.13  46 2.14  54 2.14  61 2.14  40 2.15  44 2.16
  13  0.000  0.000  0.650-  45 2.13  51 2.13  44 2.14  60 2.14  43 2.14
  14  0.248  0.750  0.650-  43 2.12  46 2.13  52 2.13  44 2.14  59 2.16
  15  0.000  0.250  0.350-  47 2.14  41 2.14  49 2.14  50 2.14  66 2.14
  16  0.250  0.500  0.350-  48 2.14  42 2.14  49 2.14  50 2.14  65 2.14
  17  0.000  0.500  0.450-  49 2.14  47 2.14  48 2.14  39 2.14  64 2.14  53 2.14
  18  0.250  0.250  0.450-  50 2.14  47 2.14  48 2.14  40 2.14  63 2.14  54 2.14
  19  0.000  0.250  0.550-  53 2.14  54 2.14  70 2.14  45 2.14  47 2.15  51 2.16
  20  0.250  0.500  0.550-  53 2.14  69 2.14  46 2.14  54 2.14  48 2.15  52 2.15
  21  0.000  0.500  0.650-  51 2.13  53 2.14  68 2.14  52 2.14  43 2.14
  22  0.250  0.250  0.650-  51 2.13  54 2.13  52 2.14  44 2.14  67 2.14
  23  0.500  0.750  0.350-  55 2.14  42 2.14  57 2.14  58 2.14  65 2.14
  24  0.750  0.000  0.350-  56 2.14  41 2.14  57 2.14  58 2.14  66 2.14
  25  0.500  0.000  0.450-  57 2.14  55 2.14  56 2.14  40 2.14  63 2.14  61 2.14
  26  0.750  0.750  0.450-  58 2.14  55 2.14  56 2.14  39 2.14  64 2.14  62 2.14
  27  0.500  0.750  0.550-  69 2.13  46 2.13  62 2.13  61 2.13  55 2.15  59 2.19
  28  0.750  1.000  0.550-  45 2.13  62 2.14  70 2.14  61 2.14  56 2.15  60 2.16
  29  0.500  0.003  0.649-  67 2.11  61 2.12  44 2.14  60 2.14  59 2.16
  30  0.752  0.750  0.650-  43 2.12  62 2.13  68 2.13  60 2.14  59 2.16
  31  0.500  0.250  0.350-  63 2.14  57 2.14  50 2.14  65 2.14  66 2.14
  32  0.750  0.500  0.350-  64 2.14  58 2.14  49 2.14  65 2.14  66 2.14
  33  0.500  0.500  0.450-  65 2.14  55 2.14  63 2.14  64 2.14  48 2.14  69 2.14
  34  0.750  0.250  0.450-  66 2.14  56 2.14  63 2.14  64 2.14  47 2.14  70 2.14
  35  0.500  0.250  0.550-  54 2.14  70 2.14  69 2.14  61 2.14  63 2.14  67 2.16
  36  0.750  0.500  0.550-  53 2.14  69 2.14  62 2.14  70 2.14  64 2.15  68 2.15
  37  0.500  0.498  0.650-  67 2.12  69 2.13  52 2.14  68 2.14  59 2.16
  38  0.750  0.250  0.650-  51 2.13  70 2.13  68 2.14  60 2.14  67 2.14
  39  0.000  0.750  0.450-   7 2.14   9 2.14  10 2.14  17 2.14  26 2.14  11 2.15
  40  0.250  0.000  0.450-   8 2.14   9 2.14  10 2.14  18 2.14  25 2.14  12 2.15
  41  0.000  0.000  0.350-   9 2.14   8 2.14   7 2.14  15 2.14  24 2.14
  42  0.250  0.750  0.350-  10 2.14   8 2.14   7 2.14  16 2.14  23 2.14
  43  0.000  0.750  0.651-  30 2.12  14 2.12  13 2.14  21 2.14  11 2.16
  44  0.250  1.000  0.651-  29 2.14  13 2.14  14 2.14  22 2.14  12 2.16
  45  0.000  1.000  0.550-  13 2.13  28 2.13  12 2.13  11 2.14  19 2.14   9 2.14
  46  0.250  0.750  0.550-  14 2.13  27 2.13  12 2.14  20 2.14  11 2.14  10 2.14
  47  0.000  0.250  0.450-  15 2.14   9 2.14  17 2.14  18 2.14  34 2.14  19 2.15
  48  0.250  0.500  0.450-  16 2.14  10 2.14  17 2.14  18 2.14  33 2.14  20 2.15
  49  0.000  0.500  0.350-  17 2.14  15 2.14  16 2.14   7 2.14  32 2.14
  50  0.250  0.250  0.350-  18 2.14  15 2.14  16 2.14   8 2.14  31 2.14
  51  0.000  0.250  0.651-  38 2.13  22 2.13  21 2.13  13 2.13  19 2.16
  52  0.250  0.500  0.651-  14 2.13  22 2.14  37 2.14  21 2.14  20 2.15
  53  0.000  0.500  0.550-  11 2.14  21 2.14  19 2.14  36 2.14  20 2.14  17 2.14
  54  0.250  0.250  0.550-  22 2.13  12 2.14  35 2.14  19 2.14  20 2.14  18 2.14
  55  0.500  0.750  0.450-  23 2.14  10 2.14  25 2.14  26 2.14  33 2.14  27 2.15
  56  0.750  0.000  0.450-  24 2.14   9 2.14  25 2.14  26 2.14  34 2.14  28 2.15
  57  0.500  0.000  0.350-  25 2.14  23 2.14  24 2.14   8 2.14  31 2.14
  58  0.750  0.750  0.350-  26 2.14  23 2.14  24 2.14   7 2.14  32 2.14
  59  0.500  0.751  0.653-  29 2.16  30 2.16  14 2.16  37 2.16  27 2.19
  60  0.750  1.000  0.651-  29 2.14  13 2.14  30 2.14  38 2.14  28 2.16
  61  0.500  1.000  0.550-  29 2.12  27 2.13  28 2.14  12 2.14  25 2.14  35 2.14
  62  0.750  0.750  0.550-  30 2.13  27 2.13  28 2.14  36 2.14  11 2.14  26 2.14
  63  0.500  0.250  0.450-  31 2.14  25 2.14  18 2.14  33 2.14  34 2.14  35 2.14
  64  0.750  0.500  0.450-  32 2.14  26 2.14  17 2.14  33 2.14  34 2.14  36 2.15
  65  0.500  0.500  0.350-  33 2.14  23 2.14  31 2.14  32 2.14  16 2.14
  66  0.750  0.250  0.350-  34 2.14  24 2.14  31 2.14  32 2.14  15 2.14
  67  0.500  0.250  0.651-  29 2.11  37 2.12  38 2.14  22 2.14  35 2.16
  68  0.750  0.500  0.651-  30 2.13  38 2.14  37 2.14  21 2.14  36 2.15
  69  0.500  0.500  0.550-  27 2.13  37 2.13  36 2.14  20 2.14  35 2.14  33 2.14
  70  0.750  0.250  0.550-  38 2.13  28 2.14  35 2.14  19 2.14  36 2.14  34 2.14

IMPORTANT INFORMATION: All symmetrisations will be switched off!
NOSYMM: (Re-)initialisation of all symmetry stuff for point group C_1.

                                     Primitive cell

  volume of cell :    1563.6717

  direct lattice vectors                    reciprocal lattice vectors
     8.546113626  0.000000000  0.000000000     0.117012252  0.000000000  0.000000000
     0.000000000  8.546113626  0.000000000     0.000000000  0.117012252  0.000000000
     0.000000000  0.000000000 21.409585219     0.000000000  0.000000000  0.046708051

  length of vectors
     8.546113626  8.546113626 21.409585219     0.117012252  0.117012252  0.046708051

  position of ions in fractional coordinates (direct lattice)
     0.499989942  0.894052976  0.811679464
     0.499997310  0.739228201  0.784741577
     0.499999916  0.880007229  0.862469816
     0.499998661  0.749794588  0.738652675
     0.605092039  0.961094170  0.798241094
     0.394918799  0.961093062  0.798241744
     0.000000000  0.750000000  0.350310383
     0.250000000  0.000000000  0.350310383
     0.000000000  0.000000000  0.450103461
     0.250000000  0.750000000  0.450103461
     0.000000096  0.749859378  0.550346459
     0.249781026  0.999919635  0.550389822
     0.000000153  0.000277636  0.649646860
     0.247883566  0.749604077  0.649781973
     0.000000000  0.250000000  0.350310383
     0.250000000  0.500000000  0.350310383
     0.000000000  0.500000000  0.450103461
     0.250000000  0.250000000  0.450103461
     0.000000133  0.250061453  0.550306886
     0.249949208  0.499944005  0.550459814
     0.000000068  0.499561362  0.649765794
     0.249550060  0.250135440  0.649652008
     0.500000000  0.750000000  0.350310383
     0.750000000  0.000000000  0.350310383
     0.500000000  0.000000000  0.450103461
     0.750000000  0.750000000  0.450103461
     0.499999979  0.749811169  0.550346285
     0.750219085  0.999919627  0.550389788
     0.499999980  0.002666948  0.648890348
     0.752116574  0.749603982  0.649781860
     0.500000000  0.250000000  0.350310383
     0.750000000  0.500000000  0.350310383
     0.500000000  0.500000000  0.450103461
     0.750000000  0.250000000  0.450103461
     0.499999997  0.250245766  0.550223914
     0.750050906  0.499943992  0.550459821
     0.500000071  0.497670550  0.649884902
     0.750450132  0.250135502  0.649651949
     0.000000000  0.750000000  0.450103461
     0.250000000  0.000000000  0.450103461
     0.000000000  0.000000000  0.350310383
     0.250000000  0.750000000  0.350310383
     0.000000038  0.749968265  0.651144797
     0.250218921  0.999822933  0.651310697
     0.000000013  0.999900651  0.550075621
     0.250436298  0.750046697  0.550226596
     0.000000000  0.250000000  0.450103461
     0.250000000  0.500000000  0.450103461
     0.000000000  0.500000000  0.350310383
     0.250000000  0.250000000  0.350310383
     0.000000076  0.249920671  0.651210707
     0.250136036  0.499948856  0.650958957
     0.000000027  0.500010241  0.550022968
     0.250018062  0.249835329  0.550011410
     0.500000000  0.750000000  0.450103461
     0.750000000  0.000000000  0.450103461
     0.500000000  0.000000000  0.350310383
     0.750000000  0.750000000  0.350310383
     0.500000153  0.750639251  0.652709606
     0.749781230  0.999822901  0.651310722
     0.500000100  0.999593868  0.550108019
     0.749563785  0.750046699  0.550226614
     0.500000000  0.250000000  0.450103461
     0.750000000  0.500000000  0.450103461
     0.500000000  0.500000000  0.350310383
     0.750000000  0.250000000  0.350310383
[...]
  5Z    -5.222008   -3.212617    6.764815    1.192201    1.296367   -0.498425   -2.588647   -1.399607    0.729451    0.116253    0.005676   -0.100984    5.656298    2.952827   -6.540008    0.851599    0.352832   -0.379242
  6X    19.867706   -8.395941    5.353961   -0.745991   -0.395569   -0.542881   -0.041483    0.074255    0.022557   -0.065935   -0.052723    0.076439    2.115383   -1.101506    0.853197  -21.198184    9.869241   -5.670104
  6Y    -8.248491    9.105624   -3.074769   -2.292884    3.094907    0.268396   -0.446396    0.069970   -0.275487    0.042715   -0.061705   -0.298718    1.101746   -0.925212    0.352219    9.862459  -11.302712    2.962091
  6Z     5.232191   -3.219241    6.764389   -1.192504    1.296787   -0.498351    2.588802   -1.399873    0.729294   -0.116206    0.005680   -0.101101   -0.851874    0.352660   -0.379318   -5.666063    2.959621   -6.539676

 Eigenvectors and eigenvalues of the dynamical matrix

   1 f  =   98.919767 THz   621.531226 2PiTHz 3299.608252 cm-1   409.099100 meV
             X         Y         Z           dx          dy          dz
      4.272971  7.640678 17.377721    -0.000008   -0.004076   -0.010732
      4.273034  6.317528 16.800992     0.000007    0.015301   -0.249756
      4.273056  7.520642 18.465121     0.000006    0.003064    0.046275
      4.273045  6.407830 15.814247    -0.000008   -0.083159    0.962913
      5.171185  8.213620 17.090011     0.015382    0.015928   -0.002332
      3.375021  8.213611 17.090025    -0.015319    0.015922   -0.002325
      0.000000  6.409585  7.500000            0           0           0
      2.136528  0.000000  7.500000            0           0           0
      0.000000  0.000000  9.636528            0           0           0
      2.136528  6.409585  9.636528            0           0           0
      0.000001  6.408383 11.782689            0           0           0
      2.134657  8.545427 11.783618            0           0           0
      0.000001  0.002373 13.908670            0           0           0
      2.118441  6.406202 13.911563            0           0           0
      0.000000  2.136528  7.500000            0           0           0
      2.136528  4.273057  7.500000            0           0           0
      0.000000  4.273057  9.636528            0           0           0
      2.136528  2.136528  9.636528            0           0           0
      0.000001  2.137054 11.781842            0           0           0
      2.136094  4.272578 11.785116            0           0           0
      0.000001  4.269308 13.911216            0           0           0
      2.132683  2.137686 13.908780            0           0           0
      4.273057  6.409585  7.500000            0           0           0
      6.409585  0.000000  7.500000            0           0           0
      4.273057  0.000000  9.636528            0           0           0
      6.409585  6.409585  9.636528            0           0           0
      4.273057  6.407971 11.782686            0           0           0
      6.411458  8.545427 11.783617            0           0           0
      4.273057  0.022792 13.892473            0           0           0
      6.427674  6.406201 13.911560            0           0           0
      4.273057  2.136528  7.500000            0           0           0
      6.409585  4.273057  7.500000            0           0           0
      4.273057  4.273057  9.636528            0           0           0
      6.409585  2.136528  9.636528            0           0           0
      4.273057  2.138629 11.780066            0           0           0
      6.410020  4.272578 11.785116            0           0           0
      4.273057  4.253149 13.913766            0           0           0
      6.413432  2.137686 13.908779            0           0           0
      0.000000  6.409585  9.636528            0           0           0
      2.136528  0.000000  9.636528            0           0           0
      0.000000  0.000000  7.500000            0           0           0
      2.136528  6.409585  7.500000            0           0           0
      0.000000  6.409314 13.940740            0           0           0
      2.138399  8.544600 13.944292            0           0           0
      0.000000  8.545265 11.776891            0           0           0
      2.140257  6.409984 11.780123            0           0           0
      0.000000  2.136528  9.636528            0           0           0
      2.136528  4.273057  9.636528            0           0           0
      0.000000  4.273057  7.500000            0           0           0
      2.136528  2.136528  7.500000            0           0           0
      0.000001  2.135850 13.942151            0           0           0
      2.137691  4.272620 13.936761            0           0           0
      0.000000  4.273144 11.775764            0           0           0
      2.136683  2.135121 11.775516            0           0           0
      4.273057  6.409585  9.636528            0           0           0
      6.409585  0.000000  9.636528            0           0           0
      4.273057  0.000000  7.500000            0           0           0
      6.409585  6.409585  7.500000            0           0           0
      4.273058  6.415048 13.974242            0           0           0
      6.407716  8.544600 13.944292            0           0           0
      4.273058  8.542643 11.777585            0           0           0
      6.405857  6.409984 11.780124            0           0           0
      4.273057  2.136528  9.636528            0           0           0
      6.409585  4.273057  9.636528            0           0           0
      4.273057  4.273057  7.500000            0           0           0
      6.409585  2.136528  7.500000            0           0           0
      4.273058  2.135118 13.938075            0           0           0
      6.408424  4.272620 13.936762            0           0           0
      4.273058  4.276925 11.780243            0           0           0
      6.409432  2.135121 11.775517            0           0           0

[...]

  17 f  =    0.951395 THz     5.977790 2PiTHz   31.735115 cm-1     3.934651 meV
             X         Y         Z           dx          dy          dz
      4.272971  7.640678 17.377721    -0.719178    0.316346   -0.144919
      4.273034  6.317528 16.800992    -0.013137    0.275288    0.037378
      4.273056  7.520642 18.465121    -0.195589    0.133332   -0.037185
      4.273045  6.407830 15.814247    -0.005340    0.031208    0.006153
      5.171185  8.213620 17.090011    -0.290057    0.214631   -0.056166
      3.375021  8.213611 17.090025    -0.290695   -0.054696   -0.071046
      0.000000  6.409585  7.500000            0           0           0
      2.136528  0.000000  7.500000            0           0           0
      0.000000  0.000000  9.636528            0           0           0
      2.136528  6.409585  9.636528            0           0           0
      0.000001  6.408383 11.782689            0           0           0
      2.134657  8.545427 11.783618            0           0           0
      0.000001  0.002373 13.908670            0           0           0
      2.118441  6.406202 13.911563            0           0           0
      0.000000  2.136528  7.500000            0           0           0
      2.136528  4.273057  7.500000            0           0           0
      0.000000  4.273057  9.636528            0           0           0
      2.136528  2.136528  9.636528            0           0           0
      0.000001  2.137054 11.781842            0           0           0
      2.136094  4.272578 11.785116            0           0           0
      0.000001  4.269308 13.911216            0           0           0
      2.132683  2.137686 13.908780            0           0           0
      4.273057  6.409585  7.500000            0           0           0
      6.409585  0.000000  7.500000            0           0           0
      4.273057  0.000000  9.636528            0           0           0
      6.409585  6.409585  9.636528            0           0           0
      4.273057  6.407971 11.782686            0           0           0
      6.411458  8.545427 11.783617            0           0           0
      4.273057  0.022792 13.892473            0           0           0
      6.427674  6.406201 13.911560            0           0           0
      4.273057  2.136528  7.500000            0           0           0
      6.409585  4.273057  7.500000            0           0           0
      4.273057  4.273057  9.636528            0           0           0
      6.409585  2.136528  9.636528            0           0           0
      4.273057  2.138629 11.780066            0           0           0
      6.410020  4.272578 11.785116            0           0           0
      4.273057  4.253149 13.913766            0           0           0
      6.413432  2.137686 13.908779            0           0           0
      0.000000  6.409585  9.636528            0           0           0
      2.136528  0.000000  9.636528            0           0           0
      0.000000  0.000000  7.500000            0           0           0
      2.136528  6.409585  7.500000            0           0           0
      0.000000  6.409314 13.940740            0           0           0
      2.138399  8.544600 13.944292            0           0           0
      0.000000  8.545265 11.776891            0           0           0
      2.140257  6.409984 11.780123            0           0           0
      0.000000  2.136528  9.636528            0           0           0
      2.136528  4.273057  9.636528            0           0           0
      0.000000  4.273057  7.500000            0           0           0
      2.136528  2.136528  7.500000            0           0           0
      0.000001  2.135850 13.942151            0           0           0
      2.137691  4.272620 13.936761            0           0           0
      0.000000  4.273144 11.775764            0           0           0
      2.136683  2.135121 11.775516            0           0           0
      4.273057  6.409585  9.636528            0           0           0
      6.409585  0.000000  9.636528            0           0           0
      4.273057  0.000000  7.500000            0           0           0
      6.409585  6.409585  7.500000            0           0           0
      4.273058  6.415048 13.974242            0           0           0
      6.407716  8.544600 13.944292            0           0           0
      4.273058  8.542643 11.777585            0           0           0
      6.405857  6.409984 11.780124            0           0           0
      4.273057  2.136528  9.636528            0           0           0
      6.409585  4.273057  9.636528            0           0           0
      4.273057  4.273057  7.500000            0           0           0
      6.409585  2.136528  7.500000            0           0           0
      4.273058  2.135118 13.938075            0           0           0
      6.408424  4.272620 13.936762            0           0           0
      4.273058  4.276925 11.780243            0           0           0
      6.409432  2.135121 11.775517            0           0           0

  18 f/i=    1.518685 THz     9.542182 2PiTHz   50.657894 cm-1     6.280776 meV
             X         Y         Z           dx          dy          dz
      4.272971  7.640678 17.377721     0.096358    0.005394   -0.000505
      4.273034  6.317528 16.800992     0.928818    0.005098    0.001819
      4.273056  7.520642 18.465121     0.150134    0.002051   -0.000109
      4.273045  6.407830 15.814247     0.099991    0.000824    0.000429
      5.171185  8.213620 17.090011    -0.107241    0.173868   -0.080603
      3.375021  8.213611 17.090025    -0.107335   -0.171142    0.079828
      0.000000  6.409585  7.500000            0           0           0
      2.136528  0.000000  7.500000            0           0           0
      0.000000  0.000000  9.636528            0           0           0
      2.136528  6.409585  9.636528            0           0           0
      0.000001  6.408383 11.782689            0           0           0
      2.134657  8.545427 11.783618            0           0           0
      0.000001  0.002373 13.908670            0           0           0
      2.118441  6.406202 13.911563            0           0           0
      0.000000  2.136528  7.500000            0           0           0
      2.136528  4.273057  7.500000            0           0           0
      0.000000  4.273057  9.636528            0           0           0
      2.136528  2.136528  9.636528            0           0           0
      0.000001  2.137054 11.781842            0           0           0
      2.136094  4.272578 11.785116            0           0           0
      0.000001  4.269308 13.911216            0           0           0
      2.132683  2.137686 13.908780            0           0           0
      4.273057  6.409585  7.500000            0           0           0
      6.409585  0.000000  7.500000            0           0           0
      4.273057  0.000000  9.636528            0           0           0
      6.409585  6.409585  9.636528            0           0           0
      4.273057  6.407971 11.782686            0           0           0
      6.411458  8.545427 11.783617            0           0           0
      4.273057  0.022792 13.892473            0           0           0
      6.427674  6.406201 13.911560            0           0           0
      4.273057  2.136528  7.500000            0           0           0
      6.409585  4.273057  7.500000            0           0           0
      4.273057  4.273057  9.636528            0           0           0
      6.409585  2.136528  9.636528            0           0           0
      4.273057  2.138629 11.780066            0           0           0
      6.410020  4.272578 11.785116            0           0           0
      4.273057  4.253149 13.913766            0           0           0
      6.413432  2.137686 13.908779            0           0           0
      0.000000  6.409585  9.636528            0           0           0
      2.136528  0.000000  9.636528            0           0           0
      0.000000  0.000000  7.500000            0           0           0
      2.136528  6.409585  7.500000            0           0           0
      0.000000  6.409314 13.940740            0           0           0
      2.138399  8.544600 13.944292            0           0           0
      0.000000  8.545265 11.776891            0           0           0
      2.140257  6.409984 11.780123            0           0           0
      0.000000  2.136528  9.636528            0           0           0
      2.136528  4.273057  9.636528            0           0           0
      0.000000  4.273057  7.500000            0           0           0
      2.136528  2.136528  7.500000            0           0           0
      0.000001  2.135850 13.942151            0           0           0
      2.137691  4.272620 13.936761            0           0           0
      0.000000  4.273144 11.775764            0           0           0
      2.136683  2.135121 11.775516            0           0           0
      4.273057  6.409585  9.636528            0           0           0
      6.409585  0.000000  9.636528            0           0           0
      4.273057  0.000000  7.500000            0           0           0
      6.409585  6.409585  7.500000            0           0           0
      4.273058  6.415048 13.974242            0           0           0
      6.407716  8.544600 13.944292            0           0           0
      4.273058  8.542643 11.777585            0           0           0
      6.405857  6.409984 11.780124            0           0           0
      4.273057  2.136528  9.636528            0           0           0
      6.409585  4.273057  9.636528            0           0           0
      4.273057  4.273057  7.500000            0           0           0
      6.409585  2.136528  7.500000            0           0           0
      4.273058  2.135118 13.938075            0           0           0
      6.408424  4.272620 13.936762            0           0           0
      4.273058  4.276925 11.780243            0           0           0
      6.409432  2.135121 11.775517            0           0           0

 Finite differences POTIM=   1.0000000000000000E-002