 vasp.6.3.0 20Jan22 (build Aug 21 2024 11:13:42) complex
 executed on        HPECrayEX_GCC date 2024.09.03  13:13:50

 INCAR:
   SYSTEM = MgO-rocksalt
   ISMEAR = 0
   SIGMA = 0.05
   EDIFF = 1E-6
   ALGO = ALL
   ISTART = 0
   IBRION = -1
   NSW = 0
   ISYM = 0
   DIPOL = 0.5 0.5 0.5
   IDIPOL = 3
   LDIPOL = .TRUE.
   LHFCALC = .TRUE.
   GGA = B5
   AEXX = 0.2
   AGGAX = 0.72
   AGGAC = 0.81
   ALDAC = 0.19
   IVDW = 1
   VDW_S6 = 1.05
   VDW_C6 = 0.63 0.70
   VDW_R0 = 1.243 1.342
   ENCUT = 600
   PREC = Accurate
   LASPH = .TRUE.
   LREAL = .FALSE.
   ISPIN = 1
   NELM = 200
   NELMIN = 8
   NCORE = 8
   KPAR = 1
   LWAVE = .FALSE.
   LCHARG = .FALSE.

 POTCAR:    PAW_PBE Mg_pv 13Apr2007
 POTCAR:    PAW_PBE O 08Apr2002
 POTCAR:    PAW_PBE Mg_pv 13Apr2007
   VRHFIN =Mg: p6s2

   TITEL  = PAW_PBE Mg_pv 13Apr2007
   POMASS =   24.305; ZVAL   =    8.000    mass and valenz
   ENMAX  =  403.929; ENMIN  =  302.947 eV

   TITEL  = PAW_PBE O 08Apr2002
   POMASS =   16.000; ZVAL   =    6.000    mass and valenz
   ENMAX  =  400.000; ENMIN  =  300.000 eV

  PAW_PBE Mg_pv 13Apr2007               :
  PAW_PBE O 08Apr2002                   :

 POSCAR: Mg  O
  positions in direct lattice
 exchange correlation table for  LEXCH =       12
   RHO(1)=    0.500       N(1)  =     2000
   RHO(2)=  100.500       N(2)  =     4000

 ion  position               nearest neighbor table
   1  0.000  0.750  0.350-  33 2.14  35 2.14  36 2.14  43 2.14  52 2.14
   2  0.250  0.000  0.350-  34 2.14  35 2.14  36 2.14  44 2.14  51 2.14
   3  0.000  0.000  0.450-  35 2.14  34 2.14  33 2.14  41 2.14  50 2.14  39 2.14
   4  0.250  0.750  0.450-  36 2.14  34 2.14  33 2.14  42 2.14  49 2.14  40 2.14
   5  0.000  0.750  0.550-  47 2.14  39 2.14  40 2.14  56 2.14  33 2.15  37 2.16
   6  0.250  1.000  0.550-  55 2.14  40 2.14  48 2.14  39 2.14  34 2.15  38 2.16
   7  0.000  1.000  0.650-  39 2.13  38 2.14  54 2.14  45 2.14  37 2.14
   8  0.250  0.750  0.649-  40 2.13  37 2.14  38 2.14  46 2.14  53 2.14
   9  0.000  0.250  0.350-  41 2.14  35 2.14  43 2.14  44 2.14  60 2.14
  10  0.250  0.500  0.350-  42 2.14  36 2.14  43 2.14  44 2.14  59 2.14
  11  0.000  0.500  0.450-  43 2.14  41 2.14  42 2.14  33 2.14  58 2.14  47 2.14
  12  0.250  0.250  0.450-  44 2.14  41 2.14  42 2.14  34 2.14  57 2.14  48 2.14
  13  1.000  0.250  0.550-  47 2.14  39 2.14  48 2.14  64 2.14  41 2.15  45 2.16
  14  0.250  0.500  0.550-  63 2.14  40 2.14  48 2.14  47 2.14  42 2.15  46 2.16
  15  1.000  0.500  0.650-  47 2.13  45 2.14  37 2.14  62 2.14  46 2.14
  16  0.250  0.250  0.649-  48 2.13  45 2.14  38 2.14  46 2.14  61 2.14
  17  0.500  0.750  0.350-  49 2.14  36 2.14  51 2.14  52 2.14  59 2.14
  18  0.750  0.000  0.350-  50 2.14  35 2.14  51 2.14  52 2.14  60 2.14
  19  0.500  0.000  0.450-  51 2.14  49 2.14  50 2.14  34 2.14  57 2.14  55 2.14
  20  0.750  0.750  0.450-  52 2.14  49 2.14  50 2.14  33 2.14  58 2.14  56 2.14
  21  0.500  0.750  0.550-  56 2.14  40 2.14  63 2.14  55 2.14  49 2.15  53 2.16
  22  0.750  1.000  0.550-  55 2.14  56 2.14  64 2.14  39 2.14  50 2.15  54 2.16
  23  0.500  1.000  0.650-  55 2.13  61 2.14  53 2.14  38 2.14  54 2.14
  24  0.750  0.750  0.649-  56 2.13  37 2.14  54 2.14  62 2.14  53 2.14
  25  0.500  0.250  0.350-  57 2.14  51 2.14  44 2.14  59 2.14  60 2.14
  26  0.750  0.500  0.350-  58 2.14  52 2.14  43 2.14  59 2.14  60 2.14
  27  0.500  0.500  0.450-  59 2.14  49 2.14  57 2.14  58 2.14  42 2.14  63 2.14
  28  0.750  0.250  0.450-  60 2.14  50 2.14  57 2.14  58 2.14  41 2.14  64 2.14
  29  0.500  0.250  0.550-  64 2.14  48 2.14  63 2.14  55 2.14  57 2.15  61 2.16
  30  0.750  0.500  0.550-  63 2.14  56 2.14  64 2.14  47 2.14  58 2.15  62 2.16
  31  0.500  0.500  0.650-  63 2.13  62 2.14  46 2.14  61 2.14  53 2.14
  32  0.750  0.250  0.649-  64 2.13  45 2.14  54 2.14  62 2.14  61 2.14
  33  0.000  0.750  0.450-   1 2.14   3 2.14   4 2.14  11 2.14  20 2.14   5 2.15
  34  0.250  0.000  0.450-   2 2.14   3 2.14   4 2.14  12 2.14  19 2.14   6 2.15
  35  0.000  0.000  0.350-   3 2.14   2 2.14   1 2.14   9 2.14  18 2.14
  36  0.250  0.750  0.350-   4 2.14   2 2.14   1 2.14  10 2.14  17 2.14
  37  0.000  0.750  0.651-  15 2.14   8 2.14  24 2.14   7 2.14   5 2.16
  38  0.250  1.000  0.652-   7 2.14  16 2.14   8 2.14  23 2.14   6 2.16
  39  0.000  1.000  0.550-   7 2.13   6 2.14  22 2.14   5 2.14  13 2.14   3 2.14
  40  0.250  0.750  0.550-   8 2.13  21 2.14  14 2.14   6 2.14   5 2.14   4 2.14
  41  0.000  0.250  0.450-   9 2.14   3 2.14  11 2.14  12 2.14  28 2.14  13 2.15
  42  0.250  0.500  0.450-  10 2.14   4 2.14  11 2.14  12 2.14  27 2.14  14 2.15
  43  0.000  0.500  0.350-  11 2.14   9 2.14  10 2.14   1 2.14  26 2.14
  44  0.250  0.250  0.350-  12 2.14   9 2.14  10 2.14   2 2.14  25 2.14
  45  1.000  0.250  0.651-  15 2.14  16 2.14  32 2.14   7 2.14  13 2.16
  46  0.250  0.500  0.652-  15 2.14  31 2.14  16 2.14   8 2.14  14 2.16
  47  1.000  0.500  0.550-  15 2.13   5 2.14  13 2.14  30 2.14  14 2.14  11 2.14
  48  0.250  0.250  0.550-  16 2.13  29 2.14  14 2.14   6 2.14  13 2.14  12 2.14
  49  0.500  0.750  0.450-  17 2.14   4 2.14  19 2.14  20 2.14  27 2.14  21 2.15
  50  0.750  0.000  0.450-  18 2.14   3 2.14  19 2.14  20 2.14  28 2.14  22 2.15
  51  0.500  0.000  0.350-  19 2.14  17 2.14  18 2.14   2 2.14  25 2.14
  52  0.750  0.750  0.350-  20 2.14  17 2.14  18 2.14   1 2.14  26 2.14
  53  0.500  0.750  0.652-  23 2.14  31 2.14  24 2.14   8 2.14  21 2.16
  54  0.750  1.000  0.652-   7 2.14  24 2.14  32 2.14  23 2.14  22 2.16
  55  0.500  1.000  0.550-  23 2.13  22 2.14   6 2.14  29 2.14  21 2.14  19 2.14
  56  0.750  0.750  0.550-  24 2.13  21 2.14  30 2.14  22 2.14   5 2.14  20 2.14
  57  0.500  0.250  0.450-  25 2.14  19 2.14  12 2.14  27 2.14  28 2.14  29 2.15
  58  0.750  0.500  0.450-  26 2.14  20 2.14  11 2.14  27 2.14  28 2.14  30 2.15
  59  0.500  0.500  0.350-  27 2.14  17 2.14  25 2.14  26 2.14  10 2.14
  60  0.750  0.250  0.350-  28 2.14  18 2.14  25 2.14  26 2.14   9 2.14
  61  0.500  0.250  0.652-  23 2.14  31 2.14  32 2.14  16 2.14  29 2.16
  62  0.750  0.500  0.652-  15 2.14  31 2.14  32 2.14  24 2.14  30 2.16
  63  0.500  0.500  0.550-  31 2.13  30 2.14  14 2.14  21 2.14  29 2.14  27 2.14
  64  0.750  0.250  0.550-  32 2.13  29 2.14  30 2.14  22 2.14  13 2.14  28 2.14

IMPORTANT INFORMATION: All symmetrisations will be switched off!
NOSYMM: (Re-)initialisation of all symmetry stuff for point group C_1.

                                     Primitive cell

  volume of cell :    1563.6717

  direct lattice vectors                    reciprocal lattice vectors
     8.546113626  0.000000000  0.000000000     0.117012252  0.000000000  0.000000000
     0.000000000  8.546113626  0.000000000     0.000000000  0.117012252  0.000000000
     0.000000000  0.000000000 21.409585219     0.000000000  0.000000000  0.046708051

  length of vectors
     8.546113626  8.546113626 21.409585219     0.117012252  0.117012252  0.046708051

  position of ions in fractional coordinates (direct lattice)
     0.000000000  0.750000000  0.350310383
     0.250000000  0.000000000  0.350310383
     0.000000000  0.000000000  0.450103461
     0.250000000  0.750000000  0.450103461
     0.000000007  0.749980482  0.550432276
     0.250008357  0.999999967  0.550447732
     0.000000003  0.999999999  0.649617973
     0.249982409  0.750015029  0.649414934
     0.000000000  0.250000000  0.350310383
     0.250000000  0.500000000  0.350310383
     0.000000000  0.500000000  0.450103461
     0.250000000  0.250000000  0.450103461
     0.999999997  0.250019482  0.550432262
     0.250037239  0.499999992  0.550469826
     0.999999967  0.499999963  0.649654673
     0.249982376  0.249984939  0.649414905
     0.500000000  0.750000000  0.350310383
     0.750000000  0.000000000  0.350310383
     0.500000000  0.000000000  0.450103461
     0.750000000  0.750000000  0.450103461
     0.500000002  0.749987509  0.550474791
     0.749991634  0.999999961  0.550447738
     0.499999989  0.999999990  0.649718202
     0.750017586  0.750014997  0.649414946
     0.500000000  0.250000000  0.350310383
     0.750000000  0.500000000  0.350310383
     0.500000000  0.500000000  0.450103461
     0.750000000  0.250000000  0.450103461
     0.500000001  0.250012460  0.550474776
     0.749962768  0.500000003  0.550469829
     0.500000003  0.499999971  0.649766482
     0.750017607  0.249984948  0.649414911
     0.000000000  0.750000000  0.450103461
     0.250000000  0.000000000  0.450103461
     0.000000000  0.000000000  0.350310383
     0.250000000  0.750000000  0.350310383
     0.000000013  0.749988030  0.651497110
     0.249925099  0.999999986  0.651512329
     0.000000012  0.999999968  0.550128539
     0.250035447  0.749992776  0.550136681
     0.000000000  0.250000000  0.450103461
     0.250000000  0.500000000  0.450103461
     0.000000000  0.500000000  0.350310383
     0.250000000  0.250000000  0.350310383
     0.999999995  0.250011948  0.651497070
     0.249995063  0.499999960  0.651552416
     0.999999993  0.499999998  0.550147130
     0.250035440  0.250007185  0.550136668
     0.500000000  0.750000000  0.450103461
     0.750000000  0.000000000  0.450103461
     0.500000000  0.000000000  0.350310383
     0.750000000  0.750000000  0.350310383
     0.500000004  0.750030262  0.651595830
     0.750074884  0.999999972  0.651512336
     0.500000004  0.999999985  0.550212568
     0.749964548  0.749992777  0.550136690
     0.500000000  0.250000000  0.450103461
     0.750000000  0.500000000  0.450103461
     0.500000000  0.500000000  0.350310383
     0.750000000  0.250000000  0.350310383
     0.500000005  0.249969713  0.651595801
     0.750004912  0.499999971  0.651552414
     0.500000011  0.499999996  0.550229818
     0.749964553  0.250007186  0.550136668

  ion indices of the primitive-cell ions
   primitive index   ion index
                 1           1
                 2           2
                 3           3
                 4           4
                 5           5
                 6           6
                 7           7
                 8           8
                 9           9
                10          10
                11          11
                12          12
                13          13
                14          14
                15          15
                16          16
                17          17
                18          18
                19          19
                20          20
                21          21
                22          22
                23          23
                24          24
                25          25
                26          26
                27          27
                28          28
                29          29
                30          30
                31          31
                32          32
                33          33
                34          34
                35          35
                36          36
                37          37
                38          38
                39          39
                40          40
                41          41
                42          42
                43          43
                44          44
[...]
   0.25000000  0.50000000  0.45010346
   0.00000000  0.50000000  0.35031038
   0.25000000  0.25000000  0.35031038
   0.99999999  0.25001195  0.65149707
   0.24999506  0.49999996  0.65155242
   0.99999999  0.50000000  0.55014713
   0.25003544  0.25000718  0.55013667
   0.50000000  0.75000000  0.45010346
   0.75000000  0.00000000  0.45010346
   0.50000000  0.00000000  0.35031038
   0.75000000  0.75000000  0.35031038
   0.50000000  0.75003026  0.65159583
   0.75007488  0.99999997  0.65151234
   0.50000000  0.99999998  0.55021257
   0.74996455  0.74999278  0.55013669
   0.50000000  0.25000000  0.45010346
   0.75000000  0.50000000  0.45010346
   0.50000000  0.50000000  0.35031038
   0.75000000  0.25000000  0.35031038
   0.50000001  0.24996971  0.65159580
   0.75000491  0.49999997  0.65155241
   0.50000001  0.50000000  0.55022982
   0.74996455  0.25000719  0.55013667

 position of ions in cartesian coordinates  (Angst):
   0.00000000  6.40958522  7.50000000
   2.13652841  0.00000000  7.50000000
   0.00000000  0.00000000  9.63652841
   2.13652841  6.40958522  9.63652841
   0.00000006  6.40941842 11.78452671
   2.13659983  8.54611334 11.78485762
   0.00000002  8.54611362 13.90805135
   2.13637807  6.40971366 13.90370437
   0.00000000  2.13652841  7.50000000
   2.13652841  4.27305681  7.50000000
   0.00000000  4.27305681  9.63652841
   2.13652841  2.13652841  9.63652841
   8.54611360  2.13669490 11.78452641
   2.13684666  4.27305674 11.78533064
   8.54611334  4.27305649 13.90883708
   2.13637779  2.13639969 13.90370376
   4.27305681  6.40958522  7.50000000
   6.40958522  0.00000000  7.50000000
   4.27305681  0.00000000  9.63652841
   6.40958522  6.40958522  9.63652841
   4.27305683  6.40947847 11.78543695
   6.40951372  8.54611330 11.78485775
   4.27305672  8.54611354 13.91019722
   6.40973551  6.40971338 13.90370463
   4.27305681  2.13652841  7.50000000
   6.40958522  4.27305681  7.50000000
   4.27305681  4.27305681  9.63652841
   6.40958522  2.13652841  9.63652841
   4.27305682  2.13663489 11.78543662
   6.40926703  4.27305684 11.78533071
   4.27305684  4.27305657 13.91123086
   6.40973569  2.13639977 13.90370387
   0.00000000  6.40958522  9.63652841
   2.13652841  0.00000000  9.63652841
   0.00000000  0.00000000  7.50000000
   2.13652841  6.40958522  7.50000000
   0.00000011  6.40948293 13.94828290
   2.13588829  8.54611351 13.94860872
   0.00000010  8.54611335 11.77802383
   2.13683134  6.40952349 11.77819816
   0.00000000  2.13652841  9.63652841
   2.13652841  4.27305681  9.63652841
   0.00000000  4.27305681  7.50000000
   2.13652841  2.13652841  7.50000000
   8.54611358  2.13663052 13.94828203
   2.13648621  4.27305647 13.94946698
   8.54611356  4.27305679 11.77842186
   2.13683128  2.13658981 11.77819787
   4.27305681  6.40958522  9.63652841
   6.40958522  0.00000000  9.63652841
   4.27305681  0.00000000  7.50000000
   6.40958522  6.40958522  7.50000000
   4.27305685  6.40984384 13.95039644
   6.41022519  8.54611339 13.94860888
   4.27305684  8.54611349 11.77982286
   6.40928225  6.40952349 11.77819835
   4.27305681  2.13652841  9.63652841
   6.40958522  4.27305681  9.63652841
   4.27305681  4.27305681  7.50000000
   6.40958522  2.13652841  7.50000000
   4.27305686  2.13626957 13.95039583
   6.40962719  4.27305656 13.94946693
   4.27305691  4.27305678 11.78019217
   6.40928228  2.13658982 11.77819788

--------------------------------------- Iteration      FINAL  ---------------------------------------

--------------------OUTCAR has been truncated-------------------------

[...]

--------------------OUTCAR has been truncated-------------------------

  DFT-D2 method for vdW energy calculation

  Parameters of vdW forcefield:
         C6(Jnm^6/mol)     R0(A)
   Mg       0.630          1.243
   O        0.700          1.342

  vdW correction parametrized for the method   h
      

  IVDW =   1
  VDW_RADIUS =    50.000 A
  VDW_S6 =     1.050
  VDW_SR =     1.000
  VDW_D =    20.000
  LVDW_EWALD = F

  Number of pair interactions contributing to vdW energy:  705332
  Edisp (eV):   -4.82992

 VOLUME and BASIS-vectors are now :
  energy-cutoff  :      600.00
  volume of cell :     1563.67
      direct lattice vectors                 reciprocal lattice vectors
     8.546113626  0.000000000  0.000000000     0.117012252  0.000000000  0.000000000
     0.000000000  8.546113626  0.000000000     0.000000000  0.117012252  0.000000000
     0.000000000  0.000000000 21.409585219     0.000000000  0.000000000  0.046708051

  length of vectors
     8.546113626  8.546113626 21.409585219     0.117012252  0.117012252  0.046708051

 FORCES acting on ions:
    Electron-Ion                     Ewald-Force                    Non-Local-Force
   0.126E-05 0.830E-02 0.201E+04   -.211E-05 -.853E-02 -.200E+04   0.202E-05 0.156E-03 -.633E+01
   -.243E-01 0.169E-04 0.201E+04   0.245E-01 -.470E-05 -.200E+04   -.118E-03 -.100E-04 -.633E+01
   0.192E-04 0.300E-04 0.664E+03   -.196E-04 -.182E-04 -.665E+03   0.104E-05 -.672E-05 0.411E+00
   -.869E-01 0.329E-01 0.664E+03   0.903E-01 -.349E-01 -.665E+03   -.222E-02 0.125E-02 0.424E+00
   0.377E-04 0.226E-01 -.669E+03   -.333E-04 -.277E-01 0.669E+03   -.378E-05 0.486E-02 -.257E+00
   -.123E+00 -.257E-05 -.669E+03   0.130E+00 0.153E-05 0.669E+03   -.473E-02 0.446E-05 -.261E+00
   0.552E-04 0.231E-04 -.199E+04   -.537E-04 -.239E-04 0.199E+04   -.335E-05 0.126E-06 0.549E+01
   0.154E-02 0.224E-01 -.199E+04   -.781E-02 -.189E-01 0.199E+04   0.547E-02 -.350E-02 0.548E+01
   0.134E-05 -.830E-02 0.201E+04   -.152E-05 0.853E-02 -.200E+04   0.199E-06 -.148E-03 -.633E+01
   -.227E-01 -.177E-04 0.201E+04   0.229E-01 0.474E-05 -.200E+04   -.145E-03 0.112E-04 -.634E+01
   -.153E-06 -.316E-04 0.664E+03   0.312E-07 0.201E-04 -.665E+03   0.163E-05 0.898E-05 0.416E+00
   -.869E-01 -.329E-01 0.664E+03   0.903E-01 0.349E-01 -.665E+03   -.220E-02 -.125E-02 0.424E+00
   0.118E-04 -.226E-01 -.669E+03   -.141E-04 0.277E-01 0.669E+03   0.612E-07 -.486E-02 -.257E+00
   -.252E-01 -.430E-05 -.669E+03   0.362E-01 0.898E-05 0.670E+03   -.101E-01 -.336E-05 -.258E+00
   -.842E-04 -.803E-04 -.200E+04   0.873E-04 0.766E-04 0.199E+04   0.225E-06 0.515E-05 0.549E+01
   0.146E-02 -.223E-01 -.199E+04   -.772E-02 0.188E-01 0.199E+04   0.546E-02 0.350E-02 0.548E+01
   -.161E-05 0.678E-02 0.201E+04   0.181E-05 -.702E-02 -.200E+04   -.111E-05 0.155E-03 -.633E+01
   0.243E-01 0.189E-04 0.201E+04   -.245E-01 -.524E-05 -.200E+04   0.120E-03 -.107E-04 -.633E+01
   -.865E-05 0.115E-04 0.664E+03   0.820E-05 -.218E-04 -.665E+03   -.373E-07 0.754E-05 0.435E+00
   0.869E-01 0.329E-01 0.664E+03   -.903E-01 -.349E-01 -.665E+03   0.222E-02 0.125E-02 0.424E+00
   0.167E-04 0.116E-01 -.669E+03   -.175E-04 -.126E-01 0.670E+03   0.268E-06 0.161E-02 -.250E+00
   0.123E+00 -.764E-05 -.669E+03   -.130E+00 0.860E-05 0.669E+03   0.473E-02 0.360E-05 -.261E+00
   -.475E-05 -.311E-04 -.200E+04   0.453E-05 0.377E-04 0.199E+04   0.139E-06 -.401E-05 0.551E+01
   -.162E-02 0.223E-01 -.199E+04   0.787E-02 -.188E-01 0.199E+04   -.546E-02 -.350E-02 0.548E+01
   0.628E-06 -.678E-02 0.201E+04   0.133E-05 0.702E-02 -.200E+04   -.114E-05 -.156E-03 -.633E+01
   0.227E-01 -.187E-04 0.201E+04   -.229E-01 0.522E-05 -.200E+04   0.142E-03 0.116E-04 -.634E+01
   0.112E-05 -.108E-04 0.664E+03   -.829E-06 0.196E-04 -.664E+03   -.124E-05 -.391E-05 0.441E+00
   0.869E-01 -.329E-01 0.664E+03   -.903E-01 0.349E-01 -.665E+03   0.220E-02 -.125E-02 0.424E+00
   0.185E-04 -.116E-01 -.669E+03   -.145E-04 0.126E-01 0.670E+03   -.156E-05 -.161E-02 -.250E+00
   0.252E-01 0.156E-04 -.669E+03   -.362E-01 -.149E-04 0.670E+03   0.101E-01 -.382E-05 -.258E+00
   0.931E-04 -.102E-04 -.200E+04   -.928E-04 0.134E-05 0.199E+04   -.132E-05 0.619E-05 0.550E+01
   -.151E-02 -.222E-01 -.199E+04   0.777E-02 0.188E-01 0.199E+04   -.546E-02 0.350E-02 0.548E+01
   0.113E-04 0.255E-01 0.498E+03   -.106E-04 -.247E-01 -.498E+03   0.123E-05 -.905E-03 -.934E-01
   -.862E-01 0.179E-04 0.498E+03   0.833E-01 -.861E-05 -.498E+03   0.374E-02 -.967E-05 -.960E-01
   0.388E-05 0.180E-04 0.151E+04   -.193E-05 -.380E-05 -.151E+04   -.254E-06 -.167E-04 0.315E+01
   -.172E-01 0.574E-02 0.151E+04   0.175E-01 -.599E-02 -.151E+04   -.333E-03 0.310E-03 0.315E+01
   0.144E-04 -.926E-02 -.151E+04   -.126E-04 0.120E-01 0.152E+04   -.444E-07 -.236E-02 -.451E+01
   -.832E-01 -.106E-04 -.151E+04   0.914E-01 0.141E-04 0.152E+04   -.482E-02 -.162E-05 -.451E+01
   0.529E-04 0.126E-04 -.496E+03   -.550E-04 -.565E-05 0.496E+03   -.162E-06 -.350E-05 0.269E+00
   -.298E-01 0.243E-01 -.496E+03   0.260E-01 -.224E-01 0.496E+03   0.230E-02 -.181E-02 0.327E+00
   0.394E-05 -.255E-01 0.498E+03   -.468E-05 0.247E-01 -.498E+03   -.289E-06 0.901E-03 -.934E-01
   -.715E-01 -.229E-04 0.498E+03   0.677E-01 0.144E-04 -.498E+03   0.479E-02 0.737E-05 -.100E+00
   0.173E-05 -.225E-04 0.151E+04   -.786E-06 0.379E-05 -.151E+04   0.302E-06 0.236E-04 0.315E+01
   -.173E-01 -.574E-02 0.151E+04   0.175E-01 0.599E-02 -.151E+04   -.297E-03 -.311E-03 0.315E+01
   0.459E-05 0.930E-02 -.151E+04   -.247E-06 -.120E-01 0.152E+04   -.109E-05 0.236E-02 -.451E+01
   0.568E-01 -.434E-04 -.151E+04   -.564E-01 0.434E-04 0.152E+04   -.858E-03 0.163E-05 -.451E+01
   -.352E-04 -.140E-04 -.497E+03   0.384E-04 0.571E-05 0.496E+03   -.218E-05 0.589E-05 0.267E+00
   -.299E-01 -.243E-01 -.496E+03   0.260E-01 0.224E-01 0.496E+03   0.231E-02 0.181E-02 0.327E+00
   -.622E-05 0.179E-01 0.498E+03   0.448E-05 -.171E-01 -.498E+03   -.790E-06 -.967E-03 -.100E+00
   0.862E-01 0.220E-04 0.498E+03   -.833E-01 -.110E-04 -.498E+03   -.374E-02 -.977E-05 -.960E-01
   -.354E-05 -.138E-04 0.151E+04   0.163E-05 -.383E-05 -.151E+04   0.610E-06 0.166E-04 0.315E+01
   0.172E-01 0.574E-02 0.151E+04   -.175E-01 -.599E-02 -.151E+04   0.333E-03 0.310E-03 0.315E+01
   0.386E-04 0.163E-01 -.151E+04   -.384E-04 -.212E-01 0.152E+04   -.186E-05 0.397E-02 -.451E+01
   0.832E-01 -.193E-04 -.151E+04   -.913E-01 0.169E-04 0.152E+04   0.483E-02 0.166E-05 -.451E+01
   0.396E-05 0.121E-04 -.497E+03   -.469E-05 -.893E-05 0.497E+03   0.573E-06 -.119E-05 0.252E+00
   0.298E-01 0.242E-01 -.496E+03   -.260E-01 -.224E-01 0.496E+03   -.230E-02 -.181E-02 0.327E+00
   -.172E-05 -.179E-01 0.498E+03   0.216E-05 0.171E-01 -.498E+03   -.895E-06 0.966E-03 -.100E+00
   0.715E-01 -.259E-04 0.498E+03   -.677E-01 0.149E-04 -.498E+03   -.479E-02 0.688E-05 -.100E+00
   -.195E-05 0.106E-04 0.151E+04   0.718E-06 0.375E-05 -.151E+04   0.137E-05 -.148E-04 0.315E+01
   0.173E-01 -.574E-02 0.151E+04   -.175E-01 0.599E-02 -.151E+04   0.296E-03 -.310E-03 0.315E+01
   0.345E-04 -.163E-01 -.151E+04   -.408E-04 0.212E-01 0.152E+04   0.189E-05 -.398E-02 -.451E+01
   -.568E-01 0.944E-05 -.151E+04   0.563E-01 -.134E-04 0.152E+04   0.866E-03 0.480E-05 -.451E+01
   0.322E-04 0.213E-05 -.497E+03   -.309E-04 -.945E-05 0.497E+03   -.167E-05 0.133E-05 0.244E+00
   0.298E-01 -.242E-01 -.496E+03   -.260E-01 0.224E-01 0.496E+03   -.231E-02 0.181E-02 0.327E+00
   -.157E-04 -.228E-04 0.168E+02   -.443E-12 -.967E-13 -.250E-11   0.162E-04 0.181E-04 -.147E+02

 POSITION                                       TOTAL-FORCE (eV/Angst)
      0.00000      6.40959      7.50000         0.000001     -0.000063      0.629009
      2.13653      0.00000      7.50000         0.000042      0.000001      0.628984
      0.00000      0.00000      9.63653         0.000000      0.000004      0.025203
      2.13653      6.40959      9.63653         0.000912     -0.000541      0.023545
      0.00000      6.40942     11.78453        -0.000000      0.000209     -0.007763
      2.13660      8.54611     11.78486         0.001321      0.000004     -0.008391
      0.00000      8.54611     13.90805        -0.000003     -0.000000     -0.255288
      2.13638      6.40971     13.90370        -0.000266     -0.000326     -0.226690
      0.00000      2.13653      7.50000         0.000000      0.000066      0.628988
      2.13653      4.27306      7.50000         0.000045     -0.000000      0.629239
      0.00000      4.27306      9.63653         0.000002     -0.000001      0.025849
      2.13653      2.13653      9.63653         0.000907      0.000537      0.023542
      8.54611      2.13669     11.78453        -0.000002     -0.000210     -0.007779
      2.13685      4.27306     11.78533        -0.000084      0.000002     -0.010082
      8.54611      4.27306     13.90884         0.000003      0.000002     -0.257876
      2.13638      2.13640     13.90370        -0.000261      0.000324     -0.226683
      4.27306      6.40959      7.50000        -0.000001     -0.000060      0.629076
      6.40959      0.00000      7.50000        -0.000040      0.000001      0.628991
      4.27306      0.00000      9.63653        -0.000000     -0.000002      0.027361
      6.40959      6.40959      9.63653        -0.000912     -0.000538      0.023546
      4.27306      6.40948     11.78544        -0.000000      0.000669     -0.008808
      6.40951      8.54611     11.78486        -0.001320      0.000005     -0.008394
      4.27306      8.54611     13.91020        -0.000000      0.000002     -0.263237
      6.40974      6.40971     13.90370         0.000264     -0.000321     -0.226692
      4.27306      2.13653      7.50000         0.000001      0.000060      0.629171
      6.40959      4.27306      7.50000        -0.000047      0.000000      0.629235
      4.27306      4.27306      9.63653        -0.000001      0.000005      0.027250
      6.40959      2.13653      9.63653        -0.000907      0.000535      0.023546
      4.27306      2.13663     11.78544         0.000002     -0.000674     -0.008789
      6.40927      4.27306     11.78533         0.000081     -0.000002     -0.010083
      4.27306      4.27306     13.91123        -0.000001     -0.000002     -0.266513
      6.40974      2.13640     13.90370         0.000263      0.000321     -0.226696
      0.00000      6.40959      9.63653         0.000002     -0.000269      0.040780
      2.13653      0.00000      9.63653         0.001420     -0.000002      0.041402
      0.00000      0.00000      7.50000         0.000002     -0.000005     -0.274168
      2.13653      6.40959      7.50000        -0.000108      0.000101     -0.274276
      0.00000      6.40948     13.94828         0.000002      0.000051     -0.179475
      2.13589      8.54611     13.94861         0.002932      0.000002     -0.178368
      0.00000      8.54611     11.77802        -0.000002      0.000003      0.015108
      2.13683      6.40952     11.77820        -0.001338     -0.000186      0.012799
      0.00000      2.13653      9.63653        -0.000001      0.000267      0.040786
      2.13653      4.27306      9.63653         0.001630     -0.000000      0.042043
      0.00000      4.27306      7.50000         0.000001      0.000008     -0.274297
      2.13653      2.13653      7.50000        -0.000101     -0.000102     -0.274262
      8.54611      2.13663     13.94828         0.000003     -0.000053     -0.179488
      2.13649      4.27306     13.94947        -0.000546      0.000002     -0.180720
      8.54611      4.27306     11.77842         0.000001     -0.000002      0.014642
      2.13683      2.13659     11.77820        -0.001336      0.000187      0.012800
      4.27306      6.40959      9.63653        -0.000003     -0.000304      0.042653
      6.40959      0.00000      9.63653        -0.001418     -0.000000      0.041405
      4.27306      0.00000      7.50000        -0.000001      0.000001     -0.274195
      6.40959      6.40959      7.50000         0.000108      0.000102     -0.274271
      4.27306      6.40984     13.95040        -0.000002     -0.000505     -0.182738
      6.41023      8.54611     13.94861        -0.002930     -0.000000     -0.178362
      4.27306      8.54611     11.77982        -0.000000      0.000002      0.005070
      6.40928      6.40952     11.77820         0.001340     -0.000185      0.012801
      4.27306      2.13653      9.63653        -0.000001      0.000304      0.042649
      6.40959      4.27306      9.63653        -0.001630     -0.000003      0.042043
      4.27306      4.27306      7.50000         0.000000     -0.000002     -0.274287
      6.40959      2.13653      7.50000         0.000099     -0.000102     -0.274268
      4.27306      2.13627     13.95040        -0.000004      0.000502     -0.182733
      6.40963      4.27306     13.94947         0.000547      0.000002     -0.180727
      4.27306      4.27306     11.78019        -0.000001     -0.000006      0.004078
      6.40928      2.13659     11.77820         0.001337      0.000185      0.012804
    total drift:                                0.000002     -0.000003      0.005949

  FREE ENERGIE OF THE ION-ELECTRON SYSTEM (eV)
  free  energy   TOTEN  =      -437.15630350 eV

  energy  without entropy=     -437.15630350  energy(sigma->0) =     -437.15630350