 vasp.6.3.0 20Jan22 (build Dec 25 2023 18:06:01) complex
 executed on        HPECrayEX_GCC date 2024.01.26  08:09:06

 INCAR:
   SYSTEM = TiO2
   ISMEAR = 0
   SIGMA = 0.05
   EDIFF = 1E-5
   ALGO = ALL
   ISTART = 0
   IBRION = -1
   NSW = 0
   ISYM = 0
   ISIF = 2
   EDIFFG = -0.01
   DIPOL = 0.5 0.5 0.5
   IDIPOL = 3
   LDIPOL = .TRUE.
   LHFCALC = .TRUE.
   HFSCREEN = 0.2
   GGA = PE
   IVDW = 13
   VDW_S8 = 1.19528249
   VDW_A1 = 0.38663183
   VDW_A2 = 5.19133469
   ENCUT = 520
   PREC = Normal
   PRECFOCK = Fast
   LASPH = .TRUE.
   LREAL = .FALSE.
   ISPIN = 1
   NKREDX = 3
   NKREDY = 3
   NELM = 200
   NELMIN = 8
   NCORE = 2
   KPAR = 1
   LWAVE = .FALSE.
   LCHARG = .FALSE.

 POTCAR:    PAW_PBE Ti 08Apr2002
 POTCAR:    PAW_PBE O 08Apr2002
 POTCAR:    PAW_PBE Ti 08Apr2002
   VRHFIN =Ti: d3 s1

   TITEL  = PAW_PBE Ti 08Apr2002
   POMASS =   47.880; ZVAL   =    4.000    mass and valenz
   ENMAX  =  178.330; ENMIN  =  133.747 eV

   TITEL  = PAW_PBE O 08Apr2002
   POMASS =   16.000; ZVAL   =    6.000    mass and valenz
   ENMAX  =  400.000; ENMIN  =  300.000 eV

  PAW_PBE Ti 08Apr2002                  :
  PAW_PBE O 08Apr2002                   :

 POSCAR: Ti  O
  positions in direct lattice
|           W    W    AA    RRRRR   N    N  II  N    N   GGGG   !!!           |
|           W    W   A  A   R    R  NN   N  II  NN   N  G    G  !!!           |
|           W    W  A    A  R    R  N N  N  II  N N  N  G       !!!           |
|           W WW W  AAAAAA  RRRRR   N  N N  II  N  N N  G  GGG   !            |
|           WW  WW  A    A  R   R   N   NN  II  N   NN  G    G                |
|           W    W  A    A  R    R  N    N  II  N    N   GGGG   !!!           |
|     Specifying the vdW parameters                                           |
|     VDW_S8 = 1.195                                                          |
|     VDW_A1 = 0.387                                                          |
|     VDW_A2 = 5.191                                                          |
|     in the INCAR file will overwrite the defaults for hse06. Please         |
|     make sure that is what you intended.                                    |

 ion  position               nearest neighbor table
   1  0.810  0.833  0.295-  51 1.94  85 1.94  53 1.94  52 2.00  50 2.00   4 3.06  18 3.06   2 3.06

   2  0.594  0.667  0.326-  54 1.94 116 1.94  49 1.94  52 1.94  55 2.00  53 2.00   3 3.06  33 3.06
                             1 3.06   7 3.09
   3  0.310  0.667  0.295-  55 1.94 121 1.94  57 1.94  56 2.00  49 2.00   2 3.06  36 3.06   4 3.06

   4  0.094  0.833  0.326-  58 1.94  88 1.94  50 1.94  56 1.94  51 2.00  57 2.00   1 3.06  19 3.06
                             3 3.06   5 3.09
   5  0.946  0.833  0.422-  59 1.93  93 1.94  61 1.94  51 1.98  60 1.99  58 2.00   8 3.01  22 3.06
                             6 3.06   4 3.09
   6  0.728  0.666  0.451-  54 1.90 124 1.94  60 1.95  62 1.96  63 1.99  61 2.00   7 3.02   5 3.06
                            37 3.06  11 3.11
   7  0.446  0.666  0.422-  63 1.93 129 1.94  65 1.94  55 1.98  64 1.99  54 2.01   6 3.02   8 3.06
                            40 3.06   2 3.09
   8  0.227  0.833  0.451-  58 1.90  96 1.94  64 1.94  66 1.97  59 1.98  65 2.01   5 3.01  23 3.06
                             7 3.06   9 3.11
   9  0.087  0.833  0.550-  67 1.93 101 1.93  69 1.94  68 1.98  59 2.01  66 2.01  12 2.96  10 3.05
                            26 3.06   8 3.11
  10  0.866  0.666  0.575-  62 1.87 132 1.94  68 1.95  71 1.96  70 2.01  69 2.01  11 2.98   9 3.05
                            41 3.06
  11  0.585  0.666  0.549- 137 1.93  73 1.94  71 1.94  72 1.98  63 1.98  62 2.01  10 2.98  12 3.06
                            44 3.07   6 3.11
  12  0.365  0.833  0.576-  66 1.87 104 1.94  72 1.95  67 1.96  74 2.00  73 2.02   9 2.96  11 3.06
                            27 3.06
  13  0.232  0.833  0.680-  75 1.87  77 1.93 109 1.94  76 2.00  67 2.09  74 2.09  16 2.86  30 3.08
                            14 3.09
  14  0.002  0.666  0.700-  70 1.78  78 1.84 140 1.97  76 1.99  77 2.06  15 2.87  13 3.09  45 3.11

[...]

  17  0.810  0.167  0.295-  83 1.94  85 1.94 117 1.94  84 2.00  82 2.00  20 3.06  18 3.06  34 3.06

[...]

  36  0.094  0.500  0.326- 122 1.94 120 1.94  56 1.94 114 1.94 115 2.00 121 2.00  33 3.06   3 3.06
                            35 3.06  37 3.08
  37  0.948  0.500  0.422- 123 1.93 125 1.94  61 1.94 115 1.98 122 1.99 124 2.00  40 3.01   6 3.06
                            38 3.06  36 3.08
  38  0.728  0.334  0.451- 118 1.90 124 1.94  92 1.95 126 1.96 127 1.99 125 2.00  39 3.02  21 3.06
                            37 3.06  43 3.11
  39  0.446  0.334  0.422- 127 1.93 129 1.94  97 1.94 119 1.98 128 1.99 118 2.01  38 3.02  24 3.06
                            40 3.06  34 3.09
  40  0.227  0.500  0.453- 122 1.93  64 1.94 128 1.94 123 1.97 130 1.97 129 2.01  37 3.01   7 3.06
                            39 3.06  41 3.08
  41  0.090  0.500  0.550- 131 1.92 133 1.94  69 1.94 130 1.98 132 2.01 123 2.01  44 2.97  10 3.06
                            42 3.06  40 3.08
  42  0.866  0.334  0.575- 126 1.87 132 1.94 100 1.95 135 1.96 134 2.01 133 2.01  43 2.98  25 3.05
                            41 3.06
  43  0.585  0.334  0.549- 137 1.93 105 1.94 135 1.94 136 1.98 127 1.98 126 2.01  42 2.98  28 3.06
                            44 3.07  38 3.11
  44  0.367  0.500  0.579- 130 1.93 136 1.95  72 1.95 131 1.95 138 1.97 137 2.03  41 2.97  43 3.07
                            11 3.07  45 3.14
  45  0.236  0.500  0.681- 139 1.86 141 1.94  77 1.94 140 2.03 138 2.04 131 2.10  48 2.89  14 3.11
                            46 3.11  44 3.14
  46  0.002  0.334  0.700- 134 1.78 142 1.84 140 1.97 108 1.99 141 2.06  47 2.87  29 3.09  45 3.11

  47  0.731  0.333  0.678- 142 1.89 144 1.94 112 1.94 143 1.99 135 2.04 134 2.09  46 2.87  32 3.08
                            48 3.09
  48  0.507  0.500  0.706- 139 1.84 138 1.88 143 1.99  79 1.99 144 2.06  45 2.89  47 3.09  15 3.09

  49  0.490  0.667  0.268-   2 1.94   3 2.00
  50  0.990  0.833  0.268-   4 1.94   1 2.00
  51  0.914  0.833  0.353-   1 1.94   5 1.98   4 2.00
  52  0.630  0.833  0.321-  18 1.94   2 1.94   1 2.00
  53  0.773  0.667  0.300-  33 1.94   1 1.94   2 2.00
  54  0.625  0.667  0.395-   6 1.90   2 1.94   7 2.01
  55  0.414  0.667  0.353-   3 1.94   7 1.98   2 2.00
  56  0.130  0.667  0.321-  36 1.94   4 1.94   3 2.00
  57  0.273  0.833  0.300-  19 1.94   3 1.94   4 2.00
  58  0.125  0.833  0.395-   8 1.90   4 1.94   5 2.00
  59  0.051  0.834  0.480-   5 1.93   8 1.98   9 2.01
  60  0.766  0.833  0.447-  22 1.94   6 1.95   5 1.99
  61  0.910  0.667  0.427-   5 1.94  37 1.94   6 2.00
  62  0.764  0.666  0.520-  10 1.87   6 1.96  11 2.01
  63  0.551  0.666  0.480-   7 1.93  11 1.98   6 1.99
  64  0.266  0.667  0.448-  40 1.94   8 1.94   7 1.99
  65  0.409  0.833  0.427-  23 1.94   7 1.94   8 2.01
  66  0.264  0.833  0.521-  12 1.87   8 1.97   9 2.01
  67  0.194  0.833  0.607-   9 1.93  12 1.96  13 2.09
  68  0.905  0.833  0.573-  26 1.94  10 1.95   9 1.98
  69  0.051  0.667  0.553-   9 1.94  41 1.94  10 2.01
  70  0.913  0.667  0.645-  14 1.78  10 2.01  15 2.09
  71  0.695  0.668  0.606-  11 1.94  10 1.96  15 2.04
  72  0.405  0.667  0.574-  44 1.95  12 1.95  11 1.98
  73  0.550  0.833  0.553-  27 1.94  11 1.94  12 2.02
  74  0.412  0.836  0.646-  16 1.78  12 2.00  13 2.09
  75  0.348  0.833  0.731-  16 1.84  13 1.87
  76  0.053  0.833  0.708-  30 1.98  14 1.99  13 2.00
  77  0.195  0.666  0.681-  13 1.93  45 1.94  14 2.06
  78  0.844  0.664  0.730-  14 1.84  15 1.89
  79  0.554  0.669  0.707-  16 1.96  48 1.99  15 1.99
  80  0.696  0.834  0.679-  31 1.93  15 1.94  16 2.06
  81  0.490  0.000  0.268-  18 1.94  19 2.00
  82  0.990  0.167  0.268-  20 1.94  17 2.00
  83  0.914  0.167  0.353-  17 1.94  21 1.98  20 2.00
  84  0.630  0.167  0.321-  18 1.94  34 1.94  17 2.00
  85  0.773  0.000  0.300-   1 1.94  17 1.94  18 2.00
  86  0.625  0.000  0.395-  22 1.90  18 1.94  23 2.00
  87  0.414  0.000  0.353-  19 1.94  23 1.98  18 2.00
  88  0.130  0.000  0.321-   4 1.94  20 1.94  19 2.00
  89  0.273  0.167  0.300-  19 1.94  35 1.94  20 2.00
  90  0.125  0.167  0.395-  24 1.90  20 1.94  21 2.00
  91  0.051  0.166  0.480-  21 1.93  24 1.98  25 2.01
  92  0.766  0.167  0.447-  22 1.94  38 1.95  21 1.99
  93  0.910  0.000  0.426-   5 1.94  21 1.94  22 2.00
  94  0.764  0.000  0.520-  26 1.87  22 1.97  27 2.01
  95  0.551  0.000  0.479-  23 1.93  22 1.99  27 2.00
  96  0.266  0.000  0.448-   8 1.94  24 1.94  23 1.99
  97  0.409  0.167  0.427-  23 1.94  39 1.94  24 2.01
  98  0.264  0.167  0.521-  28 1.87  24 1.97  25 2.01
  99  0.194  0.167  0.607-  25 1.93  28 1.96  29 2.09
 100  0.905  0.167  0.573-  26 1.94  42 1.95  25 1.98
 101  0.051  1.000  0.553-   9 1.93  25 1.93  26 2.02
 102  0.913  0.000  0.645-  30 1.79  26 2.01  31 2.08
 103  0.694  1.000  0.606-  27 1.93  26 1.95  31 2.10
 104  0.405  0.000  0.573-  28 1.94  12 1.94  27 1.98
 105  0.550  0.167  0.553-  27 1.94  43 1.94  28 2.02
 106  0.412  0.164  0.646-  32 1.78  28 2.00  29 2.09
 107  0.348  0.167  0.731-  32 1.84  29 1.87
 108  0.053  0.167  0.708-  30 1.98  46 1.99  29 2.00
[...]
 130  0.265  0.500  0.522-  44 1.93  40 1.97  41 1.98
 131  0.193  0.500  0.607-  41 1.92  44 1.95  45 2.10
 132  0.905  0.500  0.573-  10 1.94  42 1.94  41 2.01
 133  0.051  0.333  0.553-  25 1.94  41 1.94  42 2.01
 134  0.913  0.333  0.645-  46 1.78  42 2.01  47 2.09
 135  0.695  0.332  0.606-  43 1.94  42 1.96  47 2.04
 136  0.405  0.333  0.574-  44 1.95  28 1.95  43 1.98
 137  0.550  0.500  0.554-  11 1.93  43 1.93  44 2.03
 138  0.412  0.500  0.648-  48 1.88  44 1.97  45 2.04
 139  0.346  0.500  0.734-  48 1.84  45 1.86
 140  0.052  0.500  0.708-  14 1.97  46 1.97  45 2.03
 141  0.195  0.334  0.681-  29 1.93  45 1.94  46 2.06
 142  0.844  0.336  0.730-  46 1.84  47 1.89
 143  0.554  0.331  0.707-  32 1.96  48 1.99  47 1.99
 144  0.693  0.500  0.678-  15 1.94  47 1.94  48 2.06

IMPORTANT INFORMATION: All symmetrisations will be switched off!
NOSYMM: (Re-)initialisation of all symmetry stuff for point group C_1.

                                     Primitive cell

  volume of cell :    3284.6826

  direct lattice vectors                    reciprocal lattice vectors
    10.317568932  0.000000000  0.000000000     0.096922057 -0.000000000  0.000000000
     0.000000000 11.392502081  0.000000000     0.000000000  0.087777030  0.000000000
     0.000000000  0.000000000 27.944536660     0.000000000  0.000000000  0.035785170

  length of vectors
    10.317568932 11.392502081 27.944536660     0.096922057  0.087777030  0.035785170

  position of ions in fractional coordinates (direct lattice)
     0.809724695  0.833333333  0.294673730
     0.593592026  0.666666667  0.326262387
     0.309724695  0.666666667  0.294673730
     0.093592026  0.833333333  0.326262387
     0.946073033  0.833349367  0.422401734
     0.727775274  0.666264773  0.451114060
     0.445592035  0.666426381  0.422285514
     0.227025713  0.833290707  0.451410487
     0.086560524  0.833438676  0.550061468
     0.865964034  0.666099241  0.575377734
     0.585413195  0.666384520  0.549351735
     0.364880070  0.833349907  0.576228574
[...]
   4.26887158  7.59500139  9.85177208
   1.34005082  7.59500139  8.96904170
   2.82119725  9.49375173  8.38273038
   1.29009059  9.49375173 11.03092153
   0.52458563  9.49711798 13.40034153
   7.90041415  9.49304796 12.49697423
[...]
   2.73448287  5.69625101 14.57668107
   1.99471150  5.69625110 16.97163323
   9.33889950  5.69625105 16.01147790
   0.52688810  3.79888021 15.45526695
   9.42040319  3.79254167 18.02447904
   7.16931779  3.78621309 16.92807792
   4.18340944  3.79842289 16.04576914
   5.67963969  5.69625108 15.47762616
   4.24866884  5.69625123 18.11097999
   3.56764870  5.69625116 20.49840083
   0.54166700  5.69625123 19.78266201
   2.01184675  3.80080276 19.03412859
   8.71008462  3.82921401 20.41336937
   5.71526154  3.76887418 19.74753890
   7.15052127  5.69625124 18.95206621

--------------------------------------- Iteration      FINAL  ---------------------------------------

--------------------OUTCAR has been truncated-------------------------

[...]

--------------------OUTCAR has been truncated-------------------------

  FORCE on cell =-STRESS in cart. coord.  units (eV):
  Direction    XX          YY          ZZ          XY          YZ          ZX
  Alpha Z  1508.64501  1508.64501  1508.64501
  Ewald  253400.56658251573.93116************     0.00010     0.00008  -623.34204
  Hartree264442.65420263833.66418************     0.00002     0.00002  -295.62555
  E(xc)   -2793.78564 -2787.01402 -2778.93007    -0.00000    -0.00000    -2.40753
  Local  ************************520651.76630    -0.00010    -0.00010   934.93909
  n-local -1750.70946 -1731.41357 -1778.63464     0.00001     0.00001    -5.83638
  augment   803.95198   799.84516   801.24423    -0.00000    -0.00000    -1.02973
  Kinetic 13807.37055 13891.86822 13957.98586    -0.00002     0.00000   -10.79188
  Fock    -1287.68060 -1275.10503 -1273.55031     0.00000     0.00000     0.00049
  vdW       -26.32617   -27.83288   -23.06832    -0.00000    -0.00000    -0.28042
  Total    -118.54697   -72.49490   -60.93143     0.00000     0.00001    -4.37395
  in kB     -57.82393   -35.36101   -29.72067     0.00000     0.00001    -2.13349

 VOLUME and BASIS-vectors are now :
  energy-cutoff  :      520.00
  volume of cell :     3284.68
      direct lattice vectors                 reciprocal lattice vectors
    10.317568932  0.000000000  0.000000000     0.096922057 -0.000000000  0.000000000
     0.000000000 11.392502081  0.000000000     0.000000000  0.087777030  0.000000000
     0.000000000  0.000000000 27.944536660     0.000000000  0.000000000  0.035785170

  length of vectors
    10.317568932 11.392502081 27.944536660     0.096922057  0.087777030  0.035785170

 FORCES acting on ions:
    Electron-Ion                     Ewald-Force                    Non-Local-Force
   0.982E+01 0.343E-01 0.984E+03   -.686E+01 -.333E-01 -.982E+03   0.879E+00 0.331E-03 -.190E+01
   -.158E+01 0.124E-01 0.797E+03   0.523E+00 -.105E-01 -.798E+03   -.684E+00 -.318E-03 -.843E+00
   0.978E+01 0.521E-01 0.984E+03   -.684E+01 -.554E-01 -.981E+03   0.870E+00 -.738E-03 -.190E+01
   -.193E+01 0.581E-01 0.797E+03   0.855E+00 -.621E-01 -.798E+03   -.691E+00 -.932E-03 -.847E+00
   -.535E+00 0.230E+00 0.360E+03   0.401E+00 -.227E+00 -.360E+03   0.115E+00 0.156E-02 0.352E-01
   0.262E+00 -.380E+00 0.225E+03   -.104E+00 0.399E+00 -.225E+03   -.421E-01 0.103E-01 -.130E+00
   -.195E+00 -.408E-01 0.360E+03   0.858E-01 0.582E-01 -.360E+03   0.111E+00 0.523E-02 0.171E-01
   -.148E+01 0.215E+00 0.224E+03   0.168E+01 -.209E+00 -.223E+03   -.374E-01 0.422E-02 -.132E+00
   -.267E+01 0.255E-01 -.235E+03   0.247E+01 -.299E-01 0.234E+03   0.201E+00 0.157E-01 0.160E+00
   -.191E+01 -.920E-01 -.349E+03   0.238E+01 0.153E+00 0.350E+03   -.117E+00 -.627E-02 -.217E+00
   -.775E+00 0.471E+00 -.230E+03   0.693E+00 -.424E+00 0.230E+03   0.178E+00 0.108E-01 0.109E+00
   -.104E+01 0.116E+01 -.353E+03   0.149E+01 -.112E+01 0.354E+03   -.139E+00 0.362E-03 -.254E+00
   0.601E+01 -.333E-01 -.810E+03   -.694E+01 0.122E+00 0.809E+03   0.607E+00 0.120E-01 -.167E-01
   -.258E+02 -.194E+01 -.928E+03   0.273E+02 0.191E+01 0.929E+03   -.745E-01 0.953E-01 0.726E+00
   0.341E+01 -.886E-01 -.802E+03   -.382E+01 0.232E+00 0.801E+03   0.681E+00 0.136E-01 0.166E+00
   -.272E+02 -.904E+00 -.926E+03   0.288E+02 0.109E+01 0.927E+03   0.510E-02 0.601E-01 0.681E+00
   0.982E+01 -.343E-01 0.984E+03   -.686E+01 0.333E-01 -.982E+03   0.879E+00 -.331E-03 -.190E+01
   -.158E+01 0.267E-06 0.797E+03   0.517E+00 0.553E-06 -.798E+03   -.687E+00 0.946E-07 -.847E+00
   0.977E+01 0.158E-06 0.984E+03   -.681E+01 0.273E-06 -.981E+03   0.876E+00 -.502E-06 -.190E+01
   -.193E+01 -.581E-01 0.797E+03   0.855E+00 0.621E-01 -.798E+03   -.691E+00 0.932E-03 -.847E+00
   -.535E+00 -.230E+00 0.360E+03   0.401E+00 0.227E+00 -.360E+03   0.115E+00 -.156E-02 0.352E-01
   -.499E+00 -.122E-05 0.225E+03   0.664E+00 0.207E-05 -.225E+03   -.263E-01 -.499E-06 -.130E+00
   -.525E-01 0.124E-05 0.360E+03   -.686E-01 -.496E-06 -.360E+03   0.109E+00 -.516E-06 0.253E-01
   -.148E+01 -.215E+00 0.224E+03   0.168E+01 0.209E+00 -.223E+03   -.374E-01 -.421E-02 -.132E+00
   -.267E+01 -.255E-01 -.235E+03   0.247E+01 0.299E-01 0.234E+03   0.201E+00 -.157E-01 0.160E+00
   -.245E+01 0.364E-05 -.352E+03   0.296E+01 -.461E-05 0.353E+03   -.118E+00 -.109E-05 -.216E+00
   -.206E+01 0.648E-05 -.233E+03   0.189E+01 -.693E-05 0.232E+03   0.208E+00 -.108E-05 0.181E+00
   -.104E+01 -.116E+01 -.353E+03   0.149E+01 0.112E+01 0.354E+03   -.139E+00 -.362E-03 -.254E+00
   0.601E+01 0.333E-01 -.810E+03   -.694E+01 -.122E+00 0.809E+03   0.607E+00 -.120E-01 -.167E-01
   -.266E+02 -.114E-04 -.927E+03   0.282E+02 0.891E-05 0.928E+03   -.250E-01 -.388E-06 0.681E+00
   0.491E+01 0.103E-04 -.809E+03   -.572E+01 -.254E-04 0.808E+03   0.595E+00 -.486E-05 0.262E-01
   -.272E+02 0.904E+00 -.926E+03   0.288E+02 -.109E+01 0.927E+03   0.509E-02 -.601E-01 0.681E+00
   0.982E+01 0.415E-06 0.984E+03   -.685E+01 -.460E-06 -.982E+03   0.883E+00 -.195E-06 -.190E+01
   -.158E+01 -.124E-01 0.797E+03   0.523E+00 0.105E-01 -.798E+03   -.684E+00 0.317E-03 -.843E+00
   0.978E+01 -.521E-01 0.984E+03   -.684E+01 0.554E-01 -.981E+03   0.870E+00 0.739E-03 -.190E+01
   -.205E+01 0.682E-06 0.797E+03   0.101E+01 -.227E-06 -.798E+03   -.689E+00 -.615E-06 -.818E+00
   0.227E+00 -.293E-05 0.360E+03   -.445E+00 0.421E-05 -.360E+03   0.106E+00 -.245E-06 0.471E-01
   0.262E+00 0.380E+00 0.225E+03   -.104E+00 -.399E+00 -.225E+03   -.421E-01 -.103E-01 -.130E+00
   -.195E+00 0.408E-01 0.360E+03   0.858E-01 -.582E-01 -.360E+03   0.111E+00 -.523E-02 0.171E-01
   -.225E+01 0.531E-05 0.218E+03   0.246E+01 -.524E-05 -.218E+03   -.439E-01 -.296E-06 -.590E-01
   -.118E+01 0.111E-04 -.236E+03   0.770E+00 -.107E-04 0.236E+03   0.159E+00 -.865E-07 0.156E+00
   -.191E+01 0.920E-01 -.349E+03   0.238E+01 -.153E+00 0.350E+03   -.117E+00 0.627E-02 -.217E+00
   -.775E+00 -.471E+00 -.230E+03   0.693E+00 0.424E+00 0.230E+03   0.178E+00 -.108E-01 0.109E+00
   -.160E+01 0.533E-05 -.369E+03   0.192E+01 -.496E-05 0.368E+03   -.159E+00 0.112E-06 -.166E+00
   0.780E+01 0.160E-04 -.813E+03   -.912E+01 -.174E-04 0.812E+03   0.377E+00 -.891E-06 0.160E-01
   -.258E+02 0.194E+01 -.928E+03   0.273E+02 -.191E+01 0.929E+03   -.745E-01 -.953E-01 0.726E+00
   0.341E+01 0.886E-01 -.802E+03   -.382E+01 -.232E+00 0.801E+03   0.681E+00 -.135E-01 0.166E+00
   -.285E+02 -.585E-05 -.958E+03   0.289E+02 0.209E-04 0.956E+03   -.972E-01 0.414E-05 0.103E+01
   -.676E+01 0.274E-01 0.159E+04   0.119E+02 -.278E-01 -.161E+04   -.628E+01 -.395E-03 0.165E+02
   -.693E+01 0.336E-01 0.159E+04   0.121E+02 -.346E-01 -.161E+04   -.628E+01 0.204E-02 0.165E+02
   0.438E+02 0.205E+00 0.100E+04   -.485E+02 -.199E+00 -.100E+04   0.345E+01 -.657E-02 -.405E+01
   0.315E+02 0.613E-01 0.122E+04   -.388E+02 -.588E-01 -.122E+04   0.686E+01 -.280E-02 -.249E+01
   -.430E+02 0.184E-01 0.140E+04   0.503E+02 -.198E-01 -.140E+04   -.633E+01 0.718E-03 -.306E+00
   -.362E+02 -.250E+00 0.746E+03   0.419E+02 0.307E+00 -.750E+03   -.517E+01 -.490E-01 0.402E+01
   0.442E+02 0.151E+00 0.100E+04   -.489E+02 -.129E+00 -.100E+04   0.343E+01 -.227E-01 -.392E+01
   0.310E+02 0.103E+00 0.122E+04   -.382E+02 -.113E+00 -.122E+04   0.688E+01 0.178E-01 -.250E+01
   -.431E+02 0.621E-01 0.140E+04   0.504E+02 -.603E-01 -.140E+04   -.631E+01 -.377E-02 -.308E+00
   -.380E+02 0.218E+00 0.747E+03   0.438E+02 -.212E+00 -.751E+03   -.526E+01 -.823E-02 0.410E+01
   0.393E+02 -.150E+00 0.121E+03   -.458E+02 0.233E+00 -.116E+03   0.588E+01 -.772E-01 -.467E+01
   0.402E+02 0.363E+00 0.350E+03   -.469E+02 -.441E+00 -.347E+03   0.610E+01 0.633E-01 -.281E+01
[...]
   0.427E+02 0.274E-04 -.773E+03   -.499E+02 -.265E-04 0.781E+03   0.660E+01 -.714E-06 -.707E+01
   0.369E+02 0.245E-04 -.523E+03   -.430E+02 -.277E-04 0.526E+03   0.550E+01 -.550E-07 -.279E+01
   -.424E+02 -.578E+00 -.354E+03   0.488E+02 0.572E+00 0.352E+03   -.580E+01 0.341E-01 0.253E+01
   -.380E+02 0.109E+01 -.975E+03   0.399E+02 -.147E+01 0.965E+03   -.201E+01 0.344E+00 0.885E+01
   0.438E+02 0.113E+01 -.759E+03   -.502E+02 -.148E+01 0.765E+03   0.571E+01 0.333E+00 -.562E+01
   0.388E+02 -.189E+01 -.533E+03   -.454E+02 0.180E+01 0.536E+03   0.593E+01 0.158E+00 -.283E+01
   -.379E+02 -.138E-05 -.360E+03   0.440E+02 -.606E-05 0.358E+03   -.558E+01 0.227E-05 0.225E+01
   -.413E+02 0.177E-05 -.995E+03   0.461E+02 0.940E-05 0.988E+03   -.391E+01 -.125E-04 0.724E+01
   0.163E+02 -.114E-04 -.159E+04   -.228E+02 0.165E-04 0.161E+04   0.629E+01 -.673E-05 -.193E+02
   0.300E+02 0.498E-04 -.143E+04   -.340E+02 -.572E-04 0.144E+04   0.370E+01 -.694E-06 -.711E+01
   -.258E+02 0.271E+00 -.122E+04   0.306E+02 -.150E+00 0.122E+04   -.426E+01 0.810E-03 0.259E+01
   0.171E+02 0.309E-01 -.159E+04   -.234E+02 0.474E+00 0.161E+04   0.556E+01 -.498E+00 -.200E+02
   0.304E+02 -.251E+01 -.143E+04   -.356E+02 0.237E+01 0.143E+04   0.453E+01 0.724E+00 -.545E+01
   -.234E+02 0.505E-04 -.120E+04   0.283E+02 -.479E-04 0.120E+04   -.466E+01 -.977E-05 0.454E+01
   -.182E+02 0.150E-04 0.676E+02   0.455E-12 0.141E-11 0.000E+00   0.197E+02 -.366E-05 -.612E+02

 POSITION                                       TOTAL-FORCE (eV/Angst)
      8.35439      9.49375      8.23452         4.259808      0.001353      2.162445
      6.12443      7.59500      9.11725        -1.873724      0.001480     -2.077937
      3.19561      7.59500      8.23452         4.229303     -0.004053      2.145586
      0.96564      9.49375      9.11725        -1.906555     -0.005116     -2.082128
      9.76117      9.49393     11.80382        -0.014941      0.008567      0.023585
      7.50887      7.59042     12.60617         0.005552      0.001912      0.008742
      4.59743      7.59226     11.80057        -0.009483      0.005952      0.016743
      2.34235      9.49327     12.61446        -0.009697      0.010254      0.006258
      0.89309      9.49495     15.37121        -0.015817      0.020011      0.041890
      8.93464      7.58854     16.07866         0.032186      0.019264      0.088145
      6.04004      7.59179     15.35138         0.049580      0.046634      0.004565
      3.76468      9.49394     16.10244        -0.024220      0.060023      0.029010
      2.39242      9.48667     19.00805        -0.083161      0.072805      0.049105
      0.01980      7.58351     19.55485        -0.095842      0.002104      0.180388
      7.53701      7.59477     18.93722         0.422235      0.144208      0.296911
      5.19832      9.50902     19.55032         0.093364      0.222571      0.067351
      8.35439      1.89875      8.23452         4.259808     -0.001355      2.162445
      6.12443      0.00000      9.11725        -1.892327      0.000001     -2.076920
      3.19561      0.00000      8.23452         4.252055     -0.000000      2.156637
      0.96564      1.89875      9.11725        -1.906554      0.005115     -2.082129
      9.76117      1.89857     11.80382        -0.014943     -0.008568      0.023586
      7.50545     11.39250     12.60777        -0.006084      0.000000      0.018023
      4.59948     11.39250     11.80355        -0.005528      0.000000      0.027678
      2.34235      1.89924     12.61446        -0.009694     -0.010254      0.006258
      0.89309      1.89755     15.37121        -0.015814     -0.020013      0.041893
      8.92331      0.00000     16.09066         0.006700     -0.000002      0.076506
      6.04651      0.00000     15.36077         0.019849     -0.000001      0.038900
      3.76468      1.89856     16.10244        -0.024221     -0.060022      0.029011
      2.39242      1.90583     19.00805        -0.083158     -0.072804      0.049101
      0.04104     11.39250     19.55555         0.123425     -0.000003      0.048162
      7.56701      0.00000     18.99159         0.055100     -0.000019      0.051650
      5.19832      1.88348     19.55032         0.093332     -0.222595      0.067346
      8.35439      5.69625      8.23452         4.270954     -0.000000      2.156071
      6.12443      3.79750      9.11725        -1.873724     -0.001482     -2.077936
      3.19561      3.79750      8.23452         4.229304      0.004052      2.145585
      0.96564      5.69625      9.11725        -1.874445     -0.000000     -2.008531
      9.77654      5.69625     11.79899        -0.030018      0.000001     -0.002091
      7.50887      3.80208     12.60617         0.005549     -0.001913      0.008743
      4.59743      3.80024     11.80057        -0.009481     -0.005953      0.016742
      2.34553      5.69625     12.64499        -0.014371     -0.000000     -0.063435
      0.92354      5.69625     15.37752        -0.100153      0.000000     -0.043229
      8.93464      3.80397     16.07866         0.032184     -0.019263      0.088134
      6.04004      3.80072     15.35138         0.049581     -0.046634      0.004559
      3.78203      5.69625     16.19260        -0.106141      0.000000     -0.439041
      2.43097      5.69625     19.02822        -0.535941     -0.000003     -0.118299
      0.01980      3.80899     19.55485        -0.095816     -0.002098      0.180373
      7.53701      3.79773     18.93723         0.422240     -0.144190      0.296892
      5.23361      5.69625     19.71813        -0.987822      0.000019     -2.099485
      5.05116      7.59500      7.50000        -2.100630     -0.001006      1.578429
     10.20995      9.49375      7.50000        -2.096327      0.001562      1.573928
      9.42766      9.49375      9.85177        -0.822341     -0.001793     -0.329334
      6.49884      9.49375      8.96904         0.652516     -0.000776     -0.182351
      7.97998      7.59500      8.38273         0.083466     -0.000673     -1.069808
      6.44888      7.59500     11.03092        -0.303368      0.000612      0.562502
      4.26887      7.59500      9.85177        -0.828347     -0.004250     -0.310294
      1.34005      7.59500      8.96904         0.663773      0.010806     -0.190491
      2.82120      9.49375      8.38273         0.093497     -0.002511     -1.071973
      1.29009      9.49375     11.03092        -0.239927     -0.002740      0.595330
      0.52459      9.49712     13.40034         0.245242     -0.004929     -0.149575
      7.90041      9.49305     12.49697         0.245065     -0.004852     -0.111563
[...]
      2.73448      5.69625     14.57668        -0.168652     -0.000000      0.226303
      1.99471      5.69625     16.97163         0.402321     -0.000000     -0.108603
      9.33890      5.69625     16.01148         0.248232     -0.000004     -0.111281
      0.52689      3.79888     15.45527        -0.216872      0.034610      0.091119
      9.42040      3.79254     18.02448        -0.334508      0.016451     -0.146884
      7.16932      3.78621     16.92808         0.184699      0.027440     -0.225732
      4.18341      3.79842     16.04577         0.211938      0.092198     -0.071515
      5.67964      5.69625     15.47763        -0.282175     -0.000005      0.124369
      4.24867      5.69625     18.11098         0.359278     -0.000003      1.094453
      3.56765      5.69625     20.49840         0.779901     -0.000003     -0.154781
      0.54167      5.69625     19.78266         0.325027     -0.000009     -0.247138
      2.01185      3.80080     19.03413        -0.074317      0.127250      0.076219
      8.71008      3.82921     20.41337         0.122365     -0.067314     -0.679937
      5.71526      3.76887     19.74754         0.072377      0.712014      0.180224
      7.15052      5.69625     18.95207        -0.508331     -0.000009      0.439441
    total drift:                                0.042707      0.000013      0.024453

  FREE ENERGIE OF THE ION-ELECTRON SYSTEM (eV)
  free  energy   TOTEN  =     -1569.95432298 eV

  energy  without entropy=    -1569.95432298  energy(sigma->0) =    -1569.95432298