 vasp.6.3.0 20Jan22 (build Apr  1 2022 16:44:48) complex
 executed on        HPECrayEX_GCC date 2023.02.23  10:13:15

 INCAR:
   SYSTEM = MgO-rocksalt
   ISMEAR = 0
   SIGMA = 0.05
   EDIFF = 1E-6
   ALGO = ALL
   ISTART = 0
   IBRION = -1
   NSW = 0
   ISYM = 0
   DIPOL = 0.5 0.5 0.5
   IDIPOL = 3
   LDIPOL = .TRUE.
   LHFCALC = .TRUE.
   GGA = B5
   AEXX = 0.2
   AGGAX = 0.72
   AGGAC = 0.81
   ALDAC = 0.19
   IVDW = 1
   VDW_S6 = 1.05
   VDW_C6 = 0.63 0.70
   VDW_R0 = 1.243 1.342
   ENCUT = 600
   PREC = Accurate
   LASPH = .TRUE.
   LREAL = .FALSE.
   ISPIN = 1
   NELM = 200
   NELMIN = 8
   NCORE = 8
   KPAR = 1
   LWAVE = .FALSE.
   LCHARG = .FALSE.

 POTCAR:    PAW_PBE Mg_pv 13Apr2007
 POTCAR:    PAW_PBE O 08Apr2002
 POTCAR:    PAW_PBE Mg_pv 13Apr2007
   VRHFIN =Mg: p6s2

   TITEL  = PAW_PBE Mg_pv 13Apr2007
   POMASS =   24.305; ZVAL   =    8.000    mass and valenz
   ENMAX  =  403.929; ENMIN  =  302.947 eV

   TITEL  = PAW_PBE O 08Apr2002
   POMASS =   16.000; ZVAL   =    6.000    mass and valenz
   ENMAX  =  400.000; ENMIN  =  300.000 eV

  PAW_PBE Mg_pv 13Apr2007               :
  PAW_PBE O 08Apr2002                   :

 POSCAR: Mg  O
  positions in direct lattice
 exchange correlation table for  LEXCH =       12
   RHO(1)=    0.500       N(1)  =     2000
   RHO(2)=  100.500       N(2)  =     4000

 ion  position               nearest neighbor table
   1  0.000  0.750  0.352-  33 2.11  35 2.11  36 2.11  43 2.11  52 2.11
   2  0.250  0.000  0.352-  34 2.11  35 2.11  36 2.11  44 2.11  51 2.11
   3  0.000  0.000  0.451-  35 2.11  34 2.11  33 2.11  41 2.11  50 2.11  39 2.12
   4  0.250  0.750  0.451-  36 2.11  34 2.11  33 2.11  42 2.11  49 2.11  40 2.12
   5  0.000  0.750  0.550-  47 2.11  40 2.11  56 2.11  39 2.11  33 2.12  37 2.16
   6  0.250  1.000  0.550-  55 2.11  48 2.11  40 2.11  39 2.11  34 2.12  38 2.16
   7  0.000  1.000  0.648-  39 2.10  38 2.11  54 2.11  45 2.11  37 2.11
   8  0.250  0.750  0.648-  40 2.09  37 2.11  38 2.11  46 2.11  53 2.11
   9  0.000  0.250  0.352-  41 2.11  35 2.11  43 2.11  44 2.11  60 2.11
  10  0.250  0.500  0.352-  42 2.11  36 2.11  43 2.11  44 2.11  59 2.11
  11  0.000  0.500  0.451-  43 2.11  41 2.11  42 2.11  33 2.11  58 2.11  47 2.11
  12  0.250  0.250  0.451-  44 2.11  41 2.11  42 2.11  34 2.11  57 2.11  48 2.12
  13  1.000  0.250  0.550-  47 2.11  64 2.11  48 2.11  39 2.11  41 2.12  45 2.16
  14  0.251  0.500  0.551-  63 2.10  48 2.11  40 2.11  47 2.12  42 2.13  46 2.15
  15  0.000  0.500  0.648-  62 2.09  46 2.09  47 2.10  45 2.12  37 2.12
  16  0.250  0.250  0.648-  48 2.10  38 2.11  45 2.11  61 2.11  46 2.11
  17  0.500  0.750  0.352-  49 2.11  36 2.11  51 2.11  52 2.11  59 2.11
  18  0.750  0.000  0.352-  50 2.11  35 2.11  51 2.11  52 2.11  60 2.11
  19  0.500  0.000  0.451-  51 2.11  49 2.11  50 2.11  34 2.11  57 2.11  55 2.11
  20  0.750  0.750  0.451-  52 2.11  49 2.11  50 2.11  33 2.11  58 2.11  56 2.12
  21  0.500  0.749  0.551-  63 2.10  56 2.11  40 2.11  55 2.12  49 2.13  53 2.15
  22  0.750  1.000  0.550-  55 2.11  64 2.11  56 2.11  39 2.11  50 2.12  54 2.16
  23  0.500  0.000  0.648-  61 2.09  53 2.09  55 2.10  38 2.12  54 2.12
  24  0.750  0.750  0.648-  56 2.09  37 2.11  54 2.11  62 2.11  53 2.11
  25  0.500  0.250  0.352-  57 2.11  51 2.11  44 2.11  59 2.11  60 2.11
  26  0.750  0.500  0.352-  58 2.11  52 2.11  43 2.11  59 2.11  60 2.11
  27  0.500  0.500  0.451-  59 2.11  49 2.11  57 2.11  58 2.11  42 2.11  63 2.14
  28  0.750  0.250  0.451-  60 2.11  50 2.11  57 2.11  58 2.11  41 2.11  64 2.12
  29  0.500  0.251  0.551-  63 2.10  48 2.11  64 2.11  55 2.12  57 2.13  61 2.14
  30  0.749  0.500  0.551-  63 2.10  64 2.11  56 2.11  47 2.12  58 2.13  62 2.15
  31  0.500  0.499  0.655-  61 2.12  62 2.13  46 2.13  53 2.15  63 2.22
  32  0.750  0.250  0.648-  64 2.10  54 2.11  45 2.11  61 2.11  62 2.11
  33  0.000  0.750  0.451-   1 2.11   3 2.11   4 2.11  11 2.11  20 2.11   5 2.12
  34  0.250  0.000  0.451-   2 2.11   3 2.11   4 2.11  12 2.11  19 2.11   6 2.12
  35  0.000  0.000  0.352-   3 2.11   2 2.11   1 2.11   9 2.11  18 2.11
  36  0.250  0.750  0.352-   4 2.11   2 2.11   1 2.11  10 2.11  17 2.11
  37  1.000  0.750  0.651-   7 2.11  24 2.11   8 2.11  15 2.12   5 2.16
  38  0.249  1.000  0.651-   7 2.11  16 2.11   8 2.11  23 2.12   6 2.16
  39  1.000  1.000  0.550-   7 2.10   5 2.11  22 2.11   6 2.11  13 2.11   3 2.12
  40  0.250  0.750  0.550-   8 2.09   6 2.11   5 2.11  21 2.11  14 2.11   4 2.12
  41  0.000  0.250  0.451-   9 2.11   3 2.11  11 2.11  12 2.11  28 2.11  13 2.12
  42  0.250  0.500  0.451-  10 2.11   4 2.11  11 2.11  12 2.11  27 2.11  14 2.13
  43  0.000  0.500  0.352-  11 2.11   9 2.11  10 2.11   1 2.11  26 2.11
  44  0.250  0.250  0.352-  12 2.11   9 2.11  10 2.11   2 2.11  25 2.11
  45  0.000  0.249  0.651-   7 2.11  32 2.11  16 2.11  15 2.12  13 2.16
  46  0.247  0.500  0.651-  15 2.09   8 2.11  16 2.11  31 2.13  14 2.15
  47  0.000  0.500  0.550-  15 2.10   5 2.11  13 2.11  11 2.11  30 2.12  14 2.12
  48  0.250  0.250  0.550-  16 2.10   6 2.11  13 2.11  14 2.11  29 2.11  12 2.12
  49  0.500  0.750  0.451-  17 2.11   4 2.11  19 2.11  20 2.11  27 2.11  21 2.13
  50  0.750  0.000  0.451-  18 2.11   3 2.11  19 2.11  20 2.11  28 2.11  22 2.12
  51  0.500  0.000  0.352-  19 2.11  17 2.11  18 2.11   2 2.11  25 2.11
  52  0.750  0.750  0.352-  20 2.11  17 2.11  18 2.11   1 2.11  26 2.11
  53  0.500  0.753  0.651-  23 2.09   8 2.11  24 2.11  31 2.15  21 2.15
  54  0.751  1.000  0.651-   7 2.11  32 2.11  24 2.11  23 2.12  22 2.16
  55  0.500  1.000  0.550-  23 2.10  22 2.11   6 2.11  19 2.11  21 2.12  29 2.12
  56  0.750  0.750  0.550-  24 2.09  22 2.11   5 2.11  21 2.11  30 2.11  20 2.12
  57  0.500  0.250  0.451-  25 2.11  19 2.11  12 2.11  27 2.11  28 2.11  29 2.13
  58  0.750  0.500  0.451-  26 2.11  20 2.11  11 2.11  27 2.11  28 2.11  30 2.13
  59  0.500  0.500  0.352-  27 2.11  17 2.11  25 2.11  26 2.11  10 2.11
  60  0.750  0.250  0.352-  28 2.11  18 2.11  25 2.11  26 2.11   9 2.11
  61  0.500  0.247  0.651-  23 2.09  16 2.11  32 2.11  31 2.12  29 2.14
  62  0.753  0.500  0.651-  15 2.09  24 2.11  32 2.11  31 2.13  30 2.15
  63  0.500  0.500  0.551-  21 2.10  14 2.10  30 2.10  29 2.10  27 2.14  31 2.22
  64  0.750  0.250  0.550-  32 2.10  22 2.11  13 2.11  30 2.11  29 2.11  28 2.12

IMPORTANT INFORMATION: All symmetrisations will be switched off!
NOSYMM: (Re-)initialisation of all symmetry stuff for point group C_1.

                                     Primitive cell

  volume of cell :    1519.8199

  direct lattice vectors                    reciprocal lattice vectors
     8.440984654  0.000000000  0.000000000     0.118469591  0.000000000  0.000000000
     0.000000000  8.440984654  0.000000000     0.000000000  0.118469591  0.000000000
     0.000000000  0.000000000 21.330738491     0.000000000  0.000000000  0.046880702

  length of vectors
     8.440984654  8.440984654 21.330738491     0.118469591  0.118469591  0.046880702

  position of ions in fractional coordinates (direct lattice)
     0.000000000  0.750000000  0.351605267
     0.250000000  0.000000000  0.351605267
     0.000000000  0.000000000  0.450535089
     0.250000000  0.750000000  0.450535089
     0.000000002  0.749683926  0.549893410
     0.250263522  0.999989873  0.549908943
     0.000000001  0.999953889  0.648375512
     0.249680169  0.750035883  0.648043586
     0.000000000  0.250000000  0.351605267
     0.250000000  0.500000000  0.351605267
     0.000000000  0.500000000  0.450535089
     0.250000000  0.250000000  0.450535089
     0.999999995  0.250229246  0.549913058
     0.251264402  0.499907421  0.550551274
     0.000000017  0.499888939  0.648188279
     0.249874845  0.249731960  0.648151920
     0.500000000  0.750000000  0.351605267
     0.750000000  0.000000000  0.351605267
     0.500000000  0.000000000  0.450535089
     0.750000000  0.750000000  0.450535089
     0.499999996  0.748689127  0.550582001
     0.749736477  0.999989873  0.549908956
     0.499999995  0.000230885  0.648178485
     0.750319838  0.750035869  0.648043580
     0.500000000  0.250000000  0.351605267
     0.750000000  0.500000000  0.351605267
     0.500000000  0.500000000  0.450535089
     0.750000000  0.250000000  0.450535089
     0.499999999  0.251188744  0.550506166
     0.748735610  0.499907415  0.550551309
     0.500000034  0.498638580  0.654927800
     0.750125161  0.249731957  0.648151929
     0.000000000  0.750000000  0.450535089
     0.250000000  0.000000000  0.450535089
     0.000000000  0.000000000  0.351605267
     0.250000000  0.750000000  0.351605267
     0.999999998  0.750486788  0.651100364
     0.249403677  0.999906086  0.651133405
     0.999999997  0.999932321  0.549747566
     0.249933154  0.750096792  0.549885275
     0.000000000  0.250000000  0.450535089
     0.250000000  0.500000000  0.450535089
     0.000000000  0.500000000  0.351605267
     0.250000000  0.250000000  0.351605267
     0.000000002  0.249363374  0.651160803
     0.247373170  0.499927644  0.651129740
     0.000000005  0.499978499  0.549670801
     0.249818529  0.249801412  0.549853953
     0.500000000  0.750000000  0.450535089
     0.750000000  0.000000000  0.450535089
     0.500000000  0.000000000  0.351605267
     0.750000000  0.750000000  0.351605267
     0.499999996  0.752917707  0.651485348
     0.750596322  0.999906078  0.651133423
     0.500000000  0.999871141  0.549675125
     0.750066839  0.750096789  0.549885280
     0.500000000  0.250000000  0.450535089
     0.750000000  0.500000000  0.450535089
     0.500000000  0.500000000  0.351605267
     0.750000000  0.250000000  0.351605267
     0.500000002  0.247330485  0.650918475
     0.752626876  0.499927627  0.651129742
     0.500000005  0.500041645  0.550741581
     0.750181473  0.249801401  0.549853959

  ion indices of the primitive-cell ions
   primitive index   ion index
                 1           1
                 2           2
                 3           3
                 4           4
                 5           5
                 6           6
                 7           7
                 8           8
                 9           9
                10          10
                11          11
                12          12
                13          13
                14          14
                15          15
                16          16
                17          17
                18          18
                19          19
                20          20
                21          21
                22          22
                23          23
                24          24
                25          25
                26          26
                27          27
                28          28
                29          29
                30          30
                31          31
                32          32
                33          33
                34          34
                35          35
                36          36
                37          37
                38          38
                39          39
                40          40
                41          41
                42          42
                43          43
                44          44
[...]
   0.25000000  0.50000000  0.45053509
   0.00000000  0.50000000  0.35160527
   0.25000000  0.25000000  0.35160527
   0.00000000  0.24936337  0.65116080
   0.24737317  0.49992764  0.65112974
   0.00000001  0.49997850  0.54967080
   0.24981853  0.24980141  0.54985395
   0.50000000  0.75000000  0.45053509
   0.75000000  0.00000000  0.45053509
   0.50000000  0.00000000  0.35160527
   0.75000000  0.75000000  0.35160527
   0.50000000  0.75291771  0.65148535
   0.75059632  0.99990608  0.65113342
   0.50000000  0.99987114  0.54967512
   0.75006684  0.75009679  0.54988528
   0.50000000  0.25000000  0.45053509
   0.75000000  0.50000000  0.45053509
   0.50000000  0.50000000  0.35160527
   0.75000000  0.25000000  0.35160527
   0.50000000  0.24733049  0.65091848
   0.75262688  0.49992763  0.65112974
   0.50000001  0.50004165  0.55074158
   0.75018147  0.24980140  0.54985396

 position of ions in cartesian coordinates  (Angst):
   0.00000000  6.33073849  7.50000000
   2.11024616  0.00000000  7.50000000
   0.00000000  0.00000000  9.61024616
   2.11024616  6.33073849  9.61024616
   0.00000001  6.32807051 11.72963254
   2.11247055  8.44089918 11.72996386
   0.00000000  8.44059543 13.83032849
   2.10754648  6.33104138 13.82324826
   0.00000000  2.11024616  7.50000000
   2.11024616  4.22049233  7.50000000
   0.00000000  4.22049233  9.61024616
   2.11024616  2.11024616  9.61024616
   8.44098461  2.11218123 11.73005164
   2.12091896  4.21971087 11.74366526
   0.00000015  4.21955487 13.82633468
   2.10918973  2.10798364 13.82555910
   4.22049233  6.33073849  7.50000000
   6.33073849  0.00000000  7.50000000
   4.22049233  0.00000000  9.61024616
   6.33073849  6.33073849  9.61024616
   4.22049230  6.31967343 11.74432068
   6.32851410  8.44089918 11.72996414
   4.22049228  0.00194889 13.82612576
   6.33343824  6.33104126 13.82324815
   4.22049233  2.11024616  7.50000000
   6.33073849  4.22049233  7.50000000
   4.22049233  4.22049233  9.61024616
   6.33073849  2.11024616  9.61024616
   4.22049232  2.12028034 11.74270306
   6.32006580  4.21971082 11.74366600
   4.22049261  4.20900061 13.97009364
   6.33179497  2.10798362 13.82555929
   0.00000000  6.33073849  9.61024616
   2.11024616  0.00000000  9.61024616
   0.00000000  0.00000000  7.50000000
   2.11024616  6.33073849  7.50000000
   8.44098464  6.33484746 13.88845160
   2.10521261  8.44019193 13.88915639
   8.44098463  8.44041337 11.72652157
   2.10968191  6.33155551 11.72945899
   0.00000000  2.11024616  9.61024616
   2.11024616  4.22049233  9.61024616
   0.00000000  4.22049233  7.50000000
   2.11024616  2.11024616  7.50000000
   0.00000002  2.10487242 13.88974081
   2.08807314  4.21988157 13.88907820
   0.00000005  4.22031084 11.72488410
   2.10871437  2.10856989 11.72879088
   4.22049233  6.33073849  9.61024616
   6.33073849  0.00000000  9.61024616
   4.22049233  0.00000000  7.50000000
   6.33073849  6.33073849  7.50000000
   4.22049229  6.35536681 13.89666358
   6.33577203  8.44019186 13.88915676
   4.22049233  8.43989696 11.72497634
   6.33130268  6.33155548 11.72945910
   4.22049233  2.11024616  9.61024616
   6.33073849  4.22049233  9.61024616
   4.22049233  4.22049233  7.50000000
   6.33073849  2.11024616  7.50000000
   4.22049234  2.08771283 13.88457177
   6.35291191  4.21988143 13.88907825
   4.22049237  4.22084386 11.74772465
   6.33227030  2.10856979 11.72879100

--------------------------------------- Iteration      FINAL  ---------------------------------------

--------------------OUTCAR has been truncated-------------------------

[...]

--------------------OUTCAR has been truncated-------------------------

  DFT-D2 method for vdW energy calculation

  Parameters of vdW forcefield:
         C6(Jnm^6/mol)     R0(A)
   Mg       0.630          1.243
   O        0.700          1.342

  vdW correction parametrized for the method üüü      

  IVDW =   1
  VDW_RADIUS =    50.000 A
  VDW_S6 =     1.050
  VDW_SR =     1.000
  VDW_D =    20.000
  LVDW_EWALD = F

  Number of pair interactions contributing to vdW energy:  723206
  Edisp (eV):   -5.06496

 VOLUME and BASIS-vectors are now :
  energy-cutoff  :      600.00
  volume of cell :     1519.82
      direct lattice vectors                 reciprocal lattice vectors
     8.440984654  0.000000000  0.000000000     0.118469591  0.000000000  0.000000000
     0.000000000  8.440984654  0.000000000     0.000000000  0.118469591  0.000000000
     0.000000000  0.000000000 21.330738491     0.000000000  0.000000000  0.046880702

  length of vectors
     8.440984654  8.440984654 21.330738491     0.118469591  0.118469591  0.046880702

 FORCES acting on ions:
    Electron-Ion                     Ewald-Force                    Non-Local-Force
   0.111E-04 0.255E+00 0.207E+04   -.634E-05 -.259E+00 -.206E+04   -.232E-05 0.304E-02 -.638E+01
   -.254E+00 0.277E-01 0.207E+04   0.259E+00 -.285E-01 -.206E+04   -.311E-02 0.490E-03 -.638E+01
   0.262E-04 0.597E-01 0.684E+03   -.199E-04 -.583E-01 -.685E+03   -.231E-05 -.103E-02 0.393E+00
   -.144E+01 0.140E+01 0.683E+03   0.149E+01 -.145E+01 -.683E+03   -.346E-01 0.279E-01 0.489E+00
   0.202E-04 0.745E+00 -.687E+03   -.147E-04 -.733E+00 0.687E+03   -.100E-04 0.138E-01 -.675E-01
   -.761E+00 0.338E+00 -.687E+03   0.752E+00 -.341E+00 0.687E+03   -.150E-01 -.216E-02 -.682E-01
   -.189E-04 0.158E+00 -.205E+04   0.151E-04 -.151E+00 0.204E+04   0.701E-05 -.755E-02 0.511E+01
   -.329E+01 0.255E+01 -.204E+04   0.292E+01 -.209E+01 0.204E+04   0.277E+00 -.320E+00 0.522E+01
   0.352E-05 -.255E+00 0.207E+04   -.599E-05 0.259E+00 -.206E+04   0.737E-05 -.292E-02 -.638E+01
   -.328E+00 -.282E-01 0.207E+04   0.337E+00 0.287E-01 -.206E+04   -.585E-02 -.337E-03 -.640E+01
   0.384E-04 -.700E-01 0.683E+03   -.411E-04 0.649E-01 -.684E+03   -.318E-05 0.329E-02 0.366E+00
   -.136E+01 -.141E+01 0.683E+03   0.139E+01 0.145E+01 -.683E+03   -.206E-01 -.252E-01 0.483E+00
   -.574E-05 -.734E+00 -.687E+03   0.784E-05 0.723E+00 0.687E+03   0.174E-05 -.144E-01 -.517E-01
   -.414E+01 -.414E+00 -.695E+03   0.449E+01 0.420E+00 0.695E+03   -.328E+00 0.407E-03 -.200E+00
   -.723E-04 -.158E+00 -.204E+04   0.701E-04 0.148E+00 0.204E+04   0.410E-05 0.998E-02 0.504E+01
   -.169E+01 -.216E+01 -.204E+04   0.115E+01 0.168E+01 0.204E+04   0.369E+00 0.334E+00 0.528E+01
   -.769E-05 0.329E+00 0.207E+04   0.635E-05 -.337E+00 -.206E+04   -.615E-05 0.581E-02 -.641E+01
   0.254E+00 0.277E-01 0.207E+04   -.259E+00 -.285E-01 -.206E+04   0.310E-02 0.489E-03 -.638E+01
   -.224E-04 0.158E+00 0.683E+03   0.217E-04 -.176E+00 -.684E+03   -.563E-05 0.117E-01 0.365E+00
   0.144E+01 0.140E+01 0.683E+03   -.149E+01 -.145E+01 -.683E+03   0.346E-01 0.279E-01 0.489E+00
   -.363E-05 0.436E+01 -.697E+03   0.617E-05 -.471E+01 0.697E+03   0.161E-05 0.322E+00 -.164E+00
   0.761E+00 0.338E+00 -.687E+03   -.752E+00 -.341E+00 0.687E+03   0.150E-01 -.217E-02 -.682E-01
   -.377E-05 0.918E+00 -.204E+04   0.285E-05 -.110E+01 0.204E+04   0.733E-05 0.111E+00 0.502E+01
   0.329E+01 0.255E+01 -.204E+04   -.292E+01 -.209E+01 0.204E+04   -.277E+00 -.320E+00 0.522E+01
   -.851E-05 -.329E+00 0.207E+04   0.614E-05 0.337E+00 -.206E+04   0.271E-05 -.564E-02 -.640E+01
   0.328E+00 -.282E-01 0.207E+04   -.337E+00 0.287E-01 -.206E+04   0.584E-02 -.324E-03 -.640E+01
   -.419E-04 -.170E+00 0.678E+03   0.430E-04 0.183E+00 -.679E+03   -.509E-05 -.901E-02 0.639E+00
   0.136E+01 -.141E+01 0.683E+03   -.139E+01 0.145E+01 -.683E+03   0.206E-01 -.252E-01 0.483E+00
   -.197E-04 -.404E+01 -.693E+03   0.137E-04 0.438E+01 0.693E+03   0.310E-05 -.315E+00 -.201E+00
   0.414E+01 -.414E+00 -.695E+03   -.449E+01 0.420E+00 0.695E+03   0.328E+00 0.416E-03 -.200E+00
   0.708E-04 -.443E+01 -.210E+04   -.702E-04 0.436E+01 0.209E+04   0.223E-05 0.181E+00 0.620E+01
   0.169E+01 -.216E+01 -.204E+04   -.115E+01 0.168E+01 0.204E+04   -.369E+00 0.334E+00 0.528E+01
   0.180E-04 0.622E+00 0.513E+03   -.191E-04 -.627E+00 -.513E+03   -.321E-05 0.642E-02 -.471E-01
   -.626E+00 0.987E-01 0.513E+03   0.634E+00 -.983E-01 -.513E+03   -.101E-01 -.775E-03 -.549E-01
   0.497E-05 0.160E-01 0.155E+04   -.389E-05 -.157E-01 -.156E+04   -.362E-05 -.351E-03 0.313E+01
   -.228E+00 0.224E+00 0.155E+04   0.235E+00 -.230E+00 -.156E+04   -.926E-02 0.758E-02 0.313E+01
   -.226E-04 0.742E+00 -.156E+04   0.240E-04 -.744E+00 0.157E+04   -.342E-05 -.435E-01 -.499E+01
   -.788E+00 0.370E+00 -.156E+04   0.820E+00 -.440E+00 0.157E+04   0.117E-01 0.815E-01 -.500E+01
   0.309E-05 0.486E-01 -.510E+03   -.358E-05 -.501E-01 0.510E+03   -.108E-05 0.319E-02 0.171E+00
   -.212E+01 0.194E+01 -.510E+03   0.208E+01 -.189E+01 0.509E+03   0.535E-01 -.682E-01 0.485E+00
   0.232E-04 -.628E+00 0.513E+03   -.147E-04 0.637E+00 -.513E+03   -.312E-05 -.116E-01 -.565E-01
   -.104E+01 -.109E+00 0.510E+03   0.980E+00 0.114E+00 -.510E+03   0.712E-01 -.550E-02 -.164E+00
   0.823E-05 -.159E-01 0.155E+04   -.584E-05 0.158E-01 -.156E+04   -.847E-06 0.216E-03 0.313E+01
   -.219E+00 -.224E+00 0.155E+04   0.225E+00 0.230E+00 -.156E+04   -.662E-02 -.777E-02 0.313E+01
   -.196E-04 -.744E+00 -.156E+04   0.267E-04 0.749E+00 0.157E+04   -.123E-05 0.400E-01 -.498E+01
   -.665E+01 -.654E+00 -.156E+04   0.643E+01 0.725E+00 0.156E+04   0.481E+00 -.828E-01 -.417E+01
   0.507E-05 -.578E-01 -.508E+03   0.877E-06 0.595E-01 0.507E+03   0.667E-06 -.343E-02 0.450E+00
   -.172E+01 -.189E+01 -.509E+03   0.167E+01 0.184E+01 0.509E+03   0.731E-01 0.691E-01 0.467E+00
   -.148E-04 0.104E+01 0.510E+03   0.188E-04 -.978E+00 -.509E+03   0.406E-07 -.750E-01 -.178E+00
   0.626E+00 0.987E-01 0.513E+03   -.634E+00 -.983E-01 -.513E+03   0.101E-01 -.778E-03 -.549E-01
   0.229E-05 0.249E-01 0.155E+04   0.395E-05 -.267E-01 -.156E+04   -.574E-05 0.223E-02 0.313E+01
   0.228E+00 0.224E+00 0.155E+04   -.235E+00 -.230E+00 -.156E+04   0.926E-02 0.757E-02 0.313E+01
   0.766E-05 0.829E+01 -.156E+04   0.229E-07 -.818E+01 0.156E+04   0.387E-05 -.415E+00 -.432E+01
   0.788E+00 0.370E+00 -.156E+04   -.820E+00 -.440E+00 0.157E+04   -.117E-01 0.815E-01 -.500E+01
   -.119E-04 0.476E+00 -.508E+03   0.132E-04 -.502E+00 0.507E+03   -.140E-05 0.340E-01 0.444E+00
   0.212E+01 0.194E+01 -.510E+03   -.208E+01 -.189E+01 0.509E+03   -.535E-01 -.682E-01 0.485E+00
   -.139E-04 -.105E+01 0.510E+03   0.181E-04 0.990E+00 -.510E+03   -.203E-05 0.685E-01 -.148E+00
   0.104E+01 -.109E+00 0.510E+03   -.980E+00 0.114E+00 -.510E+03   -.712E-01 -.550E-02 -.164E+00
   0.248E-05 -.248E-01 0.155E+04   0.593E-05 0.268E-01 -.156E+04   -.869E-06 -.241E-02 0.312E+01
   0.219E+00 -.224E+00 0.155E+04   -.225E+00 0.230E+00 -.156E+04   0.662E-02 -.777E-02 0.313E+01
   0.142E-04 -.545E+01 -.155E+04   -.241E-04 0.511E+01 0.156E+04   0.399E-05 0.579E+00 -.407E+01
   0.665E+01 -.654E+00 -.156E+04   -.643E+01 0.725E+00 0.156E+04   -.481E+00 -.828E-01 -.417E+01
   -.109E-04 -.736E+00 -.534E+03   0.383E-05 0.767E+00 0.535E+03   0.103E-05 -.400E-01 -.872E+00
   0.172E+01 -.189E+01 -.509E+03   -.167E+01 0.184E+01 0.509E+03   -.731E-01 0.691E-01 0.467E+00
   0.691E-04 -.509E+00 0.189E+02   -.517E-13 -.312E-12 0.273E-11   -.638E-04 0.465E+00 -.166E+02

 POSITION                                       TOTAL-FORCE (eV/Angst)
      0.00000      6.33074      7.50000         0.000001     -0.001235      0.463964
      2.11025      0.00000      7.50000         0.001295     -0.000162      0.464540
      0.00000      0.00000      9.61025         0.000004      0.000366      0.040062
      2.11025      6.33074      9.61025         0.015530     -0.012967      0.040030
      0.00000      6.32807     11.72963        -0.000004      0.024995      0.056778
      2.11247      8.44090     11.72996        -0.023472     -0.004619      0.058052
      0.00000      8.44060     13.83033         0.000005     -0.001463      0.027322
      2.10755      6.33104     13.82325        -0.056535      0.098676      0.057509
      0.00000      2.11025      7.50000         0.000006      0.001278      0.464710
      2.11025      4.22049      7.50000         0.002036      0.000210      0.469050
      0.00000      4.22049      9.61025        -0.000006     -0.001382      0.056301
      2.11025      2.11025      9.61025         0.009892      0.011670      0.036488
      8.44098      2.11218     11.73005         0.000004     -0.025148      0.055577
      2.12092      4.21971     11.74367        -0.002863      0.005262     -0.017334
      0.00000      4.21955     13.82633         0.000003      0.000428      0.063839
      2.10919      2.10798     13.82556        -0.122467     -0.101630      0.015928
      4.22049      6.33074      7.50000        -0.000006     -0.001964      0.470255
      6.33074      0.00000      7.50000        -0.001297     -0.000156      0.464534
      4.22049      0.00000      9.61025        -0.000006     -0.005067      0.057153
      6.33074      6.33074      9.61025        -0.015527     -0.012968      0.040053
      4.22049      6.31967     11.74432         0.000004      0.004054      0.005778
      6.32851      8.44090     11.72996         0.023476     -0.004624      0.058057
      4.22049      0.00195     13.82613         0.000006     -0.053536      0.070959
      6.33344      6.33104     13.82325         0.056524      0.098680      0.057479
      4.22049      2.11025      7.50000         0.000001      0.002022      0.467894
      6.33074      4.22049      7.50000        -0.002044      0.000209      0.469032
      4.22049      4.22049      9.61025        -0.000004      0.003611      0.061613
      6.33074      2.11025      9.61025        -0.009893      0.011669      0.036500
      4.22049      2.12028     11.74270        -0.000003     -0.005089     -0.030858
      6.32007      4.21971     11.74367         0.002861      0.005273     -0.017338
      4.22049      4.20900     13.97009         0.000004      0.114797     -0.871013
      6.33179      2.10798     13.82556         0.122457     -0.101631      0.015912
      0.00000      6.33074      9.61025        -0.000006      0.003153      0.053375
      2.11025      0.00000      9.61025        -0.004184     -0.000399      0.052092
      0.00000      0.00000      7.50000        -0.000003     -0.000076     -0.432569
      2.11025      6.33074      7.50000        -0.003099      0.002581     -0.434881
      8.44098      6.33485     13.88845        -0.000002     -0.053772     -0.236493
      2.10521      8.44019     13.88916         0.046616      0.022664     -0.238786
      8.44098      8.44041     11.72652        -0.000002      0.002284     -0.014696
      2.10968      6.33156     11.72946         0.020359     -0.028970      0.017145
      0.00000      2.11025      9.61025         0.000005     -0.004605      0.051836
      2.11025      4.22049      9.61025         0.020482     -0.001388      0.081222
      0.00000      4.22049      7.50000         0.000002      0.000128     -0.435178
      2.11025      2.11025      7.50000        -0.002204     -0.002565     -0.434557
      0.00000      2.10487     13.88974         0.000006      0.052986     -0.236728
      2.08807      4.21988     13.88908         0.344503     -0.023269      0.000502
      0.00000      4.22031     11.72488         0.000007     -0.002100      0.055588
      2.10871      2.10857     11.72879         0.032345      0.029595      0.028033
      4.22049      6.33074      9.61025         0.000005     -0.021578      0.079085
      6.33074      0.00000      9.61025         0.004182     -0.000400      0.052093
      4.22049      0.00000      7.50000        -0.000000      0.000785     -0.435305
      6.33074      6.33074      7.50000         0.003092      0.002581     -0.434954
      4.22049      6.35537     13.89666         0.000012     -0.379141     -0.054856
      6.33577      8.44019     13.88916        -0.046616      0.022647     -0.238801
      4.22049      8.43990     11.72498         0.000000      0.012937      0.051998
      6.33130      6.33156     11.72946        -0.020363     -0.028961      0.017148
      4.22049      2.11025      9.61025         0.000002      0.019805      0.082382
      6.33074      4.22049      9.61025        -0.020473     -0.001386      0.081215
      4.22049      4.22049      7.50000         0.000008     -0.000767     -0.439060
      6.33074      2.11025      7.50000         0.002210     -0.002558     -0.434575
      4.22049      2.08771     13.88457        -0.000006      0.339022      0.036005
      6.35291      4.21988     13.88908        -0.344507     -0.023252      0.000516
      4.22049      4.22084     11.74772        -0.000006     -0.015131      0.024353
      6.33227      2.10857     11.72879        -0.032344      0.029590      0.028027
    total drift:                               -0.000000     -0.002921      0.016964

  FREE ENERGIE OF THE ION-ELECTRON SYSTEM (eV)
  free  energy   TOTEN  =      -438.35218823 eV

  energy  without entropy=     -438.35218823  energy(sigma->0) =     -438.35218823