 vasp.6.3.0 20Jan22 (build Mar 11 2022 13:48:16) complex

 executed on             LinuxIFC date 2024.01.23  13:05:01

 INCAR:
   SYSTEM = TiO2
   ISMEAR = 0
   SIGMA = 0.05
   EDIFF = 1E-5
   ALGO = ALL
   ISTART = 0
   IBRION = -1
   NSW = 0
   ISYM = 0
   ISIF = 2
   EDIFFG = -0.01
   DIPOL = 0.5 0.5 0.5
   IDIPOL = 3
   LDIPOL = .TRUE.
   METAGGA = R2SCAN
   LUSE_VDW = .TRUE.
   BPARAM = 11.95
   CPARAM = 0.0093
   LASPH = .TRUE.
   ENCUT = 600
   PREC = Accurate
   LASPH = .TRUE.
   LREAL = .FALSE.
   ISPIN = 1
   NELM = 200
   NELMIN = 8
   NCORE = 2
   KPAR = 1
   LWAVE = .FALSE.
   LCHARG = .FALSE.

 POTCAR:    PAW_PBE Ti_pv 07Sep2000
 POTCAR:    PAW_PBE O 08Apr2002
|           W    W    AA    RRRRR   N    N  II  N    N   GGGG   !!!           |
|           W    W   A  A   R    R  NN   N  II  NN   N  G    G  !!!           |
|           W    W  A    A  R    R  N N  N  II  N N  N  G       !!!           |
|           W WW W  AAAAAA  RRRRR   N  N N  II  N  N N  G  GGG   !            |
|           WW  WW  A    A  R   R   N   NN  II  N   NN  G    G                |
|           W    W  A    A  R    R  N    N  II  N    N   GGGG   !!!           |
|     For optimal performance we recommend to set                             |
|       NCORE = 2 up to number-of-cores-per-socket                            |
|     This setting can greatly improve the performance of VASP for DFT.       |
|     The default, NCORE=1 might be grossly inefficient on modern             |
|     multi-core architectures or massively parallel machines. Do your        |
|     Unfortunately you need to use the default for GW and RPA                |
|     calculations (for HF NCORE is supported but not extensively tested      |
|     yet).                                                                   |

   TITEL  = PAW_PBE Ti_pv 07Sep2000
   POMASS =   47.880; ZVAL   =   10.000    mass and valenz
   ENMAX  =  222.335; ENMIN  =  166.751 eV

   TITEL  = PAW_PBE O 08Apr2002
   POMASS =   16.000; ZVAL   =    6.000    mass and valenz
   ENMAX  =  400.000; ENMIN  =  300.000 eV

  PAW_PBE Ti_pv 07Sep2000               :
  PAW_PBE O 08Apr2002                   :

 POSCAR: Ti  O
  positions in direct lattice

 METAGGA = R2SCA    LMAXTAU =  6    LMIXTAU =  F

 ion  position               nearest neighbor table
   1  0.750  0.625  0.264-  82 1.94 142 1.94 141 1.94  81 1.94 163 1.97  84 1.97  11 2.94  31 2.94

   2  0.000  0.750  0.264-  84 1.94 104 1.94 103 1.94  83 1.94  85 1.97  32 2.94  12 2.94
   3  0.000  0.625  0.382-  86 1.94 146 1.94 145 1.94  85 1.94  87 1.97  88 1.97  13 2.94  33 2.94

[...]

  80  0.501  0.499  0.735- 234 1.91 240 1.93 180 1.93 239 1.94 179 1.96  70 2.94  50 2.96
  81  0.750  0.750  0.218-   1 1.94  11 1.94
  82  0.750  0.750  0.311-   1 1.94  11 1.94   4 1.97
  83  0.098  0.625  0.264-   2 1.94  32 1.94  41 1.97
  84  0.902  0.625  0.264-   2 1.94  32 1.94   1 1.97
  85  0.000  0.750  0.336-   3 1.94  13 1.94   2 1.97
  86  0.000  0.750  0.428-   3 1.94  13 1.94   6 1.97
  87  0.848  0.625  0.382-   4 1.94  34 1.94   3 1.97
  88  0.152  0.625  0.382-  44 1.94  74 1.94   3 1.97
  89  0.750  0.750  0.454-   5 1.94  15 1.94   4 1.97
  90  0.750  0.750  0.546-   5 1.94  15 1.94   8 2.07
  91  0.098  0.625  0.500-   6 1.94  36 1.94  45 1.97
  92  0.902  0.625  0.500-   6 1.94  36 1.94   5 1.97
  93  0.000  0.750  0.572-  17 1.89   7 1.89   6 1.98
  94  0.999  0.750  0.665-  10 1.81   7 2.00  17 2.00
  95  0.850  0.625  0.618-   7 1.94   8 1.96  38 1.96
  96  0.150  0.625  0.618-   7 1.94  48 1.96  78 1.96
  97  0.753  0.751  0.690-   8 1.87   9 2.05  19 2.07
  98  0.749  0.749  0.782-   9 1.83  19 1.84
  99  0.094  0.625  0.742-  40 1.93  10 1.94  49 2.02
 100  0.906  0.624  0.743-  40 1.93  10 1.94   9 2.02
 101  0.750  0.000  0.218-  11 1.94  21 1.94
 102  0.750  0.000  0.311-  11 1.94  21 1.94  14 1.97
 103  0.098  0.875  0.264-   2 1.94  12 1.94  51 1.97
 104  0.902  0.875  0.264-   2 1.94  12 1.94  11 1.97
 105  0.000  0.000  0.336-  13 1.94  23 1.94  12 1.97
 106  0.000  0.000  0.428-  13 1.94  23 1.94  16 1.97
 107  0.848  0.875  0.382-   4 1.94  14 1.94  13 1.97
 108  0.152  0.875  0.382-  44 1.94  54 1.94  13 1.97
 109  0.750  0.000  0.454-  15 1.94  25 1.94  14 1.97
 110  0.750  0.000  0.546-  15 1.94  25 1.94  18 2.08
 111  0.098  0.875  0.500-   6 1.94  16 1.94  55 1.97
 112  0.902  0.875  0.500-   6 1.94  16 1.94  15 1.97
 113  0.000  1.000  0.572-  17 1.89  27 1.89  16 1.98
 114  1.000  0.000  0.665-  20 1.81  17 2.00  27 2.00
 115  0.850  0.875  0.618-  17 1.94  18 1.96   8 1.96
 116  0.150  0.875  0.619-  17 1.94  58 1.96  48 1.96
 117  0.750  1.000  0.690-  18 1.87  29 2.06  19 2.06
 118  0.750  1.000  0.783-  19 1.83  29 1.83
 119  0.094  0.875  0.742-  10 1.93  20 1.93  59 2.03
 120  0.906  0.875  0.743-  10 1.93  20 1.93  19 2.03
 121  0.750  0.250  0.218-  21 1.94  31 1.94
 122  0.750  0.250  0.311-  21 1.94  31 1.94  24 1.97
 123  0.098  0.125  0.264-  12 1.94  22 1.94  61 1.97
 124  0.902  0.125  0.264-  12 1.94  22 1.94  21 1.97
 125  0.000  0.250  0.336-  23 1.94  33 1.94  22 1.97
 126  0.000  0.250  0.428-  23 1.94  33 1.94  26 1.97
 127  0.848  0.125  0.382-  14 1.94  24 1.94  23 1.97
 128  0.152  0.125  0.382-  54 1.94  64 1.94  23 1.97
 129  0.750  0.250  0.454-  25 1.94  35 1.94  24 1.97
 130  0.750  0.250  0.546-  25 1.94  35 1.94  28 2.07
 131  0.098  0.125  0.500-  16 1.94  26 1.94  65 1.97
 132  0.902  0.125  0.500-  16 1.94  26 1.94  25 1.97
 133  0.000  0.250  0.572-  27 1.89  37 1.89  26 1.98
 134  0.999  0.250  0.665-  30 1.81  37 2.00  27 2.00
 135  0.850  0.125  0.618-  27 1.95  18 1.96  28 1.96
 136  0.150  0.125  0.618-  27 1.94  58 1.96  68 1.96
 137  0.752  0.249  0.690-  28 1.87  39 2.05  29 2.07
 138  0.749  0.251  0.782-  39 1.82  29 1.83
 139  0.093  0.125  0.742-  30 1.93  20 1.93  69 2.03
[...]
 226  0.500  0.500  0.428-  43 1.94  73 1.94  76 1.97
 227  0.348  0.375  0.382-  64 1.94  74 1.94  73 1.97
 228  0.652  0.375  0.382-  24 1.94  34 1.94  73 1.97
 229  0.250  0.500  0.454-  45 1.94  75 1.94  74 1.97
 230  0.250  0.500  0.546-  45 1.94  75 1.94  78 2.08
 231  0.598  0.375  0.500-  66 1.94  76 1.94  35 1.97
 232  0.402  0.375  0.500-  66 1.94  76 1.94  75 1.97
 233  0.500  0.500  0.572-  47 1.89  77 1.89  76 1.99
 234  0.499  0.500  0.666-  80 1.91  47 1.97  77 1.97
 235  0.349  0.375  0.619-  77 1.95  68 1.95  78 1.95
 236  0.651  0.375  0.619-  77 1.95  28 1.96  38 1.96
 237  0.249  0.500  0.690-  78 1.87  49 2.07  79 2.07
 238  0.251  0.500  0.782-  49 1.83  79 1.83
 239  0.596  0.372  0.737-  70 1.91  80 1.94  39 2.01
 240  0.406  0.374  0.741-  70 1.92  80 1.93  79 2.02

IMPORTANT INFORMATION: All symmetrisations will be switched off!
NOSYMM: (Re-)initialisation of all symmetry stuff for point group C_1.

                                     Primitive cell

  volume of cell :    4180.4259

  direct lattice vectors                    reciprocal lattice vectors
    12.939701814  0.000000000  0.000000000     0.077281534  0.000000000  0.000000000
     0.000000000 11.760793336  0.000000000     0.000000000  0.085028278  0.000000000
     0.000000000  0.000000000 27.470062065     0.000000000  0.000000000  0.036403267

  length of vectors
    12.939701814 11.760793336 27.470062065     0.077281534  0.085028278  0.036403267

  position of ions in fractional coordinates (direct lattice)
     0.750000000  0.625000000  0.264476291
     0.000000000  0.750000000  0.264476291
     0.000000000  0.625000000  0.382238145
     0.750000000  0.750000000  0.382238145
     0.750000000  0.625000000  0.500000000
     0.000000000  0.750000000  0.500000000
     0.000194605  0.625026416  0.615452809
     0.750212397  0.750150177  0.621462914
     0.750579273  0.625916272  0.741690838
     0.999684152  0.750145260  0.730739931
     0.750000000  0.875000000  0.264476291
     0.000000000  0.000000000  0.264476291
     0.000000000  0.875000000  0.382238145
     0.750000000  0.000000000  0.382238145
     0.750000000  0.875000000  0.500000000
     0.000000000  0.000000000  0.500000000
     0.000113707  0.874993738  0.615559483
     0.749828552  0.000029697  0.621807446
     0.749674000  0.875171943  0.742832825
     0.000086092  0.999971621  0.730691877
     0.750000000  0.125000000  0.264476291
     0.000000000  0.250000000  0.264476291
     0.000000000  0.125000000  0.382238145
     0.750000000  0.250000000  0.382238145
     0.750000000  0.125000000  0.500000000
     0.000000000  0.250000000  0.500000000
     0.000159842  0.124991167  0.615534489
     0.750142469  0.249849334  0.621455253
     0.749577226  0.124618731  0.742821488
     0.999737285  0.249797934  0.730727116
     0.750000000  0.375000000  0.264476291
     0.000000000  0.500000000  0.264476291
     0.000000000  0.375000000  0.382238145
     0.750000000  0.500000000  0.382238145
     0.750000000  0.375000000  0.500000000
     0.000000000  0.500000000  0.500000000
     0.000196605  0.374989721  0.615460815
     0.750734655  0.499983755  0.621646883
     0.750948401  0.373828073  0.741770714
     0.000689877  0.500058494  0.730668120
     0.250000000  0.625000000  0.264476291
     0.500000000  0.750000000  0.264476291
     0.500000000  0.625000000  0.382238145
     0.250000000  0.750000000  0.382238145
     0.250000000  0.625000000  0.500000000
     0.500000000  0.750000000  0.500000000
     0.500208146  0.622819588  0.616779285
     0.250266240  0.749884057  0.621801953
     0.250292218  0.625171559  0.742900456
     0.500000978  0.750454780  0.729421208
     0.250000000  0.875000000  0.264476291
     0.500000000  0.000000000  0.264476291
     0.500000000  0.875000000  0.382238145
     0.250000000  0.000000000  0.382238145
     0.250000000  0.875000000  0.500000000
     0.500000000  0.000000000  0.500000000
     0.499744022  0.874201847  0.614442405
     0.249899590  0.999959194  0.621840705
     0.250471696  0.875112603  0.742872235
     0.499801533  0.000038987  0.729651797
[...]
     0.500000000  0.500000000  0.428294835
     0.347775060  0.375000000  0.382238145
     0.652224940  0.375000000  0.382238145
     0.250000000  0.500000000  0.453943310
     0.250000000  0.500000000  0.546056690
     0.597775060  0.375000000  0.500000000
     0.402224940  0.375000000  0.500000000
     0.500218948  0.499777025  0.572483258
     0.498959087  0.500347286  0.665508801
     0.349362601  0.375041655  0.618551029
     0.650619720  0.375112729  0.619003626
     0.249426481  0.500406642  0.689895037
     0.251373653  0.499953599  0.782444267
     0.595927388  0.371598634  0.737362080
     0.406491667  0.374031631  0.741142258

  ion indices of the primitive-cell ions
   primitive index   ion index
                 1           1
                 2           2
                 3           3
                 4           4
                 5           5
                 6           6
                 7           7
                 8           8
                 9           9
                10          10
                11          11
                12          12
                13          13
                14          14
                15          15
                16          16
                17          17
[...]
   6.46985091 10.29069417 10.50010558
   3.23492545  0.00000000 10.50010558
   3.23492545 10.29069417 13.73503103
   6.46985091  0.00000000 13.73503103
   6.46653862 10.28130726 16.87877100
   3.23362618 11.76031342 17.08200276
   3.24102906 10.29201847 20.40674640
   6.46728280  0.00045852 20.04358015
[...]
   6.46985091  5.88039667 11.76528570
   4.50010558  4.41029750 10.50010558
   8.43959623  4.41029750 10.50010558
   3.23492545  5.88039667 12.46985091
   3.23492545  5.88039667 15.00021116
   7.73503103  4.41029750 13.73503103
   5.20467078  4.41029750 13.73503103
   6.47268403  5.87777431 15.72615062
   6.45638181  5.88448102 18.28156806
   4.52064788  4.41078740 16.99163516
   8.41882517  4.41162329 17.00406804
   3.22750428  5.88517910 18.95145948
   3.25270011  5.87985096 21.49379259
   7.71112271  4.37029473 20.25538209
   5.25988097  4.39890871 20.35922383

--------------------------------------- Iteration      FINAL  ---------------------------------------

--------------------OUTCAR has been truncated-------------------------

[...]

--------------------OUTCAR has been truncated-------------------------

  FORCE on cell =-STRESS in cart. coord.  units (eV):
  Direction    XX          YY          ZZ          XY          YZ          ZX
  Alpha Z  5232.99145  5232.99145  5232.99145
  Ewald  679086.02804697176.18219************    -3.34841     0.06986   -31.82250
  Hartree721105.96299730876.70514************    -1.41623     0.04432   -16.19032
  E(xc)   -9140.08446 -9149.04733 -9138.14739    -0.00344     0.00087     0.00711
  Local  ************************************     4.75433    -0.08996    48.55606
  n-local -5161.29452 -5062.17371 -5206.92768    -0.08343     0.00227    -0.50582
  augment  5514.49577  5481.98124  5518.47102    -0.01473    -0.00365    -0.22752
  Kinetic 28712.87502 28232.53285 28755.25467     0.01981     0.02019     1.03708
  Fock        0.00000     0.00000     0.00000     0.00000     0.00000     0.00000
  Total      50.60751    21.09480     0.61250    -0.09210     0.04391     0.85409
  in kB      19.39568     8.08473     0.23475    -0.03530     0.01683     0.32734

 VOLUME and BASIS-vectors are now :
  energy-cutoff  :      600.00
  volume of cell :     4180.43
      direct lattice vectors                 reciprocal lattice vectors
    12.939701814  0.000000000  0.000000000     0.077281534  0.000000000  0.000000000
     0.000000000 11.760793336  0.000000000     0.000000000  0.085028278  0.000000000
     0.000000000  0.000000000 27.470062065     0.000000000  0.000000000  0.036403267

  length of vectors
    12.939701814 11.760793336 27.470062065     0.077281534  0.085028278  0.036403267

 FORCES acting on ions:
    Electron-Ion                     Ewald-Force                    Non-Local-Force
   0.270E-01 0.262E-01 0.337E+04   -.283E-01 -.259E-01 -.337E+04   0.259E-03 -.222E-04 0.433E+00
   -.135E-01 0.215E-01 0.355E+04   0.141E-01 -.214E-01 -.354E+04   0.781E-04 -.160E-05 -.402E+01
   -.115E+00 0.464E-01 0.171E+04   0.120E+00 -.463E-01 -.171E+04   -.811E-03 0.923E-04 -.547E-01
   0.796E-01 0.159E+00 0.170E+04   -.843E-01 -.158E+00 -.171E+04   0.125E-02 -.161E-04 0.205E+00
   0.155E+01 0.569E+00 -.190E+02   -.157E+01 -.584E+00 0.197E+02   0.243E-02 0.633E-03 -.111E+00
   -.546E+00 -.315E-01 -.778E+01   0.561E+00 0.385E-01 0.679E+01   -.428E-02 -.352E-02 0.302E+00
   -.299E+01 -.982E-02 -.169E+04   0.295E+01 0.262E-01 0.169E+04   0.182E-02 -.109E-01 0.101E+00
   0.315E+01 -.715E+00 -.173E+04   -.306E+01 0.751E+00 0.173E+04   -.324E-01 -.160E-01 -.172E+00
   -.138E+02 0.142E+02 -.334E+04   0.139E+02 -.148E+02 0.335E+04   0.140E+00 0.859E-01 -.283E+00
   -.503E+00 0.397E+01 -.339E+04   0.472E+00 -.400E+01 0.339E+04   -.347E-01 -.739E-02 0.109E+01
   0.980E-02 0.203E-01 0.337E+04   -.114E-01 -.201E-01 -.337E+04   0.365E-03 -.100E-04 0.432E+00
   -.122E-01 -.296E-02 0.355E+04   0.128E-01 0.291E-02 -.354E+04   0.752E-04 0.963E-05 -.402E+01
   -.890E-01 0.316E-01 0.171E+04   0.934E-01 -.320E-01 -.171E+04   -.751E-03 0.105E-03 -.548E-01
   -.401E-01 -.186E-01 0.170E+04   0.347E-01 0.183E-01 -.171E+04   0.135E-02 0.995E-05 0.204E+00
   -.205E+00 0.178E+00 -.186E+02   0.194E+00 -.145E+00 0.194E+02   0.254E-02 -.143E-02 -.115E+00
   -.259E+00 -.151E-01 -.824E+01   0.272E+00 0.123E-01 0.725E+01   -.305E-02 0.915E-03 0.300E+00
   -.102E+01 0.143E+00 -.170E+04   0.984E+00 -.136E+00 0.170E+04   0.249E-02 -.722E-02 0.109E+00
   0.162E+01 0.213E+00 -.174E+04   -.157E+01 -.221E+00 0.174E+04   -.200E-01 0.628E-03 -.175E+00
   0.748E+00 0.446E-01 -.335E+04   -.702E+00 -.183E+00 0.335E+04   0.662E-02 0.185E-01 -.319E+00
   -.101E+01 0.262E+00 -.339E+04   0.941E+00 -.280E+00 0.339E+04   0.273E-01 0.113E-02 0.114E+01
   0.115E-01 -.262E-01 0.337E+04   -.131E-01 0.258E-01 -.337E+04   0.339E-03 0.302E-04 0.432E+00
   -.137E-01 -.215E-01 0.355E+04   0.143E-01 0.214E-01 -.354E+04   0.698E-04 0.169E-04 -.402E+01
   -.881E-01 -.430E-01 0.171E+04   0.926E-01 0.431E-01 -.171E+04   -.782E-03 -.765E-04 -.548E-01
   0.102E+00 -.160E+00 0.170E+04   -.106E+00 0.159E+00 -.171E+04   0.114E-02 0.205E-04 0.205E+00
   -.124E+00 -.294E+00 -.187E+02   0.112E+00 0.256E+00 0.194E+02   0.314E-02 0.189E-02 -.114E+00
   -.500E+00 0.380E-01 -.775E+01   0.515E+00 -.425E-01 0.674E+01   -.426E-02 0.261E-02 0.303E+00
   -.155E+00 -.916E-01 -.169E+04   0.113E+00 0.755E-01 0.169E+04   0.363E-02 0.101E-01 0.108E+00
   0.277E+01 0.526E+00 -.173E+04   -.268E+01 -.558E+00 0.173E+04   -.328E-01 0.129E-01 -.175E+00
   0.863E+00 -.389E+00 -.335E+04   -.779E+00 0.454E+00 0.335E+04   -.476E-04 -.834E-02 -.316E+00
   0.634E-01 -.412E+01 -.339E+04   -.103E+00 0.415E+01 0.339E+04   -.301E-01 0.602E-02 0.109E+01
   0.287E-01 -.203E-01 0.337E+04   -.299E-01 0.202E-01 -.337E+04   0.248E-03 0.287E-05 0.433E+00
   -.150E-01 0.299E-02 0.355E+04   0.156E-01 -.293E-02 -.354E+04   0.604E-04 -.118E-04 -.402E+01
   -.115E+00 -.350E-01 0.171E+04   0.120E+00 0.353E-01 -.171E+04   -.820E-03 -.120E-03 -.547E-01
   0.217E+00 0.190E-01 0.170E+04   -.221E+00 -.187E-01 -.170E+04   0.859E-03 -.257E-04 0.205E+00
   0.166E+01 -.452E+00 -.191E+02   -.169E+01 0.472E+00 0.198E+02   0.258E-02 -.936E-03 -.110E+00
   -.678E+00 0.969E-02 -.739E+01   0.693E+00 -.932E-02 0.639E+01   -.444E-02 -.441E-04 0.301E+00
   -.258E+01 -.288E-01 -.169E+04   0.253E+01 0.220E-01 0.169E+04   0.196E-02 0.761E-02 0.107E+00
   0.562E+01 -.492E-01 -.173E+04   -.546E+01 0.548E-01 0.173E+04   -.727E-01 0.459E-03 -.174E+00
   -.125E+02 -.149E+02 -.335E+04   0.126E+02 0.156E+02 0.335E+04   0.751E-01 -.104E+00 -.283E+00
   0.451E+00 -.346E-01 -.339E+04   -.614E+00 0.502E-01 0.339E+04   0.609E-01 -.156E-03 0.104E+01
   -.260E-01 0.283E-01 0.337E+04   0.275E-01 -.281E-01 -.337E+04   -.576E-03 -.154E-04 0.432E+00
   0.123E-01 0.482E-01 0.355E+04   -.134E-01 -.476E-01 -.354E+04   0.384E-03 -.753E-04 -.402E+01
   0.966E-01 0.274E+00 0.171E+04   -.101E+00 -.260E+00 -.171E+04   0.575E-03 -.284E-02 -.554E-01
   -.620E-01 0.197E+00 0.170E+04   0.659E-01 -.197E+00 -.170E+04   -.658E-03 -.521E-04 0.201E+00
   -.856E+00 0.718E+00 -.202E+02   0.879E+00 -.726E+00 0.210E+02   -.554E-02 0.399E-03 -.121E+00
   0.416E+00 0.218E+01 -.791E+01   -.423E+00 -.226E+01 0.704E+01   -.135E-02 0.419E-01 0.253E+00
   -.113E-01 -.435E+01 -.171E+04   0.309E-01 0.479E+01 0.171E+04   0.673E-02 -.150E+00 0.148E+00
   0.248E+01 -.292E+00 -.174E+04   -.253E+01 0.321E+00 0.174E+04   0.593E-03 0.555E-02 -.154E+00
   -.174E+01 0.136E+01 -.334E+04   0.141E+01 -.129E+01 0.334E+04   0.151E+00 0.910E-03 -.334E+00
   0.923E+01 -.425E+01 -.338E+04   -.906E+01 0.466E+01 0.338E+04   -.173E+00 -.859E-01 0.116E+01
   -.882E-02 0.223E-01 0.337E+04   0.107E-01 -.221E-01 -.337E+04   -.690E-03 0.274E-04 0.432E+00
   0.111E-01 -.564E-02 0.355E+04   -.122E-01 0.550E-02 -.354E+04   0.398E-03 0.256E-04 -.402E+01
   0.733E-01 0.224E+00 0.171E+04   -.773E-01 -.220E+00 -.171E+04   0.513E-03 -.140E-02 -.557E-01
   0.543E-01 -.192E-01 0.170E+04   -.496E-01 0.190E-01 -.171E+04   -.876E-03 0.324E-04 0.201E+00
   0.683E+00 0.597E+00 -.193E+02   -.674E+00 -.590E+00 0.201E+02   -.168E-02 -.670E-03 -.120E+00
   0.320E-01 -.201E+00 -.307E+01   -.393E-01 0.201E+00 0.198E+01   0.156E-02 -.187E-02 0.274E+00
   -.197E+01 -.507E+01 -.167E+04   0.198E+01 0.515E+01 0.167E+04   0.181E-01 -.141E-01 -.196E-01
   0.224E+01 -.268E-01 -.174E+04   -.225E+01 0.180E-01 0.174E+04   -.235E-01 0.227E-02 -.145E+00
   0.159E+01 0.196E+01 -.334E+04   -.160E+01 -.197E+01 0.334E+04   -.428E-01 -.219E-02 -.333E+00
   -.367E+01 0.355E+00 -.338E+04   0.366E+01 -.439E+00 0.338E+04   0.533E-01 0.144E-01 0.103E+01
[...]
   -.553E+02 -.106E+00 0.102E+04   0.596E+02 0.105E+00 -.102E+04   -.371E+01 0.150E-02 0.185E+00
   0.554E+02 -.960E-01 0.102E+04   -.597E+02 0.949E-01 -.102E+04   0.372E+01 0.170E-02 0.191E+00
   -.379E+00 0.367E-01 0.448E+03   0.388E+00 -.366E-01 -.452E+03   -.126E-01 -.219E-03 0.443E+01
   -.949E+00 0.219E+00 -.487E+03   0.966E+00 -.217E+00 0.494E+03   -.244E-01 -.523E-02 -.715E+01
   -.560E+02 -.849E+00 -.721E+01   0.610E+02 0.842E+00 0.703E+01   -.532E+01 0.329E-01 0.251E+00
   0.564E+02 -.879E+00 -.739E+01   -.615E+02 0.870E+00 0.721E+01   0.535E+01 0.357E-01 0.248E+00
   -.327E+00 0.721E+00 -.563E+03   0.369E+00 -.822E+00 0.555E+03   -.442E-01 0.976E-01 0.720E+01
   0.672E+01 -.131E+01 -.148E+04   -.702E+01 0.141E+01 0.148E+04   0.249E+00 -.122E+00 -.129E+00
   -.334E+02 -.147E+00 -.102E+04   0.369E+02 -.142E-01 0.102E+04   -.335E+01 0.174E+00 0.109E+01
   0.341E+02 -.206E+00 -.103E+04   -.374E+02 0.102E+00 0.103E+04   0.311E+01 0.114E+00 0.643E+00
   0.797E-01 -.622E+00 -.162E+04   -.294E+00 0.641E+00 0.162E+04   0.263E+00 -.365E-01 -.190E+01
   -.200E+01 0.864E+00 -.243E+04   0.203E+01 -.857E+00 0.245E+04   0.546E-02 -.625E-01 -.218E+02
   -.259E+02 -.368E+01 -.205E+04   0.330E+02 0.381E+01 0.205E+04   -.754E+01 0.287E+00 -.104E+00
   0.258E+02 -.335E+00 -.209E+04   -.329E+02 0.280E+00 0.210E+04   0.724E+01 0.354E+00 -.237E+01
   -.116E+01 -.312E+00 0.975E+02   0.311E-11 0.279E-12 0.455E-11   0.120E+01 0.310E+00 -.975E+02

 POSITION                                       TOTAL-FORCE (eV/Angst)
      9.70478      7.35050      7.26518        -0.001197      0.000286     -3.802738
      0.00000      8.82060      7.26518         0.000542      0.000117      2.841917
      0.00000      7.35050     10.50011         0.003549      0.000171      0.556189
      9.70478      8.82060     10.50011        -0.003633      0.000979     -0.795252
      9.70478      7.35050     13.73503        -0.018541     -0.014465      0.596398
      0.00000      8.82060     13.73503         0.010015      0.003426     -0.690739
      0.00252      7.35081     16.90653        -0.040776      0.005504      0.037525
      9.70752      8.82236     17.07162         0.056620      0.020142      0.060442
      9.71227      7.36127     20.37429         0.173778     -0.495275      0.798443
     12.93561      8.82230     20.07347        -0.064050     -0.031577      0.085344
      9.70478     10.29069      7.26518        -0.001421      0.000218     -3.803159
      0.00000      0.00000      7.26518         0.000535     -0.000027      2.841860
      0.00000     10.29069     10.50011         0.003383     -0.000299      0.556240
      9.70478      0.00000     10.50011        -0.004118     -0.000350     -0.795332
      9.70478     10.29069     13.73503        -0.008913      0.031682      0.608771
      0.00000      0.00000     13.73503         0.009086     -0.001839     -0.685687
      0.00147     10.29062     16.90946        -0.033021     -0.000114      0.030079
      9.70256      0.00035     17.08109         0.025618     -0.006784      0.032268
      9.70056     10.29272     20.40566         0.050219     -0.116247      0.397242
      0.00111     11.76046     20.07215        -0.041080     -0.015944      0.067358
      9.70478      1.47010      7.26518        -0.001392     -0.000386     -3.803303
      0.00000      2.94020      7.26518         0.000530     -0.000074      2.841917
      0.00000      1.47010     10.50011         0.003451      0.000032      0.556000
      9.70478      2.94020     10.50011        -0.003381     -0.000954     -0.795981
      9.70478      1.47010     13.73503        -0.008350     -0.035989      0.605748
      0.00000      2.94020     13.73503         0.010703     -0.001914     -0.692836
      0.00207      1.47000     16.90877        -0.036185     -0.006203      0.026978
      9.70662      2.93843     17.07141         0.059087     -0.019661      0.049104
      9.69931      1.46562     20.40535         0.080528      0.053441      0.373940
     12.93630      2.93782     20.07312        -0.067883      0.031687      0.075737
      9.70478      4.41030      7.26518        -0.001168     -0.000078     -3.802834
      0.00000      5.88040      7.26518         0.000522      0.000051      2.841937
      0.00000      4.41030     10.50011         0.003641      0.000136      0.556022
      9.70478      5.88040     10.50011        -0.002907      0.000362     -0.795943
      9.70478      4.41030     13.73503        -0.019371      0.018784      0.594159
      0.00000      5.88040     13.73503         0.010617      0.000341     -0.696208
      0.00254      4.41018     16.90675        -0.043742      0.000752      0.033759
      9.71428      5.88021     17.07668         0.086751      0.005810      0.078045
      9.71705      4.39651     20.37649         0.201169      0.564336      0.770065
      0.00893      5.88108     20.07150        -0.101110      0.015430      0.097034
      3.23493      7.35050      7.26518         0.000814      0.000149     -3.801508
      6.46985      8.82060      7.26518        -0.000887      0.000482      2.844767
      6.46985      7.35050     10.50011        -0.003731      0.011597      0.564277
      3.23493      8.82060     10.50011         0.003089      0.000733     -0.784104
      3.23493      7.35050     13.73503         0.017104     -0.007595      0.637534
      6.46985      8.82060     13.73503        -0.007518     -0.039956     -0.618165
      6.47254      7.32485     16.94297         0.025837      0.282024     -0.194677
      3.23837      8.81923     17.08094        -0.048899      0.032633     -0.040981
      3.23871      7.35251     20.40752        -0.179671      0.073855      0.333247
      6.46986      8.82594     20.03725        -0.000899      0.315166      0.107099
      3.23493     10.29069      7.26518         0.001030      0.000166     -3.801457
      6.46985      0.00000      7.26518        -0.000817     -0.000101      2.845177
      6.46985     10.29069     10.50011        -0.003583      0.002002      0.569691
      3.23493      0.00000     10.50011         0.003593     -0.000209     -0.784593
      3.23493     10.29069     13.73503         0.006337      0.005708      0.636082
      6.46985      0.00000     13.73503        -0.005784     -0.001675     -0.801551
      6.46654     10.28131     16.87877         0.033260      0.057198      0.007730
      3.23363     11.76031     17.08200        -0.032173     -0.006689     -0.030018
      3.24103     10.29202     20.40675        -0.051138     -0.008852      0.318482
      6.46728      0.00046     20.04358         0.036663     -0.067963      0.035006
[...]
      6.46985      5.88040     11.76529         0.001353     -0.000899     -0.014153
      4.50011      4.41030     10.50011         0.564362      0.000425      0.059890
      8.43960      4.41030     10.50011        -0.560597      0.000590      0.061419
      3.23493      5.88040     12.46985        -0.003856     -0.000101     -0.198291
      3.23493      5.88040     15.00021        -0.007976     -0.002988      0.220720
      7.73503      4.41030     13.73503        -0.298978      0.025457      0.070956
      5.20467      4.41030     13.73503         0.320122      0.026385      0.073251
      6.47268      5.87777     15.72615        -0.002181     -0.003636      0.005406
      6.45638      5.88448     18.28157        -0.053720     -0.025309      0.929869
      4.52065      4.41079     16.99164         0.138390      0.012202     -0.000911
      8.41883      4.41162     17.00407        -0.185673      0.010049     -0.005035
      3.22750      5.88518     18.95146         0.047817     -0.017280     -0.043118
      3.25270      5.87985     21.49379         0.034285     -0.056161     -0.022626
      7.71112      4.37029     20.25538        -0.388713      0.415175      0.421841
      5.25988      4.39891     20.35922         0.130657      0.298774      0.318083
    total drift:                                0.040664     -0.002058      0.020612

  FREE ENERGIE OF THE ION-ELECTRON SYSTEM (eV)
  free  energy   TOTEN  =     -2710.13318004 eV

  energy  without entropy=    -2710.13318004  energy(sigma->0) =    -2710.13318004