 vasp.6.3.0 20Jan22 (build Dec 25 2023 18:06:01) complex
 executed on        HPECrayEX_GCC date 2024.11.25  22:02:52

 INCAR:
   SYSTEM = TiO2
   ISMEAR = 0
   SIGMA = 0.05
   EDIFF = 1E-7
   ALGO = Normal
   ISTART = 0
   IBRION = 2
   NSW = 1000
   ISYM = 0
   ISIF = 2
   EDIFFG = -0.02
   DIPOL = 0.5 0.5 0.5
   IDIPOL = 3
   LDIPOL = .TRUE.
   LHFCALC = .TRUE.
   HFSCREEN = 0.2
   GGA = PE
   IVDW = 13
   VDW_S8 = 1.19528249
   VDW_A1 = 0.38663183
   VDW_A2 = 5.19133469
   ENCUT = 520
   PREC = Normal
   PRECFOCK = Fast
   LASPH = .TRUE.
   LREAL = .FALSE.
   ISPIN = 1
   NKREDX = 2
   NKREDY = 2
   NELM = 200
   NELMIN = 8
   NCORE = 8
   KPAR = 1
   LWAVE = .FALSE.
   LCHARG = .FALSE.

 POTCAR:    PAW_PBE C 08Apr2002
 POTCAR:    PAW_PBE O 08Apr2002
 POTCAR:    PAW_PBE Ti 08Apr2002
 POTCAR:    PAW_PBE O 08Apr2002
 POTCAR:    PAW_PBE C 08Apr2002
   VRHFIN =C: s2p2

   TITEL  = PAW_PBE C 08Apr2002
   POMASS =   12.011; ZVAL   =    4.000    mass and valenz
   ENMAX  =  400.000; ENMIN  =  300.000 eV

[...]

   TITEL  = PAW_PBE O 08Apr2002
   POMASS =   16.000; ZVAL   =    6.000    mass and valenz
   ENMAX  =  400.000; ENMIN  =  300.000 eV

  PAW_PBE C 08Apr2002                   :
  PAW_PBE O 08Apr2002                   :
  PAW_PBE Ti 08Apr2002                  :
  PAW_PBE O 08Apr2002                   :

 POSCAR:  C  O Ti  O
  positions in direct lattice
  velocities in cartesian coordinates
|           W    W    AA    RRRRR   N    N  II  N    N   GGGG   !!!           |
|           W    W   A  A   R    R  NN   N  II  NN   N  G    G  !!!           |
|           W    W  A    A  R    R  N N  N  II  N N  N  G       !!!           |
|           W WW W  AAAAAA  RRRRR   N  N N  II  N  N N  G  GGG   !            |
|           WW  WW  A    A  R   R   N   NN  II  N   NN  G    G                |
|           W    W  A    A  R    R  N    N  II  N    N   GGGG   !!!           |
|     Specifying the vdW parameters                                           |
|     VDW_S8 = 1.195                                                          |
|     VDW_A1 = 0.387                                                          |
|     VDW_A2 = 5.191                                                          |
|     in the INCAR file will overwrite the defaults for hse06. Please         |
|     make sure that is what you intended.                                    |

 ion  position               nearest neighbor table
   1  0.421  0.500  0.852-   2 1.15   3 1.17
   2  0.363  0.500  0.884-   1 1.15
   3  0.484  0.500  0.821-   1 1.17  83 2.42
   4  0.750  0.625  0.265-  84 1.94  85 1.94 144 1.94 145 1.94 166 1.96  87 1.96  14 2.94  34 2.94

   5  0.000  0.750  0.265-  87 1.94 107 1.94 106 1.94  86 1.94  88 1.96  35 2.94  15 2.94
   6  0.000  0.625  0.382-  88 1.94  89 1.94 148 1.94 149 1.94  90 1.96  91 1.96  16 2.94  36 2.94

[...]

  84  0.750  0.750  0.219-   4 1.94  14 1.94
  85  0.750  0.750  0.311-   4 1.94  14 1.94   7 1.96
  86  0.098  0.625  0.265-   5 1.94  35 1.94  44 1.96
  87  0.902  0.625  0.265-   5 1.94  35 1.94   4 1.96
  88  0.000  0.750  0.336-   6 1.94  16 1.94   5 1.96
  89  0.000  0.750  0.428-   6 1.94  16 1.94   9 1.96
  90  0.848  0.625  0.382-   7 1.94  37 1.94   6 1.96
  91  0.152  0.625  0.382-  47 1.94  77 1.94   6 1.96
  92  0.750  0.750  0.454-   8 1.94  18 1.94   7 1.96
  93  0.750  0.750  0.546-   8 1.94  18 1.94  11 2.09
  94  0.098  0.625  0.500-   9 1.94  39 1.94  48 1.96
  95  0.902  0.625  0.500-   9 1.94  39 1.94   8 1.96
  96  1.000  0.750  0.572-  20 1.89  10 1.89   9 1.98
  97  0.000  0.750  0.665-  13 1.81  10 2.00  20 2.00
  98  0.850  0.625  0.619-  10 1.94  11 1.96  41 1.96
  99  0.150  0.625  0.618-  10 1.94  51 1.96  81 1.96
 100  0.750  0.750  0.690-  11 1.86  22 2.07  12 2.07
 101  0.750  0.750  0.783-  12 1.83  22 1.83
 102  0.094  0.625  0.743-  43 1.93  13 1.93  52 2.01
 103  0.906  0.625  0.743-  43 1.93  13 1.93  12 2.02
 104  0.750  0.000  0.219-  14 1.94  24 1.94
 105  0.750  0.000  0.311-  14 1.94  24 1.94  17 1.96
 106  0.098  0.875  0.265-   5 1.94  15 1.94  54 1.96
 107  0.902  0.875  0.265-   5 1.94  15 1.94  14 1.96
 108  0.000  0.000  0.336-  16 1.94  26 1.94  15 1.96
 109  0.000  0.000  0.428-  16 1.94  26 1.94  19 1.96
 110  0.848  0.875  0.382-   7 1.94  17 1.94  16 1.96
 111  0.152  0.875  0.382-  47 1.94  57 1.94  16 1.96
 112  0.750  0.000  0.454-  18 1.94  28 1.94  17 1.96
 113  0.750  0.000  0.546-  18 1.94  28 1.94  21 2.09
 114  0.098  0.875  0.500-   9 1.94  19 1.94  58 1.96
 115  0.902  0.875  0.500-   9 1.94  19 1.94  18 1.96
 116  1.000  1.000  0.572-  30 1.89  20 1.89  19 1.98
 117  0.000  1.000  0.665-  23 1.81  20 2.00  30 2.00
 118  0.850  0.875  0.619-  20 1.94  21 1.96  11 1.96
 119  0.150  0.875  0.618-  20 1.94  61 1.96  51 1.96
 120  0.750  1.000  0.690-  21 1.86  22 2.07  32 2.07
 121  0.750  0.000  0.783-  32 1.83  22 1.83
 122  0.094  0.875  0.743-  13 1.93  23 1.93  62 2.02
 123  0.906  0.875  0.743-  13 1.93  23 1.93  22 2.02
 124  0.750  0.250  0.219-  24 1.94  34 1.94
 125  0.750  0.250  0.311-  24 1.94  34 1.94  27 1.96
 126  0.098  0.125  0.265-  15 1.94  25 1.94  64 1.96
 127  0.902  0.125  0.265-  15 1.94  25 1.94  24 1.96
 128  0.000  0.250  0.336-  26 1.94  36 1.94  25 1.96
 129  0.000  0.250  0.428-  26 1.94  36 1.94  29 1.96
 130  0.848  0.125  0.382-  17 1.94  27 1.94  26 1.96
 131  0.152  0.125  0.382-  57 1.94  67 1.94  26 1.96
 132  0.750  0.250  0.454-  28 1.94  38 1.94  27 1.96
 133  0.750  0.250  0.546-  28 1.94  38 1.94  31 2.09
 134  0.098  0.125  0.500-  19 1.94  29 1.94  68 1.96
 135  0.902  0.125  0.500-  19 1.94  29 1.94  28 1.96
 136  1.000  0.250  0.572-  30 1.89  40 1.89  29 1.98
 137  0.000  0.250  0.665-  33 1.81  40 2.00  30 2.00
 138  0.850  0.125  0.619-  30 1.94  21 1.96  31 1.96
 139  0.150  0.125  0.618-  30 1.94  61 1.96  71 1.96
 140  0.750  0.250  0.690-  31 1.86  32 2.07  42 2.07
 141  0.750  0.250  0.783-  42 1.83  32 1.83
 142  0.094  0.125  0.743-  33 1.93  23 1.93  72 2.02
 143  0.906  0.125  0.743-  33 1.93  23 1.93  32 2.02
[...]
 229  0.500  0.500  0.428-  46 1.94  76 1.94  79 1.96
 230  0.348  0.375  0.382-  67 1.94  77 1.94  76 1.96
 231  0.652  0.375  0.382-  27 1.94  37 1.94  76 1.96
 232  0.250  0.500  0.454-  48 1.94  78 1.94  77 1.96
 233  0.250  0.500  0.546-  48 1.94  78 1.94  81 2.08
 234  0.598  0.375  0.500-  69 1.94  79 1.94  38 1.96
 235  0.402  0.375  0.500-  69 1.94  79 1.94  78 1.96
 236  0.500  0.500  0.573-  50 1.89  80 1.89  79 1.99
 237  0.500  0.500  0.666-  83 1.85  80 1.99  50 1.99
 238  0.350  0.375  0.619-  80 1.94  71 1.96  81 1.96
 239  0.650  0.375  0.619-  80 1.94  41 1.95  31 1.96
 240  0.248  0.500  0.690-  81 1.86  82 2.07  52 2.07
 241  0.254  0.500  0.783-  52 1.84  82 1.84
 242  0.594  0.374  0.742-  73 1.92  83 1.93  42 2.01
 243  0.405  0.373  0.741-  73 1.92  83 1.93  82 2.01

IMPORTANT INFORMATION: All symmetrisations will be switched off!
NOSYMM: (Re-)initialisation of all symmetry stuff for point group C_1.

                                     Primitive cell

  volume of cell :    4157.1448

  direct lattice vectors                    reciprocal lattice vectors
    12.893495846  0.000000000  0.000000000     0.077558485  0.000000000  0.000000000
     0.000000000 11.761907618  0.000000000     0.000000000  0.085020222  0.000000000
     0.000000000  0.000000000 27.412377441     0.000000000  0.000000000  0.036479871

  length of vectors
    12.893495846 11.761907618 27.412377441     0.077558485  0.085020222  0.036479871

  position of ions in fractional coordinates (direct lattice)
     0.421149389  0.500000019  0.851741133
     0.362537594  0.499999926  0.883526969
     0.484207697  0.500000122  0.820959819
     0.750000000  0.625000000  0.264823466
     0.000000000  0.750000000  0.264823466
     0.000000000  0.625000000  0.382411733
     0.750000000  0.750000000  0.382411733
     0.750000000  0.625000000  0.500000000
     0.000000000  0.750000000  0.500000000
     0.999934859  0.625028267  0.615628589
     0.749981544  0.749988335  0.622171513
     0.749732534  0.625041946  0.743516045
     0.000013633  0.750125293  0.731047699
     0.750000000  0.875000000  0.264823466
     0.000000000  0.000000000  0.264823466
     0.000000000  0.875000000  0.382411733
     0.750000000  0.000000000  0.382411733
     0.750000000  0.875000000  0.500000000
     0.000000000  0.000000000  0.500000000
     0.999970973  0.875026441  0.615676812
     0.750032413  0.999999998  0.622181340
     0.749886849  0.875059804  0.743545733
     0.000200413  0.999999997  0.731057655
     0.750000000  0.125000000  0.264823466
     0.000000000  0.250000000  0.264823466
     0.000000000  0.125000000  0.382411733
     0.750000000  0.250000000  0.382411733
     0.750000000  0.125000000  0.500000000
     0.000000000  0.250000000  0.500000000
     0.999970970  0.124973558  0.615676812
     0.749981543  0.250011665  0.622171513
     0.749886853  0.124940191  0.743545733
     0.000013636  0.249874706  0.731047699
     0.750000000  0.375000000  0.264823466
     0.000000000  0.500000000  0.264823466
     0.000000000  0.375000000  0.382411733
     0.750000000  0.500000000  0.382411733
     0.750000000  0.375000000  0.500000000
     0.000000000  0.500000000  0.500000000
     0.999934861  0.374971731  0.615628589
     0.750031129  0.499999998  0.622235708
     0.749732535  0.374958050  0.743516046
     0.999423361  0.499999997  0.731012623
     0.250000000  0.625000000  0.264823466
     0.500000000  0.750000000  0.264823466
     0.500000000  0.625000000  0.382411733
     0.250000000  0.750000000  0.382411733
     0.250000000  0.625000000  0.500000000
     0.500000000  0.750000000  0.500000000
     0.499989604  0.624123723  0.616368353
     0.249920289  0.750076889  0.621989893
     0.249308568  0.625377613  0.742912585
     0.500349316  0.750198955  0.730484438
     0.250000000  0.875000000  0.264823466
     0.500000000  0.000000000  0.264823466
     0.500000000  0.875000000  0.382411733
     0.250000000  0.000000000  0.382411733
     0.250000000  0.875000000  0.500000000
     0.500000000  0.000000000  0.500000000
     0.500109870  0.874624373  0.615169329
[...]
     0.500000000  0.500000000  0.428355971
     0.347680320  0.375000000  0.382411733
     0.652319680  0.375000000  0.382411733
     0.250000000  0.500000000  0.454055762
     0.250000000  0.500000000  0.545944238
     0.597680320  0.375000000  0.500000000
     0.402319680  0.375000000  0.500000000
     0.499933757  0.500000012  0.572616166
     0.500169016  0.499999969  0.665785172
     0.349648212  0.375019769  0.618814904
     0.650326539  0.375072902  0.618697443
     0.247958611  0.499999978  0.689936801
     0.253730831  0.500000009  0.782819449
     0.593712901  0.374217825  0.741950651
     0.405156607  0.373038271  0.740578424

  ion indices of the primitive-cell ions
   primitive index   ion index
                 1           1
                 2           2
                 3           3
                 4           4
                 5           5
                 6           6
                 7           7
                 8           8
                 9           9
                10          10
[...]

 FORCES acting on ions
    electron-ion (+dipol)            ewald-force                    non-local-force                 convergence-correction
   -.188E+02 -.195E-04 -.877E+03   0.180E+02 0.178E-04 0.877E+03   0.797E+00 0.178E-05 0.926E-01   0.660E-04 0.436E-08 -.668E-04
   0.166E+03 0.259E-03 -.130E+04   -.212E+03 -.324E-03 0.135E+04   0.401E+02 0.571E-04 -.452E+02   0.110E-03 0.754E-08 -.200E-03
   -.202E+03 -.366E-03 -.135E+04   0.247E+03 0.436E-03 0.131E+04   -.397E+02 -.606E-04 0.358E+02   0.866E-04 0.157E-07 0.186E-04
   -.296E+00 -.130E+00 0.967E+03   0.296E+00 0.130E+00 -.970E+03   0.776E-05 0.121E-03 -.125E+01   0.168E-05 0.146E-05 -.138E-03
   0.189E+00 -.178E+00 0.104E+04   -.190E+00 0.178E+00 -.104E+04   -.788E-04 0.499E-04 -.186E+01   -.387E-05 0.222E-05 -.147E-03
   0.109E+00 -.682E-01 0.502E+03   -.112E+00 0.684E-01 -.501E+03   -.837E-03 0.115E-03 0.182E+00   -.176E-05 0.373E-06 0.171E-03
   -.172E+00 -.848E-01 0.498E+03   0.170E+00 0.853E-01 -.499E+03   -.397E-03 0.187E-03 -.167E+00   -.265E-06 0.557E-06 0.170E-03
   -.567E+00 -.214E+00 0.457E+01   0.557E+00 0.210E+00 -.405E+01   -.272E-02 -.207E-02 0.197E+00   -.163E-05 0.570E-06 0.342E-03
   0.333E+00 -.351E+00 0.456E+01   -.340E+00 0.354E+00 -.521E+01   -.142E-02 -.179E-03 -.569E-01   -.274E-05 0.748E-06 0.340E-03
   0.165E+01 -.108E+01 -.479E+03   -.164E+01 0.108E+01 0.479E+03   -.190E-02 -.262E-02 -.621E-01   -.820E-05 0.270E-05 0.348E-03
   -.331E+01 -.232E+01 -.487E+03   0.332E+01 0.232E+01 0.487E+03   -.419E-02 -.925E-03 0.510E-01   -.464E-05 0.329E-05 0.355E-03
   -.198E+02 -.804E+01 -.935E+03   0.198E+02 0.805E+01 0.935E+03   0.768E-02 -.610E-02 -.102E-01   -.130E-04 0.879E-05 0.199E-03
   0.391E+01 -.437E+01 -.972E+03   -.392E+01 0.436E+01 0.972E+03   0.122E-01 -.418E-03 0.658E+00   -.219E-04 0.156E-04 0.200E-03
   -.262E+00 -.129E+00 0.968E+03   0.262E+00 0.129E+00 -.970E+03   -.821E-05 0.125E-03 -.125E+01   0.134E-05 0.148E-05 -.141E-03
   0.170E+00 0.866E-08 0.104E+04   -.171E+00 -.142E-07 -.104E+04   -.840E-04 0.597E-10 -.186E+01   -.353E-05 0.310E-08 -.149E-03
   0.983E-01 -.684E-01 0.501E+03   -.100E+00 0.685E-01 -.501E+03   -.759E-03 0.848E-04 0.182E+00   -.169E-05 0.371E-06 0.171E-03
   -.177E+00 0.111E-07 0.498E+03   0.175E+00 -.382E-08 -.499E+03   -.464E-03 0.228E-08 -.167E+00   -.331E-06 -.279E-08 0.170E-03
   -.627E+00 -.212E+00 0.415E+01   0.622E+00 0.213E+00 -.363E+01   -.145E-02 0.362E-03 0.196E+00   -.171E-05 0.569E-06 0.343E-03
   0.270E+00 -.127E-06 0.420E+01   -.275E+00 0.156E-06 -.484E+01   -.112E-02 0.209E-07 -.568E-01   -.266E-05 0.972E-09 0.341E-03
   0.103E+01 -.104E+01 -.481E+03   -.103E+01 0.105E+01 0.481E+03   -.291E-02 -.247E-02 -.620E-01   -.758E-05 0.268E-05 0.353E-03
   -.249E+01 -.678E-05 -.489E+03   0.249E+01 0.673E-05 0.489E+03   0.493E-02 0.728E-07 0.555E-01   -.452E-05 0.836E-10 0.358E-03
   -.810E+01 -.571E+01 -.944E+03   0.808E+01 0.571E+01 0.944E+03   0.175E-01 -.752E-03 -.129E-01   -.128E-04 0.853E-05 0.209E-03
   0.254E+01 0.580E-06 -.975E+03   -.254E+01 -.582E-06 0.975E+03   0.229E-02 -.113E-06 0.671E+00   -.188E-04 0.285E-08 0.213E-03
   -.262E+00 0.129E+00 0.968E+03   0.262E+00 -.129E+00 -.970E+03   -.822E-05 -.125E-03 -.125E+01   0.134E-05 -.147E-05 -.141E-03
   0.189E+00 0.178E+00 0.104E+04   -.190E+00 -.178E+00 -.104E+04   -.788E-04 -.499E-04 -.186E+01   -.387E-05 -.223E-05 -.147E-03
   0.983E-01 0.684E-01 0.501E+03   -.100E+00 -.685E-01 -.501E+03   -.759E-03 -.847E-04 0.182E+00   -.169E-05 -.371E-06 0.171E-03
   -.172E+00 0.848E-01 0.498E+03   0.170E+00 -.853E-01 -.499E+03   -.397E-03 -.187E-03 -.167E+00   -.265E-06 -.555E-06 0.170E-03
   -.627E+00 0.212E+00 0.415E+01   0.622E+00 -.213E+00 -.363E+01   -.145E-02 -.362E-03 0.196E+00   -.171E-05 -.569E-06 0.343E-03
   0.333E+00 0.351E+00 0.456E+01   -.340E+00 -.354E+00 -.521E+01   -.142E-02 0.179E-03 -.569E-01   -.274E-05 -.749E-06 0.340E-03
   0.103E+01 0.104E+01 -.481E+03   -.103E+01 -.105E+01 0.481E+03   -.291E-02 0.247E-02 -.620E-01   -.758E-05 -.268E-05 0.353E-03
   -.331E+01 0.232E+01 -.487E+03   0.332E+01 -.232E+01 0.487E+03   -.419E-02 0.925E-03 0.510E-01   -.464E-05 -.329E-05 0.355E-03
   -.810E+01 0.571E+01 -.944E+03   0.808E+01 -.571E+01 0.944E+03   0.175E-01 0.752E-03 -.129E-01   -.128E-04 -.853E-05 0.209E-03
   0.391E+01 0.437E+01 -.972E+03   -.392E+01 -.436E+01 0.972E+03   0.122E-01 0.418E-03 0.658E+00   -.219E-04 -.156E-04 0.200E-03
   -.296E+00 0.130E+00 0.967E+03   0.296E+00 -.130E+00 -.970E+03   0.776E-05 -.121E-03 -.125E+01   0.167E-05 -.146E-05 -.138E-03
   0.209E+00 -.171E-07 0.104E+04   -.209E+00 0.149E-07 -.104E+04   -.734E-04 -.171E-08 -.186E+01   -.422E-05 -.300E-09 -.145E-03
   0.109E+00 0.682E-01 0.502E+03   -.112E+00 -.684E-01 -.501E+03   -.837E-03 -.115E-03 0.182E+00   -.176E-05 -.372E-06 0.171E-03
   -.167E+00 -.322E-07 0.498E+03   0.166E+00 0.279E-07 -.499E+03   -.351E-03 0.143E-08 -.167E+00   -.199E-06 0.233E-08 0.171E-03
   -.567E+00 0.214E+00 0.457E+01   0.557E+00 -.210E+00 -.405E+01   -.272E-02 0.207E-02 0.197E+00   -.163E-05 -.568E-06 0.342E-03
   0.384E+00 0.159E-06 0.493E+01   -.393E+00 -.146E-06 -.558E+01   -.154E-02 0.213E-07 -.579E-01   -.282E-05 -.297E-09 0.339E-03
   0.165E+01 0.108E+01 -.479E+03   -.164E+01 -.108E+01 0.479E+03   -.190E-02 0.262E-02 -.621E-01   -.819E-05 -.270E-05 0.348E-03
   -.432E+01 -.398E-05 -.485E+03   0.432E+01 0.392E-05 0.484E+03   0.249E-02 0.110E-06 0.454E-01   -.464E-05 0.107E-08 0.352E-03
   -.198E+02 0.804E+01 -.935E+03   0.198E+02 -.805E+01 0.935E+03   0.768E-02 0.610E-02 -.102E-01   -.130E-04 -.880E-05 0.199E-03
   0.596E+01 0.189E-06 -.969E+03   -.594E+01 -.921E-07 0.969E+03   -.234E-01 -.574E-07 0.643E+00   -.248E-04 -.484E-09 0.188E-03
   0.300E+00 -.161E+00 0.967E+03   -.299E+00 0.161E+00 -.970E+03   -.600E-05 0.113E-03 -.125E+01   -.172E-05 0.203E-05 -.132E-03
   -.192E+00 -.232E+00 0.104E+04   0.192E+00 0.232E+00 -.104E+04   0.778E-04 0.173E-03 -.186E+01   0.390E-05 0.276E-05 -.144E-03
   -.108E+00 -.548E-01 0.502E+03   0.110E+00 0.602E-01 -.501E+03   0.844E-03 0.168E-02 0.184E+00   0.178E-05 0.507E-06 0.173E-03
   0.170E+00 -.102E+00 0.498E+03   -.169E+00 0.103E+00 -.499E+03   0.392E-03 0.542E-03 -.169E+00   0.255E-06 0.676E-06 0.171E-03
   0.507E+00 -.295E+00 0.533E+01   -.497E+00 0.299E+00 -.484E+01   0.333E-02 0.182E-02 0.185E+00   0.162E-05 0.728E-06 0.339E-03
   -.331E+00 -.490E+00 0.573E+01   0.336E+00 0.461E+00 -.632E+01   0.252E-02 0.975E-02 -.508E-01   0.274E-05 0.890E-06 0.343E-03
   -.155E+01 -.228E+01 -.473E+03   0.156E+01 0.235E+01 0.473E+03   -.336E-02 -.532E-01 -.365E-01   0.834E-05 0.308E-05 0.354E-03
   0.294E+01 -.319E+01 -.484E+03   -.295E+01 0.320E+01 0.484E+03   0.893E-02 -.414E-02 0.432E-01   0.455E-05 0.429E-05 0.343E-03
   0.288E+02 -.148E+02 -.917E+03   -.287E+02 0.148E+02 0.916E+03   -.453E-01 0.168E-01 0.378E-01   0.125E-04 0.146E-04 0.159E-03
   -.732E+01 -.258E+02 -.951E+03   0.728E+01 0.258E+02 0.951E+03   0.434E-01 -.209E-01 0.736E+00   0.227E-04 0.151E-04 0.215E-03
   0.264E+00 -.159E+00 0.967E+03   -.264E+00 0.160E+00 -.970E+03   0.101E-04 0.133E-03 -.125E+01   -.138E-05 0.205E-05 -.135E-03
   -.172E+00 0.189E-07 0.104E+04   0.172E+00 -.228E-07 -.104E+04   0.837E-04 -.240E-08 -.186E+01   0.354E-05 0.415E-08 -.146E-03
   -.971E-01 -.575E-01 0.502E+03   0.992E-01 0.602E-01 -.501E+03   0.772E-03 0.539E-03 0.185E+00   0.170E-05 0.467E-06 0.172E-03
   0.176E+00 -.541E-08 0.498E+03   -.174E+00 0.105E-07 -.499E+03   0.509E-03 0.377E-08 -.169E+00   0.316E-06 0.205E-08 0.170E-03
   0.586E+00 -.305E+00 0.466E+01   -.579E+00 0.321E+00 -.415E+01   0.136E-02 0.874E-02 0.191E+00   0.171E-05 0.742E-06 0.340E-03
   -.252E+00 0.466E-05 0.594E+01   0.256E+00 -.404E-05 -.661E+01   0.138E-02 -.358E-07 -.873E-01   0.265E-05 0.262E-08 0.343E-03
   -.793E+00 -.339E+01 -.473E+03   0.791E+00 0.341E+01 0.474E+03   -.117E-02 -.744E-02 -.131E+00   0.760E-05 0.278E-05 0.359E-03
[...]
   -.256E+02 0.101E+00 0.749E+03   0.300E+02 -.102E+00 -.749E+03   -.331E+01 0.173E-02 0.191E+00   0.152E-05 -.802E-06 0.265E-03
   0.254E+02 0.867E-01 0.749E+03   -.298E+02 -.876E-01 -.749E+03   0.331E+01 0.110E-02 0.186E+00   0.165E-05 -.645E-06 0.264E-03
   0.440E+00 -.111E-06 0.321E+03   -.433E+00 0.133E-06 -.326E+03   -.768E-02 -.250E-07 0.398E+01   0.151E-05 -.945E-08 0.446E-03
   0.126E+01 -.613E-05 -.309E+03   -.124E+01 0.619E-05 0.317E+03   -.198E-01 0.223E-07 -.658E+01   0.372E-05 0.967E-10 0.550E-03
   -.255E+02 0.117E+00 0.971E+01   0.307E+02 -.122E+00 -.993E+01   -.491E+01 0.194E-01 0.277E+00   0.256E-05 -.946E-06 0.522E-03
   0.246E+02 0.185E+00 0.103E+02   -.298E+02 -.192E+00 -.105E+02   0.488E+01 0.217E-01 0.284E+00   0.441E-05 -.108E-05 0.519E-03
   -.132E+01 0.262E-05 -.405E+03   0.131E+01 0.149E-05 0.398E+03   0.106E-01 -.359E-05 0.638E+01   0.846E-05 0.374E-08 0.560E-03
   -.708E+01 0.601E-04 -.101E+04   0.728E+01 -.601E-04 0.100E+04   -.169E+00 0.293E-07 0.102E+01   0.203E-04 -.267E-08 0.469E-03
   -.868E+01 0.381E+01 -.714E+03   0.119E+02 -.387E+01 0.713E+03   -.283E+01 0.456E-01 0.718E+00   0.118E-04 -.450E-05 0.527E-03
   0.560E+01 0.282E+01 -.718E+03   -.886E+01 -.289E+01 0.717E+03   0.284E+01 0.618E-01 0.868E+00   0.244E-05 -.375E-05 0.542E-03
   0.226E+02 0.334E-04 -.112E+04   -.229E+02 -.361E-04 0.112E+04   0.275E+00 0.223E-05 -.200E+01   0.120E-04 -.411E-08 0.393E-03
   0.938E+02 -.235E-04 -.159E+04   -.937E+02 0.233E-04 0.162E+04   -.131E+00 0.151E-06 -.190E+02   0.305E-04 0.312E-08 0.770E-04
   -.384E+02 0.367E+02 -.143E+04   0.450E+02 -.364E+02 0.143E+04   -.578E+01 -.268E+00 -.348E+01   0.273E-04 -.182E-04 0.305E-03
   0.127E+02 0.502E+02 -.139E+04   -.194E+02 -.503E+02 0.139E+04   0.583E+01 0.468E-01 -.263E+01   0.407E-04 -.226E-04 0.270E-03
   -.208E+01 0.339E-06 0.109E+03   0.277E-11 -.838E-12 -.259E-10   0.185E+01 0.474E-07 -.998E+02   0.251E-03 -.147E-07 0.585E-01

 POSITION                                       TOTAL-FORCE (eV/Angst)
      5.43003      5.88095     23.34832         0.011915      0.000000     -0.013772
      4.67451      5.88095     24.21946         0.000867     -0.000000      0.004470
      6.24309      5.88096     22.50448        -0.007855      0.000000      0.004919
      9.67012      7.35119      7.25944         0.000007      0.000351     -4.000066
      0.00000      8.82143      7.25944        -0.000359      0.000175      3.055852
      0.00000      7.35119     10.48281        -0.003439      0.000236      0.584383
      9.67012      8.82143     10.48281        -0.001997      0.000714     -0.842590
      9.67012      7.35119     13.70619        -0.012743     -0.006259      0.741892
      0.00000      8.82143     13.70619        -0.009041      0.003626     -0.746937
     12.89266      7.35153     16.87584         0.000006      0.000223      0.000089
      9.66988      8.82130     17.05520        -0.000098      0.001111      0.000536
      9.66667      7.35168     20.38153        -0.000992     -0.000606     -0.001438
      0.00017      8.82290     20.03976        -0.000994     -0.000230      0.000074
      9.67012     10.29167      7.25944        -0.000226      0.000301     -4.000348
      0.00000      0.00000      7.25944        -0.000387     -0.000000      3.055806
      0.00000     10.29167     10.48281        -0.002997      0.000235      0.584739
      9.67012      0.00000     10.48281        -0.002478      0.000000     -0.843237
      9.67012     10.29167     13.70619        -0.006816      0.000943      0.737813
      0.00000      0.00000     13.70619        -0.006485      0.000000     -0.744432
     12.89312     10.29198     16.87715         0.000136      0.000226     -0.001285
      9.67053     11.76191     17.05546        -0.000638     -0.000000     -0.000717
      9.66867     10.29237     20.38237         0.000826     -0.000440      0.001305
      0.00258     11.76191     20.04003        -0.000947     -0.000000     -0.000608
      9.67012      1.47024      7.25944        -0.000226     -0.000301     -4.000348
      0.00000      2.94048      7.25944        -0.000359     -0.000175      3.055852
      0.00000      1.47024     10.48281        -0.002997     -0.000235      0.584739
      9.67012      2.94048     10.48281        -0.001997     -0.000714     -0.842590
      9.67012      1.47024     13.70619        -0.006816     -0.000943      0.737813
      0.00000      2.94048     13.70619        -0.009041     -0.003626     -0.746937
     12.89312      1.46993     16.87715         0.000136     -0.000226     -0.001285
      9.66988      2.94061     17.05520        -0.000098     -0.001111      0.000536
      9.66867      1.46954     20.38237         0.000826      0.000440      0.001305
      0.00017      2.93901     20.03976        -0.000994      0.000230      0.000074
      9.67012      4.41072      7.25944         0.000007     -0.000351     -4.000066
      0.00000      5.88095      7.25944        -0.000360     -0.000000      3.055885
      0.00000      4.41072     10.48281        -0.003439     -0.000236      0.584383
      9.67012      5.88095     10.48281        -0.001452     -0.000000     -0.841775
      9.67012      4.41072     13.70619        -0.012743      0.006259      0.741892
      0.00000      5.88095     13.70619        -0.011203      0.000000     -0.748885
     12.89266      4.41038     16.87584         0.000006     -0.000223      0.000089
      9.67052      5.88095     17.05697        -0.000213      0.000000      0.000644
      9.66667      4.41023     20.38153        -0.000993      0.000606     -0.001437
     12.88605      5.88095     20.03880        -0.001383      0.000000      0.000378
      3.22337      7.35119      7.25944         0.000108      0.000363     -4.002590
      6.44675      8.82143      7.25944         0.000452      0.000583      3.059038
      6.44675      7.35119     10.48281         0.003461      0.007409      0.588908
      3.22337      8.82143     10.48281         0.002076      0.001398     -0.853382
      3.22337      7.35119     13.70619         0.013140      0.005465      0.699760
      6.44675      8.82143     13.70619         0.008068     -0.020591     -0.683620
      6.44661      7.34088     16.89612        -0.000144     -0.000797      0.000479
      3.22235      8.82234     17.05023        -0.000126      0.000974      0.000890
      3.21446      7.35562     20.36500         0.000465     -0.001429      0.000178
      6.45125      8.82377     20.02430        -0.000543      0.000354     -0.001499
      3.22337     10.29167      7.25944         0.000317      0.000426     -4.002249
      6.44675      0.00000      7.25944         0.000437     -0.000000      3.059313
      6.44675     10.29167     10.48281         0.003026      0.003431      0.593689
      3.22337      0.00000     10.48281         0.002634      0.000000     -0.851412
      3.22337     10.29167     13.70619         0.007751      0.025630      0.720199
      6.44675      0.00000     13.70619         0.005308      0.000001     -0.790051
      6.44817     10.28724     16.86326         0.000218     -0.000832      0.000919
[...]
      6.44675      5.88095     11.74226        -0.001179      0.000000     -0.051662
      4.48281      4.41072     10.48281         0.545727      0.000833      0.058997
      8.41068      4.41072     10.48281        -0.549365      0.000401      0.057525
      3.22337      5.88095     12.44675        -0.002355     -0.000000     -0.146998
      3.22337      5.88095     14.96563         0.001519      0.000000      0.218036
      7.70619      4.41072     13.70619        -0.452549      0.018361      0.092524
      5.18731      4.41072     13.70619         0.433306      0.018998      0.093463
      6.44589      5.88095     15.69678        -0.000337     -0.000000      0.001489
      6.44892      5.88095     18.25078        -0.000442     -0.000000      0.003395
      4.50820      4.41095     16.96320         0.001077      0.000006      0.001421
      8.38498      4.41157     16.95998        -0.000826      0.000011      0.001286
      3.19705      5.88095     18.91279        -0.001208     -0.000000     -0.002025
      3.27150      5.88095     21.45892         0.003118      0.000000     -0.002469
      7.65502      4.40152     20.33864        -0.001433      0.001102      0.001390
      5.22389      4.38765     20.30101         0.000303      0.000569     -0.000567
    total drift:                               -0.011109      0.000000      0.057080

  FREE ENERGIE OF THE ION-ELECTRON SYSTEM (eV)
  free  energy   TOTEN  =     -2647.36643778 eV

  energy  without entropy=    -2647.36643778  energy(sigma->0) =    -2647.36643778

 d Force = 0.1574684E-03[-0.194E-05, 0.317E-03]  d Energy = 0.1652795E-03-0.781E-05
 d Force = 0.1349783E+01[ 0.135E+01, 0.135E+01]  d Ewald  = 0.1349782E+01 0.438E-06

 reached required accuracy - stopping structural energy minimisation