 vasp.6.3.0 20Jan22 (build Mar 11 2022 13:48:16) complex

 executed on             LinuxIFC date 2024.01.22  15:19:35

 INCAR:
   SYSTEM = TiO2
   ISMEAR = 0
   SIGMA = 0.05
   EDIFF = 1E-5
   ALGO = ALL
   ISTART = 0
   IBRION = -1
   NSW = 0
   ISYM = 0
   ISIF = 2
   EDIFFG = -0.01
   DIPOL = 0.5 0.5 0.5
   IDIPOL = 3
   LDIPOL = .TRUE.
   GGA = RE
   AGGAC = 0.0
   LUSE_VDW = .TRUE.
   LASPH = .TRUE.
   ENCUT = 600
   PREC = Accurate
   LASPH = .TRUE.
   LREAL = .FALSE.
   ISPIN = 1
   NELM = 200
   NELMIN = 8
   NCORE = 2
   KPAR = 1
   LWAVE = .FALSE.
   LCHARG = .FALSE.

 POTCAR:    PAW_PBE N 08Apr2002
 POTCAR:    PAW_PBE H 15Jun2001
 POTCAR:    PAW_PBE Ti_pv 07Sep2000
 POTCAR:    PAW_PBE O 08Apr2002
|           W    W    AA    RRRRR   N    N  II  N    N   GGGG   !!!           |
|           W    W   A  A   R    R  NN   N  II  NN   N  G    G  !!!           |
|           W    W  A    A  R    R  N N  N  II  N N  N  G       !!!           |
|           W WW W  AAAAAA  RRRRR   N  N N  II  N  N N  G  GGG   !            |
|           WW  WW  A    A  R   R   N   NN  II  N   NN  G    G                |
|           W    W  A    A  R    R  N    N  II  N    N   GGGG   !!!           |
|     For optimal performance we recommend to set                             |
|       NCORE = 2 up to number-of-cores-per-socket                            |
|     This setting can greatly improve the performance of VASP for DFT.       |
|     The default, NCORE=1 might be grossly inefficient on modern             |
|     multi-core architectures or massively parallel machines. Do your        |
|     Unfortunately you need to use the default for GW and RPA                |
|     calculations (for HF NCORE is supported but not extensively tested      |
|     yet).                                                                   |

   TITEL  = PAW_PBE N 08Apr2002
   POMASS =   14.001; ZVAL   =    5.000    mass and valenz
   ENMAX  =  400.000; ENMIN  =  300.000 eV

   TITEL  = PAW_PBE H 15Jun2001
   POMASS =    1.000; ZVAL   =    1.000    mass and valenz
   ENMAX  =  250.000; ENMIN  =  200.000 eV

   TITEL  = PAW_PBE Ti_pv 07Sep2000
   POMASS =   47.880; ZVAL   =   10.000    mass and valenz
   ENMAX  =  222.335; ENMIN  =  166.751 eV

   TITEL  = PAW_PBE O 08Apr2002
   POMASS =   16.000; ZVAL   =    6.000    mass and valenz
   ENMAX  =  400.000; ENMIN  =  300.000 eV

  PAW_PBE N 08Apr2002                   :
  PAW_PBE H 15Jun2001                   :
  PAW_PBE Ti_pv 07Sep2000               :
  PAW_PBE O 08Apr2002                   :

 POSCAR:  N  H Ti  O
  positions in direct lattice
 exchange correlation table for  LEXCH =       40
   RHO(1)=    0.500       N(1)  =     2000
   RHO(2)=  100.500       N(2)  =     4000

 ion  position               nearest neighbor table
   1  0.610  0.500  0.778-   2 1.02   4 1.03   3 1.03  52 2.28
   2  0.547  0.500  0.806-   1 1.02
   3  0.669  0.428  0.781-   1 1.03
   4  0.669  0.572  0.781-   1 1.03
   5  0.810  0.833  0.295-  55 1.94  89 1.94  57 1.94  56 2.00  54 2.00   8 3.06  22 3.06   6 3.06

   6  0.594  0.667  0.326-  58 1.94 120 1.94  53 1.94  56 1.94  59 2.00  57 2.00   7 3.06  37 3.06
                             5 3.06  11 3.09
   7  0.310  0.667  0.295-  59 1.94 125 1.94  61 1.94  60 2.00  53 2.00   6 3.06  40 3.06   8 3.06

   8  0.094  0.833  0.326-  62 1.94  92 1.94  54 1.94  60 1.94  55 2.00  61 2.00   5 3.06  23 3.06
                             7 3.06   9 3.09
   9  0.946  0.833  0.422-  63 1.93  97 1.94  65 1.94  55 1.98  64 1.99  62 2.00  12 3.01  26 3.06
                            10 3.06   8 3.09
  10  0.728  0.666  0.451-  58 1.90 128 1.94  64 1.95  66 1.96  67 1.99  65 2.00  11 3.02   9 3.06
                            41 3.06  15 3.11
  11  0.446  0.666  0.422-  67 1.93 133 1.94  69 1.94  59 1.98  68 1.99  58 2.01  10 3.02  12 3.06
                            44 3.06   6 3.09
  12  0.227  0.833  0.451-  62 1.90 100 1.94  68 1.94  70 1.97  63 1.98  69 2.01   9 3.01  27 3.06
                            11 3.06  13 3.11
  13  0.087  0.833  0.550-  71 1.93 105 1.93  73 1.94  72 1.98  63 2.01  70 2.01  16 2.96  14 3.05
                            30 3.06  12 3.11
  14  0.866  0.666  0.575-  66 1.87 136 1.94  72 1.95  75 1.96  74 2.01  73 2.01  15 2.98  13 3.05
                            45 3.06
  15  0.585  0.666  0.549- 141 1.93  77 1.94  75 1.94  76 1.98  67 1.98  66 2.01  14 2.98  16 3.06
                            48 3.07  10 3.11
  16  0.365  0.833  0.576-  70 1.87 108 1.94  76 1.95  71 1.96  78 2.00  77 2.02  13 2.96  15 3.06
                            31 3.06
  17  0.232  0.833  0.680-  79 1.87  81 1.93 113 1.94  80 2.00  71 2.09  78 2.09  20 2.86  34 3.08
                            18 3.09
  18  0.002  0.666  0.700-  74 1.78  82 1.84 144 1.97  80 1.99  81 2.06  19 2.87  17 3.09  49 3.11

[...]

  21  0.810  0.167  0.295-  87 1.94  89 1.94 121 1.94  88 2.00  86 2.00  24 3.06  22 3.06  38 3.06

[...]

  37  0.810  0.500  0.295- 119 1.94  57 1.94 121 1.94 120 2.00 118 2.00  40 3.06   6 3.06  38 3.06

  38  0.594  0.333  0.326- 122 1.94 120 1.94 117 1.94  88 1.94 123 2.00 121 2.00  39 3.06  37 3.06
                            21 3.06  43 3.09
  39  0.310  0.333  0.295- 123 1.94 125 1.94  93 1.94 124 2.00 117 2.00  38 3.06  40 3.06  24 3.06

  40  0.094  0.500  0.326- 126 1.94 124 1.94  60 1.94 118 1.94 119 2.00 125 2.00  37 3.06   7 3.06
                            39 3.06  41 3.08
  41  0.948  0.500  0.422- 127 1.93 129 1.94  65 1.94 119 1.98 126 1.99 128 2.00  44 3.01  10 3.06
                            42 3.06  40 3.08
  42  0.728  0.334  0.451- 122 1.90 128 1.94  96 1.95 130 1.96 131 1.99 129 2.00  43 3.02  25 3.06
                            41 3.06  47 3.11
  43  0.446  0.334  0.422- 131 1.93 133 1.94 101 1.94 123 1.98 132 1.99 122 2.01  42 3.02  28 3.06
                            44 3.06  38 3.09
  44  0.227  0.500  0.453- 126 1.93  68 1.94 132 1.94 127 1.97 134 1.97 133 2.01  41 3.01  11 3.06
                            43 3.06  45 3.08
  45  0.090  0.500  0.550- 135 1.92 137 1.94  73 1.94 134 1.98 136 2.01 127 2.01  48 2.97  14 3.06
                            46 3.06  44 3.08
  46  0.866  0.334  0.575- 130 1.87 136 1.94 104 1.95 139 1.96 138 2.01 137 2.01  47 2.98  29 3.05
                            45 3.06
  47  0.585  0.334  0.549- 141 1.93 109 1.94 139 1.94 140 1.98 131 1.98 130 2.01  46 2.98  32 3.06
                            48 3.07  42 3.11
  48  0.367  0.500  0.579- 134 1.93 140 1.95  76 1.95 135 1.95 142 1.97 141 2.03  45 2.97  47 3.07
                            15 3.07  49 3.14
  49  0.236  0.500  0.681- 143 1.86 145 1.94  81 1.94 144 2.03 142 2.04 135 2.10  52 2.89  18 3.11
                            50 3.11  48 3.14
  50  0.002  0.334  0.700- 138 1.78 146 1.84 144 1.97 112 1.99 145 2.06  51 2.87  33 3.09  49 3.11

  51  0.731  0.333  0.678- 146 1.89 148 1.94 116 1.94 147 1.99 139 2.04 138 2.09  50 2.87  36 3.08
                            52 3.09
  52  0.507  0.500  0.706- 143 1.84 142 1.88 147 1.99  83 1.99 148 2.06   1 2.28  49 2.89  51 3.09
                            19 3.09
  53  0.490  0.667  0.268-   6 1.94   7 2.00
  54  0.990  0.833  0.268-   8 1.94   5 2.00
  55  0.914  0.833  0.353-   5 1.94   9 1.98   8 2.00
  56  0.630  0.833  0.321-  22 1.94   6 1.94   5 2.00
  57  0.773  0.667  0.300-  37 1.94   5 1.94   6 2.00
  58  0.625  0.667  0.395-  10 1.90   6 1.94  11 2.01
  59  0.414  0.667  0.353-   7 1.94  11 1.98   6 2.00
  60  0.130  0.667  0.321-  40 1.94   8 1.94   7 2.00
  61  0.273  0.833  0.300-  23 1.94   7 1.94   8 2.00
  62  0.125  0.833  0.395-  12 1.90   8 1.94   9 2.00
  63  0.051  0.834  0.480-   9 1.93  12 1.98  13 2.01
  64  0.766  0.833  0.447-  26 1.94  10 1.95   9 1.99
  65  0.910  0.667  0.427-   9 1.94  41 1.94  10 2.00
  66  0.764  0.666  0.520-  14 1.87  10 1.96  15 2.01
  67  0.551  0.666  0.480-  11 1.93  15 1.98  10 1.99
  68  0.266  0.667  0.448-  44 1.94  12 1.94  11 1.99
  69  0.409  0.833  0.427-  27 1.94  11 1.94  12 2.01
  70  0.264  0.833  0.521-  16 1.87  12 1.97  13 2.01
  71  0.194  0.833  0.607-  13 1.93  16 1.96  17 2.09
  72  0.905  0.833  0.573-  30 1.94  14 1.95  13 1.98
  73  0.051  0.667  0.553-  13 1.94  45 1.94  14 2.01
  74  0.913  0.667  0.645-  18 1.78  14 2.01  19 2.09
  75  0.695  0.668  0.606-  15 1.94  14 1.96  19 2.04
  76  0.405  0.667  0.574-  48 1.95  16 1.95  15 1.98
  77  0.550  0.833  0.553-  31 1.94  15 1.94  16 2.02
  78  0.412  0.836  0.646-  20 1.78  16 2.00  17 2.09
  79  0.348  0.833  0.731-  20 1.84  17 1.87
  80  0.053  0.833  0.708-  34 1.98  18 1.99  17 2.00
  81  0.195  0.666  0.681-  17 1.93  49 1.94  18 2.06
  82  0.844  0.664  0.730-  18 1.84  19 1.89
  83  0.554  0.669  0.707-  20 1.96  52 1.99  19 1.99
  84  0.696  0.834  0.679-  35 1.93  19 1.94  20 2.06
  85  0.490  0.000  0.268-  22 1.94  23 2.00
  86  0.990  0.167  0.268-  24 1.94  21 2.00
  87  0.914  0.167  0.353-  21 1.94  25 1.98  24 2.00
  88  0.630  0.167  0.321-  22 1.94  38 1.94  21 2.00
  89  0.773  0.000  0.300-   5 1.94  21 1.94  22 2.00
  90  0.625  0.000  0.395-  26 1.90  22 1.94  27 2.00
  91  0.414  0.000  0.353-  23 1.94  27 1.98  22 2.00
  92  0.130  0.000  0.321-   8 1.94  24 1.94  23 2.00
  93  0.273  0.167  0.300-  23 1.94  39 1.94  24 2.00
  94  0.125  0.167  0.395-  28 1.90  24 1.94  25 2.00
  95  0.051  0.166  0.480-  25 1.93  28 1.98  29 2.01
  96  0.766  0.167  0.447-  26 1.94  42 1.95  25 1.99
  97  0.910  0.000  0.426-   9 1.94  25 1.94  26 2.00
  98  0.764  0.000  0.520-  30 1.87  26 1.97  31 2.01
  99  0.551  0.000  0.479-  27 1.93  26 1.99  31 2.00
 100  0.266  0.000  0.448-  12 1.94  28 1.94  27 1.99
 101  0.409  0.167  0.427-  27 1.94  43 1.94  28 2.01
 102  0.264  0.167  0.521-  32 1.87  28 1.97  29 2.01
 103  0.194  0.167  0.607-  29 1.93  32 1.96  33 2.09
 104  0.905  0.167  0.573-  30 1.94  46 1.95  29 1.98
 105  0.051  1.000  0.553-  13 1.93  29 1.93  30 2.02
 106  0.913  0.000  0.645-  34 1.79  30 2.01  35 2.08
 107  0.694  1.000  0.606-  31 1.93  30 1.95  35 2.10
 108  0.405  0.000  0.573-  32 1.94  16 1.94  31 1.98
 109  0.550  0.167  0.553-  31 1.94  47 1.94  32 2.02
 110  0.412  0.164  0.646-  36 1.78  32 2.00  33 2.09
 111  0.348  0.167  0.731-  36 1.84  33 1.87
 112  0.053  0.167  0.708-  34 1.98  50 1.99  33 2.00
[...]
 134  0.265  0.500  0.522-  48 1.93  44 1.97  45 1.98
 135  0.193  0.500  0.607-  45 1.92  48 1.95  49 2.10
 136  0.905  0.500  0.573-  14 1.94  46 1.94  45 2.01
 137  0.051  0.333  0.553-  29 1.94  45 1.94  46 2.01
 138  0.913  0.333  0.645-  50 1.78  46 2.01  51 2.09
 139  0.695  0.332  0.606-  47 1.94  46 1.96  51 2.04
 140  0.405  0.333  0.574-  48 1.95  32 1.95  47 1.98
 141  0.550  0.500  0.554-  15 1.93  47 1.93  48 2.03
 142  0.412  0.500  0.648-  52 1.88  48 1.97  49 2.04
 143  0.346  0.500  0.734-  52 1.84  49 1.86
 144  0.052  0.500  0.708-  18 1.97  50 1.97  49 2.03
 145  0.195  0.334  0.681-  33 1.93  49 1.94  50 2.06
 146  0.844  0.336  0.730-  50 1.84  51 1.89
 147  0.554  0.331  0.707-  36 1.96  52 1.99  51 1.99
 148  0.693  0.500  0.678-  19 1.94  51 1.94  52 2.06

IMPORTANT INFORMATION: All symmetrisations will be switched off!
NOSYMM: (Re-)initialisation of all symmetry stuff for point group C_1.

[...]
   5.05116096  7.59500139  7.50000000
  10.20994543  9.49375173  7.50000000
   9.42765604  9.49375173  9.85177208
   6.49883529  9.49375173  8.96904170
   7.97998172  7.59500139  8.38273038
   6.44887506  7.59500139 11.03092153
   4.26887158  7.59500139  9.85177208
   1.34005082  7.59500139  8.96904170
[...]
   2.73448287  5.69625101 14.57668107
   1.99471150  5.69625110 16.97163323
   9.33889950  5.69625105 16.01147790
   0.52688810  3.79888021 15.45526695
   9.42040319  3.79254167 18.02447904
   7.16931779  3.78621309 16.92807792
   4.18340944  3.79842289 16.04576914
   5.67963969  5.69625108 15.47762616
   4.24866884  5.69625123 18.11097999
   3.56764870  5.69625116 20.49840083
   0.54166700  5.69625123 19.78266201
   2.01184675  3.80080276 19.03412859
   8.71008462  3.82921401 20.41336937
   5.71526154  3.76887418 19.74753890
   7.15052127  5.69625124 18.95206621

--------------------------------------- Iteration      FINAL  ---------------------------------------

--------------------OUTCAR has been truncated-------------------------

[...]

--------------------OUTCAR has been truncated-------------------------

  FORCE on cell =-STRESS in cart. coord.  units (eV):
  Direction    XX          YY          ZZ          XY          YZ          ZX
  Alpha Z  2425.12766  2425.12766  2425.12766
  Ewald  483758.24330476989.35908************     0.01054    -0.00100 -1889.96852
  Hartree504951.07564500846.84814************     0.00223    -0.00037 -1255.74286
  E(xc)   -5310.44880 -5315.45548 -5318.10881     0.00004    -0.00002    -1.12880
  Local  ************************997583.96691    -0.00964     0.00107  3144.19847
  n-local -3283.06310 -3254.52957 -3295.31309    -0.00036    -0.00001     1.50396
  augment  3180.97107  3178.45732  3171.15105    -0.00004     0.00002    -0.04473
  Kinetic 17197.96707 17257.57474 17312.85266    -0.00049     0.00067    -8.89935
  Fock        0.00000     0.00000     0.00000     0.00000     0.00000     0.00000
  Total      38.54256    60.64799    56.18616     0.00229     0.00036   -10.08183
  in kB      18.79999    29.58241    27.40606     0.00111     0.00018    -4.91764

 VOLUME and BASIS-vectors are now :
  energy-cutoff  :      600.00
  volume of cell :     3284.68
      direct lattice vectors                 reciprocal lattice vectors
    10.317568932  0.000000000  0.000000000     0.096922057 -0.000000000  0.000000000
     0.000000000 11.392502081  0.000000000     0.000000000  0.087777030  0.000000000
     0.000000000  0.000000000 27.944536660     0.000000000  0.000000000  0.035785170

  length of vectors
    10.317568932 11.392502081 27.944536660     0.096922057  0.087777030  0.035785170

 FORCES acting on ions:
    Electron-Ion                     Ewald-Force                    Non-Local-Force
   -.169E+02 0.433E-02 -.175E+04   0.737E+01 -.769E-02 0.173E+04   0.968E+01 -.104E-02 0.184E+02
   0.430E+02 0.322E-02 -.370E+03   -.478E+02 -.339E-02 0.375E+03   0.487E+01 0.430E-03 -.555E+01
   -.419E+02 0.546E+02 -.353E+03   0.462E+02 -.604E+02 0.354E+03   -.438E+01 0.593E+01 -.394E+00
   -.419E+02 -.546E+02 -.353E+03   0.462E+02 0.604E+02 0.354E+03   -.438E+01 -.593E+01 -.394E+00
   0.561E+01 0.657E-02 0.335E+04   -.850E+00 -.677E-02 -.334E+04   -.101E+01 -.356E-04 -.314E+01
   0.480E+01 -.973E-01 0.275E+04   -.629E+01 0.983E-01 -.275E+04   -.122E+00 -.876E-03 -.826E-01
   0.558E+01 0.156E+00 0.335E+04   -.855E+00 -.162E+00 -.334E+04   -.101E+01 0.155E-02 -.314E+01
   0.359E+01 0.109E+00 0.275E+04   -.511E+01 -.117E+00 -.275E+04   -.115E+00 0.152E-02 -.866E-01
   -.445E+00 0.219E+00 0.126E+04   0.285E+00 -.216E+00 -.126E+04   0.162E+00 -.145E-02 -.326E-02
   0.905E+00 -.148E+01 0.797E+03   -.858E+00 0.146E+01 -.796E+03   -.311E-01 0.207E-01 -.127E+00
   0.104E+01 -.201E+00 0.126E+04   -.120E+01 0.194E+00 -.126E+04   0.158E+00 0.927E-02 -.187E-01
   -.432E+01 0.172E+00 0.790E+03   0.436E+01 -.175E+00 -.790E+03   -.993E-02 0.209E-02 -.132E+00
   -.588E+01 -.234E+01 -.775E+03   0.560E+01 0.233E+01 0.775E+03   0.291E+00 0.946E-02 0.112E+00
   -.882E+01 -.449E+01 -.116E+04   0.894E+01 0.449E+01 0.116E+04   -.676E-01 0.876E-03 -.212E+00
   0.562E+00 -.198E+01 -.751E+03   -.808E+00 0.198E+01 0.751E+03   0.259E+00 0.657E-02 0.861E-01
   0.386E+00 -.106E+01 -.118E+04   -.260E+00 0.107E+01 0.118E+04   -.768E-01 -.148E-01 -.267E+00
   0.277E+02 -.108E+02 -.277E+04   -.288E+02 0.108E+02 0.277E+04   0.959E+00 0.875E-02 -.145E+00
   -.847E+02 -.207E+02 -.315E+04   0.851E+02 0.206E+02 0.315E+04   -.289E-04 0.136E+00 0.660E+00
   -.101E+02 -.391E+02 -.269E+04   0.915E+01 0.391E+02 0.269E+04   0.885E+00 -.299E-01 0.840E-02
   -.597E+02 -.335E+02 -.314E+04   0.600E+02 0.334E+02 0.314E+04   0.416E-01 0.434E-01 0.674E+00
   0.561E+01 -.656E-02 0.335E+04   -.850E+00 0.678E-02 -.334E+04   -.101E+01 0.318E-04 -.314E+01
   0.481E+01 0.186E-04 0.275E+04   -.632E+01 0.477E-05 -.275E+04   -.117E+00 0.181E-06 -.880E-01
   0.548E+01 -.191E-04 0.335E+04   -.729E+00 0.293E-05 -.334E+04   -.101E+01 -.277E-05 -.314E+01
   0.359E+01 -.109E+00 0.275E+04   -.511E+01 0.117E+00 -.275E+04   -.115E+00 -.152E-02 -.866E-01
   -.445E+00 -.219E+00 0.126E+04   0.285E+00 0.217E+00 -.126E+04   0.162E+00 0.145E-02 -.325E-02
   -.998E+00 -.913E-05 0.794E+03   0.101E+01 0.176E-04 -.794E+03   0.214E-02 -.936E-06 -.133E+00
   0.109E+01 -.198E-06 0.126E+04   -.124E+01 0.926E-05 -.126E+04   0.152E+00 -.607E-06 -.174E-01
   -.432E+01 -.172E+00 0.790E+03   0.436E+01 0.175E+00 -.790E+03   -.994E-02 -.209E-02 -.132E+00
   -.588E+01 0.234E+01 -.775E+03   0.560E+01 -.233E+01 0.775E+03   0.291E+00 -.946E-02 0.112E+00
   -.801E+01 -.408E-04 -.118E+04   0.811E+01 0.459E-04 0.118E+04   -.462E-01 -.111E-05 -.226E+00
   -.346E+01 -.218E-04 -.766E+03   0.316E+01 0.304E-04 0.766E+03   0.296E+00 0.235E-05 0.148E+00
   0.386E+00 0.106E+01 -.118E+04   -.260E+00 -.107E+01 0.118E+04   -.768E-01 0.148E-01 -.267E+00
   0.277E+02 0.108E+02 -.277E+04   -.288E+02 -.108E+02 0.277E+04   0.959E+00 -.875E-02 -.145E+00
   -.739E+02 -.215E-03 -.316E+04   0.743E+02 0.181E-03 0.316E+04   -.330E-01 0.486E-05 0.667E+00
   0.116E+02 -.228E-03 -.276E+04   -.126E+02 0.192E-03 0.276E+04   0.904E+00 0.582E-05 -.991E-01
   -.597E+02 0.335E+02 -.314E+04   0.600E+02 -.334E+02 0.314E+04   0.416E-01 -.434E-01 0.674E+00
   0.561E+01 -.157E-04 0.335E+04   -.841E+00 -.407E-05 -.334E+04   -.101E+01 0.124E-04 -.314E+01
   0.480E+01 0.973E-01 0.275E+04   -.629E+01 -.983E-01 -.275E+04   -.122E+00 0.878E-03 -.826E-01
   0.558E+01 -.156E+00 0.335E+04   -.855E+00 0.162E+00 -.334E+04   -.101E+01 -.155E-02 -.314E+01
   0.271E+01 -.122E-04 0.275E+04   -.419E+01 -.274E-05 -.275E+04   -.132E+00 0.172E-06 -.860E-01
   0.189E+01 -.515E-05 0.126E+04   -.204E+01 -.907E-06 -.126E+04   0.139E+00 0.374E-06 0.256E-01
   0.905E+00 0.148E+01 0.797E+03   -.858E+00 -.146E+01 -.796E+03   -.311E-01 -.207E-01 -.127E+00
   0.104E+01 0.201E+00 0.126E+04   -.120E+01 -.194E+00 -.126E+04   0.158E+00 -.927E-02 -.187E-01
   -.768E+01 0.304E-04 0.772E+03   0.773E+01 -.292E-04 -.772E+03   -.204E-01 0.346E-06 -.532E-01
   -.188E+01 0.740E-04 -.777E+03   0.164E+01 -.790E-04 0.776E+03   0.207E+00 -.411E-06 0.121E+00
   -.882E+01 0.449E+01 -.116E+04   0.894E+01 -.449E+01 0.116E+04   -.676E-01 -.874E-03 -.212E+00
   0.562E+00 0.198E+01 -.751E+03   -.808E+00 -.198E+01 0.751E+03   0.259E+00 -.657E-02 0.861E-01
   -.799E-01 0.986E-04 -.122E+04   0.196E+00 -.100E-03 0.122E+04   -.738E-01 -.203E-05 -.189E+00
   0.471E+02 0.351E-03 -.277E+04   -.479E+02 -.334E-03 0.277E+04   0.670E+00 -.739E-06 -.349E-01
   -.847E+02 0.207E+02 -.315E+04   0.851E+02 -.206E+02 0.315E+04   -.355E-04 -.136E+00 0.660E+00
   -.101E+02 0.391E+02 -.269E+04   0.915E+01 -.391E+02 0.269E+04   0.885E+00 0.299E-01 0.840E-02
   0.142E+02 0.279E-02 -.310E+04   -.136E+02 -.267E-02 0.310E+04   -.453E+00 -.530E-04 -.349E+00
   -.327E+02 -.152E-01 0.226E+04   0.374E+02 0.149E-01 -.228E+04   -.645E+01 0.458E-03 0.168E+02
   -.329E+02 -.118E-01 0.226E+04   0.377E+02 0.986E-02 -.228E+04   -.645E+01 0.257E-02 0.168E+02
   0.815E+02 0.138E+00 0.137E+04   -.862E+02 -.136E+00 -.137E+04   0.358E+01 -.576E-02 -.430E+01
   0.748E+02 0.126E-01 0.167E+04   -.816E+02 -.116E-01 -.167E+04   0.704E+01 -.176E-02 -.248E+01
   -.862E+02 -.288E-01 0.193E+04   0.933E+02 0.267E-01 -.193E+04   -.668E+01 0.386E-02 -.163E+00
   -.696E+02 -.745E+00 0.105E+04   0.751E+02 0.796E+00 -.105E+04   -.545E+01 -.468E-01 0.413E+01
   0.821E+02 0.101E+00 0.137E+04   -.868E+02 -.818E-01 -.137E+04   0.356E+01 -.204E-01 -.418E+01
   0.740E+02 0.127E+00 0.167E+04   -.808E+02 -.136E+00 -.167E+04   0.706E+01 0.222E-01 -.250E+01
[...]
   0.872E+02 0.887E-04 -.107E+04   -.939E+02 -.860E-04 0.108E+04   0.661E+01 -.651E-05 -.739E+01
   0.710E+02 0.946E-04 -.707E+03   -.769E+02 -.897E-04 0.710E+03   0.574E+01 -.126E-04 -.285E+01
   -.822E+02 0.445E+00 -.457E+03   0.885E+02 -.433E+00 0.454E+03   -.613E+01 -.954E-02 0.263E+01
   -.664E+02 0.974E+01 -.127E+04   0.685E+02 -.101E+02 0.126E+04   -.199E+01 0.327E+00 0.947E+01
   0.807E+02 0.867E+01 -.104E+04   -.869E+02 -.893E+01 0.104E+04   0.608E+01 0.258E+00 -.566E+01
   0.805E+02 0.665E+00 -.721E+03   -.869E+02 -.676E+00 0.724E+03   0.622E+01 0.107E-01 -.303E+01
   -.734E+02 0.685E-04 -.461E+03   0.793E+02 -.589E-04 0.459E+03   -.578E+01 -.638E-05 0.226E+01
   -.617E+02 0.168E-03 -.130E+04   0.673E+02 -.166E-03 0.130E+04   -.544E+01 0.490E-05 0.580E+01
   0.107E+03 0.695E-03 -.225E+04   -.112E+03 -.652E-03 0.227E+04   0.550E+01 -.477E-04 -.200E+02
   0.476E+02 0.251E-03 -.199E+04   -.513E+02 -.245E-03 0.200E+04   0.361E+01 -.888E-05 -.706E+01
   -.514E+02 0.638E+01 -.165E+04   0.563E+02 -.621E+01 0.165E+04   -.482E+01 -.168E+00 0.269E+01
   0.115E+02 0.299E+02 -.225E+04   -.167E+02 -.297E+02 0.227E+04   0.516E+01 -.167E+00 -.193E+02
   0.787E+02 0.458E+02 -.193E+04   -.838E+02 -.454E+02 0.194E+04   0.495E+01 -.380E+00 -.619E+01
   -.709E+02 0.776E-03 -.156E+04   0.753E+02 -.763E-03 0.155E+04   -.435E+01 -.288E-04 0.410E+01
   -.159E+02 0.264E-02 0.540E+02   0.171E-12 0.952E-12 -.614E-11   0.159E+02 -.273E-02 -.539E+02

 POSITION                                       TOTAL-FORCE (eV/Angst)
      6.29789      5.69630     21.73694         0.171037     -0.004391      0.298437
      5.64139      5.69625     22.52189         0.087321      0.000258     -0.039671
      6.90655      4.87344     21.81610        -0.090042      0.133799      0.072613
      6.90652      6.51902     21.81609        -0.087301     -0.129731      0.073200
      8.35439      9.49375      8.23452         3.757457     -0.000240      1.329050
      6.12443      7.59500      9.11725        -1.613997      0.000120     -1.980071
      3.19561      7.59500      8.23452         3.730593     -0.004417      1.315523
      0.96564      9.49375      9.11725        -1.642413     -0.006364     -1.985793
      9.76117      9.49393     11.80382         0.003029      0.001256     -0.003362
      7.50887      7.59042     12.60617         0.000662     -0.000882     -0.000048
      4.59743      7.59226     11.80057         0.004219      0.000162     -0.002603
      2.34235      9.49327     12.61446         0.002879     -0.000445      0.000197
      0.89309      9.49495     15.37121         0.005144     -0.002880      0.005789
      8.93464      7.58854     16.07866         0.003740     -0.002555     -0.000417
      6.04004      7.59179     15.35138         0.008085      0.001025      0.005071
      3.76468      9.49394     16.10244         0.003867     -0.000851      0.001352
      2.39242      9.48667     19.00805        -0.046039      0.001648      0.011343
      0.01980      7.58351     19.55485         0.153709      0.007927      0.264270
      7.53701      7.59477     18.93722        -0.019360      0.014182     -0.002475
      5.19832      9.50902     19.55032         0.163381      0.002191      0.247355
      8.35439      1.89875      8.23452         3.757427      0.000253      1.329057
      6.12443      0.00000      9.11725        -1.630092      0.000024     -1.982532
      3.19561      0.00000      8.23452         3.749992     -0.000018      1.323695
      0.96564      1.89875      9.11725        -1.642408      0.006373     -1.985791
      9.76117      1.89857     11.80382         0.003007     -0.001250     -0.003361
      7.50545     11.39250     12.60777        -0.003070      0.000008     -0.000511
      4.59948     11.39250     11.80355         0.006168      0.000009     -0.002268
      2.34235      1.89924     12.61446         0.002879      0.000443      0.000229
      0.89309      1.89755     15.37121         0.005134      0.002880      0.005777
      8.92331      0.00000     16.09066         0.006236      0.000005      0.006515
      6.04651      0.00000     15.36077         0.002710      0.000012      0.007872
      3.76468      1.89856     16.10244         0.003865      0.000845      0.001344
      2.39242      1.90583     19.00805        -0.046015     -0.001669      0.011333
      0.04104     11.39250     19.55555         0.166944     -0.000028      0.259459
      7.56701      0.00000     18.99159        -0.038485     -0.000030      0.005378
      5.19832      1.88348     19.55032         0.163252     -0.002239      0.247289
      8.35439      5.69625      8.23452         3.770810     -0.000007      1.325569
      6.12443      3.79750      9.11725        -1.613963     -0.000136     -1.980094
      3.19561      3.79750      8.23452         3.730624      0.004427      1.315583
      0.96564      5.69625      9.11725        -1.612657     -0.000014     -1.910918
      9.77654      5.69625     11.79899        -0.003202     -0.000005      0.001924
      7.50887      3.80208     12.60617         0.000654      0.000872     -0.000044
      4.59743      3.80024     11.80057         0.004215     -0.000183     -0.002603
      2.34553      5.69625     12.64499         0.006804      0.000002      0.000548
      0.92354      5.69625     15.37752        -0.004578     -0.000005      0.011479
      8.93464      3.80397     16.07866         0.003757      0.002557     -0.000436
      6.04004      3.80072     15.35138         0.008095     -0.001041      0.005061
      3.78203      5.69625     16.19260         0.006152     -0.000003     -0.009454
      2.43097      5.69625     19.02822        -0.069129      0.000017      0.014861
      0.01980      3.80899     19.55485         0.153763     -0.007886      0.264268
      7.53701      3.79773     18.93723        -0.019356     -0.014171     -0.002564
      5.23361      5.69625     19.71813         0.049688      0.000065      0.090412
      5.05116      7.59500      7.50000        -1.696351      0.000223      0.616464
     10.20995      9.49375      7.50000        -1.692812      0.000625      0.612946
      9.42766      9.49375      9.85177        -1.111709     -0.002954     -0.118324
      6.49884      9.49375      8.96904         0.215214     -0.000805     -0.005801
      7.97998      7.59500      8.38273         0.399907      0.001811     -1.169343
      6.44888      7.59500     11.03092         0.049378      0.004347      0.318122
      4.26887      7.59500      9.85177        -1.117353     -0.001519     -0.107495
      1.34005      7.59500      8.96904         0.225201      0.012982     -0.013826
[...]
      2.73448      5.69625     14.57668         0.146780     -0.000004     -0.080169
      1.99471      5.69625     16.97163        -0.149665     -0.000003      0.132234
      9.33890      5.69625     16.01148        -0.137750     -0.000007      0.058490
      0.52689      3.79888     15.45527         0.142596      0.002251     -0.062279
      9.42040      3.79254     18.02448         0.093866     -0.001659     -0.121313
      7.16932      3.78621     16.92808        -0.144511     -0.006498      0.104442
      4.18341      3.79842     16.04577        -0.142693     -0.000435      0.064477
      5.67964      5.69625     15.47763         0.135197      0.000004     -0.056168
      4.24867      5.69625     18.11098         0.141256      0.000008     -0.059078
      3.56765      5.69625     20.49840        -0.123529     -0.000004      0.516146
      0.54167      5.69625     19.78266        -0.094756     -0.000002      0.208105
      2.01185      3.80080     19.03413         0.121025      0.004804     -0.050490
      8.71008      3.82921     20.41337        -0.093717     -0.008586      0.505991
      5.71526      3.76887     19.74754        -0.125231     -0.010817      0.154664
      7.15052      5.69625     18.95207         0.109855     -0.000015     -0.095055
    total drift:                               -0.011002     -0.000091      0.093928

  FREE ENERGIE OF THE ION-ELECTRON SYSTEM (eV)
  free  energy   TOTEN  =      -959.16569444 eV

  energy  without entropy=     -959.16569444  energy(sigma->0) =     -959.16569444