 vasp.6.3.0 20Jan22 (build Aug 21 2024 11:13:42) complex
 executed on        HPECrayEX_GCC date 2024.11.27  00:08:42

 INCAR:
   SYSTEM = TiO2
   ISMEAR = 0
   SIGMA = 0.05
   EDIFF = 1E-4
   ALGO = ALL
   ISTART = 0
   IBRION = -1
   NSW = 0
   ISYM = 0
   ISIF = 2
   EDIFFG = -0.01
   DIPOL = 0.5 0.5 0.5
   IDIPOL = 3
   LDIPOL = .TRUE.
   GGA = RE
   AGGAC = 0.0
   LUSE_VDW = .TRUE.
   LASPH = .TRUE.
   ENCUT = 600
   PREC = Accurate
   LASPH = .TRUE.
   LREAL = .FALSE.
   ISPIN = 1
   NELM = 200
   NELMIN = 8
   NCORE = 16
   KPAR = 1
   LWAVE = .FALSE.
   LCHARG = .FALSE.

 POTCAR:    PAW_PBE N 08Apr2002
 POTCAR:    PAW_PBE H 15Jun2001
 POTCAR:    PAW_PBE Ti_pv 07Sep2000
 POTCAR:    PAW_PBE O 08Apr2002
|               ----> ADVICE to this user running VASP <----                  |
|     You have switched on vdW-DFT.                                           |
|     This routine was written and supplied by Jiri Klimes. We recommend      |
|     that you carefully read and cite the following publications:            |
|       J. Klimes, D.R. Bowler, A. Michelides                                 |
|          J. Phys.: Cond Matt. 22 022201 (2010)                              |
|       J. Klimes, D.R. Bowler, A. Michelides                                 |
|          Phys. Rev. B. 83, 195131 (2011)                                    |
|     and references therein.                                                 |

   TITEL  = PAW_PBE N 08Apr2002
   POMASS =   14.001; ZVAL   =    5.000    mass and valenz
   ENMAX  =  400.000; ENMIN  =  300.000 eV

   TITEL  = PAW_PBE H 15Jun2001
   POMASS =    1.000; ZVAL   =    1.000    mass and valenz
   ENMAX  =  250.000; ENMIN  =  200.000 eV

   TITEL  = PAW_PBE Ti_pv 07Sep2000
   POMASS =   47.880; ZVAL   =   10.000    mass and valenz
   ENMAX  =  222.335; ENMIN  =  166.751 eV

   TITEL  = PAW_PBE O 08Apr2002
   POMASS =   16.000; ZVAL   =    6.000    mass and valenz
   ENMAX  =  400.000; ENMIN  =  300.000 eV

  PAW_PBE N 08Apr2002                   :
  PAW_PBE H 15Jun2001                   :
  PAW_PBE Ti_pv 07Sep2000               :
  PAW_PBE O 08Apr2002                   :

 POSCAR:  N  H Ti  O
  positions in direct lattice
 exchange correlation table for  LEXCH =       40
   RHO(1)=    0.500       N(1)  =     2000
   RHO(2)=  100.500       N(2)  =     4000

 ion  position               nearest neighbor table
   1  0.611  0.500  0.778-   2 1.02   4 1.03   3 1.03  52 2.28
   2  0.548  0.500  0.806-   1 1.02
   3  0.670  0.428  0.781-   1 1.03
   4  0.670  0.572  0.781-   1 1.03
   5  0.809  0.833  0.295-  89 1.94  55 1.94  57 1.94  56 2.00  54 2.00  22 3.06   6 3.06   8 3.06

   6  0.593  0.667  0.326-  53 1.94 120 1.94  58 1.94  56 1.94  57 2.00  59 2.00  37 3.06   5 3.06
                             7 3.06  11 3.09
   7  0.309  0.667  0.295- 125 1.94  59 1.94  61 1.94  60 2.00  53 2.00  40 3.06   8 3.06   6 3.06

   8  0.093  0.833  0.326-  92 1.94  54 1.94  62 1.94  60 1.94  61 2.00  55 2.00  23 3.06   7 3.06
                             5 3.06   9 3.09
   9  0.946  0.833  0.422-  63 1.93  97 1.94  65 1.94  55 1.98  64 1.99  62 2.00  12 3.01  26 3.06
                            10 3.06   8 3.09
  10  0.728  0.666  0.451-  58 1.90 128 1.94  64 1.95  66 1.96  67 1.99  65 2.00  11 3.02   9 3.06
                            41 3.06  15 3.11
  11  0.445  0.666  0.422-  67 1.93 133 1.94  69 1.94  59 1.98  68 1.99  58 2.00  10 3.02  12 3.06
                            44 3.06   6 3.09
  12  0.227  0.833  0.451-  62 1.90 100 1.94  68 1.94  70 1.97  63 1.98  69 2.00   9 3.01  27 3.06
                            11 3.06  13 3.11
  13  0.087  0.833  0.550-  71 1.93 105 1.93  73 1.94  72 1.98  63 2.01  70 2.01  16 2.96  14 3.05
                            30 3.06  12 3.11
  14  0.866  0.666  0.575-  66 1.87 136 1.94  72 1.95  75 1.96  74 2.01  73 2.01  15 2.98  13 3.05
                            45 3.06
  15  0.586  0.666  0.549- 141 1.93  77 1.94  75 1.94  76 1.98  67 1.98  66 2.01  14 2.98  16 3.06
                            48 3.07  10 3.11
  16  0.365  0.833  0.576-  70 1.87 108 1.94  76 1.95  71 1.96  78 2.00  77 2.02  13 2.96  15 3.06
                            31 3.06
  17  0.232  0.833  0.680-  79 1.87  81 1.93 113 1.94  80 2.00  78 2.09  71 2.09  20 2.86  34 3.08
                            18 3.09
  18  0.002  0.666  0.700-  74 1.78  82 1.84 144 1.97  80 1.99  81 2.06  19 2.87  17 3.09  49 3.11

[...]

  21  0.809  0.167  0.295-  89 1.94  87 1.94 121 1.94  88 2.00  86 2.00  22 3.06  38 3.06  24 3.06

[...]

  37  0.809  0.500  0.295-  57 1.94 121 1.94 119 1.94 120 2.00 118 2.00  38 3.06   6 3.06  40 3.06

  38  0.593  0.333  0.326- 117 1.94 120 1.94 122 1.94  88 1.94 121 2.00 123 2.00  37 3.06  21 3.06
                            39 3.06  43 3.09
  39  0.309  0.333  0.295- 125 1.94 123 1.94  93 1.94 124 2.00 117 2.00  40 3.06  24 3.06  38 3.06

  40  0.093  0.500  0.326-  60 1.94 124 1.94 118 1.94 126 1.94 125 2.00 119 2.00   7 3.06  39 3.06
                            37 3.06  41 3.08
  41  0.947  0.500  0.422- 127 1.93 129 1.94  65 1.94 119 1.98 126 1.99 128 2.00  44 3.01  10 3.06
                            42 3.06  40 3.08
  42  0.728  0.334  0.451- 122 1.90 128 1.94  96 1.95 130 1.96 131 1.99 129 2.00  43 3.02  25 3.06
                            41 3.06  47 3.11
  43  0.445  0.334  0.422- 131 1.93 133 1.94 101 1.94 123 1.98 132 1.99 122 2.00  42 3.02  28 3.06
                            44 3.06  38 3.09
  44  0.227  0.500  0.452- 126 1.93 132 1.94  68 1.94 127 1.97 134 1.97 133 2.01  41 3.01  43 3.06
                            11 3.06  45 3.08
  45  0.090  0.500  0.550- 135 1.92 137 1.94  73 1.94 134 1.98 136 2.00 127 2.01  48 2.97  14 3.06
                            46 3.06  44 3.08
  46  0.866  0.334  0.575- 130 1.87 136 1.94 104 1.95 139 1.96 138 2.01 137 2.01  47 2.98  29 3.05
                            45 3.06
  47  0.586  0.334  0.549- 141 1.93 109 1.94 139 1.94 140 1.98 131 1.98 130 2.01  46 2.98  32 3.06
                            48 3.07  42 3.11
  48  0.367  0.500  0.579- 134 1.93 140 1.95  76 1.95 135 1.95 142 1.97 141 2.03  45 2.97  47 3.07
                            15 3.07  49 3.14
  49  0.236  0.500  0.681- 143 1.86 145 1.94  81 1.94 144 2.03 142 2.04 135 2.10  52 2.89  18 3.11
                            50 3.11  48 3.14
  50  0.002  0.334  0.700- 138 1.78 146 1.84 144 1.97 112 1.99 145 2.06  51 2.87  33 3.09  49 3.11

  51  0.731  0.333  0.678- 146 1.89 148 1.94 116 1.94 147 1.99 139 2.04 138 2.09  50 2.87  36 3.08
                            52 3.08
  52  0.508  0.500  0.706- 143 1.84 142 1.89 147 1.99  83 1.99 148 2.06   1 2.28  49 2.89  51 3.08
                            19 3.08
  53  0.489  0.667  0.268-   6 1.94   7 2.00
  54  0.989  0.833  0.268-   8 1.94   5 2.00
  55  0.913  0.833  0.353-   5 1.94   9 1.98   8 2.00
  56  0.630  0.833  0.321-  22 1.94   6 1.94   5 2.00
  57  0.773  0.667  0.300-  37 1.94   5 1.94   6 2.00
  58  0.625  0.667  0.395-  10 1.90   6 1.94  11 2.00
  59  0.413  0.667  0.353-   7 1.94  11 1.98   6 2.00
  60  0.130  0.667  0.321-  40 1.94   8 1.94   7 2.00
  61  0.273  0.833  0.300-  23 1.94   7 1.94   8 2.00
  62  0.125  0.833  0.395-  12 1.90   8 1.94   9 2.00
  63  0.051  0.834  0.480-   9 1.93  12 1.98  13 2.01
  64  0.766  0.833  0.447-  26 1.94  10 1.95   9 1.99
  65  0.910  0.667  0.427-   9 1.94  41 1.94  10 2.00
  66  0.764  0.666  0.520-  14 1.87  10 1.96  15 2.01
  67  0.550  0.666  0.480-  11 1.93  15 1.98  10 1.99
  68  0.265  0.667  0.448-  44 1.94  12 1.94  11 1.99
  69  0.409  0.833  0.427-  27 1.94  11 1.94  12 2.00
  70  0.264  0.833  0.521-  16 1.87  12 1.97  13 2.01
  71  0.194  0.833  0.607-  13 1.93  16 1.96  17 2.09
  72  0.905  0.833  0.573-  30 1.94  14 1.95  13 1.98
  73  0.051  0.667  0.553-  13 1.94  45 1.94  14 2.01
  74  0.913  0.667  0.645-  18 1.78  14 2.01  19 2.09
  75  0.695  0.668  0.606-  15 1.94  14 1.96  19 2.04
  76  0.406  0.667  0.574-  48 1.95  16 1.95  15 1.98
  77  0.550  0.833  0.553-  31 1.94  15 1.94  16 2.02
  78  0.412  0.836  0.646-  20 1.78  16 2.00  17 2.09
  79  0.349  0.833  0.731-  20 1.83  17 1.87
  80  0.053  0.833  0.708-  34 1.98  18 1.99  17 2.00
  81  0.195  0.666  0.681-  17 1.93  49 1.94  18 2.06
  82  0.845  0.664  0.730-  18 1.84  19 1.89
  83  0.554  0.669  0.707-  20 1.96  52 1.99  19 1.99
  84  0.696  0.834  0.679-  35 1.93  19 1.94  20 2.06
  85  0.489  0.000  0.268-  22 1.94  23 2.00
  86  0.989  0.167  0.268-  24 1.94  21 2.00
  87  0.913  0.167  0.353-  21 1.94  25 1.98  24 2.00
  88  0.630  0.167  0.321-  22 1.94  38 1.94  21 2.00
  89  0.773  0.000  0.300-   5 1.94  21 1.94  22 2.00
  90  0.625  0.000  0.395-  26 1.90  22 1.94  27 2.00
  91  0.413  0.000  0.353-  23 1.94  27 1.98  22 2.00
  92  0.130  0.000  0.321-   8 1.94  24 1.94  23 2.00
  93  0.273  0.167  0.300-  23 1.94  39 1.94  24 2.00
  94  0.125  0.167  0.395-  28 1.90  24 1.94  25 2.00
  95  0.051  0.166  0.480-  25 1.93  28 1.98  29 2.01
  96  0.766  0.167  0.447-  26 1.94  42 1.95  25 1.99
  97  0.910  1.000  0.426-   9 1.94  25 1.94  26 2.00
  98  0.764  1.000  0.520-  30 1.87  26 1.97  31 2.01
  99  0.551  1.000  0.479-  27 1.93  26 1.99  31 2.00
 100  0.266  1.000  0.448-  12 1.94  28 1.94  27 1.99
 101  0.409  0.167  0.427-  27 1.94  43 1.94  28 2.00
 102  0.264  0.167  0.521-  32 1.87  28 1.97  29 2.01
 103  0.194  0.167  0.607-  29 1.93  32 1.96  33 2.09
 104  0.905  0.167  0.573-  30 1.94  46 1.95  29 1.98
 105  0.051  1.000  0.553-  13 1.93  29 1.93  30 2.02
 106  0.913  0.000  0.645-  34 1.79  30 2.01  35 2.08
 107  0.695  1.000  0.606-  31 1.93  30 1.95  35 2.10
 108  0.405  1.000  0.573-  32 1.94  16 1.94  31 1.98
 109  0.550  0.167  0.553-  31 1.94  47 1.94  32 2.02
 110  0.412  0.164  0.646-  36 1.78  32 2.00  33 2.09
 111  0.349  0.167  0.731-  36 1.83  33 1.87
 112  0.053  0.167  0.708-  34 1.98  50 1.99  33 2.00
[...]
 134  0.265  0.500  0.522-  48 1.93  44 1.97  45 1.98
 135  0.194  0.500  0.607-  45 1.92  48 1.95  49 2.10
 136  0.905  0.500  0.573-  14 1.94  46 1.94  45 2.00
 137  0.051  0.333  0.553-  29 1.94  45 1.94  46 2.01
 138  0.913  0.333  0.645-  50 1.78  46 2.01  51 2.09
 139  0.695  0.332  0.606-  47 1.94  46 1.96  51 2.04
 140  0.406  0.333  0.574-  48 1.95  32 1.95  47 1.98
 141  0.551  0.500  0.554-  47 1.93  15 1.93  48 2.03
 142  0.412  0.500  0.648-  52 1.89  48 1.97  49 2.04
 143  0.346  0.500  0.734-  52 1.84  49 1.86
 144  0.053  0.500  0.708-  18 1.97  50 1.97  49 2.03
 145  0.195  0.334  0.681-  33 1.93  49 1.94  50 2.06
 146  0.845  0.336  0.730-  50 1.84  51 1.89
 147  0.554  0.331  0.707-  36 1.96  52 1.99  51 1.99
 148  0.694  0.500  0.678-  19 1.94  51 1.94  52 2.06

IMPORTANT INFORMATION: All symmetrisations will be switched off!
NOSYMM: (Re-)initialisation of all symmetry stuff for point group C_1.

                                     Primitive cell

  volume of cell :    3283.9948

  direct lattice vectors                    reciprocal lattice vectors
    10.314592520  0.000000000  0.000000000     0.096950025 -0.000000000  0.000000000
     0.000000000 11.393151181  0.000000000     0.000000000  0.087772029  0.000000000
[...]
   5.04709880  7.59543412  7.50000000
  10.20439506  9.49429265  7.50000000
   9.42150471  9.49429265  9.85236081
   6.49328739  9.49429265  8.96962795
   7.97531611  7.59543412  8.38273287
   6.44537554  7.59543412 11.03093146
   4.26420845  7.59543412  9.85236081
   1.33599113  7.59543412  8.96962795
[...]
   2.73496373  5.69657546 14.57626864
   1.99616409  5.69657537 16.97197873
   9.33773176  5.69657539 16.01159684
   0.52899962  3.79901057 15.45474077
   9.42183484  3.79258575 18.02386900
   7.16962517  3.78564814 16.92841112
   4.18355424  3.79870782 16.04588994
   5.68058619  5.69657539 15.47798118
   4.25139321  5.69657579 18.11114408
   3.57131237  5.69657692 20.49890220
   0.54618947  5.69657582 19.78137287
   2.01628627  3.80085601 19.03415371
   8.71216773  3.82971468 20.41336757
   5.71829602  3.76941795 19.74753542
   7.15328923  5.69657602 18.95113814

--------------------------------------- Iteration      FINAL  ---------------------------------------

--------------------OUTCAR has been truncated-------------------------

[...]

--------------------OUTCAR has been truncated-------------------------

  FORCE on cell =-STRESS in cart. coord.  units (eV):
  Direction    XX          YY          ZZ          XY          YZ          ZX
  Alpha Z  2425.63557  2425.63557  2425.63557
  Ewald  483937.19355477172.20746************     0.00814    -0.00111 -1889.98594
  Hartree505127.60153501026.89558************     0.00168    -0.00053 -1255.34195
  E(xc)   -5310.47665 -5315.48557 -5318.15700     0.00004    -0.00002    -1.13343
  Local  ************************997953.75650    -0.00741     0.00149  3143.77050
  n-local -3282.88094 -3254.44998 -3295.34993    -0.00030     0.00007     1.45777
  augment  3180.98213  3178.45039  3171.11305    -0.00004    -0.00004    -0.06534
  Kinetic 17198.07734 17257.75199 17313.07062    -0.00034     0.00043    -9.02395
  Fock        0.00000     0.00000     0.00000     0.00000     0.00000     0.00000
  Total      38.90916    60.85724    56.27495     0.00177     0.00029   -10.32234
  in kB      18.98279    29.69070    27.45511     0.00086     0.00014    -5.03601

 VOLUME and BASIS-vectors are now :
  energy-cutoff  :      600.00
  volume of cell :     3283.99
      direct lattice vectors                 reciprocal lattice vectors
    10.314592520  0.000000000  0.000000000     0.096950025 -0.000000000  0.000000000
     0.000000000 11.393151181  0.000000000     0.000000000  0.087772029  0.000000000
     0.000000000  0.000000000 27.945155206     0.000000000  0.000000000  0.035784378

  length of vectors
    10.314592520 11.393151181 27.945155206     0.096950025  0.087772029  0.035784378

 FORCES acting on ions:
    Electron-Ion                     Ewald-Force                    Non-Local-Force
   -.169E+02 0.340E-02 -.175E+04   0.740E+01 -.600E-02 0.173E+04   0.967E+01 -.882E-03 0.184E+02
   0.430E+02 0.266E-02 -.370E+03   -.478E+02 -.280E-02 0.375E+03   0.487E+01 0.353E-03 -.555E+01
   -.419E+02 0.546E+02 -.353E+03   0.462E+02 -.604E+02 0.354E+03   -.438E+01 0.593E+01 -.389E+00
   -.419E+02 -.546E+02 -.353E+03   0.462E+02 0.604E+02 0.354E+03   -.438E+01 -.593E+01 -.390E+00
   0.570E+01 -.657E-02 0.335E+04   -.939E+00 0.603E-02 -.334E+04   -.102E+01 0.753E-04 -.314E+01
   0.477E+01 -.133E+00 0.275E+04   -.626E+01 0.135E+00 -.276E+04   -.122E+00 -.958E-03 -.819E-01
   0.568E+01 0.137E+00 0.335E+04   -.952E+00 -.143E+00 -.334E+04   -.101E+01 0.161E-02 -.314E+01
   0.353E+01 0.985E-01 0.275E+04   -.506E+01 -.107E+00 -.276E+04   -.115E+00 0.166E-02 -.860E-01
   -.410E+00 0.231E+00 0.126E+04   0.250E+00 -.230E+00 -.126E+04   0.162E+00 -.152E-02 -.229E-02
   0.939E+00 -.161E+01 0.797E+03   -.897E+00 0.160E+01 -.797E+03   -.305E-01 0.208E-01 -.126E+00
   0.114E+01 -.324E+00 0.126E+04   -.129E+01 0.318E+00 -.126E+04   0.158E+00 0.970E-02 -.182E-01
   -.429E+01 0.188E+00 0.791E+03   0.433E+01 -.193E+00 -.790E+03   -.109E-01 0.236E-02 -.133E+00
   -.585E+01 -.234E+01 -.775E+03   0.556E+01 0.233E+01 0.775E+03   0.292E+00 0.870E-02 0.113E+00
   -.890E+01 -.453E+01 -.116E+04   0.902E+01 0.453E+01 0.116E+04   -.690E-01 -.796E-03 -.213E+00
   0.621E+00 -.193E+01 -.752E+03   -.868E+00 0.192E+01 0.751E+03   0.260E+00 0.743E-02 0.878E-01
   0.342E+00 -.104E+01 -.118E+04   -.218E+00 0.106E+01 0.118E+04   -.757E-01 -.153E-01 -.267E+00
   0.278E+02 -.110E+02 -.277E+04   -.288E+02 0.110E+02 0.277E+04   0.958E+00 0.823E-02 -.146E+00
   -.848E+02 -.206E+02 -.315E+04   0.851E+02 0.205E+02 0.315E+04   -.249E-03 0.134E+00 0.658E+00
   -.102E+02 -.392E+02 -.269E+04   0.930E+01 0.392E+02 0.269E+04   0.885E+00 -.303E-01 0.736E-02
   -.595E+02 -.334E+02 -.315E+04   0.598E+02 0.333E+02 0.315E+04   0.411E-01 0.418E-01 0.674E+00
   0.570E+01 0.662E-02 0.335E+04   -.939E+00 -.602E-02 -.334E+04   -.102E+01 -.441E-04 -.314E+01
   0.479E+01 0.397E-04 0.275E+04   -.630E+01 0.827E-05 -.276E+04   -.116E+00 0.227E-04 -.871E-01
   0.557E+01 -.153E-04 0.335E+04   -.819E+00 0.359E-05 -.334E+04   -.101E+01 -.130E-04 -.314E+01
   0.353E+01 -.985E-01 0.275E+04   -.506E+01 0.107E+00 -.276E+04   -.115E+00 -.165E-02 -.860E-01
   -.410E+00 -.231E+00 0.126E+04   0.250E+00 0.230E+00 -.126E+04   0.162E+00 0.151E-02 -.230E-02
   -.111E+01 -.379E-04 0.794E+03   0.113E+01 0.223E-04 -.794E+03   0.407E-03 0.101E-04 -.135E+00
   0.113E+01 -.568E-04 0.126E+04   -.128E+01 0.273E-04 -.126E+04   0.154E+00 0.795E-06 -.164E-01
   -.429E+01 -.188E+00 0.791E+03   0.433E+01 0.193E+00 -.790E+03   -.109E-01 -.234E-02 -.133E+00
   -.585E+01 0.234E+01 -.775E+03   0.556E+01 -.233E+01 0.775E+03   0.292E+00 -.869E-02 0.113E+00
   -.819E+01 0.476E-04 -.118E+04   0.829E+01 -.482E-04 0.118E+04   -.465E-01 -.419E-05 -.226E+00
   -.374E+01 0.198E-04 -.767E+03   0.345E+01 -.127E-04 0.767E+03   0.298E+00 0.654E-06 0.151E+00
   0.342E+00 0.104E+01 -.118E+04   -.218E+00 -.106E+01 0.118E+04   -.757E-01 0.153E-01 -.267E+00
   0.278E+02 0.110E+02 -.277E+04   -.288E+02 -.110E+02 0.277E+04   0.958E+00 -.821E-02 -.146E+00
   -.740E+02 -.249E-04 -.317E+04   0.744E+02 0.143E-03 0.317E+04   -.343E-01 0.106E-04 0.669E+00
   0.116E+02 -.190E-03 -.277E+04   -.126E+02 0.189E-03 0.277E+04   0.902E+00 -.848E-05 -.100E+00
   -.595E+02 0.334E+02 -.315E+04   0.598E+02 -.333E+02 0.315E+04   0.411E-01 -.418E-01 0.674E+00
   0.570E+01 -.279E-04 0.335E+04   -.924E+00 -.623E-05 -.334E+04   -.102E+01 -.388E-04 -.314E+01
   0.477E+01 0.134E+00 0.275E+04   -.626E+01 -.135E+00 -.276E+04   -.122E+00 0.978E-03 -.819E-01
   0.568E+01 -.137E+00 0.335E+04   -.952E+00 0.143E+00 -.334E+04   -.101E+01 -.160E-02 -.314E+01
   0.266E+01 -.409E-04 0.275E+04   -.414E+01 -.231E-05 -.276E+04   -.131E+00 0.539E-05 -.857E-01
   0.177E+01 -.850E-05 0.126E+04   -.192E+01 -.160E-04 -.126E+04   0.140E+00 0.128E-05 0.282E-01
   0.939E+00 0.161E+01 0.797E+03   -.897E+00 -.160E+01 -.797E+03   -.305E-01 -.208E-01 -.126E+00
   0.114E+01 0.324E+00 0.126E+04   -.129E+01 -.318E+00 -.126E+04   0.158E+00 -.971E-02 -.182E-01
   -.774E+01 0.177E-04 0.773E+03   0.780E+01 0.553E-05 -.773E+03   -.230E-01 -.159E-05 -.526E-01
   -.198E+01 0.164E-04 -.777E+03   0.175E+01 -.121E-04 0.777E+03   0.210E+00 -.126E-04 0.123E+00
   -.890E+01 0.453E+01 -.116E+04   0.902E+01 -.453E+01 0.116E+04   -.690E-01 0.793E-03 -.213E+00
   0.621E+00 0.193E+01 -.752E+03   -.868E+00 -.192E+01 0.751E+03   0.260E+00 -.742E-02 0.878E-01
   -.189E+00 0.390E-04 -.122E+04   0.309E+00 -.425E-04 0.123E+04   -.759E-01 -.939E-05 -.188E+00
   0.470E+02 0.441E-03 -.277E+04   -.478E+02 -.482E-03 0.277E+04   0.673E+00 -.652E-05 -.377E-01
   -.848E+02 0.206E+02 -.315E+04   0.852E+02 -.205E+02 0.315E+04   -.266E-03 -.134E+00 0.658E+00
   -.102E+02 0.392E+02 -.269E+04   0.929E+01 -.392E+02 0.269E+04   0.885E+00 0.303E-01 0.737E-02
   0.144E+02 0.262E-02 -.310E+04   -.138E+02 -.253E-02 0.310E+04   -.455E+00 -.425E-04 -.348E+00
   -.327E+02 -.229E-01 0.226E+04   0.374E+02 0.226E-01 -.228E+04   -.645E+01 0.596E-03 0.168E+02
   -.329E+02 -.163E-01 0.226E+04   0.377E+02 0.142E-01 -.228E+04   -.645E+01 0.266E-02 0.168E+02
   0.816E+02 0.122E+00 0.137E+04   -.863E+02 -.122E+00 -.137E+04   0.360E+01 -.247E-02 -.432E+01
   0.748E+02 0.401E-02 0.168E+04   -.817E+02 -.330E-02 -.167E+04   0.706E+01 -.125E-02 -.249E+01
   -.862E+02 -.404E-01 0.193E+04   0.933E+02 0.382E-01 -.193E+04   -.671E+01 0.438E-02 -.155E+00
   -.698E+02 -.818E+00 0.105E+04   0.753E+02 0.871E+00 -.106E+04   -.548E+01 -.488E-01 0.413E+01
   0.822E+02 0.458E-01 0.137E+04   -.869E+02 -.252E-01 -.137E+04   0.359E+01 -.217E-01 -.419E+01
   0.740E+02 0.117E+00 0.167E+04   -.808E+02 -.126E+00 -.167E+04   0.708E+01 0.225E-01 -.251E+01
[...]
   0.873E+02 0.361E-04 -.107E+04   -.941E+02 -.294E-04 0.108E+04   0.665E+01 -.453E-05 -.741E+01
   0.711E+02 0.987E-04 -.707E+03   -.770E+02 -.988E-04 0.710E+03   0.575E+01 -.867E-06 -.285E+01
   -.822E+02 0.485E+00 -.456E+03   0.885E+02 -.474E+00 0.454E+03   -.614E+01 -.751E-02 0.265E+01
   -.666E+02 0.980E+01 -.127E+04   0.687E+02 -.101E+02 0.126E+04   -.201E+01 0.330E+00 0.949E+01
   0.809E+02 0.883E+01 -.104E+04   -.872E+02 -.912E+01 0.104E+04   0.611E+01 0.282E+00 -.567E+01
   0.806E+02 0.605E+00 -.721E+03   -.870E+02 -.612E+00 0.724E+03   0.624E+01 0.812E-02 -.303E+01
   -.733E+02 -.844E-04 -.461E+03   0.793E+02 0.619E-04 0.459E+03   -.579E+01 -.460E-05 0.226E+01
   -.619E+02 0.738E-04 -.130E+04   0.675E+02 -.965E-04 0.130E+04   -.547E+01 0.151E-04 0.580E+01
   0.107E+03 0.541E-03 -.225E+04   -.112E+03 -.465E-03 0.227E+04   0.552E+01 -.878E-04 -.200E+02
   0.479E+02 0.342E-03 -.199E+04   -.516E+02 -.336E-03 0.200E+04   0.364E+01 -.422E-05 -.705E+01
   -.515E+02 0.637E+01 -.165E+04   0.564E+02 -.619E+01 0.165E+04   -.483E+01 -.177E+00 0.269E+01
   0.113E+02 0.299E+02 -.225E+04   -.165E+02 -.297E+02 0.227E+04   0.516E+01 -.168E+00 -.193E+02
   0.789E+02 0.458E+02 -.193E+04   -.840E+02 -.455E+02 0.194E+04   0.496E+01 -.371E+00 -.620E+01
   -.708E+02 0.837E-03 -.156E+04   0.753E+02 -.822E-03 0.155E+04   -.435E+01 -.219E-04 0.411E+01
   -.159E+02 0.235E-02 0.538E+02   0.000E+00 0.576E-12 0.364E-11   0.159E+02 -.233E-02 -.538E+02

 POSITION                                       TOTAL-FORCE (eV/Angst)
      6.30347      5.69662     21.73600         0.171826     -0.003485      0.298715
      5.64728      5.69657     22.52123         0.089310      0.000211     -0.037557
      6.91229      4.87372     21.81460        -0.092358      0.135952      0.074501
      6.91227      6.51940     21.81459        -0.090208     -0.132750      0.074966
      8.34884      9.49429      8.23481         3.760098     -0.000460      1.326955
      6.11976      7.59543      9.11755        -1.615301      0.000229     -1.988464
      3.19154      7.59543      8.23481         3.732794     -0.004543      1.313565
      0.96247      9.49429      9.11755        -1.644617     -0.006606     -1.994294
      9.75729      9.49461     11.80406         0.003281     -0.000014     -0.000918
      7.50600      7.59080     12.60622        -0.003527      0.001930     -0.003542
      4.59501      7.59241     11.80074         0.005001      0.001886      0.000513
      2.34102      9.49380     12.61455         0.000617     -0.002197     -0.003246
      0.89461      9.49559     15.37133         0.002491     -0.000991      0.007047
      8.93387      7.58897     16.07839         0.006809     -0.000149     -0.000291
      6.04001      7.59220     15.35161         0.008399     -0.000823      0.003592
      3.76570      9.49435     16.10206         0.001861      0.001374      0.003507
      2.39636      9.48717     19.00792        -0.047448      0.004518      0.016605
      0.02433      7.58423     19.55417         0.155924      0.005479      0.267417
      7.53916      7.59493     18.93717        -0.016502      0.016476     -0.001060
      5.20156      9.50926     19.55011         0.163352      0.007104      0.247292
      8.34884      1.89886      8.23481         3.760171      0.000547      1.327169
      6.11976      0.00000      9.11755        -1.632550      0.000071     -1.992208
      3.19154      0.00000      8.23481         3.752496     -0.000025      1.322005
      0.96247      1.89886      9.11755        -1.644562      0.006566     -1.994175
      9.75729      1.89854     11.80406         0.003256      0.000003     -0.000937
      7.50229     11.39315     12.60773         0.000179     -0.000006      0.002415
      4.59716     11.39315     11.80388         0.005248     -0.000029     -0.003315
      2.34102      1.89935     12.61455         0.000586      0.002205     -0.003216
      0.89461      1.89756     15.37133         0.002525      0.001014      0.007040
      8.92236     11.39315     16.09102         0.007905     -0.000005      0.003330
      6.04632     11.39315     15.36074         0.009261      0.000008      0.008889
      3.76570      1.89880     16.10206         0.001835     -0.001389      0.003532
      2.39636      1.90598     19.00792        -0.047412     -0.004489      0.016662
      0.04544      0.00000     19.55582         0.164918      0.000130      0.257311
      7.56866      0.00000     18.99198        -0.033560     -0.000010      0.009479
      5.20156      1.88389     19.55011         0.163309     -0.007145      0.247201
      8.34884      5.69658      8.23481         3.774148     -0.000073      1.324433
      6.11976      3.79772      9.11755        -1.615461     -0.000049     -1.988576
      3.19154      3.79772      8.23481         3.732778      0.004644      1.313333
      0.96247      5.69658      9.11755        -1.616129     -0.000038     -1.919078
      9.77237      5.69658     11.79937        -0.000519     -0.000023     -0.001291
      7.50600      3.80235     12.60622        -0.003488     -0.001866     -0.003515
      4.59501      3.80074     11.80074         0.005048     -0.001895      0.000566
      2.34355      5.69658     12.64511         0.008719      0.000021     -0.002539
      0.92493      5.69658     15.37763        -0.006017     -0.000008      0.012338
      8.93387      3.80418     16.07839         0.006808      0.000154     -0.000356
      6.04001      3.80095     15.35161         0.008378      0.000844      0.003619
      3.78263      5.69658     16.19291         0.007821     -0.000013     -0.012259
      2.43467      5.69658     19.02831        -0.067537     -0.000048      0.022688
      0.02433      3.80892     19.55418         0.155900     -0.005578      0.267306
      7.53915      3.79822     18.93717        -0.016659     -0.016493     -0.001017
      5.23680      5.69658     19.71844         0.049203      0.000049      0.093421
      5.04710      7.59543      7.50000        -1.698611      0.000271      0.617267
     10.20440      9.49429      7.50000        -1.695132      0.000593      0.613748
      9.42150      9.49429      9.85236        -1.106430     -0.002285     -0.121545
      6.49329      9.49429      8.96963         0.220284     -0.000547     -0.009883
      7.97532      7.59543      8.38273         0.393321      0.002198     -1.169896
      6.44538      7.59543     11.03093         0.051918      0.004674      0.319085
      4.26421      7.59543      9.85236        -1.112291     -0.001083     -0.110951
      1.33599      7.59543      8.96963         0.230507      0.013073     -0.018058
[...]
      2.73496      5.69658     14.57627         0.149876      0.000004     -0.074112
      1.99616      5.69658     16.97198        -0.147542      0.000002      0.132910
      9.33773      5.69658     16.01160        -0.139502     -0.000001      0.059891
      0.52900      3.79901     15.45474         0.142241      0.003412     -0.059548
      9.42183      3.79259     18.02387         0.092541     -0.001840     -0.120714
      7.16963      3.78565     16.92841        -0.146567     -0.004531      0.102359
      4.18355      3.79871     16.04589        -0.141821      0.000500      0.064840
      5.68059      5.69658     15.47798         0.132465     -0.000027     -0.052541
      4.25139      5.69658     18.11114         0.141619     -0.000008     -0.066864
      3.57131      5.69658     20.49890        -0.126017     -0.000012      0.518473
      0.54619      5.69658     19.78137        -0.099949      0.000001      0.213170
      2.01629      3.80086     19.03415         0.121639      0.004648     -0.050687
      8.71217      3.82971     20.41337        -0.094506     -0.007584      0.508108
      5.71830      3.76942     19.74754        -0.129321     -0.011198      0.157358
      7.15329      5.69658     18.95114         0.110087     -0.000007     -0.095125
    total drift:                               -0.005733      0.000019     -0.079344

  FREE ENERGIE OF THE ION-ELECTRON SYSTEM (eV)
  free  energy   TOTEN  =      -959.15599272 eV

  energy  without entropy=     -959.15599272  energy(sigma->0) =     -959.15599272