 vasp.6.3.0 20Jan22 (build Apr  1 2022 16:44:48) complex
 executed on        HPECrayEX_GCC date 2022.11.02  17:53:49

 INCAR:
   SYSTEM = MgO-rocksalt
   ISMEAR = 0
   SIGMA = 0.05
   EDIFF = 1E-9
   ALGO = ALL
   ISTART = 0
   IBRION = 2
   NSW = 1000
   ISYM = 0
   ISIF = 2
   EDIFFG = -0.01
   DIPOL = 0.5 0.5 0.5
   IDIPOL = 3
   LDIPOL = .TRUE.
   GGA = PE
   IVDW = 1
   VDW_C6 = 1.23 0.70 0.63 0.70
   VDW_R0 = 1.397 1.342 1.243 1.342
   ENCUT = 600
   PREC = Accurate
   LASPH = .TRUE.
   LREAL = .FALSE.
   ISPIN = 2
   MAGMOM = 1.0 0.0 0.0 0.0 0.0 0.0 0.0 0.0 0.0 0.0 0.0 0.0 0.0 0.0 0.0 0.0 0.0 0.0 0.0 0.0 0.0 0.0 0.0 0.0 0.0 0.0 0.0 0.0 0.0 0.0 0.0 0.0 0.0 0.0 0.0 0.0 0.0 0.0 0.0 0.0 0.0 0.0 0.0 0.0 0.0 0.0 0.0 0.0 0.0 0.0 0.0 0.0 0.0 0.0 0.0 0.0 0.0 0.0 0.0 0.0 0.0 0.0 0.0 0.0 0.0 0.0
   NELM = 200
   NELMIN = 8
   NCORE = 8
   KPAR = 1
   LWAVE = .FALSE.
   LCHARG = .FALSE.

 POTCAR:    PAW_PBE N 08Apr2002
 POTCAR:    PAW_PBE O 08Apr2002
 POTCAR:    PAW_PBE Mg_pv 13Apr2007
 POTCAR:    PAW_PBE O 08Apr2002
 POTCAR:    PAW_PBE N 08Apr2002
   VRHFIN =N: s2p3

   TITEL  = PAW_PBE N 08Apr2002
   POMASS =   14.001; ZVAL   =    5.000    mass and valenz
   ENMAX  =  400.000; ENMIN  =  300.000 eV

[...]

   TITEL  = PAW_PBE Mg_pv 13Apr2007
   POMASS =   24.305; ZVAL   =    8.000    mass and valenz
   ENMAX  =  403.929; ENMIN  =  302.947 eV

   TITEL  = PAW_PBE O 08Apr2002
   POMASS =   16.000; ZVAL   =    6.000    mass and valenz
   ENMAX  =  400.000; ENMIN  =  300.000 eV

  PAW_PBE N 08Apr2002                   :
  PAW_PBE O 08Apr2002                   :
  PAW_PBE Mg_pv 13Apr2007               :
  PAW_PBE O 08Apr2002                   :

 POSCAR:  N  O Mg  O
  positions in direct lattice
  velocities in cartesian coordinates
 exchange correlation table for  LEXCH =        8
   RHO(1)=    0.500       N(1)  =     2000
   RHO(2)=  100.500       N(2)  =     4000

 ion  position               nearest neighbor table
   1  0.510  0.510  0.764-   2 1.17
   2  0.432  0.436  0.799-   1 1.17
   3  0.250  0.000  0.351-  35 2.12  37 2.12  38 2.12  45 2.12  54 2.12
   4  0.500  0.250  0.351-  36 2.12  37 2.12  38 2.12  46 2.12  53 2.12
   5  0.250  0.250  0.450-  41 2.11  37 2.12  35 2.12  36 2.12  43 2.12  52 2.12
   6  0.500  0.000  0.450-  38 2.12  36 2.12  35 2.12  44 2.12  51 2.12  42 2.12
   7  0.251  1.000  0.550-  42 2.11  49 2.12  41 2.12  58 2.12  35 2.12  39 2.15
   8  0.500  0.250  0.550-  41 2.11  57 2.11  50 2.11  42 2.12  36 2.12  40 2.14
   9  0.251  0.250  0.648-  41 2.10  47 2.12  40 2.12  39 2.12  56 2.12
  10  0.500  0.000  0.648-  42 2.10  40 2.11  48 2.11  55 2.12  39 2.12
  11  0.250  0.500  0.351-  43 2.12  37 2.12  45 2.12  46 2.12  62 2.12
  12  0.500  0.750  0.351-  44 2.12  38 2.12  45 2.12  46 2.12  61 2.12
  13  0.250  0.750  0.450-  49 2.11  45 2.12  44 2.12  35 2.12  43 2.12  60 2.12
  14  0.500  0.500  0.450-  46 2.12  43 2.12  44 2.12  36 2.12  59 2.12  50 2.12
  15  0.251  0.500  0.550-  50 2.11  49 2.11  41 2.12  66 2.12  43 2.12  47 2.14
  16  0.500  0.750  0.550-  50 2.11  49 2.11  65 2.11  42 2.12  44 2.12  48 2.14
  17  0.250  0.750  0.648-  49 2.10  47 2.12  48 2.12  64 2.12  39 2.12
  18  0.501  0.500  0.650-  63 2.12  47 2.12  48 2.12  40 2.12  50 2.13
  19  0.750  0.000  0.351-  51 2.12  38 2.12  53 2.12  54 2.12  61 2.12
  20  0.000  0.250  0.351-  52 2.12  37 2.12  53 2.12  54 2.12  62 2.12
  21  0.750  0.250  0.450-  57 2.11  53 2.12  52 2.12  36 2.12  51 2.12  59 2.12
  22  0.000  0.000  0.450-  54 2.12  51 2.12  52 2.12  35 2.12  60 2.12  58 2.12
  23  0.750  1.000  0.550-  42 2.11  65 2.12  51 2.12  57 2.12  58 2.12  55 2.15
  24  0.000  0.250  0.550-  66 2.12  58 2.12  41 2.12  52 2.12  57 2.12  56 2.14
  25  0.751  0.250  0.647-  57 2.09  56 2.12  63 2.12  55 2.12  40 2.12
  26  0.000  1.000  0.649-  58 2.11  39 2.12  55 2.12  56 2.12  64 2.12
  27  0.750  0.500  0.351-  59 2.12  53 2.12  46 2.12  61 2.12  62 2.12
  28  0.000  0.750  0.351-  60 2.12  54 2.12  45 2.12  61 2.12  62 2.12
  29  0.750  0.750  0.450-  65 2.11  61 2.12  59 2.12  60 2.12  44 2.12  51 2.12
  30  0.000  0.500  0.450-  66 2.12  62 2.12  59 2.12  60 2.12  43 2.12  52 2.12
  31  0.750  0.500  0.550-  50 2.11  65 2.11  57 2.11  66 2.12  59 2.12  63 2.14
  32  0.000  0.750  0.550-  66 2.12  58 2.12  49 2.12  65 2.12  60 2.12  64 2.14
  33  0.751  0.750  0.648-  65 2.10  64 2.12  55 2.12  63 2.12  48 2.12
  34  0.000  0.500  0.647-  66 2.09  63 2.11  56 2.11  64 2.11  47 2.12
  35  0.250  0.000  0.450-   3 2.12   5 2.12   6 2.12  13 2.12  22 2.12   7 2.12
  36  0.500  0.250  0.450-   4 2.12   5 2.12   6 2.12  14 2.12  21 2.12   8 2.12
  37  0.250  0.250  0.351-   5 2.12   4 2.12   3 2.12  11 2.12  20 2.12
  38  0.500  0.000  0.351-   6 2.12   4 2.12   3 2.12  12 2.12  19 2.12
  39  0.251  0.000  0.650-  10 2.12  26 2.12   9 2.12  17 2.12   7 2.15
  40  0.501  0.249  0.650-  10 2.11  25 2.12   9 2.12  18 2.12   8 2.14
  41  0.251  0.250  0.549-   9 2.10   5 2.11   8 2.11  15 2.12  24 2.12   7 2.12
  42  0.500  1.000  0.550-  10 2.10   7 2.11  23 2.11   6 2.12  16 2.12   8 2.12
  43  0.250  0.500  0.450-  11 2.12   5 2.12  13 2.12  14 2.12  30 2.12  15 2.12
  44  0.500  0.750  0.450-  12 2.12   6 2.12  13 2.12  14 2.12  29 2.12  16 2.12
  45  0.250  0.750  0.351-  13 2.12  11 2.12  12 2.12   3 2.12  28 2.12
  46  0.500  0.500  0.351-  14 2.12  11 2.12  12 2.12   4 2.12  27 2.12
  47  0.250  0.500  0.650-  17 2.12   9 2.12  34 2.12  18 2.12  15 2.14
  48  0.500  0.751  0.650-  10 2.11  17 2.12  33 2.12  18 2.12  16 2.14
  49  0.250  0.750  0.549-  17 2.10  13 2.11  15 2.11  16 2.11  32 2.12   7 2.12
  50  0.500  0.500  0.550-  31 2.11  15 2.11  16 2.11   8 2.11  14 2.12  18 2.13
  51  0.750  0.000  0.450-  19 2.12   6 2.12  21 2.12  22 2.12  29 2.12  23 2.12
  52  0.000  0.250  0.450-  20 2.12   5 2.12  21 2.12  22 2.12  30 2.12  24 2.12
  53  0.750  0.250  0.351-  21 2.12  19 2.12  20 2.12   4 2.12  27 2.12
  54  0.000  0.000  0.351-  22 2.12  19 2.12  20 2.12   3 2.12  28 2.12
  55  0.750  1.000  0.650-  10 2.12  25 2.12  33 2.12  26 2.12  23 2.15
  56  0.000  0.250  0.650-  34 2.11  25 2.12   9 2.12  26 2.12  24 2.14
  57  0.750  0.250  0.549-  25 2.09  21 2.11  31 2.11   8 2.11  24 2.12  23 2.12
  58  0.000  1.000  0.550-  26 2.11  32 2.12  24 2.12   7 2.12  22 2.12  23 2.12
  59  0.750  0.500  0.450-  27 2.12  21 2.12  14 2.12  29 2.12  30 2.12  31 2.12
  60  0.000  0.750  0.450-  28 2.12  22 2.12  13 2.12  29 2.12  30 2.12  32 2.12
  61  0.750  0.750  0.351-  29 2.12  19 2.12  27 2.12  28 2.12  12 2.12
  62  0.000  0.500  0.351-  30 2.12  20 2.12  27 2.12  28 2.12  11 2.12
  63  0.751  0.500  0.650-  34 2.11  25 2.12  18 2.12  33 2.12  31 2.14
  64  0.000  0.750  0.650-  34 2.11  33 2.12  17 2.12  26 2.12  32 2.14
  65  0.750  0.750  0.549-  33 2.10  29 2.11  31 2.11  16 2.11  23 2.12  32 2.12
  66  0.000  0.500  0.550-  34 2.09  30 2.12  32 2.12  24 2.12  31 2.12  15 2.12

IMPORTANT INFORMATION: All symmetrisations will be switched off!
NOSYMM: (Re-)initialisation of all symmetry stuff for point group C_1.

                                     Primitive cell

  volume of cell :    1530.6606

  direct lattice vectors                    reciprocal lattice vectors
     8.467142631  0.000000000  0.000000000     0.118103597  0.000000000  0.000000000
     0.000000000  8.467142631  0.000000000     0.000000000  0.118103597  0.000000000
     0.000000000  0.000000000 21.350356973     0.000000000  0.000000000  0.046837624

  length of vectors
     8.467142631  8.467142631 21.350356973     0.118103597  0.118103597  0.046837624

  position of ions in fractional coordinates (direct lattice)
     0.509666545  0.510003499  0.764223317
     0.432497252  0.436092983  0.798845878
     0.250000000  0.000000000  0.351282183
     0.500000000  0.250000000  0.351282183
     0.250000000  0.250000000  0.450427394
     0.500000000  0.000000000  0.450427394
     0.250575818  0.999936213  0.549799610
     0.500293704  0.250211716  0.549925856
     0.250567658  0.250090239  0.647625383
     0.500432574  0.000231335  0.647800048
     0.250000000  0.500000000  0.351282183
     0.500000000  0.750000000  0.351282183
     0.250000000  0.750000000  0.450427394
     0.500000000  0.500000000  0.450427394
     0.250900537  0.500035264  0.549920871
     0.500205367  0.749733892  0.549933717
     0.250326277  0.749882156  0.647614409
     0.500786820  0.500131218  0.649661097
     0.750000000  0.000000000  0.351282183
     0.000000000  0.250000000  0.351282183
     0.750000000  0.250000000  0.450427394
     0.000000000  0.000000000  0.450427394
     0.749825791  0.999840901  0.549719082
     0.000382288  0.249912651  0.549658077
     0.750557395  0.249842156  0.647393121
     0.000460940  0.999993613  0.648534004
     0.750000000  0.500000000  0.351282183
     0.000000000  0.750000000  0.351282183
     0.750000000  0.750000000  0.450427394
     0.000000000  0.500000000  0.450427394
     0.749699346  0.499976016  0.549834426
     0.000286976  0.749863262  0.549727761
     0.750553595  0.749975395  0.647760903
     0.000309823  0.499843534  0.647393470
     0.250000000  0.000000000  0.450427394
     0.500000000  0.250000000  0.450427394
     0.250000000  0.250000000  0.351282183
     0.500000000  0.000000000  0.351282183
     0.250595718  0.000001681  0.650391965
     0.500632081  0.249438641  0.650017730
     0.250565054  0.250238030  0.549339304
     0.500188903  0.999917135  0.549580375
     0.250000000  0.500000000  0.450427394
     0.500000000  0.750000000  0.450427394
     0.250000000  0.750000000  0.351282183
     0.500000000  0.500000000  0.351282183
     0.250420207  0.500102175  0.649942623
     0.500183885  0.750625836  0.650013029
     0.250460708  0.749735172  0.549410220
     0.500339552  0.499988723  0.549939876
     0.750000000  0.000000000  0.450427394
     0.000000000  0.250000000  0.450427394
     0.750000000  0.250000000  0.351282183
     0.000000000  0.000000000  0.351282183
     0.750215079  0.999942263  0.650262879
     0.000383632  0.250374811  0.650018634
     0.750037155  0.250242005  0.549316334
     0.000243392  0.999875798  0.549717866
     0.750000000  0.500000000  0.450427394
     0.000000000  0.750000000  0.450427394
     0.750000000  0.750000000  0.351282183
     0.000000000  0.500000000  0.351282183
     0.750988831  0.499723612  0.649982337
     0.000425022  0.749518304  0.650169841
     0.749984333  0.749612930  0.549409017
     0.000152366  0.499942771  0.549501466

  ion indices of the primitive-cell ions
   primitive index   ion index
                 1           1
                 2           2
                 3           3
                 4           4
                 5           5
                 6           6
                 7           7
                 8           8
                 9           9
                10          10
                11          11
                12          12
                13          13
                14          14
                15          15
                16          16
                17          17
                18          18
                19          19
                20          20
                21          21
[...]
   4.23357132  4.23357132  9.61678566
   2.12441063  4.23386990 11.74100690
   4.23531018  6.34810380 11.74128117
   2.11954829  6.34935917 13.82679881
   4.24023343  4.23468236 13.87049633
   6.35035697  0.00000000  7.50000000
   0.00000000  2.11678566  7.50000000
   6.35035697  2.11678566  9.61678566
   0.00000000  0.00000000  9.61678566
   6.34888192  8.46579552 11.73669863
   0.00323688  2.11604606 11.73539617
   6.35507652  2.11544917 13.82207424
   0.00390284  8.46708855 13.84643250
   6.35035697  4.23357132  7.50000000
   0.00000000  6.35035697  7.50000000
   6.35035697  6.35035697  9.61678566
   0.00000000  4.23357132  9.61678566
   6.34781130  4.23336824 11.73916127
   0.00242986  6.34919919 11.73688394
   6.35504434  6.35014864 13.82992651
   0.00262331  4.23224649 13.82208169
   2.11678566  0.00000000  9.61678566
   4.23357132  2.11678566  9.61678566
   2.11678566  2.11678566  7.50000000
   4.23357132  0.00000000  7.50000000
   2.12182969  0.00001424 13.88610062
   4.23892324  2.11203255 13.87811058
   2.12157005  2.11880109 11.72859024
   4.23517079  8.46644100 11.73373718
   2.11678566  4.23357132  9.61678566
   4.23357132  6.35035697  9.61678566
   2.11678566  6.35035697  7.50000000
   4.23357132  4.23357132  7.50000000
   2.12034361  4.23443644 13.87650702
   4.23512830  6.35565601 13.87801020
   2.12068654  6.34811464 11.73010432
   4.23644635  4.23347583 11.74141267
   6.35035697  0.00000000  9.61678566
   0.00000000  2.11678566  9.61678566
   6.35035697  2.11678566  7.50000000
   0.00000000  0.00000000  7.50000000
   6.35217808  8.46665377 13.88334460
   0.00324827  2.11995924 13.87812988
   6.35067157  2.11883475 11.72809982
   0.00206083  8.46609099 11.73667267
   6.35035697  4.23357132  9.61678566
   0.00000000  6.35035697  9.61678566
   6.35035697  6.35035697  7.50000000
   0.00000000  4.23357132  7.50000000
   6.35872955  4.23123110 13.87735491
   0.00359872  6.34627838 13.88135821
   6.35022432  6.34707959 11.73007863
   0.00129010  4.23308675 11.73205246

--------------------------------------- Iteration      FINAL  ---------------------------------------

--------------------OUTCAR has been truncated-------------------------

[...]

--------------------OUTCAR has been truncated-------------------------

  Number of pair interactions contributing to vdW energy:  763801
  Edisp (eV):   -3.65538

  FORCE on cell =-STRESS in cart. coord.  units (eV):
  Direction    XX          YY          ZZ          XY          YZ          ZX
  Alpha Z   903.80560   903.80560   903.80560
  Ewald  157116.96871157109.64383************    86.75507  -126.36607  -132.12855
  Hartree167520.28890167517.06328************    38.83217   -48.65811   -51.01057
  E(xc)   -2506.19726 -2506.22476 -2510.75037     0.34908    -0.41846    -0.43787
  Local  ************************334079.17131  -125.29999   158.76436   166.38618
  n-local -2843.86679 -2843.54492 -2868.50345    -5.01787     1.49859     1.63644
  augment  1054.60779  1054.58325  1046.08241     0.58285     0.67032     0.67623
  Kinetic  7522.26402  7522.27674  7564.28476     3.68681    14.60035    14.98334
  Fock        0.00000     0.00000     0.00000     0.00000     0.00000     0.00000
  vdW        -5.31031    -5.31024    -4.41584     0.00003     0.00259     0.00225
  Total     -29.12284   -29.13310    -2.63107    -0.11185     0.09357     0.10746
  in kB     -30.48354   -30.49428    -2.75400    -0.11707     0.09794     0.11248

 VOLUME and BASIS-vectors are now :
  energy-cutoff  :      600.00
  volume of cell :     1530.66
      direct lattice vectors                 reciprocal lattice vectors
     8.467142631  0.000000000  0.000000000     0.118103597  0.000000000  0.000000000
     0.000000000  8.467142631  0.000000000     0.000000000  0.118103597  0.000000000
     0.000000000  0.000000000 21.350356973     0.000000000  0.000000000  0.046837624

  length of vectors
     8.467142631  8.467142631 21.350356973     0.118103597  0.118103597  0.046837624

 FORCES acting on ions:
    Electron-Ion                     Ewald-Force                    Non-Local-Force
   -.134E+03 -.128E+03 -.115E+04   0.155E+03 0.149E+03 0.112E+04   -.217E+02 -.208E+02 0.294E+02
   0.126E+03 0.121E+03 -.153E+04   -.155E+03 -.149E+03 0.157E+04   0.297E+02 0.284E+02 -.432E+02
   0.170E+00 0.317E-01 0.207E+04   -.170E+00 -.311E-01 -.206E+04   0.595E-04 -.443E-03 -.703E+01
   -.344E-01 0.199E+00 0.207E+04   0.337E-01 -.198E+00 -.206E+04   0.544E-03 -.116E-02 -.703E+01
   0.743E+00 0.776E+00 0.717E+03   -.735E+00 -.768E+00 -.717E+03   -.566E-02 -.562E-02 0.492E+00
   -.170E+00 0.874E-01 0.716E+03   0.168E+00 -.852E-01 -.717E+03   0.150E-02 -.147E-02 0.460E+00
   0.341E+01 0.613E+00 -.630E+03   -.340E+01 -.610E+00 0.630E+03   -.139E-01 -.315E-02 -.277E+00
   -.699E+00 0.616E+01 -.621E+03   0.696E+00 -.607E+01 0.621E+03   0.283E-02 -.994E-01 -.351E+00
   0.244E+02 0.247E+02 -.196E+04   -.245E+02 -.248E+02 0.195E+04   0.117E+00 0.107E+00 0.613E+01
   -.206E+01 0.398E+01 -.197E+04   0.206E+01 -.394E+01 0.197E+04   0.525E-02 -.391E-01 0.607E+01
   0.193E+00 -.318E-01 0.207E+04   -.191E+00 0.311E-01 -.206E+04   -.117E-02 0.507E-03 -.703E+01
   -.443E-01 -.200E+00 0.207E+04   0.438E-01 0.198E+00 -.206E+04   0.386E-03 0.139E-02 -.703E+01
   0.802E+00 -.779E+00 0.717E+03   -.802E+00 0.771E+00 -.717E+03   0.235E-03 0.612E-02 0.482E+00
   -.123E+00 -.104E+00 0.718E+03   0.115E+00 0.968E-01 -.718E+03   0.543E-02 0.452E-02 0.555E+00
   0.606E+01 -.649E+00 -.621E+03   -.596E+01 0.646E+00 0.621E+03   -.966E-01 0.383E-02 -.366E+00
   -.838E+00 -.610E+01 -.622E+03   0.846E+00 0.601E+01 0.623E+03   -.808E-02 0.961E-01 -.273E+00
   0.214E+02 -.237E+02 -.196E+04   -.215E+02 0.237E+02 0.196E+04   0.113E+00 -.846E-01 0.613E+01
   -.587E+01 -.518E+01 -.187E+04   0.578E+01 0.509E+01 0.187E+04   0.929E-01 0.101E+00 0.431E+01
   -.171E+00 0.408E-01 0.207E+04   0.170E+00 -.407E-01 -.206E+04   0.195E-03 0.461E-05 -.703E+01
   0.343E-01 0.177E+00 0.207E+04   -.338E-01 -.177E+00 -.206E+04   -.396E-03 0.641E-04 -.703E+01
   -.754E+00 0.820E+00 0.717E+03   0.744E+00 -.822E+00 -.717E+03   0.735E-02 0.976E-03 0.480E+00
   0.159E+00 0.153E+00 0.715E+03   -.163E+00 -.156E+00 -.715E+03   0.239E-02 0.161E-02 0.470E+00
   -.342E+01 0.740E+00 -.631E+03   0.341E+01 -.747E+00 0.631E+03   0.148E-01 0.758E-02 -.278E+00
   0.686E+00 0.349E+01 -.630E+03   -.682E+00 -.347E+01 0.630E+03   -.407E-02 -.123E-01 -.277E+00
   -.233E+02 0.214E+02 -.196E+04   0.234E+02 -.215E+02 0.196E+04   -.931E-01 0.966E-01 0.613E+01
   0.188E+01 0.172E+01 -.199E+04   -.187E+01 -.172E+01 0.198E+04   -.837E-02 -.938E-02 0.607E+01
   -.193E+00 -.417E-01 0.207E+04   0.191E+00 0.412E-01 -.206E+04   0.146E-02 0.347E-03 -.703E+01
   0.434E-01 -.177E+00 0.207E+04   -.434E-01 0.177E+00 -.206E+04   0.533E-04 0.107E-03 -.702E+01
   -.820E+00 -.831E+00 0.716E+03   0.811E+00 0.825E+00 -.716E+03   0.612E-02 0.415E-02 0.512E+00
   0.108E+00 -.164E+00 0.716E+03   -.106E+00 0.163E+00 -.717E+03   -.162E-02 0.112E-02 0.454E+00
   -.602E+01 -.786E+00 -.622E+03   0.593E+01 0.793E+00 0.623E+03   0.953E-01 -.730E-02 -.305E+00
   0.814E+00 -.347E+01 -.631E+03   -.820E+00 0.346E+01 0.631E+03   0.634E-02 0.119E-01 -.277E+00
   -.209E+02 -.210E+02 -.197E+04   0.210E+02 0.211E+02 0.196E+04   -.155E+00 -.139E+00 0.613E+01
   0.430E+01 -.192E+01 -.197E+04   -.427E+01 0.191E+01 0.197E+04   -.285E-01 0.797E-02 0.607E+01
   0.515E+00 0.801E-01 0.536E+03   -.509E+00 -.806E-01 -.536E+03   -.795E-02 0.706E-03 -.831E-01
   -.926E-01 0.718E+00 0.537E+03   0.959E-01 -.736E+00 -.537E+03   -.429E-02 0.240E-01 -.111E+00
   0.133E+00 0.139E+00 0.155E+04   -.132E+00 -.138E+00 -.156E+04   -.170E-02 -.160E-02 0.349E+01
   -.308E-01 0.243E-01 0.155E+04   0.308E-01 -.234E-01 -.156E+04   0.820E-04 -.120E-02 0.349E+01
   0.898E+01 0.240E+01 -.151E+04   -.894E+01 -.239E+01 0.151E+04   -.460E-01 -.634E-02 -.515E+01
   -.347E+01 0.313E+02 -.147E+04   0.347E+01 -.311E+02 0.147E+04   0.671E-02 -.260E+00 -.512E+01
   0.355E+01 0.361E+01 -.462E+03   -.354E+01 -.360E+01 0.462E+03   -.526E-02 -.835E-02 0.374E+00
   -.442E+00 0.535E+00 -.464E+03   0.440E+00 -.531E+00 0.464E+03   0.166E-02 -.345E-02 0.350E+00
   0.689E+00 -.846E-01 0.537E+03   -.707E+00 0.864E-01 -.537E+03   0.238E-01 -.236E-02 -.112E+00
   -.159E+00 -.722E+00 0.537E+03   0.160E+00 0.746E+00 -.537E+03   -.575E-03 -.316E-01 -.968E-01
   0.139E+00 -.139E+00 0.155E+04   -.138E+00 0.138E+00 -.156E+04   -.115E-02 0.155E-02 0.349E+01
   -.267E-01 -.242E-01 0.155E+04   0.260E-01 0.236E-01 -.156E+04   0.933E-03 0.889E-03 0.349E+01
   0.313E+02 -.322E+01 -.147E+04   -.311E+02 0.322E+01 0.147E+04   -.266E+00 0.565E-02 -.513E+01
   -.230E+01 -.304E+02 -.148E+04   0.231E+01 0.302E+02 0.148E+04   -.775E-02 0.230E+00 -.512E+01
   0.343E+01 -.359E+01 -.462E+03   -.343E+01 0.359E+01 0.462E+03   0.406E-02 0.440E-02 0.413E+00
   -.626E+00 -.572E+00 -.460E+03   0.620E+00 0.565E+00 0.460E+03   0.626E-02 0.683E-02 -.957E-01
   -.530E+00 0.131E+00 0.536E+03   0.532E+00 -.120E+00 -.536E+03   -.172E-02 -.150E-01 -.857E-01
   0.871E-01 0.541E+00 0.536E+03   -.866E-01 -.536E+00 -.536E+03   -.459E-03 -.748E-02 -.812E-01
   -.133E+00 0.143E+00 0.155E+04   0.132E+00 -.143E+00 -.156E+04   0.154E-02 -.896E-03 0.349E+01
   0.312E-01 0.296E-01 0.155E+04   -.309E-01 -.293E-01 -.156E+04   -.368E-03 -.398E-03 0.349E+01
   -.882E+01 0.174E+01 -.151E+04   0.878E+01 -.176E+01 0.151E+04   0.491E-01 0.134E-01 -.514E+01
   0.261E+01 0.906E+01 -.151E+04   -.260E+01 -.901E+01 0.151E+04   -.573E-02 -.501E-01 -.515E+01
   -.354E+01 0.345E+01 -.462E+03   0.354E+01 -.345E+01 0.462E+03   0.319E-02 0.856E-03 0.412E+00
   0.457E+00 0.415E+00 -.469E+03   -.457E+00 -.413E+00 0.469E+03   0.333E-03 -.157E-02 0.331E+00
   -.700E+00 -.151E+00 0.537E+03   0.726E+00 0.150E+00 -.537E+03   -.333E-01 0.140E-02 -.970E-01
   0.138E+00 -.550E+00 0.536E+03   -.127E+00 0.549E+00 -.536E+03   -.162E-01 0.881E-03 -.831E-01
   -.138E+00 -.143E+00 0.155E+04   0.138E+00 0.142E+00 -.156E+04   0.586E-03 0.450E-03 0.349E+01
   0.270E-01 -.295E-01 0.155E+04   -.260E-01 0.294E-01 -.156E+04   -.129E-02 0.211E-03 0.349E+01
   -.301E+02 -.203E+01 -.148E+04   0.299E+02 0.204E+01 0.148E+04   0.237E+00 -.775E-02 -.513E+01
   0.195E+01 -.890E+01 -.151E+04   -.197E+01 0.885E+01 0.151E+04   0.145E-01 0.505E-01 -.514E+01
   -.339E+01 -.341E+01 -.465E+03   0.338E+01 0.339E+01 0.465E+03   0.108E-01 0.121E-01 0.325E+00
   0.605E+00 -.424E+00 -.464E+03   -.604E+00 0.423E+00 0.463E+03   -.241E-02 0.173E-02 0.349E+00
   -.800E+01 -.766E+01 0.329E+02   0.114E-12 0.128E-12 -.239E-11   0.800E+01 0.766E+01 -.328E+02

 POSITION                                       TOTAL-FORCE (eV/Angst)
      4.29054      4.29934     16.29198         0.004185      0.004633     -0.002699
      3.70785      3.74062     17.14033         0.005969      0.006193      0.000580
      2.11679      0.00000      7.50000         0.000068      0.000184      0.393322
      4.23357      2.11679      7.50000        -0.000145      0.000315      0.393946
      2.11679      2.11679      9.61679         0.002443      0.002523      0.020359
      4.23357      0.00000      9.61679        -0.000761      0.000761      0.025569
      2.11658     -0.00001     11.74466         0.001399     -0.000024      0.000765
      4.23305      2.11973     11.74785         0.000150     -0.001687      0.000118
      2.11428      2.11480     13.84296        -0.000144     -0.000107      0.001728
      4.23236      0.00015     13.84348         0.000226      0.000202     -0.000510
      2.11679      4.23357      7.50000         0.000329     -0.000143      0.394006
      4.23357      6.35036      7.50000        -0.000124     -0.000328      0.393261
      2.11679      6.35036      9.61679        -0.000588     -0.002597      0.019543
      4.23357      4.23357      9.61679        -0.002505     -0.002173      0.031016
      2.11951      4.23325     11.74784        -0.001311      0.000005      0.000582
      4.23290      6.34653     11.74664        -0.000087      0.001780     -0.000540
      2.11274      6.35203     13.83986        -0.000278      0.000270      0.000924
      4.23290      4.23285     13.88206         0.000362      0.000146      0.002317
      6.35036      0.00000      7.50000        -0.000050      0.000073      0.393319
      0.00000      2.11679      7.50000         0.000175      0.000060      0.393285
      6.35036      2.11679      9.61679        -0.003086     -0.000699      0.019609
      0.00000      0.00000      9.61679        -0.001129     -0.000756      0.018708
      6.34923      8.46596     11.74503        -0.000477      0.000258      0.001041
     -0.00019      2.11675     11.74448        -0.000127      0.001043      0.001186
      6.35193      2.11337     13.83981         0.000659     -0.000184      0.001633
     -0.00087     -0.00050     13.84367         0.000320      0.000047      0.001537
      6.35036      4.23357      7.50000        -0.000342     -0.000122      0.393253
      0.00000      6.35036      7.50000         0.000064     -0.000033      0.393194
      6.35036      6.35036      9.61679        -0.002753     -0.002052      0.019972
      0.00000      4.23357      9.61679         0.000708     -0.000531      0.025311
      6.34641      4.23310     11.74663         0.001824     -0.000218      0.000508
     -0.00136      6.34950     11.74490         0.000176     -0.000755      0.001324
      6.35098      6.35096     13.84664         0.000673      0.000183      0.001866
     -0.00038      4.23262     13.84278         0.000632      0.000077      0.001742
      2.11679      0.00000      9.61679        -0.002016      0.000307      0.051893
      4.23357      2.11679      9.61679        -0.001013      0.005665      0.059482
      2.11679      2.11679      7.50000        -0.000447     -0.000420     -0.476367
      4.23357      0.00000      7.50000         0.000048     -0.000321     -0.476014
      2.11432     -0.00033     13.89211         0.001459     -0.000465      0.001995
      4.23383      2.10824     13.89214         0.000427     -0.001327      0.002434
      2.11648      2.11653     11.73835         0.000017     -0.000107      0.000634
      4.23304      8.46634     11.73735        -0.000233     -0.000037      0.003159
      2.11679      4.23357      9.61679         0.005736     -0.000515      0.059129
      4.23357      6.35036      9.61679         0.000139     -0.007612      0.057764
      2.11679      6.35036      7.50000        -0.000302      0.000451     -0.475998
      4.23357      4.23357      7.50000         0.000279      0.000261     -0.476500
      2.10775      4.23412     13.89150        -0.000894      0.000526      0.001988
      4.23046      6.35795     13.89200        -0.000572      0.001652      0.002537
      2.11600      6.35031     11.73751         0.000077      0.000179      0.001370
      4.23318      4.23341     11.74546         0.000184      0.000083     -0.001216
      6.35036      0.00000      9.61679        -0.000320     -0.004009      0.053150
      0.00000      2.11679      9.61679         0.000037     -0.001974      0.051652
      6.35036      2.11679      7.50000         0.000453     -0.000232     -0.476015
      0.00000      0.00000      7.50000        -0.000081     -0.000094     -0.475994
      6.35072      8.46611     13.89270        -0.000300      0.000541      0.002104
     -0.00059      2.11456     13.89188        -0.000644      0.000728      0.001792
      6.34995      2.11597     11.73743         0.000982      0.000499      0.001363
     -0.00070      8.46661     11.73735         0.000127      0.000031     -0.001093
      6.35036      4.23357      9.61679        -0.008115      0.000647      0.057743
      0.00000      6.35036      9.61679        -0.004289      0.000346      0.053348
      6.35036      6.35036      7.50000         0.000177      0.000134     -0.475784
      0.00000      4.23357      7.50000        -0.000343      0.000081     -0.476011
      6.35785      4.23081     13.89078         0.002367     -0.000567      0.001471
     -0.00126      6.35111     13.89259         0.000311     -0.000509      0.001701
      6.34908      6.34953     11.73956         0.000916     -0.000425      0.000551
     -0.00083      4.23323     11.73701        -0.000622      0.000138      0.001959
    total drift:                               -0.001930     -0.001586      0.015933

  FREE ENERGIE OF THE ION-ELECTRON SYSTEM (eV)
  free  energy   TOTEN  =      -388.18092292 eV

  energy  without entropy=     -388.18092292  energy(sigma->0) =     -388.18092292

 d Force = 0.1861098E-05[ 0.169E-05, 0.203E-05]  d Energy = 0.1908053E-05-0.470E-07
 d Force = 0.2317733E+00[ 0.232E+00, 0.232E+00]  d Ewald  = 0.2317733E+00-0.806E-09

 reached required accuracy - stopping structural energy minimisation