 vasp.6.3.0 20Jan22 (build Apr  1 2022 16:44:48) complex
 executed on        HPECrayEX_GCC date 2022.09.25  02:51:56

 INCAR:
   SYSTEM = MgO-rocksalt
   ISMEAR = 0
   SIGMA = 0.05
   EDIFF = 1E-7
   ALGO = ALL
   ISTART = 0
   IBRION = 2
   NSW = 1000
   ISYM = 2
   ISIF = 3
   EDIFFG = -0.005
   LHFCALC = .TRUE.
   GGA = B5
   AEXX = 0.2
   AGGAX = 0.72
   AGGAC = 0.81
   ALDAC = 0.19
   IVDW = 1
   VDW_S6 = 1.05
   VDW_C6 = 0.63 0.70
   VDW_R0 = 1.243 1.342
   ENCUT = 600
   PREC = Normal
   LASPH = .TRUE.
   LREAL = .FALSE.
   ISPIN = 1
   NELM = 200
   NELMIN = 8
   NCORE = 4
   KPAR = 2
   LWAVE = .FALSE.
   LCHARG = .FALSE.

 POTCAR:    PAW_PBE Mg_pv 13Apr2007
 POTCAR:    PAW_PBE O 08Apr2002
|           W    W    AA    RRRRR   N    N  II  N    N   GGGG   !!!           |
|           W    W   A  A   R    R  NN   N  II  NN   N  G    G  !!!           |
|           W    W  A    A  R    R  N N  N  II  N N  N  G       !!!           |
|           W WW W  AAAAAA  RRRRR   N  N N  II  N  N N  G  GGG   !            |
|           WW  WW  A    A  R   R   N   NN  II  N   NN  G    G                |
|           W    W  A    A  R    R  N    N  II  N    N   GGGG   !!!           |
|     You have selected ISYM=2 for a HF type calculation. This will           |
|     symmetrize the charge density but not the exchange potential. I         |
|     suggest to use ISYM=3 instead. This uses symmetry to obtain the         |
|     orbitals at all k-points in the Brillouin zone, but does not apply      |
|     symmetry to the Hartree potential directly. The resultant charge        |
|     might have lower symmetry than the crystal but, at least, Hartree       |
|     and exchange are fully compatible.                                      |

   TITEL  = PAW_PBE Mg_pv 13Apr2007
   POMASS =   24.305; ZVAL   =    8.000    mass and valenz
   ENMAX  =  403.929; ENMIN  =  302.947 eV

   TITEL  = PAW_PBE O 08Apr2002
   POMASS =   16.000; ZVAL   =    6.000    mass and valenz
   ENMAX  =  400.000; ENMIN  =  300.000 eV

  PAW_PBE Mg_pv 13Apr2007               :
  PAW_PBE O 08Apr2002                   :

 POSCAR: Mg4 O4
  positions in direct lattice
  velocities in cartesian coordinates
 exchange correlation table for  LEXCH =       12
   RHO(1)=    0.500       N(1)  =     2000
   RHO(2)=  100.500       N(2)  =     4000

 ion  position               nearest neighbor table
   1  0.000  0.000  0.000-   5 2.10   7 2.10   8 2.10   7 2.10   8 2.10   5 2.10
   2  0.000  0.500  0.500-   6 2.10   7 2.10   8 2.10   8 2.10   7 2.10   6 2.10
   3  0.500  0.000  0.500-   5 2.10   6 2.10   7 2.10   5 2.10   6 2.10   7 2.10
   4  0.500  0.500  0.000-   5 2.10   6 2.10   8 2.10   6 2.10   5 2.10   8 2.10
   5  0.500  0.000  0.000-   1 2.10   3 2.10   4 2.10   3 2.10   4 2.10   1 2.10
   6  0.500  0.500  0.500-   2 2.10   3 2.10   4 2.10   4 2.10   3 2.10   2 2.10
   7  0.000  0.000  0.500-   1 2.10   2 2.10   3 2.10   1 2.10   2 2.10   3 2.10
   8  0.000  0.500  0.000-   1 2.10   2 2.10   4 2.10   2 2.10   1 2.10   4 2.10

  LATTYP: Found a simple cubic cell.
 ALAT       =     4.2024309975

  Lattice vectors:

 A1 = (   4.2024309975,   0.0000000000,  -0.0000000000)
 A2 = (  -0.0000000000,   4.2024309975,  -0.0000000000)
 A3 = (   0.0000000000,   0.0000000000,   4.2024309975)

Analysis of symmetry for initial positions (statically):
 Subroutine PRICEL returns following result:

  LATTYP: Found a face centered cubic cell.
 ALAT       =     4.2024309975

[...]

   4 primitive cells build up your supercell.

 Routine SETGRP: Setting up the symmetry group for a
 simple cubic supercell.

 Subroutine GETGRP returns: Found 48 space group operations
 (whereof 48 operations were pure point group operations)
 out of a pool of 48 trial point group operations.

The static configuration has the point symmetry O_h .

Analysis of symmetry for dynamics (positions and initial velocities):
 Subroutine PRICEL returns following result:

  LATTYP: Found a face centered cubic cell.
 ALAT       =     4.2024309975

  Lattice vectors:

 A1 = (   2.1012154987,  -2.1012154987,   0.0000000000)
 A2 = (   2.1012154987,   0.0000000000,   2.1012154987)
 A3 = (   0.0000000000,  -2.1012154987,   2.1012154987)

   4 primitive cells build up your supercell.

 Routine SETGRP: Setting up the symmetry group for a
 simple cubic supercell.

 Subroutine GETGRP returns: Found 48 space group operations
 (whereof 48 operations were pure point group operations)
 out of a pool of 48 trial point group operations.

The dynamic configuration has the point symmetry O_h .

 Subroutine INISYM returns: Found 48 space group operations
 (whereof 48 operations are pure point group operations),
 and found     4 'primitive' translations

                                     Primitive cell

  volume of cell :      18.5542

  direct lattice vectors                    reciprocal lattice vectors
     2.101215499 -2.101215499  0.000000000     0.237957506 -0.237957506 -0.237957506
     2.101215499  0.000000000  2.101215499     0.237957506  0.237957506  0.237957506
     0.000000000 -2.101215499  2.101215499    -0.237957506 -0.237957506  0.237957506

  length of vectors
     2.971567456  2.971567456  2.971567456     0.412154491  0.412154491  0.412154491

  position of ions in fractional coordinates (direct lattice)
     0.000000000  0.000000000  0.000000000
     0.500000000  0.500000000  0.500000000

  ion indices of the primitive-cell ions
   primitive index   ion index
                 1           1
                 2           5

 KPOINTS: pymatgen v2020.8.13 with grid density =

Automatic generation of k-mesh.
 Grid dimensions read from file:
 generate k-points for:    8    8    8

 Generating k-lattice:

  Cartesian coordinates                     Fractional coordinates (reciprocal lattice)
     0.029744688  0.000000000 -0.000000000     0.125000000  0.000000000  0.000000000
    -0.000000000  0.029744688  0.000000000     0.000000000  0.125000000  0.000000000
     0.000000000  0.000000000  0.029744688     0.000000000  0.000000000  0.125000000

  Length of vectors
     0.029744688  0.029744688  0.029744688

  Shift w.r.t. Gamma in fractional coordinates (k-lattice)
     0.000000000  0.000000000  0.000000000

 Subroutine IBZKPT returns following result:

 Found     35 irreducible k-points:

 Following reciprocal coordinates:
            Coordinates               Weight
  0.000000  0.000000  0.000000      1.000000
  0.125000  0.000000  0.000000      6.000000
  0.250000  0.000000  0.000000      6.000000
  0.375000  0.000000  0.000000      6.000000
  0.500000  0.000000  0.000000      3.000000
  0.125000  0.125000  0.000000     12.000000
  0.250000  0.125000  0.000000     24.000000
  0.375000  0.125000  0.000000     24.000000
  0.500000  0.125000  0.000000     12.000000
  0.250000  0.250000  0.000000     12.000000
  0.375000  0.250000  0.000000     24.000000
  0.500000  0.250000  0.000000     12.000000
  0.375000  0.375000  0.000000     12.000000
  0.500000  0.375000  0.000000     12.000000
  0.500000  0.500000  0.000000      3.000000
  0.125000  0.125000  0.125000      8.000000
  0.250000  0.125000  0.125000     24.000000
  0.375000  0.125000  0.125000     24.000000
  0.500000  0.125000  0.125000     12.000000
  0.250000  0.250000  0.125000     24.000000
  0.375000  0.250000  0.125000     48.000000
  0.500000  0.250000  0.125000     24.000000
  0.375000  0.375000  0.125000     24.000000
  0.500000  0.375000  0.125000     24.000000
  0.500000  0.500000  0.125000      6.000000
  0.250000  0.250000  0.250000      8.000000
  0.375000  0.250000  0.250000     24.000000
  0.500000  0.250000  0.250000     12.000000
  0.375000  0.375000  0.250000     24.000000
  0.500000  0.375000  0.250000     24.000000
  0.500000  0.500000  0.250000      6.000000
  0.375000  0.375000  0.375000      8.000000
  0.500000  0.375000  0.375000     12.000000
  0.500000  0.500000  0.375000      6.000000
  0.500000  0.500000  0.500000      1.000000

 Following cartesian coordinates:
            Coordinates               Weight
  0.000000  0.000000  0.000000      1.000000
  0.029745  0.000000  0.000000      6.000000
  0.059489  0.000000  0.000000      6.000000
  0.089234  0.000000  0.000000      6.000000
  0.118979  0.000000  0.000000      3.000000
  0.029745  0.029745  0.000000     12.000000
  0.059489  0.029745  0.000000     24.000000
  0.089234  0.029745  0.000000     24.000000
  0.118979  0.029745  0.000000     12.000000
  0.059489  0.059489  0.000000     12.000000
  0.089234  0.059489  0.000000     24.000000
  0.118979  0.059489  0.000000     12.000000
  0.089234  0.089234  0.000000     12.000000
  0.118979  0.089234  0.000000     12.000000
  0.118979  0.118979  0.000000      3.000000
  0.029745  0.029745  0.029745      8.000000
  0.059489  0.029745  0.029745     24.000000
  0.089234  0.029745  0.029745     24.000000
  0.118979  0.029745  0.029745     12.000000
  0.059489  0.059489  0.029745     24.000000
  0.089234  0.059489  0.029745     48.000000
  0.118979  0.059489  0.029745     24.000000
  0.089234  0.089234  0.029745     24.000000
  0.118979  0.089234  0.029745     24.000000
  0.118979  0.118979  0.029745      6.000000
  0.059489  0.059489  0.059489      8.000000
  0.089234  0.059489  0.059489     24.000000
  0.118979  0.059489  0.059489     12.000000
  0.089234  0.089234  0.059489     24.000000
  0.118979  0.089234  0.059489     24.000000
  0.118979  0.118979  0.059489      6.000000
  0.089234  0.089234  0.089234      8.000000
  0.118979  0.089234  0.089234     12.000000
  0.118979  0.118979  0.089234      6.000000
  0.118979  0.118979  0.118979      1.000000

 Subroutine IBZKPT_HF returns following result:

 Found    512 k-points in 1st BZ
 the following    512 k-points will be used (e.g. in the exchange kernel)
 Following reciprocal coordinates:   # in IRBZ
  0.000000  0.000000  0.000000    0.00195312   1 t-inv F
  0.125000  0.000000  0.000000    0.00195312   2 t-inv F
  0.250000  0.000000  0.000000    0.00195312   3 t-inv F
  0.375000  0.000000  0.000000    0.00195312   4 t-inv F
  0.500000  0.000000  0.000000    0.00195312   5 t-inv F
  0.125000  0.125000  0.000000    0.00195312   6 t-inv F
  0.250000  0.125000  0.000000    0.00195312   7 t-inv F
  0.375000  0.125000  0.000000    0.00195312   8 t-inv F
  0.500000  0.125000  0.000000    0.00195312   9 t-inv F
  0.250000  0.250000  0.000000    0.00195312  10 t-inv F
  0.375000  0.250000  0.000000    0.00195312  11 t-inv F
  0.500000  0.250000  0.000000    0.00195312  12 t-inv F
  0.375000  0.375000  0.000000    0.00195312  13 t-inv F
  0.500000  0.375000  0.000000    0.00195312  14 t-inv F
  0.500000  0.500000  0.000000    0.00195312  15 t-inv F
  0.125000  0.125000  0.125000    0.00195312  16 t-inv F
  0.250000  0.125000  0.125000    0.00195312  17 t-inv F
  0.375000  0.125000  0.125000    0.00195312  18 t-inv F
  0.500000  0.125000  0.125000    0.00195312  19 t-inv F
  0.250000  0.250000  0.125000    0.00195312  20 t-inv F
  0.375000  0.250000  0.125000    0.00195312  21 t-inv F
  0.500000  0.250000  0.125000    0.00195312  22 t-inv F
  0.375000  0.375000  0.125000    0.00195312  23 t-inv F
  0.500000  0.375000  0.125000    0.00195312  24 t-inv F
  0.500000  0.500000  0.125000    0.00195312  25 t-inv F
  0.250000  0.250000  0.250000    0.00195312  26 t-inv F
  0.375000  0.250000  0.250000    0.00195312  27 t-inv F
  0.500000  0.250000  0.250000    0.00195312  28 t-inv F
  0.375000  0.375000  0.250000    0.00195312  29 t-inv F
  0.500000  0.375000  0.250000    0.00195312  30 t-inv F
  0.500000  0.500000  0.250000    0.00195312  31 t-inv F
  0.375000  0.375000  0.375000    0.00195312  32 t-inv F
  0.500000  0.375000  0.375000    0.00195312  33 t-inv F
  0.500000  0.500000  0.375000    0.00195312  34 t-inv F
  0.500000  0.500000  0.500000    0.00195312  35 t-inv F
 -0.125000 -0.000000 -0.000000    0.00195312   2 t-inv F
  0.000000  0.125000  0.000000    0.00195312   2 t-inv F
 -0.000000 -0.125000 -0.000000    0.00195312   2 t-inv F
  0.000000  0.000000  0.125000    0.00195312   2 t-inv F
 -0.000000 -0.000000 -0.125000    0.00195312   2 t-inv F
 -0.250000 -0.000000 -0.000000    0.00195312   3 t-inv F
  0.000000  0.250000  0.000000    0.00195312   3 t-inv F
 -0.000000 -0.250000 -0.000000    0.00195312   3 t-inv F
  0.000000  0.000000  0.250000    0.00195312   3 t-inv F
 -0.000000 -0.000000 -0.250000    0.00195312   3 t-inv F
 -0.375000 -0.000000 -0.000000    0.00195312   4 t-inv F
  0.000000  0.375000  0.000000    0.00195312   4 t-inv F
 -0.000000 -0.375000 -0.000000    0.00195312   4 t-inv F
  0.000000  0.000000  0.375000    0.00195312   4 t-inv F
 -0.000000 -0.000000 -0.375000    0.00195312   4 t-inv F
  0.000000  0.500000  0.000000    0.00195312   5 t-inv F
  0.000000  0.000000  0.500000    0.00195312   5 t-inv F
 -0.125000 -0.125000 -0.000000    0.00195312   6 t-inv F
  0.000000  0.125000  0.125000    0.00195312   6 t-inv F
 -0.000000 -0.125000 -0.125000    0.00195312   6 t-inv F
  0.125000  0.000000  0.125000    0.00195312   6 t-inv F
 -0.125000 -0.000000 -0.125000    0.00195312   6 t-inv F
 -0.125000  0.125000  0.000000    0.00195312   6 t-inv F
  0.125000 -0.125000 -0.000000    0.00195312   6 t-inv F
 -0.125000  0.000000  0.125000    0.00195312   6 t-inv F
[...]
  0.375000  0.500000  0.375000    0.00195312  33 t-inv F
 -0.375000 -0.500000 -0.375000    0.00195312  33 t-inv F
  0.375000  0.375000  0.500000    0.00195312  33 t-inv F
 -0.375000 -0.375000 -0.500000    0.00195312  33 t-inv F
 -0.375000  0.500000  0.375000    0.00195312  33 t-inv F
  0.375000 -0.500000 -0.375000    0.00195312  33 t-inv F
 -0.375000  0.375000  0.500000    0.00195312  33 t-inv F
  0.375000 -0.375000 -0.500000    0.00195312  33 t-inv F
 -0.500000 -0.375000  0.375000    0.00195312  33 t-inv F
  0.500000  0.375000 -0.375000    0.00195312  33 t-inv F
 -0.500000 -0.500000 -0.375000    0.00195312  34 t-inv F
  0.375000  0.500000  0.500000    0.00195312  34 t-inv F
 -0.375000 -0.500000 -0.500000    0.00195312  34 t-inv F
  0.500000  0.375000  0.500000    0.00195312  34 t-inv F
 -0.500000 -0.375000 -0.500000    0.00195312  34 t-inv F

 SYSTEM =  MgO-rocksalt
 POSCAR =  Mg4 O4

  energy-cutoff  :      600.00
  volume of cell :       74.22
      direct lattice vectors                 reciprocal lattice vectors
     4.202430997  0.000000000 -0.000000000     0.237957506  0.000000000 -0.000000000
    -0.000000000  4.202430997 -0.000000000    -0.000000000  0.237957506  0.000000000
     0.000000000  0.000000000  4.202430997     0.000000000  0.000000000  0.237957506

[...]

 k-points in units of 2pi/SCALE and weight: pymatgen v2020.8.13 with grid density =
   0.00000000  0.00000000  0.00000000       0.002
   0.02974469  0.00000000  0.00000000       0.012
   0.05948938  0.00000000  0.00000000       0.012
   0.08923406  0.00000000  0.00000000       0.012
   0.11897875  0.00000000  0.00000000       0.006
   0.02974469  0.02974469  0.00000000       0.023
   0.05948938  0.02974469  0.00000000       0.047
   0.08923406  0.02974469  0.00000000       0.047
   0.11897875  0.02974469  0.00000000       0.023
   0.05948938  0.05948938  0.00000000       0.023
   0.08923406  0.05948938  0.00000000       0.047
   0.11897875  0.05948938  0.00000000       0.023
   0.08923406  0.08923406  0.00000000       0.023
   0.11897875  0.08923406  0.00000000       0.023
   0.11897875  0.11897875  0.00000000       0.006
   0.02974469  0.02974469  0.02974469       0.016
   0.05948938  0.02974469  0.02974469       0.047
   0.08923406  0.02974469  0.02974469       0.047
   0.11897875  0.02974469  0.02974469       0.023
   0.05948938  0.05948938  0.02974469       0.047
   0.08923406  0.05948938  0.02974469       0.094
   0.11897875  0.05948938  0.02974469       0.047
   0.08923406  0.08923406  0.02974469       0.047
   0.11897875  0.08923406  0.02974469       0.047
   0.11897875  0.11897875  0.02974469       0.012
   0.05948938  0.05948938  0.05948938       0.016
   0.08923406  0.05948938  0.05948938       0.047
   0.11897875  0.05948938  0.05948938       0.023
   0.08923406  0.08923406  0.05948938       0.047
   0.11897875  0.08923406  0.05948938       0.047
   0.11897875  0.11897875  0.05948938       0.012
   0.08923406  0.08923406  0.08923406       0.016
   0.11897875  0.08923406  0.08923406       0.023
   0.11897875  0.11897875  0.08923406       0.012
   0.11897875  0.11897875  0.11897875       0.002

 k-points in reciprocal lattice and weights: pymatgen v2020.8.13 with grid density =
   0.00000000  0.00000000  0.00000000       0.002
   0.12500000  0.00000000  0.00000000       0.012
   0.25000000  0.00000000  0.00000000       0.012
   0.37500000  0.00000000  0.00000000       0.012
   0.50000000  0.00000000  0.00000000       0.006
   0.12500000  0.12500000  0.00000000       0.023
   0.25000000  0.12500000  0.00000000       0.047
   0.37500000  0.12500000  0.00000000       0.047
   0.50000000  0.12500000  0.00000000       0.023
   0.25000000  0.25000000  0.00000000       0.023
   0.37500000  0.25000000  0.00000000       0.047
   0.50000000  0.25000000  0.00000000       0.023
   0.37500000  0.37500000  0.00000000       0.023
   0.50000000  0.37500000  0.00000000       0.023
   0.50000000  0.50000000  0.00000000       0.006
   0.12500000  0.12500000  0.12500000       0.016
   0.25000000  0.12500000  0.12500000       0.047
   0.37500000  0.12500000  0.12500000       0.047
   0.50000000  0.12500000  0.12500000       0.023
   0.25000000  0.25000000  0.12500000       0.047
   0.37500000  0.25000000  0.12500000       0.094
   0.50000000  0.25000000  0.12500000       0.047
   0.37500000  0.37500000  0.12500000       0.047
   0.50000000  0.37500000  0.12500000       0.047
   0.50000000  0.50000000  0.12500000       0.012
   0.25000000  0.25000000  0.25000000       0.016
   0.37500000  0.25000000  0.25000000       0.047
   0.50000000  0.25000000  0.25000000       0.023
   0.37500000  0.37500000  0.25000000       0.047
   0.50000000  0.37500000  0.25000000       0.047
   0.50000000  0.50000000  0.25000000       0.012
   0.37500000  0.37500000  0.37500000       0.016
   0.50000000  0.37500000  0.37500000       0.023
   0.50000000  0.50000000  0.37500000       0.012
   0.50000000  0.50000000  0.50000000       0.002

 position of ions in fractional coordinates (direct lattice)
   0.00000000  0.00000000  0.00000000
   0.00000000  0.50000000  0.50000000
   0.50000000  0.00000000  0.50000000
   0.50000000  0.50000000  0.00000000
   0.50000000  0.00000000  0.00000000
   0.50000000  0.50000000  0.50000000
   0.00000000  0.00000000  0.50000000
   0.00000000  0.50000000  0.00000000

 position of ions in cartesian coordinates  (Angst):
   0.00000000  0.00000000  0.00000000
   0.00000000  2.10121550  2.10121550
   2.10121550  0.00000000  2.10121550
   2.10121550  2.10121550  0.00000000
   2.10121550  0.00000000  0.00000000
   2.10121550  2.10121550  2.10121550
   0.00000000  0.00000000  2.10121550
   0.00000000  2.10121550  0.00000000

--------------------------------------- Iteration      FINAL  ---------------------------------------

--------------------OUTCAR has been truncated-------------------------

[...]

--------------------OUTCAR has been truncated-------------------------

  DFT-D2 method for vdW energy calculation

  Parameters of vdW forcefield:
         C6(Jnm^6/mol)     R0(A)
   Mg       0.630          1.243
   O        0.700          1.342

  vdW correction parametrized for the method           

  IVDW =   1
  VDW_RADIUS =    50.000 A
  VDW_S6 =     1.050
  VDW_SR =     1.000
  VDW_D =    20.000
  LVDW_EWALD = F

  Number of pair interactions contributing to vdW energy:  254768
  Edisp (eV):   -0.82151

  FORCE on cell =-STRESS in cart. coord.  units (eV):
  Direction    XX          YY          ZZ          XY          YZ          ZX
  Alpha Z   280.05743   280.05743   280.05743
  Ewald   -1286.32546 -1286.32546 -1286.32546     0.00000     0.00000    -0.00000
  Hartree   408.78261   408.78261   408.78261    -0.00000    -0.00000    -0.00000
  E(xc)    -251.18612  -251.18612  -251.18612     0.00000    -0.00000    -0.00000
  Local     211.94453   211.94453   211.94453    -0.00000     0.00000     0.00000
  n-local  -146.59996  -147.41104  -146.92754     0.04713     0.05474     0.02928
  augment   111.62787   111.62787   111.62787    -0.00000     0.00000     0.00000
  Kinetic   917.16467   925.06317   927.80111    -2.54795    -2.52417    -1.54717
  Fock     -249.82012  -250.12323  -250.34693     0.05485     0.04445     0.02976
  vdW        -1.17494    -1.17494    -1.17494     0.00000     0.00000    -0.00000
  Total      -0.00738    -0.00738    -0.00738    -0.00000    -0.00000     0.00000
  in kB      -0.15928    -0.15928    -0.15928    -0.00000    -0.00000     0.00000

 VOLUME and BASIS-vectors are now :
  energy-cutoff  :      600.00
  volume of cell :       74.22
      direct lattice vectors                 reciprocal lattice vectors
     4.202430997  0.000000000 -0.000000000     0.237957506  0.000000000 -0.000000000
    -0.000000000  4.202430997 -0.000000000    -0.000000000  0.237957506  0.000000000
     0.000000000  0.000000000  4.202430997     0.000000000  0.000000000  0.237957506

  length of vectors
     4.202430997  4.202430997  4.202430997     0.237957506  0.237957506  0.237957506

 FORCES acting on ions:
    Electron-Ion                     Ewald-Force                    Non-Local-Force
   -.295E-13 -.318E-13 -.346E-13   0.263E-14 -.718E-14 -.949E-15   0.116E-22 0.662E-23 0.351E-23
   -.296E-13 0.397E-12 0.383E-12   0.273E-14 -.312E-14 0.643E-14   0.662E-23 -.165E-23 -.243E-23
   0.391E-12 -.339E-13 0.290E-11   0.884E-16 -.102E-13 0.635E-14   0.827E-23 -.465E-23 0.493E-23
   0.392E-12 0.948E-12 -.360E-12   0.188E-15 -.615E-14 -.173E-14   -.827E-23 -.165E-23 0.419E-23
   0.167E-12 -.262E-13 -.156E-11   -.159E-14 0.149E-14 -.484E-14   0.129E-25 0.207E-24 0.244E-24
   0.169E-12 0.127E-12 0.744E-12   -.130E-14 0.118E-13 0.704E-15   0.220E-24 0.181E-24 -.392E-25
   -.287E-13 -.285E-13 0.167E-12   -.676E-15 0.189E-14 0.747E-15   0.000E+00 0.181E-24 0.946E-25
   -.287E-13 0.169E-12 -.200E-13   -.383E-15 0.122E-13 -.531E-14   0.129E-25 0.155E-24 -.839E-25
   0.102E-11 0.154E-11 0.226E-11   0.169E-14 0.804E-15 0.141E-14   0.184E-22 -.620E-24 0.104E-22

 POSITION                                       TOTAL-FORCE (eV/Angst)
      0.00000      0.00000      0.00000        -0.000000     -0.000000     -0.000000
      0.00000      2.10122      2.10122        -0.000000      0.000000      0.000000
      2.10122      0.00000      2.10122         0.000000     -0.000000     -0.000000
      2.10122      2.10122      0.00000        -0.000000     -0.000000     -0.000000
      2.10122      0.00000      0.00000         0.000000     -0.000000     -0.000000
      2.10122      2.10122      2.10122         0.000000      0.000000      0.000000
      0.00000      0.00000      2.10122         0.000000     -0.000000      0.000000
      0.00000      2.10122      0.00000         0.000000      0.000000      0.000000
    total drift:                                0.000000      0.000000      0.000000

  FREE ENERGIE OF THE ION-ELECTRON SYSTEM (eV)
  free  energy   TOTEN  =       -55.90527671 eV

  energy  without entropy=      -55.90527671  energy(sigma->0) =      -55.90527671

 reached required accuracy - stopping structural energy minimisation