 vasp.6.3.0 20Jan22 (build Apr  1 2022 16:44:48) complex
 executed on        HPECrayEX_GCC date 2022.11.13  00:58:41

 INCAR:
   SYSTEM = MgO-rocksalt
   ISMEAR = 0
   SIGMA = 0.05
   EDIFF = 1E-6
   ALGO = ALL
   ISTART = 0
   IBRION = -1
   NSW = 0
   ISYM = 0
   DIPOL = 0.5 0.5 0.5
   IDIPOL = 3
   LDIPOL = .TRUE.
   GGA = MK
   LUSE_VDW = .TRUE.
   PARAM1 = 0.1234
   PARAM2 = 0.711357
   ZAB_VDW = -1.8867
   AGGAC = 0.0
   ENCUT = 600
   PREC = Accurate
   LASPH = .TRUE.
   LREAL = .FALSE.
   ISPIN = 1
   NELM = 200
   NELMIN = 8
   NCORE = 8
   KPAR = 1
   LWAVE = .FALSE.
   LCHARG = .FALSE.

 POTCAR:    PAW_PBE C 08Apr2002
 POTCAR:    PAW_PBE O 08Apr2002
 POTCAR:    PAW_PBE H 15Jun2001
 POTCAR:    PAW_PBE Mg_pv 13Apr2007
 POTCAR:    PAW_PBE O 08Apr2002
|               ----> ADVICE to this user running VASP <----                  |
|     You have switched on vdW-DFT.                                           |
|     This routine was written and supplied by Jiri Klimes. We recommend      |
|     that you carefully read and cite the following publications:            |
|       J. Klimes, D.R. Bowler, A. Michelides                                 |
|          J. Phys.: Cond Matt. 22 022201 (2010)                              |
|       J. Klimes, D.R. Bowler, A. Michelides                                 |
|          Phys. Rev. B. 83, 195131 (2011)                                    |
|     and references therein.                                                 |

   TITEL  = PAW_PBE C 08Apr2002
   POMASS =   12.011; ZVAL   =    4.000    mass and valenz
   ENMAX  =  400.000; ENMIN  =  300.000 eV

[...]

   TITEL  = PAW_PBE H 15Jun2001
   POMASS =    1.000; ZVAL   =    1.000    mass and valenz
   ENMAX  =  250.000; ENMIN  =  200.000 eV

   TITEL  = PAW_PBE Mg_pv 13Apr2007
   POMASS =   24.305; ZVAL   =    8.000    mass and valenz
   ENMAX  =  403.929; ENMIN  =  302.947 eV

   TITEL  = PAW_PBE O 08Apr2002
   POMASS =   16.000; ZVAL   =    6.000    mass and valenz
   ENMAX  =  400.000; ENMIN  =  300.000 eV

  PAW_PBE C 08Apr2002                   :
  PAW_PBE O 08Apr2002                   :
  PAW_PBE H 15Jun2001                   :
  PAW_PBE Mg_pv 13Apr2007               :
  PAW_PBE O 08Apr2002                   :

 POSCAR:  C  O  H Mg  O
  positions in direct lattice
 exchange correlation table for  LEXCH =       43
   RHO(1)=    0.500       N(1)  =     2000
   RHO(2)=  100.500       N(2)  =     4000

 ion  position               nearest neighbor table
   1  0.431  0.619  0.795-   3 1.09   6 1.09   5 1.10   2 1.41
   2  0.422  0.493  0.751-   4 1.00   1 1.41  22 2.21
   3  0.541  0.603  0.822-   1 1.09
   4  0.323  0.501  0.725-   2 1.00
   5  0.436  0.736  0.772-   1 1.10
   6  0.330  0.616  0.828-   1 1.09
   7  0.250  0.000  0.353-  41 2.09  42 2.09  49 2.09  58 2.09  39 2.09
   8  0.500  0.250  0.353-  41 2.09  42 2.09  50 2.09  57 2.09  40 2.09
   9  0.250  0.250  0.451-  39 2.09  40 2.09  47 2.09  56 2.09  41 2.09  45 2.10
  10  0.500  0.000  0.451-  46 2.09  40 2.09  39 2.09  48 2.09  55 2.09  42 2.09
  11  0.250  0.000  0.549-  46 2.08  62 2.09  45 2.09  39 2.09  53 2.09  43 2.12
  12  0.500  0.251  0.550-  54 2.08  44 2.09  61 2.09  45 2.09  46 2.10  40 2.11
  13  0.250  0.247  0.647-  43 2.07  45 2.07  44 2.09  60 2.09  51 2.12
  14  0.500  0.000  0.647-  44 2.07  52 2.08  46 2.08  59 2.09  43 2.09
  15  0.250  0.500  0.353-  41 2.09  49 2.09  50 2.09  66 2.09  47 2.09
  16  0.500  0.750  0.353-  42 2.09  49 2.09  50 2.09  65 2.09  48 2.09
  17  0.250  0.750  0.451-  39 2.09  47 2.09  48 2.09  64 2.09  49 2.09  53 2.10
  18  0.500  0.500  0.451-  40 2.09  47 2.09  48 2.09  63 2.09  50 2.09  54 2.11
  19  0.251  0.500  0.550-  54 2.07  45 2.08  53 2.08  70 2.09  47 2.11  51 2.17
  20  0.500  0.749  0.550-  54 2.08  69 2.09  53 2.09  46 2.09  52 2.11  48 2.11
  21  0.249  0.753  0.646-  53 2.06  43 2.06  68 2.08  52 2.09  51 2.11
  22  0.507  0.499  0.652-  67 2.05  44 2.10  52 2.11  54 2.17  51 2.18   2 2.21
  23  0.750  0.000  0.353-  42 2.09  57 2.09  58 2.09  65 2.09  55 2.09
  24  0.000  0.250  0.353-  41 2.09  57 2.09  58 2.09  66 2.09  56 2.09
  25  0.750  0.250  0.451-  40 2.09  55 2.09  56 2.09  63 2.09  57 2.09  61 2.09
  26  0.000  0.000  0.451-  39 2.09  55 2.09  56 2.09  64 2.09  58 2.09  62 2.09
  27  0.750  0.000  0.549-  46 2.09  61 2.09  69 2.09  62 2.09  55 2.09  59 2.12
  28  1.000  0.250  0.550-  61 2.08  45 2.09  70 2.09  62 2.09  56 2.10  60 2.12
  29  0.750  0.249  0.647-  59 2.08  61 2.08  44 2.09  60 2.09  67 2.10
  30  0.999  0.000  0.647-  62 2.08  59 2.08  60 2.08  68 2.08  43 2.09
  31  0.750  0.500  0.353-  50 2.09  57 2.09  65 2.09  66 2.09  63 2.09
  32  0.000  0.750  0.353-  49 2.09  58 2.09  65 2.09  66 2.09  64 2.09
  33  0.750  0.750  0.451-  48 2.09  55 2.09  63 2.09  64 2.09  65 2.09  69 2.09
  34  0.000  0.500  0.451-  47 2.09  56 2.09  63 2.09  64 2.09  66 2.09  70 2.10
  35  0.749  0.500  0.550-  54 2.08  61 2.09  69 2.09  70 2.10  63 2.10  67 2.12
  36  1.000  0.750  0.550-  69 2.08  70 2.09  53 2.09  62 2.09  64 2.10  68 2.12
  37  0.750  0.751  0.647-  69 2.08  59 2.08  68 2.09  52 2.09  67 2.09
  38  0.998  0.500  0.647-  67 2.05  51 2.07  70 2.08  60 2.09  68 2.09
  39  0.250  0.000  0.451-   9 2.09  10 2.09  17 2.09  26 2.09   7 2.09  11 2.09
  40  0.500  0.250  0.451-   9 2.09  10 2.09  18 2.09  25 2.09   8 2.09  12 2.11
  41  0.250  0.250  0.353-   7 2.09   8 2.09  15 2.09  24 2.09   9 2.09
  42  0.500  0.000  0.353-   7 2.09   8 2.09  16 2.09  23 2.09  10 2.09
  43  0.250  1.000  0.649-  21 2.06  13 2.07  30 2.09  14 2.09  11 2.12
  44  0.500  0.248  0.648-  14 2.07  13 2.09  12 2.09  29 2.09  22 2.10
  45  0.250  0.251  0.550-  13 2.07  19 2.08  28 2.09  11 2.09  12 2.09   9 2.10
  46  0.500  1.000  0.549-  14 2.08  11 2.08  10 2.09  27 2.09  20 2.09  12 2.10
  47  0.250  0.500  0.451-   9 2.09  17 2.09  18 2.09  34 2.09  15 2.09  19 2.11
  48  0.500  0.750  0.451-  10 2.09  17 2.09  18 2.09  33 2.09  16 2.09  20 2.11
  49  0.250  0.750  0.353-   7 2.09  15 2.09  16 2.09  32 2.09  17 2.09
  50  0.500  0.500  0.353-   8 2.09  15 2.09  16 2.09  31 2.09  18 2.09
  51  0.245  0.500  0.652-  38 2.07  21 2.11  13 2.12  19 2.17  22 2.18
  52  0.500  0.752  0.649-  14 2.08  21 2.09  37 2.09  20 2.11  22 2.11
  53  0.250  0.749  0.549-  21 2.06  19 2.08  36 2.09  20 2.09  11 2.09  17 2.10
  54  0.499  0.500  0.550-  19 2.07  20 2.08  12 2.08  35 2.08  18 2.11  22 2.17
  55  0.750  0.000  0.451-  10 2.09  25 2.09  26 2.09  33 2.09  23 2.09  27 2.09
  56  0.000  0.250  0.451-   9 2.09  25 2.09  26 2.09  34 2.09  24 2.09  28 2.10
  57  0.750  0.250  0.353-   8 2.09  23 2.09  24 2.09  31 2.09  25 2.09
  58  0.000  0.000  0.353-   7 2.09  23 2.09  24 2.09  32 2.09  26 2.09
  59  0.750  1.000  0.649-  37 2.08  30 2.08  29 2.08  14 2.09  27 2.12
  60  0.000  0.249  0.649-  30 2.08  29 2.09  13 2.09  38 2.09  28 2.12
  61  0.750  0.250  0.549-  28 2.08  29 2.08  35 2.09  27 2.09  12 2.09  25 2.09
  62  0.000  1.000  0.549-  30 2.08  11 2.09  36 2.09  28 2.09  27 2.09  26 2.09
  63  0.750  0.500  0.451-  18 2.09  25 2.09  33 2.09  34 2.09  31 2.09  35 2.10
  64  0.000  0.750  0.451-  17 2.09  26 2.09  33 2.09  34 2.09  32 2.09  36 2.10
  65  0.750  0.750  0.353-  16 2.09  23 2.09  31 2.09  32 2.09  33 2.09
  66  0.000  0.500  0.353-  15 2.09  24 2.09  31 2.09  32 2.09  34 2.09
  67  0.752  0.500  0.649-  38 2.05  22 2.05  37 2.09  29 2.10  35 2.12
  68  1.000  0.751  0.649-  30 2.08  21 2.08  37 2.09  38 2.09  36 2.12
  69  0.750  0.750  0.549-  37 2.08  36 2.08  20 2.09  35 2.09  27 2.09  33 2.09
  70  0.001  0.500  0.549-  38 2.08  36 2.09  28 2.09  19 2.09  34 2.10  35 2.10

IMPORTANT INFORMATION: All symmetrisations will be switched off!
NOSYMM: (Re-)initialisation of all symmetry stuff for point group C_1.

                                     Primitive cell

  volume of cell :    1482.1129

  direct lattice vectors                    reciprocal lattice vectors
     8.349111827  0.000000000  0.000000000     0.119773219  0.000000000  0.000000000
     0.000000000  8.349111827  0.000000000     0.000000000  0.119773219  0.000000000
     0.000000000  0.000000000 21.261833870     0.000000000  0.000000000  0.047032632

  length of vectors
     8.349111827  8.349111827 21.261833870     0.119773219  0.119773219  0.047032632

  position of ions in fractional coordinates (direct lattice)
     0.431292163  0.618754330  0.795133326
     0.422096156  0.492838203  0.750849130
     0.541107486  0.602866581  0.822153320
     0.322738588  0.500819286  0.724961872
     0.436247762  0.735894408  0.771986430
     0.329867477  0.615819502  0.827693236
     0.250000000  0.000000000  0.352744737
     0.500000000  0.250000000  0.352744737
     0.250000000  0.250000000  0.450914912
     0.500000000  0.000000000  0.450914912
     0.250227883  0.000187923  0.549322304
     0.500190670  0.250922993  0.549981269
     0.250170031  0.247307299  0.646969261
     0.500456821  0.000351607  0.646757370
     0.250000000  0.500000000  0.352744737
     0.500000000  0.750000000  0.352744737
     0.250000000  0.750000000  0.450914912
     0.500000000  0.500000000  0.450914912
     0.251008758  0.499803780  0.549970062
     0.500240848  0.748907207  0.550026247
     0.249454202  0.752708188  0.646202182
     0.506551502  0.498977220  0.652478451
     0.750000000  0.000000000  0.352744737
     0.000000000  0.250000000  0.352744737
     0.750000000  0.250000000  0.450914912
     0.000000000  0.000000000  0.450914912
     0.749762177  0.000067976  0.549447066
     0.999808952  0.250125476  0.549627130
     0.749837147  0.249030027  0.647240497
     0.999481469  0.000089173  0.647102148
     0.750000000  0.500000000  0.352744737
     0.000000000  0.750000000  0.352744737
     0.750000000  0.750000000  0.450914912
     0.000000000  0.500000000  0.450914912
     0.749139578  0.499867307  0.549871136
     0.999663208  0.749818477  0.549526307
     0.750171706  0.750844408  0.647018700
     0.997607772  0.499810301  0.647115235
     0.250000000  0.000000000  0.450914912
     0.500000000  0.250000000  0.450914912
     0.250000000  0.250000000  0.352744737
     0.500000000  0.000000000  0.352744737
     0.249619794  0.999762896  0.649259659
     0.499933278  0.248026973  0.648109944
     0.249591690  0.250592519  0.549539662
     0.499808641  0.999689109  0.549026183
     0.250000000  0.500000000  0.450914912
     0.500000000  0.750000000  0.450914912
     0.250000000  0.750000000  0.352744737
     0.500000000  0.500000000  0.352744737
     0.244978237  0.500317530  0.652008358
     0.499748173  0.751648347  0.649056826
     0.249703572  0.749376129  0.549452493
     0.499479801  0.500123746  0.550327091
     0.750000000  0.000000000  0.450914912
     0.000000000  0.250000000  0.450914912
     0.750000000  0.250000000  0.352744737
     0.000000000  0.000000000  0.352744737
     0.750277162  0.999813170  0.649344883
     0.000001646  0.249310822  0.649465781
     0.750424724  0.250030465  0.549292391
     0.000170891  0.999905781  0.549248207
     0.750000000  0.500000000  0.450914912
     0.000000000  0.750000000  0.450914912
     0.750000000  0.750000000  0.352744737
[...]
   0.00000000  0.00000000  9.58727796
   6.25984826  0.00056754 11.68225224
   8.34751674  2.08832557 11.68608072
   6.26047419  2.07917954 13.76151992
   8.34478255  0.00074452 13.75857837
   6.26183387  4.17455591  7.50000000
   0.00000000  6.26183387  7.50000000
   6.26183387  6.26183387  9.58727796
   0.00000000  4.17455591  9.58727796
   6.25465011  4.17344805 11.69126874
   8.34629991  6.26031832 11.68393704
   6.26326746  6.26888393 13.75680411
   8.32913885  4.17297209 13.75885662
   2.08727796  0.00000000  9.58727796
   4.17455591  2.08727796  9.58727796
   2.08727796  2.08727796  7.50000000
   4.17455591  0.00000000  7.50000000
   2.08410357  8.34713221 13.80445100
   4.17399885  2.07080493 13.78000596
   2.08386893  2.09222497 11.68422101
   4.17295824  8.34651616 11.67330349
   2.08727796  4.17455591  9.58727796
   4.17455591  6.26183387  9.58727796
   2.08727796  6.26183387  7.50000000
   4.17455591  4.17455591  7.50000000
   2.04535070  4.17720701 13.86289339
   4.17245339  6.27559610 13.80013840
   2.08480304  6.25662510 11.68236762
   4.17021271  4.17558909 11.70096318
   6.26183387  0.00000000  9.58727796
   0.00000000  2.08727796  9.58727796
   6.26183387  2.08727796  7.50000000
   0.00000000  0.00000000  7.50000000
   6.26414792  8.34755196 13.80626303
   0.00001374  2.08152393 13.80883353
   6.26537994  2.08753231 11.67896356
   0.00142679  8.34832518 11.67802414
   6.26183387  4.17455591  9.58727796
   0.00000000  6.26183387  9.58727796
   6.26183387  6.26183387  7.50000000
   0.00000000  4.17455591  7.50000000
   6.27986657  4.17550324 13.80870372
   8.34903065  6.26694656 13.80858972
   6.26377161  6.26101207 11.67981600
   0.00446698  4.17487960 11.68332111

--------------------------------------- Iteration      FINAL  ---------------------------------------

--------------------OUTCAR has been truncated-------------------------

[...]

--------------------OUTCAR has been truncated-------------------------

  FORCE on cell =-STRESS in cart. coord.  units (eV):
  Direction    XX          YY          ZZ          XY          YZ          ZX
  Alpha Z   942.23310   942.23310   942.23310
  Ewald  163044.95126163100.32013************    13.05928   138.58062    35.81706
  Hartree173348.99316173405.21526************     8.57507    79.05445     6.92499
  E(xc)   -2518.11356 -2518.40287 -2518.32860    -0.02569    -0.01219     0.22240
  Local  ************************346176.47623   -21.88254  -207.87586   -32.77441
  n-local -2872.16012 -2870.53696 -2890.11915     0.32284     1.88482    -0.20948
  augment  1057.98295  1058.20786  1048.51891     0.01185    -0.83112    -0.62822
  Kinetic  7559.61275  7564.14923  7591.97853    -0.09759   -10.53261    -9.01397
  Fock        0.00000     0.00000     0.00000     0.00000     0.00000     0.00000
  Total      -8.10140    -8.45963    12.59510    -0.03679     0.26812     0.33837
  in kB      -8.75769    -9.14493    13.61541    -0.03977     0.28984     0.36578

 VOLUME and BASIS-vectors are now :
  energy-cutoff  :      600.00
  volume of cell :     1482.11
      direct lattice vectors                 reciprocal lattice vectors
     8.349111827  0.000000000  0.000000000     0.119773219  0.000000000  0.000000000
     0.000000000  8.349111827  0.000000000     0.000000000  0.119773219  0.000000000
     0.000000000  0.000000000 21.261833870     0.000000000  0.000000000  0.047032632

  length of vectors
     8.349111827  8.349111827 21.261833870     0.119773219  0.119773219  0.047032632

 FORCES acting on ions:
    Electron-Ion                     Ewald-Force                    Non-Local-Force
   -.852E+01 -.935E+02 -.105E+04   0.900E+01 0.983E+02 0.105E+04   -.480E+00 -.463E+01 -.387E+01
   -.236E+02 0.136E+03 -.165E+04   0.481E+02 -.168E+03 0.164E+04   -.240E+02 0.313E+02 0.215E+01
   -.522E+02 -.137E+01 -.251E+03   0.574E+02 0.640E+00 0.254E+03   -.492E+01 0.696E+00 -.310E+01
   0.716E+02 0.420E+01 -.261E+03   -.783E+02 -.392E+01 0.256E+03   0.612E+01 -.248E+00 0.410E+01
   -.318E+01 -.622E+02 -.246E+03   0.349E+01 0.676E+02 0.243E+03   -.294E+00 -.512E+01 0.258E+01
   0.457E+02 -.719E+01 -.250E+03   -.504E+02 0.707E+01 0.254E+03   0.442E+01 0.113E+00 -.368E+01
   0.136E+00 -.976E-01 0.215E+04   -.132E+00 0.988E-01 -.214E+04   -.277E-02 -.904E-03 -.681E+01
   -.703E-01 -.340E-01 0.215E+04   0.729E-01 0.408E-01 -.214E+04   -.185E-02 -.551E-02 -.685E+01
   0.401E+00 0.399E-01 0.754E+03   -.389E+00 0.458E-01 -.754E+03   -.647E-02 -.625E-01 0.545E+00
   -.457E+00 -.418E+00 0.755E+03   0.494E+00 0.394E+00 -.756E+03   -.265E-01 0.178E-01 0.251E+00
   0.488E+01 -.185E+01 -.627E+03   -.480E+01 0.191E+01 0.627E+03   -.794E-01 -.568E-01 -.465E-01
   -.190E+01 0.466E+01 -.622E+03   0.196E+01 -.441E+01 0.623E+03   -.628E-01 -.261E+00 -.109E+01
   0.288E+02 0.321E+02 -.200E+04   -.287E+02 -.332E+02 0.199E+04   -.471E-01 0.111E+01 0.597E+01
   -.858E+01 -.911E+01 -.202E+04   0.875E+01 0.929E+01 0.201E+04   -.172E+00 -.187E+00 0.583E+01
   0.108E+00 0.982E-01 0.215E+04   -.987E-01 -.993E-01 -.214E+04   -.692E-02 0.916E-03 -.685E+01
   -.824E-01 0.331E-01 0.215E+04   0.854E-01 -.404E-01 -.214E+04   -.221E-02 0.586E-02 -.686E+01
   0.387E+00 -.561E-01 0.755E+03   -.344E+00 -.287E-01 -.755E+03   -.300E-01 0.622E-01 0.538E+00
   -.467E+00 0.399E+00 0.753E+03   0.436E+00 -.384E+00 -.753E+03   0.238E-01 -.117E-01 0.646E+00
   0.499E+01 0.194E+01 -.630E+03   -.472E+01 -.199E+01 0.630E+03   -.274E+00 0.548E-01 0.957E+00
   -.246E+01 -.464E+01 -.622E+03   0.255E+01 0.438E+01 0.623E+03   -.901E-01 0.268E+00 -.662E+00
   0.344E+02 -.331E+02 -.197E+04   -.346E+02 0.342E+02 0.196E+04   0.151E+00 -.109E+01 0.602E+01
   -.401E+02 0.124E+02 -.191E+04   0.422E+02 -.126E+02 0.190E+04   -.204E+01 0.155E+00 0.250E+01
   -.135E+00 -.862E-01 0.215E+04   0.131E+00 0.867E-01 -.214E+04   0.280E-02 -.352E-03 -.684E+01
   0.697E-01 -.564E-02 0.215E+04   -.723E-01 0.758E-02 -.214E+04   0.181E-02 -.144E-02 -.684E+01
   -.388E+00 -.272E-01 0.754E+03   0.377E+00 0.335E-01 -.754E+03   0.600E-02 -.343E-02 0.403E+00
   0.441E+00 -.422E+00 0.753E+03   -.479E+00 0.436E+00 -.753E+03   0.270E-01 -.968E-02 0.411E+00
   -.479E+01 -.132E+01 -.634E+03   0.471E+01 0.135E+01 0.634E+03   0.770E-01 -.295E-01 -.826E-01
   0.188E+01 0.347E+01 -.635E+03   -.195E+01 -.343E+01 0.636E+03   0.709E-01 -.441E-01 -.179E+00
   -.249E+02 0.209E+02 -.203E+04   0.248E+02 -.212E+02 0.202E+04   0.665E-01 0.334E+00 0.587E+01
   0.736E+01 -.456E+01 -.204E+04   -.753E+01 0.461E+01 0.203E+04   0.168E+00 -.461E-01 0.578E+01
   -.106E+00 0.862E-01 0.215E+04   0.978E-01 -.868E-01 -.214E+04   0.675E-02 0.475E-03 -.684E+01
   0.811E-01 0.515E-02 0.215E+04   -.844E-01 -.723E-02 -.214E+04   0.243E-02 0.156E-02 -.683E+01
   -.374E+00 0.177E-01 0.754E+03   0.326E+00 -.260E-01 -.755E+03   0.328E-01 0.488E-02 0.439E+00
   0.455E+00 0.422E+00 0.753E+03   -.420E+00 -.438E+00 -.753E+03   -.260E-01 0.113E-01 0.467E+00
   -.592E+01 0.136E+01 -.627E+03   0.568E+01 -.139E+01 0.627E+03   0.240E+00 0.283E-01 -.347E+00
   0.240E+01 -.348E+01 -.632E+03   -.250E+01 0.344E+01 0.632E+03   0.100E+00 0.440E-01 -.111E+00
   -.293E+02 -.215E+02 -.201E+04   0.294E+02 0.219E+02 0.201E+04   -.821E-01 -.318E+00 0.586E+01
   0.163E+02 0.487E+01 -.201E+04   -.168E+02 -.492E+01 0.201E+04   0.471E+00 0.494E-01 0.567E+01
   0.603E+00 -.281E+00 0.566E+03   -.578E+00 0.275E+00 -.566E+03   -.363E-01 0.720E-02 0.441E-01
   -.136E+00 -.655E-01 0.565E+03   0.153E+00 0.416E-02 -.564E+03   -.247E-01 0.832E-01 -.155E+00
   0.880E-01 -.145E-01 0.161E+04   -.838E-01 0.229E-01 -.162E+04   -.589E-02 -.119E-01 0.359E+01
   -.612E-01 -.685E-01 0.161E+04   0.675E-01 0.675E-01 -.162E+04   -.880E-02 0.149E-02 0.358E+01
   0.125E+02 -.712E+01 -.154E+04   -.124E+02 0.716E+01 0.155E+04   -.111E+00 -.394E-01 -.527E+01
   -.115E+02 0.352E+02 -.150E+04   0.115E+02 -.347E+02 0.151E+04   0.782E-01 -.462E+00 -.541E+01
   0.373E+01 0.270E+01 -.465E+03   -.364E+01 -.278E+01 0.464E+03   -.834E-01 0.808E-01 0.490E+00
   -.192E+01 -.123E+01 -.462E+03   0.195E+01 0.125E+01 0.462E+03   -.293E-01 -.266E-01 0.275E+00
   0.456E+00 0.289E+00 0.565E+03   -.497E+00 -.284E+00 -.565E+03   0.530E-01 -.609E-02 -.126E+00
   -.211E+00 0.553E-01 0.565E+03   0.223E+00 0.171E-01 -.565E+03   -.181E-01 -.983E-01 -.183E+00
   0.854E-01 0.140E-01 0.161E+04   -.777E-01 -.225E-01 -.162E+04   -.109E-01 0.120E-01 0.359E+01
   -.601E-01 0.692E-01 0.161E+04   0.590E-01 -.677E-01 -.162E+04   0.171E-02 -.212E-02 0.357E+01
   0.479E+02 0.823E+01 -.147E+04   -.478E+02 -.827E+01 0.147E+04   -.116E+00 0.411E-01 -.189E+01
   -.154E+02 -.372E+02 -.148E+04   0.153E+02 0.367E+02 0.149E+04   0.757E-01 0.476E+00 -.511E+01
   0.378E+01 -.274E+01 -.459E+03   -.371E+01 0.282E+01 0.458E+03   -.683E-01 -.782E-01 0.734E+00
   -.713E+00 0.127E+01 -.473E+03   0.757E+00 -.130E+01 0.473E+03   -.419E-01 0.315E-01 -.886E+00
   -.594E+00 -.217E+00 0.565E+03   0.570E+00 0.221E+00 -.565E+03   0.353E-01 -.560E-02 -.568E-01
   0.128E+00 0.564E-01 0.564E+03   -.145E+00 -.555E-01 -.564E+03   0.256E-01 -.624E-03 -.882E-01
   -.876E-01 -.135E-01 0.161E+04   0.833E-01 0.144E-01 -.162E+04   0.594E-02 -.132E-02 0.358E+01
   0.607E-01 -.715E-01 0.161E+04   -.670E-01 0.737E-01 -.162E+04   0.877E-02 -.313E-02 0.359E+01
   -.116E+02 -.460E+01 -.155E+04   0.115E+02 0.461E+01 0.156E+04   0.102E+00 -.145E-01 -.522E+01
   0.852E+01 0.114E+02 -.155E+04   -.846E+01 -.111E+02 0.155E+04   -.511E-01 -.213E+00 -.523E+01
   -.369E+01 0.302E+01 -.467E+03   0.360E+01 -.303E+01 0.467E+03   0.906E-01 0.766E-02 0.259E+00
   0.183E+01 -.116E+01 -.472E+03   -.186E+01 0.117E+01 0.472E+03   0.244E-01 -.955E-02 0.252E+00
   -.434E+00 0.213E+00 0.564E+03   0.470E+00 -.214E+00 -.564E+03   -.465E-01 0.217E-02 -.846E-01
   0.191E+00 -.646E-01 0.565E+03   -.197E+00 0.668E-01 -.565E+03   0.108E-01 -.344E-02 -.467E-01
   -.845E-01 0.134E-01 0.161E+04   0.769E-01 -.143E-01 -.162E+04   0.106E-01 0.126E-02 0.358E+01
   0.593E-01 0.718E-01 0.161E+04   -.583E-01 -.740E-01 -.162E+04   -.152E-02 0.297E-02 0.359E+01
   -.341E+02 0.498E+01 -.152E+04   0.342E+02 -.500E+01 0.153E+04   -.497E-01 0.200E-01 -.506E+01
   0.109E+02 -.116E+02 -.154E+04   -.108E+02 0.114E+02 0.155E+04   -.104E-01 0.220E+00 -.524E+01
   -.374E+01 -.305E+01 -.465E+03   0.366E+01 0.306E+01 0.465E+03   0.753E-01 -.923E-02 0.357E+00
   0.140E+01 0.118E+01 -.467E+03   -.144E+01 -.119E+01 0.466E+03   0.345E-01 0.116E-01 0.420E+00
   0.207E+02 -.222E+02 0.195E+02   -.926E-13 0.462E-13 -.176E-11   -.207E+02 0.222E+02 -.195E+02

 POSITION                                       TOTAL-FORCE (eV/Angst)
      3.60091      5.16605     16.90599         0.006561      0.178248      0.196367
      3.52413      4.11476     15.96443         0.488784     -0.467633     -0.013193
      4.51777      5.03340     17.48049         0.252596     -0.034910      0.156126
      2.69458      4.18140     15.41402        -0.512969      0.035431     -0.241739
      3.64228      6.14406     16.41385         0.010332      0.296100     -0.130965
      2.75410      5.14155     17.59828        -0.229801     -0.001910      0.196580
      2.08728      0.00000      7.50000         0.001129      0.000267      0.154416
      4.17456      2.08728      7.50000         0.000746      0.001223      0.162740
      2.08728      2.08728      9.58728         0.005081      0.022929      0.040528
      4.17456      0.00000      9.58728         0.010274     -0.006303      0.054690
      2.08918      0.00157     11.67960         0.000960     -0.000675      0.021535
      4.17615      2.09498     11.69361        -0.001206     -0.004553      0.010567
      2.08870      2.06480     13.75575        -0.001833      0.004895      0.212184
      4.17837      0.00294     13.75125        -0.001892     -0.002096      0.220070
      2.08728      4.17456      7.50000         0.001990     -0.000155      0.162618
      4.17456      6.26183      7.50000         0.000828     -0.001394      0.165080
      2.08728      6.26183      9.58728         0.013172     -0.022266      0.036521
      4.17456      4.17456      9.58728        -0.006996      0.003213      0.082716
      2.09570      4.17292     11.69337        -0.001531      0.001416      0.033850
      4.17657      6.25271     11.69457        -0.001304      0.005027      0.017899
      2.08272      6.28444     13.73944         0.002327     -0.004835      0.205975
      4.22926      4.16602     13.87289        -0.004630      0.002825      0.159844
      6.26183      0.00000      7.50000        -0.001095      0.000152      0.162022
      0.00000      2.08728      7.50000        -0.000704      0.000531      0.160914
      6.26183      2.08728      9.58728        -0.005070      0.002829      0.042864
      0.00000      0.00000      9.58728        -0.010293      0.003814      0.028946
      6.25985      0.00057     11.68225        -0.002451     -0.000705      0.021854
      8.34752      2.08833     11.68608         0.000695      0.000408      0.018336
      6.26047      2.07918     13.76152        -0.000166      0.000121      0.218879
      8.34478      0.00074     13.75858         0.000616      0.000900      0.223207
      6.26183      4.17456      7.50000        -0.001885     -0.000092      0.159574
      0.00000      6.26183      7.50000        -0.000798     -0.000503      0.158401
      6.26183      6.26183      9.58728        -0.015009     -0.003330      0.039578
      0.00000      4.17456      9.58728         0.008892     -0.004615      0.061435
      6.25465      4.17345     11.69127         0.002766      0.000672      0.017976
      8.34630      6.26032     11.68394         0.000905     -0.000249      0.017880
      6.26327      6.26888     13.75680        -0.002254      0.000733      0.216288
      8.32914      4.17297     13.75886         0.001667     -0.000661      0.214799
      2.08728      0.00000      9.58728        -0.011499      0.001214      0.066582
      4.17456      2.08728      9.58728        -0.008461      0.021920      0.082176
      2.08728      2.08728      7.50000        -0.001630     -0.003424     -0.549825
      4.17456      0.00000      7.50000        -0.002455      0.000457     -0.551888
      2.08410      8.34713     13.80445        -0.000939      0.001827      0.035102
      4.17400      2.07080     13.78001        -0.005175      0.016647      0.042928
      2.08387      2.09222     11.68422        -0.000627     -0.002385     -0.010135
      4.17296      8.34652     11.67330         0.000922      0.001700     -0.011950
      2.08728      4.17456      9.58728         0.012001     -0.000980      0.087016
      4.17456      6.26183      9.58728        -0.006682     -0.025824      0.077516
      2.08728      6.26183      7.50000        -0.003074      0.003488     -0.549434
      4.17456      4.17456      7.50000         0.000577     -0.000620     -0.554353
      2.04535      4.17721     13.86289         0.003228     -0.000753     -0.044400
      4.17245      6.27560     13.80014        -0.004848     -0.019264      0.035690
      2.08480      6.25663     11.68237        -0.002289      0.003346     -0.015121
      4.17021      4.17559     11.70096         0.001908     -0.002065      0.009978
      6.26183      0.00000      9.58728         0.011195     -0.002077      0.049274
      0.00000      2.08728      9.58728         0.008909      0.000314      0.060255
      6.26183      2.08728      7.50000         0.001701     -0.000379     -0.551868
      0.00000      0.00000      7.50000         0.002504     -0.000873     -0.549066
      6.26415      8.34755     13.80626         0.001942      0.001430      0.036646
      0.00001      2.08152     13.80883         0.000889      0.004661      0.038402
      6.26538      2.08753     11.67896         0.000398     -0.000399     -0.006519
      0.00143      8.34833     11.67802        -0.000995      0.000222     -0.004948
      6.26183      4.17456      9.58728        -0.010706      0.001260      0.091215
      0.00000      6.26183      9.58728         0.005139     -0.001278      0.061449
      6.26183      6.26183      7.50000         0.003064      0.000402     -0.551649
      0.00000      4.17456      7.50000        -0.000439      0.000863     -0.549933
      6.27987      4.17550     13.80870        -0.002623     -0.000661      0.039600
      8.34903      6.26695     13.80859         0.000586     -0.004404      0.039846
      6.26377      6.26101     11.67982         0.002178      0.000711     -0.009193
      0.00447      4.17488     11.68332        -0.003133      0.000075     -0.010759
    total drift:                               -0.002091     -0.001336      0.012075

  FREE ENERGIE OF THE ION-ELECTRON SYSTEM (eV)
  free  energy   TOTEN  =      -293.04476517 eV

  energy  without entropy=     -293.04476517  energy(sigma->0) =     -293.04476517