 vasp.6.3.0 20Jan22 (build Mar 11 2022 13:48:16) complex

 executed on             LinuxIFC date 2023.12.29  10:25:41

 INCAR:
   SYSTEM = TiO2
   ISMEAR = 0
   SIGMA = 0.05
   EDIFF = 1E-7
   ALGO = ALL
   ISTART = 0
   IBRION = 2
   NSW = 1000
   ISYM = 0
   ISIF = 2
   EDIFFG = -0.01
   DIPOL = 0.5 0.5 0.5
   IDIPOL = 3
   LDIPOL = .TRUE.
   LHFCALC = .TRUE.
   HFSCREEN = 0.2
   GGA = PE
   IVDW = 13
   VDW_S8 = 1.19528249
   VDW_A1 = 0.38663183
   VDW_A2 = 5.19133469
   ENCUT = 520
   PREC = Normal
   PRECFOCK = Fast
   LASPH = .TRUE.
   LREAL = .FALSE.
   ISPIN = 1
   NKREDX = 3
   NKREDY = 3
   NELM = 200
   NELMIN = 8
   NCORE = 19
   KPAR = 1
   LWAVE = .FALSE.
   LCHARG = .FALSE.

 POTCAR:    PAW_PBE H 15Jun2001
 POTCAR:    PAW_PBE O 08Apr2002
 POTCAR:    PAW_PBE Ti 08Apr2002
 POTCAR:    PAW_PBE O 08Apr2002
 POTCAR:    PAW_PBE H 15Jun2001
   VRHFIN =H: ultrasoft test

   TITEL  = PAW_PBE H 15Jun2001
   POMASS =    1.000; ZVAL   =    1.000    mass and valenz
   ENMAX  =  250.000; ENMIN  =  200.000 eV

   TITEL  = PAW_PBE O 08Apr2002
   POMASS =   16.000; ZVAL   =    6.000    mass and valenz
   ENMAX  =  400.000; ENMIN  =  300.000 eV

[...]

   TITEL  = PAW_PBE O 08Apr2002
   POMASS =   16.000; ZVAL   =    6.000    mass and valenz
   ENMAX  =  400.000; ENMIN  =  300.000 eV

  PAW_PBE H 15Jun2001                   :
  PAW_PBE O 08Apr2002                   :
  PAW_PBE Ti 08Apr2002                  :
  PAW_PBE O 08Apr2002                   :

 POSCAR:  H  O Ti  O
  positions in direct lattice
  velocities in cartesian coordinates
|           W    W    AA    RRRRR   N    N  II  N    N   GGGG   !!!           |
|           W    W   A  A   R    R  NN   N  II  NN   N  G    G  !!!           |
|           W    W  A    A  R    R  N N  N  II  N N  N  G       !!!           |
|           W WW W  AAAAAA  RRRRR   N  N N  II  N  N N  G  GGG   !            |
|           WW  WW  A    A  R   R   N   NN  II  N   NN  G    G                |
|           W    W  A    A  R    R  N    N  II  N    N   GGGG   !!!           |
|     Specifying the vdW parameters                                           |
|     VDW_S8 = 1.195                                                          |
|     VDW_A1 = 0.387                                                          |
|     VDW_A2 = 5.191                                                          |
|     in the INCAR file will overwrite the defaults for hse06. Please         |
|     make sure that is what you intended.                                    |

 ion  position               nearest neighbor table
   1  0.683  0.568  0.806-   3 0.97
   2  0.683  0.432  0.806-   3 0.97
   3  0.625  0.500  0.806-   1 0.97   2 0.97  51 2.23
   4  0.809  0.833  0.271-  54 1.93  88 1.93  56 1.93  55 1.97  53 1.97  21 3.04   7 3.04   5 3.04

   5  0.593  0.667  0.306-  52 1.93 119 1.93  57 1.93  55 1.93  58 1.97  56 1.97  36 3.04   6 3.04
                             4 3.04  10 3.06
   6  0.309  0.667  0.271-  58 1.93 124 1.93  60 1.93  59 1.97  52 1.97  39 3.04   5 3.04   7 3.04

   7  0.093  0.833  0.306-  53 1.93  91 1.93  61 1.93  59 1.93  54 1.97  60 1.97  22 3.04   4 3.04
                             6 3.04   8 3.06
   8  0.946  0.833  0.413-  62 1.92  96 1.93  64 1.93  63 1.97  54 1.97  61 1.97  11 2.99   9 3.03
                            25 3.03   7 3.06
   9  0.728  0.666  0.445-  57 1.89 127 1.93  63 1.93  65 1.94  66 1.97  64 1.98  10 3.00   8 3.03
                            40 3.04  14 3.08
  10  0.445  0.666  0.413-  66 1.92 132 1.92  68 1.93  58 1.96  67 1.97  57 1.98   9 3.00  11 3.04
                            43 3.04   5 3.06
  11  0.227  0.833  0.446-  61 1.90  99 1.93  67 1.93  69 1.96  62 1.96  68 1.98   8 2.99  26 3.04
                            10 3.04  12 3.08
  12  0.087  0.834  0.556-  70 1.92 104 1.92  72 1.93  71 1.96  69 1.98  62 1.99  15 2.94  13 3.03
                            29 3.03  11 3.08
  13  0.867  0.666  0.584-  65 1.87 135 1.92  71 1.93  74 1.94  72 1.98  73 1.98  14 2.97  12 3.03
                            44 3.04  18 3.14
  14  0.586  0.667  0.555- 140 1.92  74 1.92  76 1.93  66 1.96  75 1.96  65 1.99  13 2.97  15 3.04
                            47 3.04   9 3.08
  15  0.366  0.833  0.586-  69 1.87 107 1.93  75 1.93  70 1.94  77 1.98  76 1.99  12 2.94  30 3.04
                            14 3.04
  16  0.232  0.833  0.701-  78 1.85  80 1.92 112 1.93  79 1.99  77 2.06  70 2.07  19 2.85  33 3.06
                            17 3.07
  17  0.002  0.666  0.723-  73 1.79  81 1.84 143 1.96  79 1.97  80 2.02  18 2.86  16 3.07  48 3.08

[...]

  20  0.809  0.167  0.271-  86 1.93  88 1.93 120 1.93  87 1.97  85 1.97  21 3.04  23 3.04  37 3.04

[...]

  36  0.809  0.500  0.271- 118 1.93  56 1.93 120 1.93 119 1.97 117 1.97  37 3.04   5 3.04  39 3.04

  37  0.593  0.333  0.306- 116 1.93 119 1.93 121 1.93  87 1.93 120 1.97 122 1.97  36 3.04  38 3.04
                            20 3.04  42 3.06
  38  0.309  0.333  0.271- 122 1.93 124 1.93  92 1.93 123 1.97 116 1.97  39 3.04  37 3.04  23 3.04

  39  0.093  0.500  0.306- 117 1.93  59 1.93 123 1.93 125 1.93 124 1.97 118 1.97   6 3.04  38 3.04
                            36 3.04  40 3.05
  40  0.947  0.500  0.413- 126 1.92 128 1.93  64 1.93 125 1.96 118 1.96 127 1.97  43 2.99   9 3.04
                            41 3.04  39 3.05
  41  0.728  0.334  0.445- 121 1.89 127 1.93  95 1.93 129 1.94 130 1.97 128 1.98  42 3.00  24 3.03
                            40 3.04  46 3.08
  42  0.445  0.334  0.413- 130 1.92 132 1.92 100 1.93 122 1.96 131 1.97 121 1.98  41 3.00  27 3.04
                            43 3.04  37 3.06
  43  0.227  0.500  0.447- 125 1.92 131 1.93  67 1.93 126 1.95 133 1.96 132 1.99  40 2.99  42 3.04
                            10 3.04  44 3.05
  44  0.090  0.500  0.556- 134 1.92 136 1.93  72 1.93 133 1.96 135 1.98 126 1.99  47 2.96  13 3.04
                            45 3.04  43 3.05
  45  0.867  0.334  0.584- 129 1.87 135 1.92 103 1.93 138 1.94 136 1.98 137 1.98  46 2.97  28 3.03
                            44 3.04  50 3.14
  46  0.586  0.333  0.555- 140 1.92 138 1.92 108 1.93 130 1.96 139 1.96 129 1.99  45 2.97  31 3.04
                            47 3.04  41 3.08
  47  0.367  0.500  0.589- 133 1.91 139 1.93  75 1.93 134 1.93 141 1.97 140 2.00  44 2.96  46 3.04
                            14 3.04  48 3.12
  48  0.235  0.500  0.702- 142 1.85 144 1.93  80 1.93 141 2.01 143 2.02 134 2.07  51 2.87  17 3.08
                            49 3.08  47 3.12
  49  0.002  0.334  0.723- 137 1.79 145 1.84 143 1.96 111 1.97 144 2.02  50 2.86  32 3.07  48 3.08

  50  0.730  0.334  0.697- 145 1.88 147 1.92 115 1.94 146 1.98 138 2.01 137 2.05  49 2.86  35 3.06
                            51 3.07  45 3.14
  51  0.507  0.500  0.730- 142 1.82 141 1.87 146 1.97  82 1.97 147 2.06   3 2.23  48 2.87  50 3.07
                            18 3.07
  52  0.489  0.667  0.242-   5 1.93   6 1.97
  53  0.989  0.833  0.242-   7 1.93   4 1.97
  54  0.914  0.833  0.335-   4 1.93   8 1.97   7 1.97
  55  0.630  0.833  0.300-  21 1.93   5 1.93   4 1.97
  56  0.772  0.667  0.277-  36 1.93   4 1.93   5 1.97
  57  0.624  0.667  0.383-   9 1.89   5 1.93  10 1.98
  58  0.414  0.667  0.335-   6 1.93  10 1.96   5 1.97
  59  0.130  0.667  0.300-  39 1.93   7 1.93   6 1.97
  60  0.272  0.833  0.277-  22 1.93   6 1.93   7 1.97
  61  0.124  0.833  0.383-  11 1.90   7 1.93   8 1.97
  62  0.051  0.833  0.477-   8 1.92  11 1.96  12 1.99
  63  0.766  0.833  0.441-  25 1.93   9 1.93   8 1.97
  64  0.909  0.667  0.418-  40 1.93   8 1.93   9 1.98
  65  0.763  0.666  0.522-  13 1.87   9 1.94  14 1.99
  66  0.551  0.666  0.477-  10 1.92  14 1.96   9 1.97
  67  0.266  0.667  0.441-  43 1.93  11 1.93  10 1.97
  68  0.409  0.833  0.418-  10 1.93  26 1.93  11 1.98
  69  0.263  0.833  0.523-  15 1.87  11 1.96  12 1.98
  70  0.194  0.833  0.619-  12 1.92  15 1.94  16 2.07
  71  0.905  0.833  0.581-  29 1.93  13 1.93  12 1.96
  72  0.051  0.667  0.560-  44 1.93  12 1.93  13 1.98
  73  0.911  0.668  0.662-  17 1.79  13 1.98  18 2.05
  74  0.695  0.669  0.618-  14 1.92  13 1.94  18 2.01
  75  0.406  0.667  0.583-  47 1.93  15 1.93  14 1.96
  76  0.549  0.833  0.559-  30 1.93  14 1.93  15 1.99
  77  0.410  0.834  0.663-  19 1.79  15 1.98  16 2.06
  78  0.348  0.833  0.759-  19 1.83  16 1.85
  79  0.052  0.833  0.732-  33 1.97  17 1.97  16 1.99
  80  0.193  0.666  0.703-  16 1.92  48 1.93  17 2.02
  81  0.843  0.661  0.757-  17 1.84  18 1.88
  82  0.555  0.668  0.732-  19 1.96  51 1.97  18 1.98
  83  0.694  0.834  0.700-  34 1.92  18 1.94  19 2.02
  84  0.489  0.000  0.242-  21 1.93  22 1.97
  85  0.989  0.167  0.242-  23 1.93  20 1.97
  86  0.914  0.167  0.335-  20 1.93  24 1.97  23 1.97
  87  0.630  0.167  0.300-  21 1.93  37 1.93  20 1.97
  88  0.772  0.000  0.277-   4 1.93  20 1.93  21 1.97
  89  0.624  0.000  0.383-  25 1.89  21 1.93  26 1.98
  90  0.414  0.000  0.335-  22 1.93  26 1.96  21 1.97
  91  0.130  0.000  0.300-   7 1.93  23 1.93  22 1.97
  92  0.272  0.167  0.277-  22 1.93  38 1.93  23 1.97
  93  0.124  0.167  0.383-  27 1.90  23 1.93  24 1.97
  94  0.051  0.167  0.477-  24 1.92  27 1.96  28 1.99
  95  0.766  0.167  0.441-  25 1.93  41 1.93  24 1.97
  96  0.909  1.000  0.418-   8 1.93  24 1.93  25 1.98
  97  0.763  0.000  0.523-  29 1.87  25 1.95  30 1.98
  98  0.551  0.000  0.477-  26 1.92  25 1.97  30 1.98
  99  0.266  1.000  0.441-  11 1.93  27 1.93  26 1.97
 100  0.409  0.167  0.418-  42 1.93  26 1.93  27 1.98
 101  0.263  0.167  0.523-  31 1.87  27 1.96  28 1.98
 102  0.194  0.167  0.619-  28 1.92  31 1.94  32 2.07
 103  0.905  0.167  0.581-  29 1.93  45 1.93  28 1.96
 104  0.051  1.000  0.560-  12 1.92  28 1.92  29 1.99
 105  0.911  1.000  0.662-  33 1.79  29 1.98  34 2.05
 106  0.695  0.000  0.618-  30 1.92  29 1.94  34 2.07
 107  0.405  0.000  0.582-  15 1.93  31 1.93  30 1.97
 108  0.549  0.167  0.559-  30 1.93  46 1.93  31 1.99
 109  0.410  0.166  0.663-  35 1.79  31 1.98  32 2.06
 110  0.348  0.167  0.759-  35 1.83  32 1.85
 111  0.052  0.167  0.732-  33 1.97  49 1.97  32 1.99
[...]
 133  0.265  0.500  0.524-  47 1.91  44 1.96  43 1.96
 134  0.195  0.500  0.620-  44 1.92  47 1.93  48 2.07
 135  0.906  0.500  0.581-  13 1.92  45 1.92  44 1.98
 136  0.051  0.333  0.560-  44 1.93  28 1.93  45 1.98
 137  0.911  0.332  0.662-  49 1.79  45 1.98  50 2.05
 138  0.695  0.331  0.618-  46 1.92  45 1.94  50 2.01
 139  0.406  0.333  0.583-  47 1.93  31 1.93  46 1.96
 140  0.550  0.500  0.560-  14 1.92  46 1.92  47 2.00
 141  0.412  0.500  0.666-  51 1.87  47 1.97  48 2.01
 142  0.345  0.500  0.761-  51 1.82  48 1.85
 143  0.052  0.500  0.732-  17 1.96  49 1.96  48 2.02
 144  0.193  0.334  0.703-  32 1.92  48 1.93  49 2.02
 145  0.843  0.339  0.757-  49 1.84  50 1.88
 146  0.555  0.332  0.732-  35 1.96  51 1.97  50 1.98
 147  0.691  0.500  0.696-  18 1.92  50 1.92  51 2.06

IMPORTANT INFORMATION: All symmetrisations will be switched off!
NOSYMM: (Re-)initialisation of all symmetry stuff for point group C_1.

                                     Primitive cell

  volume of cell :    2875.9226

  direct lattice vectors                    reciprocal lattice vectors
    10.237069764  0.000000000  0.000000000     0.097684203 -0.000000000  0.000000000
[...]
   1.97827023  3.77288217 17.45944336
   8.62491910  3.83332093 18.81506741
   5.68442824  3.75002827 18.18232681
   7.06962754  5.65417134 17.29854392

--------------------------------------- Iteration      FINAL  ---------------------------------------

--------------------OUTCAR has been truncated-------------------------

[...]

--------------------OUTCAR has been truncated-------------------------

  FORCE on cell =-STRESS in cart. coord.  units (eV):
  Direction    XX          YY          ZZ          XY          YZ          ZX
  Alpha Z  1748.58371  1748.58371  1748.58371
  Ewald  173036.46711171060.72381************    -0.00441    -0.00094  -665.54866
  Hartree184745.74293184062.52868************     0.00012     0.00049  -303.60688
  E(xc)   -2833.56174 -2824.73795 -2816.80126     0.00002    -0.00000    -1.24571
  Local  ************************360164.49487     0.00191    -0.00009   981.83044
  n-local -1755.77858 -1741.93119 -1787.75860     0.00032    -0.00002    -7.53369
  augment   810.57064   805.20309   809.07035     0.00004     0.00004    -1.40027
  Kinetic 14001.60822 14070.07481 14163.32458    -0.00016     0.00055   -13.92390
  Fock    -1307.61846 -1294.17358 -1292.62396     0.00010     0.00000     0.71274
  vdW       -27.63327   -29.02831   -24.20180     0.00000     0.00000    -0.21244
  Total     -52.11435   -17.96484   -13.22566    -0.00205     0.00002   -10.92837
  in kB     -29.03292   -10.00822    -7.36802    -0.00114     0.00001    -6.08820

 VOLUME and BASIS-vectors are now :
  energy-cutoff  :      520.00
  volume of cell :     2875.92
      direct lattice vectors                 reciprocal lattice vectors
    10.237069764  0.000000000  0.000000000     0.097684203 -0.000000000  0.000000000
     0.000000000 11.308341211  0.000000000     0.000000000  0.088430299  0.000000000
     0.000000000  0.000000000 24.842918924     0.000000000  0.000000000  0.040252919

  length of vectors
    10.237069764 11.308341211 24.842918924     0.097684203  0.088430299  0.040252919

 FORCES acting on ions:
    Electron-Ion                     Ewald-Force                    Non-Local-Force
   -.492E+02 -.677E+02 -.226E+03   0.544E+02 0.747E+02 0.226E+03   -.498E+01 -.670E+01 -.820E-01
   -.492E+02 0.677E+02 -.226E+03   0.544E+02 -.747E+02 0.226E+03   -.498E+01 0.671E+01 -.821E-01
   0.436E+02 -.818E-02 -.135E+04   -.858E+02 0.139E-01 0.135E+04   0.370E+02 -.198E-02 -.680E+01
   0.961E+01 -.949E-01 0.882E+03   -.665E+01 0.965E-01 -.880E+03   0.934E+00 0.657E-03 -.200E+01
   -.150E+01 -.952E-01 0.711E+03   0.466E+00 0.970E-01 -.712E+03   -.713E+00 -.130E-03 -.848E+00
   0.971E+01 -.394E-01 0.882E+03   -.677E+01 0.370E-01 -.879E+03   0.924E+00 -.556E-03 -.201E+01
   -.193E+01 -.353E-01 0.711E+03   0.870E+00 0.315E-01 -.712E+03   -.722E+00 -.731E-03 -.851E+00
   -.622E+00 -.929E-01 0.327E+03   0.492E+00 0.862E-01 -.327E+03   0.116E+00 0.181E-02 0.393E-01
   0.452E+00 -.785E+00 0.209E+03   -.326E+00 0.794E+00 -.208E+03   -.426E-01 0.110E-01 -.133E+00
   0.233E+00 -.145E+00 0.327E+03   -.332E+00 0.151E+00 -.328E+03   0.104E+00 0.157E-02 0.153E-01
   -.110E+01 0.309E-01 0.206E+03   0.129E+01 -.339E-01 -.205E+03   -.430E-01 0.720E-03 -.122E+00
   -.287E+01 -.946E+00 -.200E+03   0.266E+01 0.925E+00 0.200E+03   0.202E+00 0.559E-02 0.170E+00
   -.413E+01 -.176E+01 -.296E+03   0.453E+01 0.181E+01 0.297E+03   -.125E+00 -.373E-01 -.244E+00
   0.393E+00 -.123E+01 -.190E+03   -.512E+00 0.124E+01 0.190E+03   0.149E+00 -.152E-02 0.107E+00
   0.125E+01 -.108E+01 -.305E+03   -.834E+00 0.107E+01 0.306E+03   -.141E+00 -.805E-02 -.258E+00
   0.953E+01 -.493E+01 -.711E+03   -.104E+02 0.496E+01 0.710E+03   0.594E+00 0.284E-02 0.354E-01
   -.323E+02 -.108E+02 -.817E+03   0.338E+02 0.107E+02 0.818E+03   -.138E+00 0.127E+00 0.704E+00
   -.621E+01 -.207E+02 -.678E+03   0.560E+01 0.208E+02 0.677E+03   0.481E+00 -.318E-01 0.111E+00
   -.193E+02 -.143E+02 -.816E+03   0.208E+02 0.143E+02 0.816E+03   -.938E-01 0.202E-01 0.720E+00
   0.961E+01 0.949E-01 0.882E+03   -.665E+01 -.965E-01 -.880E+03   0.934E+00 -.657E-03 -.200E+01
   -.156E+01 -.447E-05 0.711E+03   0.514E+00 0.437E-05 -.712E+03   -.717E+00 0.455E-06 -.850E+00
   0.969E+01 -.239E-05 0.882E+03   -.674E+01 0.261E-05 -.879E+03   0.931E+00 -.179E-06 -.200E+01
   -.193E+01 0.353E-01 0.711E+03   0.870E+00 -.315E-01 -.712E+03   -.722E+00 0.731E-03 -.851E+00
   -.622E+00 0.930E-01 0.327E+03   0.492E+00 -.863E-01 -.327E+03   0.116E+00 -.181E-02 0.393E-01
   -.346E+00 -.659E-05 0.207E+03   0.499E+00 0.827E-05 -.207E+03   -.296E-01 -.164E-05 -.132E+00
   0.121E+00 0.284E-04 0.327E+03   -.235E+00 -.307E-04 -.327E+03   0.109E+00 -.216E-05 0.270E-01
   -.110E+01 -.309E-01 0.206E+03   0.129E+01 0.339E-01 -.205E+03   -.430E-01 -.721E-03 -.122E+00
   -.287E+01 0.946E+00 -.200E+03   0.266E+01 -.925E+00 0.200E+03   0.202E+00 -.559E-02 0.170E+00
   -.272E+01 -.413E-04 -.303E+03   0.317E+01 0.478E-04 0.304E+03   -.124E+00 -.877E-06 -.239E+00
   -.108E+01 -.105E-04 -.197E+03   0.891E+00 0.846E-05 0.197E+03   0.183E+00 -.182E-05 0.170E+00
   0.125E+01 0.108E+01 -.305E+03   -.834E+00 -.107E+01 0.306E+03   -.141E+00 0.804E-02 -.258E+00
   0.953E+01 0.493E+01 -.711E+03   -.104E+02 -.496E+01 0.710E+03   0.594E+00 -.284E-02 0.354E-01
   -.268E+02 -.266E-04 -.822E+03   0.284E+02 0.430E-04 0.822E+03   -.127E+00 0.616E-05 0.683E+00
   0.289E+01 -.141E-03 -.707E+03   -.372E+01 0.178E-03 0.707E+03   0.545E+00 0.117E-04 0.735E-01
   -.193E+02 0.143E+02 -.816E+03   0.208E+02 -.143E+02 0.816E+03   -.938E-01 -.201E-01 0.720E+00
   0.960E+01 0.342E-05 0.882E+03   -.664E+01 -.349E-05 -.880E+03   0.937E+00 -.268E-06 -.200E+01
   -.150E+01 0.952E-01 0.711E+03   0.466E+00 -.970E-01 -.712E+03   -.713E+00 0.131E-03 -.848E+00
   0.971E+01 0.394E-01 0.882E+03   -.677E+01 -.370E-01 -.879E+03   0.924E+00 0.556E-03 -.201E+01
   -.209E+01 0.447E-05 0.711E+03   0.106E+01 -.428E-05 -.712E+03   -.720E+00 -.523E-06 -.824E+00
   -.699E+00 0.129E-04 0.326E+03   0.517E+00 -.973E-05 -.326E+03   0.121E+00 0.343E-06 0.624E-01
   0.452E+00 0.785E+00 0.209E+03   -.326E+00 -.794E+00 -.208E+03   -.426E-01 -.110E-01 -.133E+00
   0.233E+00 0.145E+00 0.327E+03   -.332E+00 -.151E+00 -.328E+03   0.104E+00 -.157E-02 0.153E-01
   -.152E+01 0.251E-04 0.201E+03   0.173E+01 -.222E-04 -.201E+03   -.544E-01 0.115E-05 -.392E-01
   -.219E+01 0.685E-04 -.200E+03   0.188E+01 -.652E-04 0.200E+03   0.180E+00 -.186E-06 0.178E+00
   -.413E+01 0.176E+01 -.296E+03   0.453E+01 -.181E+01 0.297E+03   -.125E+00 0.373E-01 -.244E+00
   0.393E+00 0.123E+01 -.190E+03   -.512E+00 -.124E+01 0.190E+03   0.149E+00 0.152E-02 0.107E+00
   0.168E+01 -.267E-04 -.315E+03   -.129E+01 0.255E-04 0.315E+03   -.128E+00 0.116E-05 -.989E-01
   0.151E+02 0.769E-04 -.707E+03   -.160E+02 -.894E-04 0.706E+03   0.478E+00 -.286E-05 0.970E-01
   -.323E+02 0.108E+02 -.817E+03   0.338E+02 -.107E+02 0.818E+03   -.138E+00 -.127E+00 0.704E+00
   -.621E+01 0.207E+02 -.678E+03   0.560E+01 -.208E+02 0.677E+03   0.481E+00 0.318E-01 0.111E+00
   0.170E+02 -.585E-03 -.785E+03   -.153E+02 0.525E-03 0.786E+03   -.466E+00 -.189E-05 0.307E+00
   -.735E+01 -.171E+00 0.142E+04   0.127E+02 0.171E+00 -.143E+04   -.635E+01 -.180E-02 0.164E+02
   -.773E+01 -.163E+00 0.142E+04   0.131E+02 0.162E+00 -.143E+04   -.635E+01 0.225E-02 0.164E+02
   0.452E+02 -.822E-01 0.898E+03   -.502E+02 0.752E-01 -.894E+03   0.340E+01 0.695E-02 -.400E+01
   0.328E+02 -.124E+00 0.109E+04   -.402E+02 0.128E+00 -.109E+04   0.682E+01 -.410E-02 -.247E+01
   -.447E+02 -.169E+00 0.125E+04   0.522E+02 0.169E+00 -.125E+04   -.628E+01 -.164E-02 -.272E+00
   -.377E+02 -.515E+00 0.674E+03   0.436E+02 0.558E+00 -.678E+03   -.524E+01 -.360E-01 0.388E+01
   0.459E+02 0.547E-01 0.898E+03   -.509E+02 -.381E-01 -.894E+03   0.336E+01 -.183E-01 -.384E+01
   0.322E+02 -.217E-01 0.109E+04   -.397E+02 0.127E-01 -.109E+04   0.684E+01 0.157E-01 -.248E+01
   -.446E+02 -.685E-01 0.125E+04   0.522E+02 0.709E-01 -.125E+04   -.625E+01 -.387E-02 -.274E+00
[...]
   0.468E+02 0.882E-04 -.672E+03   -.541E+02 -.931E-04 0.679E+03   0.641E+01 0.575E-05 -.673E+01
   0.341E+02 0.190E-03 -.445E+03   -.405E+02 -.198E-03 0.448E+03   0.557E+01 0.854E-05 -.267E+01
   -.455E+02 0.118E+01 -.301E+03   0.524E+02 -.121E+01 0.298E+03   -.595E+01 0.211E-01 0.235E+01
   -.522E+02 0.113E+02 -.843E+03   0.547E+02 -.119E+02 0.833E+03   -.221E+01 0.530E+00 0.861E+01
   0.431E+02 0.112E+02 -.647E+03   -.497E+02 -.118E+02 0.653E+03   0.578E+01 0.589E+00 -.521E+01
   0.438E+02 0.160E+01 -.455E+03   -.506E+02 -.166E+01 0.458E+03   0.593E+01 0.552E-01 -.275E+01
   -.378E+02 0.150E-03 -.298E+03   0.442E+02 -.153E-03 0.296E+03   -.561E+01 0.497E-05 0.198E+01
   -.236E+02 0.465E-03 -.847E+03   0.292E+02 -.521E-03 0.840E+03   -.489E+01 0.482E-04 0.609E+01
   0.719E+02 -.479E-03 -.139E+04   -.784E+02 0.492E-03 0.141E+04   0.568E+01 -.547E-05 -.200E+02
   0.180E+02 -.279E-03 -.126E+04   -.218E+02 0.277E-03 0.127E+04   0.329E+01 0.274E-04 -.675E+01
   -.224E+02 0.844E+01 -.107E+04   0.276E+02 -.830E+01 0.107E+04   -.455E+01 -.128E+00 0.243E+01
   -.304E+02 0.408E+02 -.138E+04   0.249E+02 -.404E+02 0.140E+04   0.478E+01 -.312E+00 -.182E+02
   0.558E+02 0.550E+02 -.122E+04   -.607E+02 -.550E+02 0.122E+04   0.428E+01 -.491E-01 -.630E+01
   -.376E+02 -.386E-03 -.963E+03   0.412E+02 0.434E-03 0.958E+03   -.313E+01 0.148E-04 0.491E+01
   -.409E+02 0.263E-03 0.745E+02   -.185E-12 0.860E-12 -.682E-11   0.383E+02 -.811E-04 -.674E+02

 POSITION                                       TOTAL-FORCE (eV/Angst)
      6.98733      6.42152     20.02310        -0.001323     -0.000198      0.000679
      6.98728      4.88687     20.02312         0.001288     -0.003232      0.000709
      6.39433      5.65416     20.01826        -0.006195      0.003591     -0.000285
      8.28544      9.42362      6.72647         4.326758      0.002393      1.863566
      6.07316      7.53889      7.60262        -1.882404      0.001594     -2.075888
      3.16690      7.53889      6.72647         4.293166     -0.002962      1.841553
      0.95463      9.42362      7.60262        -1.922305     -0.004676     -2.079558
      9.68603      9.42464     10.26710        -0.001243      0.001120      0.000219
      7.45326      7.53543     11.06684         0.000539     -0.001925     -0.000188
      4.56022      7.53691     10.26296        -0.000764     -0.003420     -0.000168
      2.32529      9.42320     11.07957        -0.001428     -0.000056      0.000224
      0.89325      9.42576     13.80891         0.000056     -0.002223      0.000486
      8.87301      7.53530     14.51254        -0.000605     -0.002680      0.001188
      5.99394      7.53688     13.78131        -0.002187      0.000533      0.002132
      3.74190      9.42385     14.54843         0.000393     -0.003792      0.001119
      2.37690      9.41688     17.42086        -0.000726      0.000463      0.002004
      0.01950      7.52872     17.97344        -0.002365      0.002918     -0.000376
      7.47430      7.52844     17.32585        -0.000173     -0.000406      0.001080
      5.16763      9.43288     17.97718        -0.006317     -0.000351     -0.000672
      8.28544      1.88472      6.72647         4.326758     -0.002395      1.863567
      6.07316      0.00000      7.60262        -1.904213     -0.000000     -2.073202
      3.16690      0.00000      6.72647         4.317046     -0.000001      1.854649
      0.95463      1.88472      7.60262        -1.922305      0.004675     -2.079556
      9.68603      1.88370     10.26710        -0.001243     -0.001124      0.000214
      7.44719     11.30834     11.07134        -0.001091     -0.000001     -0.004759
      4.56201      0.00000     10.26618         0.004799     -0.000003      0.000120
      2.32529      1.88514     11.07957        -0.001430      0.000050      0.000218
      0.89325      1.88258     13.80891         0.000051      0.002219      0.000496
      8.86101     -0.00000     14.52733        -0.000738      0.000005      0.002903
      5.99975      0.00000     13.79596        -0.000732     -0.000002     -0.001590
      3.74190      1.88450     14.54844         0.000391      0.003790      0.001123
      2.37690      1.89146     17.42086        -0.000755     -0.000455      0.002000
      0.04164     -0.00000     17.97262         0.006848      0.000020      0.006116
      7.50362      0.00000     17.38916        -0.002057      0.000043      0.002889
      5.16763      1.87546     17.97718        -0.006220      0.000427     -0.000635
      8.28544      5.65417      6.72647         4.335094     -0.000001      1.857536
      6.07316      3.76945      7.60262        -1.882406     -0.001595     -2.075891
      3.16690      3.76945      6.72647         4.293166      0.002960      1.841555
      0.95463      5.65417      7.60262        -1.892592     -0.000001     -2.009170
      9.69792      5.65417     10.26287        -0.002131      0.000001      0.002969
      7.45326      3.77291     11.06684         0.000539      0.001926     -0.000180
      4.56022      3.77143     10.26296        -0.000764      0.003419     -0.000164
      2.32855      5.65417     11.10594         0.001407      0.000003     -0.000291
      0.91872      5.65417     13.81513        -0.002172      0.000001     -0.002401
      8.87301      3.77304     14.51254        -0.000609      0.002674      0.001213
      5.99394      3.77146     13.78131        -0.002181     -0.000533      0.002140
      3.76047      5.65417     14.62731         0.000382     -0.000003     -0.004242
      2.40788      5.65417     17.43410        -0.001013     -0.000011     -0.000273
      0.01950      3.77962     17.97344        -0.002499     -0.002937     -0.000307
      7.47430      3.77990     17.32585        -0.000140      0.000362      0.001205
      5.18787      5.65417     18.14177         0.003316     -0.000069     -0.000169
      5.00124      7.53889      6.00000        -2.021956     -0.001757      1.186331
     10.11977      9.42362      6.00000        -2.016260      0.001998      1.180381
      9.35736      9.42362      8.32910        -1.093732      0.001082     -0.168559
      6.45110      9.42362      7.45294         0.402055     -0.001573     -0.090715
      7.90750      7.53889      6.87615         0.349775     -0.002406     -1.178204
      6.38921      7.53889      9.50461        -0.105029      0.001446      0.413084
      4.23883      7.53889      8.32910        -1.103191     -0.004531     -0.161795
      1.33257      7.53889      7.45294         0.414704      0.009476     -0.098620
      2.78896      9.42362      6.87615         0.361512     -0.002333     -1.180360
[...]
      2.71008      5.65417     13.02635        -0.000362     -0.000002      0.000405
      1.99325      5.65417     15.40390        -0.001868      0.000001     -0.002308
      9.27425      5.65417     14.44091         0.000282      0.000002      0.000846
      0.52273      3.77103     13.90499        -0.000756     -0.000596     -0.000400
      9.32964      3.75653     16.44324        -0.000903     -0.000770      0.001325
      7.11821      3.74279     15.34341        -0.000567     -0.002051     -0.000034
      4.15592      3.77123     14.47522        -0.000750     -0.000831     -0.001595
      5.63100      5.65417     13.92326         0.001488      0.000001      0.003048
      4.21581      5.65417     16.54548        -0.001073     -0.000001     -0.001208
      3.53602      5.65417     18.90488        -0.002515      0.000006     -0.001392
      0.53684      5.65417     18.18656        -0.001854      0.000030     -0.000544
      1.97786      3.77306     17.45895        -0.001424      0.000547     -0.002517
      8.62469      3.83334     18.81526         0.000137      0.000711     -0.001058
      5.68422      3.75005     18.18207        -0.001471      0.000551     -0.002670
      7.06940      5.65417     17.29872        -0.000195      0.000067     -0.000815
    total drift:                                0.020645      0.000116      0.057600

  FREE ENERGIE OF THE ION-ELECTRON SYSTEM (eV)
  free  energy   TOTEN  =     -1590.00060411 eV

  energy  without entropy=    -1590.00060411  energy(sigma->0) =    -1590.00060411

 d Force = 0.2025583E-04[ 0.595E-05, 0.346E-04]  d Energy = 0.2004812E-04 0.208E-06
 d Force =-0.1118063E+01[-0.112E+01,-0.112E+01]  d Ewald  =-0.1118062E+01-0.497E-06

 Conjugate gradient step on ions:
 trial-energy change:   -0.000020  1 .order   -0.000020   -0.000035   -0.000006
  (g-gl).g = 0.395E-04      g.g   = 0.419E-04  gl.gl    = 0.721E-04
 g(Force)  = 0.419E-04   g(Stress)= 0.000E+00 ortho     = 0.203E-05
 gamma     =   0.54731
 trial     =   0.80416
 opt step  =   0.97158  (harmonic =   0.97158) maximal distance =0.00036219
 next E    = -1590.000605   (d E  =  -0.00002)

 reached required accuracy - stopping structural energy minimisation