 vasp.6.3.0 20Jan22 (build Aug 21 2024 11:13:42) complex
 executed on        HPECrayEX_GCC date 2024.11.27  01:15:12

 INCAR:
   SYSTEM = TiO2
   ISMEAR = 0
   SIGMA = 0.05
   EDIFF = 1E-4
   ALGO = ALL
   ISTART = 0
   IBRION = -1
   NSW = 0
   ISYM = 0
   ISIF = 2
   EDIFFG = -0.01
   DIPOL = 0.5 0.5 0.5
   IDIPOL = 3
   LDIPOL = .TRUE.
   METAGGA = R2SCAN
   LUSE_VDW = .TRUE.
   BPARAM = 11.95
   CPARAM = 0.0093
   LASPH = .TRUE.
   ENCUT = 600
   PREC = Accurate
   LASPH = .TRUE.
   LREAL = .FALSE.
   ISPIN = 1
   NELM = 200
   NELMIN = 8
   NCORE = 16
   KPAR = 1
   LWAVE = .FALSE.
   LCHARG = .FALSE.

 POTCAR:    PAW_PBE Ti_pv 07Sep2000
 POTCAR:    PAW_PBE O 08Apr2002
|               ----> ADVICE to this user running VASP <----                  |
|     You have switched on vdW-DFT.                                           |
|     This routine was written and supplied by Jiri Klimes. We recommend      |
|     that you carefully read and cite the following publications:            |
|       J. Klimes, D.R. Bowler, A. Michelides                                 |
|          J. Phys.: Cond Matt. 22 022201 (2010)                              |
|       J. Klimes, D.R. Bowler, A. Michelides                                 |
|          Phys. Rev. B. 83, 195131 (2011)                                    |
|     and references therein.                                                 |

   TITEL  = PAW_PBE Ti_pv 07Sep2000
   POMASS =   47.880; ZVAL   =   10.000    mass and valenz
   ENMAX  =  222.335; ENMIN  =  166.751 eV

   TITEL  = PAW_PBE O 08Apr2002
   POMASS =   16.000; ZVAL   =    6.000    mass and valenz
   ENMAX  =  400.000; ENMIN  =  300.000 eV

  PAW_PBE Ti_pv 07Sep2000               :
  PAW_PBE O 08Apr2002                   :

 POSCAR: Ti  O
  positions in direct lattice

 METAGGA = R2SCA    LMAXTAU =  6    LMIXTAU =  F

 ion  position               nearest neighbor table
   1  0.750  0.625  0.287-  82 1.95 142 1.95 141 1.95  81 1.95  84 1.97 163 1.97  11 2.96  31 2.96

   2  0.000  0.750  0.287-  83 1.95  84 1.95 103 1.95 104 1.95  85 1.97  32 2.96  12 2.96
   3  0.000  0.625  0.394-  85 1.95  86 1.95 145 1.95 146 1.95  87 1.97  88 1.97  13 2.96  33 2.96

[...]

  80  0.501  0.499  0.712- 234 1.92 240 1.94 180 1.94 239 1.96 179 1.98  70 2.96  50 2.97
  81  0.750  0.750  0.246-   1 1.95  11 1.95
  82  0.750  0.750  0.329-   1 1.95  11 1.95   4 1.97
  83  0.098  0.625  0.287-   2 1.95  32 1.95  41 1.97
  84  0.902  0.625  0.287-   2 1.95  32 1.95   1 1.97
  85  0.000  0.750  0.352-   3 1.95  13 1.95   2 1.97
  86  0.000  0.750  0.435-   3 1.95  13 1.95   6 1.97
  87  0.848  0.625  0.394-   4 1.95  34 1.95   3 1.97
  88  0.152  0.625  0.394-  44 1.95  74 1.95   3 1.97
  89  0.750  0.750  0.458-   5 1.95  15 1.95   4 1.97
  90  0.750  0.750  0.542-   5 1.95  15 1.95   8 2.08
  91  0.098  0.625  0.500-   6 1.95  36 1.95  45 1.97
  92  0.902  0.625  0.500-   6 1.95  36 1.95   5 1.97
  93  0.000  0.750  0.565-  17 1.90   7 1.90   6 1.99
  94  0.999  0.750  0.649-  10 1.81   7 2.01  17 2.01
  95  0.850  0.625  0.606-   7 1.95   8 1.97  38 1.97
  96  0.150  0.625  0.607-   7 1.94  48 1.97  78 1.97
  97  0.754  0.751  0.671-   8 1.88   9 2.06  19 2.08
  98  0.748  0.749  0.755-   9 1.83  19 1.84
  99  0.094  0.625  0.718-  40 1.94  10 1.95  49 2.03
 100  0.906  0.624  0.719-  40 1.95  10 1.95   9 2.02
 101  0.750  0.000  0.246-  11 1.95  21 1.95
 102  0.750  0.000  0.329-  11 1.95  21 1.95  14 1.97
 103  0.098  0.875  0.287-   2 1.95  12 1.95  51 1.97
 104  0.902  0.875  0.287-   2 1.95  12 1.95  11 1.97
 105  0.000  0.000  0.352-  13 1.95  23 1.95  12 1.97
 106  0.000  0.000  0.435-  13 1.95  23 1.95  16 1.97
 107  0.848  0.875  0.394-   4 1.95  14 1.95  13 1.97
 108  0.152  0.875  0.394-  44 1.95  54 1.95  13 1.97
 109  0.750  0.000  0.458-  15 1.95  25 1.95  14 1.97
 110  0.750  0.000  0.542-  15 1.95  25 1.95  18 2.08
 111  0.098  0.875  0.500-   6 1.95  16 1.95  55 1.97
 112  0.902  0.875  0.500-   6 1.95  16 1.95  15 1.97
 113  0.000  1.000  0.565-  27 1.90  17 1.90  16 1.99
 114  1.000  1.000  0.649-  20 1.81  17 2.01  27 2.01
 115  0.850  0.875  0.607-  17 1.95  18 1.97   8 1.97
 116  0.150  0.875  0.607-  17 1.94  58 1.97  48 1.97
 117  0.750  1.000  0.671-  18 1.88  29 2.08  19 2.08
 118  0.750  1.000  0.755-  29 1.83  19 1.83
 119  0.094  0.874  0.718-  10 1.94  20 1.94  59 2.04
 120  0.906  0.875  0.719-  10 1.94  20 1.94  19 2.03
 121  0.750  0.250  0.246-  21 1.95  31 1.95
 122  0.750  0.250  0.329-  21 1.95  31 1.95  24 1.97
 123  0.098  0.125  0.287-  12 1.95  22 1.95  61 1.97
 124  0.902  0.125  0.287-  12 1.95  22 1.95  21 1.97
 125  0.000  0.250  0.352-  23 1.95  33 1.95  22 1.97
 126  0.000  0.250  0.435-  23 1.95  33 1.95  26 1.97
 127  0.848  0.125  0.394-  14 1.95  24 1.95  23 1.97
 128  0.152  0.125  0.394-  54 1.95  64 1.95  23 1.97
 129  0.750  0.250  0.458-  25 1.95  35 1.95  24 1.97
 130  0.750  0.250  0.542-  25 1.95  35 1.95  28 2.08
 131  0.098  0.125  0.500-  16 1.95  26 1.95  65 1.97
 132  0.902  0.125  0.500-  16 1.95  26 1.95  25 1.97
 133  0.000  0.250  0.565-  27 1.90  37 1.90  26 1.99
 134  0.999  0.250  0.649-  30 1.81  37 2.01  27 2.01
 135  0.850  0.125  0.607-  27 1.95  18 1.97  28 1.97
 136  0.150  0.125  0.607-  27 1.94  58 1.97  68 1.97
 137  0.753  0.250  0.671-  28 1.88  39 2.06  29 2.09
 138  0.749  0.250  0.755-  39 1.82  29 1.84
 139  0.094  0.125  0.718-  30 1.94  20 1.94  69 2.04
[...]
 226  0.500  0.500  0.435-  43 1.95  73 1.95  76 1.97
 227  0.348  0.375  0.394-  64 1.95  74 1.95  73 1.97
 228  0.652  0.375  0.394-  24 1.95  34 1.95  73 1.97
 229  0.250  0.500  0.458-  45 1.95  75 1.95  74 1.97
 230  0.250  0.500  0.542-  45 1.95  75 1.95  78 2.09
 231  0.598  0.375  0.500-  66 1.95  76 1.95  35 1.97
 232  0.402  0.375  0.500-  66 1.95  76 1.95  75 1.97
 233  0.500  0.500  0.565-  47 1.90  77 1.90  76 1.99
 234  0.499  0.500  0.649-  80 1.92  47 1.97  77 1.97
 235  0.350  0.375  0.607-  77 1.96  68 1.96  78 1.96
 236  0.651  0.375  0.607-  77 1.95  28 1.97  38 1.97
 237  0.250  0.500  0.671-  78 1.87  49 2.08  79 2.09
 238  0.252  0.500  0.755-  49 1.83  79 1.83
 239  0.596  0.371  0.714-  70 1.92  80 1.96  39 2.02
 240  0.407  0.374  0.718-  70 1.93  80 1.94  79 2.03

IMPORTANT INFORMATION: All symmetrisations will be switched off!
NOSYMM: (Re-)initialisation of all symmetry stuff for point group C_1.

                                     Primitive cell

  volume of cell :    4687.7932

  direct lattice vectors                    reciprocal lattice vectors
    12.981765453  0.000000000  0.000000000     0.077031125  0.000000000  0.000000000
     0.000000000 11.829918508  0.000000000     0.000000000  0.084531436  0.000000000
     0.000000000  0.000000000 30.524807391     0.000000000  0.000000000  0.032760239

  length of vectors
    12.981765453 11.829918508 30.524807391     0.077031125  0.084531436  0.032760239

  position of ions in fractional coordinates (direct lattice)
     0.750000000  0.625000000  0.287357127
     0.000000000  0.750000000  0.287357127
     0.000000000  0.625000000  0.393678564
     0.750000000  0.750000000  0.393678564
     0.750000000  0.625000000  0.500000000
     0.000000000  0.750000000  0.500000000
     0.000243106  0.625019561  0.604143178
     0.750364711  0.750074391  0.609662290
     0.750749873  0.625941201  0.718361722
     0.999857492  0.750127167  0.708201463
     0.750000000  0.875000000  0.287357127
     0.000000000  0.000000000  0.287357127
     0.000000000  0.875000000  0.393678564
     0.750000000  0.000000000  0.393678564
     0.750000000  0.875000000  0.500000000
     0.000000000  0.000000000  0.500000000
     0.000048489  0.875004527  0.604205132
     0.749713590  0.999985181  0.609955659
     0.749728301  0.875022361  0.719484138
     0.000143893  0.999849195  0.708160755
     0.750000000  0.125000000  0.287357127
     0.000000000  0.250000000  0.287357127
     0.000000000  0.125000000  0.393678564
     0.750000000  0.250000000  0.393678564
     0.750000000  0.125000000  0.500000000
     0.000000000  0.250000000  0.500000000
     0.000056121  0.124934902  0.604210612
     0.750102703  0.249836731  0.609643082
     0.749604462  0.124230468  0.719501482
     0.000003102  0.249640003  0.708202278
     0.750000000  0.375000000  0.287357127
     0.000000000  0.500000000  0.287357127
     0.000000000  0.375000000  0.393678564
     0.750000000  0.500000000  0.393678564
     0.750000000  0.375000000  0.500000000
     0.000000000  0.500000000  0.500000000
     0.000151167  0.374950597  0.604140073
     0.750690903  0.499940134  0.609877753
     0.751273648  0.373189798  0.718519386
     0.000904187  0.499980092  0.708126854
     0.250000000  0.625000000  0.287357127
     0.500000000  0.750000000  0.287357127
     0.500000000  0.625000000  0.393678564
     0.250000000  0.750000000  0.393678564
     0.250000000  0.625000000  0.500000000
     0.500000000  0.750000000  0.500000000
     0.500237341  0.622611990  0.605393373
     0.250358829  0.749905664  0.609959726
     0.250542395  0.625087141  0.719428427
     0.500375488  0.750191405  0.706844752
     0.250000000  0.875000000  0.287357127
     0.500000000  0.000000000  0.287357127
     0.500000000  0.875000000  0.393678564
     0.250000000  0.000000000  0.393678564
     0.250000000  0.875000000  0.500000000
     0.500000000  0.000000000  0.500000000
     0.499748796  0.874042167  0.603139539
     0.249865959  0.999929018  0.610049295
     0.250852189  0.874979817  0.719593233
     0.499645619  0.999845232  0.707123861
[...]
     0.500000000  0.500000000  0.435333895
     0.347946691  0.375000000  0.393678564
     0.652053309  0.375000000  0.393678564
     0.250000000  0.500000000  0.458344669
     0.250000000  0.500000000  0.541655331
     0.597946691  0.375000000  0.500000000
     0.402053309  0.375000000  0.500000000
     0.500271274  0.499828344  0.565323722
     0.499357819  0.500165437  0.649218360
     0.349509427  0.374927226  0.606921753
     0.650555729  0.374916115  0.607332301
     0.249776399  0.500217856  0.671346433
     0.251791327  0.500070728  0.754899376
     0.596223720  0.371065167  0.714346871
     0.406575924  0.373773776  0.717653380

  ion indices of the primitive-cell ions
   primitive index   ion index
                 1           1
                 2           2
                 3           3
                 4           4
                 5           5
                 6           6
                 7           7
                 8           8
                 9           9
                10          10
                11          11
                12          12
                13          13
                14          14
                15          15
                16          16
                17          17
                18          18
                19          19
                20          20
                21          21
                22          22
                23          23
                24          24
                25          25
                26          26
                27          27
                28          28
                29          29
                30          30
[...]
   6.49088273 10.35117869 12.01696233
   3.24544136  0.00000000 12.01696233
   3.24544136 10.35117869 15.26240370
   6.49088273  0.00000000 15.26240370
   6.48762166 10.33984761 18.41071825
   3.24370128 11.82907879 18.62163724
   3.25650428 10.35093994 21.96544483
   6.48628224 11.82808762 21.58481966
[...]
   6.49088273  5.91495925 13.28848330
   4.51696233  4.43621944 12.01696233
   8.46480312  4.43621944 12.01696233
   3.24544136  5.91495925 13.99088273
   3.24544136  5.91495925 16.53392466
   7.76240370  4.43621944 15.26240370
   5.21936176  4.43621944 15.26240370
   6.49440435  5.91292858 17.25639772
   6.48254609  5.91691636 19.81726540
   4.53724941  4.43535853 18.52616960
   8.44536188  4.43522709 18.53870152
   3.24253863  5.91753647 20.49272055
   3.26869595  5.91579596 23.04315805
   7.74003649  4.38967069 21.80530064
   5.27807329  4.42171331 21.90623119

--------------------------------------- Iteration      FINAL  ---------------------------------------

--------------------OUTCAR has been truncated-------------------------

[...]

--------------------OUTCAR has been truncated-------------------------

  FORCE on cell =-STRESS in cart. coord.  units (eV):
  Direction    XX          YY          ZZ          XY          YZ          ZX
  Alpha Z  4666.61647  4666.61647  4666.61647
  Ewald  986727.69406************************    -6.19766     0.25227   -30.58377
  Hartree************************************    -2.59368     0.39910   -16.19768
  E(xc)   -9129.33901 -9138.84165 -9127.24900    -0.00570     0.00614     0.00605
  Local  ************************************     8.76569    -0.62533    47.45727
  n-local -5170.37817 -5076.05619 -5215.90076    -0.14216     0.01009    -0.48567
  augment  5516.44537  5484.25600  5520.28530    -0.02830    -0.00481    -0.24268
  Kinetic 28673.02863 28185.37023 28718.15020     0.05743     0.16436     0.96329
  Fock        0.00000     0.00000     0.00000     0.00000     0.00000     0.00000
  Total       5.44728   -47.41975   -38.08271    -0.14439     0.20181     0.91680
  in kB       1.86175   -16.20695   -13.01577    -0.04935     0.06898     0.31334

 VOLUME and BASIS-vectors are now :
  energy-cutoff  :      600.00
  volume of cell :     4687.79
      direct lattice vectors                 reciprocal lattice vectors
    12.981765453  0.000000000  0.000000000     0.077031125  0.000000000  0.000000000
     0.000000000 11.829918508  0.000000000     0.000000000  0.084531436  0.000000000
     0.000000000  0.000000000 30.524807391     0.000000000  0.000000000  0.032760239

  length of vectors
    12.981765453 11.829918508 30.524807391     0.077031125  0.084531436  0.032760239

 FORCES acting on ions:
    Electron-Ion                     Ewald-Force                    Non-Local-Force
   0.110E-01 0.287E-01 0.381E+04   -.132E-01 -.285E-01 -.381E+04   0.539E-03 0.108E-04 0.444E+00
   -.239E-01 0.231E-01 0.399E+04   0.245E-01 -.230E-01 -.399E+04   0.639E-04 0.233E-05 -.402E+01
   -.140E+00 0.697E-01 0.194E+04   0.145E+00 -.701E-01 -.194E+04   -.789E-03 0.116E-03 -.617E-01
   0.178E-01 0.175E+00 0.193E+04   -.245E-01 -.174E+00 -.193E+04   0.174E-02 -.536E-04 0.221E+00
   0.132E+01 0.693E+00 -.172E+02   -.134E+01 -.716E+00 0.179E+02   0.369E-02 0.120E-02 -.116E+00
   -.706E+00 0.518E-01 -.642E+01   0.721E+00 -.482E-01 0.539E+01   -.461E-02 -.205E-02 0.311E+00
   -.370E+01 0.228E+00 -.191E+04   0.365E+01 -.227E+00 0.191E+04   0.316E-02 -.492E-02 0.135E+00
   0.305E+01 -.131E+01 -.196E+04   -.295E+01 0.135E+01 0.196E+04   -.314E-01 -.144E-01 -.182E+00
   -.158E+02 0.177E+02 -.380E+04   0.159E+02 -.184E+02 0.381E+04   0.144E+00 0.102E+00 -.263E+00
   -.560E+00 0.490E+01 -.383E+04   0.525E+00 -.493E+01 0.383E+04   -.432E-01 -.147E-01 0.112E+01
   -.629E-02 0.198E-01 0.381E+04   0.376E-02 -.197E-01 -.381E+04   0.623E-03 -.141E-05 0.444E+00
   -.227E-01 -.532E-02 0.399E+04   0.233E-01 0.533E-02 -.399E+04   0.706E-04 -.163E-04 -.402E+01
   -.118E+00 0.315E-01 0.194E+04   0.122E+00 -.321E-01 -.194E+04   -.810E-03 0.127E-03 -.617E-01
   -.976E-01 -.334E-01 0.193E+04   0.902E-01 0.330E-01 -.193E+04   0.174E-02 0.209E-05 0.221E+00
   -.328E+00 0.184E+00 -.167E+02   0.309E+00 -.154E+00 0.174E+02   0.327E-02 -.126E-02 -.119E+00
   -.424E+00 -.936E-01 -.683E+01   0.441E+00 0.937E-01 0.580E+01   -.478E-02 -.460E-04 0.311E+00
   -.213E+01 0.458E+00 -.191E+04   0.209E+01 -.457E+00 0.191E+04   0.480E-02 -.887E-02 0.140E+00
   0.189E+01 -.272E+00 -.197E+04   -.182E+01 0.267E+00 0.197E+04   -.290E-01 0.205E-02 -.188E+00
   -.463E+00 0.243E+00 -.381E+04   0.506E+00 -.406E+00 0.381E+04   0.252E-01 0.231E-01 -.297E+00
   -.227E+01 0.462E+00 -.383E+04   0.219E+01 -.476E+00 0.383E+04   0.352E-01 -.337E-03 0.116E+01
   -.467E-02 -.288E-01 0.381E+04   0.218E-02 0.284E-01 -.381E+04   0.598E-03 0.559E-04 0.444E+00
   -.244E-01 -.231E-01 0.399E+04   0.251E-01 0.230E-01 -.399E+04   0.677E-04 0.801E-05 -.402E+01
   -.120E+00 -.668E-01 0.194E+04   0.125E+00 0.672E-01 -.194E+04   -.891E-03 -.120E-03 -.617E-01
   0.394E-01 -.174E+00 0.193E+04   -.458E-01 0.173E+00 -.193E+04   0.161E-02 0.618E-04 0.221E+00
   -.287E+00 -.388E+00 -.168E+02   0.266E+00 0.351E+00 0.176E+02   0.445E-02 0.203E-02 -.119E+00
   -.712E+00 -.833E-01 -.659E+01   0.729E+00 0.783E-01 0.556E+01   -.480E-02 0.307E-02 0.312E+00
   -.107E+01 -.589E+00 -.191E+04   0.103E+01 0.585E+00 0.191E+04   0.641E-02 0.730E-02 0.145E+00
   0.226E+01 0.107E+01 -.196E+04   -.216E+01 -.111E+01 0.196E+04   -.284E-01 0.688E-02 -.191E+00
   0.954E-01 -.142E+01 -.381E+04   -.795E-02 0.150E+01 0.381E+04   0.101E-01 -.127E-01 -.300E+00
   0.723E-01 -.489E+01 -.383E+04   -.122E+00 0.493E+01 0.383E+04   -.310E-01 0.989E-02 0.113E+01
   0.126E-01 -.197E-01 0.381E+04   -.148E-01 0.198E-01 -.381E+04   0.509E-03 -.383E-04 0.444E+00
   -.255E-01 0.535E-02 0.399E+04   0.262E-01 -.533E-02 -.399E+04   0.541E-04 -.644E-05 -.402E+01
   -.143E+00 -.343E-01 0.194E+04   0.148E+00 0.349E-01 -.194E+04   -.859E-03 -.185E-03 -.617E-01
   0.151E+00 0.328E-01 0.193E+04   -.156E+00 -.324E-01 -.193E+04   0.127E-02 -.181E-04 0.220E+00
   0.139E+01 -.483E+00 -.173E+02   -.142E+01 0.514E+00 0.180E+02   0.454E-02 -.187E-02 -.116E+00
   -.743E+00 0.789E-01 -.620E+01   0.759E+00 -.789E-01 0.517E+01   -.547E-02 0.264E-03 0.308E+00
   -.335E+01 0.902E-01 -.191E+04   0.330E+01 -.866E-01 0.191E+04   0.431E-02 0.336E-02 0.136E+00
   0.577E+01 0.152E+00 -.196E+04   -.558E+01 -.155E+00 0.196E+04   -.930E-01 0.527E-02 -.183E+00
   -.135E+02 -.193E+02 -.380E+04   0.136E+02 0.202E+02 0.381E+04   0.700E-01 -.130E+00 -.266E+00
   0.242E+00 0.348E-01 -.383E+04   -.439E+00 -.208E-01 0.383E+04   0.734E-01 0.446E-03 0.107E+01
   -.974E-02 0.311E-01 0.381E+04   0.122E-01 -.311E-01 -.381E+04   -.846E-03 -.229E-04 0.444E+00
   0.224E-01 0.498E-01 0.399E+04   -.235E-01 -.493E-01 -.399E+04   0.406E-03 -.589E-04 -.402E+01
   0.117E+00 0.293E+00 0.194E+04   -.121E+00 -.277E+00 -.193E+04   0.502E-03 -.294E-02 -.626E-01
   0.570E-02 0.207E+00 0.193E+04   0.190E-03 -.206E+00 -.193E+04   -.113E-02 -.597E-04 0.218E+00
   -.480E+00 0.821E+00 -.186E+02   0.509E+00 -.830E+00 0.194E+02   -.699E-02 0.377E-03 -.125E+00
   0.469E+00 0.237E+01 -.560E+01   -.474E+00 -.246E+01 0.470E+01   -.215E-02 0.411E-01 0.251E+00
   0.292E-01 -.601E+01 -.192E+04   0.387E-03 0.647E+01 0.192E+04   0.313E-02 -.148E+00 0.150E+00
   0.388E+01 -.438E-01 -.197E+04   -.395E+01 0.822E-01 0.197E+04   -.318E-03 0.187E-02 -.168E+00
   -.275E+00 0.143E+01 -.380E+04   -.137E+00 -.137E+01 0.380E+04   0.164E+00 0.787E-02 -.310E+00
   0.112E+02 -.549E+01 -.382E+04   -.110E+02 0.603E+01 0.382E+04   -.212E+00 -.108E+00 0.126E+01
   0.749E-02 0.217E-01 0.381E+04   -.472E-02 -.215E-01 -.381E+04   -.928E-03 -.313E-04 0.444E+00
   0.212E-01 -.797E-02 0.399E+04   -.224E-01 0.784E-02 -.399E+04   0.432E-03 0.104E-04 -.402E+01
   0.961E-01 0.215E+00 0.194E+04   -.100E+00 -.212E+00 -.194E+04   0.508E-03 -.126E-02 -.635E-01
   0.118E+00 -.394E-01 0.193E+04   -.111E+00 0.394E-01 -.193E+04   -.134E-02 0.404E-04 0.217E+00
   0.100E+01 0.525E+00 -.176E+02   -.989E+00 -.508E+00 0.183E+02   -.316E-02 -.162E-02 -.126E+00
   0.153E+00 -.258E+00 -.114E+01   -.161E+00 0.263E+00 0.419E-01   0.964E-03 -.347E-02 0.274E+00
   -.230E+01 -.687E+01 -.189E+04   0.231E+01 0.697E+01 0.189E+04   0.207E-01 -.126E-01 -.138E-01
   0.330E+01 -.575E+00 -.197E+04   -.331E+01 0.567E+00 0.197E+04   -.295E-01 0.388E-02 -.158E+00
   0.312E+01 0.235E+01 -.381E+04   -.314E+01 -.236E+01 0.381E+04   -.490E-01 0.573E-03 -.308E+00
   -.444E+01 -.559E-01 -.381E+04   0.444E+01 -.247E-01 0.381E+04   0.488E-01 0.213E-01 0.107E+01
[...]
   -.531E+02 -.101E+00 0.116E+04   0.572E+02 0.100E+00 -.116E+04   -.361E+01 0.204E-02 0.178E+00
   0.532E+02 -.948E-01 0.116E+04   -.573E+02 0.937E-01 -.116E+04   0.362E+01 0.157E-02 0.184E+00
   -.263E+00 0.688E-01 0.499E+03   0.274E+00 -.699E-01 -.504E+03   -.155E-01 0.248E-02 0.432E+01
   -.428E+00 0.298E+00 -.537E+03   0.438E+00 -.295E+00 0.544E+03   -.190E-01 -.586E-02 -.710E+01
   -.539E+02 -.793E+00 -.609E+01   0.587E+02 0.784E+00 0.591E+01   -.522E+01 0.333E-01 0.259E+00
   0.544E+02 -.805E+00 -.631E+01   -.592E+02 0.791E+00 0.613E+01   0.526E+01 0.408E-01 0.259E+00
   -.444E+00 0.727E+00 -.644E+03   0.503E+00 -.800E+00 0.637E+03   -.618E-01 0.712E-01 0.714E+01
   0.597E+01 -.397E+00 -.167E+04   -.611E+01 0.546E+00 0.167E+04   0.734E-01 -.189E+00 -.354E+00
   -.311E+02 0.264E+00 -.116E+04   0.344E+02 -.468E+00 0.116E+04   -.319E+01 0.224E+00 0.116E+01
   0.324E+02 -.151E+00 -.116E+04   -.356E+02 0.565E-01 0.116E+04   0.300E+01 0.110E+00 0.696E+00
   0.336E+00 0.198E+00 -.184E+04   -.537E+00 -.251E+00 0.184E+04   0.251E+00 0.384E-01 -.211E+01
   -.185E+01 0.387E+00 -.275E+04   0.187E+01 -.340E+00 0.277E+04   0.168E-01 -.115E+00 -.216E+02
   -.241E+02 -.569E+01 -.232E+04   0.311E+02 0.595E+01 0.232E+04   -.754E+01 0.217E+00 -.120E+00
   0.234E+02 -.215E+00 -.237E+04   -.303E+02 0.375E-01 0.237E+04   0.710E+01 0.567E+00 -.222E+01
   -.148E+01 -.871E+00 0.909E+02   -.455E-12 0.549E-12 -.218E-10   0.155E+01 0.868E+00 -.910E+02

 POSITION                                       TOTAL-FORCE (eV/Angst)
      9.73632      7.39370      8.77152        -0.001890      0.000175     -3.758880
      0.00000      8.87244      8.77152         0.000428      0.000043      2.943236
      0.00000      7.39370     12.01696         0.003477     -0.000204      0.542333
      9.73632      8.87244     12.01696        -0.005204      0.000823     -0.767479
      9.73632      7.39370     15.26240        -0.023824     -0.021690      0.608047
      0.00000      8.87244     15.26240         0.010057      0.001508     -0.711759
      0.00316      7.39393     18.44135        -0.041276     -0.003484      0.058360
      9.74106      8.87332     18.60982         0.069085      0.030548      0.116568
      9.74606      7.40483     21.92785         0.201675     -0.614516      0.666772
     12.97992      8.87394     21.61771        -0.076101     -0.039333      0.093179
      9.73632     10.35118      8.77152        -0.002155      0.000133     -3.758669
      0.00000      0.00000      8.77152         0.000466      0.000007      2.943071
      0.00000     10.35118     12.01696         0.003506     -0.000471      0.542001
      9.73632      0.00000     12.01696        -0.005852     -0.000340     -0.768266
      9.73632     10.35118     15.26240        -0.015822      0.028289      0.613814
      0.00000      0.00000     15.26240         0.011192      0.000043     -0.708605
      0.00063     10.35123     18.44325        -0.029536     -0.007284      0.052308
      9.73261     11.82974     18.61878         0.037926     -0.002700      0.098689
      9.73280     10.35144     21.96211         0.065647     -0.135706      0.184380
      0.00187     11.82813     21.61647        -0.038455     -0.014006      0.078037
      9.73632      1.47874      8.77152        -0.002139     -0.000239     -3.758833
      0.00000      2.95748      8.77152         0.000467     -0.000014      2.943152
      0.00000      1.47874     12.01696         0.003731      0.000269      0.541917
      9.73632      2.95748     12.01696        -0.004951     -0.000782     -0.768459
      9.73632      1.47874     15.26240        -0.016027     -0.035010      0.609086
      0.00000      2.95748     15.26240         0.012546     -0.001917     -0.712180
      0.00073      1.47797     18.44341        -0.030778      0.003066      0.050161
      9.73766      2.95555     18.60924         0.068963     -0.028162      0.111224
      9.73119      1.46964     21.96264         0.094453      0.069827      0.150182
      0.00004      2.95322     21.61774        -0.078779      0.039856      0.081885
      9.73632      4.43622      8.77152        -0.001902      0.000032     -3.758956
      0.00000      5.91496      8.77152         0.000459      0.000033      2.943229
      0.00000      4.43622     12.01696         0.003688      0.000420      0.542215
      9.73632      5.91496     12.01696        -0.004384      0.000366     -0.767605
      9.73632      4.43622     15.26240        -0.024278      0.028419      0.604344
      0.00000      5.91496     15.26240         0.010279      0.000265     -0.714291
      0.00196      4.43564     18.44126        -0.042071      0.006874      0.055669
      9.74529      5.91425     18.61640         0.103387      0.001617      0.153540
      9.75286      4.41480     21.93267         0.191603      0.687087      0.618478
      0.01174      5.91472     21.61544        -0.121659      0.014467      0.108043
      3.24544      7.39370      8.77152         0.001293      0.000005     -3.757123
      6.49088      8.87244      8.77152        -0.000985      0.000463      2.947106
      6.49088      7.39370     12.01696        -0.003845      0.012097      0.555075
      3.24544      8.87244     12.01696         0.004435      0.000877     -0.756655
      3.24544      7.39370     15.26240         0.021367     -0.008291      0.641216
      6.49088      8.87244     15.26240        -0.006747     -0.041402     -0.639390
      6.49396      7.36545     18.47952         0.031920      0.303726     -0.235210
      3.25010      8.87132     18.61890        -0.063070      0.038912      0.017981
      3.25248      7.39473     21.96041        -0.243848      0.069286      0.144605
      6.49576      8.87470     21.57630         0.016046      0.408987      0.076970
      3.24544     10.35118      8.77152         0.001556      0.000233     -3.756962
      6.49088      0.00000      8.77152        -0.001035     -0.000101      2.947553
      6.49088     10.35118     12.01696        -0.003865      0.001447      0.559862
      3.24544      0.00000     12.01696         0.005014      0.000045     -0.755627
      3.24544     10.35118     15.26240         0.012236      0.015013      0.645321
      6.49088      0.00000     15.26240        -0.007068      0.001489     -0.817527
      6.48762     10.33985     18.41072         0.028322      0.083101     -0.008803
      3.24370     11.82908     18.62164        -0.036290     -0.004653      0.035055
      3.25650     10.35094     21.96544        -0.068709     -0.012153      0.088317
      6.48628     11.82809     21.58482         0.049542     -0.058818      0.059088
[...]
      6.49088      5.91496     13.28848         0.001260     -0.000792     -0.128360
      4.51696      4.43622     12.01696         0.445304      0.000686      0.056159
      8.46480      4.43622     12.01696        -0.441502      0.000488      0.057674
      3.24544      5.91496     13.99088        -0.004720      0.001342     -0.077486
      3.24544      5.91496     16.53392        -0.009368     -0.002416      0.055204
      7.76240      4.43622     15.26240        -0.422829      0.024902      0.072080
      5.21936      4.43622     15.26240         0.444155      0.027569      0.075232
      6.49440      5.91293     17.25640        -0.002828     -0.001960      0.136671
      6.48255      5.91692     19.81727        -0.071148     -0.038747      0.991845
      4.53725      4.43536     18.52617         0.088666      0.020534      0.014394
      8.44536      4.43523     18.53870        -0.137414      0.015547      0.003922
      3.24254      5.91754     20.49272         0.049813     -0.014924     -0.028030
      3.26870      5.91580     23.04316         0.035874     -0.067549     -0.099850
      7.74004      4.38967     21.80530        -0.555038      0.480278      0.387119
      5.27807      4.42171     21.90623         0.275912      0.389115      0.284246
    total drift:                                0.065004     -0.003431     -0.068323

  FREE ENERGIE OF THE ION-ELECTRON SYSTEM (eV)
  free  energy   TOTEN  =     -2710.10000858 eV

  energy  without entropy=    -2710.10000858  energy(sigma->0) =    -2710.10000858