 vasp.6.3.0 20Jan22 (build Aug 21 2024 11:13:42) complex
 executed on        HPECrayEX_GCC date 2024.08.27  13:36:27

 INCAR:
   SYSTEM = MgO-rocksalt
   ISMEAR = 0
   SIGMA = 0.05
   EDIFF = 1E-6
   ALGO = ALL
   ISTART = 0
   IBRION = -1
   NSW = 0
   ISYM = 0
   DIPOL = 0.5 0.5 0.5
   IDIPOL = 3
   LDIPOL = .TRUE.
   GGA = RE
   AGGAC = 0.0
   LUSE_VDW = .TRUE.
   LASPH = .TRUE.
   ENCUT = 600
   PREC = Accurate
   LASPH = .TRUE.
   LREAL = .FALSE.
   ISPIN = 1
   NELM = 200
   NELMIN = 8
   NCORE = 8
   KPAR = 1
   LWAVE = .FALSE.
   LCHARG = .FALSE.

 POTCAR:    PAW_PBE C 08Apr2002
 POTCAR:    PAW_PBE H 15Jun2001
 POTCAR:    PAW_PBE Mg_pv 13Apr2007
 POTCAR:    PAW_PBE O 08Apr2002
|               ----> ADVICE to this user running VASP <----                  |
|     You have switched on vdW-DFT.                                           |
|     This routine was written and supplied by Jiri Klimes. We recommend      |
|     that you carefully read and cite the following publications:            |
|       J. Klimes, D.R. Bowler, A. Michelides                                 |
|          J. Phys.: Cond Matt. 22 022201 (2010)                              |
|       J. Klimes, D.R. Bowler, A. Michelides                                 |
|          Phys. Rev. B. 83, 195131 (2011)                                    |
|     and references therein.                                                 |

   TITEL  = PAW_PBE C 08Apr2002
   POMASS =   12.011; ZVAL   =    4.000    mass and valenz
   ENMAX  =  400.000; ENMIN  =  300.000 eV

   TITEL  = PAW_PBE H 15Jun2001
   POMASS =    1.000; ZVAL   =    1.000    mass and valenz
   ENMAX  =  250.000; ENMIN  =  200.000 eV

   TITEL  = PAW_PBE Mg_pv 13Apr2007
   POMASS =   24.305; ZVAL   =    8.000    mass and valenz
   ENMAX  =  403.929; ENMIN  =  302.947 eV

   TITEL  = PAW_PBE O 08Apr2002
   POMASS =   16.000; ZVAL   =    6.000    mass and valenz
   ENMAX  =  400.000; ENMIN  =  300.000 eV

  PAW_PBE C 08Apr2002                   :
  PAW_PBE H 15Jun2001                   :
  PAW_PBE Mg_pv 13Apr2007               :
  PAW_PBE O 08Apr2002                   :

 POSCAR:  C  H Mg  O
  positions in direct lattice
 exchange correlation table for  LEXCH =       40
   RHO(1)=    0.500       N(1)  =     2000
   RHO(2)=  100.500       N(2)  =     4000

 ion  position               nearest neighbor table
   1  0.441  0.509  0.812-   9 1.10  11 1.10  10 1.10   2 1.54
   2  0.300  0.426  0.841-  13 1.10  14 1.10  12 1.10   1 1.54
   3  0.441  0.009  0.812-  15 1.10  17 1.10  16 1.10   4 1.54
   4  0.300  0.926  0.841-  19 1.10  20 1.10  18 1.10   3 1.54
   5  0.799  0.759  0.811-  23 1.10  22 1.10  21 1.10   6 1.54
   6  0.939  0.676  0.841-  26 1.10  25 1.10  24 1.10   5 1.54
   7  0.799  0.259  0.811-  29 1.10  28 1.10  27 1.10   8 1.54
   8  0.939  0.176  0.841-  32 1.10  31 1.10  30 1.10   7 1.54
   9  0.405  0.612  0.785-   1 1.10
  10  0.505  0.430  0.780-   1 1.10
  11  0.524  0.548  0.847-   1 1.10
  12  0.217  0.387  0.805-   2 1.10
  13  0.237  0.504  0.873-   2 1.10
  14  0.336  0.323  0.868-   2 1.10
  15  0.405  0.112  0.785-   3 1.10
  16  0.505  0.930  0.780-   3 1.10
  17  0.524  0.048  0.847-   3 1.10
  18  0.217  0.887  0.805-   4 1.10
  19  0.237  0.004  0.873-   4 1.10
  20  0.336  0.823  0.868-   4 1.10
  21  0.736  0.679  0.779-   5 1.10
  22  0.836  0.861  0.784-   5 1.10
  23  0.715  0.799  0.846-   5 1.10
  24  0.023  0.637  0.805-   6 1.10
  25  0.902  0.573  0.868-   6 1.10
  26  0.002  0.754  0.873-   6 1.10
  27  0.736  0.179  0.779-   7 1.10
  28  0.836  0.361  0.784-   7 1.10
  29  0.715  0.299  0.846-   7 1.10
  30  0.023  0.137  0.805-   8 1.10
  31  0.902  0.073  0.868-   8 1.10
  32  0.002  0.254  0.873-   8 1.10
  33  0.000  0.750  0.350-  65 2.14  67 2.14  68 2.14  75 2.14  84 2.14
  34  0.250  0.000  0.350-  66 2.14  67 2.14  68 2.14  76 2.14  83 2.14
  35  0.000  0.000  0.450-  67 2.14  66 2.14  65 2.14  73 2.14  82 2.14  71 2.14
  36  0.250  0.750  0.450-  68 2.14  66 2.14  65 2.14  74 2.14  81 2.14  72 2.14
  37  1.000  0.750  0.550-  88 2.14  79 2.14  71 2.14  72 2.14  65 2.15  69 2.17
  38  0.250  0.000  0.550-  87 2.14  72 2.14  80 2.14  71 2.14  66 2.15  70 2.17
  39  0.000  0.000  0.649-  71 2.12  70 2.13  86 2.14  77 2.14  69 2.14
  40  0.250  0.750  0.649-  72 2.12  69 2.13  70 2.14  85 2.14  78 2.14
  41  0.000  0.250  0.350-  73 2.14  67 2.14  75 2.14  76 2.14  92 2.14
  42  0.250  0.500  0.350-  74 2.14  68 2.14  75 2.14  76 2.14  91 2.14
  43  0.000  0.500  0.450-  75 2.14  73 2.14  74 2.14  65 2.14  90 2.14  79 2.14
  44  0.250  0.250  0.450-  76 2.14  73 2.14  74 2.14  66 2.14  89 2.14  80 2.14
  45  1.000  0.250  0.550-  96 2.14  79 2.14  71 2.14  80 2.14  73 2.15  77 2.17
  46  0.250  0.500  0.550-  95 2.14  80 2.14  72 2.14  79 2.14  74 2.15  78 2.17
  47  0.000  0.500  0.649-  79 2.12  78 2.13  69 2.14  77 2.14  94 2.14
  48  0.250  0.250  0.649-  80 2.12  77 2.13  93 2.14  78 2.14  70 2.14
  49  0.500  0.750  0.350-  81 2.14  68 2.14  83 2.14  84 2.14  91 2.14
  50  0.750  0.000  0.350-  82 2.14  67 2.14  83 2.14  84 2.14  92 2.14
  51  0.500  0.000  0.450-  83 2.14  81 2.14  82 2.14  66 2.14  89 2.14  87 2.14
  52  0.750  0.750  0.450-  84 2.14  81 2.14  82 2.14  65 2.14  90 2.14  88 2.14
  53  0.500  0.750  0.551-  88 2.14  87 2.14  95 2.14  72 2.14  81 2.15  85 2.16
  54  0.750  0.000  0.551-  87 2.14  96 2.14  88 2.14  71 2.14  82 2.15  86 2.16
  55  0.500  0.000  0.650-  87 2.13  85 2.14  93 2.14  70 2.14  86 2.14
  56  0.750  0.750  0.650-  88 2.13  94 2.14  86 2.14  69 2.14  85 2.14
  57  0.500  0.250  0.350-  89 2.14  83 2.14  76 2.14  91 2.14  92 2.14
  58  0.750  0.500  0.350-  90 2.14  84 2.14  75 2.14  91 2.14  92 2.14
  59  0.500  0.500  0.450-  91 2.14  81 2.14  89 2.14  90 2.14  74 2.14  95 2.14
  60  0.750  0.250  0.450-  92 2.14  82 2.14  89 2.14  90 2.14  73 2.14  96 2.14
[...]
  82  0.750  0.000  0.450-  50 2.14  35 2.14  51 2.14  52 2.14  60 2.14  54 2.15
  83  0.500  0.000  0.350-  51 2.14  49 2.14  50 2.14  34 2.14  57 2.14
  84  0.750  0.750  0.350-  52 2.14  49 2.14  50 2.14  33 2.14  58 2.14
  85  0.500  0.750  0.652-  55 2.14  40 2.14  63 2.14  56 2.14  53 2.16
  86  0.750  0.000  0.652-  39 2.14  56 2.14  64 2.14  55 2.14  54 2.16
  87  0.500  0.000  0.550-  55 2.13  38 2.14  54 2.14  53 2.14  61 2.14  51 2.14
  88  0.750  0.750  0.550-  56 2.13  37 2.14  53 2.14  62 2.14  54 2.14  52 2.14
  89  0.500  0.250  0.450-  57 2.14  51 2.14  44 2.14  59 2.14  60 2.14  61 2.15
  90  0.750  0.500  0.450-  58 2.14  52 2.14  43 2.14  59 2.14  60 2.14  62 2.15
  91  0.500  0.500  0.350-  59 2.14  49 2.14  57 2.14  58 2.14  42 2.14
  92  0.750  0.250  0.350-  60 2.14  50 2.14  57 2.14  58 2.14  41 2.14
  93  0.500  0.250  0.652-  48 2.14  55 2.14  63 2.14  64 2.14  61 2.16
  94  0.750  0.500  0.652-  64 2.14  56 2.14  47 2.14  63 2.14  62 2.16
  95  0.500  0.500  0.550-  63 2.13  46 2.14  62 2.14  53 2.14  61 2.14  59 2.14
  96  0.750  0.250  0.550-  64 2.13  45 2.14  61 2.14  54 2.14  62 2.14  60 2.14

IMPORTANT INFORMATION: All symmetrisations will be switched off!
NOSYMM: (Re-)initialisation of all symmetry stuff for point group C_1.

                                     Primitive cell

  volume of cell :    1563.6717

  direct lattice vectors                    reciprocal lattice vectors
     8.546113626  0.000000000  0.000000000     0.117012252  0.000000000  0.000000000
     0.000000000  8.546113626  0.000000000     0.000000000  0.117012252  0.000000000
     0.000000000  0.000000000 21.409585219     0.000000000  0.000000000  0.046708051

  length of vectors
     8.546113626  8.546113626 21.409585219     0.117012252  0.117012252  0.046708051

  position of ions in fractional coordinates (direct lattice)
     0.441375799  0.509016279  0.811568336
     0.299971595  0.426062869  0.841061143
     0.441377571  0.009016684  0.811568571
     0.299972173  0.926063344  0.841061966
     0.798738320  0.758882397  0.810912924
     0.939367901  0.676045448  0.841028434
     0.798736609  0.258882703  0.810912802
     0.939365892  0.176046204  0.841028230
     0.405262874  0.612002648  0.784593509
     0.504684124  0.429755037  0.780057201
     0.524391248  0.548387937  0.847366611
     0.217123016  0.387287397  0.805067342
     0.236771707  0.504084336  0.873004512
     0.336428904  0.322744620  0.867792688
     0.405268411  0.112000286  0.784590618
     0.504680693  0.929758581  0.780055974
     0.524391797  0.048388240  0.847367124
     0.217129169  0.887290646  0.805066118
     0.236769547  0.004081712  0.873004907
     0.336424667  0.822743695  0.867795765
     0.735692433  0.679231237  0.779478681
     0.835647403  0.861306018  0.783747723
     0.715217555  0.799179806  0.846354467
     0.022831552  0.636765528  0.805362745
     0.902163061  0.573091234  0.867826672
     0.002065640  0.754328416  0.873029589
     0.735690716  0.179229574  0.779479149
     0.835652433  0.361303768  0.783748183
     0.715217166  0.299180736  0.846355235
     0.022831492  0.136765926  0.805362744
     0.902160819  0.073093571  0.867826626
     0.002066688  0.254326793  0.873029128
     0.000000000  0.750000000  0.350310383
     0.250000000  0.000000000  0.350310383
     0.000000000  0.000000000  0.450103461
     0.250000000  0.750000000  0.450103461
     0.999957845  0.750112429  0.550418299
     0.250041368  0.000142650  0.550407494
     0.000077236  0.000327530  0.649346663
     0.249831921  0.750295364  0.649332648
     0.000000000  0.250000000  0.350310383
     0.250000000  0.500000000  0.350310383
     0.000000000  0.500000000  0.450103461
     0.250000000  0.250000000  0.450103461
     0.999958040  0.250174880  0.550418847
     0.250074500  0.500144173  0.550411887
     0.000123523  0.500284282  0.649329324
     0.249873169  0.250295521  0.649332897
     0.500000000  0.750000000  0.350310383
     0.750000000  0.000000000  0.350310383
     0.500000000  0.000000000  0.450103461
     0.750000000  0.750000000  0.450103461
     0.500119448  0.750188735  0.550544161
     0.749921968  0.000191838  0.550547101
     0.499808910  0.000365844  0.649754402
     0.750142876  0.750383843  0.649792152
     0.500000000  0.250000000  0.350310383
     0.750000000  0.500000000  0.350310383
     0.500000000  0.500000000  0.450103461
     0.750000000  0.250000000  0.450103461
[...]
     0.750000000  0.000000000  0.450103461
     0.500000000  0.000000000  0.350310383
     0.750000000  0.750000000  0.350310383
     0.499807649  0.750411890  0.651590185
     0.750146604  0.000394274  0.651576885
     0.499975254  0.000173696  0.550219147
     0.750048669  0.750186573  0.550221723
     0.500000000  0.250000000  0.450103461
     0.750000000  0.500000000  0.450103461
     0.500000000  0.500000000  0.350310383
     0.750000000  0.250000000  0.350310383
     0.499806576  0.250340854  0.651589790
     0.750082673  0.500392841  0.651588694
     0.499972465  0.500181469  0.550212711
     0.750040496  0.250190756  0.550222315

  ion indices of the primitive-cell ions
   primitive index   ion index
                 1           1
                 2           2
                 3           3
                 4           4
[...]
   4.27407763  6.41119817 11.78692214
   6.40891835  0.00163947 11.78698507
   4.27142374  0.00312655 13.91097224
   6.41080625  6.41286559 13.91178045
   4.27305681  2.13652841  7.50000000
   6.40958522  4.27305681  7.50000000
   4.27305681  4.27305681  9.63652841
   6.40958522  2.13652841  9.63652841
[...]
   6.40958522  0.00000000  9.63652841
   4.27305681  0.00000000  7.50000000
   6.40958522  6.40958522  7.50000000
   4.27141296  6.41310528 13.95027559
   6.41083811  0.00336951 13.94999084
   4.27284533  0.00148443 11.77996372
   6.41000115  6.41117969 11.78001886
   4.27305681  2.13652841  9.63652841
   6.40958522  4.27305681  9.63652841
   4.27305681  4.27305681  7.50000000
   6.40958522  2.13652841  7.50000000
   4.27140379  2.13944138 13.95026713
   6.41029175  4.27641407 13.95024368
   4.27282150  4.27460767 11.77982592
   6.40993131  2.13815863 11.78003155

--------------------------------------- Iteration      FINAL  ---------------------------------------

--------------------OUTCAR has been truncated-------------------------

[...]

--------------------OUTCAR has been truncated-------------------------

  FORCE on cell =-STRESS in cart. coord.  units (eV):
  Direction    XX          YY          ZZ          XY          YZ          ZX
  Alpha Z  1028.85264  1028.85264  1028.85264
  Ewald  135066.20545134974.47517************     0.22866   -61.73569     0.50328
  Hartree146051.03314145996.97970************     0.19111   -41.13593     0.42497
  E(xc)   -2720.16102 -2719.67016 -2722.00557    -0.00344     0.22435    -0.00243
  Local  ************************290271.87686    -0.44100   107.62157    -1.00937
  n-local -2917.15349 -2919.18677 -2937.99694     0.00762    -0.86738     0.00604
  augment  1078.85040  1078.71754  1070.20939     0.00020    -0.05191     0.00077
  Kinetic  8056.87265  8047.68003  8082.67881    -0.01204    -4.43537     0.13055
  Fock        0.00000     0.00000     0.00000     0.00000     0.00000     0.00000
  Total     -28.91307   -29.41418    -2.89683    -0.02889    -0.38036     0.05382
  in kB     -29.62506   -30.13851    -2.96817    -0.02960    -0.38973     0.05515

 VOLUME and BASIS-vectors are now :
  energy-cutoff  :      600.00
  volume of cell :     1563.67
      direct lattice vectors                 reciprocal lattice vectors
     8.546113626  0.000000000  0.000000000     0.117012252  0.000000000  0.000000000
     0.000000000  8.546113626  0.000000000     0.000000000  0.117012252  0.000000000
     0.000000000  0.000000000 21.409585219     0.000000000  0.000000000  0.046708051

  length of vectors
     8.546113626  8.546113626 21.409585219     0.117012252  0.117012252  0.046708051

 FORCES acting on ions:
    Electron-Ion                     Ewald-Force                    Non-Local-Force
   -.356E+02 -.220E+02 -.786E+03   0.354E+02 0.220E+02 0.786E+03   0.174E+00 -.736E-01 -.108E+00
   0.373E+02 0.218E+02 -.760E+03   -.373E+02 -.218E+02 0.760E+03   0.168E-01 -.457E-01 0.843E-01
   -.356E+02 -.220E+02 -.786E+03   0.354E+02 0.220E+02 0.786E+03   0.174E+00 -.735E-01 -.108E+00
   0.373E+02 0.218E+02 -.760E+03   -.373E+02 -.218E+02 0.760E+03   0.167E-01 -.461E-01 0.846E-01
   0.354E+02 -.219E+02 -.787E+03   -.352E+02 0.220E+02 0.787E+03   -.168E+00 -.680E-01 -.122E+00
   -.371E+02 0.218E+02 -.761E+03   0.371E+02 -.218E+02 0.761E+03   -.200E-01 -.440E-01 0.868E-01
   0.354E+02 -.219E+02 -.787E+03   -.352E+02 0.220E+02 0.787E+03   -.167E+00 -.685E-01 -.122E+00
   -.371E+02 0.218E+02 -.761E+03   0.371E+02 -.218E+02 0.761E+03   -.194E-01 -.442E-01 0.867E-01
   0.113E+02 -.380E+02 -.188E+03   -.129E+02 0.425E+02 0.185E+03   0.156E+01 -.456E+01 0.298E+01
   -.243E+02 0.263E+02 -.187E+03   0.271E+02 -.298E+02 0.184E+03   -.280E+01 0.349E+01 0.340E+01
   -.328E+02 -.155E+02 -.217E+03   0.364E+02 0.173E+02 0.221E+03   -.368E+01 -.175E+01 -.392E+01
   0.331E+02 0.153E+02 -.170E+03   -.367E+02 -.170E+02 0.166E+03   0.367E+01 0.170E+01 0.394E+01
   0.247E+02 -.259E+02 -.199E+03   -.275E+02 0.293E+02 0.203E+03   0.282E+01 -.341E+01 -.353E+01
   -.109E+02 0.381E+02 -.199E+03   0.125E+02 -.426E+02 0.202E+03   -.157E+01 0.456E+01 -.296E+01
   0.113E+02 -.380E+02 -.188E+03   -.129E+02 0.425E+02 0.185E+03   0.156E+01 -.456E+01 0.299E+01
   -.243E+02 0.263E+02 -.187E+03   0.271E+02 -.298E+02 0.184E+03   -.280E+01 0.349E+01 0.340E+01
   -.328E+02 -.155E+02 -.217E+03   0.364E+02 0.173E+02 0.221E+03   -.368E+01 -.175E+01 -.392E+01
   0.331E+02 0.153E+02 -.170E+03   -.367E+02 -.170E+02 0.166E+03   0.367E+01 0.170E+01 0.394E+01
   0.247E+02 -.259E+02 -.199E+03   -.275E+02 0.293E+02 0.203E+03   0.282E+01 -.341E+01 -.353E+01
   -.109E+02 0.380E+02 -.199E+03   0.125E+02 -.426E+02 0.202E+03   -.157E+01 0.456E+01 -.296E+01
   0.243E+02 0.264E+02 -.188E+03   -.271E+02 -.300E+02 0.184E+03   0.280E+01 0.351E+01 0.339E+01
   -.116E+02 -.378E+02 -.188E+03   0.132E+02 0.423E+02 0.185E+03   -.159E+01 -.454E+01 0.300E+01
   0.328E+02 -.158E+02 -.217E+03   -.366E+02 0.176E+02 0.221E+03   0.371E+01 -.179E+01 -.388E+01
   -.333E+02 0.155E+02 -.170E+03   0.370E+02 -.172E+02 0.166E+03   -.370E+01 0.173E+01 0.391E+01
   0.112E+02 0.379E+02 -.199E+03   -.128E+02 -.425E+02 0.202E+03   0.160E+01 0.454E+01 -.297E+01
   -.245E+02 -.260E+02 -.199E+03   0.273E+02 0.294E+02 0.203E+03   -.280E+01 -.342E+01 -.354E+01
   0.243E+02 0.265E+02 -.188E+03   -.271E+02 -.300E+02 0.184E+03   0.280E+01 0.351E+01 0.339E+01
   -.116E+02 -.378E+02 -.188E+03   0.132E+02 0.423E+02 0.185E+03   -.159E+01 -.454E+01 0.300E+01
   0.328E+02 -.158E+02 -.217E+03   -.366E+02 0.176E+02 0.221E+03   0.370E+01 -.179E+01 -.388E+01
   -.333E+02 0.155E+02 -.170E+03   0.370E+02 -.172E+02 0.166E+03   -.370E+01 0.173E+01 0.391E+01
   0.112E+02 0.379E+02 -.199E+03   -.128E+02 -.425E+02 0.202E+03   0.160E+01 0.454E+01 -.297E+01
   -.245E+02 -.260E+02 -.199E+03   0.273E+02 0.294E+02 0.203E+03   -.280E+01 -.342E+01 -.354E+01
   0.323E-01 -.187E-02 0.203E+04   -.338E-01 0.218E-02 -.203E+04   0.106E-02 -.246E-03 -.640E+01
   -.272E-01 0.285E-03 0.203E+04   0.286E-01 0.158E-04 -.203E+04   -.981E-03 -.271E-03 -.640E+01
   0.299E-01 0.157E-01 0.802E+03   -.442E-01 -.100E-01 -.802E+03   0.984E-02 -.380E-02 0.452E+00
   -.701E-02 0.124E-01 0.802E+03   0.197E-01 -.675E-02 -.802E+03   -.861E-02 -.374E-02 0.452E+00
   -.882E+00 -.111E+00 -.421E+03   0.849E+00 0.113E+00 0.421E+03   0.272E-01 0.144E-02 -.237E+00
   0.938E+00 -.169E-01 -.421E+03   -.917E+00 0.176E-01 0.421E+03   -.185E-01 -.227E-03 -.249E+00
   -.655E+01 0.339E+00 -.164E+04   0.662E+01 -.325E+00 0.164E+04   -.683E-01 -.154E-01 0.560E+01
   0.662E+01 0.274E+00 -.164E+04   -.669E+01 -.258E+00 0.164E+04   0.681E-01 -.141E-01 0.560E+01
   0.323E-01 0.257E-02 0.203E+04   -.337E-01 -.226E-02 -.203E+04   0.106E-02 -.279E-03 -.640E+01
   -.278E-01 0.514E-03 0.203E+04   0.291E-01 -.202E-03 -.203E+04   -.969E-03 -.266E-03 -.640E+01
   0.257E-01 0.143E-01 0.802E+03   -.390E-01 -.909E-02 -.802E+03   0.909E-02 -.342E-02 0.455E+00
   -.429E-02 0.160E-01 0.802E+03   0.170E-01 -.108E-01 -.802E+03   -.866E-02 -.350E-02 0.452E+00
   -.882E+00 0.790E-01 -.421E+03   0.850E+00 -.780E-01 0.421E+03   0.270E-01 -.322E-02 -.237E+00
   0.955E+00 -.124E-01 -.421E+03   -.922E+00 0.130E-01 0.421E+03   -.294E-01 -.303E-03 -.246E+00
   -.640E+01 0.257E+00 -.164E+04   0.648E+01 -.250E+00 0.164E+04   -.751E-01 -.593E-02 0.559E+01
   0.669E+01 0.348E+00 -.164E+04   -.675E+01 -.344E+00 0.164E+04   0.582E-01 -.548E-02 0.560E+01
   -.319E-01 -.957E-03 0.203E+04   0.336E-01 0.146E-02 -.203E+04   -.125E-02 -.408E-03 -.640E+01
   0.270E-01 0.664E-03 0.203E+04   -.285E-01 -.220E-03 -.203E+04   0.113E-02 -.360E-03 -.641E+01
   -.354E-01 0.155E-01 0.802E+03   0.466E-01 -.860E-02 -.802E+03   -.792E-02 -.457E-02 0.473E+00
   0.823E-02 0.341E-02 0.802E+03   -.172E-01 0.522E-02 -.802E+03   0.639E-02 -.569E-02 0.472E+00
   0.758E+00 0.332E-01 -.420E+03   -.730E+00 -.284E-01 0.420E+03   -.265E-01 -.439E-02 -.325E+00
   -.778E+00 0.769E-02 -.419E+03   0.757E+00 -.654E-02 0.420E+03   0.185E-01 -.121E-02 -.332E+00
   0.220E+01 -.219E+00 -.163E+04   -.221E+01 0.210E+00 0.162E+04   0.756E-02 0.106E-01 0.563E+01
   -.237E+01 -.221E+00 -.163E+04   0.238E+01 0.208E+00 0.162E+04   -.118E-01 0.126E-01 0.563E+01
   -.319E-01 0.206E-02 0.203E+04   0.336E-01 -.176E-02 -.203E+04   -.125E-02 -.253E-03 -.640E+01
   0.274E-01 0.810E-03 0.203E+04   -.289E-01 -.369E-03 -.203E+04   0.112E-02 -.354E-03 -.640E+01
   -.280E-01 0.176E-01 0.802E+03   0.382E-01 -.102E-01 -.802E+03   -.713E-02 -.489E-02 0.471E+00
   0.557E-02 0.256E-01 0.802E+03   -.146E-01 -.186E-01 -.802E+03   0.648E-02 -.457E-02 0.473E+00
[...]
   -.245E-01 -.383E-03 0.153E+04   0.265E-01 0.918E-04 -.153E+04   -.275E-02 0.423E-03 0.358E+01
   0.207E-01 -.210E-02 0.153E+04   -.225E-01 0.190E-02 -.153E+04   0.247E-02 0.287E-03 0.358E+01
   0.326E+01 0.851E-01 -.124E+04   -.322E+01 -.855E-01 0.125E+04   -.485E-01 -.180E-02 -.496E+01
   -.319E+01 0.467E-01 -.124E+04   0.314E+01 -.430E-01 0.125E+04   0.508E-01 -.437E-02 -.495E+01
   0.547E+00 -.496E-02 -.309E+03   -.538E+00 0.410E-02 0.309E+03   -.126E-01 0.162E-02 0.276E+00
   -.593E+00 -.216E-01 -.310E+03   0.587E+00 0.253E-01 0.309E+03   0.692E-02 -.414E-02 0.269E+00
   0.379E-02 0.163E-01 0.601E+03   -.736E-02 -.249E-01 -.601E+03   0.481E-02 0.116E-01 -.923E-01
   -.231E-01 0.167E-01 0.601E+03   0.261E-01 -.266E-01 -.601E+03   -.396E-02 0.132E-01 -.922E-01
   -.238E-01 -.301E-03 0.153E+04   0.257E-01 0.328E-04 -.153E+04   -.263E-02 0.392E-03 0.358E+01
   0.206E-01 0.112E-02 0.153E+04   -.224E-01 -.157E-02 -.153E+04   0.246E-02 0.626E-03 0.358E+01
   0.326E+01 -.900E-02 -.124E+04   -.322E+01 0.134E-01 0.125E+04   -.487E-01 -.193E-02 -.496E+01
   -.328E+01 0.433E-01 -.124E+04   0.324E+01 -.396E-01 0.125E+04   0.429E-01 -.425E-02 -.496E+01
   0.533E+00 0.153E-01 -.310E+03   -.522E+00 -.182E-01 0.309E+03   -.148E-01 0.350E-02 0.274E+00
   -.610E+00 -.102E-02 -.310E+03   0.606E+00 -.711E-04 0.309E+03   0.555E-02 0.175E-02 0.269E+00
   0.690E-02 0.367E+00 0.146E+02   0.171E-12 -.284E-13 -.909E-12   -.688E-02 -.366E+00 -.146E+02

 POSITION                                       TOTAL-FORCE (eV/Angst)
      3.77205      4.35011     17.37534         0.000846     -0.005075     -0.001971
      2.56359      3.64118     18.00677        -0.000316     -0.000410      0.002738
      3.77206      0.07706     17.37535         0.000444     -0.004786     -0.001751
      2.56360      7.91424     18.00679         0.000166     -0.000787      0.002681
      6.82611      6.48550     17.36131        -0.000939     -0.001754      0.000262
      8.02794      5.77756     18.00607        -0.000933     -0.000443      0.003710
      6.82609      2.21244     17.36131        -0.000784     -0.001768      0.000555
      8.02793      1.50451     18.00607        -0.000616     -0.000666      0.003582
      3.46342      5.23024     16.79782        -0.002631      0.000728     -0.002132
      4.31309      3.67274     16.70070         0.002735     -0.000970      0.003009
      4.48151      4.68659     18.14177         0.003875      0.002383      0.001648
      1.85556      3.30980     17.23616        -0.000931     -0.000803      0.002681
      2.02348      4.30796     18.69066         0.004123     -0.002252     -0.001073
      2.87516      2.75821     18.57908         0.001450     -0.004342      0.003018
      3.46347      0.95717     16.79776        -0.002827      0.000618     -0.001699
      4.31306      7.94582     16.70067         0.003093     -0.001485      0.002971
      4.48151      0.41353     18.14178         0.004025      0.002433      0.001610
      1.85561      7.58289     17.23613        -0.001216     -0.001029      0.002714
      2.02346      0.03488     18.69067         0.003996     -0.001872     -0.000997
      2.87512      7.03126     18.57915         0.001470     -0.003850      0.002447
      6.28731      5.80479     16.68832        -0.004379     -0.002083      0.000832
      7.14154      7.36082     16.77971         0.001475      0.000451      0.000466
      6.11233      6.82988     18.12010        -0.001478      0.000561      0.000289
      0.19512      5.44187     17.24248         0.004271     -0.003332      0.002328
      7.70999      4.89770     18.57981         0.000069     -0.003812      0.002085
      0.01765      6.44658     18.69120        -0.003829     -0.002250     -0.001420
      6.28730      1.53172     16.68833        -0.004394     -0.001909      0.000837
      7.14158      3.08774     16.77972         0.001208      0.000623      0.000258
      6.11233      2.55683     18.12011        -0.001370      0.000526      0.000037
      0.19512      1.16882     17.24248         0.004058     -0.003326      0.002438
      7.70997      0.62467     18.57981         0.000063     -0.004085      0.002199
      0.01766      2.17351     18.69119        -0.003906     -0.002070     -0.001355
      0.00000      6.40959      7.50000        -0.000362      0.000088      0.319979
      2.13653      0.00000      7.50000         0.000321      0.000057      0.319916
      0.00000      0.00000      9.63653        -0.004360      0.001835      0.021975
      2.13653      6.40959      9.63653         0.003991      0.001869      0.021114
      8.54575      6.41055     11.78423        -0.005080      0.003759     -0.006510
      2.13688      0.00122     11.78400         0.002410      0.000492     -0.004527
      0.00066      0.00280     13.90224         0.003546     -0.000901     -0.004810
      2.13509      6.41211     13.90194        -0.000646      0.002014     -0.002872
      0.00000      2.13653      7.50000        -0.000371      0.000058      0.319997
      2.13653      4.27306      7.50000         0.000314      0.000073      0.319895
      0.00000      4.27306      9.63653        -0.004097      0.001755      0.020783
      2.13653      2.13653      9.63653         0.004006      0.001761      0.021159
      8.54576      2.13802     11.78424        -0.005067     -0.002238     -0.006617
      2.13717      4.27429     11.78409         0.002743      0.000325     -0.006785
      0.00106      4.27549     13.90187        -0.000286      0.000901     -0.000776
      2.13544      2.13905     13.90195        -0.002127     -0.001417     -0.002919
      4.27306      6.40959      7.50000         0.000397      0.000071      0.321360
      6.40959      0.00000      7.50000        -0.000359      0.000059      0.321464
      4.27306      0.00000      9.63653         0.003227      0.002355      0.027978
      6.40959      6.40959      9.63653        -0.002545      0.002909      0.028278
      4.27408      6.41120     11.78692         0.001328      0.000398     -0.007636
      6.40892      0.00164     11.78699        -0.002472     -0.000058     -0.007521
      4.27142      0.00313     13.91097         0.000638      0.001033     -0.002054
      6.41081      6.41287     13.91178        -0.002051      0.000099     -0.002266
      4.27306      2.13653      7.50000         0.000403      0.000022      0.321352
      6.40959      4.27306      7.50000        -0.000351      0.000062      0.321345
      4.27306      4.27306      9.63653         0.002939      0.002445      0.027679
      6.40959      2.13653      9.63653        -0.002555      0.002412      0.028294
[...]
      6.40959      0.00000      9.63653        -0.001130      0.003353      0.059326
      4.27306      0.00000      7.50000        -0.000779      0.000122     -0.396066
      6.40959      6.40959      7.50000         0.000703      0.000086     -0.396076
      4.27141      6.41311     13.95028        -0.001483     -0.002175     -0.001378
      6.41084      0.00337     13.94999         0.000137     -0.000654      0.000129
      4.27285      0.00148     11.77996        -0.002958      0.000750      0.000565
      6.41000      6.41118     11.78002         0.001389     -0.000511      0.001923
      4.27306      2.13653      9.63653         0.001235      0.002946      0.059518
      6.40959      4.27306      9.63653        -0.000952      0.003331      0.059435
      4.27306      4.27306      7.50000        -0.000753      0.000115     -0.396008
      6.40959      2.13653      7.50000         0.000707      0.000175     -0.396081
      4.27140      2.13944     13.95027        -0.001440      0.002441     -0.001294
      6.41029      4.27641     13.95024         0.002568     -0.000521     -0.001871
      4.27282      4.27461     11.77983        -0.003443      0.000595      0.003048
      6.40993      2.13816     11.78003         0.001672      0.000645      0.001798
    total drift:                                0.000029      0.000870      0.031763

  FREE ENERGIE OF THE ION-ELECTRON SYSTEM (eV)
  free  energy   TOTEN  =      -378.05616702 eV

  energy  without entropy=     -378.05616702  energy(sigma->0) =     -378.05616702