 vasp.6.3.0 20Jan22 (build Aug 21 2024 11:13:42) complex
 executed on        HPECrayEX_GCC date 2024.11.26  22:19:29

 INCAR:
   SYSTEM = TiO2
   ISMEAR = 0
   SIGMA = 0.05
   EDIFF = 1E-4
   ALGO = ALL
   ISTART = 0
   IBRION = -1
   NSW = 0
   ISYM = 0
   ISIF = 2
   EDIFFG = -0.01
   DIPOL = 0.5 0.5 0.5
   IDIPOL = 3
   LDIPOL = .TRUE.
   GGA = RE
   AGGAC = 0.0
   LUSE_VDW = .TRUE.
   LASPH = .TRUE.
   ENCUT = 600
   PREC = Accurate
   LASPH = .TRUE.
   LREAL = .FALSE.
   ISPIN = 1
   NELM = 200
   NELMIN = 8
   NCORE = 16
   KPAR = 1
   LWAVE = .FALSE.
   LCHARG = .FALSE.

 POTCAR:    PAW_PBE H 15Jun2001
 POTCAR:    PAW_PBE O 08Apr2002
 POTCAR:    PAW_PBE Ti_pv 07Sep2000
 POTCAR:    PAW_PBE O 08Apr2002
|               ----> ADVICE to this user running VASP <----                  |
|     You have switched on vdW-DFT.                                           |
|     This routine was written and supplied by Jiri Klimes. We recommend      |
|     that you carefully read and cite the following publications:            |
|       J. Klimes, D.R. Bowler, A. Michelides                                 |
|          J. Phys.: Cond Matt. 22 022201 (2010)                              |
|       J. Klimes, D.R. Bowler, A. Michelides                                 |
|          Phys. Rev. B. 83, 195131 (2011)                                    |
|     and references therein.                                                 |

   TITEL  = PAW_PBE H 15Jun2001
   POMASS =    1.000; ZVAL   =    1.000    mass and valenz
   ENMAX  =  250.000; ENMIN  =  200.000 eV

   TITEL  = PAW_PBE O 08Apr2002
   POMASS =   16.000; ZVAL   =    6.000    mass and valenz
   ENMAX  =  400.000; ENMIN  =  300.000 eV

   TITEL  = PAW_PBE Ti_pv 07Sep2000
   POMASS =   47.880; ZVAL   =   10.000    mass and valenz
   ENMAX  =  222.335; ENMIN  =  166.751 eV

   TITEL  = PAW_PBE O 08Apr2002
   POMASS =   16.000; ZVAL   =    6.000    mass and valenz
   ENMAX  =  400.000; ENMIN  =  300.000 eV

  PAW_PBE H 15Jun2001                   :
  PAW_PBE O 08Apr2002                   :
  PAW_PBE Ti_pv 07Sep2000               :
  PAW_PBE O 08Apr2002                   :

 POSCAR:  H  O Ti  O
  positions in direct lattice
 exchange correlation table for  LEXCH =       40
   RHO(1)=    0.500       N(1)  =     2000
   RHO(2)=  100.500       N(2)  =     4000

 ion  position               nearest neighbor table
   1  0.690  0.568  0.773-   3 0.98
   2  0.690  0.432  0.773-   3 0.98
   3  0.631  0.500  0.774-   2 0.98   1 0.98  51 2.30
   4  0.808  0.833  0.295-  88 1.94  56 1.94  54 1.94  53 1.99  55 1.99  21 3.05   7 3.05   5 3.05

   5  0.592  0.667  0.327-  52 1.94 119 1.94  55 1.94  57 1.94  56 1.99  58 1.99  36 3.05   6 3.05
                             4 3.05  10 3.08
   6  0.308  0.667  0.295- 124 1.94  60 1.94  58 1.94  52 1.99  59 1.99  39 3.05   5 3.05   7 3.05

   7  0.092  0.833  0.327-  53 1.94  91 1.94  59 1.94  61 1.94  60 1.99  54 1.99  22 3.05   4 3.05
                             6 3.05   8 3.08
   8  0.945  0.833  0.423-  62 1.92  96 1.93  64 1.94  54 1.98  63 1.98  61 2.00  11 3.00   9 3.04
                            25 3.05   7 3.08
   9  0.727  0.666  0.451-  57 1.89 127 1.93  63 1.94  65 1.96  66 1.99  64 2.00  10 3.01   8 3.04
                            40 3.05  14 3.10
  10  0.444  0.666  0.422-  66 1.93 132 1.93  68 1.93  58 1.97  67 1.99  57 2.00   9 3.01  11 3.05
                            43 3.05   5 3.08
  11  0.226  0.833  0.452-  61 1.90  99 1.94  67 1.94  69 1.97  62 1.97  68 2.01   8 3.00  26 3.05
                            10 3.05  12 3.11
  12  0.086  0.834  0.550-  70 1.92 104 1.93  72 1.94  71 1.97  69 2.01  62 2.01  15 2.95  13 3.04
                            29 3.05  11 3.11
  13  0.865  0.666  0.575-  65 1.86 135 1.93  71 1.94  74 1.95  72 2.01  73 2.01  14 2.98  12 3.04
                            44 3.05  18 3.17
  14  0.584  0.667  0.549- 140 1.93  74 1.93  76 1.93  66 1.97  75 1.98  65 2.02  13 2.98  15 3.05
                            47 3.06   9 3.10
  15  0.364  0.833  0.577-  69 1.86 107 1.94  75 1.94  70 1.95  77 2.00  76 2.02  12 2.95  30 3.05
                            14 3.05
  16  0.231  0.833  0.681-  78 1.86  80 1.93 112 1.94  79 2.00  70 2.10  77 2.10  19 2.85  33 3.07
                            17 3.09
  17  1.000  0.666  0.700-  73 1.78  81 1.84 143 1.97  79 1.98  80 2.07  18 2.86  16 3.09  48 3.10

[...]

  20  0.808  0.167  0.295-  88 1.94 120 1.94  86 1.94  85 1.99  87 1.99  21 3.05  23 3.05  37 3.05

[...]

  36  0.808  0.500  0.295-  56 1.94 120 1.94 118 1.94 117 1.99 119 1.99  37 3.05   5 3.05  39 3.05

  37  0.592  0.333  0.327- 116 1.94 119 1.94  87 1.94 121 1.94 120 1.99 122 1.99  36 3.05  38 3.05
                            20 3.05  42 3.08
  38  0.308  0.333  0.295- 124 1.94  92 1.94 122 1.94 116 1.99 123 1.99  39 3.05  37 3.05  23 3.05

  39  0.092  0.500  0.327- 117 1.94  59 1.94 123 1.94 125 1.94 124 1.99 118 1.99   6 3.05  38 3.05
                            36 3.05  40 3.07
  40  0.946  0.500  0.422- 126 1.93  64 1.94 128 1.94 118 1.97 125 1.98 127 2.00  43 2.99   9 3.05
                            41 3.05  39 3.07
  41  0.727  0.334  0.451- 121 1.89 127 1.93  95 1.94 129 1.96 130 1.99 128 2.00  42 3.01  24 3.04
                            40 3.05  46 3.10
  42  0.444  0.334  0.422- 130 1.93 132 1.93 100 1.93 122 1.97 131 1.99 121 2.00  41 3.01  27 3.05
                            43 3.05  37 3.08
  43  0.226  0.500  0.453- 125 1.92  67 1.94 131 1.94 126 1.96 133 1.97 132 2.01  40 2.99  10 3.05
                            42 3.05  44 3.07
  44  0.089  0.500  0.550- 134 1.92  72 1.93 136 1.93 133 1.98 135 2.00 126 2.01  47 2.96  13 3.05
                            45 3.05  43 3.07
  45  0.865  0.334  0.575- 129 1.86 135 1.93 103 1.94 138 1.95 136 2.01 137 2.01  46 2.98  28 3.04
                            44 3.05  50 3.17
  46  0.584  0.333  0.549- 140 1.93 138 1.93 108 1.93 130 1.97 139 1.98 129 2.02  45 2.98  31 3.05
                            47 3.06  41 3.10
  47  0.366  0.500  0.580- 133 1.91  75 1.94 139 1.94 134 1.94 141 1.99 140 2.03  44 2.96  14 3.06
                            46 3.06  48 3.14
  48  0.234  0.500  0.681- 142 1.86 144 1.93  80 1.93 143 2.03 141 2.05 134 2.09  51 2.87  49 3.10
                            17 3.10  47 3.14
  49  1.000  0.334  0.700- 137 1.78 145 1.84 143 1.97 111 1.98 144 2.07  50 2.86  32 3.09  48 3.10

  50  0.729  0.334  0.677- 145 1.90 147 1.92 115 1.94 146 1.99 138 2.03 137 2.10  49 2.86  35 3.08
                            51 3.08  45 3.17
  51  0.505  0.500  0.706- 142 1.82 141 1.86  82 1.98 146 1.98 147 2.12   3 2.30  48 2.87  18 3.08
                            50 3.08
  52  0.488  0.667  0.269-   5 1.94   6 1.99
  53  0.988  0.833  0.269-   7 1.94   4 1.99
  54  0.911  0.833  0.353-   4 1.94   8 1.98   7 1.99
  55  0.627  0.833  0.321-  21 1.94   5 1.94   4 1.99
  56  0.772  0.667  0.300-  36 1.94   4 1.94   5 1.99
  57  0.624  0.667  0.395-   9 1.89   5 1.94  10 2.00
  58  0.411  0.667  0.353-   6 1.94  10 1.97   5 1.99
  59  0.127  0.667  0.321-  39 1.94   7 1.94   6 1.99
  60  0.272  0.833  0.300-  22 1.94   6 1.94   7 1.99
  61  0.124  0.833  0.395-  11 1.90   7 1.94   8 2.00
  62  0.049  0.834  0.480-   8 1.92  11 1.97  12 2.01
  63  0.764  0.833  0.447-  25 1.94   9 1.94   8 1.98
  64  0.909  0.667  0.427-   8 1.94  40 1.94   9 2.00
  65  0.764  0.666  0.520-  13 1.86   9 1.96  14 2.02
  66  0.549  0.666  0.480-  10 1.93  14 1.97   9 1.99
  67  0.264  0.667  0.448-  43 1.94  11 1.94  10 1.99
  68  0.409  0.833  0.427-  10 1.93  26 1.93  11 2.01
  69  0.264  0.833  0.521-  15 1.86  11 1.97  12 2.01
  70  0.193  0.833  0.607-  12 1.92  15 1.95  16 2.10
  71  0.904  0.834  0.573-  29 1.94  13 1.94  12 1.97
  72  0.051  0.666  0.553-  44 1.93  12 1.94  13 2.01
  73  0.914  0.668  0.645-  17 1.78  13 2.01  18 2.10
  74  0.694  0.669  0.605-  14 1.93  13 1.95  18 2.03
  75  0.405  0.666  0.575-  47 1.94  15 1.94  14 1.98
  76  0.549  0.833  0.553-  30 1.93  14 1.93  15 2.02
  77  0.412  0.835  0.646-  19 1.78  15 2.00  16 2.10
  78  0.346  0.833  0.732-  19 1.84  16 1.86
  79  0.051  0.833  0.709-  33 1.98  17 1.98  16 2.00
  80  0.194  0.666  0.681-  16 1.93  48 1.93  17 2.07
  81  0.841  0.661  0.731-  17 1.84  18 1.90
  82  0.554  0.668  0.708-  19 1.97  51 1.98  18 1.99
  83  0.695  0.834  0.679-  34 1.93  18 1.94  19 2.06
  84  0.488  0.000  0.269-  21 1.94  22 1.99
  85  0.988  0.167  0.269-  23 1.94  20 1.99
  86  0.911  0.167  0.353-  20 1.94  24 1.98  23 1.99
  87  0.627  0.167  0.321-  21 1.94  37 1.94  20 1.99
  88  0.772  0.000  0.300-   4 1.94  20 1.94  21 1.99
  89  0.624  0.000  0.395-  25 1.89  21 1.94  26 2.00
  90  0.411  0.000  0.353-  22 1.94  26 1.98  21 1.99
  91  0.127  0.000  0.321-   7 1.94  23 1.94  22 1.99
  92  0.272  0.167  0.300-  22 1.94  38 1.94  23 1.99
  93  0.124  0.167  0.395-  27 1.90  23 1.94  24 2.00
  94  0.049  0.166  0.480-  24 1.92  27 1.97  28 2.01
  95  0.764  0.167  0.447-  25 1.94  41 1.94  24 1.98
  96  0.909  0.000  0.427-  24 1.93   8 1.93  25 2.00
  97  0.764  1.000  0.520-  29 1.86  25 1.97  30 2.01
  98  0.549  1.000  0.480-  26 1.92  25 1.98  30 2.00
  99  0.264  1.000  0.448-  27 1.94  11 1.94  26 1.99
 100  0.409  0.167  0.427-  42 1.93  26 1.93  27 2.01
 101  0.264  0.167  0.521-  31 1.86  27 1.97  28 2.01
 102  0.193  0.167  0.607-  28 1.92  31 1.95  32 2.10
 103  0.904  0.166  0.573-  29 1.94  45 1.94  28 1.97
 104  0.051  1.000  0.553-  28 1.93  12 1.93  29 2.03
 105  0.913  1.000  0.646-  33 1.78  29 2.01  34 2.09
 106  0.693  1.000  0.606-  30 1.92  29 1.94  34 2.10
 107  0.404  1.000  0.574-  31 1.94  15 1.94  30 1.98
 108  0.549  0.167  0.553-  30 1.93  46 1.93  31 2.02
 109  0.412  0.165  0.646-  35 1.78  31 2.00  32 2.10
 110  0.346  0.167  0.732-  35 1.84  32 1.86
 111  0.051  0.167  0.709-  33 1.98  49 1.98  32 2.00
[...]
 133  0.265  0.500  0.522-  47 1.91  43 1.97  44 1.98
 134  0.193  0.500  0.608-  44 1.92  47 1.94  48 2.09
 135  0.904  0.500  0.573-  45 1.93  13 1.93  44 2.00
 136  0.051  0.334  0.553-  44 1.93  28 1.94  45 2.01
 137  0.914  0.332  0.645-  49 1.78  45 2.01  50 2.10
 138  0.694  0.331  0.605-  46 1.93  45 1.95  50 2.03
 139  0.405  0.334  0.575-  47 1.94  31 1.94  46 1.98
 140  0.551  0.500  0.554-  14 1.93  46 1.93  47 2.03
 141  0.413  0.500  0.649-  51 1.86  47 1.99  48 2.05
 142  0.344  0.500  0.734-  51 1.82  48 1.86
 143  0.051  0.500  0.708-  49 1.97  17 1.97  48 2.03
 144  0.194  0.334  0.681-  32 1.93  48 1.93  49 2.07
 145  0.841  0.339  0.731-  49 1.84  50 1.90
 146  0.554  0.332  0.708-  35 1.97  51 1.98  50 1.99
 147  0.693  0.500  0.675-  50 1.92  18 1.92  51 2.12

IMPORTANT INFORMATION: All symmetrisations will be switched off!
NOSYMM: (Re-)initialisation of all symmetry stuff for point group C_1.

                                     Primitive cell

  volume of cell :    3260.5577

  direct lattice vectors                    reciprocal lattice vectors
    10.272661001  0.000000000  0.000000000     0.097345761 -0.000000000  0.000000000
     0.000000000 11.368814841  0.000000000     0.000000000  0.087959916  0.000000000
     0.000000000  0.000000000 27.918606646     0.000000000  0.000000000  0.035818406

[...]
  10.15057489  9.47401237  7.50000000
   9.36178814  9.47401237  9.85165358
   6.44412470  9.47401237  8.97107415
   7.93190783  7.57920989  8.38057942
   6.41223715  7.57920989 11.02231769
   4.22545764  7.57920989  9.85165358
   1.30779420  7.57920989  8.97107415
   2.79557733  9.47401237  8.38057942
[...]
   2.72662035  5.68440683 14.56802540
   1.98398768  5.68440687 16.96074764
   9.28900554  5.68440693 16.00908270
   0.52742010  3.79188108 15.43832247
   9.38425438  3.77494194 18.00907254
   7.12833887  3.75854473 16.89957410
   4.15660712  3.79171403 16.04368052
   5.65795319  5.68440708 15.46289637
   4.24553276  5.68440685 18.11393398
   3.53873964  5.68440689 20.49245367
   0.52859209  5.68440663 19.77605041
   1.99782651  3.79460142 19.00643581
   8.63839775  3.85571139 20.39736005
   5.69102523  3.77166269 19.75743172
   7.11463986  5.68440650 18.84986003

--------------------------------------- Iteration      FINAL  ---------------------------------------

--------------------OUTCAR has been truncated-------------------------

[...]

--------------------OUTCAR has been truncated-------------------------

  FORCE on cell =-STRESS in cart. coord.  units (eV):
  Direction    XX          YY          ZZ          XY          YZ          ZX
  Alpha Z  2442.80156  2442.80156  2442.80156
  Ewald  487219.18708480722.24105************    -0.00131    -0.00068 -1813.75751
  Hartree508371.21410504399.11013************     0.00016    -0.00019 -1224.69156
  E(xc)   -5318.43164 -5322.49864 -5325.66160    -0.00000     0.00000    -0.87385
  Local  ************************************     0.00018     0.00073  3046.31115
  n-local -3291.25928 -3258.90889 -3301.44173     0.00020    -0.00006     2.51852
  augment  3185.09072  3183.30903  3177.09018     0.00006    -0.00001    -0.34641
  Kinetic 17230.84431 17281.90610 17352.32850     0.00001     0.00039   -17.31989
  Fock        0.00000     0.00000     0.00000     0.00000     0.00000     0.00000
  Total      49.29517    75.83999    66.69539    -0.00071     0.00019    -8.15955
  in kB      24.22273    37.26636    32.77287    -0.00035     0.00009    -4.00945

 VOLUME and BASIS-vectors are now :
  energy-cutoff  :      600.00
  volume of cell :     3260.56
      direct lattice vectors                 reciprocal lattice vectors
    10.272661001  0.000000000  0.000000000     0.097345761 -0.000000000  0.000000000
     0.000000000 11.368814841  0.000000000     0.000000000  0.087959916  0.000000000
     0.000000000  0.000000000 27.918606646     0.000000000  0.000000000  0.035818406

  length of vectors
    10.272661001 11.368814841 27.918606646     0.097345761  0.087959916  0.035818406

 FORCES acting on ions:
    Electron-Ion                     Ewald-Force                    Non-Local-Force
   -.510E+02 -.654E+02 -.359E+03   0.561E+02 0.721E+02 0.359E+03   -.504E+01 -.664E+01 0.227E+00
   -.510E+02 0.655E+02 -.359E+03   0.561E+02 -.721E+02 0.359E+03   -.504E+01 0.664E+01 0.227E+00
   0.144E+02 -.239E-02 -.218E+04   -.559E+02 0.424E-02 0.219E+04   0.415E+02 -.609E-03 -.966E+01
   0.642E+01 -.108E+00 0.337E+04   -.162E+01 0.112E+00 -.337E+04   -.104E+01 -.892E-03 -.311E+01
   0.496E+01 -.271E+00 0.277E+04   -.646E+01 0.276E+00 -.278E+04   -.119E+00 -.132E-02 -.881E-01
   0.644E+01 0.737E-01 0.337E+04   -.168E+01 -.748E-01 -.337E+04   -.103E+01 0.564E-03 -.311E+01
   0.336E+01 0.306E-01 0.277E+04   -.491E+01 -.348E-01 -.278E+04   -.109E+00 0.112E-02 -.938E-01
   -.159E+00 -.245E-01 0.126E+04   -.142E-01 0.244E-01 -.126E+04   0.173E+00 -.316E-02 0.354E-02
   0.150E+01 -.233E+01 0.804E+03   -.144E+01 0.232E+01 -.804E+03   -.354E-01 0.252E-01 -.137E+00
   0.179E+01 -.354E+00 0.127E+04   -.194E+01 0.350E+00 -.127E+04   0.161E+00 0.784E-02 -.196E-01
   -.588E+01 0.205E+00 0.793E+03   0.594E+01 -.212E+00 -.793E+03   -.126E-01 0.340E-02 -.137E+00
   -.583E+01 -.219E+01 -.782E+03   0.552E+01 0.218E+01 0.782E+03   0.314E+00 0.999E-04 0.998E-01
   -.136E+02 -.494E+01 -.117E+04   0.138E+02 0.499E+01 0.117E+04   -.688E-01 -.328E-01 -.193E+00
   0.265E+01 -.235E+01 -.748E+03   -.289E+01 0.235E+01 0.748E+03   0.266E+00 0.487E-02 0.648E-01
   -.102E+01 -.202E+01 -.120E+04   0.121E+01 0.202E+01 0.120E+04   -.861E-01 -.131E-01 -.248E+00
   0.282E+02 -.127E+02 -.279E+04   -.293E+02 0.127E+02 0.279E+04   0.971E+00 0.184E-01 -.189E+00
   -.915E+02 -.280E+02 -.318E+04   0.919E+02 0.279E+02 0.318E+04   0.404E-01 0.168E+00 0.631E+00
   -.114E+02 -.546E+02 -.269E+04   0.105E+02 0.547E+02 0.269E+04   0.826E+00 -.405E-01 -.882E-02
   -.577E+02 -.348E+02 -.318E+04   0.581E+02 0.348E+02 0.318E+04   0.598E-01 0.117E-01 0.667E+00
   0.642E+01 0.108E+00 0.337E+04   -.162E+01 -.112E+00 -.337E+04   -.104E+01 0.881E-03 -.311E+01
   0.490E+01 -.233E-04 0.277E+04   -.644E+01 0.916E-05 -.278E+04   -.111E+00 -.129E-04 -.962E-01
   0.631E+01 0.708E-04 0.337E+04   -.151E+01 0.275E-05 -.337E+04   -.103E+01 -.486E-05 -.311E+01
   0.336E+01 -.306E-01 0.277E+04   -.491E+01 0.348E-01 -.278E+04   -.109E+00 -.110E-02 -.938E-01
   -.159E+00 0.245E-01 0.126E+04   -.142E-01 -.244E-01 -.126E+04   0.173E+00 0.314E-02 0.356E-02
   -.203E+01 0.129E-04 0.799E+03   0.207E+01 0.770E-05 -.799E+03   0.268E-02 -.107E-04 -.143E+00
   0.209E+01 -.356E-04 0.126E+04   -.225E+01 0.217E-04 -.126E+04   0.164E+00 -.899E-06 -.145E-01
   -.588E+01 -.205E+00 0.793E+03   0.594E+01 0.212E+00 -.793E+03   -.127E-01 -.341E-02 -.137E+00
   -.583E+01 0.219E+01 -.782E+03   0.552E+01 -.218E+01 0.782E+03   0.314E+00 -.924E-04 0.998E-01
   -.116E+02 -.419E-05 -.119E+04   0.117E+02 0.271E-04 0.119E+04   -.391E-01 -.122E-04 -.218E+00
   -.139E+01 0.205E-04 -.771E+03   0.109E+01 -.107E-04 0.771E+03   0.303E+00 -.144E-04 0.132E+00
   -.102E+01 0.201E+01 -.120E+04   0.121E+01 -.202E+01 0.120E+04   -.861E-01 0.131E-01 -.248E+00
   0.282E+02 0.127E+02 -.279E+04   -.293E+02 -.127E+02 0.279E+04   0.971E+00 -.184E-01 -.189E+00
   -.760E+02 -.717E-04 -.319E+04   0.764E+02 0.799E-04 0.319E+04   0.157E-02 -.105E-05 0.641E+00
   0.107E+02 -.205E-03 -.278E+04   -.116E+02 0.274E-03 0.278E+04   0.900E+00 0.118E-04 -.139E+00
   -.577E+02 0.348E+02 -.318E+04   0.581E+02 -.348E+02 0.318E+04   0.597E-01 -.117E-01 0.667E+00
   0.641E+01 -.101E-03 0.337E+04   -.160E+01 -.112E-04 -.337E+04   -.104E+01 -.162E-04 -.311E+01
   0.496E+01 0.271E+00 0.277E+04   -.646E+01 -.276E+00 -.278E+04   -.119E+00 0.136E-02 -.881E-01
   0.644E+01 -.737E-01 0.337E+04   -.168E+01 0.748E-01 -.337E+04   -.103E+01 -.610E-03 -.311E+01
   0.241E+01 0.335E-04 0.277E+04   -.391E+01 -.525E-05 -.278E+04   -.128E+00 0.223E-04 -.863E-01
   0.539E+00 0.262E-04 0.126E+04   -.714E+00 -.736E-04 -.126E+04   0.158E+00 -.115E-04 0.422E-01
   0.150E+01 0.233E+01 0.804E+03   -.144E+01 -.232E+01 -.804E+03   -.354E-01 -.252E-01 -.137E+00
   0.179E+01 0.354E+00 0.127E+04   -.194E+01 -.350E+00 -.127E+04   0.161E+00 -.783E-02 -.196E-01
   -.878E+01 -.120E-05 0.776E+03   0.887E+01 0.890E-05 -.776E+03   -.300E-01 -.121E-04 -.444E-01
   -.331E+01 0.118E-05 -.784E+03   0.306E+01 -.247E-04 0.784E+03   0.228E+00 0.133E-04 0.119E+00
   -.136E+02 0.494E+01 -.117E+04   0.138E+02 -.499E+01 0.117E+04   -.688E-01 0.328E-01 -.193E+00
   0.265E+01 0.235E+01 -.748E+03   -.289E+01 -.235E+01 0.748E+03   0.266E+00 -.485E-02 0.648E-01
   -.164E+01 0.829E-06 -.124E+04   0.183E+01 -.247E-04 0.124E+04   -.889E-01 -.197E-05 -.123E+00
   0.436E+02 -.847E-04 -.279E+04   -.445E+02 0.567E-04 0.279E+04   0.771E+00 -.714E-05 -.878E-01
   -.915E+02 0.280E+02 -.318E+04   0.919E+02 -.279E+02 0.318E+04   0.405E-01 -.168E+00 0.631E+00
   -.114E+02 0.546E+02 -.269E+04   0.105E+02 -.547E+02 0.269E+04   0.826E+00 0.405E-01 -.880E-02
   0.279E+02 -.556E-03 -.314E+04   -.273E+02 0.507E-03 0.314E+04   -.251E+00 0.227E-04 0.412E+00
   -.322E+02 -.507E-01 0.228E+04   0.369E+02 0.520E-01 -.230E+04   -.646E+01 -.151E-02 0.169E+02
   -.326E+02 -.441E-01 0.228E+04   0.373E+02 0.437E-01 -.230E+04   -.645E+01 0.455E-03 0.168E+02
   0.815E+02 0.566E-01 0.138E+04   -.863E+02 -.658E-01 -.138E+04   0.371E+01 0.673E-02 -.447E+01
   0.749E+02 -.939E-01 0.169E+04   -.819E+02 0.974E-01 -.168E+04   0.722E+01 -.729E-02 -.254E+01
   -.862E+02 -.121E+00 0.194E+04   0.934E+02 0.122E+00 -.194E+04   -.689E+01 -.296E-02 -.998E-01
   -.689E+02 -.101E+01 0.106E+04   0.744E+02 0.106E+01 -.106E+04   -.554E+01 -.391E-01 0.423E+01
   0.823E+02 -.829E-03 0.138E+04   -.871E+02 0.183E-01 -.138E+04   0.368E+01 -.192E-01 -.428E+01
   0.739E+02 0.460E-01 0.169E+04   -.809E+02 -.512E-01 -.168E+04   0.724E+01 0.133E-01 -.256E+01
   -.864E+02 -.510E-02 0.194E+04   0.936E+02 0.762E-02 -.194E+04   -.686E+01 -.871E-02 -.105E+00
[...]
   0.875E+02 -.128E-04 -.108E+04   -.944E+02 -.494E-05 0.109E+04   0.683E+01 0.822E-05 -.730E+01
   0.689E+02 0.398E-06 -.717E+03   -.749E+02 0.130E-04 0.720E+03   0.589E+01 -.325E-05 -.318E+01
   -.828E+02 0.148E+01 -.458E+03   0.892E+02 -.158E+01 0.456E+03   -.631E+01 0.986E-01 0.273E+01
   -.702E+02 0.153E+02 -.128E+04   0.726E+02 -.159E+02 0.127E+04   -.236E+01 0.623E+00 0.981E+01
   0.804E+02 0.160E+02 -.104E+04   -.867E+02 -.167E+02 0.104E+04   0.619E+01 0.730E+00 -.555E+01
   0.810E+02 0.199E+01 -.732E+03   -.874E+02 -.210E+01 0.735E+03   0.630E+01 0.106E+00 -.329E+01
   -.724E+02 0.951E-04 -.463E+03   0.786E+02 -.985E-04 0.461E+03   -.603E+01 0.252E-04 0.217E+01
   -.538E+02 0.349E-04 -.131E+04   0.589E+02 -.893E-04 0.130E+04   -.505E+01 0.279E-04 0.705E+01
   0.110E+03 -.746E-04 -.228E+04   -.116E+03 0.623E-04 0.230E+04   0.616E+01 0.169E-04 -.207E+02
   0.410E+02 -.362E-03 -.201E+04   -.447E+02 0.377E-03 0.201E+04   0.366E+01 -.255E-04 -.735E+01
   -.496E+02 0.797E+01 -.166E+04   0.543E+02 -.785E+01 0.165E+04   -.469E+01 -.108E+00 0.297E+01
   0.424E+01 0.386E+02 -.225E+04   -.934E+01 -.384E+02 0.227E+04   0.503E+01 -.258E+00 -.188E+02
   0.836E+02 0.551E+02 -.196E+04   -.884E+02 -.551E+02 0.196E+04   0.476E+01 0.961E-02 -.678E+01
   -.566E+02 -.333E-03 -.152E+04   0.600E+02 0.387E-03 0.152E+04   -.338E+01 0.404E-04 0.512E+01
   -.429E+02 -.148E-03 0.732E+02   0.398E-12 0.400E-11 -.136E-11   0.429E+02 0.602E-04 -.733E+02

 POSITION                                       TOTAL-FORCE (eV/Angst)
      7.09062      6.45318     21.57834        -0.006272      0.012654      0.092532
      7.09061      4.91565     21.57834        -0.005340     -0.013869      0.092481
      6.48305      5.68440     21.61313         0.027648      0.001239      0.124491
      8.29735      9.47401      8.23554         3.782189      0.003510      1.254395
      6.07868      7.57921      9.11612        -1.624737      0.003220     -2.027669
      3.16102      7.57921      8.23554         3.747838     -0.000519      1.230961
      0.94235      9.47401      9.11612        -1.666855     -0.002985     -2.030662
      9.70630      9.47572     11.79917         0.002275     -0.001735     -0.048678
      7.46554      7.57476     12.59387         0.010309      0.004054      0.020053
      4.56215      7.57684     11.79415         0.006803      0.002110     -0.042283
      2.31729      9.47376     12.60831         0.022708     -0.003908      0.017406
      0.88481      9.47748     15.36316         0.003102     -0.007132     -0.027360
      8.88980      7.57457     16.05885         0.052088      0.005263      0.073184
      6.00266      7.57808     15.33130         0.016479     -0.001114     -0.013529
      3.73942      9.47482     16.09719         0.053900     -0.003533      0.071637
      2.37207      9.46523     19.00026        -0.043567      0.011676      0.063061
     10.27165      7.56806     19.54912         0.250879      0.017821      0.396308
      7.48462      7.56766     18.89491         0.000635      0.052625      0.049438
      5.16886      9.48459     19.55187         0.240204      0.010093      0.384809
      8.29735      1.89480      8.23554         3.782227     -0.003468      1.254326
      6.07868      0.00000      9.11612        -1.650012     -0.000027     -2.026322
      3.16102      0.00000      8.23554         3.773262      0.000070      1.247435
      0.94235      1.89480      9.11612        -1.666753      0.003062     -2.030627
      9.70630      1.89310     11.79917         0.002204      0.001779     -0.048633
      7.45767      0.00000     12.59902         0.017831      0.000011      0.021719
      4.56466     11.36881     11.79864         0.007274     -0.000014     -0.049082
      2.31729      1.89506     12.60831         0.022682      0.003918      0.017373
      0.88481      1.89133     15.36316         0.003068      0.007195     -0.027350
      8.87399     11.36881     16.07777         0.062958      0.000011      0.076757
      6.00999     11.36881     15.34888         0.007003     -0.000004     -0.021413
      3.73942      1.89400     16.09719         0.053881      0.003557      0.071654
      2.37207      1.90358     19.00026        -0.043557     -0.011739      0.062891
      0.02763     11.36881     19.54896         0.237149      0.000008      0.389906
      7.51904     11.36881     18.97406        -0.032969      0.000081      0.059941
      5.16886      1.88422     19.55187         0.239821     -0.009936      0.384434
      8.29735      5.68441      8.23554         3.786789     -0.000129      1.244514
      6.07868      3.78960      9.11612        -1.624778     -0.003055     -2.027469
      3.16102      3.78960      8.23554         3.747912      0.000476      1.231034
      0.94235      5.68441      9.11612        -1.632946      0.000052     -1.970150
      9.72078      5.68441     11.79322        -0.006952     -0.000059     -0.038252
      7.46554      3.79406     12.59387         0.010392     -0.004044      0.020034
      4.56216      3.79197     11.79415         0.006835     -0.002113     -0.042338
      2.32057      5.68441     12.63661         0.030012     -0.000004      0.012104
      0.91331      5.68441     15.36816        -0.011481     -0.000009     -0.016063
      8.88980      3.79425     16.05885         0.052110     -0.005297      0.073203
      6.00267      3.79073     15.33130         0.016461      0.001134     -0.013463
      3.75979      5.68441     16.17957         0.049566     -0.000025      0.044747
      2.40558      5.68441     19.01172        -0.074406     -0.000035      0.069899
     10.27165      3.80075     19.54912         0.251046     -0.017889      0.396267
      7.48462      3.80115     18.89492         0.000674     -0.052827      0.049631
      5.18613      5.68441     19.71892         0.183691     -0.000025      0.297159
      5.01424      7.57921      7.50000        -1.723552     -0.000239      0.559181
     10.15057      9.47401      7.50000        -1.716712      0.000094      0.552843
      9.36179      9.47401      9.85165        -1.097882     -0.002418     -0.130118
      6.44412      9.47401      8.97107         0.251146     -0.003796     -0.018399
      7.93191      7.57921      8.38058         0.360506     -0.002544     -1.175309
      6.41224      7.57921     11.02232         0.011132      0.007257      0.335996
      4.22546      7.57921      9.85165        -1.106609     -0.001784     -0.121035
      1.30779      7.57921      8.97107         0.263469      0.008197     -0.025840
      2.79558      9.47401      8.38058         0.372231     -0.006187     -1.178166
[...]
      2.72662      5.68441     14.56803         0.117772     -0.000006     -0.102880
      1.98399      5.68441     16.96075        -0.131138     -0.000009      0.194386
      9.28901      5.68441     16.00908        -0.102042      0.000011      0.063215
      0.52742      3.79188     15.43832         0.107891      0.001277     -0.055736
      9.38425      3.77494     18.00907        -0.004872     -0.006896     -0.192325
      7.12834      3.75854     16.89957        -0.120087     -0.011836      0.144135
      4.15661      3.79171     16.04368        -0.116942     -0.003829      0.067713
      5.65795      5.68441     15.46290         0.094743      0.000022     -0.040945
      4.24553      5.68441     18.11393         0.055840     -0.000026     -0.121630
      3.53874      5.68441     20.49245        -0.124005      0.000005      0.495398
      0.52859      5.68441     19.77605        -0.057652     -0.000009      0.192586
      1.99783      3.79460     19.00644         0.051106      0.005310     -0.027600
      8.63840      3.85571     20.39736        -0.073582     -0.012689      0.458363
      5.69103      3.77166     19.75743        -0.091162     -0.023703      0.166488
      7.11464      5.68441     18.84986         0.023502      0.000095     -0.082794
    total drift:                                0.003491     -0.000088     -0.077497

  FREE ENERGIE OF THE ION-ELECTRON SYSTEM (eV)
  free  energy   TOTEN  =      -953.01023105 eV

  energy  without entropy=     -953.01023105  energy(sigma->0) =     -953.01023105