 vasp.6.3.0 20Jan22 (build Aug 21 2024 11:13:42) complex
 executed on        HPECrayEX_GCC date 2024.11.26  22:14:16

 INCAR:
   SYSTEM = TiO2
   ISMEAR = 0
   SIGMA = 0.05
   EDIFF = 1E-4
   ALGO = ALL
   ISTART = 0
   IBRION = -1
   NSW = 0
   ISYM = 0
   ISIF = 2
   EDIFFG = -0.01
   DIPOL = 0.5 0.5 0.5
   IDIPOL = 3
   LDIPOL = .TRUE.
   GGA = RE
   AGGAC = 0.0
   LUSE_VDW = .TRUE.
   LASPH = .TRUE.
   ENCUT = 600
   PREC = Accurate
   LASPH = .TRUE.
   LREAL = .FALSE.
   ISPIN = 1
   NELM = 200
   NELMIN = 8
   NCORE = 16
   KPAR = 1
   LWAVE = .FALSE.
   LCHARG = .FALSE.

 POTCAR:    PAW_PBE Ti_pv 07Sep2000
 POTCAR:    PAW_PBE O 08Apr2002
|               ----> ADVICE to this user running VASP <----                  |
|     You have switched on vdW-DFT.                                           |
|     This routine was written and supplied by Jiri Klimes. We recommend      |
|     that you carefully read and cite the following publications:            |
|       J. Klimes, D.R. Bowler, A. Michelides                                 |
|          J. Phys.: Cond Matt. 22 022201 (2010)                              |
|       J. Klimes, D.R. Bowler, A. Michelides                                 |
|          Phys. Rev. B. 83, 195131 (2011)                                    |
|     and references therein.                                                 |

   TITEL  = PAW_PBE Ti_pv 07Sep2000
   POMASS =   47.880; ZVAL   =   10.000    mass and valenz
   ENMAX  =  222.335; ENMIN  =  166.751 eV

   TITEL  = PAW_PBE O 08Apr2002
   POMASS =   16.000; ZVAL   =    6.000    mass and valenz
   ENMAX  =  400.000; ENMIN  =  300.000 eV

  PAW_PBE Ti_pv 07Sep2000               :
  PAW_PBE O 08Apr2002                   :

 POSCAR: Ti  O
  positions in direct lattice
 exchange correlation table for  LEXCH =       40
   RHO(1)=    0.500       N(1)  =     2000
   RHO(2)=  100.500       N(2)  =     4000

 ion  position               nearest neighbor table
   1  0.750  0.625  0.285-  81 1.98 141 1.98  82 1.98 142 1.98 163 2.02  84 2.02  11 3.00  31 3.00

   2  0.000  0.750  0.285-  83 1.98  84 1.98 103 1.98 104 1.98  85 2.02  32 3.00  12 3.00
   3  0.000  0.625  0.393-  85 1.98 145 1.98  86 1.98 146 1.98  87 2.02  88 2.02  13 3.00  33 3.00

[...]

  80  0.501  0.500  0.710- 234 1.84 239 1.97 179 1.97 180 1.98 240 1.98  50 2.99  70 2.99
  81  0.750  0.750  0.243-   1 1.98  11 1.98
  82  0.750  0.750  0.327-   1 1.98  11 1.98   4 2.02
  83  0.098  0.625  0.285-   2 1.98  32 1.98  41 2.02
  84  0.902  0.625  0.285-   2 1.98  32 1.98   1 2.02
  85  0.000  0.750  0.351-   3 1.98  13 1.98   2 2.02
  86  0.000  0.750  0.434-   3 1.98  13 1.98   6 2.02
  87  0.848  0.625  0.393-   4 1.98  34 1.98   3 2.02
  88  0.152  0.625  0.393-  44 1.98  74 1.98   3 2.02
  89  0.750  0.750  0.458-   5 1.98  15 1.98   4 2.02
  90  0.750  0.750  0.542-   5 1.98  15 1.98   8 2.17
  91  0.098  0.625  0.500-   6 1.98  36 1.98  45 2.02
  92  0.902  0.625  0.500-   6 1.98  36 1.98   5 2.02
  93  0.000  0.750  0.566-  17 1.92   7 1.92   6 2.05
  94  0.000  0.750  0.651-  10 1.83  17 2.05   7 2.05
  95  0.850  0.625  0.608-   7 1.87   8 2.07  38 2.07
  96  0.151  0.625  0.608-  78 1.93  48 1.93   7 2.13
  97  0.750  0.750  0.673-   8 1.88   9 2.13  19 2.13
  98  0.751  0.750  0.758-   9 1.85  19 1.85
  99  0.094  0.625  0.721-  40 1.97  10 1.97  49 2.07
 100  0.907  0.625  0.721-  40 1.97  10 1.98   9 2.07
 101  0.750  0.000  0.243-  11 1.98  21 1.98
 102  0.750  0.000  0.327-  11 1.98  21 1.98  14 2.02
 103  0.098  0.875  0.285-   2 1.98  12 1.98  51 2.02
 104  0.902  0.875  0.285-   2 1.98  12 1.98  11 2.02
 105  0.000  0.000  0.351-  13 1.98  23 1.98  12 2.02
 106  0.000  0.000  0.434-  13 1.98  23 1.98  16 2.02
 107  0.848  0.875  0.393-   4 1.98  14 1.98  13 2.02
 108  0.152  0.875  0.393-  44 1.98  54 1.98  13 2.02
 109  0.750  0.000  0.458-  15 1.98  25 1.98  14 2.02
 110  0.750  0.000  0.542-  15 1.98  25 1.98  18 2.17
 111  0.098  0.875  0.500-   6 1.98  16 1.98  55 2.02
 112  0.902  0.875  0.500-   6 1.98  16 1.98  15 2.02
 113  0.000  1.000  0.566-  27 1.92  17 1.92  16 2.05
 114  0.000  1.000  0.651-  20 1.83  17 2.05  27 2.05
 115  0.850  0.875  0.608-  17 1.87  18 2.07   8 2.07
 116  0.151  0.875  0.608-  58 1.93  48 1.93  17 2.13
 117  0.750  1.000  0.673-  18 1.88  19 2.13  29 2.13
 118  0.751  0.000  0.758-  19 1.85  29 1.85
 119  0.094  0.875  0.721-  10 1.97  20 1.97  59 2.08
 120  0.907  0.875  0.721-  10 1.97  20 1.98  19 2.07
 121  0.750  0.250  0.243-  21 1.98  31 1.98
 122  0.750  0.250  0.327-  21 1.98  31 1.98  24 2.02
 123  0.098  0.125  0.285-  12 1.98  22 1.98  61 2.02
 124  0.902  0.125  0.285-  12 1.98  22 1.98  21 2.02
 125  0.000  0.250  0.351-  23 1.98  33 1.98  22 2.02
 126  0.000  0.250  0.434-  23 1.98  33 1.98  26 2.02
 127  0.848  0.125  0.393-  14 1.98  24 1.98  23 2.02
 128  0.152  0.125  0.393-  54 1.98  64 1.98  23 2.02
 129  0.750  0.250  0.458-  25 1.98  35 1.98  24 2.02
 130  0.750  0.250  0.542-  25 1.98  35 1.98  28 2.17
 131  0.098  0.125  0.500-  16 1.98  26 1.98  65 2.02
 132  0.902  0.125  0.500-  16 1.98  26 1.98  25 2.02
 133  0.000  0.250  0.566-  27 1.92  37 1.92  26 2.05
 134  0.000  0.250  0.651-  30 1.83  37 2.05  27 2.05
 135  0.850  0.125  0.608-  27 1.87  18 2.07  28 2.07
 136  0.151  0.125  0.608-  68 1.93  58 1.93  27 2.13
 137  0.750  0.250  0.673-  28 1.89  39 2.13  29 2.13
 138  0.751  0.250  0.758-  39 1.85  29 1.85
 139  0.094  0.125  0.721-  30 1.97  20 1.97  69 2.08
[...]
 226  0.500  0.500  0.434-  43 1.98  73 1.98  76 2.02
 227  0.348  0.375  0.393-  64 1.98  74 1.98  73 2.02
 228  0.652  0.375  0.393-  24 1.98  34 1.98  73 2.02
 229  0.250  0.500  0.458-  45 1.98  75 1.98  74 2.02
 230  0.250  0.500  0.542-  45 1.98  75 1.98  78 2.17
 231  0.598  0.375  0.500-  66 1.98  76 1.98  35 2.02
 232  0.402  0.375  0.500-  66 1.98  76 1.98  75 2.02
 233  0.500  0.500  0.566-  47 1.92  77 1.92  76 2.05
 234  0.500  0.500  0.651-  80 1.84  47 2.05  77 2.05
 235  0.350  0.375  0.608-  77 1.87  78 2.07  68 2.07
 236  0.651  0.375  0.609-  28 1.93  38 1.93  77 2.13
 237  0.250  0.500  0.673-  78 1.88  79 2.13  49 2.13
 238  0.251  0.500  0.757-  49 1.85  79 1.85
 239  0.595  0.375  0.720-  70 1.97  80 1.97  39 2.08
 240  0.407  0.375  0.721-  70 1.97  80 1.98  79 2.07

IMPORTANT INFORMATION: All symmetrisations will be switched off!
NOSYMM: (Re-)initialisation of all symmetry stuff for point group C_1.

                                     Primitive cell

  volume of cell :    4896.0359

  direct lattice vectors                    reciprocal lattice vectors
    13.251808214  0.000000000  0.000000000     0.075461400  0.000000000  0.000000000
     0.000000000 11.981455428  0.000000000     0.000000000  0.083462314  0.000000000
     0.000000000  0.000000000 30.836130416     0.000000000  0.000000000  0.032429491

  length of vectors
    13.251808214 11.981455428 30.836130416     0.075461400  0.083462314  0.032429491

  position of ions in fractional coordinates (direct lattice)
     0.750000000  0.625000000  0.285125305
     0.000000000  0.750000000  0.285125305
     0.000000000  0.625000000  0.392562653
     0.750000000  0.750000000  0.392562653
     0.750000000  0.625000000  0.500000000
     0.000000000  0.750000000  0.500000000
     0.990932344  0.625002191  0.605209158
     0.743086550  0.749998349  0.612116716
     0.751148301  0.625051807  0.722306713
     0.000924413  0.750079674  0.709994613
     0.750000000  0.875000000  0.285125305
     0.000000000  0.000000000  0.285125305
     0.000000000  0.875000000  0.392562653
     0.750000000  0.000000000  0.392562653
     0.750000000  0.875000000  0.500000000
     0.000000000  0.000000000  0.500000000
     0.990878202  0.875007317  0.605232593
     0.743084779  0.000000903  0.612149048
     0.750908904  0.875006372  0.722398350
     0.000906260  0.999998555  0.709992264
     0.750000000  0.125000000  0.285125305
     0.000000000  0.250000000  0.285125305
     0.000000000  0.125000000  0.392562653
     0.750000000  0.250000000  0.392562653
     0.750000000  0.125000000  0.500000000
     0.000000000  0.250000000  0.500000000
     0.990916560  0.124992526  0.605223352
     0.743101567  0.250003959  0.612112826
     0.750888366  0.125002969  0.722393370
     0.000886714  0.249922458  0.709991538
     0.750000000  0.375000000  0.285125305
     0.000000000  0.500000000  0.285125305
     0.000000000  0.375000000  0.392562653
     0.750000000  0.500000000  0.392562653
     0.750000000  0.375000000  0.500000000
     0.000000000  0.500000000  0.500000000
     0.990945430  0.374998044  0.605215814
     0.743096869  0.499994210  0.612116449
     0.751106298  0.374966770  0.722310844
     0.000909408  0.499996627  0.709987013
     0.250000000  0.625000000  0.285125305
     0.500000000  0.750000000  0.285125305
     0.500000000  0.625000000  0.392562653
     0.250000000  0.750000000  0.392562653
     0.250000000  0.625000000  0.500000000
     0.500000000  0.750000000  0.500000000
     0.490870903  0.624902511  0.605334639
     0.243056090  0.750017780  0.612122656
     0.250918478  0.625042474  0.722309720
     0.500931531  0.749928255  0.709942426
     0.250000000  0.875000000  0.285125305
     0.500000000  0.000000000  0.285125305
     0.500000000  0.875000000  0.392562653
     0.250000000  0.000000000  0.392562653
     0.250000000  0.875000000  0.500000000
     0.500000000  0.000000000  0.500000000
     0.490896786  0.874947473  0.605168042
     0.243090232  0.999990643  0.612154563
     0.251152116  0.874985819  0.722409094
     0.500924026  0.000002651  0.709954657
[...]
     0.500000000  0.500000000  0.434466779
     0.347508286  0.375000000  0.392562653
     0.652491714  0.375000000  0.392562653
     0.250000000  0.500000000  0.458095874
     0.250000000  0.500000000  0.541904126
     0.597508286  0.375000000  0.500000000
     0.402491714  0.375000000  0.500000000
     0.500046012  0.500010540  0.566460351
     0.500163320  0.500014539  0.650687871
     0.350027162  0.375002335  0.608086417
     0.651290292  0.374996262  0.608500671
     0.249918484  0.500015203  0.673143834
     0.251009770  0.499980033  0.757471361
     0.594522174  0.374761854  0.720469472
     0.406893976  0.374729164  0.720511087

  ion indices of the primitive-cell ions
   primitive index   ion index
                 1           1
                 2           2
                 3           3
                 4           4
                 5           5
                 6           6
                 7           7
                 8           8
                 9           9
                10          10
                11          11
                12          12
                13          13
                14          14
                15          15
                16          16
                17          17
                18          18
                19          19
                20          20
                21          21
                22          22
                23          23
                24          24
                25          25
                26          26
                27          27
                28          28
[...]
   6.62590411 10.48377350 12.10511315
   3.31295205  0.00000000 12.10511315
   3.31295205 10.48377350 15.41806521
   6.62590411  0.00000000 15.41806521
   6.50527006 10.48314415 18.66104066
   3.22138513 11.98134332 18.87647793
   3.32821967 10.48360359 22.27630105
   6.63814912  0.00003176 21.89225440
[...]
   6.62590411  5.99072771 13.39727426
   4.60511315  4.49304579 12.10511315
   8.64669506  4.49304579 12.10511315
   3.31295205  5.99072771 14.12590411
   3.31295205  5.99072771 16.71022631
   7.91806521  4.49304579 15.41806521
   5.33374301  4.49304579 15.41806521
   6.62651385  5.99085400 17.46744526
   6.62806839  5.99090191 20.06469605
   4.63849282  4.49307376 18.75103207
   8.63077404  4.49300100 18.76380604
   3.31187182  5.99090986 20.75715107
   3.32633334  5.99048848 23.35748569
   7.87849382  4.49019245 22.21649059
   5.39208093  4.48980077 22.21777386

--------------------------------------- Iteration      FINAL  ---------------------------------------

--------------------OUTCAR has been truncated-------------------------

[...]

--------------------OUTCAR has been truncated-------------------------

  FORCE on cell =-STRESS in cart. coord.  units (eV):
  Direction    XX          YY          ZZ          XY          YZ          ZX
  Alpha Z  4468.13165  4468.13165  4468.13165
  Ewald  938307.79535956541.36259************    -0.15070     0.00649    19.87979
  Hartree979149.54956989238.47726************    -0.06269     0.00330    10.61983
  E(xc)   -8791.92095 -8765.19222 -8791.43078    -0.00056     0.00001     0.04957
  Local  ************************************     0.21250    -0.00958   -30.44696
  n-local -5440.90683 -5360.61788 -5477.99527    -0.00265     0.00035     0.34608
  augment  5302.81753  5284.83567  5307.56690    -0.00103    -0.00010     0.03972
  Kinetic 28594.26853 28120.76360 28628.56284     0.00252    -0.00022    -1.20250
  Fock        0.00000     0.00000     0.00000     0.00000     0.00000     0.00000
  Total      11.77369   -32.29966   -34.15704    -0.00262     0.00025    -0.71446
  in kB       3.85282   -10.56973   -11.17754    -0.00086     0.00008    -0.23380

 VOLUME and BASIS-vectors are now :
  energy-cutoff  :      600.00
  volume of cell :     4896.04
      direct lattice vectors                 reciprocal lattice vectors
    13.251808214  0.000000000  0.000000000     0.075461400  0.000000000  0.000000000
     0.000000000 11.981455428  0.000000000     0.000000000  0.083462314  0.000000000
     0.000000000  0.000000000 30.836130416     0.000000000  0.000000000  0.032429491

  length of vectors
    13.251808214 11.981455428 30.836130416     0.075461400  0.083462314  0.032429491

 FORCES acting on ions:
    Electron-Ion                     Ewald-Force                    Non-Local-Force
   0.124E-01 0.131E-02 0.364E+04   -.123E-01 -.120E-02 -.364E+04   -.848E-04 0.120E-04 0.357E+00
   -.300E-02 0.523E-03 0.381E+04   0.298E-02 -.500E-03 -.381E+04   -.184E-04 -.362E-05 -.366E+01
   -.866E-01 -.551E-02 0.185E+04   0.875E-01 0.511E-02 -.185E+04   -.256E-03 0.885E-04 -.472E-01
   0.125E+00 0.113E-01 0.184E+04   -.125E+00 -.110E-01 -.184E+04   -.537E-03 0.299E-04 0.201E+00
   0.178E+01 0.288E-01 -.203E+02   -.180E+01 -.285E-01 0.211E+02   -.156E-02 -.559E-04 -.125E+00
   -.261E+01 -.443E-01 -.990E+01   0.266E+01 0.455E-01 0.883E+01   -.184E-01 -.780E-03 0.377E+00
   -.316E+02 -.765E-01 -.181E+04   0.315E+02 0.772E-01 0.181E+04   0.158E+00 -.543E-03 0.209E+00
   -.105E+02 -.841E-01 -.188E+04   0.104E+02 0.872E-01 0.188E+04   0.190E+00 -.333E-03 -.283E+00
   -.548E+00 0.659E+00 -.363E+04   0.585E+00 -.673E+00 0.363E+04   -.171E-01 0.144E-02 -.332E+00
   -.106E+01 0.405E+00 -.365E+04   0.106E+01 -.407E+00 0.365E+04   -.403E-02 -.401E-03 0.999E+00
   0.104E-01 0.194E-02 0.364E+04   -.103E-01 -.176E-02 -.364E+04   -.424E-04 0.847E-05 0.357E+00
   -.296E-02 0.460E-03 0.381E+04   0.305E-02 -.463E-03 -.381E+04   -.219E-05 -.167E-05 -.366E+01
   -.887E-01 -.129E-02 0.185E+04   0.896E-01 0.103E-02 -.185E+04   -.245E-03 0.525E-04 -.472E-01
   0.111E+00 0.212E-02 0.184E+04   -.112E+00 -.211E-02 -.184E+04   -.511E-03 0.145E-04 0.201E+00
   0.162E+01 0.288E-01 -.203E+02   -.164E+01 -.246E-01 0.211E+02   -.115E-02 -.215E-03 -.126E+00
   -.264E+01 0.102E-01 -.100E+02   0.269E+01 -.109E-01 0.893E+01   -.183E-01 0.258E-03 0.377E+00
   -.317E+02 0.757E-01 -.181E+04   0.317E+02 -.752E-01 0.181E+04   0.161E+00 -.148E-02 0.208E+00
   -.104E+02 0.108E-01 -.188E+04   0.103E+02 -.984E-02 0.188E+04   0.189E+00 -.102E-03 -.281E+00
   -.721E+00 0.157E+00 -.363E+04   0.731E+00 -.156E+00 0.363E+04   -.183E-02 -.108E-02 -.334E+00
   -.111E+01 -.399E-01 -.365E+04   0.111E+01 0.393E-01 0.365E+04   -.435E-02 0.216E-03 0.100E+01
   0.104E-01 -.130E-02 0.364E+04   -.103E-01 0.118E-02 -.364E+04   -.331E-04 0.233E-04 0.357E+00
   -.297E-02 -.571E-03 0.381E+04   0.288E-02 0.498E-03 -.381E+04   -.400E-04 -.117E-04 -.366E+01
   -.878E-01 0.513E-02 0.185E+04   0.887E-01 -.490E-02 -.185E+04   -.229E-03 -.530E-04 -.472E-01
   0.125E+00 -.111E-01 0.184E+04   -.125E+00 0.108E-01 -.184E+04   -.545E-03 -.224E-06 0.201E+00
   0.161E+01 -.138E-01 -.203E+02   -.163E+01 0.952E-02 0.211E+02   -.101E-02 0.211E-03 -.126E+00
   -.259E+01 0.504E-01 -.986E+01   0.264E+01 -.508E-01 0.880E+01   -.184E-01 0.439E-03 0.377E+00
   -.316E+02 -.129E-01 -.181E+04   0.315E+02 0.117E-01 0.181E+04   0.160E+00 0.134E-02 0.208E+00
   -.106E+02 0.106E+00 -.188E+04   0.104E+02 -.111E+00 0.188E+04   0.191E+00 0.347E-03 -.282E+00
   -.726E+00 -.159E+00 -.363E+04   0.735E+00 0.158E+00 0.363E+04   -.103E-02 0.927E-03 -.334E+00
   -.106E+01 -.348E+00 -.365E+04   0.106E+01 0.350E+00 0.365E+04   -.444E-02 0.473E-03 0.999E+00
   0.124E-01 -.182E-02 0.364E+04   -.123E-01 0.178E-02 -.364E+04   -.342E-04 0.551E-04 0.357E+00
   -.275E-02 -.409E-03 0.381E+04   0.281E-02 0.464E-03 -.381E+04   -.227E-04 0.204E-04 -.366E+01
   -.857E-01 0.166E-02 0.185E+04   0.866E-01 -.123E-02 -.185E+04   -.231E-03 -.879E-04 -.472E-01
   0.140E+00 -.224E-02 0.184E+04   -.139E+00 0.228E-02 -.184E+04   -.625E-03 0.400E-05 0.201E+00
   0.178E+01 -.439E-01 -.203E+02   -.179E+01 0.437E-01 0.211E+02   -.160E-02 0.629E-04 -.125E+00
   -.257E+01 -.168E-01 -.969E+01   0.262E+01 0.167E-01 0.863E+01   -.185E-01 0.804E-04 0.374E+00
   -.315E+02 0.297E-01 -.181E+04   0.314E+02 -.296E-01 0.181E+04   0.159E+00 0.468E-03 0.208E+00
   -.102E+02 -.118E-01 -.188E+04   0.100E+02 0.118E-01 0.188E+04   0.188E+00 0.722E-04 -.283E+00
   -.502E+00 -.619E+00 -.363E+04   0.540E+00 0.631E+00 0.363E+04   -.169E-01 -.965E-03 -.333E+00
   -.100E+01 -.188E-01 -.365E+04   0.100E+01 0.197E-01 0.365E+04   -.462E-02 -.284E-03 0.992E+00
   -.448E-02 0.983E-03 0.364E+04   0.434E-02 -.962E-03 -.364E+04   0.234E-04 0.151E-04 0.357E+00
   -.504E-02 0.372E-02 0.381E+04   0.499E-02 -.355E-02 -.381E+04   0.165E-04 -.167E-04 -.366E+01
   -.982E-01 0.206E-01 0.185E+04   0.989E-01 -.187E-01 -.185E+04   -.187E-03 -.349E-03 -.471E-01
   0.560E-01 0.851E-02 0.184E+04   -.565E-01 -.828E-02 -.184E+04   -.458E-03 0.334E-04 0.201E+00
   0.128E+01 0.889E-02 -.203E+02   -.130E+01 -.780E-02 0.211E+02   -.871E-03 -.106E-03 -.125E+00
   -.268E+01 0.175E+00 -.102E+02   0.273E+01 -.179E+00 0.913E+01   -.179E-01 0.325E-02 0.375E+00
   -.319E+02 0.281E+00 -.182E+04   0.318E+02 -.261E+00 0.182E+04   0.163E+00 -.911E-02 0.213E+00
   -.109E+02 -.496E-01 -.188E+04   0.108E+02 0.537E-01 0.188E+04   0.194E+00 -.174E-02 -.281E+00
   -.422E+00 0.525E+00 -.363E+04   0.397E+00 -.539E+00 0.363E+04   0.484E-03 0.919E-03 -.333E+00
   -.102E+01 -.118E+01 -.365E+04   0.102E+01 0.123E+01 0.365E+04   -.450E-02 -.798E-02 0.102E+01
   -.241E-02 0.170E-02 0.364E+04   0.238E-02 -.165E-02 -.364E+04   -.106E-03 -.123E-04 0.357E+00
   -.502E-02 0.425E-03 0.381E+04   0.491E-02 -.453E-03 -.381E+04   -.231E-05 0.185E-04 -.366E+01
   -.968E-01 0.219E-01 0.185E+04   0.975E-01 -.208E-01 -.185E+04   -.200E-03 -.253E-03 -.471E-01
   0.701E-01 0.322E-02 0.184E+04   -.703E-01 -.322E-02 -.184E+04   -.503E-03 -.189E-04 0.201E+00
   0.147E+01 0.935E-02 -.203E+02   -.148E+01 -.567E-02 0.211E+02   -.104E-02 -.154E-03 -.126E+00
   -.265E+01 0.125E-01 -.973E+01   0.270E+01 -.122E-01 0.867E+01   -.186E-01 -.870E-04 0.373E+00
   -.317E+02 -.506E+00 -.181E+04   0.316E+02 0.512E+00 0.181E+04   0.160E+00 0.915E-03 0.198E+00
   -.109E+02 -.464E-01 -.188E+04   0.107E+02 0.466E-01 0.188E+04   0.194E+00 0.618E-05 -.281E+00
   -.212E+00 -.230E-01 -.363E+04   0.217E+00 0.269E-01 0.363E+04   -.164E-01 -.206E-02 -.335E+00
   -.989E+00 0.547E-02 -.365E+04   0.987E+00 -.620E-02 0.365E+04   -.356E-02 0.190E-03 0.992E+00
[...]
   -.561E+02 -.978E-02 0.111E+04   0.602E+02 0.955E-02 -.111E+04   -.376E+01 0.359E-03 0.160E+00
   0.561E+02 -.102E-01 0.111E+04   -.603E+02 0.998E-02 -.111E+04   0.376E+01 0.418E-03 0.160E+00
   0.238E+00 -.505E-02 0.479E+03   -.249E+00 0.530E-02 -.484E+03   0.168E-01 -.522E-03 0.433E+01
   -.105E+01 -.104E-01 -.519E+03   0.133E+01 0.969E-02 0.527E+03   -.283E+00 0.668E-03 -.750E+01
   -.578E+02 -.123E+00 -.782E+01   0.627E+02 0.122E+00 0.761E+01   -.538E+01 0.477E-02 0.321E+00
   0.575E+02 -.122E+00 -.478E+01   -.624E+02 0.121E+00 0.445E+01   0.540E+01 0.487E-02 0.439E+00
   -.189E+02 -.148E-01 -.613E+03   0.207E+02 0.185E-01 0.607E+03   -.181E+01 -.458E-02 0.670E+01
   -.113E+02 0.978E-01 -.155E+04   0.125E+02 -.103E+00 0.155E+04   -.116E+01 0.375E-02 0.289E+01
   0.828E+01 -.187E-02 -.110E+04   -.988E+01 -.122E-01 0.110E+04   0.161E+01 0.162E-01 0.734E+00
   0.695E+02 -.123E+00 -.110E+04   -.771E+02 0.115E+00 0.110E+04   0.758E+01 0.115E-01 0.127E+01
   -.603E+01 -.153E-01 -.176E+04   0.656E+01 0.183E-01 0.176E+04   -.522E+00 -.362E-02 -.242E+01
   -.594E+00 0.767E-01 -.263E+04   0.593E+00 -.837E-01 0.265E+04   0.272E-02 0.749E-02 -.205E+02
   -.248E+02 -.601E+00 -.227E+04   0.308E+02 0.612E+00 0.227E+04   -.612E+01 0.223E-01 -.371E+01
   0.234E+02 -.634E+00 -.227E+04   -.293E+02 0.651E+00 0.227E+04   0.588E+01 0.165E-01 -.374E+01
   -.439E+02 -.312E-02 0.936E+02   -.364E-11 -.467E-12 0.218E-10   0.439E+02 0.338E-02 -.936E+02

 POSITION                                       TOTAL-FORCE (eV/Angst)
      9.93886      7.48841      8.79216         0.000022      0.000118     -3.351314
      0.00000      8.98609      8.79216        -0.000032      0.000020      2.732518
      0.00000      7.48841     12.10511         0.000637     -0.000311      0.491958
      9.93886      8.98609     12.10511        -0.000485      0.000284     -0.681986
      9.93886      7.48841     15.41807        -0.017737      0.000233      0.691264
      0.00000      8.98609     15.41807         0.030203      0.000465     -0.694501
     13.13165      7.48844     18.66231         0.000724      0.000209      0.005152
      9.84724      8.98607     18.87531         0.000891      0.002643      0.008538
      9.95407      7.48903     22.27314         0.020729     -0.010888      0.033836
      0.01225      8.98705     21.89349        -0.002201     -0.001042      0.015622
      9.93886     10.48377      8.79216         0.000010      0.000180     -3.351353
      0.00000      0.00000      8.79216         0.000099     -0.000006      2.732503
      0.00000     10.48377     12.10511         0.000647     -0.000212      0.491703
      9.93886      0.00000     12.10511        -0.000773      0.000022     -0.681688
      9.93886     10.48377     15.41807        -0.018493      0.003995      0.694015
      0.00000      0.00000     15.41807         0.030140     -0.000443     -0.694099
     13.13093     10.48386     18.66303         0.004001     -0.000838      0.004568
      9.84722      0.00001     18.87631        -0.004589      0.000986      0.010650
      9.95090     10.48385     22.27597         0.008580      0.000434      0.018169
      0.01201     11.98144     21.89341        -0.001328     -0.000382      0.017834
      9.93886      1.49768      8.79216         0.000033     -0.000101     -3.351309
      0.00000      2.99536      8.79216        -0.000119     -0.000087      2.732471
      0.00000      1.49768     12.10511         0.000686      0.000177      0.491658
      9.93886      2.99536     12.10511        -0.000573     -0.000308     -0.681998
      9.93886      1.49768     15.41807        -0.018686     -0.004046      0.693944
      0.00000      2.99536     15.41807         0.029899      0.000016     -0.695049
     13.13144      1.49759     18.66275         0.000894      0.000073      0.005479
      9.84744      2.99541     18.87519         0.002561     -0.003976      0.008776
      9.95063      1.49772     22.27582         0.008543     -0.000006      0.018818
      0.01175      2.99443     21.89339        -0.001722      0.000833      0.014808
      9.93886      4.49305      8.79216         0.000097      0.000013     -3.351315
      0.00000      5.99073      8.79216         0.000042      0.000075      2.732437
      0.00000      4.49305     12.10511         0.000677      0.000333      0.492001
      9.93886      5.99073     12.10511        -0.000311      0.000046     -0.682307
      9.93886      4.49305     15.41807        -0.017581     -0.000192      0.691195
      0.00000      5.99073     15.41807         0.030003     -0.000059     -0.695237
     13.13182      4.49302     18.66251        -0.001680      0.000553      0.004315
      9.84738      5.99066     18.87530         0.008376      0.000006      0.006089
      9.95352      4.49265     22.27327         0.022270      0.010468      0.033328
      0.01205      5.99069     21.89325        -0.002461      0.000550      0.015852
      3.31295      7.48841      8.79216        -0.000110      0.000034     -3.351121
      6.62590      8.98609      8.79216        -0.000033      0.000149      2.732449
      6.62590      7.48841     12.10511         0.000428      0.001567      0.490682
      3.31295      8.98609     12.10511        -0.000885      0.000264     -0.681615
      3.31295      7.48841     15.41807        -0.019371      0.000981      0.692009
      6.62590      8.98609     15.41807         0.029478     -0.000551     -0.690930
      6.50493      7.48724     18.66618         0.002850      0.009773     -0.008903
      3.22093      8.98630     18.87549        -0.009285      0.002512      0.006051
      3.32512      7.48892     22.27324        -0.022885     -0.011853      0.034488
      6.63825      8.98523     21.89188        -0.003437      0.042464     -0.002258
      3.31295     10.48377      8.79216        -0.000129      0.000037     -3.351099
      6.62590      0.00000      8.79216        -0.000098     -0.000010      2.732685
      6.62590     10.48377     12.10511         0.000453      0.000862      0.492032
      3.31295      0.00000     12.10511        -0.000641     -0.000023     -0.681497
      3.31295     10.48377     15.41807        -0.019217      0.003527      0.694883
      6.62590      0.00000     15.41807         0.030014      0.000245     -0.699129
      6.50527     10.48314     18.66104         0.004198      0.005702      0.002348
      3.22139     11.98134     18.87648        -0.003285      0.000038      0.010147
      3.32822     10.48360     22.27630        -0.009014      0.001858      0.014433
      6.63815      0.00003     21.89225        -0.004953     -0.000522      0.009778
[...]
      6.62590      5.99073     13.39727        -0.001003      0.000008     -0.094130
      4.60511      4.49305     12.10511         0.420352      0.000130      0.049367
      8.64670      4.49305     12.10511        -0.419648      0.000177      0.049254
      3.31295      5.99073     14.12590         0.005656     -0.000277     -0.126266
      3.31295      5.99073     16.71023        -0.002117      0.000001     -0.045031
      7.91807      4.49305     15.41807        -0.471264      0.003872      0.103484
      5.33374      4.49305     15.41807         0.470976      0.003986      0.110248
      6.62651      5.99085     17.46745        -0.000148     -0.000860     -0.000522
      6.62807      5.99090     20.06470        -0.002358     -0.001744      0.024980
      4.63849      4.49307     18.75103         0.008432      0.002168      0.004000
      8.63077      4.49300     18.76381        -0.007971      0.002819      0.002154
      3.31187      5.99091     20.75715         0.007941     -0.000601     -0.009257
      3.32633      5.99049     23.35749         0.002251      0.000504     -0.026124
      7.87849      4.49019     22.21649        -0.027364      0.033362      0.036151
      5.39208      4.48980     22.21777         0.026707      0.033773      0.036789
    total drift:                               -0.002900      0.000264     -0.024906

  FREE ENERGIE OF THE ION-ELECTRON SYSTEM (eV)
  free  energy   TOTEN  =     -1565.95409027 eV

  energy  without entropy=    -1565.95409027  energy(sigma->0) =    -1565.95409027