 vasp.6.4.2 20Jul23 (build Feb 22 2024 13:53:45) complex
 executed on              LinuxNV date 2024.08.27  14:21:09
 OpenACC runtime initialized ...    4 GPUs detected

 INCAR:
   SYSTEM = Oxide-Surface
   ISMEAR = 0
   SIGMA = 0.05
   EDIFF = 1E-5
   ALGO = Normal
   IBRION = -1
   NSW = 0
   ISYM = 0
   DIPOL = 0.5 0.5 0.5
   IDIPOL = 3
   LDIPOL = .TRUE.
   ISTART = 1
   METAGGA = R2SCAN
   ENCUT = 1000
   PREC = Normal
   PRECFOCK = Normal
   LASPH = .TRUE.
   LREAL = Auto
   ISPIN = 1
   NELM = 200
   NELMIN = 8
   NCORE = 1
   KPAR = 1
   LWAVE = .FALSE.
   LCHARG = .FALSE.

 POTCAR:    PAW_PBE C_h 06Feb2004
 POTCAR:    PAW_PBE O_h 06Feb2004
 POTCAR:    PAW_PBE H_h 06Feb2004
 POTCAR:    PAW_PBE Ti_sv 26Sep2005
 POTCAR:    PAW_PBE O_h 06Feb2004
 POTCAR:    PAW_PBE C_h 06Feb2004
   VRHFIN =C: s2p2

   TITEL  = PAW_PBE C_h 06Feb2004
   POMASS =   12.011; ZVAL   =    4.000    mass and valenz
   ENMAX  =  700.000; ENMIN  =  500.000 eV

[...]

   TITEL  = PAW_PBE Ti_sv 26Sep2005
   POMASS =   47.880; ZVAL   =   12.000    mass and valenz
   ENMAX  =  274.610; ENMIN  =  205.957 eV

   TITEL  = PAW_PBE O_h 06Feb2004
   POMASS =   16.000; ZVAL   =    6.000    mass and valenz
   ENMAX  =  700.000; ENMIN  =  500.000 eV

 Optimization of the real space projectors (new method)

 maximal supplied QI-value         = 34.20
 optimisation between [QCUT,QGAM] = [ 16.08, 32.15] = [ 72.37,289.48] Ry
 Optimized for a Real-space Cutoff    0.71 Angstroem

   l    n(q)    QCUT    max X(q) W(low)/X(q) W(high)/X(q)  e(spline)
   0      7    16.076   134.812    0.49E-03    0.92E-03    0.59E-07
   0      7    16.076    80.524    0.48E-03    0.91E-03    0.58E-07
   1      6    16.076    79.026    0.37E-03    0.58E-03    0.12E-06
   1      6    16.076    45.188    0.36E-03    0.56E-03    0.12E-06
 Optimization of the real space projectors (new method)

[...]

   l    n(q)    QCUT    max X(q) W(low)/X(q) W(high)/X(q)  e(spline)
   0     12    16.089    12.277    0.23E-04    0.54E-05    0.15E-06
   0     12    16.089    11.419    0.26E-04    0.82E-06    0.19E-06
   1     12    16.089     4.010    0.40E-04    0.12E-04    0.58E-06
   1     12    16.089     6.182    0.55E-05    0.28E-04    0.27E-06
   2     11    16.089    47.177    0.17E-03    0.26E-03    0.90E-06
   2     11    16.089    42.437    0.17E-03    0.25E-03    0.88E-06
 Optimization of the real space projectors (new method)

 maximal supplied QI-value         = 34.20
 optimisation between [QCUT,QGAM] = [ 16.08, 32.15] = [ 72.37,289.48] Ry
 Optimized for a Real-space Cutoff    0.71 Angstroem

   l    n(q)    QCUT    max X(q) W(low)/X(q) W(high)/X(q)  e(spline)
   0      7    16.076   280.207    0.42E-03    0.69E-03    0.60E-07
   0      7    16.076   228.978    0.42E-03    0.69E-03    0.61E-07
   1      6    16.076    86.127    0.11E-03    0.66E-03    0.10E-06
   1      6    16.076    65.368    0.11E-03    0.65E-03    0.10E-06
  PAW_PBE C_h 06Feb2004                 :
  PAW_PBE O_h 06Feb2004                 :
  PAW_PBE H_h 06Feb2004                 :
  PAW_PBE Ti_sv 26Sep2005               :
  PAW_PBE O_h 06Feb2004                 :

 POSCAR:  C  O  H Ti  O
  positions in direct lattice

 METAGGA = R2SCAN                                      LMAXTAU =  6    LMIXTAU =  F

 ion  position               nearest neighbor table
   1  0.510  0.588  0.825-   3 1.09   5 1.10   6 1.10   2 1.45
   2  0.539  0.498  0.789-   4 1.00   1 1.45  86 2.18
   3  0.427  0.597  0.823-   1 1.09
   4  0.615  0.493  0.787-   2 1.00
   5  0.534  0.564  0.866-   1 1.10
   6  0.549  0.667  0.814-   1 1.10
   7  0.750  0.625  0.185-  88 1.95 148 1.95 147 1.95  87 1.95  90 1.98 169 1.98
   8  0.000  0.750  0.185-  89 1.95  90 1.95 109 1.95 110 1.95  91 1.98
   9  0.000  0.625  0.315-  91 1.95 151 1.95  92 1.95 152 1.95  94 1.98  93 1.98
  10  0.750  0.750  0.315-  93 1.95 113 1.95 174 1.95 194 1.95  95 1.98  88 1.98
  11  0.750  0.625  0.445-  95 1.95  96 1.95 155 1.95 156 1.95  98 1.98 177 1.98
  12  0.000  0.750  0.445-  97 1.95  98 1.95 117 1.95 118 1.95  92 1.98  99 2.00
  13  0.007  0.625  0.572- 102 1.87 159 1.90  99 1.90 100 2.02 160 2.02 101 2.03
  14  0.756  0.750  0.580- 103 1.87 101 1.93 121 1.93 182 2.01 202 2.01  96 2.09
  15  0.751  0.626  0.713- 104 1.83 164 1.87 185 2.00 106 2.02 103 2.08 163 2.09
  16  1.000  0.750  0.699- 100 1.81 125 1.94 126 1.94 105 1.95 106 1.96
  17  0.750  0.875  0.185-  88 1.95 108 1.95 107 1.95  87 1.95 110 1.98 189 1.98
  18  0.000  0.000  0.185- 109 1.95 110 1.95 129 1.95 130 1.95 111 1.98
  19  0.000  0.875  0.315-  91 1.95 111 1.95  92 1.95 112 1.95 114 1.98 113 1.98
  20  0.750  0.000  0.315- 113 1.95 133 1.95 194 1.95 214 1.95 115 1.98 108 1.98
  21  0.750  0.875  0.445-  95 1.95  96 1.95 115 1.95 116 1.95 118 1.98 197 1.98
  22  0.000  0.000  0.445- 117 1.95 118 1.95 137 1.95 138 1.95 112 1.98 119 2.00
  23  0.007  0.875  0.572- 122 1.87  99 1.90 119 1.90 120 2.02 100 2.02 121 2.04
  24  0.756  0.000  0.580- 123 1.87 121 1.93 141 1.93 222 2.01 202 2.02 116 2.10
  25  0.750  0.875  0.714- 124 1.84 104 1.84 205 2.02 126 2.04 103 2.09 123 2.09
  26  0.000  1.000  0.699- 120 1.81 126 1.95 146 1.95 145 1.95 125 1.95
  27  0.750  0.125  0.185- 108 1.95 128 1.95 127 1.95 107 1.95 130 1.98 209 1.98
  28  0.000  0.250  0.185- 129 1.95 130 1.95 149 1.95 150 1.95 131 1.98
  29  0.000  0.125  0.315- 111 1.95 131 1.95 112 1.95 132 1.95 134 1.98 133 1.98
  30  0.750  0.250  0.315- 133 1.95 153 1.95 214 1.95 234 1.95 135 1.98 128 1.98
  31  0.750  0.125  0.445- 115 1.95 116 1.95 135 1.95 136 1.95 138 1.98 217 1.98
  32  0.000  0.250  0.445- 137 1.95 138 1.95 157 1.95 158 1.95 132 1.98 139 2.00
  33  0.007  0.125  0.572- 142 1.86 139 1.90 119 1.90 120 2.02 140 2.02 141 2.04
  34  0.756  0.250  0.579- 143 1.87 141 1.93 161 1.93 222 2.01 242 2.01 136 2.09
  35  0.750  0.124  0.714- 124 1.83 144 1.84 225 2.02 146 2.04 123 2.09 143 2.10
  36  0.000  0.250  0.699- 140 1.81 145 1.94 146 1.94 165 1.95 166 1.96
  37  0.750  0.375  0.185- 128 1.95 148 1.95 147 1.95 127 1.95 150 1.98 229 1.98
  38  0.000  0.500  0.185-  89 1.95  90 1.95 149 1.95 150 1.95 151 1.98
  39  0.000  0.375  0.315- 131 1.95 151 1.95 132 1.95 152 1.95 154 1.98 153 1.98
  40  0.750  0.500  0.315-  93 1.95 153 1.95 174 1.95 234 1.95 155 1.98 148 1.98
  41  0.750  0.375  0.445- 135 1.95 136 1.95 155 1.95 156 1.95 158 1.98 237 1.98
  42  0.000  0.500  0.445-  97 1.95  98 1.95 157 1.95 158 1.95 152 1.98 159 2.00
  43  0.007  0.375  0.572- 162 1.87 159 1.90 139 1.90 140 2.02 160 2.02 161 2.03
  44  0.756  0.500  0.580- 163 1.86 161 1.93 101 1.93 242 2.02 182 2.02 156 2.10
  45  0.751  0.373  0.713- 144 1.83 164 1.87 166 2.01 245 2.02 143 2.06 163 2.10
  46  0.001  0.500  0.699- 160 1.81 165 1.94 105 1.94 106 1.95 166 1.95
  47  0.250  0.625  0.185- 168 1.95 228 1.95 227 1.95 167 1.95  89 1.98 170 1.98
  48  0.500  0.750  0.185- 169 1.95 170 1.95 189 1.95 190 1.95 171 1.98
  49  0.500  0.625  0.315- 171 1.95 231 1.95 172 1.95 232 1.95 174 1.98 173 1.98
  50  0.250  0.750  0.315- 173 1.95 193 1.95  94 1.95 114 1.95 175 1.98 168 1.98
  51  0.250  0.625  0.445- 175 1.95 176 1.95 235 1.95 236 1.95  97 1.98 178 1.98
  52  0.500  0.750  0.445- 177 1.95 178 1.95 197 1.95 198 1.95 172 1.98 179 1.99
  53  0.507  0.623  0.574- 182 1.88 239 1.90 179 1.93 240 1.98 180 2.01 181 2.04  83 2.90
  54  0.256  0.750  0.580- 183 1.87 181 1.92 201 1.92 102 2.02 122 2.02 176 2.10
  55  0.250  0.625  0.714- 184 1.83 244 1.84 105 2.03 186 2.04 183 2.09 243 2.09
  56  0.501  0.750  0.698- 180 1.80 185 1.91 186 1.94 205 1.95 206 1.96
  57  0.250  0.875  0.185- 168 1.95 188 1.95 187 1.95 167 1.95 109 1.98 190 1.98
  58  0.500  0.000  0.185- 189 1.95 190 1.95 209 1.95 210 1.95 191 1.98
  59  0.500  0.875  0.315- 171 1.95 191 1.95 172 1.95 192 1.95 194 1.98 193 1.98
  60  0.250  0.000  0.315- 193 1.95 213 1.95 114 1.95 134 1.95 195 1.98 188 1.98
[...]
 232  0.500  0.500  0.366-  49 1.95  79 1.95  82 1.98
 233  0.348  0.375  0.315-  70 1.95  80 1.95  79 1.98
 234  0.652  0.375  0.315-  30 1.95  40 1.95  79 1.98
 235  0.250  0.500  0.394-  51 1.95  81 1.95  80 1.98
 236  0.250  0.500  0.496-  51 1.95  81 1.95  84 2.11
 237  0.598  0.375  0.445-  72 1.95  82 1.95  41 1.98
 238  0.402  0.375  0.445-  72 1.95  82 1.95  81 1.98
 239  0.501  0.500  0.525-  53 1.90  83 1.90  82 2.00
 240  0.500  0.500  0.628-  86 1.91  53 1.98  83 1.98
 241  0.350  0.375  0.576-  74 1.92  84 1.93  83 2.04
 242  0.651  0.375  0.576-  83 1.88  34 2.01  44 2.02
 243  0.250  0.500  0.655-  84 1.86  55 2.09  85 2.10
 244  0.252  0.500  0.757-  85 1.84  55 1.84
 245  0.597  0.371  0.707-  76 1.92  86 1.96  45 2.02
 246  0.407  0.374  0.711-  86 1.93  76 1.94  85 2.03

IMPORTANT INFORMATION: All symmetrisations will be switched off!
NOSYMM: (Re-)initialisation of all symmetry stuff for point group C_1.

                                     Primitive cell

  volume of cell :    3846.0501

  direct lattice vectors                    reciprocal lattice vectors
    13.003980404  0.000000000  0.000000000     0.076899531  0.000000000  0.000000000
     0.000000000 11.830378115  0.000000000     0.000000000  0.084528152  0.000000000
     0.000000000  0.000000000 25.000000000     0.000000000  0.000000000  0.040000000

  length of vectors
    13.003980404 11.830378115 25.000000000     0.076899531  0.084528152  0.040000000

  position of ions in fractional coordinates (direct lattice)
     0.510341709  0.587960969  0.825486788
     0.538682103  0.497718066  0.789040016
     0.426752452  0.597317826  0.823436931
     0.615385514  0.493008596  0.787324489
     0.533741134  0.564413803  0.866202358
     0.548755556  0.667398809  0.814179363
     0.750010663  0.625004961  0.184773010
     0.000010663  0.750004961  0.184773010
     0.000010663  0.625004961  0.314812814
     0.750010663  0.750004961  0.314812814
     0.750010663  0.625004961  0.444852618
     0.000010663  0.750004961  0.444852618
     0.007004437  0.625078947  0.572008516
     0.756144220  0.750119383  0.579538884
     0.750770416  0.625802808  0.712619678
     0.999989337  0.750346962  0.699268567
     0.750010663  0.875004961  0.184773010
     0.000010663  0.000004961  0.184773010
     0.000010663  0.875004961  0.314812814
     0.750010663  0.000004961  0.314812814
     0.750010663  0.875004961  0.444852618
     0.000010663  0.000004961  0.444852618
     0.007115791  0.875054039  0.572076102
     0.755710742  0.000055089  0.579920543
     0.749639513  0.874945154  0.713922526
     0.000259023  0.999950542  0.699228467
     0.750010663  0.125004961  0.184773010
     0.000010663  0.250004961  0.184773010
     0.000010663  0.125004961  0.314812814
     0.750010663  0.250004961  0.314812814
     0.750010663  0.125004961  0.444852618
     0.000010663  0.250004961  0.444852618
     0.007282824  0.124972857  0.572087558
     0.756031323  0.249874285  0.579456177
     0.749601559  0.124221820  0.713929795
     0.000202769  0.249636124  0.699257736
     0.750010663  0.375004961  0.184773010
     0.000010663  0.500004961  0.184773010
     0.000010663  0.375004961  0.314812814
     0.750010663  0.500004961  0.314812814
     0.750010663  0.375004961  0.444852618
     0.000010663  0.500004961  0.444852618
[...]
   0.219E+02 0.123E+03 -.191E+04   -.454E+02 -.151E+03 0.190E+04   0.235E+02 0.289E+02 0.115E+02   0.484E-03 0.351E-04 -.203E-02
   0.579E+02 -.157E+02 -.274E+03   -.636E+02 0.163E+02 0.274E+03   0.601E+01 -.642E+00 0.234E+00   0.210E-04 0.410E-04 -.450E-03
   -.697E+02 0.160E+02 -.328E+03   0.769E+02 -.166E+02 0.328E+03   -.757E+01 0.601E+00 0.367E+00   0.117E-03 0.302E-04 -.365E-03
   -.117E+02 0.629E+01 -.242E+03   0.132E+02 -.768E+01 0.247E+03   -.158E+01 0.145E+01 -.547E+01   0.385E-04 0.588E-04 -.420E-03
   -.189E+02 -.613E+02 -.278E+03   0.215E+02 0.660E+02 0.276E+03   -.265E+01 -.495E+01 0.136E+01   0.593E-04 0.261E-04 -.403E-03
   -.250E+01 -.565E+00 0.367E+04   0.250E+01 0.567E+00 -.368E+04   -.168E-02 -.839E-03 0.127E+01   -.334E-03 -.165E-03 0.132E-02
   -.349E+00 -.946E+00 0.389E+04   0.353E+00 0.949E+00 -.388E+04   -.242E-02 -.116E-02 -.594E+01   -.815E-04 -.151E-03 0.165E-02
   -.284E+00 -.129E+00 0.188E+04   0.291E+00 0.129E+00 -.188E+04   0.422E-02 -.555E-03 -.211E+00   0.158E-04 -.170E-06 0.155E-02
   -.990E+00 -.273E+00 0.187E+04   0.978E+00 0.274E+00 -.187E+04   0.735E-02 -.683E-03 0.347E+00   -.932E-05 0.110E-04 0.161E-02
   -.232E+01 -.558E-01 -.139E+00   0.227E+01 0.363E-01 0.107E+01   0.163E-01 0.314E-02 -.256E+00   0.401E-04 -.895E-05 0.165E-02
   0.168E+01 -.118E+01 0.128E+02   -.168E+01 0.119E+01 -.141E+02   -.386E-02 -.394E-02 0.624E+00   0.368E-04 0.553E-04 0.129E-02
   0.171E+02 -.238E+01 -.182E+04   -.164E+02 0.239E+01 0.182E+04   -.800E+00 -.111E-01 0.932E+00   0.166E-03 0.265E-05 0.224E-02
   -.142E+01 -.119E+02 -.185E+04   0.198E+01 0.119E+02 0.185E+04   -.610E+00 0.102E-02 -.114E+01   -.205E-04 0.631E-04 0.188E-02
   -.120E+03 -.195E+02 -.356E+04   0.120E+03 0.197E+02 0.356E+04   0.336E+00 -.691E-01 -.150E+01   0.379E-03 0.631E-03 0.173E-02
   -.643E+01 -.644E+01 -.370E+04   0.653E+01 0.656E+01 0.370E+04   -.912E-01 -.114E+00 0.299E+01   -.673E-04 -.145E-04 0.112E-02
   -.210E+01 -.126E+01 0.367E+04   0.209E+01 0.126E+01 -.368E+04   -.110E-02 -.127E-02 0.127E+01   -.282E-03 -.610E-04 0.157E-02
   -.303E+00 -.362E+00 0.389E+04   0.306E+00 0.364E+00 -.388E+04   -.235E-02 -.934E-03 -.593E+01   -.651E-04 -.998E-04 0.192E-02
   -.236E+00 -.352E+00 0.188E+04   0.243E+00 0.352E+00 -.188E+04   0.428E-02 -.570E-03 -.211E+00   0.201E-04 0.148E-04 0.161E-02
   -.107E+01 -.187E+00 0.187E+04   0.106E+01 0.186E+00 -.187E+04   0.728E-02 -.524E-03 0.347E+00   -.488E-05 0.186E-04 0.168E-02
   -.426E+01 -.121E+01 -.182E+01   0.423E+01 0.124E+01 0.276E+01   0.806E-02 -.570E-02 -.260E+00   0.349E-04 0.874E-04 0.166E-02
   0.222E+01 -.367E+00 0.110E+02   -.222E+01 0.367E+00 -.123E+02   -.467E-02 -.848E-03 0.623E+00   0.399E-04 0.462E-04 0.130E-02
   0.206E+02 -.370E+01 -.182E+04   -.199E+02 0.372E+01 0.182E+04   -.834E+00 -.172E-01 0.930E+00   0.178E-03 0.603E-04 0.221E-02
   0.276E+01 -.213E+01 -.187E+04   -.219E+01 0.213E+01 0.187E+04   -.648E+00 0.182E-02 -.113E+01   -.519E-04 0.262E-04 0.178E-02
   -.364E+02 -.357E+02 -.362E+04   0.362E+02 0.357E+02 0.362E+04   0.142E+00 -.219E-01 -.169E+01   0.253E-03 -.205E-03 0.193E-02
   -.557E+01 -.273E+01 -.371E+04   0.555E+01 0.274E+01 0.371E+04   0.266E-01 -.390E-02 0.305E+01   -.251E-04 -.885E-04 0.880E-03
   -.193E+01 0.551E+00 0.367E+04   0.192E+01 -.553E+00 -.368E+04   -.821E-03 -.352E-03 0.127E+01   -.235E-03 -.812E-04 0.174E-02
   -.338E+00 0.941E+00 0.389E+04   0.341E+00 -.944E+00 -.388E+04   -.244E-02 -.593E-04 -.593E+01   -.725E-04 0.152E-03 0.189E-02
   -.241E+00 0.133E+00 0.188E+04   0.249E+00 -.133E+00 -.188E+04   0.409E-02 -.579E-03 -.211E+00   0.216E-04 0.285E-04 0.166E-02
   -.918E+00 0.273E+00 0.187E+04   0.906E+00 -.274E+00 -.187E+04   0.720E-02 -.487E-03 0.348E+00   -.373E-05 -.639E-05 0.170E-02
   -.405E+01 0.501E+00 -.238E+01   0.402E+01 -.550E+00 0.331E+01   0.872E-02 0.927E-02 -.257E+00   0.346E-04 -.215E-04 0.165E-02
   0.167E+01 0.122E+01 0.121E+02   -.166E+01 -.122E+01 -.135E+02   -.538E-02 0.281E-02 0.626E+00   0.392E-04 -.521E-04 0.129E-02
   0.222E+02 0.191E+01 -.182E+04   -.215E+02 -.193E+01 0.182E+04   -.851E+00 0.166E-01 0.929E+00   0.174E-03 -.177E-04 0.218E-02
   -.903E-01 0.111E+02 -.186E+04   0.639E+00 -.111E+02 0.186E+04   -.602E+00 0.754E-02 -.112E+01   -.164E-04 -.669E-04 0.180E-02
   -.267E+02 0.179E+02 -.363E+04   0.266E+02 -.180E+02 0.363E+04   0.148E+00 0.870E-01 -.172E+01   0.287E-03 0.767E-04 0.173E-02
   -.533E+01 0.570E+01 -.371E+04   0.543E+01 -.582E+01 0.370E+04   -.940E-01 0.112E+00 0.300E+01   -.898E-04 0.135E-04 0.853E-03
   -.232E+01 0.127E+01 0.367E+04   0.232E+01 -.128E+01 -.368E+04   -.135E-02 -.289E-04 0.127E+01   -.284E-03 0.306E-03 0.150E-02
   -.384E+00 0.367E+00 0.389E+04   0.388E+00 -.368E+00 -.388E+04   -.252E-02 -.273E-03 -.594E+01   -.110E-03 0.101E-03 0.157E-02
   -.290E+00 0.348E+00 0.188E+04   0.298E+00 -.348E+00 -.188E+04   0.404E-02 -.492E-03 -.211E+00   0.157E-04 -.433E-04 0.160E-02
   -.840E+00 0.187E+00 0.187E+04   0.829E+00 -.187E+00 -.187E+04   0.705E-02 -.684E-03 0.346E+00   -.588E-06 -.239E-04 0.157E-02
   -.206E+01 0.767E+00 -.699E+00   0.200E+01 -.730E+00 0.161E+01   0.170E-01 -.750E-02 -.253E+00   0.422E-04 -.562E-04 0.164E-02
   0.148E+01 0.379E+00 0.139E+02   -.147E+01 -.378E+00 -.152E+02   -.623E-02 -.109E-02 0.622E+00   0.332E-04 -.504E-04 0.128E-02
   0.176E+02 0.419E+01 -.182E+04   -.169E+02 -.420E+01 0.182E+04   -.796E+00 0.897E-02 0.938E+00   0.167E-03 -.450E-04 0.220E-02
   -.284E+01 0.223E+01 -.184E+04   0.346E+01 -.225E+01 0.184E+04   -.700E+00 0.145E-01 -.122E+01   0.298E-04 -.238E-04 0.184E-02
   -.101E+03 0.297E+02 -.358E+04   0.101E+03 -.299E+02 0.358E+04   0.197E+00 0.164E+00 -.149E+01   0.386E-03 -.526E-03 0.157E-02
   -.851E+01 0.354E+01 -.370E+04   0.852E+01 -.354E+01 0.369E+04   0.125E-01 -.278E-02 0.290E+01   -.756E-04 0.903E-04 0.103E-02
   0.248E+01 -.507E+00 0.367E+04   -.248E+01 0.508E+00 -.368E+04   -.134E-02 -.658E-03 0.127E+01   0.327E-03 -.948E-04 0.144E-02
   0.372E+00 -.158E+01 0.389E+04   -.375E+00 0.158E+01 -.388E+04   -.676E-03 -.184E-02 -.594E+01   0.869E-04 -.243E-03 0.829E-03
   0.459E+00 0.118E+00 0.188E+04   -.466E+00 -.105E+00 -.188E+04   0.831E-02 -.452E-02 -.221E+00   -.186E-04 0.121E-04 0.139E-02
   0.820E+00 -.205E+00 0.187E+04   -.808E+00 0.206E+00 -.187E+04   -.455E-03 -.730E-03 0.340E+00   0.972E-05 0.160E-04 0.167E-02
   0.372E+00 0.291E+00 -.330E+01   -.295E+00 -.311E+00 0.429E+01   -.262E-01 0.375E-02 -.275E+00   -.324E-04 0.528E-06 0.168E-02
   0.462E+01 0.173E+01 0.182E+02   -.465E+01 -.183E+01 -.193E+02   0.301E-02 0.484E-01 0.482E+00   -.366E-04 0.664E-04 0.125E-02
   0.274E+02 -.171E+02 -.180E+04   -.266E+02 0.170E+02 0.180E+04   -.813E+00 0.210E+00 0.604E+00   0.122E-03 0.653E-04 0.202E-02
   0.261E+02 -.812E+01 -.186E+04   -.255E+02 0.809E+01 0.186E+04   -.696E+00 0.252E-01 -.116E+01   -.290E-03 0.940E-04 0.178E-02
   0.786E+02 -.186E+02 -.358E+04   -.788E+02 0.186E+02 0.358E+04   0.149E+00 -.160E-01 -.175E+01   -.385E-03 0.173E-03 0.161E-02
   0.302E+02 -.987E+02 -.360E+04   -.298E+02 0.986E+02 0.359E+04   -.352E+00 0.161E+00 0.315E+01   0.646E-04 0.200E-03 0.794E-03
   0.208E+01 -.118E+01 0.367E+04   -.208E+01 0.119E+01 -.368E+04   -.193E-02 -.125E-02 0.127E+01   0.272E-03 -.114E-03 0.168E-02
   0.318E+00 -.621E+00 0.389E+04   -.321E+00 0.624E+00 -.388E+04   -.759E-03 -.128E-02 -.594E+01   0.768E-04 -.163E-03 0.130E-02
   0.417E+00 -.223E+00 0.188E+04   -.425E+00 0.223E+00 -.188E+04   0.846E-02 -.134E-02 -.221E+00   -.198E-04 0.190E-04 0.148E-02
   0.896E+00 -.199E+00 0.187E+04   -.883E+00 0.199E+00 -.187E+04   -.539E-03 -.614E-03 0.340E+00   0.559E-05 0.235E-04 0.174E-02
[...]
   -.629E+02 0.126E+00 0.938E+03   0.664E+02 -.127E+00 -.938E+03   -.308E+01 0.174E-02 0.200E+00   -.538E-04 -.112E-04 0.686E-03
   0.631E+02 0.139E+00 0.938E+03   -.666E+02 -.140E+00 -.938E+03   0.309E+01 0.111E-02 0.209E+00   0.392E-04 -.781E-05 0.660E-03
   0.144E+00 0.181E+00 0.429E+03   -.111E+00 -.185E+00 -.433E+03   -.449E-01 0.586E-02 0.387E+01   -.157E-04 -.239E-04 0.472E-03
   0.326E+01 0.709E+00 -.453E+03   -.350E+01 -.712E+00 0.459E+03   0.232E+00 0.237E-02 -.650E+01   -.619E-04 -.228E-04 0.103E-02
   -.650E+02 -.659E-01 0.744E+01   0.695E+02 0.583E-01 -.770E+01   -.497E+01 0.276E-01 0.326E+00   0.731E-04 -.578E-04 0.708E-03
   0.662E+02 -.132E+00 0.401E+01   -.708E+02 0.119E+00 -.421E+01   0.503E+01 0.360E-01 0.291E+00   -.100E-03 -.600E-04 0.708E-03
   0.154E+02 0.168E+01 -.467E+03   -.165E+02 -.175E+01 0.461E+03   0.109E+01 0.718E-01 0.618E+01   -.835E-05 -.122E-04 0.797E-03
   0.216E+02 0.282E+01 -.130E+04   -.228E+02 -.274E+01 0.130E+04   0.120E+01 -.885E-01 -.210E+01   -.243E-05 0.930E-05 0.103E-02
   -.612E+02 0.402E+01 -.901E+03   0.669E+02 -.407E+01 0.900E+03   -.565E+01 0.523E-01 0.126E+01   0.225E-04 -.443E-04 0.926E-03
   -.264E-01 0.669E+01 -.909E+03   -.452E+00 -.686E+01 0.908E+03   0.567E+00 0.165E+00 0.571E+00   0.522E-04 -.344E-04 0.964E-03
   0.266E+02 0.297E+01 -.145E+04   -.270E+02 -.301E+01 0.146E+04   0.407E+00 0.393E-01 -.127E+01   -.175E-03 0.233E-04 0.568E-03
   0.590E+02 0.101E+02 -.222E+04   -.588E+02 -.102E+02 0.224E+04   -.234E+00 0.565E-01 -.196E+02   -.286E-03 0.213E-03 -.506E-03
   -.628E+02 0.564E+02 -.178E+04   0.683E+02 -.561E+02 0.178E+04   -.556E+01 -.250E+00 -.508E+00   0.870E-04 -.110E-03 0.196E-03
   0.812E+02 0.504E+02 -.185E+04   -.870E+02 -.504E+02 0.185E+04   0.582E+01 -.293E-01 -.294E+01   0.523E-04 -.135E-04 0.327E-04
   0.881E+01 -.181E+02 0.891E+02   -.297E-11 0.121E-12 0.523E-11   -.890E+01 0.181E+02 -.885E+02   0.116E-02 0.293E-03 0.230E+00

 POSITION                                       TOTAL-FORCE (eV/Angst)
      6.63647      6.95580     20.63717        -0.014143     -0.096907     -0.029191
      7.00501      5.88819     19.72600         0.212610      0.267540      0.050570
      5.54948      7.06650     20.58592         0.264023     -0.045815     -0.003198
      8.00246      5.83248     19.68311        -0.372106      0.039069      0.013690
      6.94076      6.67723     21.65506        -0.077126      0.058713     -0.304361
      7.13601      7.89558     20.35448        -0.095511     -0.226080      0.039785
      9.75312      7.39405      4.61933        -0.000547      0.001251     -3.772436
      0.00014      8.87284      4.61933         0.001161      0.001805      2.977726
      0.00014      7.39405      7.87032         0.012020     -0.000105      0.493221
      9.75312      8.87284      7.87032        -0.004124      0.000152     -0.803815
      9.75312      7.39405     11.12132        -0.039551     -0.016140      0.669214
      0.00014      8.87284     11.12132        -0.004380      0.002084     -0.751123
      0.09109      7.39492     14.30021        -0.085476      0.002087      0.096503
      9.83288      8.87420     14.48847        -0.053793     -0.002421     -0.034765
      9.76300      7.40348     17.81549        -0.024299      0.051719      0.147790
     13.00384      8.87689     17.48171         0.005605      0.005743      0.095350
      9.75312     10.35164      4.61933        -0.001526      0.004485     -3.775986
      0.00014      0.00006      4.61933         0.000993      0.000944      2.975131
      0.00014     10.35164      7.87032         0.011898     -0.000091      0.493060
      9.75312      0.00006      7.87032        -0.004201     -0.000710     -0.805991
      9.75312     10.35164     11.12132        -0.020011      0.024522      0.677621
      0.00014      0.00006     11.12132        -0.003961     -0.000284     -0.746095
      0.09253     10.35222     14.30190        -0.097698      0.001892      0.089015
      9.82725      0.00065     14.49801        -0.079955      0.002559     -0.000966
      9.74830     10.35093     17.84806        -0.003028      0.007131      0.179759
      0.00337     11.82979     17.48071         0.003720      0.004413      0.092139
      9.75312      1.47886      4.61933        -0.002050     -0.001998     -3.778281
      0.00014      2.95765      4.61933         0.001219     -0.002447      2.975876
      0.00014      1.47886      7.87032         0.012258     -0.000450      0.492794
      9.75312      2.95765      7.87032        -0.003867     -0.000883     -0.806501
      9.75312      1.47886     11.12132        -0.019779     -0.038775      0.668180
      0.00014      2.95765     11.12132        -0.000508     -0.002987     -0.750643
      0.09471      1.47848     14.30219        -0.098133     -0.002887      0.080811
      9.83142      2.95611     14.48640        -0.053004      0.002038     -0.019381
      9.74780      1.46959     17.84824         0.009215     -0.015241      0.176466
      0.00264      2.95329     17.48144         0.001217     -0.009437      0.097900
      9.75312      4.43645      4.61933        -0.001135     -0.005325     -3.774763
      0.00014      5.91525      4.61933         0.001367     -0.001622      2.978240
      0.00014      4.43645      7.87032         0.012401     -0.000634      0.492883
      9.75312      5.91525      7.87032        -0.003875     -0.000047     -0.804107
      9.75312      4.43645     11.12132        -0.040308      0.029256      0.661000
      0.00014      5.91525     11.12132        -0.002102      0.000385     -0.754220
      0.09097      4.43624     14.29967        -0.082020     -0.002001      0.097872
      9.83583      5.91535     14.49346        -0.078997      0.002625     -0.051337
      9.77188      4.41543     17.81655        -0.006513     -0.051223      0.152550
      0.01083      5.91673     17.47964         0.018067     -0.008070      0.077409
      3.25113      7.39405      4.61933        -0.001626      0.000167     -3.773395
      6.50213      8.87284      4.61933        -0.003535      0.003853      2.993370
      6.50213      7.39405      7.87032         0.001205      0.009129      0.520771
      3.25113      8.87284      7.87032         0.011899      0.000138     -0.790656
      3.25113      7.39405     11.12132         0.050879     -0.015954      0.713797
      6.50213      8.87284     11.12132        -0.028185     -0.053827     -0.609754
      6.59527      7.36654     14.34066        -0.077394      0.022706      0.066467
      3.33106      8.87275     14.49619        -0.075539     -0.004537     -0.028296
      3.25551      7.39786     17.84504         0.028477      0.009154      0.178373
      6.51199      8.87436     17.44202        -0.005039      0.032396      0.061318
      3.25113     10.35164      4.61933        -0.000701      0.003899     -3.776172
      6.50213      0.00006      4.61933        -0.003299      0.002084      2.986976
      6.50213     10.35164      7.87032         0.000937     -0.001035      0.520986
      3.25113      0.00006      7.87032         0.012094     -0.000086     -0.790873
[...]
      6.50213      5.91525      9.14470         0.003652     -0.000544     -0.194575
      4.52552      4.43645      7.87032         0.380981      0.000674      0.051437
      8.47874      4.43645      7.87032        -0.370835      0.000457      0.054341
      3.25113      5.91525      9.84693        -0.011099      0.002630     -0.033733
      3.25113      5.91525     12.39570        -0.000856      0.000230     -0.035238
      7.77651      4.43645     11.12132        -0.508293      0.020358      0.067792
      5.22774      4.43645     11.12132         0.545938      0.023410      0.085530
      6.51393      5.91403     13.12315         0.012668      0.002396      0.049361
      6.50143      5.91940     15.68974         0.014864     -0.005699     -0.100615
      4.55324      4.43713     14.39628        -0.010153      0.003736      0.013461
      8.46916      4.43633     14.40655         0.096484      0.003086      0.006419
      3.25396      5.91930     16.36339         0.008811      0.000893      0.105367
      3.27802      5.91816     18.93489        -0.009273      0.008248     -0.301808
      7.75947      4.39476     17.67510        -0.123293     -0.011221      0.042554
      5.28662      4.42576     17.77770         0.122002     -0.032039     -0.007325
    total drift:                               -0.093676     -0.053202      0.790160

  FREE ENERGIE OF THE ION-ELECTRON SYSTEM (eV)
  free  energy   TOTEN  =     -2803.58300300 eV

  energy  without entropy=    -2803.58300300  energy(sigma->0) =    -2803.58300300

     |            E. Caldeweyher, S. Ehlert & S. Grimme          |
     |          Mulliken Center for Theoretical Chemistry        |
     |                    University of Bonn                     |

Rational (Becke-Johnson) damping: r2scan-D4-ATM
  s6         1.0000
  s8         0.6019
  s9         1.0000
  a1         0.5156
  a2         5.7734
 alp        16.0000

Dispersion energy:      -6.2405150722760E-01 Eh