 vasp.6.3.0 20Jan22 (build Aug 21 2024 11:13:42) complex
 executed on        HPECrayEX_GCC date 2024.11.26  19:42:08

 INCAR:
   SYSTEM = TiO2
   ISMEAR = 0
   SIGMA = 0.05
   EDIFF = 1E-4
   ALGO = ALL
   ISTART = 0
   IBRION = -1
   NSW = 0
   ISYM = 0
   ISIF = 2
   EDIFFG = -0.01
   DIPOL = 0.5 0.5 0.5
   IDIPOL = 3
   LDIPOL = .TRUE.
   GGA = MK
   LUSE_VDW = .TRUE.
   PARAM1 = 0.1234
   PARAM2 = 0.711357
   ZAB_VDW = -1.8867
   AGGAC = 0.0
   ENCUT = 600
   PREC = Accurate
   LASPH = .TRUE.
   LREAL = .FALSE.
   ISPIN = 1
   NELM = 200
   NELMIN = 8
   NCORE = 16
   KPAR = 1
   LWAVE = .FALSE.
   LCHARG = .FALSE.

 POTCAR:    PAW_PBE C 08Apr2002
 POTCAR:    PAW_PBE O 08Apr2002
 POTCAR:    PAW_PBE Ti_pv 07Sep2000
 POTCAR:    PAW_PBE O 08Apr2002
|               ----> ADVICE to this user running VASP <----                  |
|     You have switched on vdW-DFT.                                           |
|     This routine was written and supplied by Jiri Klimes. We recommend      |
|     that you carefully read and cite the following publications:            |
|       J. Klimes, D.R. Bowler, A. Michelides                                 |
|          J. Phys.: Cond Matt. 22 022201 (2010)                              |
|       J. Klimes, D.R. Bowler, A. Michelides                                 |
|          Phys. Rev. B. 83, 195131 (2011)                                    |
|     and references therein.                                                 |

   TITEL  = PAW_PBE C 08Apr2002
   POMASS =   12.011; ZVAL   =    4.000    mass and valenz
   ENMAX  =  400.000; ENMIN  =  300.000 eV

[...]

   TITEL  = PAW_PBE Ti_pv 07Sep2000
   POMASS =   47.880; ZVAL   =   10.000    mass and valenz
   ENMAX  =  222.335; ENMIN  =  166.751 eV

   TITEL  = PAW_PBE O 08Apr2002
   POMASS =   16.000; ZVAL   =    6.000    mass and valenz
   ENMAX  =  400.000; ENMIN  =  300.000 eV

  PAW_PBE C 08Apr2002                   :
  PAW_PBE O 08Apr2002                   :
  PAW_PBE Ti_pv 07Sep2000               :
  PAW_PBE O 08Apr2002                   :

 POSCAR:  C  O Ti  O
  positions in direct lattice
 exchange correlation table for  LEXCH =       43
   RHO(1)=    0.500       N(1)  =     2000
   RHO(2)=  100.500       N(2)  =     4000

 ion  position               nearest neighbor table
   1  0.500  0.607  0.835-   2 1.16   3 1.17
   2  0.500  0.704  0.843-   1 1.16
   3  0.500  0.511  0.825-   1 1.17  83 2.56
   4  0.750  0.625  0.265-  84 1.94  85 1.94 144 1.94 145 1.94 166 1.96  87 1.96  14 2.94  34 2.94

   5  0.000  0.750  0.265-  87 1.94 107 1.94 106 1.94  86 1.94  88 1.96  35 2.94  15 2.94
   6  0.000  0.625  0.382-  88 1.94  89 1.94 148 1.94 149 1.94  90 1.96  91 1.96  16 2.94  36 2.94

[...]

  84  0.750  0.750  0.219-   4 1.94  14 1.94
  85  0.750  0.750  0.311-   4 1.94  14 1.94   7 1.96
  86  0.098  0.625  0.265-   5 1.94  35 1.94  44 1.96
  87  0.902  0.625  0.265-   5 1.94  35 1.94   4 1.96
  88  0.000  0.750  0.336-   6 1.94  16 1.94   5 1.96
  89  0.000  0.750  0.428-   6 1.94  16 1.94   9 1.96
  90  0.848  0.625  0.382-   7 1.94  37 1.94   6 1.96
  91  0.152  0.625  0.382-  47 1.94  77 1.94   6 1.96
  92  0.750  0.750  0.454-   8 1.94  18 1.94   7 1.96
  93  0.750  0.750  0.546-   8 1.94  18 1.94  11 2.09
  94  0.098  0.625  0.500-   9 1.94  39 1.94  48 1.96
  95  0.902  0.625  0.500-   9 1.94  39 1.94   8 1.96
  96  1.000  0.750  0.572-  20 1.89  10 1.89   9 1.98
  97  0.000  0.750  0.665-  13 1.81  20 2.00  10 2.00
  98  0.850  0.625  0.618-  10 1.94  11 1.96  41 1.96
  99  0.150  0.625  0.618-  10 1.94  51 1.96  81 1.96
 100  0.751  0.750  0.690-  11 1.86  12 2.07  22 2.08
 101  0.749  0.750  0.783-  12 1.83  22 1.83
 102  0.094  0.625  0.743-  43 1.93  13 1.93  52 2.01
 103  0.906  0.625  0.743-  43 1.93  13 1.93  12 2.01
 104  0.750  0.000  0.219-  14 1.94  24 1.94
 105  0.750  0.000  0.311-  14 1.94  24 1.94  17 1.96
 106  0.098  0.875  0.265-   5 1.94  15 1.94  54 1.96
 107  0.902  0.875  0.265-   5 1.94  15 1.94  14 1.96
 108  0.000  0.000  0.336-  16 1.94  26 1.94  15 1.96
 109  0.000  0.000  0.428-  16 1.94  26 1.94  19 1.96
 110  0.848  0.875  0.382-   7 1.94  17 1.94  16 1.96
 111  0.152  0.875  0.382-  47 1.94  57 1.94  16 1.96
 112  0.750  0.000  0.454-  18 1.94  28 1.94  17 1.96
 113  0.750  0.000  0.546-  18 1.94  28 1.94  21 2.09
 114  0.098  0.875  0.500-   9 1.94  19 1.94  58 1.96
 115  0.902  0.875  0.500-   9 1.94  19 1.94  18 1.96
 116  1.000  0.000  0.572-  20 1.89  30 1.89  19 1.98
 117  0.000  0.000  0.665-  23 1.81  20 2.00  30 2.00
 118  0.850  0.875  0.619-  20 1.94  11 1.96  21 1.96
 119  0.150  0.875  0.619-  20 1.94  51 1.96  61 1.96
 120  0.750  0.000  0.690-  21 1.86  22 2.07  32 2.08
 121  0.750  0.000  0.783-  22 1.83  32 1.83
 122  0.094  0.875  0.743-  13 1.93  23 1.93  62 2.02
 123  0.906  0.875  0.743-  13 1.93  23 1.93  22 2.02
 124  0.750  0.250  0.219-  24 1.94  34 1.94
 125  0.750  0.250  0.311-  24 1.94  34 1.94  27 1.96
 126  0.098  0.125  0.265-  15 1.94  25 1.94  64 1.96
 127  0.902  0.125  0.265-  15 1.94  25 1.94  24 1.96
 128  0.000  0.250  0.336-  26 1.94  36 1.94  25 1.96
 129  0.000  0.250  0.428-  26 1.94  36 1.94  29 1.96
 130  0.848  0.125  0.382-  17 1.94  27 1.94  26 1.96
 131  0.152  0.125  0.382-  57 1.94  67 1.94  26 1.96
 132  0.750  0.250  0.454-  28 1.94  38 1.94  27 1.96
 133  0.750  0.250  0.546-  28 1.94  38 1.94  31 2.09
 134  0.098  0.125  0.500-  19 1.94  29 1.94  68 1.96
 135  0.902  0.125  0.500-  19 1.94  29 1.94  28 1.96
 136  1.000  0.250  0.572-  30 1.89  40 1.89  29 1.98
 137  0.000  0.250  0.665-  33 1.81  40 2.00  30 2.00
 138  0.850  0.125  0.619-  30 1.94  21 1.96  31 1.96
 139  0.150  0.125  0.619-  30 1.94  61 1.96  71 1.96
 140  0.751  0.250  0.690-  31 1.86  32 2.07  42 2.08
 141  0.750  0.250  0.783-  42 1.83  32 1.83
 142  0.094  0.125  0.743-  33 1.93  23 1.93  72 2.02
 143  0.906  0.125  0.743-  33 1.93  23 1.93  32 2.02
[...]
 229  0.500  0.500  0.428-  46 1.94  76 1.94  79 1.96
 230  0.348  0.375  0.382-  67 1.94  77 1.94  76 1.96
 231  0.652  0.375  0.382-  27 1.94  37 1.94  76 1.96
 232  0.250  0.500  0.454-  48 1.94  78 1.94  77 1.96
 233  0.250  0.500  0.546-  48 1.94  78 1.94  81 2.09
 234  0.598  0.375  0.500-  69 1.94  79 1.94  38 1.96
 235  0.402  0.375  0.500-  69 1.94  79 1.94  78 1.96
 236  0.500  0.500  0.573-  80 1.89  50 1.89  79 1.99
 237  0.500  0.500  0.665-  83 1.83  50 1.99  80 1.99
 238  0.350  0.375  0.619-  80 1.94  81 1.96  71 1.96
 239  0.650  0.375  0.619-  80 1.94  41 1.96  31 1.96
 240  0.249  0.500  0.690-  81 1.86  52 2.07  82 2.07
 241  0.252  0.500  0.783-  82 1.83  52 1.83
 242  0.594  0.374  0.742-  83 1.92  73 1.92  42 2.01
 243  0.406  0.374  0.742-  83 1.92  73 1.92  82 2.01

IMPORTANT INFORMATION: All symmetrisations will be switched off!
NOSYMM: (Re-)initialisation of all symmetry stuff for point group C_1.

                                     Primitive cell

  volume of cell :    4157.1448

  direct lattice vectors                    reciprocal lattice vectors
    12.893495846  0.000000000  0.000000000     0.077558485  0.000000000  0.000000000
     0.000000000 11.761907618  0.000000000     0.000000000  0.085020222  0.000000000
     0.000000000  0.000000000 27.412377441     0.000000000  0.000000000  0.036479871

  length of vectors
    12.893495846 11.761907618 27.412377441     0.077558485  0.085020222  0.036479871

  position of ions in fractional coordinates (direct lattice)
     0.499999790  0.607330465  0.834958925
     0.499999821  0.703845565  0.843368478
     0.499999750  0.510570097  0.825254775
     0.750000000  0.625000000  0.264823466
     0.000000000  0.750000000  0.264823466
     0.000000000  0.625000000  0.382411733
     0.750000000  0.750000000  0.382411733
     0.750000000  0.625000000  0.500000000
     0.000000000  0.750000000  0.500000000
     0.999999948  0.625070351  0.615614390
     0.750044021  0.750117307  0.622067359
     0.750153077  0.625331002  0.743136888
     0.999999764  0.750180935  0.730992750
     0.750000000  0.875000000  0.264823466
     0.000000000  0.000000000  0.264823466
     0.000000000  0.875000000  0.382411733
     0.750000000  0.000000000  0.382411733
     0.750000000  0.875000000  0.500000000
     0.000000000  0.000000000  0.500000000
     0.999999948  0.875075913  0.615643176
     0.750002571  0.000087391  0.622227781
     0.749940400  0.875218848  0.743610448
     0.999999755  0.000097702  0.731023981
     0.750000000  0.125000000  0.264823466
     0.000000000  0.250000000  0.264823466
     0.000000000  0.125000000  0.382411733
     0.750000000  0.250000000  0.382411733
     0.750000000  0.125000000  0.500000000
     0.000000000  0.250000000  0.500000000
     0.999999949  0.125032309  0.615663614
     0.750048210  0.250026461  0.622210000
     0.749996422  0.125173497  0.743617304
     0.999999770  0.250086097  0.731021188
     0.750000000  0.375000000  0.264823466
     0.000000000  0.500000000  0.264823466
     0.000000000  0.375000000  0.382411733
     0.750000000  0.500000000  0.382411733
     0.750000000  0.375000000  0.500000000
     0.000000000  0.500000000  0.500000000
     0.999999962  0.375025542  0.615619235
     0.750106886  0.500041742  0.622099569
     0.750165989  0.375187454  0.743508368
     0.999999769  0.500148881  0.730972091
     0.250000000  0.625000000  0.264823466
     0.500000000  0.750000000  0.264823466
     0.500000000  0.625000000  0.382411733
     0.250000000  0.750000000  0.382411733
     0.250000000  0.625000000  0.500000000
     0.500000000  0.750000000  0.500000000
     0.499999947  0.624541757  0.616110920
     0.249955792  0.750117305  0.622067364
     0.249846370  0.625330977  0.743136948
     0.499999744  0.750935535  0.730646544
     0.250000000  0.875000000  0.264823466
     0.500000000  0.000000000  0.264823466
     0.500000000  0.875000000  0.382411733
     0.250000000  0.000000000  0.382411733
     0.250000000  0.875000000  0.500000000
     0.500000000  0.000000000  0.500000000
     0.499999944  0.874848071  0.615308807
[...]
     0.500000000  0.500000000  0.428355971
     0.347680320  0.375000000  0.382411733
     0.652319680  0.375000000  0.382411733
     0.250000000  0.500000000  0.454055762
     0.250000000  0.500000000  0.545944238
     0.597680320  0.375000000  0.500000000
     0.402319680  0.375000000  0.500000000
     0.499999775  0.500039261  0.572538173
     0.500000027  0.500041501  0.665390755
     0.349737600  0.375083782  0.618758595
     0.650262191  0.375083781  0.618758295
     0.249007287  0.500098936  0.690082169
     0.251504126  0.500499534  0.783007428
     0.594168018  0.374118333  0.741558285
     0.405831422  0.374118356  0.741558235

  ion indices of the primitive-cell ions
   primitive index   ion index
                 1           1
                 2           2
                 3           3
                 4           4
                 5           5
                 6           6
                 7           7
                 8           8
                 9           9
                10          10
                11          11
                12          12
                13          13
                14          14
[...]
   6.44674463  8.83243440 20.02875884
   3.22337396 10.29166917  7.25944080
   6.44674792  0.00000000  7.25944080
   6.44674792 10.29166917 10.48281476
   3.22337396  0.00000000 10.48281476
   3.22337396 10.29166917 13.70618872
   6.44674792  0.00000000 13.70618872
   6.44674721 10.28988219 16.86707725
[...]
   6.44674792  5.88095381 11.74225556
   4.48281476  4.41071536 10.48281476
   8.41068109  4.41071536 10.48281476
   3.22337396  5.88095381 12.44674792
   3.22337396  5.88095381 14.96562952
   7.70618872  4.41071536 13.70618872
   5.18730713  4.41071536 13.70618872
   6.44674503  5.88141560 15.69463249
   6.44674827  5.88144194 18.23994253
   4.50934030  4.41170080 16.96164416
   8.38415286  4.41170078 16.96163593
   3.21057443  5.88211748 18.91679288
   3.24276740  5.88682928 21.46409516
   7.66090287  4.40034527 20.32787562
   5.23258576  4.40034554 20.32787424

--------------------------------------- Iteration      FINAL  ---------------------------------------

--------------------OUTCAR has been truncated-------------------------

[...]

--------------------OUTCAR has been truncated-------------------------

  FORCE on cell =-STRESS in cart. coord.  units (eV):
  Direction    XX          YY          ZZ          XY          YZ          ZX
  Alpha Z  5338.69809  5338.69809  5338.69809
  Ewald  666859.89013685308.59571************     0.00039   167.66301    -0.00293
  Hartree709566.85114719386.39910************     0.00036    77.63232    -0.00118
  E(xc)   -8698.73085 -8691.25939 -8695.39120     0.00001     0.40737    -0.00001
  Local  ************************************    -0.00092  -229.63685     0.00370
  n-local -5499.08697 -5425.50690 -5547.06041    -0.00010    -1.28023    -0.00002
  augment  5260.28755  5233.27637  5265.19254     0.00005    -0.61584     0.00018
  Kinetic 29018.48498 28473.27238 29047.45357     0.00016   -13.76918     0.00040
  Fock        0.00000     0.00000     0.00000     0.00000     0.00000     0.00000
  Total     125.37172    84.23572    59.55778    -0.00005     0.40061     0.00015
  in kB      48.31868    32.46472    22.95376    -0.00002     0.15440     0.00006

 VOLUME and BASIS-vectors are now :
  energy-cutoff  :      600.00
  volume of cell :     4157.14
      direct lattice vectors                 reciprocal lattice vectors
    12.893495846  0.000000000  0.000000000     0.077558485  0.000000000  0.000000000
     0.000000000 11.761907618  0.000000000     0.000000000  0.085020222  0.000000000
     0.000000000  0.000000000 27.412377441     0.000000000  0.000000000  0.036479871

  length of vectors
    12.893495846 11.761907618 27.412377441     0.077558485  0.085020222  0.036479871

 FORCES acting on ions:
    Electron-Ion                     Ewald-Force                    Non-Local-Force
   0.824E-05 0.558E+01 -.136E+04   -.707E-05 -.569E+01 0.136E+04   -.752E-05 -.140E-01 -.497E-02
   -.278E-04 -.276E+03 -.199E+04   0.723E-04 0.341E+03 0.200E+04   -.363E-04 -.643E+02 -.143E+02
   0.159E-03 0.271E+03 -.207E+04   -.167E-03 -.335E+03 0.206E+04   0.114E-04 0.622E+02 0.104E+02
   -.732E+00 -.800E-02 0.337E+04   0.732E+00 0.820E-02 -.337E+04   -.122E-04 0.220E-04 0.369E+00
   0.759E-04 -.210E+00 0.355E+04   -.167E-05 0.211E+00 -.354E+04   0.868E-05 -.691E-04 -.369E+01
   0.263E-04 -.481E-03 0.173E+04   -.193E-05 0.538E-03 -.172E+04   0.442E-05 0.357E-04 -.365E-01
   -.529E+00 -.147E+00 0.172E+04   0.527E+00 0.148E+00 -.172E+04   0.287E-03 0.366E-05 0.199E+00
   -.181E+01 0.945E-01 0.742E+01   0.180E+01 -.962E-01 -.665E+01   0.133E-02 0.136E-03 -.121E+00
   -.121E-03 -.722E+00 0.160E+02   0.129E-03 0.727E+00 -.169E+02   0.189E-05 -.197E-02 0.302E+00
   0.485E-03 -.511E+00 -.165E+04   -.484E-03 0.513E+00 0.165E+04   -.110E-04 -.166E-02 0.290E-01
   -.121E+02 -.570E+01 -.169E+04   0.121E+02 0.570E+01 0.169E+04   -.430E-02 -.404E-02 -.488E-01
   -.853E+02 -.560E+01 -.326E+04   0.853E+02 0.560E+01 0.326E+04   0.104E-01 0.110E-03 -.969E-01
   0.585E-03 -.779E+01 -.335E+04   -.558E-03 0.779E+01 0.335E+04   -.872E-05 -.289E-03 0.856E+00
   -.690E+00 -.334E+00 0.337E+04   0.690E+00 0.335E+00 -.337E+04   0.817E-04 -.522E-04 0.369E+00
   0.264E-04 -.196E+00 0.355E+04   -.168E-05 0.196E+00 -.354E+04   0.311E-05 -.317E-04 -.369E+01
   0.807E-04 -.236E+00 0.172E+04   -.335E-05 0.237E+00 -.172E+04   0.130E-04 0.367E-04 -.366E-01
   -.538E+00 -.185E+00 0.172E+04   0.536E+00 0.185E+00 -.172E+04   0.433E-03 0.237E-04 0.198E+00
   -.212E+01 -.113E+01 0.628E+01   0.211E+01 0.115E+01 -.550E+01   0.966E-03 -.125E-02 -.123E+00
   -.808E-04 -.622E+00 0.146E+02   0.114E-03 0.626E+00 -.155E+02   0.244E-05 -.139E-02 0.302E+00
   0.580E-03 -.372E+01 -.166E+04   -.572E-03 0.372E+01 0.166E+04   0.331E-05 -.166E-02 0.278E-01
   -.817E+01 -.398E+01 -.170E+04   0.816E+01 0.397E+01 0.170E+04   0.231E-04 0.431E-03 -.409E-01
   -.440E+02 -.313E+02 -.329E+04   0.440E+02 0.313E+02 0.329E+04   0.157E-01 -.248E-03 -.124E+00
   0.400E-03 -.587E+01 -.336E+04   -.541E-03 0.587E+01 0.336E+04   -.273E-05 -.266E-03 0.868E+00
   -.645E+00 0.805E-02 0.337E+04   0.645E+00 -.827E-02 -.337E+04   0.117E-03 -.299E-06 0.369E+00
   0.892E-04 0.210E+00 0.355E+04   -.167E-05 -.210E+00 -.354E+04   0.908E-05 0.581E-04 -.369E+01
   0.520E-04 0.691E-03 0.172E+04   -.413E-05 -.776E-03 -.172E+04   0.192E-07 0.236E-04 -.368E-01
   -.497E+00 0.147E+00 0.172E+04   0.496E+00 -.148E+00 -.172E+04   0.330E-03 -.345E-04 0.198E+00
   -.193E+01 -.851E-01 0.508E+01   0.193E+01 0.822E-01 -.429E+01   0.123E-02 0.131E-03 -.125E+00
   -.129E-03 0.766E+00 0.148E+02   0.122E-03 -.771E+00 -.157E+02   0.104E-06 0.101E-02 0.303E+00
   0.645E-03 0.385E+00 -.166E+04   -.621E-03 -.387E+00 0.166E+04   0.508E-05 0.188E-02 0.315E-01
   -.866E+01 0.543E+01 -.170E+04   0.866E+01 -.543E+01 0.170E+04   -.274E-02 0.223E-02 -.444E-01
   -.234E+02 0.423E+01 -.331E+04   0.234E+02 -.423E+01 0.331E+04   0.522E-02 -.101E-03 -.124E+00
   0.532E-03 0.684E+01 -.336E+04   -.595E-03 -.684E+01 0.336E+04   -.946E-05 0.112E-02 0.859E+00
   -.687E+00 0.334E+00 0.337E+04   0.687E+00 -.335E+00 -.337E+04   -.297E-04 0.995E-05 0.369E+00
   0.397E-04 0.196E+00 0.355E+04   -.165E-05 -.197E+00 -.354E+04   -.559E-05 0.322E-04 -.369E+01
   0.398E-04 0.236E+00 0.172E+04   -.262E-05 -.236E+00 -.172E+04   -.408E-05 -.164E-05 -.366E-01
   -.489E+00 0.185E+00 0.172E+04   0.488E+00 -.185E+00 -.172E+04   0.158E-03 -.564E-04 0.199E+00
   -.162E+01 0.111E+01 0.621E+01   0.161E+01 -.113E+01 -.543E+01   0.127E-02 0.121E-02 -.123E+00
   -.144E-03 0.678E+00 0.162E+02   0.152E-03 -.681E+00 -.171E+02   0.150E-04 -.230E-03 0.302E+00
   0.591E-03 0.373E+01 -.165E+04   -.569E-03 -.373E+01 0.165E+04   0.334E-05 0.151E-02 0.285E-01
   -.126E+02 0.433E+01 -.169E+04   0.126E+02 -.433E+01 0.169E+04   -.353E-02 0.158E-02 -.544E-01
   -.561E+02 0.336E+02 -.329E+04   0.561E+02 -.336E+02 0.329E+04   0.140E-01 0.468E-02 -.116E+00
   0.771E-03 0.631E+01 -.335E+04   -.673E-03 -.631E+01 0.335E+04   0.649E-05 0.307E-02 0.847E+00
   0.732E+00 -.773E-02 0.337E+04   -.732E+00 0.820E-02 -.337E+04   0.648E-07 -.514E-05 0.369E+00
   -.134E-03 -.275E+00 0.355E+04   0.166E-05 0.276E+00 -.354E+04   0.173E-04 -.147E-03 -.369E+01
   -.397E-04 0.674E-01 0.173E+04   0.233E-05 -.626E-01 -.173E+04   -.108E-05 -.939E-03 -.368E-01
   0.529E+00 -.147E+00 0.172E+04   -.527E+00 0.148E+00 -.172E+04   -.302E-03 -.822E-05 0.199E+00
   0.181E+01 0.946E-01 0.742E+01   -.180E+01 -.962E-01 -.665E+01   -.132E-02 0.139E-03 -.121E+00
   -.160E-03 -.455E+00 0.200E+02   0.146E-03 0.433E+00 -.209E+02   0.114E-04 0.147E-01 0.287E+00
   0.459E-03 -.136E+01 -.163E+04   -.449E-03 0.139E+01 0.163E+04   -.834E-05 -.343E-01 0.363E-01
   0.121E+02 -.570E+01 -.169E+04   -.121E+02 0.570E+01 0.169E+04   0.430E-02 -.405E-02 -.488E-01
   0.853E+02 -.560E+01 -.326E+04   -.853E+02 0.560E+01 0.326E+04   -.104E-01 0.103E-03 -.969E-01
   0.687E-03 -.721E+02 -.321E+04   -.668E-03 0.721E+02 0.321E+04   -.296E-05 -.138E-01 0.970E+00
   0.690E+00 -.334E+00 0.337E+04   -.690E+00 0.335E+00 -.337E+04   -.101E-03 0.256E-04 0.369E+00
   -.959E-04 -.266E+00 0.355E+04   0.166E-05 0.266E+00 -.354E+04   0.157E-05 -.258E-04 -.369E+01
   -.574E-04 -.217E+00 0.173E+04   0.327E-05 0.220E+00 -.173E+04   -.248E-05 -.826E-03 -.370E-01
   0.538E+00 -.185E+00 0.172E+04   -.536E+00 0.185E+00 -.172E+04   -.418E-03 0.348E-04 0.198E+00
   0.212E+01 -.113E+01 0.628E+01   -.211E+01 0.115E+01 -.550E+01   -.977E-03 -.125E-02 -.123E+00
   -.157E-03 -.930E+00 0.199E+02   0.156E-03 0.935E+00 -.208E+02   -.797E-05 -.136E-02 0.290E+00
   0.510E-03 -.110E+02 -.163E+04   -.499E-03 0.110E+02 0.163E+04   0.666E-05 -.535E-02 -.303E-01
[...]
   -.548E+02 0.137E+00 0.103E+04   0.589E+02 -.138E+00 -.103E+04   -.344E+01 0.168E-02 0.164E+00
   0.548E+02 0.137E+00 0.103E+04   -.589E+02 -.138E+00 -.103E+04   0.344E+01 0.167E-02 0.164E+00
   0.572E+00 0.261E+00 0.460E+03   -.568E+00 -.264E+00 -.464E+03   -.488E-02 0.621E-02 0.408E+01
   0.186E+01 0.987E+00 -.466E+03   -.185E+01 -.993E+00 0.473E+03   -.837E-02 0.951E-02 -.675E+01
   -.572E+02 0.485E+00 0.103E+02   0.620E+02 -.490E+00 -.105E+02   -.500E+01 0.178E-01 0.284E+00
   0.572E+02 0.485E+00 0.103E+02   -.620E+02 -.490E+00 -.105E+02   0.500E+01 0.178E-01 0.284E+00
   0.664E-03 0.164E+01 -.535E+03   -.694E-03 -.162E+01 0.529E+03   0.441E-04 -.158E-01 0.638E+01
   -.302E-03 0.740E+01 -.139E+04   0.338E-03 -.728E+01 0.139E+04   -.444E-04 -.115E+00 0.163E+01
   -.243E+02 0.529E+01 -.993E+03   0.274E+02 -.533E+01 0.992E+03   -.301E+01 0.370E-01 0.765E+00
   0.243E+02 0.529E+01 -.993E+03   -.274E+02 -.533E+01 0.992E+03   0.301E+01 0.370E-01 0.765E+00
   0.239E+02 0.748E+01 -.158E+04   -.241E+02 -.757E+01 0.158E+04   0.150E+00 0.818E-01 -.183E+01
   0.699E+02 0.205E+02 -.239E+04   -.697E+02 -.204E+02 0.241E+04   -.249E+00 -.132E-01 -.206E+02
   -.567E+02 0.508E+02 -.202E+04   0.629E+02 -.509E+02 0.203E+04   -.605E+01 0.829E-01 -.353E+01
   0.567E+02 0.508E+02 -.202E+04   -.629E+02 -.509E+02 0.203E+04   0.605E+01 0.829E-01 -.353E+01
   0.210E-03 0.184E+01 0.987E+02   0.186E-11 0.279E-11 -.116E-10   -.248E-03 -.183E+01 -.986E+02

 POSITION                                       TOTAL-FORCE (eV/Angst)
      6.44675      7.14336     22.88821        -0.000006     -0.108461      0.018867
      6.44675      8.27857     23.11874         0.000008      1.296044      0.274437
      6.44674      6.00528     22.62220         0.000004     -1.204950     -0.272110
      9.67012      7.35119      7.25944         0.000124      0.000206     -3.645758
      0.00000      8.82143      7.25944         0.000083      0.000462      2.510608
      0.00000      7.35119     10.48281         0.000029      0.000069      0.541347
      9.67012      8.82143     10.48281        -0.001052      0.000880     -0.735857
      9.67012      7.35119     13.70619        -0.006899     -0.001531      0.642783
      0.00000      8.82143     13.70619         0.000010      0.003462     -0.643811
     12.89350      7.35202     16.87545        -0.000009      0.000693     -0.024910
      9.67069      8.82281     17.05235        -0.004230     -0.001820     -0.049923
      9.67210      7.35509     20.37115         0.004552     -0.000796      0.228986
     12.89349      8.82356     20.03825         0.000020      0.000667      0.041436
      9.67012     10.29167      7.25944        -0.000166      0.001121     -3.646358
      0.00000      0.00000      7.25944         0.000028      0.000201      2.509970
      0.00000     10.29167     10.48281         0.000091      0.000340      0.541564
      9.67012      0.00000     10.48281        -0.001399      0.000490     -0.733611
      9.67012     10.29167     13.70619        -0.003958      0.020169      0.654822
      0.00000      0.00000     13.70619         0.000035      0.003069     -0.641409
     12.89350     10.29256     16.87624         0.000013     -0.001482     -0.023924
      9.67016      0.00103     17.05674        -0.004174     -0.002167     -0.054554
      9.66935     10.29424     20.38413         0.003657     -0.000556      0.228308
     12.89349      0.00115     20.03911        -0.000144     -0.000923      0.042752
      9.67012      1.47024      7.25944        -0.000131     -0.000246     -3.646485
      0.00000      2.94048      7.25944         0.000097     -0.000526      2.510277
      0.00000      1.47024     10.48281         0.000048     -0.000080      0.541653
      9.67012      2.94048     10.48281        -0.001107     -0.000941     -0.733415
      9.67012      1.47024     13.70619        -0.004081     -0.002845      0.666685
      0.00000      2.94048     13.70619        -0.000006     -0.004016     -0.642429
     12.89350      1.47062     16.87680         0.000030     -0.000465     -0.024221
      9.67074      2.94079     17.05626        -0.004035      0.001571     -0.054045
      9.67008      1.47228     20.38432         0.001075     -0.001232      0.229332
     12.89349      2.94149     20.03903        -0.000073     -0.003460      0.040659
      9.67012      4.41072      7.25944        -0.000156     -0.001169     -3.645943
      0.00000      5.88095      7.25944         0.000033     -0.000269      2.510562
      0.00000      4.41072     10.48281         0.000033     -0.000379      0.541421
      9.67012      5.88095     10.48281        -0.000778     -0.000551     -0.735607
      9.67012      4.41072     13.70619        -0.007220     -0.016029      0.654483
      0.00000      5.88095     13.70619         0.000023     -0.002813     -0.644642
     12.89350      4.41102     16.87559         0.000026      0.001438     -0.025104
      9.67150      5.88144     17.05323        -0.004047      0.001879     -0.051648
      9.67226      4.41292     20.38133         0.005347      0.001441      0.229701
     12.89349      5.88270     20.03768         0.000106      0.004368      0.039264
      3.22337      7.35119      7.25944        -0.000027      0.000447     -3.645441
      6.44675      8.82143      7.25944        -0.000115      0.000837      2.512227
      6.44675      7.35119     10.48281        -0.000038      0.003825      0.543752
      3.22337      8.82143     10.48281         0.001020      0.000855     -0.735956
      3.22337      7.35119     13.70619         0.006917     -0.001530      0.642755
      6.44675      8.82143     13.70619        -0.000002     -0.007744     -0.606929
      6.44675      7.34580     16.88907         0.000003     -0.003478     -0.021513
      3.22280      8.82281     17.05235         0.004230     -0.001796     -0.049950
      3.22139      7.35509     20.37115        -0.004528     -0.000807      0.228862
      6.44674      8.83243     20.02876         0.000017     -0.011419      0.033390
      3.22337     10.29167      7.25944         0.000074      0.001093     -3.646286
      6.44675      0.00000      7.25944        -0.000093      0.000415      2.511818
      6.44675     10.29167     10.48281        -0.000057      0.002785      0.546614
      3.22337      0.00000     10.48281         0.001388      0.000455     -0.733667
      3.22337     10.29167     13.70619         0.003931      0.020152      0.654823
      6.44675      0.00000     13.70619        -0.000008      0.003561     -0.669653
      6.44675     10.28988     16.86708         0.000018     -0.002033     -0.025976
[...]
      6.44675      5.88095     11.74226         0.000007      0.000471      0.089342
      4.48281      4.41072     10.48281         0.649729      0.000750      0.052113
      8.41068      4.41072     10.48281        -0.649751      0.000747      0.052116
      3.22337      5.88095     12.44675        -0.001482      0.003529     -0.308134
      3.22337      5.88095     14.96563         0.001642      0.003466      0.430320
      7.70619      4.41072     13.70619        -0.230121      0.013282      0.081203
      5.18731      4.41072     13.70619         0.230103      0.013281      0.081210
      6.44675      5.88142     15.69463         0.000014     -0.002270     -0.155199
      6.44675      5.88144     18.23994        -0.000008      0.002569      0.174131
      4.50934      4.41170     16.96164         0.085286     -0.001794     -0.027170
      8.38415      4.41170     16.96164        -0.085326     -0.001810     -0.027137
      3.21057      5.88212     18.91679         0.002295     -0.002779     -0.044032
      3.24277      5.88683     21.46410         0.000528     -0.003737      0.224643
      7.66090      4.40035     20.32788         0.189988     -0.010021      0.064077
      5.23259      4.40035     20.32787        -0.190024     -0.010018      0.064048
    total drift:                               -0.000038      0.005031      0.103967

  FREE ENERGIE OF THE ION-ELECTRON SYSTEM (eV)
  free  energy   TOTEN  =     -1758.17885909 eV

  energy  without entropy=    -1758.17885909  energy(sigma->0) =    -1758.17885909