 vasp.6.3.0 20Jan22 (build Apr  1 2022 16:44:48) complex
 executed on        HPECrayEX_GCC date 2023.01.23  22:48:30

 INCAR:
   SYSTEM = MgO-rocksalt
   ISMEAR = 0
   SIGMA = 0.05
   EDIFF = 1E-8
   ALGO = ALL
   ISTART = 0
   IBRION = 5
   POTIM = 0.01
   NFREE = 2
   ISYM = 0
   DIPOL = 0.5 0.5 0.5
   IDIPOL = 3
   LDIPOL = .TRUE.
   GGA = PE
   IVDW = 1
   VDW_C6 = 1.23 0.70 0.63 0.70
   VDW_R0 = 1.397 1.342 1.243 1.342
   ENCUT = 600
   PREC = Accurate
   LASPH = .TRUE.
   LREAL = .FALSE.
   ISPIN = 1
   NELM = 200
   NELMIN = 8
   NCORE = 8
   KPAR = 1
   LWAVE = .FALSE.
   LCHARG = .FALSE.

 POTCAR:    PAW_PBE N 08Apr2002
 POTCAR:    PAW_PBE O 08Apr2002
 POTCAR:    PAW_PBE Mg_pv 13Apr2007
 POTCAR:    PAW_PBE O 08Apr2002
 POTCAR:    PAW_PBE N 08Apr2002
   VRHFIN =N: s2p3

   TITEL  = PAW_PBE N 08Apr2002
   POMASS =   14.001; ZVAL   =    5.000    mass and valenz
   ENMAX  =  400.000; ENMIN  =  300.000 eV

[...]

   TITEL  = PAW_PBE Mg_pv 13Apr2007
   POMASS =   24.305; ZVAL   =    8.000    mass and valenz
   ENMAX  =  403.929; ENMIN  =  302.947 eV

   TITEL  = PAW_PBE O 08Apr2002
   POMASS =   16.000; ZVAL   =    6.000    mass and valenz
   ENMAX  =  400.000; ENMIN  =  300.000 eV

  PAW_PBE N 08Apr2002                   :
  PAW_PBE O 08Apr2002                   :
  PAW_PBE Mg_pv 13Apr2007               :
  PAW_PBE O 08Apr2002                   :

 POSCAR:  N  O Mg  O
  positions in direct lattice
 exchange correlation table for  LEXCH =        8
   RHO(1)=    0.500       N(1)  =     2000
   RHO(2)=  100.500       N(2)  =     4000

 ion  position               nearest neighbor table
   1  0.547  0.547  0.754-   3 1.18
   2  0.704  0.704  0.753-   4 1.18
   3  0.520  0.520  0.807-   1 1.18
   4  0.731  0.731  0.806-   2 1.18
   5  0.250  0.000  0.351-  37 2.12  39 2.12  40 2.12  47 2.12  56 2.12
   6  0.500  0.250  0.351-  38 2.12  39 2.12  40 2.12  48 2.12  55 2.12
   7  0.250  0.250  0.450-  39 2.12  38 2.12  37 2.12  45 2.12  54 2.12  43 2.12
   8  0.500  0.000  0.450-  40 2.12  38 2.12  37 2.12  46 2.12  53 2.12  44 2.12
   9  0.250  0.000  0.550-  44 2.12  51 2.12  43 2.12  60 2.12  37 2.13  41 2.14
  10  0.500  0.250  0.550-  52 2.12  59 2.12  43 2.12  44 2.12  38 2.13  42 2.13
  11  0.250  0.250  0.648-  43 2.11  58 2.11  41 2.11  42 2.12  49 2.12
  12  0.500  0.002  0.648-  42 2.09  44 2.10  50 2.11  41 2.12  57 2.12
  13  0.250  0.500  0.351-  45 2.12  39 2.12  47 2.12  48 2.12  64 2.12
  14  0.500  0.750  0.351-  46 2.12  40 2.12  47 2.12  48 2.12  63 2.12
  15  0.250  0.750  0.450-  47 2.12  45 2.12  46 2.12  37 2.12  62 2.12  51 2.12
  16  0.500  0.500  0.450-  48 2.12  45 2.12  46 2.12  38 2.12  61 2.12  52 2.13
  17  0.250  0.500  0.550-  52 2.12  51 2.12  43 2.12  68 2.12  45 2.13  49 2.13
  18  0.501  0.749  0.550-  52 2.11  67 2.11  51 2.12  44 2.12  46 2.13  50 2.16
  19  0.248  0.750  0.648-  66 2.09  51 2.10  50 2.11  41 2.12  49 2.12
  20  0.498  0.498  0.651-  49 2.11  42 2.11  52 2.15  65 2.16  50 2.16
  21  0.750  0.000  0.351-  53 2.12  40 2.12  55 2.12  56 2.12  63 2.12
  22  0.000  0.250  0.351-  54 2.12  39 2.12  55 2.12  56 2.12  64 2.12
  23  0.750  0.250  0.450-  55 2.12  53 2.12  54 2.12  38 2.12  61 2.12  59 2.12
  24  0.000  0.000  0.450-  56 2.12  53 2.12  54 2.12  37 2.12  62 2.12  60 2.12
  25  0.750  1.000  0.550-  67 2.12  44 2.12  60 2.12  59 2.12  53 2.13  57 2.13
  26  0.000  0.250  0.550-  68 2.12  59 2.12  43 2.12  60 2.12  54 2.13  58 2.14
  27  0.750  0.248  0.648-  57 2.09  59 2.10  65 2.11  58 2.12  42 2.12
  28  0.001  0.001  0.648-  60 2.11  41 2.11  58 2.11  66 2.12  57 2.12
  29  0.750  0.500  0.351-  61 2.12  55 2.12  48 2.12  63 2.12  64 2.12
  30  0.000  0.750  0.351-  62 2.12  56 2.12  47 2.12  63 2.12  64 2.12
  31  0.750  0.750  0.450-  63 2.12  53 2.12  61 2.12  62 2.12  46 2.12  67 2.13
  32  0.000  0.500  0.450-  64 2.12  54 2.12  61 2.12  62 2.12  45 2.12  68 2.12
  33  0.749  0.501  0.550-  52 2.11  67 2.11  59 2.12  68 2.12  61 2.13  65 2.16
  34  1.000  0.750  0.550-  67 2.12  68 2.12  60 2.12  51 2.12  62 2.13  66 2.13
  35  0.753  0.753  0.651-  57 2.11  66 2.11  67 2.14  50 2.16  65 2.16
  36  0.002  0.500  0.648-  49 2.09  68 2.10  65 2.11  58 2.12  66 2.12
  37  0.250  0.000  0.450-   5 2.12   7 2.12   8 2.12  15 2.12  24 2.12   9 2.13
  38  0.500  0.250  0.450-   6 2.12   7 2.12   8 2.12  16 2.12  23 2.12  10 2.13
  39  0.250  0.250  0.351-   7 2.12   6 2.12   5 2.12  13 2.12  22 2.12
  40  0.500  0.000  0.351-   8 2.12   6 2.12   5 2.12  14 2.12  21 2.12
  41  0.250  0.000  0.651-  28 2.11  11 2.11  12 2.12  19 2.12   9 2.14
  42  0.500  0.249  0.650-  12 2.09  20 2.11  11 2.12  27 2.12  10 2.13
  43  0.250  0.250  0.550-  11 2.11  10 2.12  17 2.12  26 2.12   9 2.12   7 2.12
  44  0.500  1.000  0.550-  12 2.10  25 2.12   9 2.12  18 2.12   8 2.12  10 2.12
  45  0.250  0.500  0.450-  13 2.12   7 2.12  15 2.12  16 2.12  32 2.12  17 2.13
  46  0.500  0.750  0.450-  14 2.12   8 2.12  15 2.12  16 2.12  31 2.12  18 2.13
  47  0.250  0.750  0.351-  15 2.12  13 2.12  14 2.12   5 2.12  30 2.12
  48  0.500  0.500  0.351-  16 2.12  13 2.12  14 2.12   6 2.12  29 2.12
  49  0.249  0.500  0.650-  36 2.09  20 2.11  11 2.12  19 2.12  17 2.13
  50  0.498  0.752  0.651-  12 2.11  19 2.11  20 2.16  35 2.16  18 2.16
  51  0.251  0.750  0.550-  19 2.10  17 2.12   9 2.12  18 2.12  15 2.12  34 2.12
  52  0.500  0.500  0.550-  18 2.11  33 2.11  17 2.12  10 2.12  16 2.13  20 2.15
  53  0.750  0.000  0.450-  21 2.12   8 2.12  23 2.12  24 2.12  31 2.12  25 2.13
  54  0.000  0.250  0.450-  22 2.12   7 2.12  23 2.12  24 2.12  32 2.12  26 2.13
  55  0.750  0.250  0.351-  23 2.12  21 2.12  22 2.12   6 2.12  29 2.12
  56  0.000  0.000  0.351-  24 2.12  21 2.12  22 2.12   5 2.12  30 2.12
  57  0.750  0.001  0.650-  27 2.09  35 2.11  28 2.12  12 2.12  25 2.13
  58  0.000  0.250  0.651-  28 2.11  11 2.11  36 2.12  27 2.12  26 2.14
  59  0.750  0.251  0.550-  27 2.10  10 2.12  26 2.12  33 2.12  23 2.12  25 2.12
  60  0.000  0.000  0.550-  28 2.11  34 2.12  25 2.12   9 2.12  26 2.12  24 2.12
  61  0.750  0.500  0.450-  29 2.12  23 2.12  16 2.12  31 2.12  32 2.12  33 2.13
  62  0.000  0.750  0.450-  30 2.12  24 2.12  15 2.12  31 2.12  32 2.12  34 2.13
  63  0.750  0.750  0.351-  31 2.12  21 2.12  29 2.12  30 2.12  14 2.12
  64  0.000  0.500  0.351-  32 2.12  22 2.12  29 2.12  30 2.12  13 2.12
  65  0.752  0.498  0.651-  36 2.11  27 2.11  20 2.16  35 2.16  33 2.16
  66  0.001  0.750  0.650-  19 2.09  35 2.11  28 2.12  36 2.12  34 2.13
  67  0.750  0.750  0.550-  33 2.11  18 2.11  34 2.12  25 2.12  31 2.13  35 2.14
  68  1.000  0.500  0.550-  36 2.10  34 2.12  26 2.12  33 2.12  32 2.12  17 2.12

IMPORTANT INFORMATION: All symmetrisations will be switched off!
NOSYMM: (Re-)initialisation of all symmetry stuff for point group C_1.

                                     Primitive cell

  volume of cell :    1530.6606

  direct lattice vectors                    reciprocal lattice vectors
     8.467142631  0.000000000  0.000000000     0.118103597  0.000000000  0.000000000
     0.000000000  8.467142631  0.000000000     0.000000000  0.118103597  0.000000000
     0.000000000  0.000000000 21.350356973     0.000000000  0.000000000  0.046837624

  length of vectors
     8.467142631  8.467142631 21.350356973     0.118103597  0.118103597  0.046837624

  position of ions in fractional coordinates (direct lattice)
     0.547200145  0.547200072  0.753593784
     0.704005159  0.704005109  0.753398230
     0.520387496  0.520387397  0.806742586
     0.731383282  0.731383220  0.806456175
     0.250000000  0.000000000  0.351282183
     0.500000000  0.250000000  0.351282183
     0.250000000  0.250000000  0.450427394
     0.500000000  0.000000000  0.450427394
     0.250077680  0.000008961  0.550056497
     0.500031447  0.250465667  0.550269438
     0.249634973  0.249634968  0.648389504
     0.499684473  0.001668243  0.648310805
     0.250000000  0.500000000  0.351282183
     0.500000000  0.750000000  0.351282183
     0.250000000  0.750000000  0.450427394
     0.500000000  0.500000000  0.450427394
     0.250465665  0.500031447  0.550269442
     0.500598467  0.749470231  0.550093778
     0.248471357  0.750444499  0.648310874
     0.497704184  0.497704190  0.650940502
     0.750000000  0.000000000  0.351282183
     0.000000000  0.250000000  0.351282183
     0.750000000  0.250000000  0.450427394
     0.000000000  0.000000000  0.450427394
     0.750037726  0.999649832  0.550254008
     0.000008973  0.250077685  0.550056497
     0.750444492  0.248471358  0.648310869
     0.000511658  0.000511657  0.648375765
     0.750000000  0.500000000  0.351282183
     0.000000000  0.750000000  0.351282183
     0.750000000  0.750000000  0.450427394
     0.000000000  0.500000000  0.450427394
     0.749470246  0.500598467  0.550093776
     0.999649825  0.750037741  0.550254013
     0.752505500  0.752505520  0.650833694
     0.001668232  0.499684474  0.648310814
     0.250000000  0.000000000  0.450427394
     0.500000000  0.250000000  0.450427394
     0.250000000  0.250000000  0.351282183
     0.500000000  0.000000000  0.351282183
     0.249806872  0.000323331  0.650513307
     0.499824062  0.248754385  0.650261677
     0.250047117  0.250047113  0.549647183
     0.500068608  0.999551798  0.549750410
     0.250000000  0.500000000  0.450427394
     0.500000000  0.750000000  0.450427394
     0.250000000  0.750000000  0.351282183
     0.500000000  0.500000000  0.351282183
     0.248754383  0.499824058  0.650261689
     0.497920970  0.752231115  0.651110075
     0.250538065  0.749999301  0.549748806
     0.500381534  0.500381536  0.550425057
     0.750000000  0.000000000  0.450427394
     0.000000000  0.250000000  0.450427394
     0.750000000  0.250000000  0.351282183
     0.000000000  0.000000000  0.351282183
     0.750312327  0.001415846  0.650223025
     0.000323338  0.249806878  0.650513311
     0.749999306  0.250538075  0.549748802
     0.000036614  0.000036612  0.549638027
     0.750000000  0.500000000  0.450427394
     0.000000000  0.750000000  0.450427394
     0.750000000  0.750000000  0.351282183
     0.000000000  0.500000000  0.351282183
     0.752231108  0.497920959  0.651110074
     0.001415838  0.750312341  0.650223030
     0.749702416  0.749702412  0.550407763
     0.999551801  0.500068607  0.549750413

  ion indices of the primitive-cell ions
   primitive index   ion index
                 1           1
                 2           2
                 3           3
                 4           4
                 5           5
                 6           6
                 7           7
                 8           8
                 9           9
                10          10
                11          11
                12          12
                13          13
                14          14
                15          15
                16          16
                17          17
                18          18
                19          19
                20          20
                21          21
                22          22
                23          23
                24          24
                25          25
                26          26
[...]
  1Z     9.680888    9.672400  -85.249954   -1.947044   -1.945354   -1.000314  -11.792917  -11.800076   78.243792    3.740155    3.740873    6.265630
  2X     0.628006   -1.380840   -1.937633  -10.307221   -5.175646   -9.899214    1.894974    2.797439   -1.531877    6.484032    4.224295   14.223324
  2Y    -1.385716    0.621265   -1.949536   -5.180201  -10.300156   -9.900437    2.797108    1.894100   -1.537205    4.226076    6.497455   14.213559
  2Z     1.936728    1.938698   -1.001238   -9.912568   -9.925927  -85.155039   -3.738558   -3.737207    6.315528   12.075389   12.066397   78.032357
  3X     6.384810    4.113327  -11.768333    1.894926    2.798684   -3.737520   -6.823540   -5.771785   15.726813   -1.012896   -1.506355   -0.110722
  3Y     4.113006    6.386925  -11.769165    2.798161    1.894458   -3.736382   -5.771927   -6.819830   15.731186   -1.508947   -1.015360   -0.114111
  3Z   -13.964642  -13.965914   78.241565   -1.537002   -1.536821    6.310377   15.750362   15.758620  -80.123649    0.099961    0.100308   -4.931195
  4X     1.907032    2.804061    3.747868    6.497184    4.228228   12.052154   -1.011044   -1.505615    0.093706   -6.963251   -5.882784  -15.992052
  4Y     2.802209    1.904629    3.737315    4.231383    6.498009   12.049616   -1.510386   -1.016184    0.099766   -5.874754   -6.971370  -15.996291
  4Z     1.536909    1.537351    6.265107   14.244405   14.247864   78.032766   -0.115437   -0.115001   -4.933609  -16.013961  -15.998403  -79.889109

 Eigenvectors and eigenvalues of the dynamical matrix

   1 f  =   54.223019 THz   340.693277 2PiTHz 1808.685233 cm-1   224.248288 meV
             X         Y         Z           dx          dy          dz
      4.633222  4.633221 16.089496    -0.076266   -0.076267    0.503065
      5.960912  5.960912 16.085321     0.078335    0.078355    0.503357
      4.406195  4.406194 17.224242     0.088347    0.088366   -0.467833
      6.192727  6.192726 17.218127    -0.090384   -0.090339   -0.467801
      2.116786  0.000000  7.500000            0           0           0
      4.233571  2.116786  7.500000            0           0           0
      2.116786  2.116786  9.616786            0           0           0
      4.233571  0.000000  9.616786            0           0           0
      2.117443  0.000076 11.743903            0           0           0
      4.233838  2.120729 11.748449            0           0           0
      2.113695  2.113695 13.843347            0           0           0
      4.230900  0.014125 13.841667            0           0           0
      2.116786  4.233571  7.500000            0           0           0
      4.233571  6.350357  7.500000            0           0           0
      2.116786  6.350357  9.616786            0           0           0
      4.233571  4.233571  9.616786            0           0           0
      2.120729  4.233838 11.748449            0           0           0
      4.238639  6.345871 11.744699            0           0           0
      2.103842  6.354121 13.841669            0           0           0
      4.214132  4.214132 13.897812            0           0           0
      6.350357  0.000000  7.500000            0           0           0
      0.000000  2.116786  7.500000            0           0           0
      6.350357  2.116786  9.616786            0           0           0
      0.000000  0.000000  9.616786            0           0           0
      6.350676  8.464178 11.748119            0           0           0
      0.000076  2.117443 11.743903            0           0           0
      6.354121  2.103842 13.841668            0           0           0
      0.004332  0.004332 13.843054            0           0           0
      6.350357  4.233571  7.500000            0           0           0
      0.000000  6.350357  7.500000            0           0           0
      6.350357  6.350357  9.616786            0           0           0
      0.000000  4.233571  9.616786            0           0           0
      6.345871  4.238639 11.744698            0           0           0
      8.464178  6.350677 11.748120            0           0           0
      6.371571  6.371572 13.895532            0           0           0
      0.014125  4.230900 13.841667            0           0           0
      2.116786  0.000000  9.616786            0           0           0
      4.233571  2.116786  9.616786            0           0           0
      2.116786  2.116786  7.500000            0           0           0
      4.233571  0.000000  7.500000            0           0           0
      2.115150  0.002738 13.888691            0           0           0
      4.232082  2.106239 13.883319            0           0           0
      2.117185  2.117185 11.735164            0           0           0
      4.234152  8.463348 11.737367            0           0           0
      2.116786  4.233571  9.616786            0           0           0
      4.233571  6.350357  9.616786            0           0           0
      2.116786  6.350357  7.500000            0           0           0
      4.233571  4.233571  7.500000            0           0           0
      2.106239  4.232082 13.883319            0           0           0
      4.215968  6.369248 13.901433            0           0           0
      2.121342  6.350351 11.737333            0           0           0
      4.236802  4.236802 11.751771            0           0           0
      6.350357  0.000000  9.616786            0           0           0
      0.000000  2.116786  9.616786            0           0           0
      6.350357  2.116786  7.500000            0           0           0
      0.000000  0.000000  7.500000            0           0           0
      6.353001  0.011988 13.882494            0           0           0
      0.002738  2.115150 13.888691            0           0           0
      6.350351  2.121342 11.737333            0           0           0
      0.000310  0.000310 11.734968            0           0           0
      6.350357  4.233571  9.616786            0           0           0
      0.000000  6.350357  9.616786            0           0           0
      6.350357  6.350357  7.500000            0           0           0
      0.000000  4.233571  7.500000            0           0           0
      6.369248  4.215968 13.901433            0           0           0
      0.011988  6.353002 13.882494            0           0           0
      6.347837  6.347837 11.751402            0           0           0
      8.463348  4.234152 11.737368            0           0           0

[...]

  11 f  =    1.430899 THz     8.990603 2PiTHz   47.729650 cm-1     5.917720 meV
             X         Y         Z           dx          dy          dz
      4.633222  4.633221 16.089496     0.166492   -0.174397   -0.002935
      5.960912  5.960912 16.085321    -0.219691    0.212599    0.000703
      4.406195  4.406194 17.224242     0.397248   -0.409813   -0.003992
      6.192727  6.192726 17.218127    -0.517027    0.505279    0.001631
      2.116786  0.000000  7.500000            0           0           0
      4.233571  2.116786  7.500000            0           0           0
      2.116786  2.116786  9.616786            0           0           0
      4.233571  0.000000  9.616786            0           0           0
      2.117443  0.000076 11.743903            0           0           0
      4.233838  2.120729 11.748449            0           0           0
      2.113695  2.113695 13.843347            0           0           0
      4.230900  0.014125 13.841667            0           0           0
      2.116786  4.233571  7.500000            0           0           0
      4.233571  6.350357  7.500000            0           0           0
      2.116786  6.350357  9.616786            0           0           0
      4.233571  4.233571  9.616786            0           0           0
      2.120729  4.233838 11.748449            0           0           0
      4.238639  6.345871 11.744699            0           0           0
      2.103842  6.354121 13.841669            0           0           0
      4.214132  4.214132 13.897812            0           0           0
      6.350357  0.000000  7.500000            0           0           0
      0.000000  2.116786  7.500000            0           0           0
      6.350357  2.116786  9.616786            0           0           0
      0.000000  0.000000  9.616786            0           0           0
      6.350676  8.464178 11.748119            0           0           0
      0.000076  2.117443 11.743903            0           0           0
      6.354121  2.103842 13.841668            0           0           0
      0.004332  0.004332 13.843054            0           0           0
      6.350357  4.233571  7.500000            0           0           0
      0.000000  6.350357  7.500000            0           0           0
      6.350357  6.350357  9.616786            0           0           0
      0.000000  4.233571  9.616786            0           0           0
      6.345871  4.238639 11.744698            0           0           0
      8.464178  6.350677 11.748120            0           0           0
      6.371571  6.371572 13.895532            0           0           0
      0.014125  4.230900 13.841667            0           0           0
      2.116786  0.000000  9.616786            0           0           0
      4.233571  2.116786  9.616786            0           0           0
      2.116786  2.116786  7.500000            0           0           0
      4.233571  0.000000  7.500000            0           0           0
      2.115150  0.002738 13.888691            0           0           0
      4.232082  2.106239 13.883319            0           0           0
      2.117185  2.117185 11.735164            0           0           0
      4.234152  8.463348 11.737367            0           0           0
      2.116786  4.233571  9.616786            0           0           0
      4.233571  6.350357  9.616786            0           0           0
      2.116786  6.350357  7.500000            0           0           0
      4.233571  4.233571  7.500000            0           0           0
      2.106239  4.232082 13.883319            0           0           0
      4.215968  6.369248 13.901433            0           0           0
      2.121342  6.350351 11.737333            0           0           0
      4.236802  4.236802 11.751771            0           0           0
      6.350357  0.000000  9.616786            0           0           0
      0.000000  2.116786  9.616786            0           0           0
      6.350357  2.116786  7.500000            0           0           0
      0.000000  0.000000  7.500000            0           0           0
      6.353001  0.011988 13.882494            0           0           0
      0.002738  2.115150 13.888691            0           0           0
      6.350351  2.121342 11.737333            0           0           0
      0.000310  0.000310 11.734968            0           0           0
      6.350357  4.233571  9.616786            0           0           0
      0.000000  6.350357  9.616786            0           0           0
      6.350357  6.350357  7.500000            0           0           0
      0.000000  4.233571  7.500000            0           0           0
      6.369248  4.215968 13.901433            0           0           0
      0.011988  6.353002 13.882494            0           0           0
      6.347837  6.347837 11.751402            0           0           0
      8.463348  4.234152 11.737368            0           0           0

  12 f/i=    0.608922 THz     3.825971 2PiTHz   20.311458 cm-1     2.518299 meV
             X         Y         Z           dx          dy          dz
      4.633222  4.633221 16.089496     0.210375   -0.210651    0.001125
      5.960912  5.960912 16.085321     0.164838   -0.165173    0.000498
      4.406195  4.406194 17.224242     0.513474   -0.513649    0.001179
      6.192727  6.192726 17.218127     0.406309   -0.405381    0.000277
      2.116786  0.000000  7.500000            0           0           0
      4.233571  2.116786  7.500000            0           0           0
      2.116786  2.116786  9.616786            0           0           0
      4.233571  0.000000  9.616786            0           0           0
      2.117443  0.000076 11.743903            0           0           0
      4.233838  2.120729 11.748449            0           0           0
      2.113695  2.113695 13.843347            0           0           0
      4.230900  0.014125 13.841667            0           0           0
      2.116786  4.233571  7.500000            0           0           0
      4.233571  6.350357  7.500000            0           0           0
      2.116786  6.350357  9.616786            0           0           0
      4.233571  4.233571  9.616786            0           0           0
      2.120729  4.233838 11.748449            0           0           0
      4.238639  6.345871 11.744699            0           0           0
      2.103842  6.354121 13.841669            0           0           0
      4.214132  4.214132 13.897812            0           0           0
      6.350357  0.000000  7.500000            0           0           0
      0.000000  2.116786  7.500000            0           0           0
      6.350357  2.116786  9.616786            0           0           0
      0.000000  0.000000  9.616786            0           0           0
      6.350676  8.464178 11.748119            0           0           0
      0.000076  2.117443 11.743903            0           0           0
      6.354121  2.103842 13.841668            0           0           0
      0.004332  0.004332 13.843054            0           0           0
      6.350357  4.233571  7.500000            0           0           0
      0.000000  6.350357  7.500000            0           0           0
      6.350357  6.350357  9.616786            0           0           0
      0.000000  4.233571  9.616786            0           0           0
      6.345871  4.238639 11.744698            0           0           0
      8.464178  6.350677 11.748120            0           0           0
      6.371571  6.371572 13.895532            0           0           0
      0.014125  4.230900 13.841667            0           0           0
      2.116786  0.000000  9.616786            0           0           0
      4.233571  2.116786  9.616786            0           0           0
      2.116786  2.116786  7.500000            0           0           0
      4.233571  0.000000  7.500000            0           0           0
      2.115150  0.002738 13.888691            0           0           0
      4.232082  2.106239 13.883319            0           0           0
      2.117185  2.117185 11.735164            0           0           0
      4.234152  8.463348 11.737367            0           0           0
      2.116786  4.233571  9.616786            0           0           0
      4.233571  6.350357  9.616786            0           0           0
      2.116786  6.350357  7.500000            0           0           0
      4.233571  4.233571  7.500000            0           0           0
      2.106239  4.232082 13.883319            0           0           0
      4.215968  6.369248 13.901433            0           0           0
      2.121342  6.350351 11.737333            0           0           0
      4.236802  4.236802 11.751771            0           0           0
      6.350357  0.000000  9.616786            0           0           0
      0.000000  2.116786  9.616786            0           0           0
      6.350357  2.116786  7.500000            0           0           0
      0.000000  0.000000  7.500000            0           0           0
      6.353001  0.011988 13.882494            0           0           0
      0.002738  2.115150 13.888691            0           0           0
      6.350351  2.121342 11.737333            0           0           0
      0.000310  0.000310 11.734968            0           0           0
      6.350357  4.233571  9.616786            0           0           0
      0.000000  6.350357  9.616786            0           0           0
      6.350357  6.350357  7.500000            0           0           0
      0.000000  4.233571  7.500000            0           0           0
      6.369248  4.215968 13.901433            0           0           0
      0.011988  6.353002 13.882494            0           0           0
      6.347837  6.347837 11.751402            0           0           0
      8.463348  4.234152 11.737368            0           0           0

 Finite differences POTIM=   1.0000000000000000E-002