 vasp.6.4.2 20Jul23 (build Feb 22 2024 13:53:45) complex
 executed on              LinuxNV date 2024.08.27  18:09:38
 OpenACC runtime initialized ...    4 GPUs detected

 INCAR:
   SYSTEM = Oxide-Surface
   ISMEAR = 0
   SIGMA = 0.05
   EDIFF = 1E-5
   ALGO = Normal
   IBRION = -1
   NSW = 0
   ISYM = 0
   DIPOL = 0.5 0.5 0.5
   IDIPOL = 3
   LDIPOL = .TRUE.
   ISTART = 1
   LHFCALC = .TRUE.
   GGA = PE
   IVDW = 21
   VDW_SR = 0.96
   HFRCUT = -1
   ENCUT = 520
   PREC = Normal
   PRECFOCK = Normal
   LASPH = .TRUE.
   LREAL = Auto
   ISPIN = 1
   NELM = 200
   NELMIN = 8
   NCORE = 1
   KPAR = 1
   LWAVE = .FALSE.
   LCHARG = .FALSE.

 POTCAR:    PAW_PBE Mg_pv 13Apr2007
 POTCAR:    PAW_PBE O 08Apr2002
 POTCAR:    PAW_PBE Mg_pv 13Apr2007
   VRHFIN =Mg: p6s2

   TITEL  = PAW_PBE Mg_pv 13Apr2007
   POMASS =   24.305; ZVAL   =    8.000    mass and valenz
   ENMAX  =  403.929; ENMIN  =  302.947 eV

   TITEL  = PAW_PBE O 08Apr2002
   POMASS =   16.000; ZVAL   =    6.000    mass and valenz
   ENMAX  =  400.000; ENMIN  =  300.000 eV

 Optimization of the real space projectors (new method)

 maximal supplied QI-value         = 18.90
 optimisation between [QCUT,QGAM] = [ 11.53, 23.24] = [ 37.21,151.29] Ry
 Optimized for a Real-space Cutoff    1.21 Angstroem

   l    n(q)    QCUT    max X(q) W(low)/X(q) W(high)/X(q)  e(spline)
   1      8    11.527     2.974    0.16E-03    0.13E-03    0.98E-07
   1      8    11.527     4.279    0.42E-03    0.30E-03    0.22E-06
   0      8    11.527    16.381    0.13E-03    0.20E-03    0.72E-07
   0      8    11.527     5.611    0.88E-04    0.13E-03    0.50E-07
   2      7    11.527     4.652    0.25E-03    0.73E-04    0.51E-07
 Optimization of the real space projectors (new method)

 maximal supplied QI-value         = 24.76
 optimisation between [QCUT,QGAM] = [ 11.64, 23.27] = [ 37.91,151.63] Ry
 Optimized for a Real-space Cutoff    1.04 Angstroem

   l    n(q)    QCUT    max X(q) W(low)/X(q) W(high)/X(q)  e(spline)
   0      7    11.635    20.381    0.14E-03    0.49E-03    0.18E-06
   0      7    11.635    15.268    0.16E-03    0.52E-03    0.19E-06
   1      7    11.635     5.964    0.30E-03    0.44E-03    0.22E-06
   1      7    11.635     5.382    0.27E-03    0.34E-03    0.19E-06
  PAW_PBE Mg_pv 13Apr2007               :
  PAW_PBE O 08Apr2002                   :

 POSCAR: Mg  O
  positions in direct lattice
 exchange correlation table for  LEXCH =        8
   RHO(1)=    0.500       N(1)  =     2000
   RHO(2)=  100.500       N(2)  =     4000

 ion  position               nearest neighbor table
   1  0.000  0.750  0.236-  33 2.11  36 2.11  43 2.11  35 2.11  52 2.11
   2  0.250  0.000  0.236-  34 2.11  35 2.11  36 2.11  51 2.11  44 2.11
   3  0.000  0.000  0.360-  35 2.11  34 2.11  33 2.11  41 2.11  50 2.11  39 2.12
   4  0.250  0.750  0.360-  36 2.11  33 2.11  42 2.11  34 2.11  49 2.11  40 2.12
   5  0.000  0.750  0.485-  47 2.11  39 2.11  56 2.11  40 2.11  33 2.12  37 2.14
   6  0.250  1.000  0.485-  48 2.11  39 2.11  55 2.11  40 2.11  34 2.12  38 2.15
   7  0.000  0.000  0.609-  45 2.11  38 2.11  37 2.11  54 2.11  39 2.11
   8  0.250  0.750  0.609-  37 2.10  40 2.11  46 2.11  38 2.11  53 2.12
   9  0.000  0.250  0.236-  41 2.11  44 2.11  43 2.11  35 2.11  60 2.11
  10  0.250  0.500  0.236-  42 2.11  36 2.11  43 2.11  44 2.11  59 2.11
  11  0.000  0.500  0.360-  43 2.11  42 2.11  33 2.11  41 2.11  58 2.11  47 2.12
  12  0.250  0.250  0.360-  44 2.11  41 2.11  42 2.11  57 2.11  34 2.11  48 2.12
  13  1.000  0.250  0.485-  48 2.11  39 2.11  64 2.11  47 2.11  41 2.12  45 2.15
  14  0.250  0.500  0.485-  40 2.11  48 2.11  63 2.11  47 2.11  42 2.12  46 2.14
  15  0.000  0.500  0.609-  46 2.10  47 2.11  37 2.11  45 2.11  62 2.12
  16  0.250  0.250  0.609-  38 2.11  45 2.11  61 2.11  46 2.11  48 2.11
  17  0.500  0.750  0.236-  49 2.11  59 2.11  51 2.11  52 2.11  36 2.11
  18  0.750  0.000  0.236-  50 2.11  51 2.11  52 2.11  35 2.11  60 2.11
  19  0.500  0.000  0.360-  51 2.11  49 2.11  50 2.11  34 2.11  57 2.11  55 2.12
  20  0.750  0.750  0.360-  52 2.11  58 2.11  49 2.11  50 2.11  33 2.11  56 2.12
  21  0.500  0.750  0.485-  63 2.11  56 2.11  40 2.11  55 2.11  49 2.13  53 2.16
  22  0.750  0.000  0.485-  55 2.11  39 2.11  56 2.11  64 2.11  50 2.12  54 2.14
  23  0.500  0.000  0.609-  61 2.10  55 2.11  54 2.11  38 2.11  53 2.12
  24  0.752  0.752  0.609-  54 2.10  37 2.10  56 2.11  53 2.12  62 2.12
  25  0.500  0.250  0.236-  57 2.11  44 2.11  59 2.11  60 2.11  51 2.11
  26  0.750  0.500  0.236-  58 2.11  52 2.11  59 2.11  60 2.11  43 2.11
  27  0.500  0.500  0.360-  59 2.11  49 2.11  57 2.11  58 2.11  42 2.11  63 2.12
  28  0.750  0.250  0.360-  60 2.11  58 2.11  57 2.11  50 2.11  41 2.11  64 2.12
  29  0.500  0.250  0.485-  64 2.11  48 2.11  63 2.11  55 2.11  57 2.12  61 2.14
  30  0.750  0.500  0.485-  63 2.11  56 2.11  64 2.11  47 2.11  58 2.13  62 2.16
  31  0.498  0.498  0.609-  61 2.10  46 2.10  63 2.11  53 2.12  62 2.12
  32  0.750  0.250  0.609-  54 2.10  64 2.11  61 2.11  45 2.11  62 2.12
  33  0.000  0.750  0.360-   1 2.11   4 2.11  11 2.11   3 2.11  20 2.11   5 2.12
  34  0.250  0.000  0.360-   2 2.11   3 2.11   4 2.11  19 2.11  12 2.11   6 2.12
  35  0.000  0.000  0.236-   3 2.11   2 2.11   1 2.11   9 2.11  18 2.11
  36  0.250  0.750  0.236-   4 2.11   1 2.11  10 2.11   2 2.11  17 2.11
  37  0.001  0.750  0.611-  24 2.10   8 2.10  15 2.11   7 2.11   5 2.14
  38  0.250  1.000  0.612-   7 2.11  16 2.11   8 2.11  23 2.11   6 2.15
  39  0.000  0.000  0.485-  13 2.11   6 2.11   5 2.11  22 2.11   7 2.11   3 2.12
  40  0.250  0.750  0.485-  21 2.11   8 2.11   6 2.11  14 2.11   5 2.11   4 2.12
  41  0.000  0.250  0.360-   9 2.11  12 2.11  11 2.11   3 2.11  28 2.11  13 2.12
  42  0.250  0.500  0.360-  10 2.11   4 2.11  11 2.11  12 2.11  27 2.11  14 2.12
  43  0.000  0.500  0.236-  11 2.11  10 2.11   1 2.11   9 2.11  26 2.11
  44  0.250  0.250  0.236-  12 2.11   9 2.11  10 2.11  25 2.11   2 2.11
  45  1.000  0.250  0.612-   7 2.11  16 2.11  32 2.11  15 2.11  13 2.15
  46  0.249  0.500  0.611-  31 2.10  15 2.10   8 2.11  16 2.11  14 2.14
  47  1.000  0.500  0.485-  30 2.11  15 2.11  13 2.11   5 2.11  14 2.11  11 2.12
  48  0.250  0.250  0.485-   6 2.11  13 2.11  14 2.11  29 2.11  16 2.11  12 2.12
  49  0.500  0.750  0.360-  17 2.11  27 2.11  19 2.11  20 2.11   4 2.11  21 2.13
  50  0.750  0.000  0.360-  18 2.11  19 2.11  20 2.11   3 2.11  28 2.11  22 2.12
  51  0.500  0.000  0.236-  19 2.11  17 2.11  18 2.11   2 2.11  25 2.11
  52  0.750  0.750  0.236-  20 2.11  26 2.11  17 2.11  18 2.11   1 2.11
  53  0.500  0.750  0.613-   8 2.12  23 2.12  31 2.12  24 2.12  21 2.16
  54  0.750  0.001  0.611-  24 2.10  32 2.10  23 2.11   7 2.11  22 2.14
  55  0.500  1.000  0.485-  21 2.11  23 2.11   6 2.11  22 2.11  29 2.11  19 2.12
  56  0.750  0.750  0.485-  30 2.11  21 2.11   5 2.11  22 2.11  24 2.11  20 2.12
  57  0.500  0.250  0.360-  25 2.11  12 2.11  27 2.11  28 2.11  19 2.11  29 2.12
  58  0.750  0.500  0.360-  26 2.11  20 2.11  27 2.11  28 2.11  11 2.11  30 2.13
  59  0.500  0.500  0.236-  27 2.11  17 2.11  25 2.11  26 2.11  10 2.11
  60  0.750  0.250  0.236-  28 2.11  26 2.11  25 2.11  18 2.11   9 2.11
  61  0.500  0.249  0.611-  31 2.10  23 2.10  32 2.11  16 2.11  29 2.14
  62  0.750  0.500  0.613-  32 2.12  15 2.12  31 2.12  24 2.12  30 2.16
  63  0.500  0.500  0.485-  30 2.11  21 2.11  14 2.11  29 2.11  31 2.11  27 2.12
  64  0.750  0.250  0.485-  30 2.11  32 2.11  13 2.11  29 2.11  22 2.11  28 2.12

IMPORTANT INFORMATION: All symmetrisations will be switched off!
NOSYMM: (Re-)initialisation of all symmetry stuff for point group C_1.

                                     Primitive cell

  volume of cell :    1211.2538

  direct lattice vectors                    reciprocal lattice vectors
     8.440984654  0.000000000  0.000000000     0.118469591  0.000000000  0.000000000
     0.000000000  8.440984654  0.000000000     0.000000000  0.118469591  0.000000000
     0.000000000  0.000000000 17.000000000     0.000000000  0.000000000  0.058823529

  length of vectors
     8.440984654  8.440984654 17.000000000     0.118469591  0.118469591  0.058823529

  position of ions in fractional coordinates (direct lattice)
     0.000030738  0.750030735  0.235819454
     0.250030738  0.000030735  0.235819454
     0.000030738  0.000030735  0.359951582
     0.250030738  0.750030735  0.359951582
     0.000201210  0.750096264  0.484924403
     0.250092311  0.999969265  0.484937667
     0.000230924  0.000230921  0.608776447
     0.249858919  0.749819737  0.608667763
     0.000030738  0.250030735  0.235819454
     0.250030738  0.500030735  0.235819454
     0.000030738  0.500030735  0.359951582
     0.250030738  0.250030735  0.359951582
     0.999969262  0.250092302  0.484937664
     0.249860443  0.499965307  0.484924424
     0.000202696  0.500241874  0.608667759
     0.249830687  0.249830684  0.608776513
     0.500030738  0.750030735  0.235819454
     0.750030738  0.000030735  0.235819454
     0.500030738  0.000030735  0.359951582
     0.750030738  0.750030735  0.359951582
     0.500301088  0.749760405  0.485169396
     0.750096258  0.000201208  0.484924406
     0.500241885  0.000202690  0.608667756
     0.751949439  0.751949450  0.609119152
     0.500030738  0.250030735  0.235819454
     0.750030738  0.500030735  0.235819454
     0.500030738  0.500030735  0.359951582
     0.750030738  0.250030735  0.359951582
     0.499965312  0.249860434  0.484924423
     0.749760398  0.500301085  0.485169393
     0.498112182  0.498112177  0.609119267
     0.749819734  0.249858918  0.608667762
     0.000030738  0.750030735  0.359951582
     0.250030738  0.000030735  0.359951582
     0.000030738  0.000030735  0.235819454
     0.250030738  0.750030735  0.235819454
     0.000691699  0.750207572  0.610894536
     0.250199398  0.999862199  0.611557811
     0.000145627  0.000145627  0.484545221
     0.250434878  0.750012183  0.484600927
     0.000030738  0.250030735  0.359951582
     0.250030738  0.500030735  0.359951582
     0.000030738  0.500030735  0.235819454
     0.250030738  0.250030735  0.235819454
     0.999862202  0.250199394  0.611557812
     0.249369970  0.499854062  0.610894625
     0.999626681  0.500049381  0.484600930
     0.249915938  0.249915934  0.484545237
     0.500030738  0.750030735  0.359951582
     0.750030738  0.000030735  0.359951582
     0.500030738  0.000030735  0.235819454
     0.750030738  0.750030735  0.235819454
     0.500350929  0.749710577  0.612502175
     0.750207565  0.000691696  0.610894534
     0.500049381  0.999626692  0.484600929
     0.750001397  0.750001391  0.484806093
     0.500030738  0.250030735  0.359951582
     0.750030738  0.500030735  0.359951582
     0.500030738  0.500030735  0.235819454
     0.750030738  0.250030735  0.235819454
     0.499854065  0.249369967  0.610894620
     0.749710588  0.500350924  0.612502182
     0.500060181  0.500060179  0.484806128
     0.750012185  0.250434879  0.484600929

  ion indices of the primitive-cell ions
   primitive index   ion index
                 1           1
                 2           2
                 3           3
                 4           4
                 5           5
                 6           6
[...]
   O         195.905          4.869         19.136          3.54371555
   O         195.880          4.869         19.135          3.54349090
   O         188.086          4.836         18.750          3.47228080
   O         190.404          4.846         18.866          3.49361334
   O         243.712          5.049         21.344          3.95252565
   O         244.120          5.051         21.361          3.95583203
   O         237.026          5.026         21.049          3.89792864
   O         237.219          5.027         21.057          3.89951758
   O         195.905          4.869         19.136          3.54371560
   O         195.897          4.869         19.136          3.54364428
   O         186.029          4.827         18.648          3.45324384
   O         190.439          4.846         18.867          3.49393095
   O         243.712          5.049         21.344          3.95252599
   O         243.207          5.048         21.322          3.94843034
   O         237.211          5.027         21.057          3.89944953
   O         237.026          5.026         21.049          3.89792920
   O         195.888          4.869         19.135          3.54356224
   O         195.904          4.869         19.136          3.54370583
   O         190.404          4.846         18.866          3.49361374
   O         186.030          4.827         18.648          3.45324395
   O         243.183          5.048         21.320          3.94823752
   O         243.591          5.049         21.338          3.95154287

  vdW correction parametrized for the method  Ý6    þ

  IVDW =  21
  VDW_RADIUS =    50.000 A
  VDW_IDAMPF =  0
  VDW_S6 =     1.000
  VDW_SR =     0.960
  VDW_D =    20.000
  LVDW_ONECELL = F F F
  LVDW_SAMETYPE T T
  LVDW_EWALD = F

  Number of pair interactions contributing to vdW energy:  892034
  Edisp (eV):   -3.87970

 VOLUME and BASIS-vectors are now :
  energy-cutoff  :      520.00
  volume of cell :     1211.25
      direct lattice vectors                 reciprocal lattice vectors
     8.440984654  0.000000000  0.000000000     0.118469591  0.000000000  0.000000000
     0.000000000  8.440984654  0.000000000     0.000000000  0.118469591  0.000000000
     0.000000000  0.000000000 17.000000000     0.000000000  0.000000000  0.058823529

  length of vectors
     8.440984654  8.440984654 17.000000000     0.118469591  0.118469591  0.058823529

 FORCES acting on ions
    electron-ion (+dipol)            ewald-force                    non-local-force                 convergence-correction
   0.679E-01 0.551E-01 0.172E+04   -.689E-01 -.562E-01 -.171E+04   0.615E-03 0.665E-03 -.676E+01   0.507E-05 0.112E-04 -.173E+00
   -.552E-01 0.552E-01 0.172E+04   0.567E-01 -.566E-01 -.171E+04   -.922E-03 0.875E-03 -.677E+01   -.226E-05 0.336E-05 -.173E+00
   0.182E+00 0.182E+00 0.568E+03   -.166E+00 -.166E+00 -.568E+03   -.104E-01 -.104E-01 0.453E+00   -.705E-05 -.520E-05 -.833E-01
   -.338E+00 0.162E+00 0.567E+03   0.389E+00 -.152E+00 -.568E+03   -.306E-01 -.687E-02 0.461E+00   0.101E-05 0.172E-05 -.833E-01
   0.623E+00 0.456E+00 -.573E+03   -.662E+00 -.468E+00 0.573E+03   0.253E-01 0.672E-02 -.283E+00   0.275E-04 -.139E-04 0.334E-01
   -.441E+00 0.441E+00 -.575E+03   0.453E+00 -.453E+00 0.575E+03   -.689E-02 0.668E-02 -.177E+00   0.229E-04 -.255E-04 0.335E-01
   -.494E+00 -.494E+00 -.171E+04   0.640E+00 0.640E+00 0.170E+04   -.950E-01 -.950E-01 0.578E+01   0.790E-04 0.803E-04 0.132E+00
   -.305E+01 -.324E+00 -.171E+04   0.316E+01 0.465E+00 0.170E+04   -.194E-01 -.870E-01 0.570E+01   0.113E-03 0.641E-04 0.132E+00
   0.552E-01 -.552E-01 0.172E+04   -.566E-01 0.567E-01 -.171E+04   0.885E-03 -.915E-03 -.677E+01   0.359E-05 -.400E-05 -.173E+00
   -.679E-01 -.551E-01 0.172E+04   0.689E-01 0.562E-01 -.171E+04   -.648E-03 -.701E-03 -.676E+01   -.549E-05 -.993E-05 -.173E+00
   0.338E+00 -.162E+00 0.567E+03   -.389E+00 0.152E+00 -.568E+03   0.304E-01 0.665E-02 0.461E+00   0.815E-06 0.479E-06 -.833E-01
   -.182E+00 -.182E+00 0.568E+03   0.166E+00 0.166E+00 -.568E+03   0.101E-01 0.101E-01 0.453E+00   0.660E-05 0.268E-05 -.833E-01
   0.441E+00 -.441E+00 -.575E+03   -.453E+00 0.453E+00 0.575E+03   0.669E-02 -.690E-02 -.177E+00   -.226E-04 0.232E-04 0.335E-01
   -.623E+00 -.456E+00 -.573E+03   0.662E+00 0.467E+00 0.573E+03   -.255E-01 -.691E-02 -.283E+00   -.234E-04 0.173E-04 0.335E-01
   0.305E+01 0.324E+00 -.171E+04   -.316E+01 -.465E+00 0.170E+04   0.192E-01 0.868E-01 0.570E+01   -.108E-03 -.698E-04 0.132E+00
   0.494E+00 0.494E+00 -.171E+04   -.640E+00 -.640E+00 0.170E+04   0.952E-01 0.952E-01 0.578E+01   -.803E-04 -.775E-04 0.132E+00
   -.643E-01 0.643E-01 0.172E+04   0.665E-01 -.665E-01 -.171E+04   -.143E-02 0.140E-02 -.678E+01   -.996E-05 0.114E-04 -.173E+00
   0.551E-01 0.679E-01 0.172E+04   -.562E-01 -.689E-01 -.171E+04   0.663E-03 0.614E-03 -.676E+01   0.841E-05 0.597E-05 -.173E+00
   -.162E+00 0.338E+00 0.567E+03   0.152E+00 -.389E+00 -.568E+03   0.665E-02 0.304E-01 0.461E+00   0.286E-05 0.675E-06 -.832E-01
   0.336E+00 0.336E+00 0.566E+03   -.362E+00 -.362E+00 -.567E+03   0.175E-01 0.175E-01 0.501E+00   0.119E-04 0.171E-04 -.832E-01
   -.912E+00 0.912E+00 -.580E+03   0.945E+00 -.945E+00 0.580E+03   -.267E-01 0.264E-01 -.157E+00   0.162E-05 -.226E-05 0.338E-01
   0.456E+00 0.623E+00 -.573E+03   -.467E+00 -.662E+00 0.573E+03   0.672E-02 0.253E-01 -.283E+00   -.182E-04 0.255E-04 0.335E-01
   0.324E+00 0.305E+01 -.171E+04   -.465E+00 -.316E+01 0.170E+04   0.868E-01 0.192E-01 0.570E+01   -.653E-04 -.109E-03 0.132E+00
   0.514E+01 0.514E+01 -.171E+04   -.531E+01 -.531E+01 0.170E+04   -.387E-01 -.387E-01 0.571E+01   -.929E-04 -.878E-04 0.133E+00
   -.551E-01 -.679E-01 0.172E+04   0.562E-01 0.689E-01 -.171E+04   -.700E-03 -.647E-03 -.676E+01   -.596E-05 -.752E-05 -.173E+00
   0.643E-01 -.643E-01 0.172E+04   -.665E-01 0.665E-01 -.171E+04   0.140E-02 -.143E-02 -.678E+01   0.863E-05 -.113E-04 -.173E+00
   -.336E+00 -.336E+00 0.566E+03   0.362E+00 0.362E+00 -.567E+03   -.177E-01 -.177E-01 0.501E+00   -.145E-04 -.123E-04 -.832E-01
   0.162E+00 -.338E+00 0.567E+03   -.152E+00 0.389E+00 -.568E+03   -.687E-02 -.306E-01 0.461E+00   -.282E-05 -.489E-05 -.832E-01
   -.456E+00 -.623E+00 -.573E+03   0.467E+00 0.662E+00 0.573E+03   -.691E-02 -.255E-01 -.283E+00   0.165E-04 -.256E-04 0.334E-01
   0.912E+00 -.912E+00 -.580E+03   -.945E+00 0.945E+00 0.580E+03   0.264E-01 -.267E-01 -.157E+00   -.325E-05 0.290E-05 0.338E-01
   -.514E+01 -.514E+01 -.171E+04   0.531E+01 0.531E+01 0.170E+04   0.386E-01 0.386E-01 0.571E+01   0.880E-04 0.907E-04 0.133E+00
   -.324E+00 -.305E+01 -.171E+04   0.465E+00 0.316E+01 0.170E+04   -.870E-01 -.194E-01 0.570E+01   0.657E-04 0.109E-03 0.132E+00
   0.264E+00 0.172E+00 0.425E+03   -.275E+00 -.178E+00 -.425E+03   0.128E-01 0.703E-02 -.845E-01   -.293E-05 0.799E-06 -.662E-01
   -.167E+00 0.167E+00 0.425E+03   0.166E+00 -.166E+00 -.425E+03   0.195E-02 -.107E-02 -.109E+00   0.348E-05 -.998E-06 -.662E-01
   0.367E-01 0.367E-01 0.129E+04   -.357E-01 -.357E-01 -.130E+04   -.743E-03 -.748E-03 0.305E+01   -.466E-05 -.339E-05 -.132E+00
   -.547E-01 0.365E-01 0.129E+04   0.586E-01 -.354E-01 -.130E+04   -.422E-02 -.934E-03 0.305E+01   0.102E-05 0.722E-05 -.132E+00
   -.163E+00 0.626E+00 -.129E+04   0.305E+00 -.710E+00 0.130E+04   -.147E+00 0.918E-01 -.434E+01   0.166E-04 -.282E-04 0.988E-01
   -.509E+00 0.509E+00 -.130E+04   0.606E+00 -.606E+00 0.130E+04   -.106E+00 0.107E+00 -.453E+01   0.203E-04 -.189E-04 0.993E-01
   -.271E-01 -.271E-01 -.425E+03   0.264E-01 0.264E-01 0.425E+03   -.594E-03 -.594E-03 0.215E+00   -.417E-06 0.135E-05 0.188E-01
   -.105E+01 -.379E-01 -.426E+03   0.109E+01 0.438E-01 0.425E+03   -.572E-01 -.880E-02 0.245E+00   0.109E-04 0.120E-04 0.189E-01
   0.167E+00 -.167E+00 0.425E+03   -.166E+00 0.166E+00 -.425E+03   -.107E-02 0.195E-02 -.109E+00   -.257E-05 0.169E-05 -.662E-01
   -.264E+00 -.172E+00 0.425E+03   0.275E+00 0.178E+00 -.425E+03   -.120E-01 -.615E-02 -.845E-01   0.568E-05 0.201E-05 -.662E-01
   0.546E-01 -.365E-01 0.129E+04   -.585E-01 0.354E-01 -.130E+04   0.506E-02 0.178E-02 0.305E+01   -.319E-05 -.543E-05 -.132E+00
   -.367E-01 -.367E-01 0.129E+04   0.357E-01 0.357E-01 -.130E+04   0.158E-02 0.156E-02 0.305E+01   0.356E-05 0.250E-05 -.132E+00
   0.509E+00 -.509E+00 -.130E+04   -.606E+00 0.606E+00 0.130E+04   0.107E+00 -.106E+00 -.453E+01   -.207E-04 0.209E-04 0.992E-01
   0.164E+00 -.626E+00 -.129E+04   -.306E+00 0.710E+00 0.130E+04   0.149E+00 -.932E-01 -.434E+01   -.156E-04 0.278E-04 0.988E-01
   0.105E+01 0.379E-01 -.426E+03   -.109E+01 -.438E-01 0.425E+03   0.582E-01 0.963E-02 0.245E+00   -.663E-05 -.122E-04 0.189E-01
   0.271E-01 0.271E-01 -.425E+03   -.264E-01 -.264E-01 0.425E+03   0.145E-02 0.145E-02 0.215E+00   -.271E-05 0.176E-05 0.188E-01
   -.213E+00 0.213E+00 0.424E+03   0.195E+00 -.195E+00 -.424E+03   0.213E-01 -.204E-01 -.155E+00   -.594E-05 0.617E-05 -.662E-01
   0.172E+00 0.264E+00 0.425E+03   -.178E+00 -.275E+00 -.425E+03   0.703E-02 0.128E-01 -.845E-01   -.718E-06 -.393E-05 -.662E-01
   -.365E-01 0.546E-01 0.129E+04   0.354E-01 -.585E-01 -.130E+04   0.176E-02 0.506E-02 0.305E+01   -.483E-05 0.257E-05 -.132E+00
   0.520E-01 0.520E-01 0.129E+04   -.569E-01 -.569E-01 -.130E+04   0.628E-02 0.630E-02 0.305E+01   0.368E-05 0.160E-05 -.132E+00
   -.211E+01 0.211E+01 -.130E+04   0.239E+01 -.239E+01 0.131E+04   -.278E+00 0.272E+00 -.471E+01   -.313E-05 0.195E-05 0.998E-01
   0.626E+00 -.163E+00 -.129E+04   -.710E+00 0.305E+00 0.130E+04   0.918E-01 -.147E+00 -.434E+01   -.323E-04 0.203E-04 0.988E-01
   0.379E-01 0.105E+01 -.426E+03   -.438E-01 -.109E+01 0.425E+03   0.963E-02 0.582E-01 0.245E+00   -.598E-05 -.104E-04 0.189E-01
   0.115E+01 0.115E+01 -.428E+03   -.117E+01 -.117E+01 0.428E+03   0.345E-01 0.345E-01 0.177E+00   -.314E-04 -.238E-04 0.190E-01
   -.172E+00 -.264E+00 0.425E+03   0.178E+00 0.275E+00 -.425E+03   -.614E-02 -.120E-01 -.845E-01   0.184E-05 0.150E-05 -.662E-01
   0.213E+00 -.213E+00 0.424E+03   -.195E+00 0.195E+00 -.424E+03   -.204E-01 0.213E-01 -.155E+00   0.371E-05 -.684E-05 -.662E-01
   -.520E-01 -.520E-01 0.129E+04   0.569E-01 0.569E-01 -.130E+04   -.545E-02 -.545E-02 0.305E+01   0.212E-05 -.731E-05 -.132E+00
   0.365E-01 -.546E-01 0.129E+04   -.354E-01 0.586E-01 -.130E+04   -.929E-03 -.423E-02 0.305E+01   0.252E-05 0.181E-06 -.132E+00
   -.626E+00 0.164E+00 -.129E+04   0.710E+00 -.306E+00 0.130E+04   -.932E-01 0.149E+00 -.434E+01   0.313E-04 -.175E-04 0.988E-01
   0.211E+01 -.211E+01 -.130E+04   -.239E+01 0.239E+01 0.131E+04   0.272E+00 -.278E+00 -.471E+01   0.294E-05 -.626E-05 0.998E-01
   -.115E+01 -.115E+01 -.428E+03   0.117E+01 0.117E+01 0.428E+03   -.336E-01 -.336E-01 0.177E+00   0.274E-04 0.311E-04 0.190E-01
   -.380E-01 -.105E+01 -.426E+03   0.439E-01 0.109E+01 0.425E+03   -.880E-02 -.572E-01 0.245E+00   0.963E-05 0.234E-05 0.189E-01
   -.526E-03 -.514E-03 0.216E+02   -.356E-14 -.115E-12 0.136E-11   0.423E-02 0.421E-02 -.169E+02   0.412E-05 0.184E-05 -.136E+01

 POSITION                                       TOTAL-FORCE (eV/Angst)
      0.00026      6.33100      4.00893        -0.000254     -0.000317      0.537166
      2.11051      0.00026      4.00893         0.000396     -0.000380      0.539808
      0.00026      0.00026      6.11918         0.004082      0.004082      0.031544
      2.11051      6.33100      6.11918         0.014543      0.002199      0.037149
      0.00170      6.33155      8.24371        -0.009922     -0.003439      0.015481
      2.11103      8.44073      8.24394         0.004362     -0.004615      0.040961
      0.00195      0.00195     10.34920         0.036474      0.036474     -0.177097
      2.10906      6.32922     10.34735         0.080076      0.039568     -0.129680
      0.00026      2.11051      4.00893        -0.000380      0.000395      0.539807
      2.11051      4.22075      4.00893         0.000270      0.000335      0.537165
      0.00026      4.22075      6.11918        -0.014802     -0.002456      0.037153
      2.11051      2.11051      6.11918        -0.004337     -0.004338      0.031541
      8.44073      2.11103      8.24394        -0.004613      0.004361      0.040962
      2.10907      4.22020      8.24372         0.009642      0.003149      0.015517
      0.00171      4.22253     10.34735        -0.080314     -0.039798     -0.129731
      2.10882      2.10882     10.34920        -0.036768     -0.036767     -0.177062
      4.22075      6.33100      4.00893         0.000593     -0.000577      0.542320
      6.33100      0.00026      4.00893        -0.000316     -0.000254      0.537166
      4.22075      0.00026      6.11918        -0.002456     -0.014802      0.037149
      6.33100      6.33100      6.11918        -0.005767     -0.005767      0.044076
      4.22303      6.32872      8.24788         0.003507     -0.003728      0.079556
      6.33155      0.00170      8.24371        -0.003437     -0.009922      0.015484
      4.22253      0.00171     10.34735        -0.039798     -0.080314     -0.129730
      6.34719      6.34719     10.35503        -0.196761     -0.196761     -0.161359
      4.22075      2.11051      4.00893         0.000334      0.000270      0.537166
      6.33100      4.22075      4.00893        -0.000578      0.000594      0.542320
      4.22075      4.22075      6.11918         0.005511      0.005511      0.044072
      6.33100      2.11051      6.11918         0.002199      0.014543      0.037149
      4.22020      2.10907      8.24372         0.003149      0.009644      0.015517
      6.32872      4.22303      8.24788        -0.003729      0.003508      0.079555
      4.20456      4.20456     10.35503         0.196734      0.196736     -0.161177
      6.32922      2.10906     10.34735         0.039569      0.080076     -0.129680
      0.00026      6.33100      6.11918         0.003464      0.002112      0.070228
      2.11051      0.00026      6.11918         0.000971     -0.000385      0.061878
      0.00026      0.00026      4.00893        -0.000205     -0.000199     -0.434369
      2.11051      6.33100      4.00893        -0.001332     -0.000268     -0.435033
      0.00584      6.33249     10.38521        -0.029336      0.024879     -0.047664
      2.11193      8.43982     10.39648        -0.029001      0.029724     -0.126382
      0.00123      0.00123      8.23727        -0.002744     -0.002747      0.018287
      2.11392      6.33084      8.23822        -0.023179     -0.005022      0.011629
      0.00026      2.11051      6.11918        -0.000386      0.000973      0.061875
      2.11051      4.22075      6.11918        -0.002880     -0.001532      0.070228
      0.00026      4.22075      4.00893         0.001836      0.000769     -0.435032
      2.11051      2.11051      4.00893         0.000705      0.000701     -0.434370
      8.43982      2.11193     10.39648         0.029725     -0.028998     -0.126370
      2.10493      4.21926     10.38521         0.030759     -0.026229     -0.048625
      8.43783      4.22091      8.23822         0.023791      0.005544      0.011672
      2.10954      2.10954      8.23727         0.003285      0.003283      0.018296
      4.22075      6.33100      6.11918         0.006863     -0.006277      0.064923
      6.33100      0.00026      6.11918         0.002111      0.003467      0.070220
      4.22075      0.00026      4.00893         0.000767      0.001835     -0.435030
      6.33100      6.33100      4.00893         0.002294      0.002295     -0.435775
      4.22345      6.32830     10.41254        -0.041827      0.037264     -0.208603
      6.33249      0.00584     10.38521         0.024881     -0.029339     -0.047667
      4.22091      8.43783      8.23822         0.005538      0.023793      0.011661
      6.33075      6.33075      8.24170         0.021551      0.021548      0.002521
      4.22075      2.11051      6.11918        -0.001530     -0.002881      0.070230
      6.33100      4.22075      6.11918        -0.006276      0.006863      0.064914
      4.22075      4.22075      4.00893        -0.001789     -0.001792     -0.435770
      6.33100      2.11051      4.00893        -0.000266     -0.001333     -0.435034
      4.21926      2.10493     10.38521        -0.026229      0.030763     -0.048639
      6.32830      4.22345     10.41254         0.037262     -0.041830     -0.208610
      4.22100      4.22100      8.24170        -0.021008     -0.021018      0.002516
      6.33084      2.11392      8.23822        -0.005024     -0.023172      0.011628
    total drift:                                0.004515      0.004512      0.130021

  FREE ENERGIE OF THE ION-ELECTRON SYSTEM (eV)
  free  energy   TOTEN  =      -467.36906043 eV

  energy  without entropy=     -467.36906043  energy(sigma->0) =     -467.36906043