 vasp.6.4.2 20Jul23 (build Feb 22 2024 13:53:45) complex
 executed on              LinuxNV date 2024.08.27  18:07:05
 OpenACC runtime initialized ...    4 GPUs detected

 INCAR:
   SYSTEM = Oxide-Surface
   ISMEAR = 0
   SIGMA = 0.05
   EDIFF = 1E-5
   ALGO = Normal
   IBRION = -1
   NSW = 0
   ISYM = 0
   DIPOL = 0.5 0.5 0.5
   IDIPOL = 3
   LDIPOL = .TRUE.
   ISTART = 0
   LHFCALC = .FALSE.
   GGA = PE
   IVDW = 21
   VDW_SR = 0.96
   HFRCUT = -1
   ENCUT = 520
   PREC = Normal
   PRECFOCK = Normal
   LASPH = .TRUE.
   LREAL = Auto
   ISPIN = 1
   NELM = 200
   NELMIN = 8
   NCORE = 1
   KPAR = 1
   LWAVE = .TRUE.
   LCHARG = .FALSE.

 POTCAR:    PAW_PBE Mg_pv 13Apr2007
 POTCAR:    PAW_PBE O 08Apr2002
 POTCAR:    PAW_PBE Mg_pv 13Apr2007
   VRHFIN =Mg: p6s2

   TITEL  = PAW_PBE Mg_pv 13Apr2007
   POMASS =   24.305; ZVAL   =    8.000    mass and valenz
   ENMAX  =  403.929; ENMIN  =  302.947 eV

   TITEL  = PAW_PBE O 08Apr2002
   POMASS =   16.000; ZVAL   =    6.000    mass and valenz
   ENMAX  =  400.000; ENMIN  =  300.000 eV

 Optimization of the real space projectors (new method)

 maximal supplied QI-value         = 18.90
 optimisation between [QCUT,QGAM] = [ 11.53, 23.24] = [ 37.21,151.29] Ry
 Optimized for a Real-space Cutoff    1.21 Angstroem

   l    n(q)    QCUT    max X(q) W(low)/X(q) W(high)/X(q)  e(spline)
   1      8    11.527     2.974    0.16E-03    0.13E-03    0.98E-07
   1      8    11.527     4.279    0.42E-03    0.30E-03    0.22E-06
   0      8    11.527    16.381    0.13E-03    0.20E-03    0.72E-07
   0      8    11.527     5.611    0.88E-04    0.13E-03    0.50E-07
   2      7    11.527     4.652    0.25E-03    0.73E-04    0.51E-07
 Optimization of the real space projectors (new method)

 maximal supplied QI-value         = 24.76
 optimisation between [QCUT,QGAM] = [ 11.64, 23.27] = [ 37.91,151.63] Ry
 Optimized for a Real-space Cutoff    1.04 Angstroem

   l    n(q)    QCUT    max X(q) W(low)/X(q) W(high)/X(q)  e(spline)
   0      7    11.635    20.381    0.14E-03    0.49E-03    0.18E-06
   0      7    11.635    15.268    0.16E-03    0.52E-03    0.19E-06
   1      7    11.635     5.964    0.30E-03    0.44E-03    0.22E-06
   1      7    11.635     5.382    0.27E-03    0.34E-03    0.19E-06
  PAW_PBE Mg_pv 13Apr2007               :
  PAW_PBE O 08Apr2002                   :

 POSCAR: Mg  O
  positions in direct lattice
 exchange correlation table for  LEXCH =        8
   RHO(1)=    0.500       N(1)  =     2000
   RHO(2)=  100.500       N(2)  =     4000

 ion  position               nearest neighbor table
   1  0.000  0.750  0.236-  33 2.11  36 2.11  43 2.11  35 2.11  52 2.11
   2  0.250  0.000  0.236-  34 2.11  35 2.11  36 2.11  51 2.11  44 2.11
   3  0.000  0.000  0.360-  35 2.11  34 2.11  33 2.11  41 2.11  50 2.11  39 2.12
   4  0.250  0.750  0.360-  36 2.11  33 2.11  42 2.11  34 2.11  49 2.11  40 2.12
   5  0.000  0.750  0.485-  47 2.11  39 2.11  56 2.11  40 2.11  33 2.12  37 2.14
   6  0.250  1.000  0.485-  48 2.11  39 2.11  55 2.11  40 2.11  34 2.12  38 2.15
   7  0.000  0.000  0.609-  45 2.11  38 2.11  37 2.11  54 2.11  39 2.11
   8  0.250  0.750  0.609-  37 2.10  40 2.11  46 2.11  38 2.11  53 2.12
   9  0.000  0.250  0.236-  41 2.11  44 2.11  43 2.11  35 2.11  60 2.11
  10  0.250  0.500  0.236-  42 2.11  36 2.11  43 2.11  44 2.11  59 2.11
  11  0.000  0.500  0.360-  43 2.11  42 2.11  33 2.11  41 2.11  58 2.11  47 2.12
  12  0.250  0.250  0.360-  44 2.11  41 2.11  42 2.11  57 2.11  34 2.11  48 2.12
  13  1.000  0.250  0.485-  48 2.11  39 2.11  64 2.11  47 2.11  41 2.12  45 2.15
  14  0.250  0.500  0.485-  40 2.11  48 2.11  63 2.11  47 2.11  42 2.12  46 2.14
  15  0.000  0.500  0.609-  46 2.10  47 2.11  37 2.11  45 2.11  62 2.12
  16  0.250  0.250  0.609-  38 2.11  45 2.11  61 2.11  46 2.11  48 2.11
  17  0.500  0.750  0.236-  49 2.11  59 2.11  51 2.11  52 2.11  36 2.11
  18  0.750  0.000  0.236-  50 2.11  51 2.11  52 2.11  35 2.11  60 2.11
  19  0.500  0.000  0.360-  51 2.11  49 2.11  50 2.11  34 2.11  57 2.11  55 2.12
  20  0.750  0.750  0.360-  52 2.11  58 2.11  49 2.11  50 2.11  33 2.11  56 2.12
  21  0.500  0.750  0.485-  63 2.11  56 2.11  40 2.11  55 2.11  49 2.13  53 2.16
  22  0.750  0.000  0.485-  55 2.11  39 2.11  56 2.11  64 2.11  50 2.12  54 2.14
  23  0.500  0.000  0.609-  61 2.10  55 2.11  54 2.11  38 2.11  53 2.12
  24  0.752  0.752  0.609-  54 2.10  37 2.10  56 2.11  53 2.12  62 2.12
  25  0.500  0.250  0.236-  57 2.11  44 2.11  59 2.11  60 2.11  51 2.11
  26  0.750  0.500  0.236-  58 2.11  52 2.11  59 2.11  60 2.11  43 2.11
  27  0.500  0.500  0.360-  59 2.11  49 2.11  57 2.11  58 2.11  42 2.11  63 2.12
  28  0.750  0.250  0.360-  60 2.11  58 2.11  57 2.11  50 2.11  41 2.11  64 2.12
  29  0.500  0.250  0.485-  64 2.11  48 2.11  63 2.11  55 2.11  57 2.12  61 2.14
  30  0.750  0.500  0.485-  63 2.11  56 2.11  64 2.11  47 2.11  58 2.13  62 2.16
  31  0.498  0.498  0.609-  61 2.10  46 2.10  63 2.11  53 2.12  62 2.12
  32  0.750  0.250  0.609-  54 2.10  64 2.11  61 2.11  45 2.11  62 2.12
  33  0.000  0.750  0.360-   1 2.11   4 2.11  11 2.11   3 2.11  20 2.11   5 2.12
  34  0.250  0.000  0.360-   2 2.11   3 2.11   4 2.11  19 2.11  12 2.11   6 2.12
  35  0.000  0.000  0.236-   3 2.11   2 2.11   1 2.11   9 2.11  18 2.11
  36  0.250  0.750  0.236-   4 2.11   1 2.11  10 2.11   2 2.11  17 2.11
  37  0.001  0.750  0.611-  24 2.10   8 2.10  15 2.11   7 2.11   5 2.14
  38  0.250  1.000  0.612-   7 2.11  16 2.11   8 2.11  23 2.11   6 2.15
  39  0.000  0.000  0.485-  13 2.11   6 2.11   5 2.11  22 2.11   7 2.11   3 2.12
  40  0.250  0.750  0.485-  21 2.11   8 2.11   6 2.11  14 2.11   5 2.11   4 2.12
  41  0.000  0.250  0.360-   9 2.11  12 2.11  11 2.11   3 2.11  28 2.11  13 2.12
  42  0.250  0.500  0.360-  10 2.11   4 2.11  11 2.11  12 2.11  27 2.11  14 2.12
  43  0.000  0.500  0.236-  11 2.11  10 2.11   1 2.11   9 2.11  26 2.11
  44  0.250  0.250  0.236-  12 2.11   9 2.11  10 2.11  25 2.11   2 2.11
  45  1.000  0.250  0.612-   7 2.11  16 2.11  32 2.11  15 2.11  13 2.15
  46  0.249  0.500  0.611-  31 2.10  15 2.10   8 2.11  16 2.11  14 2.14
  47  1.000  0.500  0.485-  30 2.11  15 2.11  13 2.11   5 2.11  14 2.11  11 2.12
  48  0.250  0.250  0.485-   6 2.11  13 2.11  14 2.11  29 2.11  16 2.11  12 2.12
  49  0.500  0.750  0.360-  17 2.11  27 2.11  19 2.11  20 2.11   4 2.11  21 2.13
  50  0.750  0.000  0.360-  18 2.11  19 2.11  20 2.11   3 2.11  28 2.11  22 2.12
  51  0.500  0.000  0.236-  19 2.11  17 2.11  18 2.11   2 2.11  25 2.11
  52  0.750  0.750  0.236-  20 2.11  26 2.11  17 2.11  18 2.11   1 2.11
  53  0.500  0.750  0.613-   8 2.12  23 2.12  31 2.12  24 2.12  21 2.16
  54  0.750  0.001  0.611-  24 2.10  32 2.10  23 2.11   7 2.11  22 2.14
  55  0.500  1.000  0.485-  21 2.11  23 2.11   6 2.11  22 2.11  29 2.11  19 2.12
  56  0.750  0.750  0.485-  30 2.11  21 2.11   5 2.11  22 2.11  24 2.11  20 2.12
  57  0.500  0.250  0.360-  25 2.11  12 2.11  27 2.11  28 2.11  19 2.11  29 2.12
  58  0.750  0.500  0.360-  26 2.11  20 2.11  27 2.11  28 2.11  11 2.11  30 2.13
  59  0.500  0.500  0.236-  27 2.11  17 2.11  25 2.11  26 2.11  10 2.11
  60  0.750  0.250  0.236-  28 2.11  26 2.11  25 2.11  18 2.11   9 2.11
  61  0.500  0.249  0.611-  31 2.10  23 2.10  32 2.11  16 2.11  29 2.14
  62  0.750  0.500  0.613-  32 2.12  15 2.12  31 2.12  24 2.12  30 2.16
  63  0.500  0.500  0.485-  30 2.11  21 2.11  14 2.11  29 2.11  31 2.11  27 2.12
  64  0.750  0.250  0.485-  30 2.11  32 2.11  13 2.11  29 2.11  22 2.11  28 2.12

IMPORTANT INFORMATION: All symmetrisations will be switched off!
NOSYMM: (Re-)initialisation of all symmetry stuff for point group C_1.

                                     Primitive cell

  volume of cell :    1211.2538

  direct lattice vectors                    reciprocal lattice vectors
     8.440984654  0.000000000  0.000000000     0.118469591  0.000000000  0.000000000
     0.000000000  8.440984654  0.000000000     0.000000000  0.118469591  0.000000000
     0.000000000  0.000000000 17.000000000     0.000000000  0.000000000  0.058823529

  length of vectors
     8.440984654  8.440984654 17.000000000     0.118469591  0.118469591  0.058823529

  position of ions in fractional coordinates (direct lattice)
     0.000030738  0.750030735  0.235819454
     0.250030738  0.000030735  0.235819454
     0.000030738  0.000030735  0.359951582
     0.250030738  0.750030735  0.359951582
     0.000201210  0.750096264  0.484924403
     0.250092311  0.999969265  0.484937667
     0.000230924  0.000230921  0.608776447
     0.249858919  0.749819737  0.608667763
     0.000030738  0.250030735  0.235819454
     0.250030738  0.500030735  0.235819454
     0.000030738  0.500030735  0.359951582
     0.250030738  0.250030735  0.359951582
     0.999969262  0.250092302  0.484937664
     0.249860443  0.499965307  0.484924424
     0.000202696  0.500241874  0.608667759
     0.249830687  0.249830684  0.608776513
     0.500030738  0.750030735  0.235819454
     0.750030738  0.000030735  0.235819454
     0.500030738  0.000030735  0.359951582
     0.750030738  0.750030735  0.359951582
     0.500301088  0.749760405  0.485169396
     0.750096258  0.000201208  0.484924406
     0.500241885  0.000202690  0.608667756
     0.751949439  0.751949450  0.609119152
     0.500030738  0.250030735  0.235819454
     0.750030738  0.500030735  0.235819454
     0.500030738  0.500030735  0.359951582
     0.750030738  0.250030735  0.359951582
     0.499965312  0.249860434  0.484924423
     0.749760398  0.500301085  0.485169393
     0.498112182  0.498112177  0.609119267
     0.749819734  0.249858918  0.608667762
     0.000030738  0.750030735  0.359951582
     0.250030738  0.000030735  0.359951582
     0.000030738  0.000030735  0.235819454
     0.250030738  0.750030735  0.235819454
     0.000691699  0.750207572  0.610894536
     0.250199398  0.999862199  0.611557811
     0.000145627  0.000145627  0.484545221
     0.250434878  0.750012183  0.484600927
     0.000030738  0.250030735  0.359951582
     0.250030738  0.500030735  0.359951582
     0.000030738  0.500030735  0.235819454
     0.250030738  0.250030735  0.235819454
     0.999862202  0.250199394  0.611557812
     0.249369970  0.499854062  0.610894625
     0.999626681  0.500049381  0.484600930
     0.249915938  0.249915934  0.484545237
     0.500030738  0.750030735  0.359951582
     0.750030738  0.000030735  0.359951582
     0.500030738  0.000030735  0.235819454
     0.750030738  0.750030735  0.235819454
     0.500350929  0.749710577  0.612502175
     0.750207565  0.000691696  0.610894534
     0.500049381  0.999626692  0.484600929
     0.750001397  0.750001391  0.484806093
     0.500030738  0.250030735  0.359951582
     0.750030738  0.500030735  0.359951582
     0.500030738  0.500030735  0.235819454
     0.750030738  0.250030735  0.235819454
     0.499854065  0.249369967  0.610894620
     0.749710588  0.500350924  0.612502182
     0.500060181  0.500060179  0.484806128
     0.750012185  0.250434879  0.484600929

  ion indices of the primitive-cell ions
   primitive index   ion index
                 1           1
                 2           2
                 3           3
                 4           4
                 5           5
                 6           6
[...]
   O         181.866          4.809         18.438          3.41437925
   O         166.155          4.737         17.623          3.26357472
   O         166.139          4.737         17.622          3.26341849
   O         161.854          4.716         17.394          3.22105769
   O         158.415          4.700         17.208          3.18665114
   O         186.658          4.830         18.679          3.45907107
   O         186.720          4.830         18.682          3.45964726

  vdW correction parametrized for the method à~:    þ

  IVDW =  21
  VDW_RADIUS =    50.000 A
  VDW_IDAMPF =  0
  VDW_S6 =     1.000
  VDW_SR =     0.960
  VDW_D =    20.000
  LVDW_ONECELL = F F F
  LVDW_SAMETYPE T T
  LVDW_EWALD = F

  Number of pair interactions contributing to vdW energy:  892034
  Edisp (eV):   -3.55254

  FORCE on cell =-STRESS in cart. coord.  units (eV):
  Direction    XX          YY          ZZ          XY          YZ          ZX
  Alpha Z  1098.23100  1098.23100  1098.23100
  Ewald   86217.90173 86217.90173************    -0.18494     0.00023     0.00023
  Hartree 96851.89560 96851.89559-90436.99585    -0.12942     0.00012     0.00012
  E(xc)   -2456.52136 -2456.52136 -2461.78978    -0.00026     0.00000     0.00000
  Local  ************************193120.73902     0.31862    -0.00035    -0.00035
  n-local -2809.47437 -2809.47437 -2830.56873    -0.00392    -0.00110    -0.00111
  augment  1047.56817  1047.56817  1038.13971    -0.00253     0.00010     0.00010
  Kinetic  7300.89135  7300.89136  7342.70214     0.00118    -0.00005    -0.00005
  Fock        0.00000     0.00000     0.00000     0.00000     0.00000     0.00000
  vdW        -5.05561    -5.05561    -3.45249     0.00005    -0.00000    -0.00000
  Total     -21.01741   -21.01740     3.65991    -0.00122    -0.00106    -0.00106
  in kB     -27.80063   -27.80062     4.84112    -0.00161    -0.00140    -0.00140

 VOLUME and BASIS-vectors are now :
  energy-cutoff  :      520.00
  volume of cell :     1211.25
      direct lattice vectors                 reciprocal lattice vectors
     8.440984654  0.000000000  0.000000000     0.118469591  0.000000000  0.000000000
     0.000000000  8.440984654  0.000000000     0.000000000  0.118469591  0.000000000
     0.000000000  0.000000000 17.000000000     0.000000000  0.000000000  0.058823529

  length of vectors
     8.440984654  8.440984654 17.000000000     0.118469591  0.118469591  0.058823529

 FORCES acting on ions
    electron-ion (+dipol)            ewald-force                    non-local-force                 convergence-correction
   0.680E-01 0.554E-01 0.172E+04   -.689E-01 -.562E-01 -.171E+04   0.739E-03 0.766E-03 -.704E+01   -.217E-04 -.935E-04 -.111E-02
   -.555E-01 0.555E-01 0.172E+04   0.567E-01 -.566E-01 -.171E+04   -.848E-03 0.103E-02 -.705E+01   0.719E-04 -.176E-03 -.105E-02
   0.181E+00 0.181E+00 0.568E+03   -.166E+00 -.166E+00 -.568E+03   -.112E-01 -.113E-01 0.506E+00   0.467E-04 0.521E-04 -.183E-03
   -.342E+00 0.162E+00 0.567E+03   0.389E+00 -.152E+00 -.568E+03   -.329E-01 -.747E-02 0.515E+00   0.664E-04 0.176E-04 -.343E-03
   0.625E+00 0.458E+00 -.573E+03   -.662E+00 -.468E+00 0.573E+03   0.278E-01 0.649E-02 -.302E+00   -.106E-03 -.769E-04 -.251E-03
   -.443E+00 0.443E+00 -.575E+03   0.453E+00 -.453E+00 0.575E+03   -.624E-02 0.612E-02 -.194E+00   -.238E-04 0.341E-05 -.294E-03
   -.501E+00 -.501E+00 -.171E+04   0.640E+00 0.640E+00 0.170E+04   -.104E+00 -.104E+00 0.607E+01   0.141E-04 0.122E-03 0.704E-04
   -.305E+01 -.329E+00 -.171E+04   0.316E+01 0.465E+00 0.170E+04   -.278E-01 -.972E-01 0.598E+01   0.158E-03 0.151E-04 0.912E-04
   0.554E-01 -.555E-01 0.172E+04   -.566E-01 0.567E-01 -.171E+04   0.102E-02 -.848E-03 -.705E+01   -.957E-04 0.982E-04 -.103E-02
   -.680E-01 -.554E-01 0.172E+04   0.689E-01 0.562E-01 -.171E+04   -.566E-03 -.610E-03 -.704E+01   0.296E-04 0.177E-03 -.108E-02
   0.342E+00 -.162E+00 0.567E+03   -.389E+00 0.152E+00 -.568E+03   0.327E-01 0.736E-02 0.515E+00   0.150E-05 -.635E-04 -.202E-03
   -.181E+00 -.181E+00 0.568E+03   0.166E+00 0.166E+00 -.568E+03   0.111E-01 0.111E-01 0.506E+00   -.969E-04 -.594E-05 -.184E-03
   0.443E+00 -.443E+00 -.575E+03   -.453E+00 0.453E+00 0.575E+03   0.611E-02 -.626E-02 -.194E+00   0.275E-04 0.897E-04 -.240E-03
   -.625E+00 -.458E+00 -.573E+03   0.662E+00 0.467E+00 0.573E+03   -.279E-01 -.662E-02 -.302E+00   -.112E-03 -.186E-04 -.263E-03
   0.305E+01 0.329E+00 -.171E+04   -.316E+01 -.465E+00 0.170E+04   0.277E-01 0.972E-01 0.598E+01   -.180E-03 -.145E-03 -.202E-04
   0.501E+00 0.501E+00 -.171E+04   -.640E+00 -.640E+00 0.170E+04   0.104E+00 0.104E+00 0.607E+01   -.108E-03 0.684E-05 0.109E-03
   -.644E-01 0.644E-01 0.172E+04   0.665E-01 -.665E-01 -.171E+04   -.155E-02 0.172E-02 -.706E+01   0.232E-04 -.624E-04 -.106E-02
   0.553E-01 0.681E-01 0.172E+04   -.562E-01 -.689E-01 -.171E+04   0.764E-03 0.748E-03 -.704E+01   -.647E-04 -.103E-03 -.112E-02
   -.162E+00 0.342E+00 0.567E+03   0.152E+00 -.389E+00 -.568E+03   0.735E-02 0.328E-01 0.515E+00   -.512E-04 -.107E-03 -.266E-03
   0.337E+00 0.337E+00 0.566E+03   -.362E+00 -.362E+00 -.567E+03   0.191E-01 0.191E-01 0.557E+00   -.674E-04 -.401E-04 -.286E-03
   -.915E+00 0.915E+00 -.580E+03   0.945E+00 -.945E+00 0.580E+03   -.272E-01 0.271E-01 -.176E+00   0.110E-03 0.807E-05 -.240E-03
   0.458E+00 0.625E+00 -.573E+03   -.467E+00 -.662E+00 0.573E+03   0.648E-02 0.278E-01 -.302E+00   0.236E-04 -.128E-03 -.239E-03
   0.329E+00 0.305E+01 -.171E+04   -.465E+00 -.316E+01 0.170E+04   0.971E-01 0.277E-01 0.598E+01   -.203E-04 -.148E-03 0.835E-04
   0.515E+01 0.515E+01 -.171E+04   -.531E+01 -.531E+01 0.170E+04   -.359E-01 -.359E-01 0.599E+01   -.166E-03 -.191E-03 0.434E-05
   -.554E-01 -.681E-01 0.172E+04   0.562E-01 0.689E-01 -.171E+04   -.603E-03 -.571E-03 -.704E+01   0.102E-03 0.663E-04 -.113E-02
   0.643E-01 -.644E-01 0.172E+04   -.665E-01 0.665E-01 -.171E+04   0.173E-02 -.156E-02 -.706E+01   -.403E-04 0.971E-04 -.109E-02
   -.337E+00 -.337E+00 0.566E+03   0.362E+00 0.362E+00 -.567E+03   -.192E-01 -.192E-01 0.557E+00   0.947E-05 0.966E-04 -.361E-03
   0.162E+00 -.342E+00 0.567E+03   -.152E+00 0.389E+00 -.568E+03   -.747E-02 -.329E-01 0.515E+00   0.920E-04 0.466E-04 -.289E-03
   -.458E+00 -.625E+00 -.573E+03   0.467E+00 0.662E+00 0.573E+03   -.662E-02 -.279E-01 -.302E+00   -.299E-04 -.135E-05 -.211E-03
   0.914E+00 -.915E+00 -.580E+03   -.945E+00 0.945E+00 0.580E+03   0.271E-01 -.272E-01 -.176E+00   0.111E-03 0.125E-03 -.183E-03
   -.515E+01 -.515E+01 -.171E+04   0.531E+01 0.531E+01 0.170E+04   0.360E-01 0.360E-01 0.599E+01   0.174E-03 0.134E-03 0.112E-03
   -.329E+00 -.305E+01 -.171E+04   0.465E+00 0.316E+01 0.170E+04   -.972E-01 -.278E-01 0.598E+01   0.120E-03 0.197E-03 0.120E-03
   0.264E+00 0.172E+00 0.425E+03   -.275E+00 -.178E+00 -.425E+03   0.142E-01 0.745E-02 -.733E-01   -.295E-05 0.877E-05 0.253E-04
   -.167E+00 0.167E+00 0.425E+03   0.166E+00 -.166E+00 -.425E+03   0.238E-02 -.177E-02 -.101E+00   -.939E-05 0.208E-05 0.479E-04
   0.366E-01 0.366E-01 0.129E+04   -.357E-01 -.357E-01 -.130E+04   -.975E-03 -.967E-03 0.349E+01   -.722E-05 -.132E-04 -.797E-03
   -.549E-01 0.365E-01 0.129E+04   0.586E-01 -.354E-01 -.130E+04   -.476E-02 -.125E-02 0.349E+01   0.631E-05 -.145E-04 -.941E-03
   -.168E+00 0.632E+00 -.129E+04   0.305E+00 -.710E+00 0.130E+04   -.163E+00 0.999E-01 -.483E+01   -.255E-04 -.467E-05 -.228E-03
   -.514E+00 0.514E+00 -.130E+04   0.606E+00 -.606E+00 0.130E+04   -.118E+00 0.118E+00 -.504E+01   0.157E-04 -.922E-05 -.229E-03
   -.269E-01 -.269E-01 -.425E+03   0.264E-01 0.264E-01 0.425E+03   -.232E-02 -.231E-02 0.252E+00   0.193E-05 -.399E-05 -.158E-03
   -.105E+01 -.378E-01 -.426E+03   0.109E+01 0.438E-01 0.425E+03   -.680E-01 -.107E-01 0.286E+00   0.550E-05 0.252E-05 -.161E-03
   0.167E+00 -.167E+00 0.425E+03   -.166E+00 0.166E+00 -.425E+03   -.178E-02 0.238E-02 -.101E+00   0.138E-04 -.103E-05 0.667E-04
   -.264E+00 -.172E+00 0.425E+03   0.275E+00 0.178E+00 -.425E+03   -.136E-01 -.683E-02 -.733E-01   -.128E-04 -.894E-05 0.225E-04
   0.549E-01 -.365E-01 0.129E+04   -.585E-01 0.354E-01 -.130E+04   0.534E-02 0.183E-02 0.349E+01   -.813E-05 0.178E-04 -.900E-03
   -.366E-01 -.366E-01 0.129E+04   0.357E-01 0.357E-01 -.130E+04   0.156E-02 0.155E-02 0.349E+01   0.347E-05 0.937E-05 -.755E-03
   0.514E+00 -.514E+00 -.130E+04   -.606E+00 0.606E+00 0.130E+04   0.118E+00 -.118E+00 -.504E+01   -.106E-04 0.271E-04 -.165E-03
   0.169E+00 -.632E+00 -.129E+04   -.306E+00 0.710E+00 0.130E+04   0.164E+00 -.101E+00 -.483E+01   0.527E-05 -.825E-05 -.206E-03
   0.105E+01 0.378E-01 -.426E+03   -.109E+01 -.438E-01 0.425E+03   0.687E-01 0.113E-01 0.286E+00   -.155E-04 -.293E-05 -.131E-03
   0.268E-01 0.268E-01 -.425E+03   -.264E-01 -.264E-01 0.425E+03   0.292E-02 0.291E-02 0.252E+00   -.225E-04 0.389E-05 -.158E-03
   -.212E+00 0.212E+00 0.424E+03   0.195E+00 -.195E+00 -.424E+03   0.234E-01 -.228E-01 -.151E+00   0.180E-05 0.523E-05 0.331E-04
   0.172E+00 0.264E+00 0.425E+03   -.178E+00 -.275E+00 -.425E+03   0.744E-02 0.142E-01 -.733E-01   0.137E-04 -.103E-04 0.356E-04
   -.365E-01 0.549E-01 0.129E+04   0.354E-01 -.585E-01 -.130E+04   0.184E-02 0.536E-02 0.349E+01   0.660E-05 -.205E-04 -.876E-03
   0.521E-01 0.521E-01 0.129E+04   -.569E-01 -.569E-01 -.130E+04   0.697E-02 0.697E-02 0.349E+01   -.563E-05 -.183E-05 -.965E-03
   -.212E+01 0.212E+01 -.130E+04   0.239E+01 -.239E+01 0.131E+04   -.306E+00 0.302E+00 -.524E+01   0.296E-04 -.110E-04 -.208E-03
   0.632E+00 -.168E+00 -.129E+04   -.710E+00 0.305E+00 0.130E+04   0.999E-01 -.163E+00 -.483E+01   0.134E-05 -.308E-04 -.212E-03
   0.378E-01 0.105E+01 -.426E+03   -.438E-01 -.109E+01 0.425E+03   0.113E-01 0.687E-01 0.286E+00   0.244E-05 -.323E-04 -.142E-03
   0.115E+01 0.115E+01 -.428E+03   -.117E+01 -.117E+01 0.428E+03   0.384E-01 0.384E-01 0.207E+00   -.686E-05 -.221E-04 -.119E-03
   -.172E+00 -.264E+00 0.425E+03   0.178E+00 0.275E+00 -.425E+03   -.682E-02 -.136E-01 -.733E-01   -.627E-05 0.151E-05 0.190E-04
   0.212E+00 -.212E+00 0.424E+03   -.195E+00 0.195E+00 -.424E+03   -.228E-01 0.234E-01 -.151E+00   0.340E-05 0.418E-05 0.430E-04
   -.521E-01 -.521E-01 0.129E+04   0.569E-01 0.569E-01 -.130E+04   -.638E-02 -.640E-02 0.349E+01   -.656E-06 0.139E-04 -.950E-03
   0.365E-01 -.549E-01 0.129E+04   -.354E-01 0.586E-01 -.130E+04   -.126E-02 -.476E-02 0.349E+01   -.129E-04 0.111E-04 -.881E-03
   -.632E+00 0.169E+00 -.129E+04   0.710E+00 -.306E+00 0.130E+04   -.101E+00 0.164E+00 -.483E+01   -.725E-05 0.203E-04 -.178E-03
   0.212E+01 -.212E+01 -.130E+04   -.239E+01 0.239E+01 0.131E+04   0.302E+00 -.306E+00 -.524E+01   -.481E-05 0.206E-04 -.195E-03
   -.115E+01 -.115E+01 -.428E+03   0.117E+01 0.117E+01 0.428E+03   -.378E-01 -.378E-01 0.207E+00   0.199E-04 0.300E-04 -.123E-03
   -.379E-01 -.105E+01 -.426E+03   0.439E-01 0.109E+01 0.425E+03   -.107E-01 -.680E-01 0.286E+00   0.237E-04 0.247E-04 -.144E-03
   -.568E-03 -.575E-03 0.170E+02   -.356E-14 -.115E-12 0.136E-11   0.366E-02 0.367E-02 -.168E+02   -.876E-05 0.234E-05 -.217E-01

 POSITION                                       TOTAL-FORCE (eV/Angst)
      0.00026      6.33100      4.00893        -0.000217     -0.000263      0.311834
      2.11051      0.00026      4.00893         0.000366     -0.000321      0.314370
      0.00026      0.00026      6.11918         0.003868      0.003868      0.030642
      2.11051      6.33100      6.11918         0.013699      0.002102      0.036171
      0.00170      6.33155      8.24371        -0.009610     -0.002967      0.008671
      2.11103      8.44073      8.24394         0.003830     -0.004078      0.036618
      0.00195      0.00195     10.34920         0.034883      0.034878     -0.008074
      2.10906      6.32922     10.34735         0.079548      0.038338      0.036707
      0.00026      2.11051      4.00893        -0.000323      0.000363      0.314374
      2.11051      4.22075      4.00893         0.000261      0.000306      0.311843
      0.00026      4.22075      6.11918        -0.013945     -0.002349      0.036172
      2.11051      2.11051      6.11918        -0.004117     -0.004117      0.030641
      8.44073      2.11103      8.24394        -0.004076      0.003832      0.036607
      2.10907      4.22020      8.24372         0.009325      0.002678      0.008700
      0.00171      4.22253     10.34735        -0.079773     -0.038551      0.036650
      2.10882      2.10882     10.34920        -0.035148     -0.035150     -0.008044
      4.22075      6.33100      4.00893         0.000591     -0.000549      0.316709
      6.33100      0.00026      4.00893        -0.000264     -0.000216      0.311844
      4.22075      0.00026      6.11918        -0.002348     -0.013947      0.036170
      6.33100      6.33100      6.11918        -0.005456     -0.005456      0.043807
      4.22303      6.32872      8.24788         0.002956     -0.003160      0.075246
      6.33155      0.00170      8.24371        -0.002965     -0.009610      0.008670
      4.22253      0.00171     10.34735        -0.038555     -0.079773      0.036656
      6.34719      6.34719     10.35503        -0.194160     -0.194163      0.005024
      4.22075      2.11051      4.00893         0.000308      0.000261      0.311849
      6.33100      4.22075      4.00893        -0.000550      0.000589      0.316711
      4.22075      4.22075      6.11918         0.005209      0.005207      0.043802
      6.33100      2.11051      6.11918         0.002101      0.013698      0.036168
      4.22020      2.10907      8.24372         0.002678      0.009327      0.008700
      6.32872      4.22303      8.24788        -0.003158      0.002957      0.075242
      4.20456      4.20456     10.35503         0.194163      0.194163      0.005232
      6.32922      2.10906     10.34735         0.038335      0.079551      0.036707
      0.00026      6.33100      6.11918         0.003222      0.001908      0.086806
      2.11051      0.00026      6.11918         0.000943     -0.000439      0.078978
      0.00026      0.00026      4.00893        -0.000159     -0.000157     -0.517308
      2.11051      6.33100      4.00893        -0.001206     -0.000248     -0.517980
      0.00584      6.33249     10.38521        -0.025785      0.021998      0.088431
      2.11193      8.43982     10.39648        -0.026293      0.026981      0.014390
      0.00123      0.00123      8.23727        -0.003009     -0.003008      0.009079
      2.11392      6.33084      8.23822        -0.022411     -0.004908      0.002096
      0.00026      2.11051      6.11918        -0.000440      0.000942      0.078977
      2.11051      4.22075      6.11918        -0.002717     -0.001405      0.086807
      0.00026      4.22075      4.00893         0.001692      0.000732     -0.517960
      2.11051      2.11051      4.00893         0.000644      0.000643     -0.517292
      8.43982      2.11193     10.39648         0.026982     -0.026297      0.014426
      2.10493      4.21926     10.38521         0.027142     -0.023233      0.087528
      8.43783      4.22091      8.23822         0.022986      0.005385      0.002121
      2.10954      2.10954      8.23727         0.003502      0.003497      0.009085
      4.22075      6.33100      6.11918         0.006271     -0.005765      0.083298
      6.33100      0.00026      6.11918         0.001907      0.003221      0.086803
      4.22075      0.00026      4.00893         0.000733      0.001698     -0.517954
      6.33100      6.33100      4.00893         0.002180      0.002180     -0.518687
      4.22345      6.32830     10.41254        -0.034636      0.030396     -0.063155
      6.33249      0.00584     10.38521         0.021994     -0.025785      0.088431
      4.22091      8.43783      8.23822         0.005385      0.022985      0.002111
      6.33075      6.33075      8.24170         0.020581      0.020586     -0.005685
      4.22075      2.11051      6.11918        -0.001405     -0.002717      0.086805
      6.33100      4.22075      6.11918        -0.005767      0.006272      0.083295
      4.22075      4.22075      4.00893        -0.001694     -0.001700     -0.518685
      6.33100      2.11051      4.00893        -0.000249     -0.001208     -0.517955
      4.21926      2.10493     10.38521        -0.023232      0.027138      0.087530
      6.32830      4.22345     10.41254         0.030393     -0.034633     -0.063143
      4.22100      4.22100      8.24170        -0.020097     -0.020097     -0.005706
      6.33084      2.11392      8.23822        -0.004913     -0.022414      0.002090
    total drift:                                0.003083      0.003092      0.126355

  FREE ENERGIE OF THE ION-ELECTRON SYSTEM (eV)
  free  energy   TOTEN  =      -375.61100564 eV

  energy  without entropy=     -375.61100564  energy(sigma->0) =     -375.61100564

 writing wavefunctions