 vasp.6.3.0 20Jan22 (build Apr  1 2022 16:44:48) complex
 executed on        HPECrayEX_GCC date 2022.10.26  06:25:19

 INCAR:
   SYSTEM = MgO-rocksalt
   ISMEAR = 0
   SIGMA = 0.05
   EDIFF = 1E-7
   ALGO = ALL
   ISTART = 0
   IBRION = 2
   NSW = 1000
   ISYM = 0
   ISIF = 2
   EDIFFG = -0.01
   DIPOL = 0.5 0.5 0.5
   IDIPOL = 3
   LDIPOL = .TRUE.
   GGA = MK
   LUSE_VDW = .TRUE.
   PARAM1 = 0.1234
   PARAM2 = 0.711357
   ZAB_VDW = -1.8867
   AGGAC = 0.0
   ENCUT = 600
   PREC = Accurate
   LASPH = .TRUE.
   LREAL = .FALSE.
   ISPIN = 1
   NELM = 200
   NELMIN = 8
   NCORE = 8
   KPAR = 1
   LWAVE = .FALSE.
   LCHARG = .FALSE.

 POTCAR:    PAW_PBE C 08Apr2002
 POTCAR:    PAW_PBE O 08Apr2002
 POTCAR:    PAW_PBE Mg_pv 13Apr2007
 POTCAR:    PAW_PBE O 08Apr2002
|               ----> ADVICE to this user running VASP <----                  |
|     You have switched on vdW-DFT.                                           |
|     This routine was written and supplied by Jiri Klimes. We recommend      |
|     that you carefully read and cite the following publications:            |
|       J. Klimes, D.R. Bowler, A. Michelides                                 |
|          J. Phys.: Cond Matt. 22 022201 (2010)                              |
|       J. Klimes, D.R. Bowler, A. Michelides                                 |
|          Phys. Rev. B. 83, 195131 (2011)                                    |
|     and references therein.                                                 |

   TITEL  = PAW_PBE C 08Apr2002
   POMASS =   12.011; ZVAL   =    4.000    mass and valenz
   ENMAX  =  400.000; ENMIN  =  300.000 eV

[...]

   TITEL  = PAW_PBE Mg_pv 13Apr2007
   POMASS =   24.305; ZVAL   =    8.000    mass and valenz
   ENMAX  =  403.929; ENMIN  =  302.947 eV

   TITEL  = PAW_PBE O 08Apr2002
   POMASS =   16.000; ZVAL   =    6.000    mass and valenz
   ENMAX  =  400.000; ENMIN  =  300.000 eV

  PAW_PBE C 08Apr2002                   :
  PAW_PBE O 08Apr2002                   :
  PAW_PBE Mg_pv 13Apr2007               :
  PAW_PBE O 08Apr2002                   :

 POSCAR:  C  O Mg  O
  positions in direct lattice
 exchange correlation table for  LEXCH =       43
   RHO(1)=    0.500       N(1)  =     2000
   RHO(2)=  100.500       N(2)  =     4000

 ion  position               nearest neighbor table
   1  0.500  0.250  0.716-   2 1.17   3 1.17  41 1.41
   2  0.500  0.377  0.739-   1 1.17  19 2.20
   3  0.500  0.123  0.739-   1 1.17  11 2.20
   4  0.250  0.000  0.352-  36 2.11  38 2.11  39 2.11  46 2.11  55 2.11
   5  0.500  0.250  0.352-  37 2.11  38 2.11  39 2.11  47 2.11  54 2.11
   6  0.250  0.250  0.451-  38 2.11  37 2.11  36 2.11  44 2.11  53 2.11  42 2.12
   7  0.500  0.000  0.451-  39 2.11  37 2.11  36 2.11  45 2.11  52 2.11  43 2.12
   8  0.250  0.000  0.550-  42 2.11  43 2.11  50 2.11  59 2.11  36 2.12  40 2.14
   9  0.500  0.250  0.550-  42 2.11  43 2.11  51 2.11  58 2.11  37 2.12  41 2.14
  10  0.250  0.250  0.648-  42 2.10  41 2.11  40 2.11  48 2.11  57 2.11
  11  0.500  0.000  0.648-  43 2.10  41 2.11  40 2.11  49 2.11  56 2.11   3 2.20
  12  0.250  0.500  0.352-  44 2.11  38 2.11  46 2.11  47 2.11  63 2.11
  13  0.500  0.750  0.352-  45 2.11  39 2.11  46 2.11  47 2.11  62 2.11
  14  0.250  0.750  0.451-  46 2.11  44 2.11  45 2.11  36 2.11  61 2.11  50 2.12
  15  0.500  0.500  0.451-  47 2.11  44 2.11  45 2.11  37 2.11  60 2.11  51 2.12
  16  0.250  0.500  0.550-  42 2.11  50 2.11  51 2.11  67 2.11  44 2.12  48 2.14
  17  0.500  0.750  0.550-  43 2.11  50 2.11  51 2.11  66 2.11  45 2.12  49 2.14
  18  0.250  0.750  0.648-  50 2.10  48 2.11  49 2.11  40 2.11  65 2.11
  19  0.500  0.500  0.648-  51 2.10  48 2.11  49 2.11  41 2.11  64 2.11   2 2.20
  20  0.750  0.000  0.352-  52 2.11  39 2.11  54 2.11  55 2.11  62 2.11
  21  0.000  0.250  0.352-  53 2.11  38 2.11  54 2.11  55 2.11  63 2.11
  22  0.750  0.250  0.451-  54 2.11  52 2.11  53 2.11  37 2.11  60 2.11  58 2.12
  23  0.000  0.000  0.451-  55 2.11  52 2.11  53 2.11  36 2.11  61 2.11  59 2.12
  24  0.750  0.000  0.550-  43 2.11  58 2.11  59 2.11  66 2.11  52 2.12  56 2.14
  25  0.000  0.250  0.550-  42 2.11  58 2.11  59 2.11  67 2.11  53 2.12  57 2.14
  26  0.750  0.250  0.648-  58 2.10  56 2.11  57 2.11  41 2.11  64 2.11
  27  0.000  0.000  0.648-  59 2.10  56 2.11  57 2.11  40 2.11  65 2.11
  28  0.750  0.500  0.352-  60 2.11  54 2.11  47 2.11  62 2.11  63 2.11
  29  0.000  0.750  0.352-  61 2.11  55 2.11  46 2.11  62 2.11  63 2.11
  30  0.750  0.750  0.451-  62 2.11  52 2.11  60 2.11  61 2.11  45 2.11  66 2.12
  31  0.000  0.500  0.451-  63 2.11  53 2.11  60 2.11  61 2.11  44 2.11  67 2.12
  32  0.750  0.500  0.550-  51 2.11  58 2.11  66 2.11  67 2.11  60 2.12  64 2.14
  33  0.000  0.750  0.550-  50 2.11  59 2.11  66 2.11  67 2.11  61 2.12  65 2.14
  34  0.750  0.750  0.648-  66 2.10  56 2.11  64 2.11  65 2.11  49 2.11
  35  0.000  0.500  0.648-  67 2.10  57 2.11  64 2.11  65 2.11  48 2.11
  36  0.250  0.000  0.451-   4 2.11   6 2.11   7 2.11  14 2.11  23 2.11   8 2.12
  37  0.500  0.250  0.451-   5 2.11   6 2.11   7 2.11  15 2.11  22 2.11   9 2.12
  38  0.250  0.250  0.352-   6 2.11   5 2.11   4 2.11  12 2.11  21 2.11
  39  0.500  0.000  0.352-   7 2.11   5 2.11   4 2.11  13 2.11  20 2.11
  40  0.250  0.000  0.650-  10 2.11  11 2.11  18 2.11  27 2.11   8 2.14
  41  0.500  0.250  0.650-   1 1.41  10 2.11  11 2.11  19 2.11  26 2.11   9 2.14
  42  0.250  0.250  0.550-  10 2.10   9 2.11   8 2.11  16 2.11  25 2.11   6 2.12
  43  0.500  0.000  0.550-  11 2.10   9 2.11   8 2.11  17 2.11  24 2.11   7 2.12
  44  0.250  0.500  0.451-  12 2.11   6 2.11  14 2.11  15 2.11  31 2.11  16 2.12
  45  0.500  0.750  0.451-  13 2.11   7 2.11  14 2.11  15 2.11  30 2.11  17 2.12
  46  0.250  0.750  0.352-  14 2.11  12 2.11  13 2.11   4 2.11  29 2.11
  47  0.500  0.500  0.352-  15 2.11  12 2.11  13 2.11   5 2.11  28 2.11
  48  0.250  0.500  0.650-  10 2.11  18 2.11  19 2.11  35 2.11  16 2.14
  49  0.500  0.750  0.650-  11 2.11  18 2.11  19 2.11  34 2.11  17 2.14
  50  0.250  0.750  0.550-  18 2.10  16 2.11  17 2.11   8 2.11  33 2.11  14 2.12
  51  0.500  0.500  0.550-  19 2.10  16 2.11  17 2.11   9 2.11  32 2.11  15 2.12
  52  0.750  0.000  0.451-  20 2.11   7 2.11  22 2.11  23 2.11  30 2.11  24 2.12
  53  0.000  0.250  0.451-  21 2.11   6 2.11  22 2.11  23 2.11  31 2.11  25 2.12
  54  0.750  0.250  0.352-  22 2.11  20 2.11  21 2.11   5 2.11  28 2.11
  55  0.000  0.000  0.352-  23 2.11  20 2.11  21 2.11   4 2.11  29 2.11
  56  0.750  0.000  0.650-  11 2.11  26 2.11  27 2.11  34 2.11  24 2.14
  57  0.000  0.250  0.650-  10 2.11  26 2.11  27 2.11  35 2.11  25 2.14
  58  0.750  0.250  0.550-  26 2.10  24 2.11  25 2.11   9 2.11  32 2.11  22 2.12
  59  0.000  0.000  0.550-  27 2.10  24 2.11  25 2.11   8 2.11  33 2.11  23 2.12
  60  0.750  0.500  0.451-  28 2.11  22 2.11  15 2.11  30 2.11  31 2.11  32 2.12
  61  0.000  0.750  0.451-  29 2.11  23 2.11  14 2.11  30 2.11  31 2.11  33 2.12
  62  0.750  0.750  0.352-  30 2.11  20 2.11  28 2.11  29 2.11  13 2.11
  63  0.000  0.500  0.352-  31 2.11  21 2.11  28 2.11  29 2.11  12 2.11
  64  0.750  0.500  0.650-  19 2.11  26 2.11  34 2.11  35 2.11  32 2.14
  65  0.000  0.750  0.650-  18 2.11  27 2.11  34 2.11  35 2.11  33 2.14
  66  0.750  0.750  0.550-  34 2.10  24 2.11  32 2.11  33 2.11  17 2.11  30 2.12
  67  0.000  0.500  0.550-  35 2.10  25 2.11  32 2.11  33 2.11  16 2.11  31 2.12

IMPORTANT INFORMATION: All symmetrisations will be switched off!
NOSYMM: (Re-)initialisation of all symmetry stuff for point group C_1.

                                     Primitive cell

  volume of cell :    1519.6535

  direct lattice vectors                    reciprocal lattice vectors
     8.440582262  0.000000000  0.000000000     0.118475239  0.000000000  0.000000000
     0.000000000  8.440582262  0.000000000     0.000000000  0.118475239  0.000000000
     0.000000000  0.000000000 21.330436697     0.000000000  0.000000000  0.046881366

  length of vectors
     8.440582262  8.440582262 21.330436697     0.118475239  0.118475239  0.046881366

  position of ions in fractional coordinates (direct lattice)
     0.500000000  0.250000000  0.716280231
     0.500000000  0.376816916  0.738991112
     0.500000000  0.123183084  0.738991112
     0.250000000  0.000000000  0.351610242
     0.500000000  0.250000000  0.351610242
     0.250000000  0.250000000  0.450536747
     0.500000000  0.000000000  0.450536747
     0.250000000  0.000000000  0.549966382
     0.500000000  0.250000000  0.549966382
     0.250000000  0.250000000  0.648348359
     0.500000000  0.000000000  0.648348359
     0.250000000  0.500000000  0.351610242
     0.500000000  0.750000000  0.351610242
     0.250000000  0.750000000  0.450536747
     0.500000000  0.500000000  0.450536747
     0.250000000  0.500000000  0.549966382
     0.500000000  0.750000000  0.549966382
     0.250000000  0.750000000  0.648348359
     0.500000000  0.500000000  0.648348359
     0.750000000  0.000000000  0.351610242
     0.000000000  0.250000000  0.351610242
     0.750000000  0.250000000  0.450536747
     0.000000000  0.000000000  0.450536747
     0.750000000  0.000000000  0.549966382
     0.000000000  0.250000000  0.549966382
     0.750000000  0.250000000  0.648348359
     0.000000000  0.000000000  0.648348359
     0.750000000  0.500000000  0.351610242
     0.000000000  0.750000000  0.351610242
     0.750000000  0.750000000  0.450536747
     0.000000000  0.500000000  0.450536747
     0.750000000  0.500000000  0.549966382
     0.000000000  0.750000000  0.549966382
     0.750000000  0.750000000  0.648348359
     0.000000000  0.500000000  0.648348359
     0.250000000  0.000000000  0.450536747
     0.500000000  0.250000000  0.450536747
     0.250000000  0.250000000  0.351610242
     0.500000000  0.000000000  0.351610242
     0.250000000  0.000000000  0.650177506
     0.500000000  0.250000000  0.650177506
     0.250000000  0.250000000  0.549707339
     0.500000000  0.000000000  0.549707339
     0.250000000  0.500000000  0.450536747
     0.500000000  0.750000000  0.450536747
     0.250000000  0.750000000  0.351610242
     0.500000000  0.500000000  0.351610242
     0.250000000  0.500000000  0.650177506
     0.500000000  0.750000000  0.650177506
     0.250000000  0.750000000  0.549707339
     0.500000000  0.500000000  0.549707339
     0.750000000  0.000000000  0.450536747
     0.000000000  0.250000000  0.450536747
     0.750000000  0.250000000  0.351610242
     0.000000000  0.000000000  0.351610242
     0.750000000  0.000000000  0.650177506
     0.000000000  0.250000000  0.650177506
     0.750000000  0.250000000  0.549707339
     0.000000000  0.000000000  0.549707339
     0.750000000  0.500000000  0.450536747
     0.000000000  0.750000000  0.450536747
     0.750000000  0.750000000  0.351610242
     0.000000000  0.500000000  0.351610242
     0.750000000  0.500000000  0.650177506
     0.000000000  0.750000000  0.650177506
     0.750000000  0.750000000  0.549707339
     0.000000000  0.500000000  0.549707339

  ion indices of the primitive-cell ions
   primitive index   ion index
                 1           1
                 2           2
                 3           3
                 4           4
[...]
   6.33043670  2.11014557 13.82955363
   0.00000000  0.00000000 13.82955363
   6.33043670  4.22029113  7.50000000
   0.00000000  6.33043670  7.50000000
   6.33043670  6.33043670  9.61014557
   0.00000000  4.22029113  9.61014557
   6.33043670  4.22029113 11.73102311
   0.00000000  6.33043670 11.73102311
   6.33043670  6.33043670 13.82955363
   0.00000000  4.22029113 13.82955363
   2.11014557  0.00000000  9.61014557
   4.22029113  2.11014557  9.61014557
   2.11014557  2.11014557  7.50000000
   4.22029113  0.00000000  7.50000000
   2.11014557  0.00000000 13.86857013
   4.22029113  2.11014557 13.86857013
   2.11014557  2.11014557 11.72549760
   4.22029113  0.00000000 11.72549760
   2.11014557  4.22029113  9.61014557
   4.22029113  6.33043670  9.61014557
   2.11014557  6.33043670  7.50000000
   4.22029113  4.22029113  7.50000000
   2.11014557  4.22029113 13.86857013
   4.22029113  6.33043670 13.86857013
   2.11014557  6.33043670 11.72549760
   4.22029113  4.22029113 11.72549760
   6.33043670  0.00000000  9.61014557
   0.00000000  2.11014557  9.61014557
   6.33043670  2.11014557  7.50000000
   0.00000000  0.00000000  7.50000000
   6.33043670  0.00000000 13.86857013
   0.00000000  2.11014557 13.86857013
   6.33043670  2.11014557 11.72549760
   0.00000000  0.00000000 11.72549760
   6.33043670  4.22029113  9.61014557
   0.00000000  6.33043670  9.61014557
   6.33043670  6.33043670  7.50000000
   0.00000000  4.22029113  7.50000000
   6.33043670  4.22029113 13.86857013
   0.00000000  6.33043670 13.86857013
   6.33043670  6.33043670 11.72549760
   0.00000000  4.22029113 11.72549760

--------------------------------------- Iteration      FINAL  ---------------------------------------

--------------------OUTCAR has been truncated-------------------------

[...]

--------------------OUTCAR has been truncated-------------------------

  FORCE on cell =-STRESS in cart. coord.  units (eV):
  Direction    XX          YY          ZZ          XY          YZ          ZX
  Alpha Z   927.03078   927.03078   927.03078
  Ewald  160491.74229161370.58422************    -0.00004     0.00703    -0.00010
  Hartree170955.98792171464.20369************    -0.00002     0.00031    -0.00006
  E(xc)   -2532.70300 -2531.20132 -2531.72557    -0.00000     0.00003    -0.00000
  Local  ************************341470.69489     0.00006    -0.00562     0.00016
  n-local -2882.22697 -2886.64245 -2904.79060     0.00000    -0.00024    -0.00000
  augment  1064.67872  1063.41730  1056.70136     0.00000    -0.00001    -0.00000
  Kinetic  7649.28374  7610.09913  7677.64571     0.00000    -0.00056     0.00001
  Fock        0.00000     0.00000     0.00000     0.00000     0.00000     0.00000
  Total     -25.38462   -27.44958    -2.34573     0.00000     0.00094     0.00000
  in kB     -26.76312   -28.94021    -2.47311     0.00000     0.00099     0.00000

 VOLUME and BASIS-vectors are now :
  energy-cutoff  :      600.00
  volume of cell :     1519.65
      direct lattice vectors                 reciprocal lattice vectors
     8.440582262  0.000000000  0.000000000     0.118475239  0.000000000  0.000000000
     0.000000000  8.440582262  0.000000000     0.000000000  0.118475239  0.000000000
     0.000000000  0.000000000 21.330436697     0.000000000  0.000000000  0.046881366

  length of vectors
     8.440582262  8.440582262 21.330436697     0.118475239  0.118475239  0.046881366

 FORCES acting on ions:
    Electron-Ion                     Ewald-Force                    Non-Local-Force
   0.470E-04 0.119E-01 -.110E+04   -.484E-04 -.146E-01 0.111E+04   0.130E-05 0.165E-03 -.227E+01
   0.546E-04 -.223E+03 -.180E+04   -.602E-04 0.265E+03 0.183E+04   0.626E-05 -.429E+02 -.274E+02
   0.963E-05 0.223E+03 -.180E+04   -.778E-05 -.265E+03 0.183E+04   -.181E-05 0.429E+02 -.274E+02
   -.340E-03 0.793E+00 0.210E+04   0.132E-02 -.829E+00 -.210E+04   -.128E-02 0.255E-01 -.683E+01
   -.120E-04 0.796E-05 0.210E+04   0.125E-04 -.884E-05 -.210E+04   -.339E-06 0.660E-06 -.667E+01
   0.230E+01 0.363E-04 0.754E+03   -.232E+01 -.421E-04 -.754E+03   0.106E-01 0.416E-05 0.708E+00
   -.592E-04 0.609E+01 0.749E+03   0.619E-04 -.636E+01 -.749E+03   -.187E-05 0.183E+00 0.569E+00
   0.535E+01 0.874E+01 -.591E+03   -.478E+01 -.898E+01 0.592E+03   -.576E+00 0.232E+00 -.123E+01
   -.203E-04 -.495E-06 -.572E+03   0.249E-04 0.202E-05 0.567E+03   -.512E-05 -.176E-05 0.460E+01
   0.487E+02 0.109E-03 -.189E+04   -.542E+02 -.231E-03 0.188E+04   0.550E+01 0.838E-04 0.686E+01
   -.478E-04 0.876E+02 -.190E+04   0.425E-04 -.907E+02 0.189E+04   0.519E-05 0.311E+01 0.126E+01
   -.340E-03 -.793E+00 0.210E+04   0.132E-02 0.829E+00 -.210E+04   -.128E-02 -.255E-01 -.683E+01
   -.126E-04 -.778E-05 0.210E+04   0.128E-04 0.879E-05 -.210E+04   -.196E-06 -.751E-06 -.684E+01
   -.112E+01 -.352E-04 0.749E+03   0.121E+01 0.413E-04 -.750E+03   -.608E-01 -.430E-05 0.383E+00
   -.561E-04 -.609E+01 0.749E+03   0.592E-04 0.636E+01 -.749E+03   -.213E-05 -.183E+00 0.569E+00
   0.535E+01 -.874E+01 -.591E+03   -.478E+01 0.898E+01 0.592E+03   -.576E+00 -.232E+00 -.123E+01
   -.386E-04 0.537E-04 -.599E+03   0.370E-04 -.570E-04 0.599E+03   0.171E-05 0.407E-05 -.481E+00
   0.286E+02 0.553E-04 -.197E+04   -.295E+02 0.267E-04 0.196E+04   0.832E+00 -.592E-04 0.616E+01
   -.382E-04 -.876E+02 -.190E+04   0.326E-04 0.907E+02 0.189E+04   0.626E-05 -.311E+01 0.126E+01
   0.340E-03 0.793E+00 0.210E+04   -.132E-02 -.829E+00 -.210E+04   0.128E-02 0.255E-01 -.683E+01
   0.120E-04 0.801E-05 0.210E+04   -.123E-04 -.889E-05 -.210E+04   0.303E-06 0.636E-06 -.670E+01
   -.230E+01 0.382E-04 0.754E+03   0.232E+01 -.437E-04 -.754E+03   -.106E-01 0.386E-05 0.708E+00
   0.574E-04 0.269E+01 0.752E+03   -.599E-04 -.285E+01 -.752E+03   0.173E-05 0.113E+00 0.709E-01
   -.535E+01 0.874E+01 -.591E+03   0.478E+01 -.898E+01 0.592E+03   0.576E+00 0.232E+00 -.123E+01
   0.124E-04 -.303E-04 -.570E+03   -.171E-04 0.764E-05 0.570E+03   0.503E-05 0.183E-04 0.975E-01
   -.487E+02 0.119E-03 -.189E+04   0.542E+02 -.241E-03 0.188E+04   -.550E+01 0.834E-04 0.686E+01
   0.145E-04 0.179E+02 -.198E+04   -.106E-04 -.187E+02 0.197E+04   -.365E-05 0.773E+00 0.605E+01
   0.340E-03 -.793E+00 0.210E+04   -.132E-02 0.829E+00 -.210E+04   0.128E-02 -.255E-01 -.683E+01
   0.125E-04 -.831E-05 0.210E+04   -.128E-04 0.908E-05 -.210E+04   0.211E-06 -.564E-06 -.681E+01
   0.112E+01 -.395E-04 0.749E+03   -.121E+01 0.450E-04 -.750E+03   0.608E-01 -.382E-05 0.383E+00
   0.543E-04 -.269E+01 0.752E+03   -.573E-04 0.285E+01 -.752E+03   0.207E-05 -.113E+00 0.709E-01
   -.535E+01 -.874E+01 -.591E+03   0.478E+01 0.898E+01 0.592E+03   0.576E+00 -.232E+00 -.123E+01
   0.305E-04 0.779E-05 -.595E+03   -.290E-04 0.165E-04 0.595E+03   -.120E-05 -.179E-04 -.174E+00
   -.286E+02 0.387E-04 -.197E+04   0.295E+02 0.439E-04 0.196E+04   -.832E+00 -.599E-04 0.616E+01
   0.154E-04 -.179E+02 -.198E+04   -.956E-05 0.187E+02 0.197E+04   -.571E-05 -.773E+00 0.605E+01
   0.212E+00 0.222E+01 0.562E+03   -.327E+00 -.230E+01 -.561E+03   0.152E+00 0.126E+00 -.297E+00
   -.354E-04 0.262E-04 0.572E+03   0.343E-04 -.294E-04 -.573E+03   0.162E-05 0.470E-05 0.503E+00
   0.155E+00 0.584E-05 0.158E+04   -.161E+00 -.689E-05 -.158E+04   0.909E-02 0.154E-05 0.365E+01
   -.943E-05 0.766E+00 0.158E+04   0.984E-05 -.811E+00 -.158E+04   -.521E-06 0.636E-01 0.360E+01
   0.372E+02 0.292E+02 -.146E+04   -.363E+02 -.293E+02 0.146E+04   -.884E+00 0.109E+00 -.509E+01
   -.369E-04 0.156E-02 -.123E+04   0.433E-04 -.211E-02 0.121E+04   -.672E-05 0.649E-03 0.228E+02
   0.338E+01 0.341E-07 -.430E+03   -.363E+01 -.160E-04 0.429E+03   0.250E+00 0.252E-04 0.885E+00
   -.349E-04 0.855E+01 -.459E+03   0.345E-04 -.891E+01 0.461E+03   0.897E-06 0.369E+00 -.180E+01
   0.212E+00 -.222E+01 0.562E+03   -.327E+00 0.230E+01 -.561E+03   0.152E+00 -.126E+00 -.297E+00
   -.408E-04 -.243E-04 0.558E+03   0.411E-04 0.246E-04 -.558E+03   -.260E-06 -.650E-06 -.267E+00
   -.139E+00 -.585E-05 0.158E+04   0.144E+00 0.691E-05 -.158E+04   -.719E-02 -.154E-05 0.357E+01
   -.923E-05 -.766E+00 0.158E+04   0.966E-05 0.811E+00 -.158E+04   -.582E-06 -.636E-01 0.360E+01
   0.372E+02 -.292E+02 -.146E+04   -.363E+02 0.293E+02 0.146E+04   -.884E+00 -.109E+00 -.509E+01
   -.246E-04 0.267E-03 -.146E+04   0.261E-04 -.194E-03 0.147E+04   -.148E-05 -.117E-03 -.397E+01
   0.289E+01 0.288E-04 -.441E+03   -.301E+01 -.156E-04 0.441E+03   0.118E+00 -.201E-04 0.319E+00
   -.200E-04 -.855E+01 -.459E+03   0.194E-04 0.891E+01 0.461E+03   0.379E-06 -.369E+00 -.180E+01
   -.212E+00 0.222E+01 0.562E+03   0.327E+00 -.230E+01 -.561E+03   -.152E+00 0.126E+00 -.297E+00
   0.334E-04 0.176E-04 0.568E+03   -.323E-04 -.204E-04 -.568E+03   -.153E-05 0.414E-05 0.355E+00
   -.155E+00 0.603E-05 0.158E+04   0.161E+00 -.704E-05 -.158E+04   -.909E-02 0.143E-05 0.365E+01
   0.944E-05 0.473E+00 0.158E+04   -.976E-05 -.507E+00 -.158E+04   0.480E-06 0.473E-01 0.359E+01
   -.372E+02 0.292E+02 -.146E+04   0.363E+02 -.293E+02 0.146E+04   0.884E+00 0.109E+00 -.509E+01
   -.247E-04 -.832E-04 -.149E+04   0.262E-04 0.495E-04 0.149E+04   -.178E-05 0.537E-04 -.507E+01
   -.338E+01 0.779E-05 -.430E+03   0.363E+01 -.242E-04 0.429E+03   -.250E+00 0.250E-04 0.885E+00
   0.319E-04 0.626E+01 -.437E+03   -.323E-04 -.632E+01 0.437E+03   -.342E-06 0.645E-01 0.635E-01
   -.212E+00 -.222E+01 0.562E+03   0.327E+00 0.230E+01 -.561E+03   -.152E+00 -.126E+00 -.297E+00
   0.397E-04 -.230E-04 0.563E+03   -.399E-04 0.269E-04 -.563E+03   0.218E-06 -.560E-05 -.449E-01
   0.139E+00 -.613E-05 0.158E+04   -.144E+00 0.710E-05 -.158E+04   0.719E-02 -.148E-05 0.357E+01
   0.921E-05 -.473E+00 0.158E+04   -.959E-05 0.507E+00 -.158E+04   0.583E-06 -.473E-01 0.359E+01
   -.372E+02 -.292E+02 -.146E+04   0.363E+02 0.293E+02 0.146E+04   0.884E+00 -.109E+00 -.509E+01
   0.691E-05 0.100E-03 -.150E+04   -.738E-05 -.738E-04 0.151E+04   0.306E-06 -.431E-04 -.495E+01
   -.289E+01 0.958E-05 -.441E+03   0.301E+01 0.325E-05 0.441E+03   -.118E+00 -.192E-04 0.319E+00
   0.212E-04 -.626E+01 -.437E+03   -.214E-04 0.632E+01 0.437E+03   0.298E-06 -.645E-01 0.636E-01
   0.670E-05 0.238E-02 0.525E+02   -.440E-13 -.639E-13 -.142E-11   -.583E-05 -.235E-02 -.525E+02

 POSITION                                       TOTAL-FORCE (eV/Angst)
      4.22029      2.11016     15.41300        -0.000000     -0.002499     -0.006324
      4.22029      3.26372     15.90357         0.000001     -0.003601      0.002403
      4.22029      0.95655     15.90358         0.000000      0.006007      0.001389
      2.11015      0.00000      7.50000        -0.000278     -0.009830      0.325194
      4.22029      2.11015      7.50000         0.000000     -0.000001      0.291937
      2.11015      2.11015      9.61015        -0.016830     -0.000002     -0.015903
      4.22029      0.00000      9.61015         0.000001     -0.086706      0.076904
      2.12796     -0.00680     11.74291        -0.000015     -0.001804     -0.000046
      4.22029      2.11015     11.68227        -0.000000     -0.000001      0.001903
      1.99698      2.11015     13.79271        -0.000079     -0.000038      0.001775
      4.22029     -0.09662     14.02839        -0.000000      0.001294      0.000493
      2.11015      4.22029      7.50000        -0.000278      0.009830      0.325193
      4.22029      6.33044      7.50000         0.000000     -0.000000      0.329647
      2.11015      6.33044      9.61015         0.024651      0.000001      0.059242
      4.22029      4.22029      9.61015         0.000001      0.086706      0.076901
      2.12796      4.22709     11.74291        -0.000010      0.001804     -0.000060
      4.22029      6.33044     11.75161         0.000000      0.000000      0.001449
      2.08886      6.33044     13.83112         0.001559      0.000022      0.001705
      4.22029      4.31691     14.02839         0.000001     -0.001183      0.000316
      6.33044      0.00000      7.50000         0.000278     -0.009830      0.325194
      0.00000      2.11015      7.50000        -0.000000     -0.000001      0.302191
      6.33044      2.11015      9.61015         0.016830     -0.000002     -0.015902
      0.00000      0.00000      9.61015        -0.000001     -0.044764      0.059824
      6.31263     -0.00680     11.74291         0.000016     -0.001804     -0.000046
     -0.00000      2.11015     11.70062         0.000000     -0.000005     -0.002013
      6.44360      2.11015     13.79271         0.000079     -0.000038      0.001775
      0.00000     -0.02088     13.82083         0.000000      0.001536     -0.000662
      6.33044      4.22029      7.50000         0.000278      0.009830      0.325193
      0.00000      6.33044      7.50000        -0.000000     -0.000000      0.325414
      6.33044      6.33044      9.61015        -0.024651      0.000001      0.059243
      0.00000      4.22029      9.61015        -0.000001      0.044763      0.059819
      6.31263      4.22709     11.74291         0.000010      0.001804     -0.000061
      0.00000      6.33044     11.71855         0.000000      0.000006     -0.003319
      6.35173      6.33044     13.83112        -0.001559      0.000022      0.001705
      0.00000      4.24117     13.82083         0.000000     -0.001534     -0.000674
      2.11015      0.00000      9.61015         0.036941      0.038739      0.046154
      4.22029      2.11015      9.61015         0.000000      0.000001     -0.038612
      2.11015      2.11015      7.50000         0.002624      0.000000     -0.389358
      4.22029      0.00000      7.50000        -0.000000      0.018073     -0.402922
      2.09246      0.01242     13.84273        -0.001108     -0.001182      0.002668
      4.22029      2.11015     13.94882        -0.000000      0.000101      0.001812
      2.12914      2.11015     11.73105         0.000716      0.000009     -0.000150
      4.22029      0.01815     11.74990         0.000001      0.001669      0.000761
      2.11015      4.22029      9.61015         0.036940     -0.038739      0.046155
      4.22029      6.33044      9.61015         0.000000     -0.000001      0.098662
      2.11015      6.33044      7.50000        -0.002116     -0.000001     -0.412605
      4.22029      4.22029      7.50000        -0.000000     -0.018074     -0.402922
      2.09246      4.20788     13.84273        -0.001057      0.001163      0.002726
      4.22029      6.33044     13.88586         0.000000     -0.000045      0.003381
      2.11505      6.33044     11.72551        -0.001714     -0.000007      0.003065
      4.22029      4.20214     11.74990        -0.000000     -0.001670      0.000777
      6.33044      0.00000      9.61015        -0.036941      0.038739      0.046155
      0.00000      2.11015      9.61015        -0.000000      0.000001      0.029923
      6.33044      2.11015      7.50000        -0.002624      0.000000     -0.389358
      0.00000      0.00000      7.50000         0.000000      0.013320     -0.405845
      6.34812      0.01242     13.84273         0.001108     -0.001182      0.002667
      0.00000      2.11015     13.83096        -0.000000      0.000020      0.001675
      6.31144      2.11015     11.73105        -0.000716      0.000008     -0.000150
      0.00000      0.00418     11.71215        -0.000001      0.000074      0.001670
      6.33044      4.22029      9.61015        -0.036940     -0.038740      0.046156
      0.00000      6.33044      9.61015         0.000000     -0.000002      0.003371
      6.33044      6.33044      7.50000         0.002116     -0.000001     -0.412605
      0.00000      4.22029      7.50000         0.000000     -0.013321     -0.405844
      6.34812      4.20788     13.84273         0.001057      0.001163      0.002726
      0.00000      6.33044     13.84863        -0.000000     -0.000017      0.003316
      6.32553      6.33044     11.72551         0.001714     -0.000007      0.003065
     -0.00000      4.21611     11.71215         0.000000     -0.000074      0.001685
    total drift:                                0.000001      0.000025     -0.008602

  FREE ENERGIE OF THE ION-ELECTRON SYSTEM (eV)
  free  energy   TOTEN  =      -284.33145342 eV

  energy  without entropy=     -284.33145342  energy(sigma->0) =     -284.33145342

 d Force = 0.9745208E-05[ 0.342E-05, 0.161E-04]  d Energy = 0.8972755E-05 0.772E-06
 d Force = 0.4652939E+01[ 0.465E+01, 0.465E+01]  d Ewald  = 0.4652939E+01 0.459E-09

 Conjugate gradient step on ions:
 trial-energy change:   -0.000009  1 .order   -0.000010   -0.000016   -0.000003
  (g-gl).g = 0.490E-04      g.g   = 0.488E-04  gl.gl    = 0.640E-04
 g(Force)  = 0.488E-04   g(Stress)= 0.000E+00 ortho     =-0.590E-07
 gamma     =   0.76615
 trial     =   0.32955
 opt step  =   0.58260  (harmonic =   0.41868) maximal distance =0.00047643
 next E    =  -284.331454   (d E  =  -0.00001)

 reached required accuracy - stopping structural energy minimisation