 vasp.6.3.0 20Jan22 (build Mar 11 2022 13:48:16) complex

 executed on             LinuxIFC date 2024.08.21  17:42:56

 INCAR:
   SYSTEM = MgO-rocksalt
   ISMEAR = 0
   SIGMA = 0.05
   EDIFF = 1E-7
   ALGO = Normal
   ISTART = 0
   IBRION = 2
   NSW = 1000
   ISYM = 2
   ISIF = 3
   EDIFFG = -0.005
   GGA = RE
   AGGAC = 0.0
   LUSE_VDW = .TRUE.
   LASPH = .TRUE.
   ENCUT = 600
   PREC = Accurate
   LASPH = .TRUE.
   LREAL = .FALSE.
   ISPIN = 1
   NELM = 200
   NELMIN = 8
   NCORE = 8
   KPAR = 1
   LWAVE = .FALSE.
   LCHARG = .FALSE.

 POTCAR:    PAW_PBE Ti_pv 07Sep2000
 POTCAR:    PAW_PBE O 08Apr2002
|           W    W    AA    RRRRR   N    N  II  N    N   GGGG   !!!           |
|           W    W   A  A   R    R  NN   N  II  NN   N  G    G  !!!           |
|           W    W  A    A  R    R  N N  N  II  N N  N  G       !!!           |
|           W WW W  AAAAAA  RRRRR   N  N N  II  N  N N  G  GGG   !            |
|           WW  WW  A    A  R   R   N   NN  II  N   NN  G    G                |
|           W    W  A    A  R    R  N    N  II  N    N   GGGG   !!!           |
|     For optimal performance we recommend to set                             |
|       NCORE = 2 up to number-of-cores-per-socket                            |
|     This setting can greatly improve the performance of VASP for DFT.       |
|     The default, NCORE=1 might be grossly inefficient on modern             |
|     multi-core architectures or massively parallel machines. Do your        |
|     Unfortunately you need to use the default for GW and RPA                |
|     calculations (for HF NCORE is supported but not extensively tested      |
|     yet).                                                                   |

   TITEL  = PAW_PBE Ti_pv 07Sep2000
   POMASS =   47.880; ZVAL   =   10.000    mass and valenz
   ENMAX  =  222.335; ENMIN  =  166.751 eV

   TITEL  = PAW_PBE O 08Apr2002
   POMASS =   16.000; ZVAL   =    6.000    mass and valenz
   ENMAX  =  400.000; ENMIN  =  300.000 eV

  PAW_PBE Ti_pv 07Sep2000               :
  PAW_PBE O 08Apr2002                   :

 POSCAR: Ti4 O8
  positions in direct lattice
  velocities in cartesian coordinates
 exchange correlation table for  LEXCH =       40
   RHO(1)=    0.500       N(1)  =     2000
   RHO(2)=  100.500       N(2)  =     4000

 ion  position               nearest neighbor table
   1  0.500  0.500  0.500-   5 1.97   7 1.97   7 1.97   5 1.97   6 2.02  12 2.02   2 3.11   2 3.11
                             4 3.11   4 3.11
   2  0.500  0.000  0.750-   6 1.97   8 1.97   6 1.97   8 1.97   7 2.02   9 2.02   1 3.11   1 3.11
                             3 3.11   3 3.11
   3  0.000  0.000  0.000-   9 1.97  11 1.97  11 1.97   9 1.97  10 2.02   8 2.02   4 3.11   2 3.11
                             2 3.11   4 3.11
   4  0.000  0.500  0.250-  10 1.97  12 1.97  10 1.97  12 1.97  11 2.02   5 2.02   3 3.11   1 3.11
                             1 3.11   3 3.11
   5  0.000  0.500  0.457-   1 1.97   1 1.97   4 2.02
   6  0.500  0.500  0.707-   2 1.97   2 1.97   1 2.02
   7  0.500  0.000  0.543-   1 1.97   1 1.97   2 2.02
   8  0.000  0.000  0.793-   2 1.97   2 1.97   3 2.02
   9  0.500  0.000  0.957-   3 1.97   3 1.97   2 2.02
  10  0.000  0.000  0.207-   4 1.97   4 1.97   3 2.02
  11  0.000  0.500  0.043-   3 1.97   3 1.97   4 2.02
  12  0.500  0.500  0.293-   4 1.97   4 1.97   1 2.02

  LATTYP: Found a simple tetragonal cell.
 ALAT       =     3.8392780182
 C/A-ratio  =     2.5440910251

  Lattice vectors:

 A1 = (   3.8392780182,   0.0000000000,   0.0000000000)
 A2 = (   0.0000000000,   3.8392780182,   0.0000000000)
 A3 = (   0.0000000000,   0.0000000000,   9.7674727491)

Analysis of symmetry for initial positions (statically):
 Subroutine PRICEL returns following result:

  LATTYP: Found a body centered tetragonal cell.
 ALAT       =     3.8392780182
 C/A-ratio  =     2.5440910251

[...]

   2 primitive cells build up your supercell.

 Routine SETGRP: Setting up the symmetry group for a
 simple tetragonal supercell.

 Subroutine GETGRP returns: Found 16 space group operations
 (whereof  8 operations were pure point group operations)
 out of a pool of 16 trial point group operations.

The static configuration has the point symmetry D_2d.
 The point group associated with its full space group is D_4h.

Analysis of symmetry for dynamics (positions and initial velocities):
 Subroutine PRICEL returns following result:

  LATTYP: Found a body centered tetragonal cell.
 ALAT       =     3.8392780182
 C/A-ratio  =     2.5440910251

  Lattice vectors:

 A1 = (  -1.9196390091,   1.9196390091,   4.8837363746)
 A2 = (   1.9196390091,  -1.9196390091,   4.8837363746)
 A3 = (   1.9196390091,   1.9196390091,  -4.8837363746)

   2 primitive cells build up your supercell.

 Routine SETGRP: Setting up the symmetry group for a
 simple tetragonal supercell.

 Subroutine GETGRP returns: Found 16 space group operations
 (whereof  8 operations were pure point group operations)
 out of a pool of 16 trial point group operations.

The dynamic configuration has the point symmetry D_2d.
 The point group associated with its full space group is D_4h.

 Subroutine INISYM returns: Found 16 space group operations
 (whereof  8 operations are pure point group operations),
 and found     2 'primitive' translations

                                     Primitive cell

  volume of cell :      71.9865

  direct lattice vectors                    reciprocal lattice vectors
    -1.919639009  1.919639009  4.883736375     0.000000000  0.260465638  0.102380629
     1.919639009 -1.919639009  4.883736375     0.260465638 -0.000000000  0.102380629
     1.919639009  1.919639009 -4.883736375     0.260465638  0.260465638 -0.000000000

  length of vectors
     5.587567344  5.587567344  5.587567344     0.279864506  0.279864506  0.368354038

  position of ions in fractional coordinates (direct lattice)
     1.000000000  1.000000000  1.000000000
     0.750000000  0.250000000  0.500000000
     0.956988105  0.456988105  0.500000000
     0.206988105  0.206988105  1.000000000
     0.543011895  0.043011895  0.500000000
     0.793011895  0.793011895  1.000000000

  ion indices of the primitive-cell ions
   primitive index   ion index
                 1           1
                 2           2
                 3           5
                 4           6
                 5           7
                 6          12

 KPOINTS: pymatgen v2020.8.13 with grid density =

Automatic generation of k-mesh.
 Grid dimensions read from file:
 generate k-points for:    6    6    2

 Generating k-lattice:

  Cartesian coordinates                     Fractional coordinates (reciprocal lattice)
     0.043410940 -0.000000000  0.000000000     0.166666667 -0.000000000  0.000000000
     0.000000000  0.043410940  0.000000000     0.000000000  0.166666667  0.000000000
    -0.000000000 -0.000000000  0.051190314    -0.000000000 -0.000000000  0.500000000

  Length of vectors
     0.043410940  0.043410940  0.051190314

  Shift w.r.t. Gamma in fractional coordinates (k-lattice)
     0.000000000  0.000000000  0.000000000

 Subroutine IBZKPT returns following result:

 Found     20 irreducible k-points:

 Following reciprocal coordinates:
            Coordinates               Weight
  0.000000  0.000000  0.000000      1.000000
  0.166667 -0.000000  0.000000      4.000000
  0.333333 -0.000000  0.000000      4.000000
  0.500000 -0.000000  0.000000      2.000000
  0.166667  0.166667  0.000000      4.000000
  0.333333  0.166667  0.000000      8.000000
  0.500000  0.166667  0.000000      4.000000
  0.333333  0.333333  0.000000      4.000000
  0.500000  0.333333  0.000000      4.000000
  0.500000  0.500000  0.000000      1.000000
 -0.000000  0.000000  0.500000      1.000000
  0.166667 -0.000000  0.500000      4.000000
  0.333333 -0.000000  0.500000      4.000000
  0.500000 -0.000000  0.500000      2.000000
  0.166667  0.166667  0.500000      4.000000
  0.333333  0.166667  0.500000      8.000000
  0.500000  0.166667  0.500000      4.000000
  0.333333  0.333333  0.500000      4.000000
  0.500000  0.333333  0.500000      4.000000
  0.500000  0.500000  0.500000      1.000000

 Following cartesian coordinates:
            Coordinates               Weight
  0.000000  0.000000  0.000000      1.000000
  0.043411 -0.000000  0.000000      4.000000
  0.086822 -0.000000  0.000000      4.000000
  0.130233 -0.000000  0.000000      2.000000
  0.043411  0.043411  0.000000      4.000000
  0.086822  0.043411  0.000000      8.000000
  0.130233  0.043411  0.000000      4.000000
  0.086822  0.086822  0.000000      4.000000
  0.130233  0.086822  0.000000      4.000000
  0.130233  0.130233  0.000000      1.000000
 -0.000000 -0.000000  0.051190      1.000000
  0.043411 -0.000000  0.051190      4.000000
  0.086822 -0.000000  0.051190      4.000000
  0.130233 -0.000000  0.051190      2.000000
  0.043411  0.043411  0.051190      4.000000
  0.086822  0.043411  0.051190      8.000000
  0.130233  0.043411  0.051190      4.000000
  0.086822  0.086822  0.051190      4.000000
  0.130233  0.086822  0.051190      4.000000
  0.130233  0.130233  0.051190      1.000000

 SYSTEM =  MgO-rocksalt
 POSCAR =  Ti4 O8

  energy-cutoff  :      600.00
  volume of cell :      143.97
      direct lattice vectors                 reciprocal lattice vectors
     3.839278018  0.000000000  0.000000000     0.260465638 -0.000000000  0.000000000
     0.000000000  3.839278018  0.000000000     0.000000000  0.260465638  0.000000000
     0.000000000  0.000000000  9.767472749    -0.000000000 -0.000000000  0.102380629

[...]

 k-points in units of 2pi/SCALE and weight: pymatgen v2020.8.13 with grid density =
   0.00000000  0.00000000  0.00000000       0.014
   0.04341094 -0.00000000  0.00000000       0.056
   0.08682188 -0.00000000  0.00000000       0.056
   0.13023282 -0.00000000  0.00000000       0.028
   0.04341094  0.04341094  0.00000000       0.056
   0.08682188  0.04341094  0.00000000       0.111
   0.13023282  0.04341094  0.00000000       0.056
   0.08682188  0.08682188  0.00000000       0.056
   0.13023282  0.08682188  0.00000000       0.056
   0.13023282  0.13023282  0.00000000       0.014
  -0.00000000 -0.00000000  0.05119031       0.014
   0.04341094 -0.00000000  0.05119031       0.056
   0.08682188 -0.00000000  0.05119031       0.056
   0.13023282 -0.00000000  0.05119031       0.028
   0.04341094  0.04341094  0.05119031       0.056
   0.08682188  0.04341094  0.05119031       0.111
   0.13023282  0.04341094  0.05119031       0.056
   0.08682188  0.08682188  0.05119031       0.056
   0.13023282  0.08682188  0.05119031       0.056
   0.13023282  0.13023282  0.05119031       0.014

 k-points in reciprocal lattice and weights: pymatgen v2020.8.13 with grid density =
   0.00000000  0.00000000  0.00000000       0.014
   0.16666667 -0.00000000  0.00000000       0.056
   0.33333333 -0.00000000  0.00000000       0.056
   0.50000000 -0.00000000  0.00000000       0.028
   0.16666667  0.16666667  0.00000000       0.056
   0.33333333  0.16666667  0.00000000       0.111
   0.50000000  0.16666667  0.00000000       0.056
   0.33333333  0.33333333  0.00000000       0.056
   0.50000000  0.33333333  0.00000000       0.056
   0.50000000  0.50000000  0.00000000       0.014
  -0.00000000  0.00000000  0.50000000       0.014
   0.16666667 -0.00000000  0.50000000       0.056
   0.33333333 -0.00000000  0.50000000       0.056
   0.50000000 -0.00000000  0.50000000       0.028
   0.16666667  0.16666667  0.50000000       0.056
   0.33333333  0.16666667  0.50000000       0.111
   0.50000000  0.16666667  0.50000000       0.056
   0.33333333  0.33333333  0.50000000       0.056
   0.50000000  0.33333333  0.50000000       0.056
   0.50000000  0.50000000  0.50000000       0.014

 position of ions in fractional coordinates (direct lattice)
   0.50000000  0.50000000  0.50000000
   0.50000000  0.00000000  0.75000000
   0.00000000  0.00000000  0.00000000
   0.00000000  0.50000000  0.25000000
   0.00000000  0.50000000  0.45698811
   0.50000000  0.50000000  0.70698811
   0.50000000  0.00000000  0.54301189
   0.00000000  0.00000000  0.79301189
   0.50000000  0.00000000  0.95698811
   0.00000000  0.00000000  0.20698811
   0.00000000  0.50000000  0.04301189
   0.50000000  0.50000000  0.29301189

 position of ions in cartesian coordinates  (Angst):
   1.91963901  1.91963901  4.88373637
   1.91963901  0.00000000  7.32560456
   0.00000000  0.00000000  0.00000000
   0.00000000  1.91963901  2.44186819
   0.00000000  1.91963901  4.46361886
   1.91963901  1.91963901  6.90548705
   1.91963901  0.00000000  5.30385389
   0.00000000  0.00000000  7.74572207
   1.91963901  0.00000000  9.34735524
   0.00000000  0.00000000  2.02175068
   0.00000000  1.91963901  0.42011751
   1.91963901  1.91963901  2.86198570

--------------------------------------- Iteration      FINAL  ---------------------------------------

--------------------OUTCAR has been truncated-------------------------

[...]

--------------------OUTCAR has been truncated-------------------------

  FORCE on cell =-STRESS in cart. coord.  units (eV):
  Direction    XX          YY          ZZ          XY          YZ          ZX
  Alpha Z   379.86495   379.86495   379.86495
  Ewald   -1970.41880 -1970.41880 -1379.35115     0.00000    -0.00000    -0.00000
  Hartree   587.14541   587.14541   958.14170    -0.00000    -0.00000    -0.00000
  E(xc)    -439.58535  -439.58535  -439.35496     0.00000     0.00000    -0.00000
  Local      22.35304    22.35304  -933.55900    -0.00000     0.00000    -0.00000
  n-local  -272.47519  -268.50635  -272.63763     0.01622     0.00000    -0.00000
  augment   265.67746   265.67746   264.93713     0.00000    -0.00000     0.00000
  Kinetic  1419.37798  1431.44926  1421.90497    -1.10031    -0.00000     0.00000
  Fock        0.00000     0.00000     0.00000     0.00000     0.00000     0.00000
  Total      -0.04043    -0.04043    -0.05398    -0.00000    -0.00000    -0.00000
  in kB      -0.44996    -0.44996    -0.60071    -0.00000    -0.00000    -0.00000

 VOLUME and BASIS-vectors are now :
  energy-cutoff  :      600.00
  volume of cell :      143.97
      direct lattice vectors                 reciprocal lattice vectors
     3.839278018  0.000000000  0.000000000     0.260465638 -0.000000000  0.000000000
     0.000000000  3.839278018  0.000000000     0.000000000  0.260465638  0.000000000
     0.000000000  0.000000000  9.767472749    -0.000000000 -0.000000000  0.102380629

  length of vectors
     3.839278018  3.839278018  9.767472749     0.260465638  0.260465638  0.102380629

 FORCES acting on ions
    electron-ion (+dipol)            ewald-force                    non-local-force                 convergence-correction
   0.153E-12 0.136E-11 -.977E-12   0.653E-14 0.230E-13 0.568E-13   -.247E-25 0.447E-25 -.181E-16   -.162E-12 -.192E-13 0.370E-12
   0.152E-12 -.231E-15 0.873E-12   -.735E-14 -.333E-13 0.135E-12   -.227E-25 0.314E-25 -.382E-16   0.110E-12 -.973E-13 0.684E-13
   0.310E-13 0.642E-14 0.102E-12   0.879E-16 0.228E-13 0.000E+00   0.473E-25 0.644E-25 0.162E-16   -.159E-12 -.307E-13 -.322E-12
   -.102E-13 0.964E-13 0.103E-12   -.138E-13 -.329E-13 -.142E-13   -.566E-25 -.556E-25 0.398E-16   0.122E-12 -.984E-13 -.107E-12
   -.277E-13 0.193E-12 -.824E+02   -.410E-13 -.530E-14 0.888E+02   0.917E-25 -.212E-27 -.641E+01   0.126E-12 -.457E-13 0.196E-03
   0.140E-12 0.837E-12 -.824E+02   0.517E-15 -.223E-13 0.888E+02   0.160E-24 -.101E-24 -.641E+01   0.499E-13 0.563E-13 0.196E-03
   0.147E-12 0.420E-13 0.824E+02   -.335E-14 0.274E-13 -.888E+02   -.203E-24 -.125E-24 0.641E+01   -.907E-13 0.230E-13 -.196E-03
   -.146E-13 0.497E-14 0.824E+02   0.544E-13 0.753E-14 -.888E+02   0.436E-25 -.844E-25 0.641E+01   -.989E-13 -.585E-13 -.196E-03
   0.465E-13 -.142E-13 -.824E+02   -.380E-13 -.489E-14 0.888E+02   0.183E-24 -.573E-25 -.641E+01   0.127E-12 -.444E-13 0.196E-03
   0.802E-14 0.672E-13 -.824E+02   0.547E-15 -.225E-13 0.888E+02   0.371E-24 0.644E-25 -.641E+01   0.428E-13 0.513E-13 0.196E-03
   0.131E-13 0.105E-12 0.824E+02   -.353E-14 0.280E-13 -.888E+02   -.337E-24 0.939E-25 0.641E+01   -.908E-13 0.241E-13 -.196E-03
   0.638E-13 -.166E-11 0.824E+02   0.575E-13 0.836E-14 -.888E+02   -.259E-24 0.121E-24 0.641E+01   -.102E-12 -.630E-13 -.196E-03
   0.702E-12 0.104E-11 0.131E-11   0.125E-13 -.415E-14 0.171E-12   -.558E-26 -.289E-26 -.888E-15   -.126E-12 -.303E-12 -.742E-13

 POSITION                                       TOTAL-FORCE (eV/Angst)
      1.91964      1.91964      4.88374        -0.000000     -0.000000     -0.000000
      1.91964      0.00000      7.32560        -0.000000      0.000000     -0.000000
      0.00000      0.00000      0.00000         0.000000     -0.000000     -0.000000
      0.00000      1.91964      2.44187        -0.000000      0.000000     -0.000000
      0.00000      1.91964      4.46362         0.000000     -0.000000     -0.000780
      1.91964      1.91964      6.90549         0.000000      0.000000     -0.000780
      1.91964      0.00000      5.30385         0.000000     -0.000000      0.000780
      0.00000      0.00000      7.74572        -0.000000      0.000000      0.000780
      1.91964      0.00000      9.34736        -0.000000      0.000000     -0.000780
      0.00000      0.00000      2.02175         0.000000      0.000000     -0.000780
      0.00000      1.91964      0.42012        -0.000000     -0.000000      0.000780
      1.91964      1.91964      2.86199         0.000000     -0.000000      0.000780
    total drift:                                0.000000      0.000000      0.000000

  FREE ENERGIE OF THE ION-ELECTRON SYSTEM (eV)
  free  energy   TOTEN  =       -79.58504001 eV

  energy  without entropy=      -79.58504001  energy(sigma->0) =      -79.58504001

 reached required accuracy - stopping structural energy minimisation