 vasp.6.3.0 20Jan22 (build Apr  1 2022 16:44:48) complex
 executed on        HPECrayEX_GCC date 2023.04.05  16:12:19

 INCAR:
   SYSTEM = MgO-rocksalt
   ISMEAR = 0
   SIGMA = 0.05
   EDIFF = 1E-7
   ALGO = ALL
   ISTART = 0
   IBRION = 2
   NSW = 1000
   ISYM = 2
   ISIF = 3
   EDIFFG = -0.005
   GGA = RE
   AGGAC = 0.0
   LUSE_VDW = .TRUE.
   LASPH = .TRUE.
   ENCUT = 600
   PREC = Accurate
   LASPH = .TRUE.
   LREAL = .FALSE.
   ISPIN = 1
   NELM = 200
   NELMIN = 8
   NCORE = 8
   KPAR = 1
   LWAVE = .FALSE.
   LCHARG = .FALSE.

 POTCAR:    PAW_PBE Ti_pv 07Sep2000
 POTCAR:    PAW_PBE O 08Apr2002
|               ----> ADVICE to this user running VASP <----                  |
|     You have switched on vdW-DFT.                                           |
|     This routine was written and supplied by Jiri Klimes. We recommend      |
|     that you carefully read and cite the following publications:            |
|       J. Klimes, D.R. Bowler, A. Michelides                                 |
|          J. Phys.: Cond Matt. 22 022201 (2010)                              |
|       J. Klimes, D.R. Bowler, A. Michelides                                 |
|          Phys. Rev. B. 83, 195131 (2011)                                    |
|     and references therein.                                                 |

   TITEL  = PAW_PBE Ti_pv 07Sep2000
   POMASS =   47.880; ZVAL   =   10.000    mass and valenz
   ENMAX  =  222.335; ENMIN  =  166.751 eV

   TITEL  = PAW_PBE O 08Apr2002
   POMASS =   16.000; ZVAL   =    6.000    mass and valenz
   ENMAX  =  400.000; ENMIN  =  300.000 eV

  PAW_PBE Ti_pv 07Sep2000               :
  PAW_PBE O 08Apr2002                   :

 POSCAR: Ti4 O8
  positions in direct lattice
  velocities in cartesian coordinates
 exchange correlation table for  LEXCH =       40
   RHO(1)=    0.500       N(1)  =     2000
   RHO(2)=  100.500       N(2)  =     4000

 ion  position               nearest neighbor table
   1  0.500  0.500  0.500-   5 1.97   7 1.97   7 1.97   5 1.97   6 2.02  12 2.02   2 3.11   2 3.11
                             4 3.11   4 3.11
   2  0.500  0.000  0.750-   6 1.97   8 1.97   6 1.97   8 1.97   7 2.02   9 2.02   1 3.11   1 3.11
                             3 3.11   3 3.11
   3  0.000  0.000  0.000-   9 1.97  11 1.97  11 1.97   9 1.97  10 2.02   8 2.02   4 3.11   2 3.11
                             2 3.11   4 3.11
   4  0.000  0.500  0.250-  10 1.97  12 1.97  10 1.97  12 1.97  11 2.02   5 2.02   3 3.11   1 3.11
                             1 3.11   3 3.11
   5  0.000  0.500  0.457-   1 1.97   1 1.97   4 2.02
   6  0.500  0.500  0.707-   2 1.97   2 1.97   1 2.02
   7  0.500  0.000  0.543-   1 1.97   1 1.97   2 2.02
   8  0.000  0.000  0.793-   2 1.97   2 1.97   3 2.02
   9  0.500  0.000  0.957-   3 1.97   3 1.97   2 2.02
  10  0.000  0.000  0.207-   4 1.97   4 1.97   3 2.02
  11  0.000  0.500  0.043-   3 1.97   3 1.97   4 2.02
  12  0.500  0.500  0.293-   4 1.97   4 1.97   1 2.02

  LATTYP: Found a simple tetragonal cell.
 ALAT       =     3.8392922383
 C/A-ratio  =     2.5440820161

  Lattice vectors:

 A1 = (   3.8392922383,   0.0000000000,   0.0000000000)
 A2 = (   0.0000000000,   3.8392922383,   0.0000000000)
 A3 = (   0.0000000000,   0.0000000000,   9.7674743381)

Analysis of symmetry for initial positions (statically):
 Subroutine PRICEL returns following result:

  LATTYP: Found a body centered tetragonal cell.
 ALAT       =     3.8392922383
 C/A-ratio  =     2.5440820161

[...]

   2 primitive cells build up your supercell.

 Routine SETGRP: Setting up the symmetry group for a
 simple tetragonal supercell.

 Subroutine GETGRP returns: Found 16 space group operations
 (whereof  8 operations were pure point group operations)
 out of a pool of 16 trial point group operations.

The static configuration has the point symmetry D_2d.
 The point group associated with its full space group is D_4h.

Analysis of symmetry for dynamics (positions and initial velocities):
 Subroutine PRICEL returns following result:

  LATTYP: Found a body centered tetragonal cell.
 ALAT       =     3.8392922383
 C/A-ratio  =     2.5440820161

  Lattice vectors:

 A1 = (  -1.9196461192,   1.9196461192,   4.8837371690)
 A2 = (   1.9196461192,  -1.9196461192,   4.8837371690)
 A3 = (   1.9196461192,   1.9196461192,  -4.8837371690)

   2 primitive cells build up your supercell.

 Routine SETGRP: Setting up the symmetry group for a
 simple tetragonal supercell.

 Subroutine GETGRP returns: Found 16 space group operations
 (whereof  8 operations were pure point group operations)
 out of a pool of 16 trial point group operations.

The dynamic configuration has the point symmetry D_2d.
 The point group associated with its full space group is D_4h.

 Subroutine INISYM returns: Found 16 space group operations
 (whereof  8 operations are pure point group operations),
 and found     2 'primitive' translations

                                     Primitive cell

  volume of cell :      71.9871

  direct lattice vectors                    reciprocal lattice vectors
    -1.919646119  1.919646119  4.883737169    -0.000000000  0.260464674  0.102380612
     1.919646119 -1.919646119  4.883737169     0.260464674 -0.000000000  0.102380612
     1.919646119  1.919646119 -4.883737169     0.260464674  0.260464674  0.000000000

  length of vectors
     5.587572924  5.587572924  5.587572924     0.279863602  0.279863602  0.368352674

  position of ions in fractional coordinates (direct lattice)
     1.000000000  0.000000000  0.000000000
     0.750000000  0.250000000  0.500000000
     0.956991011  0.456991011  0.500000000
     0.206991011  0.206991011  0.000000000
     0.543008989  0.043008989  0.500000000
     0.793008989  0.793008989  0.000000000

  ion indices of the primitive-cell ions
   primitive index   ion index
                 1           1
                 2           2
                 3           5
                 4           6
                 5           7
                 6          12

 KPOINTS: pymatgen v2020.8.13 with grid density =

Automatic generation of k-mesh.
 Grid dimensions read from file:
 generate k-points for:    6    6    2

 Generating k-lattice:

  Cartesian coordinates                     Fractional coordinates (reciprocal lattice)
     0.043410779 -0.000000000  0.000000000     0.166666667 -0.000000000  0.000000000
     0.000000000  0.043410779  0.000000000     0.000000000  0.166666667  0.000000000
    -0.000000000 -0.000000000  0.051190306     0.000000000 -0.000000000  0.500000000

  Length of vectors
     0.043410779  0.043410779  0.051190306

  Shift w.r.t. Gamma in fractional coordinates (k-lattice)
     0.000000000  0.000000000  0.000000000

 Subroutine IBZKPT returns following result:

 Found     20 irreducible k-points:

 Following reciprocal coordinates:
            Coordinates               Weight
  0.000000  0.000000  0.000000      1.000000
  0.166667  0.000000  0.000000      4.000000
  0.333333  0.000000  0.000000      4.000000
  0.500000  0.000000  0.000000      2.000000
  0.166667  0.166667  0.000000      4.000000
  0.333333  0.166667  0.000000      8.000000
  0.500000  0.166667  0.000000      4.000000
  0.333333  0.333333  0.000000      4.000000
  0.500000  0.333333  0.000000      4.000000
  0.500000  0.500000  0.000000      1.000000
  0.000000  0.000000  0.500000      1.000000
  0.166667  0.000000  0.500000      4.000000
  0.333333  0.000000  0.500000      4.000000
  0.500000  0.000000  0.500000      2.000000
  0.166667  0.166667  0.500000      4.000000
  0.333333  0.166667  0.500000      8.000000
  0.500000  0.166667  0.500000      4.000000
  0.333333  0.333333  0.500000      4.000000
  0.500000  0.333333  0.500000      4.000000
  0.500000  0.500000  0.500000      1.000000

 Following cartesian coordinates:
            Coordinates               Weight
  0.000000  0.000000  0.000000      1.000000
  0.043411  0.000000  0.000000      4.000000
  0.086822  0.000000  0.000000      4.000000
  0.130232  0.000000  0.000000      2.000000
  0.043411  0.043411  0.000000      4.000000
  0.086822  0.043411  0.000000      8.000000
  0.130232  0.043411  0.000000      4.000000
  0.086822  0.086822  0.000000      4.000000
  0.130232  0.086822  0.000000      4.000000
  0.130232  0.130232  0.000000      1.000000
  0.000000  0.000000  0.051190      1.000000
  0.043411  0.000000  0.051190      4.000000
  0.086822  0.000000  0.051190      4.000000
  0.130232  0.000000  0.051190      2.000000
  0.043411  0.043411  0.051190      4.000000
  0.086822  0.043411  0.051190      8.000000
  0.130232  0.043411  0.051190      4.000000
  0.086822  0.086822  0.051190      4.000000
  0.130232  0.086822  0.051190      4.000000
  0.130232  0.130232  0.051190      1.000000

 SYSTEM =  MgO-rocksalt
 POSCAR =  Ti4 O8

  energy-cutoff  :      600.00
  volume of cell :      143.97
      direct lattice vectors                 reciprocal lattice vectors
     3.839292238  0.000000000  0.000000000     0.260464674 -0.000000000  0.000000000
     0.000000000  3.839292238  0.000000000     0.000000000  0.260464674  0.000000000
     0.000000000  0.000000000  9.767474338    -0.000000000 -0.000000000  0.102380612

[...]

 k-points in units of 2pi/SCALE and weight: pymatgen v2020.8.13 with grid density =
   0.00000000  0.00000000  0.00000000       0.014
   0.04341078  0.00000000  0.00000000       0.056
   0.08682156  0.00000000  0.00000000       0.056
   0.13023234  0.00000000  0.00000000       0.028
   0.04341078  0.04341078  0.00000000       0.056
   0.08682156  0.04341078  0.00000000       0.111
   0.13023234  0.04341078  0.00000000       0.056
   0.08682156  0.08682156  0.00000000       0.056
   0.13023234  0.08682156  0.00000000       0.056
   0.13023234  0.13023234  0.00000000       0.014
   0.00000000  0.00000000  0.05119031       0.014
   0.04341078  0.00000000  0.05119031       0.056
   0.08682156  0.00000000  0.05119031       0.056
   0.13023234  0.00000000  0.05119031       0.028
   0.04341078  0.04341078  0.05119031       0.056
   0.08682156  0.04341078  0.05119031       0.111
   0.13023234  0.04341078  0.05119031       0.056
   0.08682156  0.08682156  0.05119031       0.056
   0.13023234  0.08682156  0.05119031       0.056
   0.13023234  0.13023234  0.05119031       0.014

 k-points in reciprocal lattice and weights: pymatgen v2020.8.13 with grid density =
   0.00000000  0.00000000  0.00000000       0.014
   0.16666667  0.00000000  0.00000000       0.056
   0.33333333  0.00000000  0.00000000       0.056
   0.50000000  0.00000000  0.00000000       0.028
   0.16666667  0.16666667  0.00000000       0.056
   0.33333333  0.16666667  0.00000000       0.111
   0.50000000  0.16666667  0.00000000       0.056
   0.33333333  0.33333333  0.00000000       0.056
   0.50000000  0.33333333  0.00000000       0.056
   0.50000000  0.50000000  0.00000000       0.014
   0.00000000  0.00000000  0.50000000       0.014
   0.16666667  0.00000000  0.50000000       0.056
   0.33333333  0.00000000  0.50000000       0.056
   0.50000000  0.00000000  0.50000000       0.028
   0.16666667  0.16666667  0.50000000       0.056
   0.33333333  0.16666667  0.50000000       0.111
   0.50000000  0.16666667  0.50000000       0.056
   0.33333333  0.33333333  0.50000000       0.056
   0.50000000  0.33333333  0.50000000       0.056
   0.50000000  0.50000000  0.50000000       0.014

 position of ions in fractional coordinates (direct lattice)
   0.50000000  0.50000000  0.50000000
   0.50000000  0.00000000  0.75000000
   0.00000000  0.00000000  0.00000000
   0.00000000  0.50000000  0.25000000
   0.00000000  0.50000000  0.45699101
   0.50000000  0.50000000  0.70699101
   0.50000000  0.00000000  0.54300899
   0.00000000  0.00000000  0.79300899
   0.50000000  0.00000000  0.95699101
   0.00000000  0.00000000  0.20699101
   0.00000000  0.50000000  0.04300899
   0.50000000  0.50000000  0.29300899

 position of ions in cartesian coordinates  (Angst):
   1.91964612  1.91964612  4.88373717
   1.91964612  0.00000000  7.32560575
   0.00000000  0.00000000  0.00000000
   0.00000000  1.91964612  2.44186858
   0.00000000  1.91964612  4.46364797
   1.91964612  1.91964612  6.90551655
   1.91964612  0.00000000  5.30382637
   0.00000000  0.00000000  7.74569495
   1.91964612  0.00000000  9.34738514
   0.00000000  0.00000000  2.02177938
   0.00000000  1.91964612  0.42008920
   1.91964612  1.91964612  2.86195778

--------------------------------------- Iteration      FINAL  ---------------------------------------

--------------------OUTCAR has been truncated-------------------------

[...]

--------------------OUTCAR has been truncated-------------------------

  FORCE on cell =-STRESS in cart. coord.  units (eV):
  Direction    XX          YY          ZZ          XY          YZ          ZX
  Alpha Z   379.86208   379.86208   379.86208
  Ewald   -1970.38207 -1970.38207 -1379.42994     0.00000     0.00000     0.00000
  Hartree   587.16086   587.16086   958.09796    -0.00000    -0.00000    -0.00000
  E(xc)    -439.58506  -439.58506  -439.35502     0.00000     0.00000     0.00000
  Local      22.30316    22.30316  -933.43384    -0.00000     0.00000    -0.00000
  n-local  -272.47631  -268.50624  -272.63918     0.01620     0.00000    -0.00000
  augment   265.67735   265.67735   264.93636     0.00000    -0.00000     0.00000
  Kinetic  1419.37674  1431.44903  1421.90323    -1.10033     0.00000    -0.00000
  Fock        0.00000     0.00000     0.00000     0.00000     0.00000     0.00000
  Total      -0.04208    -0.04208    -0.05835    -0.00000    -0.00000    -0.00000
  in kB      -0.46826    -0.46826    -0.64934    -0.00000    -0.00000    -0.00000

 VOLUME and BASIS-vectors are now :
  energy-cutoff  :      600.00
  volume of cell :      143.97
      direct lattice vectors                 reciprocal lattice vectors
     3.839292238  0.000000000  0.000000000     0.260464674 -0.000000000  0.000000000
     0.000000000  3.839292238  0.000000000     0.000000000  0.260464674  0.000000000
     0.000000000  0.000000000  9.767474338    -0.000000000 -0.000000000  0.102380612

  length of vectors
     3.839292238  3.839292238  9.767474338     0.260464674  0.260464674  0.102380612

 FORCES acting on ions:
    Electron-Ion                     Ewald-Force                    Non-Local-Force
   0.126E-12 0.131E-11 -.120E-11   0.206E-13 -.621E-14 0.000E+00   0.414E-24 -.124E-23 0.606E-16
   0.142E-12 -.288E-14 0.140E-11   -.211E-13 0.111E-13 0.533E-13   0.000E+00 0.165E-23 -.250E-16
   -.210E-14 -.259E-13 -.379E-12   0.211E-13 -.710E-14 0.284E-13   0.207E-24 -.124E-23 -.590E-16
   -.120E-13 0.107E-12 0.245E-12   -.206E-13 0.109E-13 0.142E-13   0.000E+00 0.827E-24 0.212E-16
   0.162E-13 0.173E-12 -.823E+02   0.110E-14 0.177E-13 0.888E+02   0.310E-24 0.620E-24 -.641E+01
   0.128E-12 0.620E-12 -.823E+02   0.160E-13 0.696E-14 0.888E+02   0.000E+00 0.414E-24 -.641E+01
   0.124E-12 -.313E-13 0.823E+02   -.183E-13 -.170E-13 -.888E+02   0.000E+00 -.827E-24 0.641E+01
   -.358E-14 0.200E-13 0.823E+02   0.330E-14 -.219E-13 -.888E+02   -.414E-24 -.827E-24 0.641E+01
   0.855E-13 -.272E-13 -.823E+02   0.191E-14 0.184E-13 0.888E+02   0.827E-24 0.000E+00 -.641E+01
   0.461E-14 0.139E-13 -.823E+02   0.158E-13 0.734E-14 0.888E+02   0.414E-24 0.827E-24 -.641E+01
   -.448E-14 0.708E-13 0.823E+02   -.188E-13 -.160E-13 -.888E+02   -.414E-24 -.827E-24 0.641E+01
   0.103E-12 -.608E-12 0.823E+02   0.393E-14 -.208E-13 -.888E+02   -.124E-23 0.000E+00 0.641E+01
   0.710E-12 0.164E-11 0.557E-11   0.494E-14 -.165E-13 0.000E+00   0.103E-24 -.620E-24 0.000E+00

 POSITION                                       TOTAL-FORCE (eV/Angst)
      1.91965      1.91965      4.88374        -0.000000     -0.000000      0.000000
      1.91965      0.00000      7.32561         0.000000      0.000000     -0.000000
      0.00000      0.00000      0.00000        -0.000000     -0.000000     -0.000000
      0.00000      1.91965      2.44187         0.000000      0.000000      0.000000
      0.00000      1.91965      4.46365         0.000000      0.000000     -0.001133
      1.91965      1.91965      6.90552        -0.000000     -0.000000     -0.001133
      1.91965      0.00000      5.30383         0.000000      0.000000      0.001133
      0.00000      0.00000      7.74569        -0.000000      0.000000      0.001133
      1.91965      0.00000      9.34739        -0.000000     -0.000000     -0.001133
      0.00000      0.00000      2.02178        -0.000000      0.000000     -0.001133
      0.00000      1.91965      0.42009         0.000000     -0.000000      0.001133
      1.91965      1.91965      2.86196        -0.000000     -0.000000      0.001133
    total drift:                                0.000000      0.000000      0.000000

  FREE ENERGIE OF THE ION-ELECTRON SYSTEM (eV)
  free  energy   TOTEN  =       -79.58503936 eV

  energy  without entropy=      -79.58503936  energy(sigma->0) =      -79.58503936

 reached required accuracy - stopping structural energy minimisation