 vasp.6.3.0 20Jan22 (build Apr  1 2022 16:44:48) complex
 executed on        HPECrayEX_GCC date 2023.02.14  20:52:23

 INCAR:
   SYSTEM = MgO-rocksalt
   ISMEAR = 0
   SIGMA = 0.05
   EDIFF = 1E-7
   ALGO = ALL
   ISTART = 0
   IBRION = 2
   NSW = 1000
   ISYM = 0
   ISIF = 2
   EDIFFG = -0.01
   DIPOL = 0.5 0.5 0.5
   IDIPOL = 3
   LDIPOL = .TRUE.
   GGA = MK
   LUSE_VDW = .TRUE.
   PARAM1 = 0.1234
   PARAM2 = 0.711357
   ZAB_VDW = -1.8867
   AGGAC = 0.0
   ENCUT = 520
   PREC = Accurate
   LASPH = .TRUE.
   LREAL = Auto
   ISPIN = 1
   NELM = 200
   NELMIN = 8
   NCORE = 8
   KPAR = 1
   LWAVE = .FALSE.
   LCHARG = .FALSE.

 POTCAR:    PAW_PBE C 08Apr2002
 POTCAR:    PAW_PBE O 08Apr2002
 POTCAR:    PAW_PBE H 15Jun2001
 POTCAR:    PAW_PBE Mg 13Apr2007
 POTCAR:    PAW_PBE O 08Apr2002
|               ----> ADVICE to this user running VASP <----                  |
|     You have switched on vdW-DFT.                                           |
|     This routine was written and supplied by Jiri Klimes. We recommend      |
|     that you carefully read and cite the following publications:            |
|       J. Klimes, D.R. Bowler, A. Michelides                                 |
|          J. Phys.: Cond Matt. 22 022201 (2010)                              |
|       J. Klimes, D.R. Bowler, A. Michelides                                 |
|          Phys. Rev. B. 83, 195131 (2011)                                    |
|     and references therein.                                                 |

   TITEL  = PAW_PBE C 08Apr2002
   POMASS =   12.011; ZVAL   =    4.000    mass and valenz
   ENMAX  =  400.000; ENMIN  =  300.000 eV

[...]

   TITEL  = PAW_PBE H 15Jun2001
   POMASS =    1.000; ZVAL   =    1.000    mass and valenz
   ENMAX  =  250.000; ENMIN  =  200.000 eV

[...]

   TITEL  = PAW_PBE O 08Apr2002
   POMASS =   16.000; ZVAL   =    6.000    mass and valenz
   ENMAX  =  400.000; ENMIN  =  300.000 eV

 Optimization of the real space projectors (new method)

 maximal supplied QI-value         = 25.13
 optimisation between [QCUT,QGAM] = [ 11.56, 23.12] = [ 37.43,149.72] Ry
 Optimized for a Real-space Cutoff    1.04 Angstroem

   l    n(q)    QCUT    max X(q) W(low)/X(q) W(high)/X(q)  e(spline)
   0      7    11.561   115.676    0.20E-03    0.60E-03    0.21E-06
   0      7    11.561    87.132    0.20E-03    0.59E-03    0.21E-06
   1      7    11.561     4.429    0.23E-03    0.35E-03    0.15E-06
   1      7    11.561     2.733    0.18E-03    0.25E-03    0.12E-06
 Optimization of the real space projectors (new method)

[...]

   l    n(q)    QCUT    max X(q) W(low)/X(q) W(high)/X(q)  e(spline)
   0      9    11.527    28.265    0.62E-04    0.53E-04    0.73E-07
   0      9    11.527    10.429    0.52E-04    0.40E-04    0.58E-07
   1      8    11.527    13.073    0.98E-04    0.18E-03    0.86E-07
   1      8    11.527     9.625    0.79E-04    0.15E-03    0.74E-07
   2      8    11.527     4.652    0.22E-03    0.72E-04    0.47E-07
 Optimization of the real space projectors (new method)

 maximal supplied QI-value         = 24.76
 optimisation between [QCUT,QGAM] = [ 11.64, 23.27] = [ 37.91,151.63] Ry
 Optimized for a Real-space Cutoff    1.14 Angstroem

   l    n(q)    QCUT    max X(q) W(low)/X(q) W(high)/X(q)  e(spline)
   0      8    11.635    20.381    0.10E-03    0.33E-03    0.24E-06
   0      8    11.635    15.268    0.11E-03    0.35E-03    0.26E-06
   1      7    11.635     5.964    0.24E-03    0.31E-03    0.30E-06
   1      7    11.635     5.382    0.22E-03    0.25E-03    0.26E-06
|               ----> ADVICE to this user running VASP <----                  |
|     You enforced a specific xc type in the INCAR file but a different       |
|     type was found in the POTCAR file.                                      |
|     I HOPE YOU KNOW WHAT YOU ARE DOING!                                     |

  PAW_PBE C 08Apr2002                   :
  PAW_PBE O 08Apr2002                   :
  PAW_PBE H 15Jun2001                   :
  PAW_PBE Mg 13Apr2007                  :
  PAW_PBE O 08Apr2002                   :

 POSCAR:  C  O  H Mg  O
  positions in direct lattice
 exchange correlation table for  LEXCH =       43
   RHO(1)=    0.500       N(1)  =     2000
   RHO(2)=  100.500       N(2)  =     4000

 ion  position               nearest neighbor table
   1  0.528  0.556  0.792-  12 1.10  11 1.10   9 1.10   5 1.44
   2  0.319  0.401  0.793-  16 1.10  15 1.10  13 1.10   6 1.44
   3  0.474  0.194  0.793-  20 1.10  19 1.10  17 1.10   7 1.44
   4  0.681  0.346  0.791-  24 1.10  23 1.10  21 1.10   8 1.44
   5  0.508  0.488  0.754-  10 1.00   1 1.44 144 2.27
   6  0.387  0.382  0.754-  14 1.00   2 1.44  55 2.27
   7  0.492  0.262  0.754-  18 1.00   3 1.44 120 2.26
   8  0.613  0.366  0.754-  22 1.00   4 1.44 103 2.26
   9  0.520  0.543  0.842-   1 1.10
  10  0.552  0.448  0.757-   5 1.00
  11  0.590  0.573  0.783-   1 1.10
  12  0.489  0.604  0.777-   1 1.10
  13  0.333  0.392  0.843-   2 1.10
  14  0.426  0.427  0.757-   6 1.00
  15  0.301  0.463  0.785-   2 1.10
  16  0.271  0.362  0.778-   2 1.10
  17  0.484  0.208  0.843-   3 1.10
  18  0.448  0.300  0.757-   7 1.00
  19  0.412  0.175  0.785-   3 1.10
  20  0.513  0.146  0.778-   3 1.10
  21  0.669  0.355  0.842-   4 1.10
  22  0.574  0.322  0.757-   8 1.00
  23  0.699  0.284  0.783-   4 1.10
  24  0.730  0.385  0.777-   4 1.10
  25  0.125  0.000  0.352- 153 2.11 155 2.11 156 2.11 172 2.11 195 2.11  28 2.98  44 2.98  67 2.98
                            27 2.98  66 2.98  42 2.98  82 2.98  26 2.98
  26  0.250  0.125  0.352- 154 2.11 155 2.11 156 2.11 164 2.11 171 2.11  28 2.98  36 2.98  43 2.98
                            27 2.98  41 2.98  33 2.98  49 2.98  25 2.98
  27  0.125  0.125  0.451- 155 2.11 154 2.11 153 2.11 161 2.11 170 2.11 159 2.12  33 2.98  42 2.98
                            25 2.98  26 2.98  44 2.98  52 2.98  36 2.98  28 2.98  46 2.99  37 2.99
  28  0.250  0.000  0.451- 156 2.11 154 2.11 153 2.11 169 2.11 194 2.11 160 2.12  41 2.98  66 2.98
                            25 2.98  26 2.98  67 2.98  83 2.98  43 2.98  27 2.98  70 2.99  45 2.99
  29  0.125  0.000  0.550- 159 2.11 160 2.11 176 2.11 199 2.11 153 2.12 157 2.14  48 2.98  71 2.98
                            31 2.98  32 2.98  46 2.98  86 2.98  30 2.98  70 2.98  28 2.99  27 2.99
  30  0.250  0.125  0.550- 159 2.11 160 2.11 168 2.11 175 2.11 154 2.12 158 2.14  40 2.98  47 2.98
                            31 2.98  32 2.98  37 2.98  53 2.98  29 2.98  45 2.98  28 2.99  27 2.99
  31  0.125  0.125  0.648- 159 2.10 158 2.11 157 2.11 165 2.11 174 2.11  30 2.98  37 2.98  46 2.98
                            29 2.98  32 2.98  48 2.98  56 2.98  40 2.98
  32  0.250  0.000  0.648- 160 2.10 158 2.11 157 2.11 173 2.11 198 2.11  30 2.98  45 2.98  70 2.98
                            29 2.98  31 2.98  71 2.98  87 2.98  47 2.98
  33  0.125  0.250  0.352- 161 2.11 155 2.11 163 2.11 164 2.11 180 2.11  35 2.98  36 2.98  52 2.98
                            27 2.98  42 2.98  50 2.98  26 2.98  34 2.98
  34  0.250  0.375  0.352- 162 2.11 163 2.11 164 2.11 179 2.11 188 2.11  36 2.98  51 2.98  60 2.98
                            35 2.98  57 2.98  49 2.98  73 2.98  33 2.98
  35  0.125  0.375  0.451- 163 2.11 162 2.11 161 2.11 178 2.11 185 2.11 167 2.12  50 2.98  57 2.98
                            33 2.98  34 2.98  60 2.98  76 2.98  52 2.98  36 2.98  61 2.99  54 2.99
  36  0.250  0.250  0.451- 164 2.11 161 2.11 162 2.11 154 2.11 177 2.11 168 2.12  34 2.98  49 2.98
                            26 2.98  33 2.98  27 2.98  51 2.98  35 2.98  43 2.98  38 2.99  53 2.99
  37  0.125  0.250  0.550- 159 2.11 167 2.11 168 2.11 184 2.11 161 2.12 165 2.14  40 2.98  56 2.98
                            31 2.98  39 2.98  54 2.98  30 2.98  38 2.98  46 2.98  35 2.99  36 2.99
  38  0.250  0.375  0.550- 167 2.11 168 2.11 183 2.11 192 2.11 162 2.12 166 2.14  55 2.98  64 2.98
                            39 2.98  40 2.98  53 2.98  77 2.98  37 2.98  61 2.98  36 2.99  35 2.99
  39  0.125  0.375  0.648- 167 2.10 166 2.11 165 2.11 182 2.11 189 2.11  38 2.98  54 2.98  61 2.98
                            37 2.98  40 2.98  64 2.98  80 2.98  56 2.98
  40  0.250  0.250  0.648- 168 2.10 165 2.11 166 2.11 158 2.11 181 2.11  37 2.98  38 2.98  53 2.98
                            30 2.98  47 2.98  31 2.98  55 2.98  39 2.98
  41  0.375  0.000  0.352- 169 2.11 156 2.11 171 2.11 211 2.11 236 2.11  43 2.98  83 2.98 108 2.98
                            28 2.98 106 2.98  66 2.98 146 2.98  26 2.98
  42  0.000  0.125  0.352- 170 2.11 155 2.11 172 2.11 180 2.11 235 2.11  44 2.98  52 2.98 107 2.98
                            27 2.98 105 2.98  25 2.98 113 2.98  33 2.98
  43  0.375  0.125  0.451- 171 2.11 169 2.11 154 2.11 177 2.11 234 2.11 175 2.12  49 2.98 106 2.98
                            26 2.98  41 2.98 108 2.98 116 2.98  36 2.98  28 2.98 110 2.99  53 2.99
  44  0.000  0.000  0.451- 172 2.11 170 2.11 153 2.11 210 2.11 233 2.11 176 2.12  82 2.98 105 2.98
                            25 2.98  42 2.98 107 2.98 147 2.98  27 2.98  67 2.98 109 2.99  86 2.99
  45  0.375  0.000  0.550- 160 2.11 175 2.11 215 2.11 240 2.11 169 2.12 173 2.14  87 2.98 112 2.98
                            32 2.98  47 2.98  70 2.98 150 2.98  30 2.98 110 2.98  83 2.99  28 2.99
  46  0.000  0.125  0.550- 159 2.11 176 2.11 184 2.11 239 2.11 170 2.12 174 2.14  56 2.98 111 2.98
                            31 2.98  48 2.98  29 2.98 117 2.98  37 2.98 109 2.98  52 2.99  44 2.99
  47  0.375  0.125  0.648- 175 2.10 173 2.11 158 2.11 181 2.11 238 2.11  45 2.98  53 2.98 110 2.98
                            30 2.98  32 2.98 112 2.98 120 2.98  40 2.98
  48  0.000  0.000  0.648- 176 2.10 174 2.11 157 2.11 214 2.11 237 2.11  46 2.98  86 2.98 109 2.98
                            29 2.98  71 2.98 111 2.98 151 2.98  31 2.98
  49  0.375  0.250  0.352- 177 2.11 171 2.11 164 2.11 179 2.11 244 2.11  43 2.98  51 2.98 116 2.98
                            36 2.98 106 2.98 114 2.98  34 2.98  26 2.98
  50  0.000  0.375  0.352- 178 2.11 163 2.11 180 2.11 204 2.11 243 2.11  52 2.98  76 2.98 115 2.98
                            35 2.98 113 2.98  57 2.98 137 2.98  33 2.98
  51  0.375  0.375  0.451- 179 2.11 177 2.11 162 2.11 201 2.11 242 2.11 183 2.12  73 2.98 114 2.98
                            34 2.98  49 2.98 116 2.98 140 2.98  36 2.98  60 2.98 118 2.99  77 2.99
  52  0.000  0.250  0.451- 180 2.11 170 2.11 178 2.11 161 2.11 241 2.11 184 2.12  50 2.98 113 2.98
                            33 2.98  42 2.98  27 2.98 115 2.98  35 2.98 107 2.98  54 2.99 117 2.99
  53  0.375  0.250  0.550- 168 2.11 175 2.11 183 2.11 248 2.11 177 2.12 181 2.14  55 2.98 120 2.98
                            40 2.98  47 2.98 118 2.98  38 2.98  30 2.98 110 2.98  51 2.99  43 2.99
  54  0.000  0.375  0.550- 167 2.11 184 2.11 208 2.11 247 2.11 178 2.12 182 2.14  80 2.98 119 2.98
                            39 2.98  56 2.98  61 2.98 141 2.98  37 2.98 117 2.98  76 2.99  35 2.99
  55  0.375  0.375  0.648- 183 2.10 181 2.11 166 2.11 205 2.11 246 2.11   6 2.27  53 2.98  77 2.98
                           118 2.98  38 2.98  64 2.98 120 2.98 144 2.98  40 2.98
[...]
  14.77101896 14.77101896  7.50000000
   8.44058226 12.66087339  7.50000000
  14.77101896 12.66087339 13.86857013
   8.44058226 14.77101896 13.86857013
  14.77101896 14.77101896 11.72549760
   8.44058226 12.66087339 11.72549760

--------------------------------------- Iteration      FINAL  ---------------------------------------

--------------------OUTCAR has been truncated-------------------------

[...]

--------------------OUTCAR has been truncated-------------------------

  FORCE on cell =-STRESS in cart. coord.  units (eV):
  Direction    XX          YY          ZZ          XY          YZ          ZX
  Alpha Z  1076.42436  1076.42436  1076.42436
  Ewald  203022.97440203028.99763************    -1.07015    -1.37935    -2.04735
  Hartree218711.32410218716.84055************    -0.73666    -0.34773    -1.77579
  E(xc)   -4892.12390 -4892.12541 -4874.77525     0.00078     0.00357     0.00191
  Local  ************************421680.41838     1.76238     1.62334     3.85412
  n-local -2559.95287 -2559.92350 -2635.40575    -0.00974    -0.04569    -0.00708
  augment   911.73356   911.73987   921.74450    -0.00368     0.01326    -0.00296
  Kinetic 18895.13956 18895.20972 19104.68619     0.05460     0.19049    -0.05476
  Fock        0.00000     0.00000     0.00000     0.00000     0.00000     0.00000
  Total    -113.83642  -113.84680    -0.34870    -0.00246     0.05792    -0.03191
  in kB     -30.00456   -30.00730    -0.09191    -0.00065     0.01527    -0.00841

 VOLUME and BASIS-vectors are now :
  energy-cutoff  :      520.00
  volume of cell :     6078.61
      direct lattice vectors                 reciprocal lattice vectors
    16.881164524  0.000000000  0.000000000     0.059237619  0.000000000  0.000000000
     0.000000000 16.881164524  0.000000000     0.000000000  0.059237619  0.000000000
     0.000000000  0.000000000 21.330436697     0.000000000  0.000000000  0.046881366

  length of vectors
    16.881164524 16.881164524 21.330436697     0.059237619  0.059237619  0.046881366

 FORCES acting on ions:
    Electron-Ion                     Ewald-Force                    Non-Local-Force
   -.360E+02 -.192E+03 -.620E+03   0.371E+02 0.198E+03 0.624E+03   -.113E+01 -.565E+01 -.354E+01
   0.192E+03 -.350E+02 -.621E+03   -.198E+03 0.361E+02 0.625E+03   0.563E+01 -.109E+01 -.359E+01
   0.355E+02 0.192E+03 -.621E+03   -.366E+02 -.198E+03 0.625E+03   0.111E+01 0.563E+01 -.358E+01
   -.192E+03 0.371E+02 -.621E+03   0.198E+03 -.383E+02 0.624E+03   -.563E+01 0.119E+01 -.352E+01
   0.382E+02 -.111E+03 -.810E+03   -.668E+02 0.107E+03 0.790E+03   0.286E+02 0.378E+01 0.198E+02
   0.111E+03 0.364E+02 -.809E+03   -.107E+03 -.647E+02 0.788E+03   -.373E+01 0.284E+02 0.201E+02
   -.372E+02 0.111E+03 -.809E+03   0.656E+02 -.107E+03 0.789E+03   -.284E+02 -.371E+01 0.199E+02
   -.111E+03 -.400E+02 -.810E+03   0.107E+03 0.687E+02 0.790E+03   0.361E+01 -.287E+02 0.196E+02
   0.171E+01 -.162E+02 -.178E+03   -.232E+01 0.150E+02 0.183E+03   0.612E+00 0.127E+01 -.547E+01
   -.570E+02 0.199E+02 -.148E+03   0.624E+02 -.248E+02 0.149E+03   -.542E+01 0.495E+01 -.213E+00
   -.636E+02 -.494E+02 -.137E+03   0.689E+02 0.512E+02 0.136E+03   -.530E+01 -.180E+01 0.944E+00
   0.349E+02 -.735E+02 -.135E+03   -.385E+02 0.778E+02 0.133E+03   0.361E+01 -.434E+01 0.151E+01
   0.158E+02 0.192E+01 -.178E+03   -.144E+02 -.254E+01 0.183E+03   -.132E+01 0.621E+00 -.545E+01
   -.199E+02 -.571E+02 -.149E+03   0.248E+02 0.625E+02 0.149E+03   -.495E+01 -.543E+01 -.239E+00
   0.499E+02 -.634E+02 -.138E+03   -.517E+02 0.687E+02 0.137E+03   0.184E+01 -.529E+01 0.907E+00
   0.734E+02 0.353E+02 -.135E+03   -.778E+02 -.390E+02 0.133E+03   0.433E+01 0.364E+01 0.148E+01
   -.195E+01 0.159E+02 -.178E+03   0.257E+01 -.146E+02 0.183E+03   -.630E+00 -.131E+01 -.546E+01
   0.569E+02 -.197E+02 -.148E+03   -.623E+02 0.247E+02 0.148E+03   0.541E+01 -.494E+01 -.203E+00
   0.635E+02 0.496E+02 -.138E+03   -.688E+02 -.515E+02 0.137E+03   0.530E+01 0.182E+01 0.909E+00
   -.350E+02 0.736E+02 -.135E+03   0.386E+02 -.779E+02 0.134E+03   -.361E+01 0.434E+01 0.149E+01
   -.163E+02 -.166E+01 -.178E+03   0.150E+02 0.227E+01 0.183E+03   0.127E+01 -.616E+00 -.547E+01
   0.202E+02 0.562E+02 -.148E+03   -.252E+02 -.616E+02 0.148E+03   0.497E+01 0.538E+01 -.186E+00
   -.489E+02 0.640E+02 -.137E+03   0.506E+02 -.693E+02 0.137E+03   -.173E+01 0.532E+01 0.949E+00
   -.739E+02 -.342E+02 -.135E+03   0.783E+02 0.378E+02 0.134E+03   -.439E+01 -.356E+01 0.150E+01
   0.142E+01 0.142E+01 0.305E+03   -.141E+01 -.141E+01 -.303E+03   -.722E-03 -.955E-03 -.232E+01
   0.241E+01 0.240E+01 0.307E+03   -.240E+01 -.239E+01 -.305E+03   -.257E-02 -.249E-02 -.231E+01
   0.290E+01 0.325E+01 0.107E+03   -.289E+01 -.324E+01 -.107E+03   -.193E-02 -.113E-02 0.128E+00
   0.327E+01 0.290E+01 0.107E+03   -.327E+01 -.290E+01 -.107E+03   -.162E-02 -.235E-02 0.129E+00
   0.384E+01 0.381E+01 -.892E+02   -.384E+01 -.380E+01 0.892E+02   -.445E-02 -.172E-02 -.303E-01
   0.896E+01 0.879E+01 -.812E+02   -.894E+01 -.876E+01 0.812E+02   -.281E-01 -.325E-01 0.844E-02
   0.995E+01 0.953E+01 -.287E+03   -.992E+01 -.953E+01 0.285E+03   -.421E-01 -.407E-02 0.232E+01
   0.994E+01 0.101E+02 -.286E+03   -.993E+01 -.101E+02 0.285E+03   -.380E-02 -.448E-01 0.232E+01
   0.195E+01 0.144E+01 0.307E+03   -.194E+01 -.143E+01 -.304E+03   -.253E-02 -.997E-03 -.232E+01
   0.295E+01 -.110E-01 0.308E+03   -.293E+01 0.110E-01 -.306E+03   -.499E-02 -.107E-03 -.232E+01
   0.387E+01 -.700E-02 0.110E+03   -.385E+01 0.638E-02 -.110E+03   -.356E-04 -.387E-03 0.127E+00
   0.521E+01 0.306E+01 0.113E+03   -.518E+01 -.304E+01 -.113E+03   -.659E-04 -.224E-02 0.112E+00
   0.785E+01 0.451E+01 -.833E+02   -.781E+01 -.450E+01 0.833E+02   -.514E-01 -.146E-01 0.839E-02
   0.145E+02 0.746E-01 -.714E+02   -.143E+02 -.772E-01 0.714E+02   -.177E+00 0.229E-02 -.773E-01
   0.195E+02 0.385E+00 -.278E+03   -.194E+02 -.382E+00 0.277E+03   -.166E+00 -.497E-02 0.231E+01
   0.297E+02 0.167E+02 -.265E+03   -.295E+02 -.168E+02 0.264E+03   -.245E+00 0.836E-03 0.232E+01
   0.145E+01 0.196E+01 0.307E+03   -.145E+01 -.195E+01 -.304E+03   -.125E-02 -.253E-02 -.232E+01
   -.616E-02 0.186E+01 0.306E+03   0.619E-02 -.186E+01 -.303E+03   0.253E-05 -.786E-03 -.232E+01
   0.310E+01 0.519E+01 0.113E+03   -.308E+01 -.515E+01 -.113E+03   -.282E-02 0.562E-03 0.114E+00
   -.833E-02 0.197E+01 0.105E+03   0.823E-02 -.197E+01 -.105E+03   -.167E-04 -.332E-03 0.144E+00
   0.455E+01 0.796E+01 -.830E+02   -.454E+01 -.792E+01 0.830E+02   -.147E-01 -.450E-01 0.547E-02
   -.468E-01 0.472E+01 -.883E+02   0.477E-01 -.472E+01 0.883E+02   -.164E-02 -.360E-04 -.242E-01
   0.176E+02 0.296E+02 -.263E+03   -.176E+02 -.294E+02 0.261E+03   0.981E-02 -.198E+00 0.233E+01
   -.315E-01 0.463E+01 -.291E+03   0.320E-01 -.464E+01 0.289E+03   -.750E-03 0.763E-02 0.233E+01
   0.200E+01 0.198E+01 0.309E+03   -.199E+01 -.197E+01 -.307E+03   -.325E-02 -.327E-02 -.232E+01
   -.424E-02 -.116E-01 0.306E+03   0.417E-02 0.117E-01 -.304E+03   0.267E-04 -.226E-03 -.232E+01
   0.409E+01 -.230E-01 0.118E+03   -.405E+01 0.253E-01 -.118E+03   0.129E-02 -.428E-03 0.205E+00
   -.188E-01 0.207E+01 0.108E+03   0.200E-01 -.206E+01 -.108E+03   -.224E-03 -.651E-03 0.139E+00
   0.103E+02 0.101E+02 -.634E+02   -.102E+02 -.100E+02 0.636E+02   -.139E+00 -.147E+00 -.265E+00
   -.236E-01 -.275E-01 -.851E+02   0.235E-01 0.268E-01 0.851E+02   0.139E-02 -.507E-03 -.721E-02
   0.332E+02 0.135E+01 -.210E+03   -.331E+02 -.135E+01 0.209E+03   -.117E+00 -.131E-01 0.124E+01
   -.250E+00 0.563E+01 -.286E+03   0.250E+00 -.564E+01 0.285E+03   -.615E-03 0.152E-01 0.232E+01
   0.195E+01 -.145E+01 0.307E+03   -.194E+01 0.145E+01 -.304E+03   -.240E-02 0.100E-02 -.232E+01
   0.240E+01 -.240E+01 0.307E+03   -.239E+01 0.239E+01 -.305E+03   -.265E-02 0.262E-02 -.231E+01
   0.289E+01 -.325E+01 0.107E+03   -.288E+01 0.325E+01 -.107E+03   -.193E-02 0.215E-02 0.128E+00
   0.520E+01 -.309E+01 0.113E+03   -.516E+01 0.307E+01 -.113E+03   -.303E-03 0.226E-02 0.117E+00
[...]
   -.505E+01 -.605E+01 0.885E+03   0.503E+01 0.604E+01 -.889E+03   0.199E-01 0.132E-01 0.354E+01
   0.151E-01 -.633E+01 0.895E+03   -.151E-01 0.630E+01 -.899E+03   -.694E-04 0.454E-01 0.344E+01
   -.461E+02 -.258E+02 -.826E+03   0.460E+02 0.257E+02 0.830E+03   0.793E-01 0.823E-01 -.493E+01
   0.434E+01 -.112E+03 -.740E+03   -.434E+01 0.112E+03 0.745E+03   -.289E-02 0.449E+00 -.482E+01
   -.167E+02 -.173E+02 -.257E+03   0.166E+02 0.173E+02 0.256E+03   0.558E-01 0.460E-01 0.294E+00
   0.200E+00 -.330E+02 -.175E+03   -.197E+00 0.327E+02 0.175E+03   -.328E-02 0.338E+00 -.457E+00
   -.674E+01 -.664E+01 0.318E+03   0.673E+01 0.663E+01 -.318E+03   0.231E-01 0.200E-01 0.204E-01
   0.232E-01 0.531E-01 0.325E+03   -.227E-01 -.564E-01 -.325E+03   -.719E-03 0.297E-02 0.139E-01
   -.392E+01 0.291E-01 0.882E+03   0.392E+01 -.292E-01 -.886E+03   0.103E-01 0.343E-02 0.355E+01
   0.176E-01 -.615E+01 0.887E+03   -.180E-01 0.612E+01 -.891E+03   0.513E-03 0.311E-01 0.352E+01
   -.182E+02 -.178E+02 -.848E+03   0.181E+02 0.178E+02 0.853E+03   0.448E-01 0.445E-01 -.491E+01
   0.450E-01 0.158E+00 -.834E+03   -.452E-01 -.158E+00 0.839E+03   0.385E-03 -.610E-03 -.493E+01
   -.953E+01 0.731E-01 -.268E+03   0.951E+01 -.726E-01 0.268E+03   0.190E-01 -.202E-02 0.281E+00
   0.310E+00 -.257E+02 -.241E+03   -.309E+00 0.255E+02 0.241E+03   -.127E-02 0.229E+00 0.377E+00
   -.434E-01 0.223E+00 -.136E+02   0.259E-12 -.131E-12 -.182E-11   0.482E-01 -.253E+00 0.136E+02

 POSITION                                       TOTAL-FORCE (eV/Angst)
      8.88373      9.36262     16.96786         0.002373      0.001869     -0.005421
      5.41533      6.75322     16.97120        -0.001283      0.001567      0.002223
      8.00808      3.29700     16.96866         0.007714     -0.004570     -0.004316
     11.47058      5.87039     16.96208        -0.003546      0.002290      0.004693
      8.57758      8.23060     16.12961        -0.003186     -0.007265     -0.005950
      6.54270      6.45854     16.12312         0.001636     -0.002721     -0.001705
      8.30797      4.42426     16.12227         0.002954      0.001254      0.000986
     10.34218      6.19036     16.12409        -0.003508      0.001879     -0.002047
      8.76445      9.10343     18.03237         0.000157     -0.003797      0.005395
      9.32725      7.56493     16.18295        -0.000371      0.000691      0.000358
      9.91599      9.70179     16.78343         0.001641      0.002535     -0.000848
      8.19434     10.17055     16.69409        -0.003519      0.000247      0.000165
      5.68485      6.63188     18.03325        -0.001924      0.000842     -0.001757
      7.20724      7.20894     16.18030         0.001385      0.002236     -0.000154
      5.06709      7.78376     16.79406        -0.003819     -0.001208     -0.002997
      4.61029      6.05875     16.70237        -0.001649     -0.004943     -0.003818
      8.13074      3.56451     18.03069        -0.000310     -0.000118      0.009117
      7.55758      5.08961     16.17479        -0.001294      0.003029      0.004527
      6.97595      2.95402     16.79095        -0.001511     -0.005559     -0.003062
      8.69897      2.48895     16.69844        -0.001009      0.003991     -0.000892
     11.21179      5.99068     18.02670        -0.000580      0.001352      0.003325
      9.67195      5.44392     16.17379         0.002347      0.003825      0.002010
     11.79718      4.83420     16.77658         0.004391     -0.000736     -0.002257
     12.28675      6.55047     16.69001         0.001852      0.006877     -0.001952
      2.11015      0.00000      7.50000         0.002176      0.002153      0.349923
      4.22029      2.11015      7.50000         0.006262      0.006592      0.356786
      2.11015      2.11015      9.61015         0.003550      0.005275     -0.007874
      4.22029      0.00000      9.61015         0.003597      0.003056     -0.006783
      2.10937     -0.00065     11.72383        -0.000823     -0.000307      0.002060
      4.21969      2.11006     11.72057         0.000680     -0.000270      0.002829
      2.10827      2.10706     13.81496         0.000115     -0.000467      0.001100
      4.21694     -0.00214     13.81452         0.000239     -0.000536      0.001168
      2.11015      4.22029      7.50000         0.005857      0.003075      0.355977
      4.22029      6.33044      7.50000         0.011700     -0.000017      0.367966
      2.11015      6.33044      9.61015         0.024749     -0.000875      0.005908
      4.22029      4.22029      9.61015         0.034787      0.018036      0.022284
      2.10960      4.22073     11.72224        -0.000307     -0.000590      0.000050
      4.22742      6.33042     11.72979         0.001684     -0.000644     -0.000708
      2.10815      6.33109     13.81108         0.001028     -0.001159      0.000188
      4.21658      4.21524     13.80076         0.001572     -0.000809      0.001649
      6.33044      0.00000      7.50000         0.002884      0.005843      0.354842
      0.00000      2.11015      7.50000        -0.000020      0.002668      0.350538
      6.33044      2.11015      9.61015         0.017238      0.037014      0.021382
      0.00000      0.00000      9.61015        -0.000110      0.000464     -0.003632
      6.33057     -0.00095     11.72214        -0.000027      0.000884     -0.000664
      0.00011      2.10923     11.72381        -0.000443     -0.000458      0.002223
      6.32466      2.10603     13.79843        -0.000776      0.000573      0.001426
      0.00010     -0.00180     13.81712        -0.000202      0.001828     -0.003273
      6.33044      4.22029      7.50000         0.008329      0.008743      0.375708
      0.00000      6.33044      7.50000        -0.000067     -0.000019      0.353082
      6.33044      6.33044      9.61015         0.045992      0.002015      0.094038
      0.00000      4.22029      9.61015         0.000989      0.002773     -0.007852
      6.33827      4.22936     11.73865         0.000248      0.000984      0.000636
     -0.00003      6.33073     11.72364         0.001057     -0.000664     -0.002652
      6.32132      6.33039     13.89101         0.001264     -0.000395      0.000122
      0.00012      4.21815     13.81577        -0.000223      0.000126      0.000975
      2.11015      8.44058      7.50000         0.006011     -0.002862      0.354588
      4.22029     10.55073      7.50000         0.006556     -0.006040      0.356852
      2.11015     10.55073      9.61015         0.003989     -0.002398     -0.007200
      4.22029      8.44058      9.61015         0.038374     -0.017121      0.023295
[...]
      8.44058     10.55073      9.61015         0.000458      0.024423      0.033287
     14.77102     10.55073      7.50000         0.007905      0.001400     -0.404379
      8.44058      8.44058      7.50000        -0.000035      0.012846     -0.435366
     14.77453      8.44455     13.86403         0.001667      0.000494     -0.000674
      8.44111     10.57384     13.86643        -0.000003      0.000327     -0.002081
     14.77343     10.55263     11.71935        -0.001122     -0.000337     -0.000108
      8.44144      8.44727     11.73338        -0.000583      0.000294      0.002301
     14.77102     12.66087      9.61015         0.008013      0.005640      0.040011
      8.44058     14.77102      9.61015        -0.000225     -0.000212      0.035724
     14.77102     14.77102      7.50000         0.005180      0.003425     -0.401462
      8.44058     12.66087      7.50000         0.000127      0.008801     -0.410410
     14.77411     12.66409     13.86115         0.000937     -0.000274      0.003950
      8.44054     14.77070     13.86393         0.000220     -0.000266     -0.002891
     14.77234     14.77130     11.71978        -0.002061     -0.001461     -0.001863
      8.44075     12.66463     11.71857        -0.000440      0.000639      0.002169
    total drift:                                0.004760     -0.029952     -0.031845

  FREE ENERGIE OF THE ION-ELECTRON SYSTEM (eV)
  free  energy   TOTEN  =     -1299.06875724 eV

  energy  without entropy=    -1299.06875724  energy(sigma->0) =    -1299.06875724

 d Force = 0.5960997E-04[ 0.178E-04, 0.101E-03]  d Energy = 0.5985994E-04-0.250E-06
 d Force = 0.1869533E+01[ 0.187E+01, 0.187E+01]  d Ewald  = 0.1869533E+01 0.247E-06

 Conjugate gradient step on ions:
 trial-energy change:   -0.000060  1 .order   -0.000060   -0.000101   -0.000018
  (g-gl).g = 0.118E-03      g.g   = 0.124E-03  gl.gl    = 0.137E-03
 g(Force)  = 0.124E-03   g(Stress)= 0.000E+00 ortho     =-0.124E-06
 gamma     =   0.85739
 trial     =   0.82095
 opt step  =   0.99549  (harmonic =   0.99549) maximal distance =0.00159219
 next E    = -1299.068759   (d E  =  -0.00006)

 reached required accuracy - stopping structural energy minimisation