 vasp.6.3.0 20Jan22 (build Apr  1 2022 16:44:48) complex
 executed on        HPECrayEX_GCC date 2022.11.13  09:14:16

 INCAR:
   SYSTEM = MgO-rocksalt
   ISMEAR = 0
   SIGMA = 0.05
   EDIFF = 1E-6
   ALGO = ALL
   ISTART = 0
   IBRION = -1
   NSW = 0
   ISYM = 0
   DIPOL = 0.5 0.5 0.5
   IDIPOL = 3
   LDIPOL = .TRUE.
   LHFCALC = .TRUE.
   GGA = PE
   IVDW = 13
   VDW_S8 = 1.2007
   VDW_A1 = 0.4009
   VDW_A2 = 5.0293
   ENCUT = 600
   PREC = Accurate
   LASPH = .TRUE.
   LREAL = .FALSE.
   ISPIN = 1
   NELM = 200
   NELMIN = 8
   NCORE = 8
   KPAR = 1
   LWAVE = .FALSE.
   LCHARG = .FALSE.

 POTCAR:    PAW_PBE C 08Apr2002
 POTCAR:    PAW_PBE O 08Apr2002
 POTCAR:    PAW_PBE H 15Jun2001
 POTCAR:    PAW_PBE Mg_pv 13Apr2007
 POTCAR:    PAW_PBE O 08Apr2002
 POTCAR:    PAW_PBE C 08Apr2002
   VRHFIN =C: s2p2

   TITEL  = PAW_PBE C 08Apr2002
   POMASS =   12.011; ZVAL   =    4.000    mass and valenz
   ENMAX  =  400.000; ENMIN  =  300.000 eV

[...]

   TITEL  = PAW_PBE H 15Jun2001
   POMASS =    1.000; ZVAL   =    1.000    mass and valenz
   ENMAX  =  250.000; ENMIN  =  200.000 eV

   TITEL  = PAW_PBE Mg_pv 13Apr2007
   POMASS =   24.305; ZVAL   =    8.000    mass and valenz
   ENMAX  =  403.929; ENMIN  =  302.947 eV

   TITEL  = PAW_PBE O 08Apr2002
   POMASS =   16.000; ZVAL   =    6.000    mass and valenz
   ENMAX  =  400.000; ENMIN  =  300.000 eV

  PAW_PBE C 08Apr2002                   :
  PAW_PBE O 08Apr2002                   :
  PAW_PBE H 15Jun2001                   :
  PAW_PBE Mg_pv 13Apr2007               :
  PAW_PBE O 08Apr2002                   :

 POSCAR:  C  O  H Mg  O
  positions in direct lattice
|           W    W    AA    RRRRR   N    N  II  N    N   GGGG   !!!           |
|           W    W   A  A   R    R  NN   N  II  NN   N  G    G  !!!           |
|           W    W  A    A  R    R  N N  N  II  N N  N  G       !!!           |
|           W WW W  AAAAAA  RRRRR   N  N N  II  N  N N  G  GGG   !            |
|           WW  WW  A    A  R   R   N   NN  II  N   NN  G    G                |
|           W    W  A    A  R    R  N    N  II  N    N   GGGG   !!!           |
|     Specifying the vdW parameters                                           |
|     VDW_S8 = 1.201                                                          |
|     VDW_A1 = 0.401                                                          |
|     VDW_A2 = 5.029                                                          |
|     in the INCAR file will overwrite the defaults for pbe0. Please make     |
|     sure that is what you intended.                                         |

 ion  position               nearest neighbor table
   1  0.500  0.927  0.795-   3 1.10   6 1.11   5 1.11   2 1.43
   2  0.500  0.763  0.779-   4 1.00   1 1.43
   3  0.500  0.937  0.846-   1 1.10
   4  0.500  0.756  0.732-   2 1.00
   5  0.607  0.990  0.777-   1 1.11
   6  0.393  0.990  0.777-   1 1.11
   7  0.000  0.750  0.352-  39 2.11  41 2.11  42 2.11  49 2.11  58 2.11
   8  0.250  0.000  0.352-  40 2.11  41 2.11  42 2.11  50 2.11  57 2.11
   9  0.000  0.000  0.451-  41 2.11  40 2.11  39 2.11  47 2.11  56 2.11  45 2.12
  10  0.250  0.750  0.451-  42 2.11  40 2.11  39 2.11  48 2.11  55 2.11  46 2.12
  11  0.000  0.750  0.550-  45 2.11  53 2.11  46 2.11  62 2.11  39 2.12  43 2.15
  12  0.250  0.000  0.550-  46 2.11  45 2.11  54 2.11  61 2.11  40 2.13  44 2.15
  13  0.000  0.001  0.649-  51 2.11  44 2.11  60 2.11  43 2.11  45 2.11
  14  0.248  0.750  0.649-  43 2.09  52 2.11  44 2.11  46 2.12  59 2.13
  15  0.000  0.250  0.352-  47 2.11  41 2.11  49 2.11  50 2.11  66 2.11
  16  0.250  0.500  0.352-  48 2.11  42 2.11  49 2.11  50 2.11  65 2.11
  17  0.000  0.500  0.451-  49 2.11  47 2.11  48 2.11  39 2.11  64 2.11  53 2.12
  18  0.250  0.250  0.451-  50 2.11  47 2.11  48 2.11  40 2.11  63 2.11  54 2.12
  19  0.000  0.250  0.550-  53 2.11  54 2.11  70 2.11  45 2.11  47 2.12  51 2.15
  20  0.250  0.500  0.550-  53 2.11  46 2.11  69 2.11  54 2.11  48 2.13  52 2.14
  21  1.000  0.500  0.649-  51 2.11  68 2.11  52 2.11  43 2.11  53 2.12
  22  0.250  0.250  0.649-  51 2.11  52 2.11  67 2.11  44 2.11  54 2.11
  23  0.500  0.750  0.352-  55 2.11  42 2.11  57 2.11  58 2.11  65 2.11
  24  0.750  0.000  0.352-  56 2.11  41 2.11  57 2.11  58 2.11  66 2.11
  25  0.500  0.000  0.451-  57 2.11  55 2.11  56 2.11  40 2.11  63 2.11  61 2.12
  26  0.750  0.750  0.451-  58 2.11  55 2.11  56 2.11  39 2.11  64 2.11  62 2.12
  27  0.500  0.750  0.550-  69 2.11  46 2.11  62 2.11  61 2.11  55 2.12  59 2.17
  28  0.750  0.000  0.550-  62 2.11  45 2.11  70 2.11  61 2.11  56 2.13  60 2.15
  29  0.500  0.003  0.649-  67 2.09  61 2.10  44 2.11  60 2.11  59 2.14
  30  0.752  0.750  0.649-  43 2.09  68 2.11  60 2.11  62 2.12  59 2.13
  31  0.500  0.250  0.352-  63 2.11  57 2.11  50 2.11  65 2.11  66 2.11
  32  0.750  0.500  0.352-  64 2.11  58 2.11  49 2.11  65 2.11  66 2.11
  33  0.500  0.500  0.451-  65 2.11  55 2.11  63 2.11  64 2.11  48 2.11  69 2.12
  34  0.750  0.250  0.451-  66 2.11  56 2.11  63 2.11  64 2.11  47 2.11  70 2.12
  35  0.500  0.250  0.550-  54 2.11  70 2.11  69 2.11  61 2.12  63 2.12  67 2.14
  36  0.750  0.500  0.550-  53 2.11  62 2.11  69 2.11  70 2.11  64 2.13  68 2.14
  37  0.500  0.498  0.649-  67 2.09  68 2.11  52 2.11  69 2.11  59 2.13
  38  0.750  0.250  0.649-  51 2.11  68 2.11  67 2.11  60 2.11  70 2.11
  39  0.000  0.750  0.451-   7 2.11   9 2.11  10 2.11  17 2.11  26 2.11  11 2.12
  40  0.250  0.000  0.451-   8 2.11   9 2.11  10 2.11  18 2.11  25 2.11  12 2.13
  41  0.000  0.000  0.352-   9 2.11   8 2.11   7 2.11  15 2.11  24 2.11
  42  0.250  0.750  0.352-  10 2.11   8 2.11   7 2.11  16 2.11  23 2.11
  43  1.000  0.750  0.651-  30 2.09  14 2.09  13 2.11  21 2.11  11 2.15
  44  0.250  0.000  0.651-  29 2.11  14 2.11  13 2.11  22 2.11  12 2.15
  45  1.000  0.000  0.550-  11 2.11  28 2.11  12 2.11  19 2.11  13 2.11   9 2.12
  46  0.250  0.750  0.550-  27 2.11  12 2.11  20 2.11  11 2.11  14 2.12  10 2.12
  47  0.000  0.250  0.451-  15 2.11   9 2.11  17 2.11  18 2.11  34 2.11  19 2.12
  48  0.250  0.500  0.451-  16 2.11  10 2.11  17 2.11  18 2.11  33 2.11  20 2.13
  49  0.000  0.500  0.352-  17 2.11  15 2.11  16 2.11   7 2.11  32 2.11
  50  0.250  0.250  0.352-  18 2.11  15 2.11  16 2.11   8 2.11  31 2.11
  51  1.000  0.250  0.651-  13 2.11  38 2.11  22 2.11  21 2.11  19 2.15
  52  0.250  0.500  0.651-  14 2.11  37 2.11  22 2.11  21 2.11  20 2.14
  53  0.000  0.500  0.550-  11 2.11  20 2.11  36 2.11  19 2.11  21 2.12  17 2.12
  54  0.250  0.250  0.550-  35 2.11  12 2.11  19 2.11  20 2.11  22 2.11  18 2.12
  55  0.500  0.750  0.451-  23 2.11  10 2.11  25 2.11  26 2.11  33 2.11  27 2.12
  56  0.750  0.000  0.451-  24 2.11   9 2.11  25 2.11  26 2.11  34 2.11  28 2.13
  57  0.500  0.000  0.352-  25 2.11  23 2.11  24 2.11   8 2.11  31 2.11
  58  0.750  0.750  0.352-  26 2.11  23 2.11  24 2.11   7 2.11  32 2.11
  59  0.500  0.750  0.652-  30 2.13  14 2.13  37 2.13  29 2.14  27 2.17
  60  0.750  0.000  0.651-  29 2.11  30 2.11  13 2.11  38 2.11  28 2.15
  61  0.500  1.000  0.550-  29 2.10  27 2.11  28 2.11  12 2.11  35 2.12  25 2.12
  62  0.750  0.750  0.550-  27 2.11  28 2.11  36 2.11  11 2.11  30 2.12  26 2.12
  63  0.500  0.250  0.451-  31 2.11  25 2.11  18 2.11  33 2.11  34 2.11  35 2.12
  64  0.750  0.500  0.451-  32 2.11  26 2.11  17 2.11  33 2.11  34 2.11  36 2.13
  65  0.500  0.500  0.352-  33 2.11  23 2.11  31 2.11  32 2.11  16 2.11
  66  0.750  0.250  0.352-  34 2.11  24 2.11  31 2.11  32 2.11  15 2.11
  67  0.500  0.250  0.651-  29 2.09  37 2.09  38 2.11  22 2.11  35 2.14
  68  0.750  0.500  0.651-  30 2.11  37 2.11  38 2.11  21 2.11  36 2.14
  69  0.500  0.501  0.550-  27 2.11  36 2.11  20 2.11  37 2.11  35 2.11  33 2.12
  70  0.750  0.250  0.550-  35 2.11  28 2.11  19 2.11  36 2.11  38 2.11  34 2.12

IMPORTANT INFORMATION: All symmetrisations will be switched off!
NOSYMM: (Re-)initialisation of all symmetry stuff for point group C_1.

                                     Primitive cell

  volume of cell :    1519.8199

  direct lattice vectors                    reciprocal lattice vectors
     8.440984654  0.000000000  0.000000000     0.118469591  0.000000000  0.000000000
     0.000000000  8.440984654  0.000000000     0.000000000  0.118469591  0.000000000
     0.000000000  0.000000000 21.330738491     0.000000000  0.000000000  0.046880702

  length of vectors
     8.440984654  8.440984654 21.330738491     0.118469591  0.118469591  0.046880702

  position of ions in fractional coordinates (direct lattice)
     0.499992559  0.927425025  0.794672850
     0.500000622  0.763027173  0.778637205
     0.500000547  0.937136336  0.846026296
     0.500000090  0.756298660  0.731770613
     0.606662785  0.989570896  0.776953163
     0.393344181  0.989568125  0.776954137
     0.000000000  0.750000000  0.351605267
     0.250000000  0.000000000  0.351605267
     0.000000000  0.000000000  0.450535089
     0.250000000  0.750000000  0.450535089
     0.000000008  0.750147550  0.550126567
     0.249905350  0.000103435  0.550222861
     0.000000026  0.000546055  0.648943465
     0.247747286  0.750033192  0.649243266
     0.000000000  0.250000000  0.351605267
     0.250000000  0.500000000  0.351605267
     0.000000000  0.500000000  0.450535089
     0.250000000  0.250000000  0.450535089
     0.000000012  0.250191124  0.550146528
     0.249928207  0.500214927  0.550255332
     0.999999983  0.499940436  0.649062667
     0.249636403  0.250399205  0.648941138
     0.500000000  0.750000000  0.351605267
     0.750000000  0.000000000  0.351605267
     0.500000000  0.000000000  0.450535089
     0.750000000  0.750000000  0.450535089
     0.499999985  0.750123901  0.550030192
     0.750094647  0.000103445  0.550222837
     0.499999941  0.003291849  0.648638534
     0.752252711  0.750033147  0.649243200
     0.500000000  0.250000000  0.351605267
     0.750000000  0.500000000  0.351605267
     0.500000000  0.500000000  0.450535089
     0.750000000  0.250000000  0.450535089
     0.499999992  0.250340414  0.549992972
     0.750071788  0.500214927  0.550255323
     0.500000005  0.497841145  0.648989133
     0.750363599  0.250399263  0.648941088
     0.000000000  0.750000000  0.450535089
     0.250000000  0.000000000  0.450535089
     0.000000000  0.000000000  0.351605267
     0.250000000  0.750000000  0.351605267
     0.999999975  0.750297883  0.650700566
     0.250242377  0.000040639  0.650797168
     0.999999986  0.000044611  0.549843935
     0.250470800  0.750233324  0.550076074
     0.000000000  0.250000000  0.450535089
     0.250000000  0.500000000  0.450535089
     0.000000000  0.500000000  0.351605267
     0.250000000  0.250000000  0.351605267
     0.999999976  0.250139304  0.650810627
     0.250241849  0.500380847  0.650569646
     0.000000002  0.500222649  0.549863570
     0.250081150  0.250070487  0.549831101
     0.500000000  0.750000000  0.450535089
     0.750000000  0.000000000  0.450535089
     0.500000000  0.000000000  0.351605267
     0.750000000  0.750000000  0.351605267
     0.500000011  0.750432985  0.651858218
     0.749757573  0.000040640  0.650797178
     0.500000010  0.999759990  0.549985217
     0.749529196  0.750233335  0.550076086
[...]

 position of ions in cartesian coordinates  (Angst):
   4.22042952  7.82838040 16.95095874
   4.22049758  6.44070066 16.60890660
   4.22049695  7.91035343 18.04636568
   4.22049309  6.38390538 15.60920757
   5.12083126  8.35295275 16.57298474
   3.32021219  8.35292935 16.57300551
   0.00000000  6.33073849  7.50000000
   2.11024616  0.00000000  7.50000000
   0.00000000  0.00000000  9.61024616
   2.11024616  6.33073849  9.61024616
   0.00000007  6.33198396 11.73460593
   2.10944723  0.00087309 11.73665996
   0.00000022  0.00460924 13.84244334
   2.09123104  6.33101866 13.84883832
   0.00000000  2.11024616  7.50000000
   2.11024616  4.22049233  7.50000000
   0.00000000  4.22049233  9.61024616
   2.11024616  2.11024616  9.61024616
   0.00000010  2.11185944 11.73503171
   2.10964016  4.22230653 11.73735259
   8.44098451  4.21998955 13.84498600
   2.10717705  2.11361584 13.84239372
   4.22049233  6.33073849  7.50000000
   6.33073849  0.00000000  7.50000000
   4.22049233  0.00000000  9.61024616
   6.33073849  6.33073849  9.61024616
   4.22049220  6.33178434 11.73255019
   6.33153740  0.00087318 11.73665944
   4.22049183  0.02778645 13.83593895
   6.34975359  6.33101829 13.84883691
   4.22049233  2.11024616  7.50000000
   6.33073849  4.22049233  7.50000000
   4.22049233  4.22049233  9.61024616
   6.33073849  2.11024616  9.61024616
   4.22049226  2.11311960 11.73175627
   6.33134445  4.22230652 11.73735240
   4.22049237  4.20226946 13.84341747
   6.33380762  2.11361634 13.84239264
   0.00000000  6.33073849  9.61024616
   2.11024616  0.00000000  9.61024616
   0.00000000  0.00000000  7.50000000
   2.11024616  6.33073849  7.50000000
   8.44098444  6.33325292 13.87992361
   2.11229206  0.00034304 13.88198420
   8.44098454  0.00037656 11.72857718
   2.11422017  6.33270797 11.73352888
   0.00000000  2.11024616  9.61024616
   2.11024616  4.22049233  9.61024616
   0.00000000  4.22049233  7.50000000
   2.11024616  2.11024616  7.50000000
   8.44098445  2.11142203 13.88227129
   2.11228761  4.22370705 13.87713099
   0.00000001  4.22237170 11.72899602
   2.11093115  2.11084115 11.72830344
   4.22049233  6.33073849  9.61024616
   6.33073849  0.00000000  9.61024616
   4.22049233  0.00000000  7.50000000
   6.33073849  6.33073849  7.50000000
   4.22049242  6.33439331 13.90461718
   6.32869217  0.00034304 13.88198442
   4.22049241  8.43895873 11.73159084
   6.32676444  6.33270807 11.73352915
   4.22049233  2.11024616  9.61024616
   6.33073849  4.22049233  9.61024616
   4.22049233  4.22049233  7.50000000
   6.33073849  2.11024616  7.50000000
   4.22049251  2.11327962 13.87607541
   6.32869700  4.22370691 13.87713044
   4.22049235  4.22622133 11.73174062
   6.33005345  2.11084095 11.72830340

--------------------------------------- Iteration      FINAL  ---------------------------------------

--------------------OUTCAR has been truncated-------------------------

[...]

--------------------OUTCAR has been truncated-------------------------

 VOLUME and BASIS-vectors are now :
  energy-cutoff  :      600.00
  volume of cell :     1519.82
      direct lattice vectors                 reciprocal lattice vectors
     8.440984654  0.000000000  0.000000000     0.118469591  0.000000000  0.000000000
     0.000000000  8.440984654  0.000000000     0.000000000  0.118469591  0.000000000
     0.000000000  0.000000000 21.330738491     0.000000000  0.000000000  0.046880702

  length of vectors
     8.440984654  8.440984654 21.330738491     0.118469591  0.118469591  0.046880702

 FORCES acting on ions:
    Electron-Ion                     Ewald-Force                    Non-Local-Force
   0.360E-02 -.118E+03 -.971E+03   -.167E-02 0.123E+03 0.973E+03   0.266E-02 -.445E+01 -.170E+01
   -.599E-02 0.166E+03 -.152E+04   0.840E-02 -.201E+03 0.154E+04   -.242E-02 0.305E+02 -.233E+02
   -.279E-02 -.154E+02 -.243E+03   0.296E-02 0.158E+02 0.248E+03   -.420E-03 -.402E+00 -.548E+01
   -.868E-04 0.187E+02 -.214E+03   0.681E-04 -.194E+02 0.207E+03   0.139E-04 0.648E+00 0.707E+01
   -.486E+02 -.386E+02 -.237E+03   0.529E+02 0.410E+02 0.235E+03   -.432E+01 -.250E+01 0.171E+01
   0.486E+02 -.386E+02 -.237E+03   -.529E+02 0.410E+02 0.235E+03   0.432E+01 -.250E+01 0.171E+01
   -.145E-05 0.153E+00 0.209E+04   0.130E-05 -.153E+00 -.208E+04   -.577E-06 0.367E-03 -.676E+01
   0.322E+00 -.162E+00 0.209E+04   -.326E+00 0.164E+00 -.208E+04   0.214E-02 -.111E-02 -.677E+01
   -.239E-04 -.635E+00 0.730E+03   0.259E-04 0.664E+00 -.730E+03   -.144E-05 -.182E-01 0.440E+00
   0.164E+01 0.706E+00 0.730E+03   -.163E+01 -.701E+00 -.731E+03   -.850E-02 -.317E-02 0.523E+00
   -.562E-05 0.234E+01 -.616E+03   0.332E-05 -.235E+01 0.616E+03   0.483E-06 0.396E-02 -.273E+00
   0.713E+01 -.411E+01 -.612E+03   -.717E+01 0.409E+01 0.612E+03   0.306E-01 0.166E-01 -.290E+00
   0.343E-03 -.114E+02 -.197E+04   -.422E-03 0.115E+02 0.197E+04   0.473E-04 -.984E-01 0.576E+01
   0.396E+02 0.143E+02 -.193E+04   -.406E+02 -.144E+02 0.193E+04   0.881E+00 0.750E-01 0.580E+01
   -.198E-05 -.151E+00 0.209E+04   0.301E-05 0.152E+00 -.208E+04   -.154E-05 -.808E-03 -.678E+01
   0.307E+00 0.162E+00 0.209E+04   -.310E+00 -.163E+00 -.208E+04   0.211E-02 0.679E-03 -.678E+01
   -.684E-05 0.635E+00 0.728E+03   0.785E-05 -.653E+00 -.729E+03   -.110E-05 0.113E-01 0.435E+00
   0.129E+01 -.670E+00 0.730E+03   -.133E+01 0.676E+00 -.730E+03   0.223E-01 -.369E-02 0.429E+00
   -.532E-05 -.216E+01 -.623E+03   0.365E-05 0.218E+01 0.624E+03   -.597E-06 -.154E-01 -.222E+00
   0.549E+01 0.406E+01 -.617E+03   -.551E+01 -.404E+01 0.618E+03   0.186E-01 -.158E-01 -.413E+00
   -.481E-05 0.112E+02 -.199E+04   -.309E-06 -.113E+02 0.198E+04   0.487E-05 0.910E-01 0.577E+01
   0.196E+02 -.126E+02 -.197E+04   -.197E+02 0.126E+02 0.197E+04   0.126E+00 -.754E-01 0.578E+01
   0.193E-05 0.168E+00 0.209E+04   -.130E-05 -.169E+00 -.208E+04   -.146E-06 0.309E-03 -.676E+01
   -.322E+00 -.162E+00 0.209E+04   0.326E+00 0.164E+00 -.208E+04   -.214E-02 -.111E-02 -.677E+01
   0.242E-04 -.961E+00 0.732E+03   -.257E-04 0.949E+00 -.732E+03   0.817E-06 0.949E-02 0.516E+00
   -.164E+01 0.706E+00 0.730E+03   0.163E+01 -.701E+00 -.731E+03   0.850E-02 -.317E-02 0.523E+00
   -.677E-05 0.379E+01 -.605E+03   0.938E-05 -.383E+01 0.605E+03   -.383E-06 0.322E-01 0.588E+00
   -.713E+01 -.411E+01 -.612E+03   0.717E+01 0.409E+01 0.612E+03   -.306E-01 0.166E-01 -.290E+00
   -.413E-03 -.329E+02 -.189E+04   0.551E-03 0.341E+02 0.188E+04   -.786E-04 -.103E+01 0.576E+01
   -.396E+02 0.143E+02 -.193E+04   0.406E+02 -.144E+02 0.193E+04   -.881E+00 0.749E-01 0.580E+01
   0.343E-05 -.166E+00 0.209E+04   -.316E-05 0.167E+00 -.208E+04   -.602E-06 -.103E-02 -.676E+01
   -.307E+00 0.162E+00 0.209E+04   0.310E+00 -.163E+00 -.208E+04   -.211E-02 0.678E-03 -.678E+01
   0.113E-04 0.986E+00 0.730E+03   -.118E-04 -.953E+00 -.731E+03   0.349E-06 -.213E-01 0.503E+00
   -.129E+01 -.670E+00 0.730E+03   0.133E+01 0.676E+00 -.730E+03   -.223E-01 -.369E-02 0.429E+00
   0.310E-04 -.374E+01 -.610E+03   -.274E-04 0.378E+01 0.611E+03   -.158E-05 -.316E-01 -.245E+00
   -.549E+01 0.406E+01 -.617E+03   0.551E+01 -.404E+01 0.618E+03   -.186E-01 -.158E-01 -.413E+00
   -.223E-04 0.281E+02 -.194E+04   0.241E-04 -.291E+02 0.194E+04   -.230E-05 0.949E+00 0.583E+01
   -.196E+02 -.126E+02 -.197E+04   0.197E+02 0.126E+02 0.197E+04   -.126E+00 -.754E-01 0.578E+01
   0.178E-05 0.462E+00 0.547E+03   -.130E-05 -.471E+00 -.547E+03   -.161E-06 0.102E-01 -.848E-01
   0.100E+01 -.487E+00 0.548E+03   -.102E+01 0.496E+00 -.547E+03   0.172E-01 -.119E-01 -.135E+00
   -.247E-05 -.111E+00 0.157E+04   0.265E-05 0.115E+00 -.157E+04   -.184E-06 -.442E-02 0.302E+01
   0.252E+00 0.120E+00 0.157E+04   -.253E+00 -.121E+00 -.157E+04   0.132E-02 0.112E-02 0.303E+01
   0.107E-03 0.581E+01 -.150E+04   -.127E-03 -.581E+01 0.150E+04   0.264E-04 0.533E-02 -.448E+01
   0.296E+02 -.167E+02 -.147E+04   -.296E+02 0.167E+02 0.148E+04   -.158E-01 0.286E-01 -.449E+01
   0.268E-05 -.264E+01 -.459E+03   -.176E-04 0.267E+01 0.458E+03   0.189E-04 -.209E-01 0.206E+00
   0.516E+01 0.227E+01 -.454E+03   -.521E+01 -.228E+01 0.454E+03   0.374E-01 0.849E-02 0.187E+00
   -.739E-05 -.416E+00 0.546E+03   0.746E-05 0.409E+00 -.546E+03   0.585E-06 0.740E-02 -.134E+00
   0.907E+00 0.508E+00 0.546E+03   -.921E+00 -.532E+00 -.546E+03   0.164E-01 0.288E-01 -.142E+00
   -.811E-06 0.110E+00 0.157E+04   0.121E-05 -.114E+00 -.157E+04   -.673E-07 0.493E-02 0.302E+01
   0.226E+00 -.120E+00 0.157E+04   -.232E+00 0.121E+00 -.157E+04   0.695E-02 -.662E-03 0.302E+01
   0.327E-04 -.569E+01 -.151E+04   -.554E-04 0.572E+01 0.151E+04   0.277E-04 -.186E-01 -.447E+01
   0.177E+02 0.154E+02 -.149E+04   -.177E+02 -.154E+02 0.150E+04   -.467E-02 -.267E-01 -.455E+01
   -.186E-04 0.248E+01 -.462E+03   0.167E-04 -.250E+01 0.461E+03   0.230E-05 0.104E-01 0.159E+00
   0.426E+01 -.222E+01 -.459E+03   -.427E+01 0.224E+01 0.458E+03   0.994E-02 -.152E-01 0.187E+00
   -.193E-05 0.547E+00 0.549E+03   0.256E-05 -.559E+00 -.549E+03   -.199E-06 0.149E-01 -.823E-01
   -.100E+01 -.487E+00 0.548E+03   0.102E+01 0.496E+00 -.547E+03   -.172E-01 -.119E-01 -.135E+00
   0.278E-05 -.138E+00 0.157E+04   -.267E-05 0.137E+00 -.157E+04   0.152E-06 0.140E-02 0.303E+01
   -.252E+00 0.120E+00 0.157E+04   0.253E+00 -.121E+00 -.157E+04   -.132E-02 0.112E-02 0.303E+01
   -.224E-03 0.199E+02 -.140E+04   0.248E-03 -.200E+02 0.141E+04   -.278E-04 0.463E-01 -.150E+01
   -.296E+02 -.167E+02 -.147E+04   0.296E+02 0.167E+02 0.148E+04   0.159E-01 0.286E-01 -.449E+01
   -.108E-04 -.334E+01 -.448E+03   0.263E-04 0.338E+01 0.447E+03   -.189E-04 -.312E-01 0.338E+00
   -.516E+01 0.227E+01 -.454E+03   0.521E+01 -.228E+01 0.454E+03   -.374E-01 0.847E-02 0.187E+00
   0.113E-04 -.500E+00 0.548E+03   -.106E-04 0.487E+00 -.548E+03   -.762E-06 0.142E-01 -.580E-01
   -.907E+00 0.508E+00 0.546E+03   0.921E+00 -.532E+00 -.546E+03   -.164E-01 0.288E-01 -.142E+00
   0.148E-05 0.136E+00 0.157E+04   -.132E-05 -.136E+00 -.157E+04   0.307E-06 -.479E-03 0.303E+01
   -.226E+00 -.120E+00 0.157E+04   0.232E+00 0.121E+00 -.157E+04   -.695E-02 -.661E-03 0.302E+01
   -.545E-04 -.159E+02 -.148E+04   0.947E-04 0.160E+02 0.149E+04   -.474E-04 -.497E-01 -.451E+01
   -.177E+02 0.154E+02 -.149E+04   0.177E+02 -.154E+02 0.150E+04   0.467E-02 -.267E-01 -.455E+01
   0.361E-04 0.329E+01 -.455E+03   -.341E-04 -.333E+01 0.455E+03   -.249E-05 0.236E-01 0.229E+00
   -.426E+01 -.222E+01 -.459E+03   0.427E+01 0.224E+01 0.458E+03   -.994E-02 -.152E-01 0.187E+00
   -.136E-02 -.258E+02 0.399E+02   -.579E-12 -.711E-13 0.313E-11   0.150E-02 0.212E+02 -.337E+02

 POSITION                                       TOTAL-FORCE (eV/Angst)
      4.22043      7.82838     16.95096         0.004752     -0.323251     -0.034383
      4.22050      6.44070     16.60891        -0.000417      0.677561     -0.470383
      4.22050      7.91035     18.04637        -0.000267     -0.028658     -0.291256
      4.22049      6.38391     15.60921        -0.000004     -0.002329      0.531771
      5.12083      8.35295     16.57298        -0.220635     -0.169274      0.092441
      3.32021      8.35293     16.57301         0.216540     -0.167506      0.090952
      0.00000      6.33074      7.50000        -0.000001     -0.000230      0.584634
      2.11025      0.00000      7.50000        -0.000961      0.000457      0.587506
      0.00000      0.00000      9.61025         0.000000      0.008504      0.063803
      2.11025      6.33074      9.61025         0.001542      0.001389      0.064332
      0.00000      6.33198     11.73461        -0.000002     -0.004302      0.016270
      2.10945      0.00087     11.73666        -0.001300     -0.002102      0.013915
      0.00000      0.00461     13.84244        -0.000024     -0.000101     -0.193185
      2.09123      6.33102     13.84884        -0.025188     -0.009409     -0.204714
      0.00000      2.11025      7.50000        -0.000001      0.000268      0.589802
      2.11025      4.22049      7.50000        -0.000937     -0.000440      0.587733
      0.00000      4.22049      9.61025        -0.000000     -0.004399      0.067432
      2.11025      2.11025      9.61025        -0.009978      0.002321      0.065140
      0.00000      2.11186     11.73503        -0.000002      0.000126      0.010038
      2.10964      4.22231     11.73735         0.000423     -0.000078      0.016070
      8.44098      4.21999     13.84499         0.000000     -0.004428     -0.192354
      2.10718      2.11362     13.84239        -0.006473      0.006328     -0.196191
      4.22049      6.33074      7.50000         0.000001     -0.000223      0.584965
      6.33074      0.00000      7.50000         0.000962      0.000457      0.587503
      4.22049      0.00000      9.61025        -0.000001     -0.001388      0.058700
      6.33074      6.33074      9.61025        -0.001543      0.001388      0.064331
      4.22049      6.33178     11.73255         0.000002     -0.000284      0.003846
      6.33154      0.00087     11.73666         0.001299     -0.002103      0.013936
      4.22049      0.02779     13.83594         0.000047      0.021749     -0.196871
      6.34975      6.33102     13.84884         0.025184     -0.009380     -0.204704
      4.22049      2.11025      7.50000        -0.000000      0.000345      0.583343
      6.33074      4.22049      7.50000         0.000937     -0.000440      0.587733
      4.22049      4.22049      9.61025        -0.000000      0.008412      0.060589
      6.33074      2.11025      9.61025         0.009978      0.002321      0.065140
      4.22049      2.11312     11.73176         0.000002      0.000564      0.014024
      6.33134      4.22231     11.73735        -0.000423     -0.000078      0.016069
      4.22049      4.20227     13.84342        -0.000001     -0.019513     -0.194549
      6.33381      2.11362     13.84239         0.006468      0.006300     -0.196166
      0.00000      6.33074      9.61025         0.000000      0.002947      0.073250
      2.11025      0.00000      9.61025         0.006481     -0.004683      0.064193
      0.00000      0.00000      7.50000        -0.000000     -0.001537     -0.414300
      2.11025      6.33074      7.50000         0.000412      0.000333     -0.412375
      8.44098      6.33325     13.87992         0.000011      0.000837     -0.134648
      2.11229      0.00034     13.88198        -0.006734      0.006332     -0.129900
      8.44098      0.00038     11.72858         0.000007      0.000832      0.018656
      2.11422      6.33271     11.73353        -0.004902     -0.000329      0.009531
      0.00000      2.11025      9.61025         0.000001      0.001941      0.056559
      2.11025      4.22049      9.61025         0.006045      0.009544      0.065259
      0.00000      4.22049      7.50000         0.000000      0.001639     -0.414534
      2.11025      2.11025      7.50000         0.002364     -0.000249     -0.413964
      8.44098      2.11142     13.88227         0.000010     -0.001291     -0.134063
      2.11229      4.22371     13.87713        -0.003263     -0.006604     -0.135144
      0.00000      4.22237     11.72900         0.000001      0.001195      0.009584
      2.11093      2.11084     11.72830        -0.000173     -0.001114      0.014705
      4.22049      6.33074      9.61025         0.000000      0.004858      0.062001
      6.33074      0.00000      9.61025        -0.006480     -0.004683      0.064192
      4.22049      0.00000      7.50000         0.000000      0.000484     -0.411846
      6.33074      6.33074      7.50000        -0.000413      0.000333     -0.412374
      4.22049      6.33439     13.90462        -0.000010     -0.003171     -0.036444
      6.32869      0.00034     13.88198         0.006759      0.006331     -0.129955
      4.22049      8.43896     11.73159        -0.000007      0.004518      0.016608
      6.32676      6.33271     11.73353         0.004902     -0.000335      0.009523
      4.22049      2.11025      9.61025        -0.000000      0.003654      0.068716
      6.33074      4.22049      9.61025        -0.006045      0.009543      0.065258
      4.22049      4.22049      7.50000         0.000001     -0.000224     -0.412092
      6.33074      2.11025      7.50000        -0.002364     -0.000248     -0.413964
      4.22049      2.11328     13.87608        -0.000016     -0.005024     -0.131458
      6.32870      4.22371     13.87713         0.003261     -0.006601     -0.135146
      4.22049      4.22622     11.73174        -0.000001     -0.006693      0.012211
      6.33005      2.11084     11.72830         0.000173     -0.001107      0.014699
    total drift:                               -0.000000      0.003394     -0.000367

  FREE ENERGIE OF THE ION-ELECTRON SYSTEM (eV)
  free  energy   TOTEN  =      -509.60871028 eV

  energy  without entropy=     -509.60871028  energy(sigma->0) =     -509.60871028