 vasp.6.3.0 20Jan22 (build Aug 21 2024 11:13:42) complex
 executed on        HPECrayEX_GCC date 2024.11.27  21:12:12

 INCAR:
   SYSTEM = TiO2
   ISMEAR = 0
   SIGMA = 0.05
   EDIFF = 1E-4
   ALGO = Normal
   IBRION = -1
   NSW = 0
   ISYM = 0
   ISIF = 2
   EDIFFG = -0.01
   DIPOL = 0.5 0.5 0.5
   IDIPOL = 3
   LDIPOL = .TRUE.
   LHFCALC = .TRUE.
   HFSCREEN = 0.2
   GGA = PE
   IVDW = 13
   VDW_S8 = 1.19528249
   VDW_A1 = 0.38663183
   VDW_A2 = 5.19133469
   ENCUT = 520
   PREC = Normal
   PRECFOCK = Fast
   LASPH = .TRUE.
   LREAL = .FALSE.
   ISPIN = 1
   NKREDX = 2
   NKREDY = 2
   NELM = 200
   NELMIN = 8
   NCORE = 16
   KPAR = 1
   LWAVE = .FALSE.
   LCHARG = .FALSE.

 POTCAR:    PAW_PBE H 15Jun2001
 POTCAR:    PAW_PBE O 08Apr2002
 POTCAR:    PAW_PBE Ti 08Apr2002
 POTCAR:    PAW_PBE O 08Apr2002
 POTCAR:    PAW_PBE H 15Jun2001
   VRHFIN =H: ultrasoft test

   TITEL  = PAW_PBE H 15Jun2001
   POMASS =    1.000; ZVAL   =    1.000    mass and valenz
   ENMAX  =  250.000; ENMIN  =  200.000 eV

   TITEL  = PAW_PBE O 08Apr2002
   POMASS =   16.000; ZVAL   =    6.000    mass and valenz
   ENMAX  =  400.000; ENMIN  =  300.000 eV

[...]

   TITEL  = PAW_PBE O 08Apr2002
   POMASS =   16.000; ZVAL   =    6.000    mass and valenz
   ENMAX  =  400.000; ENMIN  =  300.000 eV

  PAW_PBE H 15Jun2001                   :
  PAW_PBE O 08Apr2002                   :
  PAW_PBE Ti 08Apr2002                  :
  PAW_PBE O 08Apr2002                   :

 POSCAR:  H  O Ti  O
  positions in direct lattice
 WARNING: Using user supplied parameters
     VDW_S8 = 1.195
     VDW_A1 = 0.387
     VDW_A2 = 5.191
     because the xc functional is not supported. Required parameters not
     defined in the INCAR file will be replaced with PBE defaults ones.

 ion  position               nearest neighbor table
   1  0.510  0.551  0.802-   3 0.98
   2  0.613  0.497  0.783-   3 1.00
   3  0.537  0.493  0.782-   1 0.98   2 1.00  83 2.19
   4  0.750  0.625  0.287-  84 1.96  85 1.96 144 1.96 145 1.96  87 1.99 166 1.99  14 2.96  34 2.96

   5  0.000  0.750  0.287-  86 1.96  87 1.96 106 1.96 107 1.96  88 1.99  35 2.96  15 2.96
   6  0.000  0.625  0.393-  88 1.96  89 1.96 148 1.96 149 1.96  90 1.99  91 1.99  16 2.96  36 2.96

[...]

  84  0.750  0.750  0.245-   4 1.96  14 1.96
  85  0.750  0.750  0.328-   4 1.96  14 1.96   7 1.99
  86  0.098  0.625  0.287-   5 1.96  35 1.96  44 1.99
  87  0.902  0.625  0.287-   5 1.96  35 1.96   4 1.99
  88  0.000  0.750  0.352-   6 1.96  16 1.96   5 1.99
  89  0.000  0.750  0.435-   6 1.96  16 1.96   9 1.99
  90  0.848  0.625  0.393-   7 1.96  37 1.96   6 1.99
  91  0.152  0.625  0.393-  47 1.96  77 1.96   6 1.99
  92  0.750  0.750  0.458-   8 1.96  18 1.96   7 1.99
  93  0.750  0.750  0.542-   8 1.96  18 1.96  11 2.10
  94  0.098  0.625  0.500-   9 1.96  39 1.96  48 1.99
  95  0.902  0.625  0.500-   9 1.96  39 1.96   8 1.99
  96  0.000  0.750  0.566-  20 1.90  10 1.90   9 2.01
  97  0.999  0.750  0.649-  13 1.82  10 2.02  20 2.02
  98  0.850  0.625  0.607-  10 1.96  41 1.97  11 1.97
  99  0.150  0.625  0.607-  10 1.95  51 1.98  81 1.98
 100  0.753  0.751  0.672-  11 1.88  12 2.08  22 2.09
 101  0.749  0.749  0.755-  12 1.83  22 1.84
 102  0.094  0.625  0.719-  43 1.95  13 1.95  52 2.04
 103  0.906  0.624  0.720-  43 1.95  13 1.96  12 2.03
 104  0.750  0.000  0.245-  14 1.96  24 1.96
 105  0.750  0.000  0.328-  14 1.96  24 1.96  17 1.99
 106  0.098  0.875  0.287-   5 1.96  15 1.96  54 1.99
 107  0.902  0.875  0.287-   5 1.96  15 1.96  14 1.99
 108  0.000  0.000  0.352-  16 1.96  26 1.96  15 1.99
 109  0.000  0.000  0.435-  16 1.96  26 1.96  19 1.99
 110  0.848  0.875  0.393-   7 1.96  17 1.96  16 1.99
 111  0.152  0.875  0.393-  47 1.96  57 1.96  16 1.99
 112  0.750  0.000  0.458-  18 1.96  28 1.96  17 1.99
 113  0.750  0.000  0.542-  18 1.96  28 1.96  21 2.11
 114  0.098  0.875  0.500-   9 1.96  19 1.96  58 1.99
 115  0.902  0.875  0.500-   9 1.96  19 1.96  18 1.99
 116  0.000  1.000  0.566-  30 1.90  20 1.90  19 2.01
 117  1.000  1.000  0.649-  23 1.82  20 2.02  30 2.02
 118  0.850  0.875  0.607-  20 1.96  21 1.98  11 1.98
 119  0.150  0.875  0.607-  20 1.95  61 1.98  51 1.98
 120  0.750  1.000  0.672-  21 1.88  32 2.09  22 2.09
 121  0.750  1.000  0.756-  32 1.83  22 1.83
 122  0.094  0.875  0.719-  13 1.94  23 1.95  62 2.05
 123  0.906  0.875  0.720-  13 1.95  23 1.95  22 2.04
 124  0.750  0.250  0.245-  24 1.96  34 1.96
 125  0.750  0.250  0.328-  24 1.96  34 1.96  27 1.99
 126  0.098  0.125  0.287-  15 1.96  25 1.96  64 1.99
 127  0.902  0.125  0.287-  15 1.96  25 1.96  24 1.99
 128  0.000  0.250  0.352-  26 1.96  36 1.96  25 1.99
 129  0.000  0.250  0.435-  26 1.96  36 1.96  29 1.99
 130  0.848  0.125  0.393-  17 1.96  27 1.96  26 1.99
 131  0.152  0.125  0.393-  57 1.96  67 1.96  26 1.99
 132  0.750  0.250  0.458-  28 1.96  38 1.96  27 1.99
 133  0.750  0.250  0.542-  28 1.96  38 1.96  31 2.10
 134  0.098  0.125  0.500-  19 1.96  29 1.96  68 1.99
 135  0.902  0.125  0.500-  19 1.96  29 1.96  28 1.99
 136  0.000  0.250  0.566-  30 1.90  40 1.90  29 2.01
 137  0.999  0.250  0.649-  33 1.82  40 2.02  30 2.02
 138  0.850  0.125  0.607-  30 1.97  21 1.97  31 1.98
 139  0.149  0.125  0.607-  30 1.95  61 1.98  71 1.98
 140  0.752  0.250  0.672-  31 1.88  42 2.07  32 2.10
 141  0.749  0.251  0.755-  42 1.83  32 1.84
 142  0.094  0.125  0.719-  33 1.94  23 1.95  72 2.05
 143  0.906  0.125  0.719-  33 1.95  23 1.95  32 2.04
[...]
 229  0.500  0.500  0.435-  46 1.96  76 1.96  79 1.99
 230  0.348  0.375  0.393-  67 1.96  77 1.96  76 1.99
 231  0.652  0.375  0.393-  27 1.96  37 1.96  76 1.99
 232  0.250  0.500  0.458-  48 1.96  78 1.96  77 1.99
 233  0.250  0.500  0.542-  48 1.96  78 1.96  81 2.11
 234  0.598  0.375  0.500-  69 1.96  79 1.96  38 1.99
 235  0.402  0.375  0.500-  69 1.96  79 1.96  78 1.99
 236  0.500  0.500  0.566-  50 1.90  80 1.90  79 2.01
 237  0.499  0.500  0.650-  83 1.91  50 1.99  80 1.99
 238  0.349  0.375  0.607-  71 1.97  81 1.97  80 1.97
 239  0.650  0.375  0.608-  80 1.96  31 1.98  41 1.98
 240  0.250  0.500  0.672-  81 1.87  52 2.09  82 2.10
 241  0.251  0.500  0.756-  82 1.84  52 1.84
 242  0.596  0.372  0.715-  73 1.92  83 1.96  42 2.03
 243  0.406  0.374  0.718-  83 1.94  73 1.94  82 2.04

IMPORTANT INFORMATION: All symmetrisations will be switched off!
NOSYMM: (Re-)initialisation of all symmetry stuff for point group C_1.

                                     Primitive cell

  volume of cell :    4737.1735

  direct lattice vectors                    reciprocal lattice vectors
    13.061198858  0.000000000  0.000000000     0.076562650  0.000000000  0.000000000
     0.000000000 11.845266045  0.000000000     0.000000000  0.084421911  0.000000000
     0.000000000  0.000000000 30.619030317     0.000000000  0.000000000  0.032659427

  length of vectors
    13.061198858 11.845266045 30.619030317     0.076562650  0.084421911  0.032659427

  position of ions in fractional coordinates (direct lattice)
     0.509706508  0.550846622  0.801723411
     0.613399889  0.497049055  0.782830029
     0.536819371  0.492671430  0.782359263
     0.750000000  0.625000000  0.286714362
     0.000000000  0.750000000  0.286714362
     0.000000000  0.625000000  0.393357181
     0.750000000  0.750000000  0.393357181
     0.750000000  0.625000000  0.500000000
     0.000000000  0.750000000  0.500000000
     0.000436741  0.625054834  0.604472472
     0.750386817  0.750126797  0.610301398
     0.750778184  0.625893765  0.719283845
     0.999877768  0.750289182  0.708762741
     0.750000000  0.875000000  0.286714362
     0.000000000  0.000000000  0.286714362
     0.000000000  0.875000000  0.393357181
     0.750000000  0.000000000  0.393357181
     0.750000000  0.875000000  0.500000000
     0.000000000  0.000000000  0.500000000
     0.000111469  0.875025512  0.604522587
     0.749814054  0.000080575  0.610537837
     0.749646222  0.875112233  0.720200438
     0.000014971  0.999938576  0.708716497
     0.750000000  0.125000000  0.286714362
     0.000000000  0.250000000  0.286714362
     0.000000000  0.125000000  0.393357181
     0.750000000  0.250000000  0.393357181
     0.750000000  0.125000000  0.500000000
     0.000000000  0.250000000  0.500000000
     0.000327292  0.124950981  0.604512481
     0.750195349  0.249723959  0.610313370
     0.749486918  0.124409456  0.720225431
     0.999892439  0.249617705  0.708751743
     0.750000000  0.375000000  0.286714362
     0.000000000  0.500000000  0.286714362
     0.000000000  0.375000000  0.393357181
     0.750000000  0.500000000  0.393357181
     0.750000000  0.375000000  0.500000000
     0.000000000  0.500000000  0.500000000
     0.000270257  0.374976463  0.604466953
     0.750947056  0.499977761  0.610509390
     0.751252292  0.373592116  0.719401779
     0.000597591  0.500080229  0.708684882
     0.250000000  0.625000000  0.286714362
     0.500000000  0.750000000  0.286714362
     0.500000000  0.625000000  0.393357181
     0.250000000  0.750000000  0.393357181
     0.250000000  0.625000000  0.500000000
     0.500000000  0.750000000  0.500000000
     0.500466847  0.622767592  0.605654704
     0.250442071  0.749878821  0.610599403
     0.250288396  0.625199599  0.720347351
     0.500601204  0.750235065  0.707514527
     0.250000000  0.875000000  0.286714362
     0.500000000  0.000000000  0.286714362
     0.500000000  0.875000000  0.393357181
     0.250000000  0.000000000  0.393357181
     0.250000000  0.875000000  0.500000000
     0.500000000  0.000000000  0.500000000
     0.499890448  0.874081156  0.603497399
[...]
     0.500000000  0.500000000  0.435125836
     0.347917178  0.375000000  0.393357181
     0.652082822  0.375000000  0.393357181
     0.250000000  0.500000000  0.458231344
     0.250000000  0.500000000  0.541768656
     0.597917178  0.375000000  0.500000000
     0.402082822  0.375000000  0.500000000
     0.500166543  0.499817188  0.565701111
     0.498805016  0.500385534  0.649937461
     0.349433259  0.374932637  0.607332980
     0.650291201  0.374997096  0.607775438
     0.249991446  0.500438514  0.671914020
     0.251221241  0.499935740  0.755693254
     0.596208134  0.371503899  0.714771152
     0.406362467  0.373983088  0.718346087

  ion indices of the primitive-cell ions
   primitive index   ion index
                 1           1
                 2           2
                 3           3
                 4           4
                 5           5
                 6           6
                 7           7
                 8           8
                 9           9
                10          10
                11          11
                12          12
                13          13
                14          14
                15          15
                16          16
                17          17
                18          18
                19          19
                20          20
                21          21
                22          22
                23          23
                24          24
                25          25
                26          26
                27          27
                28          28
                29          29
                30          30
[...]
     0.000000000  0.000000000 30.619030317     0.000000000  0.000000000  0.032659427

  length of vectors
    13.061198858 11.845266045 30.619030317     0.076562650  0.084421911  0.032659427

 FORCES acting on ions
    electron-ion (+dipol)            ewald-force                    non-local-force                 convergence-correction
   0.351E+02 -.605E+02 -.340E+03   -.381E+02 0.659E+02 0.345E+03   0.313E+01 -.560E+01 -.496E+01   0.278E-03 -.229E-03 -.197E-01
   -.635E+02 -.196E+01 -.314E+03   0.706E+02 0.212E+01 0.314E+03   -.737E+01 -.181E+00 -.217E-01   0.395E-03 0.152E-03 -.200E-01
   0.594E+02 0.368E+02 -.182E+04   -.775E+02 -.686E+02 0.181E+04   0.162E+02 0.282E+02 0.127E+02   0.149E-02 0.217E-02 -.119E+00
   -.476E-01 -.906E-02 0.109E+04   0.450E-01 0.914E-02 -.109E+04   -.289E-03 0.306E-04 -.118E+01   0.169E-04 -.626E-05 0.505E-01
   -.167E-01 -.143E-01 0.116E+04   0.177E-01 0.144E-01 -.116E+04   0.257E-03 0.357E-04 -.174E+01   -.465E-05 -.105E-04 0.498E-01
   -.638E-01 -.220E-01 0.561E+03   0.681E-01 0.219E-01 -.561E+03   0.141E-02 0.178E-04 0.168E+00   0.299E-05 0.375E-05 0.246E-01
   -.124E+00 -.266E-01 0.558E+03   0.117E+00 0.269E-01 -.558E+03   -.158E-02 0.177E-03 -.159E+00   0.261E-04 -.693E-05 0.234E-01
   -.304E+00 -.115E+00 0.405E+01   0.273E+00 0.101E+00 -.357E+01   -.875E-02 -.740E-02 0.177E+00   0.622E-04 0.147E-04 -.971E-02
   -.347E+00 -.207E+00 0.337E+01   0.358E+00 0.209E+00 -.409E+01   0.220E-02 -.147E-02 -.648E-01   0.315E-04 0.674E-05 -.121E-01
   -.145E+01 -.692E+00 -.542E+03   0.143E+01 0.692E+00 0.542E+03   0.156E-01 -.396E-02 -.350E-01   0.548E-04 0.181E-04 -.390E-01
   -.163E+01 -.277E+01 -.550E+03   0.163E+01 0.277E+01 0.550E+03   -.108E-01 -.346E-02 0.524E-01   -.122E-04 0.187E-04 -.415E-01
   -.282E+02 -.713E+01 -.106E+04   0.280E+02 0.694E+01 0.106E+04   0.150E+00 0.601E-01 0.650E-01   -.284E-03 0.408E-04 -.663E-01
   -.162E+01 -.918E+00 -.110E+04   0.165E+01 0.899E+00 0.110E+04   -.364E-01 -.118E-01 0.657E+00   -.240E-04 -.182E-04 -.648E-01
   -.490E-01 -.111E-01 0.109E+04   0.462E-01 0.113E-01 -.109E+04   -.296E-03 0.941E-04 -.118E+01   0.601E-05 -.649E-05 0.505E-01
   -.159E-01 -.112E-02 0.116E+04   0.169E-01 0.118E-02 -.116E+04   0.254E-03 0.197E-04 -.174E+01   0.932E-06 -.443E-05 0.498E-01
   -.551E-01 -.279E-01 0.561E+03   0.593E-01 0.279E-01 -.561E+03   0.140E-02 0.619E-05 0.168E+00   0.910E-05 -.918E-05 0.246E-01
   -.138E+00 -.718E-02 0.557E+03   0.131E+00 0.703E-02 -.558E+03   -.175E-02 -.940E-04 -.160E+00   0.182E-04 -.227E-05 0.234E-01
   -.533E+00 -.195E+00 0.363E+01   0.509E+00 0.209E+00 -.315E+01   -.574E-02 0.774E-02 0.177E+00   0.422E-04 0.263E-04 -.969E-02
   -.263E+00 -.156E-01 0.313E+01   0.273E+00 0.149E-01 -.385E+01   0.271E-02 0.537E-04 -.663E-01   0.260E-04 -.956E-05 -.121E-01
   -.880E+00 -.521E+00 -.543E+03   0.871E+00 0.526E+00 0.543E+03   0.896E-02 -.588E-02 -.350E-01   0.531E-04 -.177E-04 -.390E-01
   -.879E+00 0.194E+00 -.555E+03   0.891E+00 -.197E+00 0.555E+03   -.210E-01 0.144E-02 0.573E-01   -.188E-04 -.120E-04 -.415E-01
   -.656E+01 -.614E+01 -.107E+04   0.654E+01 0.611E+01 0.107E+04   0.303E-01 0.898E-02 -.402E-01   -.958E-04 -.186E-03 -.669E-01
   -.178E+01 0.466E-01 -.110E+04   0.176E+01 -.453E-01 0.110E+04   0.217E-01 -.596E-03 0.684E+00   -.209E-04 -.404E-04 -.649E-01
   -.485E-01 0.905E-02 0.109E+04   0.458E-01 -.916E-02 -.109E+04   -.297E-03 -.575E-04 -.118E+01   0.115E-04 0.319E-06 0.505E-01
   -.167E-01 0.143E-01 0.116E+04   0.177E-01 -.144E-01 -.116E+04   0.263E-03 -.322E-04 -.174E+01   -.274E-05 0.149E-04 0.498E-01
   -.545E-01 0.219E-01 0.561E+03   0.588E-01 -.220E-01 -.561E+03   0.141E-02 -.709E-04 0.168E+00   0.119E-04 -.182E-05 0.246E-01
   -.118E+00 0.269E-01 0.557E+03   0.112E+00 -.272E-01 -.558E+03   -.155E-02 -.169E-03 -.159E+00   0.260E-04 0.657E-05 0.234E-01
   -.521E+00 0.148E+00 0.360E+01   0.497E+00 -.162E+00 -.312E+01   -.479E-02 -.788E-02 0.176E+00   0.353E-04 -.353E-04 -.970E-02
   -.340E+00 0.209E+00 0.335E+01   0.351E+00 -.211E+00 -.407E+01   0.289E-02 0.141E-02 -.643E-01   0.377E-04 -.465E-05 -.121E-01
   -.289E+00 0.509E+00 -.543E+03   0.266E+00 -.513E+00 0.543E+03   0.131E-01 0.604E-02 -.346E-01   0.556E-04 -.132E-04 -.391E-01
   -.190E+01 0.243E+01 -.550E+03   0.191E+01 -.242E+01 0.550E+03   -.127E-01 -.384E-02 0.465E-01   -.241E-04 -.160E-04 -.415E-01
   -.644E+01 0.572E+01 -.107E+04   0.642E+01 -.567E+01 0.107E+04   0.289E-01 -.865E-02 -.470E-01   -.623E-04 0.784E-04 -.670E-01
   -.143E+01 0.864E+00 -.110E+04   0.145E+01 -.842E+00 0.110E+04   -.339E-01 0.102E-01 0.656E+00   -.191E-04 0.426E-05 -.649E-01
   -.472E-01 0.111E-01 0.109E+04   0.446E-01 -.113E-01 -.109E+04   -.283E-03 -.697E-04 -.118E+01   0.144E-04 0.146E-04 0.505E-01
   -.175E-01 0.112E-02 0.116E+04   0.185E-01 -.118E-02 -.116E+04   0.264E-03 -.219E-04 -.174E+01   -.926E-05 0.172E-05 0.498E-01
   -.636E-01 0.280E-01 0.561E+03   0.680E-01 -.278E-01 -.561E+03   0.144E-02 0.333E-04 0.168E+00   0.333E-05 0.818E-05 0.246E-01
   -.103E+00 0.693E-02 0.558E+03   0.974E-01 -.675E-02 -.558E+03   -.158E-02 0.610E-04 -.159E+00   0.316E-04 0.301E-05 0.234E-01
   -.288E+00 0.163E+00 0.401E+01   0.256E+00 -.149E+00 -.353E+01   -.862E-02 0.776E-02 0.177E+00   0.546E-04 -.606E-05 -.971E-02
   -.368E+00 0.147E-01 0.363E+01   0.381E+00 -.145E-01 -.435E+01   0.135E-02 -.111E-03 -.658E-01   0.383E-04 0.110E-04 -.121E-01
   -.150E+01 0.729E+00 -.542E+03   0.149E+01 -.730E+00 0.542E+03   0.112E-01 0.288E-02 -.337E-01   0.458E-04 0.143E-04 -.390E-01
   -.164E+01 -.209E-01 -.547E+03   0.166E+01 0.202E-01 0.547E+03   -.361E-01 0.101E-02 0.577E-01   -.286E-04 0.573E-05 -.415E-01
   -.279E+02 0.655E+01 -.106E+04   0.278E+02 -.632E+01 0.106E+04   0.116E+00 -.800E-01 0.620E-01   -.259E-03 0.503E-04 -.664E-01
   -.291E+01 0.425E-01 -.109E+04   0.287E+01 -.472E-01 0.109E+04   0.311E-01 0.188E-02 0.619E+00   0.348E-05 0.554E-04 -.648E-01
   0.480E-01 -.793E-02 0.109E+04   -.454E-01 0.791E-02 -.109E+04   0.286E-03 0.173E-05 -.118E+01   -.637E-06 -.146E-05 0.505E-01
   0.163E-01 -.122E-01 0.116E+04   -.173E-01 0.125E-01 -.116E+04   -.264E-03 0.119E-03 -.174E+01   -.111E-05 -.203E-04 0.498E-01
   0.544E-01 0.178E-01 0.561E+03   -.587E-01 -.968E-02 -.561E+03   -.143E-02 0.218E-02 0.175E+00   -.158E-04 0.106E-04 0.246E-01
   0.133E+00 -.135E-01 0.557E+03   -.126E+00 0.138E-01 -.558E+03   0.163E-02 0.667E-04 -.156E+00   -.249E-04 -.794E-05 0.234E-01
   0.616E+00 -.445E-01 0.341E+01   -.581E+00 0.355E-01 -.289E+01   0.722E-02 -.467E-02 0.191E+00   -.595E-04 0.197E-04 -.966E-02
   0.218E+00 -.194E+00 0.497E+01   -.227E+00 0.139E+00 -.556E+01   -.523E-02 0.846E-02 -.689E-01   -.339E-04 0.457E-04 -.121E-01
   0.135E+01 -.378E+01 -.538E+03   -.138E+01 0.394E+01 0.538E+03   0.260E-01 -.976E-01 -.272E-01   -.197E-04 -.335E-04 -.390E-01
   0.426E+01 -.202E+01 -.554E+03   -.427E+01 0.201E+01 0.554E+03   -.548E-02 0.805E-02 0.639E-01   -.285E-04 0.184E-04 -.415E-01
   0.142E+02 -.531E+01 -.107E+04   -.143E+02 0.530E+01 0.107E+04   0.462E-01 0.294E-02 -.714E-01   0.312E-03 -.728E-04 -.668E-01
   0.847E+01 -.220E+02 -.108E+04   -.839E+01 0.221E+02 0.108E+04   -.122E+00 -.261E-01 0.761E+00   -.398E-04 -.230E-03 -.638E-01
   0.493E-01 -.987E-02 0.109E+04   -.466E-01 0.100E-01 -.109E+04   0.287E-03 0.861E-04 -.118E+01   -.155E-04 -.691E-05 0.505E-01
   0.156E-01 -.182E-02 0.116E+04   -.165E-01 0.185E-02 -.116E+04   -.258E-03 0.376E-05 -.174E+01   0.830E-05 -.375E-05 0.498E-01
   0.462E-01 -.381E-02 0.561E+03   -.504E-01 0.487E-02 -.561E+03   -.141E-02 -.386E-03 0.176E+00   -.286E-05 0.488E-05 0.246E-01
   0.147E+00 -.698E-02 0.557E+03   -.140E+00 0.688E-02 -.558E+03   0.171E-02 -.107E-04 -.156E+00   -.225E-04 -.341E-05 0.234E-01
   0.781E+00 -.830E-01 0.321E+01   -.757E+00 0.845E-01 -.270E+01   0.692E-02 0.333E-03 0.190E+00   -.464E-04 0.734E-05 -.964E-02
   0.820E-01 -.584E-01 0.554E+01   -.924E-01 0.592E-01 -.628E+01   -.223E-02 -.152E-02 -.126E+00   -.214E-04 0.205E-05 -.120E-01
   0.123E-01 -.412E+01 -.533E+03   -.339E-01 0.418E+01 0.533E+03   0.191E-01 -.237E-01 -.149E+00   -.165E-04 0.201E-04 -.388E-01
[...]
   -.250E+02 0.120E-01 0.838E+03   0.293E+02 -.128E-01 -.838E+03   -.350E+01 0.904E-03 0.181E+00   0.703E-04 0.258E-04 0.376E-01
   0.251E+02 0.221E-01 0.838E+03   -.294E+02 -.229E-01 -.839E+03   0.351E+01 0.964E-03 0.189E+00   -.104E-03 0.448E-05 0.376E-01
   0.413E+00 0.319E-01 0.355E+03   -.392E+00 -.322E-01 -.359E+03   -.243E-01 0.736E-03 0.413E+01   -.784E-04 0.420E-05 0.710E-02
   0.187E+01 0.187E+00 -.350E+03   -.183E+01 -.187E+00 0.358E+03   -.464E-01 -.171E-02 -.696E+01   -.111E-03 0.161E-04 -.329E-01
   -.242E+02 -.866E-01 0.802E+01   0.293E+02 0.808E-01 -.823E+01   -.502E+01 0.234E-01 0.272E+00   0.143E-03 -.246E-04 -.150E-01
   0.248E+02 -.150E+00 0.772E+01   -.299E+02 0.142E+00 -.791E+01   0.507E+01 0.270E-01 0.255E+00   -.236E-03 -.254E-04 -.150E-01
   0.649E+00 0.130E+00 -.464E+03   -.694E+00 -.207E+00 0.457E+03   0.404E-01 0.688E-01 0.675E+01   -.334E-04 0.302E-04 -.427E-01
   0.881E+01 -.962E+00 -.115E+04   -.933E+01 0.102E+01 0.115E+04   0.458E+00 -.557E-01 -.169E+01   -.949E-04 0.274E-04 -.710E-01
   -.734E+01 0.203E+01 -.814E+03   0.111E+02 -.218E+01 0.813E+03   -.337E+01 0.138E+00 0.109E+01   -.944E-03 0.560E-04 -.587E-01
   0.868E+01 0.270E+01 -.814E+03   -.118E+02 -.274E+01 0.813E+03   0.276E+01 0.447E-01 0.657E+00   0.831E-03 0.707E-04 -.589E-01
   0.142E+02 -.587E+00 -.129E+04   -.142E+02 0.587E+00 0.129E+04   -.224E-01 -.172E-02 -.206E+01   0.222E-03 0.108E-03 -.788E-01
   0.368E+02 0.784E+00 -.189E+04   -.367E+02 -.845E+00 0.191E+04   -.140E+00 0.553E-01 -.196E+02   0.115E-02 0.309E-03 -.114E+00
   -.147E+02 0.455E+02 -.158E+04   0.214E+02 -.453E+02 0.158E+04   -.599E+01 -.244E+00 -.631E+00   0.645E-03 0.701E-04 -.972E-01
   0.320E+02 0.320E+02 -.163E+04   -.388E+02 -.321E+02 0.164E+04   0.609E+01 0.149E+00 -.301E+01   -.599E-03 0.449E-03 -.990E-01
   -.107E+02 -.270E+02 0.789E+02   0.247E-11 0.131E-11 0.198E-10   0.886E+01 0.232E+02 -.710E+02   0.143E-02 0.207E-02 -.265E+01

 POSITION                                       TOTAL-FORCE (eV/Angst)
      6.65738      6.52492     24.54799         0.241048     -0.460902     -0.413792
      8.01174      5.88768     23.96950        -0.611380     -0.027535     -0.054794
      7.01150      5.83582     23.95508         0.369360      0.493667      0.252773
      9.79590      7.40329      8.77892        -0.003064      0.000086     -3.824080
      0.00000      8.88395      8.77892         0.001162      0.000092      3.356136
      0.00000      7.40329     12.04422         0.005819     -0.000145      0.555633
      9.79590      8.88395     12.04422        -0.008637      0.000519     -0.843348
      9.79590      7.40329     15.30952        -0.040236     -0.022713      0.671530
      0.00000      8.88395     15.30952         0.014169      0.000628     -0.839198
      0.00570      7.40394     18.50836         0.015689     -0.002888      0.000515
      9.80095      8.88545     18.68684         0.001605     -0.000441      0.049798
      9.80606      7.41388     22.02377        -0.029564     -0.025833     -0.236265
     13.05960      8.88737     21.70163         0.006824     -0.000496     -0.092014
      9.79590     10.36461      8.77892        -0.003219      0.000234     -3.824189
      0.00000      0.00000      8.77892         0.001157      0.000053      3.355913
      0.00000     10.36461     12.04422         0.005701     -0.000039      0.555638
      9.79590      0.00000     12.04422        -0.009052     -0.000289     -0.844146
      9.79590     10.36461     15.30952        -0.030557      0.022493      0.672692
      0.00000      0.00000     15.30952         0.013326     -0.000721     -0.838121
      0.00146     10.36491     18.50990         0.009504      0.000285      0.000147
      9.79347      0.00095     18.69408        -0.005464      0.002204      0.058389
      9.79128     10.36594     22.05184        -0.004079     -0.006777     -0.251024
      0.00020     11.84454     21.70021         0.005874      0.000754     -0.096159
      9.79590      1.48066      8.77892        -0.003184     -0.000206     -3.824345
      0.00000      2.96132      8.77892         0.001179     -0.000143      3.355957
      0.00000      1.48066     12.04422         0.005757     -0.000179      0.555495
      9.79590      2.96132     12.04422        -0.008353     -0.000577     -0.843691
      9.79590      1.48066     15.30952        -0.029707     -0.023559      0.671260
      0.00000      2.96132     15.30952         0.014578     -0.000106     -0.839164
      0.00427      1.48008     18.50959         0.009441      0.000529      0.000509
      9.79845      2.95805     18.68720         0.001854      0.000870      0.051414
      9.78920      1.47366     22.05260        -0.002466      0.006881     -0.253245
     13.05979      2.95679     21.70129         0.004060      0.000635     -0.091792
      9.79590      4.44197      8.77892        -0.003038     -0.000218     -3.824239
      0.00000      5.92263      8.77892         0.001201     -0.000110      3.356177
      0.00000      4.44197     12.04422         0.005919      0.000237      0.555511
      9.79590      5.92263     12.04422        -0.007986      0.000228     -0.842764
      9.79590      4.44197     15.30952        -0.040842      0.023527      0.672188
      0.00000      5.92263     15.30952         0.014694      0.000049     -0.838366
      0.00353      4.44170     18.50819         0.011244      0.001795      0.001024
      9.80827      5.92237     18.69321         0.009120     -0.000605      0.069252
      9.81226      4.42530     22.02738        -0.034551      0.029149     -0.239265
      0.00781      5.92358     21.69924        -0.002063     -0.000321     -0.079927
      3.26530      7.40329      8.77892         0.002828     -0.000039     -3.821560
      6.53060      8.88395      8.77892        -0.001425      0.000419      3.363000
      6.53060      7.40329     12.04422        -0.005969      0.010834      0.579187
      3.26530      8.88395     12.04422         0.008326      0.000342     -0.825305
      3.26530      7.40329     15.30952         0.042072     -0.014178      0.726678
      6.53060      8.88395     15.30952        -0.015066     -0.048511     -0.707031
      6.53670      7.37685     18.54456         0.010351     -0.005847     -0.000563
      3.27107      8.88251     18.69596         0.005311     -0.003464      0.058134
      3.26907      7.40566     22.05634         0.002629     -0.002343     -0.251029
      6.53845      8.88673     21.66341         0.014369      0.004585     -0.067115
      3.26530     10.36461      8.77892         0.002961      0.000235     -3.821746
      6.53060      0.00000      8.77892        -0.001378      0.000003      3.363141
      6.53060     10.36461     12.04422        -0.005871      0.000772      0.582706
      3.26530      0.00000     12.04422         0.008751     -0.000151     -0.826146
      3.26530     10.36461     15.30952         0.030786      0.002149      0.718232
      6.53060      0.00000     15.30952        -0.013207     -0.000766     -0.900961
      6.52917     10.35372     18.47851         0.000139     -0.008735      0.015524
[...]
      6.53060      5.92263     13.32313         0.002002     -0.000810     -0.293716
      4.54422      4.44197     12.04422         0.289674      0.000252      0.056520
      8.51698      4.44197     12.04422        -0.283332      0.000345      0.058870
      3.26530      5.92263     14.03060        -0.007369      0.000484      0.080179
      3.26530      5.92263     16.58843        -0.018938     -0.001502     -0.243655
      7.80952      4.44197     15.30952        -0.654468      0.021797      0.087529
      5.25168      4.44197     15.30952         0.683825      0.023689      0.085770
      6.53277      5.92047     17.32122         0.001017      0.001630      0.199102
      6.51499      5.92720     19.90045         0.010200     -0.006448     -0.130543
      4.56402      4.44118     18.59595        -0.106752      0.007283      0.033050
      8.49358      4.44194     18.60949         0.095275      0.006116      0.018924
      3.26519      5.92783     20.57336        -0.003099     -0.001906      0.048081
      3.28125      5.92187     23.13859        -0.004167      0.002606     -0.236231
      7.78719      4.40056     21.88560        -0.210286      0.016131     -0.002461
      5.30758      4.42993     21.99506         0.212556      0.028686     -0.054049
    total drift:                                0.028779      0.006444      0.085137

  FREE ENERGIE OF THE ION-ELECTRON SYSTEM (eV)
  free  energy   TOTEN  =     -2635.23227787 eV

  energy  without entropy=    -2635.23227787  energy(sigma->0) =    -2635.23227787