 vasp.6.3.0 20Jan22 (build Mar 11 2022 13:48:16) complex

 executed on             LinuxIFC date 2024.02.25  05:31:30

 INCAR:
   SYSTEM = Oxide-Surface
   ISMEAR = 0
   SIGMA = 0.05
   EDIFF = 1E-5
   ALGO = ALL
   ISTART = 0
   IBRION = -1
   NSW = 0
   ISYM = 0
   DIPOL = 0.5 0.5 0.5
   IDIPOL = 3
   LDIPOL = .TRUE.
   GGA = MK
   LUSE_VDW = .TRUE.
   PARAM1 = 0.1234
   PARAM2 = 0.711357
   ZAB_VDW = -1.8867
   AGGAC = 0.0
   ENCUT = 600
   PREC = Accurate
   LASPH = .TRUE.
   LREAL = .FALSE.
   ISPIN = 1
   NELM = 200
   NELMIN = 8
   NCORE = 19
   KPAR = 1
   LWAVE = .FALSE.
   LCHARG = .FALSE.

 POTCAR:    PAW_PBE N 08Apr2002
 POTCAR:    PAW_PBE H 15Jun2001
 POTCAR:    PAW_PBE Ti_pv 07Sep2000
 POTCAR:    PAW_PBE O 08Apr2002
|               ----> ADVICE to this user running VASP <----                  |
|     You have switched on vdW-DFT.                                           |
|     This routine was written and supplied by Jiri Klimes. We recommend      |
|     that you carefully read and cite the following publications:            |
|       J. Klimes, D.R. Bowler, A. Michelides                                 |
|          J. Phys.: Cond Matt. 22 022201 (2010)                              |
|       J. Klimes, D.R. Bowler, A. Michelides                                 |
|          Phys. Rev. B. 83, 195131 (2011)                                    |
|     and references therein.                                                 |

   TITEL  = PAW_PBE N 08Apr2002
   POMASS =   14.001; ZVAL   =    5.000    mass and valenz
   ENMAX  =  400.000; ENMIN  =  300.000 eV

   TITEL  = PAW_PBE H 15Jun2001
   POMASS =    1.000; ZVAL   =    1.000    mass and valenz
   ENMAX  =  250.000; ENMIN  =  200.000 eV

   TITEL  = PAW_PBE Ti_pv 07Sep2000
   POMASS =   47.880; ZVAL   =   10.000    mass and valenz
   ENMAX  =  222.335; ENMIN  =  166.751 eV

   TITEL  = PAW_PBE O 08Apr2002
   POMASS =   16.000; ZVAL   =    6.000    mass and valenz
   ENMAX  =  400.000; ENMIN  =  300.000 eV

  PAW_PBE N 08Apr2002                   :
  PAW_PBE H 15Jun2001                   :
  PAW_PBE Ti_pv 07Sep2000               :
  PAW_PBE O 08Apr2002                   :

 POSCAR:  N  H Ti  O
  positions in direct lattice
 exchange correlation table for  LEXCH =       43
   RHO(1)=    0.500       N(1)  =     2000
   RHO(2)=  100.500       N(2)  =     4000

 ion  position               nearest neighbor table
   1  0.612  0.500  0.778-   2 1.02   4 1.02   3 1.02  52 2.30
   2  0.549  0.500  0.807-   1 1.02
   3  0.671  0.428  0.781-   1 1.02
   4  0.671  0.572  0.781-   1 1.02
   5  0.808  0.833  0.295-  89 1.94  55 1.94  57 1.94  54 1.99  56 1.99  22 3.05   8 3.05   6 3.05

   6  0.592  0.667  0.327-  53 1.94 120 1.94  56 1.94  58 1.94  57 1.99  59 1.99  37 3.05   7 3.05
                             5 3.05  11 3.08
   7  0.308  0.667  0.295- 125 1.94  59 1.94  61 1.94  53 1.99  60 1.99  40 3.05   6 3.05   8 3.05

   8  0.092  0.833  0.327-  54 1.94  92 1.94  60 1.94  62 1.94  61 1.99  55 1.99  23 3.05   5 3.05
                             7 3.05   9 3.08
   9  0.944  0.833  0.423-  63 1.92  97 1.93  65 1.93  55 1.98  64 1.98  62 2.00  12 3.00  10 3.05
                            26 3.05   8 3.08
  10  0.726  0.666  0.451-  58 1.89 128 1.93  64 1.94  66 1.96  67 1.99  65 2.00  11 3.01   9 3.05
                            41 3.05  15 3.11
  11  0.444  0.666  0.423-  67 1.93 133 1.93  69 1.94  59 1.97  68 1.98  58 2.01  10 3.01  12 3.05
                            44 3.05   6 3.08
  12  0.225  0.833  0.452-  62 1.89 100 1.94  68 1.94  70 1.97  63 1.98  69 2.01   9 3.00  27 3.05
                            11 3.05  13 3.11
  13  0.085  0.833  0.550-  71 1.92 105 1.93  73 1.93  72 1.97  63 2.00  70 2.01  16 2.95  14 3.04
                            30 3.05  12 3.11
  14  0.865  0.666  0.576-  66 1.86 136 1.93  72 1.95  75 1.95  73 2.01  74 2.01  15 2.97  13 3.04
                            45 3.06  19 3.17
  15  0.584  0.666  0.550- 141 1.93  77 1.93  75 1.93  76 1.98  67 1.98  66 2.01  14 2.97  16 3.05
                            48 3.06  10 3.11
  16  0.363  0.833  0.576-  70 1.86 108 1.94  76 1.94  71 1.95  78 2.00  77 2.02  13 2.95  15 3.05
                            31 3.05
  17  0.231  0.833  0.680-  79 1.86  81 1.93 113 1.94  80 2.00  71 2.09  78 2.10  20 2.85  34 3.07
                            18 3.08
  18  0.001  0.666  0.700-  74 1.78  82 1.84 144 1.97  80 1.99  81 2.07  19 2.86  17 3.08  49 3.10

[...]

  21  0.808  0.167  0.295-  89 1.94  87 1.94 121 1.94  86 1.99  88 1.99  22 3.05  24 3.05  38 3.05

[...]

  37  0.808  0.500  0.295-  57 1.94 121 1.94 119 1.94 120 1.99 118 1.99   6 3.05  38 3.05  40 3.05

  38  0.592  0.333  0.327- 117 1.94 120 1.94  88 1.94 122 1.94 121 1.99 123 1.99  37 3.05  39 3.05
                            21 3.05  43 3.08
  39  0.308  0.333  0.295- 125 1.94 123 1.94  93 1.94 124 1.99 117 1.99  40 3.05  38 3.05  24 3.05

  40  0.092  0.500  0.327- 118 1.94  60 1.94 124 1.94 126 1.94 125 1.99 119 1.99  39 3.05   7 3.05
                            37 3.05  41 3.07
  41  0.946  0.500  0.422- 127 1.92  65 1.94 129 1.94 119 1.97 126 1.99 128 2.00  44 2.99  10 3.05
                            42 3.05  40 3.07
  42  0.726  0.334  0.451- 122 1.89 128 1.93  96 1.94 130 1.96 131 1.99 129 2.00  43 3.01  25 3.05
                            41 3.05  47 3.11
  43  0.444  0.334  0.423- 131 1.93 133 1.93 101 1.94 123 1.97 132 1.98 122 2.01  42 3.01  28 3.05
                            44 3.05  38 3.08
  44  0.226  0.500  0.453- 126 1.92  68 1.94 132 1.94 127 1.96 134 1.97 133 2.01  41 2.99  11 3.05
                            43 3.05  45 3.08
  45  0.088  0.500  0.550- 135 1.91 137 1.93  73 1.93 134 1.98 136 2.00 127 2.01  48 2.96  14 3.06
                            46 3.06  44 3.08
  46  0.865  0.334  0.576- 130 1.86 136 1.93 104 1.95 139 1.95 137 2.01 138 2.01  47 2.97  29 3.04
                            45 3.06  51 3.17
  47  0.584  0.334  0.550- 141 1.93 109 1.93 139 1.93 140 1.98 131 1.98 130 2.01  46 2.97  32 3.05
                            48 3.06  42 3.11
  48  0.365  0.500  0.580- 134 1.92  76 1.94 140 1.94 135 1.94 142 1.98 141 2.03  45 2.96  15 3.06
                            47 3.06  49 3.13
  49  0.235  0.500  0.681- 143 1.86 145 1.93  81 1.93 142 2.03 144 2.03 135 2.10  52 2.87  18 3.10
                            50 3.10  48 3.13
  50  0.001  0.334  0.700- 138 1.78 146 1.84 144 1.97 112 1.99 145 2.07  51 2.86  33 3.08  49 3.10

  51  0.729  0.333  0.678- 146 1.89 148 1.93 116 1.94 147 1.99 139 2.04 138 2.10  50 2.86  36 3.08
                            52 3.08  46 3.17
  52  0.506  0.500  0.706- 143 1.84 142 1.88  83 1.98 147 1.98 148 2.07   1 2.30  49 2.87  19 3.08
                            51 3.08
  53  0.488  0.667  0.269-   6 1.94   7 1.99
  54  0.988  0.833  0.269-   8 1.94   5 1.99
  55  0.911  0.833  0.353-   5 1.94   9 1.98   8 1.99
  56  0.627  0.833  0.321-  22 1.94   6 1.94   5 1.99
  57  0.772  0.667  0.300-  37 1.94   5 1.94   6 1.99
  58  0.624  0.667  0.395-  10 1.89   6 1.94  11 2.01
  59  0.411  0.667  0.353-   7 1.94  11 1.97   6 1.99
  60  0.127  0.667  0.321-  40 1.94   8 1.94   7 1.99
  61  0.272  0.833  0.300-  23 1.94   7 1.94   8 1.99
  62  0.124  0.833  0.395-  12 1.89   8 1.94   9 2.00
  63  0.049  0.833  0.480-   9 1.92  12 1.98  13 2.00
  64  0.764  0.833  0.448-  26 1.94  10 1.94   9 1.98
  65  0.909  0.667  0.427-   9 1.93  41 1.94  10 2.00
  66  0.763  0.666  0.520-  14 1.86  10 1.96  15 2.01
  67  0.549  0.666  0.480-  11 1.93  15 1.98  10 1.99
  68  0.264  0.667  0.448-  44 1.94  12 1.94  11 1.98
  69  0.408  0.833  0.427-  27 1.93  11 1.94  12 2.01
  70  0.263  0.833  0.521-  16 1.86  12 1.97  13 2.01
  71  0.192  0.833  0.607-  13 1.92  16 1.95  17 2.09
  72  0.903  0.833  0.573-  30 1.94  14 1.95  13 1.97
  73  0.050  0.667  0.553-  13 1.93  45 1.93  14 2.01
  74  0.913  0.667  0.645-  18 1.78  14 2.01  19 2.10
  75  0.693  0.668  0.606-  15 1.93  14 1.95  19 2.04
  76  0.404  0.667  0.575-  48 1.94  16 1.94  15 1.98
  77  0.549  0.833  0.553-  15 1.93  31 1.93  16 2.02
  78  0.412  0.836  0.646-  20 1.78  16 2.00  17 2.10
  79  0.347  0.833  0.732-  20 1.84  17 1.86
  80  0.052  0.833  0.709-  34 1.98  18 1.99  17 2.00
  81  0.195  0.666  0.681-  17 1.93  49 1.93  18 2.07
  82  0.843  0.664  0.731-  18 1.84  19 1.89
  83  0.553  0.669  0.707-  20 1.96  52 1.98  19 1.99
  84  0.696  0.834  0.679-  35 1.93  19 1.94  20 2.06
  85  0.488  0.000  0.269-  22 1.94  23 1.99
  86  0.988  0.167  0.269-  24 1.94  21 1.99
  87  0.911  0.167  0.353-  21 1.94  25 1.98  24 1.99
  88  0.627  0.167  0.321-  22 1.94  38 1.94  21 1.99
  89  0.772  0.000  0.300-   5 1.94  21 1.94  22 1.99
  90  0.624  0.000  0.395-  26 1.89  22 1.94  27 2.01
  91  0.411  0.000  0.353-  23 1.94  27 1.98  22 1.99
  92  0.127  0.000  0.321-   8 1.94  24 1.94  23 1.99
  93  0.272  0.167  0.300-  23 1.94  39 1.94  24 1.99
  94  0.124  0.167  0.395-  28 1.89  24 1.94  25 2.00
  95  0.049  0.167  0.480-  25 1.92  28 1.98  29 2.00
  96  0.764  0.167  0.448-  26 1.94  42 1.94  25 1.98
  97  0.909  0.000  0.427-  25 1.93   9 1.93  26 2.00
  98  0.763  0.000  0.520-  30 1.86  26 1.97  31 2.01
  99  0.549  1.000  0.480-  27 1.92  26 1.98  31 2.00
 100  0.264  0.000  0.448-  12 1.94  28 1.94  27 1.99
 101  0.408  0.167  0.427-  27 1.93  43 1.94  28 2.01
 102  0.263  0.167  0.521-  32 1.86  28 1.97  29 2.01
 103  0.192  0.167  0.607-  29 1.92  32 1.95  33 2.09
 104  0.903  0.167  0.573-  30 1.94  46 1.95  29 1.97
 105  0.051  0.000  0.553-  13 1.93  29 1.93  30 2.03
 106  0.913  0.000  0.646-  34 1.78  30 2.01  35 2.08
 107  0.693  1.000  0.606-  31 1.92  30 1.94  35 2.10
 108  0.403  0.000  0.573-  32 1.94  16 1.94  31 1.98
 109  0.549  0.167  0.553-  47 1.93  31 1.93  32 2.02
 110  0.412  0.164  0.646-  36 1.78  32 2.00  33 2.10
 111  0.347  0.167  0.732-  36 1.84  33 1.86
 112  0.052  0.167  0.709-  34 1.98  50 1.99  33 2.00
[...]
 134  0.265  0.500  0.522-  48 1.92  44 1.97  45 1.98
 135  0.192  0.500  0.607-  45 1.91  48 1.94  49 2.10
 136  0.903  0.500  0.573-  46 1.93  14 1.93  45 2.00
 137  0.050  0.333  0.553-  29 1.93  45 1.93  46 2.01
 138  0.913  0.333  0.645-  50 1.78  46 2.01  51 2.10
 139  0.693  0.332  0.606-  47 1.93  46 1.95  51 2.04
 140  0.404  0.333  0.575-  48 1.94  32 1.94  47 1.98
 141  0.550  0.500  0.554-  47 1.93  15 1.93  48 2.03
 142  0.412  0.500  0.648-  52 1.88  48 1.98  49 2.03
 143  0.345  0.500  0.734-  52 1.84  49 1.86
 144  0.052  0.500  0.709-  18 1.97  50 1.97  49 2.03
 145  0.195  0.334  0.681-  33 1.93  49 1.93  50 2.07
 146  0.843  0.336  0.731-  50 1.84  51 1.89
 147  0.553  0.331  0.707-  36 1.96  52 1.98  51 1.99
 148  0.693  0.500  0.678-  19 1.93  51 1.93  52 2.07

IMPORTANT INFORMATION: All symmetrisations will be switched off!
NOSYMM: (Re-)initialisation of all symmetry stuff for point group C_1.

                                     Primitive cell

  volume of cell :    3260.9117

  direct lattice vectors                    reciprocal lattice vectors
    10.273755933  0.000000000  0.000000000     0.097335386 -0.000000000  0.000000000
     0.000000000 11.368810418  0.000000000     0.000000000  0.087959950  0.000000000
[...]
   5.01562901  7.57920695  7.50000000
  10.15250698  9.47400868  7.50000000
   9.36380511  9.47400868  9.85154599
   6.44590546  9.47400868  8.97095207
   7.93352867  7.57920695  8.38059392
   6.41347169  7.57920695 11.02237567
   4.22692715  7.57920695  9.85154599
   1.30902750  7.57920695  8.97095207
[...]
   2.71792269  5.68440516 14.56626219
   1.97059349  5.68440527 16.95775644
   9.28176223  5.68440522 16.00703138
   0.51819028  3.79141861 15.43874365
   9.38324977  3.78625901 18.01613214
   7.12329316  3.77877098 16.91525472
   4.15002775  3.79018648 16.04302840
   5.64888932  5.68440516 15.46029830
   4.23094854  5.68440532 18.10182796
   3.53954459  5.68440518 20.49290616
   0.53179320  5.68440525 19.78818984
   2.00219822  3.79373587 19.00564382
   8.65666597  3.82129212 20.40772150
   5.68077008  3.76119158 19.74360085
   7.11905774  5.68440515 18.92853474

--------------------------------------- Iteration      FINAL  ---------------------------------------

--------------------OUTCAR has been truncated-------------------------

[...]

--------------------OUTCAR has been truncated-------------------------

  FORCE on cell =-STRESS in cart. coord.  units (eV):
  Direction    XX          YY          ZZ          XY          YZ          ZX
  Alpha Z  2442.80598  2442.80598  2442.80598
  Ewald  486179.11009479644.41182************     0.00015    -0.00012 -1841.39413
  Hartree507394.52772503409.88623************     0.00004    -0.00009 -1229.38494
  E(xc)   -5191.21993 -5191.75457 -5190.49159     0.00000    -0.00000    -0.39235
  Local  ************************************    -0.00016     0.00025  3070.01674
  n-local -3321.03587 -3287.99715 -3330.71920    -0.00001     0.00004     2.25924
  augment  3148.71608  3146.42158  3139.56484    -0.00005    -0.00001    -0.32273
  Kinetic 17135.04120 17191.53553 17249.30593    -0.00001    -0.00002    -7.29587
  Fock        0.00000     0.00000     0.00000     0.00000     0.00000     0.00000
  Total     -35.09718    -3.07469    -5.00180    -0.00004     0.00004    -6.51403
  in kB     -17.24423    -1.51068    -2.45752    -0.00002     0.00002    -3.20052

 VOLUME and BASIS-vectors are now :
  energy-cutoff  :      600.00
  volume of cell :     3260.91
      direct lattice vectors                 reciprocal lattice vectors
    10.273755933  0.000000000  0.000000000     0.097335386 -0.000000000  0.000000000
     0.000000000 11.368810418  0.000000000     0.000000000  0.087959950  0.000000000
     0.000000000  0.000000000 27.918672987     0.000000000  0.000000000  0.035818321

  length of vectors
    10.273755933 11.368810418 27.918672987     0.097335386  0.087959950  0.035818321

 FORCES acting on ions:
    Electron-Ion                     Ewald-Force                    Non-Local-Force
   -.152E+02 -.238E-05 -.176E+04   0.549E+01 0.133E-05 0.174E+04   0.955E+01 0.890E-07 0.180E+02
   0.426E+02 -.555E-07 -.371E+03   -.475E+02 0.264E-06 0.377E+03   0.478E+01 0.705E-07 -.559E+01
   -.419E+02 0.547E+02 -.355E+03   0.463E+02 -.607E+02 0.355E+03   -.439E+01 0.592E+01 -.384E+00
   -.419E+02 -.547E+02 -.355E+03   0.463E+02 0.607E+02 0.355E+03   -.439E+01 -.592E+01 -.384E+00
   0.644E+01 -.414E-01 0.337E+04   -.161E+01 0.412E-01 -.337E+04   -.104E+01 0.620E-05 -.311E+01
   0.488E+01 -.113E+00 0.277E+04   -.640E+01 0.114E+00 -.277E+04   -.115E+00 -.785E-03 -.108E+00
   0.639E+01 0.139E+00 0.337E+04   -.158E+01 -.144E+00 -.337E+04   -.103E+01 0.143E-02 -.311E+01
   0.359E+01 0.524E-01 0.277E+04   -.516E+01 -.599E-01 -.277E+04   -.108E+00 0.141E-02 -.113E+00
   -.716E+00 0.510E-01 0.126E+04   0.537E+00 -.517E-01 -.126E+04   0.180E+00 -.201E-03 0.200E-01
   0.369E+00 -.138E+01 0.800E+03   -.289E+00 0.137E+01 -.800E+03   -.458E-01 0.154E-01 -.152E+00
   0.866E+00 -.347E+00 0.126E+04   -.103E+01 0.344E+00 -.126E+04   0.173E+00 0.718E-02 0.989E-03
   -.521E+01 0.168E+00 0.793E+03   0.530E+01 -.172E+00 -.793E+03   -.311E-01 0.321E-02 -.158E+00
   -.509E+01 -.237E+01 -.779E+03   0.480E+01 0.235E+01 0.779E+03   0.304E+00 0.105E-01 0.120E+00
   -.112E+02 -.494E+01 -.117E+04   0.115E+02 0.495E+01 0.117E+04   -.114E+00 -.775E-03 -.237E+00
   0.116E+01 -.167E+01 -.755E+03   -.142E+01 0.167E+01 0.755E+03   0.268E+00 0.110E-02 0.919E-01
   -.211E+01 -.862E+00 -.119E+04   0.234E+01 0.872E+00 0.119E+04   -.123E+00 -.146E-01 -.291E+00
   0.278E+02 -.109E+02 -.279E+04   -.288E+02 0.109E+02 0.279E+04   0.951E+00 0.526E-02 -.740E-01
   -.868E+02 -.215E+02 -.318E+04   0.872E+02 0.213E+02 0.317E+04   -.956E-01 0.137E+00 0.605E+00
   -.102E+02 -.398E+02 -.270E+04   0.935E+01 0.399E+02 0.270E+04   0.872E+00 -.220E-01 0.422E-01
   -.605E+02 -.339E+02 -.317E+04   0.609E+02 0.339E+02 0.317E+04   -.533E-01 0.401E-01 0.623E+00
   0.644E+01 0.414E-01 0.337E+04   -.161E+01 -.412E-01 -.337E+04   -.104E+01 0.191E-04 -.311E+01
   0.484E+01 -.703E-06 0.277E+04   -.638E+01 0.565E-05 -.277E+04   -.110E+00 -.554E-05 -.113E+00
   0.630E+01 -.707E-05 0.337E+04   -.148E+01 0.315E-05 -.337E+04   -.103E+01 0.238E-05 -.311E+01
   0.359E+01 -.524E-01 0.277E+04   -.516E+01 0.599E-01 -.277E+04   -.108E+00 -.140E-02 -.113E+00
   -.716E+00 -.511E-01 0.126E+04   0.537E+00 0.517E-01 -.126E+04   0.180E+00 0.194E-03 0.200E-01
   -.191E+01 -.417E-04 0.797E+03   0.197E+01 0.388E-04 -.796E+03   -.162E-01 -.257E-05 -.159E+00
   0.943E+00 -.287E-04 0.126E+04   -.111E+01 0.210E-04 -.126E+04   0.172E+00 -.173E-05 0.593E-02
   -.521E+01 -.168E+00 0.793E+03   0.530E+01 0.172E+00 -.793E+03   -.311E-01 -.321E-02 -.158E+00
   -.509E+01 0.237E+01 -.779E+03   0.480E+01 -.235E+01 0.779E+03   0.304E+00 -.105E-01 0.120E+00
   -.109E+02 -.198E-04 -.119E+04   0.112E+02 0.277E-04 0.119E+04   -.974E-01 -.395E-05 -.247E+00
   -.292E+01 -.621E-04 -.771E+03   0.261E+01 0.642E-04 0.771E+03   0.315E+00 -.302E-05 0.158E+00
   -.211E+01 0.862E+00 -.119E+04   0.234E+01 -.872E+00 0.119E+04   -.123E+00 0.146E-01 -.291E+00
   0.278E+02 0.109E+02 -.279E+04   -.288E+02 -.109E+02 0.279E+04   0.951E+00 -.526E-02 -.740E-01
   -.751E+02 -.851E-04 -.319E+04   0.755E+02 0.121E-04 0.319E+04   -.123E+00 -.717E-05 0.624E+00
   0.118E+02 -.201E-04 -.278E+04   -.127E+02 0.212E-04 0.278E+04   0.895E+00 0.634E-06 -.367E-01
   -.605E+02 0.339E+02 -.317E+04   0.609E+02 -.339E+02 0.317E+04   -.533E-01 -.401E-01 0.623E+00
   0.648E+01 0.332E-04 0.337E+04   -.163E+01 -.755E-05 -.337E+04   -.104E+01 -.739E-05 -.310E+01
   0.488E+01 0.113E+00 0.277E+04   -.640E+01 -.114E+00 -.277E+04   -.115E+00 0.785E-03 -.108E+00
   0.639E+01 -.139E+00 0.337E+04   -.158E+01 0.144E+00 -.337E+04   -.103E+01 -.144E-02 -.311E+01
   0.266E+01 0.985E-05 0.277E+04   -.417E+01 -.111E-04 -.277E+04   -.126E+00 0.129E-04 -.108E+00
   0.204E+01 0.259E-04 0.126E+04   -.223E+01 -.434E-04 -.126E+04   0.164E+00 0.536E-06 0.447E-01
   0.369E+00 0.138E+01 0.800E+03   -.289E+00 -.137E+01 -.800E+03   -.458E-01 -.154E-01 -.152E+00
   0.866E+00 0.347E+00 0.126E+04   -.103E+01 -.344E+00 -.126E+04   0.173E+00 -.718E-02 0.101E-02
   -.888E+01 0.385E-04 0.776E+03   0.897E+01 -.342E-04 -.776E+03   -.377E-01 0.355E-05 -.701E-01
   -.616E+00 0.162E-04 -.781E+03   0.343E+00 -.217E-04 0.781E+03   0.238E+00 -.457E-05 0.137E+00
   -.112E+02 0.494E+01 -.117E+04   0.115E+02 -.495E+01 0.117E+04   -.114E+00 0.785E-03 -.237E+00
   0.116E+01 0.167E+01 -.755E+03   -.142E+01 -.167E+01 0.755E+03   0.268E+00 -.110E-02 0.919E-01
   -.244E+01 0.505E-04 -.123E+04   0.263E+01 -.453E-04 0.123E+04   -.111E+00 0.263E-05 -.185E+00
   0.480E+02 -.861E-05 -.278E+04   -.487E+02 0.189E-04 0.278E+04   0.689E+00 -.331E-06 0.377E-01
   -.868E+02 0.215E+02 -.318E+04   0.872E+02 -.213E+02 0.317E+04   -.956E-01 -.137E+00 0.605E+00
   -.102E+02 0.398E+02 -.270E+04   0.935E+01 -.399E+02 0.270E+04   0.872E+00 0.220E-01 0.422E-01
   0.115E+02 0.154E-04 -.312E+04   -.107E+02 -.164E-04 0.312E+04   -.587E+00 -.177E-05 -.408E+00
   -.323E+02 -.205E-01 0.228E+04   0.370E+02 0.204E-01 -.229E+04   -.650E+01 0.349E-03 0.171E+02
   -.326E+02 -.294E-01 0.228E+04   0.373E+02 0.274E-01 -.229E+04   -.649E+01 0.256E-02 0.171E+02
   0.813E+02 0.263E-01 0.138E+04   -.860E+02 -.284E-01 -.138E+04   0.374E+01 0.135E-02 -.445E+01
   0.750E+02 -.814E-02 0.169E+04   -.819E+02 0.902E-02 -.168E+04   0.731E+01 -.169E-02 -.261E+01
   -.862E+02 -.423E-01 0.194E+04   0.934E+02 0.405E-01 -.194E+04   -.695E+01 0.344E-02 -.586E-01
   -.690E+02 -.743E+00 0.106E+04   0.745E+02 0.796E+00 -.106E+04   -.564E+01 -.493E-01 0.429E+01
   0.820E+02 0.896E-01 0.138E+04   -.867E+02 -.721E-01 -.138E+04   0.373E+01 -.190E-01 -.432E+01
   0.741E+02 0.923E-01 0.169E+04   -.810E+02 -.100E+00 -.168E+04   0.732E+01 0.203E-01 -.263E+01
[...]
   0.871E+02 0.184E-04 -.108E+04   -.939E+02 -.169E-04 0.109E+04   0.679E+01 0.104E-04 -.760E+01
   0.703E+02 -.671E-05 -.715E+03   -.761E+02 0.100E-04 0.718E+03   0.591E+01 -.315E-05 -.300E+01
   -.811E+02 0.690E+00 -.457E+03   0.874E+02 -.710E+00 0.454E+03   -.630E+01 0.200E-01 0.278E+01
   -.664E+02 0.982E+01 -.128E+04   0.686E+02 -.101E+02 0.127E+04   -.235E+01 0.315E+00 0.982E+01
   0.808E+02 0.872E+01 -.105E+04   -.871E+02 -.898E+01 0.105E+04   0.632E+01 0.262E+00 -.586E+01
   0.797E+02 0.965E+00 -.730E+03   -.861E+02 -.992E+00 0.734E+03   0.638E+01 0.262E-01 -.327E+01
   -.729E+02 -.114E-04 -.461E+03   0.789E+02 0.184E-04 0.459E+03   -.600E+01 0.764E-05 0.243E+01
   -.616E+02 -.873E-05 -.131E+04   0.672E+02 0.114E-04 0.130E+04   -.571E+01 0.481E-05 0.621E+01
   0.108E+03 0.525E-06 -.227E+04   -.113E+03 0.866E-05 0.229E+04   0.573E+01 -.803E-07 -.203E+02
   0.452E+02 -.136E-04 -.201E+04   -.488E+02 0.806E-05 0.202E+04   0.358E+01 0.246E-06 -.749E+01
   -.493E+02 0.661E+01 -.165E+04   0.541E+02 -.647E+01 0.165E+04   -.488E+01 -.144E+00 0.308E+01
   0.118E+02 0.312E+02 -.226E+04   -.171E+02 -.311E+02 0.228E+04   0.526E+01 -.105E+00 -.195E+02
   0.784E+02 0.459E+02 -.195E+04   -.834E+02 -.455E+02 0.195E+04   0.506E+01 -.416E+00 -.646E+01
   -.685E+02 0.456E-05 -.156E+04   0.729E+02 0.217E-05 0.156E+04   -.441E+01 0.170E-05 0.428E+01
   -.146E+02 -.153E-03 0.539E+02   0.966E-12 -.505E-12 0.114E-10   0.146E+02 0.146E-03 -.540E+02

 POSITION                                       TOTAL-FORCE (eV/Angst)
      6.28582      5.68441     21.73001        -0.126015     -0.000001     -0.109370
      5.64009      5.68441     22.51999        -0.106873      0.000000      0.088754
      6.89297      4.86545     21.80663         0.098210     -0.144214     -0.008628
      6.89297      6.50336     21.80663         0.098210      0.144215     -0.008628
      8.29921      9.47401      8.23548         3.822070     -0.000167      1.631561
      6.08023      7.57921      9.11607        -1.643443      0.000086     -1.977705
      3.16233      7.57921      8.23548         3.795046     -0.003923      1.617603
      0.94335      9.47401      9.11607        -1.672296     -0.006106     -1.981775
      9.70326      9.47437     11.79903         0.001389     -0.000071     -0.046903
      7.46069      7.57438     12.59794         0.015768      0.001201      0.022342
      4.56176      7.57657     11.79579         0.003594      0.001669     -0.039963
      2.31515      9.47353     12.60691         0.022885     -0.000899      0.019435
      0.87541      9.47543     15.36211         0.003695     -0.005775     -0.027024
      8.88205      7.57219     16.06758         0.049717      0.006569      0.072257
      6.00122      7.57719     15.34161         0.007165      0.000648     -0.017659
      3.73327      9.47473     16.09229         0.048538     -0.003567      0.063094
      2.37352      9.46625     18.99490        -0.003217      0.004966      0.051013
      0.00862      7.56667     19.54936         0.097742      0.010735      0.121073
      7.49469      7.57738     18.92336         0.012886      0.017368      0.039546
      5.16750      9.48941     19.54324         0.077590      0.011386      0.122604
      8.29921      1.89480      8.23548         3.822040      0.000202      1.631633
      6.08023      0.00000      9.11607        -1.658472     -0.000001     -1.980154
      3.16233      0.00000      8.23548         3.813187     -0.000001      1.625332
      0.94335      1.89480      9.11607        -1.672304      0.006154     -1.981754
      9.70326      1.89444     11.79903         0.001370      0.000070     -0.046924
      7.45633     11.36881     12.60039         0.016391     -0.000006      0.021340
      4.56361      0.00000     11.79852         0.002824     -0.000009     -0.039524
      2.31515      1.89528     12.60691         0.022879      0.000914      0.019434
      0.87541      1.89338     15.36211         0.003684      0.005784     -0.027003
      8.86996      0.00000     16.08148         0.055460      0.000004      0.067633
      6.00773     11.36881     15.35172         0.000509     -0.000001     -0.025988
      3.73327      1.89408     16.09229         0.048517      0.003572      0.063101
      2.37352      1.90256     18.99490        -0.003213     -0.004957      0.051032
      0.03292     11.36881     19.55068         0.076081     -0.000081      0.128520
      7.52757     11.36881     18.97961        -0.001998      0.000002      0.053156
      5.16750      1.87940     19.54324         0.077578     -0.011399      0.122566
      8.29921      5.68441      8.23548         3.835348      0.000018      1.628398
      6.08023      3.78960      9.11607        -1.643436     -0.000113     -1.977687
      3.16233      3.78960      8.23548         3.795020      0.003875      1.617532
      0.94335      5.68441      9.11607        -1.643983      0.000012     -1.912462
      9.71960      5.68441     11.79385        -0.008783     -0.000017     -0.038117
      7.46069      3.79443     12.59794         0.015776     -0.001194      0.022307
      4.56176      3.79224     11.79579         0.003588     -0.001684     -0.039967
      2.31866      5.68441     12.63667         0.018750      0.000008      0.012361
      0.90718      5.68441     15.36884        -0.011385     -0.000010     -0.030563
      8.88205      3.79662     16.06758         0.049738     -0.006575      0.072267
      6.00122      3.79162     15.34161         0.007152     -0.000655     -0.017651
      3.75245      5.68441     16.17890         0.033280      0.000008      0.041350
      2.41334      5.68441     19.01311        -0.021817      0.000010      0.048468
      0.00862      3.80214     19.54936         0.097788     -0.010691      0.121278
      7.49469      3.79143     18.92336         0.012924     -0.017413      0.039538
      5.19886      5.68441     19.70820         0.099300     -0.000003      0.151434
      5.01563      7.57921      7.50000        -1.792605      0.000196      1.044932
     10.15251      9.47401      7.50000        -1.789124      0.000605      1.041148
      9.36381      9.47401      9.85155        -0.960248     -0.000767     -0.193982
      6.44591      9.47401      8.97095         0.393391     -0.000801     -0.067130
      7.93353      7.57921      8.38059         0.223388      0.001631     -1.041976
      6.41347      7.57921     11.02238        -0.117114      0.002793      0.425531
      4.22693      7.57921      9.85155        -0.965817     -0.001421     -0.180655
      1.30903      7.57921      8.97095         0.403480      0.012190     -0.075138
[...]
      2.71792      5.68441     14.56626        -0.024378     -0.000001     -0.017389
      1.97059      5.68441     16.95776         0.028017      0.000012      0.068313
      9.28176      5.68441     16.00703         0.034986      0.000000     -0.000476
      0.51819      3.79142     15.43874        -0.034505      0.000511      0.005131
      9.38325      3.78626     18.01613        -0.099112      0.002327     -0.065929
      7.12329      3.77877     16.91525         0.024620      0.000200      0.046067
      4.15003      3.79019     16.04303         0.026869     -0.001025     -0.003932
      5.64889      5.68441     15.46030        -0.035605      0.000015      0.008342
      4.23095      5.68441     18.10183        -0.065767      0.000008     -0.038925
      3.53954      5.68441     20.49291        -0.002915      0.000009     -0.032678
      0.53179      5.68441     19.78819         0.036858     -0.000005     -0.020728
      2.00220      3.79374     19.00564        -0.057492      0.002605      0.025788
      8.65667      3.82129     20.40772         0.017592     -0.000799     -0.033011
      5.68077      3.76119     19.74360         0.032705     -0.007128     -0.012152
      7.11906      5.68441     18.92853        -0.048863      0.000008      0.014886
    total drift:                                0.004973     -0.000007     -0.057144

  FREE ENERGIE OF THE ION-ELECTRON SYSTEM (eV)
  free  energy   TOTEN  =     -1063.34072847 eV

  energy  without entropy=    -1063.34072847  energy(sigma->0) =    -1063.34072847