 vasp.6.3.0 20Jan22 (build Apr  1 2022 16:44:48) complex
 executed on        HPECrayEX_GCC date 2023.02.23  16:45:49

 INCAR:
   SYSTEM = MgO-rocksalt
   ISMEAR = 0
   SIGMA = 0.05
   EDIFF = 1E-6
   ALGO = ALL
   ISTART = 0
   IBRION = -1
   NSW = 0
   ISYM = 0
   DIPOL = 0.5 0.5 0.5
   IDIPOL = 3
   LDIPOL = .TRUE.
   LHFCALC = .TRUE.
   GGA = B5
   AEXX = 0.2
   AGGAX = 0.72
   AGGAC = 0.81
   ALDAC = 0.19
   IVDW = 1
   VDW_S6 = 1.05
   VDW_C6 = 0.63 0.70
   VDW_R0 = 1.243 1.342
   ENCUT = 600
   PREC = Accurate
   LASPH = .TRUE.
   LREAL = .FALSE.
   ISPIN = 1
   NELM = 200
   NELMIN = 8
   NCORE = 8
   KPAR = 1
   LWAVE = .FALSE.
   LCHARG = .FALSE.

 POTCAR:    PAW_PBE Mg_pv 13Apr2007
 POTCAR:    PAW_PBE O 08Apr2002
 POTCAR:    PAW_PBE Mg_pv 13Apr2007
   VRHFIN =Mg: p6s2

   TITEL  = PAW_PBE Mg_pv 13Apr2007
   POMASS =   24.305; ZVAL   =    8.000    mass and valenz
   ENMAX  =  403.929; ENMIN  =  302.947 eV

   TITEL  = PAW_PBE O 08Apr2002
   POMASS =   16.000; ZVAL   =    6.000    mass and valenz
   ENMAX  =  400.000; ENMIN  =  300.000 eV

  PAW_PBE Mg_pv 13Apr2007               :
  PAW_PBE O 08Apr2002                   :

 POSCAR: Mg  O
  positions in direct lattice
 exchange correlation table for  LEXCH =       12
   RHO(1)=    0.500       N(1)  =     2000
   RHO(2)=  100.500       N(2)  =     4000

 ion  position               nearest neighbor table
   1  0.250  0.000  0.352-  35 2.10  36 2.10  43 2.10  52 2.10  33 2.10
   2  0.500  0.250  0.352-  35 2.10  36 2.10  44 2.10  51 2.10  34 2.10
   3  0.250  0.250  0.451-  33 2.10  34 2.10  41 2.10  50 2.10  35 2.10  39 2.10
   4  0.500  0.000  0.451-  33 2.10  34 2.10  42 2.10  49 2.10  36 2.10  40 2.10
   5  0.250  1.000  0.549-  40 2.10  47 2.10  39 2.10  56 2.10  33 2.10  37 2.14
   6  0.500  0.251  0.550-  48 2.09  55 2.10  39 2.10  40 2.12  34 2.12  38 2.12
   7  0.250  0.249  0.647-  39 2.07  37 2.10  54 2.10  38 2.10  45 2.10
   8  0.500  1.000  0.647-  38 2.08  40 2.08  46 2.08  53 2.11  37 2.11
   9  0.250  0.500  0.352-  35 2.10  43 2.10  44 2.10  60 2.10  41 2.10
  10  0.500  0.750  0.352-  36 2.10  43 2.10  44 2.10  59 2.10  42 2.10
  11  0.250  0.750  0.451-  33 2.10  41 2.10  42 2.10  58 2.10  43 2.10  47 2.11
  12  0.500  0.500  0.451-  34 2.10  41 2.10  42 2.10  57 2.10  44 2.10  48 2.12
  13  0.252  0.500  0.550-  48 2.09  47 2.10  39 2.10  64 2.11  41 2.12  45 2.13
  14  0.500  0.748  0.550-  48 2.09  63 2.10  47 2.10  40 2.11  42 2.12  46 2.13
  15  0.250  0.750  0.647-  47 2.07  62 2.10  37 2.10  45 2.10  46 2.11
  16  0.500  0.499  0.655-  38 2.12  61 2.13  45 2.13  46 2.13  48 2.23
  17  0.750  0.000  0.352-  36 2.10  51 2.10  52 2.10  59 2.10  49 2.10
  18  0.000  0.250  0.352-  35 2.10  51 2.10  52 2.10  60 2.10  50 2.10
  19  0.750  0.250  0.451-  34 2.10  49 2.10  50 2.10  57 2.10  51 2.10  55 2.10
  20  0.000  0.000  0.451-  33 2.10  49 2.10  50 2.10  58 2.10  52 2.10  56 2.10
  21  0.750  1.000  0.549-  40 2.10  63 2.10  55 2.10  56 2.10  49 2.10  53 2.14
  22  1.000  0.250  0.549-  64 2.10  55 2.10  39 2.10  50 2.10  56 2.10  54 2.14
  23  0.750  0.249  0.647-  55 2.07  53 2.10  54 2.10  38 2.10  61 2.10
  24  1.000  1.000  0.647-  56 2.08  53 2.10  37 2.10  62 2.10  54 2.10
  25  0.750  0.500  0.352-  44 2.10  51 2.10  59 2.10  60 2.10  57 2.10
  26  0.000  0.750  0.352-  43 2.10  52 2.10  59 2.10  60 2.10  58 2.10
  27  0.750  0.750  0.451-  42 2.10  49 2.10  57 2.10  58 2.10  59 2.10  63 2.11
  28  0.000  0.500  0.451-  41 2.10  50 2.10  57 2.10  58 2.10  60 2.10  64 2.10
  29  0.748  0.500  0.550-  48 2.09  63 2.10  55 2.10  64 2.11  57 2.12  61 2.13
  30  1.000  0.750  0.549-  64 2.10  63 2.10  47 2.10  56 2.10  58 2.11  62 2.14
  31  0.750  0.750  0.647-  63 2.07  62 2.10  53 2.10  61 2.10  46 2.11
  32  0.000  0.500  0.647-  45 2.08  61 2.08  64 2.08  54 2.11  62 2.11
  33  0.250  0.000  0.451-   3 2.10   4 2.10  11 2.10  20 2.10   1 2.10   5 2.10
  34  0.500  0.250  0.451-   3 2.10   4 2.10  12 2.10  19 2.10   2 2.10   6 2.12
  35  0.250  0.250  0.352-   1 2.10   2 2.10   9 2.10  18 2.10   3 2.10
  36  0.500  0.000  0.352-   1 2.10   2 2.10  10 2.10  17 2.10   4 2.10
  37  0.249  1.000  0.650-  24 2.10   7 2.10  15 2.10   8 2.11   5 2.14
  38  0.500  0.247  0.650-   8 2.08  23 2.10   7 2.10  16 2.12   6 2.12
  39  0.250  0.250  0.549-   7 2.07  22 2.10   5 2.10  13 2.10   6 2.10   3 2.10
  40  0.500  1.000  0.549-   8 2.08  21 2.10   5 2.10   4 2.10  14 2.11   6 2.12
  41  0.250  0.500  0.451-   3 2.10  11 2.10  12 2.10  28 2.10   9 2.10  13 2.12
  42  0.500  0.750  0.451-   4 2.10  11 2.10  12 2.10  27 2.10  10 2.10  14 2.12
  43  0.250  0.750  0.352-   1 2.10   9 2.10  10 2.10  26 2.10  11 2.10
  44  0.500  0.500  0.352-   2 2.10   9 2.10  10 2.10  25 2.10  12 2.10
  45  0.247  0.500  0.650-  32 2.08   7 2.10  15 2.10  16 2.13  13 2.13
  46  0.500  0.753  0.650-   8 2.08  31 2.11  15 2.11  14 2.13  16 2.13
  47  0.250  0.750  0.550-  15 2.07   5 2.10  30 2.10  14 2.10  13 2.10  11 2.11
  48  0.500  0.500  0.550-  14 2.09  13 2.09  29 2.09   6 2.09  12 2.12  16 2.23
  49  0.750  0.000  0.451-   4 2.10  19 2.10  20 2.10  27 2.10  17 2.10  21 2.10
  50  0.000  0.250  0.451-   3 2.10  19 2.10  20 2.10  28 2.10  18 2.10  22 2.10
  51  0.750  0.250  0.352-   2 2.10  17 2.10  18 2.10  25 2.10  19 2.10
  52  0.000  0.000  0.352-   1 2.10  17 2.10  18 2.10  26 2.10  20 2.10
  53  0.751  1.000  0.650-  24 2.10  23 2.10  31 2.10   8 2.11  21 2.14
  54  1.000  0.249  0.650-  24 2.10  23 2.10   7 2.10  32 2.11  22 2.14
  55  0.750  0.250  0.549-  23 2.07  22 2.10  21 2.10  29 2.10   6 2.10  19 2.10
  56  1.000  1.000  0.549-  24 2.08  20 2.10  30 2.10  21 2.10   5 2.10  22 2.10
  57  0.750  0.500  0.451-  12 2.10  19 2.10  27 2.10  28 2.10  25 2.10  29 2.12
  58  0.000  0.750  0.451-  11 2.10  20 2.10  27 2.10  28 2.10  26 2.10  30 2.11
  59  0.750  0.750  0.352-  10 2.10  17 2.10  25 2.10  26 2.10  27 2.10
  60  0.000  0.500  0.352-   9 2.10  18 2.10  25 2.10  26 2.10  28 2.10
  61  0.753  0.500  0.650-  32 2.08  23 2.10  31 2.10  16 2.13  29 2.13
  62  1.000  0.750  0.650-  24 2.10  31 2.10  15 2.10  32 2.11  30 2.14
  63  0.750  0.750  0.550-  31 2.07  21 2.10  30 2.10  14 2.10  29 2.10  27 2.11
  64  0.000  0.500  0.549-  32 2.08  30 2.10  22 2.10  28 2.10  13 2.11  29 2.11

IMPORTANT INFORMATION: All symmetrisations will be switched off!
NOSYMM: (Re-)initialisation of all symmetry stuff for point group C_1.

                                     Primitive cell

  volume of cell :    1504.9259

  direct lattice vectors                    reciprocal lattice vectors
     8.404861995  0.000000000  0.000000000     0.118978753  0.000000000  0.000000000
     0.000000000  8.404861995  0.000000000     0.000000000  0.118978753  0.000000000
     0.000000000  0.000000000 21.303646496     0.000000000  0.000000000  0.046940321

  length of vectors
     8.404861995  8.404861995 21.303646496     0.118978753  0.118978753  0.046940321

  position of ions in fractional coordinates (direct lattice)
     0.250000000  0.000000000  0.352052406
     0.500000000  0.250000000  0.352052406
     0.250000000  0.250000000  0.450684135
     0.500000000  0.000000000  0.450684135
     0.250364420  0.999831999  0.549477433
     0.500000034  0.251489732  0.550225366
     0.249795854  0.249473908  0.646789003
     0.500000021  0.999934361  0.646994470
     0.250000000  0.500000000  0.352052406
     0.500000000  0.750000000  0.352052406
     0.250000000  0.750000000  0.450684135
     0.500000000  0.500000000  0.450684135
     0.251627110  0.499890738  0.550267156
     0.500000053  0.748245390  0.550307182
     0.249705971  0.749950443  0.646935983
     0.499999993  0.499191956  0.654897984
     0.750000000  0.000000000  0.352052406
     0.000000000  0.250000000  0.352052406
     0.750000000  0.250000000  0.450684135
     0.000000000  0.000000000  0.450684135
     0.749635605  0.999831971  0.549477432
     0.999999998  0.250244413  0.549455002
     0.750204235  0.249473828  0.646788977
     0.999999970  0.999788118  0.647217637
     0.750000000  0.500000000  0.352052406
     0.000000000  0.750000000  0.352052406
     0.750000000  0.750000000  0.450684135
     0.000000000  0.500000000  0.450684135
     0.748372933  0.499890754  0.550267216
     0.999999959  0.749510582  0.549497612
     0.750294033  0.749950448  0.646936038
     0.000000055  0.499770140  0.646993439
     0.250000000  0.000000000  0.450684135
     0.500000000  0.250000000  0.450684135
     0.250000000  0.250000000  0.352052406
     0.500000000  0.000000000  0.352052406
     0.249368353  0.999806238  0.649835296
     0.500000064  0.247072160  0.649871263
     0.249895639  0.249796406  0.549470468
     0.500000027  0.999785892  0.549361331
     0.250000000  0.500000000  0.450684135
     0.500000000  0.750000000  0.450684135
     0.250000000  0.750000000  0.352052406
     0.500000000  0.500000000  0.352052406
     0.247294076  0.499680322  0.650074131
     0.500000004  0.752548192  0.650325762
     0.249976780  0.749936083  0.549544708
     0.499999981  0.499943626  0.550214529
     0.750000000  0.000000000  0.450684135
     0.000000000  0.250000000  0.450684135
     0.750000000  0.250000000  0.352052406
     0.000000000  0.000000000  0.352052406
     0.750631649  0.999806174  0.649835320
     0.999999972  0.249166997  0.649835340
     0.750104399  0.249796364  0.549470458
     0.999999991  0.999858736  0.549375762
     0.750000000  0.500000000  0.450684135
     0.000000000  0.750000000  0.450684135
     0.750000000  0.750000000  0.352052406
     0.000000000  0.500000000  0.352052406
     0.752705898  0.499680247  0.650074076
     0.999999921  0.750411536  0.649837586
     0.750023220  0.749936095  0.549544715
     0.000000022  0.499901832  0.549359006

  ion indices of the primitive-cell ions
   primitive index   ion index
                 1           1
                 2           2
                 3           3
                 4           4
                 5           5
                 6           6
                 7           7
                 8           8
                 9           9
                10          10
                11          11
                12          12
                13          13
                14          14
                15          15
                16          16
                17          17
                18          18
                19          19
                20          20
                21          21
                22          22
                23          23
                24          24
                25          25
                26          26
                27          27
                28          28
                29          29
                30          30
                31          31
                32          32
                33          33
                34          34
                35          35
                36          36
                37          37
                38          38
                39          39
                40          40
                41          41
                42          42
                43          43
                44          44
[...]
   0.50000000  0.75000000  0.45068414
   0.25000000  0.75000000  0.35205241
   0.50000000  0.50000000  0.35205241
   0.24729408  0.49968032  0.65007413
   0.50000000  0.75254819  0.65032576
   0.24997678  0.74993608  0.54954471
   0.49999998  0.49994363  0.55021453
   0.75000000  0.00000000  0.45068414
   0.00000000  0.25000000  0.45068414
   0.75000000  0.25000000  0.35205241
   0.00000000  0.00000000  0.35205241
   0.75063165  0.99980617  0.64983532
   0.99999997  0.24916700  0.64983534
   0.75010440  0.24979636  0.54947046
   0.99999999  0.99985874  0.54937576
   0.75000000  0.50000000  0.45068414
   0.00000000  0.75000000  0.45068414
   0.75000000  0.75000000  0.35205241
   0.00000000  0.50000000  0.35205241
   0.75270590  0.49968025  0.65007408
   0.99999992  0.75041154  0.64983759
   0.75002322  0.74993609  0.54954471
   0.00000002  0.49990183  0.54935901

 position of ions in cartesian coordinates  (Angst):
   2.10121550  0.00000000  7.50000000
   4.20243100  2.10121550  7.50000000
   2.10121550  2.10121550  9.60121550
   4.20243100  0.00000000  9.60121550
   2.10427840  8.40344997 11.70587298
   4.20243129  2.11373649 11.72180669
   2.09949968  2.09679377 13.77896429
   4.20243117  8.40431031 13.78334147
   2.10121550  4.20243100  7.50000000
   4.20243100  6.30364650  7.50000000
   2.10121550  6.30364650  9.60121550
   4.20243100  4.20243100  9.60121550
   2.11489114  4.20151266 11.72269697
   4.20243144  6.28889924 11.72354967
   2.09874423  6.30322998 13.78209549
   4.20243094  4.19563950 13.95171513
   6.30364650  0.00000000  7.50000000
   0.00000000  2.10121550  7.50000000
   6.30364650  2.10121550  9.60121550
   0.00000000  0.00000000  9.60121550
   6.30058381  8.40344974 11.70587297
   8.40486198  2.10326976 11.70539512
   6.30536306  2.09679310 13.77896372
   8.40486174  8.40308116 13.78809575
   6.30364650  4.20243100  7.50000000
   0.00000000  6.30364650  7.50000000
   6.30364650  6.30364650  9.60121550
   0.00000000  4.20243100  9.60121550
   6.28997123  4.20151280 11.72269826
   8.40486165  6.29953300 11.70630287
   6.30611781  6.30323001 13.78209667
   0.00000046  4.20049906 13.78331951
   2.10121550  0.00000000  9.60121550
   4.20243100  2.10121550  9.60121550
   2.10121550  2.10121550  7.50000000
   4.20243100  0.00000000  7.50000000
   2.09590659  8.40323345 13.84386143
   4.20243153  2.07660740 13.84462766
   2.10033836  2.09950432 11.70572462
   4.20243122  8.40306245 11.70339960
   2.10121550  4.20243100  9.60121550
   4.20243100  6.30364650  9.60121550
   2.10121550  6.30364650  7.50000000
   4.20243100  4.20243100  7.50000000
   2.07847258  4.19974415 13.84894948
   4.20243103  6.32506370 13.85431013
   2.10102033  6.30310928 11.70730620
   4.20243084  4.20195718 11.72157583
   6.30364650  0.00000000  9.60121550
   0.00000000  2.10121550  9.60121550
   6.30364650  2.10121550  7.50000000
   0.00000000  0.00000000  7.50000000
   6.30895542  8.40323292 13.84386195
   8.40486176  2.09421422 13.84386236
   6.30452395  2.09950397 11.70572440
   8.40486192  8.40367469 11.70370703
   6.30364650  4.20243100  9.60121550
   0.00000000  6.30364650  9.60121550
   6.30364650  6.30364650  7.50000000
   0.00000000  4.20243100  7.50000000
   6.32638920  4.19974351 13.84894832
   8.40486133  6.30710540 13.84391021
   6.30384165  6.30310938 11.70730634
   0.00000018  4.20160591 11.70335007

--------------------------------------- Iteration      FINAL  ---------------------------------------

--------------------OUTCAR has been truncated-------------------------

[...]

--------------------OUTCAR has been truncated-------------------------

  DFT-D2 method for vdW energy calculation

  Parameters of vdW forcefield:
         C6(Jnm^6/mol)     R0(A)
   Mg       0.630          1.243
   O        0.700          1.342

  vdW correction parametrized for the method ¥7þ      

  IVDW =   1
  VDW_RADIUS =    50.000 A
  VDW_S6 =     1.050
  VDW_SR =     1.000
  VDW_D =    20.000
  LVDW_EWALD = F

  Number of pair interactions contributing to vdW energy:  730992
  Edisp (eV):   -5.16889

 VOLUME and BASIS-vectors are now :
  energy-cutoff  :      600.00
  volume of cell :     1504.93
      direct lattice vectors                 reciprocal lattice vectors
     8.404861995  0.000000000  0.000000000     0.118978753  0.000000000  0.000000000
     0.000000000  8.404861995  0.000000000     0.000000000  0.118978753  0.000000000
     0.000000000  0.000000000 21.303646496     0.000000000  0.000000000  0.046940321

  length of vectors
     8.404861995  8.404861995 21.303646496     0.118978753  0.118978753  0.046940321

 FORCES acting on ions:
    Electron-Ion                     Ewald-Force                    Non-Local-Force
   -.281E+00 0.356E-01 0.209E+04   0.289E+00 -.366E-01 -.208E+04   -.553E-02 0.714E-03 -.640E+01
   0.216E-05 -.311E+00 0.209E+04   -.102E-06 0.323E+00 -.208E+04   0.950E-06 -.797E-02 -.643E+01
   -.145E+01 -.146E+01 0.692E+03   0.151E+01 0.153E+01 -.693E+03   -.393E-01 -.396E-01 0.426E+00
   0.390E-04 0.140E+00 0.692E+03   -.409E-04 -.159E+00 -.693E+03   0.636E-05 0.122E-01 0.321E+00
   -.738E+00 0.281E+00 -.693E+03   0.737E+00 -.296E+00 0.693E+03   -.292E-01 0.119E-01 -.135E+00
   0.966E-04 -.388E+01 -.702E+03   -.961E-04 0.431E+01 0.702E+03   0.129E-06 -.413E+00 -.257E+00
   -.210E+01 -.242E+01 -.207E+04   0.156E+01 0.193E+01 0.206E+04   0.379E+00 0.358E+00 0.544E+01
   0.186E-03 0.645E+00 -.207E+04   -.186E-03 -.692E+00 0.206E+04   0.415E-05 0.193E-01 0.521E+01
   -.311E+00 -.367E-01 0.209E+04   0.323E+00 0.371E-01 -.208E+04   -.821E-02 -.284E-03 -.643E+01
   0.313E-07 0.310E+00 0.209E+04   -.934E-06 -.323E+00 -.208E+04   0.219E-04 0.838E-02 -.643E+01
   -.146E+01 0.144E+01 0.692E+03   0.154E+01 -.152E+01 -.692E+03   -.476E-01 0.469E-01 0.447E+00
   -.553E-04 -.177E+00 0.688E+03   0.587E-04 0.184E+00 -.689E+03   0.127E-04 -.520E-02 0.521E+00
   -.393E+01 -.306E+00 -.703E+03   0.437E+01 0.320E+00 0.704E+03   -.416E+00 -.115E-01 -.233E+00
   0.176E-03 0.400E+01 -.705E+03   -.163E-03 -.444E+01 0.705E+03   -.843E-05 0.415E+00 -.195E+00
   -.283E+01 0.248E+01 -.207E+04   0.238E+01 -.198E+01 0.206E+04   0.331E+00 -.354E+00 0.542E+01
   0.781E-04 -.173E+01 -.213E+04   -.496E-04 0.171E+01 0.212E+04   -.216E-04 0.689E-01 0.640E+01
   0.281E+00 0.356E-01 0.209E+04   -.289E+00 -.366E-01 -.208E+04   0.553E-02 0.712E-03 -.640E+01
   -.657E-05 -.281E+00 0.209E+04   0.432E-06 0.289E+00 -.208E+04   0.735E-05 -.536E-02 -.640E+01
   0.145E+01 -.146E+01 0.692E+03   -.151E+01 0.153E+01 -.693E+03   0.393E-01 -.396E-01 0.426E+00
   -.449E-04 0.125E+00 0.694E+03   0.441E-04 -.132E+00 -.694E+03   -.394E-05 0.417E-02 0.326E+00
   0.738E+00 0.281E+00 -.693E+03   -.737E+00 -.296E+00 0.693E+03   0.292E-01 0.119E-01 -.135E+00
   -.157E-03 -.733E+00 -.693E+03   0.153E-03 0.731E+00 0.693E+03   -.274E-05 -.291E-01 -.124E+00
   0.210E+01 -.242E+01 -.207E+04   -.156E+01 0.193E+01 0.206E+04   -.379E+00 0.358E+00 0.544E+01
   -.275E-03 0.384E-01 -.207E+04   0.274E-03 -.163E-01 0.207E+04   0.542E-05 -.155E-01 0.532E+01
   0.311E+00 -.367E-01 0.209E+04   -.323E+00 0.371E-01 -.208E+04   0.818E-02 -.273E-03 -.643E+01
   0.633E-05 0.280E+00 0.209E+04   0.116E-05 -.289E+00 -.208E+04   -.502E-05 0.572E-02 -.640E+01
   0.146E+01 0.144E+01 0.692E+03   -.154E+01 -.152E+01 -.692E+03   0.476E-01 0.469E-01 0.447E+00
   0.386E-04 -.149E+00 0.692E+03   -.427E-04 0.145E+00 -.693E+03   0.646E-06 0.211E-02 0.321E+00
   0.393E+01 -.306E+00 -.703E+03   -.437E+01 0.320E+00 0.704E+03   0.416E+00 -.115E-01 -.233E+00
   -.175E-03 0.725E+00 -.693E+03   0.174E-03 -.723E+00 0.693E+03   -.262E-05 0.297E-01 -.140E+00
   0.283E+01 0.248E+01 -.207E+04   -.238E+01 -.198E+01 0.206E+04   -.331E+00 -.354E+00 0.542E+01
   0.427E-04 -.513E-01 -.207E+04   -.542E-04 0.215E-01 0.206E+04   0.598E-05 0.206E-01 0.522E+01
   -.724E+00 0.104E+00 0.520E+03   0.733E+00 -.951E-01 -.520E+03   -.111E-01 -.109E-01 -.112E-01
   0.144E-04 -.830E+00 0.517E+03   -.101E-04 0.782E+00 -.517E+03   0.138E-05 0.530E-01 -.156E+00
   -.228E+00 -.229E+00 0.157E+04   0.238E+00 0.239E+00 -.157E+04   -.119E-01 -.129E-01 0.312E+01
   0.801E-05 0.281E-01 0.157E+04   -.381E-05 -.294E-01 -.157E+04   -.338E-05 0.159E-02 0.312E+01
   -.822E+00 0.289E+00 -.158E+04   0.842E+00 -.328E+00 0.158E+04   0.305E-01 0.395E-01 -.497E+01
   0.849E-04 -.634E+01 -.157E+04   -.799E-04 0.605E+01 0.158E+04   -.925E-05 0.566E+00 -.406E+01
   -.185E+01 -.193E+01 -.514E+03   0.178E+01 0.186E+01 0.513E+03   0.839E-01 0.820E-01 0.552E+00
   0.114E-03 0.305E+00 -.513E+03   -.112E-03 -.307E+00 0.512E+03   0.133E-05 0.685E-02 0.500E+00
   -.824E+00 -.131E+00 0.517E+03   0.769E+00 0.137E+00 -.516E+03   0.612E-01 -.616E-02 -.169E+00
   0.258E-04 0.817E+00 0.517E+03   -.206E-04 -.756E+00 -.516E+03   0.177E-05 -.692E-01 -.181E+00
   -.231E+00 0.230E+00 0.157E+04   0.242E+00 -.240E+00 -.157E+04   -.134E-01 0.124E-01 0.312E+01
   -.158E-04 -.279E-01 0.157E+04   0.425E-05 0.296E-01 -.157E+04   0.680E-05 -.207E-02 0.310E+01
   -.676E+01 -.278E+00 -.158E+04   0.651E+01 0.293E+00 0.158E+04   0.530E+00 -.141E-01 -.411E+01
   0.118E-03 0.727E+01 -.158E+04   -.105E-03 -.706E+01 0.158E+04   0.343E-06 -.501E+00 -.418E+01
   -.203E+01 0.195E+01 -.515E+03   0.197E+01 -.188E+01 0.514E+03   0.778E-01 -.803E-01 0.531E+00
   -.373E-04 -.403E+00 -.541E+03   0.430E-04 0.407E+00 0.542E+03   -.505E-05 -.941E-02 -.100E+01
   0.724E+00 0.104E+00 0.520E+03   -.733E+00 -.951E-01 -.520E+03   0.111E-01 -.109E-01 -.112E-01
   -.139E-04 -.733E+00 0.520E+03   0.112E-04 0.748E+00 -.520E+03   0.358E-05 -.183E-01 -.940E-02
   0.228E+00 -.229E+00 0.157E+04   -.238E+00 0.239E+00 -.157E+04   0.119E-01 -.129E-01 0.312E+01
   0.210E-05 0.258E-01 0.157E+04   0.396E-05 -.259E-01 -.157E+04   -.234E-05 0.922E-04 0.313E+01
   0.822E+00 0.289E+00 -.158E+04   -.842E+00 -.328E+00 0.158E+04   -.305E-01 0.395E-01 -.497E+01
   -.206E-03 -.809E+00 -.158E+04   0.217E-03 0.826E+00 0.159E+04   0.898E-06 0.329E-01 -.498E+01
   0.185E+01 -.193E+01 -.514E+03   -.178E+01 0.186E+01 0.513E+03   -.839E-01 0.820E-01 0.552E+00
   -.146E-03 0.103E+00 -.515E+03   0.148E-03 -.986E-01 0.515E+03   -.473E-05 -.404E-02 0.158E+00
   0.824E+00 -.131E+00 0.517E+03   -.769E+00 0.137E+00 -.516E+03   -.612E-01 -.615E-02 -.169E+00
   -.159E-04 0.712E+00 0.520E+03   0.210E-04 -.714E+00 -.520E+03   -.427E-05 0.377E-02 -.118E-01
   0.231E+00 0.230E+00 0.157E+04   -.242E+00 -.240E+00 -.157E+04   0.134E-01 0.124E-01 0.312E+01
   0.657E-05 -.255E-01 0.157E+04   -.383E-05 0.259E-01 -.157E+04   0.236E-05 -.482E-03 0.312E+01
   0.676E+01 -.278E+00 -.158E+04   -.651E+01 0.293E+00 0.158E+04   -.530E+00 -.140E-01 -.411E+01
   -.259E-03 0.818E+00 -.158E+04   0.256E-03 -.830E+00 0.158E+04   0.796E-06 -.390E-01 -.495E+01
   0.203E+01 0.195E+01 -.515E+03   -.197E+01 -.188E+01 0.514E+03   -.778E-01 -.803E-01 0.531E+00
   -.409E-04 -.100E+00 -.513E+03   0.423E-04 0.950E-01 0.512E+03   -.451E-05 0.442E-02 0.501E+00
   0.704E-04 -.199E+00 0.176E+02   0.547E-13 -.274E-12 -.341E-11   -.786E-04 0.177E+00 -.154E+02

 POSITION                                       TOTAL-FORCE (eV/Angst)
      2.10122      0.00000      7.50000         0.002310     -0.000138      0.402135
      4.20243      2.10122      7.50000         0.000003      0.002993      0.409448
      2.10122      2.10122      9.60122         0.017608      0.017310      0.022524
      4.20243      0.00000      9.60122         0.000003     -0.005144      0.047651
      2.10428      8.40345     11.70587        -0.030894     -0.001643      0.048967
      4.20243      2.11374     11.72181         0.000000     -0.015067     -0.058997
      2.09950      2.09679     13.77896        -0.114681     -0.097442      0.141637
      4.20243      8.40431     13.78334         0.000005     -0.024475      0.167389
      2.10122      4.20243      7.50000         0.002957      0.000236      0.410209
      4.20243      6.30365      7.50000         0.000021     -0.002907      0.411118
      2.10122      6.30365      9.60122         0.020862     -0.020944      0.026108
      4.20243      4.20243      9.60122         0.000016      0.001834      0.048366
      2.11489      4.20151     11.72270        -0.014705      0.001985     -0.051360
      4.20243      6.28890     11.72355         0.000004      0.014672     -0.041595
      2.09874      6.30323     13.78210        -0.082290      0.102958      0.136695
      4.20243      4.19564     13.95172         0.000008      0.048210     -0.929370
      6.30365      0.00000      7.50000        -0.002308     -0.000136      0.402159
      0.00000      2.10122      7.50000         0.000000      0.002334      0.402226
      6.30365      2.10122      9.60122        -0.017609      0.017320      0.022505
      0.00000      0.00000      9.60122        -0.000005     -0.001935      0.026538
      6.30058      8.40345     11.70587         0.030895     -0.001661      0.048965
      8.40486      2.10327     11.70540        -0.000005     -0.031180      0.051137
      6.30536      2.09679     13.77896         0.114658     -0.097435      0.141687
      8.40486      8.40308     13.78810         0.000006      0.004862      0.104203
      6.30365      4.20243      7.50000        -0.002982      0.000240      0.410243
      0.00000      6.30365      7.50000         0.000003     -0.002221      0.401975
      6.30365      6.30365      9.60122        -0.020877     -0.020948      0.026082
      0.00000      4.20243      9.60122        -0.000003     -0.001009      0.047543
      6.28997      4.20151     11.72270         0.014703      0.001983     -0.051356
      8.40486      6.29953     11.70630        -0.000004      0.031252      0.046237
      6.30612      6.30323     13.78210         0.082288      0.102955      0.136637
      0.00000      4.20050     13.78332        -0.000004     -0.006674      0.165944
      2.10122      0.00000      9.60122        -0.004760     -0.003295      0.037105
      4.20243      2.10122      9.60122         0.000005      0.012336      0.067993
      2.10122      2.10122      7.50000        -0.003967     -0.004213     -0.493232
      4.20243      0.00000      7.50000         0.000001      0.000623     -0.494055
      2.09591      8.40323     13.84386         0.057052      0.005585     -0.127845
      4.20243      2.07661     13.84463        -0.000006      0.373555      0.139331
      2.10034      2.09950     11.70572         0.030210      0.027614     -0.006471
      4.20243      8.40306     11.70340         0.000003      0.006192      0.017941
      2.10122      4.20243      9.60122         0.014703     -0.001533      0.067866
      4.20243      6.30365      9.60122         0.000007     -0.017048      0.067624
      2.10122      6.30365      7.50000        -0.004499      0.004236     -0.493576
      4.20243      4.20243      7.50000        -0.000005     -0.000593     -0.500251
      2.07847      4.19974     13.84895         0.375252     -0.000926      0.114123
      4.20243      6.32506     13.85431         0.000015     -0.382604      0.082386
      2.10102      6.30311     11.70731         0.023743     -0.027308     -0.010389
      4.20243      4.20196     11.72158         0.000001     -0.006730      0.070013
      6.30365      0.00000      9.60122         0.004763     -0.003302      0.037100
      0.00000      2.10122      9.60122         0.000001     -0.006775      0.035050
      6.30365      2.10122      7.50000         0.003968     -0.004212     -0.493212
      0.00000      0.00000      7.50000         0.000004      0.000117     -0.489183
      6.30896      8.40323     13.84386        -0.057049      0.005579     -0.127856
      8.40486      2.09421     13.84386         0.000012      0.056943     -0.132932
      6.30452      2.09950     11.70572        -0.030210      0.027614     -0.006467
      8.40486      8.40367     11.70371        -0.000003      0.000170     -0.054310
      6.30365      4.20243      9.60122        -0.014701     -0.001534      0.067872
      0.00000      6.30365      9.60122         0.000001      0.002702      0.039339
      6.30365      6.30365      7.50000         0.004486      0.004236     -0.493568
      0.00000      4.20243      7.50000         0.000005     -0.000069     -0.494039
      6.32639      4.19974     13.84895        -0.375259     -0.000919      0.114161
      8.40486      6.30711     13.84391        -0.000001     -0.059212     -0.122289
      6.30384      6.30311     11.70731        -0.023755     -0.027307     -0.010390
      0.00000      4.20161     11.70335        -0.000003     -0.000106      0.018511
    total drift:                               -0.000009     -0.006593     -0.006504

  FREE ENERGIE OF THE ION-ELECTRON SYSTEM (eV)
  free  energy   TOTEN  =      -438.62206004 eV

  energy  without entropy=     -438.62206004  energy(sigma->0) =     -438.62206004