 vasp.6.3.0 20Jan22 (build Mar 11 2022 13:48:16) complex

 executed on             LinuxIFC date 2024.01.22  16:15:02

 INCAR:
   SYSTEM = TiO2
   ISMEAR = 0
   SIGMA = 0.05
   EDIFF = 1E-5
   ALGO = ALL
   ISTART = 0
   IBRION = -1
   NSW = 0
   ISYM = 0
   ISIF = 2
   EDIFFG = -0.01
   DIPOL = 0.5 0.5 0.5
   IDIPOL = 3
   LDIPOL = .TRUE.
   GGA = MK
   LUSE_VDW = .TRUE.
   PARAM1 = 0.1234
   PARAM2 = 0.711357
   ZAB_VDW = -1.8867
   AGGAC = 0.0
   ENCUT = 600
   PREC = Accurate
   LASPH = .TRUE.
   LREAL = .FALSE.
   ISPIN = 1
   NELM = 200
   NELMIN = 8
   NCORE = 2
   KPAR = 1
   LWAVE = .FALSE.
   LCHARG = .FALSE.

 POTCAR:    PAW_PBE N 08Apr2002
 POTCAR:    PAW_PBE H 15Jun2001
 POTCAR:    PAW_PBE Ti_pv 07Sep2000
 POTCAR:    PAW_PBE O 08Apr2002
|           W    W    AA    RRRRR   N    N  II  N    N   GGGG   !!!           |
|           W    W   A  A   R    R  NN   N  II  NN   N  G    G  !!!           |
|           W    W  A    A  R    R  N N  N  II  N N  N  G       !!!           |
|           W WW W  AAAAAA  RRRRR   N  N N  II  N  N N  G  GGG   !            |
|           WW  WW  A    A  R   R   N   NN  II  N   NN  G    G                |
|           W    W  A    A  R    R  N    N  II  N    N   GGGG   !!!           |
|     For optimal performance we recommend to set                             |
|       NCORE = 2 up to number-of-cores-per-socket                            |
|     This setting can greatly improve the performance of VASP for DFT.       |
|     The default, NCORE=1 might be grossly inefficient on modern             |
|     multi-core architectures or massively parallel machines. Do your        |
|     Unfortunately you need to use the default for GW and RPA                |
|     calculations (for HF NCORE is supported but not extensively tested      |
|     yet).                                                                   |

   TITEL  = PAW_PBE N 08Apr2002
   POMASS =   14.001; ZVAL   =    5.000    mass and valenz
   ENMAX  =  400.000; ENMIN  =  300.000 eV

   TITEL  = PAW_PBE H 15Jun2001
   POMASS =    1.000; ZVAL   =    1.000    mass and valenz
   ENMAX  =  250.000; ENMIN  =  200.000 eV

   TITEL  = PAW_PBE Ti_pv 07Sep2000
   POMASS =   47.880; ZVAL   =   10.000    mass and valenz
   ENMAX  =  222.335; ENMIN  =  166.751 eV

   TITEL  = PAW_PBE O 08Apr2002
   POMASS =   16.000; ZVAL   =    6.000    mass and valenz
   ENMAX  =  400.000; ENMIN  =  300.000 eV

  PAW_PBE N 08Apr2002                   :
  PAW_PBE H 15Jun2001                   :
  PAW_PBE Ti_pv 07Sep2000               :
  PAW_PBE O 08Apr2002                   :

 POSCAR:  N  H Ti  O
  positions in direct lattice
 exchange correlation table for  LEXCH =       43
   RHO(1)=    0.500       N(1)  =     2000
   RHO(2)=  100.500       N(2)  =     4000

 ion  position               nearest neighbor table
   1  0.600  0.500  0.783-   2 1.02   3 1.02   4 1.02  52 2.35
   2  0.532  0.500  0.809-   1 1.02
   3  0.657  0.429  0.788-   1 1.02
   4  0.657  0.571  0.788-   1 1.02
   5  0.815  0.833  0.293-  55 1.97  89 1.97  57 1.97  54 2.02  56 2.02  22 3.11   6 3.11   8 3.11

   6  0.599  0.667  0.325-  53 1.97 120 1.97  56 1.97  58 1.97  59 2.02  57 2.02  37 3.11   5 3.11
                             7 3.11  11 3.15
   7  0.315  0.667  0.293-  59 1.97 125 1.97  61 1.97  53 2.02  60 2.02  40 3.11   8 3.11   6 3.11

   8  0.099  0.833  0.325-  54 1.97  92 1.97  60 1.97  62 1.97  55 2.02  61 2.02  23 3.11   7 3.11
                             5 3.11   9 3.15
   9  0.949  0.833  0.422-  63 1.95  97 1.96  65 1.96  64 2.01  55 2.01  62 2.04  12 3.05  26 3.10
                            10 3.10   8 3.15
  10  0.730  0.666  0.451-  58 1.91 128 1.96  64 1.97  66 2.00  67 2.01  65 2.03  11 3.06   9 3.10
                            41 3.11
  11  0.448  0.666  0.422-  67 1.95 133 1.96  69 1.96  59 2.01  68 2.01  58 2.04  10 3.06  12 3.11
                            44 3.11   6 3.15
  12  0.229  0.833  0.451-  62 1.91 100 1.97  68 1.97  63 2.00  70 2.01  69 2.04   9 3.05  27 3.11
                            11 3.11
  13  0.088  0.833  0.551-  71 1.95 105 1.96  73 1.96  72 2.00  70 2.04  63 2.05  16 3.00  14 3.10
                            30 3.11
  14  0.866  0.666  0.576-  66 1.88 136 1.96  75 1.98  72 1.98  73 2.04  74 2.05  15 3.02  13 3.10
                            45 3.11
  15  0.587  0.666  0.550- 141 1.96  75 1.96  77 1.96  76 2.00  67 2.03  66 2.05  14 3.02  16 3.11
                            48 3.12
  16  0.365  0.833  0.577-  70 1.88 108 1.97  76 1.97  71 1.98  78 2.04  77 2.05  13 3.00  15 3.11
                            31 3.11
  17  0.231  0.833  0.683-  79 1.88  81 1.95 113 1.97  80 2.02  78 2.13  71 2.15  20 2.89  34 3.12
                            18 3.14
  18  0.001  0.666  0.702-  74 1.79  82 1.86 144 2.00  80 2.02  81 2.09  19 2.90  17 3.14  49 3.15

[...]

  21  0.815  0.167  0.293-  87 1.97  89 1.97 121 1.97  86 2.02  88 2.02  22 3.11  38 3.11  24 3.11

[...]

  37  0.815  0.500  0.293- 119 1.97  57 1.97 121 1.97 120 2.02 118 2.02   6 3.11  38 3.11  40 3.11

  38  0.599  0.333  0.325- 117 1.97 120 1.97  88 1.97 122 1.97 121 2.02 123 2.02  37 3.11  21 3.11
                            39 3.11  43 3.15
  39  0.315  0.333  0.293- 123 1.97 125 1.97  93 1.97 124 2.02 117 2.02  40 3.11  24 3.11  38 3.11

  40  0.099  0.500  0.325- 118 1.97  60 1.97 124 1.97 126 1.97 125 2.02 119 2.02  39 3.11   7 3.11
                            37 3.11  41 3.13
  41  0.950  0.500  0.422- 127 1.95 129 1.96  65 1.96 119 2.01 128 2.02 126 2.02  44 3.05  42 3.11
                            10 3.11  40 3.13
  42  0.730  0.334  0.451- 122 1.91 128 1.96  96 1.97 130 2.00 131 2.01 129 2.03  43 3.06  25 3.10
                            41 3.11
  43  0.448  0.334  0.422- 131 1.95 133 1.96 101 1.96 123 2.01 132 2.01 122 2.04  42 3.06  28 3.11
                            44 3.11  38 3.15
  44  0.229  0.500  0.452- 126 1.94  68 1.97 132 1.97 127 1.98 134 2.01 133 2.05  41 3.05  11 3.11
                            43 3.11  45 3.14
  45  0.091  0.500  0.551- 135 1.93  73 1.96 137 1.96 134 2.01 136 2.03 127 2.06  48 3.00  46 3.11
                            14 3.11  44 3.14
  46  0.866  0.334  0.576- 130 1.88 136 1.96 139 1.98 104 1.98 137 2.04 138 2.05  47 3.02  29 3.10
                            45 3.11
  47  0.587  0.334  0.550- 141 1.96 139 1.96 109 1.96 140 2.00 131 2.03 130 2.05  46 3.02  32 3.11
                            48 3.12
  48  0.366  0.500  0.580- 134 1.93 135 1.97  76 1.97 140 1.97 142 2.03 141 2.06  45 3.00  47 3.12
                            15 3.12
  49  0.235  0.500  0.684- 143 1.87 145 1.96  81 1.96 144 2.06 142 2.07 135 2.16  52 2.92  18 3.15
                            50 3.15
  50  0.001  0.334  0.702- 138 1.79 146 1.86 144 2.00 112 2.02 145 2.09  51 2.90  33 3.14  49 3.15

  51  0.730  0.333  0.680- 146 1.90 116 1.96 148 1.96 147 2.02 139 2.09 138 2.13  50 2.90  36 3.13
                            52 3.13
  52  0.506  0.500  0.707- 143 1.87 142 1.89  83 2.01 147 2.01 148 2.09   1 2.35  49 2.92  19 3.13
                            51 3.13
  53  0.494  0.667  0.267-   6 1.97   7 2.02
  54  0.994  0.833  0.267-   8 1.97   5 2.02
  55  0.919  0.833  0.351-   5 1.97   9 2.01   8 2.02
  56  0.636  0.833  0.320-  22 1.97   6 1.97   5 2.02
  57  0.778  0.667  0.299-  37 1.97   5 1.97   6 2.02
  58  0.628  0.667  0.394-  10 1.91   6 1.97  11 2.04
  59  0.419  0.667  0.351-   7 1.97  11 2.01   6 2.02
  60  0.136  0.667  0.320-  40 1.97   8 1.97   7 2.02
  61  0.278  0.833  0.299-  23 1.97   7 1.97   8 2.02
  62  0.128  0.833  0.394-  12 1.91   8 1.97   9 2.04
  63  0.054  0.833  0.479-   9 1.95  12 2.00  13 2.05
  64  0.769  0.833  0.447-  26 1.97  10 1.97   9 2.01
  65  0.912  0.667  0.426-   9 1.96  41 1.96  10 2.03
  66  0.765  0.667  0.521-  14 1.88  10 2.00  15 2.05
  67  0.554  0.666  0.479-  11 1.95  10 2.01  15 2.03
  68  0.269  0.667  0.447-  44 1.97  12 1.97  11 2.01
  69  0.411  0.833  0.426-  27 1.96  11 1.96  12 2.04
  70  0.265  0.833  0.521-  16 1.88  12 2.01  13 2.04
  71  0.195  0.833  0.607-  13 1.95  16 1.98  17 2.15
  72  0.907  0.833  0.574-  30 1.97  14 1.98  13 2.00
  73  0.051  0.666  0.554-  13 1.96  45 1.96  14 2.04
  74  0.913  0.667  0.647-  18 1.79  14 2.05  19 2.13
  75  0.696  0.667  0.607-  15 1.96  14 1.98  19 2.09
  76  0.407  0.666  0.575-  48 1.97  16 1.97  15 2.00
  77  0.550  0.833  0.554-  15 1.96  31 1.96  16 2.05
  78  0.411  0.835  0.647-  20 1.79  16 2.04  17 2.13
  79  0.348  0.833  0.734-  20 1.86  17 1.88
  80  0.053  0.833  0.710-  34 2.01  18 2.02  17 2.02
  81  0.194  0.666  0.683-  17 1.95  49 1.96  18 2.09
  82  0.844  0.665  0.733-  18 1.86  19 1.90
  83  0.554  0.669  0.709-  20 1.99  52 2.01  19 2.02
  84  0.695  0.834  0.681-  35 1.95  19 1.96  20 2.09
  85  0.494  0.000  0.267-  22 1.97  23 2.02
  86  0.994  0.167  0.267-  24 1.97  21 2.02
  87  0.919  0.167  0.351-  21 1.97  25 2.01  24 2.02
  88  0.636  0.167  0.320-  22 1.97  38 1.97  21 2.02
  89  0.778  0.000  0.299-   5 1.97  21 1.97  22 2.02
  90  0.628  0.000  0.394-  26 1.91  22 1.97  27 2.04
  91  0.419  0.000  0.351-  23 1.97  27 2.01  22 2.02
  92  0.136  0.000  0.320-   8 1.97  24 1.97  23 2.02
  93  0.278  0.167  0.299-  23 1.97  39 1.97  24 2.02
  94  0.128  0.167  0.394-  28 1.91  24 1.97  25 2.04
  95  0.054  0.167  0.479-  25 1.95  28 2.00  29 2.05
  96  0.769  0.167  0.447-  26 1.97  42 1.97  25 2.01
  97  0.912  0.000  0.426-  25 1.96   9 1.96  26 2.04
  98  0.765  0.000  0.521-  30 1.88  26 2.01  31 2.04
  99  0.554  1.000  0.479-  27 1.95  26 2.00  31 2.04
 100  0.269  0.000  0.447-  12 1.97  28 1.97  27 2.01
 101  0.411  0.167  0.426-  27 1.96  43 1.96  28 2.04
 102  0.265  0.167  0.521-  32 1.88  28 2.01  29 2.04
 103  0.195  0.167  0.607-  29 1.95  32 1.98  33 2.15
 104  0.907  0.167  0.574-  30 1.97  46 1.98  29 2.00
 105  0.051  0.000  0.554-  29 1.96  13 1.96  30 2.06
 106  0.912  1.000  0.647-  34 1.80  30 2.05  35 2.12
 107  0.696  1.000  0.607-  31 1.95  30 1.97  35 2.15
 108  0.407  1.000  0.574-  32 1.97  16 1.97  31 2.00
 109  0.550  0.167  0.554-  47 1.96  31 1.96  32 2.05
 110  0.411  0.165  0.647-  36 1.79  32 2.04  33 2.13
 111  0.348  0.167  0.734-  36 1.86  33 1.88
 112  0.053  0.167  0.710-  34 2.01  50 2.02  33 2.02
[...]
 134  0.266  0.500  0.522-  48 1.93  45 2.01  44 2.01
 135  0.195  0.500  0.608-  45 1.93  48 1.97  49 2.16
 136  0.907  0.500  0.574-  46 1.96  14 1.96  45 2.03
 137  0.051  0.334  0.554-  29 1.96  45 1.96  46 2.04
 138  0.913  0.333  0.647-  50 1.79  46 2.05  51 2.13
 139  0.696  0.333  0.607-  47 1.96  46 1.98  51 2.09
 140  0.407  0.334  0.575-  48 1.97  32 1.97  47 2.00
 141  0.551  0.500  0.555-  47 1.96  15 1.96  48 2.06
 142  0.411  0.500  0.650-  52 1.89  48 2.03  49 2.07
 143  0.345  0.500  0.736-  49 1.87  52 1.87
 144  0.052  0.500  0.710-  18 2.00  50 2.00  49 2.06
 145  0.194  0.334  0.683-  33 1.95  49 1.96  50 2.09
 146  0.844  0.335  0.733-  50 1.86  51 1.90
 147  0.554  0.331  0.709-  36 1.99  52 2.01  51 2.02
 148  0.692  0.500  0.681-  19 1.96  51 1.96  52 2.09

IMPORTANT INFORMATION: All symmetrisations will be switched off!
NOSYMM: (Re-)initialisation of all symmetry stuff for point group C_1.

[...]
   5.18820913  7.67858448  7.50000000
  10.43567804  9.59823060  7.50000000
   9.64726124  9.59823060  9.87252010
   6.67240119  9.59823060  8.97922780
   8.16306918  7.67858448  8.39329230
   6.59271149  7.67858448 11.07316918
   4.39979233  7.67858448  9.87252010
   1.42493229  7.67858448  8.97922780
[...]
   2.78974508  5.75893834 14.67120077
   2.04328003  5.75893857 17.07974654
   9.51647736  5.75893868 16.11406178
   0.53792730  3.84143554 15.55722722
   9.57794763  3.84053136 18.17285258
   7.30850928  3.83174029 17.04483386
   4.27551486  3.84130259 16.15214476
   5.78127623  5.75893821 15.57927352
   4.30855431  5.75893973 18.26366632
   3.61902016  5.75893932 20.66898582
   0.54608026  5.75893804 19.94993336
   2.03623069  3.84188645 19.19663949
   8.85836084  3.85878902 20.58195688
   5.80982371  3.81086265 19.90429928
   7.26345605  5.75893834 19.12920030

--------------------------------------- Iteration      FINAL  ---------------------------------------

--------------------OUTCAR has been truncated-------------------------

[...]

--------------------OUTCAR has been truncated-------------------------

  FORCE on cell =-STRESS in cart. coord.  units (eV):
  Direction    XX          YY          ZZ          XY          YZ          ZX
  Alpha Z  2345.80891  2345.80891  2345.80891
  Ewald  464254.02391457344.15732************    -0.01730     0.00003 -1771.36342
  Hartree485544.04236481326.27308************    -0.00322    -0.00012 -1201.68967
  E(xc)   -5172.92258 -5173.78207 -5172.66813    -0.00005     0.00002    -0.36091
  Local  ************************957879.05445     0.01471     0.00021  2973.33845
  n-local -3335.18701 -3307.99385 -3348.36696     0.00069     0.00011     1.32360
  augment  3152.98387  3149.83398  3142.64712     0.00007    -0.00003     0.59209
  Kinetic 17051.31501 17114.84697 17182.18485     0.00084    -0.00126    -9.90607
  Fock        0.00000     0.00000     0.00000     0.00000     0.00000     0.00000
  Total    -130.90286   -96.49723   -82.80663    -0.00426    -0.00104    -8.06593
  in kB     -61.76242   -45.52921   -39.06972    -0.00201    -0.00049    -3.80566

 VOLUME and BASIS-vectors are now :
  energy-cutoff  :      600.00
  volume of cell :     3395.75
      direct lattice vectors                 reciprocal lattice vectors
    10.494937820  0.000000000  0.000000000     0.095284033 -0.000000000  0.000000000
     0.000000000 11.517876715  0.000000000     0.000000000  0.086821558  0.000000000
     0.000000000  0.000000000 28.092027652     0.000000000  0.000000000  0.035597288

  length of vectors
    10.494937820 11.517876715 28.092027652     0.095284033  0.086821558  0.035597288

 FORCES acting on ions:
    Electron-Ion                     Ewald-Force                    Non-Local-Force
   -.165E+02 -.796E-02 -.166E+04   0.792E+01 0.144E-01 0.164E+04   0.846E+01 0.184E-02 0.192E+02
   0.468E+02 -.559E-02 -.354E+03   -.522E+02 0.591E-02 0.359E+03   0.523E+01 -.745E-03 -.516E+01
   -.420E+02 0.557E+02 -.338E+03   0.464E+02 -.617E+02 0.339E+03   -.429E+01 0.593E+01 -.790E+00
   -.420E+02 -.557E+02 -.338E+03   0.464E+02 0.617E+02 0.339E+03   -.429E+01 -.592E+01 -.790E+00
   0.413E+01 -.523E-01 0.323E+04   0.543E+00 0.529E-01 -.322E+04   -.992E+00 -.792E-04 -.323E+01
   0.557E+01 -.134E+00 0.265E+04   -.709E+01 0.135E+00 -.265E+04   -.872E-01 -.970E-03 -.937E-01
   0.407E+01 0.129E+00 0.323E+04   0.577E+00 -.133E+00 -.322E+04   -.990E+00 0.117E-02 -.323E+01
   0.435E+01 0.806E-01 0.265E+04   -.590E+01 -.867E-01 -.265E+04   -.805E-01 0.110E-02 -.989E-01
   -.177E+01 0.189E+00 0.121E+04   0.158E+01 -.192E+00 -.121E+04   0.187E+00 0.572E-04 -.122E-02
   -.133E+01 -.147E+01 0.764E+03   0.137E+01 0.145E+01 -.764E+03   -.187E-01 0.173E-01 -.123E+00
   -.329E+00 -.475E+00 0.121E+04   0.149E+00 0.469E+00 -.121E+04   0.182E+00 0.836E-02 -.185E-01
   -.701E+01 0.192E+00 0.759E+03   0.703E+01 -.204E+00 -.758E+03   0.439E-02 0.665E-02 -.133E+00
   -.513E+01 -.219E+01 -.749E+03   0.481E+01 0.218E+01 0.749E+03   0.319E+00 0.935E-02 0.658E-01
   -.123E+02 -.521E+01 -.112E+04   0.124E+02 0.520E+01 0.112E+04   -.820E-01 0.139E-01 -.196E+00
   0.524E+00 -.166E+01 -.728E+03   -.808E+00 0.165E+01 0.728E+03   0.287E+00 0.439E-02 0.535E-01
   -.431E+01 -.827E+00 -.114E+04   0.444E+01 0.839E+00 0.114E+04   -.869E-01 -.133E-01 -.261E+00
   0.277E+02 -.112E+02 -.267E+04   -.286E+02 0.112E+02 0.267E+04   0.956E+00 0.157E-01 -.182E+00
   -.849E+02 -.189E+02 -.303E+04   0.850E+02 0.187E+02 0.303E+04   -.395E-01 0.136E+00 0.706E+00
   -.926E+01 -.343E+02 -.259E+04   0.837E+01 0.343E+02 0.259E+04   0.893E+00 -.183E-01 -.367E-01
   -.629E+02 -.325E+02 -.302E+04   0.629E+02 0.324E+02 0.302E+04   -.300E-05 0.350E-01 0.712E+00
   0.413E+01 0.523E-01 0.323E+04   0.543E+00 -.529E-01 -.322E+04   -.992E+00 0.763E-04 -.323E+01
   0.552E+01 -.327E-04 0.265E+04   -.706E+01 0.467E-05 -.265E+04   -.825E-01 0.370E-05 -.984E-01
   0.398E+01 -.826E-05 0.323E+04   0.681E+00 -.169E-05 -.322E+04   -.991E+00 0.202E-05 -.323E+01
   0.435E+01 -.806E-01 0.265E+04   -.590E+01 0.867E-01 -.265E+04   -.805E-01 -.110E-02 -.989E-01
   -.177E+01 -.189E+00 0.121E+04   0.158E+01 0.192E+00 -.121E+04   0.187E+00 -.562E-04 -.122E-02
   -.358E+01 -.462E-04 0.762E+03   0.359E+01 0.318E-04 -.762E+03   0.135E-01 0.162E-05 -.139E+00
   -.745E+00 -.541E-04 0.121E+04   0.569E+00 0.370E-04 -.121E+04   0.180E+00 0.109E-05 -.121E-01
   -.701E+01 -.192E+00 0.759E+03   0.703E+01 0.204E+00 -.758E+03   0.439E-02 -.664E-02 -.133E+00
   -.513E+01 0.219E+01 -.749E+03   0.481E+01 -.218E+01 0.749E+03   0.319E+00 -.935E-02 0.658E-01
   -.123E+02 -.712E-04 -.114E+04   0.124E+02 0.882E-04 0.114E+04   -.556E-01 -.434E-06 -.208E+00
   -.268E+01 -.650E-04 -.740E+03   0.237E+01 0.708E-04 0.740E+03   0.320E+00 0.313E-06 0.101E+00
   -.431E+01 0.827E+00 -.114E+04   0.444E+01 -.838E+00 0.114E+04   -.869E-01 0.133E-01 -.261E+00
   0.277E+02 0.112E+02 -.267E+04   -.286E+02 -.112E+02 0.267E+04   0.956E+00 -.157E-01 -.182E+00
   -.741E+02 -.614E-04 -.304E+04   0.742E+02 0.770E-04 0.304E+04   -.737E-01 -.171E-05 0.711E+00
   0.122E+02 -.292E-04 -.266E+04   -.131E+02 0.540E-04 0.266E+04   0.906E+00 -.242E-05 -.114E+00
   -.629E+02 0.325E+02 -.302E+04   0.629E+02 -.324E+02 0.302E+04   0.734E-06 -.350E-01 0.712E+00
   0.418E+01 0.120E-04 0.323E+04   0.502E+00 0.137E-05 -.322E+04   -.993E+00 -.310E-06 -.323E+01
   0.557E+01 0.134E+00 0.265E+04   -.709E+01 -.135E+00 -.265E+04   -.872E-01 0.964E-03 -.937E-01
   0.407E+01 -.129E+00 0.323E+04   0.577E+00 0.133E+00 -.322E+04   -.990E+00 -.117E-02 -.323E+01
   0.340E+01 0.122E-04 0.265E+04   -.490E+01 0.958E-07 -.265E+04   -.969E-01 0.229E-05 -.969E-01
   0.869E+00 -.376E-04 0.121E+04   -.103E+01 0.342E-04 -.121E+04   0.160E+00 -.834E-07 0.298E-01
   -.133E+01 0.147E+01 0.764E+03   0.137E+01 -.145E+01 -.764E+03   -.187E-01 -.173E-01 -.123E+00
   -.329E+00 0.475E+00 0.121E+04   0.149E+00 -.469E+00 -.121E+04   0.182E+00 -.836E-02 -.185E-01
   -.112E+02 0.680E-04 0.744E+03   0.112E+02 -.547E-04 -.744E+03   0.949E-02 -.135E-05 -.608E-01
   0.685E+00 0.456E-05 -.750E+03   -.930E+00 0.853E-06 0.750E+03   0.233E+00 -.967E-06 0.963E-01
   -.123E+02 0.521E+01 -.112E+04   0.124E+02 -.520E+01 0.112E+04   -.820E-01 -.139E-01 -.196E+00
   0.524E+00 0.166E+01 -.728E+03   -.808E+00 -.165E+01 0.728E+03   0.287E+00 -.439E-02 0.535E-01
   -.652E+01 0.207E-03 -.118E+04   0.662E+01 -.211E-03 0.118E+04   -.593E-01 0.828E-07 -.164E+00
   0.512E+02 -.159E-05 -.266E+04   -.519E+02 -.143E-04 0.266E+04   0.660E+00 -.260E-06 -.296E-01
   -.849E+02 0.189E+02 -.303E+04   0.850E+02 -.187E+02 0.303E+04   -.395E-01 -.136E+00 0.706E+00
   -.926E+01 0.343E+02 -.259E+04   0.838E+01 -.343E+02 0.259E+04   0.893E+00 0.183E-01 -.368E-01
   0.186E+01 -.418E-02 -.298E+04   -.136E+01 0.399E-02 0.298E+04   -.418E+00 0.859E-04 -.302E+00
   -.315E+02 -.265E-01 0.218E+04   0.361E+02 0.266E-01 -.220E+04   -.637E+01 -.230E-04 0.168E+02
   -.318E+02 -.334E-01 0.218E+04   0.364E+02 0.320E-01 -.220E+04   -.637E+01 0.188E-02 0.168E+02
   0.778E+02 0.189E-01 0.132E+04   -.819E+02 -.238E-01 -.132E+04   0.331E+01 0.483E-02 -.413E+01
   0.725E+02 -.628E-02 0.162E+04   -.788E+02 0.659E-02 -.161E+04   0.677E+01 -.328E-03 -.242E+01
   -.835E+02 -.564E-01 0.186E+04   0.900E+02 0.558E-01 -.186E+04   -.635E+01 0.177E-03 -.295E+00
   -.637E+02 -.759E+00 0.101E+04   0.684E+02 0.812E+00 -.102E+04   -.493E+01 -.528E-01 0.417E+01
   0.785E+02 0.451E-01 0.132E+04   -.825E+02 -.212E-01 -.132E+04   0.329E+01 -.266E-01 -.403E+01
   0.716E+02 0.866E-01 0.162E+04   -.779E+02 -.932E-01 -.161E+04   0.678E+01 0.161E-01 -.244E+01
[...]
   0.831E+02 0.731E-04 -.104E+04   -.891E+02 -.826E-04 0.105E+04   0.616E+01 0.140E-04 -.813E+01
   0.679E+02 -.879E-04 -.681E+03   -.732E+02 0.744E-04 0.684E+03   0.541E+01 0.448E-05 -.274E+01
   -.776E+02 0.715E+00 -.441E+03   0.832E+02 -.726E+00 0.438E+03   -.573E+01 0.850E-02 0.258E+01
   -.594E+02 0.786E+01 -.122E+04   0.609E+02 -.803E+01 0.121E+04   -.159E+01 0.170E+00 0.985E+01
   0.773E+02 0.709E+01 -.101E+04   -.829E+02 -.727E+01 0.101E+04   0.573E+01 0.181E+00 -.612E+01
   0.767E+02 0.976E+00 -.696E+03   -.824E+02 -.104E+01 0.699E+03   0.586E+01 0.609E-01 -.308E+01
   -.693E+02 -.183E-03 -.446E+03   0.746E+02 0.225E-03 0.444E+03   -.540E+01 -.878E-05 0.219E+01
   -.547E+02 -.279E-03 -.124E+04   0.593E+02 0.307E-03 0.124E+04   -.466E+01 -.283E-04 0.675E+01
   0.999E+02 -.112E-02 -.217E+04   -.105E+03 0.106E-02 0.219E+04   0.482E+01 0.790E-04 -.203E+02
   0.476E+02 -.846E-05 -.192E+04   -.509E+02 -.302E-05 0.193E+04   0.340E+01 0.278E-04 -.710E+01
   -.474E+02 0.562E+01 -.159E+04   0.518E+02 -.542E+01 0.159E+04   -.460E+01 -.208E+00 0.274E+01
   0.133E+02 0.271E+02 -.217E+04   -.182E+02 -.270E+02 0.219E+04   0.499E+01 -.790E-02 -.196E+02
   0.732E+02 0.429E+02 -.186E+04   -.779E+02 -.425E+02 0.187E+04   0.476E+01 -.387E+00 -.611E+01
   -.703E+02 -.539E-03 -.151E+04   0.746E+02 0.464E-03 0.151E+04   -.436E+01 0.104E-03 0.375E+01
   -.191E+02 -.517E-02 0.553E+02   0.313E-12 -.162E-11 0.432E-11   0.191E+02 0.517E-02 -.553E+02

 POSITION                                       TOTAL-FORCE (eV/Angst)
      6.29583      5.75885     21.99163        -0.135074      0.008286     -0.275061
      5.58647      5.75894     22.72634        -0.108684     -0.000422      0.034826
      6.89170      4.93871     22.12479         0.070717     -0.121191     -0.051804
      6.89175      6.57924     22.12481         0.065530      0.113452     -0.053365
      8.55404      9.59823      8.23961         3.699025      0.000514      2.086453
      6.28143      7.67858      9.13291        -1.610895      0.000647     -1.863726
      3.30657      7.67858      8.23961         3.677724     -0.003385      2.075272
      1.03396      9.59823      9.13291        -1.633645     -0.005046     -1.872043
      9.95736      9.59884     11.85837        -0.003317     -0.001924      0.004271
      7.65865      7.67404     12.66179        -0.007344     -0.004070     -0.005002
      4.70640      7.67543     11.85563        -0.003975      0.000192      0.007195
      2.40301      9.59740     12.66841        -0.012232     -0.004841     -0.008925
      0.91868      9.59898     15.47902        -0.006554     -0.001937      0.003584
      9.08728      7.67045     16.18209        -0.012206      0.001061     -0.007179
      6.15634      7.67595     15.46021        -0.003677     -0.008589      0.000730
      3.82736      9.59874     16.20356        -0.015465      0.000495     -0.007051
      2.42582      9.59075     19.18099         0.048629     -0.006524     -0.000006
      0.00586      7.66603     19.71157        -0.162212     -0.012249     -0.251086
      7.66242      7.68028     19.10807         0.021071     -0.011963      0.014594
      5.27187      9.61298     19.70195        -0.168028     -0.010122     -0.232132
      8.55404      1.91965      8.23961         3.698989     -0.000512      2.086457
      6.28143      0.00000      9.13291        -1.621379     -0.000025     -1.870228
      3.30657      0.00000      8.23961         3.689989     -0.000008      2.079596
      1.03396      1.91965      9.13291        -1.633650      0.005048     -1.872043
      9.95736      1.91904     11.85837        -0.003302      0.001933      0.004258
      7.65400      0.00000     12.66192        -0.005451     -0.000013     -0.003588
      4.70621     11.51788     11.85781        -0.000335     -0.000016      0.005486
      2.40301      1.92048     12.66840        -0.012246      0.004817     -0.008913
      0.91868      1.91890     15.47902        -0.006540      0.001944      0.003610
      9.07643     11.51788     16.19147        -0.023104      0.000016     -0.010897
      6.16178     11.51788     15.46781        -0.001357      0.000006      0.002217
      3.82736      1.91914     16.20355        -0.015473     -0.000492     -0.007046
      2.42581      1.92712     19.18098         0.048591      0.006548     -0.000009
      0.02729     11.51788     19.71118        -0.176951      0.000014     -0.241189
      7.69084     11.51787     19.16045         0.048877      0.000021      0.006221
      5.27187      1.90489     19.70194        -0.168028      0.010194     -0.232087
      8.55404      5.75894      8.23961         3.705546      0.000013      2.078879
      6.28143      3.83929      9.13291        -1.610887     -0.000657     -1.863650
      3.30657      3.83929      8.23961         3.677723      0.003392      2.075216
      1.03396      5.75894      9.13291        -1.601982      0.000015     -1.812531
      9.97179      5.75894     11.85233         0.002471     -0.000003      0.003290
      7.65865      3.84384     12.66179        -0.007341      0.004090     -0.004987
      4.70640      3.84245     11.85563        -0.003958     -0.000176      0.007179
      2.40510      5.75894     12.69594        -0.016112      0.000012     -0.002257
      0.95033      5.75894     15.48422         0.012527      0.000005      0.000953
      9.08728      3.84743     16.18209        -0.012210     -0.001065     -0.007154
      6.15634      3.84193     15.46021        -0.003662      0.008582      0.000759
      3.84235      5.75894     16.28847        -0.017240     -0.000004     -0.009640
      2.46606      5.75894     19.20249         0.072075     -0.000016     -0.003093
      0.00586      3.85184     19.71157        -0.162228      0.012223     -0.251091
      7.66242      3.83759     19.10806         0.021034      0.011938      0.014629
      5.30557      5.75894     19.86499        -0.066538     -0.000104     -0.091470
      5.18821      7.67858      7.50000        -1.778920      0.000117      1.502646
     10.43568      9.59823      7.50000        -1.775749      0.000457      1.499915
      9.64726      9.59823      9.87252        -0.765348     -0.000118     -0.206909
      6.67240      9.59823      8.97923         0.483299     -0.000013     -0.110500
      8.16307      7.67858      8.39329         0.122934     -0.000425     -0.948488
      6.59271      7.67858     11.07317        -0.187157      0.000158      0.475955
      4.39979      7.67858      9.87252        -0.772172     -0.002650     -0.189423
      1.42493      7.67858      8.97923         0.490853      0.009577     -0.116594
[...]
      2.78975      5.75894     14.67120        -0.139121      0.000018      0.080966
      2.04328      5.75894     17.07975         0.143421      0.000005     -0.152595
      9.51648      5.75894     16.11406         0.128967     -0.000009     -0.056738
      0.53793      3.84144     15.55723        -0.133332     -0.002575      0.058201
      9.57795      3.84053     18.17285        -0.080133      0.000046      0.129000
      7.30851      3.83174     17.04483         0.139227      0.004335     -0.117804
      4.27551      3.84130     16.15214         0.134516     -0.002200     -0.066006
      5.78128      5.75894     15.57927        -0.126855      0.000034      0.050962
      4.30855      5.75894     18.26367        -0.129853      0.000000      0.084766
      3.61902      5.75894     20.66899         0.111780      0.000020     -0.506252
      0.54608      5.75894     19.94993         0.091310      0.000016     -0.199748
      2.03623      3.84189     19.19664        -0.109073     -0.007156      0.048597
      8.85836      3.85879     20.58196         0.096691      0.005309     -0.500664
      5.80982      3.81086     19.90430         0.120706      0.000587     -0.153185
      7.26346      5.75894     19.12920        -0.101982      0.000030      0.084328
    total drift:                               -0.001767     -0.000001      0.021356

  FREE ENERGIE OF THE ION-ELECTRON SYSTEM (eV)
  free  energy   TOTEN  =     -1060.77077528 eV

  energy  without entropy=    -1060.77077528  energy(sigma->0) =    -1060.77077528