 vasp.6.3.0 20Jan22 (build Aug 21 2024 11:13:42) complex
 executed on        HPECrayEX_GCC date 2024.11.27  00:02:45

 INCAR:
   SYSTEM = TiO2
   ISMEAR = 0
   SIGMA = 0.05
   EDIFF = 1E-4
   ALGO = ALL
   ISTART = 0
   IBRION = -1
   NSW = 0
   ISYM = 0
   ISIF = 2
   EDIFFG = -0.01
   DIPOL = 0.5 0.5 0.5
   IDIPOL = 3
   LDIPOL = .TRUE.
   GGA = MK
   LUSE_VDW = .TRUE.
   PARAM1 = 0.1234
   PARAM2 = 0.711357
   ZAB_VDW = -1.8867
   AGGAC = 0.0
   ENCUT = 600
   PREC = Accurate
   LASPH = .TRUE.
   LREAL = .FALSE.
   ISPIN = 1
   NELM = 200
   NELMIN = 8
   NCORE = 16
   KPAR = 1
   LWAVE = .FALSE.
   LCHARG = .FALSE.

 POTCAR:    PAW_PBE N 08Apr2002
 POTCAR:    PAW_PBE H 15Jun2001
 POTCAR:    PAW_PBE Ti_pv 07Sep2000
 POTCAR:    PAW_PBE O 08Apr2002
|               ----> ADVICE to this user running VASP <----                  |
|     You have switched on vdW-DFT.                                           |
|     This routine was written and supplied by Jiri Klimes. We recommend      |
|     that you carefully read and cite the following publications:            |
|       J. Klimes, D.R. Bowler, A. Michelides                                 |
|          J. Phys.: Cond Matt. 22 022201 (2010)                              |
|       J. Klimes, D.R. Bowler, A. Michelides                                 |
|          Phys. Rev. B. 83, 195131 (2011)                                    |
|     and references therein.                                                 |

   TITEL  = PAW_PBE N 08Apr2002
   POMASS =   14.001; ZVAL   =    5.000    mass and valenz
   ENMAX  =  400.000; ENMIN  =  300.000 eV

   TITEL  = PAW_PBE H 15Jun2001
   POMASS =    1.000; ZVAL   =    1.000    mass and valenz
   ENMAX  =  250.000; ENMIN  =  200.000 eV

   TITEL  = PAW_PBE Ti_pv 07Sep2000
   POMASS =   47.880; ZVAL   =   10.000    mass and valenz
   ENMAX  =  222.335; ENMIN  =  166.751 eV

   TITEL  = PAW_PBE O 08Apr2002
   POMASS =   16.000; ZVAL   =    6.000    mass and valenz
   ENMAX  =  400.000; ENMIN  =  300.000 eV

  PAW_PBE N 08Apr2002                   :
  PAW_PBE H 15Jun2001                   :
  PAW_PBE Ti_pv 07Sep2000               :
  PAW_PBE O 08Apr2002                   :

 POSCAR:  N  H Ti  O
  positions in direct lattice
 exchange correlation table for  LEXCH =       43
   RHO(1)=    0.500       N(1)  =     2000
   RHO(2)=  100.500       N(2)  =     4000

 ion  position               nearest neighbor table
   1  0.601  0.500  0.783-   2 1.02   4 1.02   3 1.02  52 2.35
   2  0.533  0.500  0.809-   1 1.02
   3  0.658  0.429  0.787-   1 1.02
   4  0.658  0.571  0.787-   1 1.02
   5  0.815  0.833  0.293-  89 1.97  57 1.97  55 1.97  54 2.02  56 2.02  22 3.11   8 3.11   6 3.11

   6  0.599  0.667  0.325-  53 1.97 120 1.97  58 1.97  56 1.97  57 2.02  59 2.02  37 3.11   7 3.11
                             5 3.11  11 3.15
   7  0.315  0.667  0.293- 125 1.97  61 1.97  59 1.97  53 2.02  60 2.02  40 3.11   6 3.11   8 3.11

   8  0.099  0.833  0.325-  54 1.97  92 1.97  62 1.97  60 1.97  61 2.02  55 2.02  23 3.11   5 3.11
                             7 3.11   9 3.15
   9  0.949  0.833  0.422-  63 1.95  97 1.96  65 1.96  64 2.01  55 2.01  62 2.04  12 3.05  26 3.10
                            10 3.10   8 3.15
  10  0.730  0.666  0.451-  58 1.91 128 1.96  64 1.97  66 2.00  67 2.01  65 2.03  11 3.06   9 3.10
                            41 3.11
  11  0.449  0.666  0.422-  67 1.95 133 1.96  69 1.96  59 2.01  68 2.01  58 2.04  10 3.06  12 3.11
                            44 3.11   6 3.15
  12  0.229  0.833  0.451-  62 1.91 100 1.97  68 1.97  63 2.00  70 2.01  69 2.04   9 3.05  27 3.11
                            11 3.11
  13  0.088  0.833  0.551-  71 1.94 105 1.96  73 1.96  72 2.00  70 2.04  63 2.05  16 3.00  14 3.10
                            30 3.11
  14  0.866  0.666  0.576-  66 1.88 136 1.96  72 1.98  75 1.98  73 2.04  74 2.05  15 3.02  13 3.10
                            45 3.11
  15  0.587  0.666  0.550- 141 1.96  75 1.96  77 1.96  76 2.00  67 2.03  66 2.05  14 3.02  16 3.11
                            48 3.12
  16  0.365  0.833  0.577-  70 1.88 108 1.97  76 1.97  71 1.98  78 2.04  77 2.05  13 3.00  31 3.11
                            15 3.11
  17  0.231  0.833  0.683-  79 1.88  81 1.95 113 1.97  80 2.02  78 2.13  71 2.15  20 2.89  34 3.12
                            18 3.14
  18  0.001  0.666  0.702-  74 1.79  82 1.86 144 2.00  80 2.02  81 2.09  19 2.90  17 3.14  49 3.15

[...]

  21  0.815  0.167  0.293-  89 1.97 121 1.97  87 1.97  86 2.02  88 2.02  22 3.11  24 3.11  38 3.11

[...]

  37  0.815  0.500  0.293-  57 1.97 121 1.97 119 1.97 118 2.02 120 2.02  38 3.11   6 3.11  40 3.11

  38  0.599  0.333  0.325- 117 1.97 120 1.97 122 1.97  88 1.97 121 2.02 123 2.02  37 3.11  39 3.11
                            21 3.11  43 3.15
  39  0.315  0.333  0.293- 125 1.97  93 1.97 123 1.97 117 2.02 124 2.02  40 3.11  38 3.11  24 3.11

  40  0.099  0.500  0.325- 118 1.97  60 1.97 124 1.97 126 1.97 125 2.02 119 2.02   7 3.11  39 3.11
                            37 3.11  41 3.13
  41  0.950  0.500  0.422- 127 1.95 129 1.96  65 1.96 119 2.01 128 2.02 126 2.02  44 3.05  10 3.11
                            42 3.11  40 3.13
  42  0.730  0.334  0.451- 122 1.91 128 1.96  96 1.97 130 2.00 131 2.01 129 2.03  43 3.06  25 3.10
                            41 3.11
  43  0.449  0.334  0.422- 131 1.95 133 1.96 101 1.96 123 2.01 132 2.01 122 2.04  42 3.06  28 3.11
                            44 3.11  38 3.15
  44  0.229  0.500  0.452- 126 1.94 132 1.97  68 1.97 127 1.98 134 2.01 133 2.05  41 3.05  43 3.11
                            11 3.11  45 3.14
  45  0.091  0.500  0.551- 135 1.93 137 1.96  73 1.96 134 2.01 136 2.03 127 2.06  48 3.00  46 3.11
                            14 3.11  44 3.14
  46  0.866  0.334  0.576- 130 1.88 136 1.96 104 1.98 139 1.98 137 2.04 138 2.05  47 3.02  29 3.10
                            45 3.11
  47  0.587  0.334  0.550- 141 1.96 139 1.96 109 1.96 140 2.00 131 2.03 130 2.05  46 3.02  32 3.11
                            48 3.12
  48  0.366  0.500  0.580- 134 1.93 135 1.97 140 1.97  76 1.97 142 2.03 141 2.06  45 3.00  47 3.12
                            15 3.12
  49  0.235  0.500  0.684- 143 1.87 145 1.96  81 1.96 144 2.06 142 2.07 135 2.16  52 2.92  50 3.15
                            18 3.15
  50  0.001  0.334  0.702- 138 1.79 146 1.86 144 2.00 112 2.02 145 2.09  51 2.90  33 3.14  49 3.15

  51  0.730  0.333  0.680- 146 1.90 116 1.96 148 1.96 147 2.02 139 2.09 138 2.13  50 2.90  36 3.13
                            52 3.13
  52  0.506  0.500  0.707- 143 1.87 142 1.89 147 2.01  83 2.01 148 2.09   1 2.35  49 2.92  51 3.13
                            19 3.13
  53  0.494  0.667  0.267-   6 1.97   7 2.02
  54  0.994  0.833  0.267-   8 1.97   5 2.02
  55  0.919  0.833  0.351-   5 1.97   9 2.01   8 2.02
  56  0.636  0.833  0.320-  22 1.97   6 1.97   5 2.02
  57  0.778  0.667  0.299-  37 1.97   5 1.97   6 2.02
  58  0.628  0.667  0.394-  10 1.91   6 1.97  11 2.04
  59  0.419  0.667  0.351-   7 1.97  11 2.01   6 2.02
  60  0.136  0.667  0.320-  40 1.97   8 1.97   7 2.02
  61  0.278  0.833  0.299-  23 1.97   7 1.97   8 2.02
  62  0.128  0.833  0.394-  12 1.91   8 1.97   9 2.04
  63  0.054  0.833  0.479-   9 1.95  12 2.00  13 2.05
  64  0.769  0.833  0.447-  26 1.97  10 1.97   9 2.01
  65  0.912  0.667  0.426-   9 1.96  41 1.96  10 2.03
  66  0.765  0.667  0.521-  14 1.88  10 2.00  15 2.05
  67  0.554  0.666  0.479-  11 1.95  10 2.01  15 2.03
  68  0.269  0.667  0.447-  44 1.97  12 1.97  11 2.01
  69  0.412  0.833  0.426-  27 1.96  11 1.96  12 2.04
  70  0.265  0.833  0.521-  16 1.88  12 2.01  13 2.04
  71  0.195  0.833  0.607-  13 1.94  16 1.98  17 2.15
  72  0.907  0.833  0.574-  30 1.97  14 1.98  13 2.00
  73  0.051  0.666  0.554-  13 1.96  45 1.96  14 2.04
  74  0.913  0.667  0.647-  18 1.79  14 2.05  19 2.13
  75  0.697  0.667  0.607-  15 1.96  14 1.98  19 2.09
  76  0.408  0.666  0.575-  48 1.97  16 1.97  15 2.00
  77  0.550  0.833  0.554-  15 1.96  31 1.96  16 2.05
  78  0.411  0.836  0.647-  20 1.79  16 2.04  17 2.13
  79  0.348  0.833  0.734-  20 1.86  17 1.88
  80  0.053  0.833  0.710-  34 2.01  18 2.02  17 2.02
  81  0.194  0.666  0.683-  17 1.95  49 1.96  18 2.09
  82  0.844  0.665  0.733-  18 1.86  19 1.90
  83  0.554  0.669  0.709-  20 1.99  52 2.01  19 2.02
  84  0.695  0.834  0.681-  35 1.95  19 1.96  20 2.09
  85  0.494  0.000  0.267-  22 1.97  23 2.02
  86  0.994  0.167  0.267-  24 1.97  21 2.02
  87  0.919  0.167  0.351-  21 1.97  25 2.01  24 2.02
  88  0.636  0.167  0.320-  22 1.97  38 1.97  21 2.02
  89  0.778  0.000  0.299-   5 1.97  21 1.97  22 2.02
  90  0.628  0.000  0.394-  26 1.91  22 1.97  27 2.04
  91  0.419  0.000  0.351-  23 1.97  27 2.01  22 2.02
  92  0.136  0.000  0.320-   8 1.97  24 1.97  23 2.02
  93  0.278  0.167  0.299-  23 1.97  39 1.97  24 2.02
  94  0.128  0.167  0.394-  28 1.91  24 1.97  25 2.04
  95  0.054  0.167  0.479-  25 1.95  28 2.00  29 2.05
  96  0.769  0.167  0.447-  26 1.97  42 1.97  25 2.01
  97  0.912  0.000  0.426-  25 1.96   9 1.96  26 2.03
  98  0.765  0.000  0.521-  30 1.88  26 2.01  31 2.04
  99  0.554  0.000  0.479-  27 1.95  26 2.00  31 2.04
 100  0.269  0.000  0.447-  28 1.97  12 1.97  27 2.01
 101  0.412  0.167  0.426-  27 1.96  43 1.96  28 2.04
 102  0.265  0.167  0.521-  32 1.88  28 2.01  29 2.04
 103  0.195  0.167  0.607-  29 1.94  32 1.98  33 2.15
 104  0.907  0.167  0.574-  30 1.97  46 1.98  29 2.00
 105  0.052  0.000  0.554-  29 1.96  13 1.96  30 2.06
 106  0.912  0.000  0.647-  34 1.80  30 2.05  35 2.12
 107  0.696  0.000  0.607-  31 1.95  30 1.97  35 2.15
 108  0.407  0.000  0.574-  16 1.97  32 1.97  31 2.00
 109  0.550  0.167  0.554-  47 1.96  31 1.96  32 2.05
 110  0.411  0.164  0.647-  36 1.79  32 2.04  33 2.13
 111  0.348  0.167  0.734-  36 1.86  33 1.88
 112  0.053  0.167  0.710-  34 2.01  50 2.02  33 2.02
[...]
 134  0.266  0.500  0.522-  48 1.93  45 2.01  44 2.01
 135  0.195  0.500  0.608-  45 1.93  48 1.97  49 2.16
 136  0.907  0.500  0.574-  14 1.96  46 1.96  45 2.03
 137  0.051  0.334  0.554-  29 1.96  45 1.96  46 2.04
 138  0.913  0.333  0.647-  50 1.79  46 2.05  51 2.13
 139  0.697  0.333  0.607-  47 1.96  46 1.98  51 2.09
 140  0.408  0.334  0.575-  48 1.97  32 1.97  47 2.00
 141  0.551  0.500  0.555-  47 1.96  15 1.96  48 2.06
 142  0.411  0.500  0.650-  52 1.89  48 2.03  49 2.07
 143  0.345  0.500  0.736-  49 1.87  52 1.87
 144  0.052  0.500  0.710-  50 2.00  18 2.00  49 2.06
 145  0.194  0.334  0.683-  33 1.95  49 1.96  50 2.09
 146  0.844  0.335  0.733-  50 1.86  51 1.90
 147  0.554  0.331  0.709-  36 1.99  52 2.01  51 2.02
 148  0.692  0.500  0.681-  19 1.96  51 1.96  52 2.09

IMPORTANT INFORMATION: All symmetrisations will be switched off!
NOSYMM: (Re-)initialisation of all symmetry stuff for point group C_1.

                                     Primitive cell

  volume of cell :    3395.7251

  direct lattice vectors                    reciprocal lattice vectors
    10.494931139  0.000000000  0.000000000     0.095284094 -0.000000000  0.000000000
     0.000000000 11.517834055  0.000000000     0.000000000  0.086821879  0.000000000
     0.000000000  0.000000000 28.091964603     0.000000000  0.000000000  0.035597368

  length of vectors
[...]
   5.18820920  7.67855604  7.50000000
  10.43567477  9.59819505  7.50000000
   9.64730557  9.59819505  9.87249167
   6.67244958  9.59819505  8.97920226
   8.16306520  7.67855604  8.39328941
   6.59270205  7.67855604 11.07315764
   4.39984000  7.67855604  9.87249167
   1.42498401  7.67855604  8.97920226
[...]
   2.79120092  5.75891700 14.67031738
   2.04538041  5.75891703 17.07954739
   9.51800441  5.75891709 16.11354150
   0.53988933  3.84140503 15.55724379
   9.58036378  3.83983725 18.17095604
   7.31027685  3.83179595 17.04415270
   4.27705088  3.84128102 16.15218124
   5.78270794  5.75891700 15.57890524
   4.31134500  5.75891682 18.26317469
   3.62198211  5.75891705 20.66789646
   0.54889225  5.75891714 19.94830754
   2.03921530  3.84229729 19.19475988
   8.86124402  3.85905739 20.58031408
   5.81229544  3.80990552 19.90351007
   7.26603559  5.75891747 19.12766619

--------------------------------------- Iteration      FINAL  ---------------------------------------

--------------------OUTCAR has been truncated-------------------------

[...]

--------------------OUTCAR has been truncated-------------------------

  FORCE on cell =-STRESS in cart. coord.  units (eV):
  Direction    XX          YY          ZZ          XY          YZ          ZX
  Alpha Z  2345.82436  2345.82436  2345.82436
  Ewald  464359.97746457445.06966************     0.01198    -0.00013 -1769.88210
  Hartree485646.76510481426.96591************     0.00239    -0.00007 -1200.86848
  E(xc)   -5172.94411 -5173.80606 -5172.69335     0.00003    -0.00002    -0.36039
  Local  ************************958087.84945    -0.01057     0.00018  2971.01283
  n-local -3335.13308 -3308.01287 -3348.38325    -0.00049     0.00006     1.32609
  augment  3153.00194  3149.85182  3142.62454    -0.00009     0.00004     0.58723
  Kinetic 17051.38235 17114.96908 17182.37360    -0.00047     0.00067    -9.96594
  Fock        0.00000     0.00000     0.00000     0.00000     0.00000     0.00000
  Total    -130.77090   -96.51036   -82.53801     0.00279     0.00074    -8.15077
  in kB     -61.70057   -45.53570   -38.94324     0.00132     0.00035    -3.84571

 VOLUME and BASIS-vectors are now :
  energy-cutoff  :      600.00
  volume of cell :     3395.73
      direct lattice vectors                 reciprocal lattice vectors
    10.494931139  0.000000000  0.000000000     0.095284094 -0.000000000  0.000000000
     0.000000000 11.517834055  0.000000000     0.000000000  0.086821879  0.000000000
     0.000000000  0.000000000 28.091964603     0.000000000  0.000000000  0.035597368

  length of vectors
    10.494931139 11.517834055 28.091964603     0.095284094  0.086821879  0.035597368

 FORCES acting on ions:
    Electron-Ion                     Ewald-Force                    Non-Local-Force
   -.163E+02 0.545E-02 -.166E+04   0.764E+01 -.969E-02 0.164E+04   0.854E+01 -.115E-02 0.192E+02
   0.466E+02 0.355E-02 -.354E+03   -.519E+02 -.376E-02 0.359E+03   0.520E+01 0.472E-03 -.518E+01
   -.420E+02 0.556E+02 -.338E+03   0.464E+02 -.617E+02 0.339E+03   -.430E+01 0.592E+01 -.773E+00
   -.421E+02 -.556E+02 -.338E+03   0.464E+02 0.617E+02 0.339E+03   -.430E+01 -.593E+01 -.773E+00
   0.411E+01 -.159E-01 0.323E+04   0.557E+00 0.159E-01 -.322E+04   -.992E+00 -.410E-04 -.323E+01
   0.553E+01 -.106E+00 0.265E+04   -.705E+01 0.107E+00 -.265E+04   -.870E-01 -.690E-03 -.933E-01
   0.406E+01 0.127E+00 0.323E+04   0.585E+00 -.132E+00 -.322E+04   -.990E+00 0.134E-02 -.323E+01
   0.434E+01 0.762E-01 0.265E+04   -.589E+01 -.828E-01 -.266E+04   -.811E-01 0.118E-02 -.974E-01
   -.157E+01 0.211E+00 0.121E+04   0.137E+01 -.213E+00 -.121E+04   0.187E+00 -.387E-03 -.732E-03
   -.142E+01 -.146E+01 0.765E+03   0.146E+01 0.145E+01 -.764E+03   -.211E-01 0.172E-01 -.127E+00
   -.280E+00 -.486E+00 0.121E+04   0.962E-01 0.477E+00 -.121E+04   0.182E+00 0.921E-02 -.161E-01
   -.720E+01 0.107E+00 0.759E+03   0.722E+01 -.106E+00 -.759E+03   0.259E-02 0.303E-02 -.136E+00
   -.509E+01 -.232E+01 -.749E+03   0.476E+01 0.232E+01 0.749E+03   0.320E+00 0.809E-02 0.686E-01
   -.119E+02 -.517E+01 -.112E+04   0.121E+02 0.516E+01 0.112E+04   -.834E-01 0.137E-01 -.199E+00
   0.646E+00 -.198E+01 -.729E+03   -.933E+00 0.199E+01 0.729E+03   0.287E+00 0.234E-02 0.547E-01
   -.436E+01 -.809E+00 -.114E+04   0.450E+01 0.817E+00 0.114E+04   -.905E-01 -.121E-01 -.258E+00
   0.276E+02 -.112E+02 -.267E+04   -.286E+02 0.112E+02 0.267E+04   0.955E+00 0.142E-01 -.175E+00
   -.848E+02 -.189E+02 -.303E+04   0.848E+02 0.188E+02 0.303E+04   -.369E-01 0.137E+00 0.704E+00
   -.924E+01 -.343E+02 -.259E+04   0.836E+01 0.343E+02 0.259E+04   0.893E+00 -.193E-01 -.355E-01
   -.630E+02 -.327E+02 -.302E+04   0.630E+02 0.326E+02 0.302E+04   0.124E-03 0.371E-01 0.712E+00
   0.411E+01 0.158E-01 0.323E+04   0.557E+00 -.159E-01 -.322E+04   -.992E+00 0.282E-04 -.323E+01
   0.551E+01 0.313E-04 0.265E+04   -.704E+01 0.128E-04 -.266E+04   -.833E-01 0.598E-05 -.966E-01
   0.399E+01 -.310E-04 0.323E+04   0.668E+00 0.565E-05 -.322E+04   -.991E+00 -.157E-04 -.323E+01
   0.434E+01 -.763E-01 0.265E+04   -.589E+01 0.828E-01 -.266E+04   -.811E-01 -.116E-02 -.974E-01
   -.157E+01 -.211E+00 0.121E+04   0.137E+01 0.213E+00 -.121E+04   0.187E+00 0.395E-03 -.748E-03
   -.362E+01 0.259E-04 0.763E+03   0.363E+01 -.198E-04 -.763E+03   0.116E-01 -.269E-05 -.140E+00
   -.108E+00 -.806E-04 0.121E+04   -.809E-01 0.532E-04 -.121E+04   0.179E+00 0.269E-05 -.151E-01
   -.720E+01 -.107E+00 0.759E+03   0.722E+01 0.106E+00 -.759E+03   0.260E-02 -.303E-02 -.136E+00
   -.509E+01 0.232E+01 -.749E+03   0.476E+01 -.232E+01 0.749E+03   0.320E+00 -.809E-02 0.686E-01
   -.126E+02 -.236E-04 -.114E+04   0.127E+02 0.313E-04 0.114E+04   -.563E-01 -.225E-05 -.208E+00
   -.272E+01 -.655E-04 -.740E+03   0.240E+01 0.346E-04 0.740E+03   0.323E+00 0.102E-04 0.103E+00
   -.436E+01 0.809E+00 -.114E+04   0.450E+01 -.817E+00 0.114E+04   -.905E-01 0.121E-01 -.258E+00
   0.276E+02 0.112E+02 -.267E+04   -.286E+02 -.112E+02 0.267E+04   0.955E+00 -.142E-01 -.175E+00
   -.742E+02 -.164E-03 -.304E+04   0.744E+02 0.145E-03 0.304E+04   -.779E-01 0.150E-07 0.713E+00
   0.126E+02 -.201E-03 -.266E+04   -.135E+02 0.179E-03 0.266E+04   0.905E+00 0.217E-04 -.115E+00
   -.630E+02 0.327E+02 -.302E+04   0.630E+02 -.326E+02 0.302E+04   0.139E-03 -.371E-01 0.712E+00
   0.416E+01 0.471E-04 0.323E+04   0.516E+00 -.920E-05 -.322E+04   -.992E+00 -.151E-04 -.323E+01
   0.553E+01 0.106E+00 0.265E+04   -.705E+01 -.107E+00 -.265E+04   -.870E-01 0.712E-03 -.933E-01
   0.406E+01 -.127E+00 0.323E+04   0.585E+00 0.132E+00 -.322E+04   -.990E+00 -.131E-02 -.323E+01
   0.346E+01 0.146E-04 0.265E+04   -.496E+01 -.183E-05 -.266E+04   -.971E-01 0.197E-04 -.961E-01
   0.116E+01 -.802E-07 0.121E+04   -.133E+01 -.166E-04 -.121E+04   0.160E+00 -.151E-04 0.283E-01
   -.142E+01 0.146E+01 0.765E+03   0.146E+01 -.145E+01 -.764E+03   -.211E-01 -.172E-01 -.127E+00
   -.280E+00 0.486E+00 0.121E+04   0.962E-01 -.477E+00 -.121E+04   0.182E+00 -.922E-02 -.161E-01
   -.111E+02 -.104E-03 0.744E+03   0.111E+02 0.731E-04 -.744E+03   0.783E-02 -.167E-04 -.600E-01
   0.643E+00 0.601E-05 -.750E+03   -.898E+00 0.935E-05 0.750E+03   0.236E+00 0.176E-04 0.987E-01
   -.119E+02 0.517E+01 -.112E+04   0.121E+02 -.516E+01 0.112E+04   -.834E-01 -.137E-01 -.199E+00
   0.646E+00 0.198E+01 -.729E+03   -.933E+00 -.199E+01 0.729E+03   0.287E+00 -.235E-02 0.547E-01
   -.656E+01 -.154E-04 -.118E+04   0.666E+01 0.156E-04 0.118E+04   -.609E-01 -.130E-05 -.164E+00
   0.510E+02 0.107E-03 -.267E+04   -.517E+02 -.888E-04 0.267E+04   0.660E+00 -.250E-05 -.245E-01
   -.848E+02 0.189E+02 -.303E+04   0.848E+02 -.188E+02 0.303E+04   -.369E-01 -.137E+00 0.704E+00
   -.924E+01 0.343E+02 -.259E+04   0.836E+01 -.343E+02 0.259E+04   0.893E+00 0.193E-01 -.355E-01
   0.157E+01 0.272E-02 -.298E+04   -.106E+01 -.256E-02 0.298E+04   -.422E+00 -.585E-04 -.296E+00
   -.315E+02 -.221E-01 0.218E+04   0.361E+02 0.219E-01 -.220E+04   -.637E+01 0.342E-03 0.168E+02
   -.318E+02 -.261E-01 0.218E+04   0.364E+02 0.245E-01 -.220E+04   -.637E+01 0.213E-02 0.168E+02
   0.779E+02 0.867E-01 0.133E+04   -.820E+02 -.854E-01 -.132E+04   0.332E+01 -.346E-02 -.414E+01
   0.724E+02 0.215E-01 0.162E+04   -.787E+02 -.217E-01 -.161E+04   0.677E+01 0.620E-03 -.242E+01
   -.835E+02 -.409E-01 0.186E+04   0.900E+02 0.399E-01 -.186E+04   -.635E+01 0.136E-02 -.295E+00
   -.638E+02 -.738E+00 0.101E+04   0.686E+02 0.790E+00 -.102E+04   -.493E+01 -.516E-01 0.417E+01
   0.785E+02 0.557E-01 0.132E+04   -.825E+02 -.359E-01 -.132E+04   0.330E+01 -.218E-01 -.404E+01
   0.716E+02 0.875E-01 0.162E+04   -.779E+02 -.946E-01 -.161E+04   0.678E+01 0.175E-01 -.244E+01
[...]
   0.830E+02 0.564E-04 -.104E+04   -.890E+02 -.365E-04 0.105E+04   0.617E+01 -.236E-04 -.812E+01
   0.681E+02 0.157E-03 -.681E+03   -.734E+02 -.170E-03 0.684E+03   0.543E+01 0.288E-05 -.275E+01
   -.777E+02 0.745E+00 -.441E+03   0.833E+02 -.761E+00 0.439E+03   -.575E+01 0.150E-01 0.258E+01
   -.592E+02 0.803E+01 -.122E+04   0.607E+02 -.823E+01 0.121E+04   -.158E+01 0.194E+00 0.984E+01
   0.773E+02 0.717E+01 -.101E+04   -.828E+02 -.735E+01 0.101E+04   0.572E+01 0.177E+00 -.612E+01
   0.765E+02 0.113E+01 -.697E+03   -.823E+02 -.120E+01 0.700E+03   0.586E+01 0.746E-01 -.309E+01
   -.693E+02 -.339E-04 -.446E+03   0.745E+02 0.403E-04 0.444E+03   -.539E+01 -.153E-04 0.219E+01
   -.549E+02 0.111E-03 -.124E+04   0.594E+02 -.102E-03 0.124E+04   -.467E+01 0.336E-05 0.678E+01
   0.999E+02 0.601E-03 -.217E+04   -.105E+03 -.580E-03 0.219E+04   0.485E+01 -.368E-04 -.203E+02
   0.475E+02 0.617E-05 -.192E+04   -.508E+02 0.748E-05 0.193E+04   0.339E+01 -.145E-04 -.711E+01
   -.474E+02 0.580E+01 -.159E+04   0.518E+02 -.561E+01 0.159E+04   -.460E+01 -.199E+00 0.275E+01
   0.131E+02 0.271E+02 -.217E+04   -.179E+02 -.271E+02 0.219E+04   0.497E+01 -.582E-02 -.196E+02
   0.733E+02 0.425E+02 -.186E+04   -.779E+02 -.421E+02 0.187E+04   0.476E+01 -.403E+00 -.611E+01
   -.702E+02 0.638E-03 -.151E+04   0.744E+02 -.631E-03 0.151E+04   -.436E+01 -.401E-04 0.376E+01
   -.191E+02 0.344E-02 0.553E+02   -.114E-11 -.297E-11 0.909E-11   0.191E+02 -.322E-02 -.553E+02

 POSITION                                       TOTAL-FORCE (eV/Angst)
      6.30499      5.75897     21.98960        -0.139178     -0.005378     -0.277962
      5.59879      5.75892     22.72735        -0.108393      0.000261      0.035544
      6.90165      4.93873     22.12044         0.065023     -0.114629     -0.053485
      6.90161      6.57905     22.12043         0.068417      0.119664     -0.052492
      8.55406      9.59820      8.23960         3.697847     -0.000031      2.085930
      6.28145      7.67856      9.13289        -1.611249     -0.000093     -1.870240
      3.30660      7.67856      8.23960         3.677896     -0.003889      2.075786
      1.03399      9.59820      9.13289        -1.632379     -0.005413     -1.880774
      9.95823      9.59847     11.85834        -0.008932     -0.000467      0.007563
      7.65896      7.67378     12.66152        -0.003540     -0.002732     -0.006352
      4.70699      7.67575     11.85582        -0.006637     -0.002144      0.003944
      2.40343      9.59736     12.66802        -0.006511      0.003852     -0.005175
      0.92069      9.59910     15.47898        -0.006737      0.002638      0.001799
      9.08928      7.67085     16.18088        -0.012834     -0.003554     -0.007053
      6.15814      7.67530     15.46009        -0.007304      0.005231      0.002335
      3.82906      9.59890     16.20312        -0.012583     -0.002383     -0.009922
      2.42846      9.59048     19.17985         0.047512     -0.001323      0.005926
      0.00873      7.66543     19.70941        -0.167411     -0.001613     -0.246012
      7.66468      7.68049     19.10697         0.021793     -0.012049      0.018286
      5.27419      9.61311     19.70166        -0.167159     -0.002237     -0.231690
      8.55406      1.91964      8.23960         3.697907     -0.000051      2.085827
      6.28145      0.00000      9.13289        -1.620484      0.000049     -1.878779
      3.30660      0.00000      8.23960         3.690025     -0.000042      2.079408
      1.03399      1.91964      9.13289        -1.632371      0.005426     -1.880673
      9.95823      1.91937     11.85834        -0.009000      0.000473      0.007559
      7.65517      0.00000     12.66149        -0.003954      0.000002     -0.006246
      4.70783     11.51783     11.85757        -0.012852     -0.000027      0.012113
      2.40343      1.92047     12.66802        -0.006540     -0.003847     -0.005133
      0.92069      1.91873     15.47898        -0.006711     -0.002634      0.001795
      9.07702      0.00000     16.19041        -0.016542      0.000004     -0.009556
      6.16310      0.00000     15.46694        -0.006333     -0.000022      0.002421
      3.82906      1.91894     16.20313        -0.012644      0.002377     -0.009977
      2.42846      1.92735     19.17985         0.047472      0.001261      0.005965
      0.03017      0.00000     19.70973        -0.170031     -0.000021     -0.244012
      7.69434      0.00000     19.16060         0.040573     -0.000001      0.008297
      5.27419      1.90473     19.70166        -0.167103      0.002197     -0.231715
      8.55406      5.75892      8.23960         3.705654      0.000022      2.079498
      6.28145      3.83928      9.13289        -1.611341      0.000013     -1.870196
      3.30660      3.83928      8.23960         3.677806      0.004005      2.075811
      1.03399      5.75892      9.13289        -1.601844      0.000031     -1.818789
      9.97301      5.75892     11.85267         0.000141     -0.000033      0.002993
      7.65896      3.84405     12.66152        -0.003552      0.002726     -0.006370
      4.70699      3.84209     11.85582        -0.006643      0.002142      0.003950
      2.40605      5.75892     12.69584        -0.014984     -0.000050     -0.008837
      0.95198      5.75892     15.48433         0.005134      0.000031     -0.002177
      9.08928      3.84698     16.18088        -0.012831      0.003555     -0.007011
      6.15814      3.84253     15.46009        -0.007318     -0.005208      0.002302
      3.84389      5.75892     16.28735        -0.018420     -0.000003     -0.005350
      2.46897      5.75892     19.20116         0.075168      0.000014      0.001040
      0.00873      3.85240     19.70941        -0.167402      0.001662     -0.246161
      7.66468      3.83734     19.10697         0.021825      0.012078      0.018214
      5.30796      5.75892     19.86413        -0.057335      0.000100     -0.082847
      5.18821      7.67856      7.50000        -1.779068      0.000192      1.500261
     10.43567      9.59820      7.50000        -1.775953      0.000543      1.497837
      9.64731      9.59820      9.87249        -0.766285     -0.002140     -0.206556
      6.67245      9.59820      8.97920         0.484126      0.000492     -0.112617
      8.16307      7.67856      8.39329         0.123296      0.000278     -0.951103
      6.59270      7.67856     11.07316        -0.183670      0.000466      0.473391
      4.39984      7.67856      9.87249        -0.773137     -0.001971     -0.190578
      1.42498      7.67856      8.97920         0.491156      0.010264     -0.118581
[...]
      2.79120      5.75892     14.67032        -0.134436     -0.000000      0.089937
      2.04538      5.75892     17.07955         0.145421     -0.000005     -0.155528
      9.51800      5.75892     16.11354         0.131456     -0.000012     -0.058862
      0.53989      3.84141     15.55724        -0.134734     -0.000256      0.058384
      9.58036      3.83984     18.17096        -0.078663      0.002510      0.133955
      7.31028      3.83180     17.04415         0.139258      0.003250     -0.118079
      4.27705      3.84128     16.15218         0.135824      0.000177     -0.065367
      5.78271      5.75892     15.57891        -0.125536     -0.000010      0.051588
      4.31134      5.75892     18.26317        -0.129297      0.000011      0.078384
      3.62198      5.75892     20.66790         0.113647     -0.000018     -0.498422
      0.54889      5.75892     19.94831         0.089569     -0.000002     -0.199082
      2.03922      3.84230     19.19476        -0.112126     -0.010517      0.054020
      8.86124      3.85906     20.58031         0.099445      0.006147     -0.500731
      5.81230      3.80991     19.90351         0.121032      0.012477     -0.152740
      7.26604      5.75892     19.12767        -0.106100     -0.000034      0.087374
    total drift:                                0.007650      0.000216     -0.007253

  FREE ENERGIE OF THE ION-ELECTRON SYSTEM (eV)
  free  energy   TOTEN  =     -1060.77605102 eV

  energy  without entropy=    -1060.77605102  energy(sigma->0) =    -1060.77605102