 vasp.6.3.0 20Jan22 (build Apr  1 2022 16:44:48) complex
 executed on        HPECrayEX_GCC date 2022.11.13  06:48:31

 INCAR:
   SYSTEM = MgO-rocksalt
   ISMEAR = 0
   SIGMA = 0.05
   EDIFF = 1E-6
   ALGO = ALL
   ISTART = 0
   IBRION = -1
   NSW = 0
   ISYM = 0
   DIPOL = 0.5 0.5 0.5
   IDIPOL = 3
   LDIPOL = .TRUE.
   LHFCALC = .TRUE.
   GGA = B5
   AEXX = 0.2
   AGGAX = 0.72
   AGGAC = 0.81
   ALDAC = 0.19
   IVDW = 1
   VDW_S6 = 1.05
   VDW_C6 = 1.75 0.70 0.63 0.70
   VDW_R0 = 1.452 1.342 1.243 1.342
   ENCUT = 600
   PREC = Accurate
   LASPH = .TRUE.
   LREAL = .FALSE.
   ISPIN = 1
   NELM = 200
   NELMIN = 8
   NCORE = 8
   KPAR = 1
   LWAVE = .FALSE.
   LCHARG = .FALSE.

 POTCAR:    PAW_PBE C 08Apr2002
 POTCAR:    PAW_PBE O 08Apr2002
 POTCAR:    PAW_PBE Mg_pv 13Apr2007
 POTCAR:    PAW_PBE O 08Apr2002
 POTCAR:    PAW_PBE C 08Apr2002
   VRHFIN =C: s2p2

   TITEL  = PAW_PBE C 08Apr2002
   POMASS =   12.011; ZVAL   =    4.000    mass and valenz
   ENMAX  =  400.000; ENMIN  =  300.000 eV

[...]

   TITEL  = PAW_PBE Mg_pv 13Apr2007
   POMASS =   24.305; ZVAL   =    8.000    mass and valenz
   ENMAX  =  403.929; ENMIN  =  302.947 eV

   TITEL  = PAW_PBE O 08Apr2002
   POMASS =   16.000; ZVAL   =    6.000    mass and valenz
   ENMAX  =  400.000; ENMIN  =  300.000 eV

  PAW_PBE C 08Apr2002                   :
  PAW_PBE O 08Apr2002                   :
  PAW_PBE Mg_pv 13Apr2007               :
  PAW_PBE O 08Apr2002                   :

 POSCAR:  C  O Mg  O
  positions in direct lattice
 exchange correlation table for  LEXCH =       12
   RHO(1)=    0.500       N(1)  =     2000
   RHO(2)=  100.500       N(2)  =     4000

 ion  position               nearest neighbor table
   1  0.500  0.750  0.725-   3 1.26   2 1.26  56 1.48
   2  0.500  0.886  0.748-   1 1.26  26 2.18
   3  0.500  0.614  0.748-   1 1.26  34 2.18
   4  0.000  0.750  0.350-  36 2.14  38 2.14  39 2.14  46 2.14  55 2.14
   5  0.250  0.000  0.350-  37 2.14  38 2.14  39 2.14  47 2.14  54 2.14
   6  0.000  0.000  0.450-  42 2.13  38 2.14  36 2.14  37 2.14  44 2.14  53 2.14
   7  0.250  0.750  0.450-  39 2.14  37 2.14  36 2.14  45 2.14  52 2.14  43 2.15
   8  1.000  0.750  0.549-  36 2.12  50 2.13  42 2.13  59 2.16  43 2.16  40 2.16
   9  0.252  0.001  0.551-  58 2.12  41 2.12  51 2.13  43 2.14  42 2.16  37 2.16
  10  0.000  0.003  0.649-  48 2.11  41 2.12  57 2.12  42 2.13  40 2.16
  11  0.236  0.750  0.648-  40 2.02  43 2.09  49 2.13  41 2.13
  12  0.000  0.250  0.350-  44 2.14  38 2.14  46 2.14  47 2.14  63 2.14
  13  0.250  0.500  0.350-  45 2.14  39 2.14  46 2.14  47 2.14  62 2.14
  14  0.000  0.500  0.450-  50 2.13  46 2.14  45 2.14  36 2.14  44 2.14  61 2.14
  15  0.250  0.250  0.450-  47 2.14  44 2.14  45 2.14  37 2.14  60 2.14  51 2.14
  16  0.000  0.250  0.550-  44 2.13  50 2.14  42 2.14  51 2.14  67 2.14  48 2.16
  17  0.252  0.499  0.551-  66 2.12  49 2.12  51 2.13  43 2.14  50 2.16  45 2.16
  18  0.000  0.497  0.649-  48 2.11  49 2.12  65 2.12  50 2.13  40 2.16
  19  0.247  0.250  0.650-  48 2.11  51 2.13  49 2.15  41 2.15  64 2.16
  20  0.500  0.750  0.350-  52 2.14  39 2.14  54 2.14  55 2.14  62 2.14
  21  0.750  0.000  0.350-  53 2.14  38 2.14  54 2.14  55 2.14  63 2.14
  22  0.500  0.000  0.450-  54 2.14  52 2.14  53 2.14  37 2.14  60 2.14  58 2.16
  23  0.750  0.750  0.450-  55 2.14  52 2.14  53 2.14  36 2.14  61 2.14  59 2.15
  24  0.500  0.750  0.548-  52 2.09  59 2.12  43 2.12  58 2.12  66 2.12
  25  0.748  0.001  0.551-  58 2.12  57 2.12  67 2.13  59 2.14  42 2.16  53 2.16
  26  0.500  0.012  0.660-  64 2.04  41 2.17  57 2.17   2 2.18  56 2.24
  27  0.764  0.750  0.648-  40 2.02  59 2.09  65 2.13  57 2.13
  28  0.500  0.250  0.350-  60 2.14  54 2.14  47 2.14  62 2.14  63 2.14
  29  0.750  0.500  0.350-  61 2.14  55 2.14  46 2.14  62 2.14  63 2.14
  30  0.500  0.500  0.450-  62 2.14  52 2.14  60 2.14  61 2.14  45 2.14  66 2.16
  31  0.750  0.250  0.450-  63 2.14  53 2.14  60 2.14  61 2.14  44 2.14  67 2.14
  32  0.500  0.250  0.551-  51 2.13  67 2.13  58 2.16  66 2.16  64 2.17  60 2.17
  33  0.748  0.499  0.551-  66 2.12  65 2.12  67 2.13  59 2.14  50 2.16  61 2.16
  34  0.500  0.488  0.660-  64 2.04  49 2.17  65 2.17   3 2.18  56 2.24
  35  0.753  0.250  0.650-  48 2.11  67 2.13  65 2.15  57 2.15  64 2.16
  36  0.000  0.750  0.450-   8 2.12   4 2.14   7 2.14   6 2.14  14 2.14  23 2.14
  37  0.250  0.000  0.450-   5 2.14   6 2.14   7 2.14  15 2.14  22 2.14   9 2.16
  38  0.000  0.000  0.350-   6 2.14   5 2.14   4 2.14  12 2.14  21 2.14
  39  0.250  0.750  0.350-   7 2.14   5 2.14   4 2.14  13 2.14  20 2.14
  40  0.000  0.750  0.650-  27 2.02  11 2.02   8 2.16  10 2.16  18 2.16
  41  0.248  0.999  0.650-  10 2.12   9 2.12  11 2.13  19 2.15  26 2.17
  42  0.000  0.999  0.550-   6 2.13   8 2.13  10 2.13  16 2.14   9 2.16  25 2.16
  43  0.252  0.750  0.551-  11 2.09  24 2.12   9 2.14  17 2.14   7 2.15   8 2.16
  44  0.000  0.250  0.450-  16 2.13  12 2.14  14 2.14  15 2.14   6 2.14  31 2.14
  45  0.250  0.500  0.450-  13 2.14   7 2.14  14 2.14  15 2.14  30 2.14  17 2.16
  46  0.000  0.500  0.350-  14 2.14  12 2.14  13 2.14   4 2.14  29 2.14
  47  0.250  0.250  0.350-  15 2.14  12 2.14  13 2.14   5 2.14  28 2.14
  48  0.000  0.250  0.651-  19 2.11  35 2.11  10 2.11  18 2.11  16 2.16
  49  0.248  0.501  0.650-  18 2.12  17 2.12  11 2.13  19 2.15  34 2.17
  50  0.000  0.501  0.550-  14 2.13   8 2.13  18 2.13  16 2.14  17 2.16  33 2.16
  51  0.251  0.250  0.550-  19 2.13   9 2.13  17 2.13  32 2.13  16 2.14  15 2.14
  52  0.500  0.750  0.450-  24 2.09  20 2.14  22 2.14  23 2.14   7 2.14  30 2.14
  53  0.750  0.000  0.450-  21 2.14   6 2.14  22 2.14  23 2.14  31 2.14  25 2.16
  54  0.500  0.000  0.350-  22 2.14  20 2.14  21 2.14   5 2.14  28 2.14
  55  0.750  0.750  0.350-  23 2.14  20 2.14  21 2.14   4 2.14  29 2.14
  56  0.500  0.750  0.656-   1 1.48  26 2.24  34 2.24
  57  0.752  0.999  0.650-  10 2.12  25 2.12  27 2.13  35 2.15  26 2.17
  58  0.500  0.998  0.551-   9 2.12  25 2.12  24 2.12  32 2.16  22 2.16
  59  0.748  0.750  0.551-  27 2.09  24 2.12  25 2.14  33 2.14  23 2.15   8 2.16
  60  0.500  0.250  0.450-  28 2.14  22 2.14  15 2.14  30 2.14  31 2.14  32 2.17
  61  0.750  0.500  0.450-  29 2.14  23 2.14  14 2.14  30 2.14  31 2.14  33 2.16
  62  0.500  0.500  0.350-  30 2.14  20 2.14  28 2.14  29 2.14  13 2.14
  63  0.750  0.250  0.350-  31 2.14  21 2.14  28 2.14  29 2.14  12 2.14
  64  0.500  0.250  0.653-  26 2.04  34 2.04  19 2.16  35 2.16  32 2.17
  65  0.752  0.501  0.650-  18 2.12  33 2.12  27 2.13  35 2.15  34 2.17
  66  0.500  0.502  0.551-  17 2.12  33 2.12  24 2.12  32 2.16  30 2.16
  67  0.749  0.250  0.550-  35 2.13  25 2.13  33 2.13  32 2.13  16 2.14  31 2.14

IMPORTANT INFORMATION: All symmetrisations will be switched off!
NOSYMM: (Re-)initialisation of all symmetry stuff for point group C_1.

                                     Primitive cell

  volume of cell :    1563.6717

  direct lattice vectors                    reciprocal lattice vectors
     8.546113626  0.000000000  0.000000000     0.117012252  0.000000000  0.000000000
     0.000000000  8.546113626  0.000000000     0.000000000  0.117012252  0.000000000
     0.000000000  0.000000000 21.409585219     0.000000000  0.000000000  0.046708051

  length of vectors
     8.546113626  8.546113626 21.409585219     0.117012252  0.117012252  0.046708051

  position of ions in fractional coordinates (direct lattice)
     0.499999992  0.749999527  0.725421071
     0.500000026  0.885621004  0.748418024
     0.499999987  0.614379477  0.748417785
     0.000000000  0.750000000  0.350310383
     0.250000000  0.000000000  0.350310383
     0.000000000  0.000000000  0.450103461
     0.250000000  0.750000000  0.450103461
     0.999999996  0.749999995  0.548934327
     0.252435121  0.000799322  0.551117351
     0.000000018  0.002694637  0.649174680
     0.236130573  0.749999923  0.647909678
     0.000000000  0.250000000  0.350310383
     0.250000000  0.500000000  0.350310383
     0.000000000  0.500000000  0.450103461
     0.250000000  0.250000000  0.450103461
     0.000000006  0.250000048  0.549757535
     0.252435106  0.499200687  0.551117401
     0.000000013  0.497305443  0.649174743
     0.247095179  0.250000020  0.649618847
     0.500000000  0.750000000  0.350310383
     0.750000000  0.000000000  0.350310383
     0.500000000  0.000000000  0.450103461
     0.750000000  0.750000000  0.450103461
     0.500000006  0.750000003  0.547825157
     0.747564865  0.000799317  0.551117381
     0.499999993  0.011658846  0.659893261
     0.763869454  0.749999933  0.647909717
     0.500000000  0.250000000  0.350310383
     0.750000000  0.500000000  0.350310383
     0.500000000  0.500000000  0.450103461
     0.750000000  0.250000000  0.450103461
     0.499999993  0.249999915  0.551456911
     0.747564900  0.499200696  0.551117424
     0.499999986  0.488341060  0.659893135
     0.752904818  0.250000023  0.649618834
     0.000000000  0.750000000  0.450103461
     0.250000000  0.000000000  0.450103461
     0.000000000  0.000000000  0.350310383
     0.250000000  0.750000000  0.350310383
     0.000000011  0.750000041  0.649751932
     0.247664923  0.998716189  0.650325631
     0.000000011  0.999496689  0.549535961
     0.252444442  0.750000066  0.550535273
     0.000000000  0.250000000  0.450103461
     0.250000000  0.500000000  0.450103461
     0.000000000  0.500000000  0.350310383
     0.250000000  0.250000000  0.350310383
     0.000000006  0.250000036  0.650512231
     0.247664723  0.501283682  0.650325546
     0.000000003  0.500503339  0.549535961
     0.250733516  0.249999975  0.550229632
     0.500000000  0.750000000  0.450103461
     0.750000000  0.000000000  0.450103461
     0.500000000  0.000000000  0.350310383
     0.750000000  0.750000000  0.350310383
     0.499999975  0.750000428  0.656241119
     0.752335083  0.998716161  0.650325629
     0.499999993  0.997697958  0.551167804
     0.747555556  0.750000068  0.550535284
     0.500000000  0.250000000  0.450103461
     0.750000000  0.500000000  0.450103461
     0.500000000  0.500000000  0.350310383
     0.750000000  0.250000000  0.350310383
     0.499999998  0.249999847  0.652708309
     0.752335277  0.501283712  0.650325548
     0.499999993  0.502301880  0.551167779
     0.749266477  0.249999978  0.550229652

  ion indices of the primitive-cell ions
   primitive index   ion index
                 1           1
                 2           2
                 3           3
                 4           4
                 5           5
                 6           6
                 7           7
                 8           8
                 9           9
                10          10
                11          11
                12          12
                13          13
                14          14
                15          15
                16          16
                17          17
                18          18
                19          19
                20          20
                21          21
                22          22
                23          23
                24          24
                25          25
                26          26
                27          27
[...]
   0.50000000  0.24999985  0.65270831
   0.75233528  0.50128371  0.65032555
   0.49999999  0.50230188  0.55116778
   0.74926648  0.24999998  0.55022965

 position of ions in cartesian coordinates  (Angst):
   4.27305674  6.40958118 15.53096425
   4.27305703  7.56861773 16.02331947
   4.27305670  5.25055682 16.02331434
   0.00000000  6.40958522  7.50000000
   2.13652841  0.00000000  7.50000000
   0.00000000  0.00000000  9.63652841
   2.13652841  6.40958522  9.63652841
   8.54611359  6.40958518 11.75245626
   2.15733923  0.00683109 11.79919389
   0.00000015  0.02302867 13.89856063
   2.01799870  6.40958456 13.87147746
   0.00000000  2.13652841  7.50000000
   2.13652841  4.27305681  7.50000000
   0.00000000  4.27305681  9.63652841
   2.13652841  2.13652841  9.63652841
   0.00000005  2.13652881 11.77008080
   2.15733910  4.26622580 11.79919496
   0.00000011  4.25002882 13.89856197
   2.11170347  2.13652858 13.90807007
   4.27305681  6.40958522  7.50000000
   6.40958522  0.00000000  7.50000000
   4.27305681  0.00000000  9.63652841
   6.40958522  6.40958522  9.63652841
   4.27305686  6.40958525 11.72870938
   6.38877428  0.00683105 11.79919453
   4.27305675  0.09963782 14.12804101
   6.52811515  6.40958465 13.87147831
   4.27305681  2.13652841  7.50000000
   6.40958522  4.27305681  7.50000000
   4.27305681  4.27305681  9.63652841
   6.40958522  2.13652841  9.63652841
   4.27305675  2.13652768 11.80646373
   6.38877458  4.26622587 11.79919546
   4.27305669  4.17341819 14.12803831
   6.43441013  2.13652860 13.90806978
   0.00000000  6.40958522  9.63652841
   2.13652841  0.00000000  9.63652841
   0.00000000  0.00000000  7.50000000
   2.13652841  6.40958522  7.50000000
   0.00000009  6.40958557 13.91091937
   2.11657257  8.53514203 13.92320202
   0.00000010  8.54181227 11.76533698
   2.15741888  6.40958578 11.78673184
   0.00000000  2.13652841  9.63652841
   2.13652841  4.27305681  9.63652841
   0.00000000  4.27305681  7.50000000
   2.13652841  2.13652841  7.50000000
   0.00000005  2.13652871 13.92719705
   2.11657086  4.28402731 13.92320021
   0.00000002  4.27735840 11.76533698
   2.14279712  2.13652819 11.78018819
   4.27305681  6.40958522  9.63652841
   6.40958522  0.00000000  9.63652841
   4.27305681  0.00000000  7.50000000
   6.40958522  6.40958522  7.50000000
   4.27305660  6.40958888 14.04985017
   6.42954110  8.53514180 13.92320198
   4.27305676  8.52644012 11.80027407
   6.38869473  6.40958580 11.78673207
   4.27305681  2.13652841  9.63652841
   6.40958522  4.27305681  9.63652841
   4.27305681  4.27305681  7.50000000
   6.40958522  2.13652841  7.50000000
   4.27305680  2.13652710 13.97421416
   6.42954276  4.28402757 13.92320023
   4.27305675  4.29272895 11.80027353
   6.40331645  2.13652822 11.78018862

--------------------------------------- Iteration      FINAL  ---------------------------------------

--------------------OUTCAR has been truncated-------------------------

[...]

--------------------OUTCAR has been truncated-------------------------

  DFT-D2 method for vdW energy calculation

  Parameters of vdW forcefield:
         C6(Jnm^6/mol)     R0(A)
   C        1.750          1.452
   O        0.700          1.342
   Mg       0.630          1.243
   O        0.700          1.342

  vdW correction parametrized for the method        É

  IVDW =   1
  VDW_RADIUS =    50.000 A
  VDW_S6 =     1.050
  VDW_SR =     1.000
  VDW_D =    20.000
  LVDW_EWALD = F

  Number of pair interactions contributing to vdW energy:  771417
  Edisp (eV):   -5.06597

 VOLUME and BASIS-vectors are now :
  energy-cutoff  :      600.00
  volume of cell :     1563.67
      direct lattice vectors                 reciprocal lattice vectors
     8.546113626  0.000000000  0.000000000     0.117012252  0.000000000  0.000000000
     0.000000000  8.546113626  0.000000000     0.000000000  0.117012252  0.000000000
     0.000000000  0.000000000 21.409585219     0.000000000  0.000000000  0.046708051

  length of vectors
     8.546113626  8.546113626 21.409585219     0.117012252  0.117012252  0.046708051

 FORCES acting on ions:
    Electron-Ion                     Ewald-Force                    Non-Local-Force
   0.439E-04 -.290E-02 -.106E+04   -.432E-04 0.359E-02 0.107E+04   0.723E-06 -.547E-04 -.235E+01
   -.627E-04 -.221E+03 -.174E+04   0.633E-04 0.264E+03 0.177E+04   -.200E-04 -.391E+02 -.248E+02
   0.102E-04 0.221E+03 -.174E+04   -.252E-04 -.264E+03 0.177E+04   -.518E-05 0.391E+02 -.248E+02
   0.103E-04 0.293E-05 0.204E+04   -.964E-05 -.101E-04 -.203E+04   -.270E-05 -.295E-05 -.624E+01
   0.318E-01 -.780E+00 0.204E+04   -.302E-01 0.821E+00 -.203E+04   -.141E-02 -.268E-01 -.638E+01
   0.617E-04 -.251E+01 0.729E+03   -.579E-04 0.267E+01 -.729E+03   -.537E-05 -.104E+00 0.624E-01
   0.254E+01 0.908E-04 0.729E+03   -.258E+01 -.891E-04 -.730E+03   0.184E-01 -.305E-05 0.715E+00
   0.555E-04 -.312E-04 -.551E+03   -.501E-04 0.416E-04 0.551E+03   -.830E-06 -.127E-05 0.120E+00
   0.477E+01 -.802E+01 -.574E+03   -.407E+01 0.826E+01 0.575E+03   -.628E+00 -.214E+00 -.121E+01
   0.367E-04 -.164E+02 -.192E+04   -.331E-04 0.172E+02 0.191E+04   0.915E-05 -.779E+00 0.557E+01
   0.437E+02 0.127E-03 -.183E+04   -.495E+02 -.455E-04 0.182E+04   0.523E+01 -.558E-04 0.635E+01
   0.191E-04 -.583E-05 0.204E+04   -.111E-04 0.939E-05 -.203E+04   -.364E-05 -.388E-05 -.634E+01
   0.318E-01 0.780E+00 0.204E+04   -.302E-01 -.821E+00 -.203E+04   -.141E-02 0.268E-01 -.638E+01
   0.417E-04 0.251E+01 0.729E+03   -.444E-04 -.267E+01 -.729E+03   0.409E-05 0.104E+00 0.624E-01
   -.114E+01 -.690E-04 0.725E+03   0.125E+01 0.695E-04 -.726E+03   -.744E-01 0.294E-05 0.394E+00
   0.538E-04 0.100E-03 -.574E+03   -.580E-04 -.106E-03 0.574E+03   -.737E-05 0.207E-05 -.146E+00
   0.477E+01 0.802E+01 -.574E+03   -.407E+01 -.826E+01 0.575E+03   -.628E+00 0.214E+00 -.121E+01
   0.370E-04 0.164E+02 -.192E+04   -.331E-04 -.172E+02 0.191E+04   0.786E-05 0.779E+00 0.557E+01
   0.258E+02 0.156E-03 -.191E+04   -.267E+02 -.190E-03 0.190E+04   0.881E+00 0.184E-04 0.569E+01
   -.275E-05 0.141E-04 0.204E+04   0.957E-05 -.146E-04 -.203E+04   -.593E-05 0.350E-05 -.620E+01
   -.318E-01 -.780E+00 0.204E+04   0.302E-01 0.821E+00 -.203E+04   0.142E-02 -.268E-01 -.638E+01
   -.521E-04 -.621E+01 0.726E+03   0.510E-04 0.652E+01 -.726E+03   0.304E-05 -.192E+00 0.493E+00
   -.254E+01 0.771E-04 0.729E+03   0.258E+01 -.820E-04 -.730E+03   -.184E-01 0.748E-05 0.715E+00
   -.429E-04 0.460E-03 -.557E+03   0.434E-04 -.410E-03 0.552E+03   -.697E-06 -.392E-04 0.446E+01
   -.477E+01 -.802E+01 -.574E+03   0.407E+01 0.826E+01 0.575E+03   0.628E+00 -.214E+00 -.121E+01
   0.169E-05 -.846E+02 -.184E+04   0.757E-05 0.880E+02 0.184E+04   -.573E-06 -.302E+01 0.109E+01
   -.437E+02 0.163E-03 -.183E+04   0.495E+02 -.792E-04 0.182E+04   -.523E+01 -.535E-04 0.635E+01
   -.591E-05 -.775E-05 0.204E+04   0.110E-04 0.137E-04 -.203E+04   -.321E-05 -.458E-05 -.639E+01
   -.318E-01 0.780E+00 0.204E+04   0.302E-01 -.821E+00 -.203E+04   0.142E-02 0.268E-01 -.638E+01
   -.419E-04 0.621E+01 0.726E+03   0.482E-04 -.652E+01 -.726E+03   -.426E-05 0.192E+00 0.493E+00
   0.114E+01 -.548E-04 0.725E+03   -.125E+01 0.619E-04 -.726E+03   0.744E-01 -.719E-05 0.394E+00
   -.283E-04 -.851E-04 -.583E+03   0.354E-04 0.662E-04 0.583E+03   0.885E-05 0.160E-04 -.354E+00
   -.477E+01 0.802E+01 -.574E+03   0.407E+01 -.826E+01 0.575E+03   0.628E+00 0.214E+00 -.121E+01
   -.270E-04 0.846E+02 -.184E+04   0.390E-04 -.880E+02 0.184E+04   -.410E-05 0.302E+01 0.109E+01
   -.258E+02 0.150E-03 -.191E+04   0.267E+02 -.183E-03 0.190E+04   -.881E+00 0.200E-04 0.569E+01
   0.295E-04 0.166E-04 0.550E+03   -.277E-04 -.210E-04 -.550E+03   0.249E-07 0.102E-05 0.339E+00
   0.351E+00 -.215E+01 0.544E+03   -.470E+00 0.225E+01 -.543E+03   0.139E+00 -.126E+00 -.325E+00
   0.984E-06 -.452E+00 0.153E+04   -.836E-05 0.488E+00 -.153E+04   0.636E-05 -.449E-01 0.314E+01
   0.190E+00 0.114E-04 0.153E+04   -.198E+00 -.104E-04 -.154E+04   0.999E-02 -.107E-05 0.320E+01
   -.261E-04 -.154E-03 -.144E+04   0.189E-04 0.184E-03 0.145E+04   0.812E-05 -.394E-04 -.461E+01
   0.344E+02 -.274E+02 -.141E+04   -.335E+02 0.275E+02 0.142E+04   -.827E+00 -.722E-01 -.461E+01
   0.710E-04 -.574E+01 -.423E+03   -.678E-04 0.581E+01 0.423E+03   -.547E-06 -.627E-01 0.954E-01
   0.263E+01 0.129E-03 -.418E+03   -.290E+01 -.108E-03 0.417E+03   0.250E+00 -.224E-04 0.840E+00
   0.458E-04 -.857E-05 0.545E+03   -.383E-04 0.626E-05 -.545E+03   -.336E-05 0.208E-05 -.252E-01
   0.351E+00 0.215E+01 0.544E+03   -.470E+00 -.225E+01 -.543E+03   0.139E+00 0.126E+00 -.325E+00
   0.167E-04 0.452E+00 0.153E+04   -.755E-05 -.488E+00 -.153E+04   -.394E-05 0.450E-01 0.314E+01
   -.128E+00 0.111E-05 0.153E+04   0.137E+00 0.977E-05 -.153E+04   -.110E-01 -.526E-05 0.311E+01
   0.393E-04 0.164E-03 -.146E+04   -.389E-04 -.155E-03 0.146E+04   0.158E-04 0.113E-04 -.449E+01
   0.344E+02 0.274E+02 -.141E+04   -.335E+02 -.275E+02 0.142E+04   -.827E+00 0.722E-01 -.461E+01
   0.351E-04 0.574E+01 -.423E+03   -.284E-04 -.581E+01 0.423E+03   -.460E-05 0.627E-01 0.954E-01
   0.229E+01 -.318E-04 -.427E+03   -.243E+01 0.245E-04 0.427E+03   0.135E+00 0.332E-05 0.358E+00
   -.234E-04 0.659E-04 0.555E+03   0.264E-04 -.611E-04 -.556E+03   -.164E-05 -.205E-05 0.509E+00
   -.351E+00 -.215E+01 0.544E+03   0.470E+00 0.225E+01 -.543E+03   -.139E+00 -.126E+00 -.325E+00
   0.105E-04 -.770E+00 0.153E+04   0.819E-05 0.823E+00 -.153E+04   -.967E-05 -.658E-01 0.315E+01
   -.190E+00 0.132E-04 0.153E+04   0.198E+00 -.969E-05 -.154E+04   -.999E-02 -.786E-05 0.320E+01
   -.107E-04 0.286E-03 -.119E+04   0.184E-04 -.678E-04 0.117E+04   -.396E-05 -.244E-03 0.210E+02
   -.344E+02 -.274E+02 -.141E+04   0.335E+02 0.275E+02 0.142E+04   0.827E+00 -.722E-01 -.461E+01
   -.292E-04 -.811E+01 -.446E+03   0.209E-04 0.851E+01 0.448E+03   0.729E-05 -.368E+00 -.175E+01
   -.263E+01 0.125E-03 -.418E+03   0.290E+01 -.110E-03 0.417E+03   -.250E+00 -.223E-04 0.840E+00
   -.415E-04 -.500E-04 0.541E+03   0.367E-04 0.492E-04 -.540E+03   0.292E-05 -.430E-05 -.292E+00
   -.351E+00 0.215E+01 0.544E+03   0.470E+00 -.225E+01 -.543E+03   -.139E+00 0.126E+00 -.325E+00
   -.376E-05 0.770E+00 0.153E+04   0.762E-05 -.823E+00 -.153E+04   -.231E-05 0.658E-01 0.315E+01
   0.128E+00 -.227E-04 0.153E+04   -.137E+00 0.909E-05 -.153E+04   0.110E-01 0.113E-04 0.311E+01
   0.528E-05 -.429E-03 -.142E+04   0.184E-04 0.392E-03 0.142E+04   -.691E-05 0.639E-04 -.353E+01
   -.344E+02 0.274E+02 -.141E+04   0.335E+02 -.275E+02 0.142E+04   0.827E+00 0.723E-01 -.461E+01
   -.510E-04 0.811E+01 -.446E+03   0.494E-04 -.851E+01 0.448E+03   0.509E-05 0.368E+00 -.175E+01
   -.229E+01 -.240E-04 -.427E+03   0.243E+01 0.216E-04 0.427E+03   -.135E+00 0.294E-05 0.358E+00
   -.222E-05 -.654E-03 0.552E+02   0.163E-12 0.994E-13 0.398E-12   -.298E-04 0.559E-03 -.492E+02

 POSITION                                       TOTAL-FORCE (eV/Angst)
      4.27306      6.40958     15.53096         0.000002      0.000629      0.021509
      4.27306      7.56862     16.02332        -0.000021     -1.011630     -0.607675
      4.27306      5.25056     16.02331        -0.000020      1.011011     -0.607414
      0.00000      6.40959      7.50000        -0.000002     -0.000011      0.605790
      2.13653      0.00000      7.50000         0.000040      0.011378      0.636132
      0.00000      0.00000      9.63653        -0.000001      0.046059      0.071474
      2.13653      6.40959      9.63653        -0.020502     -0.000001     -0.027415
      8.54611      6.40959     11.75246         0.000005      0.000009     -0.009889
      2.15734      0.00683     11.79919         0.013736      0.007441      0.014531
      0.00000      0.02303     13.89856         0.000012      0.013095     -0.252250
      2.01800      6.40958     13.87148        -0.145919      0.000020     -0.264678
      0.00000      2.13653      7.50000         0.000005      0.000001      0.633360
      2.13653      4.27306      7.50000         0.000042     -0.011376      0.636117
      0.00000      4.27306      9.63653         0.000001     -0.046060      0.071473
      2.13653      2.13653      9.63653         0.030699      0.000004      0.056276
      0.00000      2.13653     11.77008        -0.000012     -0.000003     -0.008879
      2.15734      4.26623     11.79919         0.013733     -0.007443      0.014512
      0.00000      4.25003     13.89856         0.000011     -0.013112     -0.252204
      2.11170      2.13653     13.90807        -0.009061     -0.000012     -0.243394
      4.27306      6.40959      7.50000         0.000001      0.000004      0.593596
      6.40959      0.00000      7.50000        -0.000045      0.011377      0.636124
      4.27306      0.00000      9.63653         0.000002      0.096595      0.057750
      6.40959      6.40959      9.63653         0.020503      0.000003     -0.027416
      4.27306      6.40959     11.72871         0.000000      0.000007     -0.137266
      6.38877      0.00683     11.79919        -0.013736      0.007456      0.014540
      4.27306      0.09964     14.12804         0.000009      0.114607     -0.104031
      6.52812      6.40958     13.87148         0.145921      0.000025     -0.264700
      4.27306      2.13653      7.50000         0.000003      0.000002      0.642277
      6.40959      4.27306      7.50000        -0.000040     -0.011372      0.636125
      4.27306      4.27306      9.63653         0.000002     -0.096598      0.057742
      6.40959      2.13653      9.63653        -0.030703      0.000000      0.056285
      4.27306      2.13653     11.80646         0.000017     -0.000001      0.007542
      6.38877      4.26623     11.79920        -0.013739     -0.007458      0.014519
      4.27306      4.17342     14.12804         0.000009     -0.114643     -0.104080
      6.43441      2.13653     13.90807         0.009022     -0.000009     -0.243512
      0.00000      6.40959      9.63653         0.000002     -0.000003      0.045076
      2.13653      0.00000      9.63653         0.038537     -0.044271      0.025821
      0.00000      0.00000      7.50000        -0.000000     -0.014727     -0.276877
      2.13653      6.40959      7.50000         0.003280      0.000000     -0.258017
      0.00000      6.40959     13.91092         0.000002     -0.000014     -0.180398
      2.11657      8.53514     13.92320        -0.008763     -0.016780     -0.164984
      0.00000      8.54181     11.76534         0.000003     -0.005593      0.005471
      2.15742      6.40959     11.78673         0.012859     -0.000005      0.032598
      0.00000      2.13653      9.63653         0.000005      0.000000      0.002491
      2.13653      4.27306      9.63653         0.038534      0.044268      0.025823
      0.00000      4.27306      7.50000         0.000005      0.014734     -0.276878
      2.13653      2.13653      7.50000        -0.003741      0.000006     -0.284205
      0.00000      2.13653     13.92720         0.000016      0.000022     -0.170931
      2.11657      4.28403     13.92320        -0.008737      0.016792     -0.164919
      0.00000      4.27736     11.76534         0.000002      0.005594      0.005468
      2.14280      2.13653     11.78019         0.004141     -0.000003      0.011401
      4.27306      6.40959      9.63653         0.000002      0.000003     -0.029453
      6.40959      0.00000      9.63653        -0.038536     -0.044275      0.025814
      4.27306      0.00000      7.50000         0.000009     -0.021730     -0.274279
      6.40959      6.40959      7.50000        -0.003286     -0.000005     -0.258020
      4.27306      6.40959     14.04985         0.000003     -0.000058      0.862563
      6.42954      8.53514     13.92320         0.008748     -0.016783     -0.165016
      4.27306      8.52644     11.80027        -0.000000     -0.020080     -0.061430
      6.38869      6.40959     11.78673        -0.012861     -0.000010      0.032596
      4.27306      2.13653      9.63653        -0.000001     -0.000005      0.070701
      6.40959      4.27306      9.63653        -0.038534      0.044273      0.025822
      4.27306      4.27306      7.50000         0.000002      0.021727     -0.274267
      6.40959      2.13653      7.50000         0.003731     -0.000000     -0.284197
      4.27306      2.13653     13.97421         0.000019      0.000037     -0.155699
      6.42954      4.28403     13.92320         0.008721      0.016791     -0.164956
      4.27306      4.29273     11.80027         0.000004      0.020099     -0.061403
      6.40332      2.13653     11.78019        -0.004140      0.000001      0.011414
    total drift:                               -0.000029     -0.000038      0.008428

  FREE ENERGIE OF THE ION-ELECTRON SYSTEM (eV)
  free  energy   TOTEN  =      -465.59667214 eV

  energy  without entropy=     -465.59667214  energy(sigma->0) =     -465.59667214