 vasp.6.3.0 20Jan22 (build Apr  1 2022 16:44:48) complex
 executed on        HPECrayEX_GCC date 2022.10.13  17:34:52

 INCAR:
   SYSTEM = MgO-rocksalt
   ISMEAR = 0
   SIGMA = 0.05
   EDIFF = 1E-6
   ALGO = ALL
   ISTART = 0
   IBRION = -1
   NSW = 0
   ISYM = 0
   DIPOL = 0.5 0.5 0.5
   IDIPOL = 3
   LDIPOL = .TRUE.
   LHFCALC = .TRUE.
   GGA = PE
   IVDW = 13
   VDW_S8 = 1.2007
   VDW_A1 = 0.4009
   VDW_A2 = 5.0293
   ENCUT = 600
   PREC = Accurate
   LASPH = .TRUE.
   LREAL = .FALSE.
   ISPIN = 1
   NELM = 200
   NELMIN = 8
   NCORE = 8
   KPAR = 1
   LWAVE = .FALSE.
   LCHARG = .FALSE.

 POTCAR:    PAW_PBE H 15Jun2001
 POTCAR:    PAW_PBE O 08Apr2002
 POTCAR:    PAW_PBE Mg_pv 13Apr2007
 POTCAR:    PAW_PBE O 08Apr2002
 POTCAR:    PAW_PBE H 15Jun2001
   VRHFIN =H: ultrasoft test

   TITEL  = PAW_PBE H 15Jun2001
   POMASS =    1.000; ZVAL   =    1.000    mass and valenz
   ENMAX  =  250.000; ENMIN  =  200.000 eV

   TITEL  = PAW_PBE O 08Apr2002
   POMASS =   16.000; ZVAL   =    6.000    mass and valenz
   ENMAX  =  400.000; ENMIN  =  300.000 eV

   TITEL  = PAW_PBE Mg_pv 13Apr2007
   POMASS =   24.305; ZVAL   =    8.000    mass and valenz
   ENMAX  =  403.929; ENMIN  =  302.947 eV

   TITEL  = PAW_PBE O 08Apr2002
   POMASS =   16.000; ZVAL   =    6.000    mass and valenz
   ENMAX  =  400.000; ENMIN  =  300.000 eV

  PAW_PBE H 15Jun2001                   :
  PAW_PBE O 08Apr2002                   :
  PAW_PBE Mg_pv 13Apr2007               :
  PAW_PBE O 08Apr2002                   :

 POSCAR:  H  O Mg  O
  positions in direct lattice
|           W    W    AA    RRRRR   N    N  II  N    N   GGGG   !!!           |
|           W    W   A  A   R    R  NN   N  II  NN   N  G    G  !!!           |
|           W    W  A    A  R    R  N N  N  II  N N  N  G       !!!           |
|           W WW W  AAAAAA  RRRRR   N  N N  II  N  N N  G  GGG   !            |
|           WW  WW  A    A  R   R   N   NN  II  N   NN  G    G                |
|           W    W  A    A  R    R  N    N  II  N    N   GGGG   !!!           |
|     Specifying the vdW parameters                                           |
|     VDW_S8 = 1.201                                                          |
|     VDW_A1 = 0.401                                                          |
|     VDW_A2 = 5.029                                                          |
|     in the INCAR file will overwrite the defaults for pbe0. Please make     |
|     sure that is what you intended.                                         |

 ion  position               nearest neighbor table
   1  0.617  0.550  0.765-   3 0.97
   2  0.510  0.672  0.729-   3 0.99
   3  0.509  0.570  0.753-   1 0.97   2 0.99  19 2.23
   4  0.250  0.000  0.352-  38 2.10  39 2.10  46 2.10  55 2.10  36 2.10
   5  0.500  0.250  0.352-  38 2.10  39 2.10  47 2.10  54 2.10  37 2.10
   6  0.250  0.250  0.451-  36 2.10  37 2.10  44 2.10  53 2.10  38 2.10  42 2.10
   7  0.500  0.000  0.451-  36 2.10  37 2.10  45 2.10  52 2.10  39 2.10  43 2.11
   8  0.250  0.000  0.550-  42 2.10  50 2.10  43 2.10  59 2.10  36 2.11  40 2.13
   9  0.500  0.251  0.550-  51 2.10  42 2.10  58 2.10  43 2.11  37 2.11  41 2.12
  10  0.249  0.250  0.648-  42 2.09  57 2.09  40 2.10  48 2.10  41 2.11
  11  0.500  0.002  0.648-  41 2.06  49 2.08  43 2.09  40 2.11  56 2.11
  12  0.250  0.500  0.352-  38 2.10  46 2.10  47 2.10  63 2.10  44 2.10
  13  0.500  0.750  0.352-  39 2.10  46 2.10  47 2.10  62 2.10  45 2.10
  14  0.250  0.750  0.451-  36 2.10  44 2.10  45 2.10  61 2.10  46 2.10  50 2.11
  15  0.500  0.500  0.451-  37 2.10  44 2.10  45 2.10  60 2.10  47 2.10  51 2.12
  16  0.251  0.500  0.550-  51 2.10  48 2.10  42 2.10  50 2.11  67 2.11  44 2.12
  17  0.500  0.749  0.550-  51 2.09  50 2.09  66 2.10  43 2.11  45 2.12  49 2.17
  18  0.248  0.750  0.647-  50 2.08  65 2.08  40 2.10  48 2.10  49 2.12
  19  0.498  0.493  0.653-  41 2.06  48 2.10  64 2.14  51 2.18  49 2.20   3 2.23
  20  0.750  0.000  0.352-  39 2.10  54 2.10  55 2.10  62 2.10  52 2.10
  21  0.000  0.250  0.352-  38 2.10  54 2.10  55 2.10  63 2.10  53 2.10
  22  0.750  0.250  0.451-  37 2.10  52 2.10  53 2.10  60 2.10  54 2.10  58 2.10
  23  0.000  0.000  0.451-  36 2.10  52 2.10  53 2.10  61 2.10  55 2.10  59 2.10
  24  0.750  0.000  0.550-  58 2.10  43 2.10  59 2.10  66 2.10  52 2.11  56 2.13
  25  0.000  0.250  0.550-  42 2.10  67 2.10  58 2.10  59 2.11  53 2.11  57 2.13
  26  0.751  0.250  0.647-  58 2.08  57 2.09  56 2.10  41 2.11  64 2.11
  27  0.000  0.001  0.647-  59 2.09  40 2.09  57 2.10  56 2.10  65 2.10
  28  0.750  0.500  0.352-  47 2.10  54 2.10  62 2.10  63 2.10  60 2.10
  29  0.000  0.750  0.352-  46 2.10  55 2.10  62 2.10  63 2.10  61 2.10
  30  0.750  0.750  0.451-  45 2.10  52 2.10  60 2.10  61 2.10  62 2.10  66 2.11
  31  0.000  0.500  0.451-  67 2.10  53 2.10  60 2.10  61 2.10  44 2.10  63 2.10
  32  0.749  0.500  0.550-  51 2.09  58 2.10  66 2.10  67 2.11  60 2.12  64 2.13
  33  0.000  0.750  0.549-  67 2.10  59 2.10  50 2.10  61 2.10  66 2.11  65 2.13
  34  0.752  0.751  0.646-  66 2.06  65 2.08  56 2.09  64 2.11  49 2.12
  35  0.000  0.500  0.647-  48 2.08  67 2.09  64 2.09  57 2.10  65 2.11
  36  0.250  0.000  0.451-   6 2.10   7 2.10  14 2.10  23 2.10   4 2.10   8 2.11
  37  0.500  0.250  0.451-   6 2.10   7 2.10  15 2.10  22 2.10   5 2.10   9 2.11
  38  0.250  0.250  0.352-   4 2.10   5 2.10  12 2.10  21 2.10   6 2.10
  39  0.500  0.000  0.352-   4 2.10   5 2.10  13 2.10  20 2.10   7 2.10
  40  0.249  0.000  0.650-  27 2.09  10 2.10  18 2.10  11 2.11   8 2.13
  41  0.500  0.248  0.649-  19 2.06  11 2.06  26 2.11  10 2.11   9 2.12
  42  0.250  0.250  0.549-  10 2.09   8 2.10  25 2.10   9 2.10  16 2.10   6 2.10
  43  0.500  1.000  0.550-  11 2.09  24 2.10   8 2.10  17 2.11   7 2.11   9 2.11
  44  0.250  0.500  0.451-   6 2.10  14 2.10  15 2.10  31 2.10  12 2.10  16 2.12
  45  0.500  0.750  0.451-   7 2.10  14 2.10  15 2.10  30 2.10  13 2.10  17 2.12
  46  0.250  0.750  0.352-   4 2.10  12 2.10  13 2.10  29 2.10  14 2.10
  47  0.500  0.500  0.352-   5 2.10  12 2.10  13 2.10  28 2.10  15 2.10
  48  0.248  0.500  0.649-  35 2.08  16 2.10  18 2.10  19 2.10  10 2.10
  49  0.500  0.755  0.652-  11 2.08  18 2.12  34 2.12  17 2.17  19 2.20
  50  0.251  0.750  0.550-  18 2.08  17 2.09   8 2.10  33 2.10  16 2.11  14 2.11
  51  0.500  0.500  0.550-  17 2.09  32 2.09  16 2.10   9 2.10  15 2.12  19 2.18
  52  0.750  0.000  0.451-   7 2.10  22 2.10  23 2.10  30 2.10  20 2.10  24 2.11
  53  0.000  0.250  0.451-   6 2.10  22 2.10  23 2.10  31 2.10  21 2.10  25 2.11
  54  0.750  0.250  0.352-   5 2.10  20 2.10  21 2.10  28 2.10  22 2.10
  55  0.000  0.000  0.352-   4 2.10  20 2.10  21 2.10  29 2.10  23 2.10
  56  0.751  0.000  0.650-  34 2.09  27 2.10  26 2.10  11 2.11  24 2.13
  57  1.000  0.250  0.650-  26 2.09  10 2.09  27 2.10  35 2.10  25 2.13
  58  0.750  0.250  0.549-  26 2.08  24 2.10  32 2.10  25 2.10   9 2.10  22 2.10
  59  1.000  1.000  0.549-  27 2.09  23 2.10  33 2.10  24 2.10   8 2.10  25 2.11
  60  0.750  0.500  0.451-  15 2.10  22 2.10  30 2.10  31 2.10  28 2.10  32 2.12
  61  0.000  0.750  0.451-  14 2.10  23 2.10  30 2.10  31 2.10  29 2.10  33 2.10
  62  0.750  0.750  0.352-  13 2.10  20 2.10  28 2.10  29 2.10  30 2.10
  63  0.000  0.500  0.352-  12 2.10  21 2.10  28 2.10  29 2.10  31 2.10
  64  0.752  0.500  0.650-  35 2.09  34 2.11  26 2.11  32 2.13  19 2.14
  65  1.000  0.751  0.649-  34 2.08  18 2.08  27 2.10  35 2.11  33 2.13
  66  0.749  0.750  0.550-  34 2.06  17 2.10  24 2.10  32 2.10  30 2.11  33 2.11
  67  1.000  0.500  0.549-  35 2.09  33 2.10  31 2.10  25 2.10  32 2.11  16 2.11

IMPORTANT INFORMATION: All symmetrisations will be switched off!
NOSYMM: (Re-)initialisation of all symmetry stuff for point group C_1.

                                     Primitive cell

  volume of cell :    1504.9259

  direct lattice vectors                    reciprocal lattice vectors
     8.404861995  0.000000000  0.000000000     0.118978753  0.000000000  0.000000000
     0.000000000  8.404861995  0.000000000     0.000000000  0.118978753  0.000000000
     0.000000000  0.000000000 21.303646496     0.000000000  0.000000000  0.046940321

  length of vectors
     8.404861995  8.404861995 21.303646496     0.118978753  0.118978753  0.046940321

  position of ions in fractional coordinates (direct lattice)
     0.617256190  0.549898826  0.765308719
     0.509772531  0.671508506  0.728917195
     0.508784073  0.569596254  0.752644710
     0.250000000  0.000000000  0.352052406
     0.500000000  0.250000000  0.352052406
     0.250000000  0.250000000  0.450684135
     0.500000000  0.000000000  0.450684135
     0.250100781  0.000269126  0.549693163
     0.499767964  0.250722028  0.549943036
     0.248780719  0.249859178  0.647654469
     0.499644051  0.002169361  0.647543822
     0.250000000  0.500000000  0.352052406
     0.500000000  0.750000000  0.352052406
     0.250000000  0.750000000  0.450684135
     0.500000000  0.500000000  0.450684135
     0.250825431  0.499856880  0.550093419
     0.499703349  0.749065083  0.550105314
     0.247712614  0.750238697  0.647292135
     0.497862510  0.493099251  0.652591733
     0.750000000  0.000000000  0.352052406
     0.000000000  0.250000000  0.352052406
     0.750000000  0.250000000  0.450684135
     0.000000000  0.000000000  0.450684135
     0.749756666  0.000421736  0.549595265
     0.000055387  0.250338647  0.549556917
     0.750867579  0.249547440  0.647330786
     0.000109951  0.000584548  0.647467140
     0.750000000  0.500000000  0.352052406
     0.000000000  0.750000000  0.352052406
     0.750000000  0.750000000  0.450684135
     0.000000000  0.500000000  0.450684135
     0.748860615  0.499805564  0.550186707
     0.000230737  0.749845812  0.549442262
     0.752411791  0.751017633  0.646426807
     0.000452718  0.499726845  0.647293789
     0.250000000  0.000000000  0.450684135
     0.500000000  0.250000000  0.450684135
     0.250000000  0.250000000  0.352052406
     0.500000000  0.000000000  0.352052406
     0.249061600  0.000158790  0.649546787
     0.500025852  0.247760610  0.649432683
     0.249903901  0.249746588  0.549413283
     0.500041591  0.999514371  0.549515177
     0.250000000  0.500000000  0.450684135
     0.500000000  0.750000000  0.450684135
     0.250000000  0.750000000  0.352052406
     0.500000000  0.500000000  0.352052406
     0.248082459  0.500204185  0.648634793
     0.500077240  0.755034517  0.652123690
     0.250523999  0.750362999  0.549615856
     0.500168392  0.500495410  0.550424172
     0.750000000  0.000000000  0.450684135
     0.000000000  0.250000000  0.450684135
     0.750000000  0.250000000  0.352052406
     0.000000000  0.000000000  0.352052406
     0.750723524  0.000118076  0.649521158
     0.999752279  0.249789393  0.649542658
     0.749923863  0.250038090  0.549482206
     0.999824122  0.999880288  0.549319624
     0.750000000  0.500000000  0.450684135
     0.000000000  0.750000000  0.450684135
     0.750000000  0.750000000  0.352052406
     0.000000000  0.500000000  0.352052406
     0.751730959  0.500434431  0.650124609
     0.999790012  0.750548183  0.649387340
     0.749362948  0.750145493  0.549580176
     0.999548810  0.500278027  0.549250186
[...]
   0.50016839  0.50049541  0.55042417
   0.75000000  0.00000000  0.45068414
   0.00000000  0.25000000  0.45068414
   0.75000000  0.25000000  0.35205241
   0.00000000  0.00000000  0.35205241
   0.75072352  0.00011808  0.64952116
   0.99975228  0.24978939  0.64954266
   0.74992386  0.25003809  0.54948221
   0.99982412  0.99988029  0.54931962
   0.75000000  0.50000000  0.45068414
   0.00000000  0.75000000  0.45068414
   0.75000000  0.75000000  0.35205241
   0.00000000  0.50000000  0.35205241
   0.75173096  0.50043443  0.65012461
   0.99979001  0.75054818  0.64938734
   0.74936295  0.75014549  0.54958018
   0.99954881  0.50027803  0.54925019

 position of ions in cartesian coordinates  (Angst):
   5.18795309  4.62182374 16.30386641
   4.28456777  5.64393632 15.52859425
   4.27625992  4.78737791 16.03407683
   2.10121550  0.00000000  7.50000000
   4.20243100  2.10121550  7.50000000
   2.10121550  2.10121550  9.60121550
   4.20243100  0.00000000  9.60121550
   2.10206255  0.00226197 11.71046883
   4.20048077  2.10728405 11.71579203
   2.09096761  2.10003191 13.79740185
   4.19943929  0.01823318 13.79504468
   2.10121550  4.20243100  7.50000000
   4.20243100  6.30364650  7.50000000
   2.10121550  6.30364650  9.60121550
   4.20243100  4.20243100  9.60121550
   2.10815313  4.20122809 11.71899573
   4.19993769  6.29578864 11.71924915
   2.08199034  6.30565271 13.78968282
   4.18446569  4.14443116 13.90258358
   6.30364650  0.00000000  7.50000000
   0.00000000  2.10121550  7.50000000
   6.30364650  2.10121550  9.60121550
   0.00000000  0.00000000  9.60121550
   6.30160131  0.00354463 11.70838325
   0.00046552  2.10406178 11.70756630
   6.31093838  2.09741179 13.79050622
   0.00092412  0.00491304 13.79341107
   6.30364650  4.20243100  7.50000000
   0.00000000  6.30364650  7.50000000
   6.30364650  6.30364650  9.60121550
   0.00000000  4.20243100  9.60121550
   6.29407012  4.20079679 11.72098311
   0.00193931  6.30235057 11.70512373
   6.32391726  6.31219956 13.77124818
   0.00380503  4.20013517 13.78971807
   2.10121550  0.00000000  9.60121550
   4.20243100  2.10121550  9.60121550
   2.10121550  2.10121550  7.50000000
   4.20243100  0.00000000  7.50000000
   2.09332838  0.00133461 13.83771514
   4.20264828  2.08239373 13.83528430
   2.10040780  2.09908560 11.70450635
   4.20278056  8.40078035 11.70667707
   2.10121550  4.20243100  9.60121550
   4.20243100  6.30364650  9.60121550
   2.10121550  6.30364650  7.50000000
   4.20243100  4.20243100  7.50000000
   2.08509883  4.20414715 13.81828634
   4.20308019  6.34596092 13.89261256
   2.10561964  6.30669745 11.70882190
   4.20384631  4.20659485 11.72604197
   6.30364650  0.00000000  9.60121550
   0.00000000  2.10121550  9.60121550
   6.30364650  2.10121550  7.50000000
   0.00000000  0.00000000  7.50000000
   6.30972761  0.00099241 13.83716913
   8.40277994  2.09944537 13.83762716
   6.30300657  2.10153564 11.70597468
   8.40338377  8.40385583 11.70251108
   6.30364650  4.20243100  9.60121550
   0.00000000  6.30364650  9.60121550
   6.30364650  6.30364650  7.50000000
   0.00000000  4.20243100  7.50000000
   6.31819496  4.20608233 13.85002486
   8.40309707  6.30825390 13.83431834
   6.29829216  6.30486935 11.70806178
   8.40106980  4.20476777 11.70103180

--------------------------------------- Iteration      FINAL  ---------------------------------------

--------------------OUTCAR has been truncated-------------------------

[...]

--------------------OUTCAR has been truncated-------------------------

 VOLUME and BASIS-vectors are now :
  energy-cutoff  :      600.00
  volume of cell :     1504.93
      direct lattice vectors                 reciprocal lattice vectors
     8.404861995  0.000000000  0.000000000     0.118978753  0.000000000  0.000000000
     0.000000000  8.404861995  0.000000000     0.000000000  0.118978753  0.000000000
     0.000000000  0.000000000 21.303646496     0.000000000  0.000000000  0.046940321

  length of vectors
     8.404861995  8.404861995 21.303646496     0.118978753  0.118978753  0.046940321

 FORCES acting on ions:
    Electron-Ion                     Ewald-Force                    Non-Local-Force
   -.831E+02 0.172E+02 -.296E+03   0.910E+02 -.188E+02 0.299E+03   -.774E+01 0.162E+01 -.240E+01
   0.170E+01 -.712E+02 -.268E+03   -.188E+01 0.777E+02 0.264E+03   0.191E+00 -.635E+01 0.373E+01
   0.478E+02 0.272E+02 -.172E+04   -.858E+02 -.488E+02 0.173E+04   0.328E+02 0.186E+02 -.928E+01
   -.448E-01 -.113E-01 0.211E+04   0.478E-01 0.133E-01 -.210E+04   -.187E-02 -.127E-02 -.680E+01
   0.244E-03 -.431E-01 0.211E+04   -.110E-02 0.511E-01 -.210E+04   0.548E-03 -.522E-02 -.679E+01
   -.166E+00 -.144E+00 0.725E+03   0.165E+00 0.158E+00 -.726E+03   0.987E-03 -.664E-02 0.366E+00
   0.118E+00 -.111E+00 0.725E+03   -.138E+00 0.648E-01 -.725E+03   0.127E-01 0.292E-01 0.384E+00
   0.244E+01 -.832E+00 -.651E+03   -.241E+01 0.905E+00 0.652E+03   -.325E-01 -.655E-01 -.264E+00
   -.235E-01 0.339E+01 -.645E+03   -.172E-01 -.320E+01 0.645E+03   0.375E-01 -.172E+00 -.462E+00
   0.162E+02 0.177E+02 -.203E+04   -.166E+02 -.178E+02 0.203E+04   0.348E+00 0.987E-01 0.599E+01
   0.107E+01 -.109E+02 -.202E+04   -.114E+01 0.112E+02 0.202E+04   0.678E-01 -.304E+00 0.579E+01
   -.766E-01 0.125E-01 0.211E+04   0.833E-01 -.142E-01 -.210E+04   -.440E-02 0.106E-02 -.680E+01
   0.592E-02 0.407E-01 0.211E+04   -.714E-02 -.490E-01 -.210E+04   0.800E-03 0.545E-02 -.681E+01
   -.185E+00 0.142E+00 0.725E+03   0.275E+00 -.150E+00 -.725E+03   -.570E-01 0.349E-02 0.479E+00
   0.198E-01 0.153E+00 0.723E+03   0.316E-02 -.114E+00 -.723E+03   -.155E-01 -.257E-01 0.601E+00
   0.353E+01 0.778E+00 -.643E+03   -.328E+01 -.842E+00 0.644E+03   -.229E+00 0.582E-01 -.933E+00
   0.260E+00 -.236E+01 -.653E+03   -.333E+00 0.212E+01 0.652E+03   0.667E-01 0.212E+00 0.708E+00
   0.244E+02 -.204E+02 -.201E+04   -.253E+02 0.205E+02 0.200E+04   0.818E+00 -.586E-01 0.603E+01
   0.503E+01 0.275E+02 -.193E+04   -.547E+01 -.294E+02 0.193E+04   0.402E+00 0.174E+01 0.263E+01
   0.439E-01 -.161E-01 0.211E+04   -.473E-01 0.187E-01 -.210E+04   0.208E-02 -.167E-02 -.678E+01
   -.577E-03 -.961E-02 0.211E+04   0.108E-02 0.143E-01 -.210E+04   -.301E-03 -.291E-02 -.679E+01
   0.148E+00 -.222E+00 0.725E+03   -.155E+00 0.289E+00 -.725E+03   0.302E-02 -.404E-01 0.415E+00
   -.123E+00 -.223E+00 0.725E+03   0.138E+00 0.260E+00 -.725E+03   -.927E-02 -.230E-01 0.339E+00
   -.245E+01 -.115E+01 -.649E+03   0.241E+01 0.125E+01 0.649E+03   0.342E-01 -.922E-01 -.214E+00
   -.140E-02 0.267E+01 -.651E+03   0.460E-01 -.261E+01 0.652E+03   -.398E-01 -.586E-01 -.158E+00
   -.165E+02 0.179E+02 -.202E+04   0.169E+02 -.182E+02 0.202E+04   -.319E+00 0.227E+00 0.599E+01
   -.877E+00 -.392E+01 -.204E+04   0.949E+00 0.405E+01 0.204E+04   -.657E-01 -.125E+00 0.591E+01
   0.750E-01 0.181E-01 0.211E+04   -.824E-01 -.202E-01 -.210E+04   0.492E-02 0.130E-02 -.681E+01
   -.519E-02 0.994E-02 0.211E+04   0.631E-02 -.142E-01 -.210E+04   -.733E-03 0.264E-02 -.677E+01
   0.153E+00 0.215E+00 0.725E+03   -.244E+00 -.270E+00 -.725E+03   0.583E-01 0.344E-01 0.498E+00
   -.412E-01 0.237E+00 0.726E+03   0.304E-02 -.267E+00 -.726E+03   0.241E-01 0.187E-01 0.270E+00
   -.334E+01 0.112E+01 -.648E+03   0.307E+01 -.121E+01 0.649E+03   0.238E+00 0.820E-01 -.340E+00
   -.254E+00 -.267E+01 -.646E+03   0.336E+00 0.261E+01 0.646E+03   -.733E-01 0.571E-01 -.158E+00
   -.253E+02 -.214E+02 -.199E+04   0.263E+02 0.217E+02 0.198E+04   -.899E+00 -.259E+00 0.610E+01
   -.114E+01 0.461E+01 -.203E+04   0.133E+01 -.475E+01 0.202E+04   -.165E+00 0.131E+00 0.592E+01
   -.426E-01 0.430E-01 0.543E+03   0.467E-01 -.342E-01 -.543E+03   -.439E-02 -.124E-01 -.958E-01
   -.542E-01 -.773E-01 0.543E+03   0.553E-01 0.379E-01 -.543E+03   -.905E-04 0.450E-01 -.916E-01
   -.404E-01 -.184E-01 0.158E+04   0.416E-01 0.219E-01 -.159E+04   -.145E-02 -.420E-02 0.302E+01
   0.930E-02 -.799E-02 0.158E+04   -.121E-01 0.568E-02 -.159E+04   0.329E-02 0.279E-02 0.302E+01
   0.792E+01 -.524E+01 -.155E+04   -.767E+01 0.516E+01 0.155E+04   -.208E+00 0.761E-01 -.448E+01
   0.111E+01 0.271E+02 -.152E+04   -.111E+01 -.272E+02 0.153E+04   -.733E-03 0.714E-01 -.435E+01
   0.225E+01 0.219E+01 -.481E+03   -.225E+01 -.212E+01 0.481E+03   -.213E-02 -.511E-01 0.230E+00
   0.401E+00 -.278E+00 -.480E+03   -.414E+00 0.298E+00 0.480E+03   0.941E-02 -.161E-01 0.338E+00
   -.184E+00 -.248E-01 0.543E+03   0.129E+00 0.880E-02 -.542E+03   0.630E-01 0.204E-01 -.147E+00
   -.178E-01 0.342E-01 0.543E+03   0.239E-01 0.149E-01 -.543E+03   -.578E-02 -.552E-01 -.148E+00
   -.502E-01 0.175E-01 0.158E+04   0.596E-01 -.213E-01 -.159E+04   -.113E-01 0.447E-02 0.302E+01
   -.376E-03 0.978E-02 0.158E+04   0.274E-02 -.721E-02 -.159E+04   -.287E-02 -.313E-02 0.301E+01
   0.294E+02 0.727E+01 -.151E+04   -.291E+02 -.717E+01 0.152E+04   -.315E+00 -.962E-01 -.457E+01
   0.377E+01 -.351E+02 -.149E+04   -.384E+01 0.347E+02 0.149E+04   0.595E-01 0.383E+00 -.206E+01
   0.172E+01 -.219E+01 -.479E+03   -.181E+01 0.214E+01 0.479E+03   0.754E-01 0.406E-01 0.449E+00
   -.269E+00 -.488E+00 -.489E+03   0.226E+00 0.456E+00 0.490E+03   0.359E-01 0.265E-01 -.675E+00
   0.252E-01 0.227E-01 0.544E+03   -.218E-01 -.247E-01 -.544E+03   -.407E-02 -.200E-03 -.502E-01
   0.394E-01 0.136E+00 0.544E+03   -.320E-01 -.126E+00 -.543E+03   -.945E-02 -.128E-01 -.699E-01
   0.405E-01 -.286E-01 0.158E+04   -.415E-01 0.370E-01 -.159E+04   0.121E-02 -.101E-01 0.302E+01
   -.875E-02 -.189E-01 0.158E+04   0.117E-01 0.244E-01 -.159E+04   -.354E-02 -.659E-02 0.302E+01
   -.800E+01 -.665E+01 -.155E+04   0.774E+01 0.663E+01 0.155E+04   0.219E+00 0.188E-01 -.449E+01
   -.912E+00 0.648E+01 -.155E+04   0.907E+00 -.637E+01 0.156E+04   0.652E-02 -.947E-01 -.446E+01
   -.224E+01 0.172E+01 -.480E+03   0.224E+01 -.170E+01 0.480E+03   0.445E-02 -.175E-01 0.369E+00
   -.378E+00 -.119E+01 -.484E+03   0.389E+00 0.122E+01 0.484E+03   -.764E-02 -.204E-01 0.206E+00
   0.157E+00 0.116E-01 0.542E+03   -.844E-01 -.230E-01 -.542E+03   -.838E-01 0.152E-01 -.187E+00
   0.262E-01 -.120E+00 0.544E+03   -.301E-01 0.100E+00 -.544E+03   0.315E-02 0.235E-01 0.120E-01
   0.495E-01 0.271E-01 0.158E+04   -.589E-01 -.359E-01 -.159E+04   0.113E-01 0.106E-01 0.302E+01
   0.146E-02 0.187E-01 0.158E+04   -.329E-02 -.245E-01 -.159E+04   0.218E-02 0.690E-02 0.302E+01
   -.310E+02 0.986E+01 -.151E+04   0.304E+02 -.978E+01 0.152E+04   0.572E+00 -.843E-01 -.426E+01
   -.221E+01 -.699E+01 -.155E+04   0.226E+01 0.688E+01 0.155E+04   -.406E-01 0.922E-01 -.449E+01
   -.172E+01 -.172E+01 -.476E+03   0.180E+01 0.171E+01 0.475E+03   -.745E-01 0.603E-02 0.726E+00
   0.128E+00 0.118E+01 -.478E+03   -.945E-01 -.120E+01 0.478E+03   -.274E-01 0.140E-01 0.279E+00
   -.307E+02 -.188E+02 0.286E+02   -.597E-12 -.196E-12 -.267E-11   0.257E+02 0.157E+02 -.243E+02

 POSITION                                       TOTAL-FORCE (eV/Angst)
      5.18795      4.62182     16.30387        -0.128019      0.042062     -0.037831
      4.28457      5.64394     15.52859         0.024008     -0.107439     -0.002797
      4.27626      4.78738     16.03408         0.095780      0.046769     -0.083122
      2.10122      0.00000      7.50000         0.000851      0.000535      0.526044
      4.20243      2.10122      7.50000        -0.000196      0.001913      0.524071
      2.10122      2.10122      9.60122         0.000649      0.005561      0.045156
      4.20243      0.00000      9.60122        -0.006026     -0.012289      0.061349
      2.10206      0.00226     11.71047        -0.002615     -0.001253     -0.010483
      4.20048      2.10728     11.71579         0.001429      0.000397     -0.009766
      2.09097      2.10003     13.79740         0.004451      0.000243     -0.108805
      4.19944      0.01823     13.79504         0.003105     -0.002533     -0.108404
      2.10122      4.20243      7.50000         0.001572     -0.000537      0.526666
      4.20243      6.30365      7.50000        -0.000275     -0.002059      0.528351
      2.10122      6.30365      9.60122         0.023784     -0.003451      0.041307
      4.20243      4.20243      9.60122         0.005093      0.009046      0.078028
      2.10815      4.20123     11.71900        -0.000323      0.001502     -0.010068
      4.19994      6.29579     11.71925         0.002214      0.001515     -0.007520
      2.08199      6.30565     13.78968        -0.002817      0.001925     -0.106460
      4.18447      4.14443     13.90258         0.010486      0.061709     -0.071239
      6.30365      0.00000      7.50000        -0.000867      0.000657      0.522614
      0.00000      2.10122      7.50000         0.000182      0.001249      0.526506
      6.30365      2.10122      9.60122        -0.002717      0.019579      0.041783
      0.00000      0.00000      9.60122         0.004033      0.010584      0.036059
      6.30160      0.00354     11.70838         0.002787     -0.001784     -0.010974
      0.00047      2.10406     11.70757        -0.000031     -0.004433     -0.011055
      6.31094      2.09741     13.79051        -0.002781     -0.000167     -0.107452
      0.00092      0.00491     13.79341        -0.001640     -0.004669     -0.115472
      6.30365      4.20243      7.50000        -0.001688     -0.000610      0.530156
      0.00000      6.30365      7.50000         0.000293     -0.001253      0.519447
      6.30365      6.30365      9.60122        -0.023934     -0.015598      0.040034
      0.00000      4.20243      9.60122        -0.010170     -0.008155      0.061632
      6.29407      4.20080     11.72098         0.001902      0.001997     -0.009326
      0.00194      6.30235     11.70512        -0.001088      0.002259     -0.010154
      6.32392      6.31220     13.77125         0.004853      0.001537     -0.106103
      0.00381      4.20014     13.78972        -0.001476      0.003596     -0.109487
      2.10122      0.00000      9.60122        -0.001157     -0.005897      0.038158
      4.20243      2.10122      9.60122         0.001044      0.013780      0.069300
      2.10122      2.10122      7.50000        -0.000507     -0.001476     -0.471499
      4.20243      0.00000      7.50000         0.001134      0.000954     -0.470177
      2.09333      0.00133     13.83772         0.004485      0.003218     -0.024503
      4.20265      2.08239     13.83528        -0.001940     -0.004349     -0.019836
      2.10041      2.09909     11.70451         0.001935      0.002724     -0.013777
      4.20278      8.40078     11.70668        -0.002177      0.001138     -0.005871
      2.10122      4.20243      9.60122         0.019794      0.008073      0.065512
      4.20243      6.30365      9.60122        -0.000709     -0.016337      0.063529
      2.10122      6.30365      7.50000        -0.003906      0.001509     -0.469927
      4.20243      4.20243      7.50000        -0.000995     -0.001164     -0.473922
      2.08510      4.20415     13.81829        -0.010824     -0.009116     -0.021678
      4.20308      6.34596     13.89261        -0.000935     -0.031815      0.028940
      2.10562      6.30670     11.70882         0.002582     -0.003180     -0.010001
      4.20385      4.20659     11.72604        -0.001522     -0.002384     -0.005143
      6.30365      0.00000      9.60122        -0.001246     -0.002268      0.043962
      0.00000      2.10122      9.60122        -0.003808     -0.005476      0.032561
      6.30365      2.10122      7.50000         0.000467     -0.003514     -0.471124
      0.00000      0.00000      7.50000        -0.001201     -0.002250     -0.468875
      6.30973      0.00099     13.83717        -0.003292      0.003415     -0.021848
      8.40278      2.09945     13.83763         0.001930      0.001140     -0.027759
      6.30301      2.10154     11.70597        -0.001002      0.002830     -0.012669
      8.40338      8.40386     11.70251         0.001936      0.003772     -0.015917
      6.30365      4.20243      9.60122        -0.026037      0.006467      0.059299
      0.00000      6.30365      9.60122        -0.000160      0.008517      0.050153
      6.30365      6.30365      7.50000         0.003952      0.003627     -0.469413
      0.00000      4.20243      7.50000         0.000763      0.002285     -0.471548
      6.31819      4.20608     13.85002         0.018573     -0.012319     -0.034456
      8.40310      6.30825     13.83432         0.001755     -0.002609     -0.021999
      6.29829      6.30487     11.70806        -0.001603     -0.003414     -0.011210
      8.40107      4.20477     11.70103         0.001861     -0.004287     -0.010948
    total drift:                               -0.001665      0.002475     -0.004700

  FREE ENERGIE OF THE ION-ELECTRON SYSTEM (eV)
  free  energy   TOTEN  =      -490.80591108 eV

  energy  without entropy=     -490.80591108  energy(sigma->0) =     -490.80591108