 vasp.6.3.0 20Jan22 (build Apr  1 2022 16:44:48) complex
 executed on        HPECrayEX_GCC date 2022.11.01  20:44:53

 INCAR:
   SYSTEM = MgO-rocksalt
   ISMEAR = 0
   SIGMA = 0.05
   EDIFF = 1E-7
   ALGO = ALL
   ISTART = 0
   IBRION = 2
   NSW = 1000
   ISYM = 0
   ISIF = 2
   EDIFFG = -0.01
   DIPOL = 0.5 0.5 0.5
   IDIPOL = 3
   LDIPOL = .TRUE.
   GGA = RE
   AGGAC = 0.0
   LUSE_VDW = .TRUE.
   LASPH = .TRUE.
   ENCUT = 600
   PREC = Accurate
   LASPH = .TRUE.
   LREAL = .FALSE.
   ISPIN = 1
   NELM = 200
   NELMIN = 8
   NCORE = 8
   KPAR = 1
   LWAVE = .FALSE.
   LCHARG = .FALSE.

 POTCAR:    PAW_PBE C 08Apr2002
 POTCAR:    PAW_PBE O 08Apr2002
 POTCAR:    PAW_PBE H 15Jun2001
 POTCAR:    PAW_PBE Mg_pv 13Apr2007
 POTCAR:    PAW_PBE O 08Apr2002
|               ----> ADVICE to this user running VASP <----                  |
|     You have switched on vdW-DFT.                                           |
|     This routine was written and supplied by Jiri Klimes. We recommend      |
|     that you carefully read and cite the following publications:            |
|       J. Klimes, D.R. Bowler, A. Michelides                                 |
|          J. Phys.: Cond Matt. 22 022201 (2010)                              |
|       J. Klimes, D.R. Bowler, A. Michelides                                 |
|          Phys. Rev. B. 83, 195131 (2011)                                    |
|     and references therein.                                                 |

   TITEL  = PAW_PBE C 08Apr2002
   POMASS =   12.011; ZVAL   =    4.000    mass and valenz
   ENMAX  =  400.000; ENMIN  =  300.000 eV

[...]

   TITEL  = PAW_PBE H 15Jun2001
   POMASS =    1.000; ZVAL   =    1.000    mass and valenz
   ENMAX  =  250.000; ENMIN  =  200.000 eV

   TITEL  = PAW_PBE Mg_pv 13Apr2007
   POMASS =   24.305; ZVAL   =    8.000    mass and valenz
   ENMAX  =  403.929; ENMIN  =  302.947 eV

   TITEL  = PAW_PBE O 08Apr2002
   POMASS =   16.000; ZVAL   =    6.000    mass and valenz
   ENMAX  =  400.000; ENMIN  =  300.000 eV

  PAW_PBE C 08Apr2002                   :
  PAW_PBE O 08Apr2002                   :
  PAW_PBE H 15Jun2001                   :
  PAW_PBE Mg_pv 13Apr2007               :
  PAW_PBE O 08Apr2002                   :

 POSCAR:  C  O  H Mg  O
  positions in direct lattice
 exchange correlation table for  LEXCH =       40
   RHO(1)=    0.500       N(1)  =     2000
   RHO(2)=  100.500       N(2)  =     4000

 ion  position               nearest neighbor table
   1  0.500  0.954  0.773-   3 1.09   6 1.10   5 1.10   2 1.45
   2  0.500  0.785  0.772-   4 0.97   1 1.45
   3  0.500  0.989  0.822-   1 1.09
   4  0.500  0.750  0.729-   2 0.97
   5  0.605  0.002  0.750-   1 1.10
   6  0.395  0.002  0.750-   1 1.10
   7  0.000  0.750  0.350-  39 2.14  41 2.14  42 2.14  49 2.14  58 2.14
   8  0.250  0.000  0.350-  40 2.14  41 2.14  42 2.14  50 2.14  57 2.14
   9  0.000  0.000  0.450-  41 2.14  40 2.14  39 2.14  47 2.14  56 2.14  45 2.14
  10  0.250  0.750  0.450-  42 2.14  40 2.14  39 2.14  48 2.14  55 2.14  46 2.14
  11  0.000  0.750  0.550-  45 2.14  46 2.14  53 2.14  62 2.14  39 2.15  43 2.16
  12  0.250  0.000  0.550-  45 2.14  46 2.14  54 2.14  61 2.14  40 2.15  44 2.16
  13  0.000  0.000  0.650-  45 2.13  44 2.14  43 2.14  51 2.14  60 2.14
  14  0.250  0.750  0.650-  46 2.13  44 2.14  43 2.14  52 2.14  59 2.14
  15  0.000  0.250  0.350-  47 2.14  41 2.14  49 2.14  50 2.14  66 2.14
  16  0.250  0.500  0.350-  48 2.14  42 2.14  49 2.14  50 2.14  65 2.14
  17  0.000  0.500  0.450-  49 2.14  47 2.14  48 2.14  39 2.14  64 2.14  53 2.14
  18  0.250  0.250  0.450-  50 2.14  47 2.14  48 2.14  40 2.14  63 2.14  54 2.14
  19  0.000  0.250  0.550-  45 2.14  53 2.14  54 2.14  70 2.14  47 2.15  51 2.16
  20  0.250  0.500  0.550-  46 2.14  53 2.14  54 2.14  69 2.14  48 2.15  52 2.16
  21  0.000  0.500  0.650-  53 2.13  51 2.14  52 2.14  43 2.14  68 2.14
  22  0.250  0.250  0.650-  54 2.13  51 2.14  52 2.14  44 2.14  67 2.14
  23  0.500  0.750  0.350-  55 2.14  42 2.14  57 2.14  58 2.14  65 2.14
  24  0.750  0.000  0.350-  56 2.14  41 2.14  57 2.14  58 2.14  66 2.14
  25  0.500  0.000  0.450-  57 2.14  55 2.14  56 2.14  40 2.14  63 2.14  61 2.14
  26  0.750  0.750  0.450-  58 2.14  55 2.14  56 2.14  39 2.14  64 2.14  62 2.14
  27  0.500  0.750  0.550-  46 2.14  61 2.14  62 2.14  69 2.14  55 2.15  59 2.16
  28  0.750  0.000  0.550-  45 2.14  61 2.14  62 2.14  70 2.14  56 2.15  60 2.16
  29  0.500  0.000  0.650-  61 2.13  59 2.14  60 2.14  44 2.14  67 2.14
  30  0.750  0.750  0.650-  62 2.13  59 2.14  60 2.14  43 2.14  68 2.14
  31  0.500  0.250  0.350-  63 2.14  57 2.14  50 2.14  65 2.14  66 2.14
  32  0.750  0.500  0.350-  64 2.14  58 2.14  49 2.14  65 2.14  66 2.14
  33  0.500  0.500  0.450-  65 2.14  55 2.14  63 2.14  64 2.14  48 2.14  69 2.14
  34  0.750  0.250  0.450-  66 2.14  56 2.14  63 2.14  64 2.14  47 2.14  70 2.14
  35  0.500  0.250  0.550-  54 2.14  61 2.14  69 2.14  70 2.14  63 2.15  67 2.16
  36  0.750  0.500  0.550-  53 2.14  62 2.14  69 2.14  70 2.14  64 2.15  68 2.16
  37  0.500  0.500  0.650-  69 2.13  59 2.14  67 2.14  68 2.14  52 2.14
  38  0.750  0.250  0.650-  70 2.13  60 2.14  67 2.14  68 2.14  51 2.14
  39  0.000  0.750  0.450-   7 2.14   9 2.14  10 2.14  17 2.14  26 2.14  11 2.15
  40  0.250  0.000  0.450-   8 2.14   9 2.14  10 2.14  18 2.14  25 2.14  12 2.15
  41  0.000  0.000  0.350-   9 2.14   8 2.14   7 2.14  15 2.14  24 2.14
  42  0.250  0.750  0.350-  10 2.14   8 2.14   7 2.14  16 2.14  23 2.14
  43  0.000  0.750  0.651-  13 2.14  14 2.14  21 2.14  30 2.14  11 2.16
  44  0.250  0.000  0.651-  13 2.14  14 2.14  22 2.14  29 2.14  12 2.16
  45  0.000  0.000  0.550-  13 2.13  12 2.14  11 2.14  19 2.14  28 2.14   9 2.14
  46  0.250  0.750  0.550-  14 2.13  12 2.14  11 2.14  20 2.14  27 2.14  10 2.14
  47  0.000  0.250  0.450-  15 2.14   9 2.14  17 2.14  18 2.14  34 2.14  19 2.15
  48  0.250  0.500  0.450-  16 2.14  10 2.14  17 2.14  18 2.14  33 2.14  20 2.15
  49  0.000  0.500  0.350-  17 2.14  15 2.14  16 2.14   7 2.14  32 2.14
  50  0.250  0.250  0.350-  18 2.14  15 2.14  16 2.14   8 2.14  31 2.14
  51  0.000  0.250  0.651-  13 2.14  21 2.14  22 2.14  38 2.14  19 2.16
  52  0.250  0.500  0.651-  14 2.14  21 2.14  22 2.14  37 2.14  20 2.16
  53  0.000  0.500  0.550-  21 2.13  19 2.14  20 2.14  11 2.14  36 2.14  17 2.14
  54  0.250  0.250  0.550-  22 2.13  19 2.14  20 2.14  12 2.14  35 2.14  18 2.14
  55  0.500  0.750  0.450-  23 2.14  10 2.14  25 2.14  26 2.14  33 2.14  27 2.15
  56  0.750  0.000  0.450-  24 2.14   9 2.14  25 2.14  26 2.14  34 2.14  28 2.15
  57  0.500  0.000  0.350-  25 2.14  23 2.14  24 2.14   8 2.14  31 2.14
  58  0.750  0.750  0.350-  26 2.14  23 2.14  24 2.14   7 2.14  32 2.14
  59  0.500  0.750  0.651-  14 2.14  29 2.14  30 2.14  37 2.14  27 2.16
  60  0.750  0.000  0.651-  13 2.14  29 2.14  30 2.14  38 2.14  28 2.16
  61  0.500  0.000  0.550-  29 2.13  27 2.14  28 2.14  12 2.14  35 2.14  25 2.14
  62  0.750  0.750  0.550-  30 2.13  27 2.14  28 2.14  11 2.14  36 2.14  26 2.14
  63  0.500  0.250  0.450-  31 2.14  25 2.14  18 2.14  33 2.14  34 2.14  35 2.15
  64  0.750  0.500  0.450-  32 2.14  26 2.14  17 2.14  33 2.14  34 2.14  36 2.15
  65  0.500  0.500  0.350-  33 2.14  23 2.14  31 2.14  32 2.14  16 2.14
  66  0.750  0.250  0.350-  34 2.14  24 2.14  31 2.14  32 2.14  15 2.14
  67  0.500  0.250  0.651-  22 2.14  29 2.14  37 2.14  38 2.14  35 2.16
  68  0.750  0.500  0.651-  21 2.14  30 2.14  37 2.14  38 2.14  36 2.16
  69  0.500  0.500  0.550-  37 2.13  27 2.14  35 2.14  36 2.14  20 2.14  33 2.14
  70  0.750  0.250  0.550-  38 2.13  28 2.14  35 2.14  36 2.14  19 2.14  34 2.14

IMPORTANT INFORMATION: All symmetrisations will be switched off!
NOSYMM: (Re-)initialisation of all symmetry stuff for point group C_1.

                                     Primitive cell

  volume of cell :    1563.6717

  direct lattice vectors                    reciprocal lattice vectors
     8.546113626  0.000000000  0.000000000     0.117012252  0.000000000  0.000000000
     0.000000000  8.546113626  0.000000000     0.000000000  0.117012252  0.000000000
     0.000000000  0.000000000 21.409585219     0.000000000  0.000000000  0.046708051

  length of vectors
     8.546113626  8.546113626 21.409585219     0.117012252  0.117012252  0.046708051

  position of ions in fractional coordinates (direct lattice)
     0.499999937  0.954318374  0.772584801
     0.500000004  0.784896983  0.772210883
     0.500000005  0.989266917  0.821701965
     0.500000000  0.750000000  0.729025345
     0.605006048  0.002273349  0.749871284
     0.394994019  0.002273330  0.749871296
     0.000000000  0.750000000  0.350310383
     0.250000000  0.000000000  0.350310383
     0.000000000  0.000000000  0.450103461
     0.250000000  0.750000000  0.450103461
     0.000000000  0.750000000  0.550423065
     0.250000000  0.000000000  0.550423065
     0.000000000  0.000000000  0.649678241
     0.250000000  0.750000000  0.649678241
     0.000000000  0.250000000  0.350310383
     0.250000000  0.500000000  0.350310383
     0.000000000  0.500000000  0.450103461
     0.250000000  0.250000000  0.450103461
     0.000000000  0.250000000  0.550423065
     0.250000000  0.500000000  0.550423065
     0.000000000  0.500000000  0.649678241
     0.250000000  0.250000000  0.649678241
     0.500000000  0.750000000  0.350310383
     0.750000000  0.000000000  0.350310383
     0.500000000  0.000000000  0.450103461
     0.750000000  0.750000000  0.450103461
     0.500000000  0.750000000  0.550423065
     0.750000000  0.000000000  0.550423065
     0.500000000  0.000000000  0.649678241
     0.750000000  0.750000000  0.649678241
     0.500000000  0.250000000  0.350310383
     0.750000000  0.500000000  0.350310383
     0.500000000  0.500000000  0.450103461
     0.750000000  0.250000000  0.450103461
     0.500000000  0.250000000  0.550423065
     0.750000000  0.500000000  0.550423065
     0.500000000  0.500000000  0.649678241
     0.750000000  0.250000000  0.649678241
     0.000000000  0.750000000  0.450103461
     0.250000000  0.000000000  0.450103461
     0.000000000  0.000000000  0.350310383
     0.250000000  0.750000000  0.350310383
     0.000000000  0.750000000  0.651489980
     0.250000000  0.000000000  0.651489980
     0.000000000  0.000000000  0.550159231
     0.250000000  0.750000000  0.550159231
     0.000000000  0.250000000  0.450103461
     0.250000000  0.500000000  0.450103461
     0.000000000  0.500000000  0.350310383
     0.250000000  0.250000000  0.350310383
     0.000000000  0.250000000  0.651489980
     0.250000000  0.500000000  0.651489980
     0.000000000  0.500000000  0.550159231
     0.250000000  0.250000000  0.550159231
     0.500000000  0.750000000  0.450103461
     0.750000000  0.000000000  0.450103461
     0.500000000  0.000000000  0.350310383
     0.750000000  0.750000000  0.350310383
     0.500000000  0.750000000  0.651489980
     0.750000000  0.000000000  0.651489980
     0.500000000  0.000000000  0.550159231
     0.750000000  0.750000000  0.550159231
     0.500000000  0.250000000  0.450103461
     0.750000000  0.500000000  0.450103461
     0.500000000  0.500000000  0.350310383
     0.750000000  0.250000000  0.350310383
[...]
   0.00000000  6.40958522 13.94813025
   2.13652841  0.00000000 13.94813025
   0.00000000  0.00000000 11.77868095
   2.13652841  6.40958522 11.77868095
   0.00000000  2.13652841  9.63652841
   2.13652841  4.27305681  9.63652841
   0.00000000  4.27305681  7.50000000
   2.13652841  2.13652841  7.50000000
   0.00000000  2.13652841 13.94813025
   2.13652841  4.27305681 13.94813025
   0.00000000  4.27305681 11.77868095
   2.13652841  2.13652841 11.77868095
   4.27305681  6.40958522  9.63652841
   6.40958522  0.00000000  9.63652841
   4.27305681  0.00000000  7.50000000
   6.40958522  6.40958522  7.50000000
   4.27305681  6.40958522 13.94813025
   6.40958522  0.00000000 13.94813025
   4.27305681  0.00000000 11.77868095
   6.40958522  6.40958522 11.77868095
   4.27305681  2.13652841  9.63652841
   6.40958522  4.27305681  9.63652841
   4.27305681  4.27305681  7.50000000
   6.40958522  2.13652841  7.50000000
   4.27305681  2.13652841 13.94813025
   6.40958522  4.27305681 13.94813025
   4.27305681  4.27305681 11.77868095
   6.40958522  2.13652841 11.77868095

--------------------------------------- Iteration      FINAL  ---------------------------------------

--------------------OUTCAR has been truncated-------------------------

[...]

--------------------OUTCAR has been truncated-------------------------

  FORCE on cell =-STRESS in cart. coord.  units (eV):
  Direction    XX          YY          ZZ          XY          YZ          ZX
  Alpha Z   893.08759   893.08759   893.08759
  Ewald  151725.91836151966.61461************    -0.01573   100.36285     0.00184
  Hartree162148.04495162294.22434************    -0.00266    60.07758    -0.00131
  E(xc)   -2577.93018 -2577.79192 -2579.71329    -0.00006    -0.02756     0.00003
  Local  ************************323149.41736     0.01442  -155.06692     0.00077
  n-local -2857.00234 -2854.08887 -2875.20868     0.00013     1.57585    -0.00021
  augment  1086.53445  1085.00429  1076.18174     0.00013    -0.50111     0.00004
  Kinetic  7555.41843  7536.63868  7567.18655     0.00140    -6.44320     0.00016
  Fock        0.00000     0.00000     0.00000     0.00000     0.00000     0.00000
  Total     -30.42630   -30.35709    -2.45404    -0.00238    -0.02251     0.00131
  in kB     -31.17555   -31.10463    -2.51447    -0.00244    -0.02306     0.00135

 VOLUME and BASIS-vectors are now :
  energy-cutoff  :      600.00
  volume of cell :     1563.67
      direct lattice vectors                 reciprocal lattice vectors
     8.546113626  0.000000000  0.000000000     0.117012252  0.000000000  0.000000000
     0.000000000  8.546113626  0.000000000     0.000000000  0.117012252  0.000000000
     0.000000000  0.000000000 21.409585219     0.000000000  0.000000000  0.046708051

  length of vectors
     8.546113626  8.546113626 21.409585219     0.117012252  0.117012252  0.046708051

 FORCES acting on ions:
    Electron-Ion                     Ewald-Force                    Non-Local-Force
   0.182E-02 -.109E+03 -.891E+03   0.897E-03 0.114E+03 0.893E+03   0.345E-02 -.454E+01 -.244E+01
   -.368E-02 0.162E+03 -.141E+04   0.547E-02 -.200E+03 0.143E+04   -.224E-02 0.372E+02 -.222E+02
   -.371E-02 -.390E+01 -.222E+03   0.394E-02 0.325E+01 0.228E+03   -.583E-03 0.650E+00 -.588E+01
   -.135E-02 0.488E+01 -.195E+03   0.145E-02 -.448E+01 0.187E+03   -.115E-03 -.401E+00 0.777E+01
   -.485E+02 -.407E+02 -.214E+03   0.532E+02 0.437E+02 0.212E+03   -.464E+01 -.294E+01 0.141E+01
   0.486E+02 -.408E+02 -.214E+03   -.532E+02 0.437E+02 0.212E+03   0.464E+01 -.294E+01 0.141E+01
   0.105E-04 0.102E+00 0.202E+04   -.105E-04 -.103E+00 -.201E+04   0.153E-07 0.961E-03 -.640E+01
   0.262E+00 -.152E+00 0.202E+04   -.264E+00 0.153E+00 -.201E+04   0.182E-02 -.137E-03 -.641E+01
   0.165E-04 -.525E+00 0.707E+03   -.143E-04 0.541E+00 -.707E+03   -.151E-05 -.120E-01 0.419E+00
   0.124E+01 0.457E+00 0.707E+03   -.122E+01 -.463E+00 -.708E+03   -.161E-01 0.393E-02 0.480E+00
   0.162E-03 0.110E+01 -.599E+03   -.168E-03 -.112E+01 0.600E+03   -.393E-06 0.273E-01 -.339E+00
   0.551E+01 -.382E+01 -.597E+03   -.558E+01 0.383E+01 0.598E+03   0.661E-01 -.279E-02 -.335E+00
   0.729E-03 -.111E+02 -.192E+04   -.826E-03 0.113E+02 0.191E+04   0.658E-04 -.113E+00 0.562E+01
   0.344E+02 0.744E+01 -.188E+04   -.352E+02 -.752E+01 0.187E+04   0.759E+00 0.794E-01 0.565E+01
   0.134E-04 -.101E+00 0.202E+04   -.134E-04 0.102E+00 -.201E+04   -.121E-07 -.811E-03 -.641E+01
   0.241E+00 0.151E+00 0.202E+04   -.243E+00 -.152E+00 -.201E+04   0.112E-02 0.398E-03 -.641E+01
   0.466E-04 0.506E+00 0.706E+03   -.492E-04 -.525E+00 -.706E+03   0.201E-05 0.140E-01 0.383E+00
   0.921E+00 -.453E+00 0.707E+03   -.950E+00 0.453E+00 -.707E+03   0.212E-01 0.876E-05 0.385E+00
   0.195E-03 -.103E+01 -.606E+03   -.207E-03 0.105E+01 0.606E+03   0.352E-05 -.291E-01 -.290E+00
   0.447E+01 0.377E+01 -.600E+03   -.449E+01 -.377E+01 0.600E+03   0.174E-01 0.350E-02 -.524E+00
   0.266E-03 0.108E+02 -.193E+04   -.269E-03 -.109E+02 0.192E+04   0.383E-05 0.126E+00 0.562E+01
   0.153E+02 -.660E+01 -.192E+04   -.155E+02 0.668E+01 0.192E+04   0.142E+00 -.791E-01 0.562E+01
   -.104E-04 0.123E+00 0.202E+04   0.107E-04 -.125E+00 -.202E+04   -.131E-06 0.143E-02 -.640E+01
   -.262E+00 -.152E+00 0.202E+04   0.264E+00 0.153E+00 -.201E+04   -.182E-02 -.137E-03 -.641E+01
   -.890E-05 -.832E+00 0.709E+03   0.110E-04 0.804E+00 -.709E+03   -.136E-05 0.216E-01 0.466E+00
   -.124E+01 0.457E+00 0.707E+03   0.122E+01 -.463E+00 -.708E+03   0.161E-01 0.393E-02 0.480E+00
   -.189E-03 0.230E+01 -.592E+03   0.198E-03 -.235E+01 0.592E+03   -.642E-06 0.584E-01 0.515E+00
   -.551E+01 -.382E+01 -.597E+03   0.558E+01 0.383E+01 0.598E+03   -.661E-01 -.279E-02 -.335E+00
   -.968E-03 -.300E+02 -.185E+04   0.109E-02 0.308E+02 0.185E+04   -.729E-04 -.841E+00 0.579E+01
   -.344E+02 0.744E+01 -.188E+04   0.352E+02 -.752E+01 0.187E+04   -.759E+00 0.793E-01 0.565E+01
   -.130E-04 -.122E+00 0.202E+04   0.134E-04 0.124E+00 -.201E+04   -.271E-06 -.159E-02 -.639E+01
   -.241E+00 0.151E+00 0.202E+04   0.243E+00 -.152E+00 -.201E+04   -.112E-02 0.398E-03 -.641E+01
   -.370E-04 0.820E+00 0.707E+03   0.440E-04 -.786E+00 -.708E+03   -.493E-05 -.245E-01 0.482E+00
   -.921E+00 -.453E+00 0.707E+03   0.950E+00 0.453E+00 -.707E+03   -.212E-01 0.549E-05 0.385E+00
   -.231E-03 -.221E+01 -.596E+03   0.237E-03 0.227E+01 0.596E+03   0.221E-05 -.630E-01 -.315E+00
   -.447E+01 0.377E+01 -.600E+03   0.449E+01 -.377E+01 0.600E+03   -.174E-01 0.350E-02 -.524E+00
   -.468E-03 0.283E+02 -.189E+04   0.465E-03 -.292E+02 0.188E+04   0.290E-05 0.887E+00 0.568E+01
   -.153E+02 -.660E+01 -.192E+04   0.155E+02 0.668E+01 0.192E+04   -.142E+00 -.791E-01 0.562E+01
   0.454E-04 0.219E+00 0.530E+03   -.504E-04 -.221E+00 -.530E+03   0.657E-05 0.336E-02 -.409E-01
   0.754E+00 -.435E+00 0.530E+03   -.757E+00 0.451E+00 -.530E+03   0.609E-02 -.234E-01 -.851E-01
   0.630E-05 -.103E+00 0.152E+04   -.650E-05 0.106E+00 -.152E+04   0.308E-06 -.418E-02 0.357E+01
   0.203E+00 0.856E-01 0.152E+04   -.203E+00 -.867E-01 -.152E+04   -.775E-03 0.161E-02 0.358E+01
   0.446E-03 0.333E+01 -.145E+04   -.473E-03 -.334E+01 0.146E+04   0.414E-04 0.386E-02 -.494E+01
   0.224E+02 -.157E+02 -.144E+04   -.224E+02 0.157E+02 0.144E+04   -.118E-01 0.503E-01 -.496E+01
   0.684E-04 -.235E+01 -.447E+03   -.903E-04 0.237E+01 0.447E+03   0.340E-04 -.256E-01 0.217E+00
   0.409E+01 0.127E+01 -.442E+03   -.412E+01 -.129E+01 0.442E+03   0.338E-01 0.192E-01 0.264E+00
   0.676E-04 -.219E+00 0.529E+03   -.739E-04 0.224E+00 -.529E+03   0.808E-05 -.833E-02 -.858E-01
   0.643E+00 0.415E+00 0.529E+03   -.657E+00 -.424E+00 -.529E+03   0.208E-01 0.129E-01 -.103E+00
   0.895E-05 0.103E+00 0.152E+04   -.961E-05 -.106E+00 -.152E+04   0.946E-06 0.405E-02 0.357E+01
   0.178E+00 -.846E-01 0.152E+04   -.183E+00 0.861E-01 -.152E+04   0.646E-02 -.203E-02 0.357E+01
   0.208E-03 -.312E+01 -.146E+04   -.235E-03 0.312E+01 0.147E+04   0.390E-04 -.336E-02 -.489E+01
   0.165E+02 0.151E+02 -.145E+04   -.165E+02 -.151E+02 0.145E+04   -.224E-01 -.271E-01 -.501E+01
   0.237E-04 0.229E+01 -.449E+03   -.268E-04 -.231E+01 0.448E+03   0.683E-05 0.226E-01 0.168E+00
   0.322E+01 -.119E+01 -.447E+03   -.322E+01 0.120E+01 0.447E+03   0.141E-01 -.795E-02 0.194E+00
   -.422E-04 0.346E+00 0.531E+03   0.437E-04 -.343E+00 -.531E+03   -.169E-05 -.370E-02 -.636E-01
   -.754E+00 -.435E+00 0.530E+03   0.757E+00 0.451E+00 -.530E+03   -.609E-02 -.234E-01 -.851E-01
   -.662E-05 -.128E+00 0.152E+04   0.665E-05 0.126E+00 -.152E+04   -.625E-07 0.327E-02 0.358E+01
   -.203E+00 0.856E-01 0.152E+04   0.203E+00 -.867E-01 -.152E+04   0.776E-03 0.161E-02 0.358E+01
   -.929E-03 0.999E+01 -.137E+04   0.959E-03 -.101E+02 0.138E+04   -.418E-04 0.724E-01 -.261E+01
   -.224E+02 -.157E+02 -.144E+04   0.224E+02 0.157E+02 0.144E+04   0.119E-01 0.503E-01 -.496E+01
   -.980E-04 -.305E+01 -.437E+03   0.123E-03 0.307E+01 0.436E+03   -.381E-04 -.227E-01 0.495E+00
   -.409E+01 0.127E+01 -.442E+03   0.412E+01 -.129E+01 0.442E+03   -.338E-01 0.192E-01 0.264E+00
   -.596E-04 -.333E+00 0.530E+03   0.589E-04 0.324E+00 -.530E+03   0.128E-05 0.111E-01 -.128E-01
   -.643E+00 0.415E+00 0.529E+03   0.657E+00 -.424E+00 -.529E+03   -.208E-01 0.129E-01 -.103E+00
   -.923E-05 0.127E+00 0.152E+04   0.973E-05 -.125E+00 -.152E+04   -.686E-06 -.289E-02 0.358E+01
   -.178E+00 -.846E-01 0.152E+04   0.183E+00 0.861E-01 -.152E+04   -.646E-02 -.203E-02 0.357E+01
   -.235E-03 -.869E+01 -.145E+04   0.279E-03 0.875E+01 0.145E+04   -.615E-04 -.635E-01 -.497E+01
   -.165E+02 0.151E+02 -.145E+04   0.165E+02 -.151E+02 0.145E+04   0.224E-01 -.271E-01 -.501E+01
   -.399E-04 0.300E+01 -.443E+03   0.482E-04 -.303E+01 0.443E+03   -.140E-04 0.321E-01 0.219E+00
   -.322E+01 -.119E+01 -.447E+03   0.322E+01 0.120E+01 0.447E+03   -.141E-01 -.792E-02 0.194E+00
   -.296E-02 -.272E+02 0.319E+02   0.167E-12 0.495E-13 -.381E-11   0.294E-02 0.272E+02 -.319E+02

 POSITION                                       TOTAL-FORCE (eV/Angst)
      4.27297      7.64068     17.37772         0.006120     -0.004120     -0.000578
      4.27303      6.31753     16.80099        -0.000448     -0.001675     -0.002822
      4.27306      7.52064     18.46512        -0.000355     -0.004226      0.004224
      4.27305      6.40783     15.81425        -0.000022     -0.006578     -0.000967
      5.17119     -0.33249     17.09001        -0.002241      0.001615     -0.001127
      3.37502     -0.33250     17.09002        -0.003096      0.004285     -0.002685
      0.00000      6.40959      7.50000         0.000000     -0.000294      0.321418
      2.13653      0.00000      7.50000        -0.000636      0.000137      0.323749
      0.00000      0.00000      9.63653         0.000001      0.004170      0.021619
      2.13653      6.40959      9.63653         0.004683     -0.002269      0.023427
      0.00000      6.40838     11.78269        -0.000006     -0.000225     -0.004426
      2.13466     -0.00069     11.78362        -0.000599      0.002718      0.002568
      0.00000      0.00237     13.90867        -0.000031      0.002302      0.002210
      2.11844      6.40620     13.91156         0.002679     -0.001384     -0.000508
      0.00000      2.13653      7.50000         0.000000      0.000352      0.325776
      2.13653      4.27306      7.50000        -0.000486     -0.000179      0.324413
      0.00000      4.27306      9.63653        -0.000000     -0.004914      0.025953
      2.13653      2.13653      9.63653        -0.007695      0.000060      0.023720
      0.00000      2.13705     11.78184        -0.000008     -0.000815      0.004975
      2.13609      4.27258     11.78512        -0.000413     -0.000561      0.002450
      0.00000      4.26931     13.91122         0.000001     -0.001168      0.003087
      2.13268      2.13769     13.90878        -0.000497      0.001472      0.001050
      4.27306      6.40959      7.50000         0.000000     -0.000405      0.323240
      6.40959      0.00000      7.50000         0.000636      0.000137      0.323749
      4.27306      0.00000      9.63653         0.000001     -0.006531      0.018760
      6.40959      6.40959      9.63653        -0.004682     -0.002271      0.023432
      4.27306      6.40797     11.78269         0.000008      0.001246      0.000472
      6.41146     -0.00069     11.78362         0.000598      0.002719      0.002595
      4.27306      0.02279     13.89247         0.000046     -0.005078     -0.003998
      6.42767      6.40620     13.91156        -0.002681     -0.001347     -0.000495
      4.27306      2.13653      7.50000         0.000000      0.000535      0.320279
      6.40959      4.27306      7.50000         0.000487     -0.000179      0.324414
      4.27306      4.27306      9.63653         0.000002      0.008578      0.021407
      6.40959      2.13653      9.63653         0.007697      0.000061      0.023726
      4.27306      2.13863     11.78007         0.000008      0.001993     -0.003198
      6.41002      4.27258     11.78512         0.000413     -0.000562      0.002446
      4.27306      4.25315     13.91377         0.000000      0.003570      0.002421
      6.41343      2.13769     13.90878         0.000493      0.001439      0.001072
      0.00000      6.40959      9.63653         0.000002      0.001545      0.055679
      2.13653      0.00000      9.63653         0.002881     -0.006920      0.045710
      0.00000      0.00000      7.50000         0.000000     -0.001144     -0.397490
      2.13653      6.40959      7.50000        -0.000244      0.000470     -0.396658
      0.00000      6.40931     13.94074         0.000015      0.001187      0.000707
      2.13840     -0.00151     13.94429        -0.000614      0.003047      0.001233
      0.00000     -0.00085     11.77689         0.000012     -0.005030     -0.001592
      2.14026      6.40998     11.78012        -0.003183      0.000727      0.004312
      0.00000      2.13653      9.63653         0.000002     -0.002784      0.037235
      2.13653      4.27306      9.63653         0.006598      0.004404      0.047692
      0.00000      4.27306      7.50000         0.000001      0.001170     -0.397891
      2.13653      2.13653      7.50000         0.001817     -0.000533     -0.397387
      0.00000      2.13585     13.94215         0.000012     -0.004141      0.004223
      2.13769      4.27262     13.93676        -0.001444      0.000509     -0.001126
      0.00000      4.27314     11.77576         0.000004      0.005440      0.001653
      2.13668      2.13512     11.77552         0.005953      0.000515      0.002414
      4.27306      6.40959      9.63653         0.000000     -0.000350      0.046937
      6.40959      0.00000      9.63653        -0.002878     -0.006920      0.045707
      4.27306      0.00000      7.50000         0.000000      0.000983     -0.395906
      6.40959      6.40959      7.50000         0.000244      0.000470     -0.396658
      4.27306      6.41505     13.97424        -0.000012      0.000220     -0.001235
      6.40772     -0.00151     13.94429         0.000629      0.003050      0.001181
      4.27306     -0.00347     11.77758        -0.000013      0.004493      0.000641
      6.40586      6.40998     11.78012         0.003184      0.000720      0.004299
      4.27306      2.13653      9.63653         0.000001      0.002310      0.051833
      6.40959      4.27306      9.63653        -0.006595      0.004403      0.047690
      4.27306      4.27306      7.50000         0.000000     -0.000797     -0.396516
      6.40959      2.13653      7.50000        -0.001816     -0.000533     -0.397387
      4.27306      2.13512     13.93807        -0.000018      0.001778      0.000395
      6.40842      4.27262     13.93676         0.001443      0.000509     -0.001126
      4.27306      4.27693     11.78024        -0.000005     -0.001928      0.001183
      6.40943      2.13512     11.77552        -0.005955      0.000522      0.002398
    total drift:                               -0.000018     -0.002242      0.034479

  FREE ENERGIE OF THE ION-ELECTRON SYSTEM (eV)
  free  energy   TOTEN  =      -254.15738975 eV

  energy  without entropy=     -254.15738975  energy(sigma->0) =     -254.15738975

 d Force = 0.3536214E-04[ 0.238E-04, 0.469E-04]  d Energy = 0.3623922E-04-0.877E-06
 d Force =-0.4894421E+01[-0.489E+01,-0.489E+01]  d Ewald  =-0.4894420E+01-0.863E-06

 Conjugate gradient step on ions:
 trial-energy change:   -0.000036  1 .order   -0.000035   -0.000047   -0.000024
  (g-gl).g = 0.846E-04      g.g   = 0.898E-04  gl.gl    = 0.136E-03
 g(Force)  = 0.898E-04   g(Stress)= 0.000E+00 ortho     = 0.716E-05
 gamma     =   0.62275
 trial     =   0.49776
 opt step  =   0.86577  (harmonic =   1.01177) maximal distance =0.00058628
 next E    =  -254.157399   (d E  =  -0.00005)

 reached required accuracy - stopping structural energy minimisation