 vasp.6.4.1 05Apr23 (build Sep 19 2024 10:44:22) complex

 executed on             LinuxIFC date 2024.10.20  04:29:03

 INCAR:
   SYSTEM = TiO2
   ISMEAR = 0
   SIGMA = 0.05
   EDIFF = 1E-7
   ALGO = ALL
   ISTART = 0
   IBRION = 2
   NSW = 1000
   ISYM = 0
   ISIF = 2
   EDIFFG = -0.01
   DIPOL = 0.5 0.5 0.5
   IDIPOL = 3
   LDIPOL = .TRUE.
   GGA = RE
   AGGAC = 0.0
   LUSE_VDW = .TRUE.
   LASPH = .TRUE.
   ENCUT = 600
   PREC = Accurate
   LASPH = .TRUE.
   LREAL = .FALSE.
   ISPIN = 1
   NELM = 200
   NELMIN = 8
   NCORE = 8
   KPAR = 1
   LWAVE = .FALSE.
   LCHARG = .FALSE.

 POTCAR:    PAW_PBE N 08Apr2002
 POTCAR:    PAW_PBE H 15Jun2001
 POTCAR:    PAW_PBE Ti_pv 07Sep2000
 POTCAR:    PAW_PBE O 08Apr2002
|           W    W    AA    RRRRR   N    N  II  N    N   GGGG   !!!           |
|           W    W   A  A   R    R  NN   N  II  NN   N  G    G  !!!           |
|           W    W  A    A  R    R  N N  N  II  N N  N  G       !!!           |
|           W WW W  AAAAAA  RRRRR   N  N N  II  N  N N  G  GGG   !            |
|           WW  WW  A    A  R   R   N   NN  II  N   NN  G    G                |
|           W    W  A    A  R    R  N    N  II  N    N   GGGG   !!!           |
|     For optimal performance we recommend to set                             |
|       NCORE = 2 up to number-of-cores-per-socket                            |
|     This setting can greatly improve the performance of VASP for DFT.       |
|     The default, NCORE=1 might be grossly inefficient on modern             |
|     multi-core architectures or massively parallel machines. Do your        |
|     Unfortunately you need to use the default for GW and RPA                |
|     calculations (for HF NCORE is supported but not extensively tested      |
|     yet).                                                                   |

   TITEL  = PAW_PBE N 08Apr2002
   POMASS =   14.001; ZVAL   =    5.000    mass and valenz
   ENMAX  =  400.000; ENMIN  =  300.000 eV

   TITEL  = PAW_PBE H 15Jun2001
   POMASS =    1.000; ZVAL   =    1.000    mass and valenz
   ENMAX  =  250.000; ENMIN  =  200.000 eV

   TITEL  = PAW_PBE Ti_pv 07Sep2000
   POMASS =   47.880; ZVAL   =   10.000    mass and valenz
   ENMAX  =  222.335; ENMIN  =  166.751 eV

   TITEL  = PAW_PBE O 08Apr2002
   POMASS =   16.000; ZVAL   =    6.000    mass and valenz
   ENMAX  =  400.000; ENMIN  =  300.000 eV

  PAW_PBE N 08Apr2002                   :
  PAW_PBE H 15Jun2001                   :
  PAW_PBE Ti_pv 07Sep2000               :
  PAW_PBE O 08Apr2002                   :

 POSCAR:  N  H Ti  O
  positions in direct lattice
 exchange correlation table for  LEXCH =       40
   RHO(1)=    0.500       N(1)  =     2000
   RHO(2)=  100.500       N(2)  =     4000

 ion  position               nearest neighbor table
   1  0.605  0.500  0.774-   2 1.02   4 1.02   3 1.02  52 2.30
   2  0.544  0.500  0.802-   1 1.02
   3  0.663  0.429  0.777-   1 1.02
   4  0.663  0.571  0.777-   1 1.02
   5  0.815  0.833  0.293-  89 1.97  57 1.97  55 1.97  54 2.02  56 2.02  22 3.11   8 3.11   6 3.11

   6  0.599  0.667  0.325-  53 1.97 120 1.97  58 1.97  56 1.97  57 2.02  59 2.02  37 3.11   7 3.11
                             5 3.11  11 3.15
   7  0.315  0.667  0.293- 125 1.97  61 1.97  59 1.97  53 2.02  60 2.02  40 3.11   6 3.11   8 3.11

   8  0.099  0.833  0.325-  54 1.97  92 1.97  62 1.97  60 1.97  61 2.02  55 2.02  23 3.11   5 3.11
                             7 3.11   9 3.15
   9  0.948  0.833  0.422-  63 1.95  65 1.96  97 1.96  64 2.01  55 2.01  62 2.04  12 3.05  10 3.11
                            26 3.11   8 3.15
  10  0.729  0.667  0.451-  58 1.91  64 1.97 128 1.97  67 2.00  66 2.01  65 2.04  11 3.05   9 3.11
                            41 3.11
  11  0.448  0.667  0.422-  67 1.95 133 1.96  69 1.96  68 2.01  59 2.01  58 2.04  10 3.05  44 3.11
                            12 3.11   6 3.15
  12  0.229  0.833  0.451-  62 1.91  68 1.97 100 1.97  63 2.00  70 2.01  69 2.04   9 3.05  27 3.11
                            11 3.11
  13  0.087  0.833  0.551-  71 1.95  73 1.96 105 1.96  72 2.00  70 2.04  63 2.04  16 3.00  14 3.11
                            30 3.11
  14  0.864  0.667  0.577-  66 1.88  75 1.97  72 1.97 136 1.97  74 2.05  73 2.05  15 3.00  13 3.11
                            45 3.11
  15  0.587  0.667  0.551-  75 1.95 141 1.96  77 1.96  76 2.00  66 2.04  67 2.04  14 3.00  16 3.11
                            48 3.11
  16  0.364  0.833  0.577-  70 1.88  71 1.97 108 1.97  76 1.97  78 2.05  77 2.05  13 3.00  31 3.11
                            15 3.11
  17  0.231  0.833  0.683-  79 1.87 113 1.96  81 1.96  80 2.02  78 2.13  71 2.15  20 2.89  34 3.13
                            18 3.13
  18  0.002  0.667  0.702-  74 1.80  82 1.85 144 2.01  80 2.01  81 2.09  19 2.89  17 3.13  49 3.13

[...]

  21  0.815  0.167  0.293-  89 1.97 121 1.97  87 1.97  86 2.02  88 2.02  22 3.11  24 3.11  38 3.11

[...]

  37  0.815  0.500  0.293-  57 1.97 121 1.97 119 1.97 118 2.02 120 2.02  38 3.11   6 3.11  40 3.11

  38  0.599  0.333  0.325- 117 1.97 120 1.97 122 1.97  88 1.97 121 2.02 123 2.02  37 3.11  39 3.11
                            21 3.11  43 3.15
  39  0.315  0.333  0.293- 125 1.97  93 1.97 123 1.97 117 2.02 124 2.02  40 3.11  38 3.11  24 3.11

  40  0.099  0.500  0.325- 118 1.97  60 1.97 124 1.97 126 1.97 125 2.02 119 2.02   7 3.11  39 3.11
                            37 3.11  41 3.15
  41  0.948  0.500  0.422- 127 1.95  65 1.96 129 1.96 128 2.01 119 2.01 126 2.04  44 3.05  10 3.11
                            42 3.11  40 3.15
  42  0.729  0.333  0.451- 122 1.91 128 1.97  96 1.97 131 2.00 130 2.01 129 2.04  43 3.05  41 3.11
                            25 3.11
  43  0.448  0.333  0.422- 131 1.95 101 1.96 133 1.96 132 2.01 123 2.01 122 2.04  42 3.05  28 3.11
                            44 3.11  38 3.15
  44  0.229  0.500  0.451- 126 1.91 132 1.97  68 1.97 127 2.00 134 2.01 133 2.04  41 3.05  11 3.11
                            43 3.11
  45  0.087  0.500  0.551- 135 1.95  73 1.96 137 1.96 136 2.00 134 2.04 127 2.04  48 3.00  46 3.11
                            14 3.11
  46  0.864  0.333  0.577- 130 1.88 139 1.97 136 1.97 104 1.97 138 2.05 137 2.05  47 3.00  45 3.11
                            29 3.11
  47  0.587  0.333  0.551- 139 1.95 109 1.96 141 1.96 140 2.00 130 2.04 131 2.04  46 3.00  48 3.11
                            32 3.11
  48  0.364  0.500  0.577- 134 1.88 135 1.97 140 1.97  76 1.97 142 2.05 141 2.05  45 3.00  47 3.11
                            15 3.11
  49  0.231  0.500  0.683- 143 1.87 145 1.96  81 1.96 144 2.02 142 2.13 135 2.15  52 2.89  50 3.13
                            18 3.13
  50  0.002  0.333  0.702- 138 1.80 146 1.85 112 2.01 144 2.01 145 2.09  51 2.89  49 3.13  33 3.13

  51  0.731  0.333  0.683- 146 1.87 148 1.96 116 1.96 147 2.02 138 2.13 139 2.15  50 2.89  52 3.13
                            36 3.13
  52  0.502  0.500  0.702- 142 1.80 143 1.85  83 2.01 147 2.01 148 2.09   1 2.30  49 2.89  51 3.13
                            19 3.13
  53  0.494  0.667  0.267-   6 1.97   7 2.02
  54  0.994  0.833  0.267-   8 1.97   5 2.02
  55  0.919  0.833  0.351-   5 1.97   9 2.01   8 2.02
  56  0.636  0.833  0.320-  22 1.97   6 1.97   5 2.02
  57  0.778  0.667  0.299-  37 1.97   5 1.97   6 2.02
  58  0.628  0.667  0.394-  10 1.91   6 1.97  11 2.04
  59  0.419  0.667  0.351-   7 1.97  11 2.01   6 2.02
  60  0.136  0.667  0.320-  40 1.97   8 1.97   7 2.02
  61  0.278  0.833  0.299-  23 1.97   7 1.97   8 2.02
  62  0.128  0.833  0.394-  12 1.91   8 1.97   9 2.04
  63  0.054  0.833  0.479-   9 1.95  12 2.00  13 2.04
  64  0.769  0.833  0.447-  10 1.97  26 1.97   9 2.01
  65  0.911  0.667  0.426-   9 1.96  41 1.96  10 2.04
  66  0.764  0.667  0.521-  14 1.88  10 2.01  15 2.04
  67  0.554  0.667  0.479-  11 1.95  10 2.00  15 2.04
  68  0.269  0.667  0.447-  12 1.97  44 1.97  11 2.01
  69  0.411  0.833  0.426-  27 1.96  11 1.96  12 2.04
  70  0.264  0.833  0.521-  16 1.88  12 2.01  13 2.04
  71  0.195  0.833  0.607-  13 1.95  16 1.97  17 2.15
  72  0.906  0.833  0.574-  30 1.97  14 1.97  13 2.00
  73  0.050  0.667  0.554-  45 1.96  13 1.96  14 2.05
  74  0.912  0.667  0.648-  18 1.80  14 2.05  19 2.13
  75  0.695  0.667  0.607-  15 1.95  14 1.97  19 2.15
  76  0.406  0.667  0.574-  16 1.97  48 1.97  15 2.00
  77  0.550  0.833  0.554-  15 1.96  31 1.96  16 2.05
  78  0.412  0.833  0.648-  20 1.80  16 2.05  17 2.13
  79  0.347  0.833  0.733-  20 1.85  17 1.87
  80  0.053  0.833  0.710-  18 2.01  34 2.01  17 2.02
  81  0.194  0.667  0.682-  17 1.96  49 1.96  18 2.09
  82  0.847  0.667  0.733-  18 1.85  19 1.87
  83  0.553  0.667  0.710-  20 2.01  52 2.01  19 2.02
  84  0.694  0.833  0.682-  35 1.96  19 1.96  20 2.09
  85  0.494  0.000  0.267-  22 1.97  23 2.02
  86  0.994  0.167  0.267-  24 1.97  21 2.02
  87  0.919  0.167  0.351-  21 1.97  25 2.01  24 2.02
  88  0.636  0.167  0.320-  22 1.97  38 1.97  21 2.02
  89  0.778  0.000  0.299-   5 1.97  21 1.97  22 2.02
  90  0.628  0.000  0.394-  26 1.91  22 1.97  27 2.04
  91  0.419  0.000  0.351-  23 1.97  27 2.01  22 2.02
  92  0.136  0.000  0.320-   8 1.97  24 1.97  23 2.02
  93  0.278  0.167  0.299-  23 1.97  39 1.97  24 2.02
  94  0.128  0.167  0.394-  28 1.91  24 1.97  25 2.04
  95  0.054  0.167  0.479-  25 1.95  28 2.00  29 2.04
  96  0.769  0.167  0.447-  26 1.97  42 1.97  25 2.01
  97  0.911  0.000  0.426-  25 1.96   9 1.96  26 2.04
  98  0.764  0.000  0.521-  30 1.88  26 2.01  31 2.04
  99  0.554  0.000  0.479-  27 1.95  26 2.00  31 2.04
 100  0.269  0.000  0.447-  28 1.97  12 1.97  27 2.01
 101  0.411  0.167  0.426-  43 1.96  27 1.96  28 2.04
 102  0.264  0.167  0.521-  32 1.88  28 2.01  29 2.04
 103  0.195  0.167  0.607-  29 1.95  32 1.97  33 2.15
 104  0.906  0.167  0.574-  46 1.97  30 1.97  29 2.00
 105  0.050  0.000  0.554-  29 1.96  13 1.96  30 2.05
 106  0.912  1.000  0.648-  34 1.80  30 2.05  35 2.13
 107  0.695  0.000  0.607-  31 1.95  30 1.97  35 2.15
 108  0.406  1.000  0.574-  16 1.97  32 1.97  31 2.00
 109  0.550  0.167  0.554-  31 1.96  47 1.96  32 2.05
 110  0.412  0.167  0.648-  36 1.80  32 2.05  33 2.13
 111  0.347  0.167  0.733-  36 1.85  33 1.87
 112  0.053  0.167  0.710-  50 2.01  34 2.01  33 2.02
[...]
 134  0.264  0.500  0.521-  48 1.88  44 2.01  45 2.04
 135  0.195  0.500  0.607-  45 1.95  48 1.97  49 2.15
 136  0.906  0.500  0.574-  46 1.97  14 1.97  45 2.00
 137  0.050  0.333  0.554-  29 1.96  45 1.96  46 2.05
 138  0.912  0.333  0.648-  50 1.80  46 2.05  51 2.13
 139  0.695  0.333  0.607-  47 1.95  46 1.97  51 2.15
 140  0.406  0.333  0.574-  48 1.97  32 1.97  47 2.00
 141  0.550  0.500  0.554-  15 1.96  47 1.96  48 2.05
 142  0.412  0.500  0.648-  52 1.80  48 2.05  49 2.13
 143  0.347  0.500  0.733-  52 1.85  49 1.87
 144  0.053  0.500  0.710-  50 2.01  18 2.01  49 2.02
 145  0.194  0.333  0.682-  49 1.96  33 1.96  50 2.09
 146  0.847  0.333  0.733-  50 1.85  51 1.87
 147  0.553  0.333  0.710-  52 2.01  36 2.01  51 2.02
 148  0.694  0.500  0.682-  51 1.96  19 1.96  52 2.09

IMPORTANT INFORMATION: All symmetrisations will be switched off!
NOSYMM: (Re-)initialisation of all symmetry stuff for point group C_1.

                                     Primitive cell

  volume of cell :    3395.7251

[...]
   3.63749292  5.75891689 20.60526858
   0.55952485  5.75891741 19.94148400
   2.03363162  3.83927872 19.17104091
   8.88495741  3.83927831 20.60526876
   5.80699074  3.83927803 19.94148378
   7.28109745  5.75891595 19.17104088

--------------------------------------- Iteration      FINAL  ---------------------------------------

--------------------OUTCAR has been truncated-------------------------

[...]

--------------------OUTCAR has been truncated-------------------------

  FORCE on cell =-STRESS in cart. coord.  units (eV):
  Direction    XX          YY          ZZ          XY          YZ          ZX
  Alpha Z  2345.82436  2345.82436  2345.82436
  Ewald  464359.97746457445.06966************     0.01198    -0.00013 -1769.88210
  Hartree485664.22486481448.25169************     0.00239    -0.00008 -1200.92228
  E(xc)   -5295.80392 -5301.07123 -5303.86259     0.00005    -0.00002    -0.83167
  Local  ************************958033.41999    -0.01066     0.00014  2970.27483
  n-local -3296.98476 -3271.07806 -3311.16354    -0.00045    -0.00007     1.01356
  augment  3183.04648  3180.74271  3173.00264    -0.00004     0.00002     1.05787
  Kinetic 17125.01510 17191.63910 17253.92520    -0.00050     0.00082    -9.70744
  Fock        0.00000     0.00000     0.00000     0.00000     0.00000     0.00000
  Total     -48.13259   -20.23052   -14.75393     0.00277     0.00068    -8.99724
  in kB     -22.71001    -9.54520    -6.96123     0.00131     0.00032    -4.24510

 VOLUME and BASIS-vectors are now :
  energy-cutoff  :      600.00
  volume of cell :     3395.73
      direct lattice vectors                 reciprocal lattice vectors
    10.494931139  0.000000000  0.000000000     0.095284094 -0.000000000  0.000000000
     0.000000000 11.517834055  0.000000000     0.000000000  0.086821879  0.000000000
     0.000000000  0.000000000 28.091964603     0.000000000  0.000000000  0.035597368

  length of vectors
    10.494931139 11.517834055 28.091964603     0.095284094  0.086821879  0.035597368

 FORCES acting on ions:
    Electron-Ion                     Ewald-Force                    Non-Local-Force
   -.165E+02 0.543E-02 -.166E+04   0.764E+01 -.969E-02 0.164E+04   0.883E+01 -.128E-02 0.198E+02
   0.467E+02 0.356E-02 -.354E+03   -.519E+02 -.376E-02 0.359E+03   0.527E+01 0.485E-03 -.524E+01
   -.421E+02 0.557E+02 -.338E+03   0.464E+02 -.617E+02 0.339E+03   -.435E+01 0.600E+01 -.778E+00
   -.421E+02 -.557E+02 -.338E+03   0.464E+02 0.617E+02 0.339E+03   -.435E+01 -.600E+01 -.779E+00
   0.408E+01 -.159E-01 0.323E+04   0.557E+00 0.159E-01 -.322E+04   -.987E+00 -.242E-04 -.323E+01
   0.554E+01 -.106E+00 0.265E+04   -.705E+01 0.107E+00 -.265E+04   -.886E-01 -.736E-03 -.772E-01
   0.403E+01 0.127E+00 0.323E+04   0.585E+00 -.132E+00 -.322E+04   -.985E+00 0.135E-02 -.323E+01
   0.436E+01 0.763E-01 0.265E+04   -.589E+01 -.828E-01 -.266E+04   -.828E-01 0.119E-02 -.811E-01
   -.156E+01 0.212E+00 0.121E+04   0.137E+01 -.213E+00 -.121E+04   0.190E+00 -.136E-02 -.277E-01
   -.143E+01 -.147E+01 0.765E+03   0.146E+01 0.145E+01 -.764E+03   -.348E-02 0.204E-01 -.992E-01
   -.278E+00 -.487E+00 0.121E+04   0.962E-01 0.477E+00 -.121E+04   0.187E+00 0.113E-01 -.413E-01
   -.722E+01 0.108E+00 0.759E+03   0.722E+01 -.106E+00 -.759E+03   0.262E-01 0.287E-02 -.108E+00
   -.509E+01 -.232E+01 -.749E+03   0.476E+01 0.232E+01 0.749E+03   0.324E+00 0.669E-02 0.363E-01
   -.120E+02 -.518E+01 -.112E+04   0.121E+02 0.516E+01 0.112E+04   -.420E-01 0.191E-01 -.153E+00
   0.643E+00 -.198E+01 -.729E+03   -.933E+00 0.199E+01 0.729E+03   0.294E+00 0.382E-02 0.312E-01
   -.439E+01 -.807E+00 -.114E+04   0.450E+01 0.817E+00 0.114E+04   -.486E-01 -.141E-01 -.213E+00
   0.276E+02 -.112E+02 -.267E+04   -.286E+02 0.112E+02 0.267E+04   0.952E+00 0.180E-01 -.290E+00
   -.848E+02 -.189E+02 -.303E+04   0.848E+02 0.188E+02 0.303E+04   0.899E-01 0.142E+00 0.711E+00
   -.927E+01 -.343E+02 -.259E+04   0.836E+01 0.343E+02 0.259E+04   0.898E+00 -.260E-01 -.117E+00
   -.629E+02 -.327E+02 -.302E+04   0.630E+02 0.326E+02 0.302E+04   0.123E+00 0.418E-01 0.719E+00
   0.408E+01 0.159E-01 0.323E+04   0.557E+00 -.159E-01 -.322E+04   -.987E+00 0.241E-04 -.323E+01
   0.552E+01 -.123E-04 0.265E+04   -.704E+01 0.128E-04 -.266E+04   -.850E-01 -.102E-06 -.804E-01
   0.396E+01 -.538E-05 0.323E+04   0.668E+00 0.565E-05 -.322E+04   -.986E+00 -.563E-07 -.323E+01
   0.436E+01 -.763E-01 0.265E+04   -.589E+01 0.828E-01 -.266E+04   -.828E-01 -.119E-02 -.811E-01
   -.156E+01 -.212E+00 0.121E+04   0.137E+01 0.213E+00 -.121E+04   0.190E+00 0.136E-02 -.277E-01
   -.364E+01 0.210E-04 0.763E+03   0.363E+01 -.198E-04 -.763E+03   0.333E-01 -.533E-06 -.111E+00
   -.106E+00 -.520E-04 0.121E+04   -.809E-01 0.532E-04 -.121E+04   0.182E+00 -.272E-06 -.420E-01
   -.722E+01 -.108E+00 0.759E+03   0.722E+01 0.106E+00 -.759E+03   0.262E-01 -.287E-02 -.108E+00
   -.509E+01 0.232E+01 -.749E+03   0.476E+01 -.232E+01 0.749E+03   0.324E+00 -.669E-02 0.363E-01
   -.126E+02 -.376E-04 -.114E+04   0.127E+02 0.313E-04 0.114E+04   -.793E-02 0.128E-05 -.160E+00
   -.272E+01 -.364E-04 -.740E+03   0.240E+01 0.346E-04 0.740E+03   0.326E+00 0.718E-07 0.747E-01
   -.439E+01 0.807E+00 -.114E+04   0.450E+01 -.817E+00 0.114E+04   -.486E-01 0.141E-01 -.213E+00
   0.276E+02 0.112E+02 -.267E+04   -.286E+02 -.112E+02 0.267E+04   0.952E+00 -.180E-01 -.290E+00
   -.742E+02 -.148E-03 -.304E+04   0.744E+02 0.145E-03 0.304E+04   0.409E-01 0.153E-05 0.717E+00
   0.126E+02 -.194E-03 -.266E+04   -.135E+02 0.179E-03 0.266E+04   0.898E+00 0.202E-05 -.228E+00
   -.629E+02 0.326E+02 -.302E+04   0.630E+02 -.326E+02 0.302E+04   0.123E+00 -.418E-01 0.719E+00
   0.413E+01 0.892E-05 0.323E+04   0.516E+00 -.920E-05 -.322E+04   -.988E+00 0.615E-07 -.323E+01
   0.554E+01 0.106E+00 0.265E+04   -.705E+01 -.107E+00 -.265E+04   -.886E-01 0.736E-03 -.772E-01
   0.403E+01 -.127E+00 0.323E+04   0.585E+00 0.132E+00 -.322E+04   -.985E+00 -.135E-02 -.323E+01
   0.347E+01 0.181E-05 0.265E+04   -.496E+01 -.183E-05 -.266E+04   -.987E-01 0.132E-06 -.804E-01
   0.116E+01 0.149E-04 0.121E+04   -.133E+01 -.166E-04 -.121E+04   0.155E+00 0.298E-06 0.666E-02
   -.143E+01 0.147E+01 0.765E+03   0.146E+01 -.145E+01 -.764E+03   -.348E-02 -.204E-01 -.992E-01
   -.278E+00 0.487E+00 0.121E+04   0.962E-01 -.477E+00 -.121E+04   0.187E+00 -.113E-01 -.413E-01
   -.111E+02 -.715E-04 0.744E+03   0.111E+02 0.731E-04 -.744E+03   0.330E-01 -.184E-06 -.401E-01
   0.651E+00 -.482E-05 -.750E+03   -.898E+00 0.935E-05 0.750E+03   0.220E+00 0.951E-07 0.679E-01
   -.120E+02 0.518E+01 -.112E+04   0.121E+02 -.516E+01 0.112E+04   -.420E-01 -.191E-01 -.153E+00
   0.643E+00 0.198E+01 -.729E+03   -.933E+00 -.199E+01 0.729E+03   0.294E+00 -.383E-02 0.312E-01
   -.658E+01 -.102E-04 -.118E+04   0.666E+01 0.156E-04 0.118E+04   -.245E-01 -.904E-06 -.135E+00
   0.510E+02 0.902E-04 -.267E+04   -.517E+02 -.888E-04 0.267E+04   0.628E+00 0.153E-05 -.137E+00
   -.848E+02 0.189E+02 -.303E+04   0.848E+02 -.188E+02 0.303E+04   0.898E-01 -.142E+00 0.711E+00
   -.927E+01 0.343E+02 -.259E+04   0.836E+01 -.343E+02 0.259E+04   0.898E+00 0.260E-01 -.117E+00
   0.148E+01 0.267E-02 -.298E+04   -.106E+01 -.256E-02 0.298E+04   -.292E+00 -.592E-04 -.217E+00
   -.315E+02 -.221E-01 0.218E+04   0.361E+02 0.219E-01 -.220E+04   -.633E+01 0.391E-03 0.166E+02
   -.318E+02 -.261E-01 0.218E+04   0.364E+02 0.245E-01 -.220E+04   -.633E+01 0.213E-02 0.166E+02
   0.778E+02 0.869E-01 0.133E+04   -.820E+02 -.854E-01 -.132E+04   0.324E+01 -.386E-02 -.412E+01
   0.724E+02 0.215E-01 0.162E+04   -.787E+02 -.217E-01 -.161E+04   0.668E+01 0.625E-03 -.234E+01
   -.835E+02 -.409E-01 0.186E+04   0.900E+02 0.399E-01 -.186E+04   -.628E+01 0.132E-02 -.339E+00
   -.638E+02 -.736E+00 0.101E+04   0.686E+02 0.790E+00 -.102E+04   -.483E+01 -.517E-01 0.418E+01
   0.784E+02 0.559E-01 0.132E+04   -.825E+02 -.359E-01 -.132E+04   0.322E+01 -.217E-01 -.402E+01
   0.716E+02 0.873E-01 0.162E+04   -.779E+02 -.946E-01 -.161E+04   0.669E+01 0.178E-01 -.236E+01
[...]
   0.830E+02 0.424E-04 -.104E+04   -.890E+02 -.365E-04 0.105E+04   0.609E+01 -.777E-05 -.815E+01
   0.680E+02 0.161E-03 -.681E+03   -.734E+02 -.170E-03 0.684E+03   0.535E+01 0.552E-05 -.273E+01
   -.777E+02 0.748E+00 -.441E+03   0.833E+02 -.761E+00 0.439E+03   -.565E+01 0.141E-01 0.255E+01
   -.593E+02 0.803E+01 -.122E+04   0.607E+02 -.823E+01 0.121E+04   -.145E+01 0.197E+00 0.988E+01
   0.772E+02 0.717E+01 -.101E+04   -.828E+02 -.735E+01 0.101E+04   0.563E+01 0.176E+00 -.614E+01
   0.765E+02 0.112E+01 -.697E+03   -.823E+02 -.120E+01 0.700E+03   0.578E+01 0.800E-01 -.307E+01
   -.692E+02 -.345E-04 -.446E+03   0.745E+02 0.403E-04 0.444E+03   -.529E+01 -.465E-05 0.216E+01
   -.549E+02 0.956E-04 -.124E+04   0.594E+02 -.102E-03 0.124E+04   -.452E+01 0.295E-05 0.683E+01
   0.998E+02 0.622E-03 -.217E+04   -.105E+03 -.580E-03 0.219E+04   0.481E+01 -.581E-04 -.201E+02
   0.475E+02 0.243E-05 -.192E+04   -.508E+02 0.748E-05 0.193E+04   0.334E+01 -.150E-04 -.706E+01
   -.474E+02 0.581E+01 -.159E+04   0.518E+02 -.561E+01 0.159E+04   -.449E+01 -.201E+00 0.269E+01
   0.130E+02 0.271E+02 -.217E+04   -.179E+02 -.271E+02 0.219E+04   0.497E+01 -.217E-01 -.195E+02
   0.732E+02 0.425E+02 -.186E+04   -.779E+02 -.421E+02 0.187E+04   0.469E+01 -.385E+00 -.609E+01
   -.702E+02 0.646E-03 -.151E+04   0.744E+02 -.631E-03 0.151E+04   -.427E+01 -.347E-04 0.371E+01
   -.215E+02 0.315E-02 0.552E+02   -.753E-12 -.156E-12 0.614E-11   0.215E+02 -.337E-02 -.552E+02

 POSITION                                       TOTAL-FORCE (eV/Angst)
      6.30499      5.75897     21.98960        -0.002674     -0.005530     -0.001704
      5.59879      5.75892     22.72735        -0.008752      0.000288     -0.001062
      6.90165      4.93873     22.12044        -0.007511      0.003838      0.001538
      6.90161      6.57905     22.12043        -0.004190      0.001137      0.002533
      8.55406      9.59820      8.23960         3.658187     -0.000018      1.724477
      6.28145      7.67856      9.13289        -1.600684     -0.000019     -1.907553
      3.30660      7.67856      8.23960         3.638127     -0.004058      1.714553
      1.03399      9.59820      9.13289        -1.622008     -0.005348     -1.918158
      9.95823      9.59847     11.85834        -0.002959     -0.000656      0.001263
      7.65896      7.67378     12.66152         0.000282     -0.001350     -0.001022
      4.70699      7.67575     11.85582         0.000764     -0.001031     -0.002111
      2.40343      9.59736     12.66802         0.003283      0.004489      0.001129
      0.92069      9.59910     15.47898        -0.002016      0.003595     -0.002130
      9.08928      7.67085     16.18088         0.001241     -0.002008     -0.001161
      6.15814      7.67530     15.46009        -0.000840      0.005872     -0.001577
      3.82906      9.59890     16.20312         0.002424     -0.003277     -0.002032
      2.42846      9.59048     19.17985         0.001946      0.000492     -0.000970
      0.00873      7.66543     19.70941        -0.004450      0.004959     -0.002019
      7.66468      7.68049     19.10697        -0.000679      0.000342     -0.000541
      5.27419      9.61311     19.70166         0.002442      0.005369     -0.001451
      8.55406      1.91964      8.23960         3.658187      0.000021      1.724477
      6.28145      0.00000      9.13289        -1.610199      0.000002     -1.916097
      3.30660      0.00000      8.23960         3.650494      0.000002      1.718041
      1.03399      1.91964      9.13289        -1.622008      0.005351     -1.918159
      9.95823      1.91937     11.85834        -0.002961      0.000660      0.001263
      7.65517      0.00000     12.66149         0.002646      0.000002      0.000001
      4.70783     -0.00000     11.85757        -0.006601      0.000002      0.005501
      2.40343      1.92047     12.66802         0.003284     -0.004486      0.001128
      0.92069      1.91873     15.47898        -0.002011     -0.003594     -0.002132
      9.07702      0.00000     16.19041         0.002968     -0.000004      0.000516
      6.16310      0.00000     15.46694        -0.000777     -0.000000     -0.000878
      3.82906      1.91894     16.20313         0.002420      0.003274     -0.002039
      2.42846      1.92735     19.17985         0.001945     -0.000491     -0.000967
      0.03017      0.00000     19.70973        -0.002070     -0.000000     -0.006050
      7.69434      0.00000     19.16060        -0.002487     -0.000012      0.002851
      5.27419      1.90473     19.70166         0.002419     -0.005422     -0.001450
      8.55406      5.75892      8.23960         3.665860      0.000001      1.717935
      6.28145      3.83928      9.13289        -1.600684      0.000022     -1.907551
      3.30660      3.83928      8.23960         3.638127      0.004061      1.714553
      1.03399      5.75892      9.13289        -1.590413      0.000002     -1.856399
      9.97301      5.75892     11.85267         0.000398      0.000000      0.000406
      7.65896      3.84405     12.66152         0.000283      0.001353     -0.001025
      4.70699      3.84209     11.85582         0.000767      0.001031     -0.002112
      2.40605      5.75892     12.69584        -0.000274      0.000003     -0.004529
      0.95198      5.75892     15.48433        -0.005148      0.000006     -0.004991
      9.08928      3.84698     16.18088         0.001237      0.002017     -0.001167
      6.15814      3.84253     15.46009        -0.000837     -0.005866     -0.001582
      3.84389      5.75892     16.28735         0.001446      0.000006     -0.002614
      2.46897      5.75892     19.20116         0.000244      0.000004     -0.004212
      0.00873      3.85240     19.70941        -0.004418     -0.004955     -0.002023
      7.66468      3.83734     19.10697        -0.000644     -0.000324     -0.000571
      5.30796      5.75892     19.86413         0.005748      0.000051     -0.000201
      5.18821      7.67856      7.50000        -1.710574      0.000204      1.041343
     10.43567      9.59820      7.50000        -1.707348      0.000553      1.038938
      9.64731      9.59820      9.87249        -0.899512     -0.002415     -0.143223
      6.67245      9.59820      8.97920         0.346032      0.000482     -0.059383
      8.16307      7.67856      8.39329         0.258805      0.000289     -1.072628
      6.59270      7.67856     11.07316        -0.065734      0.001460      0.416412
      4.39984      7.67856      9.87249        -0.906529     -0.001793     -0.127921
      1.42498      7.67856      8.97920         0.353174      0.010447     -0.065362
[...]
      2.79120      5.75892     14.67032         0.002789      0.000001      0.002985
      2.04538      5.75892     17.07955         0.004312     -0.000000     -0.002972
      9.51800      5.75892     16.11354         0.001094     -0.000003     -0.001181
      0.53989      3.84141     15.55724        -0.001019      0.000930     -0.001725
      9.58036      3.83984     18.17096         0.000962      0.000836      0.003737
      7.31028      3.83180     17.04415        -0.001472     -0.001305     -0.000979
      4.27705      3.84128     16.15218        -0.000424      0.001123      0.001247
      5.78271      5.75892     15.57891         0.000681      0.000003     -0.000692
      4.31134      5.75892     18.26317        -0.002321     -0.000002     -0.005251
      3.62198      5.75892     20.66790         0.001091     -0.000015      0.002570
      0.54889      5.75892     19.94831        -0.000366     -0.000004     -0.002618
      2.03922      3.84230     19.19476        -0.001344     -0.004219     -0.001721
      8.86124      3.85906     20.58031         0.001639      0.001753     -0.001247
      5.81230      3.80991     19.90351         0.000147      0.004551     -0.002273
      7.26604      5.75892     19.12767        -0.001974     -0.000018      0.001862
    total drift:                                0.000818     -0.000216      0.004828

  FREE ENERGIE OF THE ION-ELECTRON SYSTEM (eV)
  free  energy   TOTEN  =      -959.78679605 eV

  energy  without entropy=     -959.78679605  energy(sigma->0) =     -959.78679605

 d Force = 0.2887299E-04[ 0.217E-04, 0.360E-04]  d Energy = 0.2855744E-04 0.316E-06
 d Force =-0.4321861E+01[-0.432E+01,-0.432E+01]  d Ewald  =-0.4321861E+01 0.310E-06

 Conjugate gradient step on ions:
 trial-energy change:   -0.000029  1 .order   -0.000029   -0.000036   -0.000022
  (g-gl).g = 0.134E-03      g.g   = 0.138E-03  gl.gl    = 0.101E-03
 g(Force)  = 0.138E-03   g(Stress)= 0.000E+00 ortho     = 0.190E-05
 gamma     =   1.32189
 trial     =   0.25549
 opt step  =   0.64400  (harmonic =   0.64400) maximal distance =0.00061654
 next E    =  -959.786813   (d E  =  -0.00005)

 reached required accuracy - stopping structural energy minimisation