 vasp.6.3.0 20Jan22 (build Dec 25 2023 18:06:01) complex
 executed on        HPECrayEX_GCC date 2024.01.24  03:03:17

 INCAR:
   SYSTEM = MgO-rocksalt
   ISMEAR = 0
   SIGMA = 0.05
   EDIFF = 1E-8
   ALGO = ALL
   ISTART = 0
   IBRION = 5
   POTIM = 0.01
   NFREE = 2
   ISYM = 0
   DIPOL = 0.5 0.5 0.5
   IDIPOL = 3
   LDIPOL = .TRUE.
   GGA = RE
   AGGAC = 0.0
   LUSE_VDW = .TRUE.
   LASPH = .TRUE.
   ENCUT = 600
   PREC = Accurate
   LASPH = .TRUE.
   LREAL = .FALSE.
   ISPIN = 1
   NELM = 200
   NELMIN = 8
   NCORE = 8
   KPAR = 1
   LWAVE = .FALSE.
   LCHARG = .FALSE.

 POTCAR:    PAW_PBE H 15Jun2001
 POTCAR:    PAW_PBE O 08Apr2002
 POTCAR:    PAW_PBE Ti_pv 07Sep2000
 POTCAR:    PAW_PBE O 08Apr2002
|               ----> ADVICE to this user running VASP <----                  |
|     You have switched on vdW-DFT.                                           |
|     This routine was written and supplied by Jiri Klimes. We recommend      |
|     that you carefully read and cite the following publications:            |
|       J. Klimes, D.R. Bowler, A. Michelides                                 |
|          J. Phys.: Cond Matt. 22 022201 (2010)                              |
|       J. Klimes, D.R. Bowler, A. Michelides                                 |
|          Phys. Rev. B. 83, 195131 (2011)                                    |
|     and references therein.                                                 |

   TITEL  = PAW_PBE H 15Jun2001
   POMASS =    1.000; ZVAL   =    1.000    mass and valenz
   ENMAX  =  250.000; ENMIN  =  200.000 eV

   TITEL  = PAW_PBE O 08Apr2002
   POMASS =   16.000; ZVAL   =    6.000    mass and valenz
   ENMAX  =  400.000; ENMIN  =  300.000 eV

   TITEL  = PAW_PBE Ti_pv 07Sep2000
   POMASS =   47.880; ZVAL   =   10.000    mass and valenz
   ENMAX  =  222.335; ENMIN  =  166.751 eV

   TITEL  = PAW_PBE O 08Apr2002
   POMASS =   16.000; ZVAL   =    6.000    mass and valenz
   ENMAX  =  400.000; ENMIN  =  300.000 eV

  PAW_PBE H 15Jun2001                   :
  PAW_PBE O 08Apr2002                   :
  PAW_PBE Ti_pv 07Sep2000               :
  PAW_PBE O 08Apr2002                   :

 POSCAR:  H  O Ti  O
  positions in direct lattice
 exchange correlation table for  LEXCH =       40
   RHO(1)=    0.500       N(1)  =     2000
   RHO(2)=  100.500       N(2)  =     4000

 ion  position               nearest neighbor table
   1  0.670  0.567  0.782-   3 0.98
   2  0.670  0.433  0.782-   3 0.98
   3  0.613  0.500  0.780-   1 0.98   2 0.98  51 2.35
   4  0.815  0.833  0.293-  54 1.97  88 1.97  56 1.97  53 2.02  55 2.02  21 3.11   5 3.11   7 3.11

   5  0.599  0.667  0.325-  52 1.97 119 1.97  55 1.97  57 1.97  58 2.02  56 2.02  36 3.11   4 3.11
                             6 3.11  10 3.14
   6  0.315  0.667  0.293-  58 1.97 124 1.97  60 1.97  52 2.02  59 2.02  39 3.11   7 3.11   5 3.11

   7  0.099  0.833  0.325-  53 1.97  91 1.97  59 1.97  61 1.97  54 2.02  60 2.02  22 3.11   6 3.11
                             4 3.11   8 3.15
   8  0.949  0.833  0.422-  62 1.95  96 1.96  64 1.96  63 2.01  54 2.01  61 2.04  11 3.05   9 3.10
                            25 3.10   7 3.15
   9  0.730  0.666  0.451-  57 1.91 127 1.96  63 1.97  65 2.00  66 2.01  64 2.03  10 3.06   8 3.10
                            40 3.11  14 3.17
  10  0.448  0.666  0.422-  66 1.95 132 1.96  68 1.96  58 2.01  67 2.01  57 2.04   9 3.06  11 3.11
                            43 3.11   5 3.14
  11  0.229  0.833  0.451-  61 1.92  99 1.97  67 1.97  62 2.00  69 2.01  68 2.04   8 3.05  26 3.11
                            10 3.11
  12  0.088  0.834  0.551-  70 1.94 104 1.96  72 1.96  71 2.00  69 2.04  62 2.05  15 3.00  13 3.10
                            29 3.11
  13  0.866  0.666  0.576-  65 1.88 135 1.96  71 1.97  74 1.98  72 2.04  73 2.05  14 3.02  12 3.10
                            44 3.11
  14  0.586  0.667  0.550-  74 1.96 140 1.96  76 1.96  75 2.00  66 2.02  65 2.05  13 3.02  15 3.11
                            47 3.12   9 3.17
  15  0.365  0.833  0.577-  69 1.88 107 1.97  75 1.98  70 1.98  77 2.04  76 2.05  12 3.00  30 3.11
                            14 3.11
  16  0.231  0.833  0.683-  78 1.87  80 1.96 112 1.97  79 2.02  77 2.14  70 2.16  19 2.90  33 3.12
                            17 3.14
  17  0.999  0.666  0.702-  73 1.79  81 1.86 143 2.00  79 2.01  80 2.10  18 2.91  16 3.14  48 3.15

[...]

  20  0.815  0.167  0.293-  86 1.97  88 1.97 120 1.97  85 2.02  87 2.02  21 3.11  37 3.11  23 3.11

[...]

  36  0.815  0.500  0.293- 118 1.97  56 1.97 120 1.97 119 2.02 117 2.02   5 3.11  37 3.11  39 3.11

  37  0.599  0.333  0.325- 116 1.97 119 1.97  87 1.97 121 1.97 120 2.02 122 2.02  36 3.11  20 3.11
                            38 3.11  42 3.14
  38  0.315  0.333  0.293- 122 1.97 124 1.97  92 1.97 123 2.02 116 2.02  39 3.11  23 3.11  37 3.11

  39  0.099  0.500  0.325- 117 1.97  59 1.97 123 1.97 125 1.97 124 2.02 118 2.02  38 3.11   6 3.11
                            36 3.11  40 3.13
  40  0.950  0.500  0.422- 126 1.95 128 1.96  64 1.96 118 2.01 127 2.02 125 2.03  43 3.05   9 3.11
                            41 3.11  39 3.13
  41  0.730  0.334  0.451- 121 1.91 127 1.96  95 1.97 129 2.00 130 2.01 128 2.03  42 3.06  24 3.10
                            40 3.11  46 3.17
  42  0.448  0.334  0.422- 130 1.95 132 1.96 100 1.96 122 2.01 131 2.01 121 2.04  41 3.06  27 3.11
                            43 3.11  37 3.14
  43  0.229  0.500  0.452- 125 1.94  67 1.97 131 1.97 126 1.99 133 2.01 132 2.04  40 3.05  10 3.11
                            42 3.11  44 3.15
  44  0.090  0.500  0.551- 134 1.94  72 1.96 136 1.96 133 2.02 135 2.02 126 2.05  47 3.00  13 3.11
                            45 3.11  43 3.15
  45  0.866  0.334  0.576- 129 1.88 135 1.96 103 1.97 138 1.98 136 2.04 137 2.05  46 3.02  28 3.10
                            44 3.11
  46  0.586  0.333  0.550- 138 1.96 140 1.96 108 1.96 139 2.00 130 2.02 129 2.05  45 3.02  31 3.11
                            47 3.12  41 3.17
  47  0.366  0.500  0.579- 133 1.92 134 1.96 139 1.97  75 1.97 141 2.05 140 2.06  44 3.00  46 3.12
                            14 3.12
  48  0.233  0.500  0.683- 142 1.87 144 1.96  80 1.96 143 2.05 141 2.09 134 2.15  51 2.91  49 3.15
                            17 3.15
  49  0.999  0.334  0.702- 137 1.79 145 1.86 143 2.00 111 2.01 144 2.10  50 2.91  32 3.14  48 3.15

  50  0.729  0.334  0.680- 145 1.90 147 1.95 115 1.97 146 2.02 138 2.09 137 2.13  49 2.91  35 3.13
                            51 3.14
  51  0.503  0.500  0.707- 142 1.85 141 1.86  82 2.01 146 2.01 147 2.13   3 2.35  48 2.91  50 3.14
                            18 3.14
  52  0.494  0.667  0.267-   5 1.97   6 2.02
  53  0.994  0.833  0.267-   7 1.97   4 2.02
  54  0.919  0.833  0.351-   4 1.97   8 2.01   7 2.02
  55  0.636  0.833  0.320-  21 1.97   5 1.97   4 2.02
  56  0.778  0.667  0.299-  36 1.97   4 1.97   5 2.02
  57  0.628  0.667  0.394-   9 1.91   5 1.97  10 2.04
  58  0.419  0.667  0.351-   6 1.97  10 2.01   5 2.02
  59  0.136  0.667  0.320-  39 1.97   7 1.97   6 2.02
  60  0.278  0.833  0.299-  22 1.97   6 1.97   7 2.02
  61  0.128  0.833  0.394-  11 1.92   7 1.97   8 2.04
  62  0.054  0.833  0.479-   8 1.95  11 2.00  12 2.05
  63  0.770  0.833  0.447-  25 1.97   9 1.97   8 2.01
  64  0.912  0.667  0.426-  40 1.96   8 1.96   9 2.03
  65  0.765  0.666  0.521-  13 1.88   9 2.00  14 2.05
  66  0.554  0.666  0.479-  10 1.95   9 2.01  14 2.02
  67  0.269  0.667  0.447-  43 1.97  11 1.97  10 2.01
  68  0.412  0.833  0.426-  10 1.96  26 1.96  11 2.04
  69  0.265  0.833  0.521-  15 1.88  11 2.01  12 2.04
  70  0.195  0.833  0.607-  12 1.94  15 1.98  16 2.16
  71  0.907  0.833  0.573-  29 1.97  13 1.97  12 2.00
  72  0.051  0.666  0.554-  44 1.96  12 1.96  13 2.04
  73  0.912  0.668  0.647-  17 1.79  13 2.05  18 2.13
  74  0.696  0.668  0.606-  14 1.96  13 1.98  18 2.09
  75  0.407  0.666  0.575-  47 1.97  15 1.98  14 2.00
  76  0.550  0.833  0.554-  14 1.96  30 1.96  15 2.05
  77  0.411  0.835  0.648-  19 1.79  15 2.04  16 2.14
  78  0.347  0.833  0.734-  19 1.86  16 1.87
  79  0.052  0.833  0.710-  33 2.01  17 2.01  16 2.02
  80  0.193  0.666  0.683-  16 1.96  48 1.96  17 2.10
  81  0.843  0.663  0.733-  17 1.86  18 1.90
  82  0.554  0.668  0.709-  19 2.00  51 2.01  18 2.02
  83  0.693  0.834  0.681-  34 1.96  18 1.97  19 2.09
  84  0.494  0.000  0.267-  21 1.97  22 2.02
  85  0.994  0.167  0.267-  23 1.97  20 2.02
  86  0.919  0.167  0.351-  20 1.97  24 2.01  23 2.02
  87  0.636  0.167  0.320-  21 1.97  37 1.97  20 2.02
  88  0.778  0.000  0.299-   4 1.97  20 1.97  21 2.02
  89  0.628  0.000  0.394-  25 1.91  21 1.97  26 2.04
  90  0.419  0.000  0.351-  22 1.97  26 2.01  21 2.02
  91  0.136  0.000  0.320-   7 1.97  23 1.97  22 2.02
  92  0.278  0.167  0.299-  22 1.97  38 1.97  23 2.02
  93  0.128  0.167  0.394-  27 1.92  23 1.97  24 2.04
  94  0.054  0.167  0.479-  24 1.95  27 2.00  28 2.05
  95  0.770  0.167  0.447-  25 1.97  41 1.97  24 2.01
  96  0.912  0.000  0.426-  24 1.96   8 1.96  25 2.04
  97  0.765  0.000  0.521-  29 1.88  25 2.00  30 2.04
  98  0.554  1.000  0.479-  26 1.95  25 2.00  30 2.04
  99  0.269  0.000  0.447-  27 1.97  11 1.97  26 2.01
 100  0.412  0.167  0.426-  42 1.96  26 1.96  27 2.04
 101  0.265  0.167  0.521-  31 1.88  27 2.01  28 2.04
 102  0.195  0.167  0.607-  28 1.94  31 1.98  32 2.16
 103  0.907  0.167  0.573-  29 1.97  45 1.97  28 2.00
 104  0.051  0.000  0.554-  28 1.96  12 1.96  29 2.06
 105  0.912  0.000  0.647-  33 1.80  29 2.05  34 2.13
 106  0.695  0.000  0.607-  30 1.94  29 1.97  34 2.15
 107  0.407  1.000  0.574-  15 1.97  31 1.97  30 2.00
 108  0.550  0.167  0.554-  46 1.96  30 1.96  31 2.05
 109  0.411  0.165  0.648-  35 1.79  31 2.04  32 2.14
 110  0.347  0.167  0.734-  35 1.86  32 1.87
 111  0.052  0.167  0.710-  33 2.01  49 2.01  32 2.02
[...]
 133  0.266  0.500  0.522-  47 1.92  43 2.01  44 2.02
 134  0.195  0.500  0.608-  44 1.94  47 1.96  48 2.15
 135  0.907  0.500  0.574-  45 1.96  13 1.96  44 2.02
 136  0.051  0.334  0.554-  44 1.96  28 1.96  45 2.04
 137  0.912  0.332  0.647-  49 1.79  45 2.05  50 2.13
 138  0.696  0.332  0.606-  46 1.96  45 1.98  50 2.09
 139  0.407  0.334  0.575-  47 1.97  31 1.98  46 2.00
 140  0.551  0.500  0.555-  14 1.96  46 1.96  47 2.06
 141  0.411  0.500  0.650-  51 1.86  47 2.05  48 2.09
 142  0.344  0.500  0.735-  51 1.85  48 1.87
 143  0.051  0.500  0.710-  49 2.00  17 2.00  48 2.05
 144  0.193  0.334  0.683-  32 1.96  48 1.96  49 2.10
 145  0.843  0.337  0.733-  49 1.86  50 1.90
 146  0.554  0.332  0.709-  35 2.00  51 2.01  50 2.02
 147  0.692  0.500  0.679-  50 1.95  18 1.95  51 2.13

IMPORTANT INFORMATION: All symmetrisations will be switched off!
NOSYMM: (Re-)initialisation of all symmetry stuff for point group C_1.

                                     Primitive cell

  volume of cell :    3395.7474

  direct lattice vectors                    reciprocal lattice vectors
    10.494937820  0.000000000  0.000000000     0.095284033 -0.000000000  0.000000000
     0.000000000 11.517876715  0.000000000     0.000000000  0.086821558  0.000000000
     0.000000000  0.000000000 28.092027652     0.000000000  0.000000000  0.035597288

  length of vectors
[...]
      3.82757      1.91897     16.20829         0.001443      0.000646     -0.000896
      2.41951      1.92671     19.18557         0.001182      0.002443     -0.001570
      0.01675      0.00000     19.71417         0.002651     -0.000019     -0.003877
      7.67845     11.51788     19.16270        -0.003597      0.000041     -0.003808
      5.26688      1.90881     19.71142        -0.001253      0.002798     -0.002349
      8.55404      5.75894      8.23961         3.657617     -0.000000      1.713836
      6.28143      3.83929      9.13291        -1.594426     -0.002966     -1.904759
      3.30657      3.83929      8.23961         3.636889     -0.000014      1.710415
      1.03396      5.75894      9.13291        -1.589021     -0.000001     -1.867574
      9.97056      5.75894     11.85228         0.001464     -0.000001     -0.000794
      7.66027      3.84306     12.66101         0.001005      0.000923      0.000344
      4.70677      3.84121     11.85467         0.001162      0.000560      0.002210
      2.40646      5.75894     12.69173         0.000411     -0.000006      0.000925
      0.94473      5.75894     15.48095        -0.000691     -0.000011      0.001180
      9.08801      3.84371     16.18026         0.000014      0.003096     -0.001384
      6.15510      3.84115     15.45598        -0.001504      0.000455     -0.000314
      3.84142      5.75894     16.27687        -0.000602      0.000029      0.002454
      2.44552      5.75894     19.19235         0.002920      0.000058     -0.000462
     10.48870      3.84820     19.71328         0.002582      0.001990     -0.002004
      7.64965      3.84775     19.09583        -0.005300      0.004456     -0.002506
      5.27562      5.75894     19.86160         0.000021     -0.000008     -0.004871
      5.18821      7.67858      7.50000        -1.712977     -0.000248      1.041785
     10.43568      9.59823      7.50000        -1.707542     -0.000024      1.037643
      9.64726      9.59823      9.87252        -0.899705     -0.002464     -0.148021
      6.67240      9.59823      8.97923         0.346004     -0.002488     -0.060392
      8.16307      7.67858      8.39329         0.258441     -0.004251     -1.072421
      6.59271      7.67858     11.07317        -0.069620      0.002607      0.403627
      4.39979      7.67858      9.87252        -0.908098     -0.002410     -0.132184
      1.42493      7.67858      8.97923         0.353780      0.005004     -0.065050
      2.91560      9.59823      8.39329         0.265614     -0.004167     -1.074231
[...]
      2.79197      5.75894     14.66918         0.000250     -0.000001     -0.002012
      2.05013      5.75894     17.07939         0.000485     -0.000003      0.001282
      9.51856      5.75894     16.11876         0.000419      0.000033     -0.000469
      0.53824      3.84171     15.55709         0.001323     -0.001382     -0.000351
      9.57339      3.82957     18.17071        -0.000255      0.000181      0.000480
      7.30622      3.82023     17.03695         0.000349     -0.000332     -0.000087
      4.27587      3.84198     16.15237        -0.000064     -0.003261      0.000890
      5.78216      5.75894     15.57710         0.000861     -0.000005     -0.001220
      4.31814      5.75894     18.26603        -0.005651     -0.000003     -0.011004
      3.60892      5.75894     20.65969        -0.006676     -0.000003      0.002542
      0.53858      5.75894     19.93841        -0.002159     -0.000016      0.000033
      2.02536      3.84192     19.19098        -0.000115     -0.000245     -0.000035
      8.84201      3.88060     20.57842        -0.001553     -0.001071      0.002127
      5.81037      3.82036     19.92165         0.001390     -0.006347     -0.001887
      7.26097      5.75894     19.07660         0.004869      0.000040     -0.008892
    total drift:                                0.002732      0.000002      0.005855

  FREE ENERGIE OF THE ION-ELECTRON SYSTEM (eV)
  free  energy   TOTEN  =      -953.98124854 eV

  energy  without entropy=     -953.98124854  energy(sigma->0) =     -953.98124854

 d Force =-0.8410903E-04[-0.113E-02, 0.964E-03]  d Energy =-0.5748465E-04-0.266E-04
 d Force =-0.4116328E+02[-0.412E+02,-0.411E+02]  d Ewald  =-0.4116322E+02-0.548E-04

 Finite differences progress:
  Degree of freedom:   9/  9
  Displacement:        2/  2
  Total:              18/ 18

 SECOND DERIVATIVES (NOT SYMMETRIZED)
               1X          1Y          1Z          2X          2Y          2Z          3X          3Y          3Z
  1X   -18.432658  -19.674924   -2.735906   -1.208636   -2.581279   -0.174576   19.605882   22.034381    2.868001
  1Y   -19.681322  -32.398881   -2.290651    2.578656    2.934304    0.296783   16.961566   29.435767    1.743553
  1Z    -2.734012   -2.285438   -1.453899   -0.174119   -0.299152   -0.126208    2.507821    2.003842    1.355570
  2X    -1.208418    2.581865   -0.172828  -18.428385   19.668194   -2.734329   19.602627  -22.036815    2.873260
  2Y    -2.583611    2.934630   -0.300001   19.679604  -32.393217    2.290037  -16.959723   29.447943   -1.748592
  2Z    -0.175192    0.299457   -0.126711   -2.734698    2.286313   -1.455483    2.502331   -1.994784    1.354005
  3X    19.602594   16.947248    2.505528   19.600605  -16.943974    2.506181  -40.570619   -0.004029   -5.780894
  3Y    22.049690   29.434136    2.000196  -22.045253   29.431074   -1.998089    0.001502  -60.785799   -0.000980
  3Z     2.867101    1.744910    1.341856    2.868405   -1.744514    1.343039   -5.776891   -0.007016   -5.238699

 Eigenvectors and eigenvalues of the dynamical matrix

   1 f  =  110.932487 THz   697.009371 2PiTHz 3700.309457 cm-1   458.779695 meV
             X         Y         Z           dx          dy          dz
      7.029295  6.531746 21.971760     0.412411    0.541096    0.052855
      7.029309  4.986128 21.971755    -0.410808    0.538786   -0.052618
      6.434909  5.758943 21.903945    -0.000386   -0.269289   -0.000036
      8.554040  9.598231  8.239614            0           0           0
      6.281431  7.678584  9.132906            0           0           0
      3.306571  7.678584  8.239614            0           0           0
      1.033962  9.598231  9.132906            0           0           0
      9.959534  9.599348 11.858389            0           0           0
      7.660268  7.674820 12.661011            0           0           0
      4.706773  7.676664 11.854670            0           0           0
      2.403499  9.597781 12.669744            0           0           0
      0.921251  9.601176 15.480288            0           0           0
      9.088014  7.674165 16.180259            0           0           0
      6.155099  7.676731 15.455980            0           0           0
      3.827565  9.598906 16.208288            0           0           0
      2.419506  9.591171 19.185565            0           0           0
     10.488692  7.669673 19.713277            0           0           0
      7.649653  7.670131 19.095825            0           0           0
      5.266887  9.609063 19.711424            0           0           0
      8.554040  1.919646  8.239614            0           0           0
      6.281431  0.000000  9.132906            0           0           0
      3.306571  0.000000  8.239614            0           0           0
      1.033962  1.919646  9.132906            0           0           0
      9.959534  1.918528 11.858389            0           0           0
      7.655118  0.000000 12.662646            0           0           0
      4.707992 11.517877 11.857845            0           0           0
      2.403500  1.920096 12.669744            0           0           0
      0.921252  1.916701 15.480288            0           0           0
      9.073599 11.517876 16.193198            0           0           0
      6.160104  0.000000 15.467146            0           0           0
      3.827565  1.918972 16.208289            0           0           0
      2.419506  1.926708 19.185565            0           0           0
      0.016751  0.000000 19.714166            0           0           0
      7.678447 11.517877 19.162697            0           0           0
      5.266884  1.908813 19.711423            0           0           0
      8.554040  5.758938  8.239614            0           0           0
      6.281431  3.839292  9.132906            0           0           0
      3.306571  3.839292  8.239614            0           0           0
      1.033962  5.758938  9.132906            0           0           0
      9.970564  5.758938 11.852282            0           0           0
      7.660267  3.843056 12.661012            0           0           0
      4.706773  3.841213 11.854670            0           0           0
      2.406464  5.758939 12.691729            0           0           0
      0.944733  5.758938 15.480953            0           0           0
      9.088014  3.843712 16.180258            0           0           0
      6.155098  3.841146 15.455981            0           0           0
      3.841418  5.758938 16.276870            0           0           0
      2.445518  5.758937 19.192351            0           0           0
     10.488696  3.848204 19.713279            0           0           0
      7.649653  3.847746 19.095826            0           0           0
      5.275625  5.758938 19.861600            0           0           0
      5.188209  7.678584  7.500000            0           0           0
     10.435678  9.598231  7.500000            0           0           0
      9.647261  9.598231  9.872520            0           0           0
      6.672401  9.598231  8.979228            0           0           0
      8.163069  7.678584  8.393292            0           0           0
      6.592711  7.678584 11.073169            0           0           0
      4.399792  7.678584  9.872520            0           0           0
      1.424932  7.678584  8.979228            0           0           0
      2.915600  9.598231  8.393292            0           0           0
[...]
      2.791974  5.758938 14.669184            0           0           0
      2.050135  5.758938 17.079388            0           0           0
      9.518556  5.758938 16.118755            0           0           0
      0.538245  3.841710 15.557086            0           0           0
      9.573385  3.829569 18.170706            0           0           0
      7.306217  3.820232 17.036953            0           0           0
      4.275871  3.841978 16.152368            0           0           0
      5.782158  5.758939 15.577099            0           0           0
      4.318144  5.758938 18.266031            0           0           0
      3.608921  5.758938 20.659691            0           0           0
      0.538576  5.758939 19.938406            0           0           0
      2.025356  3.841921 19.190985            0           0           0
      8.842007  3.880595 20.578419            0           0           0
      5.810373  3.820356 19.921652            0           0           0
      7.260972  5.758937 19.076602            0           0           0

[...]

   9 f  =    2.434249 THz    15.294837 2PiTHz   81.197804 cm-1    10.067240 meV
             X         Y         Z           dx          dy          dz
      7.029295  6.531746 21.971760     0.473474   -0.206449   -0.333823
      7.029309  4.986128 21.971755    -0.475477   -0.206483    0.333306
      6.434909  5.758943 21.903945    -0.003684    0.491873   -0.002221
      8.554040  9.598231  8.239614            0           0           0
      6.281431  7.678584  9.132906            0           0           0
      3.306571  7.678584  8.239614            0           0           0
      1.033962  9.598231  9.132906            0           0           0
      9.959534  9.599348 11.858389            0           0           0
      7.660268  7.674820 12.661011            0           0           0
      4.706773  7.676664 11.854670            0           0           0
      2.403499  9.597781 12.669744            0           0           0
      0.921251  9.601176 15.480288            0           0           0
      9.088014  7.674165 16.180259            0           0           0
      6.155099  7.676731 15.455980            0           0           0
      3.827565  9.598906 16.208288            0           0           0
      2.419506  9.591171 19.185565            0           0           0
     10.488692  7.669673 19.713277            0           0           0
      7.649653  7.670131 19.095825            0           0           0
      5.266887  9.609063 19.711424            0           0           0
      8.554040  1.919646  8.239614            0           0           0
      6.281431  0.000000  9.132906            0           0           0
      3.306571  0.000000  8.239614            0           0           0
      1.033962  1.919646  9.132906            0           0           0
      9.959534  1.918528 11.858389            0           0           0
      7.655118  0.000000 12.662646            0           0           0
      4.707992 11.517877 11.857845            0           0           0
      2.403500  1.920096 12.669744            0           0           0
      0.921252  1.916701 15.480288            0           0           0
      9.073599 11.517876 16.193198            0           0           0
      6.160104  0.000000 15.467146            0           0           0
      3.827565  1.918972 16.208289            0           0           0
      2.419506  1.926708 19.185565            0           0           0
      0.016751  0.000000 19.714166            0           0           0
      7.678447 11.517877 19.162697            0           0           0
      5.266884  1.908813 19.711423            0           0           0
      8.554040  5.758938  8.239614            0           0           0
      6.281431  3.839292  9.132906            0           0           0
      3.306571  3.839292  8.239614            0           0           0
      1.033962  5.758938  9.132906            0           0           0
      9.970564  5.758938 11.852282            0           0           0
      7.660267  3.843056 12.661012            0           0           0
      4.706773  3.841213 11.854670            0           0           0
      2.406464  5.758939 12.691729            0           0           0
      0.944733  5.758938 15.480953            0           0           0
      9.088014  3.843712 16.180258            0           0           0
      6.155098  3.841146 15.455981            0           0           0
      3.841418  5.758938 16.276870            0           0           0
      2.445518  5.758937 19.192351            0           0           0
     10.488696  3.848204 19.713279            0           0           0
      7.649653  3.847746 19.095826            0           0           0
      5.275625  5.758938 19.861600            0           0           0
      5.188209  7.678584  7.500000            0           0           0
     10.435678  9.598231  7.500000            0           0           0
      9.647261  9.598231  9.872520            0           0           0
      6.672401  9.598231  8.979228            0           0           0
      8.163069  7.678584  8.393292            0           0           0
      6.592711  7.678584 11.073169            0           0           0
      4.399792  7.678584  9.872520            0           0           0
      1.424932  7.678584  8.979228            0           0           0
      2.915600  9.598231  8.393292            0           0           0
[...]
      2.791974  5.758938 14.669184            0           0           0
      2.050135  5.758938 17.079388            0           0           0
      9.518556  5.758938 16.118755            0           0           0
      0.538245  3.841710 15.557086            0           0           0
      9.573385  3.829569 18.170706            0           0           0
      7.306217  3.820232 17.036953            0           0           0
      4.275871  3.841978 16.152368            0           0           0
      5.782158  5.758939 15.577099            0           0           0
      4.318144  5.758938 18.266031            0           0           0
      3.608921  5.758938 20.659691            0           0           0
      0.538576  5.758939 19.938406            0           0           0
      2.025356  3.841921 19.190985            0           0           0
      8.842007  3.880595 20.578419            0           0           0
      5.810373  3.820356 19.921652            0           0           0
      7.260972  5.758937 19.076602            0           0           0

 Finite differences POTIM=   1.0000000000000000E-002