 vasp.6.3.0 20Jan22 (build Apr  1 2022 16:44:48) complex
 executed on        HPECrayEX_GCC date 2022.11.02  17:53:49

 INCAR:
   SYSTEM = MgO-rocksalt
   ISMEAR = 0
   SIGMA = 0.05
   EDIFF = 1E-7
   ALGO = ALL
   ISTART = 0
   IBRION = 2
   NSW = 1000
   ISYM = 0
   ISIF = 2
   EDIFFG = -0.01
   DIPOL = 0.5 0.5 0.5
   IDIPOL = 3
   LDIPOL = .TRUE.
   GGA = MK
   LUSE_VDW = .TRUE.
   PARAM1 = 0.1234
   PARAM2 = 0.711357
   ZAB_VDW = -1.8867
   AGGAC = 0.0
   ENCUT = 600
   PREC = Accurate
   LASPH = .TRUE.
   LREAL = .FALSE.
   ISPIN = 1
   NELM = 200
   NELMIN = 8
   NCORE = 8
   KPAR = 1
   LWAVE = .FALSE.
   LCHARG = .FALSE.

 POTCAR:    PAW_PBE C 08Apr2002
 POTCAR:    PAW_PBE O 08Apr2002
 POTCAR:    PAW_PBE H 15Jun2001
 POTCAR:    PAW_PBE Mg_pv 13Apr2007
 POTCAR:    PAW_PBE O 08Apr2002
|               ----> ADVICE to this user running VASP <----                  |
|     You have switched on vdW-DFT.                                           |
|     This routine was written and supplied by Jiri Klimes. We recommend      |
|     that you carefully read and cite the following publications:            |
|       J. Klimes, D.R. Bowler, A. Michelides                                 |
|          J. Phys.: Cond Matt. 22 022201 (2010)                              |
|       J. Klimes, D.R. Bowler, A. Michelides                                 |
|          Phys. Rev. B. 83, 195131 (2011)                                    |
|     and references therein.                                                 |

   TITEL  = PAW_PBE C 08Apr2002
   POMASS =   12.011; ZVAL   =    4.000    mass and valenz
   ENMAX  =  400.000; ENMIN  =  300.000 eV

[...]

   TITEL  = PAW_PBE H 15Jun2001
   POMASS =    1.000; ZVAL   =    1.000    mass and valenz
   ENMAX  =  250.000; ENMIN  =  200.000 eV

   TITEL  = PAW_PBE Mg_pv 13Apr2007
   POMASS =   24.305; ZVAL   =    8.000    mass and valenz
   ENMAX  =  403.929; ENMIN  =  302.947 eV

   TITEL  = PAW_PBE O 08Apr2002
   POMASS =   16.000; ZVAL   =    6.000    mass and valenz
   ENMAX  =  400.000; ENMIN  =  300.000 eV

  PAW_PBE C 08Apr2002                   :
  PAW_PBE O 08Apr2002                   :
  PAW_PBE H 15Jun2001                   :
  PAW_PBE Mg_pv 13Apr2007               :
  PAW_PBE O 08Apr2002                   :

 POSCAR:  C  O  H Mg  O
  positions in direct lattice
 exchange correlation table for  LEXCH =       43
   RHO(1)=    0.500       N(1)  =     2000
   RHO(2)=  100.500       N(2)  =     4000

 ion  position               nearest neighbor table
   1  0.412  0.625  0.791-   3 1.10   6 1.10   5 1.10   2 1.44
   2  0.410  0.494  0.748-   4 1.02   1 1.44
   3  0.516  0.610  0.822-   1 1.10
   4  0.313  0.501  0.720-   2 1.02
   5  0.423  0.739  0.766-   1 1.10
   6  0.305  0.626  0.820-   1 1.10
   7  0.250  0.000  0.352-  39 2.11  41 2.11  42 2.11  49 2.11  58 2.11
   8  0.500  0.250  0.352-  40 2.11  41 2.11  42 2.11  50 2.11  57 2.11
   9  0.250  0.250  0.451-  41 2.11  40 2.11  39 2.11  47 2.11  56 2.11  45 2.12
  10  0.500  0.000  0.451-  42 2.11  40 2.11  39 2.11  48 2.11  55 2.11  46 2.12
  11  0.250  0.000  0.550-  45 2.11  46 2.11  53 2.11  62 2.11  39 2.12  43 2.14
  12  0.500  0.250  0.550-  45 2.11  46 2.11  54 2.11  61 2.11  40 2.12  44 2.14
  13  0.250  0.250  0.648-  45 2.10  44 2.11  43 2.11  51 2.11  60 2.11
  14  0.500  0.000  0.648-  46 2.10  44 2.11  43 2.11  52 2.11  59 2.11
  15  0.250  0.500  0.352-  47 2.11  41 2.11  49 2.11  50 2.11  66 2.11
  16  0.500  0.750  0.352-  48 2.11  42 2.11  49 2.11  50 2.11  65 2.11
  17  0.250  0.750  0.451-  49 2.11  47 2.11  48 2.11  39 2.11  64 2.11  53 2.12
  18  0.500  0.500  0.451-  50 2.11  47 2.11  48 2.11  40 2.11  63 2.11  54 2.12
  19  0.250  0.500  0.550-  45 2.11  53 2.11  54 2.11  70 2.11  47 2.12  51 2.14
  20  0.500  0.750  0.550-  46 2.11  53 2.11  54 2.11  69 2.11  48 2.12  52 2.14
  21  0.250  0.750  0.648-  53 2.10  51 2.11  52 2.11  43 2.11  68 2.11
  22  0.500  0.500  0.648-  54 2.10  51 2.11  52 2.11  44 2.11  67 2.11
  23  0.750  0.000  0.352-  55 2.11  42 2.11  57 2.11  58 2.11  65 2.11
  24  0.000  0.250  0.352-  56 2.11  41 2.11  57 2.11  58 2.11  66 2.11
  25  0.750  0.250  0.451-  57 2.11  55 2.11  56 2.11  40 2.11  63 2.11  61 2.12
  26  0.000  0.000  0.451-  58 2.11  55 2.11  56 2.11  39 2.11  64 2.11  62 2.12
  27  0.750  0.000  0.550-  46 2.11  61 2.11  62 2.11  69 2.11  55 2.12  59 2.14
  28  0.000  0.250  0.550-  45 2.11  61 2.11  62 2.11  70 2.11  56 2.12  60 2.14
  29  0.750  0.250  0.648-  61 2.10  59 2.11  60 2.11  44 2.11  67 2.11
  30  0.000  0.000  0.648-  62 2.10  59 2.11  60 2.11  43 2.11  68 2.11
  31  0.750  0.500  0.352-  63 2.11  57 2.11  50 2.11  65 2.11  66 2.11
  32  0.000  0.750  0.352-  64 2.11  58 2.11  49 2.11  65 2.11  66 2.11
  33  0.750  0.750  0.451-  65 2.11  55 2.11  63 2.11  64 2.11  48 2.11  69 2.12
  34  0.000  0.500  0.451-  66 2.11  56 2.11  63 2.11  64 2.11  47 2.11  70 2.12
  35  0.750  0.500  0.550-  54 2.11  61 2.11  69 2.11  70 2.11  63 2.12  67 2.14
  36  0.000  0.750  0.550-  53 2.11  62 2.11  69 2.11  70 2.11  64 2.12  68 2.14
  37  0.750  0.750  0.648-  69 2.10  59 2.11  67 2.11  68 2.11  52 2.11
  38  0.000  0.500  0.648-  70 2.10  60 2.11  67 2.11  68 2.11  51 2.11
  39  0.250  0.000  0.451-   7 2.11   9 2.11  10 2.11  17 2.11  26 2.11  11 2.12
  40  0.500  0.250  0.451-   8 2.11   9 2.11  10 2.11  18 2.11  25 2.11  12 2.12
  41  0.250  0.250  0.352-   9 2.11   8 2.11   7 2.11  15 2.11  24 2.11
  42  0.500  0.000  0.352-  10 2.11   8 2.11   7 2.11  16 2.11  23 2.11
  43  0.250  0.000  0.650-  13 2.11  14 2.11  21 2.11  30 2.11  11 2.14
  44  0.500  0.250  0.650-  13 2.11  14 2.11  22 2.11  29 2.11  12 2.14
  45  0.250  0.250  0.550-  13 2.10  12 2.11  11 2.11  19 2.11  28 2.11   9 2.12
  46  0.500  0.000  0.550-  14 2.10  12 2.11  11 2.11  20 2.11  27 2.11  10 2.12
  47  0.250  0.500  0.451-  15 2.11   9 2.11  17 2.11  18 2.11  34 2.11  19 2.12
  48  0.500  0.750  0.451-  16 2.11  10 2.11  17 2.11  18 2.11  33 2.11  20 2.12
  49  0.250  0.750  0.352-  17 2.11  15 2.11  16 2.11   7 2.11  32 2.11
  50  0.500  0.500  0.352-  18 2.11  15 2.11  16 2.11   8 2.11  31 2.11
  51  0.250  0.500  0.650-  13 2.11  21 2.11  22 2.11  38 2.11  19 2.14
  52  0.500  0.750  0.650-  14 2.11  21 2.11  22 2.11  37 2.11  20 2.14
  53  0.250  0.750  0.550-  21 2.10  19 2.11  20 2.11  11 2.11  36 2.11  17 2.12
  54  0.500  0.500  0.550-  22 2.10  19 2.11  20 2.11  12 2.11  35 2.11  18 2.12
  55  0.750  0.000  0.451-  23 2.11  10 2.11  25 2.11  26 2.11  33 2.11  27 2.12
  56  0.000  0.250  0.451-  24 2.11   9 2.11  25 2.11  26 2.11  34 2.11  28 2.12
  57  0.750  0.250  0.352-  25 2.11  23 2.11  24 2.11   8 2.11  31 2.11
  58  0.000  0.000  0.352-  26 2.11  23 2.11  24 2.11   7 2.11  32 2.11
  59  0.750  0.000  0.650-  14 2.11  29 2.11  30 2.11  37 2.11  27 2.14
  60  0.000  0.250  0.650-  13 2.11  29 2.11  30 2.11  38 2.11  28 2.14
  61  0.750  0.250  0.550-  29 2.10  27 2.11  28 2.11  12 2.11  35 2.11  25 2.12
  62  0.000  0.000  0.550-  30 2.10  27 2.11  28 2.11  11 2.11  36 2.11  26 2.12
  63  0.750  0.500  0.451-  31 2.11  25 2.11  18 2.11  33 2.11  34 2.11  35 2.12
  64  0.000  0.750  0.451-  32 2.11  26 2.11  17 2.11  33 2.11  34 2.11  36 2.12
  65  0.750  0.750  0.352-  33 2.11  23 2.11  31 2.11  32 2.11  16 2.11
  66  0.000  0.500  0.352-  34 2.11  24 2.11  31 2.11  32 2.11  15 2.11
  67  0.750  0.500  0.650-  22 2.11  29 2.11  37 2.11  38 2.11  35 2.14
  68  0.000  0.750  0.650-  21 2.11  30 2.11  37 2.11  38 2.11  36 2.14
  69  0.750  0.750  0.550-  37 2.10  27 2.11  35 2.11  36 2.11  20 2.11  33 2.12
  70  0.000  0.500  0.550-  38 2.10  28 2.11  35 2.11  36 2.11  19 2.11  34 2.12

IMPORTANT INFORMATION: All symmetrisations will be switched off!
NOSYMM: (Re-)initialisation of all symmetry stuff for point group C_1.

                                     Primitive cell

  volume of cell :    1519.6535

  direct lattice vectors                    reciprocal lattice vectors
     8.440582262  0.000000000  0.000000000     0.118475239  0.000000000  0.000000000
     0.000000000  8.440582262  0.000000000     0.000000000  0.118475239  0.000000000
     0.000000000  0.000000000 21.330436697     0.000000000  0.000000000  0.046881366

  length of vectors
     8.440582262  8.440582262 21.330436697     0.118475239  0.118475239  0.046881366

  position of ions in fractional coordinates (direct lattice)
     0.412160125  0.624623960  0.790931490
     0.410432993  0.493901051  0.747888269
     0.515622777  0.610135309  0.821574081
     0.313156184  0.501223446  0.719937491
     0.423154594  0.738901664  0.766114740
     0.304718911  0.625591029  0.820269187
     0.250000000  0.000000000  0.351610242
     0.500000000  0.250000000  0.351610242
     0.250000000  0.250000000  0.450536747
     0.500000000  0.000000000  0.450536747
     0.250000000  0.000000000  0.549966382
     0.500000000  0.250000000  0.549966382
     0.250000000  0.250000000  0.648348359
     0.500000000  0.000000000  0.648348359
     0.250000000  0.500000000  0.351610242
     0.500000000  0.750000000  0.351610242
     0.250000000  0.750000000  0.450536747
     0.500000000  0.500000000  0.450536747
     0.250000000  0.500000000  0.549966382
     0.500000000  0.750000000  0.549966382
     0.250000000  0.750000000  0.648348359
     0.500000000  0.500000000  0.648348359
     0.750000000  0.000000000  0.351610242
     0.000000000  0.250000000  0.351610242
     0.750000000  0.250000000  0.450536747
     0.000000000  0.000000000  0.450536747
     0.750000000  0.000000000  0.549966382
     0.000000000  0.250000000  0.549966382
     0.750000000  0.250000000  0.648348359
     0.000000000  0.000000000  0.648348359
     0.750000000  0.500000000  0.351610242
     0.000000000  0.750000000  0.351610242
     0.750000000  0.750000000  0.450536747
     0.000000000  0.500000000  0.450536747
     0.750000000  0.500000000  0.549966382
     0.000000000  0.750000000  0.549966382
     0.750000000  0.750000000  0.648348359
     0.000000000  0.500000000  0.648348359
     0.250000000  0.000000000  0.450536747
     0.500000000  0.250000000  0.450536747
     0.250000000  0.250000000  0.351610242
     0.500000000  0.000000000  0.351610242
     0.250000000  0.000000000  0.650177506
     0.500000000  0.250000000  0.650177506
     0.250000000  0.250000000  0.549707339
     0.500000000  0.000000000  0.549707339
     0.250000000  0.500000000  0.450536747
     0.500000000  0.750000000  0.450536747
     0.250000000  0.750000000  0.351610242
     0.500000000  0.500000000  0.351610242
     0.250000000  0.500000000  0.650177506
     0.500000000  0.750000000  0.650177506
     0.250000000  0.750000000  0.549707339
     0.500000000  0.500000000  0.549707339
     0.750000000  0.000000000  0.450536747
     0.000000000  0.250000000  0.450536747
     0.750000000  0.250000000  0.351610242
     0.000000000  0.000000000  0.351610242
     0.750000000  0.000000000  0.650177506
     0.000000000  0.250000000  0.650177506
     0.750000000  0.250000000  0.549707339
     0.000000000  0.000000000  0.549707339
     0.750000000  0.500000000  0.450536747
     0.000000000  0.750000000  0.450536747
     0.750000000  0.750000000  0.351610242
[...]
   2.11014557  0.00000000 13.86857013
   4.22029113  2.11014557 13.86857013
   2.11014557  2.11014557 11.72549760
   4.22029113  0.00000000 11.72549760
   2.11014557  4.22029113  9.61014557
   4.22029113  6.33043670  9.61014557
   2.11014557  6.33043670  7.50000000
   4.22029113  4.22029113  7.50000000
   2.11014557  4.22029113 13.86857013
   4.22029113  6.33043670 13.86857013
   2.11014557  6.33043670 11.72549760
   4.22029113  4.22029113 11.72549760
   6.33043670  0.00000000  9.61014557
   0.00000000  2.11014557  9.61014557
   6.33043670  2.11014557  7.50000000
   0.00000000  0.00000000  7.50000000
   6.33043670  0.00000000 13.86857013
   0.00000000  2.11014557 13.86857013
   6.33043670  2.11014557 11.72549760
   0.00000000  0.00000000 11.72549760
   6.33043670  4.22029113  9.61014557
   0.00000000  6.33043670  9.61014557
   6.33043670  6.33043670  7.50000000
   0.00000000  4.22029113  7.50000000
   6.33043670  4.22029113 13.86857013
   0.00000000  6.33043670 13.86857013
   6.33043670  6.33043670 11.72549760
   0.00000000  4.22029113 11.72549760

--------------------------------------- Iteration      FINAL  ---------------------------------------

--------------------OUTCAR has been truncated-------------------------

[...]

--------------------OUTCAR has been truncated-------------------------

  FORCE on cell =-STRESS in cart. coord.  units (eV):
  Direction    XX          YY          ZZ          XY          YZ          ZX
  Alpha Z   918.95675   918.95675   918.95675
  Ewald  158471.21933158520.65284************    12.18980   136.51530    32.07926
  Hartree168840.86777168894.11162************     8.24554    78.94122     5.36682
  E(xc)   -2513.62196 -2513.92472 -2513.84035    -0.02805    -0.02383     0.21715
  Local  ************************336778.27422   -20.78773  -205.97841   -28.04901
  n-local -2873.65521 -2872.10130 -2890.76915     0.30041     1.93786    -0.15384
  augment  1058.46157  1058.69011  1049.29342     0.01946    -0.83245    -0.60989
  Kinetic  7538.23131  7543.12199  7573.82870     0.03975   -10.51406    -8.82885
  Fock        0.00000     0.00000     0.00000     0.00000     0.00000     0.00000
  Total     -28.57243   -28.78872    -2.46050    -0.02082     0.04565     0.02164
  in kB     -30.12404   -30.35208    -2.59412    -0.02195     0.04813     0.02282

 VOLUME and BASIS-vectors are now :
  energy-cutoff  :      600.00
  volume of cell :     1519.65
      direct lattice vectors                 reciprocal lattice vectors
     8.440582262  0.000000000  0.000000000     0.118475239  0.000000000  0.000000000
     0.000000000  8.440582262  0.000000000     0.000000000  0.118475239  0.000000000
     0.000000000  0.000000000 21.330436697     0.000000000  0.000000000  0.046881366

  length of vectors
     8.440582262  8.440582262 21.330436697     0.118475239  0.118475239  0.046881366

 FORCES acting on ions:
    Electron-Ion                     Ewald-Force                    Non-Local-Force
   -.801E+01 -.908E+02 -.102E+04   0.847E+01 0.953E+02 0.102E+04   -.469E+00 -.457E+01 -.391E+01
   -.222E+02 0.133E+03 -.160E+04   0.458E+02 -.163E+03 0.160E+04   -.236E+02 0.307E+02 0.240E+01
   -.519E+02 -.120E+01 -.244E+03   0.567E+02 0.494E+00 0.247E+03   -.485E+01 0.700E+00 -.298E+01
   0.705E+02 0.378E+01 -.255E+03   -.763E+02 -.353E+01 0.251E+03   0.576E+01 -.253E+00 0.375E+01
   -.253E+01 -.615E+02 -.239E+03   0.276E+01 0.665E+02 0.236E+03   -.233E+00 -.501E+01 0.250E+01
   0.451E+02 -.621E+01 -.243E+03   -.494E+02 0.601E+01 0.247E+03   0.432E+01 0.196E+00 -.361E+01
   0.117E+00 -.100E+00 0.209E+04   -.112E+00 0.102E+00 -.208E+04   -.308E-02 -.918E-03 -.676E+01
   -.648E-01 -.375E-01 0.209E+04   0.673E-01 0.450E-01 -.208E+04   -.177E-02 -.583E-02 -.681E+01
   0.312E+00 -.208E-01 0.734E+03   -.297E+00 0.110E+00 -.735E+03   -.918E-02 -.646E-01 0.530E+00
   -.420E+00 -.414E+00 0.736E+03   0.458E+00 0.390E+00 -.736E+03   -.269E-01 0.177E-01 0.232E+00
   0.457E+01 -.182E+01 -.610E+03   -.450E+01 0.188E+01 0.610E+03   -.722E-01 -.599E-01 -.921E-01
   -.175E+01 0.456E+01 -.605E+03   0.182E+01 -.428E+01 0.606E+03   -.651E-01 -.277E+00 -.111E+01
   0.281E+02 0.313E+02 -.195E+04   -.280E+02 -.324E+02 0.194E+04   -.339E-01 0.110E+01 0.614E+01
   -.825E+01 -.880E+01 -.197E+04   0.842E+01 0.898E+01 0.196E+04   -.171E+00 -.181E+00 0.601E+01
   0.937E-01 0.101E+00 0.209E+04   -.842E-01 -.102E+00 -.208E+04   -.717E-02 0.967E-03 -.681E+01
   -.766E-01 0.367E-01 0.209E+04   0.796E-01 -.448E-01 -.208E+04   -.217E-02 0.628E-02 -.682E+01
   0.274E+00 -.313E-03 0.735E+03   -.227E+00 -.892E-01 -.736E+03   -.324E-01 0.652E-01 0.521E+00
   -.411E+00 0.385E+00 0.733E+03   0.381E+00 -.371E+00 -.734E+03   0.227E-01 -.108E-01 0.615E+00
   0.465E+01 0.192E+01 -.614E+03   -.437E+01 -.198E+01 0.613E+03   -.278E+00 0.568E-01 0.923E+00
   -.231E+01 -.450E+01 -.605E+03   0.240E+01 0.422E+01 0.606E+03   -.938E-01 0.279E+00 -.692E+00
   0.335E+02 -.323E+02 -.192E+04   -.337E+02 0.334E+02 0.191E+04   0.164E+00 -.108E+01 0.619E+01
   -.398E+02 0.121E+02 -.186E+04   0.418E+02 -.122E+02 0.185E+04   -.203E+01 0.138E+00 0.246E+01
   -.116E+00 -.892E-01 0.209E+04   0.112E+00 0.897E-01 -.208E+04   0.298E-02 -.325E-03 -.680E+01
   0.647E-01 -.145E-01 0.209E+04   -.670E-01 0.170E-01 -.208E+04   0.162E-02 -.183E-02 -.680E+01
   -.299E+00 -.677E-01 0.735E+03   0.287E+00 0.769E-01 -.735E+03   0.694E-02 -.561E-02 0.389E+00
   0.428E+00 -.440E+00 0.734E+03   -.464E+00 0.453E+00 -.734E+03   0.254E-01 -.939E-02 0.382E+00
   -.460E+01 -.129E+01 -.617E+03   0.452E+01 0.133E+01 0.617E+03   0.780E-01 -.325E-01 -.116E+00
   0.178E+01 0.331E+01 -.618E+03   -.185E+01 -.326E+01 0.618E+03   0.727E-01 -.443E-01 -.219E+00
   -.243E+02 0.203E+02 -.198E+04   0.242E+02 -.206E+02 0.197E+04   0.484E-01 0.365E+00 0.604E+01
   0.701E+01 -.437E+01 -.199E+04   -.718E+01 0.441E+01 0.198E+04   0.173E+00 -.479E-01 0.596E+01
   -.923E-01 0.889E-01 0.209E+04   0.832E-01 -.896E-01 -.208E+04   0.691E-02 0.528E-03 -.679E+01
   0.758E-01 0.138E-01 0.209E+04   -.789E-01 -.166E-01 -.208E+04   0.225E-02 0.203E-02 -.678E+01
   -.261E+00 0.540E-01 0.735E+03   0.212E+00 -.674E-01 -.735E+03   0.335E-01 0.847E-02 0.423E+00
   0.400E+00 0.434E+00 0.734E+03   -.364E+00 -.452E+00 -.734E+03   -.260E-01 0.123E-01 0.441E+00
   -.568E+01 0.134E+01 -.610E+03   0.543E+01 -.136E+01 0.610E+03   0.243E+00 0.289E-01 -.363E+00
   0.230E+01 -.330E+01 -.614E+03   -.240E+01 0.326E+01 0.614E+03   0.103E+00 0.427E-01 -.151E+00
   -.285E+02 -.208E+02 -.196E+04   0.286E+02 0.212E+02 0.196E+04   -.102E+00 -.353E+00 0.604E+01
   0.161E+02 0.469E+01 -.196E+04   -.165E+02 -.474E+01 0.196E+04   0.423E+00 0.479E-01 0.584E+01
   0.529E+00 -.286E+00 0.552E+03   -.506E+00 0.281E+00 -.552E+03   -.325E-01 0.661E-02 0.565E-01
   -.110E+00 -.619E-01 0.550E+03   0.124E+00 0.174E-02 -.550E+03   -.221E-01 0.809E-01 -.155E+00
   0.758E-01 -.204E-01 0.157E+04   -.711E-01 0.297E-01 -.157E+04   -.658E-02 -.131E-01 0.361E+01
   -.576E-01 -.696E-01 0.157E+04   0.639E-01 0.686E-01 -.157E+04   -.866E-02 0.136E-02 0.360E+01
   0.120E+02 -.687E+01 -.150E+04   -.119E+02 0.691E+01 0.151E+04   -.110E+00 -.366E-01 -.501E+01
   -.111E+02 0.345E+02 -.146E+04   0.110E+02 -.340E+02 0.147E+04   0.991E-01 -.505E+00 -.515E+01
   0.348E+01 0.251E+01 -.453E+03   -.341E+01 -.260E+01 0.452E+03   -.767E-01 0.855E-01 0.490E+00
   -.180E+01 -.119E+01 -.450E+03   0.183E+01 0.122E+01 0.450E+03   -.266E-01 -.275E-01 0.269E+00
   0.424E+00 0.292E+00 0.550E+03   -.467E+00 -.285E+00 -.550E+03   0.552E-01 -.794E-02 -.129E+00
   -.182E+00 0.535E-01 0.551E+03   0.191E+00 0.194E-01 -.550E+03   -.150E-01 -.981E-01 -.183E+00
   0.714E-01 0.199E-01 0.157E+04   -.630E-01 -.293E-01 -.157E+04   -.117E-01 0.132E-01 0.361E+01
   -.549E-01 0.702E-01 0.157E+04   0.536E-01 -.687E-01 -.157E+04   0.184E-02 -.207E-02 0.359E+01
   0.463E+02 0.795E+01 -.143E+04   -.461E+02 -.799E+01 0.143E+04   -.201E+00 0.417E-01 -.155E+01
   -.149E+02 -.364E+02 -.144E+04   0.148E+02 0.359E+02 0.145E+04   0.971E-01 0.523E+00 -.487E+01
   0.349E+01 -.256E+01 -.447E+03   -.343E+01 0.264E+01 0.446E+03   -.596E-01 -.829E-01 0.751E+00
   -.510E+00 0.121E+01 -.461E+03   0.550E+00 -.124E+01 0.462E+03   -.414E-01 0.343E-01 -.956E+00
   -.527E+00 -.226E+00 0.551E+03   0.502E+00 0.230E+00 -.551E+03   0.360E-01 -.739E-02 -.440E-01
   0.112E+00 0.191E-01 0.550E+03   -.130E+00 -.167E-01 -.550E+03   0.276E-01 -.271E-02 -.786E-01
   -.758E-01 -.174E-01 0.157E+04   0.709E-01 0.193E-01 -.157E+04   0.680E-02 -.257E-02 0.360E+01
   0.575E-01 -.744E-01 0.157E+04   -.638E-01 0.767E-01 -.157E+04   0.879E-02 -.333E-02 0.361E+01
   -.111E+02 -.441E+01 -.151E+04   0.110E+02 0.442E+01 0.151E+04   0.947E-01 -.134E-01 -.495E+01
   0.816E+01 0.109E+02 -.151E+04   -.809E+01 -.106E+02 0.151E+04   -.711E-01 -.239E+00 -.497E+01
   -.349E+01 0.286E+01 -.455E+03   0.340E+01 -.287E+01 0.455E+03   0.828E-01 0.997E-02 0.250E+00
   0.181E+01 -.115E+01 -.460E+03   -.183E+01 0.116E+01 0.460E+03   0.240E-01 -.743E-02 0.223E+00
   -.394E+00 0.216E+00 0.550E+03   0.429E+00 -.216E+00 -.550E+03   -.448E-01 0.172E-03 -.848E-01
   0.172E+00 -.306E-01 0.551E+03   -.178E+00 0.338E-01 -.551E+03   0.120E-01 -.468E-02 -.348E-01
   -.708E-01 0.175E-01 0.157E+04   0.625E-01 -.192E-01 -.157E+04   0.115E-01 0.237E-02 0.360E+01
   0.540E-01 0.748E-01 0.157E+04   -.529E-01 -.770E-01 -.157E+04   -.156E-02 0.306E-02 0.361E+01
   -.337E+02 0.476E+01 -.148E+04   0.337E+02 -.478E+01 0.148E+04   -.667E-01 0.200E-01 -.478E+01
   0.105E+02 -.111E+02 -.150E+04   -.104E+02 0.108E+02 0.151E+04   -.318E-01 0.251E+00 -.499E+01
   -.349E+01 -.289E+01 -.453E+03   0.342E+01 0.290E+01 0.453E+03   0.656E-01 -.761E-02 0.353E+00
   0.125E+01 0.117E+01 -.454E+03   -.128E+01 -.118E+01 0.454E+03   0.238E-01 0.106E-01 0.409E+00
   0.208E+02 -.218E+02 0.161E+02   -.398E-12 0.121E-12 -.620E-11   -.208E+02 0.218E+02 -.161E+02

 POSITION                                       TOTAL-FORCE (eV/Angst)
      3.63800      5.21524     16.99462         0.002507      0.004991      0.003913
      3.56258      4.15678     16.03275         0.008632     -0.003629      0.001961
      4.56772      5.07893     17.56389         0.000124     -0.000570     -0.001955
      2.71207      4.22773     15.48283        -0.003809      0.000919      0.000948
      3.66898      6.20457     16.50299         0.001002     -0.001389      0.000737
      2.78666      5.17463     17.69424         0.005223     -0.001692      0.002278
      2.11015      0.00000      7.50000         0.001261      0.000268      0.311419
      4.22029      2.11015      7.50000         0.000710      0.001664      0.320378
      2.11015      2.11015      9.61015         0.006061      0.023920      0.023341
      4.22029      0.00000      9.61015         0.010256     -0.006453      0.041711
      2.11248      0.00153     11.72210         0.000327      0.000642     -0.001181
      4.22226      2.11854     11.73713        -0.000179     -0.000189      0.001803
      2.11181      2.08590     13.82001        -0.000755      0.000228      0.001801
      4.22491      0.00285     13.81604        -0.001221      0.000166      0.001705
      2.11015      4.22029      7.50000         0.002274     -0.000274      0.320637
      4.22029      6.33044      7.50000         0.000812     -0.001817      0.322960
      2.11015      6.33044      9.61015         0.014243     -0.023916      0.020197
      4.22029      4.22029      9.61015        -0.006743      0.002896      0.060048
      2.11959      4.21840     11.73700        -0.000868     -0.000187      0.000799
      4.22277      6.32036     11.73815        -0.000086      0.000606      0.001752
      2.10556      6.35425     13.80216        -0.001076      0.000889      0.002823
      4.27979      4.21164     13.94580        -0.000157      0.000300      0.000747
      6.33044      0.00000      7.50000        -0.001227      0.000138      0.318903
      0.00000      2.11015      7.50000        -0.000702      0.000677      0.318074
      6.33044      2.11015      9.61015        -0.005237      0.003492      0.027423
      0.00000      0.00000      9.61015        -0.009585      0.003617      0.014546
      6.32841      0.00038     11.72470         0.000197      0.000630     -0.000044
     -0.00138      2.11118     11.72863        -0.000945     -0.000067      0.000911
      6.32987      2.10028     13.82635        -0.000376      0.000456      0.000923
     -0.00413      0.00058     13.82323        -0.000398      0.000132      0.001460
      6.33044      4.22029      7.50000        -0.002220     -0.000171      0.317310
      0.00000      6.33044      7.50000        -0.000844     -0.000769      0.315436
      6.33044      6.33044      9.61015        -0.015297     -0.004850      0.023191
      0.00000      4.22029      9.61015         0.009450     -0.005128      0.045038
      6.32290      4.21892     11.73453         0.000200     -0.000119     -0.000184
     -0.00273      6.32854     11.72621        -0.000917      0.000253      0.001418
      6.33283      6.33871     13.82116        -0.000047      0.000476      0.001627
     -0.02098      4.21822     13.82350         0.000030      0.000641      0.001363
      2.11015      0.00000      9.61015        -0.010406      0.001062      0.049967
      4.22029      2.11015      9.61015        -0.007738      0.020714      0.061394
      2.11015      2.11015      7.50000        -0.001844     -0.003774     -0.401656
      4.22029      0.00000      7.50000        -0.002438      0.000385     -0.403687
      2.10718     -0.00228     13.86096        -0.000561      0.001163     -0.001929
      4.22038      2.09325     13.83903        -0.001516      0.000234     -0.001291
      2.10685      2.11515     11.72784         0.000365      0.000878     -0.001040
      4.21904     -0.00273     11.71647        -0.000986      0.000293     -0.002530
      2.11015      4.22029      9.61015         0.012189     -0.001497      0.066277
      4.22029      6.33044      9.61015        -0.005870     -0.025215      0.056985
      2.11015      6.33044      7.50000        -0.003302      0.003762     -0.401197
      4.22029      4.22029      7.50000         0.000565     -0.000618     -0.406628
      2.06481      4.22275     13.92145        -0.000635      0.000965     -0.001965
      4.21871      6.34423     13.85878        -0.001091      0.001390     -0.001792
      2.10768      6.32482     11.72564         0.000883      0.000241     -0.001421
      4.21637      4.22104     11.74450        -0.001895      0.001028     -0.000172
      6.33044      0.00000      9.61015         0.011279     -0.002493      0.031898
      0.00000      2.11015      9.61015         0.009225     -0.000363      0.040904
      6.33044      2.11015      7.50000         0.001896     -0.000743     -0.403620
      0.00000      0.00000      7.50000         0.002468     -0.000956     -0.400672
      6.33363     -0.00185     13.86341        -0.001390      0.001004     -0.001632
      0.00015      2.10312     13.86623        -0.001475      0.001337     -0.001307
      6.33441      2.11019     11.72256        -0.000384      0.000752     -0.002099
      0.00180     -0.00102     11.72106        -0.001607      0.000601     -0.002245
      6.33044      4.22029      9.61015        -0.010073      0.000679      0.069887
      0.00000      6.33044      9.61015         0.005291     -0.001478      0.042085
      6.33044      6.33044      7.50000         0.003249      0.000665     -0.403441
      0.00000      4.22029      7.50000        -0.000473      0.000854     -0.401998
      6.34958      4.22088     13.86774        -0.000941      0.001035      0.000950
      0.00008      6.33612     13.86577        -0.001650      0.000544     -0.001483
      6.33287      6.32933     11.72324        -0.000746      0.000534     -0.001769
      0.00449      4.22040     11.72652        -0.001012      0.000240     -0.000988
    total drift:                                0.000417      0.000532     -0.011648

  FREE ENERGIE OF THE ION-ELECTRON SYSTEM (eV)
  free  energy   TOTEN  =      -292.81961275 eV

  energy  without entropy=     -292.81961275  energy(sigma->0) =     -292.81961275

 d Force = 0.3639116E-04[ 0.230E-04, 0.498E-04]  d Energy = 0.3641036E-04-0.192E-07
 d Force =-0.3734592E+00[-0.373E+00,-0.373E+00]  d Ewald  =-0.3734592E+00 0.318E-07

 Conjugate gradient step on ions:
 trial-energy change:   -0.000036  1 .order   -0.000036   -0.000050   -0.000023
  (g-gl).g = 0.858E-04      g.g   = 0.107E-03  gl.gl    = 0.751E-04
 g(Force)  = 0.107E-03   g(Stress)= 0.000E+00 ortho     = 0.183E-04
 gamma     =   1.14217
 trial     =   0.38805
 opt step  =   0.72098  (harmonic =   0.72098) maximal distance =0.00357235
 next E    =  -292.819623   (d E  =  -0.00005)

 reached required accuracy - stopping structural energy minimisation