 vasp.6.3.0 20Jan22 (build Apr  1 2022 16:44:48) complex
 executed on        HPECrayEX_GCC date 2022.11.13  00:13:22

 INCAR:
   SYSTEM = MgO-rocksalt
   ISMEAR = 0
   SIGMA = 0.05
   EDIFF = 1E-7
   ALGO = ALL
   ISTART = 0
   IBRION = 2
   NSW = 1000
   ISYM = 0
   ISIF = 2
   EDIFFG = -0.02
   DIPOL = 0.5 0.5 0.5
   IDIPOL = 3
   LDIPOL = .TRUE.
   LHFCALC = .TRUE.
   GGA = B5
   AEXX = 0.2
   AGGAX = 0.72
   AGGAC = 0.81
   ALDAC = 0.19
   IVDW = 1
   VDW_S6 = 1.05
   VDW_C6 = 1.23 0.70 0.63 0.70
   VDW_R0 = 1.397 1.342 1.243 1.342
   ENCUT = 600
   PREC = Accurate
   LASPH = .TRUE.
   LREAL = .FALSE.
   ISPIN = 2
   MAGMOM = 1.0 0.0 0.0 0.0 0.0 0.0 0.0 0.0 0.0 0.0 0.0 0.0 0.0 0.0 0.0 0.0 0.0 0.0 0.0 0.0 0.0 0.0 0.0 0.0 0.0 0.0 0.0 0.0 0.0 0.0 0.0 0.0 0.0 0.0 0.0 0.0 0.0 0.0 0.0 0.0 0.0 0.0 0.0 0.0 0.0 0.0 0.0 0.0 0.0 0.0 0.0 0.0 0.0 0.0 0.0 0.0 0.0 0.0 0.0 0.0 0.0 0.0 0.0 0.0 0.0 0.0
   NELM = 200
   NELMIN = 8
   NCORE = 8
   KPAR = 1
   LWAVE = .FALSE.
   LCHARG = .FALSE.

 POTCAR:    PAW_PBE N 08Apr2002
 POTCAR:    PAW_PBE O 08Apr2002
 POTCAR:    PAW_PBE Mg_pv 13Apr2007
 POTCAR:    PAW_PBE O 08Apr2002
 POTCAR:    PAW_PBE N 08Apr2002
   VRHFIN =N: s2p3

   TITEL  = PAW_PBE N 08Apr2002
   POMASS =   14.001; ZVAL   =    5.000    mass and valenz
   ENMAX  =  400.000; ENMIN  =  300.000 eV

[...]

   TITEL  = PAW_PBE Mg_pv 13Apr2007
   POMASS =   24.305; ZVAL   =    8.000    mass and valenz
   ENMAX  =  403.929; ENMIN  =  302.947 eV

   TITEL  = PAW_PBE O 08Apr2002
   POMASS =   16.000; ZVAL   =    6.000    mass and valenz
   ENMAX  =  400.000; ENMIN  =  300.000 eV

  PAW_PBE N 08Apr2002                   :
  PAW_PBE O 08Apr2002                   :
  PAW_PBE Mg_pv 13Apr2007               :
  PAW_PBE O 08Apr2002                   :

 POSCAR:  N  O Mg  O
  positions in direct lattice
  velocities in cartesian coordinates
 exchange correlation table for  LEXCH =       12
   RHO(1)=    0.500       N(1)  =     2000
   RHO(2)=  100.500       N(2)  =     4000

 ion  position               nearest neighbor table
   1  0.636  0.492  0.763-   2 1.16
   2  0.697  0.589  0.794-   1 1.16
   3  0.250  0.000  0.352-  37 2.10  38 2.10  45 2.10  54 2.10  35 2.10
   4  0.500  0.250  0.352-  37 2.10  38 2.10  46 2.10  53 2.10  36 2.10
   5  0.250  0.250  0.451-  35 2.10  36 2.10  43 2.10  52 2.10  37 2.10  41 2.11
   6  0.500  0.000  0.451-  35 2.10  36 2.10  44 2.10  51 2.10  38 2.10  42 2.11
   7  0.250  0.000  0.550-  42 2.10  41 2.10  58 2.10  49 2.10  35 2.11  39 2.13
   8  0.500  0.250  0.550-  50 2.10  41 2.10  57 2.10  42 2.10  40 2.12  36 2.12
   9  0.250  0.250  0.648-  41 2.09  39 2.10  40 2.10  56 2.10  47 2.10
  10  0.500  0.000  0.648-  42 2.09  40 2.10  48 2.10  39 2.10  55 2.10
  11  0.250  0.500  0.352-  37 2.10  45 2.10  46 2.10  62 2.10  43 2.10
  12  0.500  0.750  0.352-  38 2.10  45 2.10  46 2.10  61 2.10  44 2.10
  13  0.250  0.750  0.451-  35 2.10  43 2.10  44 2.10  60 2.10  45 2.10  49 2.11
  14  0.500  0.500  0.451-  36 2.10  43 2.10  44 2.10  59 2.10  46 2.10  50 2.11
  15  0.251  0.500  0.550-  50 2.10  41 2.10  49 2.10  66 2.11  43 2.12  47 2.13
  16  0.500  0.750  0.550-  50 2.10  49 2.10  65 2.10  42 2.10  44 2.12  48 2.12
  17  0.250  0.750  0.648-  49 2.09  39 2.10  48 2.10  47 2.10  64 2.10
  18  0.499  0.500  0.649-  47 2.09  40 2.10  48 2.11  50 2.12  63 2.12
  19  0.750  0.000  0.352-  38 2.10  53 2.10  54 2.10  61 2.10  51 2.10
  20  0.000  0.250  0.352-  37 2.10  53 2.10  54 2.10  62 2.10  52 2.10
  21  0.750  0.250  0.451-  36 2.10  51 2.10  52 2.10  59 2.10  53 2.10  57 2.11
  22  0.000  0.000  0.451-  35 2.10  51 2.10  52 2.10  60 2.10  54 2.10  58 2.11
  23  0.750  0.000  0.550-  42 2.10  58 2.10  57 2.10  65 2.10  51 2.11  55 2.13
  24  0.000  0.250  0.550-  57 2.10  41 2.10  66 2.10  58 2.10  52 2.12  56 2.13
  25  0.750  0.249  0.648-  55 2.09  57 2.09  40 2.10  56 2.10  63 2.11
  26  0.000  0.000  0.648-  58 2.09  39 2.10  56 2.10  55 2.10  64 2.10
  27  0.750  0.500  0.352-  46 2.10  53 2.10  61 2.10  62 2.10  59 2.10
  28  0.000  0.750  0.352-  45 2.10  54 2.10  61 2.10  62 2.10  60 2.10
  29  0.750  0.750  0.451-  44 2.10  51 2.10  59 2.10  60 2.10  61 2.10  65 2.11
  30  0.000  0.500  0.451-  43 2.10  52 2.10  59 2.10  60 2.10  62 2.10  66 2.11
  31  0.750  0.500  0.550-  50 2.10  57 2.10  65 2.10  66 2.10  59 2.11  63 2.14
  32  0.000  0.750  0.550-  49 2.10  66 2.10  65 2.10  58 2.10  60 2.11  64 2.13
  33  0.750  0.752  0.648-  65 2.08  55 2.09  48 2.10  64 2.10  63 2.11
  34  0.002  0.500  0.648-  66 2.09  47 2.09  56 2.10  64 2.10  63 2.10
  35  0.250  0.000  0.451-   5 2.10   6 2.10  13 2.10  22 2.10   3 2.10   7 2.11
  36  0.500  0.250  0.451-   5 2.10   6 2.10  14 2.10  21 2.10   4 2.10   8 2.12
  37  0.250  0.250  0.352-   3 2.10   4 2.10  11 2.10  20 2.10   5 2.10
  38  0.500  0.000  0.352-   3 2.10   4 2.10  12 2.10  19 2.10   6 2.10
  39  0.250  0.000  0.650-  17 2.10  26 2.10   9 2.10  10 2.10   7 2.13
  40  0.500  0.250  0.649-  10 2.10   9 2.10  25 2.10  18 2.10   8 2.12
  41  0.250  0.250  0.550-   9 2.09  24 2.10  15 2.10   7 2.10   8 2.10   5 2.11
  42  0.500  1.000  0.550-  10 2.09  23 2.10   7 2.10  16 2.10   8 2.10   6 2.11
  43  0.250  0.500  0.451-   5 2.10  13 2.10  14 2.10  30 2.10  11 2.10  15 2.12
  44  0.500  0.750  0.451-   6 2.10  13 2.10  14 2.10  29 2.10  12 2.10  16 2.12
  45  0.250  0.750  0.352-   3 2.10  11 2.10  12 2.10  28 2.10  13 2.10
  46  0.500  0.500  0.352-   4 2.10  11 2.10  12 2.10  27 2.10  14 2.10
  47  0.250  0.500  0.650-  34 2.09  18 2.09  17 2.10   9 2.10  15 2.13
  48  0.501  0.750  0.650-  10 2.10  33 2.10  17 2.10  18 2.11  16 2.12
  49  0.250  0.750  0.550-  17 2.09  32 2.10  15 2.10  16 2.10   7 2.10  13 2.11
  50  0.500  0.500  0.550-  31 2.10  16 2.10   8 2.10  15 2.10  14 2.11  18 2.12
  51  0.750  0.000  0.451-   6 2.10  21 2.10  22 2.10  29 2.10  19 2.10  23 2.11
  52  0.000  0.250  0.451-   5 2.10  21 2.10  22 2.10  30 2.10  20 2.10  24 2.12
  53  0.750  0.250  0.352-   4 2.10  19 2.10  20 2.10  27 2.10  21 2.10
  54  0.000  0.000  0.352-   3 2.10  19 2.10  20 2.10  28 2.10  22 2.10
  55  0.750  0.000  0.650-  33 2.09  25 2.09  26 2.10  10 2.10  23 2.13
  56  0.000  0.250  0.650-  34 2.10  26 2.10  25 2.10   9 2.10  24 2.13
  57  0.750  0.250  0.550-  25 2.09  31 2.10  24 2.10  23 2.10   8 2.10  21 2.11
  58  0.000  0.000  0.550-  26 2.09  23 2.10  32 2.10  24 2.10   7 2.10  22 2.11
  59  0.750  0.500  0.451-  14 2.10  21 2.10  29 2.10  30 2.10  27 2.10  31 2.11
  60  0.000  0.750  0.451-  13 2.10  22 2.10  29 2.10  30 2.10  28 2.10  32 2.11
  61  0.750  0.750  0.352-  12 2.10  19 2.10  27 2.10  28 2.10  29 2.10
  62  0.000  0.500  0.352-  11 2.10  20 2.10  27 2.10  28 2.10  30 2.10
  63  0.751  0.500  0.650-  34 2.10  25 2.11  33 2.11  18 2.12  31 2.14
  64  0.000  0.750  0.650-  33 2.10  34 2.10  26 2.10  17 2.10  32 2.13
  65  0.750  0.750  0.550-  33 2.08  31 2.10  32 2.10  16 2.10  23 2.10  29 2.11
  66  1.000  0.500  0.550-  34 2.09  32 2.10  24 2.10  31 2.10  15 2.11  30 2.11

IMPORTANT INFORMATION: All symmetrisations will be switched off!
NOSYMM: (Re-)initialisation of all symmetry stuff for point group C_1.

                                     Primitive cell

  volume of cell :    1504.9259

  direct lattice vectors                    reciprocal lattice vectors
     8.404861995  0.000000000  0.000000000     0.118978753  0.000000000  0.000000000
     0.000000000  8.404861995  0.000000000     0.000000000  0.118978753  0.000000000
     0.000000000  0.000000000 21.303646496     0.000000000  0.000000000  0.046940321

  length of vectors
     8.404861995  8.404861995 21.303646496     0.118978753  0.118978753  0.046940321

  position of ions in fractional coordinates (direct lattice)
     0.635646053  0.492361564  0.763336927
     0.696556838  0.589385903  0.793857314
     0.250000000  0.000000000  0.352052406
     0.500000000  0.250000000  0.352052406
     0.250000000  0.250000000  0.450684135
     0.500000000  0.000000000  0.450684135
     0.250161223  0.000038568  0.549887686
     0.500092218  0.250279688  0.550097745
     0.250389255  0.249758622  0.647857198
     0.500025809  0.000180872  0.647813718
     0.250000000  0.500000000  0.352052406
     0.500000000  0.750000000  0.352052406
     0.250000000  0.750000000  0.450684135
     0.500000000  0.500000000  0.450684135
     0.250529844  0.500011270  0.550009547
     0.500052875  0.749747739  0.550071997
     0.250380646  0.750337167  0.647906652
     0.499176506  0.499903259  0.649287228
     0.750000000  0.000000000  0.352052406
     0.000000000  0.250000000  0.352052406
     0.750000000  0.250000000  0.450684135
     0.000000000  0.000000000  0.450684135
     0.750085714  0.000240326  0.549834231
     0.000096863  0.250060669  0.549971672
     0.750012421  0.249169363  0.648000332
     0.000431379  0.000175881  0.647928456
     0.750000000  0.500000000  0.352052406
     0.000000000  0.750000000  0.352052406
     0.750000000  0.750000000  0.450684135
     0.000000000  0.500000000  0.450684135
     0.749757231  0.499947785  0.549778783
     0.000222125  0.750025486  0.549942249
     0.750305724  0.751688163  0.647509419
     0.001530055  0.500029020  0.647791376
     0.250000000  0.000000000  0.450684135
     0.500000000  0.250000000  0.450684135
     0.250000000  0.250000000  0.352052406
     0.500000000  0.000000000  0.352052406
     0.250102726  0.000002485  0.649866528
     0.500187502  0.249626273  0.649498622
     0.249954932  0.250108730  0.549628529
     0.500185286  0.999947216  0.549566912
     0.250000000  0.500000000  0.450684135
     0.500000000  0.750000000  0.450684135
     0.250000000  0.750000000  0.352052406
     0.500000000  0.500000000  0.352052406
     0.250044206  0.500096034  0.649990641
     0.500527341  0.750384931  0.649752647
     0.250042916  0.749936851  0.549667882
     0.500383627  0.500082458  0.549890380
     0.750000000  0.000000000  0.450684135
     0.000000000  0.250000000  0.450684135
     0.750000000  0.250000000  0.352052406
     0.000000000  0.000000000  0.352052406
     0.750389349  0.000173876  0.649746637
     0.000174686  0.250125936  0.649929825
     0.750257339  0.250336964  0.549686723
     0.000064856  0.000036373  0.549643085
     0.750000000  0.500000000  0.450684135
     0.000000000  0.750000000  0.450684135
     0.750000000  0.750000000  0.352052406
     0.000000000  0.500000000  0.352052406
     0.751265318  0.500325218  0.650384347
     0.000094538  0.750073533  0.649897334
     0.750251547  0.749820925  0.549642151
     0.999907575  0.500057442  0.549725208

  ion indices of the primitive-cell ions
   primitive index   ion index
                 1           1
                 2           2
                 3           3
                 4           4
                 5           5
                 6           6
                 7           7
                 8           8
                 9           9
                10          10
                11          11
                12          12
                13          13
                14          14
                15          15
                16          16
                17          17
                18          18
[...]
   4.20243100  4.20243100  9.60121550
   2.10566876  4.20252572 11.71720896
   4.20287540  6.30152628 11.71853937
   2.10441477  6.30648034 13.80277429
   4.19550964  4.20161790 13.83218559
   6.30364650  0.00000000  7.50000000
   0.00000000  2.10121550  7.50000000
   6.30364650  2.10121550  9.60121550
   0.00000000  0.00000000  9.60121550
   6.30436691  0.00201991 11.71347409
   0.00081412  2.10172541 11.71640208
   6.30375089  2.09423411 13.80477001
   0.00362568  0.00147825 13.80323879
   6.30364650  4.20243100  7.50000000
   0.00000000  6.30364650  7.50000000
   6.30364650  6.30364650  9.60121550
   0.00000000  4.20243100  9.60121550
   6.30160606  4.20199214 11.71229285
   0.00186693  6.30386070 11.71577527
   6.30621607  6.31783527 13.79431176
   0.01285990  4.20267490 13.80031849
   2.10121550  0.00000000  9.60121550
   4.20243100  2.10121550  9.60121550
   2.10121550  2.10121550  7.50000000
   4.20243100  0.00000000  7.50000000
   2.10207889  0.00002089 13.84452678
   4.20400692  2.09807437 13.83668905
   2.10083671  2.10212936 11.70909188
   4.20398830  8.40441835 11.70777923
   2.10121550  4.20243100  9.60121550
   4.20243100  6.30364650  9.60121550
   2.10121550  6.30364650  7.50000000
   4.20243100  4.20243100  7.50000000
   2.10158704  4.20323815 13.84717084
   4.20686323  6.30688179 13.84210071
   2.10157620  6.30311574 11.70993025
   4.20565533  4.20312405 11.71467026
   6.30364650  0.00000000  9.60121550
   0.00000000  2.10121550  9.60121550
   6.30364650  2.10121550  7.50000000
   0.00000000  0.00000000  7.50000000
   6.30691892  0.00146141 13.84197267
   0.00146821  2.10227397 13.84587524
   6.30580940  2.10404763 11.71033163
   0.00054511  0.00030571 11.70940199
   6.30364650  4.20243100  9.60121550
   0.00000000  6.30364650  9.60121550
   6.30364650  6.30364650  7.50000000
   0.00000000  4.20243100  7.50000000
   6.31428132  4.20516441 13.85555822
   0.00079458  6.30426453 13.84518305
   6.30576072  6.30214140 11.70938209
   8.40408518  4.20291379 11.71115151

--------------------------------------- Iteration      FINAL  ---------------------------------------

--------------------OUTCAR has been truncated-------------------------

[...]

--------------------OUTCAR has been truncated-------------------------

  Number of pair interactions contributing to vdW energy:  776698
  Edisp (eV):   -5.27942

  FORCE on cell =-STRESS in cart. coord.  units (eV):
  Direction    XX          YY          ZZ          XY          YZ          ZX
  Alpha Z   919.26093   919.26093   919.26093
  Ewald  160467.52278160570.89412************   113.05636   144.94208    97.08118
  Hartree170879.81381170923.26371************    41.49490    57.56067    42.43072
  E(xc)   -2043.22076 -2042.74885 -2046.29385     0.35505     0.53220     0.44659
  Local  ************************341126.62985  -137.62622  -186.96813  -138.17696
  n-local -1196.36900 -1200.27530 -1218.58280    -0.66208    -2.65744    -4.25928
  augment   903.69292   903.92273   892.85913    -0.80666    -0.46473     0.55950
  Kinetic  7568.53327  7567.21351  7596.38342   -15.46804   -12.35258     2.62853
  Fock    -2011.48740 -2012.32860 -2008.21503    -0.29393    -0.69405    -0.91007
  vdW        -7.64327    -7.68516    -6.33009     0.00080    -0.00756    -0.00943
  Total     -30.80281   -30.73169    -2.70305     0.05018    -0.10954    -0.20922
  in kB     -32.79336   -32.71764    -2.87772     0.05342    -0.11661    -0.22274

 VOLUME and BASIS-vectors are now :
  energy-cutoff  :      600.00
  volume of cell :     1504.93
      direct lattice vectors                 reciprocal lattice vectors
     8.404861995  0.000000000  0.000000000     0.118978753  0.000000000  0.000000000
     0.000000000  8.404861995  0.000000000     0.000000000  0.118978753  0.000000000
     0.000000000  0.000000000 21.303646496     0.000000000  0.000000000  0.046940321

  length of vectors
     8.404861995  8.404861995 21.303646496     0.118978753  0.118978753  0.046940321

 FORCES acting on ions:
    Electron-Ion                     Ewald-Force                    Non-Local-Force
   0.118E+03 0.190E+03 -.120E+04   -.138E+03 -.222E+03 0.118E+04   0.185E+02 0.293E+02 0.216E+02
   -.113E+03 -.179E+03 -.157E+04   0.140E+03 0.222E+03 0.160E+04   -.241E+02 -.381E+02 -.309E+02
   0.998E-01 -.587E-01 0.211E+04   -.976E-01 0.593E-01 -.210E+04   -.140E-02 -.346E-03 -.642E+01
   0.229E+00 0.178E+00 0.211E+04   -.232E+00 -.178E+00 -.210E+04   0.169E-02 0.293E-03 -.642E+01
   0.405E+00 0.585E+00 0.729E+03   -.395E+00 -.584E+00 -.730E+03   -.572E-02 -.447E-03 0.395E+00
   0.859E+00 -.283E+00 0.730E+03   -.869E+00 0.281E+00 -.731E+03   0.720E-02 0.118E-02 0.351E+00
   0.225E+01 -.749E+00 -.643E+03   -.222E+01 0.755E+00 0.644E+03   -.227E-01 -.571E-02 -.207E+00
   0.414E+01 0.509E+01 -.634E+03   -.415E+01 -.502E+01 0.635E+03   0.908E-02 -.612E-01 -.530E+00
   0.116E+02 0.131E+02 -.202E+04   -.115E+02 -.132E+02 0.201E+04   -.727E-01 0.941E-01 0.551E+01
   0.118E+02 -.466E+01 -.201E+04   -.118E+02 0.472E+01 0.201E+04   0.618E-01 -.552E-01 0.550E+01
   0.112E+00 0.591E-01 0.211E+04   -.109E+00 -.595E-01 -.210E+04   -.221E-02 0.258E-03 -.641E+01
   0.238E+00 -.178E+00 0.211E+04   -.241E+00 0.179E+00 -.210E+04   0.185E-02 -.319E-03 -.642E+01
   0.424E+00 -.580E+00 0.730E+03   -.404E+00 0.582E+00 -.730E+03   -.124E-01 -.112E-02 0.412E+00
   0.132E+01 0.295E+00 0.731E+03   -.133E+01 -.294E+00 -.732E+03   0.571E-02 -.154E-02 0.472E+00
   0.363E+01 0.778E+00 -.638E+03   -.351E+01 -.783E+00 0.638E+03   -.112E+00 0.558E-02 -.249E+00
   0.491E+01 -.515E+01 -.633E+03   -.494E+01 0.508E+01 0.633E+03   0.315E-01 0.618E-01 -.400E+00
   0.121E+02 -.134E+02 -.201E+04   -.121E+02 0.135E+02 0.201E+04   -.219E-01 -.956E-01 0.551E+01
   0.419E+02 0.651E+01 -.195E+04   -.425E+02 -.651E+01 0.194E+04   0.540E+00 0.871E-03 0.512E+01
   -.993E-01 -.661E-01 0.211E+04   0.977E-01 0.672E-01 -.210E+04   0.103E-02 -.743E-03 -.641E+01
   -.229E+00 0.166E+00 0.211E+04   0.232E+00 -.167E+00 -.210E+04   -.194E-02 0.927E-03 -.642E+01
   -.396E+00 0.103E+01 0.731E+03   0.394E+00 -.103E+01 -.731E+03   0.107E-02 -.253E-02 0.441E+00
   -.835E+00 -.262E+00 0.729E+03   0.856E+00 0.270E+00 -.730E+03   -.133E-01 -.528E-02 0.402E+00
   -.229E+01 -.136E+01 -.636E+03   0.227E+01 0.141E+01 0.636E+03   0.203E-01 -.479E-01 -.220E+00
   -.391E+01 0.377E+01 -.641E+03   0.393E+01 -.377E+01 0.641E+03   -.113E-01 -.220E-03 -.235E+00
   -.154E+02 0.321E+02 -.199E+04   0.154E+02 -.327E+02 0.198E+04   0.265E-01 0.467E+00 0.556E+01
   -.109E+02 -.398E+01 -.202E+04   0.110E+02 0.400E+01 0.202E+04   -.679E-01 -.175E-01 0.549E+01
   -.112E+00 0.675E-01 0.211E+04   0.109E+00 -.681E-01 -.210E+04   0.176E-02 0.422E-03 -.640E+01
   -.236E+00 -.166E+00 0.211E+04   0.240E+00 0.168E+00 -.210E+04   -.228E-02 -.108E-02 -.641E+01
   -.413E+00 -.104E+01 0.732E+03   0.406E+00 0.104E+01 -.732E+03   0.479E-02 -.318E-02 0.434E+00
   -.128E+01 0.276E+00 0.730E+03   0.131E+01 -.280E+00 -.731E+03   -.136E-01 0.284E-02 0.441E+00
   -.392E+01 0.141E+01 -.626E+03   0.380E+01 -.146E+01 0.626E+03   0.109E+00 0.425E-01 0.209E+00
   -.465E+01 -.380E+01 -.638E+03   0.469E+01 0.380E+01 0.638E+03   -.350E-01 -.312E-03 -.217E+00
   -.168E+02 -.345E+02 -.196E+04   0.168E+02 0.351E+02 0.196E+04   -.194E-01 -.547E+00 0.564E+01
   -.263E+02 0.483E+01 -.199E+04   0.267E+02 -.485E+01 0.199E+04   -.345E+00 0.158E-01 0.551E+01
   0.364E+00 -.153E+00 0.546E+03   -.361E+00 0.154E+00 -.546E+03   -.413E-02 -.185E-02 -.926E-01
   0.708E+00 0.602E+00 0.547E+03   -.723E+00 -.627E+00 -.547E+03   0.190E-01 0.308E-01 -.131E+00
   0.762E-01 0.111E+00 0.158E+04   -.744E-01 -.112E+00 -.159E+04   -.218E-02 0.135E-02 0.311E+01
   0.157E+00 -.483E-01 0.158E+04   -.161E+00 0.485E-01 -.159E+04   0.394E-02 -.250E-03 0.311E+01
   0.486E+01 -.203E+01 -.154E+04   -.483E+01 0.204E+01 0.154E+04   -.302E-01 -.446E-02 -.456E+01
   0.155E+02 0.237E+02 -.151E+04   -.155E+02 -.236E+02 0.151E+04   -.361E-01 -.114E+00 -.464E+01
   0.202E+01 0.259E+01 -.475E+03   -.199E+01 -.260E+01 0.474E+03   -.231E-01 0.104E-01 0.291E+00
   0.263E+01 -.815E+00 -.472E+03   -.263E+01 0.822E+00 0.472E+03   0.895E-03 -.608E-02 0.267E+00
   0.475E+00 0.159E+00 0.547E+03   -.495E+00 -.163E+00 -.547E+03   0.219E-01 0.548E-02 -.942E-01
   0.760E+00 -.603E+00 0.548E+03   -.772E+00 0.628E+00 -.547E+03   0.153E-01 -.301E-01 -.129E+00
   0.772E-01 -.111E+00 0.158E+04   -.747E-01 0.112E+00 -.159E+04   -.304E-02 -.125E-02 0.311E+01
   0.196E+00 0.487E-01 0.158E+04   -.199E+00 -.489E-01 -.159E+04   0.411E-02 0.228E-03 0.312E+01
   0.136E+02 0.225E+01 -.152E+04   -.136E+02 -.225E+01 0.153E+04   -.628E-01 0.573E-02 -.453E+01
   0.204E+02 -.250E+02 -.150E+04   -.204E+02 0.249E+02 0.151E+04   -.330E-02 0.112E+00 -.460E+01
   0.200E+01 -.261E+01 -.474E+03   -.198E+01 0.262E+01 0.474E+03   -.181E-01 -.939E-02 0.288E+00
   0.420E+01 0.895E+00 -.470E+03   -.422E+01 -.907E+00 0.470E+03   0.186E-01 0.103E-01 -.386E-01
   -.345E+00 -.178E+00 0.548E+03   0.330E+00 0.168E+00 -.547E+03   0.186E-01 0.116E-01 -.599E-01
   -.682E+00 0.510E+00 0.547E+03   0.689E+00 -.519E+00 -.547E+03   -.830E-02 0.113E-01 -.105E+00
   -.767E-01 0.149E+00 0.158E+04   0.747E-01 -.150E+00 -.159E+04   0.246E-02 0.164E-02 0.312E+01
   -.158E+00 -.472E-01 0.158E+04   0.160E+00 0.481E-01 -.159E+04   -.352E-02 -.115E-02 0.312E+01
   -.553E+01 -.582E+01 -.153E+04   0.549E+01 0.588E+01 0.153E+04   0.281E-01 -.570E-01 -.459E+01
   -.124E+02 0.119E+02 -.153E+04   0.124E+02 -.119E+02 0.154E+04   0.122E-01 -.193E-01 -.457E+01
   -.217E+01 0.397E+01 -.470E+03   0.214E+01 -.399E+01 0.470E+03   0.252E-01 0.185E-01 0.257E+00
   -.259E+01 -.815E+00 -.476E+03   0.260E+01 0.814E+00 0.476E+03   -.360E-02 0.177E-02 0.266E+00
   -.464E+00 0.205E+00 0.549E+03   0.469E+00 -.206E+00 -.549E+03   -.403E-02 0.182E-02 -.492E-01
   -.724E+00 -.504E+00 0.547E+03   0.721E+00 0.509E+00 -.547E+03   0.241E-02 -.563E-02 -.891E-01
   -.782E-01 -.150E+00 0.158E+04   0.753E-01 0.151E+00 -.159E+04   0.355E-02 -.122E-02 0.312E+01
   -.196E+00 0.473E-01 0.158E+04   0.199E+00 -.483E-01 -.159E+04   -.358E-02 0.129E-02 0.312E+01
   -.257E+02 0.784E+01 -.146E+04   0.256E+02 -.779E+01 0.146E+04   0.302E-01 -.438E-01 -.413E+01
   -.167E+02 -.126E+02 -.152E+04   0.167E+02 0.125E+02 0.153E+04   -.161E-01 0.337E-01 -.459E+01
   -.218E+01 -.399E+01 -.466E+03   0.216E+01 0.401E+01 0.466E+03   0.166E-01 -.179E-01 0.400E+00
   -.390E+01 0.851E+00 -.471E+03   0.391E+01 -.850E+00 0.471E+03   -.115E-01 -.105E-02 0.345E+00
   0.716E+01 0.115E+02 0.295E+02   -.711E-14 -.295E-12 -.915E-11   -.558E+01 -.907E+01 -.252E+02

 POSITION                                       TOTAL-FORCE (eV/Angst)
      5.33869      4.13699     16.26195        -0.012593     -0.004524      0.000224
      5.85049      4.95012     16.91457        -0.012598     -0.010784      0.008269
      2.10122      0.00000      7.50000         0.000480      0.000120      0.406783
      4.20243      2.10122      7.50000        -0.000800     -0.000257      0.407153
      2.10122      2.10122      9.60122         0.003219      0.000388      0.042626
      4.20243      0.00000      9.60122        -0.002794     -0.000362      0.046242
      2.10291      0.00043     11.71337        -0.000498      0.000105     -0.002879
      4.20305      2.10346     11.71786        -0.000188      0.000280     -0.002461
      2.10442      2.09927     13.80085         0.000039     -0.000509      0.000772
      4.20266      0.00149     13.79988        -0.001001     -0.000041      0.000230
      2.10122      4.20243      7.50000         0.000698     -0.000160      0.405506
      4.20243      6.30365      7.50000        -0.000825      0.000165      0.407246
      2.10122      6.30365      9.60122         0.006044      0.000309      0.039982
      4.20243      4.20243      9.60122        -0.003370      0.000201      0.045696
      2.10589      4.20252     11.71599        -0.000047      0.000149     -0.003308
      4.20267      6.30172     11.71726         0.000027      0.000047     -0.002535
      2.10425      6.30655     13.80171         0.000173      0.000945      0.000587
      4.19540      4.20168     13.83174         0.000149      0.000676      0.000219
      6.30365      0.00000      7.50000        -0.000586      0.000185      0.404056
      0.00000      2.10122      7.50000         0.000722     -0.000452      0.405948
      6.30365      2.10122      9.60122        -0.001152      0.000596      0.036240
      0.00000      0.00000      9.60122         0.005805      0.002272      0.038019
      6.30399      0.00224     11.71214        -0.000011     -0.000360     -0.003218
      0.00107      2.10173     11.71505        -0.000283     -0.000067     -0.002955
      6.30397      2.09400     13.80429        -0.000770      0.000173      0.000559
      0.00364      0.00140     13.80170         0.000118      0.000001      0.001160
      6.30365      4.20243      7.50000        -0.000745     -0.000188      0.402959
      0.00000      6.30365      7.50000         0.000794      0.000382      0.404852
      6.30365      6.30365      9.60122        -0.002216      0.002616      0.036109
      0.00000      4.20243      9.60122         0.007013     -0.001178      0.042473
      6.30136      4.20190     11.71143         0.000040      0.000686     -0.003277
      0.00221      6.30398     11.71408        -0.000625      0.000277     -0.002614
      6.30642      6.31800     13.79310        -0.000841     -0.000033      0.000756
      0.01264      4.20287     13.79932        -0.000433      0.000479      0.000848
      2.10122      0.00000      9.60122        -0.002188     -0.000861      0.048388
      4.20243      2.10122      9.60122         0.006283      0.009897      0.058485
      2.10122      2.10122      7.50000        -0.000797      0.000392     -0.495610
      4.20243      0.00000      7.50000         0.001226     -0.000123     -0.495567
      2.10192      0.00013     13.84374        -0.000053      0.000316     -0.008467
      4.20390      2.09792     13.83550         0.000077      0.000573     -0.007318
      2.10075      2.10196     11.70773        -0.000338      0.000964      0.002756
      4.20358      8.40444     11.70601         0.000984      0.000395      0.003172
      2.10122      4.20243      9.60122         0.005289      0.001859      0.062226
      4.20243      6.30365      9.60122         0.005217     -0.009800      0.055813
      2.10122      6.30365      7.50000        -0.001080     -0.000439     -0.495225
      4.20243      4.20243      7.50000         0.001286      0.000030     -0.494731
      2.10155      4.20325     13.84619        -0.000615     -0.000061     -0.007703
      4.20643      6.30726     13.84088         0.000369     -0.000568     -0.007539
      2.10147      6.30343     11.70836        -0.000325     -0.000775      0.002665
      4.20530      4.20318     11.71389         0.000711     -0.000250      0.001516
      6.30365      0.00000      9.60122         0.006229      0.002814      0.054216
      0.00000      2.10122      9.60122        -0.003336      0.003992      0.052610
      6.30365      2.10122      7.50000         0.000731      0.000497     -0.493709
      0.00000      0.00000      7.50000        -0.001246     -0.000421     -0.494271
      6.30654      0.00144     13.84110         0.000684      0.000484     -0.008346
      0.00134      2.10219     13.84551        -0.000319      0.000880     -0.008821
      6.30570      2.10370     11.70960         0.000389      0.001111      0.001747
      0.00075      0.00027     11.70776        -0.000706      0.000523      0.002797
      6.30365      4.20243      9.60122        -0.000164      0.000987      0.053674
      0.00000      6.30365      9.60122        -0.000181     -0.002383      0.053121
      6.30365      6.30365      7.50000         0.001098     -0.000429     -0.493212
      0.00000      4.20243      7.50000        -0.001265      0.000386     -0.493091
      6.31453      4.20547     13.85385         0.000099     -0.000376     -0.007032
      0.00085      6.30441     13.84491        -0.000290     -0.000505     -0.009571
      6.30567      6.30257     11.70843         0.000361     -0.001021      0.001319
      8.40443      4.20300     11.70977        -0.001073     -0.000224      0.003439
    total drift:                                0.005883      0.002883      0.002370

  FREE ENERGIE OF THE ION-ELECTRON SYSTEM (eV)
  free  energy   TOTEN  =      -454.82371295 eV

  energy  without entropy=     -454.82371295  energy(sigma->0) =     -454.82371295

 d Force = 0.6379926E-04[ 0.447E-04, 0.829E-04]  d Energy = 0.6754404E-04-0.374E-05
 d Force =-0.1152436E+02[-0.115E+02,-0.115E+02]  d Ewald  =-0.1152436E+02 0.371E-06

 reached required accuracy - stopping structural energy minimisation