 vasp.6.3.0 20Jan22 (build Mar 11 2022 13:48:16) complex

 executed on             LinuxIFC date 2023.12.26  16:45:25

 INCAR:
   SYSTEM = MgO-rocksalt
   ISMEAR = 0
   SIGMA = 0.05
   EDIFF = 1E-6
   ALGO = ALL
   ISTART = 0
   IBRION = -1
   NSW = 0
   ISYM = 2
   ISIF = 2
   EDIFFG = -0.01
   DIPOL = 0.5 0.5 0.5
   IDIPOL = 3
   LDIPOL = .TRUE.
   GGA = RE
   IVDW = 13
   VDW_S8 = 1.7468
   VDW_A1 = 0.5363
   VDW_A2 = 3.0726
   ENCUT = 600
   PREC = Accurate
   LASPH = .TRUE.
   LREAL = .FALSE.
   ISPIN = 1
   NELM = 200
   NELMIN = 8
   NCORE = 2
   KPAR = 1
   LWAVE = .FALSE.
   LCHARG = .FALSE.

 POTCAR:    PAW_PBE Mg_pv 13Apr2007
 POTCAR:    PAW_PBE O 08Apr2002
|           W    W    AA    RRRRR   N    N  II  N    N   GGGG   !!!           |
|           W    W   A  A   R    R  NN   N  II  NN   N  G    G  !!!           |
|           W    W  A    A  R    R  N N  N  II  N N  N  G       !!!           |
|           W WW W  AAAAAA  RRRRR   N  N N  II  N  N N  G  GGG   !            |
|           WW  WW  A    A  R   R   N   NN  II  N   NN  G    G                |
|           W    W  A    A  R    R  N    N  II  N    N   GGGG   !!!           |
|     For optimal performance we recommend to set                             |
|       NCORE = 2 up to number-of-cores-per-socket                            |
|     This setting can greatly improve the performance of VASP for DFT.       |
|     The default, NCORE=1 might be grossly inefficient on modern             |
|     multi-core architectures or massively parallel machines. Do your        |
|     Unfortunately you need to use the default for GW and RPA                |
|     calculations (for HF NCORE is supported but not extensively tested      |
|     yet).                                                                   |

   TITEL  = PAW_PBE Mg_pv 13Apr2007
   POMASS =   24.305; ZVAL   =    8.000    mass and valenz
   ENMAX  =  403.929; ENMIN  =  302.947 eV

   TITEL  = PAW_PBE O 08Apr2002
   POMASS =   16.000; ZVAL   =    6.000    mass and valenz
   ENMAX  =  400.000; ENMIN  =  300.000 eV

  PAW_PBE Mg_pv 13Apr2007               :
  PAW_PBE O 08Apr2002                   :

 POSCAR: Mg  O
  positions in direct lattice
  velocities in cartesian coordinates
|           W    W    AA    RRRRR   N    N  II  N    N   GGGG   !!!           |
|           W    W   A  A   R    R  NN   N  II  NN   N  G    G  !!!           |
|           W    W  A    A  R    R  N N  N  II  N N  N  G       !!!           |
|           W WW W  AAAAAA  RRRRR   N  N N  II  N  N N  G  GGG   !            |
|           WW  WW  A    A  R   R   N   NN  II  N   NN  G    G                |
|           W    W  A    A  R    R  N    N  II  N    N   GGGG   !!!           |
|     Specifying the vdW parameters                                           |
|     VDW_S8 = 1.747                                                          |
|     VDW_A1 = 0.536                                                          |
|     VDW_A2 = 3.073                                                          |
|     in the INCAR file will overwrite the defaults for revpbe. Please        |
|     make sure that is what you intended.                                    |

 ion  position               nearest neighbor table
   1  0.000  0.750  0.352-  33 2.11  35 2.11  36 2.11  43 2.11  52 2.11
   2  0.250  0.000  0.352-  34 2.11  35 2.11  36 2.11  44 2.11  51 2.11
   3  0.000  0.000  0.451-  35 2.11  34 2.11  33 2.11  41 2.11  50 2.11  39 2.12
   4  0.250  0.750  0.451-  36 2.11  34 2.11  33 2.11  42 2.11  49 2.11  40 2.12
   5  0.000  0.750  0.550-  39 2.11  40 2.11  47 2.11  56 2.11  33 2.13  37 2.15
   6  0.250  0.000  0.550-  39 2.11  40 2.11  48 2.11  55 2.11  34 2.13  38 2.15
   7  0.000  0.000  0.649-  37 2.11  38 2.11  45 2.11  54 2.11  39 2.11
   8  0.250  0.750  0.649-  37 2.11  38 2.11  46 2.11  53 2.11  40 2.11
   9  0.000  0.250  0.352-  41 2.11  35 2.11  43 2.11  44 2.11  60 2.11
  10  0.250  0.500  0.352-  42 2.11  36 2.11  43 2.11  44 2.11  59 2.11
  11  0.000  0.500  0.451-  43 2.11  41 2.11  42 2.11  33 2.11  58 2.11  47 2.12
  12  0.250  0.250  0.451-  44 2.11  41 2.11  42 2.11  34 2.11  57 2.11  48 2.12
  13  0.000  0.250  0.550-  39 2.11  47 2.11  48 2.11  64 2.11  41 2.13  45 2.15
  14  0.250  0.500  0.550-  40 2.11  47 2.11  48 2.11  63 2.11  42 2.13  46 2.15
  15  0.000  0.500  0.649-  37 2.11  45 2.11  46 2.11  62 2.11  47 2.11
  16  0.250  0.250  0.649-  38 2.11  45 2.11  46 2.11  61 2.11  48 2.11
  17  0.500  0.750  0.352-  49 2.11  36 2.11  51 2.11  52 2.11  59 2.11
  18  0.750  0.000  0.352-  50 2.11  35 2.11  51 2.11  52 2.11  60 2.11
  19  0.500  0.000  0.451-  51 2.11  49 2.11  50 2.11  34 2.11  57 2.11  55 2.12
  20  0.750  0.750  0.451-  52 2.11  49 2.11  50 2.11  33 2.11  58 2.11  56 2.12
  21  0.500  0.750  0.550-  40 2.11  55 2.11  56 2.11  63 2.11  49 2.13  53 2.15
  22  0.750  0.000  0.550-  39 2.11  55 2.11  56 2.11  64 2.11  50 2.13  54 2.15
  23  0.500  0.000  0.649-  38 2.11  53 2.11  54 2.11  61 2.11  55 2.11
  24  0.750  0.750  0.649-  37 2.11  53 2.11  54 2.11  62 2.11  56 2.11
  25  0.500  0.250  0.352-  57 2.11  51 2.11  44 2.11  59 2.11  60 2.11
  26  0.750  0.500  0.352-  58 2.11  52 2.11  43 2.11  59 2.11  60 2.11
  27  0.500  0.500  0.451-  59 2.11  49 2.11  57 2.11  58 2.11  42 2.11  63 2.12
  28  0.750  0.250  0.451-  60 2.11  50 2.11  57 2.11  58 2.11  41 2.11  64 2.12
  29  0.500  0.250  0.550-  48 2.11  55 2.11  63 2.11  64 2.11  57 2.13  61 2.15
  30  0.750  0.500  0.550-  47 2.11  56 2.11  63 2.11  64 2.11  58 2.13  62 2.15
  31  0.500  0.500  0.649-  46 2.11  53 2.11  61 2.11  62 2.11  63 2.11
  32  0.750  0.250  0.649-  45 2.11  54 2.11  61 2.11  62 2.11  64 2.11
  33  0.000  0.750  0.451-   1 2.11   3 2.11   4 2.11  11 2.11  20 2.11   5 2.13
  34  0.250  0.000  0.451-   2 2.11   3 2.11   4 2.11  12 2.11  19 2.11   6 2.13
  35  0.000  0.000  0.352-   3 2.11   2 2.11   1 2.11   9 2.11  18 2.11
  36  0.250  0.750  0.352-   4 2.11   2 2.11   1 2.11  10 2.11  17 2.11
  37  0.000  0.750  0.651-   7 2.11   8 2.11  15 2.11  24 2.11   5 2.15
  38  0.250  0.000  0.651-   7 2.11   8 2.11  16 2.11  23 2.11   6 2.15
  39  0.000  0.000  0.550-   5 2.11   6 2.11  13 2.11  22 2.11   7 2.11   3 2.12
  40  0.250  0.750  0.550-   5 2.11   6 2.11  14 2.11  21 2.11   8 2.11   4 2.12
  41  0.000  0.250  0.451-   9 2.11   3 2.11  11 2.11  12 2.11  28 2.11  13 2.13
  42  0.250  0.500  0.451-  10 2.11   4 2.11  11 2.11  12 2.11  27 2.11  14 2.13
  43  0.000  0.500  0.352-  11 2.11   9 2.11  10 2.11   1 2.11  26 2.11
  44  0.250  0.250  0.352-  12 2.11   9 2.11  10 2.11   2 2.11  25 2.11
  45  0.000  0.250  0.651-   7 2.11  15 2.11  16 2.11  32 2.11  13 2.15
  46  0.250  0.500  0.651-   8 2.11  15 2.11  16 2.11  31 2.11  14 2.15
  47  0.000  0.500  0.550-   5 2.11  13 2.11  14 2.11  30 2.11  15 2.11  11 2.12
  48  0.250  0.250  0.550-   6 2.11  13 2.11  14 2.11  29 2.11  16 2.11  12 2.12
  49  0.500  0.750  0.451-  17 2.11   4 2.11  19 2.11  20 2.11  27 2.11  21 2.13
  50  0.750  0.000  0.451-  18 2.11   3 2.11  19 2.11  20 2.11  28 2.11  22 2.13
  51  0.500  0.000  0.352-  19 2.11  17 2.11  18 2.11   2 2.11  25 2.11
  52  0.750  0.750  0.352-  20 2.11  17 2.11  18 2.11   1 2.11  26 2.11
  53  0.500  0.750  0.651-   8 2.11  23 2.11  24 2.11  31 2.11  21 2.15
  54  0.750  0.000  0.651-   7 2.11  23 2.11  24 2.11  32 2.11  22 2.15
  55  0.500  0.000  0.550-   6 2.11  21 2.11  22 2.11  29 2.11  23 2.11  19 2.12
  56  0.750  0.750  0.550-   5 2.11  21 2.11  22 2.11  30 2.11  24 2.11  20 2.12
  57  0.500  0.250  0.451-  25 2.11  19 2.11  12 2.11  27 2.11  28 2.11  29 2.13
  58  0.750  0.500  0.451-  26 2.11  20 2.11  11 2.11  27 2.11  28 2.11  30 2.13
  59  0.500  0.500  0.352-  27 2.11  17 2.11  25 2.11  26 2.11  10 2.11
  60  0.750  0.250  0.352-  28 2.11  18 2.11  25 2.11  26 2.11   9 2.11
  61  0.500  0.250  0.651-  16 2.11  23 2.11  31 2.11  32 2.11  29 2.15
  62  0.750  0.500  0.651-  15 2.11  24 2.11  31 2.11  32 2.11  30 2.15
  63  0.500  0.500  0.550-  14 2.11  21 2.11  29 2.11  30 2.11  31 2.11  27 2.12
  64  0.750  0.250  0.550-  13 2.11  22 2.11  29 2.11  30 2.11  32 2.11  28 2.12

  LATTYP: Found a simple tetragonal cell.
 ALAT       =     8.4409846542
 C/A-ratio  =     2.5270438657

  Lattice vectors:

 A1 = (   8.4409846542,   0.0000000000,   0.0000000000)
 A2 = (   0.0000000000,   8.4409846542,   0.0000000000)
 A3 = (   0.0000000000,   0.0000000000,  21.3307384906)

Analysis of symmetry for initial positions (statically):
 Subroutine PRICEL returns following result:

[...]

   8 primitive cells build up your supercell.

 Routine SETGRP: Setting up the symmetry group for a
 simple tetragonal supercell.

 Subroutine GETGRP returns: Found  8 space group operations
 (whereof  8 operations were pure point group operations)
 out of a pool of 16 trial point group operations.

The static configuration has the point symmetry C_4v.

Analysis of symmetry for dynamics (positions and initial velocities):
 Subroutine PRICEL returns following result:

[...]

The dynamic configuration has the point symmetry C_4v.

Analysis of constrained symmetry for selective dynamics:
 Subroutine PRICEL returns following result:

  LATTYP: Found a simple tetragonal cell.
 ALAT       =     2.9843387444
 C/A-ratio  =     7.1475594151

  Lattice vectors:

 A1 = (   2.1102461635,  -2.1102461635,   0.0000000000)
 A2 = (   2.1102461635,   2.1102461635,   0.0000000000)
 A3 = (   0.0000000000,   0.0000000000,  21.3307384906)

   8 primitive cells build up your supercell.

 Routine SETGRP: Setting up the symmetry group for a
 simple tetragonal supercell.

 Subroutine GETGRP returns: Found  8 space group operations
 (whereof  8 operations were pure point group operations)
 out of a pool of 16 trial point group operations.

The constrained configuration has the point symmetry C_4v.

 Subroutine INISYM returns: Found  8 space group operations
 (whereof  8 operations are pure point group operations),
 and found     8 'primitive' translations

                                     Primitive cell

  volume of cell :     189.9775

  direct lattice vectors                    reciprocal lattice vectors
     2.110246164 -2.110246164  0.000000000     0.236939182 -0.236939182  0.000000000
     2.110246164  2.110246164  0.000000000     0.236939182  0.236939182  0.000000000
     0.000000000  0.000000000 21.330738491     0.000000000  0.000000000  0.046880702

  length of vectors
     2.984338744  2.984338744 21.330738491     0.335082605  0.335082605  0.046880702

  position of ions in fractional coordinates (direct lattice)
     0.500000000  0.500000000  0.351605267
     0.000000000  0.000000000  0.450535089
     0.500000000  0.500000000  0.550171424
     0.000000000  0.000000000  0.648861363
     0.500000000  0.500000000  0.450535089
     0.000000000  0.000000000  0.351605267
     0.500000000  0.500000000  0.651006323
     0.000000000  0.000000000  0.549890244

  ion indices of the primitive-cell ions
   primitive index   ion index
                 1           1
                 2           3
                 3           5
                 4           7
                 5          33
                 6          35
[...]
   0.50000000  0.50000000  0.35160527
   0.75000000  0.25000000  0.35160527
   0.50000000  0.25000000  0.65100632
   0.75000000  0.50000000  0.65100632
   0.50000000  0.50000000  0.54989024
   0.75000000  0.25000000  0.54989024

 position of ions in cartesian coordinates  (Angst):
   0.00000000  6.33073849  7.50000000
   2.11024616  0.00000000  7.50000000
   0.00000000  0.00000000  9.61024616
   2.11024616  6.33073849  9.61024616
   0.00000000  6.33073849 11.73556278
   2.11024616  0.00000000 11.73556278
   0.00000000  0.00000000 13.84069205
   2.11024616  6.33073849 13.84069205
   0.00000000  2.11024616  7.50000000
   2.11024616  4.22049233  7.50000000
   0.00000000  4.22049233  9.61024616
   2.11024616  2.11024616  9.61024616
   0.00000000  2.11024616 11.73556278
   2.11024616  4.22049233 11.73556278
   0.00000000  4.22049233 13.84069205
   2.11024616  2.11024616 13.84069205
   4.22049233  6.33073849  7.50000000
   6.33073849  0.00000000  7.50000000
   4.22049233  0.00000000  9.61024616
   6.33073849  6.33073849  9.61024616
   4.22049233  6.33073849 11.73556278
   6.33073849  0.00000000 11.73556278
   4.22049233  0.00000000 13.84069205
   6.33073849  6.33073849 13.84069205
   4.22049233  2.11024616  7.50000000
   6.33073849  4.22049233  7.50000000
   4.22049233  4.22049233  9.61024616
   6.33073849  2.11024616  9.61024616
   4.22049233  2.11024616 11.73556278
   6.33073849  4.22049233 11.73556278
   4.22049233  4.22049233 13.84069205
   6.33073849  2.11024616 13.84069205
   0.00000000  6.33073849  9.61024616
   2.11024616  0.00000000  9.61024616
   0.00000000  0.00000000  7.50000000
   2.11024616  6.33073849  7.50000000
   0.00000000  6.33073849 13.88644563
   2.11024616  0.00000000 13.88644563
   0.00000000  0.00000000 11.72956500
   2.11024616  6.33073849 11.72956500
   0.00000000  2.11024616  9.61024616
   2.11024616  4.22049233  9.61024616
   0.00000000  4.22049233  7.50000000
   2.11024616  2.11024616  7.50000000
   0.00000000  2.11024616 13.88644563
   2.11024616  4.22049233 13.88644563
   0.00000000  4.22049233 11.72956500
   2.11024616  2.11024616 11.72956500
   4.22049233  6.33073849  9.61024616
   6.33073849  0.00000000  9.61024616
   4.22049233  0.00000000  7.50000000
   6.33073849  6.33073849  7.50000000
   4.22049233  6.33073849 13.88644563
   6.33073849  0.00000000 13.88644563
   4.22049233  0.00000000 11.72956500
   6.33073849  6.33073849 11.72956500
   4.22049233  2.11024616  9.61024616
   6.33073849  4.22049233  9.61024616
   4.22049233  4.22049233  7.50000000
   6.33073849  2.11024616  7.50000000
   4.22049233  2.11024616 13.88644563
   6.33073849  4.22049233 13.88644563
   4.22049233  4.22049233 11.72956500
   6.33073849  2.11024616 11.72956500

--------------------------------------- Iteration      FINAL  ---------------------------------------

--------------------OUTCAR has been truncated-------------------------

[...]

--------------------OUTCAR has been truncated-------------------------

  FORCE on cell =-STRESS in cart. coord.  units (eV):
  Direction    XX          YY          ZZ          XY          YZ          ZX
  Alpha Z   875.25928   875.25928   875.25928
  Ewald  161089.19585161089.19585************    -0.00000     0.00000     0.00000
  Hartree171163.64741171163.64741************    -0.00000    -0.00000    -0.00000
  E(xc)   -2465.27338 -2465.27338 -2473.60702     0.00000     0.00000     0.00000
  Local  ************************342517.66841     0.00000     0.00000    -0.00000
  n-local -2794.69275 -2795.50997 -2816.22509     0.00000     0.00000    -0.00000
  augment  1046.64236  1046.64236  1037.03629    -0.00000     0.00000     0.00000
  Kinetic  7307.94416  7310.55141  7349.46729    -0.00001    -0.00000    -0.00000
  Fock        0.00000     0.00000     0.00000     0.00000     0.00000     0.00000
  vdW       -21.48208   -21.48211   -16.14407     0.00000     0.00000     0.00000
  Total     -26.40542   -26.40542    -1.75686     0.00000     0.00000     0.00000
  in kB     -27.83630   -27.83630    -1.85206     0.00000     0.00000     0.00000

 VOLUME and BASIS-vectors are now :
  energy-cutoff  :      600.00
  volume of cell :     1519.82
      direct lattice vectors                 reciprocal lattice vectors
     8.440984654  0.000000000  0.000000000     0.118469591  0.000000000  0.000000000
     0.000000000  8.440984654  0.000000000     0.000000000  0.118469591  0.000000000
     0.000000000  0.000000000 21.330738491     0.000000000  0.000000000  0.046880702

  length of vectors
     8.440984654  8.440984654 21.330738491     0.118469591  0.118469591  0.046880702

 FORCES acting on ions:
    Electron-Ion                     Ewald-Force                    Non-Local-Force
   -.234E-13 0.189E-11 0.207E+04   -.111E-12 0.170E-13 -.206E+04   -.429E-23 0.515E-23 -.716E+01
   0.174E-12 0.660E-12 0.207E+04   -.200E-13 0.964E-13 -.206E+04   -.150E-22 -.721E-23 -.716E+01
   -.563E-13 -.976E-13 0.683E+03   -.151E-10 0.151E-10 -.683E+03   0.188E-23 0.388E-25 0.527E+00
   0.238E-12 0.103E-11 0.683E+03   0.150E-10 -.150E-10 -.683E+03   0.961E-23 0.184E-24 0.527E+00
   -.469E-13 0.134E-11 -.690E+03   -.338E-13 -.228E-13 0.691E+03   -.755E-23 -.636E-23 -.223E+00
   0.249E-12 0.290E-12 -.690E+03   -.187E-13 -.338E-13 0.691E+03   0.102E-22 0.677E-24 -.223E+00
   -.831E-13 -.862E-12 -.205E+04   -.487E-12 0.405E-12 0.204E+04   -.455E-23 0.134E-22 0.609E+01
   0.121E-12 0.229E-12 -.205E+04   0.355E-12 -.476E-12 0.204E+04   0.215E-23 0.696E-23 0.609E+01
   -.302E-13 0.983E-12 0.207E+04   0.161E-11 -.154E-10 -.206E+04   -.414E-23 -.210E-23 -.716E+01
   0.165E-12 0.133E-11 0.207E+04   -.175E-11 0.154E-10 -.206E+04   -.421E-23 0.373E-23 -.716E+01
   -.427E-13 0.758E-12 0.683E+03   -.165E-10 0.568E-13 -.683E+03   0.127E-22 -.724E-23 0.527E+00
   0.250E-12 0.168E-12 0.683E+03   0.164E-10 0.497E-13 -.683E+03   0.116E-23 0.277E-22 0.527E+00
   -.449E-13 0.418E-12 -.690E+03   -.568E-13 -.513E-13 0.691E+03   -.153E-22 0.314E-23 -.223E+00
   0.255E-12 0.105E-11 -.690E+03   -.591E-13 -.178E-14 0.691E+03   -.989E-23 -.213E-23 -.223E+00
   -.740E-13 -.539E-12 -.205E+04   -.654E-12 0.355E-14 0.204E+04   -.420E-24 -.208E-24 0.609E+01
   0.123E-12 -.633E-12 -.205E+04   0.584E-12 -.357E-13 0.204E+04   0.391E-23 -.857E-23 0.609E+01
   0.699E-12 0.301E-11 0.207E+04   -.171E-10 0.168E-13 -.206E+04   -.356E-23 -.363E-23 -.716E+01
   0.933E-12 0.680E-12 0.207E+04   0.171E-10 0.711E-13 -.206E+04   -.108E-22 0.155E-23 -.716E+01
   0.617E-12 -.673E-13 0.683E+03   0.150E-11 0.150E-10 -.683E+03   -.132E-22 0.136E-22 0.527E+00
   0.894E-12 -.438E-12 0.683E+03   -.148E-11 -.150E-10 -.683E+03   -.227E-22 -.174E-22 0.527E+00
   0.610E-12 0.180E-11 -.690E+03   -.195E-13 -.279E-13 0.691E+03   -.317E-22 -.249E-23 -.223E+00
   0.867E-12 0.290E-12 -.690E+03   0.248E-13 -.284E-13 0.691E+03   -.838E-23 -.307E-23 -.223E+00
   0.701E-12 -.869E-12 -.205E+04   0.131E-12 0.359E-12 0.204E+04   0.383E-23 0.594E-23 0.609E+01
   0.898E-12 0.148E-12 -.205E+04   -.341E-12 -.450E-12 0.204E+04   0.147E-22 -.270E-23 0.609E+01
   0.697E-12 -.418E-12 0.207E+04   -.155E-10 -.154E-10 -.206E+04   0.102E-22 0.204E-23 -.716E+01
   0.927E-12 -.788E-12 0.207E+04   0.154E-10 0.154E-10 -.206E+04   -.939E-23 -.532E-25 -.716E+01
   0.601E-12 0.778E-12 0.683E+03   0.533E-13 0.568E-13 -.683E+03   -.292E-22 -.814E-23 0.527E+00
   0.893E-12 0.345E-11 0.683E+03   -.247E-13 0.283E-13 -.683E+03   -.257E-22 0.277E-23 0.527E+00
   0.609E-12 0.290E-12 -.690E+03   -.568E-13 -.114E-12 0.691E+03   -.286E-22 -.246E-23 -.223E+00
   0.859E-12 -.101E-13 -.690E+03   -.563E-13 0.000E+00 0.691E+03   -.246E-22 0.106E-22 -.223E+00
   0.681E-12 -.673E-13 -.205E+04   -.924E-13 0.355E-13 0.204E+04   0.221E-22 -.308E-24 0.609E+01
   0.889E-12 0.465E-12 -.205E+04   -.819E-13 -.322E-13 0.204E+04   0.156E-22 0.114E-22 0.609E+01
   -.286E-13 0.463E-12 0.512E+03   0.853E-13 0.163E-15 -.512E+03   0.208E-22 -.283E-23 -.104E+00
   0.126E-12 -.141E-12 0.512E+03   0.364E-15 -.187E-13 -.512E+03   -.402E-23 0.123E-22 -.104E+00
   -.151E-13 0.135E-12 0.155E+04   0.851E-11 -.846E-11 -.156E+04   -.329E-22 -.111E-22 0.341E+01
   0.456E-13 0.646E-12 0.155E+04   -.836E-11 0.844E-11 -.156E+04   -.178E-22 0.167E-22 0.341E+01
   -.214E-13 0.269E-13 -.156E+04   0.408E-12 0.286E-12 0.156E+04   0.941E-23 -.107E-22 -.494E+01
   0.326E-13 -.471E-12 -.156E+04   -.753E-13 -.176E-12 0.156E+04   0.423E-24 -.313E-22 -.494E+01
   -.545E-13 -.274E-12 -.512E+03   -.760E-12 0.902E-12 0.512E+03   0.175E-23 -.177E-23 0.261E+00
   0.919E-13 0.332E-12 -.512E+03   0.910E-12 -.845E-12 0.512E+03   -.742E-23 0.442E-23 0.261E+00
   -.267E-13 0.264E-12 0.512E+03   -.774E-12 0.841E-11 -.512E+03   0.310E-23 -.564E-23 -.104E+00
   0.121E-12 0.244E-12 0.512E+03   0.787E-12 -.847E-11 -.512E+03   -.126E-23 -.222E-24 -.104E+00
   -.126E-13 0.606E-12 0.155E+04   0.100E-10 0.612E-12 -.156E+04   0.118E-22 -.192E-22 0.341E+01
   0.434E-13 0.256E-12 0.155E+04   -.995E-11 -.657E-12 -.156E+04   -.129E-22 -.128E-22 0.341E+01
   -.180E-13 -.189E-12 -.156E+04   0.512E-12 0.497E-13 0.156E+04   -.737E-23 -.115E-22 -.494E+01
   0.366E-13 -.471E-12 -.156E+04   -.248E-12 0.284E-13 0.156E+04   0.194E-22 0.187E-22 -.494E+01
   -.402E-13 -.976E-13 -.512E+03   -.165E-11 0.213E-13 0.512E+03   -.197E-23 0.559E-24 0.261E+00
   0.910E-13 -.217E-12 -.512E+03   0.178E-11 -.718E-14 0.512E+03   -.150E-22 -.121E-22 0.261E+00
   0.279E-12 0.258E-11 0.512E+03   0.922E-11 -.435E-13 -.512E+03   -.453E-23 -.562E-23 -.104E+00
   0.444E-12 -.155E-12 0.512E+03   -.925E-11 -.568E-13 -.512E+03   -.563E-24 0.252E-23 -.104E+00
   0.332E-12 0.135E-12 0.155E+04   -.211E-11 -.847E-11 -.156E+04   0.213E-22 -.121E-22 0.341E+01
   0.456E-12 0.404E-12 0.155E+04   0.215E-11 0.839E-11 -.156E+04   -.146E-23 0.247E-22 0.341E+01
   0.313E-12 0.269E-13 -.156E+04   -.622E-14 0.243E-12 0.156E+04   -.109E-22 -.790E-23 -.494E+01
   0.422E-12 -.444E-12 -.156E+04   0.179E-12 -.185E-12 0.156E+04   -.624E-23 0.211E-22 -.494E+01
   0.284E-12 -.263E-12 -.512E+03   0.895E-12 0.853E-12 0.512E+03   -.212E-22 0.211E-23 0.261E+00
   0.395E-12 -.186E-11 -.512E+03   -.803E-12 -.868E-12 0.512E+03   0.667E-23 -.243E-23 0.261E+00
   0.277E-12 -.306E-11 0.512E+03   0.846E-11 0.840E-11 -.512E+03   -.736E-24 0.106E-22 -.104E+00
   0.445E-12 -.187E-11 0.512E+03   -.849E-11 -.848E-11 -.512E+03   -.130E-22 0.189E-23 -.104E+00
   0.332E-12 0.471E-12 0.155E+04   -.636E-12 0.566E-12 -.156E+04   0.602E-24 -.670E-23 0.341E+01
   0.450E-12 0.186E-11 0.155E+04   0.609E-12 -.666E-12 -.156E+04   -.314E-22 -.483E-23 0.341E+01
   0.308E-12 -.162E-12 -.156E+04   0.639E-13 0.284E-13 0.156E+04   -.299E-22 -.704E-23 -.494E+01
   0.418E-12 -.113E-11 -.156E+04   0.850E-13 0.000E+00 0.156E+04   0.786E-23 -.352E-23 -.494E+01
   0.264E-12 0.123E-12 -.512E+03   -.142E-13 -.142E-13 0.512E+03   -.175E-23 0.883E-24 0.261E+00
   0.396E-12 -.250E-11 -.512E+03   -.495E-13 -.427E-13 0.512E+03   0.164E-22 0.465E-23 0.261E+00
   0.201E-10 0.118E-10 0.171E+02   0.754E-13 -.242E-12 0.796E-11   -.268E-21 -.134E-22 -.171E+02

 POSITION                                       TOTAL-FORCE (eV/Angst)
      0.00000      6.33074      7.50000        -0.000000      0.000000      0.339626
      2.11025      0.00000      7.50000         0.000000      0.000000      0.339626
      0.00000      0.00000      9.61025         0.000000     -0.000000      0.078974
      2.11025      6.33074      9.61025         0.000000     -0.000000      0.078974
      0.00000      6.33074     11.73556         0.000000     -0.000000      0.001536
      2.11025      0.00000     11.73556        -0.000000     -0.000000      0.001536
      0.00000      0.00000     13.84069         0.000000      0.000000     -0.002587
      2.11025      6.33074     13.84069        -0.000000      0.000000     -0.002587
      0.00000      2.11025      7.50000        -0.000000     -0.000000      0.339626
      2.11025      4.22049      7.50000        -0.000000      0.000000      0.339626
      0.00000      4.22049      9.61025         0.000000      0.000000      0.078974
      2.11025      2.11025      9.61025        -0.000000     -0.000000      0.078974
      0.00000      2.11025     11.73556         0.000000     -0.000000      0.001536
      2.11025      4.22049     11.73556        -0.000000     -0.000000      0.001536
      0.00000      4.22049     13.84069        -0.000000      0.000000     -0.002587
      2.11025      2.11025     13.84069        -0.000000      0.000000     -0.002587
      4.22049      6.33074      7.50000         0.000000     -0.000000      0.339626
      6.33074      0.00000      7.50000         0.000000     -0.000000      0.339626
      4.22049      0.00000      9.61025        -0.000000     -0.000000      0.078974
      6.33074      6.33074      9.61025         0.000000     -0.000000      0.078974
      4.22049      6.33074     11.73556        -0.000000     -0.000000      0.001536
      6.33074      0.00000     11.73556        -0.000000      0.000000      0.001536
      4.22049      0.00000     13.84069        -0.000000      0.000000     -0.002587
      6.33074      6.33074     13.84069         0.000000      0.000000     -0.002587
      4.22049      2.11025      7.50000        -0.000000      0.000000      0.339626
      6.33074      4.22049      7.50000         0.000000      0.000000      0.339626
      4.22049      4.22049      9.61025        -0.000000     -0.000000      0.078974
      6.33074      2.11025      9.61025        -0.000000      0.000000      0.078974
      4.22049      2.11025     11.73556        -0.000000      0.000000      0.001536
      6.33074      4.22049     11.73556        -0.000000     -0.000000      0.001536
      4.22049      4.22049     13.84069        -0.000000      0.000000     -0.002587
      6.33074      2.11025     13.84069         0.000000      0.000000     -0.002587
      0.00000      6.33074      9.61025        -0.000000      0.000000      0.081511
      2.11025      0.00000      9.61025         0.000000      0.000000      0.081511
      0.00000      0.00000      7.50000         0.000000      0.000000     -0.501217
      2.11025      6.33074      7.50000         0.000000      0.000000     -0.501217
      0.00000      6.33074     13.88645        -0.000000      0.000000     -0.000523
      2.11025      0.00000     13.88645         0.000000      0.000000     -0.000523
      0.00000      0.00000     11.72957         0.000000     -0.000000      0.002679
      2.11025      6.33074     11.72957        -0.000000     -0.000000      0.002679
      0.00000      2.11025      9.61025         0.000000     -0.000000      0.081511
      2.11025      4.22049      9.61025        -0.000000     -0.000000      0.081511
      0.00000      4.22049      7.50000        -0.000000      0.000000     -0.501217
      2.11025      2.11025      7.50000         0.000000      0.000000     -0.501217
      0.00000      2.11025     13.88645         0.000000     -0.000000     -0.000523
      2.11025      4.22049     13.88645        -0.000000      0.000000     -0.000523
      0.00000      4.22049     11.72957         0.000000      0.000000      0.002679
      2.11025      2.11025     11.72957        -0.000000      0.000000      0.002679
      4.22049      6.33074      9.61025        -0.000000     -0.000000      0.081511
      6.33074      0.00000      9.61025        -0.000000     -0.000000      0.081511
      4.22049      0.00000      7.50000        -0.000000     -0.000000     -0.501217
      6.33074      6.33074      7.50000        -0.000000     -0.000000     -0.501217
      4.22049      6.33074     13.88645         0.000000      0.000000     -0.000523
      6.33074      0.00000     13.88645         0.000000     -0.000000     -0.000523
      4.22049      0.00000     11.72957         0.000000      0.000000      0.002679
      6.33074      6.33074     11.72957         0.000000     -0.000000      0.002679
      4.22049      2.11025      9.61025        -0.000000      0.000000      0.081511
      6.33074      4.22049      9.61025        -0.000000      0.000000      0.081511
      4.22049      4.22049      7.50000        -0.000000      0.000000     -0.501217
      6.33074      2.11025      7.50000         0.000000     -0.000000     -0.501217
      4.22049      2.11025     13.88645         0.000000     -0.000000     -0.000523
      6.33074      4.22049     13.88645         0.000000      0.000000     -0.000523
      4.22049      4.22049     11.72957        -0.000000     -0.000000      0.002679
      6.33074      2.11025     11.72957         0.000000     -0.000000      0.002679
    total drift:                                0.000000      0.000000     -0.004321

  FREE ENERGIE OF THE ION-ELECTRON SYSTEM (eV)
  free  energy   TOTEN  =      -371.29204333 eV

  energy  without entropy=     -371.29204333  energy(sigma->0) =     -371.29204333