 vasp.6.4.2 20Jul23 (build Feb 22 2024 13:53:45) complex
 executed on              LinuxNV date 2024.08.28  21:30:59
 OpenACC runtime initialized ...    4 GPUs detected

 INCAR:
   SYSTEM = Oxide-Surface
   ISMEAR = 0
   SIGMA = 0.05
   EDIFF = 1E-5
   ALGO = Normal
   IBRION = -1
   NSW = 0
   ISYM = 0
   DIPOL = 0.5 0.5 0.5
   IDIPOL = 3
   LDIPOL = .TRUE.
   ISTART = 1
   GGA = MK
   LUSE_VDW = .TRUE.
   PARAM1 = 0.1234
   PARAM2 = 0.711357
   ZAB_VDW = -1.8867
   AGGAC = 0.0
   ENCUT = 1000
   PREC = Normal
   PRECFOCK = Normal
   LASPH = .TRUE.
   LREAL = Auto
   ISPIN = 1
   NELM = 200
   NELMIN = 8
   NCORE = 1
   KPAR = 1
   LWAVE = .FALSE.
   LCHARG = .FALSE.

 POTCAR:    PAW_PBE N_h 06Feb2004
 POTCAR:    PAW_PBE H_h 06Feb2004
 POTCAR:    PAW_PBE Ti_sv 26Sep2005
 POTCAR:    PAW_PBE O_h 06Feb2004
|               ----> ADVICE to this user running VASP <----                  |
|     You have switched on vdW-DFT.                                           |
|     This routine was written and supplied by Jiri Klimes. We recommend      |
|     that you carefully read and cite the following publications:            |
|       J. Klimes, D.R. Bowler, A. Michelides                                 |
|          J. Phys.: Cond Matt. 22 022201 (2010)                              |
|       J. Klimes, D.R. Bowler, A. Michelides                                 |
|          Phys. Rev. B. 83, 195131 (2011)                                    |
|     and references therein.                                                 |

   TITEL  = PAW_PBE N_h 06Feb2004
   POMASS =   14.001; ZVAL   =    5.000    mass and valenz
   ENMAX  =  700.000; ENMIN  =  500.000 eV

[...]

   TITEL  = PAW_PBE Ti_sv 26Sep2005
   POMASS =   47.880; ZVAL   =   12.000    mass and valenz
   ENMAX  =  274.610; ENMIN  =  205.957 eV

   TITEL  = PAW_PBE O_h 06Feb2004
   POMASS =   16.000; ZVAL   =    6.000    mass and valenz
   ENMAX  =  700.000; ENMIN  =  500.000 eV

 Optimization of the real space projectors (new method)

 maximal supplied QI-value         = 34.20
 optimisation between [QCUT,QGAM] = [ 16.08, 32.15] = [ 72.37,289.48] Ry
 Optimized for a Real-space Cutoff    0.71 Angstroem

   l    n(q)    QCUT    max X(q) W(low)/X(q) W(high)/X(q)  e(spline)
   0      7    16.076   148.539    0.44E-03    0.75E-03    0.58E-07
   0      7    16.076   106.192    0.44E-03    0.75E-03    0.58E-07
   1      6    16.076    73.877    0.23E-03    0.61E-03    0.11E-06
   1      6    16.076    50.042    0.22E-03    0.60E-03    0.11E-06
 Optimization of the real space projectors (new method)

[...]

   l    n(q)    QCUT    max X(q) W(low)/X(q) W(high)/X(q)  e(spline)
   0     12    16.089    12.277    0.23E-04    0.54E-05    0.15E-06
   0     12    16.089    11.419    0.26E-04    0.82E-06    0.19E-06
   1     12    16.089     4.010    0.40E-04    0.12E-04    0.58E-06
   1     12    16.089     6.182    0.55E-05    0.28E-04    0.27E-06
   2     11    16.089    47.177    0.17E-03    0.26E-03    0.90E-06
   2     11    16.089    42.437    0.17E-03    0.25E-03    0.88E-06
 Optimization of the real space projectors (new method)

 maximal supplied QI-value         = 34.20
 optimisation between [QCUT,QGAM] = [ 16.08, 32.15] = [ 72.37,289.48] Ry
 Optimized for a Real-space Cutoff    0.71 Angstroem

   l    n(q)    QCUT    max X(q) W(low)/X(q) W(high)/X(q)  e(spline)
   0      7    16.076   280.207    0.42E-03    0.69E-03    0.60E-07
   0      7    16.076   228.978    0.42E-03    0.69E-03    0.61E-07
   1      6    16.076    86.127    0.11E-03    0.66E-03    0.10E-06
   1      6    16.076    65.368    0.11E-03    0.65E-03    0.10E-06
|               ----> ADVICE to this user running VASP <----                  |
|     You enforced a specific xc type in the INCAR file but a different       |
|     type was found in the POTCAR file.                                      |
|     I HOPE YOU KNOW WHAT YOU ARE DOING!                                     |

  PAW_PBE N_h 06Feb2004                 :
  PAW_PBE H_h 06Feb2004                 :
  PAW_PBE Ti_sv 26Sep2005               :
  PAW_PBE O_h 06Feb2004                 :

 POSCAR:  N  H Ti  O
  positions in direct lattice
 exchange correlation table for  LEXCH =       43
   RHO(1)=    0.500       N(1)  =     2000
   RHO(2)=  100.500       N(2)  =     4000

 ion  position               nearest neighbor table
   1  0.617  0.500  0.769-   2 1.02   4 1.02   3 1.02  52 2.30
   2  0.554  0.500  0.800-   1 1.02
   3  0.676  0.428  0.772-   1 1.02
   4  0.676  0.572  0.772-   1 1.02
   5  0.813  0.833  0.229-  89 1.94  55 1.94  57 1.94  56 1.99  54 1.99
   6  0.597  0.667  0.264- 120 1.94  53 1.94  58 1.94  56 1.94  57 1.99  59 1.99
   7  0.313  0.667  0.229- 125 1.94  59 1.94  61 1.94  60 1.99  53 1.99
   8  0.097  0.833  0.264-  54 1.94  92 1.94  62 1.94  60 1.94  61 1.99  55 1.99
   9  0.950  0.833  0.372-  63 1.92  97 1.93  65 1.93  55 1.98  64 1.98  62 2.00
  10  0.732  0.666  0.404-  58 1.89 128 1.93  64 1.94  66 1.96  67 1.99  65 2.00
  11  0.450  0.666  0.371-  67 1.93 133 1.93  69 1.94  59 1.97  68 1.98  58 2.01
  12  0.231  0.833  0.404-  62 1.89 100 1.94  68 1.94  70 1.97  63 1.98  69 2.01
  13  0.091  0.833  0.514-  71 1.92 105 1.93  73 1.93  72 1.97  63 2.00  70 2.01
  14  0.870  0.666  0.542-  66 1.86 136 1.93  72 1.95  75 1.95  73 2.01  74 2.01
  15  0.590  0.666  0.513- 141 1.93  77 1.93  75 1.93  76 1.98  67 1.98  66 2.01
  16  0.369  0.833  0.543-  70 1.86 108 1.94  76 1.94  71 1.95  78 2.00  77 2.02
  17  0.237  0.833  0.659-  79 1.86  81 1.93 113 1.94  80 2.00  71 2.09  78 2.10  20 2.85
  18  0.006  0.666  0.682-  74 1.78  82 1.84 144 1.97  80 1.99  81 2.07  19 2.86
  19  0.735  0.667  0.657-  82 1.89 148 1.93  84 1.94  83 1.99  75 2.04  74 2.10  18 2.86
  20  0.508  0.835  0.681-  78 1.78  79 1.84  83 1.96 115 1.97  84 2.06  17 2.85
  21  0.813  0.167  0.229-  89 1.94  87 1.94 121 1.94  88 1.99  86 1.99
  22  0.597  0.000  0.264-  85 1.94  56 1.94  88 1.94  90 1.94  89 1.99  91 1.99
  23  0.313  0.000  0.229-  61 1.94  93 1.94  91 1.94  92 1.99  85 1.99
  24  0.097  0.167  0.264-  86 1.94  92 1.94  94 1.94 124 1.94  93 1.99  87 1.99
  25  0.950  0.167  0.372-  95 1.92  97 1.93 129 1.93  87 1.98  96 1.98  94 2.00
  26  0.731  1.000  0.404-  90 1.89  64 1.94  96 1.94  98 1.97  99 1.98  97 2.00
  27  0.450  0.000  0.372-  99 1.92 101 1.93  69 1.93  91 1.98 100 1.99  90 2.01
  28  0.231  0.167  0.404-  94 1.89 100 1.94 132 1.94 102 1.97  95 1.98 101 2.01
  29  0.091  0.167  0.514- 103 1.92 105 1.93 137 1.93 104 1.97  95 2.00 102 2.01
  30  0.869  0.000  0.543-  98 1.86 104 1.94  72 1.94 107 1.94 106 2.01 105 2.03
  31  0.590  1.000  0.514- 107 1.92  77 1.93 109 1.93 108 1.98  99 2.00  98 2.01
  32  0.369  0.167  0.543- 102 1.86 108 1.94 140 1.94 103 1.95 110 2.00 109 2.02
  33  0.237  0.167  0.659- 111 1.86 145 1.93 113 1.94 112 2.00 103 2.09 110 2.10  36 2.85
  34  0.009  1.000  0.682- 106 1.78 114 1.84  80 1.98 112 1.98 113 2.04  35 2.84
  35  0.738  1.000  0.659- 114 1.86  84 1.93 116 1.93 115 2.01 106 2.08 107 2.10  34 2.84
  36  0.508  0.165  0.681- 110 1.78 111 1.84 147 1.96 115 1.97 116 2.06  33 2.85
  37  0.813  0.500  0.229-  57 1.94 119 1.94 121 1.94 120 1.99 118 1.99
  38  0.597  0.333  0.264- 117 1.94 122 1.94 120 1.94  88 1.94 121 1.99 123 1.99
  39  0.313  0.333  0.229- 123 1.94  93 1.94 125 1.94 124 1.99 117 1.99
  40  0.097  0.500  0.264-  60 1.94 118 1.94 126 1.94 124 1.94 125 1.99 119 1.99
  41  0.952  0.500  0.371- 127 1.92  65 1.94 129 1.94 119 1.97 126 1.99 128 2.00
  42  0.732  0.334  0.404- 122 1.89 128 1.93  96 1.94 130 1.96 131 1.99 129 2.00
  43  0.450  0.334  0.371- 131 1.93 133 1.93 101 1.94 123 1.97 132 1.98 122 2.01
  44  0.231  0.500  0.405- 126 1.92  68 1.94 132 1.94 127 1.96 134 1.97 133 2.01
  45  0.094  0.500  0.514- 135 1.91 137 1.93  73 1.93 134 1.98 136 2.00 127 2.01
  46  0.870  0.334  0.542- 130 1.86 136 1.93 104 1.95 139 1.95 137 2.01 138 2.01
  47  0.590  0.334  0.513- 141 1.93 109 1.93 139 1.93 140 1.98 131 1.98 130 2.01
  48  0.371  0.500  0.547- 134 1.92  76 1.94 140 1.94 135 1.94 142 1.98 141 2.03
  49  0.240  0.500  0.660- 143 1.86 145 1.93  81 1.93 142 2.03 144 2.03 135 2.10  52 2.87
  50  0.006  0.334  0.682- 138 1.78 146 1.84 144 1.97 112 1.99 145 2.07  51 2.86
  51  0.735  0.333  0.657- 146 1.89 148 1.93 116 1.94 147 1.99 139 2.04 138 2.10  50 2.86
  52  0.512  0.500  0.688- 143 1.84 142 1.88  83 1.98 147 1.98 148 2.07   1 2.30  49 2.87
  53  0.494  0.667  0.200-   6 1.94   7 1.99
  54  0.994  0.833  0.200-   8 1.94   5 1.99
  55  0.917  0.833  0.294-   5 1.94   9 1.98   8 1.99
  56  0.633  0.833  0.258-  22 1.94   6 1.94   5 1.99
  57  0.778  0.667  0.235-  37 1.94   5 1.94   6 1.99
  58  0.630  0.667  0.340-  10 1.89   6 1.94  11 2.01
  59  0.417  0.667  0.294-   7 1.94  11 1.97   6 1.99
  60  0.133  0.667  0.258-  40 1.94   8 1.94   7 1.99
[...]
 134  0.270  0.500  0.482-  48 1.92  44 1.97  45 1.98
 135  0.197  0.500  0.578-  45 1.91  48 1.94  49 2.10
 136  0.909  0.500  0.540-  46 1.93  14 1.93  45 2.00
 137  0.056  0.333  0.517-  29 1.93  45 1.93  46 2.01
 138  0.919  0.333  0.620-  50 1.78  46 2.01  51 2.10
 139  0.699  0.332  0.576-  47 1.93  46 1.95  51 2.04
 140  0.409  0.333  0.541-  48 1.94  32 1.94  47 1.98
 141  0.555  0.500  0.518-  47 1.93  15 1.93  48 2.03
 142  0.417  0.500  0.624-  52 1.88  48 1.98  49 2.03
 143  0.350  0.500  0.719-  52 1.84  49 1.86
 144  0.057  0.500  0.691-  18 1.97  50 1.97  49 2.03
 145  0.200  0.334  0.660-  33 1.93  49 1.93  50 2.07
 146  0.848  0.336  0.716-  50 1.84  51 1.89
 147  0.558  0.331  0.689-  36 1.96  52 1.98  51 1.99
 148  0.698  0.500  0.657-  19 1.93  51 1.93  52 2.07

IMPORTANT INFORMATION: All symmetrisations will be switched off!
NOSYMM: (Re-)initialisation of all symmetry stuff for point group C_1.

                                     Primitive cell

  volume of cell :    2920.0096

  direct lattice vectors                    reciprocal lattice vectors
    10.273755933  0.000000000  0.000000000     0.097335386 -0.000000000  0.000000000
     0.000000000 11.368810418  0.000000000     0.000000000  0.087959950  0.000000000
     0.000000000  0.000000000 25.000000000     0.000000000  0.000000000  0.040000000

  length of vectors
    10.273755933 11.368810418 25.000000000     0.097335386  0.087959950  0.040000000

  position of ions in fractional coordinates (direct lattice)
     0.617314130  0.499999991  0.768800748
     0.554461951  0.499999990  0.800399715
     0.676411270  0.427964670  0.771865561
     0.676411265  0.572035311  0.771865560
     0.813287731  0.833333334  0.229019326
     0.597302620  0.666666667  0.264243083
     0.313287731  0.666666667  0.229019326
     0.097302620  0.833333334  0.264243083
     0.949951511  0.833365554  0.371561342
     0.731670001  0.666242110  0.403517730
     0.449501935  0.666435021  0.371432058
     0.230826968  0.833291647  0.403876606
     0.090689183  0.833458158  0.514084884
     0.870018681  0.666049809  0.542303570
     0.589612626  0.666489594  0.513264750
     0.368860989  0.833396839  0.543291790
     0.236508386  0.832650555  0.659396207
     0.006320531  0.665563878  0.681574537
     0.734980290  0.666506279  0.656534698
[...]
     0.000000000  0.000000000 25.000000000     0.000000000  0.000000000  0.040000000

  length of vectors
    10.273755933 11.368810418 25.000000000     0.097335386  0.087959950  0.040000000

 FORCES acting on ions
    electron-ion (+dipol)            ewald-force                    non-local-force                 convergence-correction
   -.232E+02 -.322E-05 -.164E+04   0.130E+02 0.187E-05 0.162E+04   0.100E+02 0.992E-06 0.195E+02   -.528E-06 0.399E-06 0.151E-03
   0.424E+02 -.397E-06 -.337E+03   -.473E+02 0.299E-06 0.343E+03   0.476E+01 0.575E-07 -.556E+01   0.179E-04 0.527E-07 -.864E-04
   -.427E+02 0.549E+02 -.329E+03   0.472E+02 -.609E+02 0.329E+03   -.437E+01 0.589E+01 -.383E+00   -.264E-05 0.882E-05 -.559E-05
   -.427E+02 -.549E+02 -.329E+03   0.472E+02 0.609E+02 0.329E+03   -.437E+01 -.589E+01 -.383E+00   -.269E-05 -.873E-05 -.565E-05
   0.137E+01 -.244E+00 0.388E+04   0.473E+01 0.245E+00 -.388E+04   -.228E+01 -.299E-03 -.483E+01   -.545E-04 -.240E-04 0.829E-03
   0.909E+01 -.266E+00 0.319E+04   -.108E+02 0.268E+00 -.319E+04   0.404E-01 -.901E-03 0.271E+00   0.122E-03 -.825E-05 0.802E-03
   0.151E+01 0.188E-01 0.388E+04   0.455E+01 -.234E-01 -.387E+04   -.227E+01 0.161E-02 -.483E+01   -.315E-04 -.112E-04 0.777E-03
   0.740E+01 -.256E-01 0.319E+04   -.913E+01 0.177E-01 -.319E+04   0.533E-01 0.228E-02 0.266E+00   0.124E-03 -.999E-05 0.838E-03
   -.381E+00 0.427E-01 0.145E+04   0.231E+00 -.353E-01 -.145E+04   0.153E+00 -.768E-02 -.180E+00   -.340E-04 0.120E-05 0.701E-03
   0.549E+00 -.162E+01 0.916E+03   -.669E+00 0.156E+01 -.916E+03   0.143E+00 0.575E-01 0.159E+00   -.172E-05 -.772E-06 0.727E-03
   0.160E+01 -.334E+00 0.145E+04   -.176E+01 0.303E+00 -.145E+04   0.173E+00 0.357E-01 -.165E+00   -.371E-04 0.125E-04 0.718E-03
   -.678E+01 0.277E+00 0.908E+03   0.657E+01 -.279E+00 -.908E+03   0.200E+00 0.294E-02 0.137E+00   -.533E-05 0.723E-05 0.721E-03
   -.558E+01 -.289E+01 -.903E+03   0.525E+01 0.289E+01 0.903E+03   0.309E+00 -.969E-02 -.198E+00   0.271E-05 0.958E-05 0.848E-03
   -.138E+02 -.588E+01 -.136E+04   0.134E+02 0.582E+01 0.136E+04   0.464E+00 0.551E-01 0.315E+00   -.241E-05 0.486E-05 0.939E-03
   0.221E+01 -.179E+01 -.874E+03   -.255E+01 0.178E+01 0.874E+03   0.345E+00 0.660E-02 -.127E+00   0.230E-04 0.142E-04 0.840E-03
   -.289E+01 -.922E+00 -.138E+04   0.247E+01 0.943E+00 0.138E+04   0.458E+00 -.237E-01 0.195E+00   0.814E-05 0.166E-04 0.950E-03
   0.356E+02 -.129E+02 -.321E+04   -.365E+02 0.129E+02 0.321E+04   0.912E+00 0.588E-01 -.957E+00   -.934E-04 0.230E-04 0.108E-02
   -.106E+03 -.258E+02 -.366E+04   0.104E+03 0.256E+02 0.366E+04   0.187E+01 0.190E+00 0.207E+01   0.150E-03 -.469E-04 0.109E-02
   -.107E+02 -.481E+02 -.311E+04   0.975E+01 0.481E+02 0.311E+04   0.994E+00 0.206E-01 -.660E+00   -.662E-04 -.310E-04 0.111E-02
   -.747E+02 -.408E+02 -.365E+04   0.727E+02 0.407E+02 0.365E+04   0.194E+01 0.625E-01 0.201E+01   0.162E-03 0.479E-04 0.106E-02
   0.137E+01 0.244E+00 0.388E+04   0.473E+01 -.245E+00 -.388E+04   -.228E+01 0.300E-03 -.483E+01   -.501E-04 0.153E-04 0.821E-03
   0.904E+01 -.451E-05 0.319E+04   -.107E+02 0.733E-05 -.319E+04   0.479E-01 0.138E-06 0.266E+00   0.105E-03 -.277E-05 0.847E-03
   0.136E+01 0.454E-05 0.388E+04   0.472E+01 0.411E-05 -.387E+04   -.227E+01 -.368E-07 -.483E+01   -.296E-04 -.921E-05 0.837E-03
   0.740E+01 0.256E-01 0.319E+04   -.913E+01 -.177E-01 -.319E+04   0.533E-01 -.228E-02 0.266E+00   0.115E-03 0.920E-05 0.842E-03
   -.381E+00 -.427E-01 0.145E+04   0.231E+00 0.353E-01 -.145E+04   0.153E+00 0.768E-02 -.180E+00   -.373E-04 -.113E-05 0.704E-03
   -.228E+01 -.485E-04 0.912E+03   0.208E+01 0.495E-04 -.912E+03   0.218E+00 0.354E-06 0.162E+00   -.121E-05 -.128E-06 0.732E-03
   0.162E+01 -.271E-04 0.145E+04   -.176E+01 0.266E-04 -.145E+04   0.154E+00 -.122E-06 -.201E+00   -.430E-04 -.174E-06 0.732E-03
   -.678E+01 -.277E+00 0.908E+03   0.657E+01 0.279E+00 -.908E+03   0.200E+00 -.294E-02 0.137E+00   -.359E-05 -.735E-05 0.722E-03
   -.558E+01 0.289E+01 -.903E+03   0.525E+01 -.289E+01 0.903E+03   0.309E+00 0.969E-02 -.198E+00   0.437E-05 -.992E-05 0.850E-03
   -.135E+02 -.363E-04 -.138E+04   0.130E+02 0.377E-04 0.138E+04   0.564E+00 -.177E-05 0.254E+00   0.205E-05 -.363E-06 0.942E-03
   -.286E+01 -.797E-04 -.892E+03   0.252E+01 0.812E-04 0.893E+03   0.342E+00 0.391E-06 -.104E+00   0.105E-04 -.165E-07 0.849E-03
   -.289E+01 0.922E+00 -.138E+04   0.247E+01 -.943E+00 0.138E+04   0.458E+00 0.237E-01 0.195E+00   0.639E-05 -.167E-04 0.951E-03
   0.356E+02 0.129E+02 -.321E+04   -.365E+02 -.129E+02 0.321E+04   0.912E+00 -.588E-01 -.957E+00   -.102E-03 -.240E-04 0.108E-02
   -.919E+02 -.213E-04 -.368E+04   0.900E+02 0.137E-04 0.368E+04   0.183E+01 0.236E-05 0.207E+01   0.181E-03 0.883E-05 0.105E-02
   0.157E+02 -.250E-04 -.320E+04   -.165E+02 0.261E-04 0.320E+04   0.812E+00 0.736E-06 -.950E+00   -.999E-04 0.893E-06 0.106E-02
   -.747E+02 0.408E+02 -.365E+04   0.727E+02 -.407E+02 0.365E+04   0.194E+01 -.625E-01 0.201E+01   0.162E-03 -.513E-04 0.106E-02
   0.140E+01 0.209E-05 0.388E+04   0.471E+01 -.998E-05 -.388E+04   -.228E+01 -.242E-06 -.483E+01   -.479E-04 0.834E-05 0.763E-03
   0.909E+01 0.266E+00 0.319E+04   -.108E+02 -.268E+00 -.319E+04   0.404E-01 0.901E-03 0.271E+00   0.115E-03 0.110E-04 0.800E-03
   0.151E+01 -.188E-01 0.388E+04   0.455E+01 0.234E-01 -.387E+04   -.227E+01 -.161E-02 -.483E+01   -.236E-04 0.205E-04 0.775E-03
   0.605E+01 0.142E-04 0.319E+04   -.772E+01 -.149E-04 -.319E+04   0.301E-01 0.346E-06 0.256E+00   0.111E-03 0.469E-06 0.798E-03
   0.319E+01 0.548E-04 0.145E+04   -.322E+01 -.559E-04 -.145E+04   0.219E-01 -.130E-05 -.993E-01   -.607E-04 0.107E-07 0.725E-03
   0.550E+00 0.162E+01 0.916E+03   -.669E+00 -.156E+01 -.916E+03   0.143E+00 -.575E-01 0.159E+00   0.860E-06 0.895E-06 0.728E-03
   0.160E+01 0.334E+00 0.145E+04   -.176E+01 -.303E+00 -.145E+04   0.173E+00 -.357E-01 -.165E+00   -.395E-04 -.124E-04 0.718E-03
   -.118E+02 0.447E-04 0.888E+03   0.116E+02 -.453E-04 -.888E+03   0.238E+00 -.264E-06 0.354E-01   0.181E-05 0.708E-07 0.740E-03
   0.349E-01 0.298E-04 -.905E+03   -.443E-01 -.328E-04 0.906E+03   0.336E-02 0.664E-06 -.212E+00   -.102E-04 0.268E-06 0.839E-03
   -.138E+02 0.588E+01 -.136E+04   0.134E+02 -.582E+01 0.136E+04   0.464E+00 -.551E-01 0.315E+00   -.262E-05 -.450E-05 0.938E-03
   0.221E+01 0.179E+01 -.874E+03   -.255E+01 -.178E+01 0.874E+03   0.345E+00 -.660E-02 -.127E+00   0.235E-04 -.142E-04 0.841E-03
   -.395E+01 0.578E-04 -.143E+04   0.367E+01 -.610E-04 0.143E+04   0.322E+00 -.117E-05 -.447E-01   0.696E-05 0.273E-06 0.919E-03
   0.606E+02 -.220E-04 -.320E+04   -.609E+02 0.175E-04 0.320E+04   0.343E+00 0.188E-05 -.796E+00   -.145E-03 0.810E-06 0.110E-02
   -.106E+03 0.258E+02 -.366E+04   0.104E+03 -.256E+02 0.366E+04   0.187E+01 -.190E+00 0.207E+01   0.154E-03 0.381E-04 0.110E-02
   -.107E+02 0.481E+02 -.311E+04   0.975E+01 -.481E+02 0.311E+04   0.994E+00 -.206E-01 -.660E+00   -.637E-04 0.304E-04 0.111E-02
   0.126E+02 0.172E-04 -.359E+04   -.135E+02 -.210E-04 0.359E+04   0.860E+00 -.430E-06 0.183E+00   0.180E-03 0.350E-05 0.106E-02
   -.400E+02 -.171E+00 0.221E+04   0.453E+02 0.173E+00 -.222E+04   -.713E+01 -.183E-02 0.165E+02   -.729E-04 -.202E-04 0.151E-03
   -.404E+02 -.164E+00 0.221E+04   0.458E+02 0.163E+00 -.222E+04   -.712E+01 0.124E-02 0.165E+02   -.677E-05 -.202E-04 0.192E-03
   0.947E+02 -.532E-02 0.132E+04   -.986E+02 0.360E-02 -.131E+04   0.296E+01 0.903E-03 -.476E+01   -.781E-04 -.501E-05 0.414E-03
   0.893E+02 -.703E-01 0.161E+04   -.963E+02 0.722E-01 -.161E+04   0.741E+01 -.316E-02 -.263E+01   0.421E-04 -.197E-04 0.408E-03
   -.101E+03 -.133E+00 0.186E+04   0.108E+03 0.131E+00 -.186E+04   -.701E+01 0.304E-02 -.616E+00   0.700E-04 -.109E-03 0.344E-03
   -.797E+02 -.878E+00 0.102E+04   0.855E+02 0.926E+00 -.103E+04   -.591E+01 -.451E-01 0.422E+01   0.623E-04 -.406E-06 0.427E-03
   0.955E+02 0.651E-01 0.132E+04   -.994E+02 -.456E-01 -.131E+04   0.294E+01 -.210E-01 -.465E+01   -.132E-03 0.295E-05 0.352E-03
   0.883E+02 0.514E-01 0.161E+04   -.953E+02 -.623E-01 -.160E+04   0.743E+01 0.227E-01 -.266E+01   0.926E-04 0.259E-04 0.382E-03
[...]
   0.101E+03 0.189E-04 -.106E+04   -.108E+03 -.206E-04 0.106E+04   0.677E+01 0.212E-05 -.669E+01   -.233E-04 0.529E-08 0.561E-03
   0.824E+02 -.112E-04 -.696E+03   -.883E+02 0.117E-04 0.699E+03   0.597E+01 0.105E-05 -.297E+01   -.595E-05 -.842E-07 0.463E-03
   -.939E+02 0.549E+00 -.434E+03   0.100E+03 -.603E+00 0.431E+03   -.638E+01 0.526E-01 0.276E+01   -.128E-04 0.661E-06 0.423E-03
   -.725E+02 0.104E+02 -.121E+04   0.755E+02 -.107E+02 0.120E+04   -.313E+01 0.318E+00 0.884E+01   0.201E-04 0.622E-06 0.653E-03
   0.940E+02 0.924E+01 -.102E+04   -.100E+03 -.949E+01 0.103E+04   0.623E+01 0.255E+00 -.519E+01   0.183E-04 -.348E-05 0.571E-03
   0.927E+02 0.929E+00 -.711E+03   -.990E+02 -.945E+00 0.714E+03   0.633E+01 0.132E-01 -.321E+01   0.179E-05 -.302E-04 0.457E-03
   -.848E+02 -.210E-04 -.438E+03   0.910E+02 0.201E-04 0.436E+03   -.616E+01 0.341E-05 0.246E+01   0.138E-04 0.399E-06 0.414E-03
   -.728E+02 -.121E-04 -.124E+04   0.788E+02 0.126E-04 0.123E+04   -.612E+01 -.910E-06 0.576E+01   0.484E-04 0.254E-06 0.664E-03
   0.121E+03 -.996E-05 -.221E+04   -.126E+03 0.848E-05 0.223E+04   0.514E+01 0.130E-05 -.187E+02   0.825E-04 0.371E-06 0.501E-03
   0.538E+02 -.865E-05 -.194E+04   -.574E+02 0.809E-05 0.195E+04   0.359E+01 -.243E-06 -.725E+01   -.421E-04 0.679E-06 0.588E-03
   -.591E+02 0.624E+01 -.158E+04   0.642E+02 -.618E+01 0.157E+04   -.514E+01 -.629E-01 0.307E+01   -.581E-04 -.510E-04 0.633E-03
   0.234E+02 0.306E+02 -.221E+04   -.281E+02 -.305E+02 0.223E+04   0.469E+01 -.843E-01 -.180E+02   0.258E-04 0.213E-04 0.486E-03
   0.887E+02 0.460E+02 -.188E+04   -.937E+02 -.456E+02 0.189E+04   0.497E+01 -.372E+00 -.624E+01   0.117E-04 0.358E-04 0.583E-03
   -.780E+02 -.379E-05 -.149E+04   0.826E+02 0.139E-05 0.148E+04   -.470E+01 0.230E-05 0.425E+01   -.398E-04 0.860E-06 0.646E-03
   -.152E+01 -.408E-04 0.547E+02   -.284E-13 -.469E-12 -.121E-10   0.158E+01 0.341E-04 -.545E+02   0.681E-03 -.343E-06 0.842E-01

 POSITION                                       TOTAL-FORCE (eV/Angst)
      6.34213      5.68441     19.22002        -0.130526      0.000000     -0.132464
      5.69641      5.68441     20.00999        -0.098055      0.000000      0.095628
      6.94928      4.86545     19.29664         0.101331     -0.141657      0.000453
      6.94928      6.50336     19.29664         0.101332      0.141658      0.000453
      8.35552      9.47401      5.72548         3.815601      0.000708      1.682051
      6.13654      7.57921      6.60608        -1.644711      0.000609     -1.986778
      3.21864      7.57921      5.72548         3.786929     -0.003050      1.668883
      0.99966      9.47401      6.60608        -1.674062     -0.005709     -1.991665
      9.75957      9.47437      9.28903         0.002030     -0.000260     -0.018444
      7.51700      7.57438     10.08794         0.023637      0.000213      0.023055
      4.61807      7.57657      9.28580         0.015145      0.004517     -0.003339
      2.37146      9.47353     10.09692        -0.009883      0.001465      0.011217
      0.93172      9.47543     12.85212        -0.013868     -0.005421     -0.018011
      8.93836      7.57219     13.55759         0.037293     -0.005587      0.063708
      6.05754      7.57719     12.83162         0.006492     -0.005949     -0.018310
      3.78959      9.47473     13.58229         0.037351     -0.002610      0.026958
      2.42983      9.46625     16.48491         0.028977      0.001973      0.072451
      0.06494      7.56667     17.03936         0.006863     -0.004855      0.073995
      7.55101      7.57738     16.41337         0.033489      0.024372      0.076308
      5.22381      9.48941     17.03324        -0.015987      0.001903      0.067397
      8.35552      1.89480      5.72548         3.815596     -0.000708      1.682052
      6.13654      0.00000      6.60608        -1.660147      0.000000     -1.990187
      3.21864      0.00000      5.72548         3.805746     -0.000001      1.675018
      0.99966      1.89480      6.60608        -1.674068      0.005710     -1.991670
      9.75957      1.89444      9.28903         0.002031      0.000260     -0.018444
      7.51265     11.36881     10.09039         0.012682      0.000001      0.030790
      4.61992      0.00000      9.28852         0.015336     -0.000001     -0.017136
      2.37146      1.89528     10.09692        -0.009885     -0.001465      0.011217
      0.93172      1.89338     12.85212        -0.013872      0.005421     -0.018010
      8.92628      0.00000     13.57148         0.036689     -0.000001      0.021953
      6.06404     11.36881     12.84173        -0.005365      0.000002     -0.001767
      3.78959      1.89408     13.58229         0.037353      0.002611      0.026958
      2.42983      1.90256     16.48491         0.028976     -0.001968      0.072450
      0.08924     11.36881     17.04068        -0.010353      0.000004      0.088759
      7.58388     11.36881     16.46961         0.025965      0.000003      0.058999
      5.22381      1.87940     17.03324        -0.015985     -0.001901      0.067401
      8.35552      5.68441      5.72548         3.828566      0.000000      1.680607
      6.13654      3.78960      6.60608        -1.644712     -0.000610     -1.986777
      3.21864      3.78960      5.72548         3.786926      0.003051      1.668878
      0.99966      5.68441      6.60608        -1.645982      0.000000     -1.920701
      9.77592      5.68441      9.28385        -0.005101     -0.000002     -0.022077
      7.51700      3.79443     10.08794         0.023635     -0.000215      0.023054
      4.61807      3.79224      9.28580         0.015146     -0.004517     -0.003337
      2.37498      5.68441     10.12668         0.020008     -0.000001     -0.020084
      0.96349      5.68441     12.85884        -0.006423     -0.000002     -0.056112
      8.93836      3.79662     13.55759         0.037294      0.005585      0.063702
      6.05754      3.79162     12.83162         0.006490      0.005947     -0.018309
      3.80876      5.68441     13.66891         0.032467     -0.000004      0.042907
      2.46966      5.68441     16.50312         0.027911     -0.000002      0.063649
      0.06494      3.80214     17.03936         0.006866      0.004856      0.073986
      7.55101      3.79143     16.41337         0.033486     -0.024372      0.076303
      5.25517      5.68441     17.19821         0.039807     -0.000001      0.152001
      5.07194      7.57921      4.99001        -1.799492     -0.000148      1.088084
     10.20882      9.47401      4.99001        -1.796499      0.000325      1.085785
      9.42012      9.47401      7.34155        -0.945819     -0.000821     -0.199984
      6.50222      9.47401      6.46096         0.411544     -0.001326     -0.075117
      7.98984      7.57921      5.87060         0.206439      0.001126     -1.042215
      6.46979      7.57921      8.51238        -0.118553      0.002637      0.431399
      4.28324      7.57921      7.34155        -0.951150     -0.001490     -0.186760
      1.36534      7.57921      6.46096         0.422118      0.011833     -0.083290
[...]
      2.77424      5.68441     12.05627        -0.033492      0.000000     -0.003635
      2.02691      5.68441     14.44776         0.042627      0.000000      0.021929
      9.33808      5.68441     13.49704         0.046517      0.000002     -0.006208
      0.57450      3.79142     12.92875        -0.041847     -0.000683     -0.001009
      9.43956      3.78626     15.50614        -0.072123      0.005727      0.010988
      7.17961      3.77877     14.40526         0.033072      0.005044      0.016609
      4.20634      3.79019     13.53304         0.042217     -0.002913     -0.012726
      5.70520      5.68441     12.95031        -0.045832      0.000003      0.012097
      4.28726      5.68441     15.59184        -0.066943     -0.000000     -0.000568
      3.59586      5.68441     17.98291         0.029462      0.000000     -0.114602
      0.58811      5.68441     17.27820         0.043455     -0.000000     -0.027054
      2.05851      3.79374     16.49565        -0.076374      0.001898      0.025213
      8.71298      3.82129     17.89773         0.062279     -0.005840     -0.121462
      5.73708      3.76119     17.23361         0.046041     -0.014096     -0.023026
      7.17537      5.68441     16.41854        -0.066932      0.000001      0.026442
    total drift:                                0.062061     -0.000007      0.328700

  FREE ENERGIE OF THE ION-ELECTRON SYSTEM (eV)
  free  energy   TOTEN  =     -1053.17621578 eV

  energy  without entropy=    -1053.17621578  energy(sigma->0) =    -1053.17621578