 vasp.6.4.2 20Jul23 (build Feb 22 2024 13:53:45) complex
 executed on              LinuxNV date 2024.08.28  19:40:13
 OpenACC runtime initialized ...    4 GPUs detected

 INCAR:
   SYSTEM = Oxide-Surface
   ISMEAR = 0
   SIGMA = 0.05
   EDIFF = 1E-5
   ALGO = Normal
   IBRION = -1
   NSW = 0
   ISYM = 0
   DIPOL = 0.5 0.5 0.5
   IDIPOL = 3
   LDIPOL = .TRUE.
   ISTART = 1
   METAGGA = SCAN
   LUSE_VDW = .TRUE.
   BPARAM = 15.7
   CPARAM = 0.0093
   ENCUT = 1000
   PREC = Normal
   PRECFOCK = Normal
   LASPH = .TRUE.
   LREAL = Auto
   ISPIN = 1
   NELM = 200
   NELMIN = 8
   NCORE = 1
   KPAR = 1
   LWAVE = .FALSE.
   LCHARG = .FALSE.

 POTCAR:    PAW_PBE C_h 06Feb2004
 POTCAR:    PAW_PBE O_h 06Feb2004
 POTCAR:    PAW_PBE Ti_sv 26Sep2005
 POTCAR:    PAW_PBE O_h 06Feb2004
|               ----> ADVICE to this user running VASP <----                  |
|     You have switched on vdW-DFT.                                           |
|     This routine was written and supplied by Jiri Klimes. We recommend      |
|     that you carefully read and cite the following publications:            |
|       J. Klimes, D.R. Bowler, A. Michelides                                 |
|          J. Phys.: Cond Matt. 22 022201 (2010)                              |
|       J. Klimes, D.R. Bowler, A. Michelides                                 |
|          Phys. Rev. B. 83, 195131 (2011)                                    |
|     and references therein.                                                 |

   TITEL  = PAW_PBE C_h 06Feb2004
   POMASS =   12.011; ZVAL   =    4.000    mass and valenz
   ENMAX  =  700.000; ENMIN  =  500.000 eV

[...]

   TITEL  = PAW_PBE Ti_sv 26Sep2005
   POMASS =   47.880; ZVAL   =   12.000    mass and valenz
   ENMAX  =  274.610; ENMIN  =  205.957 eV

   TITEL  = PAW_PBE O_h 06Feb2004
   POMASS =   16.000; ZVAL   =    6.000    mass and valenz
   ENMAX  =  700.000; ENMIN  =  500.000 eV

 Optimization of the real space projectors (new method)

 maximal supplied QI-value         = 34.20
 optimisation between [QCUT,QGAM] = [ 16.08, 32.15] = [ 72.37,289.48] Ry
 Optimized for a Real-space Cutoff    0.71 Angstroem

   l    n(q)    QCUT    max X(q) W(low)/X(q) W(high)/X(q)  e(spline)
   0      7    16.076   134.812    0.49E-03    0.92E-03    0.59E-07
   0      7    16.076    80.524    0.48E-03    0.91E-03    0.58E-07
   1      6    16.076    79.026    0.37E-03    0.58E-03    0.12E-06
   1      6    16.076    45.188    0.36E-03    0.56E-03    0.12E-06
 Optimization of the real space projectors (new method)

[...]

   l    n(q)    QCUT    max X(q) W(low)/X(q) W(high)/X(q)  e(spline)
   0     12    16.089    12.277    0.23E-04    0.54E-05    0.15E-06
   0     12    16.089    11.419    0.26E-04    0.82E-06    0.19E-06
   1     12    16.089     4.010    0.40E-04    0.12E-04    0.58E-06
   1     12    16.089     6.182    0.55E-05    0.28E-04    0.27E-06
   2     11    16.089    47.177    0.17E-03    0.26E-03    0.90E-06
   2     11    16.089    42.437    0.17E-03    0.25E-03    0.88E-06
 Optimization of the real space projectors (new method)

 maximal supplied QI-value         = 34.20
 optimisation between [QCUT,QGAM] = [ 16.08, 32.15] = [ 72.37,289.48] Ry
 Optimized for a Real-space Cutoff    0.71 Angstroem

   l    n(q)    QCUT    max X(q) W(low)/X(q) W(high)/X(q)  e(spline)
   0      7    16.076   280.207    0.42E-03    0.69E-03    0.60E-07
   0      7    16.076   228.978    0.42E-03    0.69E-03    0.61E-07
   1      6    16.076    86.127    0.11E-03    0.66E-03    0.10E-06
   1      6    16.076    65.368    0.11E-03    0.65E-03    0.10E-06
  PAW_PBE C_h 06Feb2004                 :
  PAW_PBE O_h 06Feb2004                 :
  PAW_PBE Ti_sv 26Sep2005               :
  PAW_PBE O_h 06Feb2004                 :

 POSCAR:  C  O Ti  O
  positions in direct lattice

 METAGGA = SCAN                                        LMAXTAU =  6    LMIXTAU =  F

 ion  position               nearest neighbor table
   1  0.500  0.610  0.837-   2 1.18   3 1.18
   2  0.500  0.709  0.844-   1 1.18
   3  0.500  0.512  0.829-   1 1.18
   4  0.750  0.625  0.207-  85 1.95 145 1.95 144 1.95  84 1.95  87 1.98 166 1.98
   5  0.000  0.750  0.207-  87 1.95 107 1.95 106 1.95  86 1.95  88 1.98
   6  0.000  0.625  0.337-  88 1.95 148 1.95  89 1.95 149 1.95  90 1.98  91 1.98
   7  0.750  0.750  0.337-  90 1.95 110 1.95 171 1.95 191 1.95  85 1.98  92 1.98
   8  0.750  0.625  0.467-  92 1.95  93 1.95 152 1.95 153 1.95  95 1.98 174 1.98
   9  0.000  0.750  0.467-  95 1.95 115 1.95 114 1.95  94 1.95  89 1.98  96 2.00
  10  1.000  0.625  0.594-  96 1.89 156 1.90  98 1.95  99 1.95  97 2.02 157 2.02
  11  0.750  0.750  0.603- 100 1.86 199 1.97 179 1.97 118 1.97  98 1.97  93 2.11
  12  0.750  0.625  0.736- 101 1.83 161 1.84 182 2.03 103 2.03 100 2.10 160 2.10
  13  0.000  0.750  0.722-  97 1.81 122 1.95 123 1.95 102 1.95 103 1.95
  14  0.750  0.875  0.207-  85 1.95 105 1.95 104 1.95  84 1.95 107 1.98 186 1.98
  15  0.000  0.000  0.207- 107 1.95 127 1.95 126 1.95 106 1.95 108 1.98
  16  0.000  0.875  0.337-  88 1.95 108 1.95  89 1.95 109 1.95 110 1.98 111 1.98
  17  0.750  0.000  0.337- 110 1.95 130 1.95 191 1.95 211 1.95 105 1.98 112 1.98
  18  0.750  0.875  0.467-  92 1.95  93 1.95 112 1.95 113 1.95 115 1.98 194 1.98
  19  0.000  0.000  0.467- 115 1.95 135 1.95 134 1.95 114 1.95 109 1.98 116 2.00
  20  1.000  0.875  0.595-  96 1.89 116 1.89 118 1.95 119 1.95 117 2.02  97 2.02
  21  0.750  0.000  0.603- 120 1.86 219 1.97 199 1.97 138 1.97 118 1.97 113 2.11
  22  0.750  0.875  0.737- 121 1.83 101 1.83 202 2.03 123 2.03 120 2.10 100 2.10
  23  1.000  1.000  0.722- 117 1.81 143 1.95 142 1.95 123 1.95 122 1.95
  24  0.750  0.125  0.207- 105 1.95 125 1.95 124 1.95 104 1.95 127 1.98 206 1.98
  25  0.000  0.250  0.207- 127 1.95 147 1.95 146 1.95 126 1.95 128 1.98
  26  0.000  0.125  0.337- 108 1.95 128 1.95 109 1.95 129 1.95 130 1.98 131 1.98
  27  0.750  0.250  0.337- 130 1.95 150 1.95 211 1.95 231 1.95 125 1.98 132 1.98
  28  0.750  0.125  0.467- 112 1.95 113 1.95 132 1.95 133 1.95 135 1.98 214 1.98
  29  0.000  0.250  0.467- 135 1.95 155 1.95 154 1.95 134 1.95 129 1.98 136 2.00
  30  0.000  0.125  0.595- 116 1.89 136 1.89 139 1.95 138 1.95 117 2.02 137 2.02
  31  0.750  0.250  0.603- 140 1.86 219 1.97 239 1.97 138 1.97 158 1.97 133 2.11
  32  0.750  0.125  0.737- 121 1.83 141 1.83 222 2.03 143 2.03 140 2.10 120 2.10
  33  0.000  0.250  0.722- 137 1.81 142 1.95 143 1.95 162 1.95 163 1.95
  34  0.750  0.375  0.207- 125 1.95 145 1.95 144 1.95 124 1.95 147 1.98 226 1.98
  35  0.000  0.500  0.207-  87 1.95 147 1.95 146 1.95  86 1.95 148 1.98
  36  0.000  0.375  0.337- 128 1.95 148 1.95 129 1.95 149 1.95 150 1.98 151 1.98
  37  0.750  0.500  0.337-  90 1.95 150 1.95 171 1.95 231 1.95 145 1.98 152 1.98
  38  0.750  0.375  0.467- 132 1.95 133 1.95 152 1.95 153 1.95 155 1.98 234 1.98
  39  0.000  0.500  0.467-  95 1.95 155 1.95 154 1.95  94 1.95 149 1.98 156 2.00
  40  0.000  0.375  0.594- 136 1.89 156 1.89 159 1.95 158 1.95 137 2.02 157 2.02
  41  0.750  0.500  0.603- 160 1.86 239 1.97 179 1.97 158 1.97  98 1.97 153 2.11
  42  0.750  0.375  0.737- 141 1.83 161 1.83 242 2.03 163 2.03 160 2.10 140 2.10
  43  1.000  0.500  0.722- 157 1.81 163 1.95 162 1.95 103 1.95 102 1.95
  44  0.250  0.625  0.207- 165 1.95 225 1.95 224 1.95 164 1.95  86 1.98 167 1.98
  45  0.500  0.750  0.207- 166 1.95 167 1.95 186 1.95 187 1.95 168 1.98
  46  0.500  0.625  0.337- 168 1.95 228 1.95 169 1.95 229 1.95 171 1.98 170 1.98
  47  0.250  0.750  0.337-  91 1.95 111 1.95 170 1.95 190 1.95 165 1.98 172 1.98
  48  0.250  0.625  0.467- 172 1.95 173 1.95 232 1.95 233 1.95  94 1.98 175 1.98
  49  0.500  0.750  0.467- 174 1.95 175 1.95 194 1.95 195 1.95 169 1.98 176 2.00
  50  0.500  0.625  0.595- 236 1.90 176 1.90 178 1.95 179 1.95 177 2.01 237 2.01
  51  0.250  0.750  0.603- 180 1.86 198 1.97 178 1.97 119 1.97  99 1.97 173 2.11
  52  0.250  0.625  0.736- 181 1.83 241 1.84 183 2.03 102 2.03 180 2.10 240 2.10
  53  0.500  0.751  0.721- 177 1.81 202 1.94 203 1.94 182 1.95 183 1.95
  54  0.250  0.875  0.207- 165 1.95 185 1.95 184 1.95 164 1.95 106 1.98 187 1.98
  55  0.500  0.000  0.207- 186 1.95 187 1.95 206 1.95 207 1.95 188 1.98
  56  0.500  0.875  0.337- 168 1.95 188 1.95 169 1.95 189 1.95 191 1.98 190 1.98
  57  0.250  0.000  0.337- 111 1.95 131 1.95 190 1.95 210 1.95 185 1.98 192 1.98
  58  0.250  0.875  0.467- 172 1.95 173 1.95 192 1.95 193 1.95 114 1.98 195 1.98
  59  0.500  0.000  0.467- 194 1.95 195 1.95 214 1.95 215 1.95 189 1.98 196 1.99
  60  0.500  0.875  0.594- 176 1.89 196 1.90 198 1.95 199 1.95 177 2.01 197 2.02
[...]
 229  0.500  0.500  0.388-  46 1.95  76 1.95  79 1.98
 230  0.348  0.375  0.337-  67 1.95  77 1.95  76 1.98
 231  0.652  0.375  0.337-  27 1.95  37 1.95  76 1.98
 232  0.250  0.500  0.416-  48 1.95  78 1.95  77 1.98
 233  0.250  0.500  0.518-  48 1.95  78 1.95  81 2.11
 234  0.598  0.375  0.467-  69 1.95  79 1.95  38 1.98
 235  0.402  0.375  0.467-  69 1.95  79 1.95  78 1.98
 236  0.500  0.500  0.547-  80 1.89  50 1.90  79 2.00
 237  0.500  0.500  0.650-  83 1.82  50 2.01  80 2.01
 238  0.350  0.375  0.598-  80 1.95  81 1.97  71 1.97
 239  0.650  0.375  0.598-  80 1.95  41 1.97  31 1.97
 240  0.249  0.500  0.677-  81 1.86  52 2.10  82 2.10
 241  0.251  0.500  0.780-  82 1.83  52 1.84
 242  0.594  0.374  0.734-  83 1.94  73 1.94  42 2.03
 243  0.406  0.374  0.734-  83 1.94  73 1.94  82 2.03

IMPORTANT INFORMATION: All symmetrisations will be switched off!
NOSYMM: (Re-)initialisation of all symmetry stuff for point group C_1.

                                     Primitive cell

  volume of cell :    3846.0501

  direct lattice vectors                    reciprocal lattice vectors
    13.003980404  0.000000000  0.000000000     0.076899531  0.000000000  0.000000000
     0.000000000 11.830378115  0.000000000     0.000000000  0.084528152  0.000000000
     0.000000000  0.000000000 25.000000000     0.000000000  0.000000000  0.040000000

  length of vectors
    13.003980404 11.830378115 25.000000000     0.076899531  0.084528152  0.040000000

  position of ions in fractional coordinates (direct lattice)
     0.499999661  0.610175892  0.837208440
     0.499999550  0.708568373  0.843818866
     0.499999787  0.511627540  0.829412707
     0.750000001  0.625007134  0.207156502
     0.000000001  0.750007134  0.207156502
     0.000000001  0.625007134  0.337196306
     0.750000001  0.750007134  0.337196306
     0.750000001  0.625007134  0.467236110
     0.000000001  0.750007134  0.467236110
     0.999999940  0.625019735  0.594495874
     0.750021777  0.750042649  0.602519744
     0.750003066  0.625106593  0.736329117
     0.000000017  0.750055336  0.721636960
     0.750000001  0.875007134  0.207156502
     0.000000001  0.000007134  0.207156502
     0.000000001  0.875007134  0.337196306
     0.750000001  0.000007134  0.337196306
     0.750000001  0.875007134  0.467236110
     0.000000001  0.000007134  0.467236110
     0.999999992  0.875016125  0.594511900
     0.749983713  0.000020009  0.602641880
     0.749876204  0.874999101  0.736742504
     0.999999990  0.999992866  0.721655188
     0.750000001  0.125007134  0.207156502
     0.000000001  0.250007134  0.207156502
[...]
     0.000000000  0.000000000 25.000000000     0.000000000  0.000000000  0.040000000

  length of vectors
    13.003980404 11.830378115 25.000000000     0.076899531  0.084528152  0.040000000

 FORCES acting on ions
    electron-ion (+dipol)            ewald-force                    non-local-force                 convergence-correction
   0.997E-02 0.415E+01 -.114E+04   0.864E-04 -.335E+01 0.114E+04   -.101E-01 -.603E+00 0.291E+00   -.786E-06 0.121E-04 -.257E-02
   0.515E-03 -.273E+03 -.166E+04   -.187E-03 0.335E+03 0.167E+04   -.117E-02 -.631E+02 -.104E+02   -.198E-05 -.679E-03 -.418E-02
   -.834E-04 0.270E+03 -.176E+04   0.578E-03 -.331E+03 0.175E+04   -.435E-03 0.620E+02 0.672E+01   0.273E-05 0.515E-03 -.378E-02
   -.302E+01 -.596E-01 0.366E+04   0.302E+01 0.609E-01 -.367E+04   -.697E-02 -.139E-02 0.123E+01   -.231E-03 0.538E-04 0.228E-02
   -.536E-02 -.810E+00 0.388E+04   -.623E-05 0.812E+00 -.388E+04   0.655E-02 -.145E-02 -.588E+01   0.112E-04 -.135E-03 0.261E-02
   0.714E-02 -.181E-01 0.188E+04   -.274E-05 0.181E-01 -.188E+04   -.992E-02 0.417E-02 -.213E+00   -.110E-04 -.548E-05 0.959E-03
   -.108E+01 -.345E+00 0.187E+04   0.107E+01 0.346E+00 -.187E+04   0.576E-02 0.363E-02 0.357E+00   0.308E-04 0.346E-04 0.770E-03
   -.257E+01 -.836E-02 -.200E+01   0.257E+01 0.745E-02 0.301E+01   -.758E-02 -.915E-03 -.303E+00   0.658E-04 0.181E-04 0.196E-02
   -.260E-02 -.907E+00 0.132E+02   0.128E-05 0.911E+00 -.145E+02   0.198E-02 -.256E-02 0.605E+00   0.714E-05 0.866E-04 0.159E-02
   0.407E-02 -.480E+00 -.181E+04   0.910E-04 0.481E+00 0.181E+04   -.366E-02 -.212E-02 0.807E+00   0.139E-04 0.223E-04 0.269E-02
   -.153E+02 -.675E+01 -.185E+04   0.153E+02 0.675E+01 0.185E+04   0.555E-02 -.555E-02 -.118E+01   0.106E-03 0.607E-04 0.188E-02
   -.102E+03 -.554E+01 -.355E+04   0.102E+03 0.555E+01 0.355E+04   0.170E-01 -.927E-02 -.167E+01   0.673E-04 0.255E-06 0.153E-02
   0.215E-02 -.904E+01 -.369E+04   -.196E-03 0.906E+01 0.369E+04   -.254E-02 -.246E-01 0.309E+01   0.705E-05 -.140E-03 0.376E-03
   -.266E+01 -.145E+01 0.366E+04   0.267E+01 0.146E+01 -.367E+04   -.652E-02 -.179E-02 0.123E+01   -.174E-03 -.246E-03 0.255E-02
   -.536E-02 -.733E+00 0.389E+04   -.519E-05 0.734E+00 -.388E+04   0.654E-02 -.129E-02 -.588E+01   0.106E-04 -.112E-03 0.294E-02
   0.713E-02 -.440E+00 0.188E+04   -.197E-05 0.441E+00 -.188E+04   -.993E-02 0.399E-02 -.213E+00   0.592E-06 0.840E-04 0.101E-02
   -.103E+01 -.339E+00 0.187E+04   0.102E+01 0.340E+00 -.187E+04   0.590E-02 0.372E-02 0.357E+00   0.407E-04 0.403E-05 0.888E-03
   -.264E+01 -.144E+01 -.345E+01   0.264E+01 0.146E+01 0.447E+01   -.833E-02 -.522E-02 -.307E+00   0.677E-04 0.955E-04 0.198E-02
   -.261E-02 -.775E+00 0.117E+02   0.213E-05 0.778E+00 -.130E+02   0.199E-02 -.216E-02 0.606E+00   0.110E-04 0.426E-04 0.158E-02
   0.427E-02 -.440E+01 -.181E+04   -.715E-04 0.440E+01 0.181E+04   -.367E-02 -.321E-02 0.808E+00   0.133E-04 0.484E-04 0.262E-02
   -.106E+02 -.484E+01 -.186E+04   0.106E+02 0.484E+01 0.186E+04   0.170E-01 0.374E-02 -.119E+01   0.103E-03 0.201E-04 0.180E-02
   -.552E+02 -.379E+02 -.359E+04   0.552E+02 0.379E+02 0.359E+04   0.211E-01 -.127E-01 -.174E+01   0.391E-04 -.227E-03 0.108E-02
   0.183E-02 -.696E+01 -.370E+04   -.495E-04 0.696E+01 0.369E+04   -.236E-02 -.476E-02 0.310E+01   -.238E-05 -.807E-04 0.534E-04
   -.234E+01 0.609E-01 0.367E+04   0.234E+01 -.618E-01 -.367E+04   -.636E-02 -.113E-02 0.123E+01   -.124E-03 0.508E-04 0.273E-02
   -.536E-02 0.805E+00 0.389E+04   -.504E-05 -.808E+00 -.388E+04   0.654E-02 -.683E-03 -.588E+01   0.142E-04 0.122E-03 0.287E-02
   0.712E-02 0.177E-01 0.188E+04   -.126E-05 -.180E-01 -.188E+04   -.992E-02 0.423E-02 -.213E+00   0.394E-05 -.432E-05 0.106E-02
   -.100E+01 0.345E+00 0.187E+04   0.997E+00 -.346E+00 -.187E+04   0.583E-02 0.405E-02 0.356E+00   0.404E-04 -.210E-04 0.880E-03
   -.243E+01 0.105E-01 -.480E+01   0.243E+01 -.117E-01 0.584E+01   -.819E-02 -.920E-03 -.310E+00   0.642E-04 -.183E-04 0.198E-02
   -.259E-02 0.905E+00 0.118E+02   -.510E-05 -.909E+00 -.132E+02   0.199E-02 0.863E-04 0.607E+00   0.312E-05 -.681E-04 0.158E-02
   0.448E-02 0.367E+00 -.181E+04   -.256E-03 -.370E+00 0.181E+04   -.368E-02 0.365E-02 0.813E+00   0.942E-05 -.496E-05 0.259E-02
   -.111E+02 0.628E+01 -.186E+04   0.111E+02 -.629E+01 0.186E+04   0.874E-02 -.371E-02 -.119E+01   0.106E-03 -.474E-04 0.181E-02
   -.294E+02 0.385E+01 -.361E+04   0.293E+02 -.384E+01 0.361E+04   0.144E-01 -.242E-02 -.173E+01   0.121E-03 0.350E-04 0.808E-03
   0.189E-02 0.792E+01 -.370E+04   -.119E-03 -.794E+01 0.369E+04   -.234E-02 0.234E-01 0.310E+01   -.464E-05 0.127E-03 0.114E-03
   -.268E+01 0.145E+01 0.366E+04   0.269E+01 -.146E+01 -.367E+04   -.674E-02 -.759E-03 0.123E+01   -.192E-03 0.138E-03 0.245E-02
   -.536E-02 0.737E+00 0.388E+04   -.608E-05 -.738E+00 -.388E+04   0.657E-02 -.853E-03 -.588E+01   0.100E-04 0.124E-03 0.255E-02
   0.713E-02 0.440E+00 0.188E+04   -.213E-05 -.441E+00 -.188E+04   -.993E-02 0.438E-02 -.213E+00   -.839E-05 -.759E-04 0.101E-02
   -.105E+01 0.339E+00 0.187E+04   0.105E+01 -.340E+00 -.187E+04   0.566E-02 0.398E-02 0.357E+00   0.366E-04 -.179E-04 0.791E-03
   -.237E+01 0.144E+01 -.337E+01   0.236E+01 -.146E+01 0.439E+01   -.776E-02 0.271E-02 -.307E+00   0.663E-04 -.959E-04 0.196E-02
   -.259E-02 0.782E+00 0.134E+02   -.741E-05 -.786E+00 -.147E+02   0.199E-02 -.439E-03 0.605E+00   0.112E-05 -.605E-04 0.157E-02
   0.458E-02 0.445E+01 -.181E+04   -.380E-03 -.445E+01 0.181E+04   -.370E-02 0.186E-02 0.808E+00   0.929E-05 -.660E-04 0.265E-02
   -.160E+02 0.527E+01 -.184E+04   0.160E+02 -.528E+01 0.185E+04   0.902E-03 0.310E-02 -.119E+01   0.107E-03 -.351E-04 0.190E-02
   -.663E+02 0.398E+02 -.358E+04   0.663E+02 -.398E+02 0.359E+04   0.245E-01 0.119E-01 -.173E+01   0.372E-04 0.191E-03 0.119E-02
   0.216E-02 0.789E+01 -.369E+04   -.114E-03 -.790E+01 0.368E+04   -.259E-02 -.343E-02 0.309E+01   0.918E-05 0.991E-04 0.439E-03
   0.303E+01 -.597E-01 0.366E+04   -.302E+01 0.609E-01 -.367E+04   -.532E-02 -.140E-02 0.123E+01   0.233E-03 0.620E-04 0.233E-02
   -.536E-02 -.136E+01 0.388E+04   0.658E-05 0.137E+01 -.387E+04   0.657E-02 -.202E-02 -.588E+01   -.589E-05 -.192E-03 0.191E-02
   0.714E-02 0.182E-01 0.188E+04   0.275E-05 -.153E-01 -.188E+04   -.993E-02 0.342E-02 -.214E+00   -.250E-04 -.107E-04 0.844E-03
   0.107E+01 -.345E+00 0.187E+04   -.107E+01 0.346E+00 -.187E+04   0.506E-02 0.363E-02 0.357E+00   -.196E-04 0.443E-04 0.739E-03
   0.258E+01 -.835E-02 -.200E+01   -.257E+01 0.745E-02 0.301E+01   -.129E-01 -.914E-03 -.303E+00   -.605E-04 0.136E-04 0.195E-02
   -.261E-02 -.815E+00 0.181E+02   0.234E-04 0.802E+00 -.194E+02   0.199E-02 0.714E-02 0.590E+00   -.119E-04 0.810E-04 0.151E-02
   0.441E-02 -.180E+01 -.178E+04   0.110E-03 0.179E+01 0.178E+04   -.409E-02 0.183E-01 0.767E+00   0.182E-05 0.121E-04 0.265E-02
   0.153E+02 -.675E+01 -.185E+04   -.153E+02 0.675E+01 0.185E+04   0.104E-01 -.555E-02 -.118E+01   -.114E-03 0.647E-04 0.189E-02
   0.102E+03 -.554E+01 -.355E+04   -.102E+03 0.555E+01 0.355E+04   -.355E-01 -.917E-02 -.167E+01   -.627E-04 0.236E-05 0.152E-02
   0.225E-02 -.816E+02 -.352E+04   0.238E-03 0.816E+02 0.351E+04   -.301E-02 -.286E-01 0.308E+01   -.164E-04 -.112E-04 0.632E-03
   0.267E+01 -.145E+01 0.366E+04   -.267E+01 0.146E+01 -.367E+04   -.577E-02 -.180E-02 0.123E+01   0.179E-03 -.249E-03 0.262E-02
   -.536E-02 -.124E+01 0.388E+04   0.536E-05 0.124E+01 -.387E+04   0.655E-02 -.152E-02 -.588E+01   -.818E-05 -.191E-03 0.244E-02
   0.715E-02 -.515E+00 0.188E+04   0.184E-05 0.518E+00 -.188E+04   -.993E-02 0.320E-02 -.214E+00   -.270E-04 0.455E-04 0.921E-03
   0.102E+01 -.339E+00 0.187E+04   -.102E+01 0.340E+00 -.187E+04   0.493E-02 0.372E-02 0.357E+00   -.368E-04 0.128E-04 0.852E-03
   0.266E+01 -.144E+01 -.345E+01   -.264E+01 0.146E+01 0.447E+01   -.122E-01 -.522E-02 -.307E+00   -.678E-04 0.103E-03 0.196E-02
   -.256E-02 -.114E+01 0.170E+02   -.433E-05 0.114E+01 -.183E+02   0.196E-02 -.128E-02 0.585E+00   -.104E-04 0.493E-04 0.152E-02
   0.418E-02 -.126E+02 -.178E+04   0.883E-04 0.126E+02 0.178E+04   -.381E-02 0.139E-01 0.750E+00   0.118E-06 0.685E-04 0.261E-02
[...]
   -.629E+02 0.252E+00 0.936E+03   0.663E+02 -.253E+00 -.936E+03   -.307E+01 0.168E-02 0.133E+00   0.261E-04 -.186E-04 0.379E-03
   0.628E+02 0.252E+00 0.936E+03   -.663E+02 -.253E+00 -.936E+03   0.307E+01 0.170E-02 0.133E+00   -.445E-04 -.110E-04 0.390E-03
   0.741E+00 0.264E+00 0.429E+03   -.737E+00 -.273E+00 -.433E+03   -.599E-02 0.155E-01 0.382E+01   -.281E-04 -.241E-04 0.526E-03
   0.230E+01 0.958E+00 -.451E+03   -.229E+01 -.954E+00 0.458E+03   -.345E-02 -.563E-02 -.653E+01   -.436E-04 -.233E-04 0.116E-02
   -.666E+02 0.660E+00 0.685E+01   0.712E+02 -.666E+00 -.714E+01   -.512E+01 0.136E-01 0.366E+00   0.502E-04 -.518E-04 0.834E-03
   0.666E+02 0.660E+00 0.685E+01   -.712E+02 -.666E+00 -.714E+01   0.513E+01 0.136E-01 0.367E+00   -.441E-04 -.515E-04 0.822E-03
   -.380E-03 0.129E+01 -.469E+03   -.487E-04 -.126E+01 0.463E+03   0.348E-03 -.284E-01 0.582E+01   -.631E-06 -.340E-04 0.120E-02
   -.364E-03 0.734E+01 -.126E+04   0.846E-04 -.722E+01 0.126E+04   0.962E-03 -.124E+00 0.169E+01   -.214E-05 -.186E-04 0.123E-02
   -.273E+02 0.531E+01 -.903E+03   0.302E+02 -.533E+01 0.902E+03   -.296E+01 0.268E-01 0.863E+00   0.105E-03 -.344E-04 0.123E-02
   0.273E+02 0.531E+01 -.903E+03   -.302E+02 -.533E+01 0.902E+03   0.297E+01 0.268E-01 0.862E+00   -.106E-03 -.275E-04 0.122E-02
   0.233E+02 0.776E+01 -.145E+04   -.234E+02 -.784E+01 0.145E+04   0.720E-01 0.824E-01 -.136E+01   -.722E-04 0.585E-05 0.999E-03
   0.685E+02 0.206E+02 -.221E+04   -.684E+02 -.206E+02 0.223E+04   -.148E+00 -.367E-01 -.197E+02   0.913E-04 0.164E-03 -.154E-02
   -.634E+02 0.485E+02 -.185E+04   0.691E+02 -.486E+02 0.186E+04   -.574E+01 0.979E-01 -.334E+01   -.754E-04 0.834E-04 -.144E-04
   0.634E+02 0.485E+02 -.185E+04   -.691E+02 -.486E+02 0.186E+04   0.575E+01 0.967E-01 -.334E+01   0.618E-04 0.846E-04 -.275E-04
   0.335E-02 0.133E+01 0.959E+02   -.215E-11 -.227E-12 0.762E-10   0.415E-01 -.151E+01 -.100E+03   -.249E-04 -.157E-03 0.235E+00

 POSITION                                       TOTAL-FORCE (eV/Angst)
      6.50199      7.21861     20.93021        -0.000509      0.024537     -0.073782
      6.50198      8.38263     21.09547        -0.000839     -2.152446     -0.297387
      6.50199      6.05275     20.73532        -0.000050      2.000440      0.182998
      9.75299      7.39407      5.17891         0.000056      0.000671     -3.749056
      0.00000      8.87287      5.17891         0.001017      0.001032      2.992151
      0.00000      7.39407      8.42991        -0.002984      0.004906      0.502901
      9.75299      8.87287      8.42991        -0.000676      0.005274     -0.707310
      9.75299      7.39407     11.68090        -0.008937     -0.001057      0.730246
      0.00000      8.87287     11.68090        -0.000799      0.002158     -0.734501
     13.00398      7.39422     14.86240         0.000328     -0.000600      0.099898
      9.75327      8.87329     15.06299        -0.001646      0.001407     -0.077098
      9.75303      7.39525     18.40823         0.003659      0.003547      0.229846
      0.00000      8.87344     18.04092        -0.000768     -0.004044      0.131624
      9.75299     10.35167      5.17891        -0.000707      0.003038     -3.751267
      0.00000      0.00008      5.17891         0.000996      0.000316      2.990619
      0.00000     10.35167      8.42991        -0.002987      0.005432      0.502941
      9.75299      0.00008      8.42991        -0.000916      0.004999     -0.705841
      9.75299     10.35167     11.68090        -0.007297      0.014692      0.739413
      0.00000      0.00008     11.68090        -0.000792      0.001775     -0.733045
     13.00398     10.35177     14.86280         0.000353      0.000160      0.101289
      9.75277      0.00024     15.06605         0.002857      0.007119     -0.087162
      9.75138     10.35157     18.41856        -0.009641      0.009425      0.170993
     13.00398     11.83029     18.04138        -0.000770      0.000647      0.128400
      9.75299      1.47888      5.17891        -0.001036     -0.001218     -3.752335
      0.00000      2.95768      5.17891         0.001007     -0.002008      2.991163
      0.00000      1.47888      8.42991        -0.002984      0.004666      0.503015
      9.75299      2.95768      8.42991        -0.000769      0.003611     -0.705622
      9.75299      1.47888     11.68090        -0.007363     -0.001305      0.748899
      0.00000      2.95768     11.68090        -0.000790     -0.003696     -0.733257
      0.00000      1.47872     14.86298         0.000362      0.001265      0.100497
      9.75326      2.95729     15.06595        -0.000599     -0.007685     -0.086001
      9.75215      1.47899     18.41779        -0.000787     -0.000532      0.179485
      0.00000      2.95731     18.04133        -0.000758      0.001191      0.128102
      9.75299      4.43648      5.17891        -0.000338     -0.003752     -3.750204
      0.00000      5.91527      5.17891         0.001024     -0.001370      2.992609
      0.00000      4.43648      8.42991        -0.002989      0.004206      0.502967
      9.75299      5.91527      8.42991        -0.000531      0.003875     -0.706982
      9.75299      4.43648     11.68090        -0.008781     -0.014191      0.739481
      0.00000      5.91527     11.68090        -0.000795     -0.003167     -0.734717
      0.00000      4.43641     14.86249         0.000328      0.000095      0.099654
      9.75354      5.91500     15.06340        -0.005743      0.000058     -0.080517
      9.75376      4.43732     18.41691         0.005851     -0.010652      0.172931
     13.00398      5.91583     18.04058        -0.000715     -0.009721      0.133774
      3.25100      7.39407      5.17891        -0.002871      0.000661     -3.749073
      6.50199      8.87287      5.17891         0.001023      0.002690      2.996967
      6.50199      7.39407      8.42991        -0.002993      0.007048      0.506160
      3.25100      8.87287      8.42991         0.000864      0.005273     -0.707315
      3.25100      7.39407     11.68090         0.002701     -0.001052      0.730241
      6.50199      8.87287     11.68090        -0.000788     -0.005426     -0.706708
      6.50199      7.39080     14.87143         0.000243      0.010275      0.097077
      3.25071      8.87329     15.06299         0.003138      0.001428     -0.077108
      3.25096      7.39525     18.40823        -0.008536      0.003496      0.229685
      6.50199      8.87947     18.03744        -0.000715     -0.022232      0.134110
      3.25100     10.35167      5.17891        -0.002100      0.003032     -3.751264
      6.50199      0.00008      5.17891         0.000997      0.000970      2.992803
      6.50199     10.35167      8.42991        -0.002992      0.007129      0.507341
      3.25100      0.00008      8.42991         0.001115      0.005000     -0.705854
      3.25100     10.35167     11.68090         0.001058      0.014698      0.739413
      6.50199      0.00008     11.68090        -0.000796      0.001800     -0.736585
      6.50199     10.34965     14.85871         0.000279     -0.012296      0.087602
[...]
      6.50199      5.91527      9.70429        -0.000065     -0.000092     -0.170858
      4.52538      4.43648      8.42991         0.376016      0.001295     -0.000963
      8.47860      4.43648      8.42991        -0.372938      0.001301     -0.000948
      3.25100      5.91527     10.40652        -0.001980      0.007258     -0.032902
      3.25100      5.91527     12.95529         0.000880     -0.000849     -0.041316
      7.77637      4.43648     11.68090        -0.582353      0.008027      0.044167
      5.22761      4.43648     11.68090         0.585549      0.008007      0.044425
      6.50199      5.91539     13.68044        -0.000235      0.003270      0.098048
      6.50199      5.91464     16.24136         0.000435     -0.006110     -0.039016
      4.55288      4.43649     14.95719        -0.078774      0.001077      0.004497
      8.45110      4.43649     14.95719         0.079499      0.001088      0.003741
      3.24421      5.91567     16.92452         0.003224      0.002806      0.099278
      3.26640      5.91889     19.49892         0.015734     -0.053996     -0.369684
      7.72931      4.42773     18.34168        -0.127515      0.053546     -0.003817
      5.27467      4.42773     18.34168         0.132324      0.053123     -0.004104
    total drift:                                0.044794     -0.181153     -4.075665

  FREE ENERGIE OF THE ION-ELECTRON SYSTEM (eV)
  free  energy   TOTEN  =     -3055.77958443 eV

  energy  without entropy=    -3055.77958443  energy(sigma->0) =    -3055.77958443