 vasp.6.3.0 20Jan22 (build Mar 11 2022 13:48:16) complex

 executed on             LinuxIFC date 2024.02.12  04:03:05

 INCAR:
   SYSTEM = Oxide-Surface
   ISMEAR = 0
   SIGMA = 0.05
   EDIFF = 1E-5
   ALGO = ALL
   ISTART = 0
   IBRION = -1
   NSW = 0
   ISYM = 2
   DIPOL = 0.5 0.5 0.5
   IDIPOL = 3
   LDIPOL = .TRUE.
   METAGGA = R2SCAN
   LUSE_VDW = .TRUE.
   BPARAM = 11.95
   CPARAM = 0.0093
   LASPH = .TRUE.
   ENCUT = 600
   PREC = Accurate
   LASPH = .TRUE.
   LREAL = .FALSE.
   ISPIN = 1
   NELM = 200
   NELMIN = 8
   NCORE = 19
   KPAR = 1
   LWAVE = .FALSE.
   LCHARG = .FALSE.

 POTCAR:    PAW_PBE C 08Apr2002
 POTCAR:    PAW_PBE O 08Apr2002
 POTCAR:    PAW_PBE Mg_pv 13Apr2007
 POTCAR:    PAW_PBE O 08Apr2002
|               ----> ADVICE to this user running VASP <----                  |
|     You have switched on vdW-DFT.                                           |
|     This routine was written and supplied by Jiri Klimes. We recommend      |
|     that you carefully read and cite the following publications:            |
|       J. Klimes, D.R. Bowler, A. Michelides                                 |
|          J. Phys.: Cond Matt. 22 022201 (2010)                              |
|       J. Klimes, D.R. Bowler, A. Michelides                                 |
|          Phys. Rev. B. 83, 195131 (2011)                                    |
|     and references therein.                                                 |

   TITEL  = PAW_PBE C 08Apr2002
   POMASS =   12.011; ZVAL   =    4.000    mass and valenz
   ENMAX  =  400.000; ENMIN  =  300.000 eV

[...]

   TITEL  = PAW_PBE Mg_pv 13Apr2007
   POMASS =   24.305; ZVAL   =    8.000    mass and valenz
   ENMAX  =  403.929; ENMIN  =  302.947 eV

   TITEL  = PAW_PBE O 08Apr2002
   POMASS =   16.000; ZVAL   =    6.000    mass and valenz
   ENMAX  =  400.000; ENMIN  =  300.000 eV

  PAW_PBE C 08Apr2002                   :
  PAW_PBE O 08Apr2002                   :
  PAW_PBE Mg_pv 13Apr2007               :
  PAW_PBE O 08Apr2002                   :

 POSCAR:  C  O Mg  O
  positions in direct lattice

 METAGGA = R2SCA    LMAXTAU =  6    LMIXTAU =  F

 ion  position               nearest neighbor table
   1  0.500  0.500  0.765-   2 1.15
   2  0.500  0.500  0.819-   1 1.15
   3  0.000  0.750  0.352-  35 2.11  37 2.11  38 2.11  45 2.11  54 2.11
   4  0.250  0.000  0.352-  36 2.11  37 2.11  38 2.11  46 2.11  53 2.11
   5  0.000  0.000  0.451-  37 2.11  36 2.11  35 2.11  43 2.11  52 2.11  41 2.12
   6  0.250  0.750  0.451-  38 2.11  36 2.11  35 2.11  44 2.11  51 2.11  42 2.12
   7  0.000  0.750  0.550-  49 2.11  42 2.11  58 2.11  41 2.11  35 2.12  39 2.15
   8  0.250  0.000  0.550-  57 2.11  50 2.11  42 2.11  41 2.11  36 2.12  40 2.15
   9  0.000  0.000  0.649-  39 2.11  40 2.11  47 2.11  56 2.11  41 2.11
  10  0.250  0.750  0.649-  42 2.11  40 2.11  39 2.11  48 2.11  55 2.11
  11  0.000  0.250  0.352-  43 2.11  37 2.11  45 2.11  46 2.11  62 2.11
  12  0.250  0.500  0.352-  44 2.11  38 2.11  45 2.11  46 2.11  61 2.11
  13  0.000  0.500  0.451-  45 2.11  43 2.11  44 2.11  35 2.11  60 2.11  49 2.12
  14  0.250  0.250  0.451-  46 2.11  43 2.11  44 2.11  36 2.11  59 2.11  50 2.12
  15  0.000  0.250  0.550-  49 2.11  50 2.11  66 2.11  41 2.11  43 2.12  47 2.15
  16  0.250  0.500  0.550-  65 2.11  50 2.11  42 2.11  49 2.11  44 2.13  48 2.15
  17  0.000  0.500  0.649-  48 2.10  64 2.10  49 2.11  47 2.11  39 2.11
  18  0.250  0.250  0.649-  50 2.11  47 2.11  40 2.11  48 2.11  63 2.11
  19  0.500  0.750  0.352-  51 2.11  38 2.11  53 2.11  54 2.11  61 2.11
  20  0.750  0.000  0.352-  52 2.11  37 2.11  53 2.11  54 2.11  62 2.11
  21  0.500  0.000  0.451-  53 2.11  51 2.11  52 2.11  36 2.11  59 2.11  57 2.12
  22  0.750  0.750  0.451-  54 2.11  51 2.11  52 2.11  35 2.11  60 2.11  58 2.12
  23  0.500  0.750  0.550-  65 2.11  58 2.11  42 2.11  57 2.11  51 2.13  55 2.15
  24  0.750  0.000  0.550-  57 2.11  58 2.11  66 2.11  41 2.11  52 2.12  56 2.15
  25  0.500  0.000  0.649-  55 2.10  63 2.10  57 2.11  40 2.11  56 2.11
  26  0.750  0.750  0.649-  58 2.11  56 2.11  39 2.11  55 2.11  64 2.11
  27  0.500  0.250  0.352-  59 2.11  53 2.11  46 2.11  61 2.11  62 2.11
  28  0.750  0.500  0.352-  60 2.11  54 2.11  45 2.11  61 2.11  62 2.11
  29  0.500  0.500  0.451-  61 2.11  51 2.11  59 2.11  60 2.11  44 2.11  65 2.13
  30  0.750  0.250  0.451-  62 2.11  52 2.11  59 2.11  60 2.11  43 2.11  66 2.12
  31  0.500  0.250  0.550-  65 2.11  50 2.11  66 2.11  57 2.11  59 2.13  63 2.15
  32  0.750  0.500  0.550-  65 2.11  58 2.11  66 2.11  49 2.11  60 2.13  64 2.15
  33  0.500  0.500  0.651-  48 2.12  55 2.12  63 2.12  64 2.12  65 2.14
  34  0.750  0.250  0.649-  66 2.11  56 2.11  47 2.11  64 2.11  63 2.11
  35  0.000  0.750  0.451-   3 2.11   5 2.11   6 2.11  13 2.11  22 2.11   7 2.12
  36  0.250  0.000  0.451-   4 2.11   5 2.11   6 2.11  14 2.11  21 2.11   8 2.12
  37  0.000  0.000  0.352-   5 2.11   4 2.11   3 2.11  11 2.11  20 2.11
  38  0.250  0.750  0.352-   6 2.11   4 2.11   3 2.11  12 2.11  19 2.11
  39  0.000  0.750  0.651-   9 2.11  10 2.11  26 2.11  17 2.11   7 2.15
  40  0.250  0.000  0.651-   9 2.11  10 2.11  18 2.11  25 2.11   8 2.15
  41  0.000  0.000  0.550-   9 2.11   8 2.11   7 2.11  15 2.11  24 2.11   5 2.12
  42  0.250  0.750  0.550-  10 2.11   8 2.11   7 2.11  16 2.11  23 2.11   6 2.12
  43  0.000  0.250  0.451-  11 2.11   5 2.11  13 2.11  14 2.11  30 2.11  15 2.12
  44  0.250  0.500  0.451-  12 2.11   6 2.11  13 2.11  14 2.11  29 2.11  16 2.13
  45  0.000  0.500  0.352-  13 2.11  11 2.11  12 2.11   3 2.11  28 2.11
  46  0.250  0.250  0.352-  14 2.11  11 2.11  12 2.11   4 2.11  27 2.11
  47  0.000  0.250  0.651-   9 2.11  18 2.11  34 2.11  17 2.11  15 2.15
  48  0.249  0.500  0.651-  17 2.10  10 2.11  18 2.11  33 2.12  16 2.15
  49  0.000  0.500  0.550-  17 2.11  15 2.11   7 2.11  16 2.11  32 2.11  13 2.12
  50  0.250  0.250  0.550-  18 2.11  15 2.11   8 2.11  16 2.11  31 2.11  14 2.12
  51  0.500  0.750  0.451-  19 2.11   6 2.11  21 2.11  22 2.11  29 2.11  23 2.13
  52  0.750  0.000  0.451-  20 2.11   5 2.11  21 2.11  22 2.11  30 2.11  24 2.12
  53  0.500  0.000  0.352-  21 2.11  19 2.11  20 2.11   4 2.11  27 2.11
  54  0.750  0.750  0.352-  22 2.11  19 2.11  20 2.11   3 2.11  28 2.11
  55  0.500  0.751  0.651-  25 2.10  10 2.11  26 2.11  33 2.12  23 2.15
  56  0.750  0.000  0.651-   9 2.11  26 2.11  34 2.11  25 2.11  24 2.15
  57  0.500  0.000  0.550-  25 2.11  24 2.11   8 2.11  23 2.11  31 2.11  21 2.12
  58  0.750  0.750  0.550-  26 2.11  24 2.11   7 2.11  32 2.11  23 2.11  22 2.12
  59  0.500  0.250  0.451-  27 2.11  21 2.11  14 2.11  29 2.11  30 2.11  31 2.13
  60  0.750  0.500  0.451-  28 2.11  22 2.11  13 2.11  29 2.11  30 2.11  32 2.13
  61  0.500  0.500  0.352-  29 2.11  19 2.11  27 2.11  28 2.11  12 2.11
  62  0.750  0.250  0.352-  30 2.11  20 2.11  27 2.11  28 2.11  11 2.11
  63  0.500  0.249  0.651-  25 2.10  18 2.11  34 2.11  33 2.12  31 2.15
  64  0.751  0.500  0.651-  17 2.10  26 2.11  34 2.11  33 2.12  32 2.15
  65  0.500  0.500  0.550-  16 2.11  23 2.11  31 2.11  32 2.11  29 2.13  33 2.14
  66  0.750  0.250  0.550-  34 2.11  24 2.11  15 2.11  32 2.11  31 2.11  30 2.12

  LATTYP: Found a simple tetragonal cell.
 ALAT       =     8.4409846542
 C/A-ratio  =     2.5270438657

  Lattice vectors:

 A1 = (   8.4409846542,   0.0000000000,   0.0000000000)
 A2 = (   0.0000000000,   8.4409846542,   0.0000000000)
 A3 = (   0.0000000000,   0.0000000000,  21.3307384906)

Analysis of symmetry for initial positions (statically):
 Subroutine PRICEL returns:
 Original cell was already a primitive cell.

 Routine SETGRP: Setting up the symmetry group for a
 simple tetragonal supercell.

 Subroutine GETGRP returns: Found  8 space group operations
 (whereof  8 operations were pure point group operations)
 out of a pool of 16 trial point group operations.

The static configuration has the point symmetry C_4v.

Analysis of symmetry for dynamics (positions and initial velocities):
 Subroutine PRICEL returns:
 Original cell was already a primitive cell.

[...]

The dynamic configuration has the point symmetry C_4v.

Analysis of constrained symmetry for selective dynamics:
 Subroutine PRICEL returns:
 Original cell was already a primitive cell.

 Routine SETGRP: Setting up the symmetry group for a
 simple tetragonal supercell.

 Subroutine GETGRP returns: Found  8 space group operations
 (whereof  8 operations were pure point group operations)
 out of a pool of 16 trial point group operations.

The constrained configuration has the point symmetry C_4v.

 Subroutine INISYM returns: Found  8 space group operations
 (whereof  8 operations are pure point group operations),
 and found     1 'primitive' translations

                                     Primitive cell

  volume of cell :    1519.8199

  direct lattice vectors                    reciprocal lattice vectors
     8.440984654  0.000000000  0.000000000     0.118469591  0.000000000  0.000000000
     0.000000000  8.440984654  0.000000000     0.000000000  0.118469591  0.000000000
     0.000000000  0.000000000 21.330738491     0.000000000  0.000000000  0.046880702

  length of vectors
     8.440984654  8.440984654 21.330738491     0.118469591  0.118469591  0.046880702

  position of ions in fractional coordinates (direct lattice)
     0.500000000  0.500000000  0.765053803
     0.500000000  0.500000000  0.818817521
     0.000000000  0.750000000  0.351605267
     0.250000000  0.000000000  0.351605267
     0.000000000  0.000000000  0.450535089
     0.250000000  0.750000000  0.450535089
     0.000000000  0.749939268  0.550083239
     0.250060732  0.000000000  0.550083239
     0.000000000  0.000000000  0.648745309
     0.249858327  0.750141673  0.648569547
     0.000000000  0.250000000  0.351605267
     0.250000000  0.500000000  0.351605267
     0.000000000  0.500000000  0.450535089
     0.250000000  0.250000000  0.450535089
     0.000000000  0.250060732  0.550083239
     0.250378379  0.500000000  0.550219524
     0.000000000  0.500000000  0.648615280
     0.249858327  0.249858327  0.648569547
     0.500000000  0.750000000  0.351605267
     0.750000000  0.000000000  0.351605267
     0.500000000  0.000000000  0.450535089
     0.750000000  0.750000000  0.450535089
     0.500000000  0.749621621  0.550219524
     0.749939268  0.000000000  0.550083239
     0.500000000  0.000000000  0.648615280
     0.750141673  0.750141673  0.648569547
     0.500000000  0.250000000  0.351605267
     0.750000000  0.500000000  0.351605267
     0.500000000  0.500000000  0.450535089
     0.750000000  0.250000000  0.450535089
     0.500000000  0.250378379  0.550219524
     0.749621621  0.500000000  0.550219524
     0.500000000  0.500000000  0.650616960
     0.750141673  0.249858327  0.648569547
     0.000000000  0.750000000  0.450535089
     0.250000000  0.000000000  0.450535089
     0.000000000  0.000000000  0.351605267
     0.250000000  0.750000000  0.351605267
     0.000000000  0.750218533  0.650979255
     0.249781467  0.000000000  0.650979255
     0.000000000  0.000000000  0.549809890
     0.249945770  0.750054230  0.549859113
     0.000000000  0.250000000  0.450535089
     0.250000000  0.500000000  0.450535089
[...]
   0.00000000  6.33073849  7.50000000
   2.11024616  0.00000000  7.50000000
   0.00000000  0.00000000  9.61024616
   2.11024616  6.33073849  9.61024616
   0.00000000  6.33022585 11.73368172
   2.11075880  0.00000000 11.73368172
   0.00000000  0.00000000 13.83821654
   2.10905031  6.33193435 13.83446740
   0.00000000  2.11024616  7.50000000
   2.11024616  4.22049233  7.50000000
   0.00000000  4.22049233  9.61024616
   2.11024616  2.11024616  9.61024616
   0.00000000  2.11075880 11.73368172
   2.11344006  4.22049233 11.73658877
   0.00000000  4.22049233 13.83544293
   2.10905031  2.10905031 13.83446740
   4.22049233  6.33073849  7.50000000
   6.33073849  0.00000000  7.50000000
   4.22049233  0.00000000  9.61024616
   6.33073849  6.33073849  9.61024616
   4.22049233  6.32754460 11.73658877
   6.33022585  0.00000000 11.73368172
   4.22049233  0.00000000 13.83544293
   6.33193435  6.33193435 13.83446740
   4.22049233  2.11024616  7.50000000
   6.33073849  4.22049233  7.50000000
   4.22049233  4.22049233  9.61024616
   6.33073849  2.11024616  9.61024616
   4.22049233  2.11344006 11.73658877
   6.32754460  4.22049233 11.73658877
   4.22049233  4.22049233 13.87814023
   6.33193435  2.10905031 13.83446740
   0.00000000  6.33073849  9.61024616
   2.11024616  0.00000000  9.61024616
   0.00000000  0.00000000  7.50000000
   2.11024616  6.33073849  7.50000000
   0.00000000  6.33258312 13.88586825
   2.10840153  0.00000000 13.88586825
   0.00000000  0.00000000 11.72785099
   2.10978841  6.33119624 11.72890095
   0.00000000  2.11024616  9.61024616
   2.11024616  4.22049233  9.61024616
   0.00000000  4.22049233  7.50000000
   2.11024616  2.11024616  7.50000000
   0.00000000  2.10840153 13.88586825
   2.10030867  4.22049233 13.88381232
   0.00000000  4.22049233 11.72684365
   2.10978841  2.10978841 11.72890095
   4.22049233  6.33073849  9.61024616
   6.33073849  0.00000000  9.61024616
   4.22049233  0.00000000  7.50000000
   6.33073849  6.33073849  7.50000000
   4.22049233  6.34067598 13.88381232
   6.33258312  0.00000000 13.88586825
   4.22049233  0.00000000 11.72684365
   6.33119624  6.33119624 11.72890095
   4.22049233  2.11024616  9.61024616
   6.33073849  4.22049233  9.61024616
   4.22049233  4.22049233  7.50000000
   6.33073849  2.11024616  7.50000000
   4.22049233  2.10030867 13.88381232
   6.34067598  4.22049233 13.88381232
   4.22049233  4.22049233 11.73684118
   6.33119624  2.10978841 11.72890095

--------------------------------------- Iteration      FINAL  ---------------------------------------

--------------------OUTCAR has been truncated-------------------------

[...]

--------------------OUTCAR has been truncated-------------------------

  FORCE on cell =-STRESS in cart. coord.  units (eV):
  Direction    XX          YY          ZZ          XY          YZ          ZX
  Alpha Z   907.96410   907.96410   907.96410
  Ewald  157644.15472157644.15472************     0.00000     0.00000    -0.00000
  Hartree168096.76691168096.76691************    -0.00000    -0.00000    -0.00000
  E(xc)   -2699.92544 -2699.86623 -2697.46559    -0.00001     0.00001     0.00000
  Local  ************************335312.93908     0.00000     0.00000    -0.00000
  n-local -2803.22008 -2803.84889 -2835.43636     0.00003    -0.00001    -0.00009
  augment  1183.96452  1183.96452  1174.20835    -0.00000    -0.00000     0.00000
  Kinetic  7508.47652  7510.50182  7527.49095    -0.00020     0.00023    -0.00003
  Fock        0.00000     0.00000     0.00000     0.00000     0.00000     0.00000
  Total     -45.06826   -45.06826   -16.34166     0.00000     0.00000     0.00000
  in kB     -47.51046   -47.51046   -17.22720     0.00000     0.00000     0.00000

 VOLUME and BASIS-vectors are now :
  energy-cutoff  :      600.00
  volume of cell :     1519.82
      direct lattice vectors                 reciprocal lattice vectors
     8.440984654  0.000000000  0.000000000     0.118469591  0.000000000  0.000000000
     0.000000000  8.440984654  0.000000000     0.000000000  0.118469591  0.000000000
     0.000000000  0.000000000 21.330738491     0.000000000  0.000000000  0.046880702

  length of vectors
     8.440984654  8.440984654 21.330738491     0.118469591  0.118469591  0.046880702

 FORCES acting on ions:
    Electron-Ion                     Ewald-Force                    Non-Local-Force
   0.121E-12 -.135E-13 -.837E+03   0.107E-13 0.622E-14 0.811E+03   -.199E-21 0.233E-20 0.273E+02
   0.417E-12 -.620E-12 -.145E+04   -.888E-14 0.222E-15 0.151E+04   0.163E-21 -.447E-21 -.618E+02
   -.461E-13 -.129E+00 0.208E+04   -.132E-12 0.129E+00 -.207E+04   -.698E-21 -.148E-03 -.715E+01
   0.129E+00 -.114E-12 0.208E+04   -.129E+00 0.537E-13 -.207E+04   0.148E-03 0.252E-20 -.715E+01
   -.496E-13 0.170E-12 0.713E+03   -.151E-10 0.151E-10 -.714E+03   0.336E-20 -.727E-21 0.375E+00
   0.472E+00 -.472E+00 0.714E+03   -.467E+00 0.467E+00 -.715E+03   -.287E-02 0.287E-02 0.401E+00
   -.379E-13 -.284E+01 -.643E+03   0.162E-11 0.283E+01 0.643E+03   -.652E-21 0.237E-01 -.836E-01
   0.284E+01 0.697E-12 -.643E+03   -.283E+01 -.144E-11 0.643E+03   -.237E-01 -.157E-20 -.836E-01
   -.508E-13 0.512E-12 -.200E+04   0.419E-12 -.348E-12 0.200E+04   -.117E-20 0.729E-21 0.609E+01
   0.181E+02 -.181E+02 -.198E+04   -.182E+02 0.182E+02 0.198E+04   0.888E-01 -.888E-01 0.612E+01
   -.398E-13 0.129E+00 0.208E+04   -.356E-12 -.129E+00 -.207E+04   -.218E-20 0.148E-03 -.715E+01
   0.124E+00 0.350E-12 0.208E+04   -.121E+00 0.131E-10 -.207E+04   -.176E-02 0.769E-21 -.716E+01
   -.444E-13 0.916E-12 0.714E+03   -.166E-10 0.391E-13 -.715E+03   0.819E-21 0.293E-21 0.335E+00
   0.472E+00 0.472E+00 0.714E+03   -.467E+00 -.467E+00 -.715E+03   -.287E-02 -.287E-02 0.401E+00
   -.410E-13 0.284E+01 -.643E+03   0.298E-11 -.283E+01 0.643E+03   0.113E-20 -.237E-01 -.836E-01
   0.413E+01 0.221E-12 -.636E+03   -.405E+01 -.995E-13 0.636E+03   -.128E+00 -.243E-21 -.197E+00
   -.572E-13 -.114E-11 -.199E+04   0.142E-13 -.355E-14 0.198E+04   -.663E-21 -.157E-21 0.607E+01
   0.181E+02 0.181E+02 -.198E+04   -.182E+02 -.182E+02 0.198E+04   0.888E-01 0.888E-01 0.612E+01
   0.728E-12 -.124E+00 0.208E+04   -.128E-10 0.121E+00 -.207E+04   -.428E-21 0.176E-02 -.716E+01
   -.129E+00 -.875E-13 0.208E+04   0.129E+00 0.702E-13 -.207E+04   -.148E-03 -.295E-20 -.715E+01
   0.611E-12 0.104E-11 0.714E+03   0.154E-11 0.150E-10 -.715E+03   -.417E-21 -.877E-21 0.335E+00
   -.472E+00 -.472E+00 0.714E+03   0.467E+00 0.467E+00 -.715E+03   0.287E-02 0.287E-02 0.401E+00
   0.603E-12 -.413E+01 -.636E+03   -.153E-11 0.405E+01 0.636E+03   -.105E-20 0.128E+00 -.197E+00
   -.284E+01 0.630E-12 -.643E+03   0.283E+01 -.153E-11 0.643E+03   0.237E-01 -.172E-20 -.836E-01
   0.700E-12 0.147E-11 -.199E+04   0.853E-13 -.249E-13 0.198E+04   0.346E-21 0.256E-21 0.607E+01
   -.181E+02 -.181E+02 -.198E+04   0.182E+02 0.182E+02 0.198E+04   -.888E-01 -.888E-01 0.612E+01
   0.714E-12 0.124E+00 0.208E+04   -.132E-10 -.121E+00 -.207E+04   0.865E-22 -.176E-02 -.716E+01
   -.124E+00 -.246E-11 0.208E+04   0.121E+00 0.131E-10 -.207E+04   0.176E-02 -.841E-21 -.716E+01
   0.638E-12 0.245E-11 0.715E+03   -.249E-13 0.924E-13 -.715E+03   0.387E-22 -.197E-22 0.480E+00
   -.472E+00 0.472E+00 0.714E+03   0.467E+00 -.467E+00 -.715E+03   0.287E-02 -.287E-02 0.401E+00
   0.595E-12 0.413E+01 -.636E+03   0.000E+00 -.405E+01 0.636E+03   0.460E-21 -.128E+00 -.197E+00
   -.413E+01 -.204E-11 -.636E+03   0.405E+01 -.284E-13 0.636E+03   0.128E+00 0.114E-20 -.197E+00
   0.646E-12 -.421E-12 -.191E+04   0.675E-13 -.711E-14 0.191E+04   -.493E-21 -.297E-22 0.386E+01
   -.181E+02 0.181E+02 -.198E+04   0.182E+02 -.182E+02 0.198E+04   -.888E-01 0.888E-01 0.612E+01
   -.490E-13 -.405E+00 0.535E+03   0.950E-13 0.400E+00 -.535E+03   -.133E-20 0.770E-02 -.853E-01
   0.405E+00 -.680E-12 0.535E+03   -.400E+00 -.444E-14 -.535E+03   -.770E-02 0.128E-20 -.853E-01
   -.584E-13 0.242E-12 0.156E+04   0.854E-11 -.844E-11 -.156E+04   0.157E-22 -.258E-21 0.341E+01
   0.940E-01 -.940E-01 0.156E+04   -.931E-01 0.931E-01 -.156E+04   -.113E-02 0.113E-02 0.342E+01
   -.493E-14 -.733E+01 -.152E+04   -.771E-12 0.727E+01 0.153E+04   0.363E-21 0.557E-01 -.507E+01
   0.733E+01 0.269E-12 -.152E+04   -.727E+01 0.856E-12 0.153E+04   -.557E-01 0.111E-20 -.507E+01
   -.132E-13 0.429E-12 -.478E+03   -.711E-14 0.497E-13 0.478E+03   -.420E-21 0.978E-21 0.272E+00
   0.257E+01 -.257E+01 -.473E+03   -.256E+01 0.256E+01 0.473E+03   -.498E-02 0.498E-02 0.342E+00
   -.397E-13 0.405E+00 0.535E+03   0.924E-13 -.400E+00 -.535E+03   -.583E-21 -.770E-02 -.853E-01
   0.378E+00 -.182E-12 0.535E+03   -.406E+00 -.762E-11 -.535E+03   0.381E-01 0.903E-21 -.106E+00
   -.558E-13 0.620E-12 0.156E+04   0.846E-11 -.867E-12 -.156E+04   0.466E-21 0.631E-22 0.341E+01
   0.940E-01 0.940E-01 0.156E+04   -.931E-01 -.931E-01 -.156E+04   -.113E-02 -.113E-02 0.342E+01
   0.120E-14 0.733E+01 -.152E+04   -.782E-12 -.727E+01 0.153E+04   0.127E-20 -.557E-01 -.507E+01
   0.236E+02 -.700E-12 -.149E+04   -.233E+02 0.818E-11 0.150E+04   -.353E+00 -.765E-21 -.508E+01
   -.206E-13 0.626E-12 -.473E+03   -.742E-11 0.711E-14 0.473E+03   0.889E-21 0.561E-21 0.294E+00
   0.257E+01 0.257E+01 -.473E+03   -.256E+01 -.256E+01 0.473E+03   -.498E-02 -.498E-02 0.342E+00
   0.292E-12 -.378E+00 0.535E+03   0.763E-11 0.406E+00 -.535E+03   0.579E-21 -.381E-01 -.106E+00
   -.405E+00 -.687E-12 0.535E+03   0.400E+00 -.568E-13 -.535E+03   0.770E-02 0.127E-20 -.853E-01
   0.349E-12 0.579E-12 0.156E+04   0.918E-12 -.848E-11 -.156E+04   -.985E-22 0.619E-21 0.341E+01
   -.940E-01 -.940E-01 0.156E+04   0.931E-01 0.931E-01 -.156E+04   0.113E-02 0.113E-02 0.342E+01
   0.336E-12 -.236E+02 -.149E+04   -.815E-11 0.233E+02 0.150E+04   -.431E-20 0.353E+00 -.508E+01
   -.733E+01 0.808E-13 -.152E+04   0.727E+01 0.888E-12 0.153E+04   0.557E-01 -.479E-21 -.507E+01
   0.270E-12 -.768E-12 -.473E+03   -.355E-13 0.743E-11 0.473E+03   0.449E-21 -.390E-21 0.294E+00
   -.257E+01 -.257E+01 -.473E+03   0.256E+01 0.256E+01 0.473E+03   0.498E-02 0.498E-02 0.342E+00
   0.283E-12 0.378E+00 0.535E+03   0.769E-11 -.406E+00 -.535E+03   0.132E-20 0.381E-01 -.106E+00
   -.378E+00 -.279E-11 0.535E+03   0.406E+00 -.770E-11 -.535E+03   -.381E-01 0.787E-21 -.106E+00
   0.310E-12 0.808E-12 0.156E+04   0.876E-12 -.888E-12 -.156E+04   -.205E-21 -.280E-21 0.341E+01
   -.940E-01 0.940E-01 0.156E+04   0.931E-01 -.931E-01 -.156E+04   0.113E-02 -.113E-02 0.342E+01
   0.336E-12 0.236E+02 -.149E+04   -.818E-11 -.233E+02 0.150E+04   0.168E-20 -.353E+00 -.508E+01
   -.236E+02 0.102E-11 -.149E+04   0.233E+02 0.818E-11 0.150E+04   0.353E+00 -.113E-20 -.508E+01
   0.253E-12 0.116E-11 -.473E+03   -.782E-13 0.355E-13 0.473E+03   -.683E-21 0.178E-21 -.192E+00
   -.257E+01 0.257E+01 -.473E+03   0.256E+01 -.256E+01 0.473E+03   0.498E-02 -.498E-02 0.342E+00
   0.172E-10 0.145E-10 0.552E+02   -.959E-13 0.604E-13 0.972E-11   -.347E-16 0.338E-16 -.552E+02

 POSITION                                       TOTAL-FORCE (eV/Angst)
      4.22049      4.22049     16.31916        -0.000000      0.000000      1.335429
      4.22049      4.22049     17.46598        -0.000000      0.000000     -1.416000
      0.00000      6.33074      7.50000        -0.000000     -0.000101      0.539394
      2.11025      0.00000      7.50000         0.000101      0.000000      0.539394
      0.00000      0.00000      9.61025        -0.000000      0.000000     -0.040671
      2.11025      6.33074      9.61025         0.001565     -0.001565     -0.039059
      0.00000      6.33023     11.73368        -0.000000      0.005465      0.048509
      2.11076      0.00000     11.73368        -0.005465      0.000000      0.048509
      0.00000      0.00000     13.83822        -0.000000      0.000000     -0.077638
      2.10905      6.33193     13.83447        -0.007425      0.007425     -0.121864
      0.00000      2.11025      7.50000        -0.000000      0.000101      0.539394
      2.11025      4.22049      7.50000         0.000415      0.000000      0.539828
      0.00000      4.22049      9.61025        -0.000000      0.000000     -0.031672
      2.11025      2.11025      9.61025         0.001565      0.001565     -0.039059
      0.00000      2.11076     11.73368        -0.000000     -0.005465      0.048509
      2.11344      4.22049     11.73659        -0.050589      0.000000      0.053358
      0.00000      4.22049     13.83544        -0.000000      0.000000     -0.105318
      2.10905      2.10905     13.83447        -0.007425     -0.007425     -0.121864
      4.22049      6.33074      7.50000        -0.000000     -0.000415      0.539828
      6.33074      0.00000      7.50000        -0.000101      0.000000      0.539394
      4.22049      0.00000      9.61025        -0.000000      0.000000     -0.031672
      6.33074      6.33074      9.61025        -0.001565     -0.001565     -0.039059
      4.22049      6.32754     11.73659        -0.000000      0.050589      0.053358
      6.33023      0.00000     11.73368         0.005465      0.000000      0.048509
      4.22049      0.00000     13.83544        -0.000000      0.000000     -0.105318
      6.33193      6.33193     13.83447         0.007425      0.007425     -0.121864
      4.22049      2.11025      7.50000        -0.000000      0.000415      0.539828
      6.33074      4.22049      7.50000        -0.000415      0.000000      0.539828
      4.22049      4.22049      9.61025        -0.000000      0.000000     -0.025385
      6.33074      2.11025      9.61025        -0.001565      0.001565     -0.039059
      4.22049      2.11344     11.73659        -0.000000     -0.050589      0.053358
      6.32754      4.22049     11.73659         0.050589      0.000000      0.053358
      4.22049      4.22049     13.87814        -0.000000      0.000000     -0.096532
      6.33193      2.10905     13.83447         0.007425     -0.007425     -0.121864
      0.00000      6.33074      9.61025        -0.000000      0.002248      0.071832
      2.11025      0.00000      9.61025        -0.002248      0.000000      0.071832
      0.00000      0.00000      7.50000        -0.000000      0.000000     -0.350418
      2.11025      6.33074      7.50000        -0.000276      0.000276     -0.350102
      0.00000      6.33258     13.88587        -0.000000     -0.001800     -0.184856
      2.10840      0.00000     13.88587         0.001800      0.000000     -0.184856
      0.00000      0.00000     11.72785        -0.000000      0.000000      0.020630
      2.10979      6.33120     11.72890         0.003570     -0.003570      0.015062
      0.00000      2.11025      9.61025        -0.000000     -0.002248      0.071832
      2.11025      4.22049      9.61025         0.009974      0.000000      0.079278
      0.00000      4.22049      7.50000        -0.000000      0.000000     -0.350265
      2.11025      2.11025      7.50000        -0.000276     -0.000276     -0.350102
      0.00000      2.10840     13.88587        -0.000000      0.001800     -0.184856
      2.10031      4.22049     13.88381        -0.003243      0.000000     -0.168326
      0.00000      4.22049     11.72684        -0.000000      0.000000      0.017731
      2.10979      2.10979     11.72890         0.003570      0.003570      0.015062
      4.22049      6.33074      9.61025        -0.000000     -0.009974      0.079278
      6.33074      0.00000      9.61025         0.002248      0.000000      0.071832
      4.22049      0.00000      7.50000        -0.000000      0.000000     -0.350265
      6.33074      6.33074      7.50000         0.000276      0.000276     -0.350102
      4.22049      6.34068     13.88381        -0.000000      0.003243     -0.168326
      6.33258      0.00000     13.88587        -0.001800      0.000000     -0.184856
      4.22049      0.00000     11.72684        -0.000000      0.000000      0.017731
      6.33120      6.33120     11.72890        -0.003570     -0.003570      0.015062
      4.22049      2.11025      9.61025        -0.000000      0.009974      0.079278
      6.33074      4.22049      9.61025        -0.009974      0.000000      0.079278
      4.22049      4.22049      7.50000        -0.000000      0.000000     -0.351092
      6.33074      2.11025      7.50000         0.000276     -0.000276     -0.350102
      4.22049      2.10031     13.88381        -0.000000     -0.003243     -0.168326
      6.34068      4.22049     13.88381         0.003243      0.000000     -0.168326
      4.22049      4.22049     11.73684        -0.000000      0.000000      0.008509
      6.33120      2.10979     11.72890        -0.003570      0.003570      0.015062
    total drift:                                0.000000      0.000000     -0.025667

  FREE ENERGIE OF THE ION-ELECTRON SYSTEM (eV)
  free  energy   TOTEN  =      -507.58402618 eV

  energy  without entropy=     -507.58402618  energy(sigma->0) =     -507.58402618