 vasp.6.3.0 20Jan22 (build Apr  1 2022 16:44:48) complex
 executed on        HPECrayEX_GCC date 2022.11.13  00:13:14

 INCAR:
   SYSTEM = MgO-rocksalt
   ISMEAR = 0
   SIGMA = 0.05
   EDIFF = 1E-9
   ALGO = ALL
   ISTART = 0
   IBRION = 2
   NSW = 1000
   ISYM = 0
   ISIF = 2
   EDIFFG = -0.01
   DIPOL = 0.5 0.5 0.5
   IDIPOL = 3
   LDIPOL = .TRUE.
   GGA = MK
   LUSE_VDW = .TRUE.
   PARAM1 = 0.1234
   PARAM2 = 0.711357
   ZAB_VDW = -1.8867
   AGGAC = 0.0
   ENCUT = 600
   PREC = Accurate
   LASPH = .TRUE.
   LREAL = .FALSE.
   ISPIN = 2
   MAGMOM = 1.0 0.0 0.0 0.0 0.0 0.0 0.0 0.0 0.0 0.0 0.0 0.0 0.0 0.0 0.0 0.0 0.0 0.0 0.0 0.0 0.0 0.0 0.0 0.0 0.0 0.0 0.0 0.0 0.0 0.0 0.0 0.0 0.0 0.0 0.0 0.0 0.0 0.0 0.0 0.0 0.0 0.0 0.0 0.0 0.0 0.0 0.0 0.0 0.0 0.0 0.0 0.0 0.0 0.0 0.0 0.0 0.0 0.0 0.0 0.0 0.0 0.0 0.0 0.0 0.0 0.0
   NELM = 200
   NELMIN = 8
   NCORE = 8
   KPAR = 1
   LWAVE = .FALSE.
   LCHARG = .FALSE.

 POTCAR:    PAW_PBE N 08Apr2002
 POTCAR:    PAW_PBE O 08Apr2002
 POTCAR:    PAW_PBE Mg_pv 13Apr2007
 POTCAR:    PAW_PBE O 08Apr2002
|               ----> ADVICE to this user running VASP <----                  |
|     You have switched on vdW-DFT.                                           |
|     This routine was written and supplied by Jiri Klimes. We recommend      |
|     that you carefully read and cite the following publications:            |
|       J. Klimes, D.R. Bowler, A. Michelides                                 |
|          J. Phys.: Cond Matt. 22 022201 (2010)                              |
|       J. Klimes, D.R. Bowler, A. Michelides                                 |
|          Phys. Rev. B. 83, 195131 (2011)                                    |
|     and references therein.                                                 |

   TITEL  = PAW_PBE N 08Apr2002
   POMASS =   14.001; ZVAL   =    5.000    mass and valenz
   ENMAX  =  400.000; ENMIN  =  300.000 eV

[...]

   TITEL  = PAW_PBE Mg_pv 13Apr2007
   POMASS =   24.305; ZVAL   =    8.000    mass and valenz
   ENMAX  =  403.929; ENMIN  =  302.947 eV

   TITEL  = PAW_PBE O 08Apr2002
   POMASS =   16.000; ZVAL   =    6.000    mass and valenz
   ENMAX  =  400.000; ENMIN  =  300.000 eV

  PAW_PBE N 08Apr2002                   :
  PAW_PBE O 08Apr2002                   :
  PAW_PBE Mg_pv 13Apr2007               :
  PAW_PBE O 08Apr2002                   :

 POSCAR:  N  O Mg  O
  positions in direct lattice
  velocities in cartesian coordinates
 exchange correlation table for  LEXCH =       43
   RHO(1)=    0.500       N(1)  =     2000
   RHO(2)=  100.500       N(2)  =     4000

 ion  position               nearest neighbor table
   1  0.625  0.625  0.756-   2 1.18
   2  0.625  0.625  0.811-   1 1.18
   3  0.250  0.000  0.352-  35 2.11  37 2.11  38 2.11  45 2.11  54 2.11
   4  0.500  0.250  0.352-  36 2.11  37 2.11  38 2.11  46 2.11  53 2.11
   5  0.250  0.250  0.451-  37 2.11  36 2.11  35 2.11  43 2.11  52 2.11  41 2.12
   6  0.500  0.000  0.451-  38 2.11  36 2.11  35 2.11  44 2.11  51 2.11  42 2.11
   7  0.250  0.000  0.550-  58 2.11  41 2.11  49 2.11  42 2.11  35 2.12  39 2.14
   8  0.500  0.251  0.550-  50 2.11  41 2.11  57 2.11  42 2.11  36 2.12  40 2.14
   9  0.250  0.250  0.648-  41 2.11  56 2.11  39 2.11  47 2.11  40 2.11
  10  0.500  0.001  0.648-  42 2.10  40 2.10  48 2.10  39 2.11  55 2.11
  11  0.250  0.500  0.352-  43 2.11  37 2.11  45 2.11  46 2.11  62 2.11
  12  0.500  0.750  0.352-  44 2.11  38 2.11  45 2.11  46 2.11  61 2.11
  13  0.250  0.750  0.451-  45 2.11  43 2.11  44 2.11  35 2.11  60 2.11  49 2.11
  14  0.500  0.500  0.451-  46 2.11  43 2.11  44 2.11  36 2.11  59 2.11  50 2.12
  15  0.251  0.500  0.550-  50 2.11  41 2.11  49 2.11  66 2.11  43 2.12  47 2.14
  16  0.500  0.750  0.550-  50 2.11  65 2.11  49 2.11  42 2.11  44 2.12  48 2.12
  17  0.249  0.750  0.648-  49 2.10  64 2.10  48 2.10  39 2.11  47 2.11
  18  0.500  0.500  0.650-  40 2.11  47 2.11  63 2.12  48 2.12  50 2.13
  19  0.750  0.000  0.352-  51 2.11  38 2.11  53 2.11  54 2.11  61 2.11
  20  0.000  0.250  0.352-  52 2.11  37 2.11  53 2.11  54 2.11  62 2.11
  21  0.750  0.250  0.451-  53 2.11  51 2.11  52 2.11  36 2.11  59 2.11  57 2.11
  22  0.000  0.000  0.451-  54 2.11  51 2.11  52 2.11  35 2.11  60 2.11  58 2.12
  23  0.750  0.999  0.550-  65 2.11  58 2.11  42 2.11  57 2.11  51 2.12  55 2.14
  24  0.000  0.250  0.550-  58 2.11  41 2.11  57 2.11  66 2.11  52 2.12  56 2.14
  25  0.750  0.249  0.648-  57 2.10  55 2.10  63 2.10  56 2.11  40 2.11
  26  1.000  1.000  0.648-  58 2.11  56 2.11  39 2.11  64 2.11  55 2.11
  27  0.750  0.500  0.352-  59 2.11  53 2.11  46 2.11  61 2.11  62 2.11
  28  0.000  0.750  0.352-  60 2.11  54 2.11  45 2.11  61 2.11  62 2.11
  29  0.750  0.750  0.451-  61 2.11  51 2.11  59 2.11  60 2.11  44 2.11  65 2.12
  30  0.000  0.500  0.451-  62 2.11  52 2.11  59 2.11  60 2.11  43 2.11  66 2.11
  31  0.750  0.500  0.550-  50 2.11  65 2.11  57 2.11  66 2.11  59 2.12  63 2.12
  32  0.999  0.750  0.550-  65 2.11  58 2.11  66 2.11  49 2.11  60 2.12  64 2.14
  33  0.750  0.750  0.650-  64 2.11  55 2.11  48 2.12  63 2.12  65 2.13
  34  0.001  0.500  0.648-  66 2.10  47 2.10  63 2.10  56 2.11  64 2.11
  35  0.250  0.000  0.451-   3 2.11   5 2.11   6 2.11  13 2.11  22 2.11   7 2.12
  36  0.500  0.250  0.451-   4 2.11   5 2.11   6 2.11  14 2.11  21 2.11   8 2.12
  37  0.250  0.250  0.352-   5 2.11   4 2.11   3 2.11  11 2.11  20 2.11
  38  0.500  0.000  0.352-   6 2.11   4 2.11   3 2.11  12 2.11  19 2.11
  39  0.250  0.000  0.650-  26 2.11   9 2.11  10 2.11  17 2.11   7 2.14
  40  0.500  0.250  0.650-  10 2.10  18 2.11   9 2.11  25 2.11   8 2.14
  41  0.250  0.250  0.550-   9 2.11  24 2.11   7 2.11  15 2.11   8 2.11   5 2.12
  42  0.500  0.000  0.550-  10 2.10   7 2.11  23 2.11   8 2.11  16 2.11   6 2.11
  43  0.250  0.500  0.451-  11 2.11   5 2.11  13 2.11  14 2.11  30 2.11  15 2.12
  44  0.500  0.750  0.451-  12 2.11   6 2.11  13 2.11  14 2.11  29 2.11  16 2.12
  45  0.250  0.750  0.352-  13 2.11  11 2.11  12 2.11   3 2.11  28 2.11
  46  0.500  0.500  0.352-  14 2.11  11 2.11  12 2.11   4 2.11  27 2.11
  47  0.250  0.500  0.650-  34 2.10  18 2.11   9 2.11  17 2.11  15 2.14
  48  0.498  0.752  0.649-  17 2.10  10 2.10  16 2.12  33 2.12  18 2.12
  49  0.250  0.750  0.550-  17 2.10   7 2.11  15 2.11  32 2.11  16 2.11  13 2.11
  50  0.500  0.500  0.550-   8 2.11  15 2.11  16 2.11  31 2.11  14 2.12  18 2.13
  51  0.750  0.000  0.451-  19 2.11   6 2.11  21 2.11  22 2.11  29 2.11  23 2.12
  52  0.000  0.250  0.451-  20 2.11   5 2.11  21 2.11  22 2.11  30 2.11  24 2.12
  53  0.750  0.250  0.352-  21 2.11  19 2.11  20 2.11   4 2.11  27 2.11
  54  0.000  0.000  0.352-  22 2.11  19 2.11  20 2.11   3 2.11  28 2.11
  55  0.750  1.000  0.650-  25 2.10  33 2.11  26 2.11  10 2.11  23 2.14
  56  0.000  0.250  0.650-  26 2.11   9 2.11  25 2.11  34 2.11  24 2.14
  57  0.750  0.250  0.550-  25 2.10  24 2.11   8 2.11  23 2.11  31 2.11  21 2.11
  58  1.000  1.000  0.550-  26 2.11  24 2.11   7 2.11  23 2.11  32 2.11  22 2.12
  59  0.750  0.500  0.451-  27 2.11  21 2.11  14 2.11  29 2.11  30 2.11  31 2.12
  60  0.000  0.750  0.451-  28 2.11  22 2.11  13 2.11  29 2.11  30 2.11  32 2.12
  61  0.750  0.750  0.352-  29 2.11  19 2.11  27 2.11  28 2.11  12 2.11
  62  0.000  0.500  0.352-  30 2.11  20 2.11  27 2.11  28 2.11  11 2.11
  63  0.752  0.498  0.649-  34 2.10  25 2.10  31 2.12  33 2.12  18 2.12
  64  1.000  0.750  0.650-  17 2.10  33 2.11  26 2.11  34 2.11  32 2.14
  65  0.750  0.750  0.550-  23 2.11  32 2.11  31 2.11  16 2.11  29 2.12  33 2.13
  66  0.000  0.500  0.550-  34 2.10  24 2.11  32 2.11  15 2.11  31 2.11  30 2.11

IMPORTANT INFORMATION: All symmetrisations will be switched off!
NOSYMM: (Re-)initialisation of all symmetry stuff for point group C_1.

                                     Primitive cell

  volume of cell :    1519.6535

  direct lattice vectors                    reciprocal lattice vectors
     8.440582262  0.000000000  0.000000000     0.118475239  0.000000000  0.000000000
     0.000000000  8.440582262  0.000000000     0.000000000  0.118475239  0.000000000
     0.000000000  0.000000000 21.330436697     0.000000000  0.000000000  0.046881366

  length of vectors
     8.440582262  8.440582262 21.330436697     0.118475239  0.118475239  0.046881366

  position of ions in fractional coordinates (direct lattice)
     0.624999992  0.624999992  0.755506293
     0.625000013  0.625000009  0.810597975
     0.250000000  0.000000000  0.351610242
     0.500000000  0.250000000  0.351610242
     0.250000000  0.250000000  0.450536747
     0.500000000  0.000000000  0.450536747
     0.249880915  0.000119079  0.549876080
     0.500040890  0.250567300  0.550046712
     0.250049597  0.250049604  0.648440444
     0.499621014  0.001041076  0.648098476
     0.250000000  0.500000000  0.351610242
     0.500000000  0.750000000  0.351610242
     0.250000000  0.750000000  0.450536747
     0.500000000  0.500000000  0.450536747
     0.250567279  0.500040888  0.550046709
     0.500126974  0.749873018  0.549857430
     0.248958942  0.750378971  0.648098507
     0.499995294  0.499995296  0.649859940
     0.750000000  0.000000000  0.351610242
     0.000000000  0.250000000  0.351610242
     0.750000000  0.250000000  0.450536747
     0.000000000  0.000000000  0.450536747
     0.749959116  0.999432708  0.550046735
     0.000119080  0.249880913  0.549876077
     0.750378984  0.248958918  0.648098500
     0.999950403  0.999950401  0.648440434
     0.750000000  0.500000000  0.351610242
     0.000000000  0.750000000  0.351610242
     0.750000000  0.750000000  0.450536747
     0.000000000  0.500000000  0.450536747
     0.749873020  0.500126973  0.549857431
     0.999432725  0.749959114  0.550046730
     0.750004694  0.750004696  0.649859937
     0.001041050  0.499621027  0.648098484
     0.250000000  0.000000000  0.450536747
     0.500000000  0.250000000  0.450536747
     0.250000000  0.250000000  0.351610242
     0.500000000  0.000000000  0.351610242
     0.249766805  0.000233192  0.650145987
     0.500208936  0.250120876  0.650306209
     0.250078527  0.250078528  0.549754536
     0.499906331  0.000240887  0.549643249
     0.250000000  0.500000000  0.450536747
     0.500000000  0.750000000  0.450536747
     0.250000000  0.750000000  0.351610242
     0.500000000  0.500000000  0.351610242
     0.250120873  0.500208939  0.650306206
     0.498273722  0.751726276  0.649389536
     0.249759122  0.750093680  0.549643265
     0.500185013  0.500185017  0.549981544
     0.750000000  0.000000000  0.450536747
     0.000000000  0.250000000  0.450536747
     0.750000000  0.250000000  0.351610242
     0.000000000  0.000000000  0.351610242
     0.749791060  0.999879120  0.650306211
     0.000233194  0.249766801  0.650145987
     0.750093680  0.249759130  0.549643266
     0.999921470  0.999921470  0.549754534
     0.750000000  0.500000000  0.450536747
     0.000000000  0.750000000  0.450536747
     0.750000000  0.750000000  0.351610242
     0.000000000  0.500000000  0.351610242
     0.751726272  0.498273722  0.649389536
     0.999879117  0.749791060  0.650306209
     0.749814991  0.749814984  0.549981550
     0.000240880  0.499906335  0.549643248

  ion indices of the primitive-cell ions
[...]
   2.11056420  2.11056425 13.83151785
   4.21709227  0.00878729 13.82422352
   2.11014557  4.22029113  7.50000000
   4.22029113  6.33043670  7.50000000
   2.11014557  6.33043670  9.61014557
   4.22029113  4.22029113  9.61014557
   2.11493373  4.22063625 11.73273651
   4.22136286  6.32936489 11.72869911
   2.10135843  6.33363543 13.82422418
   4.22025141  4.22025143 13.86179631
   6.33043670  0.00000000  7.50000000
   0.00000000  2.11014557  7.50000000
   6.33043670  2.11014557  9.61014557
   0.00000000  0.00000000  9.61014557
   6.33009161  8.43579398 11.73273707
   0.00100510  2.10914040 11.72909686
   6.33363554  2.10135823 13.82422403
   8.44016363  8.44016361 13.83151762
   6.33043670  4.22029113  7.50000000
   0.00000000  6.33043670  7.50000000
   6.33043670  6.33043670  9.61014557
   0.00000000  4.22029113  9.61014557
   6.32936491  4.22136286 11.72869913
   8.43579413  6.33009160 11.73273696
   6.33047632  6.33047633 13.86179625
   0.00878707  4.21709238 13.82422368
   2.11014557  0.00000000  9.61014557
   4.22029113  2.11014557  9.61014557
   2.11014557  2.11014557  7.50000000
   4.22029113  0.00000000  7.50000000
   2.10817727  0.00196828 13.86789783
   4.22205468  2.11116583 13.87131543
   2.11080838  2.11080838 11.72650433
   4.21950051  0.00203322 11.72413054
   2.11014557  4.22029113  9.61014557
   4.22029113  6.33043670  9.61014557
   2.11014557  6.33043670  7.50000000
   4.22029113  4.22029113  7.50000000
   2.11116580  4.22205470 13.87131535
   4.20572034  6.34500747 13.85176239
   2.10811241  6.33122741 11.72413088
   4.22185275  4.22185278 11.73134650
   6.33043670  0.00000000  9.61014557
   0.00000000  2.11014557  9.61014557
   6.33043670  2.11014557  7.50000000
   0.00000000  0.00000000  7.50000000
   6.32867312  8.43956196 13.87131546
   0.00196829  2.10817723 13.86789781
   6.33122741  2.10811249 11.72413089
   8.43991942  8.43991942 11.72650429
   6.33043670  4.22029113  9.61014557
   0.00000000  6.33043670  9.61014557
   6.33043670  6.33043670  7.50000000
   0.00000000  4.22029113  7.50000000
   6.34500743  4.20572034 13.85176239
   8.43956194  6.32867312 13.87131542
   6.32887511  6.32887506 11.73134663
   0.00203317  4.21950054 11.72413051

--------------------------------------- Iteration      FINAL  ---------------------------------------

--------------------OUTCAR has been truncated-------------------------

[...]

--------------------OUTCAR has been truncated-------------------------

  FORCE on cell =-STRESS in cart. coord.  units (eV):
  Direction    XX          YY          ZZ          XY          YZ          ZX
  Alpha Z   910.35202   910.35202   910.35202
  Ewald  158425.28876158425.28879************     8.62194    -0.00005     0.00001
  Hartree168819.63372168819.63375************     7.73339    -0.00005    -0.00002
  E(xc)   -2506.73462 -2506.73462 -2505.63959     0.12269     0.00000     0.00000
  Local  ************************336713.42245   -25.25876     0.00011     0.00002
  n-local -2862.26099 -2862.26099 -2889.52378    -3.42098    -0.00000    -0.00000
  augment  1059.02888  1059.02888  1048.69855     0.87754     0.00000    -0.00000
  Kinetic  7538.22225  7538.22225  7547.72979    10.84210    -0.00001    -0.00001
  Fock        0.00000     0.00000     0.00000     0.00000     0.00000     0.00000
  Total     -29.66239   -29.66239    -2.80586    -0.48208     0.00000     0.00000
  in kB     -31.27319   -31.27318    -2.95823    -0.50826     0.00000     0.00000

 VOLUME and BASIS-vectors are now :
  energy-cutoff  :      600.00
  volume of cell :     1519.65
      direct lattice vectors                 reciprocal lattice vectors
     8.440582262  0.000000000  0.000000000     0.118475239  0.000000000  0.000000000
     0.000000000  8.440582262  0.000000000     0.000000000  0.118475239  0.000000000
     0.000000000  0.000000000 21.330436697     0.000000000  0.000000000  0.046881366

  length of vectors
     8.440582262  8.440582262 21.330436697     0.118475239  0.118475239  0.046881366

 FORCES acting on ions:
    Electron-Ion                     Ewald-Force                    Non-Local-Force
   0.126E-03 0.102E-03 -.113E+04   -.143E-03 -.113E-03 0.109E+04   0.173E-04 0.109E-04 0.421E+02
   -.645E-04 -.371E-04 -.157E+04   0.834E-04 0.500E-04 0.163E+04   -.189E-04 -.134E-04 -.589E+02
   0.169E+00 -.169E+00 0.208E+04   -.171E+00 0.171E+00 -.208E+04   0.168E-02 -.168E-02 -.680E+01
   0.170E+00 0.161E+00 0.208E+04   -.172E+00 -.161E+00 -.208E+04   0.151E-02 -.202E-03 -.680E+01
   0.477E+00 0.477E+00 0.720E+03   -.464E+00 -.464E+00 -.721E+03   -.912E-02 -.912E-02 0.454E+00
   0.474E+00 -.972E+00 0.722E+03   -.466E+00 0.102E+01 -.722E+03   -.553E-02 -.308E-01 0.426E+00
   0.312E+01 -.312E+01 -.635E+03   -.311E+01 0.311E+01 0.636E+03   -.199E-02 0.199E-02 -.246E+00
   0.326E+01 0.381E+01 -.632E+03   -.325E+01 -.374E+01 0.632E+03   -.606E-02 -.714E-01 -.256E+00
   0.958E+01 0.958E+01 -.200E+04   -.968E+01 -.968E+01 0.199E+04   0.921E-01 0.921E-01 0.595E+01
   0.111E+02 -.211E+02 -.198E+04   -.112E+02 0.212E+02 0.198E+04   0.766E-01 -.543E-01 0.600E+01
   0.161E+00 0.170E+00 0.208E+04   -.161E+00 -.172E+00 -.208E+04   -.202E-03 0.151E-02 -.680E+01
   0.160E+00 -.160E+00 0.208E+04   -.161E+00 0.161E+00 -.208E+04   0.710E-03 -.710E-03 -.678E+01
   0.972E+00 -.474E+00 0.722E+03   -.102E+01 0.467E+00 -.722E+03   0.308E-01 0.553E-02 0.426E+00
   0.102E+01 0.102E+01 0.723E+03   -.104E+01 -.104E+01 -.723E+03   0.169E-01 0.169E-01 0.533E+00
   0.381E+01 0.326E+01 -.632E+03   -.374E+01 -.325E+01 0.632E+03   -.714E-01 -.606E-02 -.256E+00
   0.407E+01 -.407E+01 -.618E+03   -.400E+01 0.400E+01 0.618E+03   -.661E-01 0.661E-01 -.312E+00
   0.211E+02 -.111E+02 -.198E+04   -.212E+02 0.112E+02 0.198E+04   0.543E-01 -.766E-01 0.600E+01
   0.346E+02 0.346E+02 -.193E+04   -.350E+02 -.350E+02 0.193E+04   0.487E+00 0.487E+00 0.567E+01
   -.170E+00 -.161E+00 0.208E+04   0.172E+00 0.161E+00 -.208E+04   -.151E-02 0.202E-03 -.680E+01
   -.169E+00 0.169E+00 0.208E+04   0.171E+00 -.171E+00 -.208E+04   -.168E-02 0.168E-02 -.680E+01
   -.474E+00 0.972E+00 0.722E+03   0.467E+00 -.102E+01 -.722E+03   0.553E-02 0.308E-01 0.426E+00
   -.477E+00 -.477E+00 0.720E+03   0.464E+00 0.464E+00 -.721E+03   0.913E-02 0.913E-02 0.454E+00
   -.326E+01 -.381E+01 -.632E+03   0.325E+01 0.374E+01 0.632E+03   0.606E-02 0.714E-01 -.256E+00
   -.312E+01 0.312E+01 -.635E+03   0.311E+01 -.311E+01 0.636E+03   0.199E-02 -.199E-02 -.246E+00
   -.111E+02 0.211E+02 -.198E+04   0.112E+02 -.212E+02 0.198E+04   -.766E-01 0.543E-01 0.600E+01
   -.958E+01 -.958E+01 -.200E+04   0.968E+01 0.968E+01 0.199E+04   -.921E-01 -.921E-01 0.595E+01
   -.160E+00 0.160E+00 0.208E+04   0.161E+00 -.161E+00 -.208E+04   -.710E-03 0.710E-03 -.678E+01
   -.161E+00 -.170E+00 0.208E+04   0.161E+00 0.172E+00 -.208E+04   0.202E-03 -.151E-02 -.680E+01
   -.102E+01 -.102E+01 0.723E+03   0.104E+01 0.104E+01 -.723E+03   -.169E-01 -.169E-01 0.533E+00
   -.972E+00 0.474E+00 0.722E+03   0.102E+01 -.466E+00 -.722E+03   -.308E-01 -.553E-02 0.426E+00
   -.407E+01 0.407E+01 -.618E+03   0.400E+01 -.400E+01 0.618E+03   0.661E-01 -.661E-01 -.312E+00
   -.381E+01 -.326E+01 -.632E+03   0.374E+01 0.325E+01 0.632E+03   0.714E-01 0.606E-02 -.256E+00
   -.346E+02 -.346E+02 -.193E+04   0.350E+02 0.350E+02 0.193E+04   -.487E+00 -.487E+00 0.567E+01
   -.211E+02 0.111E+02 -.198E+04   0.212E+02 -.112E+02 0.198E+04   -.543E-01 0.766E-01 0.600E+01
   0.545E+00 -.545E+00 0.540E+03   -.542E+00 0.542E+00 -.540E+03   -.454E-02 0.454E-02 -.833E-01
   0.562E+00 0.521E+00 0.541E+03   -.563E+00 -.558E+00 -.540E+03   0.247E-02 0.509E-01 -.116E+00
   0.101E+00 0.101E+00 0.156E+04   -.101E+00 -.101E+00 -.157E+04   -.597E-03 -.597E-03 0.360E+01
   0.101E+00 -.148E+00 0.156E+04   -.101E+00 0.152E+00 -.157E+04   -.716E-03 -.484E-02 0.360E+01
   0.765E+01 -.765E+01 -.152E+04   -.761E+01 0.761E+01 0.152E+04   -.410E-01 0.410E-01 -.493E+01
   0.895E+01 0.158E+02 -.151E+04   -.892E+01 -.157E+02 0.151E+04   -.245E-01 -.123E+00 -.489E+01
   0.188E+01 0.188E+01 -.472E+03   -.189E+01 -.189E+01 0.472E+03   0.904E-02 0.904E-02 0.287E+00
   0.195E+01 -.350E+01 -.467E+03   -.194E+01 0.347E+01 0.467E+03   -.214E-02 0.351E-01 0.299E+00
   0.521E+00 0.562E+00 0.541E+03   -.558E+00 -.563E+00 -.540E+03   0.509E-01 0.247E-02 -.116E+00
   0.508E+00 -.508E+00 0.543E+03   -.520E+00 0.520E+00 -.542E+03   0.162E-01 -.162E-01 -.431E-01
   0.148E+00 -.101E+00 0.156E+04   -.152E+00 0.101E+00 -.157E+04   0.484E-02 0.715E-03 0.360E+01
   0.147E+00 0.147E+00 0.157E+04   -.152E+00 -.152E+00 -.157E+04   0.630E-02 0.630E-02 0.361E+01
   0.158E+02 0.895E+01 -.151E+04   -.157E+02 -.892E+01 0.151E+04   -.123E+00 -.245E-01 -.489E+01
   0.256E+02 -.256E+02 -.145E+04   -.254E+02 0.254E+02 0.146E+04   -.199E+00 0.199E+00 -.479E+01
   0.350E+01 -.195E+01 -.467E+03   -.347E+01 0.194E+01 0.467E+03   -.351E-01 0.215E-02 0.299E+00
   0.369E+01 0.369E+01 -.466E+03   -.365E+01 -.365E+01 0.467E+03   -.346E-01 -.346E-01 -.121E+00
   -.562E+00 -.521E+00 0.541E+03   0.563E+00 0.558E+00 -.540E+03   -.247E-02 -.509E-01 -.116E+00
   -.545E+00 0.545E+00 0.540E+03   0.542E+00 -.542E+00 -.540E+03   0.454E-02 -.454E-02 -.834E-01
   -.101E+00 0.148E+00 0.156E+04   0.101E+00 -.152E+00 -.157E+04   0.715E-03 0.484E-02 0.360E+01
   -.101E+00 -.101E+00 0.156E+04   0.101E+00 0.101E+00 -.157E+04   0.597E-03 0.597E-03 0.360E+01
   -.895E+01 -.158E+02 -.151E+04   0.892E+01 0.157E+02 0.151E+04   0.245E-01 0.123E+00 -.489E+01
   -.765E+01 0.765E+01 -.152E+04   0.761E+01 -.761E+01 0.152E+04   0.410E-01 -.410E-01 -.493E+01
   -.195E+01 0.350E+01 -.467E+03   0.194E+01 -.347E+01 0.467E+03   0.214E-02 -.351E-01 0.299E+00
   -.188E+01 -.188E+01 -.472E+03   0.189E+01 0.189E+01 0.472E+03   -.904E-02 -.904E-02 0.287E+00
   -.508E+00 0.508E+00 0.543E+03   0.520E+00 -.520E+00 -.542E+03   -.162E-01 0.162E-01 -.431E-01
   -.521E+00 -.562E+00 0.541E+03   0.558E+00 0.563E+00 -.540E+03   -.509E-01 -.247E-02 -.116E+00
   -.147E+00 -.147E+00 0.157E+04   0.152E+00 0.152E+00 -.157E+04   -.630E-02 -.630E-02 0.361E+01
   -.148E+00 0.101E+00 0.156E+04   0.152E+00 -.101E+00 -.157E+04   -.484E-02 -.716E-03 0.360E+01
   -.256E+02 0.256E+02 -.145E+04   0.254E+02 -.254E+02 0.146E+04   0.199E+00 -.199E+00 -.479E+01
   -.158E+02 -.895E+01 -.151E+04   0.157E+02 0.892E+01 0.151E+04   0.123E+00 0.245E-01 -.489E+01
   -.369E+01 -.369E+01 -.466E+03   0.365E+01 0.365E+01 0.467E+03   0.346E-01 0.346E-01 -.121E+00
   -.350E+01 0.195E+01 -.467E+03   0.347E+01 -.194E+01 0.467E+03   0.351E-01 -.214E-02 0.299E+00
   0.249E-05 0.289E-05 0.318E+02   -.725E-12 0.227E-12 -.568E-12   -.192E-05 -.353E-05 -.318E+02

 POSITION                                       TOTAL-FORCE (eV/Angst)
      5.27536      5.27536     16.05573        -0.000000     -0.000000     -0.008325
      5.27537      5.27536     17.23147        -0.000000     -0.000000      0.004559
      2.11015      0.00000      7.50000        -0.000601      0.000601      0.318316
      4.22029      2.11015      7.50000        -0.000555     -0.000152      0.319470
      2.11015      2.11015      9.61015         0.003773      0.003773      0.036958
      4.22029      0.00000      9.61015         0.002186      0.012926      0.038589
      2.10982      0.00032     11.73124        -0.000437      0.000438      0.000565
      4.22092      2.11423     11.73414         0.001162      0.001127     -0.004078
      2.10997      2.10997     13.83175        -0.002079     -0.002079      0.004652
      4.21718      0.00882     13.82743        -0.005267     -0.003367     -0.006224
      2.11015      4.22029      7.50000        -0.000152     -0.000555      0.319470
      4.22029      6.33044      7.50000        -0.000390      0.000390      0.314940
      2.11015      6.33044      9.61015        -0.012927     -0.002185      0.038589
      4.22029      4.22029      9.61015        -0.005517     -0.005517      0.039850
      2.11423      4.22092     11.73414         0.001127      0.001162     -0.004078
      4.22137      6.32936     11.72962        -0.001728      0.001729     -0.000093
      2.10133      6.33355     13.82743         0.003368      0.005267     -0.006223
      4.21961      4.21961     13.86338         0.006330      0.006328      0.000828
      6.33044      0.00000      7.50000         0.000555      0.000152      0.319470
      0.00000      2.11015      7.50000         0.000601     -0.000601      0.318316
      6.33044      2.11015      9.61015        -0.002185     -0.012927      0.038589
      0.00000      0.00000      9.61015        -0.003774     -0.003774      0.036959
      6.32981      8.43650     11.73414        -0.001163     -0.001127     -0.004079
      0.00032      2.10982     11.73124         0.000438     -0.000437      0.000565
      6.33355      2.10133     13.82743         0.005266      0.003369     -0.006223
      0.00017      0.00017     13.83175         0.002080      0.002079      0.004652
      6.33044      4.22029      7.50000         0.000390     -0.000390      0.314940
      0.00000      6.33044      7.50000         0.000152      0.000555      0.319470
      6.33044      6.33044      9.61015         0.005518      0.005518      0.039851
      0.00000      4.22029      9.61015         0.012926      0.002186      0.038589
      6.32936      4.22137     11.72962         0.001729     -0.001729     -0.000092
      8.43650      6.32981     11.73414        -0.001127     -0.001163     -0.004079
      6.33112      6.33112     13.86338        -0.006329     -0.006329      0.000826
      0.00882      4.21718     13.82743        -0.003369     -0.005266     -0.006224
      2.11015      0.00000      9.61015        -0.001290      0.001289      0.053508
      4.22029      2.11015      9.61015         0.000676      0.013088      0.058515
      2.11015      2.11015      7.50000        -0.000157     -0.000157     -0.404074
      4.22029      0.00000      7.50000        -0.000194     -0.001368     -0.402713
      2.10798      0.00217     13.86962        -0.002137      0.002136     -0.002911
      4.22168      2.11093     13.87337         0.000447      0.000725     -0.003311
      2.11066      2.11066     11.72671         0.002632      0.002633      0.000791
      4.21989      0.00195     11.72528         0.000419      0.003662     -0.003050
      2.11015      4.22029      9.61015         0.013088      0.000676      0.058515
      4.22029      6.33044      9.61015         0.004226     -0.004226      0.058383
      2.11015      6.33044      7.50000         0.001368      0.000194     -0.402713
      4.22029      4.22029      7.50000         0.001807      0.001807     -0.401785
      2.11093      4.22168     13.87337         0.000725      0.000448     -0.003311
      4.20326      6.34746     13.85238        -0.000593      0.000592     -0.008793
      2.10819      6.33084     11.72528        -0.003661     -0.000418     -0.003050
      4.22174      4.22174     11.73328        -0.001918     -0.001918     -0.003646
      6.33044      0.00000      9.61015        -0.000676     -0.013088      0.058516
      0.00000      2.11015      9.61015         0.001289     -0.001290      0.053508
      6.33044      2.11015      7.50000         0.000194      0.001368     -0.402713
      0.00000      0.00000      7.50000         0.000157      0.000157     -0.404074
      6.32905     -0.00078     13.87337        -0.000447     -0.000725     -0.003313
      0.00217      2.10798     13.86962         0.002136     -0.002137     -0.002911
      6.33084      2.10819     11.72528        -0.000418     -0.003662     -0.003051
      8.44007      8.44007     11.72671        -0.002632     -0.002633      0.000789
      6.33044      4.22029      9.61015        -0.004226      0.004226      0.058383
      0.00000      6.33044      9.61015        -0.013088     -0.000676      0.058516
      6.33044      6.33044      7.50000        -0.001807     -0.001807     -0.401785
      0.00000      4.22029      7.50000        -0.001368     -0.000194     -0.402713
      6.34746      4.20326     13.85238         0.000593     -0.000592     -0.008792
     -0.00078      6.32905     13.87337        -0.000725     -0.000447     -0.003313
      6.32899      6.32899     11.73328         0.001918      0.001918     -0.003646
      0.00195      4.21989     11.72528         0.003663      0.000419     -0.003051
    total drift:                                0.000001     -0.000001     -0.014234

  FREE ENERGIE OF THE ION-ELECTRON SYSTEM (eV)
  free  energy   TOTEN  =      -274.54447419 eV

  energy  without entropy=     -274.54447419  energy(sigma->0) =     -274.54447419

 d Force = 0.3105775E-04[ 0.278E-04, 0.343E-04]  d Energy = 0.3063778E-04 0.420E-06
 d Force =-0.3450957E+01[-0.345E+01,-0.345E+01]  d Ewald  =-0.3450957E+01-0.790E-09

 reached required accuracy - stopping structural energy minimisation