 vasp.6.3.0 20Jan22 (build Apr  1 2022 16:44:48) complex
 executed on        HPECrayEX_GCC date 2022.11.14  00:42:44

 INCAR:
   SYSTEM = MgO-rocksalt
   ISMEAR = 0
   SIGMA = 0.05
   EDIFF = 1E-6
   ALGO = ALL
   ISTART = 0
   IBRION = -1
   NSW = 0
   ISYM = 0
   DIPOL = 0.5 0.5 0.5
   IDIPOL = 3
   LDIPOL = .TRUE.
   LHFCALC = .TRUE.
   GGA = B5
   AEXX = 0.2
   AGGAX = 0.72
   AGGAC = 0.81
   ALDAC = 0.19
   IVDW = 1
   VDW_S6 = 1.05
   VDW_C6 = 0.63 0.70
   VDW_R0 = 1.243 1.342
   ENCUT = 600
   PREC = Accurate
   LASPH = .TRUE.
   LREAL = .FALSE.
   ISPIN = 2
   MAGMOM = 0.0 0.0 0.0 0.0 0.0 0.0 0.0 0.0 0.0 0.0 0.0 0.0 0.0 0.0 0.0 0.0 0.0 0.0 0.0 0.0 0.0 0.0 0.0 0.0 0.0 0.0 0.0 0.0 0.0 0.0 0.0 0.0 0.0 0.0 0.0 0.0 0.0 0.0 0.0 0.0 0.0 0.0 0.0 0.0 0.0 0.0 0.0 0.0 0.0 0.0 0.0 0.0 0.0 0.0 0.0 0.0 0.0 0.0 0.0 0.0 0.0 0.0 0.0 0.0
   NELM = 200
   NELMIN = 8
   NCORE = 8
   KPAR = 1
   LWAVE = .FALSE.
   LCHARG = .FALSE.

 POTCAR:    PAW_PBE Mg_pv 13Apr2007
 POTCAR:    PAW_PBE O 08Apr2002
 POTCAR:    PAW_PBE Mg_pv 13Apr2007
   VRHFIN =Mg: p6s2

   TITEL  = PAW_PBE Mg_pv 13Apr2007
   POMASS =   24.305; ZVAL   =    8.000    mass and valenz
   ENMAX  =  403.929; ENMIN  =  302.947 eV

   TITEL  = PAW_PBE O 08Apr2002
   POMASS =   16.000; ZVAL   =    6.000    mass and valenz
   ENMAX  =  400.000; ENMIN  =  300.000 eV

  PAW_PBE Mg_pv 13Apr2007               :
  PAW_PBE O 08Apr2002                   :

 POSCAR: Mg  O
  positions in direct lattice
 exchange correlation table for  LEXCH =       12
   RHO(1)=    0.500       N(1)  =     2000
   RHO(2)=  100.500       N(2)  =     4000

 ion  position               nearest neighbor table
   1  0.000  0.750  0.350-  33 2.14  35 2.14  36 2.14  43 2.14  52 2.14
   2  0.250  0.000  0.350-  34 2.14  35 2.14  36 2.14  44 2.14  51 2.14
   3  0.000  0.000  0.450-  35 2.14  34 2.14  33 2.14  41 2.14  50 2.14  39 2.14
   4  0.250  0.750  0.450-  36 2.14  34 2.14  33 2.14  42 2.14  49 2.14  40 2.14
   5  1.000  0.750  0.550-  56 2.13  39 2.14  47 2.14  40 2.14  33 2.15  37 2.17
   6  0.250  0.000  0.550-  39 2.14  48 2.14  55 2.14  40 2.14  34 2.15  38 2.16
   7  1.000  1.000  0.650-  39 2.13  38 2.14  45 2.14  37 2.14  54 2.14
   8  0.249  0.750  0.649-  40 2.13  37 2.13  53 2.13  38 2.14  46 2.14
   9  0.000  0.250  0.350-  41 2.14  35 2.14  43 2.14  44 2.14  60 2.14
  10  0.250  0.500  0.350-  42 2.14  36 2.14  43 2.14  44 2.14  59 2.14
  11  0.000  0.500  0.450-  43 2.14  41 2.14  42 2.14  33 2.14  58 2.14  47 2.14
  12  0.250  0.250  0.450-  44 2.14  41 2.14  42 2.14  34 2.14  57 2.14  48 2.14
  13  0.000  0.250  0.550-  39 2.14  48 2.14  47 2.14  64 2.14  41 2.15  45 2.16
  14  0.250  0.500  0.550-  63 2.13  48 2.14  40 2.14  47 2.14  42 2.15  46 2.17
  15  0.001  0.500  0.649-  47 2.13  46 2.13  62 2.13  45 2.14  37 2.14
  16  0.250  0.250  0.650-  48 2.13  38 2.14  45 2.14  46 2.14  61 2.14
  17  0.500  0.750  0.350-  49 2.14  36 2.14  51 2.14  52 2.14  59 2.14
  18  0.750  0.000  0.350-  50 2.14  35 2.14  51 2.14  52 2.14  60 2.14
  19  0.500  0.000  0.450-  51 2.14  49 2.14  50 2.14  34 2.14  57 2.14  55 2.14
  20  0.750  0.750  0.450-  52 2.14  49 2.14  50 2.14  33 2.14  58 2.14  56 2.15
  21  0.500  0.750  0.550-  56 2.14  63 2.14  40 2.14  55 2.14  49 2.15  53 2.15
  22  0.750  1.000  0.550-  56 2.13  39 2.14  55 2.14  64 2.14  50 2.15  54 2.17
  23  0.500  0.001  0.649-  55 2.13  61 2.13  53 2.13  38 2.14  54 2.14
  24  0.750  0.750  0.651-  37 2.14  54 2.14  56 2.15  53 2.15  62 2.15
  25  0.500  0.250  0.350-  57 2.14  51 2.14  44 2.14  59 2.14  60 2.14
  26  0.750  0.500  0.350-  58 2.14  52 2.14  43 2.14  59 2.14  60 2.14
  27  0.500  0.500  0.450-  59 2.14  49 2.14  57 2.14  58 2.14  42 2.14  63 2.15
  28  0.750  0.250  0.450-  60 2.14  50 2.14  57 2.14  58 2.14  41 2.14  64 2.14
  29  0.500  0.250  0.550-  63 2.13  48 2.14  64 2.14  55 2.14  57 2.15  61 2.17
  30  0.750  0.500  0.550-  63 2.14  56 2.14  64 2.14  47 2.14  58 2.15  62 2.15
  31  0.500  0.500  0.651-  46 2.14  61 2.14  63 2.15  53 2.15  62 2.15
  32  0.750  0.249  0.649-  64 2.13  54 2.13  62 2.13  45 2.14  61 2.14
  33  0.000  0.750  0.450-   1 2.14   3 2.14   4 2.14  11 2.14  20 2.14   5 2.15
  34  0.250  0.000  0.450-   2 2.14   3 2.14   4 2.14  12 2.14  19 2.14   6 2.15
  35  0.000  0.000  0.350-   3 2.14   2 2.14   1 2.14   9 2.14  18 2.14
  36  0.250  0.750  0.350-   4 2.14   2 2.14   1 2.14  10 2.14  17 2.14
  37  1.000  0.750  0.652-   8 2.13  24 2.14  15 2.14   7 2.14   5 2.17
  38  0.250  0.000  0.652-   7 2.14  16 2.14  23 2.14   8 2.14   6 2.16
  39  1.000  1.000  0.550-   7 2.13  22 2.14   5 2.14  13 2.14   6 2.14   3 2.14
  40  0.250  0.750  0.550-   8 2.13   6 2.14  14 2.14   5 2.14  21 2.14   4 2.14
  41  0.000  0.250  0.450-   9 2.14   3 2.14  11 2.14  12 2.14  28 2.14  13 2.15
  42  0.250  0.500  0.450-  10 2.14   4 2.14  11 2.14  12 2.14  27 2.14  14 2.15
  43  0.000  0.500  0.350-  11 2.14   9 2.14  10 2.14   1 2.14  26 2.14
  44  0.250  0.250  0.350-  12 2.14   9 2.14  10 2.14   2 2.14  25 2.14
  45  0.000  0.250  0.652-   7 2.14  16 2.14  32 2.14  15 2.14  13 2.16
  46  0.250  0.500  0.652-  15 2.13  31 2.14   8 2.14  16 2.14  14 2.17
  47  0.000  0.500  0.550-  15 2.13  13 2.14   5 2.14  14 2.14  30 2.14  11 2.14
  48  0.250  0.250  0.550-  16 2.13  29 2.14  14 2.14   6 2.14  13 2.14  12 2.14
  49  0.500  0.750  0.450-  17 2.14   4 2.14  19 2.14  20 2.14  27 2.14  21 2.15
  50  0.750  0.000  0.450-  18 2.14   3 2.14  19 2.14  20 2.14  28 2.14  22 2.15
  51  0.500  0.000  0.350-  19 2.14  17 2.14  18 2.14   2 2.14  25 2.14
  52  0.750  0.750  0.350-  20 2.14  17 2.14  18 2.14   1 2.14  26 2.14
  53  0.499  0.751  0.651-  23 2.13   8 2.13  24 2.15  31 2.15  21 2.15
  54  0.750  1.000  0.652-  32 2.13  24 2.14  23 2.14   7 2.14  22 2.17
  55  0.500  0.000  0.550-  23 2.13   6 2.14  22 2.14  29 2.14  21 2.14  19 2.14
  56  0.750  0.750  0.550-   5 2.13  22 2.13  30 2.14  21 2.14  20 2.15  24 2.15
  57  0.500  0.250  0.450-  25 2.14  19 2.14  12 2.14  27 2.14  28 2.14  29 2.15
  58  0.750  0.500  0.450-  26 2.14  20 2.14  11 2.14  27 2.14  28 2.14  30 2.15
  59  0.500  0.500  0.350-  27 2.14  17 2.14  25 2.14  26 2.14  10 2.14
  60  0.750  0.250  0.350-  28 2.14  18 2.14  25 2.14  26 2.14   9 2.14
  61  0.500  0.250  0.652-  23 2.13  31 2.14  32 2.14  16 2.14  29 2.17
  62  0.751  0.499  0.651-  15 2.13  32 2.13  24 2.15  31 2.15  30 2.15
  63  0.500  0.500  0.550-  29 2.13  14 2.13  30 2.14  21 2.14  27 2.15  31 2.15
  64  0.750  0.250  0.550-  32 2.13  13 2.14  29 2.14  22 2.14  30 2.14  28 2.14

IMPORTANT INFORMATION: All symmetrisations will be switched off!
NOSYMM: (Re-)initialisation of all symmetry stuff for point group C_1.

                                     Primitive cell

  volume of cell :    1563.6717

  direct lattice vectors                    reciprocal lattice vectors
     8.546113626  0.000000000  0.000000000     0.117012252  0.000000000  0.000000000
     0.000000000  8.546113626  0.000000000     0.000000000  0.117012252  0.000000000
     0.000000000  0.000000000 21.409585219     0.000000000  0.000000000  0.046708051

  length of vectors
     8.546113626  8.546113626 21.409585219     0.117012252  0.117012252  0.046708051

  position of ions in fractional coordinates (direct lattice)
     0.000000000  0.750000000  0.350310383
     0.250000000  0.000000000  0.350310383
     0.000000000  0.000000000  0.450103461
     0.250000000  0.750000000  0.450103461
     0.999607356  0.749972594  0.550498917
     0.249914009  0.000085997  0.550437843
     0.999989365  0.999989366  0.649779267
     0.249227767  0.750310830  0.649426625
     0.000000000  0.250000000  0.350310383
     0.250000000  0.500000000  0.350310383
     0.000000000  0.500000000  0.450103461
     0.250000000  0.250000000  0.450103461
     0.000085993  0.249914008  0.550437842
     0.250392649  0.500027402  0.550498913
     0.000772229  0.499689165  0.649426607
     0.250010633  0.250010637  0.649779281
     0.500000000  0.750000000  0.350310383
     0.750000000  0.000000000  0.350310383
     0.500000000  0.000000000  0.450103461
     0.750000000  0.750000000  0.450103461
     0.500070030  0.749929957  0.550323965
     0.749972598  0.999607364  0.550498922
     0.499689162  0.000772233  0.649426610
     0.750059461  0.750059468  0.650706109
     0.500000000  0.250000000  0.350310383
     0.750000000  0.500000000  0.350310383
     0.500000000  0.500000000  0.450103461
     0.750000000  0.250000000  0.450103461
     0.500027397  0.250392650  0.550498917
     0.749929954  0.500070034  0.550323966
     0.499940528  0.499940535  0.650706138
     0.750310830  0.249227770  0.649426625
     0.000000000  0.750000000  0.450103461
     0.250000000  0.000000000  0.450103461
     0.000000000  0.000000000  0.350310383
     0.250000000  0.750000000  0.350310383
     0.999901325  0.749825649  0.651629181
     0.249811485  0.000188509  0.651545458
     0.999930524  0.999930530  0.550244419
     0.249752128  0.750084018  0.550104497
     0.000000000  0.250000000  0.450103461
     0.250000000  0.500000000  0.450103461
     0.000000000  0.500000000  0.350310383
     0.250000000  0.250000000  0.350310383
     0.000188504  0.249811488  0.651545458
     0.250098671  0.500174359  0.651629206
     0.000247875  0.499915971  0.550104494
     0.250069482  0.250069486  0.550244427
     0.500000000  0.750000000  0.450103461
     0.750000000  0.000000000  0.450103461
     0.500000000  0.000000000  0.350310383
     0.750000000  0.750000000  0.350310383
     0.498617326  0.751382679  0.650719951
     0.749825644  0.999901332  0.651629185
     0.499915970  0.000247883  0.550104493
     0.749914360  0.749914361  0.550339183
     0.500000000  0.250000000  0.450103461
     0.750000000  0.500000000  0.450103461
     0.500000000  0.500000000  0.350310383
     0.750000000  0.250000000  0.350310383
     0.500174356  0.250098668  0.651629211
     0.751382676  0.498617328  0.650719952
     0.500085628  0.500085625  0.550339189
     0.750084016  0.249752128  0.550104498

  ion indices of the primitive-cell ions
   primitive index   ion index
                 1           1
                 2           2
                 3           3
                 4           4
                 5           5
                 6           6
                 7           7
                 8           8
                 9           9
                10          10
                11          11
                12          12
                13          13
                14          14
                15          15
                16          16
                17          17
                18          18
                19          19
                20          20
                21          21
                22          22
                23          23
                24          24
                25          25
                26          26
                27          27
                28          28
                29          29
                30          30
                31          31
                32          32
                33          33
                34          34
                35          35
[...]
   0.25000000  0.50000000  0.45010346
   0.00000000  0.50000000  0.35031038
   0.25000000  0.25000000  0.35031038
   0.00018850  0.24981149  0.65154546
   0.25009867  0.50017436  0.65162921
   0.00024787  0.49991597  0.55010449
   0.25006948  0.25006949  0.55024443
   0.50000000  0.75000000  0.45010346
   0.75000000  0.00000000  0.45010346
   0.50000000  0.00000000  0.35031038
   0.75000000  0.75000000  0.35031038
   0.49861733  0.75138268  0.65071995
   0.74982564  0.99990133  0.65162919
   0.49991597  0.00024788  0.55010449
   0.74991436  0.74991436  0.55033918
   0.50000000  0.25000000  0.45010346
   0.75000000  0.50000000  0.45010346
   0.50000000  0.50000000  0.35031038
   0.75000000  0.25000000  0.35031038
   0.50017436  0.25009867  0.65162921
   0.75138268  0.49861733  0.65071995
   0.50008563  0.50008563  0.55033919
   0.75008402  0.24975213  0.55010450

 position of ions in cartesian coordinates  (Angst):
   0.00000000  6.40958522  7.50000000
   2.13652841  0.00000000  7.50000000
   0.00000000  0.00000000  9.63652841
   2.13652841  6.40958522  9.63652841
   8.54275804  6.40935101 11.78595348
   2.13579351  0.00073494 11.78464591
   8.54602274  8.54602274 13.91150458
   2.12992881  6.41224161 13.90395467
   0.00000000  2.13652841  7.50000000
   2.13652841  4.27305681  7.50000000
   0.00000000  4.27305681  9.63652841
   2.13652841  2.13652841  9.63652841
   0.00073490  2.13579351 11.78464588
   2.13988403  4.27329100 11.78595339
   0.00659956  4.27040038 13.90395429
   2.13661928  2.13661931 13.91150489
   4.27305681  6.40958522  7.50000000
   6.40958522  0.00000000  7.50000000
   4.27305681  0.00000000  9.63652841
   6.40958522  6.40958522  9.63652841
   4.27365530  6.40898663 11.78220783
   6.40935104  8.54275811 11.78595359
   4.27040036  0.00659959 13.90395435
   6.41009338  6.41009344 13.93134790
   4.27305681  2.13652841  7.50000000
   6.40958522  4.27305681  7.50000000
   4.27305681  4.27305681  9.63652841
   6.40958522  2.13652841  9.63652841
   4.27329095  2.13988404 11.78595347
   6.40898660  4.27365533 11.78220785
   4.27254856  4.27254862 13.93134851
   6.41224161  2.12992884 13.90395466
   0.00000000  6.40958522  9.63652841
   2.13652841  0.00000000  9.63652841
   0.00000000  0.00000000  7.50000000
   2.13652841  6.40958522  7.50000000
   8.54527033  6.40809519 13.95111048
   2.13491733  0.00161102 13.94931802
   8.54551987  8.54551993 11.78050478
   2.13441006  6.41030324 11.77750911
   0.00000000  2.13652841  9.63652841
   2.13652841  4.27305681  9.63652841
   0.00000000  4.27305681  7.50000000
   2.13652841  2.13652841  7.50000000
   0.00161098  2.13491736 13.94931801
   2.13737166  4.27454691 13.95111102
   0.00211837  4.27233869 11.77750904
   2.13712221  2.13712224 11.78050495
   4.27305681  6.40958522  9.63652841
   6.40958522  0.00000000  9.63652841
   4.27305681  0.00000000  7.50000000
   6.40958522  6.40958522  7.50000000
   4.26124032  6.42140175 13.93164425
   6.40809516  8.54527040 13.95111057
   4.27233868  0.00211844 11.77750903
   6.40885333  6.40885334 11.78253364
   4.27305681  2.13652841  9.63652841
   6.40958522  4.27305681  9.63652841
   4.27305681  4.27305681  7.50000000
   6.40958522  2.13652841  7.50000000
   4.27454688  2.13737163 13.95111113
   6.42140172  4.26124034 13.93164427
   4.27378860  4.27378858 11.78253376
   6.41030323  2.13441006 11.77750913

--------------------------------------- Iteration      FINAL  ---------------------------------------

--------------------OUTCAR has been truncated-------------------------

[...]

--------------------OUTCAR has been truncated-------------------------

  DFT-D2 method for vdW energy calculation

  Parameters of vdW forcefield:
         C6(Jnm^6/mol)     R0(A)
   Mg       0.630          1.243
   O        0.700          1.342

  vdW correction parametrized for the method ×pý      

  IVDW =   1
  VDW_RADIUS =    50.000 A
  VDW_S6 =     1.050
  VDW_SR =     1.000
  VDW_D =    20.000
  LVDW_EWALD = F

  Number of pair interactions contributing to vdW energy:  705328
  Edisp (eV):   -4.82837

 VOLUME and BASIS-vectors are now :
  energy-cutoff  :      600.00
  volume of cell :     1563.67
      direct lattice vectors                 reciprocal lattice vectors
     8.546113626  0.000000000  0.000000000     0.117012252  0.000000000  0.000000000
     0.000000000  8.546113626  0.000000000     0.000000000  0.117012252  0.000000000
     0.000000000  0.000000000 21.409585219     0.000000000  0.000000000  0.046708051

  length of vectors
     8.546113626  8.546113626 21.409585219     0.117012252  0.117012252  0.046708051

 FORCES acting on ions:
    Electron-Ion                     Ewald-Force                    Non-Local-Force
   0.215E-01 -.110E-02 0.201E+04   -.220E-01 0.217E-02 -.200E+04   0.399E-03 -.724E-03 -.634E+01
   0.162E-02 -.168E-02 0.201E+04   -.301E-02 0.301E-02 -.200E+04   0.940E-03 -.898E-03 -.633E+01
   0.107E+00 0.107E+00 0.664E+03   -.121E+00 -.121E+00 -.664E+03   0.899E-02 0.899E-02 0.459E+00
   0.248E-01 0.143E+00 0.664E+03   -.628E-01 -.150E+00 -.665E+03   0.239E-01 0.509E-02 0.398E+00
   0.747E+00 0.116E+00 -.670E+03   -.819E+00 -.122E+00 0.670E+03   0.628E-01 -.376E-03 -.174E+00
   0.665E-01 -.665E-01 -.668E+03   -.524E-01 0.524E-01 0.668E+03   -.852E-02 0.852E-02 -.206E+00
   0.749E+00 0.749E+00 -.200E+04   -.638E+00 -.638E+00 0.199E+04   -.884E-01 -.884E-01 0.557E+01
   -.951E+00 0.944E+00 -.199E+04   0.108E+01 -.854E+00 0.199E+04   -.737E-01 -.725E-01 0.556E+01
   -.163E-02 0.163E-02 0.201E+04   0.301E-02 -.301E-02 -.200E+04   -.933E-03 0.936E-03 -.633E+01
   -.215E-01 0.115E-02 0.201E+04   0.220E-01 -.217E-02 -.200E+04   -.395E-03 0.684E-03 -.634E+01
   -.247E-01 -.143E+00 0.664E+03   0.628E-01 0.150E+00 -.665E+03   -.239E-01 -.509E-02 0.397E+00
   -.107E+00 -.107E+00 0.664E+03   0.121E+00 0.121E+00 -.664E+03   -.899E-02 -.899E-02 0.459E+00
   -.665E-01 0.665E-01 -.668E+03   0.524E-01 -.524E-01 0.668E+03   0.852E-02 -.852E-02 -.206E+00
   -.747E+00 -.116E+00 -.670E+03   0.819E+00 0.122E+00 0.670E+03   -.628E-01 0.378E-03 -.174E+00
   0.951E+00 -.944E+00 -.199E+04   -.108E+01 0.854E+00 0.199E+04   0.737E-01 0.725E-01 0.556E+01
   -.749E+00 -.749E+00 -.200E+04   0.638E+00 0.638E+00 0.199E+04   0.884E-01 0.884E-01 0.557E+01
   -.243E-01 0.243E-01 0.201E+04   0.239E-01 -.239E-01 -.200E+04   0.236E-03 -.235E-03 -.633E+01
   -.109E-02 0.214E-01 0.201E+04   0.217E-02 -.220E-01 -.200E+04   -.725E-03 0.433E-03 -.634E+01
   -.143E+00 -.248E-01 0.664E+03   0.150E+00 0.628E-01 -.665E+03   -.509E-02 -.239E-01 0.397E+00
   -.285E-01 -.285E-01 0.663E+03   0.464E-01 0.464E-01 -.664E+03   -.124E-01 -.124E-01 0.454E+00
   -.102E+01 0.102E+01 -.667E+03   0.110E+01 -.110E+01 0.667E+03   -.673E-01 0.673E-01 -.458E+00
   0.116E+00 0.747E+00 -.670E+03   -.122E+00 -.819E+00 0.670E+03   -.379E-03 0.628E-01 -.174E+00
   -.944E+00 0.951E+00 -.199E+04   0.854E+00 -.108E+01 0.199E+04   0.725E-01 0.737E-01 0.556E+01
   0.360E+01 0.360E+01 -.200E+04   -.337E+01 -.337E+01 0.200E+04   -.219E+00 -.219E+00 0.584E+01
   0.110E-02 -.215E-01 0.201E+04   -.217E-02 0.220E-01 -.200E+04   0.720E-03 -.398E-03 -.634E+01
   0.243E-01 -.242E-01 0.201E+04   -.239E-01 0.239E-01 -.200E+04   -.233E-03 0.200E-03 -.633E+01
   0.285E-01 0.285E-01 0.663E+03   -.464E-01 -.464E-01 -.664E+03   0.124E-01 0.124E-01 0.454E+00
   0.143E+00 0.248E-01 0.664E+03   -.150E+00 -.628E-01 -.665E+03   0.509E-02 0.239E-01 0.397E+00
   -.116E+00 -.747E+00 -.670E+03   0.122E+00 0.819E+00 0.670E+03   0.380E-03 -.628E-01 -.175E+00
   0.102E+01 -.102E+01 -.667E+03   -.110E+01 0.110E+01 0.667E+03   0.673E-01 -.673E-01 -.458E+00
   -.360E+01 -.360E+01 -.200E+04   0.337E+01 0.337E+01 0.200E+04   0.219E+00 0.219E+00 0.584E+01
   0.944E+00 -.951E+00 -.199E+04   -.854E+00 0.108E+01 0.199E+04   -.725E-01 -.737E-01 0.556E+01
   0.894E-01 -.335E-01 0.498E+03   -.620E-01 0.289E-01 -.497E+03   -.326E-01 0.595E-02 -.117E+00
   0.412E-01 -.412E-01 0.498E+03   -.291E-01 0.291E-01 -.498E+03   -.149E-01 0.149E-01 -.903E-01
   0.150E-01 0.150E-01 0.151E+04   -.160E-01 -.160E-01 -.151E+04   0.122E-02 0.121E-02 0.315E+01
   0.805E-03 0.154E-01 0.151E+04   -.324E-02 -.166E-01 -.151E+04   0.301E-02 0.148E-02 0.315E+01
   0.123E+01 0.475E+00 -.151E+04   -.127E+01 -.527E+00 0.152E+04   0.302E-01 0.604E-01 -.428E+01
   -.302E+00 0.302E+00 -.151E+04   0.347E+00 -.347E+00 0.152E+04   -.502E-01 0.502E-01 -.439E+01
   0.265E+00 0.265E+00 -.497E+03   -.265E+00 -.265E+00 0.497E+03   0.127E-02 0.127E-02 0.293E+00
   -.133E+00 0.407E+00 -.495E+03   0.183E+00 -.410E+00 0.495E+03   -.575E-01 0.206E-02 0.335E+00
   -.412E-01 0.412E-01 0.498E+03   0.291E-01 -.291E-01 -.498E+03   0.149E-01 -.149E-01 -.903E-01
   -.894E-01 0.336E-01 0.498E+03   0.620E-01 -.289E-01 -.497E+03   0.326E-01 -.598E-02 -.117E+00
   -.795E-03 -.154E-01 0.151E+04   0.324E-02 0.166E-01 -.151E+04   -.302E-02 -.147E-02 0.315E+01
   -.150E-01 -.150E-01 0.151E+04   0.160E-01 0.160E-01 -.151E+04   -.121E-02 -.122E-02 0.315E+01
   0.302E+00 -.302E+00 -.151E+04   -.347E+00 0.347E+00 0.152E+04   0.502E-01 -.502E-01 -.439E+01
   -.123E+01 -.475E+00 -.151E+04   0.127E+01 0.527E+00 0.152E+04   -.302E-01 -.604E-01 -.428E+01
   0.133E+00 -.407E+00 -.495E+03   -.183E+00 0.410E+00 0.495E+03   0.575E-01 -.206E-02 0.335E+00
   -.265E+00 -.265E+00 -.497E+03   0.265E+00 0.265E+00 0.497E+03   -.127E-02 -.127E-02 0.293E+00
   -.126E+00 0.126E+00 0.498E+03   0.121E+00 -.121E+00 -.498E+03   0.490E-02 -.491E-02 -.680E-01
   -.335E-01 0.894E-01 0.498E+03   0.289E-01 -.620E-01 -.497E+03   0.595E-02 -.326E-01 -.117E+00
   -.154E-01 -.799E-03 0.151E+04   0.166E-01 0.324E-02 -.151E+04   -.148E-02 -.301E-02 0.315E+01
   0.129E-02 0.130E-02 0.151E+04   0.193E-02 0.193E-02 -.151E+04   -.403E-02 -.404E-02 0.315E+01
   -.282E+01 0.282E+01 -.151E+04   0.273E+01 -.273E+01 0.151E+04   0.185E+00 -.185E+00 -.383E+01
   0.475E+00 0.123E+01 -.151E+04   -.527E+00 -.127E+01 0.152E+04   0.604E-01 0.302E-01 -.428E+01
   -.407E+00 0.133E+00 -.495E+03   0.410E+00 -.183E+00 0.495E+03   -.206E-02 0.575E-01 0.335E+00
   0.422E+00 0.422E+00 -.501E+03   -.487E+00 -.487E+00 0.501E+03   0.733E-01 0.733E-01 0.100E-01
   0.335E-01 -.894E-01 0.498E+03   -.289E-01 0.620E-01 -.497E+03   -.596E-02 0.326E-01 -.117E+00
   0.126E+00 -.126E+00 0.498E+03   -.121E+00 0.121E+00 -.498E+03   -.491E-02 0.488E-02 -.680E-01
   -.130E-02 -.130E-02 0.151E+04   -.193E-02 -.193E-02 -.151E+04   0.404E-02 0.402E-02 0.315E+01
   0.154E-01 0.798E-03 0.151E+04   -.166E-01 -.324E-02 -.151E+04   0.146E-02 0.302E-02 0.315E+01
   -.475E+00 -.123E+01 -.151E+04   0.527E+00 0.127E+01 0.152E+04   -.604E-01 -.302E-01 -.428E+01
   0.282E+01 -.282E+01 -.151E+04   -.273E+01 0.273E+01 0.151E+04   -.185E+00 0.185E+00 -.383E+01
   -.422E+00 -.422E+00 -.501E+03   0.487E+00 0.487E+00 0.501E+03   -.733E-01 -.733E-01 0.100E-01
   0.407E+00 -.133E+00 -.495E+03   -.410E+00 0.183E+00 0.495E+03   0.206E-02 -.575E-01 0.335E+00
   -.518E-06 -.120E-04 0.130E+02   0.604E-13 0.260E-12 0.455E-12   0.746E-05 0.823E-05 -.114E+02

 POSITION                                       TOTAL-FORCE (eV/Angst)
      0.00000      6.40959      7.50000        -0.000094      0.000266      0.629934
      2.13653      0.00000      7.50000        -0.000335      0.000327      0.628051
      0.00000      0.00000      9.63653        -0.003920     -0.003919      0.024200
      2.13653      6.40959      9.63653        -0.011007     -0.001927      0.030257
      8.54276      6.40935     11.78595        -0.003383     -0.006012     -0.027316
      2.13579      0.00073     11.78465         0.004603     -0.004585     -0.018163
      8.54602      8.54602     13.91150         0.013863      0.013860     -0.302990
      2.12993      6.41224     13.90395         0.047968      0.010419     -0.278246
      0.00000      2.13653      7.50000         0.000336     -0.000336      0.627914
      2.13653      4.27306      7.50000         0.000097     -0.000255      0.629875
      0.00000      4.27306      9.63653         0.011009      0.001930      0.030265
      2.13653      2.13653      9.63653         0.003919      0.003922      0.024217
      0.00073      2.13579     11.78465        -0.004586      0.004603     -0.018203
      2.13988      4.27329     11.78595         0.003359      0.006021     -0.027332
      0.00660      4.27040     13.90395        -0.048004     -0.010422     -0.278252
      2.13662      2.13662     13.91150        -0.013861     -0.013859     -0.302977
      4.27306      6.40959      7.50000        -0.000154      0.000156      0.626371
      6.40959      0.00000      7.50000         0.000266     -0.000105      0.629889
      4.27306      0.00000      9.63653         0.001929      0.011008      0.030264
      6.40959      6.40959      9.63653         0.003986      0.003987      0.028131
      4.27366      6.40899     11.78221         0.006416     -0.006418      0.035231
      6.40935      8.54276     11.78595        -0.006014     -0.003384     -0.027326
      4.27040      0.00660     13.90395        -0.010429     -0.048007     -0.278252
      6.41009      6.41009     13.93135        -0.009099     -0.009101     -0.495369
      4.27306      2.13653      7.50000        -0.000263      0.000096      0.629778
      6.40959      4.27306      7.50000         0.000159     -0.000145      0.626364
      4.27306      4.27306      9.63653        -0.003985     -0.003981      0.028137
      6.40959      2.13653      9.63653        -0.001924     -0.011010      0.030279
      4.27329      2.13988     11.78595         0.006021      0.003357     -0.027368
      6.40899      4.27366     11.78221        -0.006417      0.006416      0.035234
      4.27255      4.27255     13.93135         0.009101      0.009104     -0.495315
      6.41224      2.12993     13.90395         0.010419      0.047972     -0.278229
      0.00000      6.40959      9.63653        -0.009721      0.002196      0.039361
      2.13653      0.00000      9.63653        -0.004967      0.004976      0.042762
      0.00000      0.00000      7.50000         0.000409      0.000412     -0.274457
      2.13653      6.40959      7.50000         0.000996      0.000491     -0.273943
      8.54527      6.40810     13.95111        -0.008008      0.015765     -0.122593
      2.13492      0.00161     13.94932        -0.012054      0.012076     -0.148837
      8.54552      8.54552     11.78050         0.001299      0.001297      0.019538
      2.13441      6.41030     11.77751        -0.015887     -0.001358      0.020560
      0.00000      2.13653      9.63653         0.004969     -0.004967      0.042758
      2.13653      4.27306      9.63653         0.009720     -0.002200      0.039363
      0.00000      4.27306      7.50000        -0.000992     -0.000495     -0.273948
      2.13653      2.13653      7.50000        -0.000397     -0.000406     -0.274483
      0.00161      2.13492     13.94932         0.012075     -0.012053     -0.148843
      2.13737      4.27455     13.95111         0.007997     -0.015743     -0.122599
      0.00212      4.27234     11.77751         0.015860      0.001363      0.020566
      2.13712      2.13712     11.78050        -0.001271     -0.001271      0.019525
      4.27306      6.40959      9.63653         0.001387     -0.001384      0.040562
      6.40959      0.00000      9.63653         0.002196     -0.009715      0.039363
      4.27306      0.00000      7.50000        -0.000490     -0.000977     -0.273953
      6.40959      6.40959      7.50000        -0.001367     -0.001368     -0.273722
      4.26124      6.42140     13.93164         0.125676     -0.125680      0.033333
      6.40810      8.54527     13.95111         0.015767     -0.008013     -0.122597
      4.27234      0.00212     11.77751         0.001359      0.015859      0.020562
      6.40885      6.40885     11.78253         0.018107      0.018105     -0.000409
      4.27306      2.13653      9.63653        -0.002196      0.009721      0.039355
      6.40959      4.27306      9.63653        -0.001385      0.001381      0.040556
      4.27306      4.27306      7.50000         0.001367      0.001356     -0.273740
      6.40959      2.13653      7.50000         0.000482      0.000995     -0.273958
      4.27455      2.13737     13.95111        -0.015744      0.008000     -0.122609
      6.42140      4.26124     13.93164        -0.125680      0.125675      0.033334
      4.27379      4.27379     11.78253        -0.018129     -0.018130     -0.000414
      6.41030      2.13441     11.77751        -0.001358     -0.015884      0.020556
    total drift:                               -0.000052     -0.000062     -0.000316

  FREE ENERGIE OF THE ION-ELECTRON SYSTEM (eV)
  free  energy   TOTEN  =      -437.13608936 eV

  energy  without entropy=     -437.13608936  energy(sigma->0) =     -437.13608936