 vasp.6.4.2 20Jul23 (build Feb 22 2024 13:53:45) complex
 executed on              LinuxNV date 2024.08.29  04:15:54
 OpenACC runtime initialized ...    4 GPUs detected

 INCAR:
   SYSTEM = Oxide-Surface
   ISMEAR = 0
   SIGMA = 0.05
   EDIFF = 1E-5
   ALGO = Normal
   IBRION = -1
   NSW = 0
   ISYM = 0
   DIPOL = 0.5 0.5 0.5
   IDIPOL = 3
   LDIPOL = .TRUE.
   ISTART = 0
   LHFCALC = .FALSE.
   GGA = PE
   HFRCUT = -1
   ENCUT = 520
   PREC = Normal
   PRECFOCK = Normal
   LASPH = .TRUE.
   LREAL = Auto
   ISPIN = 1
   NELM = 200
   NELMIN = 8
   NCORE = 1
   KPAR = 1
   LWAVE = .TRUE.
   LCHARG = .FALSE.

 POTCAR:    PAW_PBE Ti_pv 07Sep2000
 POTCAR:    PAW_PBE O 08Apr2002
 POTCAR:    PAW_PBE Ti_pv 07Sep2000
   VRHFIN =Ti: d3 s1

   TITEL  = PAW_PBE Ti_pv 07Sep2000
   POMASS =   47.880; ZVAL   =   10.000    mass and valenz
   ENMAX  =  222.335; ENMIN  =  166.751 eV

   TITEL  = PAW_PBE O 08Apr2002
   POMASS =   16.000; ZVAL   =    6.000    mass and valenz
   ENMAX  =  400.000; ENMIN  =  300.000 eV

 Optimization of the real space projectors (new method)

 maximal supplied QI-value         = 15.12
 optimisation between [QCUT,QGAM] = [ 11.64, 23.28] = [ 37.95,151.78] Ry
 Optimized for a Real-space Cutoff    1.45 Angstroem

   l    n(q)    QCUT    max X(q) W(low)/X(q) W(high)/X(q)  e(spline)
   1     10    11.641     4.216    0.33E-04    0.72E-04    0.48E-07
   1     10    11.641     5.422    0.11E-03    0.20E-03    0.10E-06
   2      9    11.641    72.084    0.36E-03    0.27E-03    0.57E-06
   2      9    11.641    65.965    0.35E-03    0.27E-03    0.57E-06
   0     10    11.641    41.531    0.11E-03    0.93E-04    0.16E-06
   0     10    11.641    16.290    0.82E-04    0.72E-04    0.13E-06
 Optimization of the real space projectors (new method)

 maximal supplied QI-value         = 24.76
 optimisation between [QCUT,QGAM] = [ 11.64, 23.27] = [ 37.91,151.63] Ry
 Optimized for a Real-space Cutoff    1.04 Angstroem

   l    n(q)    QCUT    max X(q) W(low)/X(q) W(high)/X(q)  e(spline)
   0      7    11.635    20.381    0.14E-03    0.49E-03    0.18E-06
   0      7    11.635    15.268    0.16E-03    0.52E-03    0.19E-06
   1      7    11.635     5.964    0.30E-03    0.44E-03    0.22E-06
   1      7    11.635     5.382    0.27E-03    0.34E-03    0.19E-06
  PAW_PBE Ti_pv 07Sep2000               :
  PAW_PBE O 08Apr2002                   :

 POSCAR: Ti  O
  positions in direct lattice
 exchange correlation table for  LEXCH =        8
   RHO(1)=    0.500       N(1)  =     2000
   RHO(2)=  100.500       N(2)  =     4000

 ion  position               nearest neighbor table
   1  0.750  0.625  0.192-  82 1.95 142 1.95 141 1.95  81 1.95  84 1.98 163 1.98  11 2.96  31 2.96

   2  0.000  0.750  0.192-  83 1.95 103 1.95  84 1.95 104 1.95  85 1.98  32 2.96  12 2.96
   3  0.000  0.625  0.322-  85 1.95 145 1.95  86 1.95 146 1.95  88 1.98  87 1.98  13 2.96  33 2.96

[...]

  80  0.500  0.500  0.707- 234 1.82 239 1.95 180 1.95 179 1.95 240 1.95  70 2.96  50 2.96
  81  0.750  0.750  0.141-   1 1.95  11 1.95
  82  0.750  0.750  0.243-   1 1.95  11 1.95   4 1.98
  83  0.098  0.625  0.192-   2 1.95  32 1.95  41 1.98
  84  0.902  0.625  0.192-   2 1.95  32 1.95   1 1.98
  85  0.000  0.750  0.271-   3 1.95  13 1.95   2 1.98
  86  0.000  0.750  0.373-   3 1.95  13 1.95   6 1.98
  87  0.848  0.625  0.322-   4 1.95  34 1.95   3 1.98
  88  0.152  0.625  0.322-  44 1.95  74 1.95   3 1.98
  89  0.750  0.750  0.401-   5 1.95  15 1.95   4 1.98
  90  0.750  0.750  0.503-   5 1.95  15 1.95   8 2.11
  91  0.098  0.625  0.452-   6 1.95  36 1.95  45 1.98
  92  0.902  0.625  0.452-   6 1.95  36 1.95   5 1.98
  93  0.000  0.750  0.532-  17 1.90   7 1.90   6 2.00
  94  0.000  0.750  0.634-  10 1.81   7 2.02  17 2.02
  95  0.850  0.625  0.583-   7 1.95   8 1.97  38 1.97
  96  0.150  0.625  0.583-   7 1.95  48 1.97  78 1.97
  97  0.750  0.750  0.662-   8 1.86   9 2.10  19 2.10
  98  0.750  0.750  0.765-   9 1.83  19 1.83
  99  0.094  0.625  0.719-  40 1.95  10 1.95  49 2.03
 100  0.906  0.625  0.719-  40 1.95  10 1.95   9 2.03
 101  0.750  0.000  0.141-  11 1.95  21 1.95
 102  0.750  0.000  0.243-  11 1.95  21 1.95  14 1.98
 103  0.098  0.875  0.192-   2 1.95  12 1.95  51 1.98
 104  0.902  0.875  0.192-   2 1.95  12 1.95  11 1.98
 105  0.000  0.000  0.271-  13 1.95  23 1.95  12 1.98
 106  0.000  0.000  0.373-  13 1.95  23 1.95  16 1.98
 107  0.848  0.875  0.322-   4 1.95  14 1.95  13 1.98
 108  0.152  0.875  0.322-  44 1.95  54 1.95  13 1.98
 109  0.750  0.000  0.401-  15 1.95  25 1.95  14 1.98
 110  0.750  0.000  0.503-  15 1.95  25 1.95  18 2.11
 111  0.098  0.875  0.452-   6 1.95  16 1.95  55 1.98
 112  0.902  0.875  0.452-   6 1.95  16 1.95  15 1.98
 113  0.000  0.000  0.532-  27 1.89  17 1.89  16 2.00
 114  1.000  0.000  0.634-  20 1.81  27 2.02  17 2.02
 115  0.850  0.875  0.583-  17 1.95   8 1.97  18 1.97
 116  0.150  0.875  0.583-  17 1.95  48 1.97  58 1.97
 117  0.750  0.000  0.662-  18 1.86  19 2.10  29 2.10
 118  0.750  0.000  0.765-  19 1.83  29 1.83
 119  0.094  0.875  0.719-  10 1.95  20 1.95  59 2.03
 120  0.906  0.875  0.719-  10 1.95  20 1.95  19 2.03
 121  0.750  0.250  0.141-  21 1.95  31 1.95
 122  0.750  0.250  0.243-  21 1.95  31 1.95  24 1.98
 123  0.098  0.125  0.192-  12 1.95  22 1.95  61 1.98
 124  0.902  0.125  0.192-  12 1.95  22 1.95  21 1.98
 125  0.000  0.250  0.271-  23 1.95  33 1.95  22 1.98
 126  0.000  0.250  0.373-  23 1.95  33 1.95  26 1.98
 127  0.848  0.125  0.322-  14 1.95  24 1.95  23 1.98
 128  0.152  0.125  0.322-  54 1.95  64 1.95  23 1.98
 129  0.750  0.250  0.401-  25 1.95  35 1.95  24 1.98
 130  0.750  0.250  0.503-  25 1.95  35 1.95  28 2.11
 131  0.098  0.125  0.452-  16 1.95  26 1.95  65 1.98
 132  0.902  0.125  0.452-  16 1.95  26 1.95  25 1.98
 133  0.000  0.250  0.532-  27 1.90  37 1.90  26 2.00
 134  1.000  0.250  0.634-  30 1.81  37 2.02  27 2.02
 135  0.850  0.125  0.583-  27 1.95  28 1.97  18 1.97
 136  0.150  0.125  0.583-  27 1.95  68 1.97  58 1.97
 137  0.750  0.250  0.662-  28 1.86  39 2.10  29 2.10
 138  0.750  0.250  0.765-  39 1.83  29 1.83
 139  0.094  0.125  0.719-  30 1.95  20 1.95  69 2.03
[...]
 226  0.500  0.500  0.373-  43 1.95  73 1.95  76 1.98
 227  0.348  0.375  0.322-  64 1.95  74 1.95  73 1.98
 228  0.652  0.375  0.322-  24 1.95  34 1.95  73 1.98
 229  0.250  0.500  0.401-  45 1.95  75 1.95  74 1.98
 230  0.250  0.500  0.503-  45 1.95  75 1.95  78 2.11
 231  0.598  0.375  0.452-  66 1.95  76 1.95  35 1.98
 232  0.402  0.375  0.452-  66 1.95  76 1.95  75 1.98
 233  0.500  0.500  0.532-  47 1.90  77 1.90  76 2.00
 234  0.500  0.500  0.635-  80 1.82  77 2.02  47 2.02
 235  0.350  0.375  0.583-  77 1.95  78 1.97  68 1.97
 236  0.650  0.375  0.583-  77 1.95  38 1.97  28 1.97
 237  0.249  0.500  0.662-  78 1.86  79 2.10  49 2.10
 238  0.251  0.500  0.765-  49 1.83  79 1.84
 239  0.594  0.374  0.719-  70 1.94  80 1.95  39 2.03
 240  0.406  0.374  0.719-  70 1.94  80 1.95  79 2.03

IMPORTANT INFORMATION: All symmetrisations will be switched off!
NOSYMM: (Re-)initialisation of all symmetry stuff for point group C_1.

                                     Primitive cell

  volume of cell :    3846.0501

  direct lattice vectors                    reciprocal lattice vectors
    13.003980404  0.000000000  0.000000000     0.076899531  0.000000000  0.000000000
     0.000000000 11.830378115  0.000000000     0.000000000  0.084528152  0.000000000
     0.000000000  0.000000000 25.000000000     0.000000000  0.000000000  0.040000000

  length of vectors
    13.003980404 11.830378115 25.000000000     0.076899531  0.084528152  0.040000000

  position of ions in fractional coordinates (direct lattice)
     0.750000008  0.625000007  0.191872994
     0.000000008  0.750000007  0.191872994
     0.000000008  0.625000007  0.321912798
     0.750000008  0.750000007  0.321912798
     0.750000008  0.625000007  0.451952602
     0.000000008  0.750000007  0.451952602
     0.999998729  0.625016586  0.579214663
     0.750021378  0.750038300  0.587267412
     0.750117211  0.625133254  0.721168073
     0.000025095  0.750082334  0.706350679
     0.750000008  0.875000007  0.191872994
     0.000000008  0.000000007  0.191872994
     0.000000008  0.875000007  0.321912798
     0.750000008  0.000000007  0.321912798
     0.750000008  0.875000007  0.451952602
     0.000000008  0.000000007  0.451952602
     0.999995895  0.875019834  0.579234708
     0.749960162  0.000003641  0.587339263
     0.749868689  0.875032817  0.721416409
     0.999999847  0.999999993  0.706360792
     0.750000008  0.125000007  0.191872994
     0.000000008  0.250000007  0.191872994
     0.000000008  0.125000007  0.321912798
     0.750000008  0.250000007  0.321912798
     0.750000008  0.125000007  0.451952602
     0.000000008  0.250000007  0.451952602
     0.000004299  0.124980173  0.579234710
     0.750020916  0.249964339  0.587281564
     0.749849713  0.124984901  0.721421855
     0.999975965  0.249917711  0.706350689
     0.750000008  0.375000007  0.191872994
     0.000000008  0.500000007  0.191872994
     0.000000008  0.375000007  0.321912798
     0.750000008  0.500000007  0.321912798
     0.750000008  0.375000007  0.451952602
     0.000000008  0.500000007  0.451952602
     0.000001195  0.374983469  0.579214669
     0.750045966  0.499996875  0.587270533
     0.750061553  0.374909750  0.721212007
     0.000000696  0.500000012  0.706329162
     0.250000008  0.625000007  0.191872994
     0.500000008  0.750000007  0.191872994
     0.500000008  0.625000007  0.321912798
     0.250000008  0.750000007  0.321912798
     0.250000008  0.625000007  0.451952602
     0.500000008  0.750000007  0.451952602
     0.499999026  0.624688363  0.579585883
     0.249979194  0.750035526  0.587281864
     0.249940088  0.625089729  0.721213004
     0.500006830  0.749974620  0.706192418
     0.250000008  0.875000007  0.191872994
     0.500000008  0.000000007  0.191872994
     0.500000008  0.875000007  0.321912798
     0.250000008  0.000000007  0.321912798
     0.250000008  0.875000007  0.451952602
     0.500000008  0.000000007  0.451952602
     0.499998066  0.874845901  0.579050210
     0.250039839  0.999996499  0.587339287
     0.250150325  0.875015080  0.721421862
     0.500000028  0.999999944  0.706173444
[...]
     0.500000008  0.500000007  0.372888167
     0.347999556  0.375000007  0.321912798
     0.652000459  0.375000007  0.321912798
     0.250000008  0.500000007  0.400977234
     0.250000008  0.500000007  0.502927971
     0.597999556  0.375000007  0.451952602
     0.402000459  0.375000007  0.451952602
     0.500000027  0.499999986  0.531992589
     0.499999664  0.499999904  0.634551824
     0.350129653  0.374998367  0.583010966
     0.649871023  0.375005165  0.583004884
     0.249491381  0.500022894  0.661659386
     0.250837252  0.499953280  0.764576970
     0.594288600  0.374432078  0.718730996
     0.405639342  0.374387984  0.718606848

  ion indices of the primitive-cell ions
   primitive index   ion index
                 1           1
                 2           2
                 3           3
                 4           4
                 5           5
                 6           6
                 7           7
[...]
   -.292E-04 0.103E-01 0.300E+04   0.113E-04 -.102E-01 -.299E+04   -.234E-05 -.928E-05 -.390E+01   0.241E-04 -.887E-05 -.185E-03
   -.759E-03 0.139E-01 0.144E+04   0.774E-03 -.136E-01 -.143E+04   -.686E-05 0.115E-04 -.436E-01   0.121E-04 -.227E-05 0.336E-03
   0.650E-01 0.484E-01 0.143E+04   -.647E-01 -.478E-01 -.143E+04   -.728E-04 -.108E-04 0.204E+00   0.280E-05 0.684E-05 0.219E-03
   0.491E+00 0.156E+00 -.247E+02   -.491E+00 -.154E+00 0.255E+02   -.236E-03 -.635E-04 -.138E+00   0.175E-05 0.849E-05 0.185E-03
   -.112E-01 0.274E-01 -.123E+02   0.114E-01 -.245E-01 0.113E+02   -.704E-04 -.889E-03 0.346E+00   0.229E-05 0.138E-05 0.262E-03
   -.285E-01 0.274E-01 -.142E+04   0.286E-01 -.266E-01 0.142E+04   0.259E-03 -.851E-03 0.448E-02   -.433E-05 -.341E-05 0.461E-03
   0.337E+00 0.104E+00 -.146E+04   -.322E+00 -.991E-01 0.146E+04   -.491E-02 -.383E-02 -.495E-01   0.135E-04 0.106E-04 0.536E-03
   -.125E+01 0.133E+01 -.278E+04   0.132E+01 -.136E+01 0.278E+04   -.743E-02 0.466E-02 -.187E+00   0.300E-04 0.732E-04 0.176E-02
   -.404E-01 0.785E+00 -.285E+04   0.398E-01 -.788E+00 0.285E+04   0.790E-03 -.493E-03 0.950E+00   -.556E-04 0.832E-05 0.907E-03
   0.129E-01 0.938E-02 0.282E+04   -.127E-01 -.926E-02 -.282E+04   -.501E-04 0.103E-02 0.437E+00   0.153E-06 -.248E-04 0.190E-03
   0.156E-04 0.131E-04 0.300E+04   -.220E-05 -.828E-06 -.299E+04   -.445E-06 0.162E-06 -.389E+01   -.124E-04 -.134E-04 -.181E-03
   -.773E-03 0.130E-01 0.144E+04   0.791E-03 -.131E-01 -.143E+04   -.457E-05 0.110E-04 -.437E-01   0.910E-05 -.485E-05 0.347E-03
   0.341E-01 -.101E-02 0.143E+04   -.341E-01 0.101E-02 -.143E+04   0.967E-05 0.638E-05 0.202E+00   0.275E-05 0.219E-04 0.223E-03
   0.100E+00 0.111E+00 -.245E+02   -.986E-01 -.102E+00 0.254E+02   -.189E-03 -.525E-03 -.139E+00   0.699E-05 0.882E-05 0.181E-03
   -.290E-03 0.255E-04 -.124E+02   0.298E-03 -.180E-04 0.113E+02   -.270E-05 -.122E-05 0.345E+00   0.734E-06 -.560E-05 0.247E-03
   -.480E-01 0.483E-01 -.142E+04   0.480E-01 -.479E-01 0.142E+04   -.147E-03 -.213E-02 0.288E-02   -.160E-04 -.158E-04 0.459E-03
   0.792E-02 0.165E-02 -.146E+04   0.224E-02 -.152E-02 0.146E+04   -.108E-02 -.910E-04 -.436E-01   0.955E-06 -.240E-05 0.554E-03
   -.302E+00 -.875E-03 -.278E+04   0.311E+00 0.128E-02 0.278E+04   0.579E-02 0.899E-03 -.188E+00   0.249E-04 0.198E-04 0.183E-02
   -.283E-03 -.291E-03 -.285E+04   0.309E-03 0.346E-03 0.285E+04   -.113E-04 -.464E-05 0.959E+00   -.313E-04 -.320E-04 0.902E-03
   0.129E-01 -.937E-02 0.282E+04   -.127E-01 0.928E-02 -.282E+04   -.538E-04 -.103E-02 0.437E+00   -.121E-04 0.239E-04 0.235E-03
   0.347E-04 -.103E-01 0.300E+04   -.166E-04 0.102E-01 -.299E+04   0.187E-05 0.929E-05 -.390E+01   -.223E-04 0.198E-04 -.175E-03
   0.604E-03 -.130E-01 0.144E+04   -.594E-03 0.131E-01 -.143E+04   0.309E-05 -.115E-04 -.437E-01   -.334E-04 0.688E-05 0.345E-03
   0.649E-01 -.483E-01 0.143E+04   -.646E-01 0.477E-01 -.143E+04   -.718E-04 0.122E-04 0.204E+00   0.117E-04 -.122E-04 0.206E-03
   0.948E-01 -.126E+00 -.245E+02   -.935E-01 0.119E+00 0.254E+02   -.139E-03 0.415E-03 -.140E+00   0.496E-05 -.776E-05 0.172E-03
   0.101E-01 -.274E-01 -.123E+02   -.103E-01 0.245E-01 0.113E+02   0.637E-04 0.889E-03 0.346E+00   -.719E-06 -.256E-05 0.242E-03
   0.467E-01 -.487E-01 -.142E+04   -.467E-01 0.483E-01 0.142E+04   0.146E-03 0.213E-02 0.288E-02   0.521E-06 -.336E-05 0.476E-03
   0.301E+00 -.981E-01 -.146E+04   -.286E+00 0.942E-01 0.146E+04   -.481E-02 0.297E-02 -.495E-01   0.117E-05 -.576E-05 0.563E-03
   -.313E+00 -.347E-01 -.278E+04   0.321E+00 0.332E-01 0.278E+04   0.632E-02 -.582E-03 -.188E+00   -.194E-04 0.400E-04 0.187E-02
   0.377E-01 -.785E+00 -.285E+04   -.371E-01 0.788E+00 0.285E+04   -.753E-03 0.497E-03 0.950E+00   0.129E-04 0.537E-04 0.901E-03
   0.170E-01 -.960E-02 0.282E+04   -.166E-01 0.928E-02 -.282E+04   -.928E-04 0.104E-02 0.437E+00   0.372E-05 0.125E-04 0.231E-03
   0.765E-05 -.413E-05 0.300E+04   -.312E-05 0.808E-06 -.299E+04   0.746E-06 -.787E-07 -.389E+01   -.370E-05 0.309E-05 -.187E-03
   0.526E-03 -.139E-01 0.144E+04   -.526E-03 0.136E-01 -.143E+04   0.486E-05 -.110E-04 -.436E-01   -.202E-04 0.107E-05 0.334E-03
   0.959E-01 0.934E-03 0.143E+04   -.952E-01 -.939E-03 -.143E+04   -.198E-03 -.746E-05 0.203E+00   0.115E-04 -.176E-04 0.197E-03
   0.487E+00 -.141E+00 -.247E+02   -.487E+00 0.138E+00 0.256E+02   -.196E-03 0.179E-03 -.138E+00   0.233E-05 -.925E-05 0.178E-03
   -.709E-03 -.229E-05 -.123E+02   0.724E-03 -.562E-05 0.112E+02   -.486E-05 0.102E-05 0.345E+00   0.149E-05 0.623E-05 0.254E-03
   0.244E-01 -.270E-01 -.142E+04   -.245E-01 0.262E-01 0.142E+04   -.267E-03 0.855E-03 0.448E-02   0.496E-05 0.225E-04 0.483E-03
   0.657E+00 -.266E-02 -.146E+04   -.638E+00 0.199E-02 0.146E+04   -.705E-02 0.732E-03 -.494E-01   0.999E-05 -.209E-05 0.558E-03
   -.114E+01 -.120E+01 -.278E+04   0.121E+01 0.123E+01 0.278E+04   -.107E-01 -.356E-02 -.187E+00   -.737E-05 -.136E-03 0.179E-02
   -.124E-02 0.245E-03 -.285E+04   0.120E-02 -.236E-03 0.285E+04   0.286E-06 0.816E-06 0.943E+00   0.325E-04 -.298E-04 0.897E-03
   -.170E-01 0.955E-02 0.282E+04   0.166E-01 -.928E-02 -.282E+04   0.886E-04 -.104E-02 0.437E+00   0.627E-05 0.414E-04 0.296E-03
   0.349E-04 0.166E-01 0.300E+04   -.492E-05 -.163E-01 -.299E+04   0.368E-05 -.390E-04 -.390E+01   -.376E-04 -.187E-04 -.190E-03
   0.670E-03 0.665E-01 0.143E+04   -.674E-03 -.624E-01 -.143E+04   0.698E-05 -.780E-03 -.435E-01   -.237E-04 0.514E-05 0.332E-03
   -.649E-01 0.483E-01 0.143E+04   0.645E-01 -.478E-01 -.143E+04   0.734E-04 -.128E-04 0.204E+00   0.111E-06 -.243E-04 0.177E-03
   -.487E+00 0.141E+00 -.247E+02   0.487E+00 -.138E+00 0.256E+02   0.195E-03 -.179E-03 -.138E+00   -.500E-05 0.378E-05 0.172E-03
   0.750E-02 0.528E+00 -.130E+02   -.773E-02 -.541E+00 0.120E+02   0.372E-04 0.917E-02 0.342E+00   -.383E-05 -.112E-05 0.255E-03
   0.399E-02 0.490E+00 -.142E+04   -.387E-02 -.433E+00 0.142E+04   -.970E-04 -.307E-01 0.248E-01   0.222E-05 -.621E-05 0.446E-03
   -.300E+00 0.982E-01 -.146E+04   0.285E+00 -.944E-01 0.146E+04   0.480E-02 -.296E-02 -.495E-01   -.170E-05 0.233E-05 0.522E-03
   0.114E+01 0.120E+01 -.278E+04   -.121E+01 -.123E+01 0.278E+04   0.107E-01 0.356E-02 -.187E+00   -.128E-05 -.205E-03 0.185E-02
   0.136E+00 -.207E+01 -.285E+04   -.131E+00 0.221E+01 0.285E+04   -.288E-02 -.305E-01 0.990E+00   -.939E-05 0.496E-04 0.921E-03
   -.129E-01 0.946E-02 0.282E+04   0.127E-01 -.928E-02 -.282E+04   0.496E-04 0.102E-02 0.437E+00   0.151E-04 -.102E-03 0.242E-03
   -.169E-04 0.128E-04 0.300E+04   0.265E-05 -.218E-06 -.299E+04   -.547E-07 0.420E-05 -.389E+01   0.131E-04 -.145E-04 -.194E-03
   0.654E-03 0.635E-01 0.143E+04   -.677E-03 -.616E-01 -.143E+04   0.720E-05 -.557E-03 -.436E-01   -.277E-05 0.357E-05 0.345E-03
   -.341E-01 0.976E-03 0.143E+04   0.341E-01 -.997E-03 -.143E+04   -.100E-04 -.620E-05 0.202E+00   0.304E-05 -.515E-05 0.245E-03
   -.947E-01 0.126E+00 -.245E+02   0.933E-01 -.119E+00 0.254E+02   0.139E-03 -.413E-03 -.140E+00   -.389E-05 -.433E-05 0.175E-03
   0.250E-03 -.393E-04 -.118E+02   -.254E-03 0.422E-04 0.107E+02   0.132E-05 -.187E-05 0.341E+00   -.389E-05 -.303E-05 0.265E-03
   -.101E-01 -.987E+00 -.142E+04   0.986E-02 0.100E+01 0.142E+04   0.290E-03 -.640E-02 -.250E-01   -.465E-05 0.496E-04 0.469E-03
   -.655E-02 -.111E-02 -.146E+04   -.361E-02 0.961E-03 0.146E+04   0.107E-02 0.914E-04 -.436E-01   0.178E-04 0.844E-05 0.557E-03
   0.313E+00 0.358E-01 -.278E+04   -.321E+00 -.344E-01 0.278E+04   -.629E-02 0.569E-03 -.188E+00   0.303E-04 0.140E-03 0.180E-02
   -.148E-02 -.340E-03 -.285E+04   0.150E-02 0.352E-03 0.285E+04   0.110E-04 -.372E-05 0.927E+00   -.203E-04 0.177E-04 0.876E-03
[...]
   -.534E+02 -.305E-01 0.858E+03   0.574E+02 0.300E-01 -.858E+03   -.355E+01 0.139E-02 0.155E+00   -.808E-04 0.105E-04 0.123E-03
   0.534E+02 -.299E-01 0.858E+03   -.574E+02 0.293E-01 -.858E+03   0.355E+01 0.144E-02 0.155E+00   0.924E-04 -.111E-04 0.112E-03
   -.171E+00 -.191E-02 0.380E+03   0.171E+00 0.213E-02 -.384E+03   -.300E-03 -.514E-03 0.414E+01   -.357E-06 0.155E-05 0.102E-03
   -.603E+00 -.582E-02 -.426E+03   0.603E+00 0.600E-02 0.433E+03   0.275E-02 -.432E-03 -.718E+01   -.289E-05 -.237E-06 0.301E-05
   -.552E+02 -.279E+00 -.878E+01   0.599E+02 0.277E+00 0.853E+01   -.519E+01 0.162E-01 0.346E+00   0.141E-04 -.157E-05 0.109E-03
   0.552E+02 -.283E+00 -.878E+01   -.599E+02 0.282E+00 0.853E+01   0.519E+01 0.159E-01 0.346E+00   -.159E-04 0.289E-06 0.108E-03
   0.473E-03 0.431E-03 -.464E+03   -.470E-03 -.470E-03 0.458E+03   -.211E-05 0.339E-04 0.653E+01   0.326E-06 -.315E-05 0.134E-03
   0.434E-02 -.366E-03 -.122E+04   -.471E-02 0.411E-03 0.121E+04   0.375E-03 -.246E-04 0.267E+01   -.360E-05 -.137E-04 0.215E-03
   -.276E+02 -.105E+00 -.860E+03   0.306E+02 0.782E-01 0.859E+03   -.296E+01 0.242E-01 0.881E+00   0.855E-04 0.435E-05 0.249E-03
   0.276E+02 -.777E-01 -.860E+03   -.306E+02 0.481E-01 0.859E+03   0.296E+01 0.267E-01 0.887E+00   -.788E-04 0.459E-05 0.249E-03
   0.864E+00 -.115E+00 -.136E+04   -.960E+00 0.122E+00 0.136E+04   0.101E+00 -.749E-02 -.228E+01   -.963E-05 -.137E-04 0.194E-03
   -.221E+01 0.103E+00 -.203E+04   0.236E+01 -.116E+00 0.205E+04   -.153E+00 0.157E-01 -.209E+02   0.399E-06 -.201E-04 0.127E-02
   -.215E+02 -.821E+00 -.176E+04   0.275E+02 0.827E+00 0.176E+04   -.607E+01 0.790E-01 -.330E+01   -.135E-03 -.668E-04 0.713E-03
   0.216E+02 -.966E+00 -.176E+04   -.276E+02 0.988E+00 0.176E+04   0.608E+01 0.640E-01 -.324E+01   0.104E-03 -.257E-04 0.722E-03
   -.706E-03 0.929E-04 0.938E+02   0.220E-12 0.409E-12 0.289E-10   0.115E-02 -.235E-03 -.939E+02   -.273E-04 0.189E-05 0.728E-01

 POSITION                                       TOTAL-FORCE (eV/Angst)
      9.75299      7.39399      4.79682         0.000229     -0.000768     -3.579647
      0.00000      8.87278      4.79682         0.000002      0.000082      2.635380
      0.00000      7.39399      8.04782         0.000019      0.000346      0.519522
      9.75299      8.87278      8.04782         0.000261      0.000539     -0.713015
      9.75299      7.39399     11.29882        -0.000044      0.001072      0.707899
      0.00000      8.87278     11.29882         0.000194      0.001959     -0.742526
     13.00396      7.39418     14.48037         0.000350     -0.000041      0.075337
      9.75326      8.87324     14.68169         0.010442      0.000672     -0.021030
      9.75451      7.39556     18.02920         0.056841     -0.026664      0.171611
      0.00033      8.87376     17.65877         0.000116     -0.003379      0.184777
      9.75299     10.35158      4.79682         0.000135      0.001124     -3.579588
      0.00000      0.00000      4.79682        -0.000001     -0.000000      2.637167
      0.00000     10.35158      8.04782         0.000021     -0.000081      0.519688
      9.75299      0.00000      8.04782         0.000023      0.000034     -0.713905
      9.75299     10.35158     11.29882         0.001202      0.007820      0.713521
      0.00000      0.00000     11.29882         0.000005      0.000001     -0.743319
     13.00393     10.35182     14.48087        -0.000100     -0.001765      0.074301
      9.75247      0.00004     14.68348         0.009073      0.000043     -0.015047
      9.75128     10.35197     18.03541         0.014765      0.001321      0.141229
     13.00398     11.83038     17.65902        -0.000019      0.000019      0.185579
      9.75299      1.47880      4.79682         0.000132     -0.001094     -3.579571
      0.00000      2.95759      4.79682        -0.000004     -0.000079      2.635378
      0.00000      1.47880      8.04782        -0.000022      0.000084      0.519688
      9.75299      2.95759      8.04782         0.000269     -0.000540     -0.712821
      9.75299      1.47880     11.29882         0.001209     -0.006342      0.714503
      0.00000      2.95759     11.29882        -0.000179     -0.001958     -0.742522
      0.00006      1.47856     14.48087         0.000087      0.001782      0.074305
      9.75326      2.95717     14.68204         0.010482     -0.000858     -0.021184
      9.75103      1.47862     18.03555         0.014400     -0.001995      0.140969
     13.00367      2.95662     17.65877        -0.000143      0.003383      0.184787
      9.75299      4.43639      4.79682         0.000231      0.000745     -3.579633
      0.00000      5.91519      4.79682        -0.000000      0.000000      2.637205
      0.00000      4.43639      8.04782        -0.000017     -0.000345      0.519522
      9.75299      5.91519      8.04782         0.000498     -0.000030     -0.714853
      9.75299      4.43639     11.29882        -0.000040     -0.002549      0.708931
      0.00000      5.91519     11.29882         0.000010     -0.000000     -0.744464
      0.00002      4.43620     14.48037        -0.000365      0.000027      0.075341
      9.75358      5.91515     14.68176         0.011789      0.000055     -0.019040
      9.75379      4.43532     18.03030         0.060397      0.027600      0.168511
      0.00001      5.91519     17.65823        -0.000004     -0.000019      0.189132
      3.25100      7.39399      4.79682        -0.000235     -0.000737     -3.579626
      6.50199      8.87278      4.79682        -0.000006      0.000261      2.635370
      6.50199      7.39399      8.04782        -0.000023      0.003379      0.517742
      3.25100      8.87278      8.04782        -0.000265      0.000537     -0.712808
      3.25100      7.39399     11.29882         0.000038      0.002533      0.708981
      6.50199      8.87278     11.29882        -0.000193     -0.004015     -0.726280
      6.50198      7.39030     14.48965         0.000021      0.026518      0.036483
      3.25072      8.87320     14.68205        -0.010475      0.000868     -0.021222
      3.25022      7.39505     18.03033        -0.060349     -0.027554      0.168392
      6.50208      8.87248     17.65481         0.001492      0.103971      0.154019
      3.25100     10.35158      4.79682        -0.000136      0.001092     -3.579578
      6.50199      0.00000      4.79682        -0.000003      0.000003      2.637337
      6.50199     10.35158      8.04782        -0.000020      0.001406      0.520150
      3.25100      0.00000      8.04782        -0.000024     -0.000031     -0.713890
      3.25100     10.35158     11.29882        -0.001211      0.006315      0.714524
      6.50199      0.00000     11.29882        -0.000009     -0.000001     -0.757865
      6.50197     10.34976     14.47626         0.000082      0.011205      0.063118
      3.25151     11.83034     14.68348        -0.009074     -0.000050     -0.015072
      3.25295     10.35176     18.03555        -0.014390      0.002058      0.140940
      6.50199     11.83038     17.65434         0.000015      0.000026      0.188223
[...]
      6.50199      5.91519      9.32220        -0.000000      0.000001     -0.092521
      4.52538      4.43639      8.04782         0.442228      0.000837      0.046261
      8.47860      4.43639      8.04782        -0.442238      0.000870      0.046277
      3.25100      5.91519     10.02443        -0.000179     -0.000292     -0.126724
      3.25100      5.91519     12.57320         0.002587     -0.000258      0.058919
      7.77637      4.43639     11.29882        -0.486876      0.014234      0.094037
      5.22761      4.43639     11.29882         0.486598      0.014163      0.094110
      6.50199      5.91519     13.29981        -0.000001     -0.000008     -0.020745
      6.50199      5.91519     15.86380        -0.000006      0.000007      0.073365
      4.55308      4.43637     14.57527         0.001695     -0.002935     -0.007084
      8.45091      4.43645     14.57512        -0.001687     -0.002851     -0.007491
      3.24438      5.91546     16.54148         0.005185     -0.000926      0.065877
      3.26188      5.91464     19.11442        -0.002195      0.002487      0.034246
      7.72812      4.42967     17.96827        -0.070274      0.084736      0.190760
      5.27493      4.42915     17.96517         0.071264      0.085618      0.193360
    total drift:                                0.000416     -0.000140     -0.023766

  FREE ENERGIE OF THE ION-ELECTRON SYSTEM (eV)
  free  energy   TOTEN  =     -2119.56421925 eV

  energy  without entropy=    -2119.56421925  energy(sigma->0) =    -2119.56421925

 writing wavefunctions

     |            E. Caldeweyher, S. Ehlert & S. Grimme          |
     |          Mulliken Center for Theoretical Chemistry        |
     |                    University of Bonn                     |

Rational (Becke-Johnson) damping: hse06-D4-ATM
  s6         1.0000
  s8         1.1953
  s9         1.0000
  a1         0.3866
  a2         5.1913
 alp        16.0000

Dispersion energy:      -1.4347483278460E+00 Eh