 vasp.6.3.0 20Jan22 (build Apr  1 2022 16:44:48) complex
 executed on        HPECrayEX_GCC date 2023.02.21  23:02:03

 INCAR:
   SYSTEM = MgO-rocksalt
   ISMEAR = 0
   SIGMA = 0.05
   EDIFF = 1E-8
   ALGO = ALL
   ISTART = 0
   IBRION = 5
   POTIM = 0.01
   NFREE = 2
   ISYM = 0
   DIPOL = 0.5 0.5 0.5
   IDIPOL = 3
   LDIPOL = .TRUE.
   GGA = RE
   AGGAC = 0.0
   LUSE_VDW = .TRUE.
   LASPH = .TRUE.
   ENCUT = 520
   PREC = Accurate
   LASPH = .TRUE.
   LREAL = Auto
   ISPIN = 1
   NELM = 200
   NELMIN = 8
   NCORE = 8
   KPAR = 1
   LWAVE = .FALSE.
   LCHARG = .FALSE.

 POTCAR:    PAW_PBE H 15Jun2001
 POTCAR:    PAW_PBE O 08Apr2002
 POTCAR:    PAW_PBE Mg_pv 13Apr2007
 POTCAR:    PAW_PBE O 08Apr2002
|               ----> ADVICE to this user running VASP <----                  |
|     You have switched on vdW-DFT.                                           |
|     This routine was written and supplied by Jiri Klimes. We recommend      |
|     that you carefully read and cite the following publications:            |
|       J. Klimes, D.R. Bowler, A. Michelides                                 |
|          J. Phys.: Cond Matt. 22 022201 (2010)                              |
|       J. Klimes, D.R. Bowler, A. Michelides                                 |
|          Phys. Rev. B. 83, 195131 (2011)                                    |
|     and references therein.                                                 |

   TITEL  = PAW_PBE H 15Jun2001
   POMASS =    1.000; ZVAL   =    1.000    mass and valenz
   ENMAX  =  250.000; ENMIN  =  200.000 eV

   TITEL  = PAW_PBE O 08Apr2002
   POMASS =   16.000; ZVAL   =    6.000    mass and valenz
   ENMAX  =  400.000; ENMIN  =  300.000 eV

   TITEL  = PAW_PBE Mg_pv 13Apr2007
   POMASS =   24.305; ZVAL   =    8.000    mass and valenz
   ENMAX  =  403.929; ENMIN  =  302.947 eV

   TITEL  = PAW_PBE O 08Apr2002
   POMASS =   16.000; ZVAL   =    6.000    mass and valenz
   ENMAX  =  400.000; ENMIN  =  300.000 eV

 Optimization of the real space projectors (new method)

 maximal supplied QI-value         = 34.20
 optimisation between [QCUT,QGAM] = [ 11.63, 23.26] = [ 37.87,151.49] Ry
 Optimized for a Real-space Cutoff    1.21 Angstroem

   l    n(q)    QCUT    max X(q) W(low)/X(q) W(high)/X(q)  e(spline)
   0      8    11.629    19.460    0.17E-03    0.34E-03    0.21E-06
   0      8    11.629    12.209    0.16E-03    0.33E-03    0.21E-06
   1      8    11.629     4.655    0.18E-03    0.16E-03    0.26E-06
 Optimization of the real space projectors (new method)

[...]

   l    n(q)    QCUT    max X(q) W(low)/X(q) W(high)/X(q)  e(spline)
   1      8    11.527     2.974    0.44E-04    0.56E-04    0.12E-06
   1      8    11.527     4.279    0.12E-03    0.12E-03    0.26E-06
   0      9    11.527    16.381    0.46E-04    0.64E-04    0.78E-07
   0      9    11.527     5.611    0.26E-04    0.43E-04    0.55E-07
   2      8    11.527     4.652    0.22E-03    0.72E-04    0.47E-07
 Optimization of the real space projectors (new method)

 maximal supplied QI-value         = 24.76
 optimisation between [QCUT,QGAM] = [ 11.64, 23.27] = [ 37.91,151.63] Ry
 Optimized for a Real-space Cutoff    1.14 Angstroem

   l    n(q)    QCUT    max X(q) W(low)/X(q) W(high)/X(q)  e(spline)
   0      8    11.635    20.381    0.10E-03    0.33E-03    0.24E-06
   0      8    11.635    15.268    0.11E-03    0.35E-03    0.26E-06
   1      7    11.635     5.964    0.24E-03    0.31E-03    0.30E-06
   1      7    11.635     5.382    0.22E-03    0.25E-03    0.26E-06
|               ----> ADVICE to this user running VASP <----                  |
|     You enforced a specific xc type in the INCAR file but a different       |
|     type was found in the POTCAR file.                                      |
|     I HOPE YOU KNOW WHAT YOU ARE DOING!                                     |

  PAW_PBE H 15Jun2001                   :
  PAW_PBE O 08Apr2002                   :
  PAW_PBE Mg_pv 13Apr2007               :
  PAW_PBE O 08Apr2002                   :

 POSCAR:  H  O Mg  O
  positions in direct lattice
 exchange correlation table for  LEXCH =       40
   RHO(1)=    0.500       N(1)  =     2000
   RHO(2)=  100.500       N(2)  =     4000

 ion  position               nearest neighbor table
   1  0.409  0.429  0.767-   9 0.98
   2  0.326  0.391  0.772-   9 0.97
   3  0.591  0.324  0.768-  10 0.98
   4  0.675  0.361  0.771-  10 0.97
   5  0.448  0.287  0.768-  11 0.98
   6  0.485  0.203  0.774-  11 0.97
   7  0.553  0.470  0.768-  12 0.98
   8  0.514  0.553  0.768-  12 0.97
   9  0.380  0.380  0.760-   2 0.97   1 0.98
  10  0.621  0.372  0.760-   4 0.97   3 0.98
  11  0.496  0.256  0.760-   6 0.97   5 0.98
  12  0.504  0.498  0.760-   8 0.97   7 0.98
  13  0.000  0.375  0.350- 141 2.14 144 2.14 151 2.14 175 2.14 224 2.14
  14  0.125  0.000  0.350- 142 2.14 143 2.14 152 2.14 159 2.14 176 2.14
  15  0.000  0.000  0.450- 147 2.14 143 2.14 142 2.14 149 2.14 173 2.14 222 2.14
  16  0.125  0.375  0.450- 144 2.14 141 2.14 150 2.14 157 2.14 174 2.14 148 2.14
  17  1.000  0.375  0.550- 228 2.14 148 2.14 155 2.14 179 2.14 141 2.14 145 2.17
  18  0.125  1.000  0.550- 156 2.14 163 2.14 147 2.14 180 2.14 142 2.14 146 2.16
  19  0.000  1.000  0.649- 147 2.12 226 2.13 146 2.13 177 2.14 153 2.14
  20  0.125  0.375  0.649- 148 2.12 161 2.12 145 2.13 154 2.14 178 2.14
  21  0.000  0.125  0.350- 149 2.14 143 2.14 151 2.14 152 2.14 232 2.14
  22  0.125  0.250  0.350- 150 2.14 144 2.14 151 2.14 152 2.14 167 2.14
  23  0.000  0.250  0.450- 151 2.14 149 2.14 150 2.14 141 2.14 230 2.14 155 2.14
  24  0.125  0.125  0.450- 156 2.14 152 2.14 150 2.14 142 2.14 149 2.14 165 2.14
  25  0.000  0.125  0.550- 156 2.13 236 2.13 147 2.14 155 2.14 149 2.14 153 2.16
  26  0.125  0.250  0.550- 171 2.13 155 2.14 148 2.14 156 2.14 150 2.14 154 2.17
  27  0.000  0.250  0.649- 155 2.12 154 2.13 234 2.13 153 2.14 145 2.14
  28  0.125  0.125  0.649- 156 2.12 169 2.13 153 2.13 154 2.14 146 2.14
  29  0.250  0.375  0.350- 157 2.14 144 2.14 160 2.14 167 2.14 191 2.14
  30  0.375  0.000  0.350- 158 2.14 159 2.14 168 2.14 192 2.14 207 2.14
  31  0.250  0.000  0.450- 163 2.14 159 2.14 142 2.14 158 2.14 165 2.14 189 2.14
  32  0.375  0.375  0.450- 160 2.14 157 2.14 166 2.14 190 2.14 205 2.14 164 2.15
  33  0.250  0.375  0.550- 164 2.12 171 2.14 195 2.14 148 2.15 157 2.15 161 2.18
  34  0.375  1.000  0.550- 172 2.13 196 2.14 211 2.14 163 2.14 158 2.14 162 2.17
  35  0.250  1.000  0.649- 163 2.12 169 2.13 193 2.14 162 2.14 146 2.14
  36  0.375  0.375  0.652- 209 2.13 170 2.15 161 2.16 194 2.17 164 2.18
  37  0.250  0.125  0.350- 165 2.14 159 2.14 152 2.14 167 2.14 168 2.14
  38  0.375  0.250  0.350- 166 2.14 160 2.14 167 2.14 168 2.14 215 2.14
  39  0.250  0.250  0.450- 171 2.14 167 2.14 165 2.14 166 2.14 150 2.14 157 2.14
  40  0.375  0.125  0.450- 172 2.13 168 2.14 166 2.14 158 2.14 165 2.14 213 2.14
  41  0.250  0.125  0.550- 171 2.14 172 2.14 156 2.14 165 2.14 163 2.14 169 2.17
  42  0.376  0.251  0.551- 219 2.13 164 2.13 170 2.14 172 2.15 171 2.15 166 2.16
  43  0.250  0.250  0.648- 171 2.11 170 2.12 154 2.14 169 2.14 161 2.15
  44  0.375  0.125  0.648- 172 2.11 170 2.12 162 2.14 169 2.14 217 2.14
  45  0.000  0.875  0.350- 173 2.14 143 2.14 176 2.14 183 2.14 256 2.14
  46  0.125  0.500  0.350- 174 2.14 144 2.14 175 2.14 184 2.14 191 2.14
  47  0.000  0.500  0.450- 175 2.14 174 2.14 141 2.14 181 2.14 254 2.14 179 2.14
  48  0.125  0.875  0.450- 180 2.14 176 2.14 142 2.14 173 2.14 182 2.14 189 2.14
  49  0.000  0.875  0.550- 260 2.14 147 2.14 187 2.14 180 2.14 173 2.14 177 2.16
  50  0.125  0.500  0.550- 195 2.13 179 2.14 148 2.14 188 2.14 174 2.14 178 2.17
  51  0.000  0.500  0.649- 179 2.12 258 2.13 178 2.13 185 2.14 145 2.14
  52  0.125  0.875  0.649- 180 2.12 146 2.13 186 2.13 177 2.13 193 2.14
  53  0.000  0.625  0.350- 181 2.14 175 2.14 183 2.14 184 2.14 264 2.14
  54  0.125  0.750  0.350- 182 2.14 176 2.14 183 2.14 184 2.14 199 2.14
  55  0.000  0.750  0.450- 187 2.14 183 2.14 182 2.14 173 2.14 181 2.14 262 2.14
  56  0.125  0.625  0.450- 188 2.14 184 2.14 182 2.14 174 2.14 181 2.14 197 2.14
  57  1.000  0.625  0.550- 268 2.13 188 2.13 187 2.14 179 2.14 181 2.14 185 2.16
  58  0.125  0.750  0.550- 203 2.14 187 2.14 188 2.14 180 2.14 182 2.14 186 2.16
  59  0.000  0.750  0.649- 187 2.12 266 2.13 186 2.13 177 2.13 185 2.14
  60  0.125  0.625  0.649- 188 2.12 201 2.13 185 2.13 178 2.14 186 2.14
[...]
 254  0.875  0.500  0.450- 126 2.14  96 2.14  47 2.14 127 2.14 136 2.14 130 2.14
 255  0.750  0.500  0.350- 127 2.14 110 2.14 126 2.14  93 2.14 133 2.14
 256  0.875  0.875  0.350- 128 2.14  94 2.14 125 2.14  45 2.14 134 2.14
 257  0.750  0.875  0.651- 139 2.13  99 2.13 132 2.14 116 2.14 129 2.16
 258  0.875  0.500  0.651-  51 2.13 140 2.14 131 2.14 100 2.14 130 2.17
 259  0.750  0.500  0.550- 131 2.11 130 2.13 127 2.14 137 2.14  97 2.14 114 2.15
 260  0.875  0.875  0.550- 132 2.12  49 2.14 138 2.14  98 2.14 128 2.14 129 2.14
 261  0.750  0.625  0.450- 133 2.14 127 2.14 120 2.14 135 2.14 136 2.14 137 2.14
 262  0.875  0.750  0.450- 134 2.14 128 2.14  55 2.14 135 2.14 136 2.14 138 2.14
 263  0.750  0.750  0.350- 135 2.14 125 2.14 133 2.14 134 2.14 118 2.14
 264  0.875  0.625  0.350- 136 2.14 126 2.14 133 2.14 134 2.14  53 2.14
 265  0.751  0.626  0.651- 140 2.13 139 2.13 124 2.14 131 2.14 137 2.17
 266  0.875  0.750  0.651-  59 2.13 132 2.13 139 2.14 140 2.14 138 2.16
 267  0.750  0.750  0.550- 139 2.12 129 2.13 135 2.14 138 2.14 137 2.14 122 2.14
 268  0.875  0.625  0.550- 140 2.12  57 2.13 136 2.14 138 2.14 137 2.14 130 2.14

IMPORTANT INFORMATION: All symmetrisations will be switched off!
NOSYMM: (Re-)initialisation of all symmetry stuff for point group C_1.

                                     Primitive cell

  volume of cell :    6254.6868

  direct lattice vectors                    reciprocal lattice vectors
    17.092227251  0.000000000  0.000000000     0.058506126  0.000000000  0.000000000
     0.000000000 17.092227251  0.000000000     0.000000000  0.058506126  0.000000000
     0.000000000  0.000000000 21.409585219     0.000000000  0.000000000  0.046708051

  length of vectors
    17.092227251 17.092227251 21.409585219     0.058506126  0.058506126  0.046708051

  position of ions in fractional coordinates (direct lattice)
     0.409076971  0.428917526  0.767209222
     0.325586001  0.390575205  0.771685312
     0.591133831  0.324266158  0.768161446
     0.675373926  0.361205236  0.771107606
     0.448488456  0.286692773  0.767903234
     0.485206472  0.202629170  0.773757645
     0.552968238  0.469718933  0.767511702
     0.514060380  0.553217635  0.768086862
     0.379767789  0.380173824  0.760268664
     0.621204608  0.372242414  0.760035662
     0.496282341  0.255995863  0.760499759
     0.503940548  0.498088864  0.759691134
     0.000000000  0.375000000  0.350310383
     0.125000000  0.000000000  0.350310383
     0.000000000  0.000000000  0.450103461
     0.125000000  0.375000000  0.450103461
     0.999998624  0.374998946  0.550118837
     0.124965415  0.999973772  0.550095936
     0.000008312  0.999896377  0.649016156
     0.124833169  0.375010242  0.648941964
     0.000000000  0.125000000  0.350310383
     0.125000000  0.250000000  0.350310383
[...]
  9X    13.637482   18.286772    2.825432   41.654195   -9.675838  -11.339678   -0.079126   -0.001579    0.016535   -0.019256   -0.005812    0.003389    0.273676    0.509737    0.055116    0.154330   -0.018517   -0.029077   -0.063726    0.054102    0.018282    0.186057   -0.066890   -0.041428  -57.314143   -9.038172    8.536609    0.079741   -0.009073   -0.034970    0.200994   -0.714674   -0.042714    0.360236    0.676690   -0.025579
  9Y    13.647291   31.867874    6.543317   -4.953947    5.626251    2.549434    0.094628    0.086221   -0.010035    0.004753   -0.006322   -0.001556    0.246858    0.105383   -0.174794   -0.065052   -0.060597    0.012882   -0.013418    0.216342   -0.036041    0.096448   -0.095771   -0.041098   -8.963464  -38.959297   -8.852124   -0.016913   -0.084278    0.010009   -0.491043    0.401144    0.097887    0.440054    0.184558    0.030389
  9Z     1.365089    5.698173    2.436004  -10.012934    3.664174    3.652653   -0.038493   -0.002356    0.048652   -0.018779    0.001631    0.015544    0.014341    0.014271    0.303731   -0.007015    0.054515    0.026158   -0.050014    0.017805    0.037693   -0.010599   -0.052840    0.017588    8.607353   -8.764125   -7.513499    0.032386   -0.009643   -0.077163   -0.039977   -0.008183   -0.233269    0.089955    0.046335   -0.220044
 10X    -0.071126    0.004357   -0.017845   -0.018618   -0.006503   -0.004246   14.124552   18.482306   -3.514498   41.632451  -10.107481   11.039666   -0.078556    0.059185   -0.022144    0.185785   -0.059060    0.066301    0.275021    0.459046   -0.053674    0.144002   -0.006473    0.016367    0.080464   -0.018239    0.036948  -57.887070   -8.871334   -7.456925    0.407482    0.698613   -0.000136    0.147917   -0.642848    0.054247
 10Y     0.090338    0.079993    0.008437    0.004956   -0.006624    0.000454   13.849251   30.982219   -7.317444   -5.394551    5.713099   -2.738523   -0.012764    0.223551    0.030182    0.093196   -0.089217    0.056065    0.227672    0.043883    0.159550   -0.068688   -0.062094   -0.004591   -0.008747   -0.083687   -0.009599   -9.050846  -38.067730   10.240139    0.469929    0.180350   -0.047832   -0.405363    0.363875   -0.102647
 10Z     0.034954   -0.000685    0.048663    0.018291   -0.002877    0.015426   -1.934132   -6.583734    2.807558    9.598065   -3.780330    3.561889    0.053086   -0.027047    0.038732    0.018603    0.052763    0.014660   -0.014033   -0.037263    0.288567    0.000385   -0.051159    0.026350   -0.034668    0.009906   -0.076571   -7.431927   10.267267   -7.815738   -0.109824   -0.050782   -0.233226    0.043105    0.013223   -0.218046
 11X     0.230670    0.014432    0.032550   -0.094122   -0.099779    0.054004    0.066295   -0.247722    0.183228   -0.061726    0.068845   -0.009918   30.619017  -14.122915   -6.924559    5.696993    5.293646   -3.050592    0.079667   -0.093613    0.010503   -0.007590   -0.004724    0.001554    0.200429   -0.490224   -0.038011    0.406471    0.470212   -0.109350  -37.751231    9.281470    9.866297   -0.083138    0.011504   -0.010976
 11Y    -0.062958   -0.071264    0.022461    0.062788    0.192521   -0.060877   -0.498001    0.273647    0.051120    0.015809    0.153463   -0.024041  -18.691292   14.444226    3.183859    9.927701   40.615384  -12.943956   -0.000879   -0.072624    0.017601    0.006407   -0.019983    0.005675   -0.713607    0.402176   -0.006690    0.696834    0.180089   -0.048645    9.325050  -57.230839    9.632935    0.012134    0.079699   -0.035257
 11Z    -0.023859   -0.050269    0.037976    0.053289   -0.016788    0.014718   -0.015636    0.011495    0.315091   -0.054634   -0.005060    0.025534   -5.955314    1.552312    2.727445   -4.298349  -11.451852    4.747990    0.000941   -0.035161    0.048308   -0.001442   -0.017749    0.016585   -0.041690    0.098759   -0.234407   -0.000594   -0.046653   -0.233374    9.883268    9.677176   -8.931601    0.009451    0.032636   -0.075893
 12X     0.102204   -0.229109   -0.148909   -0.059346    0.062961    0.007933    0.206379    0.013907   -0.033133   -0.086222   -0.084481   -0.044963    0.085531   -0.090350   -0.007788   -0.004903   -0.004881   -0.000614   32.513892  -13.299732    7.033957    5.602582    4.887689    2.108011    0.359933    0.439391    0.088666    0.147843   -0.404741    0.041919   -0.082076    0.012826    0.008862  -39.690887    8.840449   -9.087045
 12Y    -0.490128    0.265528   -0.061758    0.010399    0.147960    0.022825   -0.051047   -0.072200   -0.018744    0.058627    0.174421    0.049457   -0.000624   -0.079287   -0.016201    0.005111   -0.019505   -0.002734  -17.998645   13.193941   -3.233375    9.702390   42.758858    8.600543    0.676997    0.184950    0.047662   -0.643336    0.363452    0.014353    0.011143    0.078648    0.032975    8.939643  -57.676987   -5.197466
 12Z     0.041768   -0.015977    0.278344    0.050060    0.001694    0.027213    0.021701    0.052227    0.037852   -0.050048    0.012447    0.018214   -0.000952    0.037694    0.048535    0.002666    0.018523    0.014935    6.502779   -1.848214    2.505053    2.936127    7.340295    2.307124   -0.027183    0.030773   -0.222413    0.055463   -0.102034   -0.218414   -0.010968   -0.036330   -0.075583   -9.093683   -5.277567   -6.280808

 Eigenvectors and eigenvalues of the dynamical matrix

   1 f  =  111.599943 THz   701.203123 2PiTHz 3722.573407 cm-1   461.540072 meV
             X         Y         Z           dx          dy          dz
      6.992037  7.331156 16.425631     0.003102    0.015891    0.004428
      5.564990  6.675800 16.521462     0.133228   -0.020767   -0.035040
     10.103794  5.542431 16.446018    -0.019049   -0.035811    0.009545
     11.543645  6.173802 16.509094    -0.108372    0.019835   -0.027941
      7.665667  4.900218 16.440490    -0.183047    0.088411    0.044707
      8.293259  3.463384 16.565830     0.160230    0.871805   -0.270663
      9.451459  8.028543 16.432107     0.001443   -0.000141    0.000743
      8.786437  9.455722 16.444421    -0.002193   -0.015297   -0.002852
      6.491077  6.498017 16.277037    -0.034650    0.001882    0.007225
     10.617770  6.362452 16.272048     0.032043    0.004057    0.004595
      8.482571  4.375539 16.281984     0.006270   -0.240128    0.055398
      8.613466  8.513448 16.264672     0.000372    0.004054    0.000448
      0.000000  6.409585  7.500000            0           0           0
      2.136528  0.000000  7.500000            0           0           0
      0.000000  0.000000  9.636528            0           0           0
      2.136528  6.409585  9.636528            0           0           0
     17.092204  6.409567 11.777816            0           0           0
      2.135937 17.091779 11.777326            0           0           0
      0.000142 17.090456 13.895167            0           0           0
      2.133677  6.409760 13.893578            0           0           0
      0.000000  2.136528  7.500000            0           0           0
      2.136528  4.273057  7.500000            0           0           0
      0.000000  4.273057  9.636528            0           0           0
      2.136528  2.136528  9.636528            0           0           0
      0.000079  2.135807 11.777379            0           0           0
      2.136237  4.273546 11.776651            0           0           0
      0.000051  4.270402 13.895020            0           0           0
      2.134588  2.133382 13.894187            0           0           0
      4.273057  6.409585  7.500000            0           0           0
      6.409585  0.000000  7.500000            0           0           0
      4.273057  0.000000  9.636528            0           0           0
      6.409585  6.409585  9.636528            0           0           0
      4.281408  6.408975 11.783356            0           0           0
      6.410109 17.091629 11.775877            0           0           0
      4.269620 17.090430 13.893907            0           0           0
      6.414242  6.401819 13.966844            0           0           0
      4.273057  2.136528  7.500000            0           0           0
      6.409585  4.273057  7.500000            0           0           0
      4.273057  4.273057  9.636528            0           0           0
      6.409585  2.136528  9.636528            0           0           0
      4.272220  2.136670 11.774406            0           0           0
      6.419118  4.281725 11.792691            0           0           0
      4.269446  4.266160 13.883733            0           0           0
      6.401698  2.133424 13.876560            0           0           0
      0.000000 14.955699  7.500000            0           0           0
      2.136528  8.546114  7.500000            0           0           0
      0.000000  8.546114  9.636528            0           0           0
      2.136528 14.955699  9.636528            0           0           0
      0.000063 14.955905 11.777261            0           0           0
      2.135373  8.545856 11.775576            0           0           0
      0.000028  8.549235 13.894829            0           0           0
      2.134524 14.955965 13.895142            0           0           0
      0.000000 10.682642  7.500000            0           0           0
      2.136528 12.819170  7.500000            0           0           0
      0.000000 12.819170  9.636528            0           0           0
      2.136528 10.682642  9.636528            0           0           0
     17.092200 10.683732 11.777277            0           0           0
      2.135772 12.820110 11.777277            0           0           0
      0.000043 12.821631 13.895130            0           0           0
      2.134220 10.686524 13.893758            0           0           0
[...]
     14.955699  8.546114  9.636528            0           0           0
     12.819170  8.546114  7.500000            0           0           0
     14.955699 14.955699  7.500000            0           0           0
     12.822379 14.955981 13.940338            0           0           0
     14.960016  8.550787 13.941621            0           0           0
     12.825796  8.547616 11.771812            0           0           0
     14.956770 14.955883 11.772735            0           0           0
     12.819170 10.682642  9.636528            0           0           0
     14.955699 12.819170  9.636528            0           0           0
     12.819170 12.819170  7.500000            0           0           0
     14.955699 10.682642  7.500000            0           0           0
     12.828701 10.692560 13.938947            0           0           0
     14.958949 12.822720 13.940202            0           0           0
     12.820866 12.821249 11.771991            0           0           0
     14.957881 10.684408 11.772061            0           0           0

[...]

  36 f  =    1.848601 THz    11.615106 2PiTHz   61.662708 cm-1     7.645198 meV
             X         Y         Z           dx          dy          dz
      6.992037  7.331156 16.425631     0.049681    0.097801   -0.022161
      5.564990  6.675800 16.521462     0.068685    0.079273    0.066143
     10.103794  5.542431 16.446018    -0.008583    0.090271    0.029539
     11.543645  6.173802 16.509094     0.010002    0.044803   -0.004302
      7.665667  4.900218 16.440490     0.039564    0.096605    0.009589
      8.293259  3.463384 16.565830     0.005081    0.088643    0.080366
      9.451459  8.028543 16.432107     0.057831    0.227436   -0.006182
      8.786437  9.455722 16.444421     0.002213    0.207607   -0.203138
      6.491077  6.498017 16.277037     0.234080    0.339727    0.098938
     10.617770  6.362452 16.272048     0.052256    0.286059    0.017195
      8.482571  4.375539 16.281984     0.069810    0.250448    0.025071
      8.613466  8.513448 16.264672     0.110343    0.666474   -0.081390
      0.000000  6.409585  7.500000            0           0           0
      2.136528  0.000000  7.500000            0           0           0
      0.000000  0.000000  9.636528            0           0           0
      2.136528  6.409585  9.636528            0           0           0
     17.092204  6.409567 11.777816            0           0           0
      2.135937 17.091779 11.777326            0           0           0
      0.000142 17.090456 13.895167            0           0           0
      2.133677  6.409760 13.893578            0           0           0
      0.000000  2.136528  7.500000            0           0           0
      2.136528  4.273057  7.500000            0           0           0
      0.000000  4.273057  9.636528            0           0           0
      2.136528  2.136528  9.636528            0           0           0
      0.000079  2.135807 11.777379            0           0           0
      2.136237  4.273546 11.776651            0           0           0
      0.000051  4.270402 13.895020            0           0           0
      2.134588  2.133382 13.894187            0           0           0
      4.273057  6.409585  7.500000            0           0           0
      6.409585  0.000000  7.500000            0           0           0
      4.273057  0.000000  9.636528            0           0           0
      6.409585  6.409585  9.636528            0           0           0
      4.281408  6.408975 11.783356            0           0           0
      6.410109 17.091629 11.775877            0           0           0
      4.269620 17.090430 13.893907            0           0           0
      6.414242  6.401819 13.966844            0           0           0
      4.273057  2.136528  7.500000            0           0           0
      6.409585  4.273057  7.500000            0           0           0
      4.273057  4.273057  9.636528            0           0           0
      6.409585  2.136528  9.636528            0           0           0
      4.272220  2.136670 11.774406            0           0           0
      6.419118  4.281725 11.792691            0           0           0
      4.269446  4.266160 13.883733            0           0           0
      6.401698  2.133424 13.876560            0           0           0
      0.000000 14.955699  7.500000            0           0           0
      2.136528  8.546114  7.500000            0           0           0
      0.000000  8.546114  9.636528            0           0           0
      2.136528 14.955699  9.636528            0           0           0
      0.000063 14.955905 11.777261            0           0           0
      2.135373  8.545856 11.775576            0           0           0
      0.000028  8.549235 13.894829            0           0           0
      2.134524 14.955965 13.895142            0           0           0
      0.000000 10.682642  7.500000            0           0           0
      2.136528 12.819170  7.500000            0           0           0
      0.000000 12.819170  9.636528            0           0           0
      2.136528 10.682642  9.636528            0           0           0
     17.092200 10.683732 11.777277            0           0           0
      2.135772 12.820110 11.777277            0           0           0
      0.000043 12.821631 13.895130            0           0           0
      2.134220 10.686524 13.893758            0           0           0
[...]
     14.955699  8.546114  9.636528            0           0           0
     12.819170  8.546114  7.500000            0           0           0
     14.955699 14.955699  7.500000            0           0           0
     12.822379 14.955981 13.940338            0           0           0
     14.960016  8.550787 13.941621            0           0           0
     12.825796  8.547616 11.771812            0           0           0
     14.956770 14.955883 11.772735            0           0           0
     12.819170 10.682642  9.636528            0           0           0
     14.955699 12.819170  9.636528            0           0           0
     12.819170 12.819170  7.500000            0           0           0
     14.955699 10.682642  7.500000            0           0           0
     12.828701 10.692560 13.938947            0           0           0
     14.958949 12.822720 13.940202            0           0           0
     12.820866 12.821249 11.771991            0           0           0
     14.957881 10.684408 11.772061            0           0           0

 Finite differences POTIM=   1.0000000000000000E-002