 vasp.6.3.0 20Jan22 (build Apr  1 2022 16:44:48) gamma-only
 executed on        HPECrayEX_GCC date 2023.02.22  23:58:35

 INCAR:
   SYSTEM = MgO-rocksalt
   ISMEAR = 0
   SIGMA = 0.05
   EDIFF = 1E-6
   ALGO = ALL
   ISTART = 0
   NSW = 0
   ISYM = 0
   ISIF = 2
   EDIFFG = -0.01
   DIPOL = 0.5 0.5 0.5
   IDIPOL = 3
   LDIPOL = .TRUE.
   LHFCALC = .TRUE.
   GGA = PE
   IVDW = 13
   VDW_S8 = 1.2007
   VDW_A1 = 0.4009
   VDW_A2 = 5.0293
   ENCUT = 520
   PREC = Accurate
   LASPH = .TRUE.
   LREAL = Auto
   ISPIN = 1
   NELM = 200
   NELMIN = 8
   NCORE = 8
   KPAR = 1
   LWAVE = .FALSE.
   LCHARG = .FALSE.

 POTCAR:    PAW_PBE Mg_pv 13Apr2007
 POTCAR:    PAW_PBE O 08Apr2002
 POTCAR:    PAW_PBE Mg_pv 13Apr2007
   VRHFIN =Mg: p6s2

   TITEL  = PAW_PBE Mg_pv 13Apr2007
   POMASS =   24.305; ZVAL   =    8.000    mass and valenz
   ENMAX  =  403.929; ENMIN  =  302.947 eV

   TITEL  = PAW_PBE O 08Apr2002
   POMASS =   16.000; ZVAL   =    6.000    mass and valenz
   ENMAX  =  400.000; ENMIN  =  300.000 eV

 Optimization of the real space projectors (new method)

 maximal supplied QI-value         = 18.90
 optimisation between [QCUT,QGAM] = [ 11.53, 23.24] = [ 37.21,151.29] Ry
 Optimized for a Real-space Cutoff    1.28 Angstroem

   l    n(q)    QCUT    max X(q) W(low)/X(q) W(high)/X(q)  e(spline)
   1      8    11.527     2.974    0.44E-04    0.56E-04    0.12E-06
   1      8    11.527     4.279    0.12E-03    0.12E-03    0.26E-06
   0      9    11.527    16.381    0.46E-04    0.64E-04    0.78E-07
   0      9    11.527     5.611    0.26E-04    0.43E-04    0.55E-07
   2      8    11.527     4.652    0.22E-03    0.72E-04    0.47E-07
 Optimization of the real space projectors (new method)

 maximal supplied QI-value         = 24.76
 optimisation between [QCUT,QGAM] = [ 11.64, 23.27] = [ 37.91,151.63] Ry
 Optimized for a Real-space Cutoff    1.14 Angstroem

   l    n(q)    QCUT    max X(q) W(low)/X(q) W(high)/X(q)  e(spline)
   0      8    11.635    20.381    0.10E-03    0.33E-03    0.24E-06
   0      8    11.635    15.268    0.11E-03    0.35E-03    0.26E-06
   1      7    11.635     5.964    0.24E-03    0.31E-03    0.30E-06
   1      7    11.635     5.382    0.22E-03    0.25E-03    0.26E-06
  PAW_PBE Mg_pv 13Apr2007               :
  PAW_PBE O 08Apr2002                   :

 POSCAR: Mg  O
  positions in direct lattice
  velocities in cartesian coordinates
|           W    W    AA    RRRRR   N    N  II  N    N   GGGG   !!!           |
|           W    W   A  A   R    R  NN   N  II  NN   N  G    G  !!!           |
|           W    W  A    A  R    R  N N  N  II  N N  N  G       !!!           |
|           W WW W  AAAAAA  RRRRR   N  N N  II  N  N N  G  GGG   !            |
|           WW  WW  A    A  R   R   N   NN  II  N   NN  G    G                |
|           W    W  A    A  R    R  N    N  II  N    N   GGGG   !!!           |
|     Specifying the vdW parameters                                           |
|     VDW_S8 = 1.201                                                          |
|     VDW_A1 = 0.401                                                          |
|     VDW_A2 = 5.029                                                          |
|     in the INCAR file will overwrite the defaults for pbe0. Please make     |
|     sure that is what you intended.                                         |

 ion  position               nearest neighbor table
   1  0.125  0.000  0.353- 131 2.09 132 2.09 148 2.09 171 2.09 129 2.09
   2  0.250  0.125  0.353- 131 2.09 132 2.09 140 2.09 147 2.09 130 2.09
   3  0.125  0.125  0.451- 129 2.09 130 2.09 137 2.09 146 2.09 131 2.09 135 2.09
   4  0.250  0.000  0.451- 129 2.09 130 2.09 145 2.09 170 2.09 132 2.09 136 2.09
   5  0.125  1.000  0.549- 136 2.09 175 2.09 135 2.09 152 2.09 129 2.10 133 2.12
   6  0.250  0.125  0.549- 144 2.09 136 2.09 151 2.09 135 2.09 130 2.10 134 2.12
   7  0.125  0.125  0.647- 135 2.07 141 2.09 134 2.09 150 2.09 133 2.09
   8  0.250  0.000  0.647- 136 2.07 134 2.09 174 2.09 149 2.09 133 2.09
   9  0.125  0.250  0.353- 131 2.09 139 2.09 140 2.09 156 2.09 137 2.09
  10  0.250  0.375  0.353- 139 2.09 140 2.09 155 2.09 164 2.09 138 2.09
  11  0.125  0.375  0.451- 137 2.09 138 2.09 154 2.09 161 2.09 139 2.09 143 2.09
  12  0.250  0.250  0.451- 130 2.09 137 2.09 138 2.09 153 2.09 140 2.09 144 2.09
  13  0.125  0.250  0.549- 144 2.09 160 2.09 143 2.09 135 2.09 137 2.10 141 2.12
  14  0.250  0.375  0.549- 144 2.09 168 2.09 159 2.09 143 2.09 138 2.10 142 2.12
  15  0.125  0.375  0.647- 143 2.07 142 2.09 141 2.09 158 2.09 165 2.09
  16  0.250  0.250  0.647- 144 2.08 141 2.09 134 2.09 157 2.09 142 2.09
  17  0.375  0.000  0.353- 132 2.09 147 2.09 187 2.09 212 2.09 145 2.09
  18  0.000  0.125  0.353- 131 2.09 148 2.09 156 2.09 211 2.09 146 2.09
  19  0.375  0.125  0.451- 130 2.09 145 2.09 153 2.09 210 2.09 147 2.09 151 2.09
  20  0.000  0.000  0.451- 129 2.09 146 2.09 186 2.09 209 2.09 148 2.09 152 2.09
  21  0.375  0.000  0.549- 136 2.09 151 2.09 191 2.09 216 2.09 145 2.10 149 2.12
  22  0.000  0.125  0.549- 160 2.09 135 2.09 215 2.09 152 2.09 146 2.10 150 2.12
  23  0.375  0.125  0.647- 151 2.07 134 2.09 157 2.09 149 2.09 214 2.09
  24  0.000  0.000  0.647- 152 2.07 133 2.09 150 2.09 213 2.09 190 2.09
  25  0.375  0.250  0.353- 140 2.09 147 2.09 155 2.09 220 2.09 153 2.09
  26  0.000  0.375  0.353- 139 2.09 156 2.09 180 2.09 219 2.09 154 2.09
  27  0.375  0.375  0.451- 138 2.09 153 2.09 177 2.09 218 2.09 155 2.09 159 2.09
  28  0.000  0.250  0.451- 137 2.09 146 2.09 154 2.09 217 2.09 156 2.09 160 2.09
  29  0.375  0.250  0.549- 144 2.09 224 2.09 151 2.09 159 2.09 153 2.10 157 2.12
  30  0.000  0.375  0.549- 160 2.09 143 2.09 223 2.09 184 2.09 154 2.10 158 2.12
  31  0.375  0.375  0.647- 159 2.07 142 2.09 157 2.09 181 2.09 222 2.09
  32  0.000  0.250  0.647- 160 2.07 141 2.09 221 2.09 158 2.09 150 2.09
  33  0.125  0.500  0.353- 139 2.09 163 2.09 164 2.09 180 2.09 161 2.09
  34  0.250  0.625  0.353- 163 2.09 164 2.09 172 2.09 179 2.09 162 2.09
  35  0.125  0.625  0.451- 161 2.09 162 2.09 169 2.09 178 2.09 163 2.09 167 2.09
  36  0.250  0.500  0.451- 138 2.09 161 2.09 162 2.09 177 2.09 164 2.09 168 2.09
  37  0.125  0.500  0.549- 168 2.09 167 2.09 143 2.09 184 2.09 161 2.10 165 2.12
  38  0.250  0.625  0.549- 176 2.09 168 2.09 183 2.09 167 2.09 162 2.10 166 2.12
  39  0.125  0.625  0.647- 167 2.07 173 2.09 166 2.09 182 2.09 165 2.09
  40  0.250  0.500  0.647- 168 2.07 142 2.09 166 2.09 181 2.09 165 2.09
  41  0.125  0.750  0.353- 163 2.09 171 2.09 172 2.09 188 2.09 169 2.09
  42  0.250  0.875  0.353- 132 2.09 171 2.09 172 2.09 187 2.09 170 2.09
  43  0.125  0.875  0.451- 129 2.09 169 2.09 170 2.09 186 2.09 171 2.09 175 2.09
  44  0.250  0.750  0.451- 162 2.09 169 2.09 170 2.09 185 2.09 172 2.09 176 2.09
  45  0.125  0.750  0.549- 176 2.09 192 2.09 167 2.09 175 2.09 169 2.10 173 2.12
  46  0.250  0.875  0.549- 176 2.09 136 2.09 191 2.09 175 2.09 170 2.10 174 2.12
  47  0.125  0.875  0.647- 175 2.07 174 2.09 173 2.09 190 2.09 133 2.09
  48  0.250  0.750  0.647- 176 2.08 174 2.09 189 2.09 173 2.09 166 2.09
  49  0.375  0.500  0.353- 155 2.09 164 2.09 179 2.09 244 2.09 177 2.09
  50  0.000  0.625  0.353- 163 2.09 180 2.09 188 2.09 243 2.09 178 2.09
  51  0.375  0.625  0.451- 162 2.09 177 2.09 185 2.09 242 2.09 179 2.09 183 2.09
  52  0.000  0.500  0.451- 154 2.09 161 2.09 178 2.09 241 2.09 180 2.09 184 2.09
  53  0.375  0.500  0.549- 168 2.09 159 2.09 183 2.09 248 2.09 177 2.10 181 2.12
  54  1.000  0.625  0.549- 192 2.09 247 2.09 167 2.09 184 2.09 178 2.10 182 2.12
  55  0.375  0.625  0.647- 183 2.07 189 2.09 166 2.09 246 2.09 181 2.09
  56  0.000  0.500  0.647- 184 2.07 182 2.09 165 2.09 245 2.09 158 2.09
  57  0.375  0.750  0.353- 172 2.09 179 2.09 187 2.09 252 2.09 185 2.09
  58  0.000  0.875  0.353- 148 2.09 171 2.09 188 2.09 251 2.09 186 2.09
  59  0.375  0.875  0.451- 145 2.09 170 2.09 185 2.09 250 2.09 187 2.09 191 2.09
  60  0.000  0.750  0.451- 169 2.09 178 2.09 186 2.09 249 2.09 188 2.09 192 2.09
[...]
 242  0.500  0.625  0.451-  51 2.09  99 2.09 116 2.09 124 2.09 114 2.09 118 2.10
 243  0.875  0.625  0.353-  50 2.09  98 2.09 113 2.09 121 2.09 115 2.09
 244  0.500  0.500  0.353-  49 2.09  90 2.09  97 2.09 114 2.09 116 2.09
 245  0.875  0.500  0.649-  56 2.09  95 2.09 119 2.09 104 2.09 117 2.12
 246  0.500  0.625  0.649- 120 2.09  55 2.09 103 2.09 128 2.09 118 2.12
 247  0.875  0.625  0.549- 119 2.07  54 2.09 117 2.09 125 2.09 102 2.09 115 2.09
 248  0.500  0.500  0.549- 120 2.07 118 2.09 101 2.09  94 2.09  53 2.09 116 2.09
 249  0.875  0.750  0.451-  60 2.09 108 2.09 115 2.09 123 2.09 121 2.09 125 2.10
 250  0.500  0.875  0.451-  59 2.09  84 2.09 107 2.09 124 2.09 122 2.09 126 2.10
 251  0.875  0.875  0.353-  58 2.09  81 2.09 106 2.09 121 2.09 123 2.09
 252  0.500  0.750  0.353-  57 2.09 105 2.09 114 2.09 122 2.09 124 2.09
 253  0.875  0.750  0.649-  64 2.09 127 2.09 119 2.09 112 2.09 125 2.12
 254  0.500  0.875  0.649-  88 2.09 111 2.09  63 2.09 128 2.09 126 2.12
 255  0.875  0.875  0.549- 127 2.07  85 2.09  62 2.09 110 2.09 125 2.09 123 2.09
 256  0.500  0.750  0.549- 128 2.07 126 2.09 118 2.09 109 2.09  61 2.09 124 2.09

IMPORTANT INFORMATION: All symmetrisations will be switched off!
NOSYMM: (Re-)initialisation of all symmetry stuff for point group C_1.

                                     Primitive cell

  volume of cell :    5928.4515

  direct lattice vectors                    reciprocal lattice vectors
    16.698223653  0.000000000  0.000000000     0.059886610  0.000000000  0.000000000
     0.000000000 16.698223653  0.000000000     0.000000000  0.059886610  0.000000000
     0.000000000  0.000000000 21.261833870     0.000000000  0.000000000  0.047032632

  length of vectors
    16.698223653 16.698223653 21.261833870     0.059886610  0.059886610  0.047032632

  position of ions in fractional coordinates (direct lattice)
     0.125000000  0.000000000  0.352744737
     0.250000000  0.125000000  0.352744737
     0.125000000  0.125000000  0.450914912
     0.250000000  0.000000000  0.450914912
     0.125007899  0.999999998  0.549454813
     0.250000004  0.125004625  0.549460347
     0.125004238  0.125004252  0.646727001
     0.249999994  0.000000002  0.646729627
     0.125000000  0.250000000  0.352744737
     0.250000000  0.375000000  0.352744737
     0.125000000  0.375000000  0.450914912
     0.250000000  0.250000000  0.450914912
     0.125004624  0.250000011  0.549460343
     0.250000000  0.374995385  0.549460351
     0.125004246  0.374995762  0.646727019
     0.249999991  0.250000005  0.646737386
     0.375000000  0.000000000  0.352744737
     0.000000000  0.125000000  0.352744737
     0.375000000  0.125000000  0.450914912
     0.000000000  0.000000000  0.450914912
     0.374992105  0.000000002  0.549454824
     0.000000004  0.125007894  0.549454815
     0.374995752  0.125004246  0.646727018
     0.000000010  0.000000000  0.646727819
     0.375000000  0.250000000  0.352744737
     0.000000000  0.375000000  0.352744737
     0.375000000  0.375000000  0.450914912
     0.000000000  0.250000000  0.450914912
     0.374995373  0.250000000  0.549460351
     0.000000001  0.374992115  0.549454817
     0.374995752  0.374995755  0.646727012
[...]
   6.26176302 10.43646066 13.75060220
   0.00000004  8.34911199 13.75062003
   6.26183387 12.52366774  7.50000000
   0.00000000 14.61094570  7.50000000
   6.26183387 14.61094570  9.58727796
   0.00000000 12.52366774  9.58727796
[...]
   8.34911183 10.43638978  9.58727796
  14.61094570 10.43638978  7.50000000
   8.34911183  8.34911183  7.50000000
  14.61102412  8.34911180 13.80001882
   8.34911188 10.43631129 13.80001847
  14.61103506 10.43630087 11.67569784
   8.34911179  8.34911184 11.67567169
  14.61094570 12.52366774  9.58727796
   8.34911183 14.61094570  9.58727796
  14.61094570 14.61094570  7.50000000
   8.34911183 12.52366774  7.50000000
  14.61120212 12.52366776 13.80055271
   8.34911192 14.61102406 13.80001884
  14.61103480 14.61103478 11.67569779
   8.34911185 12.52366777 11.67570213

--------------------------------------- Iteration      FINAL  ---------------------------------------

--------------------OUTCAR has been truncated-------------------------

[...]

--------------------OUTCAR has been truncated-------------------------

  FORCE on cell =-STRESS in cart. coord.  units (eV):
  Direction    XX          YY          ZZ          XY          YZ          ZX
  Alpha Z  3590.10834  3590.10834  3590.10834
  Ewald  666073.38396666073.38396************    -0.00000    -0.00000     0.00002
  Hartree706426.99771706426.99792************    -0.00001     0.00000     0.00001
  E(xc)   -7432.56419 -7432.56419 -7445.07402     0.00000     0.00000     0.00000
  Local  ************************************     0.00002    -0.00000    -0.00001
  n-local -2893.50254 -2893.50242 -2988.55579     0.00001    -0.00001    -0.00001
  augment  3305.84884  3305.84881  3262.76490    -0.00000     0.00000    -0.00000
  Kinetic 29348.37109 29348.37061 29500.33418    -0.00003    -0.00000    -0.00002
  Fock    -9975.36594 -9975.36590 -9960.38861    -0.00000     0.00000     0.00000
  vdW       -36.42949   -36.42949   -24.71531     0.00000     0.00000    -0.00000
  Total    -107.00434  -107.00459     9.44676    -0.00000    -0.00001    -0.00002
  in kB     -28.91816   -28.91823     2.55301    -0.00000    -0.00000    -0.00000

 VOLUME and BASIS-vectors are now :
  energy-cutoff  :      520.00
  volume of cell :     5928.45
      direct lattice vectors                 reciprocal lattice vectors
    16.698223653  0.000000000  0.000000000     0.059886610  0.000000000  0.000000000
     0.000000000 16.698223653  0.000000000     0.000000000  0.059886610  0.000000000
     0.000000000  0.000000000 21.261833870     0.000000000  0.000000000  0.047032632

  length of vectors
    16.698223653 16.698223653 21.261833870     0.059886610  0.059886610  0.047032632

 FORCES acting on ions:
    Electron-Ion                     Ewald-Force                    Non-Local-Force
   -.118E-02 0.641E-06 0.213E+04   0.996E-03 0.934E-05 -.212E+04   -.304E-03 -.616E-05 -.683E+01
   -.876E-05 -.170E-02 0.213E+04   0.128E-04 0.153E-02 -.212E+04   -.923E-06 -.178E-03 -.683E+01
   -.123E-01 -.123E-01 0.705E+03   0.112E-01 0.112E-01 -.705E+03   0.760E-03 0.753E-03 0.366E+00
   -.394E-04 -.242E-04 0.705E+03   0.379E-04 0.259E-04 -.705E+03   -.506E-06 -.181E-05 0.371E+00
   0.246E-01 -.405E-04 -.710E+03   -.302E-01 0.408E-04 0.710E+03   0.186E-02 -.201E-06 -.215E+00
   0.462E-04 -.353E-01 -.710E+03   -.437E-04 0.300E-01 0.710E+03   -.586E-05 0.262E-02 -.205E+00
   -.207E-02 -.192E-02 -.211E+04   -.361E-02 -.375E-02 0.210E+04   0.269E-02 0.268E-02 0.582E+01
   0.293E-04 0.130E-04 -.211E+04   -.238E-04 -.107E-04 0.210E+04   -.529E-05 -.892E-05 0.582E+01
   -.169E-02 -.123E-06 0.213E+04   0.153E-02 -.680E-06 -.212E+04   -.171E-03 0.942E-05 -.683E+01
   -.536E-05 0.170E-02 0.213E+04   0.330E-05 -.153E-02 -.212E+04   0.591E-06 0.174E-03 -.683E+01
   -.123E-01 0.123E-01 0.705E+03   0.112E-01 -.112E-01 -.705E+03   0.755E-03 -.753E-03 0.366E+00
   -.190E-04 0.304E-05 0.705E+03   0.197E-04 -.737E-05 -.705E+03   0.333E-05 0.441E-05 0.372E+00
   -.354E-01 0.151E-04 -.710E+03   0.301E-01 -.211E-04 0.710E+03   0.263E-02 -.170E-05 -.205E+00
   0.384E-04 0.354E-01 -.710E+03   -.326E-04 -.301E-01 0.710E+03   -.392E-05 -.263E-02 -.205E+00
   -.198E-02 0.199E-02 -.211E+04   -.371E-02 0.368E-02 0.210E+04   0.269E-02 -.268E-02 0.582E+01
   -.387E-05 0.303E-04 -.211E+04   0.948E-05 -.264E-04 0.210E+04   -.825E-06 -.209E-06 0.582E+01
   0.116E-02 -.125E-04 0.213E+04   -.977E-03 0.969E-05 -.212E+04   0.316E-03 0.430E-05 -.683E+01
   0.468E-05 -.118E-02 0.213E+04   -.516E-05 0.996E-03 -.212E+04   -.343E-05 -.314E-03 -.683E+01
   0.122E-01 -.122E-01 0.705E+03   -.112E-01 0.112E-01 -.705E+03   -.751E-03 0.752E-03 0.366E+00
   0.530E-05 -.727E-05 0.705E+03   -.973E-05 0.192E-04 -.705E+03   0.219E-05 -.565E-05 0.364E+00
   -.247E-01 0.167E-04 -.710E+03   0.302E-01 -.181E-04 0.710E+03   -.187E-02 -.344E-05 -.215E+00
   0.125E-03 0.245E-01 -.710E+03   -.111E-03 -.301E-01 0.710E+03   -.123E-04 0.187E-02 -.215E+00
   0.195E-02 -.194E-02 -.211E+04   0.372E-02 -.373E-02 0.210E+04   -.268E-02 0.269E-02 0.582E+01
   0.603E-04 0.131E-04 -.211E+04   -.516E-04 -.240E-04 0.210E+04   -.492E-05 0.605E-05 0.583E+01
   0.168E-02 0.373E-05 0.213E+04   -.152E-02 -.103E-04 -.212E+04   0.175E-03 0.494E-05 -.683E+01
   -.126E-05 0.118E-02 0.213E+04   -.426E-05 -.995E-03 -.212E+04   0.358E-05 0.312E-03 -.683E+01
   0.123E-01 0.123E-01 0.705E+03   -.112E-01 -.112E-01 -.705E+03   -.756E-03 -.750E-03 0.366E+00
   0.371E-04 -.957E-05 0.705E+03   -.310E-04 0.246E-05 -.705E+03   -.473E-05 0.199E-05 0.371E+00
   0.353E-01 0.288E-04 -.710E+03   -.300E-01 -.297E-04 0.710E+03   -.262E-02 -.162E-05 -.205E+00
   0.576E-04 -.246E-01 -.710E+03   -.600E-04 0.301E-01 0.710E+03   0.129E-05 -.187E-02 -.215E+00
   0.190E-02 0.199E-02 -.211E+04   0.378E-02 0.368E-02 0.210E+04   -.269E-02 -.268E-02 0.582E+01
   0.107E-03 0.481E-04 -.211E+04   -.994E-04 -.441E-04 0.210E+04   -.896E-05 0.127E-05 0.582E+01
   -.116E-02 0.150E-04 0.213E+04   0.989E-03 -.991E-05 -.212E+04   -.309E-03 -.554E-05 -.683E+01
   -.116E-04 -.169E-02 0.213E+04   0.339E-05 0.152E-02 -.212E+04   0.150E-04 -.180E-03 -.683E+01
   -.123E-01 -.122E-01 0.705E+03   0.112E-01 0.112E-01 -.705E+03   0.759E-03 0.747E-03 0.366E+00
   0.185E-05 0.244E-04 0.705E+03   -.412E-05 -.174E-04 -.705E+03   0.278E-05 0.168E-05 0.371E+00
   0.246E-01 0.378E-04 -.710E+03   -.302E-01 -.383E-04 0.710E+03   0.187E-02 -.487E-05 -.215E+00
   0.186E-04 -.354E-01 -.710E+03   -.105E-04 0.301E-01 0.710E+03   -.358E-05 0.262E-02 -.205E+00
   -.204E-02 -.195E-02 -.211E+04   -.364E-02 -.372E-02 0.210E+04   0.268E-02 0.268E-02 0.582E+01
   -.833E-05 -.378E-04 -.211E+04   0.188E-04 0.366E-04 0.210E+04   -.472E-05 0.691E-05 0.582E+01
   -.169E-02 -.809E-05 0.213E+04   0.153E-02 0.143E-05 -.212E+04   -.185E-03 0.746E-05 -.683E+01
   -.122E-04 0.168E-02 0.213E+04   0.123E-04 -.152E-02 -.212E+04   -.868E-05 0.168E-03 -.683E+01
   -.123E-01 0.122E-01 0.705E+03   0.112E-01 -.112E-01 -.705E+03   0.750E-03 -.755E-03 0.366E+00
   -.387E-05 -.700E-05 0.705E+03   0.892E-05 0.386E-05 -.705E+03   0.116E-05 0.276E-05 0.372E+00
   -.354E-01 -.555E-04 -.710E+03   0.301E-01 0.490E-04 0.710E+03   0.263E-02 0.522E-05 -.205E+00
   -.131E-04 0.353E-01 -.710E+03   0.251E-04 -.300E-01 0.710E+03   -.937E-05 -.262E-02 -.205E+00
   -.195E-02 0.192E-02 -.211E+04   -.373E-02 0.376E-02 0.210E+04   0.269E-02 -.269E-02 0.582E+01
   0.108E-04 0.155E-04 -.211E+04   0.210E-05 -.109E-04 0.210E+04   -.875E-05 -.526E-05 0.582E+01
   0.117E-02 0.929E-05 0.213E+04   -.989E-03 -.944E-05 -.212E+04   0.315E-03 0.224E-05 -.683E+01
   -.377E-06 -.116E-02 0.213E+04   -.482E-06 0.978E-03 -.212E+04   -.424E-05 -.315E-03 -.683E+01
   0.123E-01 -.122E-01 0.705E+03   -.112E-01 0.112E-01 -.705E+03   -.753E-03 0.751E-03 0.366E+00
   0.947E-05 0.302E-04 0.705E+03   -.132E-04 -.234E-04 -.705E+03   0.300E-05 -.263E-05 0.364E+00
   -.247E-01 -.358E-04 -.710E+03   0.302E-01 0.361E-04 0.710E+03   -.186E-02 0.953E-06 -.215E+00
   0.500E-05 0.247E-01 -.710E+03   0.439E-06 -.303E-01 0.710E+03   -.233E-05 0.186E-02 -.215E+00
   0.188E-02 -.194E-02 -.211E+04   0.378E-02 -.372E-02 0.210E+04   -.267E-02 0.268E-02 0.582E+01
   0.500E-04 0.729E-04 -.211E+04   -.470E-04 -.764E-04 0.210E+04   -.704E-05 -.705E-06 0.583E+01
   0.169E-02 -.113E-04 0.213E+04   -.152E-02 0.987E-05 -.212E+04   0.165E-03 -.241E-05 -.683E+01
   -.562E-05 0.117E-02 0.213E+04   -.128E-05 -.979E-03 -.212E+04   0.360E-05 0.306E-03 -.683E+01
   0.122E-01 0.122E-01 0.705E+03   -.112E-01 -.112E-01 -.705E+03   -.750E-03 -.759E-03 0.366E+00
   -.601E-05 -.232E-04 0.705E+03   0.274E-05 0.106E-04 -.705E+03   0.120E-05 0.762E-05 0.371E+00
[...]
   0.140E-02 -.136E-02 0.160E+04   -.115E-02 0.114E-02 -.160E+04   -.484E-03 0.474E-03 0.301E+01
   -.538E-05 0.248E-05 0.160E+04   -.163E-05 -.860E-05 -.160E+04   0.574E-05 0.575E-05 0.300E+01
   -.484E-02 0.280E-04 -.161E+04   0.692E-02 -.246E-04 0.161E+04   -.340E-02 0.330E-05 -.464E+01
   -.736E-05 0.486E-02 -.161E+04   0.122E-04 -.695E-02 0.161E+04   -.136E-05 0.340E-02 -.464E+01
   0.339E-01 -.337E-01 -.526E+03   -.293E-01 0.292E-01 0.526E+03   -.645E-02 0.644E-02 0.295E+00
   0.761E-05 0.649E-04 -.526E+03   -.100E-04 -.552E-04 0.526E+03   0.920E-06 -.615E-05 0.293E+00
   0.362E-02 -.149E-04 0.528E+03   -.266E-02 0.133E-04 -.528E+03   0.195E-02 0.242E-05 -.836E-01
   -.254E-05 -.761E-03 0.528E+03   -.971E-05 0.239E-02 -.528E+03   0.379E-05 -.269E-02 -.824E-01
   0.139E-02 0.136E-02 0.160E+04   -.116E-02 -.114E-02 -.160E+04   -.477E-03 -.475E-03 0.301E+01
   0.118E-04 -.722E-05 0.160E+04   -.198E-05 0.973E-05 -.160E+04   -.359E-05 -.380E-06 0.300E+01
   0.810E-01 0.536E-05 -.161E+04   -.774E-01 0.922E-05 0.161E+04   -.412E-02 -.443E-05 -.464E+01
   0.400E-04 -.486E-02 -.161E+04   -.277E-04 0.694E-02 0.161E+04   -.783E-05 -.340E-02 -.464E+01
   0.338E-01 0.338E-01 -.526E+03   -.293E-01 -.293E-01 0.526E+03   -.645E-02 -.644E-02 0.295E+00
   0.156E-04 0.376E-05 -.526E+03   -.289E-04 -.334E-05 0.526E+03   0.213E-05 -.237E-06 0.290E+00
   -.723E-04 0.750E-04 0.855E+02   0.170E-11 -.131E-12 0.273E-11   -.240E-04 -.135E-03 -.726E+02

 POSITION                                       TOTAL-FORCE (eV/Angst)
      2.08728      0.00000      7.50000         0.000081      0.000005      0.426325
      4.17456      2.08728      7.50000         0.000002      0.000049      0.426221
      2.08728      2.08728      9.58728        -0.000444     -0.000444      0.037709
      4.17456      0.00000      9.58728        -0.000002     -0.000001      0.040453
      2.08741     16.69822     11.68242        -0.003025      0.000000      0.004588
      4.17456      2.08736     11.68253        -0.000004     -0.002387      0.002912
      2.08735      2.08735     13.75060        -0.002130     -0.002132      0.061572
      4.17456      0.00000     13.75066         0.000000     -0.000008      0.059158
      2.08728      4.17456      7.50000         0.000063      0.000011      0.426212
      4.17456      6.26183      7.50000         0.000000     -0.000060      0.426222
      2.08728      6.26183      9.58728        -0.000437      0.000444      0.037704
      4.17456      4.17456      9.58728         0.000004      0.000002      0.038399
      2.08736      4.17456     11.68253        -0.002376     -0.000008      0.002905
      4.17456      6.26176     11.68253         0.000002      0.002378      0.002915
      2.08735      6.26176     13.75060        -0.002138      0.002134      0.061539
      4.17456      4.17456     13.75082         0.000004      0.000009      0.061951
      6.26183      0.00000      7.50000        -0.000068      0.000003      0.426301
      0.00000      2.08728      7.50000        -0.000007      0.000064      0.426402
      6.26183      2.08728      9.58728         0.000438     -0.000435      0.037702
      0.00000      0.00000      9.58728        -0.000002      0.000006      0.041231
      6.26170      0.00000     11.68242         0.003017     -0.000004      0.004593
      0.00000      2.08741     11.68242         0.000002     -0.003023      0.004575
      6.26176      2.08735     13.75060         0.002128     -0.002125      0.061537
      0.00000      0.00000     13.75062         0.000002     -0.000006      0.057559
      6.26183      4.17456      7.50000        -0.000059     -0.000003      0.426207
      0.00000      6.26183      7.50000        -0.000005     -0.000070      0.426405
      6.26183      6.26183      9.58728         0.000444      0.000443      0.037700
      0.00000      4.17456      9.58728         0.000003     -0.000007      0.040460
      6.26176      4.17456     11.68253         0.002373     -0.000002      0.002909
      0.00000      6.26170     11.68242        -0.000001      0.003027      0.004591
      6.26176      6.26176     13.75060         0.002127      0.002132      0.061593
      0.00000      4.17456     13.75066        -0.000002      0.000007      0.059169
      2.08728      8.34911      7.50000         0.000083     -0.000001      0.426311
      4.17456     10.43639      7.50000         0.000007      0.000051      0.426204
      2.08728     10.43639      9.58728        -0.000444     -0.000440      0.037695
      4.17456      8.34911      9.58728         0.000001      0.000010      0.040456
      2.08741      8.34911     11.68242        -0.003024     -0.000005      0.004580
      4.17456     10.43647     11.68253         0.000005     -0.002378      0.002907
      2.08735     10.43646     13.75060        -0.002129     -0.002124      0.061576
      4.17456      8.34911     13.75066         0.000007      0.000008      0.059179
      2.08728     12.52367      7.50000         0.000059      0.000003      0.426214
      4.17456     14.61095      7.50000        -0.000010     -0.000062      0.426220
      2.08728     14.61095      9.58728        -0.000439      0.000441      0.037697
      4.17456     12.52367      9.58728         0.000007     -0.000001      0.038400
      2.08736     12.52367     11.68253        -0.002375      0.000000      0.002904
      4.17456     14.61087     11.68253         0.000003      0.002375      0.002906
      2.08735     14.61087     13.75060        -0.002136      0.002136      0.061534
      4.17456     12.52367     13.75082         0.000007      0.000003      0.061941
      6.26183      8.34911      7.50000        -0.000075      0.000001      0.426295
      0.00000     10.43639      7.50000        -0.000008      0.000070      0.426387
      6.26183     10.43639      9.58728         0.000444     -0.000437      0.037695
      0.00000      8.34911      9.58728         0.000001      0.000006      0.041234
      6.26170      8.34911     11.68242         0.003028      0.000002      0.004587
     16.69822     10.43652     11.68242         0.000005     -0.003021      0.004575
      6.26176     10.43646     13.75060         0.002129     -0.002130      0.061546
      0.00000      8.34911     13.75062        -0.000003     -0.000002      0.057523
      6.26183     12.52367      7.50000        -0.000060     -0.000005      0.426219
      0.00000     14.61095      7.50000        -0.000004     -0.000073      0.426428
      6.26183     14.61095      9.58728         0.000440      0.000440      0.037698
      0.00000     12.52367      9.58728        -0.000000     -0.000004      0.040458
[...]
      8.34911     10.43639      9.58728         0.000008      0.001408      0.045533
     14.61095     10.43639      7.50000        -0.000276      0.000293     -0.566520
      8.34911      8.34911      7.50000         0.000001      0.000001     -0.567066
     14.61102      8.34911     13.80002        -0.001930      0.000008     -0.000815
      8.34911     10.43631     13.80002         0.000004      0.001932     -0.000819
     14.61104     10.43630     11.67570        -0.003085      0.003083     -0.005515
      8.34911      8.34911     11.67567        -0.000001      0.000002     -0.003147
     14.61095     12.52367      9.58728         0.002761      0.000002      0.044040
      8.34911     14.61095      9.58728        -0.000007     -0.001404      0.045532
     14.61095     14.61095      7.50000        -0.000278     -0.000290     -0.566509
      8.34911     12.52367      7.50000         0.000006      0.000002     -0.568514
     14.61120     12.52367     13.80055        -0.001948      0.000010     -0.002327
      8.34911     14.61102     13.80002         0.000003     -0.001932     -0.000823
     14.61103     14.61103     11.67570        -0.003081     -0.003090     -0.005523
      8.34911     12.52367     11.67570        -0.000011      0.000000     -0.008855
    total drift:                               -0.000114     -0.000044     -0.061951

  FREE ENERGIE OF THE ION-ELECTRON SYSTEM (eV)
  free  energy   TOTEN  =     -1888.65602322 eV

  energy  without entropy=    -1888.65602322  energy(sigma->0) =    -1888.65602322