 vasp.6.3.0 20Jan22 (build Apr  1 2022 16:44:48) complex
 executed on        HPECrayEX_GCC date 2022.10.25  01:17:17

 INCAR:
   SYSTEM = MgO-rocksalt
   ISMEAR = 0
   SIGMA = 0.05
   EDIFF = 1E-6
   ALGO = ALL
   ISTART = 0
   IBRION = -1
   NSW = 0
   ISYM = 0
   DIPOL = 0.5 0.5 0.5
   IDIPOL = 3
   LDIPOL = .TRUE.
   LHFCALC = .TRUE.
   GGA = B5
   AEXX = 0.2
   AGGAX = 0.72
   AGGAC = 0.81
   ALDAC = 0.19
   IVDW = 1
   VDW_S6 = 1.05
   VDW_C6 = 1.75 0.14 0.63 0.70
   VDW_R0 = 1.452 1.001 1.243 1.342
   ENCUT = 600
   PREC = Accurate
   LASPH = .TRUE.
   LREAL = .FALSE.
   ISPIN = 1
   NELM = 200
   NELMIN = 8
   NCORE = 8
   KPAR = 1
   LWAVE = .FALSE.
   LCHARG = .FALSE.

 POTCAR:    PAW_PBE C 08Apr2002
 POTCAR:    PAW_PBE H 15Jun2001
 POTCAR:    PAW_PBE Mg_pv 13Apr2007
 POTCAR:    PAW_PBE O 08Apr2002
 POTCAR:    PAW_PBE C 08Apr2002
   VRHFIN =C: s2p2

   TITEL  = PAW_PBE C 08Apr2002
   POMASS =   12.011; ZVAL   =    4.000    mass and valenz
   ENMAX  =  400.000; ENMIN  =  300.000 eV

   TITEL  = PAW_PBE H 15Jun2001
   POMASS =    1.000; ZVAL   =    1.000    mass and valenz
   ENMAX  =  250.000; ENMIN  =  200.000 eV

   TITEL  = PAW_PBE Mg_pv 13Apr2007
   POMASS =   24.305; ZVAL   =    8.000    mass and valenz
   ENMAX  =  403.929; ENMIN  =  302.947 eV

   TITEL  = PAW_PBE O 08Apr2002
   POMASS =   16.000; ZVAL   =    6.000    mass and valenz
   ENMAX  =  400.000; ENMIN  =  300.000 eV

  PAW_PBE C 08Apr2002                   :
  PAW_PBE H 15Jun2001                   :
  PAW_PBE Mg_pv 13Apr2007               :
  PAW_PBE O 08Apr2002                   :

 POSCAR:  C  H Mg  O
  positions in direct lattice
 exchange correlation table for  LEXCH =       12
   RHO(1)=    0.500       N(1)  =     2000
   RHO(2)=  100.500       N(2)  =     4000

 ion  position               nearest neighbor table
   1  0.500  0.500  0.808-   3 1.09   2 1.09   5 1.10   4 1.10
   2  0.500  0.605  0.837-   1 1.09
   3  0.500  0.395  0.837-   1 1.09
   4  0.605  0.500  0.778-   1 1.10
   5  0.395  0.500  0.778-   1 1.10
   6  0.000  0.750  0.350-  38 2.14  40 2.14  41 2.14  48 2.14  57 2.14
   7  0.250  0.000  0.350-  39 2.14  40 2.14  41 2.14  49 2.14  56 2.14
   8  0.000  0.000  0.450-  40 2.14  39 2.14  38 2.14  46 2.14  55 2.14  44 2.14
   9  0.250  0.750  0.450-  41 2.14  39 2.14  38 2.14  47 2.14  54 2.14  45 2.14
  10  0.000  0.750  0.550-  45 2.14  61 2.14  44 2.14  52 2.14  38 2.15  42 2.16
  11  0.250  0.000  0.550-  60 2.14  53 2.14  45 2.14  44 2.14  39 2.15  43 2.16
  12  1.000  1.000  0.650-  44 2.13  59 2.14  43 2.14  42 2.14  50 2.14
  13  0.250  0.750  0.650-  45 2.13  58 2.14  43 2.14  51 2.14  42 2.14
  14  0.000  0.250  0.350-  46 2.14  40 2.14  48 2.14  49 2.14  65 2.14
  15  0.250  0.500  0.350-  47 2.14  41 2.14  48 2.14  49 2.14  64 2.14
  16  0.000  0.500  0.450-  48 2.14  46 2.14  47 2.14  38 2.14  63 2.14  52 2.14
  17  0.250  0.250  0.450-  49 2.14  46 2.14  47 2.14  39 2.14  62 2.14  53 2.14
  18  0.000  0.250  0.550-  53 2.14  69 2.14  44 2.14  52 2.14  46 2.15  50 2.16
  19  0.250  0.500  0.550-  52 2.14  53 2.14  45 2.14  68 2.14  47 2.15  51 2.16
  20  0.000  0.500  0.650-  52 2.13  51 2.14  67 2.14  42 2.14  50 2.14
  21  0.250  0.250  0.650-  53 2.13  66 2.14  43 2.14  51 2.14  50 2.14
  22  0.500  0.750  0.350-  54 2.14  41 2.14  56 2.14  57 2.14  64 2.14
  23  0.750  0.000  0.350-  55 2.14  40 2.14  56 2.14  57 2.14  65 2.14
  24  0.500  0.000  0.450-  56 2.14  54 2.14  55 2.14  39 2.14  62 2.14  60 2.14
  25  0.750  0.750  0.450-  57 2.14  54 2.14  55 2.14  38 2.14  63 2.14  61 2.14
  26  0.500  0.750  0.550-  60 2.14  68 2.14  45 2.14  61 2.14  54 2.15  58 2.16
  27  0.750  0.000  0.550-  60 2.14  69 2.14  61 2.14  44 2.14  55 2.15  59 2.16
  28  0.500  1.000  0.650-  60 2.13  58 2.14  66 2.14  59 2.14  43 2.14
  29  0.750  0.750  0.650-  61 2.13  58 2.14  59 2.14  67 2.14  42 2.14
  30  0.500  0.250  0.350-  62 2.14  56 2.14  49 2.14  64 2.14  65 2.14
  31  0.750  0.500  0.350-  63 2.14  57 2.14  48 2.14  64 2.14  65 2.14
  32  0.500  0.500  0.450-  64 2.14  54 2.14  62 2.14  63 2.14  47 2.14  68 2.14
  33  0.750  0.250  0.450-  65 2.14  55 2.14  62 2.14  63 2.14  46 2.14  69 2.14
  34  0.500  0.250  0.550-  60 2.14  68 2.14  53 2.14  69 2.14  62 2.15  66 2.16
  35  0.750  0.500  0.550-  52 2.14  69 2.14  61 2.14  68 2.14  63 2.15  67 2.16
  36  0.500  0.500  0.650-  68 2.13  58 2.14  66 2.14  51 2.14  67 2.14
  37  0.750  0.250  0.650-  69 2.13  66 2.14  59 2.14  67 2.14  50 2.14
  38  0.000  0.750  0.450-   6 2.14   8 2.14   9 2.14  16 2.14  25 2.14  10 2.15
  39  0.250  0.000  0.450-   7 2.14   8 2.14   9 2.14  17 2.14  24 2.14  11 2.15
  40  0.000  0.000  0.350-   8 2.14   7 2.14   6 2.14  14 2.14  23 2.14
  41  0.250  0.750  0.350-   9 2.14   7 2.14   6 2.14  15 2.14  22 2.14
  42  0.000  0.750  0.652-  20 2.14  12 2.14  13 2.14  29 2.14  10 2.16
  43  0.250  1.000  0.652-  13 2.14  21 2.14  28 2.14  12 2.14  11 2.16
  44  0.000  0.000  0.550-  12 2.13  18 2.14  10 2.14  11 2.14  27 2.14   8 2.14
  45  0.250  0.750  0.550-  13 2.13  10 2.14  11 2.14  19 2.14  26 2.14   9 2.14
  46  0.000  0.250  0.450-  14 2.14   8 2.14  16 2.14  17 2.14  33 2.14  18 2.15
  47  0.250  0.500  0.450-  15 2.14   9 2.14  16 2.14  17 2.14  32 2.14  19 2.15
  48  0.000  0.500  0.350-  16 2.14  14 2.14  15 2.14   6 2.14  31 2.14
  49  0.250  0.250  0.350-  17 2.14  14 2.14  15 2.14   7 2.14  30 2.14
  50  1.000  0.250  0.652-  20 2.14  12 2.14  37 2.14  21 2.14  18 2.16
  51  0.250  0.500  0.651-  20 2.14  13 2.14  21 2.14  36 2.14  19 2.16
  52  0.000  0.500  0.550-  20 2.13  19 2.14  35 2.14  18 2.14  10 2.14  16 2.14
  53  0.250  0.250  0.550-  21 2.13  18 2.14  11 2.14  19 2.14  34 2.14  17 2.14
  54  0.500  0.750  0.450-  22 2.14   9 2.14  24 2.14  25 2.14  32 2.14  26 2.15
  55  0.750  0.000  0.450-  23 2.14   8 2.14  24 2.14  25 2.14  33 2.14  27 2.15
  56  0.500  0.000  0.350-  24 2.14  22 2.14  23 2.14   7 2.14  30 2.14
  57  0.750  0.750  0.350-  25 2.14  22 2.14  23 2.14   6 2.14  31 2.14
  58  0.500  0.750  0.651-  29 2.14  13 2.14  28 2.14  36 2.14  26 2.16
  59  0.750  1.000  0.652-  29 2.14  37 2.14  28 2.14  12 2.14  27 2.16
  60  0.500  0.000  0.550-  28 2.13  34 2.14  26 2.14  11 2.14  27 2.14  24 2.14
  61  0.750  0.750  0.550-  29 2.13  10 2.14  27 2.14  35 2.14  26 2.14  25 2.14
  62  0.500  0.250  0.450-  30 2.14  24 2.14  17 2.14  32 2.14  33 2.14  34 2.15
  63  0.750  0.500  0.450-  31 2.14  25 2.14  16 2.14  32 2.14  33 2.14  35 2.15
  64  0.500  0.500  0.350-  32 2.14  22 2.14  30 2.14  31 2.14  15 2.14
  65  0.750  0.250  0.350-  33 2.14  23 2.14  30 2.14  31 2.14  14 2.14
  66  0.500  0.250  0.651-  37 2.14  21 2.14  28 2.14  36 2.14  34 2.16
  67  0.750  0.500  0.651-  20 2.14  29 2.14  37 2.14  36 2.14  35 2.16
  68  0.500  0.500  0.550-  36 2.13  34 2.14  26 2.14  19 2.14  35 2.14  32 2.14
  69  0.750  0.250  0.550-  37 2.13  18 2.14  27 2.14  35 2.14  34 2.14  33 2.14

IMPORTANT INFORMATION: All symmetrisations will be switched off!
NOSYMM: (Re-)initialisation of all symmetry stuff for point group C_1.

                                     Primitive cell

  volume of cell :    1563.6717

  direct lattice vectors                    reciprocal lattice vectors
     8.546113626  0.000000000  0.000000000     0.117012252  0.000000000  0.000000000
     0.000000000  8.546113626  0.000000000     0.000000000  0.117012252  0.000000000
     0.000000000  0.000000000 21.409585219     0.000000000  0.000000000  0.046708051

  length of vectors
     8.546113626  8.546113626 21.409585219     0.117012252  0.117012252  0.046708051

  position of ions in fractional coordinates (direct lattice)
     0.499999914  0.499999506  0.807548202
     0.499999991  0.604827035  0.836921686
     0.499999950  0.395173390  0.836921535
     0.605111703  0.500000035  0.778233774
     0.394888287  0.500000075  0.778233785
     0.000000000  0.750000000  0.350310383
     0.250000000  0.000000000  0.350310383
     0.000000000  0.000000000  0.450103461
     0.250000000  0.750000000  0.450103461
     0.000000010  0.750048803  0.550439856
     0.250007043  0.000000008  0.550439704
     0.999999995  0.999999990  0.649719877
     0.250129022  0.750046398  0.649515153
     0.000000000  0.250000000  0.350310383
     0.250000000  0.500000000  0.350310383
     0.000000000  0.500000000  0.450103461
     0.250000000  0.250000000  0.450103461
     0.000000008  0.249951191  0.550439878
     0.249952443  0.499999988  0.550416708
     0.000000008  0.500000002  0.649556603
     0.250129040  0.249953598  0.649515180
     0.500000000  0.750000000  0.350310383
     0.750000000  0.000000000  0.350310383
     0.500000000  0.000000000  0.450103461
     0.750000000  0.750000000  0.450103461
     0.499999994  0.750023873  0.550431636
     0.749992958  0.000000009  0.550439691
     0.500000007  0.999999987  0.649588587
     0.749870979  0.750046409  0.649515150
     0.500000000  0.250000000  0.350310383
     0.750000000  0.500000000  0.350310383
     0.500000000  0.500000000  0.450103461
     0.750000000  0.250000000  0.450103461
     0.499999994  0.249976122  0.550431644
     0.750047559  0.499999989  0.550416700
     0.500000000  0.500000010  0.649650227
     0.749870966  0.249953590  0.649515177
     0.000000000  0.750000000  0.450103461
     0.250000000  0.000000000  0.450103461
     0.000000000  0.000000000  0.350310383
     0.250000000  0.750000000  0.350310383
     0.000000003  0.749984296  0.651540068
     0.250006609  0.999999987  0.651525352
     0.000000004  0.000000004  0.550202403
     0.249933110  0.750006583  0.550136903
     0.000000000  0.250000000  0.450103461
     0.250000000  0.500000000  0.450103461
     0.000000000  0.500000000  0.350310383
     0.250000000  0.250000000  0.350310383
     0.999999998  0.250015696  0.651540104
     0.249804499  0.500000006  0.651481806
     0.000000005  0.499999989  0.550151038
     0.249933115  0.249993413  0.550136917
     0.500000000  0.750000000  0.450103461
     0.750000000  0.000000000  0.450103461
     0.500000000  0.000000000  0.350310383
     0.750000000  0.750000000  0.350310383
     0.500000003  0.750077766  0.651339700
     0.749993397  0.999999990  0.651525348
     0.499999997  0.000000005  0.550107257
     0.750066894  0.750006583  0.550136900
     0.500000000  0.250000000  0.450103461
     0.750000000  0.500000000  0.450103461
     0.500000000  0.500000000  0.350310383
     0.750000000  0.250000000  0.350310383
     0.500000003  0.249922229  0.651339732
     0.750195501  0.500000005  0.651481798
     0.499999996  0.499999991  0.550123034
     0.750066889  0.249993417  0.550136915

  ion indices of the primitive-cell ions
   primitive index   ion index
                 1           1
                 2           2
                 3           3
                 4           4
                 5           5
                 6           6
                 7           7
                 8           8
                 9           9
                10          10
                11          11
                12          12
                13          13
                14          14
                15          15
                16          16
[...]
   2.13652841  0.00000000  7.50000000
   0.00000000  0.00000000  9.63652841
   2.13652841  6.40958522  9.63652841
   0.00000008  6.41000230 11.78468902
   2.13658859  0.00000007 11.78468576
   8.54611359  8.54611354 13.91023308
   2.13763104  6.40998174 13.90585001
   0.00000000  2.13652841  7.50000000
   2.13652841  4.27305681  7.50000000
   0.00000000  4.27305681  9.63652841
   2.13652841  2.13652841  9.63652841
   0.00000007  2.13611128 11.78468948
   2.13612198  4.27305671 11.78419342
   0.00000006  4.27305683 13.90673744
   2.13763120  2.13613185 13.90585060
   4.27305681  6.40958522  7.50000000
   6.40958522  0.00000000  7.50000000
   4.27305681  0.00000000  9.63652841
   6.40958522  6.40958522  9.63652841
   4.27305677  6.40978924 11.78451302
   6.40952503  0.00000008 11.78468547
   4.27305687  8.54611351 13.90742221
   6.40848259  6.40998183 13.90584995
   4.27305681  2.13652841  7.50000000
   6.40958522  4.27305681  7.50000000
   4.27305681  4.27305681  9.63652841
   6.40958522  2.13652841  9.63652841
   4.27305676  2.13632434 11.78451318
   6.40999167  4.27305672 11.78419325
   4.27305681  4.27305690 13.90874189
   6.40848248  2.13613178 13.90585053
   0.00000000  6.40958522  9.63652841
   2.13652841  0.00000000  9.63652841
   0.00000000  0.00000000  7.50000000
   2.13652841  6.40958522  7.50000000
   0.00000003  6.40945101 13.94920262
   2.13658489  8.54611351 13.94888755
   0.00000003  0.00000004 11.77960524
   2.13595676  6.40964148 11.77820290
   0.00000000  2.13652841  9.63652841
   2.13652841  4.27305681  9.63652841
   0.00000000  4.27305681  7.50000000
   2.13652841  2.13652841  7.50000000
   8.54611361  2.13666254 13.94920339
   2.13485764  4.27305686 13.94795524
   0.00000004  4.27305672 11.77850553
   2.13595680  2.13647211 11.77820321
   4.27305681  6.40958522  9.63652841
   6.40958522  0.00000000  9.63652841
   4.27305681  0.00000000  7.50000000
   6.40958522  6.40958522  7.50000000
   4.27305684  6.41024982 13.94491281
   6.40952879  8.54611354 13.94888747
   4.27305679  0.00000004 11.77756820
   6.41015690  6.40964148 11.77820283
   4.27305681  2.13652841  9.63652841
   6.40958522  4.27305681  9.63652841
   4.27305681  4.27305681  7.50000000
   6.40958522  2.13652841  7.50000000
   4.27305684  2.13586377 13.94491349
   6.41125599  4.27305685 13.94795507
   4.27305678  4.27305673 11.77790598
   6.41015686  2.13647215 11.77820317

--------------------------------------- Iteration      FINAL  ---------------------------------------

--------------------OUTCAR has been truncated-------------------------

[...]

--------------------OUTCAR has been truncated-------------------------

  DFT-D2 method for vdW energy calculation

  Parameters of vdW forcefield:
         C6(Jnm^6/mol)     R0(A)
   C        1.750          1.452
   H        0.140          1.001
   Mg       0.630          1.243
   O        0.700          1.342

  vdW correction parametrized for the method ¡iÿ      

  IVDW =   1
  VDW_RADIUS =    50.000 A
  VDW_S6 =     1.050
  VDW_SR =     1.000
  VDW_D =    20.000
  LVDW_EWALD = F

  Number of pair interactions contributing to vdW energy:  817176
  Edisp (eV):   -4.95655

 VOLUME and BASIS-vectors are now :
  energy-cutoff  :      600.00
  volume of cell :     1563.67
      direct lattice vectors                 reciprocal lattice vectors
     8.546113626  0.000000000  0.000000000     0.117012252  0.000000000  0.000000000
     0.000000000  8.546113626  0.000000000     0.000000000  0.117012252  0.000000000
     0.000000000  0.000000000 21.409585219     0.000000000  0.000000000  0.046708051

  length of vectors
     8.546113626  8.546113626 21.409585219     0.117012252  0.117012252  0.046708051

 FORCES acting on ions:
    Electron-Ion                     Ewald-Force                    Non-Local-Force
   -.360E-04 -.214E-03 -.856E+03   0.371E-04 0.342E-03 0.856E+03   0.190E-04 0.199E-03 -.434E-01
   -.269E-04 -.431E+02 -.213E+03   0.308E-04 0.476E+02 0.216E+03   -.315E-05 -.453E+01 -.317E+01
   -.138E-04 0.431E+02 -.213E+03   0.125E-04 -.476E+02 0.216E+03   -.237E-05 0.453E+01 -.317E+01
   -.432E+02 -.190E-03 -.215E+03   0.477E+02 0.206E-03 0.212E+03   -.456E+01 -.272E-04 0.312E+01
   0.432E+02 -.207E-03 -.215E+03   -.477E+02 0.224E-03 0.212E+03   0.456E+01 -.288E-04 0.312E+01
   -.152E-05 -.149E+00 0.201E+04   0.120E-05 0.149E+00 -.201E+04   0.400E-06 -.170E-03 -.633E+01
   0.153E+00 -.481E-05 0.201E+04   -.153E+00 0.548E-05 -.201E+04   -.151E-03 0.261E-06 -.633E+01
   -.670E-05 -.282E-04 0.686E+03   0.896E-05 0.314E-04 -.686E+03   -.270E-05 -.352E-05 0.437E+00
   0.577E+00 -.594E+00 0.687E+03   -.578E+00 0.596E+00 -.687E+03   0.768E-03 -.118E-02 0.421E+00
   0.292E-04 -.216E+01 -.634E+03   -.287E-04 0.218E+01 0.634E+03   -.224E-05 -.127E-01 -.234E+00
   0.221E+01 -.123E-04 -.634E+03   -.221E+01 0.143E-04 0.634E+03   0.317E-02 -.811E-06 -.232E+00
   -.520E-05 0.242E-06 -.196E+04   0.634E-05 -.101E-05 0.195E+04   -.172E-06 0.243E-06 0.553E+01
   0.124E+02 -.126E+02 -.194E+04   -.124E+02 0.127E+02 0.194E+04   -.261E-01 -.259E-01 0.555E+01
   -.156E-05 0.149E+00 0.201E+04   0.121E-05 -.149E+00 -.201E+04   -.452E-06 0.174E-03 -.633E+01
   0.160E+00 0.511E-05 0.201E+04   -.160E+00 -.548E-05 -.201E+04   -.228E-03 -.558E-06 -.633E+01
   -.351E-05 0.273E-04 0.687E+03   0.344E-05 -.307E-04 -.687E+03   -.286E-05 0.263E-05 0.423E+00
   0.577E+00 0.594E+00 0.687E+03   -.578E+00 -.596E+00 -.687E+03   0.765E-03 0.117E-02 0.421E+00
   0.184E-04 0.216E+01 -.634E+03   -.186E-04 -.218E+01 0.634E+03   0.324E-06 0.127E-01 -.234E+00
   0.315E+01 0.118E-04 -.628E+03   -.315E+01 -.140E-04 0.628E+03   0.110E-01 0.167E-06 -.233E+00
   0.486E-04 -.911E-06 -.195E+04   -.497E-04 0.396E-05 0.194E+04   -.133E-05 -.291E-05 0.553E+01
   0.124E+02 0.126E+02 -.194E+04   -.124E+02 -.127E+02 0.194E+04   -.261E-01 0.259E-01 0.555E+01
   0.265E-06 -.156E+00 0.201E+04   -.121E-05 0.156E+00 -.201E+04   0.187E-05 -.495E-04 -.634E+01
   -.153E+00 -.583E-05 0.201E+04   0.153E+00 0.550E-05 -.201E+04   0.145E-03 0.180E-05 -.633E+01
   0.742E-05 -.118E-04 0.687E+03   -.922E-05 0.158E-04 -.687E+03   0.116E-05 -.433E-05 0.405E+00
   -.577E+00 -.594E+00 0.687E+03   0.578E+00 0.596E+00 -.687E+03   -.769E-03 -.117E-02 0.421E+00
   -.260E-04 -.326E+01 -.627E+03   0.255E-04 0.326E+01 0.628E+03   0.269E-05 -.501E-02 -.309E+00
   -.221E+01 -.124E-04 -.634E+03   0.221E+01 0.142E-04 0.634E+03   -.317E-02 -.207E-05 -.232E+00
   -.735E-05 0.717E-05 -.195E+04   0.491E-05 -.999E-05 0.194E+04   0.240E-05 0.362E-05 0.553E+01
   -.124E+02 -.126E+02 -.194E+04   0.124E+02 0.127E+02 0.194E+04   0.261E-01 -.259E-01 0.555E+01
   -.597E-07 0.156E+00 0.201E+04   -.120E-05 -.156E+00 -.201E+04   0.689E-07 0.446E-04 -.634E+01
   -.160E+00 0.433E-05 0.201E+04   0.160E+00 -.547E-05 -.201E+04   0.231E-03 -.164E-06 -.633E+01
   0.230E-05 0.117E-04 0.688E+03   -.338E-05 -.154E-04 -.689E+03   0.101E-06 0.295E-05 0.409E+00
   -.577E+00 0.594E+00 0.687E+03   0.578E+00 -.596E+00 -.687E+03   -.766E-03 0.117E-02 0.421E+00
   -.250E-04 0.326E+01 -.627E+03   0.250E-04 -.326E+01 0.628E+03   -.395E-06 0.501E-02 -.309E+00
   -.315E+01 0.202E-05 -.628E+03   0.315E+01 -.585E-05 0.628E+03   -.110E-01 0.464E-05 -.233E+00
   -.306E-04 -.234E-04 -.190E+04   0.343E-04 0.255E-04 0.189E+04   -.391E-05 -.278E-05 0.550E+01
   -.124E+02 0.126E+02 -.194E+04   0.124E+02 -.127E+02 0.194E+04   0.261E-01 0.259E-01 0.555E+01
   -.572E-06 -.417E+00 0.514E+03   0.356E-06 0.414E+00 -.514E+03   0.294E-06 0.339E-02 -.969E-01
   0.442E+00 -.163E-04 0.514E+03   -.438E+00 0.156E-04 -.514E+03   -.561E-02 0.927E-06 -.961E-01
   -.321E-05 -.105E-05 0.151E+04   0.129E-05 0.490E-05 -.152E+04   0.447E-06 -.468E-06 0.315E+01
   0.117E+00 -.115E+00 0.151E+04   -.117E+00 0.115E+00 -.152E+04   -.282E-03 -.233E-03 0.315E+01
   0.252E-04 -.558E+01 -.148E+04   -.242E-04 0.558E+01 0.149E+04   0.295E-06 0.856E-02 -.443E+01
   0.533E+01 -.969E-07 -.148E+04   -.533E+01 0.207E-05 0.149E+04   0.401E-02 -.368E-06 -.444E+01
   0.118E-04 -.181E-04 -.472E+03   -.112E-04 0.154E-04 0.472E+03   -.694E-06 0.127E-05 0.257E+00
   0.201E+01 -.204E+01 -.468E+03   -.200E+01 0.203E+01 0.467E+03   -.903E-02 0.499E-02 0.299E+00
   -.188E-05 0.417E+00 0.514E+03   0.103E-05 -.414E+00 -.514E+03   -.310E-06 -.339E-02 -.969E-01
   0.468E+00 0.162E-04 0.515E+03   -.465E+00 -.152E-04 -.515E+03   -.427E-02 -.114E-05 -.918E-01
   0.104E-05 0.901E-05 0.151E+04   0.789E-06 -.489E-05 -.152E+04   -.958E-07 -.177E-05 0.315E+01
   0.117E+00 0.115E+00 0.151E+04   -.117E+00 -.115E+00 -.152E+04   -.278E-03 0.235E-03 0.315E+01
   0.258E-05 0.558E+01 -.148E+04   -.234E-05 -.558E+01 0.149E+04   0.653E-06 -.856E-02 -.443E+01
   0.151E+02 -.888E-05 -.146E+04   -.151E+02 0.896E-05 0.147E+04   -.192E-01 0.515E-07 -.441E+01
   0.169E-04 0.164E-04 -.468E+03   -.192E-04 -.142E-04 0.468E+03   0.196E-05 -.258E-05 0.283E+00
   0.201E+01 0.204E+01 -.468E+03   -.200E+01 -.203E+01 0.467E+03   -.903E-02 -.499E-02 0.299E+00
   0.200E-05 -.459E+00 0.515E+03   -.109E-05 0.459E+00 -.515E+03   0.430E-06 -.234E-03 -.977E-01
   -.442E+00 -.163E-04 0.514E+03   0.438E+00 0.159E-04 -.514E+03   0.561E-02 0.149E-05 -.961E-01
   -.220E-05 -.356E-05 0.151E+04   -.129E-05 0.345E-05 -.152E+04   0.314E-06 0.233E-05 0.315E+01
   -.117E+00 -.115E+00 0.151E+04   0.117E+00 0.115E+00 -.152E+04   0.282E-03 -.235E-03 0.315E+01
   -.126E-04 -.152E+02 -.146E+04   0.108E-04 0.152E+02 0.147E+04   0.450E-06 0.376E-01 -.450E+01
   -.533E+01 0.783E-05 -.148E+04   0.533E+01 -.485E-05 0.149E+04   -.401E-02 -.142E-05 -.444E+01
   -.906E-05 -.739E-05 -.468E+03   0.100E-04 0.569E-05 0.468E+03   0.822E-06 0.200E-05 0.271E+00
   -.201E+01 -.204E+01 -.468E+03   0.200E+01 0.203E+01 0.467E+03   0.903E-02 0.500E-02 0.299E+00
   0.174E-06 0.459E+00 0.515E+03   -.773E-06 -.459E+00 -.515E+03   0.319E-06 0.234E-03 -.977E-01
   -.468E+00 0.159E-04 0.515E+03   0.465E+00 -.149E-04 -.515E+03   0.427E-02 -.131E-05 -.918E-01
   0.192E-05 0.114E-05 0.151E+04   -.783E-06 -.344E-05 -.152E+04   -.177E-05 -.637E-06 0.315E+01
   -.117E+00 0.115E+00 0.151E+04   0.117E+00 -.115E+00 -.152E+04   0.279E-03 0.236E-03 0.315E+01
   -.142E-04 0.152E+02 -.146E+04   0.142E-04 -.152E+02 0.147E+04   -.154E-05 -.376E-01 -.450E+01
   -.151E+02 -.225E-04 -.146E+04   0.151E+02 0.194E-04 0.147E+04   0.193E-01 0.122E-05 -.441E+01
   -.142E-04 0.867E-05 -.463E+03   0.178E-04 -.652E-05 0.463E+03   -.143E-05 -.777E-06 0.270E+00
   -.201E+01 0.204E+01 -.468E+03   0.200E+01 -.203E+01 0.467E+03   0.903E-02 -.500E-02 0.299E+00
   -.414E-04 -.254E-03 0.160E+02   0.174E-12 0.711E-13 -.199E-11   0.161E-04 0.264E-03 -.141E+02

 POSITION                                       TOTAL-FORCE (eV/Angst)
      4.27306      4.27305     17.28927         0.000021      0.000335     -0.032252
      4.27306      5.16892     17.91815         0.000001     -0.120464     -0.075216
      4.27306      3.37720     17.91814        -0.000003      0.120178     -0.075038
      5.17135      4.27306     16.66166        -0.114122     -0.000013      0.062868
      3.37476      4.27306     16.66166         0.114086     -0.000013      0.062852
      0.00000      6.40959      7.50000         0.000000      0.000069      0.629644
      2.13653      0.00000      7.50000         0.000054      0.000001      0.629873
      0.00000      0.00000      9.63653        -0.000000     -0.000001      0.024902
      2.13653      6.40959      9.63653        -0.000109      0.000498      0.023360
      0.00000      6.41000     11.78469        -0.000002     -0.000011     -0.008166
      2.13659      0.00000     11.78469        -0.002374      0.000001     -0.011329
      8.54611      8.54611     13.91023         0.000001      0.000000     -0.280612
      2.13763      6.40998     13.90585        -0.004320      0.003428     -0.265514
      0.00000      2.13653      7.50000        -0.000001     -0.000073      0.629654
      2.13653      4.27306      7.50000         0.000035     -0.000001      0.629559
      0.00000      4.27306      9.63653        -0.000003     -0.000001      0.024074
      2.13653      2.13653      9.63653        -0.000111     -0.000502      0.023358
      0.00000      2.13611     11.78469         0.000000      0.000013     -0.008169
      2.13612      4.27306     11.78419         0.002748     -0.000003     -0.008751
      0.00000      4.27306     13.90674        -0.000002     -0.000000     -0.273228
      2.13763      2.13613     13.90585        -0.004321     -0.003431     -0.265501
      4.27306      6.40959      7.50000         0.000001      0.000040      0.629953
      6.40959      0.00000      7.50000        -0.000054      0.000001      0.629868
      4.27306      0.00000      9.63653        -0.000001     -0.000001      0.024376
      6.40959      6.40959      9.63653         0.000109      0.000499      0.023361
      4.27306      6.40979     11.78451         0.000003     -0.001972     -0.007995
      6.40953      0.00000     11.78469         0.002374     -0.000001     -0.011328
      4.27306      8.54611     13.90742        -0.000000      0.000001     -0.273688
      6.40848      6.40998     13.90585         0.004321      0.003428     -0.265512
      4.27306      2.13653      7.50000        -0.000001     -0.000042      0.629954
      6.40959      4.27306      7.50000        -0.000033     -0.000002      0.629560
      4.27306      4.27306      9.63653        -0.000001     -0.000002      0.025484
      6.40959      2.13653      9.63653         0.000112     -0.000503      0.023357
      4.27306      2.13632     11.78451         0.000000      0.001970     -0.007996
      6.40999      4.27306     11.78419        -0.002747      0.000001     -0.008751
      4.27306      4.27306     13.90874        -0.000000     -0.000001     -0.205898
      6.40848      2.13613     13.90585         0.004321     -0.003431     -0.265499
      0.00000      6.40959      9.63653         0.000000      0.001002      0.040275
      2.13653      0.00000      9.63653        -0.002081     -0.000000      0.040585
      0.00000      0.00000      7.50000        -0.000001      0.000003     -0.273980
      2.13653      6.40959      7.50000        -0.000106     -0.000066     -0.274061
      0.00000      6.40945     13.94920         0.000002      0.002116     -0.159598
      2.13658      8.54611     13.94889         0.000767      0.000001     -0.160650
      0.00000      0.00000     11.77961         0.000000     -0.000002      0.009511
      2.13596      6.40964     11.77820         0.000796      0.000318      0.015086
      0.00000      2.13653      9.63653        -0.000001     -0.001004      0.040277
      2.13653      4.27306      9.63653        -0.001253     -0.000001      0.039930
      0.00000      4.27306      7.50000         0.000002      0.000002     -0.273836
      2.13653      2.13653      7.50000        -0.000102      0.000065     -0.274056
      8.54611      2.13666     13.94920         0.000001     -0.002115     -0.159607
      2.13486      4.27306     13.94796         0.012642     -0.000000     -0.140403
      0.00000      4.27306     11.77851         0.000000     -0.000001      0.011151
      2.13596      2.13647     11.77820         0.000794     -0.000318      0.015084
      4.27306      6.40959      9.63653         0.000002     -0.000249      0.039317
      6.40959      0.00000      9.63653         0.002083      0.000001      0.040582
      4.27306      0.00000      7.50000        -0.000003      0.000002     -0.274314
      6.40959      6.40959      7.50000         0.000110     -0.000064     -0.274066
      4.27306      6.41025     13.94491        -0.000001      0.000304     -0.165514
      6.40953      8.54611     13.94889        -0.000766      0.000001     -0.160648
      4.27306      0.00000     11.77757         0.000002      0.000000      0.016234
      6.41016      6.40964     11.77820        -0.000796      0.000317      0.015086
      4.27306      2.13653      9.63653         0.000000      0.000251      0.039316
      6.40959      4.27306      9.63653         0.001254     -0.000001      0.039928
      4.27306      4.27306      7.50000        -0.000000     -0.000004     -0.274085
      6.40959      2.13653      7.50000         0.000105      0.000065     -0.274051
      4.27306      2.13586     13.94491        -0.000001     -0.000304     -0.165514
      6.41126      4.27306     13.94796        -0.012641     -0.000002     -0.140409
      4.27306      4.27306     11.77791         0.000002      0.000001      0.021734
      6.41016      2.13647     11.77820        -0.000794     -0.000318      0.015080
    total drift:                               -0.000024      0.000025      0.007392

  FREE ENERGIE OF THE ION-ELECTRON SYSTEM (eV)
  free  energy   TOTEN  =      -464.74450072 eV

  energy  without entropy=     -464.74450072  energy(sigma->0) =     -464.74450072