 vasp.6.3.0 20Jan22 (build Aug 21 2024 11:13:42) complex
 executed on        HPECrayEX_GCC date 2024.11.26  21:33:36

 INCAR:
   SYSTEM = TiO2
   ISMEAR = 0
   SIGMA = 0.05
   EDIFF = 1E-4
   ALGO = ALL
   ISTART = 0
   IBRION = -1
   NSW = 0
   ISYM = 0
   ISIF = 2
   EDIFFG = -0.01
   DIPOL = 0.5 0.5 0.5
   IDIPOL = 3
   LDIPOL = .TRUE.
   GGA = RE
   IVDW = 13
   VDW_S8 = 1.7468
   VDW_A1 = 0.5363
   VDW_A2 = 3.0726
   ENCUT = 600
   PREC = Accurate
   LASPH = .TRUE.
   LREAL = .FALSE.
   ISPIN = 1
   NELM = 200
   NELMIN = 8
   NCORE = 16
   KPAR = 1
   LWAVE = .FALSE.
   LCHARG = .FALSE.

 POTCAR:    PAW_PBE Ti_pv 07Sep2000
 POTCAR:    PAW_PBE O 08Apr2002
 POTCAR:    PAW_PBE Ti_pv 07Sep2000
   VRHFIN =Ti: d3 s1

   TITEL  = PAW_PBE Ti_pv 07Sep2000
   POMASS =   47.880; ZVAL   =   10.000    mass and valenz
   ENMAX  =  222.335; ENMIN  =  166.751 eV

   TITEL  = PAW_PBE O 08Apr2002
   POMASS =   16.000; ZVAL   =    6.000    mass and valenz
   ENMAX  =  400.000; ENMIN  =  300.000 eV

  PAW_PBE Ti_pv 07Sep2000               :
  PAW_PBE O 08Apr2002                   :

 POSCAR: Ti  O
  positions in direct lattice
|           W    W    AA    RRRRR   N    N  II  N    N   GGGG   !!!           |
|           W    W   A  A   R    R  NN   N  II  NN   N  G    G  !!!           |
|           W    W  A    A  R    R  N N  N  II  N N  N  G       !!!           |
|           W WW W  AAAAAA  RRRRR   N  N N  II  N  N N  G  GGG   !            |
|           WW  WW  A    A  R   R   N   NN  II  N   NN  G    G                |
|           W    W  A    A  R    R  N    N  II  N    N   GGGG   !!!           |
|     Specifying the vdW parameters                                           |
|     VDW_S8 = 1.747                                                          |
|     VDW_A1 = 0.536                                                          |
|     VDW_A2 = 3.073                                                          |
|     in the INCAR file will overwrite the defaults for revpbe. Please        |
|     make sure that is what you intended.                                    |

 ion  position               nearest neighbor table
   1  0.750  0.625  0.287-  81 1.95 141 1.95  82 1.95 142 1.95 163 1.98  84 1.98  11 2.96  31 2.96

   2  0.000  0.750  0.287-  84 1.95 104 1.95 103 1.95  83 1.95  85 1.98  32 2.96  12 2.96
   3  0.000  0.625  0.394-  85 1.95 145 1.95  86 1.95 146 1.95  87 1.98  88 1.98  13 2.96  33 2.96

[...]

  80  0.500  0.500  0.709- 234 1.82 239 1.95 180 1.95 179 1.95 240 1.95  50 2.96  70 2.96
  81  0.750  0.750  0.245-   1 1.95  11 1.95
  82  0.750  0.750  0.329-   1 1.95  11 1.95   4 1.98
  83  0.098  0.625  0.287-   2 1.95  32 1.95  41 1.98
  84  0.902  0.625  0.287-   2 1.95  32 1.95   1 1.98
  85  0.000  0.750  0.352-   3 1.95  13 1.95   2 1.98
  86  0.000  0.750  0.435-   3 1.95  13 1.95   6 1.98
  87  0.848  0.625  0.394-   4 1.95  34 1.95   3 1.98
  88  0.152  0.625  0.394-  44 1.95  74 1.95   3 1.98
  89  0.750  0.750  0.458-   5 1.95  15 1.95   4 1.98
  90  0.750  0.750  0.542-   5 1.95  15 1.95   8 2.11
  91  0.098  0.625  0.500-   6 1.95  36 1.95  45 1.98
  92  0.902  0.625  0.500-   6 1.95  36 1.95   5 1.98
  93  0.000  0.750  0.565-  17 1.90   7 1.90   6 2.00
  94  0.000  0.750  0.649-  10 1.81   7 2.02  17 2.02
  95  0.850  0.625  0.607-   7 1.95   8 1.97  38 1.97
  96  0.150  0.625  0.607-   7 1.95  48 1.97  78 1.97
  97  0.750  0.750  0.672-   8 1.86   9 2.10  19 2.10
  98  0.750  0.750  0.756-   9 1.83  19 1.83
  99  0.094  0.625  0.719-  40 1.95  10 1.95  49 2.03
 100  0.906  0.625  0.719-  40 1.95  10 1.95   9 2.03
 101  0.750  0.000  0.245-  11 1.95  21 1.95
 102  0.750  0.000  0.329-  11 1.95  21 1.95  14 1.98
 103  0.098  0.875  0.287-   2 1.95  12 1.95  51 1.98
 104  0.902  0.875  0.287-   2 1.95  12 1.95  11 1.98
 105  0.000  0.000  0.352-  13 1.95  23 1.95  12 1.98
 106  0.000  0.000  0.435-  13 1.95  23 1.95  16 1.98
 107  0.848  0.875  0.394-   4 1.95  14 1.95  13 1.98
 108  0.152  0.875  0.394-  44 1.95  54 1.95  13 1.98
 109  0.750  0.000  0.458-  15 1.95  25 1.95  14 1.98
 110  0.750  0.000  0.542-  15 1.95  25 1.95  18 2.11
 111  0.098  0.875  0.500-   6 1.95  16 1.95  55 1.98
 112  0.902  0.875  0.500-   6 1.95  16 1.95  15 1.98
 113  0.000  1.000  0.565-  27 1.89  17 1.89  16 2.00
 114  1.000  0.000  0.649-  20 1.81  27 2.02  17 2.02
 115  0.850  0.875  0.607-  17 1.95  18 1.97   8 1.97
 116  0.150  0.875  0.607-  17 1.95  48 1.97  58 1.97
 117  0.750  0.000  0.672-  18 1.86  19 2.10  29 2.10
 118  0.750  0.000  0.756-  19 1.83  29 1.83
 119  0.094  0.875  0.719-  10 1.95  20 1.95  59 2.03
 120  0.906  0.875  0.719-  10 1.95  20 1.95  19 2.03
 121  0.750  0.250  0.245-  21 1.95  31 1.95
 122  0.750  0.250  0.329-  21 1.95  31 1.95  24 1.98
 123  0.098  0.125  0.287-  12 1.95  22 1.95  61 1.98
 124  0.902  0.125  0.287-  12 1.95  22 1.95  21 1.98
 125  0.000  0.250  0.352-  23 1.95  33 1.95  22 1.98
 126  0.000  0.250  0.435-  23 1.95  33 1.95  26 1.98
 127  0.848  0.125  0.394-  14 1.95  24 1.95  23 1.98
 128  0.152  0.125  0.394-  54 1.95  64 1.95  23 1.98
 129  0.750  0.250  0.458-  25 1.95  35 1.95  24 1.98
 130  0.750  0.250  0.542-  25 1.95  35 1.95  28 2.11
 131  0.098  0.125  0.500-  16 1.95  26 1.95  65 1.98
 132  0.902  0.125  0.500-  16 1.95  26 1.95  25 1.98
 133  0.000  0.250  0.565-  27 1.90  37 1.90  26 2.00
 134  1.000  0.250  0.649-  30 1.81  37 2.02  27 2.02
 135  0.850  0.125  0.607-  27 1.95  28 1.97  18 1.97
 136  0.150  0.125  0.607-  27 1.95  58 1.97  68 1.97
 137  0.750  0.250  0.672-  28 1.86  39 2.10  29 2.10
 138  0.750  0.250  0.756-  39 1.83  29 1.83
 139  0.094  0.125  0.719-  30 1.95  20 1.95  69 2.03
[...]
 226  0.500  0.500  0.435-  43 1.95  73 1.95  76 1.98
 227  0.348  0.375  0.394-  64 1.95  74 1.95  73 1.98
 228  0.652  0.375  0.394-  24 1.95  34 1.95  73 1.98
 229  0.250  0.500  0.458-  45 1.95  75 1.95  74 1.98
 230  0.250  0.500  0.542-  45 1.95  75 1.95  78 2.11
 231  0.598  0.375  0.500-  66 1.95  76 1.95  35 1.98
 232  0.402  0.375  0.500-  66 1.95  76 1.95  75 1.98
 233  0.500  0.500  0.565-  77 1.90  47 1.90  76 2.00
 234  0.500  0.500  0.649-  80 1.82  77 2.02  47 2.02
 235  0.350  0.375  0.607-  77 1.95  78 1.97  68 1.97
 236  0.650  0.375  0.607-  77 1.95  38 1.97  28 1.97
 237  0.249  0.500  0.672-  78 1.86  79 2.10  49 2.10
 238  0.251  0.500  0.756-  49 1.84  79 1.84
 239  0.594  0.374  0.718-  70 1.94  80 1.95  39 2.03
 240  0.406  0.374  0.718-  70 1.94  80 1.95  79 2.03

IMPORTANT INFORMATION: All symmetrisations will be switched off!
NOSYMM: (Re-)initialisation of all symmetry stuff for point group C_1.

                                     Primitive cell

  volume of cell :    4700.2642

  direct lattice vectors                    reciprocal lattice vectors
    13.003962940  0.000000000  0.000000000     0.076899635  0.000000000  0.000000000
     0.000000000 11.830322230  0.000000000     0.000000000  0.084528551  0.000000000
     0.000000000  0.000000000 30.552726600     0.000000000  0.000000000  0.032730303

  length of vectors
    13.003962940 11.830322230 30.552726600     0.076899635  0.084528551  0.032730303

  position of ions in fractional coordinates (direct lattice)
     0.750000000  0.625000000  0.287188176
     0.000000000  0.750000000  0.287188176
     0.000000000  0.625000000  0.393594088
     0.750000000  0.750000000  0.393594088
     0.750000000  0.625000000  0.500000000
     0.000000000  0.750000000  0.500000000
     0.999998837  0.625017872  0.604126421
     0.750022868  0.750042355  0.610708306
     0.750126498  0.625141223  0.720263330
     0.000025167  0.750090308  0.708155069
     0.750000000  0.875000000  0.287188176
     0.000000000  0.000000000  0.287188176
     0.000000000  0.875000000  0.393594088
     0.750000000  0.000000000  0.393594088
     0.750000000  0.875000000  0.500000000
     0.000000000  0.000000000  0.500000000
     0.999995626  0.875021439  0.604143759
     0.749958937  0.000003686  0.610770040
     0.749863857  0.875037753  0.720477321
     0.999999844  0.999999993  0.708164464
     0.750000000  0.125000000  0.287188176
     0.000000000  0.250000000  0.287188176
     0.000000000  0.125000000  0.393594088
     0.750000000  0.250000000  0.393594088
     0.750000000  0.125000000  0.500000000
     0.000000000  0.250000000  0.500000000
     0.000004466  0.124978555  0.604143757
     0.750022192  0.249960079  0.610719754
     0.749844529  0.124980119  0.720481821
     0.999975771  0.249909689  0.708155064
     0.750000000  0.375000000  0.287188176
     0.000000000  0.500000000  0.287188176
     0.000000000  0.375000000  0.393594088
     0.750000000  0.500000000  0.393594088
     0.750000000  0.375000000  0.500000000
     0.000000000  0.500000000  0.500000000
     0.000001085  0.374982132  0.604126418
     0.750048746  0.499996788  0.610710147
     0.750070715  0.374901721  0.720299353
     0.000000646  0.500000004  0.708135902
     0.250000000  0.625000000  0.287188176
     0.500000000  0.750000000  0.287188176
     0.500000000  0.625000000  0.393594088
     0.250000000  0.750000000  0.393594088
     0.250000000  0.625000000  0.500000000
     0.500000000  0.750000000  0.500000000
     0.499998992  0.624678786  0.604435867
     0.249977873  0.750039752  0.610719962
     0.249930964  0.625097786  0.720300091
     0.500006915  0.749980500  0.708009809
     0.250000000  0.875000000  0.287188176
     0.500000000  0.000000000  0.287188176
     0.500000000  0.875000000  0.393594088
     0.250000000  0.000000000  0.393594088
     0.250000000  0.875000000  0.500000000
     0.500000000  0.000000000  0.500000000
     0.499998180  0.874844506  0.603984349
     0.250041034  0.999996307  0.610770021
     0.250155539  0.875019822  0.720481807
     0.500000055  0.999999967  0.708000168
[...]
     0.500000000  0.500000000  0.435304992
     0.347999497  0.375000000  0.393594088
     0.652000503  0.375000000  0.393594088
     0.250000000  0.500000000  0.458289097
     0.250000000  0.500000000  0.541710903
     0.597999497  0.375000000  0.500000000
     0.402000503  0.375000000  0.500000000
     0.500000020  0.499999991  0.565487275
     0.499999753  0.500000003  0.649405262
     0.350130245  0.374995664  0.607234684
     0.649870524  0.375002822  0.607229364
     0.249455521  0.500024046  0.671576992
     0.250884930  0.499952723  0.755784681
     0.594300946  0.374401960  0.718241168
     0.405623704  0.374356559  0.718135013

  ion indices of the primitive-cell ions
   primitive index   ion index
                 1           1
                 2           2
                 3           3
                 4           4
                 5           5
                 6           6
                 7           7
                 8           8
                 9           9
                10          10
                11          11
                12          12
                13          13
                14          14
                15          15
                16          16
                17          17
                18          18
                19          19
                20          20
                21          21
                22          22
[...]
   3.25099073 10.35153195 15.27636330
   6.50198147  0.00000000 15.27636330
   6.50195780 10.34969240 18.45336868
   3.25152435 11.83027854 18.66068946
   3.25301336 10.35176646 22.01268368
   6.50198218 11.83032183 21.63133556
[...]
   6.50198147  5.91516111 13.29975440
   4.52537257  4.43637084 12.02537257
   8.47859037  4.43637084 12.02537257
   3.25099073  5.91516111 14.00198147
   3.25099073  5.91516111 16.55074513
   7.77636330  4.43637084 15.27636330
   5.22759964  4.43637084 15.27636330
   6.50198173  5.91516101 17.27717810
   6.50197825  5.91516115 19.84110144
   4.55308073  4.43631954 18.55267527
   8.45089221  4.43640422 18.55251275
   3.24391036  5.91544559 20.51850822
   3.26249833  5.91460182 23.09128272
   7.72826748  4.42929583 21.94422605
   5.27471561  4.42875873 21.94098271

--------------------------------------- Iteration      FINAL  ---------------------------------------

--------------------OUTCAR has been truncated-------------------------

[...]

--------------------OUTCAR has been truncated-------------------------

  FORCE on cell =-STRESS in cart. coord.  units (eV):
  Direction    XX          YY          ZZ          XY          YZ          ZX
  Alpha Z  4654.23472  4654.23472  4654.23472
  Ewald  981421.24788999179.93757************    -0.20245    -0.00008     0.00560
  Hartree************************************    -0.08174    -0.00007     0.00194
  E(xc)   -8618.01220 -8590.77251 -8632.61975    -0.00052    -0.00000     0.00001
  Local  ************************************     0.28244     0.00015    -0.00744
  n-local -5338.98520 -5262.75566 -5385.38284    -0.00395     0.00004    -0.00004
  augment  5215.46015  5201.55521  5217.68759    -0.00133    -0.00008     0.00007
  Kinetic 28642.30849 28169.48765 28691.48464     0.00303     0.00030    -0.00041
  Fock        0.00000     0.00000     0.00000     0.00000     0.00000     0.00000
  vdW      -130.36804  -129.91288  -116.94417     0.00027     0.00000    -0.00001
  Total      14.09102   -30.02312   -32.08557    -0.00423     0.00025    -0.00028
  in kB       4.80320   -10.23397   -10.93700    -0.00144     0.00009    -0.00010

 VOLUME and BASIS-vectors are now :
  energy-cutoff  :      600.00
  volume of cell :     4700.26
      direct lattice vectors                 reciprocal lattice vectors
    13.003962940  0.000000000  0.000000000     0.076899635  0.000000000  0.000000000
     0.000000000 11.830322230  0.000000000     0.000000000  0.084528551  0.000000000
     0.000000000  0.000000000 30.552726600     0.000000000  0.000000000  0.032730303

  length of vectors
    13.003962940 11.830322230 30.552726600     0.076899635  0.084528551  0.032730303

 FORCES acting on ions:
    Electron-Ion                     Ewald-Force                    Non-Local-Force
   0.157E-01 0.677E-02 0.380E+04   -.154E-01 -.670E-02 -.380E+04   -.707E-04 -.231E-04 0.453E+00
   -.291E-04 0.614E-02 0.398E+04   0.103E-03 -.612E-02 -.397E+04   -.261E-05 -.254E-04 -.403E+01
   -.734E-03 0.139E-01 0.193E+04   0.754E-03 -.138E-01 -.193E+04   0.539E-06 0.916E-05 -.470E-01
   0.631E-01 0.496E-01 0.192E+04   -.628E-01 -.490E-01 -.192E+04   -.539E-04 -.824E-05 0.204E+00
   0.493E+00 0.162E+00 -.215E+02   -.493E+00 -.161E+00 0.223E+02   -.196E-03 -.934E-04 -.139E+00
   -.111E-01 0.309E-01 -.908E+01   0.113E-01 -.280E-01 0.799E+01   -.739E-04 -.955E-03 0.355E+00
   -.281E-01 0.343E-01 -.190E+04   0.282E-01 -.339E-01 0.190E+04   -.511E-04 -.976E-03 0.997E-02
   0.340E+00 0.128E+00 -.196E+04   -.324E+00 -.124E+00 0.196E+04   -.561E-02 -.340E-02 -.865E-01
   -.125E+01 0.142E+01 -.379E+04   0.132E+01 -.146E+01 0.379E+04   -.729E-02 0.462E-02 -.226E+00
   -.418E-01 0.862E+00 -.381E+04   0.411E-01 -.868E+00 0.381E+04   0.724E-03 -.109E-02 0.103E+01
   0.111E-01 0.679E-02 0.380E+04   -.110E-01 -.655E-02 -.380E+04   -.330E-04 -.198E-04 0.453E+00
   -.667E-04 -.192E-05 0.398E+04   0.161E-04 -.905E-07 -.397E+04   -.157E-04 -.778E-05 -.403E+01
   -.743E-03 0.133E-01 0.193E+04   0.774E-03 -.132E-01 -.193E+04   -.104E-04 0.297E-04 -.471E-01
   0.311E-01 -.919E-03 0.192E+04   -.312E-01 0.999E-03 -.192E+04   0.383E-04 0.462E-05 0.204E+00
   0.879E-01 0.116E+00 -.213E+02   -.866E-01 -.108E+00 0.221E+02   -.150E-03 -.539E-03 -.141E+00
   -.186E-03 0.236E-04 -.914E+01   0.216E-03 -.454E-05 0.805E+01   0.313E-05 0.864E-06 0.354E+00
   -.496E-01 0.630E-01 -.190E+04   0.498E-01 -.626E-01 0.190E+04   -.723E-04 -.149E-02 0.898E-02
   -.386E-02 0.226E-02 -.197E+04   0.154E-01 -.216E-02 0.197E+04   -.164E-02 -.137E-03 -.824E-01
   -.281E+00 0.402E-01 -.379E+04   0.291E+00 -.418E-01 0.379E+04   0.648E-02 -.452E-04 -.228E+00
   -.290E-03 -.417E-04 -.381E+04   0.388E-03 0.434E-04 0.381E+04   0.171E-04 -.104E-04 0.104E+01
   0.111E-01 -.680E-02 0.380E+04   -.110E-01 0.668E-02 -.380E+04   -.302E-04 -.802E-05 0.453E+00
   0.413E-04 -.609E-02 0.398E+04   -.680E-04 0.612E-02 -.397E+04   0.313E-06 -.233E-05 -.403E+01
   0.570E-03 -.133E-01 0.193E+04   -.611E-03 0.132E-01 -.193E+04   0.154E-04 -.157E-04 -.471E-01
   0.630E-01 -.495E-01 0.192E+04   -.627E-01 0.490E-01 -.192E+04   -.712E-04 0.681E-05 0.204E+00
   0.824E-01 -.131E+00 -.213E+02   -.812E-01 0.124E+00 0.221E+02   -.103E-03 0.415E-03 -.141E+00
   0.101E-01 -.309E-01 -.908E+01   -.104E-01 0.280E-01 0.799E+01   0.668E-04 0.967E-03 0.355E+00
   0.483E-01 -.630E-01 -.190E+04   -.485E-01 0.626E-01 0.190E+04   0.677E-04 0.149E-02 0.898E-02
   0.302E+00 -.123E+00 -.196E+04   -.286E+00 0.120E+00 0.196E+04   -.550E-02 0.270E-02 -.864E-01
   -.292E+00 -.775E-01 -.379E+04   0.301E+00 0.781E-01 0.379E+04   0.714E-02 0.297E-03 -.229E+00
   0.393E-01 -.862E+00 -.381E+04   -.387E-01 0.868E+00 0.381E+04   -.683E-03 0.109E-02 0.103E+01
   0.156E-01 -.672E-02 0.380E+04   -.154E-01 0.657E-02 -.380E+04   -.632E-04 0.303E-04 0.453E+00
   -.715E-05 -.111E-03 0.398E+04   0.193E-04 0.884E-07 -.397E+04   -.694E-05 0.291E-05 -.403E+01
   0.510E-03 -.139E-01 0.193E+04   -.542E-03 0.138E-01 -.193E+04   0.107E-04 -.122E-04 -.470E-01
   0.951E-01 0.899E-03 0.192E+04   -.944E-01 -.922E-03 -.192E+04   -.181E-03 -.423E-05 0.204E+00
   0.489E+00 -.147E+00 -.215E+02   -.489E+00 0.144E+00 0.223E+02   -.182E-03 0.238E-03 -.140E+00
   -.608E-03 0.431E-05 -.903E+01   0.604E-03 0.537E-05 0.794E+01   0.473E-05 0.987E-05 0.354E+00
   0.245E-01 -.343E-01 -.190E+04   -.246E-01 0.339E-01 0.190E+04   0.526E-04 0.982E-03 0.997E-02
   0.686E+00 -.357E-02 -.196E+04   -.667E+00 0.296E-02 0.196E+04   -.747E-02 0.815E-03 -.890E-01
   -.113E+01 -.129E+01 -.379E+04   0.120E+01 0.133E+01 0.379E+04   -.106E-01 -.400E-02 -.227E+00
   -.127E-02 -.279E-04 -.381E+04   0.123E-02 -.540E-04 0.381E+04   -.753E-05 -.333E-05 0.102E+01
   -.156E-01 0.664E-02 0.380E+04   0.154E-01 -.657E-02 -.380E+04   0.235E-04 -.210E-04 0.453E+00
   0.237E-04 0.131E-01 0.398E+04   -.990E-04 -.129E-01 -.397E+04   0.121E-04 -.571E-04 -.403E+01
   0.638E-03 0.683E-01 0.193E+04   -.649E-03 -.641E-01 -.193E+04   0.571E-05 -.802E-03 -.469E-01
   -.630E-01 0.495E-01 0.192E+04   0.627E-01 -.490E-01 -.192E+04   0.586E-04 -.258E-04 0.204E+00
   -.489E+00 0.147E+00 -.215E+02   0.489E+00 -.145E+00 0.223E+02   0.165E-03 -.231E-03 -.140E+00
   0.723E-02 0.548E+00 -.974E+01   -.748E-02 -.562E+00 0.867E+01   0.272E-04 0.944E-02 0.349E+00
   0.331E-02 0.486E+00 -.190E+04   -.311E-02 -.425E+00 0.190E+04   -.595E-04 -.308E-01 0.324E-01
   -.301E+00 0.123E+00 -.196E+04   0.285E+00 -.120E+00 0.196E+04   0.551E-02 -.268E-02 -.864E-01
   0.113E+01 0.129E+01 -.379E+04   -.120E+01 -.133E+01 0.379E+04   0.107E-01 0.401E-02 -.227E+00
   0.139E+00 -.211E+01 -.381E+04   -.135E+00 0.226E+01 0.381E+04   -.316E-02 -.294E-01 0.108E+01
   -.111E-01 0.679E-02 0.380E+04   0.110E-01 -.668E-02 -.380E+04   0.143E-04 -.245E-04 0.453E+00
   -.526E-04 0.493E-04 0.398E+04   -.158E-04 -.390E-07 -.397E+04   0.244E-06 0.158E-04 -.403E+01
   0.650E-03 0.656E-01 0.193E+04   -.655E-03 -.634E-01 -.193E+04   0.119E-04 -.588E-03 -.470E-01
   -.311E-01 0.921E-03 0.192E+04   0.312E-01 -.100E-02 -.192E+04   -.191E-04 -.232E-04 0.204E+00
   -.823E-01 0.132E+00 -.213E+02   0.811E-01 -.124E+00 0.221E+02   0.826E-04 -.419E-03 -.141E+00
   0.148E-03 -.365E-04 -.845E+01   -.163E-03 0.412E-06 0.735E+01   -.122E-04 0.143E-04 0.349E+00
   -.106E-01 -.102E+01 -.189E+04   0.104E-01 0.104E+01 0.189E+04   0.323E-03 -.454E-02 -.218E-01
   0.516E-02 -.221E-02 -.197E+04   -.167E-01 0.218E-02 0.197E+04   0.164E-02 0.143E-03 -.824E-01
   0.292E+00 0.784E-01 -.379E+04   -.301E+00 -.788E-01 0.379E+04   -.712E-02 -.299E-03 -.229E+00
   -.114E-02 0.115E-04 -.380E+04   0.119E-02 -.210E-04 0.380E+04   0.753E-05 -.920E-05 0.101E+01
[...]
   -.533E+02 -.312E-01 0.115E+04   0.574E+02 0.308E-01 -.115E+04   -.355E+01 0.773E-03 0.158E+00
   0.533E+02 -.307E-01 0.115E+04   -.574E+02 0.301E-01 -.115E+04   0.355E+01 0.850E-03 0.158E+00
   -.171E+00 -.183E-02 0.497E+03   0.171E+00 0.210E-02 -.501E+03   -.435E-03 -.535E-03 0.415E+01
   -.615E+00 -.546E-02 -.539E+03   0.615E+00 0.561E-02 0.546E+03   0.298E-02 -.435E-03 -.721E+01
   -.551E+02 -.288E+00 -.684E+01   0.599E+02 0.286E+00 0.659E+01   -.521E+01 0.102E-01 0.354E+00
   0.551E+02 -.293E+00 -.684E+01   -.599E+02 0.291E+00 0.659E+01   0.521E+01 0.995E-02 0.354E+00
   0.376E-03 -.338E-06 -.643E+03   -.388E-03 0.279E-04 0.637E+03   0.154E-04 0.978E-05 0.656E+01
   0.375E-02 0.113E-03 -.163E+04   -.407E-02 -.102E-03 0.163E+04   0.321E-03 0.137E-04 0.267E+01
   -.276E+02 -.113E+00 -.115E+04   0.306E+02 0.847E-01 0.115E+04   -.295E+01 0.302E-01 0.883E+00
   0.276E+02 -.859E-01 -.115E+04   -.306E+02 0.550E-01 0.115E+04   0.295E+01 0.327E-01 0.889E+00
   0.922E+00 -.116E+00 -.183E+04   -.103E+01 0.122E+00 0.184E+04   0.110E+00 -.627E-02 -.231E+01
   -.241E+01 0.103E+00 -.274E+04   0.257E+01 -.116E+00 0.276E+04   -.162E+00 0.156E-01 -.208E+02
   -.215E+02 -.909E+00 -.236E+04   0.275E+02 0.917E+00 0.236E+04   -.611E+01 0.763E-01 -.326E+01
   0.216E+02 -.106E+01 -.236E+04   -.276E+02 0.108E+01 0.236E+04   0.612E+01 0.632E-01 -.319E+01
   -.168E-03 0.670E-03 0.951E+02   0.296E-11 0.247E-11 -.582E-10   0.652E-03 -.207E-03 -.949E+02

 POSITION                                       TOTAL-FORCE (eV/Angst)
      9.75297      7.39395      8.77438         0.000230      0.000042     -3.376674
      0.00000      8.87274      8.77438         0.000070     -0.000012      2.813776
      0.00000      7.39395     12.02537         0.000018      0.000109      0.543717
      9.75297      8.87274     12.02537         0.000230      0.000566     -0.706172
      9.75297      7.39395     15.27636         0.000048      0.001106      0.706177
      0.00000      8.87274     15.27636         0.000200      0.002074     -0.755902
     13.00395      7.39416     18.45771        -0.000028     -0.000567      0.006585
      9.75327      8.87324     18.65880         0.010711      0.000776      0.005825
      9.75462      7.39562     22.00601         0.057720     -0.028280      0.051293
      0.00033      8.87381     21.63607         0.000043     -0.004368      0.016994
      9.75297     10.35153      8.77438        -0.000011      0.000218     -3.376444
      0.00000      0.00000      8.77438        -0.000068     -0.000012      2.813777
      0.00000     10.35153     12.02537         0.000019      0.000140      0.543828
      9.75297      0.00000     12.02537        -0.000031      0.000083     -0.705588
      9.75297     10.35153     15.27636         0.001098      0.008388      0.712193
      0.00000      0.00000     15.27636         0.000031      0.000018     -0.755479
     13.00391     10.35179     18.45824        -0.000134     -0.000800      0.005935
      9.75244      0.00004     18.66069         0.009045      0.000070      0.009087
      9.75120     10.35198     22.01255         0.013989     -0.001136      0.019853
     13.00396     11.83032     21.63636         0.000111     -0.000011      0.015336
      9.75297      1.47879      8.77438         0.000014     -0.000132     -3.376459
      0.00000      2.95758      8.77438        -0.000028      0.000028      2.813650
      0.00000      1.47879     12.02537        -0.000027     -0.000133      0.543848
      9.75297      2.95758     12.02537         0.000223     -0.000566     -0.706019
      9.75297      1.47879     15.27636         0.001093     -0.006974      0.713131
      0.00000      2.95758     15.27636        -0.000222     -0.002062     -0.755883
      0.00006      1.47854     18.45824         0.000081      0.000796      0.005986
      9.75326      2.95711     18.65915         0.010792     -0.000791      0.005834
      9.75095      1.47856     22.01268         0.013643      0.000466      0.019677
     13.00365      2.95651     21.63607        -0.000066      0.004443      0.017005
      9.75297      4.43637      8.77438         0.000178     -0.000117     -3.376545
      0.00000      5.91516      8.77438         0.000003     -0.000111      2.813821
      0.00000      4.43637     12.02537        -0.000023     -0.000107      0.543636
      9.75297      5.91516     12.02537         0.000520     -0.000029     -0.706640
      9.75297      4.43637     15.27636         0.000001     -0.002522      0.707178
      0.00000      5.91516     15.27636        -0.000001      0.000018     -0.756606
      0.00001      4.43616     18.45771        -0.000003      0.000561      0.006575
      9.75361      5.91512     18.65886         0.012858      0.000076      0.006978
      9.75389      4.43521     22.00711         0.061495      0.029016      0.047828
      0.00001      5.91516     21.63548        -0.000053     -0.000088      0.020716
      3.25099      7.39395      8.77438        -0.000194      0.000048     -3.376457
      6.50198      8.87274      8.77438        -0.000066      0.000098      2.813809
      6.50198      7.39395     12.02537        -0.000008      0.003351      0.541886
      3.25099      8.87274     12.02537        -0.000231      0.000536     -0.706065
      3.25099      7.39395     15.27636        -0.000021      0.002580      0.707180
      6.50198      8.87274     15.27636        -0.000219     -0.004457     -0.740187
      6.50197      7.39015     18.46716         0.000101      0.029367     -0.031808
      3.25070      8.87321     18.65916        -0.010801      0.000864      0.005706
      3.25009      7.39511     22.00713        -0.061482     -0.029065      0.047617
      6.50207      8.87251     21.63163         0.001794      0.104579     -0.013602
      3.25099     10.35153      8.77438        -0.000024      0.000089     -3.376399
      6.50198      0.00000      8.77438        -0.000071      0.000064      2.813937
      6.50198     10.35153     12.02537         0.000006      0.001679      0.544501
      3.25099      0.00000     12.02537         0.000052     -0.000104     -0.705522
      3.25099     10.35153     15.27636        -0.001127      0.006972      0.713168
      6.50198      0.00000     15.27636        -0.000029     -0.000024     -0.771383
      6.50196     10.34969     18.45337         0.000122      0.010496     -0.004740
      3.25152     11.83028     18.66069        -0.009032     -0.000002      0.009079
      3.25301     10.35177     22.01268        -0.013644     -0.000286      0.019762
      6.50198     11.83032     21.63134         0.000055     -0.000021      0.020022
[...]
      6.50198      5.91516     13.29975         0.000010     -0.000023     -0.100358
      4.52537      4.43637     12.02537         0.439774      0.000291      0.048808
      8.47859      4.43637     12.02537        -0.439775      0.000311      0.048825
      3.25099      5.91516     14.00198        -0.000248     -0.000277     -0.117157
      3.25099      5.91516     16.55075         0.002744     -0.000294      0.019817
      7.77636      4.43637     15.27636        -0.495903      0.008015      0.097388
      5.22760      4.43637     15.27636         0.495652      0.007955      0.097455
      6.50198      5.91516     17.27718         0.000001      0.000035      0.010870
      6.50198      5.91516     19.84110        -0.000004      0.000023      0.102879
      4.55308      4.43632     18.55268         0.012312      0.002206     -0.001943
      8.45089      4.43640     18.55251        -0.012290      0.002193     -0.002087
      3.24391      5.91545     20.51851         0.007323      0.000221     -0.018291
      3.26250      5.91460     23.09128        -0.001826      0.002535     -0.040273
      7.72827      4.42930     21.94423        -0.061897      0.083225      0.083290
      5.27472      4.42876     21.94098         0.066007      0.086330      0.087468
    total drift:                                0.000483      0.000463      0.151667

  FREE ENERGIE OF THE ION-ELECTRON SYSTEM (eV)
  free  energy   TOTEN  =     -2125.86117019 eV

  energy  without entropy=    -2125.86117019  energy(sigma->0) =    -2125.86117019