 vasp.6.3.0 20Jan22 (build Apr  1 2022 16:44:48) gamma-only
 executed on        HPECrayEX_GCC date 2023.03.12  00:43:24

 INCAR:
   SYSTEM = MgO-rocksalt
   ISMEAR = 0
   SIGMA = 0.05
   EDIFF = 1E-6
   ALGO = ALL
   ISTART = 0
   IBRION = -1
   NSW = 0
   ISYM = 0
   DIPOL = 0.5 0.5 0.5
   IDIPOL = 3
   LDIPOL = .TRUE.
   GGA = RE
   IVDW = 13
   VDW_S8 = 1.7468
   VDW_A1 = 0.5363
   VDW_A2 = 3.0726
   ENCUT = 520
   PREC = Accurate
   LASPH = .TRUE.
   LREAL = Auto
   ISPIN = 1
   NELM = 200
   NELMIN = 8
   NCORE = 8
   KPAR = 1
   LWAVE = .FALSE.
   LCHARG = .FALSE.

 POTCAR:    PAW_PBE Mg_pv 13Apr2007
 POTCAR:    PAW_PBE O 08Apr2002
 POTCAR:    PAW_PBE Mg_pv 13Apr2007
   VRHFIN =Mg: p6s2

   TITEL  = PAW_PBE Mg_pv 13Apr2007
   POMASS =   24.305; ZVAL   =    8.000    mass and valenz
   ENMAX  =  403.929; ENMIN  =  302.947 eV

   TITEL  = PAW_PBE O 08Apr2002
   POMASS =   16.000; ZVAL   =    6.000    mass and valenz
   ENMAX  =  400.000; ENMIN  =  300.000 eV

 Optimization of the real space projectors (new method)

 maximal supplied QI-value         = 18.90
 optimisation between [QCUT,QGAM] = [ 11.53, 23.24] = [ 37.21,151.29] Ry
 Optimized for a Real-space Cutoff    1.28 Angstroem

   l    n(q)    QCUT    max X(q) W(low)/X(q) W(high)/X(q)  e(spline)
   1      8    11.527     2.974    0.44E-04    0.56E-04    0.12E-06
   1      8    11.527     4.279    0.12E-03    0.12E-03    0.26E-06
   0      9    11.527    16.381    0.46E-04    0.64E-04    0.78E-07
   0      9    11.527     5.611    0.26E-04    0.43E-04    0.55E-07
   2      8    11.527     4.652    0.22E-03    0.72E-04    0.47E-07
 Optimization of the real space projectors (new method)

 maximal supplied QI-value         = 24.76
 optimisation between [QCUT,QGAM] = [ 11.64, 23.27] = [ 37.91,151.63] Ry
 Optimized for a Real-space Cutoff    1.14 Angstroem

   l    n(q)    QCUT    max X(q) W(low)/X(q) W(high)/X(q)  e(spline)
   0      8    11.635    20.381    0.10E-03    0.33E-03    0.24E-06
   0      8    11.635    15.268    0.11E-03    0.35E-03    0.26E-06
   1      7    11.635     5.964    0.24E-03    0.31E-03    0.30E-06
   1      7    11.635     5.382    0.22E-03    0.25E-03    0.26E-06
|               ----> ADVICE to this user running VASP <----                  |
|     You enforced a specific xc type in the INCAR file but a different       |
|     type was found in the POTCAR file.                                      |
|     I HOPE YOU KNOW WHAT YOU ARE DOING!                                     |

  PAW_PBE Mg_pv 13Apr2007               :
  PAW_PBE O 08Apr2002                   :

 POSCAR: Mg  O
  positions in direct lattice
|           W    W    AA    RRRRR   N    N  II  N    N   GGGG   !!!           |
|           W    W   A  A   R    R  NN   N  II  NN   N  G    G  !!!           |
|           W    W  A    A  R    R  N N  N  II  N N  N  G       !!!           |
|           W WW W  AAAAAA  RRRRR   N  N N  II  N  N N  G  GGG   !            |
|           WW  WW  A    A  R   R   N   NN  II  N   NN  G    G                |
|           W    W  A    A  R    R  N    N  II  N    N   GGGG   !!!           |
|     Specifying the vdW parameters                                           |
|     VDW_S8 = 1.747                                                          |
|     VDW_A1 = 0.536                                                          |
|     VDW_A2 = 3.073                                                          |
|     in the INCAR file will overwrite the defaults for revpbe. Please        |
|     make sure that is what you intended.                                    |

 ion  position               nearest neighbor table
   1  0.125  0.000  0.352- 131 2.10 132 2.10 148 2.10 171 2.10 129 2.10
   2  0.250  0.125  0.352- 131 2.10 132 2.10 140 2.10 147 2.10 130 2.10
   3  0.125  0.125  0.451- 129 2.10 130 2.10 137 2.10 146 2.10 131 2.10 135 2.10
   4  0.250  0.000  0.451- 129 2.10 130 2.10 145 2.10 170 2.10 132 2.10 136 2.10
   5  0.125  0.000  0.550- 135 2.10 136 2.10 175 2.10 152 2.10 129 2.11 133 2.13
   6  0.250  0.125  0.550- 144 2.10 151 2.10 136 2.10 135 2.10 130 2.11 134 2.14
   7  0.125  0.125  0.647- 135 2.09 134 2.10 141 2.10 150 2.10 133 2.10
   8  0.250  1.000  0.647- 136 2.09 134 2.09 149 2.10 174 2.10 133 2.10
   9  0.125  0.250  0.352- 131 2.10 139 2.10 140 2.10 156 2.10 137 2.10
  10  0.250  0.375  0.352- 139 2.10 140 2.10 155 2.10 164 2.10 138 2.10
  11  0.125  0.375  0.451- 137 2.10 138 2.10 154 2.10 161 2.10 139 2.10 143 2.10
  12  0.250  0.250  0.451- 144 2.10 137 2.10 138 2.10 130 2.10 153 2.10 140 2.10
  13  0.125  0.250  0.550- 144 2.09 160 2.10 143 2.10 135 2.10 137 2.11 141 2.14
  14  0.250  0.375  0.550- 159 2.08 144 2.10 168 2.10 138 2.11 143 2.11 142 2.13
  15  0.125  0.375  0.647- 143 2.08 142 2.08 158 2.10 165 2.10 141 2.10
  16  0.250  0.250  0.646- 144 2.07 157 2.08 141 2.10 134 2.11 142 2.11
  17  0.375  0.000  0.352- 132 2.10 147 2.10 187 2.10 212 2.10 145 2.10
  18  0.000  0.125  0.352- 131 2.10 148 2.10 156 2.10 211 2.10 146 2.10
  19  0.375  0.125  0.451- 151 2.10 145 2.10 130 2.10 153 2.10 210 2.10 147 2.10
  20  0.000  0.000  0.451- 129 2.10 146 2.10 186 2.10 209 2.10 148 2.10 152 2.11
  21  0.375  1.000  0.550- 151 2.09 191 2.10 216 2.10 136 2.10 145 2.11 149 2.14
  22  0.000  0.125  0.550- 135 2.10 215 2.10 160 2.10 152 2.10 146 2.11 150 2.13
  23  0.375  0.125  0.646- 151 2.07 157 2.08 149 2.10 134 2.11 214 2.11
  24  0.000  1.000  0.647- 152 2.09 133 2.10 213 2.10 150 2.10 190 2.10
  25  0.375  0.250  0.352- 140 2.10 147 2.10 155 2.10 220 2.10 153 2.10
  26  0.000  0.375  0.352- 139 2.10 156 2.10 180 2.10 219 2.10 154 2.10
  27  0.375  0.375  0.451- 138 2.10 153 2.10 177 2.10 218 2.10 155 2.10 159 2.11
  28  0.000  0.250  0.451- 137 2.10 146 2.10 154 2.10 217 2.10 156 2.10 160 2.11
  29  0.376  0.251  0.550- 224 2.09 159 2.09 157 2.10 144 2.12 153 2.12 151 2.12
  30  0.000  0.375  0.550- 143 2.10 223 2.10 160 2.10 184 2.10 154 2.11 158 2.13
  31  0.375  0.375  0.650- 222 2.11 142 2.11 157 2.12 181 2.13 159 2.15
  32  0.000  0.250  0.647- 160 2.08 141 2.10 221 2.10 150 2.10 158 2.10
  33  0.125  0.500  0.352- 139 2.10 163 2.10 164 2.10 180 2.10 161 2.10
  34  0.250  0.625  0.352- 163 2.10 164 2.10 172 2.10 179 2.10 162 2.10
  35  0.125  0.625  0.451- 161 2.10 162 2.10 169 2.10 178 2.10 163 2.10 167 2.10
  36  0.250  0.500  0.451- 168 2.10 161 2.10 162 2.10 138 2.10 177 2.10 164 2.10
  37  0.125  0.500  0.550- 168 2.09 184 2.10 143 2.10 167 2.10 161 2.11 165 2.14
  38  0.250  0.625  0.550- 183 2.10 168 2.10 176 2.10 167 2.10 162 2.11 166 2.14
  39  0.125  0.625  0.647- 167 2.09 166 2.10 165 2.10 182 2.10 173 2.10
  40  0.250  0.500  0.646- 168 2.07 181 2.08 165 2.10 166 2.11 142 2.11
  41  0.125  0.750  0.352- 163 2.10 171 2.10 172 2.10 188 2.10 169 2.10
  42  0.250  0.875  0.352- 132 2.10 171 2.10 172 2.10 187 2.10 170 2.10
  43  0.125  0.875  0.451- 129 2.10 169 2.10 170 2.10 186 2.10 171 2.10 175 2.10
  44  0.250  0.750  0.451- 162 2.10 169 2.10 170 2.10 185 2.10 172 2.10 176 2.10
  45  0.125  0.750  0.550- 176 2.10 167 2.10 192 2.10 175 2.10 169 2.11 173 2.13
  46  0.250  0.875  0.550- 176 2.10 136 2.10 191 2.10 175 2.10 170 2.11 174 2.13
  47  0.125  0.875  0.647- 175 2.09 133 2.10 173 2.10 174 2.10 190 2.10
  48  0.250  0.750  0.647- 176 2.09 166 2.10 189 2.10 174 2.10 173 2.10
  49  0.375  0.500  0.352- 155 2.10 164 2.10 179 2.10 244 2.10 177 2.10
  50  0.000  0.625  0.352- 163 2.10 180 2.10 188 2.10 243 2.10 178 2.10
  51  0.375  0.625  0.451- 183 2.10 177 2.10 162 2.10 185 2.10 242 2.10 179 2.10
  52  0.000  0.500  0.451- 154 2.10 161 2.10 178 2.10 241 2.10 180 2.10 184 2.11
  53  0.376  0.499  0.550- 159 2.09 248 2.09 181 2.11 183 2.12 168 2.12 177 2.12
  54  1.000  0.625  0.550- 247 2.10 167 2.10 184 2.10 192 2.10 178 2.11 182 2.13
  55  0.375  0.625  0.646- 183 2.07 181 2.08 189 2.10 166 2.11 246 2.11
  56  0.000  0.500  0.647- 184 2.08 165 2.10 245 2.10 182 2.10 158 2.10
  57  0.375  0.750  0.352- 172 2.10 179 2.10 187 2.10 252 2.10 185 2.10
  58  0.000  0.875  0.352- 148 2.10 171 2.10 188 2.10 251 2.10 186 2.10
  59  0.375  0.875  0.451- 145 2.10 170 2.10 185 2.10 250 2.10 187 2.10 191 2.11
  60  0.000  0.750  0.451- 169 2.10 178 2.10 186 2.10 249 2.10 188 2.10 192 2.10
[...]
 242  0.500  0.625  0.451-  51 2.10  99 2.10 116 2.10 124 2.10 114 2.10 118 2.11
 243  0.875  0.625  0.352-  50 2.10  98 2.10 113 2.10 121 2.10 115 2.10
 244  0.500  0.500  0.352-  49 2.10  90 2.10  97 2.10 114 2.10 116 2.10
 245  0.875  0.500  0.650-  56 2.10 119 2.10 104 2.10  95 2.10 117 2.14
 246  0.500  0.626  0.650- 128 2.08  55 2.11 103 2.11 120 2.12 118 2.13
 247  0.875  0.625  0.549- 119 2.09  54 2.10 125 2.10 102 2.10 117 2.10 115 2.10
 248  0.500  0.500  0.550- 118 2.09 101 2.09  53 2.09  94 2.11 116 2.11 120 2.15
 249  0.875  0.750  0.451-  60 2.10 108 2.10 115 2.10 123 2.10 121 2.10 125 2.11
 250  0.500  0.875  0.451-  59 2.10  84 2.10 107 2.10 124 2.10 122 2.10 126 2.11
 251  0.875  0.875  0.352-  58 2.10  81 2.10 106 2.10 121 2.10 123 2.10
 252  0.500  0.750  0.352-  57 2.10 105 2.10 114 2.10 122 2.10 124 2.10
 253  0.875  0.750  0.650-  64 2.10 127 2.10 119 2.10 112 2.10 125 2.13
 254  0.500  0.875  0.650- 128 2.10  88 2.10 111 2.10  63 2.10 126 2.13
 255  0.875  0.875  0.549- 127 2.09  62 2.10  85 2.10 125 2.10 110 2.10 123 2.10
 256  0.500  0.750  0.549- 128 2.08 126 2.10 109 2.10  61 2.10 124 2.10 118 2.11

IMPORTANT INFORMATION: All symmetrisations will be switched off!
NOSYMM: (Re-)initialisation of all symmetry stuff for point group C_1.

                                     Primitive cell

  volume of cell :    6019.7037

  direct lattice vectors                    reciprocal lattice vectors
    16.809723990  0.000000000  0.000000000     0.059489377  0.000000000  0.000000000
     0.000000000 16.809723990  0.000000000     0.000000000  0.059489377  0.000000000
     0.000000000  0.000000000 21.303646496     0.000000000  0.000000000  0.046940321

  length of vectors
    16.809723990 16.809723990 21.303646496     0.059489377  0.059489377  0.046940321

  position of ions in fractional coordinates (direct lattice)
     0.125000000  0.000000000  0.352052406
     0.250000000  0.125000000  0.352052406
     0.125000000  0.125000000  0.450684135
     0.250000000  0.000000000  0.450684135
     0.125003413  0.000000379  0.549715161
     0.249990511  0.125000175  0.549503587
     0.124989808  0.124927480  0.647393958
     0.249935399  0.999975596  0.647377790
     0.125000000  0.250000000  0.352052406
     0.250000000  0.375000000  0.352052406
     0.125000000  0.375000000  0.450684135
     0.250000000  0.250000000  0.450684135
     0.124965802  0.250018432  0.549560624
     0.250466641  0.374977988  0.549789275
     0.124916763  0.375016122  0.647016403
     0.249901181  0.249752066  0.646394569
     0.375000000  0.000000000  0.352052406
     0.000000000  0.125000000  0.352052406
     0.375000000  0.125000000  0.450684135
     0.000000000  0.000000000  0.450684135
     0.375012616  0.999947774  0.549556657
     0.000005101  0.124983563  0.549712290
     0.374769445  0.124879305  0.646300458
     0.000002714  0.999975048  0.647420446
     0.375000000  0.250000000  0.352052406
[...]
   6.29993910 10.50730189 13.77137255
   0.00009949  8.40606125 13.79171632
   6.30364650 12.60729299  7.50000000
   0.00000000 14.70850849  7.50000000
   6.30364650 14.70850849  9.60121550
   0.00000000 12.60729299  9.60121550
[...]
   8.40486199 10.50607749  9.60121550
  14.70850849 10.50607749  7.50000000
   8.40486199  8.40486199  7.50000000
  14.71097699  8.40748220 13.84391492
   8.40454815 10.52706749 13.84272495
  14.71008884 10.50729648 11.70614671
   8.40541408  8.41300265 11.71186091
  14.70850849 12.60729299  9.60121550
   8.40486199 14.70850849  9.60121550
  14.70850849 14.70850849  7.50000000
   8.40486199 12.60729299  7.50000000
  14.71024175 12.60890569 13.84214313
   8.40488582 14.70841366 13.84280895
  14.70902817 14.70856217 11.70603695
   8.40491951 12.61091597 11.70408924

--------------------------------------- Iteration      FINAL  ---------------------------------------

--------------------OUTCAR has been truncated-------------------------

[...]

--------------------OUTCAR has been truncated-------------------------

  FORCE on cell =-STRESS in cart. coord.  units (eV):
  Direction    XX          YY          ZZ          XY          YZ          ZX
  Alpha Z  3535.68617  3535.68617  3535.68617
  Ewald  654338.86137654338.89825************    -0.00062    -0.49808     0.10045
  Hartree694553.02670694553.03919************    -0.00044    -0.30483     0.06006
  E(xc)   -9868.63171 -9868.63191 -9901.53237    -0.00000    -0.00177     0.00024
  Local  ************************************     0.00113     0.81127    -0.16005
  n-local-11167.41999-11167.39703-11249.15898     0.00176    -0.01324     0.00038
  augment  4183.67863  4183.67307  4146.01115    -0.00004    -0.00451     0.00046
  Kinetic 29267.30291 29267.30274 29423.94224     0.00003     0.09744    -0.01157
  Fock        0.00000     0.00000     0.00000     0.00000     0.00000     0.00000
  vdW       -87.87765   -87.87766   -66.10414     0.00000     0.00070    -0.00010
  Total     -59.90395   -59.88522    38.42040     0.00181     0.08697    -0.01014
  in kB     -15.94377   -15.93878    10.22580     0.00048     0.02315    -0.00270

 VOLUME and BASIS-vectors are now :
  energy-cutoff  :      520.00
  volume of cell :     6019.70
      direct lattice vectors                 reciprocal lattice vectors
    16.809723990  0.000000000  0.000000000     0.059489377  0.000000000  0.000000000
     0.000000000 16.809723990  0.000000000     0.000000000  0.059489377  0.000000000
     0.000000000  0.000000000 21.303646496     0.000000000  0.000000000  0.046940321

  length of vectors
    16.809723990 16.809723990 21.303646496     0.059489377  0.059489377  0.046940321

 FORCES acting on ions:
    Electron-Ion                     Ewald-Force                    Non-Local-Force
   -.106E+00 -.100E+00 0.209E+04   0.959E-01 0.899E-01 -.208E+04   0.830E-02 0.796E-02 -.720E+01
   -.517E+00 -.531E+00 0.209E+04   0.504E+00 0.518E+00 -.208E+04   0.102E-01 0.103E-01 -.718E+01
   -.135E+00 -.135E+00 0.694E+03   0.980E-01 0.996E-01 -.694E+03   0.272E-01 0.263E-01 0.430E+00
   -.104E+00 -.126E+00 0.694E+03   0.680E-01 0.888E-01 -.694E+03   0.263E-01 0.270E-01 0.428E+00
   0.773E-01 0.987E-01 -.697E+03   -.979E-01 -.115E+00 0.698E+03   0.812E-02 0.444E-02 -.359E+00
   -.514E+00 -.537E+00 -.695E+03   0.393E+00 0.422E+00 0.695E+03   0.675E-01 0.605E-01 -.199E+00
   0.403E+00 -.790E+00 -.208E+04   -.377E+00 0.779E+00 0.207E+04   -.530E-01 -.263E-03 0.618E+01
   -.616E+00 0.472E+00 -.208E+04   0.616E+00 -.435E+00 0.207E+04   -.121E-01 -.633E-01 0.618E+01
   -.463E+00 -.239E+00 0.209E+04   0.453E+00 0.229E+00 -.208E+04   0.780E-02 0.737E-02 -.718E+01
   -.111E+01 -.494E-01 0.209E+04   0.111E+01 0.496E-01 -.208E+04   0.465E-02 -.471E-03 -.718E+01
   -.146E+01 -.558E-01 0.694E+03   0.146E+01 0.561E-01 -.694E+03   0.930E-02 -.414E-03 0.414E+00
   -.279E+01 -.140E+01 0.694E+03   0.277E+01 0.139E+01 -.694E+03   0.161E-01 0.778E-02 0.393E+00
   0.571E+00 -.529E+00 -.696E+03   -.618E+00 0.482E+00 0.697E+03   -.666E-02 0.248E-01 -.248E+00
   -.251E+01 -.265E+00 -.699E+03   0.266E+01 0.271E+00 0.699E+03   -.261E+00 -.160E-02 -.183E+00
   0.124E+01 0.146E-01 -.207E+04   -.128E+01 -.118E-01 0.207E+04   -.620E-01 -.510E-02 0.610E+01
   0.137E+01 -.260E+01 -.207E+04   -.165E+01 0.228E+01 0.206E+04   0.587E-01 0.250E+00 0.616E+01
   -.206E+00 -.442E+00 0.209E+04   0.197E+00 0.432E+00 -.208E+04   0.699E-02 0.791E-02 -.718E+01
   -.224E-02 -.125E+00 0.209E+04   0.229E-02 0.111E+00 -.208E+04   -.426E-04 0.111E-01 -.719E+01
   -.129E+01 -.280E+01 0.694E+03   0.129E+01 0.280E+01 -.694E+03   0.683E-02 0.135E-01 0.397E+00
   -.473E-02 -.234E-01 0.693E+03   0.466E-02 0.826E-02 -.694E+03   0.466E-04 0.116E-01 0.424E+00
   -.440E+00 0.483E+00 -.696E+03   0.392E+00 -.545E+00 0.697E+03   0.262E-01 0.975E-02 -.252E+00
   0.936E-02 -.198E+00 -.697E+03   -.778E-02 0.162E+00 0.698E+03   -.212E-02 0.232E-01 -.353E+00
   -.300E+01 0.279E+00 -.207E+04   0.265E+01 -.634E+00 0.206E+04   0.280E+00 0.150E+00 0.618E+01
   -.213E-02 -.275E+00 -.208E+04   0.178E-02 0.257E+00 0.207E+04   0.794E-04 0.110E-01 0.621E+01
   -.835E+00 -.883E+00 0.209E+04   0.832E+00 0.881E+00 -.208E+04   0.213E-02 0.157E-02 -.718E+01
   -.562E-02 -.217E-01 0.209E+04   0.558E-02 0.220E-01 -.208E+04   0.210E-04 -.605E-03 -.718E+01
   -.389E+01 -.178E+00 0.689E+03   0.392E+01 0.185E+00 -.690E+03   -.106E-01 -.424E-02 0.591E+00
   -.791E-02 -.304E-01 0.694E+03   0.100E-01 0.186E-02 -.694E+03   -.156E-02 0.211E-01 0.446E+00
   -.355E+01 -.337E+01 -.700E+03   0.374E+01 0.356E+01 0.701E+03   -.265E+00 -.271E+00 -.443E+00
   -.175E-01 -.194E-01 -.697E+03   0.172E-01 0.220E-01 0.697E+03   0.357E-05 -.190E-02 -.308E+00
   -.422E+01 -.148E+01 -.210E+04   0.340E+01 0.137E+01 0.210E+04   0.608E+00 0.130E+00 0.709E+01
   0.206E-01 -.889E+00 -.208E+04   -.214E-01 0.859E+00 0.207E+04   0.532E-03 0.301E-01 0.619E+01
   -.487E+00 0.203E+00 0.209E+04   0.478E+00 -.193E+00 -.208E+04   0.777E-02 -.759E-02 -.718E+01
   -.553E+00 0.546E+00 0.209E+04   0.541E+00 -.533E+00 -.208E+04   0.958E-02 -.973E-02 -.718E+01
   -.210E+00 0.148E+00 0.694E+03   0.174E+00 -.113E+00 -.694E+03   0.261E-01 -.258E-01 0.425E+00
   -.286E+01 0.130E+01 0.694E+03   0.286E+01 -.129E+01 -.694E+03   0.936E-02 -.673E-02 0.403E+00
   0.281E+00 0.426E+00 -.696E+03   -.344E+00 -.383E+00 0.697E+03   0.121E-01 -.215E-01 -.254E+00
   -.608E+00 0.643E+00 -.695E+03   0.499E+00 -.528E+00 0.695E+03   0.557E-01 -.640E-01 -.204E+00
   0.335E+00 0.642E+00 -.208E+04   -.303E+00 -.643E+00 0.207E+04   -.577E-01 0.121E-01 0.618E+01
   0.185E+00 0.296E+01 -.207E+04   -.537E+00 -.262E+01 0.206E+04   0.151E+00 -.268E+00 0.617E+01
   -.124E+00 0.136E+00 0.209E+04   0.115E+00 -.126E+00 -.208E+04   0.799E-02 -.774E-02 -.720E+01
   -.124E+00 0.339E-01 0.209E+04   0.110E+00 -.345E-01 -.208E+04   0.106E-01 0.569E-04 -.719E+01
   -.391E-01 0.420E-01 0.694E+03   0.248E-01 -.423E-01 -.694E+03   0.112E-01 0.771E-04 0.411E+00
   -.153E+00 0.221E+00 0.694E+03   0.119E+00 -.185E+00 -.694E+03   0.251E-01 -.260E-01 0.431E+00
   0.820E-02 -.152E-02 -.697E+03   -.274E-01 0.203E-01 0.698E+03   0.667E-02 -.702E-02 -.361E+00
   -.155E+00 0.121E+00 -.697E+03   0.122E+00 -.121E+00 0.698E+03   0.214E-01 -.247E-04 -.355E+00
   -.302E+00 0.968E-01 -.208E+04   0.285E+00 -.938E-01 0.207E+04   0.106E-01 -.296E-02 0.619E+01
   -.690E+00 -.315E+00 -.208E+04   0.688E+00 0.290E+00 0.207E+04   -.873E-02 0.519E-01 0.619E+01
   -.859E+00 0.811E+00 0.209E+04   0.857E+00 -.808E+00 -.208E+04   0.117E-02 -.260E-02 -.718E+01
   -.666E-02 0.131E+00 0.209E+04   0.641E-02 -.117E+00 -.208E+04   0.186E-03 -.103E-01 -.719E+01
   -.140E+01 0.288E+01 0.694E+03   0.139E+01 -.287E+01 -.694E+03   0.626E-02 -.123E-01 0.396E+00
   -.206E-01 -.879E-02 0.694E+03   0.185E-01 0.380E-01 -.694E+03   0.163E-02 -.216E-01 0.455E+00
   -.337E+01 0.346E+01 -.701E+03   0.357E+01 -.365E+01 0.701E+03   -.272E+00 0.267E+00 -.432E+00
   -.917E-02 0.175E+00 -.697E+03   0.749E-02 -.144E+00 0.698E+03   0.148E-02 -.199E-01 -.353E+00
   -.253E+01 -.116E+01 -.207E+04   0.223E+01 0.144E+01 0.206E+04   0.233E+00 -.628E-01 0.615E+01
   0.191E-01 0.888E+00 -.208E+04   -.213E-01 -.856E+00 0.207E+04   0.909E-03 -.331E-01 0.620E+01
   -.229E+00 0.516E+00 0.209E+04   0.219E+00 -.506E+00 -.208E+04   0.708E-02 -.702E-02 -.718E+01
   -.309E-02 0.162E-01 0.209E+04   0.301E-02 -.164E-01 -.208E+04   0.624E-04 -.220E-03 -.720E+01
   -.105E-02 0.983E-01 0.694E+03   -.275E-01 -.101E+00 -.694E+03   0.210E-01 0.171E-02 0.442E+00
   -.667E-02 0.603E-01 0.694E+03   0.661E-02 -.460E-01 -.694E+03   0.876E-04 -.110E-01 0.413E+00
[...]
   0.195E+00 0.161E+00 0.157E+04   -.187E+00 -.152E+00 -.158E+04   -.103E-01 -.124E-01 0.340E+01
   0.116E-02 0.759E+00 0.157E+04   -.125E-02 -.758E+00 -.157E+04   0.141E-03 -.160E-02 0.340E+01
   0.939E+00 0.917E+00 -.158E+04   -.915E+00 -.946E+00 0.159E+04   -.632E-01 0.804E-02 -.533E+01
   -.439E+00 0.583E+01 -.158E+04   0.431E+00 -.550E+01 0.159E+04   0.199E-01 -.669E+00 -.496E+01
   0.224E+00 0.309E+00 -.517E+03   -.219E+00 -.312E+00 0.517E+03   -.216E-01 -.135E-01 0.182E+00
   -.180E+00 0.590E+01 -.528E+03   0.192E+00 -.597E+01 0.528E+03   -.145E-01 -.512E-01 0.765E-01
   0.317E-01 0.445E-01 0.520E+03   -.225E-01 -.346E-01 -.520E+03   -.117E-01 -.134E-01 -.108E+00
   0.819E-02 0.768E-01 0.520E+03   -.819E-02 -.772E-01 -.520E+03   0.830E-05 0.153E-02 -.669E-01
   0.516E-01 0.169E-01 0.157E+04   -.458E-01 -.170E-01 -.158E+04   -.815E-02 0.140E-03 0.339E+01
   -.146E-03 0.488E+00 0.157E+04   -.383E-04 -.483E+00 -.157E+04   0.254E-03 -.792E-02 0.340E+01
   0.340E+00 0.302E+00 -.158E+04   -.354E+00 -.314E+00 0.159E+04   0.587E-02 0.399E-02 -.516E+01
   -.403E-03 0.665E-01 -.158E+04   0.103E-02 -.690E-01 0.159E+04   -.104E-02 0.265E-02 -.525E+01
   0.918E-01 0.734E-01 -.517E+03   -.866E-01 -.732E-01 0.517E+03   -.104E-01 -.452E-03 0.211E+00
   0.970E-03 0.265E+01 -.516E+03   -.802E-03 -.274E+01 0.516E+03   -.936E-03 0.255E-01 0.340E+00
   -.100E-01 -.242E-01 0.692E+02   0.992E-12 0.549E-12 -.100E-10   0.697E-02 0.169E-01 -.692E+02

 POSITION                                       TOTAL-FORCE (eV/Angst)
      2.10122      0.00000      7.50000        -0.001923     -0.002299      0.278290
      4.20243      2.10122      7.50000        -0.002962     -0.002504      0.274253
      2.10122      2.10122      9.60122        -0.010008     -0.008744      0.062423
      4.20243      0.00000      9.60122        -0.009078     -0.010255      0.063378
      2.10127      0.00001     11.71094        -0.011991     -0.011707      0.008969
      4.20227      2.10122     11.70643        -0.052587     -0.053444     -0.000510
      2.10104      2.10000     13.79185        -0.025964     -0.011252      0.174439
      4.20135     16.80931     13.79151        -0.011554     -0.025248      0.178788
      2.10122      4.20243      7.50000        -0.001845     -0.002037      0.275367
      4.20243      6.30365      7.50000        -0.001526     -0.000293      0.274161
      2.10122      6.30365      9.60122         0.003444     -0.000132      0.057058
      4.20243      4.20243      9.60122         0.002906     -0.001500      0.044006
      2.10064      4.20274     11.70765        -0.052023     -0.020730      0.015176
      4.21028      6.30328     11.71252        -0.105553      0.003500     -0.066866
      2.09982      6.30392     13.78381        -0.091703     -0.002217      0.239126
      4.20077      4.19826     13.77056        -0.214831     -0.068860      0.275314
      6.30365      0.00000      7.50000        -0.002441     -0.002318      0.275040
      0.00000      2.10122      7.50000         0.000018     -0.002718      0.277770
      6.30365      2.10122      9.60122        -0.001226      0.004486      0.044758
      0.00000      0.00000      9.60122        -0.000016     -0.003413      0.073664
      6.30386     16.80885     11.70756        -0.020411     -0.050539      0.014275
      0.00009      2.10094     11.71088        -0.000493     -0.011976      0.011275
      6.29977      2.09919     13.76856        -0.070317     -0.200361      0.291096
      0.00005     16.80930     13.79242        -0.000255     -0.006192      0.170067
      6.30365      4.20243      7.50000        -0.001108     -0.000471      0.273466
      0.00000      6.30365      7.50000        -0.000005     -0.000259      0.274906
      6.30365      6.30365      9.60122         0.014581      0.001873      0.051017
      0.00000      4.20243      9.60122         0.000569     -0.007301      0.060329
      6.31243      4.21222     11.71984        -0.070360     -0.076474     -0.172287
      0.00008      6.30367     11.70841        -0.000303      0.000702      0.024642
      6.29630      6.30071     13.85757        -0.205046      0.021410     -0.437870
      0.00002      4.20131     13.79157        -0.000208     -0.000111      0.182617
      2.10122      8.40486      7.50000        -0.001832      0.002173      0.275023
      4.20243     10.50608      7.50000        -0.002786      0.003326      0.274351
      2.10122     10.50608      9.60122        -0.009645      0.009175      0.062253
      4.20243      8.40486      9.60122         0.005755      0.000915      0.047534
      2.10053      8.40455     11.70764        -0.049238      0.021087      0.014579
      4.20258     10.50613     11.70658        -0.051652      0.050470     -0.000449
      2.10094     10.50702     13.79158        -0.024507      0.010654      0.175858
      4.20103      8.40834     13.76936        -0.196546      0.068338      0.287843
      2.10122     12.60729      7.50000        -0.001879      0.002283      0.278437
      4.20243     14.70851      7.50000        -0.003062     -0.000440      0.277969
      2.10122     14.70851      9.60122        -0.003049     -0.000227      0.070842
      4.20243     12.60729      9.60122        -0.008620      0.009843      0.063285
      2.10131     12.60721     11.71100        -0.012048      0.011344      0.006970
      4.20220     14.70840     11.71094        -0.011555      0.000551      0.009227
      2.10085     14.70848     13.79228        -0.006377      0.000165      0.167718
      4.20145     12.60727     13.79179        -0.010858      0.025919      0.177178
      6.30365      8.40486      7.50000        -0.000844      0.000792      0.273745
      0.00000     10.50608      7.50000        -0.000049      0.003471      0.277827
      6.30365     10.50608      9.60122        -0.001199     -0.004217      0.045187
      0.00000      8.40486      9.60122        -0.000427      0.007469      0.062039
      6.31363      8.39565     11.72060        -0.073481      0.070927     -0.169372
     16.80970     10.50634     11.71088        -0.000196      0.011012      0.010623
      6.29994     10.50730     13.77137        -0.064923      0.211558      0.276549
      0.00010      8.40606     13.79172        -0.001264     -0.000602      0.182286
      6.30365     12.60729      7.50000        -0.002450      0.002139      0.275418
      0.00000     14.70851      7.50000        -0.000008     -0.000384      0.279004
      6.30365     14.70851      9.60122        -0.007464     -0.000874      0.059283
      0.00000     12.60729      9.60122         0.000042      0.003262      0.071950
[...]
      8.40486     10.50608      9.60122        -0.000085     -0.011759      0.071795
     14.70851     10.50608      7.50000        -0.002894     -0.003395     -0.560961
      8.40486      8.40486      7.50000         0.000056     -0.000296     -0.564269
     14.71098      8.40748     13.84391        -0.039400     -0.020227      0.007495
      8.40455     10.52707     13.84272         0.011092     -0.327984      0.110550
     14.71009     10.50730     11.70615        -0.016723     -0.016484     -0.081559
      8.40541      8.41300     11.71186        -0.002200     -0.125564      0.138980
     14.70851     12.60729      9.60122        -0.002545     -0.003531      0.049004
      8.40486     14.70851      9.60122         0.000016      0.001212      0.046575
     14.70851     14.70851      7.50000        -0.002304      0.000029     -0.563084
      8.40486     12.60729      7.50000         0.000082     -0.002155     -0.559019
     14.71024     12.60891     13.84214        -0.007925     -0.007948      0.055329
      8.40489     14.70841     13.84281        -0.000401      0.000162      0.027362
     14.70903     14.70856     11.70604        -0.005158     -0.000200     -0.074367
      8.40492     12.61092     11.70409        -0.000747     -0.064526     -0.060972
    total drift:                               -0.003044     -0.007244     -0.007899

  FREE ENERGIE OF THE ION-ELECTRON SYSTEM (eV)
  free  energy   TOTEN  =     -1484.68719448 eV

  energy  without entropy=    -1484.68719448  energy(sigma->0) =    -1484.68719448