 vasp.6.3.0 20Jan22 (build Apr  1 2022 16:44:48) complex
 executed on        HPECrayEX_GCC date 2023.01.23  22:21:19

 INCAR:
   SYSTEM = MgO-rocksalt
   ISMEAR = 0
   SIGMA = 0.05
   EDIFF = 1E-8
   ALGO = ALL
   ISTART = 0
   IBRION = 5
   POTIM = 0.01
   NFREE = 2
   ISYM = 0
   DIPOL = 0.5 0.5 0.5
   IDIPOL = 3
   LDIPOL = .TRUE.
   GGA = RE
   IVDW = 13
   VDW_S8 = 1.7468
   VDW_A1 = 0.5363
   VDW_A2 = 3.0726
   ENCUT = 600
   PREC = Accurate
   LASPH = .TRUE.
   LREAL = .FALSE.
   ISPIN = 2
   MAGMOM = 1.0 0.0 0.0 0.0 0.0 0.0 0.0 0.0 0.0 0.0 0.0 0.0 0.0 0.0 0.0 0.0 0.0 0.0 0.0 0.0 0.0 0.0 0.0 0.0 0.0 0.0 0.0 0.0 0.0 0.0 0.0 0.0 0.0 0.0 0.0 0.0 0.0 0.0 0.0 0.0 0.0 0.0 0.0 0.0 0.0 0.0 0.0 0.0 0.0 0.0 0.0 0.0 0.0 0.0 0.0 0.0 0.0 0.0 0.0 0.0 0.0 0.0 0.0 0.0 0.0 0.0
   NELM = 200
   NELMIN = 8
   NCORE = 8
   KPAR = 1
   LWAVE = .FALSE.
   LCHARG = .FALSE.

 POTCAR:    PAW_PBE N 08Apr2002
 POTCAR:    PAW_PBE O 08Apr2002
 POTCAR:    PAW_PBE Mg_pv 13Apr2007
 POTCAR:    PAW_PBE O 08Apr2002
 POTCAR:    PAW_PBE N 08Apr2002
   VRHFIN =N: s2p3

   TITEL  = PAW_PBE N 08Apr2002
   POMASS =   14.001; ZVAL   =    5.000    mass and valenz
   ENMAX  =  400.000; ENMIN  =  300.000 eV

[...]

   TITEL  = PAW_PBE Mg_pv 13Apr2007
   POMASS =   24.305; ZVAL   =    8.000    mass and valenz
   ENMAX  =  403.929; ENMIN  =  302.947 eV

   TITEL  = PAW_PBE O 08Apr2002
   POMASS =   16.000; ZVAL   =    6.000    mass and valenz
   ENMAX  =  400.000; ENMIN  =  300.000 eV

  PAW_PBE N 08Apr2002                   :
  PAW_PBE O 08Apr2002                   :
  PAW_PBE Mg_pv 13Apr2007               :
  PAW_PBE O 08Apr2002                   :

 POSCAR:  N  O Mg  O
  positions in direct lattice
|           W    W    AA    RRRRR   N    N  II  N    N   GGGG   !!!           |
|           W    W   A  A   R    R  NN   N  II  NN   N  G    G  !!!           |
|           W    W  A    A  R    R  N N  N  II  N N  N  G       !!!           |
|           W WW W  AAAAAA  RRRRR   N  N N  II  N  N N  G  GGG   !            |
|           WW  WW  A    A  R   R   N   NN  II  N   NN  G    G                |
|           W    W  A    A  R    R  N    N  II  N    N   GGGG   !!!           |
|     Specifying the vdW parameters                                           |
|     VDW_S8 = 1.747                                                          |
|     VDW_A1 = 0.536                                                          |
|     VDW_A2 = 3.073                                                          |
|     in the INCAR file will overwrite the defaults for revpbe. Please        |
|     make sure that is what you intended.                                    |

 ion  position               nearest neighbor table
   1  0.639  0.483  0.749-   2 1.19
   2  0.697  0.574  0.784-   1 1.19
   3  0.000  0.750  0.352-  35 2.11  37 2.11  38 2.11  45 2.11  54 2.11
   4  0.250  0.000  0.352-  36 2.11  37 2.11  38 2.11  46 2.11  53 2.11
   5  0.000  0.000  0.451-  37 2.11  36 2.11  35 2.11  43 2.11  52 2.11  41 2.12
   6  0.250  0.750  0.451-  38 2.11  36 2.11  35 2.11  44 2.11  51 2.11  42 2.12
   7  0.000  0.750  0.550-  42 2.11  58 2.11  49 2.11  41 2.11  35 2.13  39 2.15
   8  0.250  0.000  0.550-  57 2.11  50 2.11  42 2.11  41 2.11  36 2.12  40 2.15
   9  0.001  0.000  0.649-  40 2.11  47 2.11  56 2.11  41 2.11  39 2.11
  10  0.251  0.751  0.649-  40 2.11  55 2.11  42 2.11  48 2.12  39 2.12
  11  0.000  0.250  0.352-  43 2.11  37 2.11  45 2.11  46 2.11  62 2.11
  12  0.250  0.500  0.352-  44 2.11  38 2.11  45 2.11  46 2.11  61 2.11
  13  0.000  0.500  0.451-  45 2.11  43 2.11  44 2.11  35 2.11  60 2.11  49 2.12
  14  0.250  0.250  0.451-  46 2.11  43 2.11  44 2.11  36 2.11  59 2.11  50 2.12
  15  1.000  0.250  0.550-  66 2.11  50 2.11  49 2.11  41 2.11  43 2.13  47 2.15
  16  0.251  0.500  0.550-  65 2.11  50 2.11  42 2.11  49 2.12  44 2.13  48 2.15
  17  0.003  0.500  0.649-  48 2.08  47 2.11  49 2.11  39 2.11  64 2.11
  18  0.251  0.249  0.649-  40 2.11  63 2.11  50 2.11  47 2.12  48 2.12
  19  0.500  0.750  0.352-  51 2.11  38 2.11  53 2.11  54 2.11  61 2.11
  20  0.750  0.000  0.352-  52 2.11  37 2.11  53 2.11  54 2.11  62 2.11
  21  0.500  0.000  0.451-  53 2.11  51 2.11  52 2.11  36 2.11  59 2.11  57 2.11
  22  0.750  0.750  0.451-  54 2.11  51 2.11  52 2.11  35 2.11  60 2.11  58 2.12
  23  0.500  0.750  0.550-  65 2.11  42 2.11  57 2.11  58 2.11  51 2.13  55 2.13
  24  0.750  0.000  0.550-  57 2.11  41 2.11  66 2.11  58 2.12  52 2.12  56 2.15
  25  0.500  0.000  0.649-  63 2.10  55 2.11  40 2.11  57 2.11  56 2.12
  26  0.750  0.753  0.649-  56 2.09  58 2.11  55 2.11  39 2.11  64 2.13
  27  0.500  0.250  0.352-  59 2.11  53 2.11  46 2.11  61 2.11  62 2.11
  28  0.750  0.500  0.352-  60 2.11  54 2.11  45 2.11  61 2.11  62 2.11
  29  0.500  0.500  0.451-  61 2.11  51 2.11  59 2.11  60 2.11  44 2.11  65 2.13
  30  0.750  0.250  0.451-  62 2.11  52 2.11  59 2.11  60 2.11  43 2.11  66 2.12
  31  0.500  0.250  0.550-  65 2.11  66 2.11  50 2.11  57 2.11  63 2.12  59 2.13
  32  0.749  0.500  0.550-  65 2.10  66 2.10  58 2.11  60 2.11  49 2.11  64 2.17
  33  0.498  0.500  0.651-  48 2.09  63 2.12  55 2.12  64 2.15  65 2.15
  34  0.750  0.248  0.649-  56 2.09  63 2.11  47 2.11  66 2.12  64 2.13
  35  0.000  0.750  0.451-   3 2.11   5 2.11   6 2.11  13 2.11  22 2.11   7 2.13
  36  0.250  0.000  0.451-   4 2.11   5 2.11   6 2.11  14 2.11  21 2.11   8 2.12
  37  0.000  0.000  0.352-   5 2.11   4 2.11   3 2.11  11 2.11  20 2.11
  38  0.250  0.750  0.352-   6 2.11   4 2.11   3 2.11  12 2.11  19 2.11
  39  1.000  0.750  0.651-  26 2.11  17 2.11   9 2.11  10 2.12   7 2.15
  40  0.250  0.000  0.651-  10 2.11   9 2.11  18 2.11  25 2.11   8 2.15
  41  1.000  0.000  0.550-  24 2.11   7 2.11  15 2.11   8 2.11   9 2.11   5 2.12
  42  0.250  0.750  0.550-   7 2.11  16 2.11  23 2.11   8 2.11  10 2.11   6 2.12
  43  0.000  0.250  0.451-  11 2.11   5 2.11  13 2.11  14 2.11  30 2.11  15 2.13
  44  0.250  0.500  0.451-  12 2.11   6 2.11  13 2.11  14 2.11  29 2.11  16 2.13
  45  0.000  0.500  0.352-  13 2.11  11 2.11  12 2.11   3 2.11  28 2.11
  46  0.250  0.250  0.352-  14 2.11  11 2.11  12 2.11   4 2.11  27 2.11
  47  1.000  0.250  0.651-  17 2.11   9 2.11  34 2.11  18 2.12  15 2.15
  48  0.250  0.500  0.651-  17 2.08  33 2.09  10 2.12  18 2.12  16 2.15
  49  1.000  0.500  0.550-  17 2.11   7 2.11  15 2.11  32 2.11  16 2.12  13 2.12
  50  0.250  0.250  0.550-  15 2.11  16 2.11  18 2.11   8 2.11  31 2.11  14 2.12
  51  0.500  0.750  0.451-  19 2.11   6 2.11  21 2.11  22 2.11  29 2.11  23 2.13
  52  0.750  0.000  0.451-  20 2.11   5 2.11  21 2.11  22 2.11  30 2.11  24 2.12
  53  0.500  0.000  0.352-  21 2.11  19 2.11  20 2.11   4 2.11  27 2.11
  54  0.750  0.750  0.352-  22 2.11  19 2.11  20 2.11   3 2.11  28 2.11
  55  0.501  0.751  0.650-  25 2.11  26 2.11  10 2.11  33 2.12  23 2.13
  56  0.750  0.000  0.651-  26 2.09  34 2.09   9 2.11  25 2.12  24 2.15
  57  0.500  1.000  0.550-  24 2.11   8 2.11  25 2.11  23 2.11  21 2.11  31 2.11
  58  0.750  0.750  0.550-  26 2.11  32 2.11   7 2.11  23 2.11  24 2.12  22 2.12
  59  0.500  0.250  0.451-  27 2.11  21 2.11  14 2.11  29 2.11  30 2.11  31 2.13
  60  0.750  0.500  0.451-  28 2.11  22 2.11  13 2.11  29 2.11  30 2.11  32 2.11
  61  0.500  0.500  0.352-  29 2.11  19 2.11  27 2.11  28 2.11  12 2.11
  62  0.750  0.250  0.352-  30 2.11  20 2.11  27 2.11  28 2.11  11 2.11
  63  0.500  0.249  0.650-  25 2.10  18 2.11  34 2.11  33 2.12  31 2.12
  64  0.753  0.501  0.651-  17 2.11  26 2.13  34 2.13  33 2.15  32 2.17
  65  0.501  0.500  0.550-  32 2.10  23 2.11  16 2.11  31 2.11  29 2.13  33 2.15
  66  0.750  0.251  0.550-  32 2.10  15 2.11  24 2.11  31 2.11  34 2.12  30 2.12

IMPORTANT INFORMATION: All symmetrisations will be switched off!
NOSYMM: (Re-)initialisation of all symmetry stuff for point group C_1.

                                     Primitive cell

  volume of cell :    1519.8199

  direct lattice vectors                    reciprocal lattice vectors
     8.440984654  0.000000000  0.000000000     0.118469591  0.000000000  0.000000000
     0.000000000  8.440984654  0.000000000     0.000000000  0.118469591  0.000000000
     0.000000000  0.000000000 21.330738491     0.000000000  0.000000000  0.046880702

  length of vectors
     8.440984654  8.440984654 21.330738491     0.118469591  0.118469591  0.046880702

  position of ions in fractional coordinates (direct lattice)
     0.638705692  0.482791833  0.748675970
     0.697354475  0.574449802  0.783972369
     0.000000000  0.750000000  0.351605267
     0.250000000  0.000000000  0.351605267
     0.000000000  0.000000000  0.450535089
     0.250000000  0.750000000  0.450535089
     0.000205502  0.750039177  0.550223578
     0.250179749  0.000061327  0.550011200
     0.000609174  0.000261594  0.648882696
     0.250583656  0.750672365  0.648872008
     0.000000000  0.250000000  0.351605267
     0.250000000  0.500000000  0.351605267
     0.000000000  0.500000000  0.450535089
     0.250000000  0.250000000  0.450535089
     0.999975671  0.250131481  0.550270989
     0.250794195  0.500015649  0.550238609
     0.003197971  0.500134154  0.649002941
     0.250561257  0.249463133  0.648749730
     0.500000000  0.750000000  0.351605267
     0.750000000  0.000000000  0.351605267
     0.500000000  0.000000000  0.450535089
     0.750000000  0.750000000  0.450535089
     0.500022340  0.749608272  0.550368279
     0.749991503  0.000400057  0.549987879
     0.499795883  0.000231456  0.648601913
     0.750189873  0.753176309  0.648650889
     0.500000000  0.250000000  0.351605267
     0.750000000  0.500000000  0.351605267
     0.500000000  0.500000000  0.450535089
     0.750000000  0.250000000  0.450535089
     0.500061819  0.250380597  0.550369134
     0.749293026  0.499879905  0.549512501
     0.497807100  0.499814175  0.651268068
     0.749692140  0.248240293  0.649388625
     0.000000000  0.750000000  0.450535089
     0.250000000  0.000000000  0.450535089
     0.000000000  0.000000000  0.351605267
     0.250000000  0.750000000  0.351605267
     0.999994137  0.750031476  0.651001288
     0.249972382  0.000019970  0.650724243
     0.999974907  0.000059780  0.549854991
     0.249881374  0.749868313  0.549864366
     0.000000000  0.250000000  0.450535089
     0.250000000  0.500000000  0.450535089
     0.000000000  0.500000000  0.351605267
     0.250000000  0.250000000  0.351605267
     0.999999107  0.250360092  0.651063486
     0.249988513  0.500109867  0.651006783
     0.999511618  0.500112360  0.550134767
     0.249684648  0.250211124  0.549787905
     0.500000000  0.750000000  0.450535089
     0.750000000  0.000000000  0.450535089
     0.500000000  0.000000000  0.351605267
     0.750000000  0.750000000  0.351605267
     0.500679971  0.750732886  0.650448838
     0.750424699  0.000337108  0.650682066
     0.500197432  0.999846331  0.549608034
     0.750335455  0.749588939  0.549977020
     0.500000000  0.250000000  0.450535089
     0.750000000  0.500000000  0.450535089
     0.500000000  0.500000000  0.351605267
     0.750000000  0.250000000  0.351605267
     0.500058095  0.249070166  0.649851433
     0.752701172  0.500737872  0.651103123
     0.500538199  0.500125592  0.550280335
[...]

 POSITION                                       TOTAL-FORCE (eV/Angst)
      5.39130      4.07524     15.96981        -0.231879     -0.364974     -0.345564
      5.88636      4.84892     16.71271         0.233182      0.358891      0.366556
      0.00000      6.33074      7.50000         0.001960      0.001608      0.338390
      2.11025      0.00000      7.50000         0.000653      0.000181      0.341503
      0.00000      0.00000      9.61025         0.006888      0.003817      0.082747
      2.11025      6.33074      9.61025         0.006592      0.001163      0.085720
      0.00173      6.33107     11.73668        -0.001104     -0.000677     -0.000095
      2.11176      0.00052     11.73215        -0.000012      0.000030      0.002103
      0.00514      0.00221     13.84115         0.000139      0.000332      0.000870
      2.11517      6.33641     13.84092        -0.000892     -0.000054     -0.000828
      0.00000      2.11025      7.50000         0.001762     -0.001554      0.340276
      2.11025      4.22049      7.50000         0.001013     -0.000119      0.338352
      0.00000      4.22049      9.61025         0.018479     -0.001614      0.083966
      2.11025      2.11025      9.61025         0.000261     -0.000146      0.088096
      8.44078      2.11136     11.73769        -0.000923      0.000573      0.000471
      2.11695      4.22062     11.73700        -0.000464     -0.000157     -0.000058
      0.02699      4.22162     13.84371        -0.005669     -0.000394     -0.005738
      2.11498      2.10571     13.83831        -0.000033      0.000416      0.000360
      4.22049      6.33074      7.50000        -0.001856      0.001139      0.342064
      6.33074      0.00000      7.50000        -0.000622      0.000320      0.337363
      4.22049      0.00000      9.61025        -0.004504     -0.002607      0.090531
      6.33074      6.33074      9.61025        -0.003084      0.016337      0.074347
      4.22068      6.32743     11.73976         0.000487      0.000058      0.000236
      6.33067      0.00338     11.73165        -0.000448      0.000292      0.001748
      4.21877      0.00195     13.83516        -0.000161      0.001076      0.002349
      6.33234      6.35755     13.83620         0.000868     -0.003077     -0.005423
      4.22049      2.11025      7.50000        -0.001795     -0.001217      0.341335
      6.33074      4.22049      7.50000        -0.001118     -0.000208      0.329609
      4.22049      4.22049      9.61025        -0.019033      0.001216      0.086812
      6.33074      2.11025      9.61025        -0.000368     -0.012334      0.074571
      4.22101      2.11346     11.73978        -0.000048     -0.000394      0.001249
      6.32477      4.21948     11.72151        -0.000145     -0.000938      0.006900
      4.20198      4.21892     13.89203         0.002229     -0.002846     -0.004365
      6.32814      2.09539     13.85194        -0.000727      0.004643     -0.001408
      0.00000      6.33074      9.61025        -0.006558     -0.009131      0.080701
      2.11025      0.00000      9.61025        -0.006706     -0.001697      0.065366
      0.00000      0.00000      7.50000        -0.002156     -0.000589     -0.501924
      2.11025      6.33074      7.50000        -0.001461     -0.001362     -0.502926
      8.44094      6.33100     13.88634         0.000138      0.000776      0.002058
      2.11001      0.00017     13.88043        -0.000724     -0.000733      0.005635
      8.44077      0.00050     11.72881         0.000105     -0.000265      0.000104
      2.10924      6.32963     11.72901        -0.000129      0.001088      0.000134
      0.00000      2.11025      9.61025        -0.010934      0.011999      0.077171
      2.11025      4.22049      9.61025        -0.000756      0.003011      0.092293
      0.00000      4.22049      7.50000        -0.003853      0.000697     -0.497868
      2.11025      2.11025      7.50000        -0.000809      0.001419     -0.503373
      8.44098      2.11329     13.88766         0.001095     -0.001020      0.002173
      2.11015      4.22142     13.88646        -0.001050      0.000947     -0.000361
      8.43686      4.22144     11.73478         0.002350      0.000120     -0.003792
      2.10758      2.11203     11.72738        -0.000519     -0.001283      0.000138
      4.22049      6.33074      9.61025         0.010772     -0.018694      0.078144
      6.33074      0.00000      9.61025         0.009824      0.002108      0.078668
      4.22049      0.00000      7.50000         0.002262      0.000070     -0.503629
      6.33074      6.33074      7.50000         0.001610     -0.002899     -0.498215
      4.22623      6.33692     13.87455        -0.000617      0.000363      0.003017
      6.33432      0.00285     13.87953        -0.000046     -0.000952      0.004691
      4.22216      8.43969     11.72355        -0.001175     -0.000572      0.001637
      6.33357      6.32727     11.73142        -0.000446      0.002708     -0.001698
      4.22049      2.11025      9.61025         0.010825      0.017191      0.081369
      6.33074      4.22049      9.61025         0.000178      0.002213      0.062514
      4.22049      4.22049      7.50000         0.003694     -0.000175     -0.500353
      6.33074      2.11025      7.50000         0.000742      0.003091     -0.498900
      4.22098      2.10240     13.86181        -0.002409     -0.001930     -0.000360
      6.35354      4.22672     13.88851         0.000090     -0.002134     -0.013030
      4.22504      4.22155     11.73789        -0.002655      0.000285     -0.002487
      6.33358      2.11550     11.73237        -0.000314     -0.003434     -0.001944
    total drift:                                0.001613      0.000213      0.001437

  FREE ENERGIE OF THE ION-ELECTRON SYSTEM (eV)
  free  energy   TOTEN  =      -383.68718866 eV

  energy  without entropy=     -383.68718866  energy(sigma->0) =     -383.68718866

 d Force =-0.1801504E-03[-0.733E-02, 0.697E-02]  d Energy =-0.1185740E-03-0.616E-04
 d Force =-0.3346461E+02[-0.335E+02,-0.334E+02]  d Ewald  =-0.3346488E+02 0.274E-03

 Finite differences progress:
  Degree of freedom:   6/  6
  Displacement:        2/  2
  Total:              12/ 12

 SECOND DERIVATIVES (NOT SYMMETRIZED)
               1X          1Y          1Z          2X          2Y          2Z
  1X   -18.486164  -25.307422  -21.727356   16.569448   24.369047   22.343650
  1Y   -25.326318  -38.277600  -33.340688   23.849244   37.015603   34.660471
  1Z   -21.737964  -33.344026  -34.164076   21.289075   33.702363   33.972882
  2X    16.580096   23.845201   21.270218  -15.701026  -23.382272  -22.180273
  2Y    24.377660   37.021331   33.702041  -23.400683  -36.545586  -35.108040
  2Z    22.359576   34.660361   33.968862  -22.186702  -35.073445  -35.754860

 Eigenvectors and eigenvalues of the dynamical matrix

   1 f  =   52.928129 THz   332.557242 2PiTHz 1765.492343 cm-1   218.893054 meV
             X         Y         Z           dx          dy          dz
      5.391305  4.075238 15.969811     0.320423    0.481135    0.446846
      5.886358  4.848922 16.722710    -0.286724   -0.444873   -0.431328
      0.000000  6.330738  7.500000            0           0           0
      2.110246  0.000000  7.500000            0           0           0
      0.000000  0.000000  9.610246            0           0           0
      2.110246  6.330738  9.610246            0           0           0
      0.001735  6.331069 11.736675            0           0           0
      2.111763  0.000518 11.732145            0           0           0
      0.005142  0.002208 13.841147            0           0           0
      2.115173  6.336414 13.840919            0           0           0
      0.000000  2.110246  7.500000            0           0           0
      2.110246  4.220492  7.500000            0           0           0
      0.000000  4.220492  9.610246            0           0           0
      2.110246  2.110246  9.610246            0           0           0
      8.440779  2.111356 11.737687            0           0           0
      2.116950  4.220624 11.736996            0           0           0
      0.026994  4.221625 13.843712            0           0           0
      2.114984  2.105714 13.838311            0           0           0
      4.220492  6.330738  7.500000            0           0           0
      6.330738  0.000000  7.500000            0           0           0
      4.220492  0.000000  9.610246            0           0           0
      6.330738  6.330738  9.610246            0           0           0
      4.220681  6.327432 11.739762            0           0           0
      6.330667  0.003377 11.731648            0           0           0
      4.218769  0.001954 13.835158            0           0           0
      6.332341  6.357550 13.836202            0           0           0
      4.220492  2.110246  7.500000            0           0           0
      6.330738  4.220492  7.500000            0           0           0
      4.220492  4.220492  9.610246            0           0           0
      6.330738  2.110246  9.610246            0           0           0
      4.221014  2.113459 11.739780            0           0           0
      6.324771  4.219479 11.721507            0           0           0
      4.201982  4.218924 13.892029            0           0           0
      6.328140  2.095393 13.851939            0           0           0
      0.000000  6.330738  9.610246            0           0           0
      2.110246  0.000000  9.610246            0           0           0
      0.000000  0.000000  7.500000            0           0           0
      2.110246  6.330738  7.500000            0           0           0
      8.440935  6.331004 13.886338            0           0           0
      2.110013  0.000169 13.880429            0           0           0
      8.440773  0.000505 11.728813            0           0           0
      2.109245  6.329627 11.729013            0           0           0
      0.000000  2.110246  9.610246            0           0           0
      2.110246  4.220492  9.610246            0           0           0
      0.000000  4.220492  7.500000            0           0           0
      2.110246  2.110246  7.500000            0           0           0
      8.440977  2.113286 13.887665            0           0           0
      2.110149  4.221420 13.886455            0           0           0
      8.436862  4.221441 11.734781            0           0           0
      2.107584  2.112028 11.727382            0           0           0
      4.220492  6.330738  9.610246            0           0           0
      6.330738  0.000000  9.610246            0           0           0
      4.220492  0.000000  7.500000            0           0           0
      6.330738  6.330738  7.500000            0           0           0
      4.226232  6.336925 13.874554            0           0           0
      6.334323  0.002846 13.879529            0           0           0
      4.222159  8.439688 11.723545            0           0           0
      6.333570  6.327269 11.731416            0           0           0
      4.220492  2.110246  9.610246            0           0           0
      6.330738  4.220492  9.610246            0           0           0
      4.220492  4.220492  7.500000            0           0           0
      6.330738  2.110246  7.500000            0           0           0
      4.220983  2.102397 13.861811            0           0           0
      6.353539  4.226721 13.888510            0           0           0
      4.225035  4.221552 11.737886            0           0           0
      6.333576  2.115500 11.732369            0           0           0

[...]

   6 f  =    1.266068 THz     7.954940 2PiTHz   42.231484 cm-1     5.236034 meV
             X         Y         Z           dx          dy          dz
      5.391305  4.075238 15.969811     0.131507   -0.452248   -0.044809
      5.886358  4.848922 16.722710     0.293262   -0.809496    0.186773
      0.000000  6.330738  7.500000            0           0           0
      2.110246  0.000000  7.500000            0           0           0
      0.000000  0.000000  9.610246            0           0           0
      2.110246  6.330738  9.610246            0           0           0
      0.001735  6.331069 11.736675            0           0           0
      2.111763  0.000518 11.732145            0           0           0
      0.005142  0.002208 13.841147            0           0           0
      2.115173  6.336414 13.840919            0           0           0
      0.000000  2.110246  7.500000            0           0           0
      2.110246  4.220492  7.500000            0           0           0
      0.000000  4.220492  9.610246            0           0           0
      2.110246  2.110246  9.610246            0           0           0
      8.440779  2.111356 11.737687            0           0           0
      2.116950  4.220624 11.736996            0           0           0
      0.026994  4.221625 13.843712            0           0           0
      2.114984  2.105714 13.838311            0           0           0
      4.220492  6.330738  7.500000            0           0           0
      6.330738  0.000000  7.500000            0           0           0
      4.220492  0.000000  9.610246            0           0           0
      6.330738  6.330738  9.610246            0           0           0
      4.220681  6.327432 11.739762            0           0           0
      6.330667  0.003377 11.731648            0           0           0
      4.218769  0.001954 13.835158            0           0           0
      6.332341  6.357550 13.836202            0           0           0
      4.220492  2.110246  7.500000            0           0           0
      6.330738  4.220492  7.500000            0           0           0
      4.220492  4.220492  9.610246            0           0           0
      6.330738  2.110246  9.610246            0           0           0
      4.221014  2.113459 11.739780            0           0           0
      6.324771  4.219479 11.721507            0           0           0
      4.201982  4.218924 13.892029            0           0           0
      6.328140  2.095393 13.851939            0           0           0
      0.000000  6.330738  9.610246            0           0           0
      2.110246  0.000000  9.610246            0           0           0
      0.000000  0.000000  7.500000            0           0           0
      2.110246  6.330738  7.500000            0           0           0
      8.440935  6.331004 13.886338            0           0           0
      2.110013  0.000169 13.880429            0           0           0
      8.440773  0.000505 11.728813            0           0           0
      2.109245  6.329627 11.729013            0           0           0
      0.000000  2.110246  9.610246            0           0           0
      2.110246  4.220492  9.610246            0           0           0
      0.000000  4.220492  7.500000            0           0           0
      2.110246  2.110246  7.500000            0           0           0
      8.440977  2.113286 13.887665            0           0           0
      2.110149  4.221420 13.886455            0           0           0
      8.436862  4.221441 11.734781            0           0           0
      2.107584  2.112028 11.727382            0           0           0
      4.220492  6.330738  9.610246            0           0           0
      6.330738  0.000000  9.610246            0           0           0
      4.220492  0.000000  7.500000            0           0           0
      6.330738  6.330738  7.500000            0           0           0
      4.226232  6.336925 13.874554            0           0           0
      6.334323  0.002846 13.879529            0           0           0
      4.222159  8.439688 11.723545            0           0           0
      6.333570  6.327269 11.731416            0           0           0
      4.220492  2.110246  9.610246            0           0           0
      6.330738  4.220492  9.610246            0           0           0
      4.220492  4.220492  7.500000            0           0           0
      6.330738  2.110246  7.500000            0           0           0
      4.220983  2.102397 13.861811            0           0           0
      6.353539  4.226721 13.888510            0           0           0
      4.225035  4.221552 11.737886            0           0           0
      6.333576  2.115500 11.732369            0           0           0

 Finite differences POTIM=   1.0000000000000000E-002