 vasp.6.4.2 20Jul23 (build Feb 22 2024 13:53:45) complex
 executed on              LinuxNV date 2024.08.27  15:04:30
 OpenACC runtime initialized ...    4 GPUs detected

 INCAR:
   SYSTEM = Oxide-Surface
   ISMEAR = 0
   SIGMA = 0.05
   EDIFF = 1E-5
   ALGO = Normal
   IBRION = -1
   NSW = 0
   ISYM = 0
   DIPOL = 0.5 0.5 0.5
   IDIPOL = 3
   LDIPOL = .TRUE.
   ISTART = 1
   LHFCALC = .TRUE.
   GGA = PE
   IVDW = 21
   VDW_SR = 0.96
   HFRCUT = -1
   ENCUT = 520
   PREC = Normal
   PRECFOCK = Normal
   LASPH = .TRUE.
   LREAL = Auto
   ISPIN = 1
   NELM = 200
   NELMIN = 8
   NCORE = 1
   KPAR = 1
   LWAVE = .FALSE.
   LCHARG = .FALSE.

 POTCAR:    PAW_PBE C 08Apr2002
 POTCAR:    PAW_PBE H 15Jun2001
 POTCAR:    PAW_PBE Mg_pv 13Apr2007
 POTCAR:    PAW_PBE O 08Apr2002
 POTCAR:    PAW_PBE C 08Apr2002
   VRHFIN =C: s2p2

   TITEL  = PAW_PBE C 08Apr2002
   POMASS =   12.011; ZVAL   =    4.000    mass and valenz
   ENMAX  =  400.000; ENMIN  =  300.000 eV

   TITEL  = PAW_PBE H 15Jun2001
   POMASS =    1.000; ZVAL   =    1.000    mass and valenz
   ENMAX  =  250.000; ENMIN  =  200.000 eV

   TITEL  = PAW_PBE Mg_pv 13Apr2007
   POMASS =   24.305; ZVAL   =    8.000    mass and valenz
   ENMAX  =  403.929; ENMIN  =  302.947 eV

   TITEL  = PAW_PBE O 08Apr2002
   POMASS =   16.000; ZVAL   =    6.000    mass and valenz
   ENMAX  =  400.000; ENMIN  =  300.000 eV

 Optimization of the real space projectors (new method)

 maximal supplied QI-value         = 25.13
 optimisation between [QCUT,QGAM] = [ 11.56, 23.12] = [ 37.43,149.72] Ry
 Optimized for a Real-space Cutoff    1.04 Angstroem

   l    n(q)    QCUT    max X(q) W(low)/X(q) W(high)/X(q)  e(spline)
   0      7    11.561   115.676    0.20E-03    0.60E-03    0.21E-06
   0      7    11.561    87.132    0.20E-03    0.59E-03    0.21E-06
   1      7    11.561     4.429    0.23E-03    0.35E-03    0.15E-06
   1      7    11.561     2.733    0.18E-03    0.25E-03    0.12E-06
 Optimization of the real space projectors (new method)

[...]

   l    n(q)    QCUT    max X(q) W(low)/X(q) W(high)/X(q)  e(spline)
   1      8    11.527     2.974    0.16E-03    0.13E-03    0.98E-07
   1      8    11.527     4.279    0.42E-03    0.30E-03    0.22E-06
   0      8    11.527    16.381    0.13E-03    0.20E-03    0.72E-07
   0      8    11.527     5.611    0.88E-04    0.13E-03    0.50E-07
   2      7    11.527     4.652    0.25E-03    0.73E-04    0.51E-07
 Optimization of the real space projectors (new method)

 maximal supplied QI-value         = 24.76
 optimisation between [QCUT,QGAM] = [ 11.64, 23.27] = [ 37.91,151.63] Ry
 Optimized for a Real-space Cutoff    1.04 Angstroem

   l    n(q)    QCUT    max X(q) W(low)/X(q) W(high)/X(q)  e(spline)
   0      7    11.635    20.381    0.14E-03    0.49E-03    0.18E-06
   0      7    11.635    15.268    0.16E-03    0.52E-03    0.19E-06
   1      7    11.635     5.964    0.30E-03    0.44E-03    0.22E-06
   1      7    11.635     5.382    0.27E-03    0.34E-03    0.19E-06
  PAW_PBE C 08Apr2002                   :
  PAW_PBE H 15Jun2001                   :
  PAW_PBE Mg_pv 13Apr2007               :
  PAW_PBE O 08Apr2002                   :

 POSCAR:  C  H Mg  O
  positions in direct lattice
 exchange correlation table for  LEXCH =        8
   RHO(1)=    0.500       N(1)  =     2000
   RHO(2)=  100.500       N(2)  =     4000

 ion  position               nearest neighbor table
   1  0.625  0.500  0.760-   3 1.10   2 1.10   4 1.10   5 1.10
   2  0.625  0.606  0.797-   1 1.10
   3  0.625  0.394  0.797-   1 1.10
   4  0.732  0.500  0.723-   1 1.10
   5  0.518  0.500  0.723-   1 1.10
   6  0.125  0.750  0.203-  38 2.11  40 2.11  41 2.11  48 2.11  57 2.11
   7  0.375  0.000  0.203-  39 2.11  40 2.11  41 2.11  49 2.11  56 2.11
   8  0.125  0.000  0.327-  40 2.11  39 2.11  38 2.11  46 2.11  55 2.11  44 2.12
   9  0.375  0.750  0.327-  41 2.11  39 2.11  38 2.11  47 2.11  54 2.11  45 2.12
  10  0.125  0.750  0.452-  61 2.11  45 2.11  44 2.11  52 2.11  38 2.12  42 2.15
  11  0.375  1.000  0.452-  53 2.11  45 2.11  44 2.11  60 2.11  39 2.12  43 2.15
  12  0.125  1.000  0.576-  44 2.11  59 2.11  43 2.11  42 2.11  50 2.11
  13  0.375  0.750  0.576-  45 2.11  58 2.11  43 2.11  51 2.11  42 2.11
  14  0.125  0.250  0.203-  46 2.11  40 2.11  48 2.11  49 2.11  65 2.11
  15  0.375  0.500  0.203-  47 2.11  41 2.11  48 2.11  49 2.11  64 2.11
  16  0.125  0.500  0.327-  48 2.11  46 2.11  47 2.11  38 2.11  63 2.11  52 2.12
  17  0.375  0.250  0.327-  49 2.11  46 2.11  47 2.11  39 2.11  62 2.11  53 2.12
  18  0.125  0.250  0.452-  53 2.11  69 2.11  44 2.11  52 2.11  46 2.12  50 2.15
  19  0.375  0.500  0.452-  68 2.11  45 2.11  53 2.11  52 2.11  47 2.12  51 2.15
  20  0.125  0.500  0.576-  52 2.11  67 2.11  51 2.11  42 2.11  50 2.11
  21  0.375  0.250  0.576-  53 2.11  66 2.11  43 2.11  51 2.11  50 2.11
  22  0.625  0.750  0.203-  54 2.11  41 2.11  56 2.11  57 2.11  64 2.11
  23  0.875  0.000  0.203-  55 2.11  40 2.11  56 2.11  57 2.11  65 2.11
  24  0.625  0.000  0.327-  56 2.11  54 2.11  55 2.11  39 2.11  62 2.11  60 2.12
  25  0.875  0.750  0.327-  57 2.11  54 2.11  55 2.11  38 2.11  63 2.11  61 2.12
  26  0.625  0.750  0.452-  68 2.11  45 2.11  61 2.11  60 2.11  54 2.13  58 2.15
  27  0.875  0.000  0.452-  69 2.11  61 2.11  44 2.11  60 2.11  55 2.12  59 2.15
  28  0.625  1.000  0.576-  66 2.11  58 2.11  60 2.11  43 2.11  59 2.11
  29  0.875  0.750  0.576-  61 2.11  58 2.11  59 2.11  67 2.11  42 2.11
  30  0.625  0.250  0.203-  62 2.11  56 2.11  49 2.11  64 2.11  65 2.11
  31  0.875  0.500  0.203-  63 2.11  57 2.11  48 2.11  64 2.11  65 2.11
  32  0.625  0.500  0.327-  64 2.11  54 2.11  62 2.11  63 2.11  47 2.11  68 2.12
  33  0.875  0.250  0.327-  65 2.11  55 2.11  62 2.11  63 2.11  46 2.11  69 2.12
  34  0.625  0.250  0.452-  68 2.11  53 2.11  69 2.11  60 2.11  62 2.13  66 2.15
  35  0.875  0.500  0.452-  68 2.11  61 2.11  69 2.11  52 2.11  63 2.12  67 2.15
  36  0.625  0.500  0.576-  66 2.11  58 2.11  51 2.11  67 2.11  68 2.12
  37  0.875  0.250  0.576-  69 2.11  66 2.11  59 2.11  67 2.11  50 2.11
  38  0.125  0.750  0.327-   6 2.11   8 2.11   9 2.11  16 2.11  25 2.11  10 2.12
  39  0.375  0.000  0.327-   7 2.11   8 2.11   9 2.11  17 2.11  24 2.11  11 2.12
  40  0.125  0.000  0.203-   8 2.11   7 2.11   6 2.11  14 2.11  23 2.11
  41  0.375  0.750  0.203-   9 2.11   7 2.11   6 2.11  15 2.11  22 2.11
  42  0.125  0.750  0.578-  12 2.11  20 2.11  29 2.11  13 2.11  10 2.15
  43  0.375  0.000  0.579-  21 2.11  13 2.11  12 2.11  28 2.11  11 2.15
  44  0.125  1.000  0.452-  10 2.11  18 2.11  12 2.11  11 2.11  27 2.11   8 2.12
  45  0.375  0.750  0.452-  13 2.11  10 2.11  11 2.11  19 2.11  26 2.11   9 2.12
  46  0.125  0.250  0.327-  14 2.11   8 2.11  16 2.11  17 2.11  33 2.11  18 2.12
  47  0.375  0.500  0.327-  15 2.11   9 2.11  16 2.11  17 2.11  32 2.11  19 2.12
  48  0.125  0.500  0.203-  16 2.11  14 2.11  15 2.11   6 2.11  31 2.11
  49  0.375  0.250  0.203-  17 2.11  14 2.11  15 2.11   7 2.11  30 2.11
  50  0.125  0.250  0.578-  12 2.11  20 2.11  21 2.11  37 2.11  18 2.15
  51  0.375  0.500  0.578-  20 2.11  21 2.11  13 2.11  36 2.11  19 2.15
  52  0.125  0.500  0.452-  20 2.11  10 2.11  18 2.11  19 2.11  35 2.11  16 2.12
  53  0.375  0.250  0.452-  21 2.11  18 2.11  11 2.11  19 2.11  34 2.11  17 2.12
  54  0.625  0.750  0.327-  22 2.11   9 2.11  24 2.11  25 2.11  32 2.11  26 2.13
  55  0.875  0.000  0.327-  23 2.11   8 2.11  24 2.11  25 2.11  33 2.11  27 2.12
  56  0.625  0.000  0.203-  24 2.11  22 2.11  23 2.11   7 2.11  30 2.11
  57  0.875  0.750  0.203-  25 2.11  22 2.11  23 2.11   6 2.11  31 2.11
  58  0.625  0.750  0.578-  28 2.11  13 2.11  29 2.11  36 2.11  26 2.15
  59  0.875  0.000  0.579-  37 2.11  29 2.11  12 2.11  28 2.11  27 2.15
  60  0.625  1.000  0.452-  28 2.11  27 2.11  11 2.11  26 2.11  34 2.11  24 2.12
  61  0.875  0.750  0.452-  29 2.11  10 2.11  27 2.11  35 2.11  26 2.11  25 2.12
  62  0.625  0.250  0.327-  30 2.11  24 2.11  17 2.11  32 2.11  33 2.11  34 2.13
  63  0.875  0.500  0.327-  31 2.11  25 2.11  16 2.11  32 2.11  33 2.11  35 2.12
  64  0.625  0.500  0.203-  32 2.11  22 2.11  30 2.11  31 2.11  15 2.11
  65  0.875  0.250  0.203-  33 2.11  23 2.11  30 2.11  31 2.11  14 2.11
  66  0.625  0.250  0.578-  28 2.11  21 2.11  37 2.11  36 2.11  34 2.15
  67  0.875  0.500  0.578-  20 2.11  29 2.11  37 2.11  36 2.11  35 2.15
  68  0.625  0.500  0.452-  35 2.11  19 2.11  34 2.11  26 2.11  36 2.12  32 2.12
  69  0.875  0.250  0.452-  37 2.11  18 2.11  27 2.11  35 2.11  34 2.11  33 2.12

IMPORTANT INFORMATION: All symmetrisations will be switched off!
NOSYMM: (Re-)initialisation of all symmetry stuff for point group C_1.

                                     Primitive cell

  volume of cell :    1211.2538

  direct lattice vectors                    reciprocal lattice vectors
     8.440984654  0.000000000  0.000000000     0.118469591  0.000000000  0.000000000
     0.000000000  8.440984654  0.000000000     0.000000000  0.118469591  0.000000000
     0.000000000  0.000000000 17.000000000     0.000000000  0.000000000  0.058823529

  length of vectors
     8.440984654  8.440984654 17.000000000     0.118469591  0.118469591  0.058823529

  position of ions in fractional coordinates (direct lattice)
     0.624874723  0.499997702  0.760129327
     0.624874667  0.606400246  0.797180401
     0.624874661  0.393601766  0.797179749
     0.731963124  0.500000082  0.723349296
     0.517786221  0.500000086  0.723349275
     0.124874701  0.750000001  0.202819599
     0.374874701  0.000000001  0.202819599
     0.124874701  0.000000001  0.326951726
     0.374874701  0.750000001  0.326951726
     0.124874704  0.750032169  0.451932988
     0.374867470  0.999999999  0.451925450
     0.124874712  0.999999992  0.575783509
     0.374991216  0.750097341  0.575612586
     0.124874701  0.250000001  0.202819599
     0.374874701  0.500000001  0.202819599
     0.124874701  0.500000001  0.326951726
     0.374874701  0.250000001  0.326951726
     0.124874708  0.249967823  0.451932992
     0.374983146  0.500000002  0.451948183
     0.124874712  0.499999995  0.575568334
     0.374991205  0.249902632  0.575612581
     0.624874701  0.750000001  0.202819599
     0.874874701  0.000000001  0.202819599
     0.624874701  0.000000001  0.326951726
     0.874874701  0.750000001  0.326951726
     0.624874696  0.749901113  0.451984522
     0.874881955  0.000000006  0.451925445
     0.624874708  0.999999999  0.575658965
     0.874758227  0.750097345  0.575612601
     0.624874701  0.250000001  0.202819599
     0.874874701  0.500000001  0.202819599
     0.624874701  0.500000001  0.326951726
     0.874874701  0.250000001  0.326951726
     0.624874702  0.250098875  0.451984502
     0.874766288  0.499999992  0.451948190
     0.624874715  0.499999989  0.576325730
     0.874758224  0.249902626  0.575612601
     0.124874701  0.750000001  0.326951726
     0.374874701  0.000000001  0.326951726
     0.124874701  0.000000001  0.202819599
     0.374874701  0.750000001  0.202819599
     0.124874712  0.750041777  0.578461591
     0.374814565  0.000000004  0.578506137
     0.124874716  0.999999982  0.451658755
     0.374798799  0.750012793  0.451587177
     0.124874701  0.250000001  0.326951726
[...]
   O         236.310          5.024         21.017          3.89203762
   O         196.885          4.873         19.184          3.55257416
   O         196.919          4.873         19.186          3.55287644
   O         194.119          4.862         19.049          3.52752673
   O         194.906          4.865         19.087          3.53467021
   O         241.087          5.040         21.228          3.93118485
   O         241.163          5.041         21.232          3.93180113

  vdW correction parametrized for the method Ðr?    þ

  IVDW =  21
  VDW_RADIUS =    50.000 A
  VDW_IDAMPF =  0
  VDW_S6 =     1.000
  VDW_SR =     0.960
  VDW_D =    20.000
  LVDW_ONECELL = F F F
  LVDW_SAMETYPE T T T T
  LVDW_EWALD = F

  Number of pair interactions contributing to vdW energy: 1037894
  Edisp (eV):   -4.02408

 VOLUME and BASIS-vectors are now :
  energy-cutoff  :      520.00
  volume of cell :     1211.25
      direct lattice vectors                 reciprocal lattice vectors
     8.440984654  0.000000000  0.000000000     0.118469591  0.000000000  0.000000000
     0.000000000  8.440984654  0.000000000     0.000000000  0.118469591  0.000000000
     0.000000000  0.000000000 17.000000000     0.000000000  0.000000000  0.058823529

  length of vectors
     8.440984654  8.440984654 17.000000000     0.118469591  0.118469591  0.058823529

 FORCES acting on ions
    electron-ion (+dipol)            ewald-force                    non-local-force                 convergence-correction
   0.556E-05 -.835E-03 -.589E+03   -.191E-04 0.142E-02 0.589E+03   -.213E-02 0.824E-03 -.153E+00   0.227E-05 -.904E-06 0.701E-01
   0.203E-04 -.431E+02 -.136E+03   -.216E-04 0.474E+02 0.139E+03   -.901E-05 -.437E+01 -.306E+01   0.253E-06 0.353E-03 0.157E-01
   0.230E-04 0.431E+02 -.136E+03   -.245E-04 -.474E+02 0.139E+03   -.877E-05 0.437E+01 -.306E+01   0.253E-06 -.353E-03 0.157E-01
   -.432E+02 -.834E-03 -.158E+03   0.477E+02 0.885E-03 0.156E+03   -.443E+01 -.117E-03 0.295E+01   -.300E-03 -.137E-06 0.192E-01
   0.432E+02 -.835E-03 -.158E+03   -.477E+02 0.887E-03 0.156E+03   0.443E+01 -.117E-03 0.295E+01   0.301E-03 -.137E-06 0.192E-01
   0.665E-04 -.623E+00 0.171E+04   -.250E-05 0.623E+00 -.171E+04   -.658E-03 0.162E-03 -.677E+01   0.658E-06 0.171E-03 -.138E+00
   0.646E+00 0.417E-05 0.171E+04   -.648E+00 -.532E-05 -.171E+04   0.403E-03 0.236E-06 -.677E+01   -.212E-03 0.784E-06 -.138E+00
   0.645E-04 -.115E-05 0.577E+03   -.610E-05 0.568E-06 -.578E+03   -.283E-03 -.970E-07 0.484E+00   0.799E-06 -.192E-06 -.943E-01
   0.676E+00 -.718E+00 0.578E+03   -.675E+00 0.718E+00 -.579E+03   -.654E-03 -.183E-03 0.465E+00   0.709E-04 -.166E-03 -.938E-01
   0.741E-04 -.234E+01 -.547E+03   -.193E-04 0.234E+01 0.547E+03   0.184E-03 -.650E-02 -.187E+00   0.109E-05 -.712E-03 -.134E-01
   0.232E+01 0.404E-04 -.547E+03   -.231E+01 -.402E-04 0.548E+03   -.351E-02 -.112E-05 -.171E+00   0.409E-03 0.934E-06 -.136E-01
   0.380E-04 0.656E-04 -.168E+04   0.194E-04 -.665E-04 0.167E+04   -.379E-03 0.381E-06 0.572E+01   0.269E-06 0.181E-06 0.725E-01
   0.147E+02 -.148E+02 -.166E+04   -.146E+02 0.149E+02 0.165E+04   -.278E-01 -.497E-01 0.574E+01   0.144E-02 -.231E-02 0.728E-01
   0.663E-04 0.623E+00 0.171E+04   -.233E-05 -.623E+00 -.171E+04   -.658E-03 -.163E-03 -.677E+01   0.556E-06 -.171E-03 -.138E+00
   0.814E+00 -.448E-05 0.171E+04   -.814E+00 0.526E-05 -.170E+04   -.533E-03 -.373E-06 -.677E+01   -.299E-03 -.149E-06 -.137E+00
   0.719E-04 0.569E-06 0.578E+03   -.154E-04 -.370E-06 -.579E+03   -.283E-03 0.301E-06 0.451E+00   0.240E-05 -.574E-06 -.937E-01
   0.676E+00 0.718E+00 0.578E+03   -.675E+00 -.718E+00 -.579E+03   -.654E-03 0.184E-03 0.465E+00   0.709E-04 0.166E-03 -.938E-01
   0.927E-04 0.234E+01 -.547E+03   -.348E-04 -.234E+01 0.547E+03   0.181E-03 0.650E-02 -.187E+00   0.865E-06 0.711E-03 -.134E-01
   0.391E+01 -.168E-04 -.541E+03   -.388E+01 0.168E-04 0.541E+03   -.253E-01 -.204E-05 -.181E+00   0.477E-03 -.636E-06 -.118E-01
   0.253E-04 -.567E-04 -.166E+04   0.334E-04 0.567E-04 0.166E+04   -.991E-03 0.379E-06 0.571E+01   0.175E-05 -.418E-06 0.724E-01
   0.147E+02 0.148E+02 -.166E+04   -.146E+02 -.149E+02 0.165E+04   -.278E-01 0.497E-01 0.574E+01   0.144E-02 0.231E-02 0.728E-01
   0.606E-04 -.791E+00 0.171E+04   0.273E-05 0.789E+00 -.170E+04   -.673E-03 0.107E-02 -.677E+01   -.720E-07 0.255E-03 -.137E+00
   -.646E+00 0.487E-05 0.171E+04   0.648E+00 -.566E-05 -.171E+04   -.173E-02 0.536E-06 -.677E+01   0.212E-03 0.940E-07 -.138E+00
   0.534E-04 0.250E-04 0.578E+03   0.536E-05 -.270E-04 -.579E+03   -.281E-03 0.869E-06 0.436E+00   -.976E-06 0.297E-06 -.939E-01
   -.676E+00 -.718E+00 0.578E+03   0.675E+00 0.718E+00 -.579E+03   0.875E-04 -.181E-03 0.465E+00   -.717E-04 -.166E-03 -.938E-01
   -.746E-05 -.398E+01 -.540E+03   0.685E-04 0.396E+01 0.541E+03   -.251E-03 0.197E-01 -.305E+00   -.149E-05 -.786E-03 -.122E-01
   -.232E+01 0.782E-04 -.547E+03   0.231E+01 -.770E-04 0.548E+03   0.386E-02 -.242E-05 -.171E+00   -.408E-03 0.516E-06 -.136E-01
   0.904E-05 0.151E-03 -.167E+04   0.492E-04 -.141E-03 0.166E+04   -.243E-03 -.778E-05 0.572E+01   -.215E-05 0.751E-06 0.720E-01
   -.147E+02 -.148E+02 -.166E+04   0.146E+02 0.149E+02 0.165E+04   0.264E-01 -.493E-01 0.574E+01   -.144E-02 -.231E-02 0.728E-01
   0.616E-04 0.791E+00 0.171E+04   0.234E-05 -.789E+00 -.170E+04   -.673E-03 -.107E-02 -.677E+01   -.560E-06 -.255E-03 -.137E+00
   -.814E+00 -.509E-05 0.171E+04   0.814E+00 0.551E-05 -.170E+04   -.816E-03 0.197E-06 -.677E+01   0.297E-03 -.559E-06 -.137E+00
   0.430E-04 -.257E-04 0.579E+03   0.163E-04 0.276E-04 -.579E+03   -.284E-03 -.714E-06 0.489E+00   -.411E-06 -.496E-06 -.932E-01
   -.676E+00 0.718E+00 0.578E+03   0.675E+00 -.718E+00 -.579E+03   0.870E-04 0.181E-03 0.465E+00   -.716E-04 0.167E-03 -.938E-01
   0.333E-04 0.398E+01 -.540E+03   0.282E-04 -.396E+01 0.541E+03   -.253E-03 -.197E-01 -.305E+00   -.182E-05 0.785E-03 -.122E-01
   -.391E+01 -.267E-04 -.541E+03   0.388E+01 0.287E-04 0.541E+03   0.252E-01 -.216E-05 -.180E+00   -.480E-03 -.149E-05 -.118E-01
   0.727E-05 -.257E-03 -.161E+04   0.463E-04 0.238E-03 0.160E+04   -.981E-03 0.114E-04 0.553E+01   0.218E-06 0.122E-06 0.792E-01
   -.147E+02 0.148E+02 -.166E+04   0.146E+02 -.149E+02 0.165E+04   0.265E-01 0.493E-01 0.574E+01   -.144E-02 0.231E-02 0.728E-01
   0.168E-04 -.517E+00 0.433E+03   -.831E-05 0.511E+00 -.433E+03   0.254E-02 0.719E-02 -.117E+00   0.103E-05 -.133E-03 -.728E-01
   0.512E+00 0.872E-05 0.433E+03   -.504E+00 -.969E-05 -.433E+03   -.682E-02 -.266E-06 -.114E+00   0.566E-04 0.767E-06 -.728E-01
   0.202E-04 0.210E-05 0.129E+04   -.130E-05 -.274E-05 -.129E+04   -.174E-02 0.139E-06 0.304E+01   0.295E-06 0.111E-06 -.105E+00
   0.547E+00 -.529E+00 0.129E+04   -.547E+00 0.529E+00 -.129E+04   -.123E-02 0.597E-03 0.304E+01   -.188E-03 0.155E-03 -.105E+00
   -.140E-04 -.613E+01 -.127E+04   0.279E-04 0.612E+01 0.127E+04   -.177E-02 0.386E-02 -.450E+01   0.806E-06 -.101E-02 0.548E-01
   0.588E+01 0.108E-03 -.127E+04   -.588E+01 -.109E-03 0.128E+04   -.359E-02 -.927E-06 -.451E+01   0.496E-03 0.807E-06 0.547E-01
   0.216E-04 0.178E-05 -.407E+03   -.150E-04 -.197E-05 0.407E+03   -.176E-02 -.105E-06 0.208E+00   -.269E-07 0.675E-06 -.142E-01
   0.231E+01 -.232E+01 -.403E+03   -.229E+01 0.231E+01 0.402E+03   -.102E-01 -.837E-03 0.247E+00   0.382E-03 -.630E-03 -.136E-01
   0.169E-04 0.517E+00 0.433E+03   -.942E-05 -.511E+00 -.433E+03   0.254E-02 -.719E-02 -.117E+00   0.125E-05 0.134E-03 -.728E-01
   0.560E+00 -.706E-05 0.434E+03   -.568E+00 0.795E-05 -.433E+03   0.123E-01 0.103E-06 -.115E+00   0.589E-04 -.560E-06 -.725E-01
   0.211E-04 -.292E-05 0.129E+04   -.224E-05 0.268E-05 -.129E+04   -.173E-02 0.182E-06 0.304E+01   0.791E-06 -.100E-06 -.105E+00
   0.547E+00 0.529E+00 0.129E+04   -.547E+00 -.529E+00 -.129E+04   -.123E-02 -.597E-03 0.304E+01   -.188E-03 -.155E-03 -.105E+00
   0.141E-04 0.613E+01 -.127E+04   -.102E-05 -.612E+01 0.127E+04   -.177E-02 -.386E-02 -.450E+01   0.723E-06 0.101E-02 0.548E-01
   0.189E+02 -.102E-03 -.125E+04   -.188E+02 0.934E-04 0.125E+04   -.692E-01 0.778E-05 -.444E+01   0.224E-02 0.186E-07 0.567E-01
   0.200E-04 -.265E-05 -.403E+03   -.964E-05 0.219E-05 0.403E+03   0.474E-02 0.339E-06 0.263E+00   0.169E-05 0.488E-07 -.135E-01
   0.231E+01 0.232E+01 -.403E+03   -.229E+01 -.231E+01 0.402E+03   -.102E-01 0.834E-03 0.247E+00   0.382E-03 0.629E-03 -.136E-01
   -.503E-05 -.568E+00 0.434E+03   0.130E-04 0.579E+00 -.433E+03   0.254E-02 -.123E-01 -.126E+00   -.175E-06 -.137E-03 -.725E-01
   -.512E+00 0.152E-04 0.433E+03   0.504E+00 -.141E-04 -.433E+03   0.119E-01 0.212E-06 -.114E+00   -.572E-04 -.640E-06 -.728E-01
   0.187E-04 0.465E-05 0.129E+04   0.137E-05 -.552E-05 -.129E+04   -.174E-02 0.678E-06 0.303E+01   -.105E-05 0.251E-06 -.105E+00
   -.547E+00 -.529E+00 0.129E+04   0.547E+00 0.529E+00 -.129E+04   -.224E-02 0.598E-03 0.304E+01   0.188E-03 0.155E-03 -.105E+00
   -.363E-04 -.187E+02 -.125E+04   0.541E-04 0.186E+02 0.125E+04   -.171E-02 0.794E-01 -.455E+01   -.167E-05 -.259E-02 0.558E-01
   -.588E+01 0.116E-03 -.127E+04   0.588E+01 -.118E-03 0.128E+04   0.300E-04 0.514E-06 -.451E+01   -.496E-03 0.179E-07 0.547E-01
   -.108E-04 0.359E-04 -.403E+03   0.246E-04 -.343E-04 0.403E+03   0.472E-02 -.110E-05 0.226E+00   -.574E-06 0.987E-07 -.138E-01
   -.231E+01 -.232E+01 -.403E+03   0.229E+01 0.231E+01 0.402E+03   0.122E-01 0.154E-02 0.244E+00   -.382E-03 -.631E-03 -.136E-01
   0.111E-05 0.568E+00 0.434E+03   0.802E-05 -.579E+00 -.433E+03   0.254E-02 0.123E-01 -.126E+00   -.792E-06 0.138E-03 -.725E-01
   -.560E+00 -.998E-05 0.434E+03   0.568E+00 0.107E-04 -.433E+03   -.718E-02 -.473E-06 -.115E+00   -.598E-04 -.921E-06 -.725E-01
   0.161E-04 -.431E-05 0.129E+04   0.235E-05 0.548E-05 -.129E+04   -.174E-02 -.300E-06 0.304E+01   0.577E-06 -.507E-06 -.105E+00
   -.547E+00 0.529E+00 0.129E+04   0.547E+00 -.529E+00 -.129E+04   -.224E-02 -.598E-03 0.304E+01   0.188E-03 -.154E-03 -.105E+00
   -.145E-04 0.187E+02 -.125E+04   0.290E-04 -.186E+02 0.125E+04   -.171E-02 -.794E-01 -.455E+01   -.148E-05 0.259E-02 0.558E-01
   -.189E+02 -.918E-04 -.125E+04   0.188E+02 0.859E-04 0.125E+04   0.657E-01 0.729E-05 -.444E+01   -.224E-02 -.907E-06 0.567E-01
   -.231E-04 -.385E-04 -.399E+03   0.316E-04 0.363E-04 0.399E+03   -.176E-02 0.237E-05 0.101E+00   -.796E-06 0.261E-06 -.127E-01
   -.231E+01 0.232E+01 -.403E+03   0.229E+01 -.231E+01 0.402E+03   0.122E-01 -.154E-02 0.244E+00   -.382E-03 0.631E-03 -.136E-01
   0.230E-02 -.123E-02 0.230E+02   -.153E-12 0.711E-13 0.136E-11   -.127E-01 0.112E-02 -.177E+02   -.112E-05 -.509E-05 -.231E+01

 POSITION                                       TOTAL-FORCE (eV/Angst)
      5.27456      4.22047     12.92220        -0.002077      0.001471      0.011957
      5.27456      5.11862     13.55207         0.000041     -0.219082     -0.152847
      5.27456      3.32239     13.55206         0.000041      0.217726     -0.152003
      6.17849      4.22049     12.29694        -0.189808     -0.000072      0.145193
      4.37063      4.22049     12.29694         0.189955     -0.000072      0.145213
      1.05407      6.33074      3.44793         0.000194     -0.000120      0.551154
      3.16431      0.00000      3.44793        -0.000218      0.000000      0.551877
      1.05407      0.00000      5.55818        -0.000126     -0.000000      0.040460
      3.16431      6.33074      5.55818         0.000410      0.000022      0.040731
      1.05407      6.33101      7.68286        -0.000096     -0.001361      0.044995
      3.16425      8.44098      7.68273         0.002759      0.000000      0.045062
      1.05407      8.44098      9.78832        -0.000447      0.000000     -0.156249
      3.16530      6.33156      9.78541        -0.004156      0.007229     -0.155754
      1.05407      2.11025      3.44793         0.000194      0.000121      0.551155
      3.16431      4.22049      3.44793         0.000006      0.000001      0.551272
      1.05407      4.22049      5.55818        -0.000125      0.000001      0.041842
      3.16431      2.11025      5.55818         0.000410     -0.000021      0.040732
      1.05407      2.10997      7.68286        -0.000097      0.001362      0.044997
      3.16523      4.22049      7.68312         0.000084     -0.000002      0.047219
      1.05407      4.22049      9.78466        -0.000424      0.000001     -0.154568
      3.16530      2.10942      9.78541        -0.004152     -0.007226     -0.155747
      5.27456      6.33074      3.44793         0.000178     -0.000391      0.552789
      7.38480      0.00000      3.44793         0.000598      0.000000      0.551881
      5.27456      0.00000      5.55818        -0.000124     -0.000000      0.044807
      7.38480      6.33074      5.55818        -0.000666      0.000024      0.040735
      5.27456      6.32990      7.68374        -0.000117      0.001723      0.047682
      7.38487      0.00000      7.68273        -0.002971     -0.000000      0.045079
      5.27456      8.44098      9.78620        -0.000310      0.000002     -0.159332
      7.38382      6.33156      9.78541         0.003452      0.007287     -0.155951
      5.27456      2.11025      3.44793         0.000178      0.000392      0.552788
      7.38480      4.22049      3.44793         0.000346      0.000001      0.551274
      5.27456      4.22049      5.55818        -0.000126      0.000001      0.045937
      7.38480      2.11025      5.55818        -0.000665     -0.000023      0.040734
      5.27456      2.11108      7.68374        -0.000118     -0.001722      0.047683
      7.38389      4.22049      7.68312        -0.000340     -0.000001      0.047188
      5.27456      4.22049      9.79754        -0.000501     -0.000005     -0.112533
      7.38382      2.10942      9.78541         0.003450     -0.007283     -0.155945
      1.05407      6.33074      5.55818         0.002160      0.002444      0.054219
      3.16431      0.00000      5.55818        -0.001124      0.000000      0.054674
      1.05407      0.00000      3.44793        -0.001288      0.000000     -0.440747
      3.16431      6.33074      3.44793        -0.001066      0.000128     -0.441080
      1.05407      6.33109      9.83385        -0.001327     -0.006759     -0.110714
      3.16380      0.00000      9.83460         0.004340     -0.000001     -0.114991
      1.05407      8.44098      7.67820        -0.001298      0.000001      0.004121
      3.16367      6.33085      7.67698         0.003328     -0.003821      0.015515
      1.05407      2.11025      5.55818         0.002160     -0.002443      0.054219
      3.16431      4.22049      5.55818         0.005282      0.000001      0.056711
      1.05407      4.22049      3.44793        -0.001286      0.000000     -0.440245
      3.16431      2.11025      3.44793        -0.001065     -0.000127     -0.441080
      1.05407      2.10989      9.83385        -0.001328      0.006761     -0.110711
      3.16220      4.22049      9.83429        -0.019899      0.000002     -0.113357
      1.05407      4.22049      7.67618         0.003983      0.000000      0.022806
      3.16367      2.11014      7.67698         0.003328      0.003823      0.015518
      5.27456      6.33074      5.55818         0.002155     -0.004015      0.056136
      7.38480      0.00000      5.55818         0.005438      0.000001      0.054673
      5.27456      0.00000      3.44793        -0.001288      0.000001     -0.442075
      7.38480      6.33074      3.44793        -0.001512      0.000129     -0.441080
      5.27456      6.33193      9.82917        -0.001325      0.023722     -0.127687
      7.38531      0.00000      9.83460        -0.007046     -0.000001     -0.114977
      5.27456      8.44098      7.67598         0.003969      0.000001      0.017685
      7.38544      6.33085      7.67698        -0.001468     -0.001888      0.012855
      5.27456      2.11025      5.55818         0.002156      0.004015      0.056138
      7.38480      4.22049      5.55818        -0.000967     -0.000000      0.056713
      5.27456      4.22049      3.44793        -0.001290      0.000001     -0.441249
      7.38480      2.11025      3.44793        -0.001513     -0.000127     -0.441080
      5.27456      2.10905      9.82917        -0.001326     -0.023725     -0.127691
      7.38692      4.22049      9.83429         0.017256      0.000002     -0.113317
      5.27456      4.22049      7.67977        -0.001303      0.000001      0.005739
      7.38544      2.11014      7.67698        -0.001467      0.001890      0.012853
    total drift:                               -0.003946     -0.000039     -0.025040

  FREE ENERGIE OF THE ION-ELECTRON SYSTEM (eV)
  free  energy   TOTEN  =      -496.32358027 eV

  energy  without entropy=     -496.32358027  energy(sigma->0) =     -496.32358027