 vasp.6.3.0 20Jan22 (build Dec 25 2023 18:06:01) complex
 executed on        HPECrayEX_GCC date 2024.01.24  06:34:25

 INCAR:
   SYSTEM = MgO-rocksalt
   ISMEAR = 0
   SIGMA = 0.05
   EDIFF = 1E-8
   ALGO = ALL
   ISTART = 0
   IBRION = 5
   POTIM = 0.01
   NFREE = 2
   ISYM = 0
   DIPOL = 0.5 0.5 0.5
   IDIPOL = 3
   LDIPOL = .TRUE.
   GGA = RE
   IVDW = 13
   VDW_S8 = 1.7468
   VDW_A1 = 0.5363
   VDW_A2 = 3.0726
   ENCUT = 600
   PREC = Accurate
   LASPH = .TRUE.
   LREAL = .FALSE.
   ISPIN = 1
   NELM = 200
   NELMIN = 8
   NCORE = 8
   KPAR = 1
   LWAVE = .FALSE.
   LCHARG = .FALSE.

 POTCAR:    PAW_PBE N 08Apr2002
 POTCAR:    PAW_PBE H 15Jun2001
 POTCAR:    PAW_PBE Ti_pv 07Sep2000
 POTCAR:    PAW_PBE O 08Apr2002
 POTCAR:    PAW_PBE N 08Apr2002
   VRHFIN =N: s2p3

   TITEL  = PAW_PBE N 08Apr2002
   POMASS =   14.001; ZVAL   =    5.000    mass and valenz
   ENMAX  =  400.000; ENMIN  =  300.000 eV

   TITEL  = PAW_PBE H 15Jun2001
   POMASS =    1.000; ZVAL   =    1.000    mass and valenz
   ENMAX  =  250.000; ENMIN  =  200.000 eV

   TITEL  = PAW_PBE Ti_pv 07Sep2000
   POMASS =   47.880; ZVAL   =   10.000    mass and valenz
   ENMAX  =  222.335; ENMIN  =  166.751 eV

   TITEL  = PAW_PBE O 08Apr2002
   POMASS =   16.000; ZVAL   =    6.000    mass and valenz
   ENMAX  =  400.000; ENMIN  =  300.000 eV

  PAW_PBE N 08Apr2002                   :
  PAW_PBE H 15Jun2001                   :
  PAW_PBE Ti_pv 07Sep2000               :
  PAW_PBE O 08Apr2002                   :

 POSCAR:  N  H Ti  O
  positions in direct lattice
|           W    W    AA    RRRRR   N    N  II  N    N   GGGG   !!!           |
|           W    W   A  A   R    R  NN   N  II  NN   N  G    G  !!!           |
|           W    W  A    A  R    R  N N  N  II  N N  N  G       !!!           |
|           W WW W  AAAAAA  RRRRR   N  N N  II  N  N N  G  GGG   !            |
|           WW  WW  A    A  R   R   N   NN  II  N   NN  G    G                |
|           W    W  A    A  R    R  N    N  II  N    N   GGGG   !!!           |
|     Specifying the vdW parameters                                           |
|     VDW_S8 = 1.747                                                          |
|     VDW_A1 = 0.536                                                          |
|     VDW_A2 = 3.073                                                          |
|     in the INCAR file will overwrite the defaults for revpbe. Please        |
|     make sure that is what you intended.                                    |

 ion  position               nearest neighbor table
   1  0.612  0.500  0.778-   2 1.02   4 1.02   3 1.02  52 2.30
   2  0.549  0.500  0.807-   1 1.02
   3  0.671  0.428  0.781-   1 1.02
   4  0.671  0.572  0.781-   1 1.02
   5  0.808  0.833  0.295-  89 1.94  55 1.94  57 1.94  54 1.99  56 1.99  22 3.05   8 3.05   6 3.05

   6  0.592  0.667  0.327-  53 1.94 120 1.94  56 1.94  58 1.94  57 1.99  59 1.99  37 3.05   7 3.05
                             5 3.05  11 3.08
   7  0.308  0.667  0.295- 125 1.94  59 1.94  61 1.94  53 1.99  60 1.99  40 3.05   6 3.05   8 3.05

   8  0.092  0.833  0.327-  54 1.94  92 1.94  60 1.94  62 1.94  61 1.99  55 1.99  23 3.05   5 3.05
                             7 3.05   9 3.08
   9  0.944  0.833  0.423-  63 1.92  97 1.93  65 1.93  55 1.98  64 1.98  62 2.00  12 3.00  10 3.05
                            26 3.05   8 3.08
  10  0.726  0.666  0.451-  58 1.89 128 1.93  64 1.94  66 1.96  67 1.99  65 2.00  11 3.01   9 3.05
                            41 3.05  15 3.11
  11  0.444  0.666  0.423-  67 1.93 133 1.93  69 1.94  59 1.97  68 1.98  58 2.01  10 3.01  12 3.05
                            44 3.05   6 3.08
  12  0.225  0.833  0.452-  62 1.89 100 1.94  68 1.94  70 1.97  63 1.98  69 2.01   9 3.00  27 3.05
                            11 3.05  13 3.11
  13  0.085  0.833  0.550-  71 1.92 105 1.93  73 1.93  72 1.97  63 2.00  70 2.01  16 2.95  14 3.04
                            30 3.05  12 3.11
  14  0.865  0.666  0.576-  66 1.86 136 1.93  72 1.95  75 1.95  73 2.01  74 2.01  15 2.97  13 3.04
                            45 3.06  19 3.17
  15  0.584  0.666  0.550- 141 1.93  77 1.93  75 1.93  76 1.98  67 1.98  66 2.01  14 2.97  16 3.05
                            48 3.06  10 3.11
  16  0.363  0.833  0.576-  70 1.86 108 1.94  76 1.94  71 1.95  78 2.00  77 2.02  13 2.95  15 3.05
                            31 3.05
  17  0.231  0.833  0.680-  79 1.86  81 1.93 113 1.94  80 2.00  71 2.09  78 2.10  20 2.85  34 3.07
                            18 3.08
  18  0.001  0.666  0.700-  74 1.78  82 1.84 144 1.97  80 1.99  81 2.07  19 2.86  17 3.08  49 3.10

[...]

  21  0.808  0.167  0.295-  89 1.94  87 1.94 121 1.94  86 1.99  88 1.99  22 3.05  24 3.05  38 3.05

[...]

  37  0.808  0.500  0.295-  57 1.94 121 1.94 119 1.94 120 1.99 118 1.99   6 3.05  38 3.05  40 3.05

  38  0.592  0.333  0.327- 117 1.94 120 1.94  88 1.94 122 1.94 121 1.99 123 1.99  37 3.05  39 3.05
                            21 3.05  43 3.08
  39  0.308  0.333  0.295- 125 1.94 123 1.94  93 1.94 124 1.99 117 1.99  40 3.05  38 3.05  24 3.05

  40  0.092  0.500  0.327- 118 1.94  60 1.94 124 1.94 126 1.94 125 1.99 119 1.99  39 3.05   7 3.05
                            37 3.05  41 3.07
  41  0.946  0.500  0.422- 127 1.92  65 1.94 129 1.94 119 1.97 126 1.99 128 2.00  44 2.99  10 3.05
                            42 3.05  40 3.07
  42  0.726  0.334  0.451- 122 1.89 128 1.93  96 1.94 130 1.96 131 1.99 129 2.00  43 3.01  25 3.05
                            41 3.05  47 3.11
  43  0.444  0.334  0.423- 131 1.93 133 1.93 101 1.94 123 1.97 132 1.98 122 2.01  42 3.01  28 3.05
                            44 3.05  38 3.08
  44  0.226  0.500  0.453- 126 1.92  68 1.94 132 1.94 127 1.96 134 1.97 133 2.01  41 2.99  11 3.05
                            43 3.05  45 3.08
  45  0.088  0.500  0.550- 135 1.91 137 1.93  73 1.93 134 1.98 136 2.00 127 2.01  48 2.96  14 3.06
                            46 3.06  44 3.08
  46  0.865  0.334  0.576- 130 1.86 136 1.93 104 1.95 139 1.95 137 2.01 138 2.01  47 2.97  29 3.04
                            45 3.06  51 3.17
  47  0.584  0.334  0.550- 141 1.93 109 1.93 139 1.93 140 1.98 131 1.98 130 2.01  46 2.97  32 3.05
                            48 3.06  42 3.11
  48  0.365  0.500  0.580- 134 1.92  76 1.94 140 1.94 135 1.94 142 1.98 141 2.03  45 2.96  15 3.06
                            47 3.06  49 3.13
  49  0.235  0.500  0.681- 143 1.86 145 1.93  81 1.93 142 2.03 144 2.03 135 2.10  52 2.87  18 3.10
                            50 3.10  48 3.13
  50  0.001  0.334  0.700- 138 1.78 146 1.84 144 1.97 112 1.99 145 2.07  51 2.86  33 3.08  49 3.10

  51  0.729  0.333  0.678- 146 1.89 148 1.93 116 1.94 147 1.99 139 2.04 138 2.10  50 2.86  36 3.08
                            52 3.08  46 3.17
  52  0.506  0.500  0.706- 143 1.84 142 1.88  83 1.98 147 1.98 148 2.07   1 2.30  49 2.87  19 3.08
                            51 3.08
  53  0.488  0.667  0.269-   6 1.94   7 1.99
  54  0.988  0.833  0.269-   8 1.94   5 1.99
  55  0.911  0.833  0.353-   5 1.94   9 1.98   8 1.99
  56  0.627  0.833  0.321-  22 1.94   6 1.94   5 1.99
  57  0.772  0.667  0.300-  37 1.94   5 1.94   6 1.99
  58  0.624  0.667  0.395-  10 1.89   6 1.94  11 2.01
  59  0.411  0.667  0.353-   7 1.94  11 1.97   6 1.99
  60  0.127  0.667  0.321-  40 1.94   8 1.94   7 1.99
  61  0.272  0.833  0.300-  23 1.94   7 1.94   8 1.99
  62  0.124  0.833  0.395-  12 1.89   8 1.94   9 2.00
  63  0.049  0.833  0.480-   9 1.92  12 1.98  13 2.00
  64  0.764  0.833  0.448-  26 1.94  10 1.94   9 1.98
  65  0.909  0.667  0.427-   9 1.93  41 1.94  10 2.00
  66  0.763  0.666  0.520-  14 1.86  10 1.96  15 2.01
  67  0.549  0.666  0.480-  11 1.93  15 1.98  10 1.99
  68  0.264  0.667  0.448-  44 1.94  12 1.94  11 1.98
  69  0.408  0.833  0.427-  27 1.93  11 1.94  12 2.01
  70  0.263  0.833  0.521-  16 1.86  12 1.97  13 2.01
  71  0.192  0.833  0.607-  13 1.92  16 1.95  17 2.09
  72  0.903  0.833  0.573-  30 1.94  14 1.95  13 1.97
  73  0.050  0.667  0.553-  13 1.93  45 1.93  14 2.01
  74  0.913  0.667  0.645-  18 1.78  14 2.01  19 2.10
  75  0.693  0.668  0.606-  15 1.93  14 1.95  19 2.04
  76  0.404  0.667  0.575-  48 1.94  16 1.94  15 1.98
  77  0.549  0.833  0.553-  15 1.93  31 1.93  16 2.02
  78  0.412  0.836  0.646-  20 1.78  16 2.00  17 2.10
  79  0.347  0.833  0.732-  20 1.84  17 1.86
  80  0.052  0.833  0.709-  34 1.98  18 1.99  17 2.00
  81  0.195  0.666  0.681-  17 1.93  49 1.93  18 2.07
  82  0.843  0.664  0.731-  18 1.84  19 1.89
  83  0.553  0.669  0.707-  20 1.96  52 1.98  19 1.99
  84  0.696  0.834  0.679-  35 1.93  19 1.94  20 2.06
  85  0.488  0.000  0.269-  22 1.94  23 1.99
  86  0.988  0.167  0.269-  24 1.94  21 1.99
  87  0.911  0.167  0.353-  21 1.94  25 1.98  24 1.99
  88  0.627  0.167  0.321-  22 1.94  38 1.94  21 1.99
  89  0.772  0.000  0.300-   5 1.94  21 1.94  22 1.99
  90  0.624  0.000  0.395-  26 1.89  22 1.94  27 2.01
  91  0.411  0.000  0.353-  23 1.94  27 1.98  22 1.99
  92  0.127  0.000  0.321-   8 1.94  24 1.94  23 1.99
  93  0.272  0.167  0.300-  23 1.94  39 1.94  24 1.99
  94  0.124  0.167  0.395-  28 1.89  24 1.94  25 2.00
  95  0.049  0.167  0.480-  25 1.92  28 1.98  29 2.00
  96  0.764  0.167  0.448-  26 1.94  42 1.94  25 1.98
  97  0.909  0.000  0.427-  25 1.93   9 1.93  26 2.00
  98  0.763  0.000  0.520-  30 1.86  26 1.97  31 2.01
  99  0.549  1.000  0.480-  27 1.92  26 1.98  31 2.00
 100  0.264  0.000  0.448-  12 1.94  28 1.94  27 1.99
 101  0.408  0.167  0.427-  27 1.93  43 1.94  28 2.01
 102  0.263  0.167  0.521-  32 1.86  28 1.97  29 2.01
 103  0.192  0.167  0.607-  29 1.92  32 1.95  33 2.09
 104  0.903  0.167  0.573-  30 1.94  46 1.95  29 1.97
 105  0.051  0.000  0.553-  13 1.93  29 1.93  30 2.03
 106  0.913  0.000  0.646-  34 1.78  30 2.01  35 2.08
 107  0.693  1.000  0.606-  31 1.92  30 1.94  35 2.10
 108  0.403  0.000  0.573-  32 1.94  16 1.94  31 1.98
 109  0.549  0.167  0.553-  47 1.93  31 1.93  32 2.02
 110  0.412  0.164  0.646-  36 1.78  32 2.00  33 2.10
 111  0.347  0.167  0.732-  36 1.84  33 1.86
 112  0.052  0.167  0.709-  34 1.98  50 1.99  33 2.00
[...]
 134  0.265  0.500  0.522-  48 1.92  44 1.97  45 1.98
 135  0.192  0.500  0.607-  45 1.91  48 1.94  49 2.10
 136  0.903  0.500  0.573-  46 1.93  14 1.93  45 2.00
 137  0.050  0.333  0.553-  29 1.93  45 1.93  46 2.01
 138  0.913  0.333  0.645-  50 1.78  46 2.01  51 2.10
 139  0.693  0.332  0.606-  47 1.93  46 1.95  51 2.04
 140  0.404  0.333  0.575-  48 1.94  32 1.94  47 1.98
 141  0.550  0.500  0.554-  47 1.93  15 1.93  48 2.03
 142  0.412  0.500  0.648-  52 1.88  48 1.98  49 2.03
 143  0.345  0.500  0.734-  52 1.84  49 1.86
 144  0.052  0.500  0.709-  18 1.97  50 1.97  49 2.03
 145  0.195  0.334  0.681-  33 1.93  49 1.93  50 2.07
 146  0.843  0.336  0.731-  50 1.84  51 1.89
 147  0.553  0.331  0.707-  36 1.96  52 1.98  51 1.99
 148  0.693  0.500  0.678-  19 1.93  51 1.93  52 2.07

IMPORTANT INFORMATION: All symmetrisations will be switched off!
NOSYMM: (Re-)initialisation of all symmetry stuff for point group C_1.

                                     Primitive cell

  volume of cell :    3260.9117

  direct lattice vectors                    reciprocal lattice vectors
[...]

 Eigenvectors and eigenvalues of the dynamical matrix

   1 f  =  105.584758 THz   663.408598 2PiTHz 3521.928414 cm-1   436.663274 meV
             X         Y         Z           dx          dy          dz
      6.285821  5.684405 21.730012     0.240356   -0.000135   -0.150776
      5.640093  5.684405 22.519986    -0.530394   -0.000002    0.637408
      6.892971  4.865449 21.806632    -0.186042    0.283284   -0.036265
      6.892971  6.503361 21.806632    -0.185589   -0.282769   -0.036199
      8.299206  9.474009  8.235476            0           0           0
      6.080228  7.579207  9.116070            0           0           0
      3.162328  7.579207  8.235476            0           0           0
      0.943350  9.474009  9.116070            0           0           0
      9.703257  9.474375 11.799026            0           0           0
      7.460686  7.574380 12.597936            0           0           0
      4.561760  7.576573 11.795794            0           0           0
      2.315147  9.473535 12.606908            0           0           0
      0.875405  9.475428 15.362115            0           0           0
      8.882046  7.572194 16.067582            0           0           0
      6.001223  7.577194 15.341612            0           0           0
      3.733274  9.474731 16.092288            0           0           0
      2.373516  9.466246 18.994898            0           0           0
      0.008622  7.566670 19.549356            0           0           0
      7.494695  7.577384 18.923360            0           0           0
      5.167497  9.489414 19.543237            0           0           0
      8.299206  1.894802  8.235476            0           0           0
      6.080228  0.000000  9.116070            0           0           0
      3.162328  0.000000  8.235476            0           0           0
      0.943350  1.894802  9.116070            0           0           0
      9.703256  1.894436 11.799026            0           0           0
      7.456335 11.368810 12.600387            0           0           0
      4.563607  0.000000 11.798518            0           0           0
      2.315147  1.895276 12.606908            0           0           0
      0.875405  1.893383 15.362115            0           0           0
      8.869963  0.000000 16.081476            0           0           0
      6.007727 11.368810 15.351722            0           0           0
      3.733274  1.894080 16.092288            0           0           0
      2.373516  1.902564 18.994898            0           0           0
      0.032923 11.368810 19.550676            0           0           0
      7.527569 11.368810 18.979606            0           0           0
      5.167497  1.879397 19.543237            0           0           0
      8.299206  5.684405  8.235476            0           0           0
      6.080228  3.789603  9.116070            0           0           0
      3.162328  3.789603  8.235476            0           0           0
      0.943350  5.684405  9.116070            0           0           0
      9.719605  5.684405 11.793848            0           0           0
      7.460686  3.794430 12.597936            0           0           0
      4.561760  3.792237 11.795794            0           0           0
      2.318664  5.684405 12.636669            0           0           0
      0.907176  5.684405 15.368836            0           0           0
      8.882046  3.796617 16.067583            0           0           0
      6.001223  3.791617 15.341612            0           0           0
      3.752447  5.684405 16.178900            0           0           0
      2.413342  5.684405 19.013110            0           0           0
      0.008622  3.802141 19.549357            0           0           0
      7.494695  3.791427 18.923361            0           0           0
      5.198856  5.684405 19.708205            0           0           0
      5.015629  7.579207  7.500000            0           0           0
     10.152507  9.474009  7.500000            0           0           0
      9.363805  9.474009  9.851546            0           0           0
      6.445905  9.474009  8.970952            0           0           0
      7.933529  7.579207  8.380594            0           0           0
      6.413472  7.579207 11.022376            0           0           0
      4.226927  7.579207  9.851546            0           0           0
      1.309027  7.579207  8.970952            0           0           0
[...]
      2.717923  5.684405 14.566262            0           0           0
      1.970593  5.684405 16.957756            0           0           0
      9.281762  5.684405 16.007031            0           0           0
      0.518190  3.791419 15.438744            0           0           0
      9.383250  3.786259 18.016132            0           0           0
      7.123293  3.778771 16.915255            0           0           0
      4.150028  3.790186 16.043028            0           0           0
      5.648889  5.684405 15.460298            0           0           0
      4.230949  5.684405 18.101828            0           0           0
      3.539545  5.684405 20.492906            0           0           0
      0.531793  5.684405 19.788190            0           0           0
      2.002198  3.793736 19.005644            0           0           0
      8.656666  3.821292 20.407721            0           0           0
      5.680770  3.761192 19.743601            0           0           0
      7.119058  5.684405 18.928535            0           0           0

[...]

  11 f  =    3.624479 THz    22.773271 2PiTHz  120.899592 cm-1    14.989632 meV
             X         Y         Z           dx          dy          dz
      6.285821  5.684405 21.730012    -0.788410   -0.008560    0.323423
      5.640093  5.684405 22.519986    -0.333412   -0.003766   -0.014077
      6.892971  4.865449 21.806632    -0.227914   -0.005825    0.169572
      6.892971  6.503361 21.806632    -0.227793    0.000848    0.172435
      8.299206  9.474009  8.235476            0           0           0
      6.080228  7.579207  9.116070            0           0           0
      3.162328  7.579207  8.235476            0           0           0
      0.943350  9.474009  9.116070            0           0           0
      9.703257  9.474375 11.799026            0           0           0
      7.460686  7.574380 12.597936            0           0           0
      4.561760  7.576573 11.795794            0           0           0
      2.315147  9.473535 12.606908            0           0           0
      0.875405  9.475428 15.362115            0           0           0
      8.882046  7.572194 16.067582            0           0           0
      6.001223  7.577194 15.341612            0           0           0
      3.733274  9.474731 16.092288            0           0           0
      2.373516  9.466246 18.994898            0           0           0
      0.008622  7.566670 19.549356            0           0           0
      7.494695  7.577384 18.923360            0           0           0
      5.167497  9.489414 19.543237            0           0           0
      8.299206  1.894802  8.235476            0           0           0
      6.080228  0.000000  9.116070            0           0           0
      3.162328  0.000000  8.235476            0           0           0
      0.943350  1.894802  9.116070            0           0           0
      9.703256  1.894436 11.799026            0           0           0
      7.456335 11.368810 12.600387            0           0           0
      4.563607  0.000000 11.798518            0           0           0
      2.315147  1.895276 12.606908            0           0           0
      0.875405  1.893383 15.362115            0           0           0
      8.869963  0.000000 16.081476            0           0           0
      6.007727 11.368810 15.351722            0           0           0
      3.733274  1.894080 16.092288            0           0           0
      2.373516  1.902564 18.994898            0           0           0
      0.032923 11.368810 19.550676            0           0           0
      7.527569 11.368810 18.979606            0           0           0
      5.167497  1.879397 19.543237            0           0           0
      8.299206  5.684405  8.235476            0           0           0
      6.080228  3.789603  9.116070            0           0           0
      3.162328  3.789603  8.235476            0           0           0
      0.943350  5.684405  9.116070            0           0           0
      9.719605  5.684405 11.793848            0           0           0
      7.460686  3.794430 12.597936            0           0           0
      4.561760  3.792237 11.795794            0           0           0
      2.318664  5.684405 12.636669            0           0           0
      0.907176  5.684405 15.368836            0           0           0
      8.882046  3.796617 16.067583            0           0           0
      6.001223  3.791617 15.341612            0           0           0
      3.752447  5.684405 16.178900            0           0           0
      2.413342  5.684405 19.013110            0           0           0
      0.008622  3.802141 19.549357            0           0           0
      7.494695  3.791427 18.923361            0           0           0
      5.198856  5.684405 19.708205            0           0           0
      5.015629  7.579207  7.500000            0           0           0
     10.152507  9.474009  7.500000            0           0           0
      9.363805  9.474009  9.851546            0           0           0
      6.445905  9.474009  8.970952            0           0           0
      7.933529  7.579207  8.380594            0           0           0
      6.413472  7.579207 11.022376            0           0           0
      4.226927  7.579207  9.851546            0           0           0
      1.309027  7.579207  8.970952            0           0           0
[...]
      2.717923  5.684405 14.566262            0           0           0
      1.970593  5.684405 16.957756            0           0           0
      9.281762  5.684405 16.007031            0           0           0
      0.518190  3.791419 15.438744            0           0           0
      9.383250  3.786259 18.016132            0           0           0
      7.123293  3.778771 16.915255            0           0           0
      4.150028  3.790186 16.043028            0           0           0
      5.648889  5.684405 15.460298            0           0           0
      4.230949  5.684405 18.101828            0           0           0
      3.539545  5.684405 20.492906            0           0           0
      0.531793  5.684405 19.788190            0           0           0
      2.002198  3.793736 19.005644            0           0           0
      8.656666  3.821292 20.407721            0           0           0
      5.680770  3.761192 19.743601            0           0           0
      7.119058  5.684405 18.928535            0           0           0

  12 f/i=    2.087667 THz    13.117201 2PiTHz   69.637088 cm-1     8.633895 meV
             X         Y         Z           dx          dy          dz
      6.285821  5.684405 21.730012    -0.002626    0.198293    0.001467
      5.640093  5.684405 22.519986    -0.001389    0.627300   -0.000176
      6.892971  4.865449 21.806632    -0.406531   -0.218329    0.268035
      6.892971  6.503361 21.806632     0.404779   -0.218102   -0.266405
      8.299206  9.474009  8.235476            0           0           0
      6.080228  7.579207  9.116070            0           0           0
      3.162328  7.579207  8.235476            0           0           0
      0.943350  9.474009  9.116070            0           0           0
      9.703257  9.474375 11.799026            0           0           0
      7.460686  7.574380 12.597936            0           0           0
      4.561760  7.576573 11.795794            0           0           0
      2.315147  9.473535 12.606908            0           0           0
      0.875405  9.475428 15.362115            0           0           0
      8.882046  7.572194 16.067582            0           0           0
      6.001223  7.577194 15.341612            0           0           0
      3.733274  9.474731 16.092288            0           0           0
      2.373516  9.466246 18.994898            0           0           0
      0.008622  7.566670 19.549356            0           0           0
      7.494695  7.577384 18.923360            0           0           0
      5.167497  9.489414 19.543237            0           0           0
      8.299206  1.894802  8.235476            0           0           0
      6.080228  0.000000  9.116070            0           0           0
      3.162328  0.000000  8.235476            0           0           0
      0.943350  1.894802  9.116070            0           0           0
      9.703256  1.894436 11.799026            0           0           0
      7.456335 11.368810 12.600387            0           0           0
      4.563607  0.000000 11.798518            0           0           0
      2.315147  1.895276 12.606908            0           0           0
      0.875405  1.893383 15.362115            0           0           0
      8.869963  0.000000 16.081476            0           0           0
      6.007727 11.368810 15.351722            0           0           0
      3.733274  1.894080 16.092288            0           0           0
      2.373516  1.902564 18.994898            0           0           0
      0.032923 11.368810 19.550676            0           0           0
      7.527569 11.368810 18.979606            0           0           0
      5.167497  1.879397 19.543237            0           0           0
      8.299206  5.684405  8.235476            0           0           0
      6.080228  3.789603  9.116070            0           0           0
      3.162328  3.789603  8.235476            0           0           0
      0.943350  5.684405  9.116070            0           0           0
      9.719605  5.684405 11.793848            0           0           0
      7.460686  3.794430 12.597936            0           0           0
      4.561760  3.792237 11.795794            0           0           0
      2.318664  5.684405 12.636669            0           0           0
      0.907176  5.684405 15.368836            0           0           0
      8.882046  3.796617 16.067583            0           0           0
      6.001223  3.791617 15.341612            0           0           0
      3.752447  5.684405 16.178900            0           0           0
      2.413342  5.684405 19.013110            0           0           0
      0.008622  3.802141 19.549357            0           0           0
      7.494695  3.791427 18.923361            0           0           0
      5.198856  5.684405 19.708205            0           0           0
      5.015629  7.579207  7.500000            0           0           0
     10.152507  9.474009  7.500000            0           0           0
      9.363805  9.474009  9.851546            0           0           0
      6.445905  9.474009  8.970952            0           0           0
      7.933529  7.579207  8.380594            0           0           0
      6.413472  7.579207 11.022376            0           0           0
      4.226927  7.579207  9.851546            0           0           0
      1.309027  7.579207  8.970952            0           0           0
[...]
      2.717923  5.684405 14.566262            0           0           0
      1.970593  5.684405 16.957756            0           0           0
      9.281762  5.684405 16.007031            0           0           0
      0.518190  3.791419 15.438744            0           0           0
      9.383250  3.786259 18.016132            0           0           0
      7.123293  3.778771 16.915255            0           0           0
      4.150028  3.790186 16.043028            0           0           0
      5.648889  5.684405 15.460298            0           0           0
      4.230949  5.684405 18.101828            0           0           0
      3.539545  5.684405 20.492906            0           0           0
      0.531793  5.684405 19.788190            0           0           0
      2.002198  3.793736 19.005644            0           0           0
      8.656666  3.821292 20.407721            0           0           0
      5.680770  3.761192 19.743601            0           0           0
      7.119058  5.684405 18.928535            0           0           0

 Finite differences POTIM=   1.0000000000000000E-002