 vasp.6.3.0 20Jan22 (build Mar 11 2022 13:48:16) complex

 executed on             LinuxIFC date 2024.02.11  07:56:05

 INCAR:
   SYSTEM = Oxide-Surface
   ISMEAR = 0
   SIGMA = 0.05
   EDIFF = 1E-5
   ALGO = ALL
   ISTART = 0
   IBRION = -1
   NSW = 0
   ISYM = 2
   DIPOL = 0.5 0.5 0.5
   IDIPOL = 3
   LDIPOL = .TRUE.
   GGA = MK
   LUSE_VDW = .TRUE.
   PARAM1 = 0.1234
   PARAM2 = 0.711357
   ZAB_VDW = -1.8867
   AGGAC = 0.0
   ENCUT = 600
   PREC = Accurate
   LASPH = .TRUE.
   LREAL = .FALSE.
   ISPIN = 1
   NELM = 200
   NELMIN = 8
   NCORE = 19
   KPAR = 1
   LWAVE = .FALSE.
   LCHARG = .FALSE.

 POTCAR:    PAW_PBE Mg_pv 13Apr2007
 POTCAR:    PAW_PBE O 08Apr2002
|               ----> ADVICE to this user running VASP <----                  |
|     You have switched on vdW-DFT.                                           |
|     This routine was written and supplied by Jiri Klimes. We recommend      |
|     that you carefully read and cite the following publications:            |
|       J. Klimes, D.R. Bowler, A. Michelides                                 |
|          J. Phys.: Cond Matt. 22 022201 (2010)                              |
|       J. Klimes, D.R. Bowler, A. Michelides                                 |
|          Phys. Rev. B. 83, 195131 (2011)                                    |
|     and references therein.                                                 |

   TITEL  = PAW_PBE Mg_pv 13Apr2007
   POMASS =   24.305; ZVAL   =    8.000    mass and valenz
   ENMAX  =  403.929; ENMIN  =  302.947 eV

   TITEL  = PAW_PBE O 08Apr2002
   POMASS =   16.000; ZVAL   =    6.000    mass and valenz
   ENMAX  =  400.000; ENMIN  =  300.000 eV

  PAW_PBE Mg_pv 13Apr2007               :
  PAW_PBE O 08Apr2002                   :

 POSCAR: Mg  O
  positions in direct lattice
 exchange correlation table for  LEXCH =       43
   RHO(1)=    0.500       N(1)  =     2000
   RHO(2)=  100.500       N(2)  =     4000

 ion  position               nearest neighbor table
   1  0.000  0.750  0.352-  33 2.11  35 2.11  36 2.11  43 2.11  52 2.11
   2  0.250  0.000  0.352-  34 2.11  35 2.11  36 2.11  44 2.11  51 2.11
   3  0.000  0.000  0.451-  35 2.11  34 2.11  33 2.11  41 2.11  50 2.11  39 2.12
   4  0.250  0.750  0.451-  36 2.11  34 2.11  33 2.11  42 2.11  49 2.11  40 2.12
   5  0.000  0.750  0.550-  56 2.11  40 2.11  39 2.11  47 2.11  33 2.12  37 2.15
   6  0.250  1.000  0.550-  48 2.11  40 2.11  39 2.11  55 2.11  34 2.12  38 2.15
   7  0.000  1.000  0.649-  39 2.11  54 2.11  38 2.11  37 2.11  45 2.11
   8  0.250  0.750  0.649-  40 2.11  53 2.11  38 2.11  46 2.11  37 2.11
   9  0.000  0.250  0.352-  41 2.11  35 2.11  43 2.11  44 2.11  60 2.11
  10  0.250  0.500  0.352-  42 2.11  36 2.11  43 2.11  44 2.11  59 2.11
  11  0.000  0.500  0.451-  43 2.11  41 2.11  42 2.11  33 2.11  58 2.11  47 2.12
  12  0.250  0.250  0.451-  44 2.11  41 2.11  42 2.11  34 2.11  57 2.11  48 2.12
  13  0.000  0.250  0.550-  48 2.11  64 2.11  39 2.11  47 2.11  41 2.12  45 2.15
  14  0.250  0.500  0.550-  63 2.11  40 2.11  48 2.11  47 2.11  42 2.12  46 2.15
  15  0.000  0.500  0.649-  47 2.11  62 2.11  46 2.11  37 2.11  45 2.11
  16  0.250  0.250  0.649-  48 2.11  61 2.11  38 2.11  46 2.11  45 2.11
  17  0.500  0.750  0.352-  49 2.11  36 2.11  51 2.11  52 2.11  59 2.11
  18  0.750  0.000  0.352-  50 2.11  35 2.11  51 2.11  52 2.11  60 2.11
  19  0.500  0.000  0.451-  51 2.11  49 2.11  50 2.11  34 2.11  57 2.11  55 2.12
  20  0.750  0.750  0.451-  52 2.11  49 2.11  50 2.11  33 2.11  58 2.11  56 2.12
  21  0.500  0.750  0.550-  63 2.11  40 2.11  56 2.11  55 2.11  49 2.13  53 2.15
  22  0.750  0.000  0.550-  64 2.11  56 2.11  39 2.11  55 2.11  50 2.12  54 2.15
  23  0.500  1.000  0.649-  61 2.11  53 2.11  55 2.11  38 2.11  54 2.11
  24  0.750  0.750  0.649-  56 2.11  53 2.11  54 2.11  62 2.11  37 2.11
  25  0.500  0.250  0.352-  57 2.11  51 2.11  44 2.11  59 2.11  60 2.11
  26  0.750  0.500  0.352-  58 2.11  52 2.11  43 2.11  59 2.11  60 2.11
  27  0.500  0.500  0.451-  59 2.11  49 2.11  57 2.11  58 2.11  42 2.11  63 2.12
  28  0.750  0.250  0.451-  60 2.11  50 2.11  57 2.11  58 2.11  41 2.11  64 2.12
  29  0.500  0.250  0.550-  63 2.11  48 2.11  64 2.11  55 2.11  57 2.13  61 2.15
  30  0.750  0.500  0.550-  63 2.11  56 2.11  64 2.11  47 2.11  58 2.12  62 2.15
  31  0.500  0.500  0.649-  61 2.11  53 2.11  46 2.11  62 2.11  63 2.12
  32  0.750  0.250  0.649-  64 2.11  61 2.11  54 2.11  62 2.11  45 2.11
  33  0.000  0.750  0.451-   1 2.11   3 2.11   4 2.11  11 2.11  20 2.11   5 2.12
  34  0.250  0.000  0.451-   2 2.11   3 2.11   4 2.11  12 2.11  19 2.11   6 2.12
  35  0.000  0.000  0.352-   3 2.11   2 2.11   1 2.11   9 2.11  18 2.11
  36  0.250  0.750  0.352-   4 2.11   2 2.11   1 2.11  10 2.11  17 2.11
  37  0.000  0.750  0.651-   7 2.11  15 2.11  24 2.11   8 2.11   5 2.15
  38  0.250  0.000  0.651-  16 2.11   8 2.11   7 2.11  23 2.11   6 2.15
  39  0.000  1.000  0.550-   5 2.11  13 2.11   7 2.11   6 2.11  22 2.11   3 2.12
  40  0.250  0.750  0.550-   8 2.11   5 2.11   6 2.11  14 2.11  21 2.11   4 2.12
  41  0.000  0.250  0.451-   9 2.11   3 2.11  11 2.11  12 2.11  28 2.11  13 2.12
  42  0.250  0.500  0.451-  10 2.11   4 2.11  11 2.11  12 2.11  27 2.11  14 2.12
  43  0.000  0.500  0.352-  11 2.11   9 2.11  10 2.11   1 2.11  26 2.11
  44  0.250  0.250  0.352-  12 2.11   9 2.11  10 2.11   2 2.11  25 2.11
  45  0.000  0.250  0.651-   7 2.11  15 2.11  16 2.11  32 2.11  13 2.15
  46  0.250  0.500  0.651-  15 2.11  16 2.11   8 2.11  31 2.11  14 2.15
  47  0.000  0.500  0.550-  15 2.11   5 2.11  13 2.11  14 2.11  30 2.11  11 2.12
  48  0.250  0.250  0.550-  16 2.11  13 2.11   6 2.11  14 2.11  29 2.11  12 2.12
  49  0.500  0.750  0.451-  17 2.11   4 2.11  19 2.11  20 2.11  27 2.11  21 2.13
  50  0.750  0.000  0.451-  18 2.11   3 2.11  19 2.11  20 2.11  28 2.11  22 2.12
  51  0.500  0.000  0.352-  19 2.11  17 2.11  18 2.11   2 2.11  25 2.11
  52  0.750  0.750  0.352-  20 2.11  17 2.11  18 2.11   1 2.11  26 2.11
  53  0.500  0.750  0.651-  23 2.11   8 2.11  24 2.11  31 2.11  21 2.15
  54  0.750  0.000  0.651-  32 2.11  24 2.11   7 2.11  23 2.11  22 2.15
  55  0.500  1.000  0.550-  23 2.11  22 2.11   6 2.11  21 2.11  29 2.11  19 2.12
  56  0.750  0.750  0.550-  24 2.11   5 2.11  22 2.11  30 2.11  21 2.11  20 2.12
  57  0.500  0.250  0.451-  25 2.11  19 2.11  12 2.11  27 2.11  28 2.11  29 2.13
  58  0.750  0.500  0.451-  26 2.11  20 2.11  11 2.11  27 2.11  28 2.11  30 2.12
  59  0.500  0.500  0.352-  27 2.11  17 2.11  25 2.11  26 2.11  10 2.11
  60  0.750  0.250  0.352-  28 2.11  18 2.11  25 2.11  26 2.11   9 2.11
  61  0.500  0.250  0.651-  23 2.11  16 2.11  32 2.11  31 2.11  29 2.15
  62  0.750  0.500  0.651-  15 2.11  24 2.11  32 2.11  31 2.11  30 2.15
  63  0.500  0.500  0.550-  30 2.11  14 2.11  29 2.11  21 2.11  31 2.12  27 2.12
  64  0.750  0.250  0.550-  32 2.11  13 2.11  22 2.11  30 2.11  29 2.11  28 2.12

  LATTYP: Found a simple tetragonal cell.
 ALAT       =     8.4409846542
 C/A-ratio  =     2.5270438657

  Lattice vectors:

 A1 = (   8.4409846542,   0.0000000000,   0.0000000000)
 A2 = (   0.0000000000,   8.4409846542,   0.0000000000)
 A3 = (   0.0000000000,   0.0000000000,  21.3307384906)

Analysis of symmetry for initial positions (statically):
 Subroutine PRICEL returns:
 Original cell was already a primitive cell.

 Routine SETGRP: Setting up the symmetry group for a
 simple tetragonal supercell.

 Subroutine GETGRP returns: Found  4 space group operations
 (whereof  4 operations were pure point group operations)
 out of a pool of 16 trial point group operations.

The static configuration has the point symmetry C_2v.

Analysis of symmetry for dynamics (positions and initial velocities):
 Subroutine PRICEL returns:
 Original cell was already a primitive cell.

[...]

The dynamic configuration has the point symmetry C_2v.

Analysis of constrained symmetry for selective dynamics:
 Subroutine PRICEL returns:
 Original cell was already a primitive cell.

 Routine SETGRP: Setting up the symmetry group for a
 simple tetragonal supercell.

 Subroutine GETGRP returns: Found  4 space group operations
 (whereof  4 operations were pure point group operations)
 out of a pool of 16 trial point group operations.

The constrained configuration has the point symmetry C_2v.

 Subroutine INISYM returns: Found  4 space group operations
 (whereof  4 operations are pure point group operations),
 and found     1 'primitive' translations

                                     Primitive cell

  volume of cell :    1519.8199

  direct lattice vectors                    reciprocal lattice vectors
     8.440984654  0.000000000  0.000000000     0.118469591  0.000000000  0.000000000
     0.000000000  8.440984654  0.000000000     0.000000000  0.118469591  0.000000000
     0.000000000  0.000000000 21.330738491     0.000000000  0.000000000  0.046880702

  length of vectors
     8.440984654  8.440984654 21.330738491     0.118469591  0.118469591  0.046880702

  position of ions in fractional coordinates (direct lattice)
     0.000000000  0.750000000  0.351605267
     0.250000000  0.000000000  0.351605267
     0.000000000  0.000000000  0.450535089
     0.250000000  0.750000000  0.450535089
     0.000000003  0.750032167  0.550141647
     0.249992769  0.999999998  0.550135640
     0.000000010  0.999999991  0.648847037
     0.250116514  0.750097339  0.648710816
     0.000000000  0.250000000  0.351605267
     0.250000000  0.500000000  0.351605267
     0.000000000  0.500000000  0.450535089
     0.250000000  0.250000000  0.450535089
     0.000000007  0.249967822  0.550141651
     0.250108445  0.500000001  0.550153757
     0.000000011  0.499999994  0.648675549
     0.250116504  0.249902631  0.648710813
     0.500000000  0.750000000  0.351605267
     0.750000000  0.000000000  0.351605267
     0.500000000  0.000000000  0.450535089
     0.750000000  0.750000000  0.450535089
     0.499999994  0.749901112  0.550182719
     0.750007254  0.000000005  0.550135636
     0.500000006  0.999999998  0.648747779
     0.749883526  0.750097344  0.648710829
     0.500000000  0.250000000  0.351605267
     0.750000000  0.500000000  0.351605267
     0.500000000  0.500000000  0.450535089
     0.750000000  0.250000000  0.450535089
     0.500000001  0.250098874  0.550182703
     0.749891587  0.499999991  0.550153763
     0.500000014  0.499999988  0.649279172
     0.749883523  0.249902625  0.648710829
     0.000000000  0.750000000  0.450535089
     0.250000000  0.000000000  0.450535089
     0.000000000  0.000000000  0.351605267
     0.250000000  0.750000000  0.351605267
     0.000000011  0.750041776  0.650981394
     0.249939864  0.000000003  0.651016895
     0.000000015  0.999999981  0.549923091
     0.249924098  0.750012792  0.549866046
     0.000000000  0.250000000  0.450535089
     0.250000000  0.500000000  0.450535089
     0.000000000  0.500000000  0.351605267
     0.250000000  0.250000000  0.351605267
     0.000000016  0.249958209  0.650981374
     0.249749451  0.499999982  0.651002082
     0.000000017  0.500000002  0.549828664
     0.249924102  0.249987198  0.549866042
     0.500000000  0.750000000  0.450535089
     0.750000000  0.000000000  0.450535089
[...]
   0.50000000  0.25000000  0.45053509
   0.75000000  0.50000000  0.45053509
   0.50000000  0.50000000  0.35160527
   0.75000000  0.25000000  0.35160527
   0.50000000  0.24985839  0.65076216
   0.75025060  0.49999999  0.65100209
   0.50000002  0.49999999  0.54999674
   0.75007590  0.24998719  0.54986605

 position of ions in cartesian coordinates  (Angst):
   0.00000000  6.33073849  7.50000000
   2.11024616  0.00000000  7.50000000
   0.00000000  0.00000000  9.61024616
   2.11024616  6.33073849  9.61024616
   0.00000002  6.33101002 11.73492761
   2.11018512  8.44098464 11.73479947
   0.00000009  8.44098458 13.84038647
   2.11122966  6.33156013 13.83748077
   0.00000000  2.11024616  7.50000000
   2.11024616  4.22049233  7.50000000
   0.00000000  4.22049233  9.61024616
   2.11024616  2.11024616  9.61024616
   0.00000006  2.10997455 11.73492769
   2.11116154  4.22049233 11.73518592
   0.00000009  4.22049228 13.83672850
   2.11122957  2.10942427 13.83748070
   4.22049233  6.33073849  7.50000000
   6.33073849  0.00000000  7.50000000
   4.22049233  0.00000000  9.61024616
   6.33073849  6.33073849  9.61024616
   4.22049228  6.32990378 11.73580370
   6.33079972  0.00000005 11.73479938
   4.22049238  8.44098463 13.83826923
   6.32975533  6.33156017 13.83748104
   4.22049233  2.11024616  7.50000000
   6.33073849  4.22049233  7.50000000
   4.22049233  4.22049233  9.61024616
   6.33073849  2.11024616  9.61024616
   4.22049233  2.11108076 11.73580336
   6.32982338  4.22049225 11.73518604
   4.22049245  4.22049223 13.84960423
   6.32975531  2.10942422 13.83748104
   0.00000000  6.33073849  9.61024616
   2.11024616  0.00000000  9.61024616
   0.00000000  0.00000000  7.50000000
   2.11024616  6.33073849  7.50000000
   0.00000009  6.33109112 13.88591387
   2.10973855  0.00000002 13.88667115
   0.00000012  8.44098449 11.73026565
   2.10960548  6.33084647 11.72904882
   0.00000000  2.11024616  9.61024616
   2.11024616  4.22049233  9.61024616
   0.00000000  4.22049233  7.50000000
   2.11024616  2.11024616  7.50000000
   0.00000014  2.10989341 13.88591345
   2.10813128  4.22049217 13.88635517
   0.00000014  4.22049235 11.72825144
   2.10960551  2.11013810 11.72904875
   4.22049233  6.33073849  9.61024616
   6.33073849  0.00000000  9.61024616
   4.22049233  0.00000000  7.50000000
   6.33073849  6.33073849  7.50000000
   4.22049236  6.33193375 13.88123768
   6.33124642  0.00000003 13.88667128
   4.22049244  8.44098455 11.72804908
   6.33137928  6.33084645 11.72904886
   4.22049233  2.11024616  9.61024616
   6.33073849  4.22049233  9.61024616
   4.22049233  4.22049233  7.50000000
   6.33073849  2.11024616  7.50000000
   4.22049236  2.10905082 13.88123754
   6.33285378  4.22049222 13.88635524
   4.22049247  4.22049226 11.73183669
   6.33137917  2.11013802 11.72904886

--------------------------------------- Iteration      FINAL  ---------------------------------------

--------------------OUTCAR has been truncated-------------------------

[...]

--------------------OUTCAR has been truncated-------------------------

  FORCE on cell =-STRESS in cart. coord.  units (eV):
  Direction    XX          YY          ZZ          XY          YZ          ZX
  Alpha Z   875.25928   875.25928   875.25928
  Ewald  161131.00611161130.96961************    -0.00000    -0.00003     0.00004
  Hartree171153.35521171153.33357************    -0.00000    -0.00001     0.00001
  E(xc)   -2455.74507 -2455.74509 -2455.87534     0.00000     0.00000    -0.00000
  Local  ************************342559.07475     0.00000     0.00004    -0.00005
  n-local -2831.82749 -2831.82798 -2851.50311    -0.00001    -0.00001     0.00002
  augment  1051.70567  1051.70565  1042.24950     0.00000    -0.00000    -0.00000
  Kinetic  7303.40674  7303.40788  7342.26934     0.00001    -0.00000    -0.00001
  Fock        0.00000     0.00000     0.00000     0.00000     0.00000     0.00000
  Total     -30.52336   -30.52334    -4.04630     0.00000     0.00000     0.00000
  in kB     -32.17739   -32.17737    -4.26556     0.00000     0.00000     0.00000

 VOLUME and BASIS-vectors are now :
  energy-cutoff  :      600.00
  volume of cell :     1519.82
      direct lattice vectors                 reciprocal lattice vectors
     8.440984654  0.000000000  0.000000000     0.118469591  0.000000000  0.000000000
     0.000000000  8.440984654  0.000000000     0.000000000  0.118469591  0.000000000
     0.000000000  0.000000000 21.330738491     0.000000000  0.000000000  0.046880702

  length of vectors
     8.440984654  8.440984654 21.330738491     0.118469591  0.118469591  0.046880702

 FORCES acting on ions:
    Electron-Ion                     Ewald-Force                    Non-Local-Force
   0.945E-06 0.117E-01 0.207E+04   -.250E-05 -.112E-01 -.206E+04   0.476E-21 -.350E-03 -.680E+01
   -.104E-01 0.898E-06 0.207E+04   0.996E-02 -.194E-05 -.206E+04   0.322E-03 -.541E-21 -.680E+01
   -.288E-06 0.501E-06 0.683E+03   -.607E-05 0.485E-05 -.684E+03   0.155E-23 -.434E-23 0.500E+00
   -.107E+00 0.932E-01 0.683E+03   0.106E+00 -.933E-01 -.684E+03   0.101E-02 -.247E-04 0.486E+00
   0.756E-06 0.158E+00 -.690E+03   -.191E-04 -.151E+00 0.691E+03   -.161E-21 -.823E-02 -.202E+00
   -.301E-01 0.120E-04 -.690E+03   0.190E-01 -.193E-04 0.691E+03   0.882E-02 0.261E-21 -.169E+00
   -.256E-04 0.256E-04 -.205E+04   0.202E-04 -.182E-04 0.205E+04   -.380E-22 0.821E-22 0.573E+01
   0.204E+00 0.463E+00 -.205E+04   -.254E+00 -.443E+00 0.204E+04   0.266E-01 -.249E-01 0.573E+01
   0.700E-06 -.117E-01 0.207E+04   -.233E-05 0.112E-01 -.206E+04   -.618E-21 0.350E-03 -.680E+01
   -.278E-01 -.825E-06 0.207E+04   0.284E-01 0.183E-05 -.206E+04   -.502E-03 -.431E-21 -.680E+01
   0.377E-05 0.121E-05 0.683E+03   -.154E-04 -.470E-05 -.684E+03   0.133E-22 0.123E-21 0.466E+00
   -.107E+00 -.932E-01 0.683E+03   0.106E+00 0.933E-01 -.684E+03   0.101E-02 0.247E-04 0.486E+00
   -.782E-05 -.158E+00 -.690E+03   -.345E-04 0.151E+00 0.691E+03   0.489E-22 0.823E-02 -.202E+00
   -.236E+00 0.140E-05 -.691E+03   0.261E+00 -.596E-05 0.691E+03   -.264E-01 -.434E-22 -.190E+00
   -.298E-04 0.127E-04 -.205E+04   0.360E-04 0.200E-05 0.204E+04   0.188E-23 0.112E-21 0.568E+01
   0.204E+00 -.463E+00 -.205E+04   -.254E+00 0.443E+00 0.204E+04   0.266E-01 0.249E-01 0.573E+01
   -.114E-05 0.290E-01 0.207E+04   0.273E-05 -.296E-01 -.206E+04   -.120E-21 0.498E-03 -.680E+01
   0.104E-01 0.119E-05 0.207E+04   -.996E-02 -.227E-05 -.206E+04   -.322E-03 -.302E-21 -.680E+01
   -.353E-05 0.114E-04 0.683E+03   0.533E-05 -.213E-04 -.684E+03   0.994E-22 -.138E-21 0.466E+00
   0.107E+00 0.932E-01 0.683E+03   -.106E+00 -.933E-01 -.684E+03   -.101E-02 -.247E-04 0.486E+00
   -.159E-04 0.318E+00 -.690E+03   0.684E-04 -.351E+00 0.690E+03   0.355E-21 0.317E-01 -.254E+00
   0.301E-01 0.455E-05 -.690E+03   -.190E-01 -.560E-04 0.691E+03   -.882E-02 -.999E-22 -.169E+00
   -.249E-04 0.617E-05 -.205E+04   0.485E-04 -.143E-04 0.204E+04   0.282E-21 -.269E-21 0.573E+01
   -.204E+00 0.463E+00 -.205E+04   0.254E+00 -.443E+00 0.204E+04   -.266E-01 -.249E-01 0.573E+01
   -.813E-06 -.290E-01 0.207E+04   0.234E-05 0.296E-01 -.206E+04   -.501E-22 -.498E-03 -.680E+01
   0.278E-01 -.112E-05 0.207E+04   -.284E-01 0.209E-05 -.206E+04   0.502E-03 0.536E-21 -.680E+01
   -.926E-05 -.907E-05 0.683E+03   0.162E-04 0.218E-04 -.683E+03   0.874E-22 0.141E-21 0.516E+00
   0.107E+00 -.932E-01 0.683E+03   -.106E+00 0.933E-01 -.684E+03   -.101E-02 0.247E-04 0.486E+00
   -.164E-04 -.318E+00 -.690E+03   0.280E-04 0.351E+00 0.690E+03   -.362E-21 -.317E-01 -.254E+00
   0.236E+00 0.156E-04 -.691E+03   -.261E+00 0.619E-05 0.691E+03   0.264E-01 -.808E-22 -.190E+00
   -.365E-04 0.304E-04 -.206E+04   0.415E-04 0.898E-05 0.205E+04   -.545E-23 0.503E-21 0.585E+01
   -.204E+00 -.463E+00 -.205E+04   0.254E+00 0.443E+00 0.204E+04   -.266E-01 0.249E-01 0.573E+01
   0.309E-05 0.141E-01 0.512E+03   -.829E-05 -.193E-01 -.512E+03   0.856E-22 0.728E-02 -.987E-01
   0.303E-05 0.240E-05 0.512E+03   0.421E-02 -.597E-05 -.512E+03   -.607E-02 -.184E-21 -.924E-01
   0.374E-06 0.326E-06 0.155E+04   -.130E-05 -.435E-06 -.156E+04   -.662E-23 -.477E-23 0.360E+01
   -.150E-01 0.153E-01 0.155E+04   0.150E-01 -.153E-01 -.156E+04   0.889E-04 0.415E-04 0.360E+01
   -.122E-03 0.263E+00 -.156E+04   0.291E-04 -.282E+00 0.156E+04   0.371E-21 0.195E-01 -.519E+01
   -.829E-01 -.822E-05 -.156E+04   0.562E-01 -.442E-04 0.156E+04   0.423E-01 0.688E-21 -.517E+01
   -.145E-03 0.189E-03 -.513E+03   -.147E-04 0.937E-05 0.512E+03   0.125E-21 0.120E-21 0.224E+00
   -.894E-01 0.193E+00 -.512E+03   0.871E-01 -.198E+00 0.512E+03   0.881E-02 0.497E-02 0.279E+00
   0.240E-05 -.141E-01 0.512E+03   -.939E-05 0.193E-01 -.512E+03   0.540E-23 -.728E-02 -.987E-01
   -.108E+00 -.152E-05 0.512E+03   0.983E-01 0.417E-05 -.512E+03   0.127E-01 -.158E-21 -.946E-01
   0.814E-06 -.269E-06 0.155E+04   -.223E-05 0.359E-06 -.156E+04   0.165E-23 -.126E-21 0.360E+01
   -.150E-01 -.153E-01 0.155E+04   0.150E-01 0.153E-01 -.156E+04   0.889E-04 -.415E-04 0.360E+01
   -.166E-03 -.263E+00 -.156E+04   0.491E-06 0.282E+00 0.156E+04   0.454E-21 -.195E-01 -.519E+01
   -.337E+00 0.184E-03 -.156E+04   0.298E+00 0.308E-05 0.156E+04   0.733E-01 0.243E-22 -.511E+01
   -.169E-03 -.199E-04 -.512E+03   -.914E-05 -.986E-05 0.511E+03   0.464E-21 0.116E-23 0.289E+00
   -.894E-01 -.193E+00 -.512E+03   0.871E-01 0.198E+00 0.512E+03   0.881E-02 -.497E-02 0.279E+00
   -.592E-05 0.119E+00 0.512E+03   0.129E-04 -.110E+00 -.512E+03   -.170E-23 -.120E-01 -.101E+00
   0.107E-05 0.502E-05 0.512E+03   -.422E-02 -.104E-04 -.512E+03   0.607E-02 0.139E-21 -.924E-01
   -.494E-06 0.131E-05 0.155E+04   0.137E-05 -.274E-05 -.156E+04   -.683E-22 -.237E-21 0.360E+01
   0.150E-01 0.153E-01 0.155E+04   -.150E-01 -.153E-01 -.156E+04   -.889E-04 0.415E-04 0.360E+01
   -.583E-04 0.386E+00 -.156E+04   0.531E-04 -.381E+00 0.156E+04   -.184E-21 -.188E-01 -.504E+01
   0.826E-01 -.152E-04 -.156E+04   -.563E-01 -.537E-04 0.156E+04   -.423E-01 0.508E-21 -.517E+01
   -.146E-03 0.133E-03 -.512E+03   0.243E-04 -.146E-04 0.511E+03   -.167E-21 -.129E-21 0.285E+00
   0.893E-01 0.193E+00 -.512E+03   -.872E-01 -.198E+00 0.512E+03   -.881E-02 0.497E-02 0.279E+00
   -.293E-05 -.119E+00 0.512E+03   0.799E-05 0.110E+00 -.512E+03   0.537E-22 0.120E-01 -.101E+00
   0.108E+00 -.431E-05 0.512E+03   -.983E-01 0.693E-05 -.512E+03   -.127E-01 0.164E-21 -.946E-01
   -.975E-06 -.123E-05 0.155E+04   0.235E-05 0.266E-05 -.156E+04   -.378E-22 -.816E-23 0.360E+01
   0.150E-01 -.153E-01 0.155E+04   -.150E-01 0.153E-01 -.156E+04   -.889E-04 -.415E-04 0.360E+01
   -.514E-04 -.385E+00 -.156E+04   0.280E-04 0.381E+00 0.156E+04   0.260E-21 0.188E-01 -.504E+01
   0.336E+00 0.137E-03 -.156E+04   -.298E+00 -.496E-05 0.156E+04   -.733E-01 0.358E-21 -.511E+01
   -.183E-03 0.823E-04 -.514E+03   0.311E-04 0.138E-04 0.514E+03   -.287E-21 0.462E-21 0.127E+00
   0.894E-01 -.193E+00 -.512E+03   -.871E-01 0.198E+00 0.512E+03   -.881E-02 -.497E-02 0.279E+00
   -.234E-02 0.146E-02 0.171E+02   0.247E-12 -.174E-12 0.796E-12   0.173E-17 0.000E+00 -.171E+02

 POSITION                                       TOTAL-FORCE (eV/Angst)
      0.00000      6.33074      7.50000        -0.000000      0.000091      0.318380
      2.11025      0.00000      7.50000        -0.000089     -0.000000      0.318114
      0.00000      0.00000      9.61025        -0.000000     -0.000000      0.044211
      2.11025      6.33074      9.61025        -0.000073     -0.000124      0.042920
      0.00000      6.33101     11.73493        -0.000000     -0.001041      0.035390
      2.11019      8.44098     11.73480        -0.002194     -0.000000      0.030656
      0.00000      8.44098     13.84039        -0.000000     -0.000000      0.032908
      2.11123      6.33156     13.83748        -0.023332     -0.004445      0.041757
      0.00000      2.11025      7.50000        -0.000000     -0.000091      0.318380
      2.11025      4.22049      7.50000         0.000124     -0.000000      0.318057
      0.00000      4.22049      9.61025        -0.000000     -0.000000      0.044964
      2.11025      2.11025      9.61025        -0.000073      0.000124      0.042920
      0.00000      2.10997     11.73493        -0.000000      0.001041      0.035390
      2.11116      4.22049     11.73519        -0.001227     -0.000000      0.035415
      0.00000      4.22049     13.83673        -0.000000     -0.000000      0.057282
      2.11123      2.10942     13.83748        -0.023332      0.004445      0.041757
      4.22049      6.33074      7.50000        -0.000000     -0.000111      0.318257
      6.33074      0.00000      7.50000         0.000089     -0.000000      0.318114
      4.22049      0.00000      9.61025        -0.000000     -0.000000      0.043951
      6.33074      6.33074      9.61025         0.000073     -0.000124      0.042920
      4.22049      6.32990     11.73580        -0.000000     -0.001712      0.019381
      6.33080      0.00000     11.73480         0.002194     -0.000000      0.030656
      4.22049      8.44098     13.83827        -0.000000     -0.000000      0.032295
      6.32976      6.33156     13.83748         0.023332     -0.004445      0.041757
      4.22049      2.11025      7.50000        -0.000000      0.000111      0.318257
      6.33074      4.22049      7.50000        -0.000124     -0.000000      0.318057
      4.22049      4.22049      9.61025        -0.000000     -0.000000      0.046971
      6.33074      2.11025      9.61025         0.000073      0.000124      0.042920
      4.22049      2.11108     11.73580        -0.000000      0.001712      0.019381
      6.32982      4.22049     11.73519         0.001227     -0.000000      0.035415
      4.22049      4.22049     13.84960        -0.000000     -0.000000     -0.047112
      6.32976      2.10942     13.83748         0.023332      0.004445      0.041757
      0.00000      6.33074      9.61025        -0.000000      0.002094      0.066205
      2.11025      0.00000      9.61025        -0.001857     -0.000000      0.067518
      0.00000      0.00000      7.50000        -0.000000     -0.000000     -0.401457
      2.11025      6.33074      7.50000         0.000024     -0.000001     -0.401412
      0.00000      6.33109     13.88591        -0.000000      0.000381     -0.113264
      2.10974      0.00000     13.88667         0.015792     -0.000000     -0.111647
      0.00000      8.44098     11.73027        -0.000000     -0.000000     -0.002977
      2.10961      6.33085     11.72905         0.006549      0.000216      0.007742
      0.00000      2.11025      9.61025        -0.000000     -0.002094      0.066205
      2.11025      4.22049      9.61025         0.003445     -0.000000      0.068880
      0.00000      4.22049      7.50000        -0.000000     -0.000000     -0.401289
      2.11025      2.11025      7.50000         0.000024      0.000001     -0.401412
      0.00000      2.10989     13.88591        -0.000000     -0.000381     -0.113264
      2.10813      4.22049     13.88636         0.034464     -0.000000     -0.097942
      0.00000      4.22049     11.72825        -0.000000     -0.000000      0.014037
      2.10961      2.11014     11.72905         0.006549     -0.000216      0.007742
      4.22049      6.33074      9.61025        -0.000000     -0.003281      0.069901
      6.33074      0.00000      9.61025         0.001857     -0.000000      0.067518
      4.22049      0.00000      7.50000        -0.000000     -0.000000     -0.401349
      6.33074      6.33074      7.50000        -0.000024     -0.000001     -0.401412
      4.22049      6.33193     13.88124        -0.000000     -0.013891     -0.065921
      6.33125      0.00000     13.88667        -0.015792     -0.000000     -0.111647
      4.22049      8.44098     11.72805        -0.000000     -0.000000      0.020580
      6.33138      6.33085     11.72905        -0.006549      0.000216      0.007742
      4.22049      2.11025      9.61025        -0.000000      0.003281      0.069901
      6.33074      4.22049      9.61025        -0.003445     -0.000000      0.068880
      4.22049      4.22049      7.50000        -0.000000     -0.000000     -0.401423
      6.33074      2.11025      7.50000        -0.000024      0.000001     -0.401412
      4.22049      2.10905     13.88124        -0.000000      0.013891     -0.065921
      6.33285      4.22049     13.88636        -0.034464     -0.000000     -0.097942
      4.22049      4.22049     11.73184        -0.000000     -0.000000     -0.000380
      6.33138      2.11014     11.72905        -0.006549     -0.000216      0.007742
    total drift:                               -0.002337      0.001464     -0.009025

  FREE ENERGIE OF THE ION-ELECTRON SYSTEM (eV)
  free  energy   TOTEN  =      -264.82604296 eV

  energy  without entropy=     -264.82604296  energy(sigma->0) =     -264.82604296