 vasp.6.4.2 20Jul23 (build Feb 22 2024 13:53:45) complex
 executed on              LinuxNV date 2024.08.27  20:24:05
 OpenACC runtime initialized ...    4 GPUs detected

 INCAR:
   SYSTEM = Oxide-Surface
   ISMEAR = 0
   SIGMA = 0.05
   EDIFF = 1E-5
   ALGO = Normal
   IBRION = -1
   NSW = 0
   ISYM = 0
   DIPOL = 0.5 0.5 0.5
   IDIPOL = 3
   LDIPOL = .TRUE.
   ISTART = 1
   METAGGA = R2SCAN
   ENCUT = 1000
   PREC = Normal
   PRECFOCK = Normal
   LASPH = .TRUE.
   LREAL = Auto
   ISPIN = 1
   NELM = 200
   NELMIN = 8
   NCORE = 1
   KPAR = 1
   LWAVE = .FALSE.
   LCHARG = .FALSE.

 POTCAR:    PAW_PBE Mg_sv 12Apr2007
 POTCAR:    PAW_PBE O_h 06Feb2004
 POTCAR:    PAW_PBE Mg_sv 12Apr2007
   VRHFIN =Mg: p6s2

   TITEL  = PAW_PBE Mg_sv 12Apr2007
   POMASS =   24.305; ZVAL   =   10.000    mass and valenz
   ENMAX  =  495.223; ENMIN  =  371.417 eV

   TITEL  = PAW_PBE O_h 06Feb2004
   POMASS =   16.000; ZVAL   =    6.000    mass and valenz
   ENMAX  =  700.000; ENMIN  =  500.000 eV

 Optimization of the real space projectors (new method)

 maximal supplied QI-value         = 22.11
 optimisation between [QCUT,QGAM] = [ 16.14, 32.28] = [ 72.95,291.79] Ry
 Optimized for a Real-space Cutoff    0.98 Angstroem

   l    n(q)    QCUT    max X(q) W(low)/X(q) W(high)/X(q)  e(spline)
   0      9    16.140     8.730    0.14E-04    0.12E-04    0.27E-07
   0      9    16.140     8.910    0.19E-04    0.17E-04    0.41E-07
   1      9    16.140     2.513    0.16E-04    0.28E-04    0.54E-07
   1      9    16.140     3.341    0.27E-04    0.13E-03    0.17E-06
   2      9    16.140     3.683    0.18E-03    0.21E-03    0.81E-07
 Optimization of the real space projectors (new method)

 maximal supplied QI-value         = 34.20
 optimisation between [QCUT,QGAM] = [ 16.08, 32.15] = [ 72.37,289.48] Ry
 Optimized for a Real-space Cutoff    0.71 Angstroem

   l    n(q)    QCUT    max X(q) W(low)/X(q) W(high)/X(q)  e(spline)
   0      7    16.076   280.207    0.42E-03    0.69E-03    0.60E-07
   0      7    16.076   228.978    0.42E-03    0.69E-03    0.61E-07
   1      6    16.076    86.127    0.11E-03    0.66E-03    0.10E-06
   1      6    16.076    65.368    0.11E-03    0.65E-03    0.10E-06
  PAW_PBE Mg_sv 12Apr2007               :
  PAW_PBE O_h 06Feb2004                 :

 POSCAR: Mg  O
  positions in direct lattice

 METAGGA = R2SCAN                                      LMAXTAU =  6    LMIXTAU =  F

 ion  position               nearest neighbor table
   1  0.000  0.750  0.184-
   2  0.250  0.000  0.184-
   3  0.000  0.000  0.308-
   4  0.250  0.750  0.308-
   5  1.000  0.750  0.433-
   6  0.250  0.000  0.433-
   7  1.000  0.000  0.557-
   8  0.250  0.750  0.556-
   9  0.000  0.250  0.184-
  10  0.250  0.500  0.184-
  11  0.000  0.500  0.308-
  12  0.250  0.250  0.308-
  13  1.000  0.250  0.433-
  14  0.250  0.500  0.433-
  15  1.000  0.500  0.556-
  16  0.250  0.250  0.556-
  17  0.500  0.750  0.184-
  18  0.750  0.000  0.184-
  19  0.500  0.000  0.308-
  20  0.750  0.750  0.308-
  21  0.500  0.750  0.433-
  22  0.750  0.000  0.433-
  23  0.500  0.000  0.556-
  24  0.750  0.750  0.556-
  25  0.500  0.250  0.184-
  26  0.750  0.500  0.184-
  27  0.500  0.500  0.308-
  28  0.750  0.250  0.308-
  29  0.500  0.250  0.433-
  30  0.750  0.500  0.433-
  31  0.500  0.499  0.559-
  32  0.750  0.250  0.556-
  33  0.000  0.750  0.308-
  34  0.250  0.000  0.308-
  35  0.000  0.000  0.184-
  36  0.250  0.750  0.184-
  37  0.000  0.750  0.559-
  38  0.250  1.000  0.559-
  39  0.000  1.000  0.432-
  40  0.250  0.750  0.432-
  41  0.000  0.250  0.308-
  42  0.250  0.500  0.308-
  43  0.000  0.500  0.184-
  44  0.250  0.250  0.184-
  45  0.000  0.250  0.559-
  46  0.249  0.500  0.559-
  47  0.000  0.500  0.432-
  48  0.250  0.250  0.432-
  49  0.500  0.750  0.308-
  50  0.750  0.000  0.308-
  51  0.500  0.000  0.184-
  52  0.750  0.750  0.184-
  53  0.500  0.751  0.560-
  54  0.750  1.000  0.559-
  55  0.500  1.000  0.432-
  56  0.750  0.750  0.432-
  57  0.500  0.250  0.308-
  58  0.750  0.500  0.308-
  59  0.500  0.500  0.184-
  60  0.750  0.250  0.184-
  61  0.500  0.249  0.559-
  62  0.751  0.500  0.559-
  63  0.500  0.500  0.433-
  64  0.750  0.250  0.432-

IMPORTANT INFORMATION: All symmetrisations will be switched off!
NOSYMM: (Re-)initialisation of all symmetry stuff for point group C_1.

                                     Primitive cell

  volume of cell :    1211.2538

  direct lattice vectors                    reciprocal lattice vectors
     8.440984654  0.000000000  0.000000000     0.118469591  0.000000000  0.000000000
     0.000000000  8.440984654  0.000000000     0.000000000  0.118469591  0.000000000
     0.000000000  0.000000000 17.000000000     0.000000000  0.000000000  0.058823529

  length of vectors
     8.440984654  8.440984654 17.000000000     0.118469591  0.118469591  0.058823529

  position of ions in fractional coordinates (direct lattice)
     0.000003678  0.750014635  0.183699523
     0.250003678  0.000014635  0.183699523
     0.000003678  0.000014635  0.307831651
     0.250003678  0.750014635  0.307831651
     0.999958025  0.749958546  0.432677010
     0.250062895  0.000098256  0.432697074
     0.999978292  0.000093413  0.556574763
     0.249803788  0.750119214  0.556064616
     0.000003678  0.250014635  0.183699523
     0.250003678  0.500014635  0.183699523
     0.000003678  0.500014635  0.307831651
     0.250003678  0.250014635  0.307831651
     0.999996322  0.250085902  0.432737287
     0.250470277  0.499951058  0.432993793
     0.999914270  0.499958742  0.556347633
     0.250074935  0.249987426  0.556432786
     0.500003678  0.750014635  0.183699523
     0.750003678  0.000014635  0.183699523
     0.500003678  0.000014635  0.307831651
     0.750003678  0.750014635  0.307831651
     0.500022849  0.749528416  0.433004734
     0.749934873  0.000060439  0.432720256
     0.500004313  0.000298773  0.556352798
     0.750109261  0.749994940  0.556245449
     0.500003678  0.250014635  0.183699523
     0.750003678  0.500014635  0.183699523
     0.500003678  0.500014635  0.307831651
     0.750003678  0.250014635  0.307831651
     0.500018596  0.250408803  0.433022603
     0.749557443  0.499957022  0.433006493
     0.500185527  0.499326999  0.559321507
     0.749946987  0.250008855  0.556456309
     0.000003678  0.750014635  0.307831651
     0.250003678  0.000014635  0.307831651
     0.000003678  0.000014635  0.183699523
     0.250003678  0.750014635  0.183699523
     0.000015879  0.750145562  0.559430108
     0.249854125  0.999935043  0.559420358
     0.000005749  0.999985365  0.432483484
     0.249992579  0.750062832  0.432464910
     0.000003678  0.250014635  0.307831651
     0.250003678  0.500014635  0.307831651
     0.000003678  0.500014635  0.183699523
     0.250003678  0.250014635  0.183699523
     0.000025477  0.249903447  0.559432479
     0.249186912  0.500166699  0.559369032
     0.000048645  0.500056722  0.432413803
     0.249905202  0.249983746  0.432457768
     0.500003678  0.750014635  0.307831651
     0.750003678  0.000014635  0.307831651
     0.500003678  0.000014635  0.183699523
     0.750003678  0.750014635  0.183699523
     0.499913895  0.750860290  0.559719056
     0.750130870  0.999925050  0.559443888
     0.499992191  0.999840315  0.432416954
     0.749991554  0.750078916  0.432481166
     0.500003678  0.250014635  0.307831651
     0.750003678  0.500014635  0.307831651
     0.500003678  0.500014635  0.183699523
     0.750003678  0.250014635  0.183699523
     0.499988921  0.249108426  0.558920468
     0.750816707  0.500096856  0.559158266
     0.499978415  0.500099316  0.432940757
     0.750108091  0.249940033  0.432443649

  ion indices of the primitive-cell ions
   primitive index   ion index
                 1           1
                 2           2
                 3           3
                 4           4
                 5           5
                 6           6
                 7           7
                 8           8
                 9           9
                10          10
                11          11
                12          12
                13          13
                14          14
                15          15
                16          16
                17          17
                18          18
                19          19
                20          20
                21          21
                22          22
                23          23
                24          24
                25          25
                26          26
                27          27
                28          28
                29          29
                30          30
                31          31
                32          32
                33          33
                34          34
                35          35
                36          36
                37          37
                38          38
                39          39
                40          40
                41          41
                42          42
                43          43
                44          44
                45          45
                46          46
                47          47
                48          48
                49          49
                50          50
                51          51
                52          52
                53          53
                54          54
                55          55
                56          56
                57          57
                58          58
                59          59
                60          60
                61          61
                62          62
                63          63
                64          64

 KPOINTS: pymatgen v2020.8.13 with grid density =

Automatic generation of k-mesh.
 Grid dimensions read from file:
 generate k-points for:    2    2    1

 Generating k-lattice:

  Cartesian coordinates                     Fractional coordinates (reciprocal lattice)
     0.059234796  0.000000000  0.000000000     0.500000000  0.000000000  0.000000000
     0.000000000  0.059234796  0.000000000     0.000000000  0.500000000  0.000000000
     0.000000000  0.000000000  0.058823529     0.000000000  0.000000000  1.000000000

  Length of vectors
     0.059234796  0.059234796  0.058823529

  Shift w.r.t. Gamma in fractional coordinates (k-lattice)
     0.000000000  0.000000000  0.000000000

 Subroutine IBZKPT returns following result:

 Found      4 irreducible k-points:

 Following reciprocal coordinates:
            Coordinates               Weight
  0.000000  0.000000  0.000000      1.000000
  0.500000  0.000000  0.000000      1.000000
  0.000000  0.500000  0.000000      1.000000
  0.500000  0.500000  0.000000      1.000000

 Following cartesian coordinates:
            Coordinates               Weight
  0.000000  0.000000  0.000000      1.000000
  0.059235  0.000000  0.000000      1.000000
  0.000000  0.059235  0.000000      1.000000
  0.059235  0.059235  0.000000      1.000000

 SYSTEM =  Oxide-Surface
 POSCAR =  Mg  O

     8.440984654  8.440984654 17.000000000     0.118469591  0.118469591  0.058823529

 old parameters found on file WAVECAR:
[...]
   6.33076954  4.22061586  5.23313806
   4.22052338  4.22061586  3.12289190
   6.33076954  2.11036969  3.12289190
   4.22039881  2.10272040  9.50164795
   6.33763230  4.22130989  9.50569053
   4.22031013  4.22133065  7.35999286
   6.33165089  2.10973998  7.35154204

--------------------------------------- Iteration      FINAL  ---------------------------------------

--------------------OUTCAR has been truncated-------------------------

[...]

--------------------OUTCAR has been truncated-------------------------

  FORCE on cell =-STRESS in cart. coord.  units (eV):
  Direction    XX          YY          ZZ          XY          YZ          ZX
  Alpha Z  1191.54525  1191.54525  1191.54525
  Ewald  112293.89880112293.96473************     0.01583     0.08471    -0.06682
  Hartree128923.47696128923.51684************     0.01041     0.03827    -0.04070
  E(xc)   -3446.38805 -3446.38778 -3447.56090    -0.00009    -0.00015     0.00014
  Local  ************************250994.16002    -0.02593    -0.11490     0.10540
  n-local -5512.56693 -5512.56453 -5514.05881    -0.00009     0.00055    -0.00151
  augment   831.76622   831.77396   824.50854    -0.00302    -0.00333    -0.00091
  Kinetic 12479.60607 12479.60516 12490.89896    -0.00008     0.00576     0.00708
  Fock        0.00000     0.00000     0.00000     0.00000     0.00000     0.00000
  Total     -39.35884   -39.34865    -8.35981    -0.00296     0.01091     0.00269
  in kB     -52.06162   -52.04815   -11.05788    -0.00392     0.01443     0.00356

 VOLUME and BASIS-vectors are now :
  energy-cutoff  :     1000.00
  volume of cell :     1211.25
      direct lattice vectors                 reciprocal lattice vectors
     8.440984654  0.000000000  0.000000000     0.118469591  0.000000000  0.000000000
     0.000000000  8.440984654  0.000000000     0.000000000  0.118469591  0.000000000
     0.000000000  0.000000000 17.000000000     0.000000000  0.000000000  0.058823529

  length of vectors
     8.440984654  8.440984654 17.000000000     0.118469591  0.118469591  0.058823529

 FORCES acting on ions
    electron-ion (+dipol)            ewald-force                    non-local-force                 convergence-correction
   0.200E-02 0.124E+00 0.245E+04   -.222E-02 -.126E+00 -.244E+04   0.113E-03 0.112E-02 -.961E+01   0.130E-04 -.452E-05 -.282E-01
   -.127E+00 0.676E-02 0.245E+04   0.129E+00 -.640E-02 -.244E+04   -.150E-02 -.419E-03 -.961E+01   0.731E-05 -.108E-04 -.282E-01
   0.236E-01 -.299E-01 0.811E+03   -.265E-01 0.378E-01 -.812E+03   0.221E-02 -.603E-02 0.726E+00   0.719E-05 -.124E-04 -.277E-01
   -.724E+00 0.690E+00 0.811E+03   0.753E+00 -.712E+00 -.811E+03   -.228E-01 0.167E-01 0.745E+00   0.217E-05 -.709E-05 -.277E-01
   0.621E-02 0.214E+00 -.819E+03   -.146E-01 -.215E+00 0.819E+03   0.954E-02 0.647E-02 -.159E+00   0.322E-05 -.275E-04 -.229E-01
   -.220E+00 0.155E+00 -.819E+03   0.218E+00 -.142E+00 0.820E+03   -.455E-02 -.173E-01 -.163E+00   0.388E-04 -.859E-06 -.228E-01
   -.436E-02 0.154E+00 -.243E+04   0.808E-02 -.169E+00 0.242E+04   -.191E-02 0.491E-02 0.795E+01   -.955E-05 0.456E-04 -.672E-02
   -.151E+01 0.936E+00 -.243E+04   0.140E+01 -.781E+00 0.242E+04   0.107E+00 -.133E+00 0.793E+01   0.538E-04 -.416E-04 -.682E-02
   0.120E-02 -.124E+00 0.245E+04   -.124E-02 0.126E+00 -.244E+04   0.568E-06 -.152E-02 -.962E+01   0.380E-05 0.157E-04 -.282E-01
   -.157E+00 -.622E-02 0.245E+04   0.161E+00 0.605E-02 -.244E+04   -.346E-02 -.797E-05 -.963E+01   0.267E-04 0.139E-05 -.282E-01
   0.125E-01 0.284E-01 0.811E+03   -.978E-02 -.354E-01 -.812E+03   -.216E-02 0.534E-02 0.692E+00   0.156E-05 0.703E-05 -.277E-01
   -.687E+00 -.694E+00 0.811E+03   0.700E+00 0.718E+00 -.812E+03   -.974E-02 -.178E-01 0.741E+00   0.215E-04 0.159E-04 -.277E-01
   -.636E-01 -.203E+00 -.820E+03   0.642E-01 0.202E+00 0.820E+03   0.540E-03 -.522E-02 -.156E+00   -.607E-05 0.372E-04 -.228E-01
   -.196E+01 -.206E+00 -.822E+03   0.215E+01 0.191E+00 0.823E+03   -.184E+00 0.181E-01 -.253E+00   0.967E-07 -.165E-04 -.228E-01
   -.518E+00 -.155E+00 -.243E+04   0.556E+00 0.169E+00 0.242E+04   -.209E-01 -.492E-02 0.792E+01   -.158E-04 -.603E-04 -.672E-02
   0.369E+00 -.695E+00 -.243E+04   -.616E+00 0.518E+00 0.242E+04   0.189E+00 0.145E+00 0.805E+01   0.509E-04 0.532E-04 -.669E-02
   -.233E-02 0.153E+00 0.245E+04   0.248E-02 -.157E+00 -.244E+04   -.136E-03 0.314E-02 -.963E+01   -.823E-05 -.290E-04 -.282E-01
   0.127E+00 0.756E-02 0.245E+04   -.129E+00 -.739E-02 -.244E+04   0.145E-02 -.268E-03 -.962E+01   -.108E-04 -.183E-05 -.282E-01
   -.241E-01 0.142E-01 0.811E+03   0.265E-01 -.265E-01 -.812E+03   -.188E-02 0.951E-02 0.694E+00   -.355E-05 0.252E-05 -.277E-01
   0.727E+00 0.681E+00 0.811E+03   -.758E+00 -.699E+00 -.811E+03   0.240E-01 0.135E-01 0.750E+00   -.690E-05 -.168E-04 -.277E-01
   0.136E-01 0.207E+01 -.824E+03   -.516E-02 -.224E+01 0.824E+03   -.936E-02 0.177E+00 -.187E+00   -.395E-05 0.187E-04 -.228E-01
   0.217E+00 0.223E+00 -.820E+03   -.215E+00 -.219E+00 0.820E+03   0.441E-02 -.783E-02 -.158E+00   -.354E-04 0.124E-04 -.228E-01
   0.840E-02 0.182E+01 -.243E+04   -.132E-01 -.194E+01 0.242E+04   0.268E-02 0.666E-01 0.791E+01   0.144E-04 0.358E-04 -.672E-02
   0.138E+01 0.310E+00 -.243E+04   -.126E+01 -.113E+00 0.242E+04   -.110E+00 -.157E+00 0.796E+01   -.607E-04 -.503E-04 -.679E-02
   -.112E-02 -.154E+00 0.245E+04   0.119E-02 0.158E+00 -.244E+04   -.931E-04 -.328E-02 -.962E+01   -.395E-05 0.339E-04 -.282E-01
   0.157E+00 -.742E-02 0.245E+04   -.161E+00 0.732E-02 -.244E+04   0.327E-02 -.730E-04 -.962E+01   -.290E-04 -.122E-05 -.282E-01
   -.136E-01 -.127E-01 0.809E+03   0.123E-01 0.193E-01 -.809E+03   0.124E-02 -.567E-02 0.840E+00   0.619E-06 -.142E-04 -.277E-01
   0.686E+00 -.683E+00 0.811E+03   -.699E+00 0.700E+00 -.812E+03   0.950E-02 -.133E-01 0.736E+00   -.247E-04 0.148E-04 -.277E-01
   0.763E-01 -.191E+01 -.821E+03   -.770E-01 0.209E+01 0.821E+03   -.773E-03 -.183E+00 -.335E+00   0.108E-04 0.575E-05 -.227E-01
   0.192E+01 -.266E+00 -.822E+03   -.210E+01 0.260E+00 0.822E+03   0.186E+00 0.914E-02 -.292E+00   -.526E-05 -.274E-04 -.227E-01
   0.864E+00 -.300E+01 -.245E+04   -.886E+00 0.307E+01 0.244E+04   -.564E-02 0.276E-01 0.858E+01   0.221E-04 -.777E-04 -.588E-02
   -.401E+00 -.160E+00 -.243E+04   0.649E+00 -.521E-01 0.242E+04   -.190E+00 0.167E+00 0.807E+01   -.472E-04 0.620E-04 -.667E-02
   -.334E-02 0.245E+00 0.486E+03   0.598E-02 -.253E+00 -.486E+03   -.332E-02 0.132E-01 -.841E-01   0.587E-05 -.117E-04 -.169E-01
   -.251E+00 0.417E-01 0.486E+03   0.260E+00 -.445E-01 -.486E+03   -.111E-01 0.402E-02 -.902E-01   0.976E-05 -.200E-05 -.169E-01
   0.176E-02 0.150E-02 0.149E+04   -.211E-02 -.385E-03 -.149E+04   0.373E-03 -.171E-02 0.233E+01   0.113E-05 -.177E-04 -.175E-01
   -.886E-01 0.853E-01 0.148E+04   0.931E-01 -.887E-01 -.149E+04   -.589E-02 0.404E-02 0.233E+01   -.362E-05 -.242E-05 -.175E-01
   0.537E-01 0.116E+00 -.149E+04   -.353E-01 -.102E+00 0.150E+04   -.264E-01 -.287E-01 -.472E+01   0.133E-04 -.426E-04 -.331E-02
   -.128E+00 0.565E-01 -.149E+04   0.123E+00 -.132E+00 0.150E+04   0.177E-01 0.102E+00 -.470E+01   0.476E-04 -.630E-06 -.332E-02
   0.298E-01 -.510E-01 -.487E+03   -.281E-01 0.475E-01 0.487E+03   -.259E-02 0.371E-02 0.189E+00   -.243E-06 -.779E-05 -.152E-01
   -.793E+00 0.667E+00 -.485E+03   0.784E+00 -.654E+00 0.485E+03   0.109E-01 -.199E-01 0.368E+00   0.586E-05 0.168E-06 -.152E-01
   -.376E-02 -.242E+00 0.486E+03   0.312E-02 0.249E+00 -.486E+03   0.790E-03 -.776E-02 -.101E+00   0.144E-05 0.106E-04 -.168E-01
   -.376E+00 -.374E-01 0.485E+03   0.348E+00 0.381E-01 -.485E+03   0.350E-01 0.108E-03 -.127E+00   0.488E-05 -.268E-05 -.169E-01
   0.853E-03 -.146E-02 0.148E+04   -.702E-03 0.428E-03 -.149E+04   -.254E-03 0.103E-02 0.232E+01   -.361E-06 0.919E-05 -.175E-01
   -.856E-01 -.854E-01 0.148E+04   0.881E-01 0.890E-01 -.149E+04   -.329E-02 -.496E-02 0.233E+01   0.498E-05 0.101E-04 -.175E-01
   -.726E-01 -.117E+00 -.149E+04   0.942E-01 0.103E+00 0.150E+04   -.283E-01 0.270E-01 -.464E+01   -.595E-05 0.541E-04 -.329E-02
   -.221E+01 -.260E+00 -.149E+04   0.202E+01 0.371E+00 0.149E+04   0.297E+00 -.146E+00 -.430E+01   -.587E-04 -.766E-06 -.331E-02
   -.796E-01 0.399E-01 -.485E+03   0.893E-01 -.337E-01 0.485E+03   -.146E-01 -.104E-01 0.335E+00   -.105E-05 -.773E-05 -.152E-01
   -.454E+00 -.654E+00 -.486E+03   0.433E+00 0.646E+00 0.485E+03   0.339E-01 0.127E-01 0.323E+00   0.146E-04 0.692E-05 -.152E-01
   -.151E-02 0.368E+00 0.485E+03   0.110E-02 -.337E+00 -.485E+03   0.354E-03 -.363E-01 -.135E+00   -.148E-05 -.318E-06 -.169E-01
   0.250E+00 0.422E-01 0.486E+03   -.258E+00 -.418E-01 -.486E+03   0.101E-01 -.136E-05 -.955E-01   -.140E-04 0.410E-05 -.168E-01
   -.172E-02 0.497E-02 0.148E+04   0.211E-02 -.565E-02 -.149E+04   -.584E-03 0.605E-03 0.232E+01   -.225E-06 -.873E-05 -.175E-01
   0.888E-01 0.846E-01 0.148E+04   -.932E-01 -.875E-01 -.149E+04   0.551E-02 0.326E-02 0.233E+01   0.187E-05 -.925E-05 -.175E-01
   0.655E-01 0.269E+01 -.149E+04   -.107E+00 -.252E+01 0.149E+04   0.540E-01 -.276E+00 -.445E+01   -.839E-05 0.623E-04 -.325E-02
   0.125E+00 0.175E+00 -.149E+04   -.119E+00 -.252E+00 0.150E+04   -.189E-01 0.103E+00 -.468E+01   -.528E-04 0.151E-04 -.331E-02
   -.291E-01 0.316E+00 -.485E+03   0.273E-01 -.345E+00 0.485E+03   0.269E-02 0.452E-01 0.336E+00   -.255E-05 0.588E-05 -.152E-01
   0.788E+00 0.563E+00 -.486E+03   -.781E+00 -.546E+00 0.485E+03   -.873E-02 -.266E-01 0.339E+00   -.329E-05 -.549E-05 -.152E-01
   0.542E-02 -.380E+00 0.485E+03   -.523E-02 0.357E+00 -.485E+03   -.388E-03 0.308E-01 -.119E+00   0.834E-06 0.120E-04 -.168E-01
   0.379E+00 -.439E-01 0.485E+03   -.353E+00 0.439E-01 -.485E+03   -.329E-01 0.969E-03 -.123E+00   -.791E-05 -.249E-05 -.168E-01
   -.102E-02 -.420E-02 0.148E+04   0.812E-03 0.530E-02 -.149E+04   0.202E-03 -.172E-02 0.231E+01   0.401E-05 0.473E-05 -.175E-01
   0.856E-01 -.845E-01 0.148E+04   -.881E-01 0.875E-01 -.149E+04   0.305E-02 -.430E-02 0.233E+01   -.654E-05 0.994E-05 -.175E-01
   0.883E-01 -.171E+01 -.149E+04   -.108E+00 0.147E+01 0.149E+04   0.258E-01 0.356E+00 -.407E+01   0.283E-05 -.642E-04 -.347E-02
   0.193E+01 -.281E+00 -.149E+04   -.172E+01 0.370E+00 0.149E+04   -.320E+00 -.115E+00 -.419E+01   0.650E-04 -.210E-04 -.342E-02
   0.998E-01 -.390E+00 -.496E+03   -.106E+00 0.409E+00 0.496E+03   0.949E-02 -.297E-01 -.182E+00   0.100E-04 -.161E-04 -.152E-01
   0.445E+00 -.547E+00 -.486E+03   -.424E+00 0.533E+00 0.485E+03   -.349E-01 0.223E-01 0.331E+00   -.189E-04 0.135E-04 -.152E-01
   0.290E-01 -.119E+00 0.263E+02   0.781E-12 0.254E-13 -.364E-11   -.324E-01 0.137E+00 -.244E+02   0.148E-04 -.428E-04 -.111E+01

 POSITION                                       TOTAL-FORCE (eV/Angst)
      0.00003      6.33086      3.12289        -0.000046     -0.000853      0.460423
      2.11028      0.00012      3.12289         0.000488     -0.000349      0.460848
      0.00003      0.00012      5.23314        -0.000653      0.001565      0.113266
      2.11028      6.33086      5.23314         0.006946     -0.005472      0.114987
      8.44063      6.33039      7.35551         0.001225      0.005525      0.122032
      2.11078      0.00083      7.35585        -0.006132     -0.004844      0.119230
      8.44080      0.00079      9.46177         0.001841     -0.010127     -0.121882
      2.10859      6.33174      9.45310        -0.004328      0.022001     -0.050965
      0.00003      2.11037      3.12289         0.000019      0.000018      0.461414
      2.11028      4.22062      3.12289         0.000895     -0.000450      0.463569
      0.00003      4.22062      5.23314         0.000652     -0.001889      0.121757
      2.11028      2.11037      5.23314         0.003657      0.005597      0.114091
      8.44095      2.11097      7.35653         0.001153     -0.006366      0.115621
      2.11422      4.22008      7.36089        -0.002973      0.003040      0.103876
      8.44026      4.22014      9.45791         0.017152      0.009406     -0.098275
      2.11088      2.11014      9.45936        -0.057522     -0.031691     -0.138479
      4.22052      6.33086      3.12289         0.000055     -0.001312      0.465182
      6.33077      0.00012      3.12289        -0.000446     -0.000372      0.461157
      4.22052      0.00012      5.23314         0.000608     -0.003019      0.121671
      6.33077      6.33086      5.23314        -0.007384     -0.004764      0.114653
      4.22069      6.32676      7.36108        -0.000875      0.002769      0.116824
      6.33019      0.00051      7.35624         0.006190     -0.004479      0.118281
      4.22053      0.00252      9.45800        -0.002089     -0.055427     -0.093107
      6.33166      6.33070      9.45617         0.011199      0.040724     -0.093940
      4.22052      2.11037      3.12289         0.000031      0.000371      0.463511
      6.33077      4.22062      3.12289        -0.000884     -0.000444      0.463660
      4.22052      4.22062      5.23314        -0.000083      0.000615      0.127933
      6.33077      2.11037      5.23314        -0.003423      0.004257      0.114189
      4.22065      2.11370      7.36138        -0.001418     -0.001436      0.076206
      6.32700      4.22013      7.36111         0.002491      0.003419      0.091551
      4.22206      4.21481      9.50847        -0.027178      0.091938     -0.416610
      6.33029      2.11032      9.45976         0.057788     -0.044433     -0.147122
      0.00003      6.33086      5.23314        -0.000655      0.004500      0.024873
      2.11028      0.00012      5.23314        -0.002693      0.000951      0.024643
      0.00003      0.00012      3.12289         0.000081     -0.000905     -0.419034
      2.11028      6.33086      3.12289        -0.001395      0.000339     -0.415211
      0.00013      6.33197      9.51031        -0.008242     -0.014660     -0.203127
      2.10901      8.44044      9.51015         0.013033      0.027208     -0.200129
      0.00005      8.44086      7.35222        -0.000837      0.000039     -0.022360
      2.11018      6.33127      7.35190         0.002392     -0.007154     -0.016802
      0.00003      2.11037      5.23314         0.000216     -0.000599      0.024658
      2.11028      4.22062      5.23314         0.007151      0.000565      0.035210
      0.00003      4.22062      3.12289        -0.000051     -0.000258     -0.420744
      2.11028      2.11037      3.12289        -0.000797     -0.001754     -0.415704
      0.00022      2.10943      9.51035        -0.006907      0.013256     -0.184788
      2.10338      4.22190      9.50927         0.113150     -0.036651     -0.115785
      0.00041      4.22097      7.35103        -0.004999     -0.004571     -0.000512
      2.10945      2.11011      7.35178         0.013206      0.004329     -0.004808
      4.22052      6.33086      5.23314         0.000003     -0.006107      0.033612
      6.33077      0.00012      5.23314         0.002442      0.000111      0.024859
      4.22052      0.00012      3.12289        -0.000145     -0.000355     -0.420811
      6.33077      6.33086      3.12289         0.001242      0.000151     -0.415320
      4.21977      6.33800      9.51522         0.013215     -0.117213     -0.156600
      6.33184      8.44035      9.51055        -0.013152      0.025875     -0.192920
      4.22043      8.43964      7.35109         0.000989      0.016350     -0.000519
      6.33067      6.33140      7.35218        -0.001636     -0.010191     -0.015244
      4.22052      2.11037      5.23314        -0.000156      0.007698      0.039091
      6.33077      4.22062      5.23314        -0.006719      0.000749      0.036984
      4.22052      4.22062      3.12289         0.000049     -0.000909     -0.421086
      6.33077      2.11037      3.12289         0.000679     -0.001595     -0.415775
      4.22040      2.10272      9.50165         0.006510      0.117598     -0.050113
      6.33763      4.22131      9.50569        -0.113257     -0.026955     -0.081607
      4.22031      4.22133      7.35999         0.003807     -0.011679     -0.000537
      6.33165      2.10974      7.35154        -0.013481      0.008319      0.000054
    total drift:                               -0.003358      0.017430      0.817873

  FREE ENERGIE OF THE ION-ELECTRON SYSTEM (eV)
  free  energy   TOTEN  =      -507.13964662 eV

  energy  without entropy=     -507.13964662  energy(sigma->0) =     -507.13964662

     |            E. Caldeweyher, S. Ehlert & S. Grimme          |
     |          Mulliken Center for Theoretical Chemistry        |
     |                    University of Bonn                     |

Rational (Becke-Johnson) damping: r2scan-D4-ATM
  s6         1.0000
  s8         0.6019
  s9         1.0000
  a1         0.5156
  a2         5.7734
 alp        16.0000

Dispersion energy:      -1.1244358134510E-01 Eh