 vasp.6.3.0 20Jan22 (build Apr  1 2022 16:44:48) complex
 executed on        HPECrayEX_GCC date 2022.11.13  15:29:58

 INCAR:
   SYSTEM = MgO-rocksalt
   ISMEAR = 0
   SIGMA = 0.05
   EDIFF = 1E-6
   ALGO = ALL
   ISTART = 0
   IBRION = -1
   NSW = 0
   ISYM = 0
   DIPOL = 0.5 0.5 0.5
   IDIPOL = 3
   LDIPOL = .TRUE.
   LHFCALC = .TRUE.
   GGA = B5
   AEXX = 0.2
   AGGAX = 0.72
   AGGAC = 0.81
   ALDAC = 0.19
   IVDW = 1
   VDW_S6 = 1.05
   VDW_C6 = 0.63 0.70
   VDW_R0 = 1.243 1.342
   ENCUT = 600
   PREC = Accurate
   LASPH = .TRUE.
   LREAL = .FALSE.
   ISPIN = 1
   NELM = 200
   NELMIN = 8
   NCORE = 8
   KPAR = 1
   LWAVE = .FALSE.
   LCHARG = .FALSE.

 POTCAR:    PAW_PBE Mg_pv 13Apr2007
 POTCAR:    PAW_PBE O 08Apr2002
 POTCAR:    PAW_PBE Mg_pv 13Apr2007
   VRHFIN =Mg: p6s2

   TITEL  = PAW_PBE Mg_pv 13Apr2007
   POMASS =   24.305; ZVAL   =    8.000    mass and valenz
   ENMAX  =  403.929; ENMIN  =  302.947 eV

   TITEL  = PAW_PBE O 08Apr2002
   POMASS =   16.000; ZVAL   =    6.000    mass and valenz
   ENMAX  =  400.000; ENMIN  =  300.000 eV

  PAW_PBE Mg_pv 13Apr2007               :
  PAW_PBE O 08Apr2002                   :

 POSCAR: Mg  O
  positions in direct lattice
 exchange correlation table for  LEXCH =       12
   RHO(1)=    0.500       N(1)  =     2000
   RHO(2)=  100.500       N(2)  =     4000

 ion  position               nearest neighbor table
   1  0.250  0.000  0.353-  35 2.09  36 2.09  43 2.09  52 2.09  33 2.09
   2  0.500  0.250  0.353-  35 2.09  36 2.09  44 2.09  51 2.09  34 2.09
   3  0.250  0.250  0.451-  33 2.09  34 2.09  41 2.09  50 2.09  35 2.09  39 2.10
   4  0.500  0.000  0.451-  40 2.09  34 2.09  33 2.09  42 2.09  49 2.09  36 2.09
   5  0.250  0.000  0.549-  40 2.08  56 2.09  39 2.09  33 2.09  47 2.09  37 2.12
   6  0.500  0.251  0.550-  48 2.08  38 2.09  55 2.09  39 2.09  40 2.10  34 2.11
   7  0.250  0.247  0.647-  37 2.07  39 2.07  38 2.09  54 2.09  45 2.12
   8  0.500  0.000  0.647-  38 2.07  46 2.08  40 2.08  53 2.09  37 2.09
   9  0.250  0.500  0.353-  35 2.09  43 2.09  44 2.09  60 2.09  41 2.09
  10  0.500  0.750  0.353-  36 2.09  43 2.09  44 2.09  59 2.09  42 2.09
  11  0.250  0.750  0.451-  33 2.09  41 2.09  42 2.09  58 2.09  43 2.09  47 2.10
  12  0.500  0.500  0.451-  34 2.09  41 2.09  42 2.09  57 2.09  44 2.09  48 2.11
  13  0.251  0.500  0.550-  48 2.07  39 2.08  47 2.08  64 2.09  41 2.11  45 2.17
  14  0.500  0.749  0.550-  48 2.08  63 2.09  47 2.09  40 2.09  46 2.11  42 2.11
  15  0.249  0.753  0.646-  47 2.06  37 2.06  62 2.08  46 2.09  45 2.11
  16  0.507  0.499  0.652-  61 2.05  38 2.10  46 2.11  48 2.17  45 2.18
  17  0.750  0.000  0.353-  36 2.09  51 2.09  52 2.09  59 2.09  49 2.09
  18  0.000  0.250  0.353-  35 2.09  51 2.09  52 2.09  60 2.09  50 2.09
  19  0.750  0.250  0.451-  34 2.09  49 2.09  50 2.09  57 2.09  51 2.09  55 2.09
  20  0.000  0.000  0.451-  33 2.09  49 2.09  50 2.09  58 2.09  52 2.09  56 2.09
  21  0.750  0.000  0.549-  40 2.09  55 2.09  63 2.09  56 2.09  49 2.09  53 2.12
  22  1.000  0.250  0.550-  55 2.08  39 2.09  64 2.09  56 2.09  50 2.10  54 2.12
  23  0.750  0.249  0.647-  53 2.08  55 2.08  38 2.09  54 2.09  61 2.10
  24  0.999  0.000  0.647-  56 2.08  53 2.08  54 2.08  62 2.08  37 2.09
  25  0.750  0.500  0.353-  44 2.09  51 2.09  59 2.09  60 2.09  57 2.09
  26  0.000  0.750  0.353-  43 2.09  52 2.09  59 2.09  60 2.09  58 2.09
  27  0.750  0.750  0.451-  42 2.09  49 2.09  57 2.09  58 2.09  59 2.09  63 2.09
  28  0.000  0.500  0.451-  41 2.09  50 2.09  57 2.09  58 2.09  60 2.09  64 2.10
  29  0.749  0.500  0.550-  48 2.08  55 2.09  63 2.09  64 2.10  57 2.10  61 2.12
  30  1.000  0.750  0.550-  63 2.08  64 2.09  47 2.09  56 2.09  58 2.10  62 2.12
  31  0.750  0.751  0.647-  63 2.08  53 2.08  62 2.09  46 2.09  61 2.09
  32  0.998  0.500  0.647-  61 2.05  45 2.07  64 2.08  54 2.09  62 2.09
  33  0.250  0.000  0.451-   3 2.09   4 2.09  11 2.09  20 2.09   1 2.09   5 2.09
  34  0.500  0.250  0.451-   3 2.09   4 2.09  12 2.09  19 2.09   2 2.09   6 2.11
  35  0.250  0.250  0.353-   1 2.09   2 2.09   9 2.09  18 2.09   3 2.09
  36  0.500  0.000  0.353-   1 2.09   2 2.09  10 2.09  17 2.09   4 2.09
  37  0.250  1.000  0.649-  15 2.06   7 2.07  24 2.09   8 2.09   5 2.12
  38  0.500  0.248  0.648-   8 2.07   7 2.09   6 2.09  23 2.09  16 2.10
  39  0.250  0.251  0.550-   7 2.07  13 2.08  22 2.09   5 2.09   6 2.09   3 2.10
  40  0.500  1.000  0.549-   8 2.08   5 2.08   4 2.09  21 2.09  14 2.09   6 2.10
  41  0.250  0.500  0.451-   3 2.09  11 2.09  12 2.09  28 2.09   9 2.09  13 2.11
  42  0.500  0.750  0.451-   4 2.09  11 2.09  12 2.09  27 2.09  10 2.09  14 2.11
  43  0.250  0.750  0.353-   1 2.09   9 2.09  10 2.09  26 2.09  11 2.09
  44  0.500  0.500  0.353-   2 2.09   9 2.09  10 2.09  25 2.09  12 2.09
  45  0.245  0.500  0.652-  32 2.07  15 2.11   7 2.12  13 2.17  16 2.18
  46  0.500  0.752  0.649-   8 2.08  15 2.09  31 2.09  14 2.11  16 2.11
  47  0.250  0.749  0.549-  15 2.06  13 2.08  30 2.09  14 2.09   5 2.09  11 2.10
  48  0.499  0.500  0.550-  13 2.07  14 2.08   6 2.08  29 2.08  12 2.11  16 2.17
  49  0.750  0.000  0.451-   4 2.09  19 2.09  20 2.09  27 2.09  17 2.09  21 2.09
  50  0.000  0.250  0.451-   3 2.09  19 2.09  20 2.09  28 2.09  18 2.09  22 2.10
  51  0.750  0.250  0.353-   2 2.09  17 2.09  18 2.09  25 2.09  19 2.09
  52  0.000  0.000  0.353-   1 2.09  17 2.09  18 2.09  26 2.09  20 2.09
  53  0.750  1.000  0.649-  31 2.08  24 2.08  23 2.08   8 2.09  21 2.12
  54  0.000  0.249  0.649-  24 2.08  23 2.09   7 2.09  32 2.09  22 2.12
  55  0.750  0.250  0.549-  22 2.08  23 2.08  29 2.09  21 2.09   6 2.09  19 2.09
  56  0.000  1.000  0.549-  24 2.08   5 2.09  30 2.09  22 2.09  21 2.09  20 2.09
  57  0.750  0.500  0.451-  12 2.09  19 2.09  27 2.09  28 2.09  25 2.09  29 2.10
  58  0.000  0.750  0.451-  11 2.09  20 2.09  27 2.09  28 2.09  26 2.09  30 2.10
  59  0.750  0.750  0.353-  10 2.09  17 2.09  25 2.09  26 2.09  27 2.09
  60  0.000  0.500  0.353-   9 2.09  18 2.09  25 2.09  26 2.09  28 2.09
  61  0.752  0.500  0.649-  32 2.05  16 2.05  31 2.09  23 2.10  29 2.12
  62  1.000  0.751  0.649-  24 2.08  15 2.08  31 2.09  32 2.09  30 2.12
  63  0.750  0.750  0.549-  31 2.08  30 2.08  14 2.09  29 2.09  21 2.09  27 2.09
  64  0.001  0.500  0.549-  32 2.08  30 2.09  22 2.09  13 2.09  28 2.10  29 2.10

IMPORTANT INFORMATION: All symmetrisations will be switched off!
NOSYMM: (Re-)initialisation of all symmetry stuff for point group C_1.

                                     Primitive cell

  volume of cell :    1482.1129

  direct lattice vectors                    reciprocal lattice vectors
     8.349111827  0.000000000  0.000000000     0.119773219  0.000000000  0.000000000
     0.000000000  8.349111827  0.000000000     0.000000000  0.119773219  0.000000000
     0.000000000  0.000000000 21.261833870     0.000000000  0.000000000  0.047032632

  length of vectors
     8.349111827  8.349111827 21.261833870     0.119773219  0.119773219  0.047032632

  position of ions in fractional coordinates (direct lattice)
     0.250000000  0.000000000  0.352744737
     0.500000000  0.250000000  0.352744737
     0.250000000  0.250000000  0.450914912
     0.500000000  0.000000000  0.450914912
     0.250227883  0.000187923  0.549322304
     0.500190670  0.250922993  0.549981269
     0.250170031  0.247307299  0.646969261
     0.500456821  0.000351607  0.646757370
     0.250000000  0.500000000  0.352744737
     0.500000000  0.750000000  0.352744737
     0.250000000  0.750000000  0.450914912
     0.500000000  0.500000000  0.450914912
     0.251008758  0.499803780  0.549970062
     0.500240848  0.748907207  0.550026247
     0.249454202  0.752708188  0.646202182
     0.506551502  0.498977220  0.652478451
     0.750000000  0.000000000  0.352744737
     0.000000000  0.250000000  0.352744737
     0.750000000  0.250000000  0.450914912
     0.000000000  0.000000000  0.450914912
     0.749762177  0.000067976  0.549447066
     0.999808952  0.250125476  0.549627130
     0.749837147  0.249030027  0.647240497
     0.999481469  0.000089173  0.647102148
     0.750000000  0.500000000  0.352744737
     0.000000000  0.750000000  0.352744737
     0.750000000  0.750000000  0.450914912
     0.000000000  0.500000000  0.450914912
     0.749139578  0.499867307  0.549871136
     0.999663208  0.749818477  0.549526307
     0.750171706  0.750844408  0.647018700
     0.997607772  0.499810301  0.647115235
     0.250000000  0.000000000  0.450914912
     0.500000000  0.250000000  0.450914912
     0.250000000  0.250000000  0.352744737
     0.500000000  0.000000000  0.352744737
     0.249619794  0.999762896  0.649259659
     0.499933278  0.248026973  0.648109944
     0.249591690  0.250592519  0.549539662
     0.499808641  0.999689109  0.549026183
     0.250000000  0.500000000  0.450914912
     0.500000000  0.750000000  0.450914912
     0.250000000  0.750000000  0.352744737
     0.500000000  0.500000000  0.352744737
     0.244978237  0.500317530  0.652008358
     0.499748173  0.751648347  0.649056826
     0.249703572  0.749376129  0.549452493
     0.499479801  0.500123746  0.550327091
     0.750000000  0.000000000  0.450914912
     0.000000000  0.250000000  0.450914912
     0.750000000  0.250000000  0.352744737
     0.000000000  0.000000000  0.352744737
     0.750277162  0.999813170  0.649344883
     0.000001646  0.249310822  0.649465781
     0.750424724  0.250030465  0.549292391
     0.000170891  0.999905781  0.549248207
     0.750000000  0.500000000  0.450914912
     0.000000000  0.750000000  0.450914912
     0.750000000  0.750000000  0.352744737
     0.000000000  0.500000000  0.352744737
     0.752159835  0.500113464  0.649459675
     0.999990277  0.750612363  0.649454314
     0.750232090  0.749901570  0.549332483
     0.000535025  0.500038769  0.549497338

  ion indices of the primitive-cell ions
   primitive index   ion index
                 1           1
                 2           2
                 3           3
                 4           4
                 5           5
                 6           6
                 7           7
                 8           8
                 9           9
                10          10
                11          11
                12          12
                13          13
                14          14
                15          15
                16          16
                17          17
                18          18
                19          19
                20          20
                21          21
                22          22
                23          23
                24          24
                25          25
                26          26
                27          27
                28          28
                29          29
                30          30
                31          31
                32          32
                33          33
                34          34
                35          35
                36          36
                37          37
                38          38
                39          39
                40          40
                41          41
                42          42
                43          43
                44          44
[...]
   0.50000000  0.75000000  0.45091491
   0.25000000  0.75000000  0.35274474
   0.50000000  0.50000000  0.35274474
   0.24497824  0.50031753  0.65200836
   0.49974817  0.75164835  0.64905683
   0.24970357  0.74937613  0.54945249
   0.49947980  0.50012375  0.55032709
   0.75000000  0.00000000  0.45091491
   0.00000000  0.25000000  0.45091491
   0.75000000  0.25000000  0.35274474
   0.00000000  0.00000000  0.35274474
   0.75027716  0.99981317  0.64934488
   0.00000165  0.24931082  0.64946578
   0.75042472  0.25003046  0.54929239
   0.00017089  0.99990578  0.54924821
   0.75000000  0.50000000  0.45091491
   0.00000000  0.75000000  0.45091491
   0.75000000  0.75000000  0.35274474
   0.00000000  0.50000000  0.35274474
   0.75215983  0.50011346  0.64945968
   0.99999028  0.75061236  0.64945431
   0.75023209  0.74990157  0.54933248
   0.00053502  0.50003877  0.54949734

 position of ions in cartesian coordinates  (Angst):
   2.08727796  0.00000000  7.50000000
   4.17455591  2.08727796  7.50000000
   2.08727796  2.08727796  9.58727796
   4.17455591  0.00000000  9.58727796
   2.08918058  0.00156899 11.67959957
   4.17614784  2.09498413 11.69361037
   2.08869756  2.06479630 13.75575294
   4.17836996  0.00293561 13.75124776
   2.08727796  4.17455591  7.50000000
   4.17455591  6.26183387  7.50000000
   2.08727796  6.26183387  9.58727796
   4.17455591  4.17455591  9.58727796
   2.09570019  4.17291765 11.69337210
   4.17656678  6.25271002 11.69456668
   2.08272103  6.28444483 13.73944344
   4.22925513  4.16601661 13.87288842
   6.26183387  0.00000000  7.50000000
   0.00000000  2.08727796  7.50000000
   6.26183387  2.08727796  9.58727796
   0.00000000  0.00000000  9.58727796
   6.25984826  0.00056754 11.68225224
   8.34751674  2.08832557 11.68608072
   6.26047419  2.07917954 13.76151992
   8.34478255  0.00074452 13.75857837
   6.26183387  4.17455591  7.50000000
   0.00000000  6.26183387  7.50000000
   6.26183387  6.26183387  9.58727796
   0.00000000  4.17455591  9.58727796
   6.25465011  4.17344805 11.69126874
   8.34629991  6.26031832 11.68393704
   6.26326746  6.26888393 13.75680411
   8.32913885  4.17297209 13.75885662
   2.08727796  0.00000000  9.58727796
   4.17455591  2.08727796  9.58727796
   2.08727796  2.08727796  7.50000000
   4.17455591  0.00000000  7.50000000
   2.08410357  8.34713221 13.80445100
   4.17399885  2.07080493 13.78000596
   2.08386893  2.09222497 11.68422101
   4.17295824  8.34651616 11.67330349
   2.08727796  4.17455591  9.58727796
   4.17455591  6.26183387  9.58727796
   2.08727796  6.26183387  7.50000000
   4.17455591  4.17455591  7.50000000
   2.04535070  4.17720701 13.86289339
   4.17245339  6.27559610 13.80013840
   2.08480304  6.25662510 11.68236762
   4.17021271  4.17558909 11.70096318
   6.26183387  0.00000000  9.58727796
   0.00000000  2.08727796  9.58727796
   6.26183387  2.08727796  7.50000000
   0.00000000  0.00000000  7.50000000
   6.26414792  8.34755196 13.80626303
   0.00001374  2.08152393 13.80883353
   6.26537994  2.08753231 11.67896356
   0.00142679  8.34832518 11.67802414
   6.26183387  4.17455591  9.58727796
   0.00000000  6.26183387  9.58727796
   6.26183387  6.26183387  7.50000000
   0.00000000  4.17455591  7.50000000
   6.27986657  4.17550324 13.80870372
   8.34903065  6.26694656 13.80858972
   6.26377161  6.26101207 11.67981600
   0.00446698  4.17487960 11.68332111

--------------------------------------- Iteration      FINAL  ---------------------------------------

--------------------OUTCAR has been truncated-------------------------

[...]

--------------------OUTCAR has been truncated-------------------------

  DFT-D2 method for vdW energy calculation

  Parameters of vdW forcefield:
         C6(Jnm^6/mol)     R0(A)
   Mg       0.630          1.243
   O        0.700          1.342

  vdW correction parametrized for the method 8¯ý      

  IVDW =   1
  VDW_RADIUS =    50.000 A
  VDW_S6 =     1.050
  VDW_SR =     1.000
  VDW_D =    20.000
  LVDW_EWALD = F

  Number of pair interactions contributing to vdW energy:  742626
  Edisp (eV):   -5.30508

 VOLUME and BASIS-vectors are now :
  energy-cutoff  :      600.00
  volume of cell :     1482.11
      direct lattice vectors                 reciprocal lattice vectors
     8.349111827  0.000000000  0.000000000     0.119773219  0.000000000  0.000000000
     0.000000000  8.349111827  0.000000000     0.000000000  0.119773219  0.000000000
     0.000000000  0.000000000 21.261833870     0.000000000  0.000000000  0.047032632

  length of vectors
     8.349111827  8.349111827 21.261833870     0.119773219  0.119773219  0.047032632

 FORCES acting on ions:
    Electron-Ion                     Ewald-Force                    Non-Local-Force
   -.181E+00 -.480E-02 0.212E+04   0.182E+00 0.448E-02 -.212E+04   -.855E-03 0.156E-03 -.642E+01
   0.130E+00 -.421E+00 0.212E+04   -.132E+00 0.429E+00 -.212E+04   0.137E-02 -.560E-02 -.644E+01
   -.110E+01 -.174E+01 0.702E+03   0.109E+01 0.184E+01 -.702E+03   0.483E-02 -.622E-01 0.462E+00
   0.294E+00 -.457E-02 0.704E+03   -.284E+00 -.260E-01 -.704E+03   -.597E-02 0.199E-01 0.291E+00
   -.453E+00 0.602E-01 -.702E+03   0.419E+00 -.271E-01 0.702E+03   0.133E-02 -.383E-01 -.395E-02
   0.250E+01 -.537E+01 -.707E+03   -.259E+01 0.579E+01 0.708E+03   0.358E-01 -.348E+00 -.591E+00
   -.331E+01 -.132E+02 -.210E+04   0.275E+01 0.134E+02 0.210E+04   0.370E+00 0.160E+00 0.538E+01
   0.159E+01 0.198E+01 -.210E+04   -.149E+01 -.215E+01 0.210E+04   -.113E+00 0.619E-01 0.542E+01
   -.265E+00 0.523E-02 0.212E+04   0.270E+00 -.489E-02 -.212E+04   -.343E-02 -.162E-03 -.646E+01
   0.123E+00 0.421E+00 0.212E+04   -.124E+00 -.429E+00 -.212E+04   0.115E-02 0.595E-02 -.645E+01
   -.121E+01 0.173E+01 0.702E+03   0.123E+01 -.182E+01 -.702E+03   -.161E-01 0.622E-01 0.434E+00
   0.631E+00 -.187E-01 0.698E+03   -.684E+00 0.392E-01 -.698E+03   0.351E-01 -.139E-01 0.628E+00
   -.532E+01 -.789E-01 -.725E+03   0.552E+01 0.473E-01 0.725E+03   -.204E+00 0.366E-01 0.431E-01
   0.237E+01 0.546E+01 -.712E+03   -.242E+01 -.587E+01 0.712E+03   0.477E-02 0.344E+00 -.430E+00
   -.578E+01 0.132E+02 -.209E+04   0.538E+01 -.134E+02 0.209E+04   0.333E+00 -.132E+00 0.518E+01
   0.254E+02 -.261E+01 -.215E+04   -.252E+02 0.279E+01 0.214E+04   -.930E+00 -.399E-01 0.625E+01
   0.181E+00 0.203E-02 0.212E+04   -.182E+00 -.281E-02 -.212E+04   0.879E-03 0.495E-03 -.643E+01
   -.130E+00 -.337E+00 0.212E+04   0.132E+00 0.342E+00 -.212E+04   -.138E-02 -.319E-02 -.644E+01
   0.109E+01 -.147E+01 0.703E+03   -.108E+01 0.150E+01 -.704E+03   -.495E-02 -.131E-01 0.425E+00
   -.299E+00 -.101E+00 0.704E+03   0.289E+00 0.108E+00 -.705E+03   0.637E-02 -.481E-02 0.362E+00
   0.403E+00 0.229E+00 -.704E+03   -.369E+00 -.232E+00 0.704E+03   -.274E-02 -.728E-02 -.462E-02
   -.203E+01 -.210E+01 -.707E+03   0.210E+01 0.220E+01 0.707E+03   -.258E-01 -.735E-01 -.212E+00
   0.675E+00 -.185E+01 -.211E+04   -.588E-01 0.111E+01 0.210E+04   -.392E+00 0.578E+00 0.563E+01
   -.129E+01 0.496E-01 -.211E+04   0.119E+01 -.722E-01 0.210E+04   0.108E+00 0.350E-02 0.536E+01
   0.265E+00 -.212E-02 0.212E+04   -.269E+00 0.279E-02 -.212E+04   0.323E-02 -.404E-03 -.643E+01
   -.123E+00 0.337E+00 0.212E+04   0.125E+00 -.342E+00 -.212E+04   -.992E-03 0.328E-02 -.644E+01
   0.120E+01 0.147E+01 0.703E+03   -.123E+01 -.149E+01 -.704E+03   0.191E-01 0.146E-01 0.436E+00
   -.608E+00 0.988E-01 0.702E+03   0.666E+00 -.109E+00 -.702E+03   -.376E-01 0.638E-02 0.387E+00
   0.341E+01 -.250E+00 -.709E+03   -.362E+01 0.252E+00 0.708E+03   0.201E+00 0.747E-02 0.548E-02
   -.184E+01 0.211E+01 -.706E+03   0.188E+01 -.220E+01 0.706E+03   0.614E-02 0.729E-01 -.195E+00
   0.272E+01 0.189E+01 -.210E+04   -.225E+01 -.119E+01 0.210E+04   -.332E+00 -.554E+00 0.551E+01
   -.691E+01 -.589E-01 -.210E+04   0.802E+01 0.841E-01 0.210E+04   -.634E+00 -.332E-02 0.503E+01
   -.380E+00 0.796E-02 0.528E+03   0.386E+00 -.197E-01 -.528E+03   -.860E-02 0.135E-01 0.391E-02
   0.532E+00 -.146E+01 0.525E+03   -.540E+00 0.141E+01 -.525E+03   0.856E-02 0.623E-01 -.124E+00
   -.168E+00 -.297E+00 0.159E+04   0.168E+00 0.308E+00 -.160E+04   -.518E-03 -.134E-01 0.310E+01
   0.752E-01 0.314E-02 0.160E+04   -.744E-01 -.561E-02 -.160E+04   -.103E-02 0.308E-02 0.310E+01
   -.114E+01 -.402E-01 -.160E+04   0.106E+01 -.433E-01 0.161E+04   0.125E+00 0.119E+00 -.476E+01
   0.438E+01 -.718E+01 -.159E+04   -.482E+01 0.720E+01 0.159E+04   0.496E+00 0.160E+00 -.364E+01
   -.169E+01 -.412E+01 -.526E+03   0.166E+01 0.421E+01 0.526E+03   0.651E-01 -.150E+00 0.338E+00
   0.364E+00 0.372E+00 -.520E+03   -.381E+00 -.399E+00 0.519E+03   0.336E-01 0.446E-01 0.460E+00
   -.900E+00 -.211E-02 0.524E+03   0.841E+00 0.132E-01 -.524E+03   0.708E-01 -.129E-01 -.180E+00
   0.488E+00 0.145E+01 0.525E+03   -.502E+00 -.139E+01 -.525E+03   0.144E-01 -.759E-01 -.164E+00
   -.178E+00 0.297E+00 0.159E+04   0.182E+00 -.307E+00 -.160E+04   -.497E-02 0.135E-01 0.310E+01
   0.104E+00 -.264E-02 0.159E+04   -.111E+00 0.545E-02 -.160E+04   0.816E-02 -.354E-02 0.310E+01
   -.162E+02 0.129E-03 -.161E+04   0.165E+02 0.132E+00 0.162E+04   0.184E+00 -.175E+00 -.487E+01
   0.443E+01 0.779E+01 -.160E+04   -.493E+01 -.791E+01 0.160E+04   0.563E+00 -.533E-01 -.410E+01
   -.227E+01 0.411E+01 -.524E+03   0.225E+01 -.420E+01 0.523E+03   0.379E-01 0.145E+00 0.509E+00
   0.407E+01 -.411E+00 -.547E+03   -.428E+01 0.428E+00 0.548E+03   0.271E+00 -.344E-01 -.745E+00
   0.381E+00 0.417E-01 0.528E+03   -.386E+00 -.441E-01 -.528E+03   0.782E-02 0.228E-02 -.314E-01
   -.524E+00 -.974E+00 0.527E+03   0.532E+00 0.984E+00 -.527E+03   -.828E-02 -.115E-01 -.105E+00
   0.167E+00 -.269E+00 0.160E+04   -.168E+00 0.272E+00 -.160E+04   0.525E-03 -.425E-02 0.311E+01
   -.752E-01 -.806E-02 0.160E+04   0.744E-01 0.893E-02 -.160E+04   0.101E-02 -.108E-02 0.311E+01
   0.893E+00 0.172E+00 -.160E+04   -.803E+00 -.253E+00 0.161E+04   -.141E+00 0.107E+00 -.464E+01
   -.224E+01 -.214E+01 -.160E+04   0.263E+01 0.253E+01 0.161E+04   -.468E+00 -.406E+00 -.477E+01
   0.135E+01 -.170E+01 -.523E+03   -.132E+01 0.166E+01 0.523E+03   -.622E-01 0.390E-01 0.400E+00
   -.345E+00 -.155E+00 -.523E+03   0.368E+00 0.147E+00 0.523E+03   -.387E-01 0.140E-01 0.213E+00
   0.896E+00 -.472E-01 0.525E+03   -.842E+00 0.522E-01 -.525E+03   -.641E-01 -.546E-02 -.817E-01
   -.491E+00 0.966E+00 0.527E+03   0.511E+00 -.973E+00 -.527E+03   -.214E-01 0.784E-02 -.800E-01
   0.179E+00 0.269E+00 0.160E+04   -.182E+00 -.272E+00 -.160E+04   0.474E-02 0.418E-02 0.310E+01
   -.104E+00 0.835E-02 0.159E+04   0.110E+00 -.912E-02 -.160E+04   -.796E-02 0.965E-03 0.310E+01
   0.113E+01 -.252E+00 -.160E+04   -.388E+00 0.356E+00 0.160E+04   -.885E+00 -.135E+00 -.385E+01
   -.186E+01 0.218E+01 -.160E+04   0.223E+01 -.258E+01 0.161E+04   -.460E+00 0.420E+00 -.490E+01
   0.190E+01 0.170E+01 -.523E+03   -.190E+01 -.166E+01 0.523E+03   -.316E-01 -.423E-01 0.426E+00
   -.261E+01 0.161E+00 -.525E+03   0.282E+01 -.155E+00 0.524E+03   -.283E+00 -.120E-01 0.283E+00
   0.236E+01 -.108E+00 0.174E+02   0.128E-12 -.260E-12 -.227E-12   -.217E+01 0.981E-01 -.153E+02

 POSITION                                       TOTAL-FORCE (eV/Angst)
      2.08728      0.00000      7.50000         0.000409     -0.000116      0.304464
      4.17456      2.08728      7.50000        -0.000593      0.001904      0.308938
      2.08728      2.08728      9.58728        -0.000182      0.025915      0.054167
      4.17456      0.00000      9.58728         0.002782     -0.008124      0.040815
      2.08918      0.00157     11.67960        -0.030270     -0.008034      0.008148
      4.17615      2.09498     11.69361        -0.041689      0.030507     -0.089416
      2.08870      2.06480     13.75575        -0.146494      0.342121      0.178958
      4.17837      0.00294     13.75125        -0.025341     -0.095894      0.123911
      2.08728      4.17456      7.50000         0.000956      0.000180      0.315029
      4.17456      6.26183      7.50000        -0.000548     -0.001946      0.312388
      2.08728      6.26183      9.58728         0.008010     -0.025340      0.056531
      4.17456      4.17456      9.58728        -0.013933      0.004969      0.078906
      2.09570      4.17292     11.69337        -0.023159      0.007652      0.225730
      4.17657      6.25271     11.69457        -0.039996     -0.027770     -0.025523
      2.08272      6.28444     13.73944        -0.042683     -0.357020      0.349781
      4.22926      4.16602     13.87289        -0.708628      0.127759     -0.638786
      6.26183      0.00000      7.50000        -0.000337     -0.000192      0.307095
      0.00000      2.08728      7.50000         0.000672      0.001384      0.310433
      6.26183      2.08728      9.58728         0.000085      0.006364      0.029973
      0.00000      0.00000      9.58728        -0.002730      0.002121      0.036679
      6.25985      0.00057     11.68225         0.028732     -0.009743     -0.001836
      8.34752      2.08833     11.68608         0.040320      0.015160      0.036336
      6.26047      2.07918     13.76152         0.175079     -0.102955      0.013313
      8.34478      0.00074     13.75858         0.021700     -0.017460      0.122352
      6.26183      4.17456      7.50000        -0.000886      0.000238      0.307074
      0.00000      6.26183      7.50000         0.000580     -0.001357      0.308920
      6.26183      6.26183      9.58728        -0.009943     -0.006885      0.032929
      0.00000      4.17456      9.58728         0.015924     -0.002932      0.076987
      6.25465      4.17345     11.69127         0.018487      0.009185     -0.076395
      8.34630      6.26032     11.68394         0.039072     -0.014849      0.047982
      6.26327      6.26888     13.75680         0.092534      0.094675      0.088609
      8.32914      4.17297     13.75886         0.385099      0.019989      0.236021
      2.08728      0.00000      9.58728        -0.004269      0.003701      0.055269
      4.17456      2.08728      9.58728         0.001211      0.019829      0.086946
      2.08728      2.08728      7.50000        -0.000135     -0.004543     -0.592104
      4.17456      0.00000      7.50000        -0.000310      0.001060     -0.590999
      2.08410      8.34713     13.80445         0.069742      0.053318      0.005748
      4.17400      2.07080     13.78001         0.126479      0.213163      0.411056
      2.08387      2.09222     11.68422         0.044504     -0.077878     -0.037299
      4.17296      8.34652     11.67330         0.020830      0.024680      0.068859
      2.08728      4.17456      9.58728         0.021002     -0.003569      0.064792
      4.17456      6.26183      9.58728         0.003120     -0.024022      0.076756
      2.08728      6.26183      7.50000        -0.001653      0.004604     -0.592439
      4.17456      4.17456      7.50000         0.002812     -0.001188     -0.594499
      2.04535      4.17721     13.86289         0.555799     -0.068710     -0.177643
      4.17245      6.27560     13.80014         0.143644     -0.196142      0.221392
      2.08480      6.25663     11.68237         0.028981      0.076702     -0.056003
      4.17021      4.17559     11.70096         0.103889     -0.022184      0.012984
      6.26183      0.00000      9.58728         0.004021      0.000229      0.055575
      0.00000      2.08728      9.58728        -0.000914     -0.003188      0.051237
      6.26183      2.08728      7.50000         0.000209     -0.001410     -0.590875
      0.00000      0.00000      7.50000         0.000380     -0.000343     -0.590186
      6.26415      8.34755     13.80626        -0.071829      0.040864      0.030869
      0.00001      2.08152     13.80883        -0.138548     -0.068666     -0.003297
      6.26538      2.08753     11.67896        -0.045960      0.010007      0.055219
      0.00143      8.34833     11.67802        -0.020886      0.007666     -0.001878
      6.26183      4.17456      9.58728        -0.019340     -0.001143      0.089416
      0.00000      6.26183      9.58728        -0.004958      0.002170      0.048595
      6.26183      6.26183      7.50000         0.001640      0.001439     -0.591304
      0.00000      4.17456      7.50000        -0.002658      0.000357     -0.592790
      6.27987      4.17550     13.80870        -0.271622     -0.050090      0.236043
      8.34903      6.26695     13.80859        -0.148775      0.071518     -0.039335
      6.26377      6.26101     11.67982        -0.029415     -0.010587      0.032935
      0.00447      4.17488     11.68332        -0.110019     -0.007152     -0.033554
    total drift:                               -0.002392     -0.001744      0.008192

  FREE ENERGIE OF THE ION-ELECTRON SYSTEM (eV)
  free  energy   TOTEN  =      -438.86602689 eV

  energy  without entropy=     -438.86602689  energy(sigma->0) =     -438.86602689