 vasp.6.3.0 20Jan22 (build Apr  1 2022 16:44:48) complex
 executed on        HPECrayEX_GCC date 2022.11.13  12:07:32

 INCAR:
   SYSTEM = MgO-rocksalt
   ISMEAR = 0
   SIGMA = 0.05
   EDIFF = 1E-6
   ALGO = ALL
   ISTART = 0
   IBRION = -1
   NSW = 0
   ISYM = 0
   DIPOL = 0.5 0.5 0.5
   IDIPOL = 3
   LDIPOL = .TRUE.
   LHFCALC = .TRUE.
   GGA = B5
   AEXX = 0.2
   AGGAX = 0.72
   AGGAC = 0.81
   ALDAC = 0.19
   IVDW = 1
   VDW_S6 = 1.05
   VDW_C6 = 1.23 0.70 0.63 0.70
   VDW_R0 = 1.397 1.342 1.243 1.342
   ENCUT = 600
   PREC = Accurate
   LASPH = .TRUE.
   LREAL = .FALSE.
   ISPIN = 2
   MAGMOM = 1.0 0.0 0.0 0.0 0.0 0.0 0.0 0.0 0.0 0.0 0.0 0.0 0.0 0.0 0.0 0.0 0.0 0.0 0.0 0.0 0.0 0.0 0.0 0.0 0.0 0.0 0.0 0.0 0.0 0.0 0.0 0.0 0.0 0.0 0.0 0.0 0.0 0.0 0.0 0.0 0.0 0.0 0.0 0.0 0.0 0.0 0.0 0.0 0.0 0.0 0.0 0.0 0.0 0.0 0.0 0.0 0.0 0.0 0.0 0.0 0.0 0.0 0.0 0.0 0.0 0.0
   NELM = 200
   NELMIN = 8
   NCORE = 8
   KPAR = 1
   LWAVE = .FALSE.
   LCHARG = .FALSE.

 POTCAR:    PAW_PBE N 08Apr2002
 POTCAR:    PAW_PBE O 08Apr2002
 POTCAR:    PAW_PBE Mg_pv 13Apr2007
 POTCAR:    PAW_PBE O 08Apr2002
 POTCAR:    PAW_PBE N 08Apr2002
   VRHFIN =N: s2p3

   TITEL  = PAW_PBE N 08Apr2002
   POMASS =   14.001; ZVAL   =    5.000    mass and valenz
   ENMAX  =  400.000; ENMIN  =  300.000 eV

[...]

   TITEL  = PAW_PBE Mg_pv 13Apr2007
   POMASS =   24.305; ZVAL   =    8.000    mass and valenz
   ENMAX  =  403.929; ENMIN  =  302.947 eV

   TITEL  = PAW_PBE O 08Apr2002
   POMASS =   16.000; ZVAL   =    6.000    mass and valenz
   ENMAX  =  400.000; ENMIN  =  300.000 eV

  PAW_PBE N 08Apr2002                   :
  PAW_PBE O 08Apr2002                   :
  PAW_PBE Mg_pv 13Apr2007               :
  PAW_PBE O 08Apr2002                   :

 POSCAR:  N  O Mg  O
  positions in direct lattice
 exchange correlation table for  LEXCH =       12
   RHO(1)=    0.500       N(1)  =     2000
   RHO(2)=  100.500       N(2)  =     4000

 ion  position               nearest neighbor table
   1  0.506  0.507  0.762-   2 1.18
   2  0.435  0.438  0.801-   1 1.18
   3  0.000  0.750  0.352-  35 2.11  37 2.11  38 2.11  45 2.11  54 2.11
   4  0.250  0.000  0.352-  36 2.11  37 2.11  38 2.11  46 2.11  53 2.11
   5  0.000  0.000  0.451-  37 2.11  36 2.11  35 2.11  43 2.11  52 2.11  41 2.12
   6  0.250  0.750  0.451-  38 2.11  36 2.11  35 2.11  44 2.11  51 2.11  42 2.12
   7  0.000  0.750  0.550-  49 2.11  58 2.11  41 2.11  42 2.11  35 2.12  39 2.15
   8  0.250  0.000  0.550-  50 2.11  57 2.11  42 2.11  41 2.11  36 2.12  40 2.15
   9  0.000  0.000  0.649-  47 2.11  40 2.11  39 2.11  56 2.11  41 2.11
  10  0.250  0.750  0.649-  42 2.11  39 2.11  40 2.11  55 2.11  48 2.11
  11  0.000  0.250  0.352-  43 2.11  37 2.11  45 2.11  46 2.11  62 2.11
  12  0.250  0.500  0.352-  44 2.11  38 2.11  45 2.11  46 2.11  61 2.11
  13  0.000  0.500  0.451-  45 2.11  43 2.11  44 2.11  35 2.11  60 2.11  49 2.12
  14  0.250  0.250  0.451-  46 2.11  43 2.11  44 2.11  36 2.11  59 2.11  50 2.12
  15  0.000  0.250  0.550-  50 2.11  49 2.11  66 2.11  41 2.11  43 2.12  47 2.15
  16  0.250  0.500  0.550-  65 2.11  50 2.11  42 2.11  49 2.11  44 2.13  48 2.15
  17  0.000  0.500  0.649-  48 2.10  64 2.10  49 2.11  47 2.11  39 2.11
  18  0.250  0.250  0.649-  47 2.11  50 2.11  40 2.11  48 2.11  63 2.11
  19  0.500  0.750  0.352-  51 2.11  38 2.11  53 2.11  54 2.11  61 2.11
  20  0.750  0.000  0.352-  52 2.11  37 2.11  53 2.11  54 2.11  62 2.11
  21  0.500  0.000  0.451-  53 2.11  51 2.11  52 2.11  36 2.11  59 2.11  57 2.12
  22  0.750  0.750  0.451-  54 2.11  51 2.11  52 2.11  35 2.11  60 2.11  58 2.12
  23  0.500  0.750  0.550-  65 2.11  58 2.11  42 2.11  57 2.11  51 2.13  55 2.15
  24  0.750  1.000  0.550-  57 2.11  58 2.11  66 2.11  41 2.11  52 2.12  56 2.15
  25  0.500  0.000  0.649-  63 2.10  55 2.10  57 2.11  40 2.11  56 2.11
  26  0.750  0.750  0.649-  39 2.11  56 2.11  58 2.11  64 2.11  55 2.11
  27  0.500  0.250  0.352-  59 2.11  53 2.11  46 2.11  61 2.11  62 2.11
  28  0.750  0.500  0.352-  60 2.11  54 2.11  45 2.11  61 2.11  62 2.11
  29  0.500  0.500  0.451-  61 2.11  51 2.11  59 2.11  60 2.11  44 2.11  65 2.12
  30  0.750  0.250  0.451-  62 2.11  52 2.11  59 2.11  60 2.11  43 2.11  66 2.12
  31  0.500  0.250  0.550-  65 2.11  50 2.11  66 2.11  57 2.11  59 2.13  63 2.15
  32  0.750  0.500  0.550-  65 2.11  58 2.11  66 2.11  49 2.11  60 2.13  64 2.15
  33  0.500  0.500  0.650-  64 2.12  63 2.12  55 2.12  48 2.12  65 2.14
  34  0.750  0.250  0.649-  66 2.11  56 2.11  47 2.11  64 2.11  63 2.11
  35  0.000  0.750  0.451-   3 2.11   5 2.11   6 2.11  13 2.11  22 2.11   7 2.12
  36  0.250  0.000  0.451-   4 2.11   5 2.11   6 2.11  14 2.11  21 2.11   8 2.12
  37  0.000  0.000  0.352-   5 2.11   4 2.11   3 2.11  11 2.11  20 2.11
  38  0.250  0.750  0.352-   6 2.11   4 2.11   3 2.11  12 2.11  19 2.11
  39  0.000  0.750  0.651-  10 2.11  26 2.11   9 2.11  17 2.11   7 2.15
  40  0.250  0.000  0.651-   9 2.11  10 2.11  18 2.11  25 2.11   8 2.15
  41  0.000  1.000  0.550-  24 2.11   7 2.11   8 2.11  15 2.11   9 2.11   5 2.12
  42  0.250  0.750  0.550-  10 2.11   8 2.11   7 2.11  23 2.11  16 2.11   6 2.12
  43  0.000  0.250  0.451-  11 2.11   5 2.11  13 2.11  14 2.11  30 2.11  15 2.12
  44  0.250  0.500  0.451-  12 2.11   6 2.11  13 2.11  14 2.11  29 2.11  16 2.13
  45  0.000  0.500  0.352-  13 2.11  11 2.11  12 2.11   3 2.11  28 2.11
  46  0.250  0.250  0.352-  14 2.11  11 2.11  12 2.11   4 2.11  27 2.11
  47  0.000  0.250  0.651-   9 2.11  34 2.11  18 2.11  17 2.11  15 2.15
  48  0.249  0.500  0.651-  17 2.10  10 2.11  18 2.11  33 2.12  16 2.15
  49  0.000  0.500  0.550-   7 2.11  15 2.11  17 2.11  32 2.11  16 2.11  13 2.12
  50  0.250  0.250  0.550-   8 2.11  15 2.11  18 2.11  31 2.11  16 2.11  14 2.12
  51  0.500  0.750  0.451-  19 2.11   6 2.11  21 2.11  22 2.11  29 2.11  23 2.13
  52  0.750  0.000  0.451-  20 2.11   5 2.11  21 2.11  22 2.11  30 2.11  24 2.12
  53  0.500  0.000  0.352-  21 2.11  19 2.11  20 2.11   4 2.11  27 2.11
  54  0.750  0.750  0.352-  22 2.11  19 2.11  20 2.11   3 2.11  28 2.11
  55  0.500  0.751  0.651-  25 2.10  10 2.11  26 2.11  33 2.12  23 2.15
  56  0.750  1.000  0.651-  34 2.11  26 2.11   9 2.11  25 2.11  24 2.15
  57  0.500  1.000  0.550-  24 2.11   8 2.11  25 2.11  23 2.11  31 2.11  21 2.12
  58  0.750  0.750  0.550-  24 2.11  23 2.11   7 2.11  32 2.11  26 2.11  22 2.12
  59  0.500  0.250  0.451-  27 2.11  21 2.11  14 2.11  29 2.11  30 2.11  31 2.13
  60  0.750  0.500  0.451-  28 2.11  22 2.11  13 2.11  29 2.11  30 2.11  32 2.13
  61  0.500  0.500  0.352-  29 2.11  19 2.11  27 2.11  28 2.11  12 2.11
  62  0.750  0.250  0.352-  30 2.11  20 2.11  27 2.11  28 2.11  11 2.11
  63  0.500  0.249  0.651-  25 2.10  34 2.11  18 2.11  33 2.12  31 2.15
  64  0.751  0.500  0.651-  17 2.10  34 2.11  26 2.11  33 2.12  32 2.15
  65  0.500  0.500  0.550-  23 2.11  32 2.11  16 2.11  31 2.11  29 2.12  33 2.14
  66  0.750  0.250  0.550-  34 2.11  15 2.11  24 2.11  32 2.11  31 2.11  30 2.12

IMPORTANT INFORMATION: All symmetrisations will be switched off!
NOSYMM: (Re-)initialisation of all symmetry stuff for point group C_1.

                                     Primitive cell

  volume of cell :    1519.8199

  direct lattice vectors                    reciprocal lattice vectors
     8.440984654  0.000000000  0.000000000     0.118469591  0.000000000  0.000000000
     0.000000000  8.440984654  0.000000000     0.000000000  0.118469591  0.000000000
     0.000000000  0.000000000 21.330738491     0.000000000  0.000000000  0.046880702

  length of vectors
     8.440984654  8.440984654 21.330738491     0.118469591  0.118469591  0.046880702

  position of ions in fractional coordinates (direct lattice)
     0.505645997  0.506818215  0.761941957
     0.435037530  0.438441826  0.800949303
     0.000000000  0.750000000  0.351605267
     0.250000000  0.000000000  0.351605267
     0.000000000  0.000000000  0.450535089
     0.250000000  0.750000000  0.450535089
     0.000004523  0.749958036  0.550140621
     0.250132824  0.000067124  0.550130083
     0.000159805  0.000037665  0.648832361
     0.249860527  0.750193092  0.648629636
     0.000000000  0.250000000  0.351605267
     0.250000000  0.500000000  0.351605267
     0.000000000  0.500000000  0.450535089
     0.250000000  0.250000000  0.450535089
     0.000145442  0.250052288  0.550128840
     0.250406348  0.500009644  0.550243706
     0.000239240  0.499975012  0.648761854
     0.250073546  0.249968545  0.648817782
     0.500000000  0.750000000  0.351605267
     0.750000000  0.000000000  0.351605267
     0.500000000  0.000000000  0.450535089
     0.750000000  0.750000000  0.450535089
     0.500078927  0.749692796  0.550165077
     0.750040963  0.999926039  0.550144415
     0.500100701  0.000136041  0.648772723
     0.750253040  0.750101096  0.648949845
     0.500000000  0.250000000  0.351605267
     0.750000000  0.500000000  0.351605267
     0.500000000  0.500000000  0.450535089
     0.750000000  0.250000000  0.450535089
     0.500093116  0.250329305  0.550242028
     0.749783536  0.499997301  0.550172924
     0.500215601  0.500055086  0.650312027
     0.750331386  0.249768001  0.648637979
     0.000000000  0.750000000  0.450535089
     0.250000000  0.000000000  0.450535089
     0.000000000  0.000000000  0.351605267
     0.250000000  0.750000000  0.351605267
     0.000095094  0.750123722  0.651009504
     0.250019494  0.000048228  0.650993381
     0.000074125  0.999992228  0.549873561
     0.250041502  0.750072191  0.549858079
     0.000000000  0.250000000  0.450535089
     0.250000000  0.500000000  0.450535089
     0.000000000  0.500000000  0.351605267
     0.250000000  0.250000000  0.351605267
     0.000170509  0.249885697  0.650986860
     0.249258405  0.500172909  0.650837885
     0.000045083  0.500014663  0.549839023
     0.250096741  0.250005420  0.549902440
     0.500000000  0.750000000  0.450535089
     0.750000000  0.000000000  0.450535089
     0.500000000  0.000000000  0.351605267
     0.750000000  0.750000000  0.351605267
     0.499878943  0.750966867  0.650827127
     0.750236577  0.999971076  0.651015997
     0.500091805  0.999961785  0.549850138
     0.750037548  0.749971694  0.549949186
     0.500000000  0.250000000  0.450535089
     0.750000000  0.500000000  0.450535089
     0.500000000  0.500000000  0.351605267
     0.750000000  0.250000000  0.351605267
     0.500287659  0.249154588  0.650858575
     0.751101442  0.499770220  0.650796597
     0.500120173  0.500045423  0.550151769
     0.750140673  0.249950413  0.549859040

  ion indices of the primitive-cell ions
   primitive index   ion index
                 1           1
                 2           2
                 3           3
                 4           4
                 5           5
                 6           6
                 7           7
                 8           8
                 9           9
                10          10
                11          11
                12          12
                13          13
                14          14
                15          15
                16          16
                17          17
                18          18
                19          19
                20          20
[...]
   0.50009180  0.99996179  0.54985014
   0.75003755  0.74997169  0.54994919
   0.50000000  0.25000000  0.45053509
   0.75000000  0.50000000  0.45053509
   0.50000000  0.50000000  0.35160527
   0.75000000  0.25000000  0.35160527
   0.50028766  0.24915459  0.65085857
   0.75110144  0.49977022  0.65079660
   0.50012017  0.50004542  0.55015177
   0.75014067  0.24995041  0.54985904

 position of ions in cartesian coordinates  (Angst):
   4.26815010  4.27804477 16.25278462
   3.67214512  3.70088072 17.08484013
   0.00000000  6.33073849  7.50000000
   2.11024616  0.00000000  7.50000000
   0.00000000  0.00000000  9.61024616
   2.11024616  6.33073849  9.61024616
   0.00003818  6.33038428 11.73490572
   2.11136733  0.00056659 11.73468093
   0.00134891  0.00031793 13.84007341
   2.10906887  6.33236838 13.83574915
   0.00000000  2.11024616  7.50000000
   2.11024616  4.22049233  7.50000000
   0.00000000  4.22049233  9.61024616
   2.11024616  2.11024616  9.61024616
   0.00122768  2.11068753 11.73465442
   2.11367614  4.22057373 11.73710459
   0.00201942  4.22028140 13.83856945
   2.11086697  2.10998065 13.83976245
   4.22049233  6.33073849  7.50000000
   6.33073849  0.00000000  7.50000000
   4.22049233  0.00000000  9.61024616
   6.33073849  6.33073849  9.61024616
   4.22115855  6.32814539 11.73542739
   6.33108426  8.44036035 11.73498665
   4.22134234  0.00114832 13.83880129
   6.33287440  6.33159184 13.84257944
   4.22049233  2.11024616  7.50000000
   6.33073849  4.22049233  7.50000000
   4.22049233  4.22049233  9.61024616
   6.33073849  2.11024616  9.61024616
   4.22127831  2.11302582 11.73706880
   6.32891132  4.22046955 11.73559476
   4.22231221  4.22095731 13.87163578
   6.33353571  2.10828786 13.83592711
   0.00000000  6.33073849  9.61024616
   2.11024616  0.00000000  9.61024616
   0.00000000  0.00000000  7.50000000
   2.11024616  6.33073849  7.50000000
   0.00080269  6.33178282 13.88651348
   2.11041071  0.00040709 13.88616957
   0.00062569  8.44091905 11.72920912
   2.11059648  6.33134785 11.72887888
   0.00000000  2.11024616  9.61024616
   2.11024616  4.22049233  9.61024616
   0.00000000  4.22049233  7.50000000
   2.11024616  2.11024616  7.50000000
   0.00143927  2.10928133 13.88603046
   2.10398637  4.22195185 13.88285272
   0.00038054  4.22061610 11.72847241
   2.11106276  2.11029192 11.72982513
   4.22049233  6.33073849  9.61024616
   6.33073849  0.00000000  9.61024616
   4.22049233  0.00000000  7.50000000
   6.33073849  6.33073849  7.50000000
   4.21947049  6.33889980 13.88262325
   6.33273543  8.44074050 13.88665199
   4.22126725  8.44066208 11.72870950
   6.33105543  6.33049956 11.73082226
   4.22049233  2.11024616  9.61024616
   6.33073849  4.22049233  9.61024616
   4.22049233  4.22049233  7.50000000
   6.33073849  2.11024616  7.50000000
   4.22292045  2.10311005 13.88329406
   6.34003575  4.21855276 13.88197201
   4.22150670  4.22087575 11.73514352
   6.33192591  2.10982760 11.72889938

--------------------------------------- Iteration      FINAL  ---------------------------------------

--------------------OUTCAR has been truncated-------------------------

[...]

--------------------OUTCAR has been truncated-------------------------

  DFT-D2 method for vdW energy calculation

  Parameters of vdW forcefield:
         C6(Jnm^6/mol)     R0(A)
   N        1.230          1.397
   O        0.700          1.342
   Mg       0.630          1.243
   O        0.700          1.342

  vdW correction parametrized for the method        ÜÉp

  IVDW =   1
  VDW_RADIUS =    50.000 A
  VDW_S6 =     1.050
  VDW_SR =     1.000
  VDW_D =    20.000
  LVDW_EWALD = F

  Number of pair interactions contributing to vdW energy:  768308
  Edisp (eV):   -5.17237

 VOLUME and BASIS-vectors are now :
  energy-cutoff  :      600.00
  volume of cell :     1519.82
      direct lattice vectors                 reciprocal lattice vectors
     8.440984654  0.000000000  0.000000000     0.118469591  0.000000000  0.000000000
     0.000000000  8.440984654  0.000000000     0.000000000  0.118469591  0.000000000
     0.000000000  0.000000000 21.330738491     0.000000000  0.000000000  0.046880702

  length of vectors
     8.440984654  8.440984654 21.330738491     0.118469591  0.118469591  0.046880702

 FORCES acting on ions:
    Electron-Ion                     Ewald-Force                    Non-Local-Force
   -.135E+03 -.131E+03 -.117E+04   0.157E+03 0.152E+03 0.114E+04   -.209E+02 -.202E+02 0.276E+02
   0.127E+03 0.123E+03 -.154E+04   -.157E+03 -.152E+03 0.159E+04   0.276E+02 0.268E+02 -.384E+02
   0.440E-01 -.203E+00 0.208E+04   -.437E-01 0.203E+00 -.207E+04   -.217E-03 0.842E-04 -.639E+01
   0.200E+00 0.310E-01 0.208E+04   -.199E+00 -.301E-01 -.207E+04   -.173E-03 -.589E-03 -.639E+01
   0.178E+00 0.154E+00 0.719E+03   -.176E+00 -.155E+00 -.719E+03   -.901E-03 0.107E-02 0.457E+00
   0.948E+00 -.884E+00 0.720E+03   -.948E+00 0.879E+00 -.721E+03   0.529E-04 0.327E-02 0.450E+00
   0.860E+00 -.381E+01 -.636E+03   -.877E+00 0.377E+01 0.636E+03   0.138E-01 0.247E-01 -.958E-01
   0.378E+01 0.670E+00 -.635E+03   -.375E+01 -.674E+00 0.635E+03   -.253E-01 0.365E-03 -.980E-01
   0.209E+01 0.194E+01 -.200E+04   -.208E+01 -.193E+01 0.199E+04   -.823E-02 -.102E-01 0.533E+01
   0.222E+02 -.247E+02 -.197E+04   -.223E+02 0.248E+02 0.197E+04   0.491E-01 -.688E-01 0.543E+01
   0.357E-01 0.203E+00 0.208E+04   -.346E-01 -.203E+00 -.207E+04   -.764E-03 -.977E-04 -.639E+01
   0.220E+00 -.307E-01 0.208E+04   -.219E+00 0.301E-01 -.208E+04   -.918E-03 0.440E-03 -.640E+01
   0.111E+00 -.156E+00 0.720E+03   -.101E+00 0.158E+00 -.721E+03   -.606E-02 -.127E-02 0.421E+00
   0.885E+00 0.892E+00 0.721E+03   -.872E+00 -.883E+00 -.721E+03   -.784E-02 -.573E-02 0.468E+00
   0.732E+00 0.383E+01 -.635E+03   -.737E+00 -.380E+01 0.635E+03   0.169E-02 -.250E-01 -.984E-01
   0.633E+01 -.715E+00 -.625E+03   -.626E+01 0.716E+00 0.625E+03   -.692E-01 0.915E-03 -.214E+00
   0.483E+01 -.217E+01 -.198E+04   -.487E+01 0.216E+01 0.198E+04   0.193E-01 0.986E-02 0.536E+01
   0.257E+02 0.260E+02 -.197E+04   -.258E+02 -.261E+02 0.196E+04   0.951E-01 0.897E-01 0.543E+01
   -.442E-01 -.224E+00 0.208E+04   0.440E-01 0.223E+00 -.208E+04   0.122E-03 0.828E-03 -.639E+01
   -.199E+00 0.392E-01 0.208E+04   0.199E+00 -.391E-01 -.207E+04   -.838E-04 -.480E-04 -.639E+01
   -.167E+00 0.821E-01 0.720E+03   0.172E+00 -.752E-01 -.721E+03   -.339E-02 -.424E-02 0.424E+00
   -.933E+00 -.950E+00 0.720E+03   0.936E+00 0.949E+00 -.720E+03   -.144E-02 0.594E-03 0.474E+00
   -.926E+00 -.631E+01 -.626E+03   0.941E+00 0.624E+01 0.626E+03   -.122E-01 0.634E-01 -.202E+00
   -.375E+01 0.795E+00 -.636E+03   0.371E+01 -.811E+00 0.636E+03   0.263E-01 0.130E-01 -.971E-01
   -.235E+01 0.446E+01 -.198E+04   0.234E+01 -.450E+01 0.198E+04   0.106E-01 0.161E-01 0.536E+01
   -.215E+02 -.216E+02 -.198E+04   0.216E+02 0.217E+02 0.197E+04   -.912E-01 -.846E-01 0.542E+01
   -.351E-01 0.224E+00 0.208E+04   0.345E-01 -.223E+00 -.208E+04   0.379E-03 -.844E-03 -.640E+01
   -.219E+00 -.399E-01 0.208E+04   0.218E+00 0.396E-01 -.208E+04   0.652E-03 0.179E-03 -.639E+01
   -.107E+00 -.884E-01 0.722E+03   0.104E+00 0.825E-01 -.722E+03   0.142E-02 0.369E-02 0.507E+00
   -.861E+00 0.949E+00 0.720E+03   0.859E+00 -.953E+00 -.721E+03   0.136E-02 0.198E-02 0.450E+00
   -.791E+00 0.639E+01 -.625E+03   0.792E+00 -.632E+01 0.625E+03   0.147E-02 -.703E-01 -.204E+00
   -.623E+01 -.848E+00 -.626E+03   0.616E+01 0.864E+00 0.627E+03   0.626E-01 -.128E-01 -.217E+00
   -.682E+01 -.605E+01 -.188E+04   0.682E+01 0.605E+01 0.187E+04   0.195E-01 0.225E-01 0.414E+01
   -.244E+02 0.222E+02 -.197E+04   0.245E+02 -.222E+02 0.197E+04   -.730E-01 0.429E-01 0.543E+01
   0.153E+00 -.639E+00 0.539E+03   -.150E+00 0.632E+00 -.539E+03   -.444E-02 0.790E-02 -.101E+00
   0.633E+00 0.842E-01 0.539E+03   -.632E+00 -.896E-01 -.539E+03   -.167E-02 0.655E-02 -.974E-01
   0.316E-01 0.286E-01 0.156E+04   -.317E-01 -.286E-01 -.157E+04   0.159E-03 0.114E-04 0.313E+01
   0.160E+00 -.157E+00 0.156E+04   -.160E+00 0.156E+00 -.157E+04   -.171E-03 0.139E-02 0.313E+01
   0.215E+01 -.932E+01 -.152E+04   -.217E+01 0.927E+01 0.152E+04   0.221E-01 0.483E-01 -.452E+01
   0.944E+01 0.271E+01 -.151E+04   -.938E+01 -.271E+01 0.152E+04   -.548E-01 0.803E-02 -.453E+01
   0.474E+00 0.436E+00 -.474E+03   -.472E+00 -.436E+00 0.473E+03   -.163E-02 0.896E-03 0.271E+00
   0.367E+01 -.384E+01 -.467E+03   -.365E+01 0.383E+01 0.466E+03   -.234E-01 0.816E-02 0.316E+00
   0.104E+00 0.642E+00 0.539E+03   -.113E+00 -.636E+00 -.539E+03   0.113E-01 -.721E-02 -.969E-01
   0.786E+00 -.798E-01 0.540E+03   -.811E+00 0.804E-01 -.540E+03   0.295E-01 -.726E-03 -.120E+00
   0.261E-01 -.287E-01 0.156E+04   -.254E-01 0.287E-01 -.157E+04   -.821E-03 0.193E-04 0.313E+01
   0.154E+00 0.157E+00 0.156E+04   -.153E+00 -.156E+00 -.157E+04   -.989E-03 -.119E-02 0.313E+01
   0.291E+01 0.951E+01 -.151E+04   -.291E+01 -.946E+01 0.152E+04   0.421E-02 -.506E-01 -.453E+01
   0.324E+02 -.373E+01 -.147E+04   -.321E+02 0.372E+01 0.148E+04   -.181E+00 0.295E-02 -.444E+01
   0.612E+00 -.462E+00 -.468E+03   -.621E+00 0.464E+00 0.468E+03   0.140E-01 -.295E-02 0.254E+00
   0.382E+01 0.386E+01 -.466E+03   -.380E+01 -.385E+01 0.466E+03   -.150E-01 -.130E-01 0.289E+00
   -.150E+00 -.789E+00 0.540E+03   0.143E+00 0.808E+00 -.540E+03   0.776E-02 -.227E-01 -.105E+00
   -.616E+00 0.133E+00 0.539E+03   0.606E+00 -.126E+00 -.539E+03   0.121E-01 -.916E-02 -.102E+00
   -.320E-01 0.226E-01 0.156E+04   0.319E-01 -.218E-01 -.157E+04   0.152E-03 -.100E-02 0.313E+01
   -.160E+00 -.162E+00 0.156E+04   0.160E+00 0.162E+00 -.157E+04   0.228E-03 0.192E-03 0.313E+01
   -.262E+01 -.312E+02 -.148E+04   0.266E+01 0.310E+02 0.149E+04   -.433E-01 0.161E+00 -.446E+01
   -.924E+01 0.195E+01 -.152E+04   0.920E+01 -.197E+01 0.152E+04   0.460E-01 0.255E-01 -.452E+01
   -.515E+00 0.567E+00 -.468E+03   0.519E+00 -.579E+00 0.468E+03   -.527E-02 0.176E-01 0.253E+00
   -.362E+01 -.365E+01 -.469E+03   0.360E+01 0.362E+01 0.469E+03   0.257E-01 0.279E-01 0.226E+00
   -.868E-01 0.795E+00 0.540E+03   0.833E-01 -.815E+00 -.540E+03   0.416E-02 0.240E-01 -.119E+00
   -.764E+00 -.142E+00 0.540E+03   0.779E+00 0.140E+00 -.540E+03   -.183E-01 0.298E-02 -.107E+00
   -.268E-01 -.229E-01 0.156E+04   0.258E-01 0.220E-01 -.157E+04   0.116E-02 0.105E-02 0.312E+01
   -.154E+00 0.163E+00 0.156E+04   0.153E+00 -.163E+00 -.157E+04   0.146E-02 -.406E-03 0.313E+01
   -.402E+01 0.323E+02 -.147E+04   0.401E+01 -.322E+02 0.148E+04   0.155E-02 -.169E+00 -.443E+01
   -.309E+02 -.231E+01 -.148E+04   0.307E+02 0.235E+01 0.149E+04   0.161E+00 -.408E-01 -.446E+01
   -.696E+00 -.621E+00 -.463E+03   0.704E+00 0.627E+00 0.463E+03   -.119E-01 -.102E-01 -.870E-01
   -.379E+01 0.370E+01 -.467E+03   0.379E+01 -.368E+01 0.467E+03   0.526E-02 -.211E-01 0.315E+00
   -.855E+01 -.830E+01 0.324E+02   0.181E-12 -.142E-13 0.279E-11   0.673E+01 0.654E+01 -.275E+02

 POSITION                                       TOTAL-FORCE (eV/Angst)
      4.26815      4.27804     16.25278        -0.996712     -0.969225      1.531706
      3.67215      3.70088     17.08484         0.991823      0.962662     -1.362686
      0.00000      6.33074      7.50000         0.000047     -0.000063      0.466871
      2.11025      0.00000      7.50000         0.000066      0.000206      0.466548
      0.00000      0.00000      9.61025         0.000608     -0.000400      0.042017
      2.11025      6.33074      9.61025        -0.000079     -0.001448      0.044828
      0.00004      6.33038     11.73491        -0.002659     -0.005473      0.015776
      2.11137      0.00057     11.73468         0.005158     -0.002876      0.016599
      0.00135      0.00032     13.84007        -0.000984     -0.000230     -0.095127
      2.10907      6.33237     13.83575         0.000750      0.015525     -0.123638
      0.00000      2.11025      7.50000         0.000216      0.000099      0.466558
      2.11025      4.22049      7.50000         0.000250     -0.000155      0.467563
      0.00000      4.22049      9.61025         0.003053      0.000565      0.051778
      2.11025      2.11025      9.61025         0.003953      0.002909      0.043189
      0.00123      2.11069     11.73465        -0.003151      0.005090      0.016232
      2.11368      4.22057     11.73710        -0.003174      0.002392      0.019541
      0.00202      4.22028     13.83857        -0.017328     -0.000200     -0.111430
      2.11087      2.10998     13.83976        -0.013892     -0.013508     -0.119181
      4.22049      6.33074      7.50000        -0.000114     -0.000262      0.466508
      6.33074      0.00000      7.50000        -0.000048      0.000036      0.466814
      4.22049      0.00000      9.61025         0.001652      0.002112      0.052023
      6.33074      6.33074      9.61025         0.000519     -0.000565      0.045071
      4.22116      6.32815     11.73543         0.001674      0.004857      0.040170
      6.33108      8.44036     11.73499        -0.006466     -0.002387      0.016137
      4.22134      0.00115     13.83880        -0.000818     -0.018240     -0.111609
      6.33287      6.33159     13.84258        -0.005364     -0.002960     -0.119719
      4.22049      2.11025      7.50000        -0.000179      0.000280      0.467432
      6.33074      4.22049      7.50000        -0.000248     -0.000092      0.466502
      4.22049      4.22049      9.61025        -0.000533     -0.001737      0.052002
      6.33074      2.11025      9.61025        -0.000433     -0.001012      0.044962
      4.22128      2.11303     11.73707         0.001847     -0.003110      0.019488
      6.32891      4.22047     11.73559         0.003740      0.002194      0.038545
      4.22231      4.22096     13.87164         0.014788      0.016801     -0.221059
      6.33354      2.10829     13.83593         0.014408     -0.000196     -0.123666
      0.00000      6.33074      9.61025        -0.001632      0.002742      0.061160
      2.11025      0.00000      9.61025        -0.000927      0.002081      0.061086
      0.00000      0.00000      7.50000         0.000026      0.000006     -0.435390
      2.11025      6.33074      7.50000        -0.000080      0.000453     -0.435513
      0.00080      6.33178     13.88651         0.004517      0.006260     -0.093919
      2.11041      0.00041     13.88617        -0.008765      0.004563     -0.095706
      0.00063      8.44092     11.72921         0.000240      0.000998      0.034653
      2.11060      6.33135     11.72888        -0.008007      0.000679      0.030975
      0.00000      2.11025      9.61025         0.003449     -0.002571      0.061149
      2.11025      4.22049      9.61025         0.008780     -0.000264      0.065620
      0.00000      4.22049      7.50000        -0.000313      0.000018     -0.435545
      2.11025      2.11025      7.50000        -0.000348     -0.000379     -0.435684
      0.00144      2.10928     13.88603         0.003446     -0.006852     -0.095441
      2.10399      4.22195     13.88285         0.013319     -0.003782     -0.068458
      0.00038      4.22062     11.72847         0.007690     -0.001197      0.025085
      2.11106      2.11029     11.72983        -0.002591     -0.001425      0.034538
      4.22049      6.33074      9.61025         0.002469     -0.006815      0.062762
      6.33074      0.00000      9.61025         0.003887     -0.002975      0.061197
      4.22049      0.00000      7.50000         0.000025     -0.000338     -0.435488
      6.33074      6.33074      7.50000         0.000028      0.000046     -0.435513
      4.21947      6.33890     13.88262        -0.005784     -0.009510     -0.080673
      6.33274      8.44074     13.88665         0.006131      0.005588     -0.094195
      4.22127      8.44066     11.72871        -0.001600      0.008590      0.024224
      6.33106      6.33050     11.73082         0.006671      0.006691      0.023517
      4.22049      2.11025      9.61025         0.001133      0.007148      0.065758
      6.33074      4.22049      9.61025        -0.005641      0.001105      0.062883
      4.22049      4.22049      7.50000         0.000354      0.000358     -0.436095
      6.33074      2.11025      7.50000         0.000448     -0.000125     -0.435631
      4.22292      2.10311     13.88329        -0.003918      0.015489     -0.067441
      6.34004      4.21855     13.88197        -0.010045     -0.005628     -0.080434
      4.22151      4.22088     11.73514        -0.005760     -0.005759      0.018586
      6.33193      2.10983     11.72890         0.000426     -0.006785      0.031186
    total drift:                                0.002480     -0.000214      0.004793

  FREE ENERGIE OF THE ION-ELECTRON SYSTEM (eV)
  free  energy   TOTEN  =      -454.48593952 eV

  energy  without entropy=     -454.48593952  energy(sigma->0) =     -454.48593952