 vasp.6.3.0 20Jan22 (build Apr  1 2022 16:44:48) gamma-only
 executed on        HPECrayEX_GCC date 2023.02.20  14:44:09

 INCAR:
   SYSTEM = MgO-rocksalt
   ISMEAR = 0
   SIGMA = 0.05
   EDIFF = 1E-7
   ALGO = ALL
   ISTART = 0
   IBRION = 2
   NSW = 1000
   ISYM = 0
   ISIF = 2
   EDIFFG = -0.01
   DIPOL = 0.5 0.5 0.5
   IDIPOL = 3
   LDIPOL = .TRUE.
   LHFCALC = .TRUE.
   GGA = PE
   IVDW = 13
   VDW_S8 = 1.2007
   VDW_A1 = 0.4009
   VDW_A2 = 5.0293
   ENCUT = 520
   PREC = Accurate
   LASPH = .TRUE.
   LREAL = Auto
   ISPIN = 1
   NELM = 200
   NELMIN = 8
   NCORE = 8
   KPAR = 1
   LWAVE = .FALSE.
   LCHARG = .FALSE.

 POTCAR:    PAW_PBE C 08Apr2002
 POTCAR:    PAW_PBE O 08Apr2002
 POTCAR:    PAW_PBE H 15Jun2001
 POTCAR:    PAW_PBE Mg 13Apr2007
 POTCAR:    PAW_PBE O 08Apr2002
 POTCAR:    PAW_PBE C 08Apr2002
   VRHFIN =C: s2p2

   TITEL  = PAW_PBE C 08Apr2002
   POMASS =   12.011; ZVAL   =    4.000    mass and valenz
   ENMAX  =  400.000; ENMIN  =  300.000 eV

[...]

   TITEL  = PAW_PBE H 15Jun2001
   POMASS =    1.000; ZVAL   =    1.000    mass and valenz
   ENMAX  =  250.000; ENMIN  =  200.000 eV

[...]

   TITEL  = PAW_PBE O 08Apr2002
   POMASS =   16.000; ZVAL   =    6.000    mass and valenz
   ENMAX  =  400.000; ENMIN  =  300.000 eV

 Optimization of the real space projectors (new method)

 maximal supplied QI-value         = 25.13
 optimisation between [QCUT,QGAM] = [ 11.56, 23.12] = [ 37.43,149.72] Ry
 Optimized for a Real-space Cutoff    1.04 Angstroem

   l    n(q)    QCUT    max X(q) W(low)/X(q) W(high)/X(q)  e(spline)
   0      7    11.561   115.676    0.20E-03    0.60E-03    0.21E-06
   0      7    11.561    87.132    0.20E-03    0.59E-03    0.21E-06
   1      7    11.561     4.429    0.23E-03    0.35E-03    0.15E-06
   1      7    11.561     2.733    0.18E-03    0.25E-03    0.12E-06
 Optimization of the real space projectors (new method)

[...]

   l    n(q)    QCUT    max X(q) W(low)/X(q) W(high)/X(q)  e(spline)
   0      9    11.527    28.265    0.62E-04    0.53E-04    0.73E-07
   0      9    11.527    10.429    0.52E-04    0.40E-04    0.58E-07
   1      8    11.527    13.073    0.98E-04    0.18E-03    0.86E-07
   1      8    11.527     9.625    0.79E-04    0.15E-03    0.74E-07
   2      8    11.527     4.652    0.22E-03    0.72E-04    0.47E-07
 Optimization of the real space projectors (new method)

 maximal supplied QI-value         = 24.76
 optimisation between [QCUT,QGAM] = [ 11.64, 23.27] = [ 37.91,151.63] Ry
 Optimized for a Real-space Cutoff    1.14 Angstroem

   l    n(q)    QCUT    max X(q) W(low)/X(q) W(high)/X(q)  e(spline)
   0      8    11.635    20.381    0.10E-03    0.33E-03    0.24E-06
   0      8    11.635    15.268    0.11E-03    0.35E-03    0.26E-06
   1      7    11.635     5.964    0.24E-03    0.31E-03    0.30E-06
   1      7    11.635     5.382    0.22E-03    0.25E-03    0.26E-06
  PAW_PBE C 08Apr2002                   :
  PAW_PBE O 08Apr2002                   :
  PAW_PBE H 15Jun2001                   :
  PAW_PBE Mg 13Apr2007                  :
  PAW_PBE O 08Apr2002                   :

 POSCAR:  C  O  H Mg  O
  positions in direct lattice
  velocities in cartesian coordinates
|           W    W    AA    RRRRR   N    N  II  N    N   GGGG   !!!           |
|           W    W   A  A   R    R  NN   N  II  NN   N  G    G  !!!           |
|           W    W  A    A  R    R  N N  N  II  N N  N  G       !!!           |
|           W WW W  AAAAAA  RRRRR   N  N N  II  N  N N  G  GGG   !            |
|           WW  WW  A    A  R   R   N   NN  II  N   NN  G    G                |
|           W    W  A    A  R    R  N    N  II  N    N   GGGG   !!!           |
|     Specifying the vdW parameters                                           |
|     VDW_S8 = 1.201                                                          |
|     VDW_A1 = 0.401                                                          |
|     VDW_A2 = 5.029                                                          |
|     in the INCAR file will overwrite the defaults for pbe0. Please make     |
|     sure that is what you intended.                                         |

 ion  position               nearest neighbor table
   1  0.528  0.556  0.791-  12 1.09  11 1.09   9 1.09   5 1.42
   2  0.318  0.400  0.792-  16 1.09  15 1.09  13 1.09   6 1.42
   3  0.474  0.191  0.792-  20 1.09  19 1.09  17 1.09   7 1.42
   4  0.683  0.345  0.791-  24 1.09  23 1.09  21 1.09   8 1.42
   5  0.508  0.488  0.755-  10 0.98   1 1.42 144 2.24
   6  0.386  0.382  0.755-  14 0.98   2 1.42  55 2.24
   7  0.492  0.260  0.755-  18 0.98   3 1.42 120 2.24
   8  0.614  0.365  0.755-  22 0.98   4 1.42 103 2.24
   9  0.520  0.544  0.842-   1 1.09
  10  0.552  0.448  0.757-   5 0.98
  11  0.590  0.574  0.783-   1 1.09
  12  0.489  0.605  0.777-   1 1.09
  13  0.331  0.391  0.842-   2 1.09
  14  0.425  0.426  0.757-   6 0.98
  15  0.299  0.462  0.785-   2 1.09
  16  0.270  0.360  0.778-   2 1.09
  17  0.483  0.204  0.842-   3 1.09
  18  0.447  0.298  0.757-   7 0.98
  19  0.412  0.172  0.785-   3 1.09
  20  0.513  0.143  0.777-   3 1.09
  21  0.671  0.353  0.841-   4 1.09
  22  0.575  0.321  0.756-   8 0.98
  23  0.700  0.283  0.783-   4 1.09
  24  0.732  0.384  0.776-   4 1.09
  25  0.125  0.000  0.353- 155 2.09 156 2.09 172 2.09 195 2.09 153 2.09  42 2.95  66 2.95  82 2.95
                            26 2.95  28 2.95  67 2.95  27 2.95  44 2.95
  26  0.250  0.125  0.353- 155 2.09 156 2.09 164 2.09 171 2.09 154 2.09  33 2.95  41 2.95  49 2.95
                            25 2.95  28 2.95  43 2.95  27 2.95  36 2.95
  27  0.125  0.125  0.451- 153 2.09 154 2.09 161 2.09 170 2.09 155 2.09 159 2.09  44 2.95  52 2.95
                            28 2.95  36 2.95  25 2.95  33 2.95  26 2.95  42 2.95  30 2.95  37 2.95
  28  0.250  0.000  0.451- 153 2.09 154 2.09 169 2.09 194 2.09 156 2.09 160 2.09  67 2.95  83 2.95
                            27 2.95  43 2.95  25 2.95  41 2.95  26 2.95  66 2.95  30 2.95  45 2.95
  29  0.125  1.000  0.549- 160 2.09 159 2.09 199 2.09 176 2.09 153 2.09 157 2.12  32 2.94  31 2.94
                            71 2.94  48 2.94  86 2.95  70 2.95  46 2.95  30 2.95  67 2.96  44 2.96
  30  0.250  0.125  0.549- 168 2.08 175 2.08 159 2.09 154 2.09 160 2.09 158 2.12  47 2.92  40 2.92
                            31 2.94  32 2.94  29 2.95  37 2.95  27 2.95  28 2.95  45 2.95  36 2.95
  31  0.125  0.125  0.647- 159 2.07 158 2.08 174 2.09 165 2.09 157 2.09  29 2.94  46 2.94  30 2.94
                            37 2.94  40 2.95  48 2.95  32 2.95  56 2.95
  32  0.250  1.000  0.647- 160 2.07 158 2.08 198 2.09 173 2.09 157 2.09  29 2.94  70 2.94  45 2.94
                            30 2.94  47 2.95  71 2.95  31 2.95  87 2.95
  33  0.125  0.250  0.353- 155 2.09 163 2.09 164 2.09 180 2.09 161 2.09  34 2.95  42 2.95  50 2.95
                            26 2.95  27 2.95  35 2.95  52 2.95  36 2.95
  34  0.250  0.375  0.353- 163 2.09 164 2.09 179 2.09 188 2.09 162 2.09  49 2.95  57 2.95  73 2.95
                            33 2.95  36 2.95  60 2.95  35 2.95  51 2.95
  35  0.125  0.375  0.451- 167 2.09 162 2.09 161 2.09 178 2.09 185 2.09 163 2.09  60 2.95  76 2.95
                            36 2.95  52 2.95  33 2.95  50 2.95  34 2.95  57 2.95  61 2.95  37 2.96
  36  0.250  0.250  0.451- 168 2.08 161 2.09 162 2.09 154 2.09 177 2.09 164 2.09  43 2.95  51 2.95
                            27 2.95  35 2.95  49 2.95  34 2.95  26 2.95  33 2.95  30 2.95  37 2.96
  37  0.125  0.250  0.549- 168 2.08 184 2.09 167 2.09 159 2.09 161 2.09 165 2.13  40 2.92  39 2.93
                            56 2.94  31 2.94  54 2.95  46 2.95  30 2.95  52 2.95  27 2.95  35 2.96
  38  0.250  0.375  0.550- 183 2.07 168 2.09 192 2.09 162 2.10 167 2.10 166 2.12  64 2.93  40 2.93
                            39 2.94  53 2.95  77 2.95  51 2.95  37 2.96  61 2.96  36 2.96  60 2.96
  39  0.125  0.375  0.646- 166 2.07 167 2.07 182 2.09 189 2.09 165 2.09  54 2.93  61 2.93  37 2.93
                            38 2.94  56 2.95  80 2.95  64 2.95  40 2.96
  40  0.250  0.250  0.646- 168 2.06 181 2.06 165 2.09 158 2.09 166 2.09  30 2.92  37 2.92  53 2.93
                            38 2.93  31 2.95  47 2.95  55 2.95  39 2.96
  41  0.375  0.000  0.353- 156 2.09 171 2.09 211 2.09 236 2.09 169 2.09  66 2.95 106 2.95 146 2.95
                            26 2.95  43 2.95 108 2.95  28 2.95  83 2.95
  42  0.000  0.125  0.353- 155 2.09 172 2.09 180 2.09 235 2.09 170 2.09  33 2.95 105 2.95 113 2.95
                            25 2.95  27 2.95 107 2.95  44 2.95  52 2.95
  43  0.375  0.125  0.451- 175 2.08 169 2.09 154 2.09 177 2.09 234 2.09 171 2.09 108 2.95 116 2.95
                            28 2.95  36 2.95  26 2.95  41 2.95  49 2.95 106 2.95  30 2.95  45 2.96
  44  0.000  0.000  0.451- 153 2.09 170 2.09 210 2.09 233 2.09 172 2.09 176 2.09 107 2.95 147 2.95
                            27 2.95  67 2.95  42 2.95  25 2.95  82 2.95 105 2.95  46 2.96 109 2.96
  45  0.375  1.000  0.549- 175 2.08 215 2.09 240 2.09 160 2.09 169 2.09 173 2.12  47 2.92 112 2.93
                            87 2.94  32 2.94  70 2.95 150 2.95  30 2.95  83 2.95  28 2.95 108 2.95
  46  0.000  0.125  0.549- 159 2.08 239 2.08 176 2.09 184 2.09 170 2.09 174 2.12 111 2.94  31 2.94
                            56 2.94  48 2.94 109 2.95  29 2.95 117 2.95  37 2.95  44 2.96  27 2.96
  47  0.375  0.125  0.646- 175 2.06 181 2.07 173 2.09 158 2.09 238 2.09  30 2.92  45 2.92  53 2.92
                           110 2.93  32 2.95  40 2.95 120 2.95 112 2.95
  48  1.000  1.000  0.647- 176 2.07 237 2.08 157 2.08 214 2.09 174 2.09  86 2.94 109 2.94  29 2.94
                            46 2.94  71 2.95 151 2.95  31 2.95 111 2.95
  49  0.375  0.250  0.353- 164 2.09 171 2.09 179 2.09 244 2.09 177 2.09  34 2.95 106 2.95 114 2.95
                            26 2.95  36 2.95  43 2.95 116 2.95  51 2.95
  50  0.000  0.375  0.353- 163 2.09 180 2.09 204 2.09 243 2.09 178 2.09  57 2.95 113 2.95 137 2.95
                            33 2.95  52 2.95 115 2.95  35 2.95  76 2.95
  51  0.375  0.375  0.451- 162 2.09 177 2.09 201 2.09 242 2.09 179 2.09 183 2.10 116 2.95 140 2.95
                            36 2.95  60 2.95  49 2.95  34 2.95  73 2.95 114 2.95  38 2.95  53 2.96
  52  0.000  0.250  0.451- 161 2.09 170 2.09 178 2.09 241 2.09 180 2.09 184 2.09 107 2.95 115 2.95
                            27 2.95  35 2.95 113 2.95  42 2.95  50 2.95  33 2.95 117 2.95  37 2.95
  53  0.375  0.250  0.550- 183 2.08 248 2.08 181 2.10 168 2.10 175 2.10 177 2.11  47 2.92  40 2.93
                           118 2.94  38 2.95 110 2.95  51 2.96 116 2.96  30 2.96  36 2.97  43 2.97
  54  0.000  0.375  0.549- 167 2.08 247 2.08 208 2.09 184 2.09 178 2.09 182 2.12 119 2.93  39 2.93
                            80 2.94  56 2.94 117 2.95  37 2.95  61 2.95 141 2.95  35 2.96  76 2.96
  55  0.374  0.375  0.650- 246 2.10 166 2.10 181 2.11 205 2.12 183 2.13   6 2.24  40 2.95  64 2.96
                           144 2.96 120 2.96 118 2.97  53 2.97  38 2.98  77 2.98
  56  0.000  0.250  0.647- 184 2.07 165 2.08 245 2.08 174 2.09 182 2.09  46 2.94  37 2.94 117 2.94
                            54 2.94 119 2.95 111 2.95  31 2.95  39 2.95
[...]
  14.61397599 12.52658079 13.80446887
   8.34909550 14.61044171 13.80396156
  14.61229381 14.61092537 11.67669097
   8.34917783 12.52804503 11.67362412

--------------------------------------- Iteration      FINAL  ---------------------------------------

--------------------OUTCAR has been truncated-------------------------

[...]

--------------------OUTCAR has been truncated-------------------------

  FORCE on cell =-STRESS in cart. coord.  units (eV):
  Direction    XX          YY          ZZ          XY          YZ          ZX
  Alpha Z  1103.68922  1103.68922  1103.68922
  Ewald  209211.62984209211.21103************    -1.48188    -1.25909    -2.26889
  Hartree225040.02445225039.80166************    -1.05461     0.31538    -2.29254
  E(xc)   -3700.47466 -3700.47542 -3695.17608    -0.00080    -0.00036    -0.00021
  Local  ************************434530.88554     2.45371     0.86806     4.56679
  n-local -1842.73319 -1842.72305 -1926.80228    -0.01182    -0.08361     0.02614
  augment   843.38520   843.39344   853.75924    -0.00142     0.02244    -0.00746
  Kinetic 19020.83141 19020.92147 19234.40611     0.10655     0.36515    -0.14474
  Fock    -1840.84486 -1840.84323 -1831.86103    -0.00231    -0.00756    -0.00030
  vdW       -37.46912   -37.46901   -26.44463    -0.00011     0.00110    -0.00023
  Total    -118.02630  -118.02563     1.24012     0.00730     0.22150    -0.12145
  in kB     -31.89687   -31.89669     0.33515     0.00197     0.05986    -0.03282

 VOLUME and BASIS-vectors are now :
  energy-cutoff  :      520.00
  volume of cell :     5928.45
      direct lattice vectors                 reciprocal lattice vectors
    16.698223653  0.000000000  0.000000000     0.059886610  0.000000000  0.000000000
     0.000000000 16.698223653  0.000000000     0.000000000  0.059886610  0.000000000
     0.000000000  0.000000000 21.261833870     0.000000000  0.000000000  0.047032632

  length of vectors
    16.698223653 16.698223653 21.261833870     0.059886610  0.059886610  0.047032632

 FORCES acting on ions:
    Electron-Ion                     Ewald-Force                    Non-Local-Force
   -.387E+02 -.196E+03 -.638E+03   0.399E+02 0.202E+03 0.642E+03   -.111E+01 -.548E+01 -.320E+01
   0.196E+03 -.362E+02 -.639E+03   -.202E+03 0.373E+02 0.642E+03   0.551E+01 -.985E+00 -.322E+01
   0.369E+02 0.197E+03 -.639E+03   -.379E+02 -.203E+03 0.642E+03   0.100E+01 0.552E+01 -.320E+01
   -.196E+03 0.400E+02 -.639E+03   0.202E+03 -.412E+02 0.642E+03   -.550E+01 0.116E+01 -.315E+01
   0.426E+02 -.106E+03 -.838E+03   -.739E+02 0.101E+03 0.818E+03   0.270E+02 0.381E+01 0.170E+02
   0.105E+03 0.387E+02 -.837E+03   -.100E+03 -.695E+02 0.817E+03   -.412E+01 0.265E+02 0.174E+02
   -.394E+02 0.104E+03 -.838E+03   0.702E+02 -.996E+02 0.818E+03   -.266E+02 -.415E+01 0.172E+02
   -.105E+03 -.447E+02 -.839E+03   0.101E+03 0.761E+02 0.820E+03   0.378E+01 -.271E+02 0.167E+02
   0.203E+01 -.182E+02 -.183E+03   -.270E+01 0.171E+02 0.188E+03   0.638E+00 0.105E+01 -.539E+01
   -.592E+02 0.229E+02 -.152E+03   0.651E+02 -.284E+02 0.153E+03   -.571E+01 0.524E+01 -.176E+00
   -.654E+02 -.487E+02 -.142E+03   0.709E+02 0.504E+02 0.141E+03   -.524E+01 -.163E+01 0.926E+00
   0.339E+02 -.749E+02 -.139E+03   -.375E+02 0.795E+02 0.137E+03   0.342E+01 -.432E+01 0.161E+01
   0.182E+02 0.295E+01 -.183E+03   -.171E+02 -.368E+01 0.188E+03   -.106E+01 0.697E+00 -.539E+01
   -.223E+02 -.599E+02 -.153E+03   0.278E+02 0.660E+02 0.153E+03   -.519E+01 -.575E+01 -.226E+00
   0.496E+02 -.648E+02 -.142E+03   -.514E+02 0.703E+02 0.141E+03   0.173E+01 -.523E+01 0.859E+00
   0.745E+02 0.348E+02 -.138E+03   -.790E+02 -.385E+02 0.137E+03   0.426E+01 0.346E+01 0.166E+01
   -.276E+01 0.186E+02 -.183E+03   0.348E+01 -.175E+02 0.189E+03   -.687E+00 -.103E+01 -.539E+01
   0.594E+02 -.224E+02 -.153E+03   -.654E+02 0.278E+02 0.153E+03   0.572E+01 -.519E+01 -.222E+00
   0.650E+02 0.494E+02 -.142E+03   -.705E+02 -.512E+02 0.141E+03   0.523E+01 0.170E+01 0.881E+00
   -.345E+02 0.747E+02 -.138E+03   0.382E+02 -.791E+02 0.137E+03   -.345E+01 0.427E+01 0.168E+01
   -.188E+02 -.184E+01 -.183E+03   0.178E+02 0.250E+01 0.189E+03   0.995E+00 -.631E+00 -.540E+01
   0.232E+02 0.582E+02 -.152E+03   -.287E+02 -.641E+02 0.152E+03   0.526E+01 0.566E+01 -.159E+00
   -.482E+02 0.657E+02 -.142E+03   0.498E+02 -.712E+02 0.141E+03   -.157E+01 0.526E+01 0.956E+00
   -.752E+02 -.333E+02 -.139E+03   0.798E+02 0.368E+02 0.137E+03   -.434E+01 -.337E+01 0.164E+01
   0.141E+01 0.142E+01 0.314E+03   -.141E+01 -.142E+01 -.312E+03   0.811E-03 -.881E-03 -.242E+01
   0.241E+01 0.240E+01 0.315E+03   -.240E+01 -.239E+01 -.313E+03   -.251E-02 -.209E-02 -.242E+01
   0.292E+01 0.330E+01 0.110E+03   -.291E+01 -.329E+01 -.110E+03   -.473E-03 0.181E-03 0.131E+00
   0.332E+01 0.294E+01 0.110E+03   -.331E+01 -.294E+01 -.110E+03   -.149E-02 -.226E-02 0.129E+00
   0.390E+01 0.390E+01 -.917E+02   -.390E+01 -.390E+01 0.917E+02   -.324E-02 -.333E-02 0.590E-02
   0.912E+01 0.897E+01 -.835E+02   -.909E+01 -.894E+01 0.835E+02   -.335E-01 -.369E-01 0.504E-01
   0.101E+02 0.973E+01 -.294E+03   -.100E+02 -.973E+01 0.292E+03   -.381E-01 -.230E-02 0.240E+01
   0.102E+02 0.103E+02 -.293E+03   -.102E+02 -.103E+02 0.292E+03   -.246E-02 -.409E-01 0.240E+01
   0.194E+01 0.144E+01 0.315E+03   -.193E+01 -.144E+01 -.313E+03   -.217E-02 -.983E-03 -.242E+01
   0.294E+01 -.123E-01 0.317E+03   -.292E+01 0.124E-01 -.314E+03   -.489E-02 -.456E-03 -.242E+01
   0.390E+01 -.113E-01 0.113E+03   -.387E+01 0.103E-01 -.113E+03   0.152E-02 -.176E-02 0.127E+00
   0.525E+01 0.309E+01 0.116E+03   -.521E+01 -.307E+01 -.116E+03   0.387E-03 -.214E-02 0.113E+00
   0.796E+01 0.462E+01 -.856E+02   -.792E+01 -.461E+01 0.856E+02   -.532E-01 -.138E-01 0.439E-01
   0.146E+02 0.719E-01 -.734E+02   -.144E+02 -.736E-01 0.735E+02   -.183E+00 0.281E-02 -.465E-01
   0.199E+02 0.389E+00 -.285E+03   -.198E+02 -.387E+00 0.283E+03   -.171E+00 -.199E-02 0.241E+01
   0.299E+02 0.170E+02 -.272E+03   -.297E+02 -.170E+02 0.270E+03   -.247E+00 0.929E-02 0.242E+01
   0.146E+01 0.196E+01 0.315E+03   -.145E+01 -.195E+01 -.313E+03   -.272E-02 -.248E-02 -.242E+01
   -.143E-01 0.188E+01 0.314E+03   0.143E-01 -.187E+01 -.312E+03   0.632E-05 0.776E-03 -.242E+01
   0.314E+01 0.524E+01 0.116E+03   -.312E+01 -.520E+01 -.116E+03   -.364E-02 0.198E-02 0.115E+00
   -.191E-01 0.200E+01 0.108E+03   0.192E-01 -.200E+01 -.108E+03   -.101E-04 -.318E-03 0.141E+00
   0.465E+01 0.809E+01 -.854E+02   -.464E+01 -.805E+01 0.853E+02   -.144E-01 -.442E-01 0.391E-01
   -.803E-01 0.485E+01 -.907E+02   0.810E-01 -.485E+01 0.908E+02   -.635E-03 0.125E-02 0.615E-02
   0.180E+02 0.299E+02 -.269E+03   -.180E+02 -.298E+02 0.267E+03   0.181E-01 -.197E+00 0.243E+01
   -.625E-01 0.476E+01 -.298E+03   0.622E-01 -.477E+01 0.296E+03   0.930E-03 0.432E-02 0.241E+01
   0.200E+01 0.197E+01 0.318E+03   -.199E+01 -.196E+01 -.315E+03   -.354E-02 -.323E-02 -.242E+01
   -.145E-01 -.120E-01 0.315E+03   0.144E-01 0.122E-01 -.313E+03   0.257E-04 -.174E-02 -.242E+01
   0.412E+01 -.303E-01 0.121E+03   -.407E+01 0.319E-01 -.121E+03   0.162E-03 -.181E-02 0.212E+00
   -.398E-01 0.211E+01 0.111E+03   0.409E-01 -.210E+01 -.111E+03   -.132E-03 -.753E-03 0.137E+00
   0.104E+02 0.102E+02 -.654E+02   -.103E+02 -.101E+02 0.657E+02   -.154E+00 -.158E+00 -.247E+00
   -.557E-01 -.483E-01 -.874E+02   0.553E-01 0.484E-01 0.874E+02   0.115E-02 0.118E-02 0.233E-01
   0.327E+02 0.136E+01 -.217E+03   -.326E+02 -.136E+01 0.216E+03   -.127E+00 -.258E-02 0.136E+01
   -.316E+00 0.580E+01 -.293E+03   0.317E+00 -.581E+01 0.291E+03   -.577E-03 0.114E-01 0.241E+01
   0.194E+01 -.146E+01 0.315E+03   -.193E+01 0.145E+01 -.313E+03   -.876E-03 0.973E-03 -.242E+01
   0.240E+01 -.241E+01 0.315E+03   -.239E+01 0.240E+01 -.313E+03   -.260E-02 0.293E-02 -.242E+01
   0.291E+01 -.331E+01 0.110E+03   -.290E+01 0.331E+01 -.110E+03   -.581E-03 0.315E-02 0.128E+00
   0.523E+01 -.314E+01 0.116E+03   -.519E+01 0.312E+01 -.116E+03   0.267E-03 0.189E-02 0.116E+00
[...]
   -.506E+01 -.609E+01 0.909E+03   0.504E+01 0.607E+01 -.913E+03   0.148E-01 0.151E-01 0.294E+01
   0.439E-01 -.632E+01 0.920E+03   -.439E-01 0.629E+01 -.923E+03   -.494E-05 0.392E-01 0.285E+01
   -.471E+02 -.266E+02 -.847E+03   0.470E+02 0.265E+02 0.853E+03   0.695E-01 0.752E-01 -.454E+01
   0.505E+01 -.114E+03 -.759E+03   -.504E+01 0.113E+03 0.764E+03   -.916E-02 0.425E+00 -.441E+01
   -.170E+02 -.177E+02 -.263E+03   0.169E+02 0.176E+02 0.263E+03   0.485E-01 0.462E-01 0.308E+00
   0.330E+00 -.332E+02 -.180E+03   -.321E+00 0.328E+02 0.181E+03   -.664E-02 0.292E+00 -.392E+00
   -.685E+01 -.677E+01 0.326E+03   0.683E+01 0.676E+01 -.326E+03   0.234E-01 0.176E-01 -.108E-01
   0.552E-01 0.915E-01 0.334E+03   -.557E-01 -.895E-01 -.334E+03   0.565E-03 -.289E-02 -.141E-01
   -.395E+01 0.329E-01 0.906E+03   0.394E+01 -.329E-01 -.910E+03   0.610E-02 -.568E-04 0.295E+01
   0.404E-01 -.614E+01 0.912E+03   -.408E-01 0.611E+01 -.916E+03   0.470E-03 0.274E-01 0.292E+01
   -.186E+02 -.182E+02 -.871E+03   0.186E+02 0.182E+02 0.876E+03   0.329E-01 0.368E-01 -.453E+01
   0.122E+00 0.269E+00 -.856E+03   -.122E+00 -.274E+00 0.861E+03   -.142E-03 0.485E-02 -.454E+01
   -.976E+01 0.625E-01 -.275E+03   0.974E+01 -.633E-01 0.275E+03   0.153E-01 0.144E-02 0.294E+00
   0.400E+00 -.261E+02 -.248E+03   -.402E+00 0.259E+02 0.247E+03   0.152E-02 0.206E+00 0.385E+00
   -.367E-02 0.572E+00 -.611E+00   -.746E-12 -.469E-12 -.637E-11   -.129E-01 -.448E+00 -.128E+01

 POSITION                                       TOTAL-FORCE (eV/Angst)
      8.81570      9.29362     16.85189        -0.004606     -0.000605     -0.002894
      5.31515      6.68845     16.85505        -0.000453      0.002142     -0.000022
      7.91466      3.21886     16.84404        -0.003003     -0.004106     -0.004195
     11.39053      5.77782     16.84040        -0.000496      0.004883      0.001654
      8.49177      8.15947     16.05796        -0.000870     -0.000225     -0.003026
      6.45347      6.39284     16.05651        -0.001408     -0.001845     -0.003488
      8.21666      4.35998     16.05213        -0.001320     -0.002931     -0.003560
     10.25384      6.11623     16.05647        -0.001860      0.003478     -0.006661
      8.68934      9.07417     17.91568        -0.000926      0.003078      0.000700
      9.22663      7.50573     16.10284         0.000829     -0.000054     -0.003927
      9.84736      9.60437     16.66857        -0.002738      0.004609      0.000152
      8.15499     10.10605     16.55757        -0.001683     -0.002293      0.003061
      5.53599      6.55074     17.91705         0.003134      0.002562      0.002866
      7.10053      7.13324     16.10843        -0.000646      0.000609     -0.004547
      4.98628      7.71650     16.68524        -0.003825      0.003534      0.000390
      4.51411      6.01803     16.55160        -0.001952      0.001386      0.005128
      8.05031      3.43371     17.90751        -0.000414      0.002751      0.003712
      7.47762      5.00938     16.10365         0.001021     -0.004857     -0.004789
      6.88550      2.89563     16.66991        -0.004389     -0.005490      0.001681
      8.58200      2.41642     16.53763        -0.001115     -0.001842      0.007533
     11.18184      5.90285     17.90665        -0.002136      0.001075     -0.004394
      9.59517      5.38504     16.09917        -0.000425     -0.003400     -0.005878
     11.68853      4.74345     16.65113         0.003907     -0.000125      0.000852
     12.20793      6.43023     16.54156        -0.000996      0.003633      0.002219
      2.08728      0.00000      7.50000         0.003803      0.002178      0.476823
      4.17456      2.08728      7.50000         0.007005      0.007356      0.483749
      2.08728      2.08728      9.58728         0.005319      0.004825      0.015817
      4.17456      0.00000      9.58728         0.003692      0.002062      0.016309
      2.08672     16.69703     11.67959         0.000177      0.000381      0.001596
      4.17439      2.08676     11.67621        -0.001969     -0.000853      0.004254
      2.08546      2.08338     13.74572         0.000608      0.000931      0.000687
      4.17134     16.69552     13.74557         0.002023      0.001609      0.001495
      2.08728      4.17456      7.50000         0.006806      0.003233      0.482747
      4.17456      6.26183      7.50000         0.012847     -0.000328      0.495324
      2.08728      6.26183      9.58728         0.028280     -0.002582      0.029980
      4.17456      4.17456      9.58728         0.036913      0.016941      0.045408
      2.08674      4.17415     11.67776         0.000098      0.000746      0.000140
      4.18201      6.26104     11.68481         0.001252      0.000775      0.002601
      2.08494      6.26151     13.74069         0.000217      0.000779      0.000482
      4.17095      4.16845     13.73136         0.001324      0.004583      0.003770
      6.26183      0.00000      7.50000         0.001621      0.006074      0.481805
      0.00000      2.08728      7.50000         0.000047      0.004196      0.477362
      6.26183      2.08728      9.58728         0.016466      0.039711      0.045818
      0.00000      0.00000      9.58728         0.000079     -0.000300      0.018242
      6.26187     16.69685     11.67771        -0.001289      0.000815     -0.000940
      0.00015      2.08590     11.67951         0.000206      0.000611      0.000453
      6.25698      2.08287     13.72962         0.002569      0.002160      0.001892
      0.00011     16.69585     13.74778         0.000563     -0.001157     -0.002707
      6.26183      4.17456      7.50000         0.008704      0.009298      0.503524
      0.00000      6.26183      7.50000        -0.000060     -0.001432      0.479862
      6.26183      6.26183      9.58728         0.045978     -0.000031      0.122028
      0.00000      4.17456      9.58728         0.000961      0.000932      0.014028
      6.27000      4.18339     11.69391        -0.000228      0.000115      0.002299
      0.00012      6.26127     11.67858         0.000576      0.001029     -0.002813
      6.25437      6.26047     13.82189         0.000839     -0.000367     -0.000569
      0.00021      4.17187     13.74652        -0.000149     -0.001291     -0.002570
      2.08728      8.34911      7.50000         0.007952     -0.003045      0.481817
      4.17456     10.43639      7.50000         0.007266     -0.006639      0.484005
      2.08728     10.43639      9.58728         0.006149     -0.002336      0.015725
      4.17456      8.34911      9.58728         0.040175     -0.018468      0.047021
[...]
      8.34911     10.43639      9.58728         0.000533      0.022658      0.041211
     14.61095     10.43639      7.50000         0.004993      0.005136     -0.562789
      8.34911      8.34911      7.50000         0.000026      0.013395     -0.591155
     14.61529      8.35267     13.80211        -0.001088     -0.000847      0.000402
      8.34921     10.45800     13.80273         0.000246      0.003421     -0.000627
     14.61323     10.43813     11.67407        -0.000569      0.000340      0.001485
      8.34990      8.35551     11.68833         0.001078     -0.000893     -0.001074
     14.61095     12.52367      9.58728         0.010002      0.006093      0.045896
      8.34911     14.61095      9.58728         0.000171     -0.001225      0.042973
     14.61095     14.61095      7.50000         0.002023     -0.000077     -0.559565
      8.34911     12.52367      7.50000         0.000183      0.009316     -0.570019
     14.61428     12.52615     13.80081        -0.001755     -0.001381      0.002901
      8.34940     14.61004     13.80165        -0.000544      0.001084      0.002212
     14.61236     14.61062     11.67511        -0.001796      0.000655     -0.002681
      8.34924     12.52659     11.67311         0.000408      0.002094      0.002543
    total drift:                               -0.006134      0.000807     -0.165554

  FREE ENERGIE OF THE ION-ELECTRON SYSTEM (eV)
  free  energy   TOTEN  =     -2043.98338192 eV

  energy  without entropy=    -2043.98338192  energy(sigma->0) =    -2043.98338192

 d Force = 0.7858270E-04[ 0.424E-04, 0.115E-03]  d Energy = 0.6844997E-04 0.101E-04
 d Force = 0.8038801E+01[ 0.804E+01, 0.804E+01]  d Ewald  = 0.8038801E+01 0.966E-07

 Conjugate gradient step on ions:
 trial-energy change:   -0.000068  1 .order   -0.000079   -0.000115   -0.000042
  (g-gl).g = 0.235E-03      g.g   = 0.252E-03  gl.gl    = 0.257E-03
 g(Force)  = 0.252E-03   g(Stress)= 0.000E+00 ortho     = 0.194E-04
 gamma     =   0.91415
 trial     =   0.42518
 opt step  =   0.67367  (harmonic =   0.67367) maximal distance =0.00238566
 next E    = -2043.983404   (d E  =  -0.00009)

 reached required accuracy - stopping structural energy minimisation