 vasp.6.4.2 20Jul23 (build Nov 17 2023 15:39:20) complex
 executed on              LinuxNV date 2024.02.27  20:18:11
 OpenACC runtime initialized ...    4 GPUs detected

 INCAR:
   SYSTEM = Oxide-Surface
   ISMEAR = 0
   SIGMA = 0.05
   EDIFF = 1E-4
   ALGO = Normal
   ISTART = 2
   IBRION = -1
   NSW = 0
   ISYM = 0
   DIPOL = 0.5 0.5 0.5
   IDIPOL = 3
   LDIPOL = .TRUE.
   LHFCALC = .TRUE.
   HFSCREEN = 0.2
   GGA = PE
   ENCUT = 450
   PREC = Normal
   LASPH = .TRUE.
   LREAL = Auto
   ISPIN = 1
   NELM = 200
   NELMIN = 8
   NCORE = 1
   KPAR = 1
   LWAVE = .FALSE.
   LCHARG = .FALSE.

 POTCAR:    PAW_PBE N 08Apr2002
 POTCAR:    PAW_PBE O 08Apr2002
 POTCAR:    PAW_PBE Mg_pv 13Apr2007
 POTCAR:    PAW_PBE O 08Apr2002
 POTCAR:    PAW_PBE N 08Apr2002
   VRHFIN =N: s2p3

   TITEL  = PAW_PBE N 08Apr2002
   POMASS =   14.001; ZVAL   =    5.000    mass and valenz
   ENMAX  =  400.000; ENMIN  =  300.000 eV

[...]

   TITEL  = PAW_PBE Mg_pv 13Apr2007
   POMASS =   24.305; ZVAL   =    8.000    mass and valenz
   ENMAX  =  403.929; ENMIN  =  302.947 eV

   TITEL  = PAW_PBE O 08Apr2002
   POMASS =   16.000; ZVAL   =    6.000    mass and valenz
   ENMAX  =  400.000; ENMIN  =  300.000 eV

 Optimization of the real space projectors (new method)

 maximal supplied QI-value         = 25.13
 optimisation between [QCUT,QGAM] = [ 10.81, 21.61] = [ 32.71,130.83] Ry
 Optimized for a Real-space Cutoff    1.23 Angstroem

   l    n(q)    QCUT    max X(q) W(low)/X(q) W(high)/X(q)  e(spline)
   0      8    10.807    79.467    0.34E-03    0.68E-03    0.21E-06
   0      8    10.807    66.151    0.34E-03    0.67E-03    0.21E-06
   1      7    10.807    14.030    0.45E-03    0.13E-02    0.11E-05
   1      7    10.807     9.831    0.48E-03    0.13E-02    0.11E-05
 Optimization of the real space projectors (new method)

[...]

   l    n(q)    QCUT    max X(q) W(low)/X(q) W(high)/X(q)  e(spline)
   1      7    10.771     2.974    0.18E-03    0.56E-05    0.13E-06
   1      7    10.771     4.279    0.39E-03    0.94E-04    0.28E-06
   0      8    10.771    16.381    0.27E-03    0.38E-03    0.44E-07
   0      8    10.771     5.611    0.18E-03    0.26E-03    0.32E-07
   2      7    10.771     4.652    0.12E-03    0.23E-03    0.45E-07
 Optimization of the real space projectors (new method)

 maximal supplied QI-value         = 24.76
 optimisation between [QCUT,QGAM] = [ 10.64, 21.54] = [ 31.73,129.89] Ry
 Optimized for a Real-space Cutoff    1.23 Angstroem

   l    n(q)    QCUT    max X(q) W(low)/X(q) W(high)/X(q)  e(spline)
   0      8    10.645    20.381    0.38E-03    0.60E-03    0.15E-06
   0      8    10.645    15.268    0.40E-03    0.65E-03    0.17E-06
   1      7    10.645     5.964    0.30E-03    0.63E-03    0.18E-06
   1      7    10.645     5.382    0.24E-03    0.53E-03    0.16E-06
  PAW_PBE N 08Apr2002                   :
  PAW_PBE O 08Apr2002                   :
  PAW_PBE Mg_pv 13Apr2007               :
  PAW_PBE O 08Apr2002                   :

 POSCAR:  N  O Mg  O
  positions in direct lattice
 exchange correlation table for  LEXCH =        8
   RHO(1)=    0.500       N(1)  =     2000
   RHO(2)=  100.500       N(2)  =     4000

 ion  position               nearest neighbor table
   1  0.525  0.547  0.791-   2 1.14
   2  0.624  0.638  0.783-   1 1.14   3 1.20
   3  0.727  0.733  0.774-   2 1.20
   4  0.000  0.750  0.352-  36 2.11  38 2.11  39 2.11  46 2.11  55 2.11
   5  0.250  0.000  0.352-  37 2.11  38 2.11  39 2.11  47 2.11  54 2.11
   6  0.000  0.000  0.451-  38 2.11  37 2.11  36 2.11  44 2.11  53 2.11  42 2.12
   7  0.250  0.750  0.451-  39 2.11  37 2.11  36 2.11  45 2.11  52 2.11  43 2.12
   8  1.000  0.750  0.550-  59 2.11  42 2.11  50 2.11  43 2.11  36 2.13  40 2.14
   9  0.250  1.000  0.550-  42 2.11  51 2.11  58 2.11  43 2.11  37 2.13  41 2.15
  10  0.000  0.000  0.649-  57 2.11  40 2.11  42 2.11  48 2.11  41 2.11
  11  0.250  0.750  0.649-  40 2.11  43 2.11  49 2.11  56 2.11  41 2.11
  12  0.000  0.250  0.352-  44 2.11  38 2.11  46 2.11  47 2.11  63 2.11
  13  0.250  0.500  0.352-  45 2.11  39 2.11  46 2.11  47 2.11  62 2.11
  14  0.000  0.500  0.451-  46 2.11  44 2.11  45 2.11  36 2.11  61 2.11  50 2.12
  15  0.250  0.250  0.451-  47 2.11  44 2.11  45 2.11  37 2.11  60 2.11  51 2.12
  16  0.000  0.250  0.550-  42 2.11  50 2.11  51 2.11  67 2.11  44 2.13  48 2.15
  17  0.250  0.500  0.550-  50 2.11  51 2.11  43 2.11  66 2.11  45 2.12  49 2.15
  18  0.000  0.500  0.649-  49 2.11  50 2.11  40 2.11  48 2.11  65 2.12
  19  0.250  0.250  0.649-  49 2.11  64 2.11  48 2.11  41 2.11  51 2.11
  20  0.500  0.750  0.352-  52 2.11  39 2.11  54 2.11  55 2.11  62 2.11
  21  0.750  0.000  0.352-  53 2.11  38 2.11  54 2.11  55 2.11  63 2.11
  22  0.500  0.000  0.451-  54 2.11  52 2.11  53 2.11  37 2.11  60 2.11  58 2.12
  23  0.750  0.750  0.451-  55 2.11  52 2.11  53 2.11  36 2.11  61 2.11  59 2.12
  24  0.500  0.750  0.550-  59 2.11  58 2.11  66 2.11  43 2.11  52 2.13  56 2.16
  25  0.750  1.000  0.550-  59 2.11  42 2.11  58 2.11  67 2.11  53 2.13  57 2.14
  26  0.500  0.000  0.649-  64 2.11  58 2.11  57 2.11  41 2.11  56 2.11
  27  0.751  0.751  0.650-  40 2.11  57 2.11  65 2.12  56 2.12  59 2.12
  28  0.500  0.250  0.352-  60 2.11  54 2.11  47 2.11  62 2.11  63 2.11
  29  0.750  0.500  0.352-  61 2.11  55 2.11  46 2.11  62 2.11  63 2.11
  30  0.500  0.500  0.451-  62 2.11  52 2.11  60 2.11  61 2.11  45 2.11  66 2.12
  31  0.750  0.250  0.451-  63 2.11  53 2.11  60 2.11  61 2.11  44 2.11  67 2.12
  32  0.500  0.250  0.550-  58 2.11  51 2.11  67 2.11  66 2.11  60 2.12  64 2.15
  33  0.750  0.500  0.550-  59 2.11  50 2.11  66 2.11  67 2.11  61 2.13  65 2.16
  34  0.499  0.499  0.648-  66 2.10  49 2.10  64 2.10  65 2.12  56 2.12
  35  0.750  0.250  0.649-  57 2.11  67 2.11  64 2.11  65 2.11  48 2.11
  36  0.000  0.750  0.451-   4 2.11   6 2.11   7 2.11  14 2.11  23 2.11   8 2.13
  37  0.250  0.000  0.451-   5 2.11   6 2.11   7 2.11  15 2.11  22 2.11   9 2.13
  38  0.000  0.000  0.352-   6 2.11   5 2.11   4 2.11  12 2.11  21 2.11
  39  0.250  0.750  0.352-   7 2.11   5 2.11   4 2.11  13 2.11  20 2.11
  40  0.000  0.750  0.651-  11 2.11  27 2.11  18 2.11  10 2.11   8 2.14
  41  0.250  1.000  0.651-  19 2.11  10 2.11  26 2.11  11 2.11   9 2.15
  42  0.000  0.000  0.550-   9 2.11  16 2.11  25 2.11  10 2.11   8 2.11   6 2.12
  43  0.250  0.750  0.550-  11 2.11   9 2.11  24 2.11  17 2.11   8 2.11   7 2.12
  44  0.000  0.250  0.451-  12 2.11   6 2.11  14 2.11  15 2.11  31 2.11  16 2.13
  45  0.250  0.500  0.451-  13 2.11   7 2.11  14 2.11  15 2.11  30 2.11  17 2.12
  46  0.000  0.500  0.352-  14 2.11  12 2.11  13 2.11   4 2.11  29 2.11
  47  0.250  0.250  0.352-  15 2.11  12 2.11  13 2.11   5 2.11  28 2.11
  48  1.000  0.250  0.651-  19 2.11  10 2.11  18 2.11  35 2.11  16 2.15
  49  0.250  0.500  0.651-  34 2.10  18 2.11  19 2.11  11 2.11  17 2.15
  50  1.000  0.500  0.550-  33 2.11  18 2.11  16 2.11  17 2.11   8 2.11  14 2.12
  51  0.250  0.250  0.550-   9 2.11  16 2.11  32 2.11  17 2.11  19 2.11  15 2.12
  52  0.500  0.750  0.451-  20 2.11   7 2.11  22 2.11  23 2.11  30 2.11  24 2.13
  53  0.750  0.000  0.451-  21 2.11   6 2.11  22 2.11  23 2.11  31 2.11  25 2.13
  54  0.500  0.000  0.352-  22 2.11  20 2.11  21 2.11   5 2.11  28 2.11
  55  0.750  0.750  0.352-  23 2.11  20 2.11  21 2.11   4 2.11  29 2.11
  56  0.500  0.750  0.651-  11 2.11  26 2.11  34 2.12  27 2.12  24 2.16
  57  0.750  0.001  0.651-  35 2.11  27 2.11  26 2.11  10 2.11  25 2.14
  58  0.500  1.000  0.550-  26 2.11  24 2.11  32 2.11   9 2.11  25 2.11  22 2.12
  59  0.750  0.750  0.550-  33 2.11  24 2.11   8 2.11  25 2.11  27 2.12  23 2.12
  60  0.500  0.250  0.451-  28 2.11  22 2.11  15 2.11  30 2.11  31 2.11  32 2.12
  61  0.750  0.500  0.451-  29 2.11  23 2.11  14 2.11  30 2.11  31 2.11  33 2.13
  62  0.500  0.500  0.352-  30 2.11  20 2.11  28 2.11  29 2.11  13 2.11
  63  0.750  0.250  0.352-  31 2.11  21 2.11  28 2.11  29 2.11  12 2.11
  64  0.500  0.250  0.651-  34 2.10  26 2.11  19 2.11  35 2.11  32 2.15
  65  0.750  0.500  0.651-  35 2.11  18 2.12  34 2.12  27 2.12  33 2.16
  66  0.500  0.500  0.550-  34 2.10  33 2.11  24 2.11  32 2.11  17 2.11  30 2.12
  67  0.750  0.250  0.550-  35 2.11  16 2.11  33 2.11  32 2.11  25 2.11  31 2.12

IMPORTANT INFORMATION: All symmetrisations will be switched off!
NOSYMM: (Re-)initialisation of all symmetry stuff for point group C_1.

                                     Primitive cell

  volume of cell :    1519.8199

  direct lattice vectors                    reciprocal lattice vectors
     8.440984654  0.000000000  0.000000000     0.118469591  0.000000000  0.000000000
     0.000000000  8.440984654  0.000000000     0.000000000  0.118469591  0.000000000
     0.000000000  0.000000000 21.330738491     0.000000000  0.000000000  0.046880702

  length of vectors
     8.440984654  8.440984654 21.330738491     0.118469591  0.118469591  0.046880702

  position of ions in fractional coordinates (direct lattice)
     0.524930995  0.547217210  0.790832042
     0.623755693  0.637956408  0.783228089
     0.727359511  0.733121747  0.774357699
     0.000000000  0.750000000  0.351605267
     0.250000000  0.000000000  0.351605267
     0.000000000  0.000000000  0.450535089
     0.250000000  0.750000000  0.450535089
     0.999952972  0.750069933  0.550182699
     0.249960180  0.999999612  0.550158547
     0.000071767  0.000081746  0.648822182
     0.249898085  0.749854229  0.648747211
     0.000000000  0.250000000  0.351605267
     0.250000000  0.500000000  0.351605267
     0.000000000  0.500000000  0.450535089
     0.250000000  0.250000000  0.450535089
     0.000003654  0.249979963  0.550161251
     0.249748591  0.499976608  0.550096481
     0.000002192  0.500168966  0.648801089
     0.249937473  0.249969046  0.648946383
     0.500000000  0.750000000  0.351605267
     0.750000000  0.000000000  0.351605267
     0.500000000  0.000000000  0.450535089
     0.750000000  0.750000000  0.450535089
     0.500260010  0.749982125  0.550295780
     0.750090200  0.999950935  0.550181221
     0.500174938  0.000063538  0.648739290
     0.751039523  0.750995909  0.649603103
     0.500000000  0.250000000  0.351605267
     0.750000000  0.500000000  0.351605267
     0.500000000  0.500000000  0.450535089
     0.750000000  0.250000000  0.450535089
     0.499969996  0.249784160  0.550090882
     0.749966853  0.500263841  0.550296262
     0.498939953  0.498985897  0.648486242
     0.749869906  0.249927386  0.648747568
     0.000000000  0.750000000  0.450535089
     0.250000000  0.000000000  0.450535089
     0.000000000  0.000000000  0.351605267
     0.250000000  0.750000000  0.351605267
     0.000499353  0.750094498  0.650694193
     0.250109797  0.999979088  0.651114683
     0.000136884  0.000132227  0.549867764
     0.250236395  0.750027713  0.549854657
     0.000000000  0.250000000  0.450535089
     0.250000000  0.500000000  0.450535089
     0.000000000  0.500000000  0.351605267
     0.250000000  0.250000000  0.351605267
     0.999972823  0.250117149  0.651102115
     0.249721265  0.499887596  0.650744450
     0.999777560  0.499924314  0.549903838
     0.249958822  0.249941630  0.549902197
     0.500000000  0.750000000  0.450535089
[...]
   4.22049233  6.33073849  9.61024616
   6.33073849  0.00000000  9.61024616
   4.22049233  0.00000000  7.50000000
   6.33073849  6.33073849  7.50000000
   4.21965254  6.32822937 13.89557450
   6.33151648  0.00448679 13.87920754
   4.21982310  8.43956274 11.72954185
   6.33011222  6.33006053 11.73374919
   4.22049233  2.11024616  9.61024616
   6.33073849  4.22049233  9.61024616
   4.22049233  4.22049233  7.50000000
   6.33073849  2.11024616  7.50000000
   4.21932844  2.10810534 13.88220207
   6.32669817  4.21993676 13.89683681
   4.22033761  4.22035582 11.72949341
   6.33078666  2.11237071 11.72889608

--------------------------------------- Iteration      FINAL  ---------------------------------------

--------------------OUTCAR has been truncated-------------------------

[...]

--------------------OUTCAR has been truncated-------------------------

 VOLUME and BASIS-vectors are now :
  energy-cutoff  :      450.00
  volume of cell :     1519.82
      direct lattice vectors                 reciprocal lattice vectors
     8.440984654  0.000000000  0.000000000     0.118469591  0.000000000  0.000000000
     0.000000000  8.440984654  0.000000000     0.000000000  0.118469591  0.000000000
     0.000000000  0.000000000 21.330738491     0.000000000  0.000000000  0.046880702

  length of vectors
     8.440984654  8.440984654 21.330738491     0.118469591  0.118469591  0.046880702

 FORCES acting on ions
    electron-ion (+dipol)            ewald-force                    non-local-force                 convergence-correction
   0.214E+03 0.196E+03 -.124E+04   -.250E+03 -.230E+03 0.125E+04   0.350E+02 0.321E+02 -.689E+01   -.240E-02 -.226E-02 0.183E+00
   0.167E+02 0.154E+02 -.124E+04   -.165E+02 -.153E+02 0.124E+04   -.971E+00 -.903E+00 0.413E-01   -.461E-03 -.421E-03 0.183E+00
   -.218E+03 -.201E+03 -.150E+04   0.266E+03 0.244E+03 0.149E+04   -.422E+02 -.388E+02 0.771E+01   0.933E-03 0.828E-03 0.227E+00
   -.209E+00 -.164E+00 0.209E+04   0.207E+00 0.164E+00 -.208E+04   0.892E-03 0.104E-03 -.681E+01   0.341E-04 -.462E-04 -.247E+00
   0.185E+00 -.213E+00 0.209E+04   -.185E+00 0.213E+00 -.208E+04   -.173E-03 0.377E-03 -.681E+01   0.506E-04 0.192E-04 -.247E+00
   -.837E+00 -.927E+00 0.736E+03   0.851E+00 0.940E+00 -.737E+03   -.956E-02 -.881E-02 0.499E+00   -.457E-05 -.174E-04 -.110E+00
   0.871E+00 -.757E+00 0.738E+03   -.839E+00 0.774E+00 -.738E+03   -.201E-01 -.109E-01 0.489E+00   0.106E-03 -.104E-03 -.110E+00
   -.629E+01 -.288E+01 -.602E+03   0.626E+01 0.290E+01 0.602E+03   0.342E-01 -.119E-01 -.337E+00   -.903E-04 -.317E-03 0.652E-01
   0.312E+01 -.412E+01 -.612E+03   -.314E+01 0.412E+01 0.612E+03   0.149E-01 -.825E-03 -.135E+00   0.323E-03 -.659E-04 0.651E-01
   -.197E+02 -.204E+02 -.196E+04   0.197E+02 0.204E+02 0.196E+04   0.158E-01 0.122E-01 0.578E+01   0.397E-04 -.418E-04 0.217E+00
   0.224E+02 -.154E+02 -.195E+04   -.225E+02 0.154E+02 0.194E+04   0.124E+00 0.745E-03 0.578E+01   0.102E-02 -.766E-03 0.217E+00
   -.190E+00 0.163E+00 0.209E+04   0.189E+00 -.163E+00 -.208E+04   0.357E-03 -.177E-03 -.681E+01   0.296E-04 0.496E-04 -.247E+00
   0.208E+00 0.214E+00 0.209E+04   -.208E+00 -.214E+00 -.208E+04   0.205E-03 -.359E-03 -.680E+01   0.561E-04 -.247E-04 -.247E+00
   -.872E+00 0.946E+00 0.737E+03   0.832E+00 -.957E+00 -.738E+03   0.244E-01 0.738E-02 0.517E+00   -.128E-05 0.169E-04 -.110E+00
   0.824E+00 0.739E+00 0.736E+03   -.840E+00 -.757E+00 -.736E+03   0.104E-01 0.115E-01 0.510E+00   0.106E-03 0.108E-03 -.110E+00
   -.365E+01 0.277E+01 -.613E+03   0.365E+01 -.277E+01 0.613E+03   -.109E-02 0.972E-02 -.143E+00   -.214E-04 0.318E-03 0.651E-01
   0.508E+01 0.424E+01 -.603E+03   -.511E+01 -.424E+01 0.604E+03   0.261E-01 0.266E-02 -.235E+00   0.314E-03 0.618E-04 0.656E-01
   -.250E+02 0.218E+02 -.195E+04   0.252E+02 -.218E+02 0.194E+04   -.125E+00 -.156E-01 0.579E+01   -.182E-03 0.772E-04 0.217E+00
   0.141E+02 0.138E+02 -.197E+04   -.141E+02 -.139E+02 0.196E+04   0.117E-01 0.705E-02 0.579E+01   0.717E-03 0.746E-03 0.218E+00
   0.211E+00 -.189E+00 0.209E+04   -.209E+00 0.189E+00 -.208E+04   -.127E-02 0.226E-03 -.682E+01   -.336E-04 -.506E-04 -.247E+00
   -.185E+00 -.232E+00 0.209E+04   0.185E+00 0.231E+00 -.208E+04   0.101E-03 0.903E-03 -.681E+01   -.490E-04 0.249E-04 -.247E+00
   0.857E+00 -.974E+00 0.738E+03   -.869E+00 0.938E+00 -.738E+03   0.808E-02 0.224E-01 0.513E+00   0.189E-05 -.192E-04 -.110E+00
   -.894E+00 -.790E+00 0.739E+03   0.873E+00 0.769E+00 -.740E+03   0.138E-01 0.144E-01 0.552E+00   -.106E-03 -.106E-03 -.110E+00
   0.650E+01 -.491E+01 -.595E+03   -.645E+01 0.493E+01 0.595E+03   -.408E-01 -.204E-01 -.759E-01   0.937E-04 -.316E-03 0.663E-01
   -.325E+01 -.678E+01 -.601E+03   0.327E+01 0.674E+01 0.602E+03   -.162E-01 0.339E-01 -.347E+00   -.322E-03 -.134E-03 0.652E-01
   0.213E+02 -.287E+02 -.194E+04   -.212E+02 0.288E+02 0.194E+04   -.190E-01 -.116E+00 0.579E+01   0.101E-04 -.365E-03 0.217E+00
   -.309E+02 -.269E+02 -.185E+04   0.311E+02 0.271E+02 0.184E+04   -.240E+00 -.220E+00 0.533E+01   -.134E-02 -.121E-02 0.221E+00
   0.190E+00 0.187E+00 0.209E+04   -.190E+00 -.187E+00 -.208E+04   -.345E-03 0.150E-03 -.680E+01   -.324E-04 0.564E-04 -.247E+00
   -.211E+00 0.235E+00 0.209E+04   0.210E+00 -.233E+00 -.208E+04   0.269E-03 -.128E-02 -.682E+01   -.540E-04 -.258E-04 -.247E+00
   0.888E+00 0.996E+00 0.739E+03   -.864E+00 -.972E+00 -.740E+03   -.159E-01 -.156E-01 0.521E+00   0.189E-05 0.185E-04 -.110E+00
   -.844E+00 0.771E+00 0.737E+03   0.859E+00 -.738E+00 -.738E+03   -.970E-02 -.209E-01 0.490E+00   -.103E-03 0.102E-03 -.110E+00
   0.374E+01 0.467E+01 -.604E+03   -.375E+01 -.470E+01 0.604E+03   0.389E-02 0.254E-01 -.206E+00   0.184E-04 0.309E-03 0.655E-01
   -.530E+01 0.698E+01 -.596E+03   0.532E+01 -.694E+01 0.596E+03   -.214E-01 -.404E-01 -.628E-01   -.320E-03 0.139E-03 0.662E-01
   0.311E+02 0.359E+02 -.188E+04   -.314E+02 -.362E+02 0.187E+04   0.179E+00 0.204E+00 0.576E+01   0.348E-03 0.595E-03 0.218E+00
   -.152E+02 0.190E+02 -.195E+04   0.152E+02 -.192E+02 0.194E+04   -.530E-02 0.121E+00 0.578E+01   -.723E-03 0.936E-03 0.217E+00
   -.722E+00 -.474E+00 0.553E+03   0.726E+00 0.473E+00 -.553E+03   -.488E-02 0.717E-03 -.636E-01   -.107E-04 -.794E-04 -.803E-01
   0.536E+00 -.671E+00 0.552E+03   -.536E+00 0.665E+00 -.551E+03   0.121E-02 0.662E-02 -.824E-01   0.846E-04 -.118E-04 -.803E-01
   -.149E+00 -.166E+00 0.157E+04   0.150E+00 0.167E+00 -.157E+04   -.121E-02 -.103E-02 0.316E+01   0.172E-04 0.115E-04 -.185E+00
   0.148E+00 -.133E+00 0.157E+04   -.146E+00 0.135E+00 -.157E+04   -.279E-02 -.239E-02 0.316E+01   0.417E-04 -.399E-04 -.185E+00
   -.286E+02 -.878E+01 -.147E+04   0.285E+02 0.879E+01 0.147E+04   0.353E-01 -.540E-02 -.467E+01   -.517E-03 -.529E-03 0.165E+00
   0.879E+01 -.110E+02 -.150E+04   -.878E+01 0.110E+02 0.150E+04   -.396E-02 0.254E-01 -.460E+01   0.492E-03 0.109E-03 0.166E+00
   -.345E+01 -.367E+01 -.452E+03   0.343E+01 0.365E+01 0.452E+03   0.160E-01 0.139E-01 0.228E+00   -.349E-04 -.614E-04 0.475E-01
   0.331E+01 -.277E+01 -.447E+03   -.332E+01 0.277E+01 0.447E+03   0.421E-02 -.484E-02 0.267E+00   0.295E-03 -.237E-03 0.478E-01
   -.593E+00 0.468E+00 0.551E+03   0.587E+00 -.470E+00 -.551E+03   0.660E-02 0.253E-02 -.810E-01   -.498E-06 0.828E-04 -.803E-01
   0.673E+00 0.679E+00 0.553E+03   -.659E+00 -.673E+00 -.553E+03   -.150E-01 -.791E-02 -.472E-01   0.824E-04 0.117E-04 -.802E-01
   -.149E+00 0.167E+00 0.157E+04   0.145E+00 -.167E+00 -.157E+04   0.392E-02 0.113E-02 0.316E+01   0.187E-04 -.158E-04 -.185E+00
   0.147E+00 0.132E+00 0.157E+04   -.149E+00 -.134E+00 -.157E+04   0.212E-02 0.233E-02 0.316E+01   0.443E-04 0.455E-04 -.185E+00
   -.957E+01 0.771E+01 -.150E+04   0.954E+01 -.771E+01 0.150E+04   0.248E-01 -.301E-03 -.460E+01   0.187E-03 0.488E-03 0.166E+00
   0.212E+02 0.122E+02 -.148E+04   -.213E+02 -.122E+02 0.148E+04   0.761E-01 -.157E-01 -.463E+01   0.677E-03 -.780E-04 0.166E+00
   -.369E+01 0.379E+01 -.448E+03   0.369E+01 -.378E+01 0.448E+03   0.616E-03 -.524E-02 0.265E+00   -.747E-04 0.618E-04 0.479E-01
   0.280E+01 0.265E+01 -.454E+03   -.279E+01 -.264E+01 0.454E+03   -.694E-02 -.597E-02 0.199E+00   0.231E-03 0.238E-03 0.478E-01
   0.761E+00 -.645E+00 0.554E+03   -.779E+00 0.650E+00 -.554E+03   0.212E-01 -.593E-02 -.107E+00   0.724E-05 -.825E-04 -.801E-01
   -.542E+00 -.801E+00 0.553E+03   0.540E+00 0.804E+00 -.553E+03   0.220E-02 -.471E-02 -.629E-01   -.826E-04 -.218E-04 -.803E-01
   0.150E+00 -.167E+00 0.157E+04   -.151E+00 0.164E+00 -.157E+04   0.132E-02 0.385E-02 0.316E+01   -.213E-04 0.105E-04 -.185E+00
   -.150E+00 -.133E+00 0.157E+04   0.148E+00 0.131E+00 -.157E+04   0.343E-02 0.354E-02 0.316E+01   -.408E-04 -.399E-04 -.185E+00
   0.347E+02 -.254E+02 -.143E+04   -.346E+02 0.254E+02 0.143E+04   -.131E+00 0.488E-02 -.436E+01   0.780E-03 -.859E-03 0.167E+00
   -.100E+02 -.303E+02 -.147E+04   0.100E+02 0.302E+02 0.147E+04   -.683E-02 0.461E-01 -.467E+01   -.549E-03 -.616E-03 0.165E+00
   0.357E+01 -.418E+01 -.447E+03   -.356E+01 0.417E+01 0.447E+03   -.485E-02 0.509E-02 0.278E+00   0.368E-04 -.124E-03 0.479E-01
   -.353E+01 -.309E+01 -.440E+03   0.355E+01 0.311E+01 0.440E+03   -.163E-01 -.182E-01 0.953E-01   -.302E-03 -.282E-03 0.483E-01
   0.601E+00 0.604E+00 0.553E+03   -.595E+00 -.594E+00 -.553E+03   -.779E-02 -.118E-01 -.479E-01   -.112E-05 0.825E-04 -.802E-01
   -.717E+00 0.838E+00 0.554E+03   0.722E+00 -.856E+00 -.554E+03   -.681E-02 0.211E-01 -.109E+00   -.853E-04 0.186E-04 -.802E-01
   0.151E+00 0.169E+00 0.157E+04   -.147E+00 -.165E+00 -.157E+04   -.471E-02 -.448E-02 0.316E+01   -.192E-04 -.143E-04 -.185E+00
   -.148E+00 0.132E+00 0.157E+04   0.150E+00 -.129E+00 -.157E+04   -.216E-02 -.291E-02 0.316E+01   -.413E-04 0.392E-04 -.185E+00
   0.104E+02 0.196E+02 -.148E+04   -.104E+02 -.197E+02 0.149E+04   -.191E-01 0.711E-01 -.463E+01   -.171E-03 0.648E-03 0.166E+00
   -.261E+02 0.361E+02 -.143E+04   0.261E+02 -.359E+02 0.144E+04   -.126E-01 -.133E+00 -.441E+01   -.833E-03 0.846E-03 0.167E+00
   0.388E+01 0.438E+01 -.439E+03   -.389E+01 -.439E+01 0.438E+03   0.874E-02 0.512E-02 0.372E+00   0.803E-04 0.127E-03 0.482E-01
   -.292E+01 0.289E+01 -.448E+03   0.292E+01 -.290E+01 0.448E+03   -.726E-02 0.979E-02 0.269E+00   -.233E-03 0.276E-03 0.478E-01
   0.112E+02 0.104E+02 0.177E+02   -.398E-12 -.103E-12 0.267E-11   -.823E+01 -.761E+01 -.152E+02   -.198E-02 -.188E-02 -.411E+00

 POSITION                                       TOTAL-FORCE (eV/Angst)
      4.43093      4.61905     16.86903         1.750149      1.590997     -0.277607
      5.26511      5.38498     16.70683        -0.858922     -0.793209      0.116163
      6.13963      6.18827     16.51762        -0.875003     -0.804877      0.192384
      0.00000      6.33074      7.50000        -0.000281      0.000166      0.494527
      2.11025      0.00000      7.50000         0.000088      0.000006      0.496341
      0.00000      0.00000      9.61025         0.003547      0.003426      0.027088
      2.11025      6.33074      9.61025         0.009181      0.004611      0.031377
      8.44059      6.33133     11.73580        -0.001255      0.000414      0.051525
      2.10991      8.44098     11.73529         0.003117     -0.002332      0.042806
      0.00061      0.00069     13.83986        -0.000414      0.000582     -0.112698
      2.10939      6.32951     13.83826        -0.016128      0.009812     -0.127475
      0.00000      2.11025      7.50000        -0.000139      0.000235      0.496184
      2.11025      4.22049      7.50000        -0.000131      0.000387      0.493824
      0.00000      4.22049      9.61025        -0.011458     -0.002309      0.026897
      2.11025      2.11025      9.61025        -0.004176     -0.004436      0.026198
      0.00003      2.11008     11.73535        -0.003249      0.002905      0.043530
      2.10812      4.22029     11.73396         0.001864     -0.000098      0.041298
      0.00002      4.22192     13.83941         0.004345     -0.000359     -0.118911
      2.10972      2.10998     13.84251        -0.008353     -0.008039     -0.126596
      4.22049      6.33074      7.50000         0.000522      0.000142      0.499074
      6.33074      0.00000      7.50000         0.000013     -0.000131      0.494509
      4.22049      0.00000      9.61025        -0.002679     -0.010406      0.026688
      6.33074      6.33074      9.61025        -0.004743     -0.004844      0.034926
      4.22269      6.33059     11.73822        -0.000998     -0.001178      0.036410
      6.33150      8.44057     11.73577        -0.000247     -0.000268      0.051570
      4.22197      0.00054     13.83809        -0.000606      0.006948     -0.120249
      6.33951      6.33914     13.85651         0.010477      0.010558     -0.057192
      4.22049      2.11025      7.50000         0.000218      0.000043      0.493821
      6.33074      4.22049      7.50000        -0.000054      0.000696      0.498894
      4.22049      4.22049      9.61025         0.005623      0.005945      0.024473
      6.33074      2.11025      9.61025         0.004098      0.009545      0.031592
      4.22024      2.10842     11.73384        -0.000270      0.001670      0.041190
      6.33046      4.22272     11.73823        -0.002433     -0.000369      0.037045
      4.21154      4.21193     13.83269        -0.007707     -0.009056     -0.148545
      6.32964      2.10963     13.83826         0.008375     -0.013334     -0.123720
      0.00000      6.33074      9.61025        -0.001746      0.000098      0.086634
      2.11025      0.00000      9.61025         0.000751      0.002311      0.076924
      0.00000      0.00000      7.50000        -0.000378     -0.000159     -0.447190
      2.11025      6.33074      7.50000        -0.000915     -0.000611     -0.447172
      0.00422      6.33154     13.87979         0.016855     -0.001421     -0.110362
      2.11117      8.44081     13.88876         0.001541      0.001203     -0.103695
      0.00116      0.00112     11.72909        -0.001316     -0.002478      0.010066
      2.11224      6.33097     11.72881        -0.001066     -0.003795      0.016100
      0.00000      2.11025      9.61025         0.002112      0.001291      0.077722
      2.11025      4.22049      9.61025        -0.003982     -0.002330      0.083132
      0.00000      4.22049      7.50000         0.001362      0.000588     -0.447264
      2.11025      2.11025      7.50000         0.000751      0.000979     -0.446821
      8.44076      2.11124     13.88849         0.000890      0.002024     -0.102955
      2.10789      4.21954     13.88086         0.004770     -0.000921     -0.095583
      8.43911      4.21985     11.72985         0.000925      0.002845      0.014552
      2.10990      2.10975     11.72982         0.000771      0.002302      0.010194
      4.22049      6.33074      9.61025         0.006505     -0.001879      0.081439
      6.33074      0.00000      9.61025         0.000380     -0.001513      0.086737
      4.22049      0.00000      7.50000         0.000496      0.001501     -0.447303
      6.33074      6.33074      7.50000         0.001224      0.001417     -0.448915
      4.21965      6.32823     13.89557        -0.024493      0.001160     -0.106880
      6.33152      0.00449     13.87921        -0.002906      0.018066     -0.112106
      4.21982      8.43956     11.72954         0.004148      0.001625      0.014505
      6.33011      6.33006     11.73375         0.001896      0.002112      0.013526
      4.22049      2.11025      9.61025        -0.002421     -0.002831      0.082314
      6.33074      4.22049      9.61025        -0.002280      0.006627      0.081174
      4.22049      4.22049      7.50000        -0.001600     -0.001367     -0.446057
      6.33074      2.11025      7.50000        -0.000689     -0.000801     -0.447191
      4.21933      2.10811     13.88220         0.000048      0.004996     -0.096758
      6.32670      4.21994     13.89684         0.001033     -0.023503     -0.105657
      4.22034      4.22036     11.72949        -0.001708     -0.001041      0.023630
      6.33079      2.11237     11.72890        -0.003330     -0.000338      0.015922
    total drift:                               -0.002651     -0.013141     -0.001556

  FREE ENERGIE OF THE ION-ELECTRON SYSTEM (eV)
  free  energy   TOTEN  =      -473.20464646 eV

  energy  without entropy=     -473.20464646  energy(sigma->0) =     -473.20464646

     |            E. Caldeweyher, S. Ehlert & S. Grimme          |
     |          Mulliken Center for Theoretical Chemistry        |
     |                    University of Bonn                     |

Rational (Becke-Johnson) damping: hse06-D4-ATM
  s6         1.0000
  s8         1.1953
  s9         1.0000
  a1         0.3866
  a2         5.1913
 alp        16.0000

Dispersion energy:      -2.7432853015792E-01 Eh