 vasp.6.3.0 20Jan22 (build Apr  1 2022 16:44:48) complex
 executed on        HPECrayEX_GCC date 2023.02.28  19:29:59

 INCAR:
   SYSTEM = MgO-rocksalt
   ISMEAR = 0
   SIGMA = 0.05
   EDIFF = 1E-7
   ALGO = ALL
   ISTART = 0
   IBRION = 2
   NSW = 1000
   ISYM = 0
   ISIF = 2
   EDIFFG = -0.02
   DIPOL = 0.5 0.5 0.5
   IDIPOL = 3
   LDIPOL = .TRUE.
   LHFCALC = .TRUE.
   GGA = PE
   IVDW = 13
   VDW_S8 = 1.2007
   VDW_A1 = 0.4009
   VDW_A2 = 5.0293
   ENCUT = 600
   PREC = Accurate
   LASPH = .TRUE.
   LREAL = .FALSE.
   ISPIN = 1
   NELM = 200
   NELMIN = 8
   NCORE = 8
   KPAR = 1
   LWAVE = .FALSE.
   LCHARG = .FALSE.

 POTCAR:    PAW_PBE N 08Apr2002
 POTCAR:    PAW_PBE O 08Apr2002
 POTCAR:    PAW_PBE Mg_pv 13Apr2007
 POTCAR:    PAW_PBE O 08Apr2002
 POTCAR:    PAW_PBE N 08Apr2002
   VRHFIN =N: s2p3

   TITEL  = PAW_PBE N 08Apr2002
   POMASS =   14.001; ZVAL   =    5.000    mass and valenz
   ENMAX  =  400.000; ENMIN  =  300.000 eV

[...]

   TITEL  = PAW_PBE Mg_pv 13Apr2007
   POMASS =   24.305; ZVAL   =    8.000    mass and valenz
   ENMAX  =  403.929; ENMIN  =  302.947 eV

   TITEL  = PAW_PBE O 08Apr2002
   POMASS =   16.000; ZVAL   =    6.000    mass and valenz
   ENMAX  =  400.000; ENMIN  =  300.000 eV

  PAW_PBE N 08Apr2002                   :
  PAW_PBE O 08Apr2002                   :
  PAW_PBE Mg_pv 13Apr2007               :
  PAW_PBE O 08Apr2002                   :

 POSCAR:  N  O Mg  O
  positions in direct lattice
  velocities in cartesian coordinates
|           W    W    AA    RRRRR   N    N  II  N    N   GGGG   !!!           |
|           W    W   A  A   R    R  NN   N  II  NN   N  G    G  !!!           |
|           W    W  A    A  R    R  N N  N  II  N N  N  G       !!!           |
|           W WW W  AAAAAA  RRRRR   N  N N  II  N  N N  G  GGG   !            |
|           WW  WW  A    A  R   R   N   NN  II  N   NN  G    G                |
|           W    W  A    A  R    R  N    N  II  N    N   GGGG   !!!           |
|     Specifying the vdW parameters                                           |
|     VDW_S8 = 1.201                                                          |
|     VDW_A1 = 0.401                                                          |
|     VDW_A2 = 5.029                                                          |
|     in the INCAR file will overwrite the defaults for pbe0. Please make     |
|     sure that is what you intended.                                         |

 ion  position               nearest neighbor table
   1  0.531  0.549  0.790-   2 1.12
   2  0.627  0.639  0.780-   1 1.12   3 1.19
   3  0.728  0.735  0.769-   2 1.19
   4  0.250  0.000  0.353-  38 2.09  39 2.09  46 2.09  55 2.09  36 2.09
   5  0.500  0.250  0.353-  38 2.09  39 2.09  47 2.09  54 2.09  37 2.09
   6  0.250  0.250  0.451-  36 2.09  37 2.09  44 2.09  53 2.09  38 2.09  42 2.09
   7  0.500  0.000  0.451-  36 2.09  37 2.09  45 2.09  52 2.09  39 2.09  43 2.09
   8  0.250  1.000  0.550-  59 2.09  43 2.09  50 2.09  42 2.09  36 2.10  40 2.13
   9  0.500  0.250  0.550-  43 2.09  58 2.09  42 2.09  51 2.09  37 2.10  41 2.12
  10  0.250  0.250  0.647-  42 2.08  57 2.09  40 2.09  48 2.09  41 2.09
  11  0.500  0.000  0.647-  43 2.08  41 2.09  56 2.09  40 2.09  49 2.09
  12  0.250  0.500  0.353-  38 2.09  46 2.09  47 2.09  63 2.09  44 2.09
  13  0.500  0.750  0.353-  39 2.09  46 2.09  47 2.09  62 2.09  45 2.09
  14  0.250  0.750  0.451-  36 2.09  44 2.09  45 2.09  61 2.09  46 2.09  50 2.09
  15  0.500  0.500  0.451-  37 2.09  44 2.09  45 2.09  60 2.09  47 2.09  51 2.09
  16  0.250  0.500  0.550-  67 2.09  50 2.09  42 2.09  51 2.09  44 2.10  48 2.12
  17  0.500  0.750  0.550-  66 2.08  43 2.09  51 2.09  50 2.09  45 2.10  49 2.13
  18  0.250  0.750  0.647-  50 2.08  65 2.08  49 2.09  48 2.09  40 2.09
  19  0.499  0.499  0.647-  51 2.07  48 2.08  41 2.08  64 2.09  49 2.09
  20  0.750  0.000  0.353-  39 2.09  54 2.09  55 2.09  62 2.09  52 2.09
  21  0.000  0.250  0.353-  38 2.09  54 2.09  55 2.09  63 2.09  53 2.09
  22  0.750  0.250  0.451-  37 2.09  52 2.09  53 2.09  60 2.09  54 2.09  58 2.09
  23  0.000  0.000  0.451-  36 2.09  52 2.09  53 2.09  61 2.09  55 2.09  59 2.09
  24  0.750  1.000  0.550-  66 2.09  59 2.09  43 2.09  58 2.09  52 2.10  56 2.11
  25  1.000  0.250  0.550-  67 2.09  59 2.09  58 2.09  42 2.09  53 2.10  57 2.13
  26  0.750  0.250  0.647-  56 2.08  58 2.08  64 2.09  57 2.09  41 2.09
  27  0.000  0.000  0.647-  59 2.08  57 2.09  40 2.09  56 2.09  65 2.09
  28  0.750  0.500  0.353-  47 2.09  54 2.09  62 2.09  63 2.09  60 2.09
  29  0.000  0.750  0.353-  46 2.09  55 2.09  62 2.09  63 2.09  61 2.09
  30  0.750  0.750  0.451-  45 2.09  52 2.09  60 2.09  61 2.09  62 2.09  66 2.10
  31  0.000  0.500  0.451-  44 2.09  53 2.09  60 2.09  61 2.09  63 2.09  67 2.10
  32  0.750  0.500  0.550-  66 2.08  67 2.09  51 2.09  58 2.09  60 2.10  64 2.13
  33  1.000  0.750  0.550-  66 2.09  59 2.09  67 2.09  50 2.09  61 2.10  65 2.12
  34  0.751  0.751  0.649-  65 2.08  56 2.08  64 2.10  49 2.10  66 2.10
  35  1.000  0.500  0.647-  67 2.08  48 2.09  65 2.09  57 2.09  64 2.09
  36  0.250  0.000  0.451-   6 2.09   7 2.09  14 2.09  23 2.09   4 2.09   8 2.10
  37  0.500  0.250  0.451-   6 2.09   7 2.09  15 2.09  22 2.09   5 2.09   9 2.10
  38  0.250  0.250  0.353-   4 2.09   5 2.09  12 2.09  21 2.09   6 2.09
  39  0.500  0.000  0.353-   4 2.09   5 2.09  13 2.09  20 2.09   7 2.09
  40  0.250  1.000  0.650-  10 2.09  11 2.09  27 2.09  18 2.09   8 2.13
  41  0.500  0.250  0.649-  19 2.08  11 2.09  10 2.09  26 2.09   9 2.12
  42  0.250  0.250  0.549-  10 2.08   8 2.09  25 2.09   9 2.09  16 2.09   6 2.09
  43  0.500  1.000  0.549-  11 2.08  17 2.09   8 2.09   9 2.09  24 2.09   7 2.09
  44  0.250  0.500  0.451-   6 2.09  14 2.09  15 2.09  31 2.09  12 2.09  16 2.10
  45  0.500  0.750  0.451-   7 2.09  14 2.09  15 2.09  30 2.09  13 2.09  17 2.10
  46  0.250  0.750  0.353-   4 2.09  12 2.09  13 2.09  29 2.09  14 2.09
  47  0.500  0.500  0.353-   5 2.09  12 2.09  13 2.09  28 2.09  15 2.09
  48  0.250  0.500  0.649-  19 2.08  35 2.09  10 2.09  18 2.09  16 2.12
  49  0.499  0.750  0.650-  18 2.09  11 2.09  19 2.09  34 2.10  17 2.13
  50  0.250  0.750  0.549-  18 2.08   8 2.09  16 2.09  17 2.09  33 2.09  14 2.09
  51  0.500  0.500  0.549-  19 2.07  32 2.09  17 2.09   9 2.09  16 2.09  15 2.09
  52  0.750  0.000  0.451-   7 2.09  22 2.09  23 2.09  30 2.09  20 2.09  24 2.10
  53  0.000  0.250  0.451-   6 2.09  22 2.09  23 2.09  31 2.09  21 2.09  25 2.10
  54  0.750  0.250  0.353-   5 2.09  20 2.09  21 2.09  28 2.09  22 2.09
  55  0.000  0.000  0.353-   4 2.09  20 2.09  21 2.09  29 2.09  23 2.09
  56  0.750  0.001  0.649-  26 2.08  34 2.08  11 2.09  27 2.09  24 2.11
  57  1.000  0.250  0.650-  10 2.09  35 2.09  27 2.09  26 2.09  25 2.13
  58  0.750  0.250  0.549-  26 2.08  25 2.09   9 2.09  32 2.09  24 2.09  22 2.09
  59  0.000  0.000  0.549-  27 2.08   8 2.09  25 2.09  24 2.09  33 2.09  23 2.09
  60  0.750  0.500  0.451-  15 2.09  22 2.09  30 2.09  31 2.09  28 2.09  32 2.10
  61  0.000  0.750  0.451-  14 2.09  23 2.09  30 2.09  31 2.09  29 2.09  33 2.10
  62  0.750  0.750  0.353-  13 2.09  20 2.09  28 2.09  29 2.09  30 2.09
  63  0.000  0.500  0.353-  12 2.09  21 2.09  28 2.09  29 2.09  31 2.09
  64  0.749  0.500  0.650-  26 2.09  19 2.09  35 2.09  34 2.10  32 2.13
  65  0.001  0.750  0.649-  18 2.08  34 2.08  35 2.09  27 2.09  33 2.12
  66  0.750  0.750  0.550-  32 2.08  17 2.08  33 2.09  24 2.09  30 2.10  34 2.10
  67  1.000  0.500  0.549-  35 2.08  32 2.09  25 2.09  16 2.09  33 2.09  31 2.10

IMPORTANT INFORMATION: All symmetrisations will be switched off!
NOSYMM: (Re-)initialisation of all symmetry stuff for point group C_1.

                                     Primitive cell

  volume of cell :    1482.1129

  direct lattice vectors                    reciprocal lattice vectors
     8.349111827  0.000000000  0.000000000     0.119773219  0.000000000  0.000000000
     0.000000000  8.349111827  0.000000000     0.000000000  0.119773219  0.000000000
     0.000000000  0.000000000 21.261833870     0.000000000  0.000000000  0.047032632

  length of vectors
     8.349111827  8.349111827 21.261833870     0.119773219  0.119773219  0.047032632

  position of ions in fractional coordinates (direct lattice)
     0.530626586  0.548510942  0.790178827
     0.626674915  0.639095187  0.779886482
     0.728170746  0.734798156  0.768713831
     0.250000000  0.000000000  0.352744737
     0.500000000  0.250000000  0.352744737
     0.250000000  0.250000000  0.450914912
     0.500000000  0.000000000  0.450914912
     0.250011479  0.999905125  0.549713299
     0.499871018  0.249750768  0.549652467
     0.249713729  0.249833078  0.647480664
     0.500061482  0.000047411  0.647259963
     0.250000000  0.500000000  0.352744737
     0.500000000  0.750000000  0.352744737
     0.250000000  0.750000000  0.450914912
     0.500000000  0.500000000  0.450914912
     0.249675747  0.499926257  0.549655942
     0.500303150  0.749938863  0.549881209
     0.249701090  0.749873181  0.647267133
     0.498769202  0.498877374  0.646785902
     0.750000000  0.000000000  0.352744737
     0.000000000  0.250000000  0.352744737
     0.750000000  0.250000000  0.450914912
     0.000000000  0.000000000  0.450914912
     0.750046102  0.999837741  0.549814004
     0.999844198  0.250073794  0.549719856
     0.749787545  0.249842097  0.647285257
     0.000057162  0.000161079  0.647325685
     0.750000000  0.500000000  0.352744737
     0.000000000  0.750000000  0.352744737
     0.750000000  0.750000000  0.450914912
     0.000000000  0.500000000  0.450914912
     0.749860994  0.500368759  0.549885675
     0.999763922  0.750082562  0.549818031
     0.750990620  0.751086925  0.648701722
     0.999892598  0.500145671  0.647318142
     0.250000000  0.000000000  0.450914912
     0.500000000  0.250000000  0.450914912
     0.250000000  0.250000000  0.352744737
     0.500000000  0.000000000  0.352744737
     0.250086401  0.999960381  0.649720674
     0.499683491  0.249775115  0.649380759
     0.249839382  0.249889206  0.549440799
     0.499926476  0.999783628  0.549447559
     0.250000000  0.500000000  0.450914912
     0.500000000  0.750000000  0.450914912
     0.250000000  0.750000000  0.352744737
     0.500000000  0.500000000  0.352744737
     0.249668881  0.499790501  0.649343765
     0.499487861  0.749540471  0.650100481
     0.250148206  0.749960445  0.549418611
     0.499891351  0.499951297  0.549398708
     0.750000000  0.000000000  0.450914912
     0.000000000  0.250000000  0.450914912
     0.750000000  0.250000000  0.352744737
     0.000000000  0.000000000  0.352744737
     0.749992573  0.000720627  0.649266802
     0.999862437  0.250179344  0.649715855
     0.749897113  0.250237847  0.549423834
     0.000111991  0.000152286  0.549427684
     0.750000000  0.500000000  0.450914912
     0.000000000  0.750000000  0.450914912
     0.750000000  0.750000000  0.352744737
     0.000000000  0.500000000  0.352744737
     0.749308700  0.499658734  0.650157431
     0.000574326  0.750083898  0.649313296
     0.749882781  0.749933566  0.549748739
     0.999690681  0.499984048  0.549465667

  ion indices of the primitive-cell ions
   primitive index   ion index
[...]
   6.26183387  4.17455591  7.50000000
   0.00000000  6.26183387  7.50000000
   6.26183387  6.26183387  9.58727796
   0.00000000  4.17455591  9.58727796
   6.26067329  4.17763472 11.69157787
   8.34714078  6.26252319 11.69013964
   6.27010466  6.27090872 13.79258825
   8.34821511  4.17577214 13.76317079
   2.08727796  0.00000000  9.58727796
   4.17455591  2.08727796  9.58727796
   2.08727796  2.08727796  7.50000000
   4.17455591  0.00000000  7.50000000
   2.08799933  8.34878104 13.81425303
   4.17191335  2.08540037 13.80702582
   2.08593694  2.08635292 11.68211898
   4.17394205  8.34730531 11.68226273
   2.08727796  4.17455591  9.58727796
   4.17455591  6.26183387  9.58727796
   2.08727796  6.26183387  7.50000000
   4.17455591  4.17455591  7.50000000
   2.08451341  4.17280678 13.80623926
   4.17028001  6.25799721 13.82232842
   2.08851535  6.26150362 11.68164724
   4.17364879  4.17414928 11.68122406
   6.26183387  0.00000000  9.58727796
   0.00000000  2.08727796  9.58727796
   6.26183387  2.08727796  7.50000000
   0.00000000  0.00000000  7.50000000
   6.26177186  0.00601660 13.80460288
   8.34796329  2.08877532 13.81415058
   6.26097485  2.08926377 11.68175829
   0.00093503  0.00127146 11.68184015
   6.26183387  4.17455591  9.58727796
   0.00000000  6.26183387  9.58727796
   6.26183387  6.26183387  7.50000000
   0.00000000  4.17455591  7.50000000
   6.25606213  4.17170664 13.82353929
   0.00479511  6.26253434 13.80559143
   6.26085520  6.26127920 11.68866635
   8.34652929  4.17442273 11.68264773

--------------------------------------- Iteration      FINAL  ---------------------------------------

--------------------OUTCAR has been truncated-------------------------

[...]

--------------------OUTCAR has been truncated-------------------------

  FORCE on cell =-STRESS in cart. coord.  units (eV):
  Direction    XX          YY          ZZ          XY          YZ          ZX
  Alpha Z   950.32462   950.32462   950.32462
  Ewald  162297.34323162247.00147************   402.13262  -115.35029  -123.57202
  Hartree172755.51775172731.46686************   176.60710   -52.17468   -55.52969
  E(xc)   -1912.48706 -1912.55465 -1916.00942     0.58001    -0.15953    -0.16853
  Local  ************************344625.42014  -535.80681   155.75810   166.43311
  n-local  -755.42853  -755.09834  -777.06656    -2.79624     0.75888     0.76998
  augment   834.05963   834.22497   824.38187    -1.42643     0.40072     0.43252
  Kinetic  7649.20262  7653.57534  7721.09169   -37.53496    10.37913    11.34195
  Fock    -2529.82179 -2529.64217 -2524.33466    -1.52884     0.41778     0.44166
  vdW        -9.25529    -9.25450    -6.53335    -0.00358     0.00150     0.00258
  Total     -30.21412   -30.19430    -2.60370     0.22288     0.03162     0.15156
  in kB     -32.66174   -32.64031    -2.81463     0.24093     0.03418     0.16383

 VOLUME and BASIS-vectors are now :
  energy-cutoff  :      600.00
  volume of cell :     1482.11
      direct lattice vectors                 reciprocal lattice vectors
     8.349111827  0.000000000  0.000000000     0.119773219  0.000000000  0.000000000
     0.000000000  8.349111827  0.000000000     0.000000000  0.119773219  0.000000000
     0.000000000  0.000000000 21.261833870     0.000000000  0.000000000  0.047032632

  length of vectors
     8.349111827  8.349111827 21.261833870     0.119773219  0.119773219  0.047032632

 FORCES acting on ions:
    Electron-Ion                     Ewald-Force                    Non-Local-Force
   0.215E+03 0.203E+03 -.129E+04   -.254E+03 -.239E+03 0.130E+04   0.345E+02 0.325E+02 -.947E+01
   0.161E+02 0.151E+02 -.129E+04   -.149E+02 -.140E+02 0.129E+04   -.102E+01 -.983E+00 0.428E+00
   -.218E+03 -.206E+03 -.155E+04   0.267E+03 0.252E+03 0.154E+04   -.415E+02 -.392E+02 0.100E+02
   0.195E+00 -.196E+00 0.215E+04   -.195E+00 0.195E+00 -.214E+04   0.134E-03 0.826E-03 -.683E+01
   0.176E+00 0.198E+00 0.215E+04   -.175E+00 -.199E+00 -.214E+04   -.550E-03 0.610E-03 -.682E+01
   0.885E+00 0.796E+00 0.758E+03   -.907E+00 -.816E+00 -.758E+03   0.135E-01 0.124E-01 0.443E+00
   0.796E+00 -.918E+00 0.759E+03   -.800E+00 0.877E+00 -.760E+03   0.317E-02 0.248E-01 0.459E+00
   0.324E+01 -.432E+01 -.628E+03   -.326E+01 0.431E+01 0.628E+03   0.161E-01 0.548E-02 -.145E+00
   0.399E+01 0.487E+01 -.620E+03   -.398E+01 -.491E+01 0.620E+03   -.859E-02 0.368E-01 -.219E+00
   0.139E+02 0.135E+02 -.203E+04   -.139E+02 -.136E+02 0.202E+04   0.129E-01 0.789E-02 0.580E+01
   0.227E+02 -.298E+02 -.200E+04   -.228E+02 0.300E+02 0.199E+04   0.154E-02 -.150E+00 0.583E+01
   0.221E+00 0.196E+00 0.215E+04   -.222E+00 -.195E+00 -.214E+04   0.786E-03 -.631E-03 -.682E+01
   0.194E+00 -.200E+00 0.215E+04   -.191E+00 0.200E+00 -.214E+04   -.173E-02 -.574E-04 -.683E+01
   0.932E+00 -.811E+00 0.759E+03   -.910E+00 0.825E+00 -.760E+03   -.137E-01 -.927E-02 0.427E+00
   0.826E+00 0.927E+00 0.761E+03   -.803E+00 -.903E+00 -.762E+03   -.149E-01 -.159E-01 0.459E+00
   0.529E+01 0.440E+01 -.619E+03   -.534E+01 -.438E+01 0.620E+03   0.380E-01 -.786E-02 -.239E+00
   0.665E+01 -.506E+01 -.611E+03   -.657E+01 0.510E+01 0.611E+03   -.697E-01 -.315E-01 -.839E-01
   0.220E+02 -.150E+02 -.200E+04   -.221E+02 0.150E+02 0.199E+04   0.122E+00 -.264E-02 0.580E+01
   0.329E+02 0.368E+02 -.193E+04   -.331E+02 -.371E+02 0.192E+04   0.218E+00 0.239E+00 0.579E+01
   -.195E+00 -.212E+00 0.215E+04   0.195E+00 0.210E+00 -.214E+04   -.170E-03 0.144E-02 -.683E+01
   -.176E+00 0.171E+00 0.215E+04   0.175E+00 -.171E+00 -.214E+04   0.912E-03 -.104E-04 -.683E+01
   -.910E+00 0.827E+00 0.759E+03   0.922E+00 -.800E+00 -.760E+03   -.757E-02 -.169E-01 0.429E+00
   -.796E+00 -.868E+00 0.758E+03   0.801E+00 0.874E+00 -.759E+03   -.373E-02 -.431E-02 0.438E+00
   -.334E+01 -.691E+01 -.617E+03   0.335E+01 0.684E+01 0.617E+03   -.124E-01 0.638E-01 -.393E+00
   -.393E+01 0.286E+01 -.629E+03   0.392E+01 -.287E+01 0.629E+03   0.662E-02 0.109E-01 -.152E+00
   -.151E+02 0.189E+02 -.200E+04   0.151E+02 -.191E+02 0.200E+04   -.787E-02 0.129E+00 0.580E+01
   -.211E+02 -.216E+02 -.202E+04   0.211E+02 0.216E+02 0.201E+04   0.482E-03 -.420E-02 0.582E+01
   -.224E+00 0.214E+00 0.215E+04   0.224E+00 -.211E+00 -.214E+04   0.229E-05 -.183E-02 -.684E+01
   -.192E+00 -.171E+00 0.215E+04   0.190E+00 0.172E+00 -.214E+04   0.155E-02 -.178E-03 -.683E+01
   -.959E+00 -.840E+00 0.761E+03   0.942E+00 0.825E+00 -.761E+03   0.111E-01 0.107E-01 0.519E+00
   -.830E+00 0.878E+00 0.759E+03   0.784E+00 -.879E+00 -.760E+03   0.278E-01 0.125E-02 0.463E+00
   -.549E+01 0.705E+01 -.612E+03   0.553E+01 -.697E+01 0.612E+03   -.322E-01 -.689E-01 -.705E-01
   -.651E+01 -.294E+01 -.617E+03   0.644E+01 0.295E+01 0.618E+03   0.650E-01 -.835E-02 -.376E+00
   -.315E+02 -.274E+02 -.190E+04   0.318E+02 0.277E+02 0.189E+04   -.267E+00 -.250E+00 0.527E+01
   -.266E+02 0.230E+02 -.200E+04   0.268E+02 -.230E+02 0.199E+04   -.154E+00 0.428E-02 0.582E+01
   0.575E+00 -.647E+00 0.568E+03   -.577E+00 0.644E+00 -.568E+03   0.353E-02 0.314E-02 -.108E+00
   0.569E+00 0.652E+00 0.569E+03   -.557E+00 -.639E+00 -.569E+03   -.137E-01 -.140E-01 -.738E-01
   0.156E+00 0.139E+00 0.161E+04   -.158E+00 -.141E+00 -.162E+04   0.223E-02 0.236E-02 0.301E+01
   0.137E+00 -.153E+00 0.161E+04   -.137E+00 0.149E+00 -.162E+04   -.254E-05 0.412E-02 0.300E+01
   0.883E+01 -.114E+02 -.154E+04   -.882E+01 0.114E+02 0.155E+04   -.146E-01 0.400E-01 -.452E+01
   0.111E+02 0.196E+02 -.152E+04   -.111E+02 -.197E+02 0.153E+04   -.268E-01 0.650E-01 -.457E+01
   0.294E+01 0.277E+01 -.465E+03   -.294E+01 -.277E+01 0.465E+03   0.226E-02 0.124E-02 0.244E+00
   0.375E+01 -.422E+01 -.459E+03   -.373E+01 0.422E+01 0.458E+03   -.175E-01 0.310E-02 0.329E+00
   0.725E+00 0.640E+00 0.569E+03   -.708E+00 -.631E+00 -.569E+03   -.194E-01 -.108E-01 -.738E-01
   0.719E+00 -.695E+00 0.570E+03   -.738E+00 0.702E+00 -.570E+03   0.225E-01 -.791E-02 -.137E+00
   0.158E+00 -.139E+00 0.161E+04   -.156E+00 0.141E+00 -.162E+04   -.174E-02 -.258E-02 0.300E+01
   0.139E+00 0.155E+00 0.161E+04   -.135E+00 -.151E+00 -.162E+04   -.518E-02 -.488E-02 0.300E+01
   0.211E+02 0.126E+02 -.152E+04   -.211E+02 -.125E+02 0.153E+04   0.691E-01 -.271E-01 -.458E+01
   0.372E+02 -.254E+02 -.147E+04   -.371E+02 0.254E+02 0.147E+04   -.126E+00 -.171E-02 -.423E+01
   0.331E+01 -.282E+01 -.459E+03   -.332E+01 0.282E+01 0.458E+03   0.718E-02 0.633E-02 0.315E+00
   0.397E+01 0.439E+01 -.449E+03   -.398E+01 -.440E+01 0.448E+03   0.107E-01 0.577E-02 0.468E+00
   -.577E+00 -.759E+00 0.569E+03   0.578E+00 0.769E+00 -.569E+03   -.194E-02 -.112E-01 -.107E+00
   -.586E+00 0.502E+00 0.568E+03   0.586E+00 -.508E+00 -.568E+03   -.451E-03 0.749E-02 -.108E+00
   -.156E+00 0.139E+00 0.161E+04   0.158E+00 -.137E+00 -.162E+04   -.263E-02 -.187E-02 0.300E+01
   -.137E+00 -.152E+00 0.161E+04   0.137E+00 0.152E+00 -.162E+04   0.710E-04 0.290E-03 0.300E+01
   -.101E+02 -.320E+02 -.151E+04   0.101E+02 0.320E+02 0.151E+04   0.722E-03 0.430E-01 -.456E+01
   -.102E+02 0.776E+01 -.154E+04   0.102E+02 -.775E+01 0.155E+04   0.398E-01 -.127E-01 -.452E+01
   -.299E+01 0.288E+01 -.459E+03   0.298E+01 -.289E+01 0.459E+03   0.559E-02 0.112E-01 0.312E+00
   -.370E+01 -.387E+01 -.463E+03   0.369E+01 0.386E+01 0.463E+03   0.763E-02 0.693E-02 0.291E+00
   -.781E+00 0.790E+00 0.570E+03   0.791E+00 -.813E+00 -.570E+03   -.119E-01 0.264E-01 -.139E+00
   -.699E+00 -.495E+00 0.569E+03   0.712E+00 0.495E+00 -.569E+03   -.157E-01 -.275E-04 -.108E+00
   -.159E+00 -.140E+00 0.161E+04   0.157E+00 0.138E+00 -.162E+04   0.204E-02 0.242E-02 0.300E+01
   -.137E+00 0.152E+00 0.161E+04   0.133E+00 -.152E+00 -.162E+04   0.413E-02 -.590E-04 0.300E+01
   -.262E+02 0.381E+02 -.147E+04   0.262E+02 -.379E+02 0.148E+04   -.120E-01 -.129E+00 -.427E+01
   -.305E+02 -.883E+01 -.151E+04   0.305E+02 0.883E+01 0.152E+04   0.375E-01 -.280E-03 -.455E+01
   -.347E+01 -.304E+01 -.452E+03   0.349E+01 0.306E+01 0.452E+03   -.147E-01 -.194E-01 0.222E-01
   -.380E+01 0.392E+01 -.459E+03   0.380E+01 -.390E+01 0.459E+03   -.839E-04 -.157E-01 0.319E+00
   0.114E+02 0.109E+02 0.184E+02   -.192E-12 -.320E-13 -.114E-11   -.811E+01 -.772E+01 -.161E+02

 POSITION                                       TOTAL-FORCE (eV/Angst)
      4.43118      4.57982     16.80024         0.001497     -0.008029     -0.001856
      5.23292      5.33621     16.58149         0.007347      0.001884     -0.005357
      6.07950      6.13474     16.34392         0.013474      0.011346     -0.008411
      2.08728      0.00000      7.50000        -0.000059     -0.000370      0.427566
      4.17456      2.08728      7.50000         0.000290     -0.000185      0.424900
      2.08728      2.08728      9.58728        -0.006146     -0.005436      0.060315
      4.17456      0.00000      9.58728        -0.000395     -0.011926      0.062077
      2.08692      8.34842     11.68805        -0.001451      0.000433     -0.001008
      4.17377      2.08509     11.68654         0.001873      0.000273     -0.003541
      2.08520      2.08619     13.76596         0.000631      0.000405     -0.006306
      4.17504      0.00070     13.76212        -0.002666      0.000041     -0.000076
      2.08728      4.17456      7.50000        -0.000255      0.000324      0.424831
      4.17456      6.26183      7.50000         0.000630      0.000008      0.428966
      2.08728      6.26183      9.58728         0.006016      0.003597      0.069537
      4.17456      4.17456      9.58728         0.005269      0.006064      0.061112
      2.08442      4.17423     11.68666         0.000238      0.001839     -0.003391
      4.17700      6.26155     11.69170        -0.000194      0.000442      0.001144
      2.08450      6.26079     13.76203         0.001339      0.001383     -0.001593
      4.16385      4.16474     13.75184         0.000236      0.000081     -0.000940
      6.26183      0.00000      7.50000         0.000069     -0.000539      0.426389
      0.00000      2.08728      7.50000        -0.000401     -0.000007      0.427483
      6.26183      2.08728      9.58728         0.002789      0.007540      0.069662
      0.00000      0.00000      9.58728         0.000955      0.001405      0.064384
      6.26220      8.34773     11.69024        -0.001309     -0.000645     -0.002373
      8.34792      2.08749     11.68820         0.000409     -0.001337     -0.001027
      6.26010      2.08568     13.76242         0.001310      0.001145     -0.001518
      0.00012      0.00101     13.76379         0.000301      0.000445      0.001614
      6.26183      4.17456      7.50000        -0.000012      0.000673      0.429091
      0.00000      6.26183      7.50000        -0.000583      0.000078      0.426484
      6.26183      6.26183      9.58728        -0.003844     -0.003342      0.077780
      0.00000      4.17456      9.58728        -0.013406      0.000497      0.062781
      6.26096      4.17755     11.69181         0.000590     -0.000179      0.001158
      8.34712      6.26251     11.69030        -0.000626     -0.001033     -0.002545
      6.27053      6.27130     13.79261        -0.001517     -0.001427     -0.001078
      8.34852      4.17576     13.76341         0.000140     -0.002529      0.000401
      2.08728      0.00000      9.58728         0.001446      0.001183      0.067764
      4.17456      2.08728      9.58728        -0.004318     -0.003800      0.072408
      2.08728      2.08728      7.50000         0.000760      0.000816     -0.563403
      4.17456      0.00000      7.50000        -0.000012      0.001430     -0.564342
      2.08780      8.34893     13.81374        -0.002720      0.001403     -0.004127
      4.17201      2.08535     13.80719         0.000412     -0.001124      0.001976
      2.08622      2.08663     11.68180         0.001692      0.001830     -0.000863
      4.17379      8.34736     11.68220        -0.000390      0.001335      0.001751
      2.08728      4.17456      9.58728        -0.005497     -0.003452      0.073093
      4.17456      6.26183      9.58728         0.007029     -0.002739      0.076678
      2.08728      6.26183      7.50000        -0.000612     -0.000891     -0.564263
      4.17456      4.17456      7.50000        -0.001831     -0.001713     -0.564086
      2.08446      4.17290     13.80642        -0.001308      0.000372      0.002216
      4.17016      6.25800     13.82225        -0.001054      0.001430      0.000849
      2.08858      6.26152     11.68147        -0.001592      0.000291      0.000676
      4.17372      4.17420     11.68132        -0.000346     -0.000435      0.002184
      6.26183      0.00000      9.58728        -0.000937     -0.003603      0.080943
      0.00000      2.08728      9.58728         0.000095      0.002639      0.068650
      6.26183      2.08728      7.50000        -0.000925     -0.000645     -0.564262
      0.00000      0.00000      7.50000         0.000023      0.000111     -0.564494
      6.26165      0.00616     13.80463         0.000222      0.000391      0.001814
      8.34812      2.08858     13.81366         0.001490     -0.002499     -0.003906
      6.26098      2.08931     11.68159         0.000447     -0.001485      0.000760
      0.00072      0.00109     11.68160        -0.002336     -0.002101      0.001390
      6.26183      4.17456      9.58728        -0.003885      0.008209      0.076462
      0.00000      6.26183      9.58728        -0.005005     -0.000380      0.080770
      6.26183      6.26183      7.50000         0.000711      0.000860     -0.565485
      0.00000      4.17456      7.50000         0.001421     -0.000020     -0.564358
      6.25608      4.17158     13.82347         0.001854     -0.001061      0.000945
      0.00495      6.26245     13.80558         0.000479      0.000286      0.001458
      6.26069      6.26113     11.68860         0.000766      0.000662      0.002256
      8.34659      4.17429     11.68257         0.001382     -0.000218      0.001892
    total drift:                                0.000300     -0.000232      0.002997

  FREE ENERGIE OF THE ION-ELECTRON SYSTEM (eV)
  free  energy   TOTEN  =      -501.32214372 eV

  energy  without entropy=     -501.32214372  energy(sigma->0) =     -501.32214372

 d Force = 0.4291906E-04[ 0.266E-04, 0.593E-04]  d Energy = 0.4486124E-04-0.194E-05
 d Force =-0.1695362E+01[-0.170E+01,-0.170E+01]  d Ewald  =-0.1695360E+01-0.238E-05

 Conjugate gradient step on ions:
 trial-energy change:   -0.000045  1 .order   -0.000043   -0.000059   -0.000027
  (g-gl).g = 0.883E-04      g.g   = 0.865E-04  gl.gl    = 0.216E-03
 g(Force)  = 0.865E-04   g(Stress)= 0.000E+00 ortho     =-0.271E-05
 gamma     =   0.40954
 trial     =   0.69453
 opt step  =   1.05979  (harmonic =   1.25828) maximal distance =0.00068275
 next E    =  -501.322151   (d E  =  -0.00005)

 reached required accuracy - stopping structural energy minimisation