 vasp.6.3.0 20Jan22 (build Dec 25 2023 18:06:01) complex
 executed on        HPECrayEX_GCC date 2024.11.22  13:22:03

 INCAR:
   SYSTEM = TiO2
   ISMEAR = 0
   SIGMA = 0.05
   EDIFF = 1E-7
   ALGO = Normal
   ISTART = 0
   IBRION = 2
   NSW = 1000
   ISYM = 0
   ISIF = 2
   EDIFFG = -0.01
   DIPOL = 0.5 0.5 0.5
   IDIPOL = 3
   LDIPOL = .TRUE.
   GGA = RE
   IVDW = 13
   VDW_S8 = 1.7468
   VDW_A1 = 0.5363
   VDW_A2 = 3.0726
   ENCUT = 600
   PREC = Accurate
   LASPH = .TRUE.
   LREAL = .FALSE.
   ISPIN = 1
   NELM = 200
   NELMIN = 8
   NCORE = 8
   KPAR = 1
   LWAVE = .FALSE.
   LCHARG = .FALSE.

 POTCAR:    PAW_PBE C 08Apr2002
 POTCAR:    PAW_PBE O 08Apr2002
 POTCAR:    PAW_PBE H 15Jun2001
 POTCAR:    PAW_PBE Ti_pv 07Sep2000
 POTCAR:    PAW_PBE O 08Apr2002
 POTCAR:    PAW_PBE C 08Apr2002
   VRHFIN =C: s2p2

   TITEL  = PAW_PBE C 08Apr2002
   POMASS =   12.011; ZVAL   =    4.000    mass and valenz
   ENMAX  =  400.000; ENMIN  =  300.000 eV

[...]

   TITEL  = PAW_PBE H 15Jun2001
   POMASS =    1.000; ZVAL   =    1.000    mass and valenz
   ENMAX  =  250.000; ENMIN  =  200.000 eV

   TITEL  = PAW_PBE Ti_pv 07Sep2000
   POMASS =   47.880; ZVAL   =   10.000    mass and valenz
   ENMAX  =  222.335; ENMIN  =  166.751 eV

   TITEL  = PAW_PBE O 08Apr2002
   POMASS =   16.000; ZVAL   =    6.000    mass and valenz
   ENMAX  =  400.000; ENMIN  =  300.000 eV

  PAW_PBE C 08Apr2002                   :
  PAW_PBE O 08Apr2002                   :
  PAW_PBE H 15Jun2001                   :
  PAW_PBE Ti_pv 07Sep2000               :
  PAW_PBE O 08Apr2002                   :

 POSCAR:  C  O  H Ti  O
  positions in direct lattice
  velocities in cartesian coordinates
|           W    W    AA    RRRRR   N    N  II  N    N   GGGG   !!!           |
|           W    W   A  A   R    R  NN   N  II  NN   N  G    G  !!!           |
|           W    W  A    A  R    R  N N  N  II  N N  N  G       !!!           |
|           W WW W  AAAAAA  RRRRR   N  N N  II  N  N N  G  GGG   !            |
|           WW  WW  A    A  R   R   N   NN  II  N   NN  G    G                |
|           W    W  A    A  R    R  N    N  II  N    N   GGGG   !!!           |
|     Specifying the vdW parameters                                           |
|     VDW_S8 = 1.747                                                          |
|     VDW_A1 = 0.536                                                          |
|     VDW_A2 = 3.073                                                          |
|     in the INCAR file will overwrite the defaults for revpbe. Please        |
|     make sure that is what you intended.                                    |

 ion  position               nearest neighbor table
   1  0.510  0.587  0.812-   3 1.09   5 1.10   6 1.10   2 1.45
   2  0.539  0.498  0.782-   4 1.00   1 1.45  86 2.18
   3  0.426  0.597  0.810-   1 1.09
   4  0.615  0.493  0.780-   2 1.00
   5  0.533  0.563  0.845-   1 1.10
   6  0.548  0.667  0.802-   1 1.10
   7  0.750  0.625  0.287-  87 1.95 147 1.95  88 1.95 148 1.95 169 1.98  90 1.98  17 2.96  37 2.96

   8  0.000  0.750  0.287-  90 1.95 110 1.95 109 1.95  89 1.95  91 1.98  38 2.96  18 2.96
   9  0.000  0.625  0.394-  91 1.95 151 1.95  92 1.95 152 1.95  93 1.98  94 1.98  19 2.96  39 2.96

[...]

  87  0.750  0.750  0.245-   7 1.95  17 1.95
  88  0.750  0.750  0.329-   7 1.95  17 1.95  10 1.98
  89  0.098  0.625  0.287-   8 1.95  38 1.95  47 1.98
  90  0.902  0.625  0.287-   8 1.95  38 1.95   7 1.98
  91  0.000  0.750  0.352-   9 1.95  19 1.95   8 1.98
  92  0.000  0.750  0.435-   9 1.95  19 1.95  12 1.98
  93  0.848  0.625  0.394-  10 1.95  40 1.95   9 1.98
  94  0.152  0.625  0.394-  50 1.95  80 1.95   9 1.98
  95  0.750  0.750  0.458-  11 1.95  21 1.95  10 1.98
  96  0.750  0.750  0.542-  11 1.95  21 1.95  14 2.09
  97  0.098  0.625  0.500-  12 1.95  42 1.95  51 1.98
  98  0.902  0.625  0.500-  12 1.95  42 1.95  11 1.98
  99  0.001  0.750  0.565-  23 1.90  13 1.90  12 2.00
 100  0.000  0.750  0.649-  16 1.81  13 2.02  23 2.02
 101  0.851  0.625  0.607-  14 1.93  44 1.93  13 2.03
 102  0.151  0.625  0.607-  13 1.87  84 2.02  54 2.02
 103  0.754  0.751  0.671-  14 1.87  15 2.08  25 2.09
 104  0.749  0.749  0.756-  15 1.83  25 1.84
 105  0.095  0.625  0.719-  46 1.94  16 1.95  55 2.03
 106  0.906  0.624  0.720-  46 1.95  16 1.96  15 2.02
 107  0.750  0.000  0.245-  17 1.95  27 1.95
 108  0.750  0.000  0.329-  17 1.95  27 1.95  20 1.98
 109  0.098  0.875  0.287-   8 1.95  18 1.95  57 1.98
 110  0.902  0.875  0.287-   8 1.95  18 1.95  17 1.98
 111  0.000  0.000  0.352-  19 1.95  29 1.95  18 1.98
 112  0.000  0.000  0.435-  19 1.95  29 1.95  22 1.98
 113  0.848  0.875  0.394-  10 1.95  20 1.95  19 1.98
 114  0.152  0.875  0.394-  50 1.95  60 1.95  19 1.98
 115  0.750  0.000  0.458-  21 1.95  31 1.95  20 1.98
 116  0.750  0.000  0.542-  21 1.95  31 1.95  24 2.10
 117  0.098  0.875  0.500-  12 1.95  22 1.95  61 1.98
 118  0.902  0.875  0.500-  12 1.95  22 1.95  21 1.98
 119  0.001  0.000  0.565-  33 1.90  23 1.90  22 2.00
 120  0.000  0.000  0.649-  26 1.81  33 2.02  23 2.02
 121  0.851  0.875  0.607-  24 1.92  14 1.93  23 2.04
 122  0.151  0.875  0.607-  23 1.87  54 2.02  64 2.02
 123  0.751  0.000  0.672-  24 1.87  35 2.09  25 2.09
 124  0.750  1.000  0.756-  35 1.83  25 1.84
 125  0.095  0.875  0.719-  16 1.94  26 1.95  65 2.04
 126  0.906  0.875  0.719-  16 1.94  26 1.95  25 2.04
 127  0.750  0.250  0.245-  27 1.95  37 1.95
 128  0.750  0.250  0.329-  27 1.95  37 1.95  30 1.98
 129  0.098  0.125  0.287-  18 1.95  28 1.95  67 1.98
 130  0.902  0.125  0.287-  18 1.95  28 1.95  27 1.98
 131  0.000  0.250  0.352-  29 1.95  39 1.95  28 1.98
 132  0.000  0.250  0.435-  29 1.95  39 1.95  32 1.98
 133  0.848  0.125  0.394-  20 1.95  30 1.95  29 1.98
 134  0.152  0.125  0.394-  60 1.95  70 1.95  29 1.98
 135  0.750  0.250  0.458-  31 1.95  41 1.95  30 1.98
 136  0.750  0.250  0.542-  31 1.95  41 1.95  34 2.09
 137  0.098  0.125  0.500-  22 1.95  32 1.95  71 1.98
 138  0.902  0.125  0.500-  22 1.95  32 1.95  31 1.98
 139  0.001  0.250  0.565-  43 1.90  33 1.90  32 2.00
 140  0.000  0.250  0.649-  36 1.81  43 2.02  33 2.02
 141  0.851  0.125  0.607-  24 1.93  34 1.93  33 2.04
 142  0.151  0.125  0.607-  33 1.86  64 2.02  74 2.02
 143  0.753  0.250  0.671-  34 1.87  45 2.06  35 2.10
 144  0.749  0.251  0.755-  45 1.83  35 1.84
 145  0.094  0.125  0.719-  36 1.94  26 1.95  75 2.04
 146  0.906  0.125  0.719-  36 1.94  26 1.95  35 2.04
[...]
 232  0.500  0.500  0.435-  49 1.95  79 1.95  82 1.98
 233  0.348  0.375  0.394-  70 1.95  80 1.95  79 1.98
 234  0.652  0.375  0.394-  30 1.95  40 1.95  79 1.98
 235  0.250  0.500  0.458-  51 1.95  81 1.95  80 1.98
 236  0.250  0.500  0.542-  51 1.95  81 1.95  84 2.11
 237  0.598  0.375  0.500-  72 1.95  82 1.95  41 1.98
 238  0.402  0.375  0.500-  72 1.95  82 1.95  81 1.98
 239  0.501  0.500  0.566-  53 1.90  83 1.90  82 2.00
 240  0.500  0.500  0.650-  86 1.91  53 1.98  83 1.98
 241  0.350  0.375  0.607-  74 1.92  84 1.93  83 2.04
 242  0.651  0.375  0.608-  83 1.87  34 2.01  44 2.02
 243  0.250  0.500  0.672-  84 1.86  55 2.09  85 2.10
 244  0.252  0.500  0.756-  85 1.84  55 1.84
 245  0.597  0.371  0.714-  76 1.92  86 1.96  45 2.02
 246  0.407  0.374  0.718-  86 1.93  76 1.94  85 2.03

IMPORTANT INFORMATION: All symmetrisations will be switched off!
NOSYMM: (Re-)initialisation of all symmetry stuff for point group C_1.

                                     Primitive cell

  volume of cell :    4700.2642

  direct lattice vectors                    reciprocal lattice vectors
    13.003962940  0.000000000  0.000000000     0.076899635  0.000000000  0.000000000
     0.000000000 11.830322230  0.000000000     0.000000000  0.084528551  0.000000000
     0.000000000  0.000000000 30.552726600     0.000000000  0.000000000  0.032730303

  length of vectors
    13.003962940 11.830322230 30.552726600     0.076899635  0.084528551  0.032730303

  position of ions in fractional coordinates (direct lattice)
     0.509716301  0.587311760  0.811547332
     0.538574667  0.497550378  0.781625331
     0.426146927  0.596545287  0.809670693
     0.615244945  0.492965510  0.780315759
     0.532677464  0.563412218  0.844870026
     0.548094965  0.666904954  0.802493420
     0.750000000  0.625000000  0.287188176
     0.000000000  0.750000000  0.287188176
     0.000000000  0.625000000  0.393594088
     0.750000000  0.750000000  0.393594088
     0.750000000  0.625000000  0.500000000
     0.000000000  0.750000000  0.500000000
     0.007185310  0.625080386  0.604042393
     0.756338573  0.750081219  0.610204076
     0.750926485  0.625792720  0.719118030
     0.000147920  0.750314857  0.708169177
     0.750000000  0.875000000  0.287188176
     0.000000000  0.000000000  0.287188176
     0.000000000  0.875000000  0.393594088
     0.750000000  0.000000000  0.393594088
     0.750000000  0.875000000  0.500000000
     0.000000000  0.000000000  0.500000000
     0.007390620  0.875060496  0.604096828
     0.755999524  0.000015134  0.610504070
     0.749818963  0.874934570  0.720152186
     0.000441434  0.999925868  0.708140464
     0.750000000  0.125000000  0.287188176
     0.000000000  0.250000000  0.287188176
     0.000000000  0.125000000  0.393594088
     0.750000000  0.250000000  0.393594088
     0.750000000  0.125000000  0.500000000
     0.000000000  0.250000000  0.500000000
     0.007590793  0.124947215  0.604100862
     0.756299485  0.249894061  0.610131952
     0.749783548  0.124193784  0.720154099
     0.000366104  0.249616130  0.708163305
     0.750000000  0.375000000  0.287188176
     0.000000000  0.500000000  0.287188176
     0.000000000  0.375000000  0.393594088
     0.750000000  0.500000000  0.393594088
     0.750000000  0.375000000  0.500000000
     0.000000000  0.500000000  0.500000000
     0.007204997  0.374961018  0.604031262
     0.756502392  0.500027842  0.610383438
     0.751619929  0.373187940  0.719136874
     0.000993847  0.500106417  0.708106586
     0.250000000  0.625000000  0.287188176
     0.500000000  0.750000000  0.287188176
     0.500000000  0.625000000  0.393594088
     0.250000000  0.750000000  0.393594088
     0.250000000  0.625000000  0.500000000
     0.500000000  0.750000000  0.500000000
     0.507335130  0.622651683  0.605376129
     0.256330835  0.749952146  0.610449962
     0.250488359  0.625260907  0.720061124
     0.500929514  0.750109318  0.706873369
     0.250000000  0.875000000  0.287188176
     0.500000000  0.000000000  0.287188176
     0.500000000  0.875000000  0.393594088
     0.250000000  0.000000000  0.393594088
[...]
     0.500000000  0.500000000  0.435304992
     0.347999497  0.375000000  0.393594088
     0.652000503  0.375000000  0.393594088
     0.250000000  0.500000000  0.458289097
     0.250000000  0.500000000  0.541710903
     0.597999497  0.375000000  0.500000000
     0.402000503  0.375000000  0.500000000
     0.501044612  0.499898597  0.565522890
     0.500108884  0.500342567  0.649508536
     0.350300931  0.375084402  0.607171332
     0.651408759  0.374982571  0.607536143
     0.250393215  0.500329990  0.671559685
     0.252273936  0.500209631  0.755737328
     0.596865365  0.371439595  0.714476945
     0.406700982  0.374060617  0.717825575

[...]

 FORCES acting on ions
    electron-ion (+dipol)            ewald-force                    non-local-force                 convergence-correction
   0.376E+02 -.905E+02 -.161E+04   -.401E+02 0.956E+02 0.161E+04   0.247E+01 -.505E+01 -.459E+01   -.944E-04 0.522E-04 -.297E-03
   0.242E+02 0.125E+03 -.251E+04   -.472E+02 -.151E+03 0.250E+04   0.230E+02 0.257E+02 0.103E+02   -.173E-04 -.673E-04 -.286E-03
   0.579E+02 -.155E+02 -.394E+03   -.638E+02 0.161E+02 0.393E+03   0.588E+01 -.617E+00 0.258E+00   -.460E-04 0.150E-04 -.614E-04
   -.697E+02 0.157E+02 -.428E+03   0.773E+02 -.162E+02 0.427E+03   -.757E+01 0.582E+00 0.366E+00   0.354E-04 -.942E-05 -.668E-04
   -.114E+02 0.655E+01 -.385E+03   0.129E+02 -.798E+01 0.390E+03   -.151E+01 0.144E+01 -.534E+01   -.558E-05 0.395E-05 -.284E-04
   -.190E+02 -.612E+02 -.392E+03   0.216E+02 0.660E+02 0.391E+03   -.258E+01 -.485E+01 0.130E+01   -.409E-05 0.284E-04 -.624E-04
   -.204E+00 -.196E-01 0.380E+04   0.200E+00 0.198E-01 -.380E+04   0.116E-02 -.201E-04 0.454E+00   -.780E-05 -.413E-05 0.816E-04
   -.597E-01 -.655E-01 0.398E+04   0.611E-01 0.657E-01 -.397E+04   -.253E-03 -.162E-04 -.403E+01   -.401E-05 -.876E-05 0.789E-04
   -.170E+00 -.506E-01 0.194E+04   0.176E+00 0.506E-01 -.194E+04   -.967E-03 0.115E-03 -.456E-01   -.255E-05 0.316E-06 0.621E-04
   -.492E+00 -.740E-01 0.194E+04   0.481E+00 0.743E-01 -.194E+04   0.287E-02 0.532E-04 0.211E+00   -.725E-05 -.422E-05 0.707E-04
   -.205E+01 -.124E+00 0.160E+02   0.200E+01 0.109E+00 -.152E+02   0.120E-01 0.925E-03 -.129E+00   0.156E-04 -.214E-04 0.106E-03
   0.141E+01 -.958E+00 0.237E+02   -.141E+01 0.962E+00 -.248E+02   -.126E-02 -.288E-02 0.349E+00   -.123E-04 -.683E-05 0.102E-03
   0.139E+02 -.193E+01 -.186E+04   -.139E+02 0.195E+01 0.186E+04   0.311E-01 -.829E-02 0.811E-01   0.160E-04 -.264E-07 0.249E-03
   -.117E+01 -.974E+01 -.191E+04   0.118E+01 0.975E+01 0.191E+04   -.351E-01 -.916E-02 -.113E+00   0.124E-03 -.639E-04 0.111E-03
   -.998E+02 -.173E+02 -.371E+04   0.996E+02 0.172E+02 0.371E+04   0.193E+00 0.109E+00 -.195E-01   0.250E-03 0.346E-04 -.122E-03
   -.524E+01 -.542E+01 -.378E+04   0.529E+01 0.543E+01 0.378E+04   -.543E-01 -.201E-01 0.996E+00   0.693E-04 0.511E-04 -.543E-05
   -.211E+00 -.698E-01 0.380E+04   0.207E+00 0.700E-01 -.380E+04   0.120E-02 0.610E-05 0.454E+00   -.919E-05 -.465E-05 0.822E-04
   -.572E-01 -.318E-01 0.398E+04   0.586E-01 0.319E-01 -.397E+04   -.259E-03 -.804E-05 -.403E+01   -.431E-05 -.910E-07 0.781E-04
   -.137E+00 -.151E+00 0.194E+04   0.143E+00 0.150E+00 -.194E+04   -.939E-03 0.107E-03 -.456E-01   -.314E-05 -.133E-05 0.743E-04
   -.576E+00 -.826E-01 0.194E+04   0.566E+00 0.822E-01 -.194E+04   0.269E-02 -.572E-04 0.211E+00   -.683E-05 -.243E-05 0.784E-04
   -.340E+01 -.975E+00 0.145E+02   0.337E+01 0.100E+01 -.137E+02   0.850E-02 -.996E-03 -.132E+00   -.882E-05 -.113E-04 0.713E-04
   0.181E+01 -.277E+00 0.222E+02   -.181E+01 0.276E+00 -.233E+02   -.140E-02 -.154E-03 0.347E+00   -.102E-04 -.305E-05 0.375E-04
   0.169E+02 -.299E+01 -.186E+04   -.169E+02 0.300E+01 0.186E+04   0.299E-01 -.100E-01 0.861E-01   0.102E-03 -.496E-04 0.242E-03
   0.238E+01 -.182E+01 -.193E+04   -.236E+01 0.182E+01 0.193E+04   -.430E-01 0.491E-03 -.121E+00   0.158E-03 -.314E-04 0.142E-03
   -.302E+02 -.295E+02 -.376E+04   0.301E+02 0.295E+02 0.376E+04   0.581E-01 0.111E-01 -.147E+00   0.198E-03 0.286E-04 -.217E-03
   -.457E+01 -.222E+01 -.378E+04   0.454E+01 0.222E+01 0.378E+04   0.274E-01 -.158E-02 0.104E+01   0.552E-04 -.374E-04 0.769E-04
   -.206E+00 0.195E-01 0.380E+04   0.202E+00 -.199E-01 -.380E+04   0.118E-02 0.339E-04 0.454E+00   -.890E-05 0.484E-05 0.818E-04
   -.603E-01 0.655E-01 0.398E+04   0.617E-01 -.656E-01 -.397E+04   -.271E-03 0.160E-04 -.403E+01   -.452E-05 0.864E-05 0.778E-04
   -.142E+00 0.536E-01 0.194E+04   0.148E+00 -.535E-01 -.194E+04   -.106E-02 -.695E-04 -.456E-01   -.334E-05 -.254E-06 0.733E-04
   -.456E+00 0.739E-01 0.194E+04   0.446E+00 -.742E-01 -.194E+04   0.275E-02 -.793E-04 0.211E+00   -.495E-05 0.471E-05 0.672E-04
   -.325E+01 0.427E+00 0.140E+02   0.322E+01 -.466E+00 -.133E+02   0.971E-02 0.271E-02 -.131E+00   0.426E-05 -.243E-04 0.405E-04
   0.140E+01 0.962E+00 0.232E+02   -.140E+01 -.967E+00 -.243E+02   -.204E-02 0.254E-02 0.350E+00   -.912E-06 0.635E-05 0.102E-03
   0.180E+02 0.158E+01 -.186E+04   -.180E+02 -.159E+01 0.186E+04   0.324E-01 0.820E-02 0.900E-01   0.191E-03 0.501E-04 0.246E-03
   -.386E-01 0.917E+01 -.191E+04   0.443E-01 -.917E+01 0.191E+04   -.310E-01 -.277E-03 -.125E+00   0.205E-03 0.437E-04 0.142E-03
   -.223E+02 0.149E+02 -.376E+04   0.222E+02 -.149E+02 0.376E+04   0.524E-01 -.947E-02 -.161E+00   0.169E-03 0.471E-04 -.193E-03
   -.440E+01 0.489E+01 -.378E+04   0.444E+01 -.490E+01 0.378E+04   -.406E-01 0.170E-01 0.997E+00   -.560E-05 -.375E-04 -.118E-05
   -.198E+00 0.699E-01 0.380E+04   0.195E+00 -.699E-01 -.380E+04   0.114E-02 -.199E-04 0.454E+00   -.769E-05 0.390E-05 0.813E-04
   -.627E-01 0.318E-01 0.398E+04   0.641E-01 -.319E-01 -.397E+04   -.264E-03 0.797E-05 -.403E+01   -.413E-05 0.220E-06 0.777E-04
   -.175E+00 0.148E+00 0.194E+04   0.181E+00 -.148E+00 -.194E+04   -.107E-02 -.128E-03 -.456E-01   -.246E-05 0.118E-05 0.613E-04
   -.375E+00 0.827E-01 0.194E+04   0.364E+00 -.822E-01 -.194E+04   0.260E-02 -.149E-04 0.211E+00   -.487E-05 0.192E-05 0.684E-04
   -.186E+01 0.678E+00 0.155E+02   0.181E+01 -.649E+00 -.148E+02   0.125E-01 -.174E-02 -.128E+00   0.241E-04 0.562E-04 0.747E-04
   0.124E+01 0.301E+00 0.246E+02   -.124E+01 -.300E+00 -.257E+02   -.275E-02 -.442E-03 0.347E+00   -.611E-05 0.298E-05 0.151E-03
   0.144E+02 0.343E+01 -.186E+04   -.145E+02 -.344E+01 0.186E+04   0.294E-01 0.726E-02 0.830E-01   0.611E-04 0.456E-05 0.226E-03
   -.259E+01 0.181E+01 -.190E+04   0.266E+01 -.181E+01 0.190E+04   -.882E-01 0.182E-02 -.117E+00   0.130E-03 0.597E-04 0.144E-03
   -.843E+02 0.259E+02 -.372E+04   0.842E+02 -.258E+02 0.372E+04   0.122E+00 -.150E+00 -.225E-01   0.207E-03 0.128E-05 -.125E-03
   -.712E+01 0.291E+01 -.377E+04   0.709E+01 -.292E+01 0.377E+04   0.327E-01 0.316E-02 0.942E+00   0.212E-04 0.426E-04 -.744E-05
   0.198E+00 -.152E-01 0.380E+04   -.194E+00 0.151E-01 -.380E+04   -.108E-02 0.167E-04 0.454E+00   0.702E-05 -.426E-05 0.833E-04
   0.658E-01 -.540E-01 0.398E+04   -.671E-01 0.543E-01 -.397E+04   0.249E-03 -.440E-04 -.403E+01   0.490E-05 -.619E-05 0.754E-04
   0.309E+00 0.145E+00 0.195E+04   -.314E+00 -.133E+00 -.194E+04   0.543E-03 -.278E-02 -.475E-01   0.403E-05 0.159E-05 0.692E-04
   0.357E+00 -.272E-01 0.194E+04   -.347E+00 0.276E-01 -.194E+04   -.176E-02 -.226E-04 0.207E+00   0.520E-05 -.601E-05 0.837E-04
   0.471E+00 0.156E+00 0.136E+02   -.414E+00 -.171E+00 -.127E+02   -.930E-02 0.116E-02 -.139E+00   -.286E-04 -.334E-04 0.526E-04
   0.366E+01 0.827E+00 0.286E+02   -.368E+01 -.912E+00 -.295E+02   0.102E-02 0.409E-01 0.266E+00   0.260E-04 0.328E-04 -.213E-04
   0.220E+02 -.133E+02 -.184E+04   -.221E+02 0.133E+02 0.184E+04   0.800E-02 -.786E-01 0.581E-01   -.432E-04 -.181E-04 0.119E-03
   0.217E+02 -.692E+01 -.192E+04   -.217E+02 0.691E+01 0.192E+04   -.428E-01 0.736E-02 -.121E+00   -.140E-03 -.592E-05 0.219E-03
   0.654E+02 -.156E+02 -.373E+04   -.655E+02 0.156E+02 0.373E+04   0.734E-01 0.826E-02 -.168E+00   -.213E-03 0.526E-04 -.113E-03
   0.244E+02 -.818E+02 -.368E+04   -.242E+02 0.819E+02 0.368E+04   -.177E+00 -.578E-01 0.116E+01   -.216E-03 0.119E-03 -.167E-03
   0.205E+00 -.659E-01 0.380E+04   -.201E+00 0.663E-01 -.380E+04   -.113E-02 -.159E-04 0.454E+00   0.830E-05 -.571E-05 0.833E-04
   0.635E-01 -.399E-01 0.398E+04   -.648E-01 0.399E-01 -.397E+04   0.254E-03 -.126E-06 -.403E+01   0.524E-05 -.383E-06 0.753E-04
   0.280E+00 -.185E-01 0.195E+04   -.286E+00 0.185E-01 -.194E+04   0.693E-03 -.107E-02 -.484E-01   0.497E-05 -.100E-04 0.727E-04
   0.437E+00 -.924E-01 0.194E+04   -.426E+00 0.924E-01 -.194E+04   -.179E-02 0.787E-04 0.207E+00   0.525E-05 -.222E-05 0.839E-04
[...]
   -.531E+02 0.291E-01 0.116E+04   0.571E+02 -.299E-01 -.116E+04   -.357E+01 0.118E-02 0.153E+00   -.803E-06 0.318E-05 0.408E-04
   0.532E+02 0.392E-01 0.116E+04   -.572E+02 -.397E-01 -.116E+04   0.358E+01 0.719E-03 0.160E+00   0.289E-05 0.353E-05 0.373E-04
   0.142E+00 0.157E+00 0.514E+03   -.118E+00 -.158E+00 -.518E+03   -.351E-01 0.364E-02 0.417E+01   -.261E-05 0.260E-06 0.343E-04
   0.299E+01 0.662E+00 -.514E+03   -.325E+01 -.663E+00 0.521E+03   0.253E+00 0.898E-03 -.711E+01   -.534E-04 0.267E-05 0.842E-04
   -.547E+02 -.298E-02 0.162E+02   0.594E+02 0.700E-03 -.164E+02   -.508E+01 0.229E-01 0.270E+00   0.118E-04 0.170E-04 0.161E-04
   0.559E+02 -.755E-01 0.130E+02   -.605E+02 0.698E-01 -.131E+02   0.511E+01 0.288E-01 0.232E+00   -.106E-04 0.971E-05 0.113E-04
   0.130E+02 0.135E+01 -.607E+03   -.141E+02 -.142E+01 0.601E+03   0.111E+01 0.656E-01 0.686E+01   0.157E-04 -.440E-04 -.160E-04
   0.192E+02 0.295E+01 -.159E+04   -.204E+02 -.288E+01 0.160E+04   0.121E+01 -.759E-01 -.198E+01   -.652E-04 0.276E-04 0.603E-04
   -.488E+02 0.391E+01 -.111E+04   0.552E+02 -.393E+01 0.111E+04   -.634E+01 0.279E-01 0.128E+01   -.150E-03 -.351E-04 0.145E-03
   -.108E+00 0.648E+01 -.112E+04   0.165E+00 -.666E+01 0.112E+04   -.312E-01 0.181E+00 0.505E+00   0.692E-04 0.526E-05 0.123E-03
   0.256E+02 0.294E+01 -.180E+04   -.261E+02 -.300E+01 0.180E+04   0.449E+00 0.568E-01 -.210E+01   -.478E-04 0.222E-04 0.130E-03
   0.596E+02 0.104E+02 -.271E+04   -.593E+02 -.104E+02 0.273E+04   -.269E+00 0.414E-01 -.205E+02   -.174E-03 -.622E-05 -.217E-03
   -.520E+02 0.572E+02 -.221E+04   0.579E+02 -.569E+02 0.221E+04   -.590E+01 -.357E+00 -.599E+00   0.576E-04 0.222E-05 -.131E-03
   0.701E+02 0.494E+02 -.228E+04   -.763E+02 -.496E+02 0.229E+04   0.618E+01 0.111E+00 -.304E+01   -.100E-03 -.112E-03 -.367E-04
   0.974E+01 -.182E+02 0.854E+02   -.924E-12 0.739E-12 -.341E-10   -.975E+01 0.182E+02 -.855E+02   -.598E-04 -.368E-03 0.975E-02

 POSITION                                       TOTAL-FORCE (eV/Angst)
      6.62788      6.94820     24.79387         0.004212     -0.002536      0.007831
      7.00399      5.88476     23.88123         0.002036      0.007506     -0.003274
      5.54104      7.05728     24.73742        -0.001820     -0.001798     -0.006642
      8.00140      5.83206     23.84084        -0.002697      0.000277      0.001308
      6.92632      6.66594     25.81243        -0.002767      0.002775     -0.000520
      7.12713      7.89047     24.51855        -0.003007     -0.003331     -0.006054
      9.75297      7.39395      8.77438        -0.002738      0.000201     -3.378111
      0.00000      8.87274      8.77438         0.001131      0.000122      2.808267
      0.00000      7.39395     12.02537         0.004871      0.000062      0.540503
      9.75297      8.87274     12.02537        -0.007818      0.000379     -0.724318
      9.75297      7.39395     15.27636        -0.035771     -0.013805      0.627495
      0.00000      8.87274     15.27636        -0.002554      0.001923     -0.741249
      0.09318      7.39467     18.45510         0.003120      0.002957     -0.002268
      9.83534      8.87418     18.64354        -0.000884     -0.000574     -0.002046
      9.76507      7.40304     21.97048         0.000387     -0.000329      0.000862
      0.00219      8.87658     21.63666        -0.000513     -0.001316     -0.000131
      9.75297     10.35153      8.77438        -0.002812      0.000187     -3.378156
      0.00000      0.00000      8.77438         0.001137      0.000066      2.808061
      0.00000     10.35153     12.02537         0.004739     -0.000251      0.540504
      9.75297      0.00000     12.02537        -0.008002     -0.000514     -0.725314
      9.75297     10.35153     15.27636        -0.020247      0.024052      0.635980
      0.00000      0.00000     15.27636        -0.002427     -0.000679     -0.736829
      0.09572     10.35199     18.45714        -0.003339      0.002155     -0.002662
      9.83002      0.00036     18.65303        -0.006876     -0.001849     -0.001377
      9.75098     10.35049     22.00302         0.001263     -0.000631      0.002432
      0.00632     11.82955     21.63572        -0.000047     -0.000332     -0.001063
      9.75297      1.47879      8.77438        -0.002776     -0.000351     -3.378445
      0.00000      2.95758      8.77438         0.001177     -0.000138      2.808102
      0.00000      1.47879     12.02537         0.005019      0.000036      0.540362
      9.75297      2.95758     12.02537        -0.007528     -0.000386     -0.726276
      9.75297      1.47879     15.27636        -0.019894     -0.037022      0.627130
      0.00000      2.95758     15.27636         0.000750     -0.001916     -0.741286
      0.09733      1.47841     18.45700        -0.005626     -0.002195     -0.002169
      9.83431      2.95598     18.64165        -0.004182      0.001473     -0.002602
      9.75047      1.46917     22.00316         0.002124     -0.002599      0.001425
      0.00525      2.95288     21.63644         0.000503      0.000782      0.000756
      9.75297      4.43637      8.77438        -0.002703     -0.000051     -3.378399
      0.00000      5.91516      8.77438         0.001175     -0.000061      2.808297
      0.00000      4.43637     12.02537         0.005185      0.000145      0.540332
      9.75297      5.91516     12.02537        -0.007486      0.000480     -0.725176
      9.75297      4.43637     15.27636        -0.036228      0.026560      0.619785
      0.00000      5.91516     15.27636        -0.000591      0.000556     -0.746217
      0.09355      4.43627     18.45485         0.001100     -0.003066     -0.001804
      9.83742      5.91513     18.64837         0.001961      0.001070     -0.001108
      9.77409      4.41506     21.97145         0.001683     -0.001009      0.000216
      0.01301      5.91629     21.63460        -0.000045      0.000254      0.001727
      3.25099      7.39395      8.77438         0.002823     -0.000091     -3.376088
      6.50198      8.87274      8.77438        -0.001009      0.000272      2.815151
      6.50198      7.39395     12.02537        -0.004628      0.009390      0.565237
      3.25099      8.87274     12.02537         0.008303      0.000379     -0.710540
      3.25099      7.39395     15.27636         0.046312     -0.013744      0.670250
      6.50198      8.87274     15.27636        -0.024492     -0.047099     -0.607507
      6.59793      7.36642     18.49572         0.000981      0.001092      0.001278
      3.33340      8.87235     18.65138         0.000636     -0.003070     -0.003823
      3.25767      7.39712     21.99971         0.002018     -0.002363      0.003206
      6.51430      8.87387     21.59695         0.001703     -0.001042     -0.001568
      3.25099     10.35153      8.77438         0.002903      0.000351     -3.376232
      6.50198      0.00000      8.77438        -0.001000      0.000022      2.815108
      6.50198     10.35153     12.02537        -0.004910     -0.000999      0.566715
      3.25099      0.00000     12.02537         0.008612      0.000057     -0.709866
[...]
      6.50198      5.91516     13.29975         0.003234     -0.000702     -0.127228
      4.52537      4.43637     12.02537         0.431623      0.000381      0.048045
      8.47859      4.43637     12.02537        -0.426075      0.000186      0.049943
      3.25099      5.91516     14.00198        -0.010663      0.002106     -0.103535
      3.25099      5.91516     16.55075        -0.006935     -0.000478      0.039866
      7.77636      4.43637     15.27636        -0.428255      0.020662      0.062495
      5.22760      4.43637     15.27636         0.464260      0.023231      0.082385
      6.51562      5.91365     17.27816         0.000116      0.002039     -0.001189
      6.50312      5.91938     19.84408        -0.000941     -0.001090      0.003335
      4.55504      4.43692     18.55097        -0.002067      0.001192      0.000607
      8.47090      4.43605     18.56228         0.000522      0.000919      0.001480
      3.25647      5.91913     20.51867         0.001923     -0.000181     -0.001958
      3.28067      5.91755     23.08969         0.001132      0.001043      0.000343
      7.76165      4.39457     21.82934         0.002943     -0.003235     -0.002729
      5.28901      4.42482     21.93218         0.000043      0.000008      0.001409
    total drift:                               -0.007283      0.000220     -0.041451

  FREE ENERGIE OF THE ION-ELECTRON SYSTEM (eV)
  free  energy   TOTEN  =     -2157.30391283 eV

  energy  without entropy=    -2157.30391283  energy(sigma->0) =    -2157.30391283

 d Force = 0.7846211E-05[ 0.677E-07, 0.156E-04]  d Energy = 0.5883899E-05 0.196E-05
 d Force = 0.2825214E+01[ 0.283E+01, 0.283E+01]  d Ewald  = 0.2825213E+01 0.166E-05

 reached required accuracy - stopping structural energy minimisation