 vasp.6.3.0 20Jan22 (build Apr  1 2022 16:44:48) complex
 executed on        HPECrayEX_GCC date 2023.01.23  22:17:19

 INCAR:
   SYSTEM = MgO-rocksalt
   ISMEAR = 0
   SIGMA = 0.05
   EDIFF = 1E-8
   ALGO = ALL
   ISTART = 0
   IBRION = 5
   POTIM = 0.01
   NFREE = 2
   ISYM = 0
   DIPOL = 0.5 0.5 0.5
   IDIPOL = 3
   LDIPOL = .TRUE.
   GGA = RE
   IVDW = 13
   VDW_S8 = 1.7468
   VDW_A1 = 0.5363
   VDW_A2 = 3.0726
   ENCUT = 600
   PREC = Accurate
   LASPH = .TRUE.
   LREAL = .FALSE.
   ISPIN = 2
   MAGMOM = 1.0 0.0 0.0 0.0 0.0 0.0 0.0 0.0 0.0 0.0 0.0 0.0 0.0 0.0 0.0 0.0 0.0 0.0 0.0 0.0 0.0 0.0 0.0 0.0 0.0 0.0 0.0 0.0 0.0 0.0 0.0 0.0 0.0 0.0 0.0 0.0 0.0 0.0 0.0 0.0 0.0 0.0 0.0 0.0 0.0 0.0 0.0 0.0 0.0 0.0 0.0 0.0 0.0 0.0 0.0 0.0 0.0 0.0 0.0 0.0 0.0 0.0 0.0 0.0 0.0 0.0
   NELM = 200
   NELMIN = 8
   NCORE = 8
   KPAR = 1
   LWAVE = .FALSE.
   LCHARG = .FALSE.

 POTCAR:    PAW_PBE N 08Apr2002
 POTCAR:    PAW_PBE O 08Apr2002
 POTCAR:    PAW_PBE Mg_pv 13Apr2007
 POTCAR:    PAW_PBE O 08Apr2002
 POTCAR:    PAW_PBE N 08Apr2002
   VRHFIN =N: s2p3

   TITEL  = PAW_PBE N 08Apr2002
   POMASS =   14.001; ZVAL   =    5.000    mass and valenz
   ENMAX  =  400.000; ENMIN  =  300.000 eV

[...]

   TITEL  = PAW_PBE Mg_pv 13Apr2007
   POMASS =   24.305; ZVAL   =    8.000    mass and valenz
   ENMAX  =  403.929; ENMIN  =  302.947 eV

   TITEL  = PAW_PBE O 08Apr2002
   POMASS =   16.000; ZVAL   =    6.000    mass and valenz
   ENMAX  =  400.000; ENMIN  =  300.000 eV

  PAW_PBE N 08Apr2002                   :
  PAW_PBE O 08Apr2002                   :
  PAW_PBE Mg_pv 13Apr2007               :
  PAW_PBE O 08Apr2002                   :

 POSCAR:  N  O Mg  O
  positions in direct lattice
|           W    W    AA    RRRRR   N    N  II  N    N   GGGG   !!!           |
|           W    W   A  A   R    R  NN   N  II  NN   N  G    G  !!!           |
|           W    W  A    A  R    R  N N  N  II  N N  N  G       !!!           |
|           W WW W  AAAAAA  RRRRR   N  N N  II  N  N N  G  GGG   !            |
|           WW  WW  A    A  R   R   N   NN  II  N   NN  G    G                |
|           W    W  A    A  R    R  N    N  II  N    N   GGGG   !!!           |
|     Specifying the vdW parameters                                           |
|     VDW_S8 = 1.747                                                          |
|     VDW_A1 = 0.536                                                          |
|     VDW_A2 = 3.073                                                          |
|     in the INCAR file will overwrite the defaults for revpbe. Please        |
|     make sure that is what you intended.                                    |

 ion  position               nearest neighbor table
   1  0.625  0.625  0.752-   2 1.18
   2  0.625  0.625  0.808-   1 1.18
   3  0.000  0.750  0.352-  35 2.11  37 2.11  38 2.11  45 2.11  54 2.11
   4  0.250  0.000  0.352-  36 2.11  37 2.11  38 2.11  46 2.11  53 2.11
   5  0.000  0.000  0.451-  37 2.11  36 2.11  35 2.11  43 2.11  52 2.11  41 2.12
   6  0.250  0.750  0.451-  38 2.11  36 2.11  35 2.11  44 2.11  51 2.11  42 2.12
   7  0.999  0.750  0.550-  58 2.11  49 2.11  41 2.11  42 2.11  35 2.13  39 2.15
   8  0.250  0.000  0.550-  41 2.11  50 2.11  42 2.11  57 2.11  36 2.13  40 2.15
   9  0.000  0.000  0.649-  40 2.11  47 2.11  41 2.11  39 2.11  56 2.11
  10  0.249  0.750  0.649-  55 2.10  39 2.10  42 2.11  40 2.11  48 2.11
  11  0.000  0.250  0.352-  43 2.11  37 2.11  45 2.11  46 2.11  62 2.11
  12  0.250  0.500  0.352-  44 2.11  38 2.11  45 2.11  46 2.11  61 2.11
  13  0.000  0.500  0.451-  45 2.11  43 2.11  44 2.11  35 2.11  60 2.11  49 2.12
  14  0.250  0.250  0.451-  46 2.11  43 2.11  44 2.11  36 2.11  59 2.11  50 2.12
  15  0.000  0.250  0.550-  41 2.11  50 2.11  66 2.11  49 2.11  43 2.13  47 2.15
  16  0.251  0.500  0.550-  65 2.11  42 2.11  50 2.11  49 2.11  44 2.13  48 2.15
  17  0.001  0.500  0.649-  64 2.10  48 2.10  49 2.11  47 2.11  39 2.11
  18  0.250  0.250  0.649-  40 2.11  47 2.11  50 2.11  63 2.11  48 2.11
  19  0.500  0.750  0.352-  51 2.11  38 2.11  53 2.11  54 2.11  61 2.11
  20  0.750  0.000  0.352-  52 2.11  37 2.11  53 2.11  54 2.11  62 2.11
  21  0.500  0.000  0.451-  53 2.11  51 2.11  52 2.11  36 2.11  59 2.11  57 2.12
  22  0.750  0.750  0.451-  54 2.11  51 2.11  52 2.11  35 2.11  60 2.11  58 2.13
  23  0.500  0.750  0.550-  65 2.11  58 2.11  57 2.11  42 2.11  51 2.12  55 2.13
  24  0.750  0.999  0.550-  58 2.11  57 2.11  41 2.11  66 2.11  52 2.13  56 2.15
  25  0.500  0.001  0.649-  55 2.10  63 2.10  57 2.11  40 2.11  56 2.11
  26  0.750  0.750  0.650-  56 2.11  39 2.11  55 2.13  64 2.13  58 2.14
  27  0.500  0.250  0.352-  59 2.11  53 2.11  46 2.11  61 2.11  62 2.11
  28  0.750  0.500  0.352-  60 2.11  54 2.11  45 2.11  61 2.11  62 2.11
  29  0.500  0.500  0.451-  61 2.11  51 2.11  59 2.11  60 2.11  44 2.11  65 2.13
  30  0.750  0.250  0.451-  62 2.11  52 2.11  59 2.11  60 2.11  43 2.11  66 2.12
  31  0.500  0.251  0.550-  65 2.11  66 2.11  50 2.11  57 2.11  59 2.13  63 2.15
  32  0.750  0.500  0.550-  65 2.11  58 2.11  49 2.11  66 2.11  60 2.12  64 2.13
  33  0.500  0.500  0.650-  48 2.11  63 2.11  55 2.13  64 2.13  65 2.14
  34  0.750  0.249  0.649-  64 2.10  56 2.10  66 2.11  47 2.11  63 2.11
  35  0.000  0.750  0.451-   3 2.11   5 2.11   6 2.11  13 2.11  22 2.11   7 2.13
  36  0.250  0.000  0.451-   4 2.11   5 2.11   6 2.11  14 2.11  21 2.11   8 2.13
  37  0.000  0.000  0.352-   5 2.11   4 2.11   3 2.11  11 2.11  20 2.11
  38  0.250  0.750  0.352-   6 2.11   4 2.11   3 2.11  12 2.11  19 2.11
  39  1.000  0.750  0.651-  10 2.10  26 2.11  17 2.11   9 2.11   7 2.15
  40  0.250  0.000  0.651-   9 2.11  18 2.11  25 2.11  10 2.11   8 2.15
  41  1.000  1.000  0.550-   8 2.11  15 2.11   7 2.11  24 2.11   9 2.11   5 2.12
  42  0.250  0.750  0.550-  10 2.11   8 2.11  16 2.11   7 2.11  23 2.11   6 2.12
  43  0.000  0.250  0.451-  11 2.11   5 2.11  13 2.11  14 2.11  30 2.11  15 2.13
  44  0.250  0.500  0.451-  12 2.11   6 2.11  13 2.11  14 2.11  29 2.11  16 2.13
  45  0.000  0.500  0.352-  13 2.11  11 2.11  12 2.11   3 2.11  28 2.11
  46  0.250  0.250  0.352-  14 2.11  11 2.11  12 2.11   4 2.11  27 2.11
  47  0.000  0.250  0.651-   9 2.11  18 2.11  17 2.11  34 2.11  15 2.15
  48  0.250  0.500  0.651-  17 2.10  33 2.11  10 2.11  18 2.11  16 2.15
  49  0.000  0.500  0.550-  17 2.11  15 2.11   7 2.11  16 2.11  32 2.11  13 2.12
  50  0.250  0.250  0.550-   8 2.11  15 2.11  31 2.11  16 2.11  18 2.11  14 2.12
  51  0.500  0.750  0.451-  19 2.11   6 2.11  21 2.11  22 2.11  29 2.11  23 2.12
  52  0.750  0.000  0.451-  20 2.11   5 2.11  21 2.11  22 2.11  30 2.11  24 2.13
  53  0.500  0.000  0.352-  21 2.11  19 2.11  20 2.11   4 2.11  27 2.11
  54  0.750  0.750  0.352-  22 2.11  19 2.11  20 2.11   3 2.11  28 2.11
  55  0.498  0.752  0.650-  10 2.10  25 2.10  26 2.13  33 2.13  23 2.13
  56  0.750  1.000  0.651-  34 2.10  26 2.11  25 2.11   9 2.11  24 2.15
  57  0.500  0.000  0.550-  25 2.11   8 2.11  24 2.11  31 2.11  23 2.11  21 2.12
  58  0.750  0.750  0.550-  24 2.11   7 2.11  23 2.11  32 2.11  22 2.13  26 2.14
  59  0.500  0.250  0.451-  27 2.11  21 2.11  14 2.11  29 2.11  30 2.11  31 2.13
  60  0.750  0.500  0.451-  28 2.11  22 2.11  13 2.11  29 2.11  30 2.11  32 2.12
  61  0.500  0.500  0.352-  29 2.11  19 2.11  27 2.11  28 2.11  12 2.11
  62  0.750  0.250  0.352-  30 2.11  20 2.11  27 2.11  28 2.11  11 2.11
  63  0.500  0.250  0.651-  25 2.10  33 2.11  34 2.11  18 2.11  31 2.15
  64  0.752  0.498  0.650-  34 2.10  17 2.10  26 2.13  33 2.13  32 2.13
  65  0.500  0.500  0.550-  16 2.11  31 2.11  23 2.11  32 2.11  29 2.13  33 2.14
  66  0.750  0.250  0.550-  34 2.11  15 2.11  31 2.11  24 2.11  32 2.11  30 2.12

IMPORTANT INFORMATION: All symmetrisations will be switched off!
NOSYMM: (Re-)initialisation of all symmetry stuff for point group C_1.

                                     Primitive cell

  volume of cell :    1519.8199

  direct lattice vectors                    reciprocal lattice vectors
     8.440984654  0.000000000  0.000000000     0.118469591  0.000000000  0.000000000
     0.000000000  8.440984654  0.000000000     0.000000000  0.118469591  0.000000000
     0.000000000  0.000000000 21.330738491     0.000000000  0.000000000  0.046880702

  length of vectors
     8.440984654  8.440984654 21.330738491     0.118469591  0.118469591  0.046880702

  position of ions in fractional coordinates (direct lattice)
     0.625000025  0.625000026  0.752200458
     0.625000001  0.625000004  0.807568188
     0.000000000  0.750000000  0.351605267
     0.250000000  0.000000000  0.351605267
     0.000000000  0.000000000  0.450535089
     0.250000000  0.750000000  0.450535089
     0.999466023  0.749938665  0.550299311
     0.249936072  0.000063917  0.550169433
     0.000006237  0.000006236  0.649012547
     0.248898599  0.750368068  0.648702868
     0.000000000  0.250000000  0.351605267
     0.250000000  0.500000000  0.351605267
     0.000000000  0.500000000  0.450535089
     0.250000000  0.250000000  0.450535089
     0.000063917  0.249936073  0.550169433
     0.250533984  0.500061353  0.550299286
     0.001101403  0.499631931  0.648702837
     0.249993773  0.249993772  0.649012541
     0.500000000  0.750000000  0.351605267
     0.750000000  0.000000000  0.351605267
     0.500000000  0.000000000  0.450535089
     0.750000000  0.750000000  0.450535089
     0.500146774  0.749853223  0.550010997
     0.749938664  0.999466022  0.550299311
     0.499631931  0.001101403  0.648702837
     0.749983055  0.749983055  0.650464770
     0.500000000  0.250000000  0.351605267
     0.750000000  0.500000000  0.351605267
     0.500000000  0.500000000  0.450535089
     0.750000000  0.250000000  0.450535089
     0.500061352  0.250533984  0.550299286
     0.749853226  0.500146774  0.550010996
     0.500016942  0.500016943  0.650464749
     0.750368069  0.248898600  0.648702868
     0.000000000  0.750000000  0.450535089
     0.250000000  0.000000000  0.450535089
     0.000000000  0.000000000  0.351605267
     0.250000000  0.750000000  0.351605267
     0.999804770  0.749767818  0.651226661
     0.249771223  0.000228785  0.651112302
     0.999967409  0.999967408  0.549990240
     0.249690345  0.750079102  0.549866138
     0.000000000  0.250000000  0.450535089
     0.250000000  0.500000000  0.450535089
     0.000000000  0.500000000  0.351605267
     0.250000000  0.250000000  0.351605267
     0.000228784  0.249771224  0.651112302
     0.250195236  0.500232181  0.651226637
     0.000309651  0.499920907  0.549866127
     0.250032590  0.250032589  0.549990230
     0.500000000  0.750000000  0.450535089
     0.750000000  0.000000000  0.450535089
     0.500000000  0.000000000  0.351605267
     0.750000000  0.750000000  0.351605267
     0.497872702  0.752127298  0.649889751
     0.749767816  0.999804770  0.651226661
     0.499920905  0.000309651  0.549866127
     0.749867470  0.749867470  0.550218223
     0.500000000  0.250000000  0.450535089
     0.750000000  0.500000000  0.450535089
     0.500000000  0.500000000  0.351605267
     0.750000000  0.250000000  0.351605267
     0.500232182  0.250195235  0.651226637
     0.752127299  0.497872702  0.649889751
     0.500132535  0.500132538  0.550218207
[...]
      8.439337  6.328779 13.891146            0           0           0
      2.108315  0.001931 13.888706            0           0           0
      8.440710  8.440710 11.731698            0           0           0
      2.107632  6.331406 11.729051            0           0           0
      0.000000  2.110246  9.610246            0           0           0
      2.110246  4.220492  9.610246            0           0           0
      0.000000  4.220492  7.500000            0           0           0
      2.110246  2.110246  7.500000            0           0           0
      0.001931  2.108315 13.888706            0           0           0
      2.111894  4.222452 13.891145            0           0           0
      0.002614  4.219825 11.729051            0           0           0
      2.110521  2.110521 11.731698            0           0           0
      4.220492  6.330738  9.610246            0           0           0
      6.330738  0.000000  9.610246            0           0           0
      4.220492  0.000000  7.500000            0           0           0
      6.330738  6.330738  7.500000            0           0           0
      4.202536  6.348695 13.862628            0           0           0
      6.328779  8.439337 13.891146            0           0           0
      4.219825  0.002614 11.729051            0           0           0
      6.329620  6.329620 11.736561            0           0           0
      4.220492  2.110246  9.610246            0           0           0
      6.330738  4.220492  9.610246            0           0           0
      4.220492  4.220492  7.500000            0           0           0
      6.330738  2.110246  7.500000            0           0           0
      4.222452  2.111894 13.891145            0           0           0
      6.348695  4.202536 13.862628            0           0           0
      4.221611  4.221611 11.736561            0           0           0
      6.331406  2.107632 11.729051            0           0           0

[...]

   4 f  =    3.536146 THz    22.218261 2PiTHz  117.953136 cm-1    14.624318 meV
             X         Y         Z           dx          dy          dz
      5.275616  5.275616 16.044991    -0.569616   -0.570008    0.014485
      5.275615  5.275615 17.226026     0.417957    0.418921    0.015375
      0.000000  6.330738  7.500000            0           0           0
      2.110246  0.000000  7.500000            0           0           0
      0.000000  0.000000  9.610246            0           0           0
      2.110246  6.330738  9.610246            0           0           0
      8.436477  6.330221 11.738291            0           0           0
      2.109707  0.000540 11.735520            0           0           0
      0.000053  0.000053 13.843917            0           0           0
      2.100949  6.333845 13.837311            0           0           0
      0.000000  2.110246  7.500000            0           0           0
      2.110246  4.220492  7.500000            0           0           0
      0.000000  4.220492  9.610246            0           0           0
      2.110246  2.110246  9.610246            0           0           0
      0.000540  2.109707 11.735520            0           0           0
      2.114754  4.221010 11.738290            0           0           0
      0.009297  4.217385 13.837311            0           0           0
      2.110194  2.110194 13.843917            0           0           0
      4.220492  6.330738  7.500000            0           0           0
      6.330738  0.000000  7.500000            0           0           0
      4.220492  0.000000  9.610246            0           0           0
      6.330738  6.330738  9.610246            0           0           0
      4.221731  6.329500 11.732141            0           0           0
      6.330221  8.436477 11.738291            0           0           0
      4.217385  0.009297 13.837311            0           0           0
      6.330595  6.330595 13.874894            0           0           0
      4.220492  2.110246  7.500000            0           0           0
      6.330738  4.220492  7.500000            0           0           0
      4.220492  4.220492  9.610246            0           0           0
      6.330738  2.110246  9.610246            0           0           0
      4.221010  2.114754 11.738290            0           0           0
      6.329500  4.221731 11.732141            0           0           0
      4.220635  4.220635 13.874893            0           0           0
      6.333845  2.100949 13.837311            0           0           0
      0.000000  6.330738  9.610246            0           0           0
      2.110246  0.000000  9.610246            0           0           0
      0.000000  0.000000  7.500000            0           0           0
      2.110246  6.330738  7.500000            0           0           0
      8.439337  6.328779 13.891146            0           0           0
      2.108315  0.001931 13.888706            0           0           0
      8.440710  8.440710 11.731698            0           0           0
      2.107632  6.331406 11.729051            0           0           0
      0.000000  2.110246  9.610246            0           0           0
      2.110246  4.220492  9.610246            0           0           0
      0.000000  4.220492  7.500000            0           0           0
      2.110246  2.110246  7.500000            0           0           0
      0.001931  2.108315 13.888706            0           0           0
      2.111894  4.222452 13.891145            0           0           0
      0.002614  4.219825 11.729051            0           0           0
      2.110521  2.110521 11.731698            0           0           0
      4.220492  6.330738  9.610246            0           0           0
      6.330738  0.000000  9.610246            0           0           0
      4.220492  0.000000  7.500000            0           0           0
      6.330738  6.330738  7.500000            0           0           0
      4.202536  6.348695 13.862628            0           0           0
      6.328779  8.439337 13.891146            0           0           0
      4.219825  0.002614 11.729051            0           0           0
      6.329620  6.329620 11.736561            0           0           0
      4.220492  2.110246  9.610246            0           0           0
      6.330738  4.220492  9.610246            0           0           0
      4.220492  4.220492  7.500000            0           0           0
      6.330738  2.110246  7.500000            0           0           0
      4.222452  2.111894 13.891145            0           0           0
      6.348695  4.202536 13.862628            0           0           0
      4.221611  4.221611 11.736561            0           0           0
      6.331406  2.107632 11.729051            0           0           0

   5 f/i=    0.594477 THz     3.735211 2PiTHz   19.829631 cm-1     2.458560 meV
             X         Y         Z           dx          dy          dz
      5.275616  5.275616 16.044991     0.422469    0.414320   -0.000845
      5.275615  5.275615 17.226026     0.585842    0.553756   -0.000861
      0.000000  6.330738  7.500000            0           0           0
      2.110246  0.000000  7.500000            0           0           0
      0.000000  0.000000  9.610246            0           0           0
      2.110246  6.330738  9.610246            0           0           0
      8.436477  6.330221 11.738291            0           0           0
      2.109707  0.000540 11.735520            0           0           0
      0.000053  0.000053 13.843917            0           0           0
      2.100949  6.333845 13.837311            0           0           0
      0.000000  2.110246  7.500000            0           0           0
      2.110246  4.220492  7.500000            0           0           0
      0.000000  4.220492  9.610246            0           0           0
      2.110246  2.110246  9.610246            0           0           0
      0.000540  2.109707 11.735520            0           0           0
      2.114754  4.221010 11.738290            0           0           0
      0.009297  4.217385 13.837311            0           0           0
      2.110194  2.110194 13.843917            0           0           0
      4.220492  6.330738  7.500000            0           0           0
      6.330738  0.000000  7.500000            0           0           0
      4.220492  0.000000  9.610246            0           0           0
      6.330738  6.330738  9.610246            0           0           0
      4.221731  6.329500 11.732141            0           0           0
      6.330221  8.436477 11.738291            0           0           0
      4.217385  0.009297 13.837311            0           0           0
      6.330595  6.330595 13.874894            0           0           0
      4.220492  2.110246  7.500000            0           0           0
      6.330738  4.220492  7.500000            0           0           0
      4.220492  4.220492  9.610246            0           0           0
      6.330738  2.110246  9.610246            0           0           0
      4.221010  2.114754 11.738290            0           0           0
      6.329500  4.221731 11.732141            0           0           0
      4.220635  4.220635 13.874893            0           0           0
      6.333845  2.100949 13.837311            0           0           0
      0.000000  6.330738  9.610246            0           0           0
      2.110246  0.000000  9.610246            0           0           0
      0.000000  0.000000  7.500000            0           0           0
      2.110246  6.330738  7.500000            0           0           0
      8.439337  6.328779 13.891146            0           0           0
      2.108315  0.001931 13.888706            0           0           0
      8.440710  8.440710 11.731698            0           0           0
      2.107632  6.331406 11.729051            0           0           0
      0.000000  2.110246  9.610246            0           0           0
      2.110246  4.220492  9.610246            0           0           0
      0.000000  4.220492  7.500000            0           0           0
      2.110246  2.110246  7.500000            0           0           0
      0.001931  2.108315 13.888706            0           0           0
      2.111894  4.222452 13.891145            0           0           0
      0.002614  4.219825 11.729051            0           0           0
      2.110521  2.110521 11.731698            0           0           0
      4.220492  6.330738  9.610246            0           0           0
      6.330738  0.000000  9.610246            0           0           0
      4.220492  0.000000  7.500000            0           0           0
      6.330738  6.330738  7.500000            0           0           0
      4.202536  6.348695 13.862628            0           0           0
      6.328779  8.439337 13.891146            0           0           0
      4.219825  0.002614 11.729051            0           0           0
      6.329620  6.329620 11.736561            0           0           0
      4.220492  2.110246  9.610246            0           0           0
      6.330738  4.220492  9.610246            0           0           0
      4.220492  4.220492  7.500000            0           0           0
      6.330738  2.110246  7.500000            0           0           0
      4.222452  2.111894 13.891145            0           0           0
      6.348695  4.202536 13.862628            0           0           0
      4.221611  4.221611 11.736561            0           0           0
      6.331406  2.107632 11.729051            0           0           0

   6 f/i=    1.509987 THz     9.487527 2PiTHz   50.367741 cm-1     6.244801 meV
             X         Y         Z           dx          dy          dz
      5.275616  5.275616 16.044991     0.203553   -0.223633    0.003444
      5.275615  5.275615 17.226026     0.660741   -0.686986    0.003649
      0.000000  6.330738  7.500000            0           0           0
      2.110246  0.000000  7.500000            0           0           0
      0.000000  0.000000  9.610246            0           0           0
      2.110246  6.330738  9.610246            0           0           0
      8.436477  6.330221 11.738291            0           0           0
      2.109707  0.000540 11.735520            0           0           0
      0.000053  0.000053 13.843917            0           0           0
      2.100949  6.333845 13.837311            0           0           0
      0.000000  2.110246  7.500000            0           0           0
      2.110246  4.220492  7.500000            0           0           0
      0.000000  4.220492  9.610246            0           0           0
      2.110246  2.110246  9.610246            0           0           0
      0.000540  2.109707 11.735520            0           0           0
      2.114754  4.221010 11.738290            0           0           0
      0.009297  4.217385 13.837311            0           0           0
      2.110194  2.110194 13.843917            0           0           0
      4.220492  6.330738  7.500000            0           0           0
      6.330738  0.000000  7.500000            0           0           0
      4.220492  0.000000  9.610246            0           0           0
      6.330738  6.330738  9.610246            0           0           0
      4.221731  6.329500 11.732141            0           0           0
      6.330221  8.436477 11.738291            0           0           0
      4.217385  0.009297 13.837311            0           0           0
      6.330595  6.330595 13.874894            0           0           0
      4.220492  2.110246  7.500000            0           0           0
      6.330738  4.220492  7.500000            0           0           0
      4.220492  4.220492  9.610246            0           0           0
      6.330738  2.110246  9.610246            0           0           0
      4.221010  2.114754 11.738290            0           0           0
      6.329500  4.221731 11.732141            0           0           0
      4.220635  4.220635 13.874893            0           0           0
      6.333845  2.100949 13.837311            0           0           0
      0.000000  6.330738  9.610246            0           0           0
      2.110246  0.000000  9.610246            0           0           0
      0.000000  0.000000  7.500000            0           0           0
      2.110246  6.330738  7.500000            0           0           0
      8.439337  6.328779 13.891146            0           0           0
      2.108315  0.001931 13.888706            0           0           0
      8.440710  8.440710 11.731698            0           0           0
      2.107632  6.331406 11.729051            0           0           0
      0.000000  2.110246  9.610246            0           0           0
      2.110246  4.220492  9.610246            0           0           0
      0.000000  4.220492  7.500000            0           0           0
      2.110246  2.110246  7.500000            0           0           0
      0.001931  2.108315 13.888706            0           0           0
      2.111894  4.222452 13.891145            0           0           0
      0.002614  4.219825 11.729051            0           0           0
      2.110521  2.110521 11.731698            0           0           0
      4.220492  6.330738  9.610246            0           0           0
      6.330738  0.000000  9.610246            0           0           0
      4.220492  0.000000  7.500000            0           0           0
      6.330738  6.330738  7.500000            0           0           0
      4.202536  6.348695 13.862628            0           0           0
      6.328779  8.439337 13.891146            0           0           0
      4.219825  0.002614 11.729051            0           0           0
      6.329620  6.329620 11.736561            0           0           0
      4.220492  2.110246  9.610246            0           0           0
      6.330738  4.220492  9.610246            0           0           0
      4.220492  4.220492  7.500000            0           0           0
      6.330738  2.110246  7.500000            0           0           0
      4.222452  2.111894 13.891145            0           0           0
      6.348695  4.202536 13.862628            0           0           0
      4.221611  4.221611 11.736561            0           0           0
      6.331406  2.107632 11.729051            0           0           0

 Finite differences POTIM=   1.0000000000000000E-002