 vasp.6.3.0 20Jan22 (build Mar 11 2022 13:48:16) complex

 executed on             LinuxIFC date 2024.02.13  07:46:02

 INCAR:
   SYSTEM = Oxide-Surface
   ISMEAR = 0
   SIGMA = 0.05
   EDIFF = 1E-5
   ALGO = ALL
   ISTART = 0
   IBRION = -1
   NSW = 0
   ISYM = 2
   DIPOL = 0.5 0.5 0.5
   IDIPOL = 3
   LDIPOL = .TRUE.
   METAGGA = R2SCAN
   LUSE_VDW = .TRUE.
   BPARAM = 11.95
   CPARAM = 0.0093
   LASPH = .TRUE.
   ENCUT = 600
   PREC = Accurate
   LASPH = .TRUE.
   LREAL = .FALSE.
   ISPIN = 1
   NELM = 200
   NELMIN = 8
   NCORE = 19
   KPAR = 1
   LWAVE = .FALSE.
   LCHARG = .FALSE.

 POTCAR:    PAW_PBE Mg_pv 13Apr2007
 POTCAR:    PAW_PBE O 08Apr2002
|               ----> ADVICE to this user running VASP <----                  |
|     You have switched on vdW-DFT.                                           |
|     This routine was written and supplied by Jiri Klimes. We recommend      |
|     that you carefully read and cite the following publications:            |
|       J. Klimes, D.R. Bowler, A. Michelides                                 |
|          J. Phys.: Cond Matt. 22 022201 (2010)                              |
|       J. Klimes, D.R. Bowler, A. Michelides                                 |
|          Phys. Rev. B. 83, 195131 (2011)                                    |
|     and references therein.                                                 |

   TITEL  = PAW_PBE Mg_pv 13Apr2007
   POMASS =   24.305; ZVAL   =    8.000    mass and valenz
   ENMAX  =  403.929; ENMIN  =  302.947 eV

   TITEL  = PAW_PBE O 08Apr2002
   POMASS =   16.000; ZVAL   =    6.000    mass and valenz
   ENMAX  =  400.000; ENMIN  =  300.000 eV

  PAW_PBE Mg_pv 13Apr2007               :
  PAW_PBE O 08Apr2002                   :

 POSCAR: Mg  O
  positions in direct lattice

 METAGGA = R2SCA    LMAXTAU =  6    LMIXTAU =  F

 ion  position               nearest neighbor table
   1  0.000  0.750  0.352-  33 2.11  35 2.11  36 2.11  43 2.11  52 2.11
   2  0.250  0.000  0.352-  34 2.11  35 2.11  36 2.11  44 2.11  51 2.11
   3  0.000  0.000  0.451-  35 2.11  34 2.11  33 2.11  41 2.11  50 2.11  39 2.12
   4  0.250  0.750  0.451-  36 2.11  34 2.11  33 2.11  42 2.11  49 2.11  40 2.12
   5  0.000  0.750  0.550-  47 2.11  40 2.11  56 2.11  39 2.11  33 2.12  37 2.16
   6  0.250  1.000  0.550-  55 2.11  48 2.11  40 2.11  39 2.11  34 2.12  38 2.16
   7  0.000  1.000  0.648-  39 2.10  38 2.11  54 2.11  45 2.11  37 2.11
   8  0.250  0.750  0.648-  40 2.09  37 2.11  38 2.11  46 2.11  53 2.11
   9  0.000  0.250  0.352-  41 2.11  35 2.11  43 2.11  44 2.11  60 2.11
  10  0.250  0.500  0.352-  42 2.11  36 2.11  43 2.11  44 2.11  59 2.11
  11  0.000  0.500  0.451-  43 2.11  41 2.11  42 2.11  33 2.11  58 2.11  47 2.11
  12  0.250  0.250  0.451-  44 2.11  41 2.11  42 2.11  34 2.11  57 2.11  48 2.12
  13  1.000  0.250  0.550-  47 2.11  64 2.11  48 2.11  39 2.11  41 2.12  45 2.16
  14  0.251  0.500  0.551-  63 2.10  48 2.11  40 2.11  47 2.12  42 2.13  46 2.15
  15  0.000  0.500  0.648-  62 2.09  46 2.09  47 2.10  45 2.12  37 2.12
  16  0.250  0.250  0.648-  48 2.10  38 2.11  45 2.11  61 2.11  46 2.11
  17  0.500  0.750  0.352-  49 2.11  36 2.11  51 2.11  52 2.11  59 2.11
  18  0.750  0.000  0.352-  50 2.11  35 2.11  51 2.11  52 2.11  60 2.11
  19  0.500  0.000  0.451-  51 2.11  49 2.11  50 2.11  34 2.11  57 2.11  55 2.11
  20  0.750  0.750  0.451-  52 2.11  49 2.11  50 2.11  33 2.11  58 2.11  56 2.12
  21  0.500  0.749  0.551-  63 2.10  56 2.11  40 2.11  55 2.12  49 2.13  53 2.15
  22  0.750  1.000  0.550-  55 2.11  64 2.11  56 2.11  39 2.11  50 2.12  54 2.16
  23  0.500  0.000  0.648-  61 2.09  53 2.09  55 2.10  38 2.12  54 2.12
  24  0.750  0.750  0.648-  56 2.09  37 2.11  54 2.11  62 2.11  53 2.11
  25  0.500  0.250  0.352-  57 2.11  51 2.11  44 2.11  59 2.11  60 2.11
  26  0.750  0.500  0.352-  58 2.11  52 2.11  43 2.11  59 2.11  60 2.11
  27  0.500  0.500  0.451-  59 2.11  49 2.11  57 2.11  58 2.11  42 2.11  63 2.14
  28  0.750  0.250  0.451-  60 2.11  50 2.11  57 2.11  58 2.11  41 2.11  64 2.12
  29  0.500  0.251  0.551-  63 2.10  48 2.11  64 2.11  55 2.12  57 2.13  61 2.14
  30  0.749  0.500  0.551-  63 2.10  64 2.11  56 2.11  47 2.12  58 2.13  62 2.15
  31  0.500  0.499  0.655-  61 2.12  62 2.13  46 2.13  53 2.15  63 2.22
  32  0.750  0.250  0.648-  64 2.10  54 2.11  45 2.11  61 2.11  62 2.11
  33  0.000  0.750  0.451-   1 2.11   3 2.11   4 2.11  11 2.11  20 2.11   5 2.12
  34  0.250  0.000  0.451-   2 2.11   3 2.11   4 2.11  12 2.11  19 2.11   6 2.12
  35  0.000  0.000  0.352-   3 2.11   2 2.11   1 2.11   9 2.11  18 2.11
  36  0.250  0.750  0.352-   4 2.11   2 2.11   1 2.11  10 2.11  17 2.11
  37  1.000  0.750  0.651-   7 2.11  24 2.11   8 2.11  15 2.12   5 2.16
  38  0.249  1.000  0.651-   7 2.11  16 2.11   8 2.11  23 2.12   6 2.16
  39  1.000  1.000  0.550-   7 2.10   5 2.11  22 2.11   6 2.11  13 2.11   3 2.12
  40  0.250  0.750  0.550-   8 2.09   6 2.11   5 2.11  21 2.11  14 2.11   4 2.12
  41  0.000  0.250  0.451-   9 2.11   3 2.11  11 2.11  12 2.11  28 2.11  13 2.12
  42  0.250  0.500  0.451-  10 2.11   4 2.11  11 2.11  12 2.11  27 2.11  14 2.13
  43  0.000  0.500  0.352-  11 2.11   9 2.11  10 2.11   1 2.11  26 2.11
  44  0.250  0.250  0.352-  12 2.11   9 2.11  10 2.11   2 2.11  25 2.11
  45  0.000  0.249  0.651-   7 2.11  32 2.11  16 2.11  15 2.12  13 2.16
  46  0.247  0.500  0.651-  15 2.09   8 2.11  16 2.11  31 2.13  14 2.15
  47  0.000  0.500  0.550-  15 2.10   5 2.11  13 2.11  11 2.11  30 2.12  14 2.12
  48  0.250  0.250  0.550-  16 2.10   6 2.11  13 2.11  14 2.11  29 2.11  12 2.12
  49  0.500  0.750  0.451-  17 2.11   4 2.11  19 2.11  20 2.11  27 2.11  21 2.13
  50  0.750  0.000  0.451-  18 2.11   3 2.11  19 2.11  20 2.11  28 2.11  22 2.12
  51  0.500  0.000  0.352-  19 2.11  17 2.11  18 2.11   2 2.11  25 2.11
  52  0.750  0.750  0.352-  20 2.11  17 2.11  18 2.11   1 2.11  26 2.11
  53  0.500  0.753  0.651-  23 2.09   8 2.11  24 2.11  31 2.15  21 2.15
  54  0.751  1.000  0.651-   7 2.11  32 2.11  24 2.11  23 2.12  22 2.16
  55  0.500  1.000  0.550-  23 2.10  22 2.11   6 2.11  19 2.11  21 2.12  29 2.12
  56  0.750  0.750  0.550-  24 2.09  22 2.11   5 2.11  21 2.11  30 2.11  20 2.12
  57  0.500  0.250  0.451-  25 2.11  19 2.11  12 2.11  27 2.11  28 2.11  29 2.13
  58  0.750  0.500  0.451-  26 2.11  20 2.11  11 2.11  27 2.11  28 2.11  30 2.13
  59  0.500  0.500  0.352-  27 2.11  17 2.11  25 2.11  26 2.11  10 2.11
  60  0.750  0.250  0.352-  28 2.11  18 2.11  25 2.11  26 2.11   9 2.11
  61  0.500  0.247  0.651-  23 2.09  16 2.11  32 2.11  31 2.12  29 2.14
  62  0.753  0.500  0.651-  15 2.09  24 2.11  32 2.11  31 2.13  30 2.15
  63  0.500  0.500  0.551-  21 2.10  14 2.10  30 2.10  29 2.10  27 2.14  31 2.22
  64  0.750  0.250  0.550-  32 2.10  22 2.11  13 2.11  30 2.11  29 2.11  28 2.12

  LATTYP: Found a simple tetragonal cell.
 ALAT       =     8.4409846542
 C/A-ratio  =     2.5270438657

  Lattice vectors:

 A1 = (   8.4409846542,   0.0000000000,   0.0000000000)
 A2 = (   0.0000000000,   8.4409846542,   0.0000000000)
 A3 = (   0.0000000000,   0.0000000000,  21.3307384906)

Analysis of symmetry for initial positions (statically):
 Subroutine PRICEL returns:
 Original cell was already a primitive cell.

 Routine SETGRP: Setting up the symmetry group for a
 simple tetragonal supercell.

 Subroutine GETGRP returns: Found  2 space group operations
 (whereof  2 operations were pure point group operations)
 out of a pool of 16 trial point group operations.

The static configuration has the point symmetry C_1h.

Analysis of symmetry for dynamics (positions and initial velocities):
 Subroutine PRICEL returns:
 Original cell was already a primitive cell.

[...]

The dynamic configuration has the point symmetry C_1h.

Analysis of constrained symmetry for selective dynamics:
 Subroutine PRICEL returns:
 Original cell was already a primitive cell.

 Routine SETGRP: Setting up the symmetry group for a
 simple tetragonal supercell.

 Subroutine GETGRP returns: Found  2 space group operations
 (whereof  2 operations were pure point group operations)
 out of a pool of 16 trial point group operations.

The constrained configuration has the point symmetry C_1h.

 Subroutine INISYM returns: Found  2 space group operations
 (whereof  2 operations are pure point group operations),
 and found     1 'primitive' translations

                                     Primitive cell

  volume of cell :    1519.8199

  direct lattice vectors                    reciprocal lattice vectors
     8.440984654  0.000000000  0.000000000     0.118469591  0.000000000  0.000000000
     0.000000000  8.440984654  0.000000000     0.000000000  0.118469591  0.000000000
     0.000000000  0.000000000 21.330738491     0.000000000  0.000000000  0.046880702

  length of vectors
     8.440984654  8.440984654 21.330738491     0.118469591  0.118469591  0.046880702

  position of ions in fractional coordinates (direct lattice)
     0.000000000  0.750000000  0.351605267
     0.250000000  0.000000000  0.351605267
     0.000000000  0.000000000  0.450535089
     0.250000000  0.750000000  0.450535089
     0.000000002  0.749683926  0.549893410
     0.250263522  0.999989873  0.549908943
     0.000000001  0.999953889  0.648375512
     0.249680169  0.750035883  0.648043586
     0.000000000  0.250000000  0.351605267
     0.250000000  0.500000000  0.351605267
     0.000000000  0.500000000  0.450535089
     0.250000000  0.250000000  0.450535089
     0.999999995  0.250229246  0.549913058
     0.251264402  0.499907421  0.550551274
     0.000000017  0.499888939  0.648188279
     0.249874845  0.249731960  0.648151920
     0.500000000  0.750000000  0.351605267
     0.750000000  0.000000000  0.351605267
     0.500000000  0.000000000  0.450535089
     0.750000000  0.750000000  0.450535089
     0.499999996  0.748689127  0.550582001
     0.749736477  0.999989873  0.549908956
     0.499999995  0.000230885  0.648178485
     0.750319838  0.750035869  0.648043580
     0.500000000  0.250000000  0.351605267
     0.750000000  0.500000000  0.351605267
     0.500000000  0.500000000  0.450535089
     0.750000000  0.250000000  0.450535089
     0.499999999  0.251188744  0.550506166
     0.748735610  0.499907415  0.550551309
     0.500000034  0.498638580  0.654927800
     0.750125161  0.249731957  0.648151929
     0.000000000  0.750000000  0.450535089
     0.250000000  0.000000000  0.450535089
     0.000000000  0.000000000  0.351605267
     0.250000000  0.750000000  0.351605267
     0.999999998  0.750486788  0.651100364
     0.249403677  0.999906086  0.651133405
     0.999999997  0.999932321  0.549747566
     0.249933154  0.750096792  0.549885275
     0.000000000  0.250000000  0.450535089
     0.250000000  0.500000000  0.450535089
     0.000000000  0.500000000  0.351605267
     0.250000000  0.250000000  0.351605267
     0.000000002  0.249363374  0.651160803
     0.247373170  0.499927644  0.651129740
     0.000000005  0.499978499  0.549670801
     0.249818529  0.249801412  0.549853953
     0.500000000  0.750000000  0.450535089
     0.750000000  0.000000000  0.450535089
     0.500000000  0.000000000  0.351605267
     0.750000000  0.750000000  0.351605267
     0.499999996  0.752917707  0.651485348
[...]
   0.50000000  0.25000000  0.45053509
   0.75000000  0.50000000  0.45053509
   0.50000000  0.50000000  0.35160527
   0.75000000  0.25000000  0.35160527
   0.50000000  0.24733049  0.65091848
   0.75262688  0.49992763  0.65112974
   0.50000001  0.50004165  0.55074158
   0.75018147  0.24980140  0.54985396

 position of ions in cartesian coordinates  (Angst):
   0.00000000  6.33073849  7.50000000
   2.11024616  0.00000000  7.50000000
   0.00000000  0.00000000  9.61024616
   2.11024616  6.33073849  9.61024616
   0.00000001  6.32807051 11.72963254
   2.11247055  8.44089918 11.72996386
   0.00000000  8.44059543 13.83032849
   2.10754648  6.33104138 13.82324826
   0.00000000  2.11024616  7.50000000
   2.11024616  4.22049233  7.50000000
   0.00000000  4.22049233  9.61024616
   2.11024616  2.11024616  9.61024616
   8.44098461  2.11218123 11.73005164
   2.12091896  4.21971087 11.74366526
   0.00000015  4.21955487 13.82633468
   2.10918973  2.10798364 13.82555910
   4.22049233  6.33073849  7.50000000
   6.33073849  0.00000000  7.50000000
   4.22049233  0.00000000  9.61024616
   6.33073849  6.33073849  9.61024616
   4.22049230  6.31967343 11.74432068
   6.32851410  8.44089918 11.72996414
   4.22049228  0.00194889 13.82612576
   6.33343824  6.33104126 13.82324815
   4.22049233  2.11024616  7.50000000
   6.33073849  4.22049233  7.50000000
   4.22049233  4.22049233  9.61024616
   6.33073849  2.11024616  9.61024616
   4.22049232  2.12028034 11.74270306
   6.32006580  4.21971082 11.74366600
   4.22049261  4.20900061 13.97009364
   6.33179497  2.10798362 13.82555929
   0.00000000  6.33073849  9.61024616
   2.11024616  0.00000000  9.61024616
   0.00000000  0.00000000  7.50000000
   2.11024616  6.33073849  7.50000000
   8.44098464  6.33484746 13.88845160
   2.10521261  8.44019193 13.88915639
   8.44098463  8.44041337 11.72652157
   2.10968191  6.33155551 11.72945899
   0.00000000  2.11024616  9.61024616
   2.11024616  4.22049233  9.61024616
   0.00000000  4.22049233  7.50000000
   2.11024616  2.11024616  7.50000000
   0.00000002  2.10487242 13.88974081
   2.08807314  4.21988157 13.88907820
   0.00000005  4.22031084 11.72488410
   2.10871437  2.10856989 11.72879088
   4.22049233  6.33073849  9.61024616
   6.33073849  0.00000000  9.61024616
   4.22049233  0.00000000  7.50000000
   6.33073849  6.33073849  7.50000000
   4.22049229  6.35536681 13.89666358
   6.33577203  8.44019186 13.88915676
   4.22049233  8.43989696 11.72497634
   6.33130268  6.33155548 11.72945910
   4.22049233  2.11024616  9.61024616
   6.33073849  4.22049233  9.61024616
   4.22049233  4.22049233  7.50000000
   6.33073849  2.11024616  7.50000000
   4.22049234  2.08771283 13.88457177
   6.35291191  4.21988143 13.88907825
   4.22049237  4.22084386 11.74772465
   6.33227030  2.10856979 11.72879100

--------------------------------------- Iteration      FINAL  ---------------------------------------

--------------------OUTCAR has been truncated-------------------------

[...]

--------------------OUTCAR has been truncated-------------------------

  FORCE on cell =-STRESS in cart. coord.  units (eV):
  Direction    XX          YY          ZZ          XY          YZ          ZX
  Alpha Z   875.25928   875.25928   875.25928
  Ewald  160985.51009160985.71740************     0.00000     0.14875     0.00002
  Hartree171090.05035171090.15292************     0.00000     0.01412     0.00000
  E(xc)   -2654.47022 -2654.47013 -2652.66671     0.00001     0.00082     0.00000
  Local  ************************342328.31137    -0.00000    -0.12328    -0.00002
  n-local -2786.00631 -2786.00304 -2807.53908     0.00000    -0.01147     0.00004
  augment  1177.55125  1177.53871  1168.30666    -0.00000    -0.01870    -0.00000
  Kinetic  7316.91021  7316.91025  7353.58743     0.00028     0.04292     0.00004
  Fock        0.00000     0.00000     0.00000     0.00000     0.00000     0.00000
  Total     -45.54136   -45.54367   -14.62289     0.00000     0.05316     0.00000
  in kB     -48.00920   -48.01164   -15.41529     0.00000     0.05604     0.00000

 VOLUME and BASIS-vectors are now :
  energy-cutoff  :      600.00
  volume of cell :     1519.82
      direct lattice vectors                 reciprocal lattice vectors
     8.440984654  0.000000000  0.000000000     0.118469591  0.000000000  0.000000000
     0.000000000  8.440984654  0.000000000     0.000000000  0.118469591  0.000000000
     0.000000000  0.000000000 21.330738491     0.000000000  0.000000000  0.046880702

  length of vectors
     8.440984654  8.440984654 21.330738491     0.118469591  0.118469591  0.046880702

 FORCES acting on ions:
    Electron-Ion                     Ewald-Force                    Non-Local-Force
   0.283E-05 0.255E+00 0.207E+04   -.634E-05 -.259E+00 -.206E+04   0.197E-21 0.333E-02 -.714E+01
   -.255E+00 0.277E-01 0.207E+04   0.259E+00 -.285E-01 -.206E+04   -.332E-02 0.489E-03 -.714E+01
   0.932E-05 0.598E-01 0.684E+03   -.199E-04 -.583E-01 -.685E+03   -.393E-22 -.111E-02 0.331E+00
   -.144E+01 0.140E+01 0.683E+03   0.149E+01 -.145E+01 -.683E+03   -.381E-01 0.311E-01 0.436E+00
   -.284E-05 0.743E+00 -.687E+03   -.147E-04 -.733E+00 0.687E+03   0.220E-21 0.488E-01 -.940E-01
   -.760E+00 0.338E+00 -.687E+03   0.752E+00 -.341E+00 0.687E+03   -.426E-01 -.963E-03 -.935E-01
   -.834E-05 0.159E+00 -.205E+04   0.151E-04 -.151E+00 0.204E+04   0.256E-21 -.874E-02 0.579E+01
   -.327E+01 0.253E+01 -.204E+04   0.292E+01 -.209E+01 0.204E+04   0.286E+00 -.342E+00 0.581E+01
   0.265E-05 -.255E+00 0.207E+04   -.599E-05 0.259E+00 -.206E+04   -.699E-21 -.330E-02 -.714E+01
   -.328E+00 -.282E-01 0.207E+04   0.337E+00 0.287E-01 -.206E+04   -.691E-02 -.315E-03 -.716E+01
   0.186E-04 -.700E-01 0.683E+03   -.411E-04 0.649E-01 -.684E+03   0.195E-21 0.388E-02 0.305E+00
   -.136E+01 -.141E+01 0.683E+03   0.139E+01 0.145E+01 -.683E+03   -.234E-01 -.285E-01 0.430E+00
   0.927E-05 -.734E+00 -.687E+03   0.784E-05 0.723E+00 0.687E+03   0.188E-20 -.372E-01 -.756E-01
   -.413E+01 -.416E+00 -.695E+03   0.449E+01 0.420E+00 0.695E+03   -.480E+00 0.779E-02 -.233E+00
   -.573E-04 -.159E+00 -.204E+04   0.701E-04 0.148E+00 0.204E+04   -.344E-21 0.101E-01 0.565E+01
   -.167E+01 -.214E+01 -.204E+04   0.115E+01 0.168E+01 0.204E+04   0.396E+00 0.353E+00 0.589E+01
   -.288E-05 0.328E+00 0.207E+04   0.635E-05 -.337E+00 -.206E+04   -.153E-20 0.681E-02 -.717E+01
   0.255E+00 0.277E-01 0.207E+04   -.259E+00 -.285E-01 -.206E+04   0.332E-02 0.489E-03 -.714E+01
   -.991E-05 0.158E+00 0.683E+03   0.217E-04 -.176E+00 -.684E+03   0.460E-21 0.123E-01 0.304E+00
   0.144E+01 0.140E+01 0.683E+03   -.149E+01 -.145E+01 -.683E+03   0.381E-01 0.311E-01 0.436E+00
   0.570E-05 0.436E+01 -.697E+03   0.617E-05 -.471E+01 0.697E+03   0.321E-20 0.474E+00 -.195E+00
   0.760E+00 0.338E+00 -.687E+03   -.752E+00 -.341E+00 0.687E+03   0.426E-01 -.963E-03 -.935E-01
   0.125E-04 0.918E+00 -.204E+04   0.285E-05 -.110E+01 0.204E+04   0.909E-22 0.131E+00 0.562E+01
   0.327E+01 0.253E+01 -.204E+04   -.292E+01 -.209E+01 0.204E+04   -.286E+00 -.342E+00 0.581E+01
   -.274E-05 -.329E+00 0.207E+04   0.614E-05 0.337E+00 -.206E+04   0.920E-22 -.682E-02 -.716E+01
   0.328E+00 -.282E-01 0.207E+04   -.337E+00 0.287E-01 -.206E+04   0.691E-02 -.315E-03 -.716E+01
   -.214E-04 -.170E+00 0.678E+03   0.430E-04 0.183E+00 -.679E+03   -.399E-21 -.993E-02 0.597E+00
   0.136E+01 -.141E+01 0.683E+03   -.139E+01 0.145E+01 -.683E+03   0.234E-01 -.285E-01 0.430E+00
   -.151E-05 -.403E+01 -.693E+03   0.137E-04 0.438E+01 0.693E+03   -.167E-20 -.466E+00 -.234E+00
   0.413E+01 -.416E+00 -.695E+03   -.449E+01 0.420E+00 0.695E+03   0.480E+00 0.779E-02 -.233E+00
   -.306E-04 -.444E+01 -.210E+04   -.702E-04 0.436E+01 0.209E+04   0.109E-22 0.307E+00 0.705E+01
   0.167E+01 -.214E+01 -.204E+04   -.115E+01 0.168E+01 0.204E+04   -.396E+00 0.353E+00 0.589E+01
   0.783E-05 0.623E+00 0.513E+03   -.191E-04 -.627E+00 -.513E+03   -.135E-20 0.662E-02 -.338E-01
   -.627E+00 0.988E-01 0.513E+03   0.634E+00 -.983E-01 -.513E+03   -.106E-01 -.101E-02 -.421E-01
   0.173E-05 0.160E-01 0.155E+04   -.389E-05 -.157E-01 -.156E+04   0.417E-22 -.394E-03 0.342E+01
   -.228E+00 0.224E+00 0.155E+04   0.235E+00 -.230E+00 -.156E+04   -.109E-01 0.888E-02 0.342E+01
   0.856E-05 0.742E+00 -.156E+04   0.240E-04 -.744E+00 0.157E+04   0.773E-21 -.543E-01 -.552E+01
   -.789E+00 0.370E+00 -.156E+04   0.820E+00 -.440E+00 0.157E+04   0.193E-01 0.924E-01 -.552E+01
   0.333E-04 0.487E-01 -.510E+03   -.358E-05 -.501E-01 0.510E+03   -.924E-21 0.451E-02 0.176E+00
   -.212E+01 0.194E+01 -.510E+03   0.208E+01 -.189E+01 0.509E+03   0.628E-01 -.797E-01 0.529E+00
   0.588E-05 -.629E+00 0.513E+03   -.147E-04 0.637E+00 -.513E+03   -.618E-21 -.124E-01 -.437E-01
   -.104E+01 -.109E+00 0.510E+03   0.980E+00 0.114E+00 -.510E+03   0.787E-01 -.606E-02 -.164E+00
   0.268E-05 -.160E-01 0.155E+04   -.584E-05 0.158E-01 -.156E+04   -.981E-21 0.247E-03 0.341E+01
   -.219E+00 -.224E+00 0.155E+04   0.225E+00 0.230E+00 -.156E+04   -.784E-02 -.911E-02 0.342E+01
   -.279E-04 -.744E+00 -.156E+04   0.267E-04 0.749E+00 0.157E+04   0.595E-22 0.512E-01 -.551E+01
   -.665E+01 -.655E+00 -.156E+04   0.643E+01 0.725E+00 0.156E+04   0.558E+00 -.931E-01 -.458E+01
   -.573E-04 -.578E-01 -.508E+03   0.877E-06 0.595E-01 0.507E+03   0.226E-22 -.341E-02 0.495E+00
   -.172E+01 -.189E+01 -.509E+03   0.167E+01 0.184E+01 0.509E+03   0.861E-01 0.817E-01 0.509E+00
   -.853E-05 0.104E+01 0.510E+03   0.188E-04 -.978E+00 -.509E+03   -.768E-21 -.830E-01 -.180E+00
   0.627E+00 0.988E-01 0.513E+03   -.634E+00 -.983E-01 -.513E+03   0.106E-01 -.101E-02 -.421E-01
   -.176E-05 0.250E-01 0.155E+04   0.395E-05 -.267E-01 -.156E+04   0.242E-20 0.236E-02 0.341E+01
   0.228E+00 0.224E+00 0.155E+04   -.235E+00 -.230E+00 -.156E+04   0.109E-01 0.888E-02 0.342E+01
   0.414E-04 0.830E+01 -.156E+04   0.229E-07 -.818E+01 0.156E+04   -.671E-20 -.483E+00 -.474E+01
   0.789E+00 0.370E+00 -.156E+04   -.820E+00 -.440E+00 0.157E+04   -.193E-01 0.924E-01 -.552E+01
   -.492E-05 0.476E+00 -.508E+03   0.132E-04 -.502E+00 0.507E+03   -.240E-20 0.399E-01 0.488E+00
   0.212E+01 0.194E+01 -.510E+03   -.208E+01 -.189E+01 0.509E+03   -.628E-01 -.797E-01 0.529E+00
   -.771E-05 -.105E+01 0.510E+03   0.181E-04 0.990E+00 -.510E+03   -.153E-20 0.756E-01 -.147E+00
   0.104E+01 -.109E+00 0.510E+03   -.980E+00 0.114E+00 -.510E+03   -.787E-01 -.606E-02 -.164E+00
   -.276E-05 -.248E-01 0.155E+04   0.593E-05 0.268E-01 -.156E+04   -.519E-20 -.268E-02 0.340E+01
   0.219E+00 -.224E+00 0.155E+04   -.225E+00 0.230E+00 -.156E+04   0.784E-02 -.911E-02 0.342E+01
   -.905E-05 -.545E+01 -.155E+04   -.241E-04 0.511E+01 0.156E+04   -.296E-20 0.669E+00 -.446E+01
   0.665E+01 -.654E+00 -.156E+04   -.643E+01 0.725E+00 0.156E+04   -.558E+00 -.931E-01 -.458E+01
   -.510E-04 -.736E+00 -.534E+03   0.383E-05 0.767E+00 0.535E+03   -.128E-22 -.460E-01 -.976E+00
   0.172E+01 -.189E+01 -.509E+03   -.167E+01 0.184E+01 0.509E+03   -.861E-01 0.817E-01 0.509E+00
   -.600E-03 -.511E+00 0.184E+02   -.112E-12 0.170E-12 0.699E-11   0.833E-16 0.656E+00 -.194E+02

 POSITION                                       TOTAL-FORCE (eV/Angst)
      0.00000      6.33074      7.50000        -0.000000     -0.003198      0.558275
      2.11025      0.00000      7.50000         0.001142     -0.002547      0.558854
      0.00000      0.00000      9.61025        -0.000000     -0.001814     -0.024148
      2.11025      6.33074      9.61025         0.015887     -0.015282     -0.023429
      0.00000      6.32807     11.72963        -0.000000      0.056555      0.075352
      2.11247      8.44090     11.72996        -0.050860     -0.005641      0.078268
      0.00000      8.44060     13.83033        -0.000000     -0.002784     -0.061042
      2.10755      6.33104     13.82325        -0.060419      0.096496     -0.092345
      0.00000      2.11025      7.50000        -0.000000     -0.001578      0.559018
      2.11025      4.22049      7.50000         0.002026     -0.002066      0.562979
      0.00000      4.22049      9.61025        -0.000000     -0.003413     -0.008812
      2.11025      2.11025      9.61025         0.009879      0.009168     -0.027360
      8.44098      2.11218     11.73005        -0.000000     -0.050712      0.076247
      2.12092      4.21971     11.74367        -0.123238      0.009276     -0.010147
      0.00000      4.21955     13.82633        -0.000000     -0.003012     -0.067931
      2.10919      2.10798     13.82556        -0.123556     -0.106552     -0.121303
      4.22049      6.33074      7.50000        -0.000000     -0.004187      0.564222
      6.33074      0.00000      7.50000        -0.001142     -0.002547      0.558854
      4.22049      0.00000      9.61025        -0.000000     -0.007531     -0.008283
      6.33074      6.33074      9.61025        -0.015887     -0.015282     -0.023429
      4.22049      6.31967     11.74432        -0.000000      0.122171      0.016888
      6.32851      8.44090     11.72996         0.050860     -0.005641      0.078268
      4.22049      0.00195     13.82613        -0.000000     -0.051162     -0.063085
      6.33344      6.33104     13.82325         0.060419      0.096496     -0.092345
      4.22049      2.11025      7.50000        -0.000000     -0.000628      0.562061
      6.33074      4.22049      7.50000        -0.002026     -0.002066      0.562979
      4.22049      4.22049      9.61025        -0.000000      0.000839      0.003546
      6.33074      2.11025      9.61025        -0.009879      0.009168     -0.027360
      4.22049      2.12028     11.74270        -0.000000     -0.126589     -0.024883
      6.32007      4.21971     11.74367         0.123238      0.009276     -0.010147
      4.22049      4.20900     13.97009        -0.000000      0.222355     -0.936817
      6.33179      2.10798     13.82556         0.123556     -0.106552     -0.121303
      0.00000      6.33074      9.61025        -0.000000      0.000456      0.081674
      2.11025      0.00000      9.61025        -0.003593     -0.002748      0.080906
      0.00000      0.00000      7.50000        -0.000000     -0.002425     -0.331958
      2.11025      6.33074      7.50000        -0.003153      0.000208     -0.334162
      8.44098      6.33485     13.88845        -0.000000     -0.058303     -0.291893
      2.10521      8.44019     13.88916         0.049972      0.019856     -0.294028
      8.44098      8.44041     11.72652        -0.000000      0.000852     -0.013445
      2.10968      6.33156     11.72946         0.020804     -0.031547      0.019048
      0.00000      2.11025      9.61025        -0.000000     -0.006437      0.080768
      2.11025      4.22049      9.61025         0.018817     -0.003572      0.106880
      0.00000      4.22049      7.50000        -0.000000     -0.002257     -0.334363
      2.11025      2.11025      7.50000        -0.002196     -0.004801     -0.333739
      0.00000      2.10487     13.88974        -0.000000      0.053977     -0.292157
      2.08807      4.21988     13.88908         0.338839     -0.024714     -0.048767
      0.00000      4.22031     11.72488        -0.000000     -0.003991      0.058704
      2.10871      2.10857     11.72879         0.033213      0.028493      0.029521
      4.22049      6.33074      9.61025        -0.000000     -0.022254      0.105027
      6.33074      0.00000      9.61025         0.003593     -0.002748      0.080906
      4.22049      0.00000      7.50000        -0.000000     -0.001600     -0.334346
      6.33074      6.33074      7.50000         0.003153      0.000208     -0.334162
      4.22049      6.35537     13.89666        -0.000000     -0.371539     -0.102106
      6.33577      8.44019     13.88916        -0.049972      0.019856     -0.294028
      4.22049      8.43990     11.72498        -0.000000      0.011620      0.055328
      6.33130      6.33156     11.72946        -0.020804     -0.031547      0.019048
      4.22049      2.11025      9.61025        -0.000000      0.015792      0.108016
      6.33074      4.22049      9.61025        -0.018817     -0.003572      0.106880
      4.22049      4.22049      7.50000        -0.000000     -0.003033     -0.338398
      6.33074      2.11025      7.50000         0.002196     -0.004801     -0.333739
      4.22049      2.08771     13.88457        -0.000000      0.333800     -0.014363
      6.35291      4.21988     13.88908        -0.338839     -0.024714     -0.048767
      4.22049      4.22084     11.74772        -0.000000     -0.018024      0.040554
      6.33227      2.10857     11.72879        -0.033213      0.028493      0.029521
    total drift:                               -0.000600      0.144976     -0.999413

  FREE ENERGIE OF THE ION-ELECTRON SYSTEM (eV)
  free  energy   TOTEN  =      -491.13881715 eV

  energy  without entropy=     -491.13881715  energy(sigma->0) =     -491.13881715