 vasp.6.3.0 20Jan22 (build Apr  1 2022 16:44:48) complex
 executed on        HPECrayEX_GCC date 2022.11.03  12:19:56

 INCAR:
   SYSTEM = MgO-rocksalt
   ISMEAR = 0
   SIGMA = 0.05
   EDIFF = 1E-7
   ALGO = ALL
   ISTART = 0
   IBRION = 2
   NSW = 1000
   ISYM = 0
   ISIF = 2
   EDIFFG = -0.01
   DIPOL = 0.5 0.5 0.5
   IDIPOL = 3
   LDIPOL = .TRUE.
   GGA = MK
   LUSE_VDW = .TRUE.
   PARAM1 = 0.1234
   PARAM2 = 0.711357
   ZAB_VDW = -1.8867
   AGGAC = 0.0
   ENCUT = 600
   PREC = Accurate
   LASPH = .TRUE.
   LREAL = .FALSE.
   ISPIN = 1
   NELM = 200
   NELMIN = 8
   NCORE = 8
   KPAR = 1
   LWAVE = .FALSE.
   LCHARG = .FALSE.

 POTCAR:    PAW_PBE C 08Apr2002
 POTCAR:    PAW_PBE H 15Jun2001
 POTCAR:    PAW_PBE Mg_pv 13Apr2007
 POTCAR:    PAW_PBE O 08Apr2002
|               ----> ADVICE to this user running VASP <----                  |
|     You have switched on vdW-DFT.                                           |
|     This routine was written and supplied by Jiri Klimes. We recommend      |
|     that you carefully read and cite the following publications:            |
|       J. Klimes, D.R. Bowler, A. Michelides                                 |
|          J. Phys.: Cond Matt. 22 022201 (2010)                              |
|       J. Klimes, D.R. Bowler, A. Michelides                                 |
|          Phys. Rev. B. 83, 195131 (2011)                                    |
|     and references therein.                                                 |

   TITEL  = PAW_PBE C 08Apr2002
   POMASS =   12.011; ZVAL   =    4.000    mass and valenz
   ENMAX  =  400.000; ENMIN  =  300.000 eV

   TITEL  = PAW_PBE H 15Jun2001
   POMASS =    1.000; ZVAL   =    1.000    mass and valenz
   ENMAX  =  250.000; ENMIN  =  200.000 eV

   TITEL  = PAW_PBE Mg_pv 13Apr2007
   POMASS =   24.305; ZVAL   =    8.000    mass and valenz
   ENMAX  =  403.929; ENMIN  =  302.947 eV

   TITEL  = PAW_PBE O 08Apr2002
   POMASS =   16.000; ZVAL   =    6.000    mass and valenz
   ENMAX  =  400.000; ENMIN  =  300.000 eV

  PAW_PBE C 08Apr2002                   :
  PAW_PBE H 15Jun2001                   :
  PAW_PBE Mg_pv 13Apr2007               :
  PAW_PBE O 08Apr2002                   :

 POSCAR:  C  H Mg  O
  positions in direct lattice
 exchange correlation table for  LEXCH =       43
   RHO(1)=    0.500       N(1)  =     2000
   RHO(2)=  100.500       N(2)  =     4000

 ion  position               nearest neighbor table
   1  0.445  0.498  0.795-  11 1.10  10 1.10   9 1.10   2 1.53
   2  0.281  0.453  0.819-  14 1.10  13 1.10  12 1.10   1 1.53
   3  0.445  0.998  0.795-  17 1.10  16 1.10  15 1.10   4 1.53
   4  0.281  0.953  0.819-  20 1.10  19 1.10  18 1.10   3 1.53
   5  0.790  0.748  0.795-  23 1.10  22 1.10  21 1.10   6 1.53
   6  0.955  0.705  0.819-  26 1.10  25 1.10  24 1.10   5 1.53
   7  0.790  0.248  0.795-  29 1.10  28 1.10  27 1.10   8 1.53
   8  0.955  0.205  0.819-  32 1.10  31 1.10  30 1.10   7 1.53
   9  0.440  0.605  0.765-   1 1.10
  10  0.498  0.401  0.767-   1 1.10
  11  0.528  0.524  0.833-   1 1.10
  12  0.200  0.427  0.779-   2 1.10
  13  0.228  0.549  0.847-   2 1.10
  14  0.286  0.346  0.849-   2 1.10
  15  0.440  0.105  0.765-   3 1.10
  16  0.498  0.901  0.767-   3 1.10
  17  0.528  0.024  0.833-   3 1.10
  18  0.200  0.927  0.779-   4 1.10
  19  0.228  0.049  0.847-   4 1.10
  20  0.286  0.846  0.849-   4 1.10
  21  0.741  0.652  0.765-   5 1.10
  22  0.793  0.858  0.767-   5 1.10
  23  0.705  0.767  0.833-   5 1.10
  24  0.037  0.687  0.779-   6 1.10
  25  0.953  0.596  0.847-   6 1.10
  26  0.004  0.800  0.849-   6 1.10
  27  0.741  0.152  0.765-   7 1.10
  28  0.793  0.358  0.767-   7 1.10
  29  0.705  0.267  0.833-   7 1.10
  30  0.037  0.187  0.779-   8 1.10
  31  0.953  0.096  0.847-   8 1.10
  32  0.004  0.300  0.849-   8 1.10
  33  0.250  0.000  0.352-  65 2.11  67 2.11  68 2.11  75 2.11  84 2.11
  34  0.500  0.250  0.352-  66 2.11  67 2.11  68 2.11  76 2.11  83 2.11
  35  0.250  0.250  0.451-  67 2.11  66 2.11  65 2.11  73 2.11  82 2.11  71 2.11
  36  0.500  0.000  0.451-  68 2.11  66 2.11  65 2.11  74 2.11  81 2.11  72 2.11
  37  0.250  1.000  0.550-  79 2.11  71 2.11  72 2.11  88 2.11  65 2.12  69 2.14
  38  0.500  0.250  0.550-  80 2.11  71 2.11  87 2.11  72 2.11  66 2.12  70 2.14
  39  0.250  0.250  0.648-  71 2.10  86 2.11  77 2.11  69 2.11  70 2.11
  40  0.500  1.000  0.648-  72 2.10  78 2.11  70 2.11  69 2.11  85 2.11
  41  0.250  0.500  0.352-  73 2.11  67 2.11  75 2.11  76 2.11  92 2.11
  42  0.500  0.750  0.352-  74 2.11  68 2.11  75 2.11  76 2.11  91 2.11
  43  0.250  0.750  0.451-  75 2.11  73 2.11  74 2.11  65 2.11  90 2.11  79 2.11
  44  0.500  0.500  0.451-  76 2.11  73 2.11  74 2.11  66 2.11  89 2.11  80 2.12
  45  0.250  0.500  0.550-  80 2.11  79 2.11  71 2.11  96 2.11  73 2.12  77 2.13
  46  0.500  0.750  0.550-  80 2.11  79 2.11  95 2.11  72 2.11  74 2.12  78 2.14
  47  0.250  0.750  0.648-  79 2.10  94 2.11  77 2.11  69 2.11  78 2.11
  48  0.500  0.500  0.649-  77 2.11  78 2.11  80 2.11  70 2.11  93 2.11
  49  0.750  0.000  0.352-  81 2.11  68 2.11  83 2.11  84 2.11  91 2.11
  50  0.000  0.250  0.352-  82 2.11  67 2.11  83 2.11  84 2.11  92 2.11
  51  0.750  0.250  0.451-  83 2.11  81 2.11  82 2.11  66 2.11  89 2.11  87 2.12
  52  0.000  0.000  0.451-  84 2.11  81 2.11  82 2.11  65 2.11  90 2.11  88 2.12
  53  0.750  1.000  0.550-  95 2.11  87 2.11  72 2.11  88 2.11  81 2.12  85 2.14
  54  1.000  0.250  0.550-  87 2.11  71 2.11  96 2.11  88 2.11  82 2.12  86 2.14
  55  0.750  0.250  0.648-  87 2.10  86 2.11  85 2.11  93 2.11  70 2.11
  56  1.000  1.000  0.648-  88 2.10  69 2.11  85 2.11  94 2.11  86 2.11
  57  0.750  0.500  0.352-  89 2.11  83 2.11  76 2.11  91 2.11  92 2.11
  58  0.000  0.750  0.352-  90 2.11  84 2.11  75 2.11  91 2.11  92 2.11
  59  0.750  0.750  0.451-  91 2.11  81 2.11  89 2.11  90 2.11  74 2.11  95 2.12
  60  0.000  0.500  0.451-  92 2.11  82 2.11  89 2.11  90 2.11  73 2.11  96 2.11
[...]
  82  0.000  0.250  0.451-  50 2.11  35 2.11  51 2.11  52 2.11  60 2.11  54 2.12
  83  0.750  0.250  0.352-  51 2.11  49 2.11  50 2.11  34 2.11  57 2.11
  84  0.000  0.000  0.352-  52 2.11  49 2.11  50 2.11  33 2.11  58 2.11
  85  0.750  1.000  0.650-  63 2.11  55 2.11  56 2.11  40 2.11  53 2.14
  86  1.000  0.250  0.650-  55 2.11  39 2.11  56 2.11  64 2.11  54 2.14
  87  0.750  0.250  0.550-  55 2.10  53 2.11  54 2.11  38 2.11  61 2.11  51 2.12
  88  1.000  1.000  0.550-  56 2.10  53 2.11  54 2.11  62 2.11  37 2.11  52 2.12
  89  0.750  0.500  0.451-  57 2.11  51 2.11  44 2.11  59 2.11  60 2.11  61 2.12
  90  0.000  0.750  0.451-  58 2.11  52 2.11  43 2.11  59 2.11  60 2.11  62 2.12
  91  0.750  0.750  0.352-  59 2.11  49 2.11  57 2.11  58 2.11  42 2.11
  92  0.000  0.500  0.352-  60 2.11  50 2.11  57 2.11  58 2.11  41 2.11
  93  0.750  0.500  0.650-  64 2.11  63 2.11  55 2.11  48 2.11  61 2.13
  94  1.000  0.750  0.650-  63 2.11  47 2.11  56 2.11  64 2.11  62 2.14
  95  0.750  0.750  0.550-  63 2.10  53 2.11  62 2.11  46 2.11  61 2.11  59 2.12
  96  1.000  0.500  0.550-  64 2.10  62 2.11  54 2.11  61 2.11  45 2.11  60 2.11

IMPORTANT INFORMATION: All symmetrisations will be switched off!
NOSYMM: (Re-)initialisation of all symmetry stuff for point group C_1.

                                     Primitive cell

  volume of cell :    1519.6535

  direct lattice vectors                    reciprocal lattice vectors
     8.440582262  0.000000000  0.000000000     0.118475239  0.000000000  0.000000000
     0.000000000  8.440582262  0.000000000     0.000000000  0.118475239  0.000000000
     0.000000000  0.000000000 21.330436697     0.000000000  0.000000000  0.046881366

  length of vectors
     8.440582262  8.440582262 21.330436697     0.118475239  0.118475239  0.046881366

  position of ions in fractional coordinates (direct lattice)
     0.445142711  0.498047665  0.794798397
     0.280766538  0.452518117  0.818794988
     0.445142711  0.998047665  0.794798397
     0.280766538  0.952518117  0.818794988
     0.789922902  0.748047665  0.794798397
     0.955041617  0.705289325  0.818794988
     0.789922902  0.248047665  0.794798397
     0.955041617  0.205289325  0.818794988
     0.439804522  0.605480391  0.765345584
     0.497859449  0.401279751  0.766927280
     0.527961297  0.523597917  0.833380412
     0.200400461  0.427081039  0.779373156
     0.227769862  0.548630460  0.846661794
     0.285663177  0.346353986  0.848690002
     0.439804522  0.105480391  0.765345584
     0.497859449  0.901279751  0.766927280
     0.527961297  0.023597917  0.833380412
     0.200400461  0.927081039  0.779373156
     0.227769862  0.048630460  0.846661794
     0.285663177  0.846353986  0.848690002
     0.740829546  0.652339102  0.765345584
     0.792652825  0.858209507  0.766927280
     0.705424776  0.767329792  0.833380412
     0.037359221  0.687135441  0.779373156
     0.952881913  0.595555256  0.846661794
     0.003883070  0.799678479  0.848690002
     0.740829546  0.152339102  0.765345584
     0.792652825  0.358209507  0.766927280
     0.705424776  0.267329792  0.833380412
     0.037359221  0.187135441  0.779373156
     0.952881913  0.095555256  0.846661794
     0.003883070  0.299678479  0.848690002
     0.250000000  0.000000000  0.351610242
     0.500000000  0.250000000  0.351610242
     0.250000000  0.250000000  0.450536747
     0.500000000  0.000000000  0.450536747
     0.249992469  0.999974351  0.549929460
     0.499953957  0.250089597  0.550002066
     0.249718399  0.249966388  0.648217346
     0.499911900  0.999956252  0.648258541
     0.250000000  0.500000000  0.351610242
     0.500000000  0.750000000  0.351610242
     0.250000000  0.750000000  0.450536747
     0.500000000  0.500000000  0.450536747
     0.250070990  0.499977201  0.549983004
     0.499951848  0.749866243  0.550000826
     0.249721303  0.749962621  0.648221060
     0.499709817  0.500000008  0.648873437
     0.750000000  0.000000000  0.351610242
     0.000000000  0.250000000  0.351610242
     0.750000000  0.250000000  0.450536747
     0.000000000  0.000000000  0.450536747
     0.749931764  0.999975568  0.549928651
     0.999953056  0.250005689  0.549911292
     0.750073618  0.249869391  0.648228464
     0.999940077  0.999963903  0.648358219
     0.750000000  0.500000000  0.351610242
     0.000000000  0.750000000  0.351610242
     0.750000000  0.750000000  0.450536747
     0.000000000  0.500000000  0.450536747
[...]
     0.000000000  0.250000000  0.450536747
     0.750000000  0.250000000  0.351610242
     0.000000000  0.000000000  0.351610242
     0.749981783  0.999966642  0.650219781
     0.999892264  0.249954198  0.650192382
     0.749988765  0.249894573  0.549693168
     0.999951079  0.999976164  0.549703375
     0.750000000  0.500000000  0.450536747
     0.000000000  0.750000000  0.450536747
     0.750000000  0.750000000  0.351610242
     0.000000000  0.500000000  0.351610242
     0.750154112  0.499973768  0.650085336
     0.999888522  0.749975860  0.650199081
     0.749983073  0.750062992  0.549695204
     0.999924450  0.499979830  0.549631154

  ion indices of the primitive-cell ions
   primitive index   ion index
                 1           1
                 2           2
[...]
   6.33043670  6.33043670  7.50000000
   0.00000000  4.22029113  7.50000000
   6.33173749  4.22006972 13.86660412
   8.43964132  6.33023294 13.86903033
   6.33029382  6.33096838 11.72523875
   8.43994457  4.22012089 11.72387254

--------------------------------------- Iteration      FINAL  ---------------------------------------

--------------------OUTCAR has been truncated-------------------------

[...]

--------------------OUTCAR has been truncated-------------------------

  FORCE on cell =-STRESS in cart. coord.  units (eV):
  Direction    XX          YY          ZZ          XY          YZ          ZX
  Alpha Z  1058.65437  1058.65437  1058.65437
  Ewald  143949.72400143821.85061************     0.05730   -51.80013    -0.06143
  Hartree154867.40406154789.65166************     0.03207   -33.62028     0.01249
  E(xc)   -2651.15732 -2650.65139 -2650.64006     0.00018     0.15675    -0.00014
  Local  ************************308392.28401    -0.08143    89.05839     0.02990
  n-local -2934.12201 -2936.50418 -2955.86017    -0.00001    -0.75141    -0.00180
  augment  1051.77680  1051.64321  1042.47128    -0.00010    -0.03890     0.00092
  Kinetic  8050.35140  8040.40330  8075.77491    -0.00951    -3.19336     0.03910
  Fock        0.00000     0.00000     0.00000     0.00000     0.00000     0.00000
  Total     -28.53749   -29.14726    -2.71467    -0.00152    -0.18894     0.01906
  in kB     -30.08720   -30.73008    -2.86209    -0.00160    -0.19920     0.02009

 VOLUME and BASIS-vectors are now :
  energy-cutoff  :      600.00
  volume of cell :     1519.65
      direct lattice vectors                 reciprocal lattice vectors
     8.440582262  0.000000000  0.000000000     0.118475239  0.000000000  0.000000000
     0.000000000  8.440582262  0.000000000     0.000000000  0.118475239  0.000000000
     0.000000000  0.000000000 21.330436697     0.000000000  0.000000000  0.046881366

  length of vectors
     8.440582262  8.440582262 21.330436697     0.118475239  0.118475239  0.046881366

 FORCES acting on ions:
    Electron-Ion                     Ewald-Force                    Non-Local-Force
   -.367E+02 -.220E+02 -.880E+03   0.365E+02 0.220E+02 0.880E+03   0.106E+00 -.820E-01 -.891E-01
   0.401E+02 0.219E+02 -.858E+03   -.403E+02 -.219E+02 0.858E+03   0.130E+00 0.233E-01 0.516E-01
   -.367E+02 -.220E+02 -.880E+03   0.365E+02 0.220E+02 0.880E+03   0.106E+00 -.816E-01 -.888E-01
   0.401E+02 0.219E+02 -.858E+03   -.403E+02 -.220E+02 0.858E+03   0.130E+00 0.241E-01 0.500E-01
   0.366E+02 -.219E+02 -.880E+03   -.365E+02 0.220E+02 0.880E+03   -.103E+00 -.733E-01 -.926E-01
   -.402E+02 0.219E+02 -.858E+03   0.403E+02 -.220E+02 0.858E+03   -.132E+00 0.271E-01 0.501E-01
   0.366E+02 -.220E+02 -.880E+03   -.365E+02 0.220E+02 0.880E+03   -.103E+00 -.730E-01 -.927E-01
   -.402E+02 0.219E+02 -.858E+03   0.403E+02 -.220E+02 0.858E+03   -.132E+00 0.268E-01 0.511E-01
   0.890E+01 -.381E+02 -.211E+03   -.101E+02 0.427E+02 0.208E+03   0.124E+01 -.456E+01 0.282E+01
   -.247E+02 0.256E+02 -.211E+03   0.276E+02 -.290E+02 0.208E+03   -.287E+01 0.341E+01 0.317E+01
   -.305E+02 -.138E+02 -.240E+03   0.339E+02 0.153E+02 0.244E+03   -.339E+01 -.153E+01 -.405E+01
   0.314E+02 0.129E+02 -.195E+03   -.348E+02 -.143E+02 0.190E+03   0.340E+01 0.136E+01 0.407E+01
   0.254E+02 -.249E+02 -.224E+03   -.282E+02 0.282E+02 0.227E+03   0.287E+01 -.326E+01 -.340E+01
   -.778E+01 0.385E+02 -.223E+03   0.900E+01 -.431E+02 0.226E+03   -.122E+01 0.460E+01 -.277E+01
   0.891E+01 -.381E+02 -.211E+03   -.101E+02 0.427E+02 0.208E+03   0.124E+01 -.456E+01 0.282E+01
   -.247E+02 0.256E+02 -.211E+03   0.276E+02 -.290E+02 0.208E+03   -.287E+01 0.341E+01 0.317E+01
   -.305E+02 -.138E+02 -.240E+03   0.339E+02 0.153E+02 0.244E+03   -.339E+01 -.154E+01 -.405E+01
   0.314E+02 0.129E+02 -.195E+03   -.348E+02 -.143E+02 0.190E+03   0.340E+01 0.136E+01 0.407E+01
   0.254E+02 -.249E+02 -.224E+03   -.282E+02 0.282E+02 0.227E+03   0.287E+01 -.326E+01 -.339E+01
   -.778E+01 0.385E+02 -.223E+03   0.900E+01 -.431E+02 0.226E+03   -.122E+01 0.460E+01 -.277E+01
   0.248E+02 0.256E+02 -.211E+03   -.276E+02 -.290E+02 0.208E+03   0.287E+01 0.341E+01 0.318E+01
   -.891E+01 -.381E+02 -.211E+03   0.102E+02 0.427E+02 0.208E+03   -.124E+01 -.457E+01 0.281E+01
   0.305E+02 -.138E+02 -.240E+03   -.339E+02 0.153E+02 0.244E+03   0.340E+01 -.153E+01 -.405E+01
   -.315E+02 0.128E+02 -.195E+03   0.349E+02 -.141E+02 0.191E+03   -.341E+01 0.134E+01 0.407E+01
   0.779E+01 0.386E+02 -.223E+03   -.900E+01 -.432E+02 0.226E+03   0.122E+01 0.461E+01 -.276E+01
   -.253E+02 -.249E+02 -.224E+03   0.281E+02 0.281E+02 0.227E+03   -.286E+01 -.326E+01 -.341E+01
   0.248E+02 0.256E+02 -.211E+03   -.276E+02 -.290E+02 0.208E+03   0.287E+01 0.341E+01 0.318E+01
   -.891E+01 -.381E+02 -.211E+03   0.102E+02 0.427E+02 0.208E+03   -.124E+01 -.457E+01 0.281E+01
   0.305E+02 -.138E+02 -.240E+03   -.339E+02 0.153E+02 0.244E+03   0.340E+01 -.153E+01 -.405E+01
   -.315E+02 0.128E+02 -.195E+03   0.349E+02 -.141E+02 0.191E+03   -.341E+01 0.134E+01 0.407E+01
   0.778E+01 0.386E+02 -.223E+03   -.900E+01 -.432E+02 0.226E+03   0.122E+01 0.461E+01 -.276E+01
   -.253E+02 -.249E+02 -.224E+03   0.281E+02 0.281E+02 0.227E+03   -.286E+01 -.326E+01 -.341E+01
   -.632E-01 0.361E-03 0.212E+04   0.652E-01 -.243E-03 -.211E+04   -.146E-02 -.966E-04 -.679E+01
   -.747E-01 -.541E-02 0.212E+04   0.769E-01 0.565E-02 -.211E+04   -.169E-02 -.176E-03 -.680E+01
   -.177E+00 -.151E-01 0.846E+03   0.195E+00 0.179E-01 -.846E+03   -.126E-01 -.188E-02 0.407E+00
   -.258E+00 0.137E-02 0.845E+03   0.275E+00 0.730E-04 -.846E+03   -.117E-01 -.977E-03 0.475E+00
   0.967E+00 -.564E-02 -.416E+03   -.915E+00 0.764E-02 0.416E+03   -.565E-01 -.213E-02 -.247E+00
   0.467E+00 -.221E-01 -.416E+03   -.414E+00 0.230E-01 0.417E+03   -.511E-01 -.232E-03 -.287E+00
   0.728E+01 0.113E+01 -.168E+04   -.739E+01 -.114E+01 0.167E+04   0.110E+00 0.115E-01 0.596E+01
   0.162E+01 -.934E+00 -.166E+04   -.167E+01 0.961E+00 0.166E+04   0.425E-01 -.268E-01 0.585E+01
   -.652E-01 -.466E-04 0.212E+04   0.671E-01 0.143E-03 -.211E+04   -.149E-02 -.809E-04 -.679E+01
   -.747E-01 0.566E-02 0.212E+04   0.769E-01 -.576E-02 -.211E+04   -.168E-02 0.730E-04 -.680E+01
   -.175E+00 0.219E-01 0.846E+03   0.192E+00 -.208E-01 -.846E+03   -.124E-01 -.725E-03 0.408E+00
   -.273E+00 0.188E-02 0.845E+03   0.290E+00 -.100E-02 -.846E+03   -.119E-01 -.569E-03 0.478E+00
   0.973E+00 -.140E-01 -.416E+03   -.922E+00 0.158E-01 0.416E+03   -.554E-01 -.192E-02 -.252E+00
   0.463E+00 0.371E-01 -.416E+03   -.410E+00 -.340E-01 0.417E+03   -.507E-01 -.289E-02 -.287E+00
   0.729E+01 0.127E+01 -.168E+04   -.740E+01 -.128E+01 0.167E+04   0.110E+00 0.383E-02 0.596E+01
   0.159E+01 -.935E+00 -.166E+04   -.164E+01 0.963E+00 0.166E+04   0.437E-01 -.269E-01 0.585E+01
   0.654E-01 0.225E-03 0.212E+04   -.675E-01 -.154E-03 -.211E+04   0.155E-02 -.545E-04 -.680E+01
   0.726E-01 -.339E-02 0.212E+04   -.747E-01 0.365E-02 -.211E+04   0.154E-02 -.196E-03 -.679E+01
   0.237E+00 -.281E-01 0.845E+03   -.252E+00 0.303E-01 -.846E+03   0.104E-01 -.150E-02 0.481E+00
   0.202E+00 0.611E-02 0.846E+03   -.220E+00 -.402E-02 -.846E+03   0.132E-01 -.139E-02 0.413E+00
   -.518E+00 0.371E-02 -.416E+03   0.468E+00 -.118E-02 0.417E+03   0.474E-01 -.159E-02 -.275E+00
   -.923E+00 -.420E-01 -.416E+03   0.866E+00 0.431E-01 0.417E+03   0.618E-01 -.141E-02 -.235E+00
   -.180E+01 -.106E+01 -.166E+04   0.184E+01 0.108E+01 0.166E+04   -.418E-01 -.221E-01 0.585E+01
   -.716E+01 0.119E+01 -.168E+04   0.727E+01 -.119E+01 0.167E+04   -.114E+00 0.817E-02 0.595E+01
   0.674E-01 -.149E-03 0.212E+04   -.695E-01 0.190E-03 -.211E+04   0.158E-02 -.332E-04 -.680E+01
   0.726E-01 0.378E-02 0.212E+04   -.746E-01 -.380E-02 -.211E+04   0.153E-02 0.206E-05 -.679E+01
   0.234E+00 0.346E-01 0.845E+03   -.249E+00 -.348E-01 -.846E+03   0.101E-01 0.124E-03 0.481E+00
   0.215E+00 0.145E-02 0.846E+03   -.234E+00 0.786E-03 -.846E+03   0.133E-01 -.148E-02 0.410E+00
[...]
   0.504E-01 -.412E-02 0.159E+04   -.527E-01 0.428E-02 -.159E+04   0.313E-02 -.219E-03 0.360E+01
   0.544E-01 0.132E-03 0.159E+04   -.565E-01 -.223E-03 -.159E+04   0.301E-02 0.133E-03 0.361E+01
   -.356E+01 0.670E+00 -.127E+04   0.348E+01 -.649E+00 0.127E+04   0.783E-01 -.195E-01 -.494E+01
   -.802E+01 -.104E+01 -.127E+04   0.791E+01 0.103E+01 0.128E+04   0.106E+00 0.939E-02 -.499E+01
   -.275E+00 -.276E-01 -.308E+03   0.269E+00 0.262E-01 0.308E+03   0.555E-02 0.240E-02 0.202E+00
   -.586E+00 0.105E-01 -.306E+03   0.600E+00 -.108E-01 0.306E+03   -.144E-01 0.581E-03 0.384E+00
   0.149E+00 0.115E-02 0.633E+03   -.138E+00 -.239E-02 -.633E+03   -.148E-01 0.165E-02 -.105E+00
   0.127E+00 0.116E-01 0.634E+03   -.118E+00 -.148E-01 -.634E+03   -.122E-01 0.436E-02 -.595E-01
   0.502E-01 0.409E-02 0.159E+04   -.524E-01 -.432E-02 -.159E+04   0.308E-02 0.322E-03 0.360E+01
   0.555E-01 -.393E-03 0.159E+04   -.577E-01 0.307E-03 -.159E+04   0.305E-02 0.124E-03 0.361E+01
   -.358E+01 0.664E+00 -.127E+04   0.350E+01 -.643E+00 0.127E+04   0.810E-01 -.196E-01 -.494E+01
   -.802E+01 -.933E+00 -.127E+04   0.791E+01 0.923E+00 0.128E+04   0.106E+00 0.956E-02 -.499E+01
   -.275E+00 0.517E-01 -.308E+03   0.269E+00 -.572E-01 0.308E+03   0.537E-02 0.589E-02 0.202E+00
   -.572E+00 0.190E-02 -.306E+03   0.586E+00 -.195E-02 0.306E+03   -.141E-01 0.561E-03 0.384E+00
   0.172E-02 0.265E+00 0.156E+02   -.114E-12 0.568E-13 -.205E-11   0.281E-03 -.270E+00 -.156E+02

 POSITION                                       TOTAL-FORCE (eV/Angst)
      3.78910      4.13838     17.00169         0.004158     -0.002515      0.000800
      2.53799      3.44624     17.52925        -0.004650     -0.003476      0.001534
      3.78914     -0.08192     17.00173         0.003506     -0.002458      0.000862
      2.53798      7.66653     17.52921        -0.003695     -0.002696      0.001726
      6.72933      6.24874     16.99987        -0.000357     -0.000763      0.002643
      7.98015      5.55670     17.52829         0.003259     -0.002067      0.000758
      6.72931      2.02845     16.99985        -0.000659     -0.000589      0.002524
      7.98012      1.33643     17.52828         0.003868     -0.002577      0.000869
      3.53700      5.04712     16.43052         0.002051      0.001210      0.001778
      4.36205      3.46146     16.34453         0.001357     -0.001367      0.000806
      4.46252      4.44166     17.81858         0.003960     -0.000509      0.001221
      1.86167      3.16779     16.70424        -0.000825      0.000753      0.003643
      1.97092      4.10177     18.20808        -0.001047     -0.000603     -0.002210
      2.78895      2.52841     18.08347        -0.000586     -0.001429     -0.003077
      3.53687      0.82695     16.43087         0.003215      0.000357     -0.000608
      4.36204      7.68151     16.34481         0.001663      0.000403     -0.001188
      4.46275      0.22154     17.81846         0.001949     -0.002073      0.001878
      1.86143      7.38793     16.70445         0.000582      0.001720      0.001434
      1.97092     -0.11823     18.20773        -0.001101     -0.002461      0.000421
      2.78910      6.74858     18.08311        -0.001727     -0.000788     -0.000171
      6.15701      5.57226     16.34201        -0.002560     -0.002682     -0.003476
      6.98173      7.15843     16.43024        -0.002490      0.001405     -0.000976
      6.05479      6.55140     17.81607        -0.002910     -0.001516      0.002082
      0.21803      5.28130     16.70405        -0.000260      0.001220      0.002328
      7.72885      4.63699     18.07916         0.002350      0.000217      0.000469
      0.10436      6.21156     18.20969         0.001170     -0.003663     -0.000265
      6.15693      1.35202     16.34195        -0.001878     -0.002685     -0.002968
      6.98173      2.93814     16.43018        -0.002766      0.001267     -0.000391
      6.05477      2.33106     17.81608        -0.002830     -0.001060      0.001699
      0.21804      1.06107     16.70407        -0.000432      0.000874      0.002161
      7.72885      0.41676     18.07922         0.002097     -0.000214      0.000058
      0.10439      1.99119     18.20973         0.000806     -0.002797     -0.000350
      2.11015      0.00000      7.50000         0.000470      0.000080      0.316632
      4.22029      2.11015      7.50000         0.000507      0.000099      0.318220
      2.11015      2.11015      9.61015         0.005245      0.000960      0.023311
      4.22029      0.00000      9.61015         0.004881      0.000476      0.033126
      2.11204      0.00040     11.72891        -0.004793     -0.000069     -0.005128
      4.22225      2.11038     11.73393         0.001674      0.000743     -0.005286
      2.10846      2.11075     13.81861         0.000481      0.001939      0.001003
      4.21788      0.00133     13.83802        -0.001520      0.000488     -0.004869
      2.11015      4.22029      7.50000         0.000477      0.000074      0.316756
      4.22029      6.33044      7.50000         0.000507      0.000005      0.318181
      2.11015      6.33044      9.61015         0.005153      0.000413      0.023319
      4.22029      4.22029      9.61015         0.005002      0.000320      0.033939
      2.11198      4.22068     11.72911        -0.004694      0.000020     -0.006409
      4.22224      6.33075     11.73389         0.001725      0.000299     -0.004941
      2.10847      6.33135     13.81864         0.000404     -0.000386      0.000816
      4.21785      4.22164     13.83761        -0.001194      0.000424     -0.002266
      6.33044      0.00000      7.50000        -0.000517      0.000053      0.318155
      0.00000      2.11015      7.50000        -0.000530      0.000120      0.316717
      6.33044      2.11015      9.61015        -0.004435      0.000733      0.033947
      0.00000      0.00000      9.61015        -0.005333      0.000741      0.023472
      6.32876      0.00024     11.73385        -0.002095      0.000955     -0.003271
     -0.00188      2.11058     11.72918         0.005015     -0.000155     -0.005672
      6.33299      2.11126     13.83874         0.000300      0.002018     -0.005274
      0.00189      0.00077     13.81899        -0.000291      0.000619      0.001659
      6.33044      4.22029      7.50000        -0.000524      0.000045      0.318315
      0.00000      6.33044      7.50000        -0.000529      0.000041      0.316729
      6.33044      6.33044      9.61015        -0.004319     -0.000082      0.033967
      0.00000      4.22029      9.61015        -0.005452      0.000790      0.023518
[...]
      0.00000      2.11015      9.61015        -0.003082      0.000693      0.050095
      6.33044      2.11015      7.50000         0.000875     -0.000014     -0.403068
      0.00000      0.00000      7.50000         0.000833      0.000088     -0.402036
      6.33286      0.00037     13.87266        -0.000366      0.001255     -0.003343
      0.00453      2.11106     13.86601        -0.000511      0.001595      0.002610
      6.33063      2.11028     11.72813        -0.000883      0.001030      0.003573
     -0.00061      0.00041     11.72258         0.000254      0.000402      0.005002
      6.33044      4.22029      9.61015        -0.004094      0.000453      0.061199
      0.00000      6.33044      9.61015        -0.003042      0.001176      0.050141
      6.33044      6.33044      7.50000         0.000861      0.000139     -0.403060
      0.00000      4.22029      7.50000         0.000844      0.000086     -0.402137
      6.33280      4.22065     13.87216         0.000769      0.001279     -0.000126
      0.00453      6.33148     13.86602        -0.000503      0.000094      0.002521
      6.33064      6.33074     11.72812        -0.000991      0.000429      0.003581
     -0.00054      4.22068     11.72244        -0.000075      0.000562      0.007398
    total drift:                                0.002004     -0.004520     -0.015503

  FREE ENERGIE OF THE ION-ELECTRON SYSTEM (eV)
  free  energy   TOTEN  =      -417.38684527 eV

  energy  without entropy=     -417.38684527  energy(sigma->0) =     -417.38684527

 d Force = 0.7780542E-04[ 0.183E-04, 0.137E-03]  d Energy = 0.7998548E-04-0.218E-05
 d Force =-0.1327621E+01[-0.133E+01,-0.133E+01]  d Ewald  =-0.1327621E+01-0.441E-06

 Conjugate gradient step on ions:
 trial-energy change:   -0.000080  1 .order   -0.000078   -0.000137   -0.000018
  (g-gl).g = 0.229E-03      g.g   = 0.241E-03  gl.gl    = 0.212E-03
 g(Force)  = 0.241E-03   g(Stress)= 0.000E+00 ortho     = 0.188E-04
 gamma     =   1.07867
 trial     =   0.52512
 opt step  =   0.59685  (harmonic =   0.60581) maximal distance =0.00127532
 next E    =  -417.386847   (d E  =  -0.00008)

 reached required accuracy - stopping structural energy minimisation