 vasp.6.4.2 20Jul23 (build Feb 22 2024 13:53:45) complex
 executed on              LinuxNV date 2024.08.27  15:35:31
 OpenACC runtime initialized ...    4 GPUs detected

 INCAR:
   SYSTEM = Oxide-Surface
   ISMEAR = 0
   SIGMA = 0.05
   EDIFF = 1E-5
   ALGO = Normal
   IBRION = -1
   NSW = 0
   ISYM = 0
   DIPOL = 0.5 0.5 0.5
   IDIPOL = 3
   LDIPOL = .TRUE.
   ISTART = 1
   LHFCALC = .TRUE.
   HFSCREEN = 0.2
   GGA = PE
   HFRCUT = -1
   ENCUT = 520
   PREC = Normal
   PRECFOCK = Normal
   LASPH = .TRUE.
   LREAL = Auto
   ISPIN = 1
   NELM = 200
   NELMIN = 8
   NCORE = 1
   KPAR = 1
   LWAVE = .FALSE.
   LCHARG = .FALSE.

 POTCAR:    PAW_PBE C 08Apr2002
 POTCAR:    PAW_PBE O 08Apr2002
 POTCAR:    PAW_PBE H 15Jun2001
 POTCAR:    PAW_PBE Ti_pv 07Sep2000
 POTCAR:    PAW_PBE O 08Apr2002
 POTCAR:    PAW_PBE C 08Apr2002
   VRHFIN =C: s2p2

   TITEL  = PAW_PBE C 08Apr2002
   POMASS =   12.011; ZVAL   =    4.000    mass and valenz
   ENMAX  =  400.000; ENMIN  =  300.000 eV

[...]

   TITEL  = PAW_PBE H 15Jun2001
   POMASS =    1.000; ZVAL   =    1.000    mass and valenz
   ENMAX  =  250.000; ENMIN  =  200.000 eV

   TITEL  = PAW_PBE Ti_pv 07Sep2000
   POMASS =   47.880; ZVAL   =   10.000    mass and valenz
   ENMAX  =  222.335; ENMIN  =  166.751 eV

   TITEL  = PAW_PBE O 08Apr2002
   POMASS =   16.000; ZVAL   =    6.000    mass and valenz
   ENMAX  =  400.000; ENMIN  =  300.000 eV

 Optimization of the real space projectors (new method)

 maximal supplied QI-value         = 25.13
 optimisation between [QCUT,QGAM] = [ 11.56, 23.12] = [ 37.43,149.72] Ry
 Optimized for a Real-space Cutoff    1.04 Angstroem

   l    n(q)    QCUT    max X(q) W(low)/X(q) W(high)/X(q)  e(spline)
   0      7    11.561   115.676    0.20E-03    0.60E-03    0.21E-06
   0      7    11.561    87.132    0.20E-03    0.59E-03    0.21E-06
   1      7    11.561     4.429    0.23E-03    0.35E-03    0.15E-06
   1      7    11.561     2.733    0.18E-03    0.25E-03    0.12E-06
 Optimization of the real space projectors (new method)

[...]

   l    n(q)    QCUT    max X(q) W(low)/X(q) W(high)/X(q)  e(spline)
   1     10    11.641     4.216    0.33E-04    0.72E-04    0.48E-07
   1     10    11.641     5.422    0.11E-03    0.20E-03    0.10E-06
   2      9    11.641    72.084    0.36E-03    0.27E-03    0.57E-06
   2      9    11.641    65.965    0.35E-03    0.27E-03    0.57E-06
   0     10    11.641    41.531    0.11E-03    0.93E-04    0.16E-06
   0     10    11.641    16.290    0.82E-04    0.72E-04    0.13E-06
 Optimization of the real space projectors (new method)

 maximal supplied QI-value         = 24.76
 optimisation between [QCUT,QGAM] = [ 11.64, 23.27] = [ 37.91,151.63] Ry
 Optimized for a Real-space Cutoff    1.04 Angstroem

   l    n(q)    QCUT    max X(q) W(low)/X(q) W(high)/X(q)  e(spline)
   0      7    11.635    20.381    0.14E-03    0.49E-03    0.18E-06
   0      7    11.635    15.268    0.16E-03    0.52E-03    0.19E-06
   1      7    11.635     5.964    0.30E-03    0.44E-03    0.22E-06
   1      7    11.635     5.382    0.27E-03    0.34E-03    0.19E-06
  PAW_PBE C 08Apr2002                   :
  PAW_PBE O 08Apr2002                   :
  PAW_PBE H 15Jun2001                   :
  PAW_PBE Ti_pv 07Sep2000               :
  PAW_PBE O 08Apr2002                   :

 POSCAR:  C  O  H Ti  O
  positions in direct lattice
 exchange correlation table for  LEXCH =        8
   RHO(1)=    0.500       N(1)  =     2000
   RHO(2)=  100.500       N(2)  =     4000

 ion  position               nearest neighbor table
   1  0.510  0.588  0.825-   3 1.09   5 1.10   6 1.10   2 1.45
   2  0.539  0.498  0.789-   4 1.00   1 1.45  86 2.18
   3  0.427  0.597  0.823-   1 1.09
   4  0.615  0.493  0.787-   2 1.00
   5  0.534  0.564  0.866-   1 1.10
   6  0.549  0.667  0.814-   1 1.10
   7  0.750  0.625  0.185-  88 1.95 148 1.95 147 1.95  87 1.95  90 1.98 169 1.98  17 2.96  37 2.96

   8  0.000  0.750  0.185-  89 1.95  90 1.95 109 1.95 110 1.95  91 1.98  38 2.96  18 2.96
   9  0.000  0.625  0.315-  91 1.95 151 1.95  92 1.95 152 1.95  94 1.98  93 1.98  19 2.96  39 2.96

[...]

  87  0.750  0.750  0.134-   7 1.95  17 1.95
  88  0.750  0.750  0.236-   7 1.95  17 1.95  10 1.98
  89  0.098  0.625  0.185-   8 1.95  38 1.95  47 1.98
  90  0.902  0.625  0.185-   8 1.95  38 1.95   7 1.98
  91  0.000  0.750  0.264-   9 1.95  19 1.95   8 1.98
  92  0.000  0.750  0.366-   9 1.95  19 1.95  12 1.98
  93  0.848  0.625  0.315-  10 1.95  40 1.95   9 1.98
  94  0.152  0.625  0.315-  50 1.95  80 1.95   9 1.98
  95  0.750  0.750  0.394-  11 1.95  21 1.95  10 1.98
  96  0.750  0.750  0.496-  11 1.95  21 1.95  14 2.09
  97  0.098  0.625  0.445-  12 1.95  42 1.95  51 1.98
  98  0.902  0.625  0.445-  12 1.95  42 1.95  11 1.98
  99  0.001  0.750  0.525-  23 1.90  13 1.90  12 2.00
 100  1.000  0.750  0.627-  16 1.81  13 2.02  23 2.02
 101  0.851  0.625  0.575-  14 1.93  44 1.93  13 2.03
 102  0.150  0.625  0.576-  13 1.87  84 2.02  54 2.02
 103  0.754  0.751  0.654-  14 1.87  15 2.08  25 2.09
 104  0.749  0.749  0.757-  15 1.83  25 1.84
 105  0.095  0.625  0.712-  46 1.94  16 1.95  55 2.03
 106  0.906  0.624  0.713-  46 1.95  16 1.96  15 2.02
 107  0.750  0.000  0.134-  17 1.95  27 1.95
 108  0.750  0.000  0.236-  17 1.95  27 1.95  20 1.98
 109  0.098  0.875  0.185-   8 1.95  18 1.95  57 1.98
 110  0.902  0.875  0.185-   8 1.95  18 1.95  17 1.98
 111  0.000  0.000  0.264-  19 1.95  29 1.95  18 1.98
 112  0.000  0.000  0.366-  19 1.95  29 1.95  22 1.98
 113  0.848  0.875  0.315-  10 1.95  20 1.95  19 1.98
 114  0.152  0.875  0.315-  50 1.95  60 1.95  19 1.98
 115  0.750  0.000  0.394-  21 1.95  31 1.95  20 1.98
 116  0.750  0.000  0.496-  21 1.95  31 1.95  24 2.10
 117  0.098  0.875  0.445-  12 1.95  22 1.95  61 1.98
 118  0.902  0.875  0.445-  12 1.95  22 1.95  21 1.98
 119  0.001  0.000  0.525-  33 1.90  23 1.90  22 2.00
 120  0.000  0.000  0.627-  26 1.81  33 2.02  23 2.02
 121  0.851  0.876  0.575-  24 1.93  14 1.93  23 2.04
 122  0.150  0.875  0.576-  23 1.87  54 2.02  64 2.02
 123  0.751  0.000  0.655-  24 1.87  35 2.09  25 2.09
 124  0.750  1.000  0.758-  35 1.83  25 1.84
 125  0.094  0.875  0.712-  16 1.94  26 1.95  65 2.04
 126  0.906  0.875  0.713-  16 1.94  26 1.95  25 2.04
 127  0.750  0.250  0.134-  27 1.95  37 1.95
 128  0.750  0.250  0.236-  27 1.95  37 1.95  30 1.98
 129  0.098  0.125  0.185-  18 1.95  28 1.95  67 1.98
 130  0.902  0.125  0.185-  18 1.95  28 1.95  27 1.98
 131  0.000  0.250  0.264-  29 1.95  39 1.95  28 1.98
 132  0.000  0.250  0.366-  29 1.95  39 1.95  32 1.98
 133  0.848  0.125  0.315-  20 1.95  30 1.95  29 1.98
 134  0.152  0.125  0.315-  60 1.95  70 1.95  29 1.98
 135  0.750  0.250  0.394-  31 1.95  41 1.95  30 1.98
 136  0.750  0.250  0.496-  31 1.95  41 1.95  34 2.09
 137  0.098  0.125  0.445-  22 1.95  32 1.95  71 1.98
 138  0.902  0.125  0.445-  22 1.95  32 1.95  31 1.98
 139  0.001  0.250  0.525-  43 1.90  33 1.90  32 2.00
 140  0.000  0.250  0.627-  36 1.81  43 2.02  33 2.02
 141  0.851  0.125  0.576-  24 1.93  34 1.93  33 2.04
 142  0.150  0.125  0.576-  33 1.86  64 2.02  74 2.02
 143  0.753  0.250  0.654-  34 1.87  45 2.06  35 2.10
 144  0.749  0.251  0.757-  45 1.83  35 1.84
 145  0.094  0.125  0.712-  36 1.94  26 1.95  75 2.04
 146  0.906  0.125  0.712-  36 1.94  26 1.95  35 2.04
[...]
 232  0.500  0.500  0.366-  49 1.95  79 1.95  82 1.98
 233  0.348  0.375  0.315-  70 1.95  80 1.95  79 1.98
 234  0.652  0.375  0.315-  30 1.95  40 1.95  79 1.98
 235  0.250  0.500  0.394-  51 1.95  81 1.95  80 1.98
 236  0.250  0.500  0.496-  51 1.95  81 1.95  84 2.11
 237  0.598  0.375  0.445-  72 1.95  82 1.95  41 1.98
 238  0.402  0.375  0.445-  72 1.95  82 1.95  81 1.98
 239  0.501  0.500  0.525-  53 1.90  83 1.90  82 2.00
 240  0.500  0.500  0.628-  86 1.91  53 1.98  83 1.98
 241  0.350  0.375  0.576-  74 1.92  84 1.93  83 2.04
 242  0.651  0.375  0.576-  83 1.88  34 2.01  44 2.02
 243  0.250  0.500  0.655-  84 1.86  55 2.09  85 2.10
 244  0.252  0.500  0.757-  85 1.84  55 1.84
 245  0.597  0.371  0.707-  76 1.92  86 1.96  45 2.02
 246  0.407  0.374  0.711-  86 1.93  76 1.94  85 2.03

IMPORTANT INFORMATION: All symmetrisations will be switched off!
NOSYMM: (Re-)initialisation of all symmetry stuff for point group C_1.

                                     Primitive cell

  volume of cell :    3846.0501

  direct lattice vectors                    reciprocal lattice vectors
    13.003980404  0.000000000  0.000000000     0.076899531  0.000000000  0.000000000
     0.000000000 11.830378115  0.000000000     0.000000000  0.084528152  0.000000000
     0.000000000  0.000000000 25.000000000     0.000000000  0.000000000  0.040000000

  length of vectors
    13.003980404 11.830378115 25.000000000     0.076899531  0.084528152  0.040000000

  position of ions in fractional coordinates (direct lattice)
     0.510341709  0.587960969  0.825486788
     0.538682103  0.497718066  0.789040016
     0.426752452  0.597317826  0.823436931
     0.615385514  0.493008596  0.787324489
     0.533741134  0.564413803  0.866202358
     0.548755556  0.667398809  0.814179363
     0.750010663  0.625004961  0.184773010
     0.000010663  0.750004961  0.184773010
     0.000010663  0.625004961  0.314812814
     0.750010663  0.750004961  0.314812814
     0.750010663  0.625004961  0.444852618
     0.000010663  0.750004961  0.444852618
     0.007004437  0.625078947  0.572008516
     0.756144220  0.750119383  0.579538884
     0.750770416  0.625802808  0.712619678
     0.999989337  0.750346962  0.699268567
     0.750010663  0.875004961  0.184773010
     0.000010663  0.000004961  0.184773010
     0.000010663  0.875004961  0.314812814
     0.750010663  0.000004961  0.314812814
     0.750010663  0.875004961  0.444852618
     0.000010663  0.000004961  0.444852618
     0.007115791  0.875054039  0.572076102
     0.755710742  0.000055089  0.579920543
     0.749639513  0.874945154  0.713922526
     0.000259023  0.999950542  0.699228467
     0.750010663  0.125004961  0.184773010
     0.000010663  0.250004961  0.184773010
     0.000010663  0.125004961  0.314812814
     0.750010663  0.250004961  0.314812814
     0.750010663  0.125004961  0.444852618
     0.000010663  0.250004961  0.444852618
     0.007282824  0.124972857  0.572087558
     0.756031323  0.249874285  0.579456177
     0.749601559  0.124221820  0.713929795
     0.000202769  0.249636124  0.699257736
     0.750010663  0.375004961  0.184773010
     0.000010663  0.500004961  0.184773010
     0.000010663  0.375004961  0.314812814
     0.750010663  0.500004961  0.314812814
     0.750010663  0.375004961  0.444852618
     0.000010663  0.500004961  0.444852618
     0.006995650  0.374987490  0.571986700
     0.756370748  0.500013538  0.579738455
     0.751452610  0.373227846  0.712661921
     0.000833076  0.500130655  0.699185531
     0.250010663  0.625004961  0.184773010
     0.500010663  0.750004961  0.184773010
     0.500010663  0.625004961  0.314812814
     0.250010663  0.750004961  0.314812814
     0.250010663  0.625004961  0.444852618
     0.500010663  0.750004961  0.444852618
     0.507173520  0.622679804  0.573626488
     0.256156716  0.749997173  0.579847416
     0.250347362  0.625327763  0.713801464
[...]
   0.253E+02 0.125E+03 -.173E+04   -.484E+02 -.151E+03 0.172E+04   0.205E+02 0.230E+02 0.849E+01   0.291E-02 0.175E-02 -.143E+00
   0.581E+02 -.156E+02 -.251E+03   -.638E+02 0.162E+02 0.251E+03   0.572E+01 -.605E+00 0.228E+00   0.339E-03 -.257E-03 -.236E-01
   -.697E+02 0.160E+02 -.299E+03   0.770E+02 -.166E+02 0.299E+03   -.737E+01 0.579E+00 0.367E+00   0.805E-03 0.290E-03 -.240E-01
   -.117E+02 0.633E+01 -.227E+03   0.132E+02 -.771E+01 0.232E+03   -.150E+01 0.138E+01 -.520E+01   0.126E-03 0.387E-04 -.205E-01
   -.190E+02 -.612E+02 -.253E+03   0.215E+02 0.659E+02 0.252E+03   -.252E+01 -.471E+01 0.130E+01   0.304E-03 -.777E-03 -.237E-01
   -.209E+01 -.473E+00 0.280E+04   0.209E+01 0.475E+00 -.280E+04   -.154E-02 -.739E-02 0.615E+00   -.158E-03 -.144E-04 0.198E+00
   -.290E+00 -.790E+00 0.298E+04   0.293E+00 0.793E+00 -.297E+04   -.122E-03 -.952E-04 -.420E+01   -.200E-03 -.120E-03 0.197E+00
   -.226E+00 -.115E+00 0.144E+04   0.233E+00 0.115E+00 -.144E+04   -.973E-03 -.531E-02 -.881E-01   -.261E-05 0.250E-04 0.166E+00
   -.830E+00 -.253E+00 0.143E+04   0.819E+00 0.254E+00 -.143E+04   0.323E-02 0.222E-03 0.237E+00   0.184E-03 -.452E-05 0.164E+00
   -.201E+01 -.131E+00 0.230E+01   0.195E+01 0.112E+00 -.154E+01   0.128E-01 0.381E-02 -.155E+00   0.482E-03 0.113E-03 0.655E-01
   0.116E+01 -.968E+00 0.996E+01   -.116E+01 0.973E+00 -.112E+02   -.178E-02 -.284E-02 0.382E+00   0.119E-03 0.494E-04 0.603E-01
   0.138E+02 -.193E+01 -.139E+04   -.137E+02 0.194E+01 0.139E+04   -.998E-01 -.166E-01 0.242E+00   0.789E-03 0.180E-03 -.484E-01
   -.110E+01 -.978E+01 -.141E+04   0.115E+01 0.979E+01 0.141E+04   -.139E+00 -.419E-02 -.296E+00   0.262E-03 0.464E-03 -.580E-01
   -.100E+03 -.172E+02 -.270E+04   0.999E+02 0.172E+02 0.270E+04   0.225E+00 0.830E-01 -.252E+00   0.108E-02 0.646E-03 -.174E+00
   -.528E+01 -.546E+01 -.283E+04   0.535E+01 0.550E+01 0.283E+04   -.615E-01 -.339E-01 0.123E+01   0.515E-05 0.191E-03 -.165E+00
   -.175E+01 -.105E+01 0.280E+04   0.175E+01 0.106E+01 -.280E+04   -.115E-02 0.771E-02 0.616E+00   -.781E-04 -.245E-03 0.199E+00
   -.251E+00 -.301E+00 0.298E+04   0.254E+00 0.303E+00 -.297E+04   -.176E-04 0.830E-04 -.419E+01   -.188E-03 -.147E-03 0.198E+00
   -.188E+00 -.298E+00 0.144E+04   0.195E+00 0.298E+00 -.144E+04   -.935E-03 0.588E-02 -.880E-01   -.105E-04 -.162E-04 0.166E+00
   -.881E+00 -.153E+00 0.143E+04   0.869E+00 0.153E+00 -.143E+04   0.324E-02 0.269E-03 0.241E+00   0.143E-03 -.236E-04 0.164E+00
   -.336E+01 -.102E+01 0.844E+00   0.333E+01 0.105E+01 -.743E-01   0.682E-02 -.646E-02 -.156E+00   0.419E-03 0.145E-03 0.657E-01
   0.158E+01 -.297E+00 0.853E+01   -.158E+01 0.297E+00 -.979E+01   -.233E-02 -.179E-03 0.386E+00   0.961E-04 -.189E-05 0.603E-01
   0.166E+02 -.303E+01 -.139E+04   -.165E+02 0.305E+01 0.139E+04   -.104E+00 0.123E-02 0.245E+00   0.715E-03 0.121E-03 -.483E-01
   0.248E+01 -.177E+01 -.143E+04   -.243E+01 0.178E+01 0.143E+04   -.148E+00 -.110E-02 -.275E+00   0.924E-04 0.489E-05 -.581E-01
   -.304E+02 -.297E+02 -.275E+04   0.303E+02 0.297E+02 0.275E+04   0.724E-01 0.123E-01 -.400E+00   0.871E-03 -.152E-03 -.176E+00
   -.466E+01 -.228E+01 -.283E+04   0.464E+01 0.229E+01 0.283E+04   0.262E-01 -.396E-02 0.130E+01   -.714E-04 -.199E-03 -.165E+00
   -.161E+01 0.462E+00 0.280E+04   0.160E+01 -.464E+00 -.280E+04   -.952E-03 -.728E-02 0.617E+00   -.104E-05 -.249E-04 0.199E+00
   -.280E+00 0.786E+00 0.298E+04   0.283E+00 -.789E+00 -.297E+04   -.135E-03 0.580E-03 -.420E+01   -.204E-03 0.888E-04 0.198E+00
   -.192E+00 0.118E+00 0.144E+04   0.199E+00 -.118E+00 -.144E+04   -.107E-02 -.536E-02 -.879E-01   -.937E-05 -.382E-04 0.166E+00
   -.773E+00 0.253E+00 0.143E+04   0.762E+00 -.254E+00 -.143E+04   0.312E-02 0.184E-03 0.238E+00   0.151E-03 0.208E-05 0.164E+00
   -.319E+01 0.443E+00 0.375E+00   0.316E+01 -.486E+00 0.384E+00   0.846E-02 0.611E-02 -.156E+00   0.414E-03 -.154E-03 0.658E-01
   0.115E+01 0.995E+00 0.946E+01   -.115E+01 -.100E+01 -.107E+02   -.272E-02 0.291E-02 0.383E+00   0.144E-03 -.746E-04 0.603E-01
   0.178E+02 0.156E+01 -.139E+04   -.178E+02 -.157E+01 0.139E+04   -.107E+00 -.220E-02 0.251E+00   0.685E-03 -.157E-03 -.484E-01
   0.181E-01 0.913E+01 -.141E+04   0.227E-01 -.913E+01 0.141E+04   -.135E+00 0.622E-02 -.288E+00   0.237E-03 -.468E-03 -.581E-01
   -.223E+02 0.149E+02 -.276E+04   0.223E+02 -.149E+02 0.276E+04   0.676E-01 0.513E-02 -.412E+00   0.985E-03 -.434E-03 -.177E+00
   -.440E+01 0.487E+01 -.283E+04   0.446E+01 -.491E+01 0.283E+04   -.436E-01 0.329E-01 0.123E+01   0.294E-04 -.266E-03 -.165E+00
   -.194E+01 0.106E+01 0.280E+04   0.194E+01 -.107E+01 -.280E+04   -.133E-02 0.793E-02 0.616E+00   -.775E-04 0.303E-03 0.199E+00
   -.319E+00 0.305E+00 0.298E+04   0.322E+00 -.307E+00 -.297E+04   -.134E-03 0.491E-03 -.419E+01   -.232E-03 0.159E-03 0.197E+00
   -.230E+00 0.294E+00 0.144E+04   0.238E+00 -.295E+00 -.144E+04   -.109E-02 0.587E-02 -.880E-01   -.165E-04 0.314E-04 0.166E+00
   -.726E+00 0.153E+00 0.143E+04   0.715E+00 -.153E+00 -.143E+04   0.307E-02 0.223E-03 0.241E+00   0.171E-03 0.315E-04 0.163E+00
   -.181E+01 0.717E+00 0.183E+01   0.175E+01 -.684E+00 -.109E+01   0.126E-01 -.781E-02 -.152E+00   0.476E-03 -.972E-04 0.655E-01
   0.101E+01 0.312E+00 0.108E+02   -.101E+01 -.311E+00 -.121E+02   -.355E-02 -.286E-03 0.386E+00   0.166E-03 0.163E-04 0.602E-01
   0.142E+02 0.342E+01 -.139E+04   -.141E+02 -.343E+01 0.139E+04   -.103E+00 0.166E-01 0.243E+00   0.800E-03 -.171E-03 -.484E-01
   -.230E+01 0.183E+01 -.140E+04   0.240E+01 -.184E+01 0.140E+04   -.194E+00 0.538E-02 -.295E+00   0.417E-03 0.769E-05 -.581E-01
   -.844E+02 0.259E+02 -.272E+04   0.842E+02 -.258E+02 0.272E+04   0.145E+00 -.977E-01 -.269E+00   0.983E-03 -.210E-03 -.174E+00
   -.728E+01 0.291E+01 -.282E+04   0.726E+01 -.292E+01 0.282E+04   0.256E-01 0.782E-02 0.120E+01   0.143E-03 0.278E-03 -.165E+00
   0.207E+01 -.425E+00 0.280E+04   -.207E+01 0.426E+00 -.280E+04   -.142E-02 -.733E-02 0.616E+00   0.146E-03 -.760E-05 0.199E+00
   0.307E+00 -.132E+01 0.298E+04   -.311E+00 0.132E+01 -.297E+04   0.110E-02 -.513E-03 -.420E+01   0.192E-03 -.228E-03 0.197E+00
   0.353E+00 0.618E-01 0.144E+04   -.360E+00 -.487E-01 -.144E+04   0.152E-02 -.807E-02 -.930E-01   -.106E-04 0.277E-04 0.166E+00
   0.707E+00 -.199E+00 0.143E+04   -.696E+00 0.199E+00 -.143E+04   -.187E-02 0.168E-03 0.233E+00   -.158E-03 -.615E-05 0.164E+00
   0.615E+00 0.144E+00 -.123E+00   -.544E+00 -.163E+00 0.939E+00   -.149E-01 0.403E-02 -.166E+00   -.552E-03 0.613E-04 0.657E-01
   0.344E+01 0.831E+00 0.147E+02   -.347E+01 -.933E+00 -.157E+02   0.149E-02 0.401E-01 0.292E+00   -.153E-03 0.207E-03 0.599E-01
   0.219E+02 -.133E+02 -.137E+04   -.218E+02 0.134E+02 0.137E+04   -.106E+00 -.860E-02 0.143E+00   0.315E-03 0.256E-03 -.501E-01
   0.218E+02 -.680E+01 -.142E+04   -.218E+02 0.678E+01 0.142E+04   -.154E+00 0.117E-01 -.280E+00   -.143E-02 0.262E-03 -.583E-01
   0.653E+02 -.154E+02 -.272E+04   -.654E+02 0.154E+02 0.272E+04   0.795E-01 -.643E-02 -.433E+00   -.100E-02 0.226E-03 -.176E+00
   0.248E+02 -.819E+02 -.274E+04   -.246E+02 0.820E+02 0.274E+04   -.220E+00 -.331E-02 0.138E+01   -.152E-03 0.937E-03 -.162E+00
   0.173E+01 -.987E+00 0.280E+04   -.173E+01 0.992E+00 -.280E+04   -.180E-02 0.769E-02 0.616E+00   0.849E-04 -.219E-03 0.199E+00
   0.263E+00 -.516E+00 0.298E+04   -.266E+00 0.520E+00 -.297E+04   0.110E-02 -.139E-03 -.419E+01   0.174E-03 -.235E-03 0.197E+00
   0.319E+00 -.219E+00 0.144E+04   -.326E+00 0.219E+00 -.144E+04   0.165E-02 0.517E-02 -.934E-01   -.199E-04 0.172E-04 0.166E+00
   0.753E+00 -.162E+00 0.143E+04   -.741E+00 0.162E+00 -.143E+04   -.182E-02 0.299E-03 0.236E+00   -.137E-03 -.333E-04 0.164E+00
[...]
   -.527E+02 0.141E+00 0.859E+03   0.569E+02 -.142E+00 -.860E+03   -.342E+01 0.163E-02 0.167E+00   0.267E-03 0.362E-04 0.996E-01
   0.529E+02 0.154E+00 0.860E+03   -.571E+02 -.155E+00 -.860E+03   0.343E+01 0.115E-02 0.174E+00   -.256E-03 0.282E-04 0.994E-01
   0.237E+00 0.175E+00 0.389E+03   -.208E+00 -.177E+00 -.394E+03   -.340E-01 0.446E-02 0.403E+01   -.216E-03 0.114E-04 0.658E-01
   0.298E+01 0.678E+00 -.405E+03   -.326E+01 -.681E+00 0.413E+03   0.247E+00 0.331E-02 -.688E+01   -.527E-03 0.523E-05 0.105E-01
   -.544E+02 0.228E-01 0.773E+01   0.594E+02 -.272E-01 -.800E+01   -.494E+01 0.303E-01 0.265E+00   0.274E-03 -.718E-04 0.377E-01
   0.555E+02 -.456E-01 0.473E+01   -.605E+02 0.368E-01 -.493E+01   0.498E+01 0.370E-01 0.220E+00   -.429E-03 -.701E-04 0.377E-01
   0.127E+02 0.150E+01 -.434E+03   -.140E+02 -.158E+01 0.427E+03   0.109E+01 0.746E-01 0.659E+01   0.717E-04 0.348E-06 -.545E-02
   0.190E+02 0.298E+01 -.119E+04   -.203E+02 -.290E+01 0.119E+04   0.115E+01 -.761E-01 -.193E+01   0.422E-04 0.468E-05 -.574E-01
   -.483E+02 0.395E+01 -.825E+03   0.551E+02 -.399E+01 0.824E+03   -.600E+01 0.205E-01 0.125E+01   -.141E-02 -.117E-03 -.319E-01
   0.270E+00 0.633E+01 -.831E+03   -.196E+00 -.651E+01 0.830E+03   -.297E-01 0.162E+00 0.510E+00   0.944E-03 -.184E-03 -.322E-01
   0.256E+02 0.286E+01 -.133E+04   -.261E+02 -.292E+01 0.133E+04   0.448E+00 0.498E-01 -.210E+01   -.801E-03 0.877E-04 -.712E-01
   0.594E+02 0.103E+02 -.200E+04   -.591E+02 -.103E+02 0.203E+04   -.268E+00 0.391E-01 -.198E+02   0.316E-03 0.587E-03 -.134E+00
   -.512E+02 0.574E+02 -.162E+04   0.576E+02 -.570E+02 0.163E+04   -.582E+01 -.333E+00 -.745E+00   0.124E-02 -.621E-03 -.103E+00
   0.696E+02 0.493E+02 -.169E+04   -.763E+02 -.495E+02 0.169E+04   0.608E+01 0.129E+00 -.307E+01   -.131E-02 0.620E-04 -.106E+00
   0.111E+02 -.187E+02 0.857E+02   0.344E-11 0.121E-12 0.614E-11   -.114E+02 0.156E+02 -.840E+02   0.485E-02 -.135E-02 0.668E+01

 POSITION                                       TOTAL-FORCE (eV/Angst)
      6.63647      6.95580     20.63717         0.056760     -0.270626     -0.135014
      7.00501      5.88819     19.72600         0.280169      0.474857      0.158878
      5.54948      7.06650     20.58592         0.240081     -0.032278      0.024169
      8.00246      5.83248     19.68311        -0.430997      0.006194      0.009948
      6.94076      6.67723     21.65506        -0.079051      0.056852     -0.271515
      7.13601      7.89558     20.35448        -0.098622     -0.235923      0.072645
      9.75312      7.39405      4.61933         0.000424      0.000644     -4.038071
      0.00014      8.87284      4.61933         0.002693      0.002407      3.221794
      0.00014      7.39405      7.87032         0.005928      0.000138      0.552517
      9.75312      8.87284      7.87032        -0.008326      0.000600     -0.833297
      9.75312      7.39405     11.12132        -0.041333     -0.018125      0.689395
      0.00014      8.87284     11.12132        -0.003823      0.002350     -0.824210
      0.09109      7.39492     14.30021         0.075295      0.001116     -0.008292
      9.83288      8.87420     14.48847        -0.018062      0.001662      0.139667
      9.76300      7.40348     17.81549        -0.035428      0.084284      0.323917
     13.00384      8.87689     17.48171         0.017351      0.017105     -0.094466
      9.75312     10.35164      4.61933        -0.000617      0.006603     -4.042031
      0.00014      0.00006      4.61933         0.002618      0.001524      3.219372
      0.00014     10.35164      7.87032         0.005798      0.000387      0.552229
      9.75312      0.00006      7.87032        -0.008340     -0.000243     -0.836081
      9.75312     10.35164     11.12132        -0.020289      0.026188      0.698210
      0.00014      0.00006     11.12132        -0.003432      0.000091     -0.819609
      0.09253     10.35222     14.30190         0.072671      0.005739     -0.006978
      9.82725      0.00065     14.49801        -0.025793      0.002304      0.146305
      9.74830     10.35093     17.84806         0.003477      0.021902      0.365042
      0.00337     11.82979     17.48071         0.006136      0.004846     -0.091865
      9.75312      1.47886      4.61933        -0.001156     -0.002798     -4.044455
      0.00014      2.95765      4.61933         0.002738     -0.002250      3.219744
      0.00014      1.47886      7.87032         0.006195     -0.000098      0.551946
      9.75312      2.95765      7.87032        -0.008043     -0.000460     -0.836061
      9.75312      1.47886     11.12132        -0.020055     -0.040733      0.688397
      0.00014      2.95765     11.12132         0.000279     -0.002743     -0.823584
      0.09471      1.47848     14.30219         0.070224     -0.004627     -0.008338
      9.83142      2.95611     14.48640        -0.023949      0.002245      0.147460
      9.74780      1.46959     17.84824         0.000636     -0.015673      0.370732
      0.00264      2.95329     17.48144         0.015370     -0.016576     -0.092847
      9.75312      4.43645      4.61933        -0.000183     -0.004205     -4.040588
      0.00014      5.91525      4.61933         0.003023     -0.001316      3.222760
      0.00014      4.43645      7.87032         0.006355     -0.000129      0.552143
      9.75312      5.91525      7.87032        -0.007946      0.000420     -0.833663
      9.75312      4.43645     11.12132        -0.042359      0.031706      0.681275
      0.00014      5.91525     11.12132        -0.001440      0.000690     -0.828156
      0.09097      4.43624     14.29967         0.074175     -0.001218     -0.006935
      9.83583      5.91535     14.49346        -0.020692     -0.001902      0.152042
      9.77188      4.41543     17.81655        -0.051397     -0.112264      0.332099
      0.01083      5.91673     17.47964         0.014236     -0.004499     -0.082032
      3.25113      7.39405      4.61933        -0.000591     -0.000511     -4.039410
      6.50213      8.87284      4.61933        -0.002518      0.004644      3.237757
      6.50213      7.39405      7.87032        -0.005728      0.010273      0.581081
      3.25113      8.87284      7.87032         0.008988      0.000569     -0.819292
      3.25113      7.39405     11.12132         0.056039     -0.017830      0.736408
      6.50213      8.87284     11.12132        -0.029470     -0.059482     -0.674322
      6.59527      7.36654     14.34066         0.063002     -0.019038      0.006431
      3.33106      8.87275     14.49619        -0.015826     -0.009920      0.150056
      3.25551      7.39786     17.84504         0.004794      0.003395      0.377175
      6.51199      8.87436     17.44202         0.027669     -0.007560     -0.115572
      3.25113     10.35164      4.61933         0.000399      0.005924     -4.042443
      6.50213      0.00006      4.61933        -0.002133      0.002731      3.231513
      6.50213     10.35164      7.87032        -0.005951     -0.000277      0.581643
      3.25113      0.00006      7.87032         0.009230      0.000390     -0.820235
[...]
      6.50213      5.91525      9.14470         0.004149     -0.004158     -0.305735
      4.52552      4.43645      7.87032         0.289071      0.001200      0.057629
      8.47874      4.43645      7.87032        -0.281457      0.000969      0.059829
      3.25113      5.91525      9.84693        -0.011019      0.002833      0.070050
      3.25113      5.91525     12.39570         0.002043      0.000515     -0.224943
      7.77651      4.43645     11.12132        -0.649569      0.028872      0.073068
      5.22774      4.43645     11.12132         0.691096      0.032128      0.086474
      6.51393      5.91403     13.12315         0.014082      0.002559      0.215723
      6.50143      5.91940     15.68974         0.028063     -0.001843     -0.094104
      4.55324      4.43713     14.39628        -0.164861     -0.007345      0.027860
      8.46916      4.43633     14.40655         0.038852      0.009134      0.014078
      3.25396      5.91930     16.36339         0.015557      0.001276     -0.036639
      3.27802      5.91816     18.93489        -0.030298      0.002282     -0.618964
      7.75947      4.39476     17.67510        -0.309458     -0.032998      0.023421
      5.28662      4.42576     17.77770         0.311378     -0.014265     -0.039230
    total drift:                               -0.026736     -0.010038     -0.028737

  FREE ENERGIE OF THE ION-ELECTRON SYSTEM (eV)
  free  energy   TOTEN  =     -2655.03579771 eV

  energy  without entropy=    -2655.03579771  energy(sigma->0) =    -2655.03579771

     |            E. Caldeweyher, S. Ehlert & S. Grimme          |
     |          Mulliken Center for Theoretical Chemistry        |
     |                    University of Bonn                     |

Rational (Becke-Johnson) damping: hse06-D4-ATM
  s6         1.0000
  s8         1.1953
  s9         1.0000
  a1         0.3866
  a2         5.1913
 alp        16.0000

Dispersion energy:      -1.4485556032387E+00 Eh