 vasp.6.3.0 20Jan22 (build Apr  1 2022 16:44:48) complex
 executed on        HPECrayEX_GCC date 2022.11.13  10:58:39

 INCAR:
   SYSTEM = MgO-rocksalt
   ISMEAR = 0
   SIGMA = 0.05
   EDIFF = 1E-6
   ALGO = ALL
   ISTART = 0
   IBRION = -1
   NSW = 0
   ISYM = 0
   DIPOL = 0.5 0.5 0.5
   IDIPOL = 3
   LDIPOL = .TRUE.
   LHFCALC = .TRUE.
   GGA = B5
   AEXX = 0.2
   AGGAX = 0.72
   AGGAC = 0.81
   ALDAC = 0.19
   IVDW = 1
   VDW_S6 = 1.05
   VDW_C6 = 1.75 0.70 0.63 0.70
   VDW_R0 = 1.452 1.342 1.243 1.342
   ENCUT = 600
   PREC = Accurate
   LASPH = .TRUE.
   LREAL = .FALSE.
   ISPIN = 1
   NELM = 200
   NELMIN = 8
   NCORE = 8
   KPAR = 1
   LWAVE = .FALSE.
   LCHARG = .FALSE.

 POTCAR:    PAW_PBE C 08Apr2002
 POTCAR:    PAW_PBE O 08Apr2002
 POTCAR:    PAW_PBE Mg_pv 13Apr2007
 POTCAR:    PAW_PBE O 08Apr2002
 POTCAR:    PAW_PBE C 08Apr2002
   VRHFIN =C: s2p2

   TITEL  = PAW_PBE C 08Apr2002
   POMASS =   12.011; ZVAL   =    4.000    mass and valenz
   ENMAX  =  400.000; ENMIN  =  300.000 eV

[...]

   TITEL  = PAW_PBE Mg_pv 13Apr2007
   POMASS =   24.305; ZVAL   =    8.000    mass and valenz
   ENMAX  =  403.929; ENMIN  =  302.947 eV

   TITEL  = PAW_PBE O 08Apr2002
   POMASS =   16.000; ZVAL   =    6.000    mass and valenz
   ENMAX  =  400.000; ENMIN  =  300.000 eV

  PAW_PBE C 08Apr2002                   :
  PAW_PBE O 08Apr2002                   :
  PAW_PBE Mg_pv 13Apr2007               :
  PAW_PBE O 08Apr2002                   :

 POSCAR:  C  O Mg  O
  positions in direct lattice
 exchange correlation table for  LEXCH =       12
   RHO(1)=    0.500       N(1)  =     2000
   RHO(2)=  100.500       N(2)  =     4000

 ion  position               nearest neighbor table
   1  0.500  0.250  0.721-   2 1.24   3 1.24  41 1.42
   2  0.500  0.387  0.744-   1 1.24  19 2.13
   3  0.500  0.113  0.744-   1 1.24  11 2.13
   4  0.250  0.000  0.353-  38 2.09  39 2.09  46 2.09  55 2.09  36 2.09
   5  0.500  0.250  0.353-  38 2.09  39 2.09  47 2.09  54 2.09  37 2.09
   6  0.250  0.250  0.451-  36 2.09  37 2.09  44 2.09  53 2.09  38 2.09  42 2.10
   7  0.500  0.000  0.451-  36 2.09  37 2.09  45 2.09  52 2.09  39 2.09  43 2.12
   8  0.252  0.999  0.550-  43 2.07  50 2.08  40 2.08  42 2.09  59 2.10  36 2.11
   9  0.500  0.250  0.547-  37 2.05  58 2.07  42 2.07  51 2.07  43 2.07
  10  0.236  0.250  0.646-  57 1.97  42 2.05  48 2.08  40 2.08  41 2.21
  11  0.500  0.988  0.657-  49 1.99  40 2.12  56 2.12   3 2.13  41 2.19
  12  0.250  0.500  0.353-  38 2.09  46 2.09  47 2.09  63 2.09  44 2.09
  13  0.500  0.750  0.353-  39 2.09  46 2.09  47 2.09  62 2.09  45 2.09
  14  0.250  0.750  0.451-  36 2.09  44 2.09  45 2.09  61 2.09  46 2.09  50 2.09
  15  0.500  0.500  0.451-  37 2.09  44 2.09  45 2.09  60 2.09  47 2.09  51 2.12
  16  0.252  0.501  0.550-  51 2.07  50 2.08  48 2.08  42 2.09  67 2.10  44 2.11
  17  0.500  0.750  0.551-  50 2.08  66 2.08  51 2.11  43 2.11  49 2.12  45 2.12
  18  0.248  0.750  0.647-  65 2.07  50 2.09  40 2.10  48 2.10  49 2.11
  19  0.500  0.512  0.657-  49 1.99  48 2.12  64 2.12   2 2.13  41 2.19
  20  0.750  0.000  0.353-  39 2.09  54 2.09  55 2.09  62 2.09  52 2.09
  21  0.000  0.250  0.353-  38 2.09  54 2.09  55 2.09  63 2.09  53 2.09
  22  0.750  0.250  0.451-  37 2.09  52 2.09  53 2.09  60 2.09  54 2.09  58 2.10
  23  0.000  0.000  0.451-  59 2.08  52 2.09  53 2.09  36 2.09  61 2.09  55 2.09
  24  0.748  0.999  0.550-  43 2.07  66 2.08  56 2.08  58 2.09  59 2.10  52 2.11
  25  1.000  0.250  0.548-  53 2.07  59 2.08  67 2.08  58 2.11  42 2.11  57 2.11
  26  0.764  0.250  0.646-  57 1.97  58 2.05  64 2.08  56 2.08  41 2.21
  27  0.000  0.998  0.647-  65 2.07  40 2.07  56 2.07  59 2.09  57 2.11
  28  0.750  0.500  0.353-  47 2.09  54 2.09  62 2.09  63 2.09  60 2.09
  29  0.000  0.750  0.353-  46 2.09  55 2.09  62 2.09  63 2.09  61 2.09
  30  0.750  0.750  0.451-  45 2.09  52 2.09  60 2.09  61 2.09  62 2.09  66 2.09
  31  0.000  0.500  0.451-  67 2.08  53 2.09  60 2.09  61 2.09  44 2.09  63 2.09
  32  0.748  0.501  0.550-  51 2.07  66 2.08  64 2.08  58 2.09  67 2.10  60 2.11
  33  0.000  0.750  0.549-  61 2.09  59 2.09  67 2.09  50 2.09  66 2.09  65 2.11
  34  0.752  0.750  0.647-  65 2.07  66 2.09  56 2.10  64 2.10  49 2.11
  35  0.000  0.502  0.647-  65 2.07  48 2.07  64 2.07  67 2.09  57 2.11
  36  0.250  0.000  0.451-   6 2.09   7 2.09  14 2.09  23 2.09   4 2.09   8 2.11
  37  0.500  0.250  0.451-   9 2.05   7 2.09   6 2.09  15 2.09  22 2.09   5 2.09
  38  0.250  0.250  0.353-   4 2.09   5 2.09  12 2.09  21 2.09   6 2.09
  39  0.500  0.000  0.353-   4 2.09   5 2.09  13 2.09  20 2.09   7 2.09
  40  0.248  0.002  0.648-  27 2.07  10 2.08   8 2.08  18 2.10  11 2.12
  41  0.500  0.250  0.654-   1 1.42  11 2.19  19 2.19  10 2.21  26 2.21
  42  0.252  0.250  0.550-  10 2.05   9 2.07  16 2.09   8 2.09   6 2.10  25 2.11
  43  0.500  0.002  0.551-   9 2.07   8 2.07  24 2.07  17 2.11   7 2.12
  44  0.250  0.500  0.451-   6 2.09  14 2.09  15 2.09  31 2.09  12 2.09  16 2.11
  45  0.500  0.750  0.451-   7 2.09  14 2.09  15 2.09  30 2.09  13 2.09  17 2.12
  46  0.250  0.750  0.353-   4 2.09  12 2.09  13 2.09  29 2.09  14 2.09
  47  0.500  0.500  0.353-   5 2.09  12 2.09  13 2.09  28 2.09  15 2.09
  48  0.248  0.498  0.648-  35 2.07  10 2.08  16 2.08  18 2.10  19 2.12
  49  0.500  0.750  0.650-  11 1.99  19 1.99  34 2.11  18 2.11  17 2.12
  50  0.251  0.750  0.549-  16 2.08   8 2.08  17 2.08  18 2.09  33 2.09  14 2.09
  51  0.500  0.498  0.551-   9 2.07  16 2.07  32 2.07  17 2.11  15 2.12
  52  0.750  0.000  0.451-   7 2.09  22 2.09  23 2.09  30 2.09  20 2.09  24 2.11
  53  0.000  0.250  0.451-  25 2.07  22 2.09  23 2.09   6 2.09  31 2.09  21 2.09
  54  0.750  0.250  0.353-   5 2.09  20 2.09  21 2.09  28 2.09  22 2.09
  55  0.000  0.000  0.353-   4 2.09  20 2.09  21 2.09  29 2.09  23 2.09
  56  0.752  0.002  0.648-  27 2.07  26 2.08  24 2.08  34 2.10  11 2.12
  57  0.000  0.250  0.648-  10 1.97  26 1.97  35 2.11  27 2.11  25 2.11
  58  0.748  0.250  0.550-  26 2.05   9 2.07  32 2.09  24 2.09  22 2.10  25 2.11
  59  0.000  0.001  0.549-  23 2.08  25 2.08  27 2.09  33 2.09   8 2.10  24 2.10
  60  0.750  0.500  0.451-  15 2.09  22 2.09  30 2.09  31 2.09  28 2.09  32 2.11
  61  0.000  0.750  0.451-  14 2.09  23 2.09  30 2.09  31 2.09  29 2.09  33 2.09
  62  0.750  0.750  0.353-  13 2.09  20 2.09  28 2.09  29 2.09  30 2.09
  63  0.000  0.500  0.353-  12 2.09  21 2.09  28 2.09  29 2.09  31 2.09
  64  0.752  0.498  0.648-  35 2.07  26 2.08  32 2.08  34 2.10  19 2.12
  65  1.000  0.750  0.649-  35 2.07  27 2.07  18 2.07  34 2.07  33 2.11
  66  0.749  0.750  0.549-  32 2.08  24 2.08  17 2.08  34 2.09  33 2.09  30 2.09
  67  0.000  0.499  0.549-  31 2.08  25 2.08  35 2.09  33 2.09  16 2.10  32 2.10

IMPORTANT INFORMATION: All symmetrisations will be switched off!
NOSYMM: (Re-)initialisation of all symmetry stuff for point group C_1.

                                     Primitive cell

  volume of cell :    1482.1129

  direct lattice vectors                    reciprocal lattice vectors
     8.349111827  0.000000000  0.000000000     0.119773219  0.000000000  0.000000000
     0.000000000  8.349111827  0.000000000     0.000000000  0.119773219  0.000000000
     0.000000000  0.000000000 21.261833870     0.000000000  0.000000000  0.047032632

  length of vectors
     8.349111827  8.349111827 21.261833870     0.119773219  0.119773219  0.047032632

  position of ions in fractional coordinates (direct lattice)
     0.499999965  0.249999309  0.720881969
     0.499999965  0.386582223  0.744165224
     0.499999972  0.113414839  0.744165231
     0.250000000  0.000000000  0.352744737
     0.500000000  0.250000000  0.352744737
     0.250000000  0.250000000  0.450914912
     0.500000000  0.000000000  0.450914912
     0.252056797  0.999201313  0.550312250
     0.500000011  0.250000048  0.547309283
     0.236462734  0.250000040  0.645793726
     0.499999984  0.988321117  0.656853763
     0.250000000  0.500000000  0.352744737
     0.500000000  0.750000000  0.352744737
     0.250000000  0.750000000  0.450914912
     0.500000000  0.500000000  0.450914912
     0.252056957  0.500798713  0.550312289
     0.499999993  0.749999814  0.550712308
     0.247591427  0.749999995  0.647497397
     0.499999980  0.511678338  0.656853918
     0.750000000  0.000000000  0.352744737
     0.000000000  0.250000000  0.352744737
     0.750000000  0.250000000  0.450914912
     0.000000000  0.000000000  0.450914912
     0.747943204  0.999201328  0.550312282
     0.999999996  0.250000000  0.548372917
     0.763537283  0.250000040  0.645793780
     0.000000013  0.997550927  0.647070679
     0.750000000  0.500000000  0.352744737
     0.000000000  0.750000000  0.352744737
     0.750000000  0.750000000  0.450914912
     0.000000000  0.500000000  0.450914912
     0.747943040  0.500798696  0.550312320
     0.000000005  0.750000056  0.549190581
     0.752408557  0.749999993  0.647497366
     0.000000012  0.502449069  0.647070710
     0.250000000  0.000000000  0.450914912
     0.500000000  0.250000000  0.450914912
     0.250000000  0.250000000  0.352744737
     0.500000000  0.000000000  0.352744737
     0.247939415  0.001521724  0.648261415
     0.499999970  0.249999504  0.653886641
     0.252344917  0.250000071  0.549754626
     0.499999993  0.002330405  0.550660114
     0.250000000  0.500000000  0.450914912
     0.500000000  0.750000000  0.450914912
     0.250000000  0.750000000  0.352744737
     0.500000000  0.500000000  0.352744737
     0.247939557  0.498478232  0.648261482
     0.500000002  0.749999785  0.650255363
     0.250591420  0.749999965  0.549430072
     0.499999992  0.497669423  0.550660153
     0.750000000  0.000000000  0.450914912
     0.000000000  0.250000000  0.450914912
     0.750000000  0.250000000  0.352744737
     0.000000000  0.000000000  0.352744737
     0.752060582  0.001521747  0.648261416
     0.000000011  0.250000107  0.647840125
     0.747655082  0.250000072  0.549754657
     0.000000008  0.000531991  0.548854135
     0.750000000  0.500000000  0.450914912
     0.000000000  0.750000000  0.450914912
     0.750000000  0.750000000  0.352744737
     0.000000000  0.500000000  0.352744737
     0.752060436  0.498478206  0.648261485
     0.999999998  0.749999963  0.648644762
     0.749408580  0.749999962  0.549430087
     0.000000005  0.499468098  0.548854191

  ion indices of the primitive-cell ions
   primitive index   ion index
                 1           1
                 2           2
                 3           3
                 4           4
                 5           5
                 6           6
                 7           7
                 8           8
                 9           9
                10          10
                11          11
                12          12
                13          13
                14          14
                15          15
                16          16
                17          17
                18          18
                19          19
                20          20
                21          21
                22          22
                23          23
                24          24
                25          25
                26          26
[...]
   0.75206044  0.49847821  0.64826149
   1.00000000  0.74999996  0.64864476
   0.74940858  0.74999996  0.54943009
   0.00000001  0.49946810  0.54885419

 position of ions in cartesian coordinates  (Angst):
   4.17455562  2.08727218 15.32727267
   4.17455562  3.22761821 15.82231736
   4.17455568  0.94691318 15.82231751
   2.08727796  0.00000000  7.50000000
   4.17455591  2.08727796  7.50000000
   2.08727796  2.08727796  9.58727796
   4.17455591  0.00000000  9.58727796
   2.10445038  8.34244350 11.70064764
   4.17455601  2.08727835 11.63679905
   1.97425381  2.08727829 13.73075891
   4.17455578  8.25160352 13.96591558
   2.08727796  4.17455591  7.50000000
   4.17455591  6.26183387  7.50000000
   2.08727796  6.26183387  9.58727796
   4.17455591  4.17455591  9.58727796
   2.10445172  4.18122445 11.70064846
   4.17455585  6.26183232 11.70915361
   2.06716852  6.26183383 13.76698209
   4.17455575  4.27205967 13.96591888
   6.26183387  0.00000000  7.50000000
   0.00000000  2.08727796  7.50000000
   6.26183387  2.08727796  9.58727796
   0.00000000  0.00000000  9.58727796
   6.24466145  8.34244362 11.70064833
   8.34911180  2.08727796 11.65941386
   6.37485816  2.08727829 13.73076007
   0.00000011  8.32866425 13.75790928
   6.26183387  4.17455591  7.50000000
   0.00000000  6.26183387  7.50000000
   6.26183387  6.26183387  9.58727796
   0.00000000  4.17455591  9.58727796
   6.24466008  4.18122431 11.70064913
   0.00000004  6.26183433 11.67679889
   6.28194318  6.26183381 13.76698144
   0.00000010  4.19500347 13.75790995
   2.08727796  0.00000000  9.58727796
   4.17455591  2.08727796  9.58727796
   2.08727796  2.08727796  7.50000000
   4.17455591  0.00000000  7.50000000
   2.07007390  0.01270505 13.78322651
   4.17455566  2.08727382 13.90282913
   2.10685593  2.08727855 11.68879153
   4.17455585  0.01945682 11.70804386
   2.08727796  4.17455591  9.58727796
   4.17455591  6.26183387  9.58727796
   2.08727796  6.26183387  7.50000000
   4.17455591  4.17455591  7.50000000
   2.07007509  4.16185051 13.78322793
   4.17455593  6.26183207 13.82562151
   2.09221579  6.26183358 11.68189091
   4.17455585  4.15509767 11.70804470
   6.26183387  0.00000000  9.58727796
   0.00000000  2.08727796  9.58727796
   6.26183387  2.08727796  7.50000000
   0.00000000  0.00000000  7.50000000
   6.27903790  0.01270523 13.78322653
   0.00000009  2.08727885 13.77426910
   6.24225588  2.08727856 11.68879219
   0.00000006  0.00444166 11.66964544
   6.26183387  4.17455591  9.58727796
   0.00000000  6.26183387  9.58727796
   6.26183387  6.26183387  7.50000000
   0.00000000  4.17455591  7.50000000
   6.27903668  4.16185028 13.78322800
   8.34911181  6.26183356 13.79137718
   6.25689604  6.26183355 11.68189124
   0.00000005  4.17011500 11.66964662

--------------------------------------- Iteration      FINAL  ---------------------------------------

--------------------OUTCAR has been truncated-------------------------

[...]

--------------------OUTCAR has been truncated-------------------------

  DFT-D2 method for vdW energy calculation

  Parameters of vdW forcefield:
         C6(Jnm^6/mol)     R0(A)
   C        1.750          1.452
   O        0.700          1.342
   Mg       0.630          1.243
   O        0.700          1.342

  vdW correction parametrized for the method        ü)

  IVDW =   1
  VDW_RADIUS =    50.000 A
  VDW_S6 =     1.050
  VDW_SR =     1.000
  VDW_D =    20.000
  LVDW_EWALD = F

  Number of pair interactions contributing to vdW energy:  812521
  Edisp (eV):   -5.55738

 VOLUME and BASIS-vectors are now :
  energy-cutoff  :      600.00
  volume of cell :     1482.11
      direct lattice vectors                 reciprocal lattice vectors
     8.349111827  0.000000000  0.000000000     0.119773219  0.000000000  0.000000000
     0.000000000  8.349111827  0.000000000     0.000000000  0.119773219  0.000000000
     0.000000000  0.000000000 21.261833870     0.000000000  0.000000000  0.047032632

  length of vectors
     8.349111827  8.349111827 21.261833870     0.119773219  0.119773219  0.047032632

 FORCES acting on ions:
    Electron-Ion                     Ewald-Force                    Non-Local-Force
   0.357E-04 0.311E-02 -.114E+04   -.325E-04 -.374E-02 0.114E+04   -.102E-05 0.430E-04 -.283E+01
   0.111E-04 -.226E+03 -.186E+04   -.216E-04 0.271E+03 0.188E+04   0.146E-04 -.393E+02 -.256E+02
   0.491E-05 0.226E+03 -.186E+04   -.489E-05 -.271E+03 0.188E+04   0.257E-05 0.393E+02 -.256E+02
   -.392E-02 0.805E+00 0.216E+04   0.733E-03 -.847E+00 -.215E+04   0.153E-02 0.274E-01 -.648E+01
   -.103E-04 -.474E-06 0.216E+04   0.137E-04 0.123E-05 -.215E+04   -.527E-05 -.512E-05 -.631E+01
   0.248E+01 -.304E-04 0.773E+03   -.254E+01 0.352E-04 -.774E+03   0.268E-01 -.466E-05 0.701E+00
   -.615E-04 0.636E+01 0.768E+03   0.647E-04 -.668E+01 -.769E+03   -.129E-06 0.190E+00 0.591E+00
   0.519E+01 0.877E+01 -.607E+03   -.454E+01 -.902E+01 0.608E+03   -.584E+00 0.229E+00 -.120E+01
   -.428E-04 0.330E-03 -.588E+03   0.486E-04 -.331E-03 0.583E+03   -.504E-05 -.161E-04 0.462E+01
   0.483E+02 -.873E-04 -.194E+04   -.545E+02 0.654E-04 0.193E+04   0.560E+01 0.397E-05 0.636E+01
   -.443E-04 0.883E+02 -.194E+04   0.409E-04 -.920E+02 0.194E+04   0.459E-05 0.331E+01 0.766E+00
   -.389E-02 -.805E+00 0.216E+04   0.713E-03 0.847E+00 -.215E+04   0.153E-02 -.274E-01 -.648E+01
   -.140E-04 -.440E-05 0.216E+04   0.131E-04 -.117E-05 -.215E+04   -.180E-05 0.823E-05 -.648E+01
   -.120E+01 0.340E-04 0.769E+03   0.128E+01 -.380E-04 -.769E+03   -.540E-01 0.266E-05 0.354E+00
   -.639E-04 -.636E+01 0.768E+03   0.633E-04 0.668E+01 -.769E+03   0.151E-05 -.190E+00 0.591E+00
   0.519E+01 -.877E+01 -.607E+03   -.454E+01 0.902E+01 0.608E+03   -.584E+00 -.229E+00 -.120E+01
   -.391E-04 -.229E-03 -.615E+03   0.355E-04 0.246E-03 0.615E+03   0.492E-05 0.692E-06 -.476E+00
   0.297E+02 0.264E-03 -.202E+04   -.306E+02 -.244E-03 0.201E+04   0.814E+00 -.142E-04 0.559E+01
   -.471E-04 -.883E+02 -.194E+04   0.440E-04 0.920E+02 0.194E+04   0.373E-05 -.331E+01 0.766E+00
   0.391E-02 0.805E+00 0.216E+04   -.733E-03 -.847E+00 -.215E+04   -.153E-02 0.274E-01 -.648E+01
   0.106E-04 -.181E-04 0.216E+04   -.138E-04 0.214E-04 -.215E+04   -.200E-06 -.516E-05 -.636E+01
   -.248E+01 -.309E-04 0.773E+03   0.254E+01 0.336E-04 -.774E+03   -.268E-01 -.369E-05 0.701E+00
   0.600E-04 0.268E+01 0.772E+03   -.645E-04 -.286E+01 -.772E+03   0.228E-05 0.112E+00 0.686E-01
   -.519E+01 0.877E+01 -.607E+03   0.454E+01 -.902E+01 0.608E+03   0.584E+00 0.229E+00 -.120E+01
   0.684E-04 -.237E-03 -.586E+03   -.713E-04 0.254E-03 0.586E+03   0.171E-05 -.127E-04 0.160E+00
   -.483E+02 -.819E-04 -.194E+04   0.545E+02 0.610E-04 0.193E+04   -.560E+01 0.409E-05 0.636E+01
   0.428E-04 0.187E+02 -.203E+04   -.379E-04 -.195E+02 0.202E+04   -.428E-05 0.780E+00 0.547E+01
   0.390E-02 -.805E+00 0.216E+04   -.713E-03 0.847E+00 -.215E+04   -.153E-02 -.274E-01 -.648E+01
   0.130E-04 0.218E-04 0.216E+04   -.131E-04 -.214E-04 -.215E+04   0.131E-05 0.147E-06 -.646E+01
   0.120E+01 0.360E-04 0.769E+03   -.128E+01 -.365E-04 -.769E+03   0.540E-01 0.298E-06 0.354E+00
   0.616E-04 -.268E+01 0.772E+03   -.633E-04 0.286E+01 -.772E+03   -.117E-05 -.112E+00 0.686E-01
   -.519E+01 -.877E+01 -.607E+03   0.454E+01 0.902E+01 0.608E+03   0.584E+00 -.229E+00 -.120E+01
   0.412E-04 0.182E-03 -.611E+03   -.385E-04 -.214E-03 0.611E+03   -.320E-05 0.216E-04 -.121E+00
   -.297E+02 0.266E-03 -.202E+04   0.306E+02 -.246E-03 0.201E+04   -.814E+00 -.154E-04 0.559E+01
   0.441E-04 -.187E+02 -.203E+04   -.393E-04 0.195E+02 0.202E+04   -.425E-05 -.780E+00 0.547E+01
   0.171E+00 0.224E+01 0.576E+03   -.299E+00 -.234E+01 -.576E+03   0.152E+00 0.129E+00 -.300E+00
   -.416E-04 0.409E-04 0.587E+03   0.411E-04 -.446E-04 -.588E+03   0.126E-05 0.231E-05 0.476E+00
   0.166E+00 -.693E-05 0.162E+04   -.177E+00 0.858E-05 -.163E+04   0.137E-01 -.222E-05 0.315E+01
   -.925E-05 0.791E+00 0.162E+04   0.103E-04 -.841E+00 -.163E+04   -.176E-05 0.626E-01 0.311E+01
   0.381E+02 0.298E+02 -.150E+04   -.372E+02 -.300E+02 0.150E+04   -.808E+00 0.140E+00 -.481E+01
   -.397E-04 -.484E-03 -.126E+04   0.477E-04 0.480E-03 0.124E+04   -.750E-05 0.225E-05 0.229E+02
   0.319E+01 0.627E-04 -.442E+03   -.345E+01 -.670E-04 0.441E+03   0.234E+00 0.173E-06 0.820E+00
   -.439E-04 0.861E+01 -.472E+03   0.450E-04 -.903E+01 0.473E+03   0.155E-06 0.374E+00 -.168E+01
   0.172E+00 -.224E+01 0.576E+03   -.299E+00 0.234E+01 -.576E+03   0.152E+00 -.129E+00 -.300E+00
   -.430E-04 -.425E-04 0.573E+03   0.416E-04 0.561E-04 -.572E+03   0.118E-05 -.149E-04 -.265E+00
   -.151E+00 0.627E-05 0.162E+04   0.153E+00 -.856E-05 -.163E+04   -.365E-02 0.260E-05 0.307E+01
   -.145E-04 -.791E+00 0.162E+04   0.102E-04 0.841E+00 -.163E+04   0.288E-06 -.626E-01 0.311E+01
   0.381E+02 -.298E+02 -.150E+04   -.372E+02 0.300E+02 0.150E+04   -.808E+00 -.140E+00 -.481E+01
   -.596E-05 0.537E-03 -.150E+04   0.818E-05 -.555E-03 0.151E+04   -.167E-05 0.141E-04 -.378E+01
   0.293E+01 -.451E-04 -.452E+03   -.305E+01 0.579E-04 0.452E+03   0.108E+00 -.116E-04 0.310E+00
   -.421E-04 -.861E+01 -.472E+03   0.430E-04 0.903E+01 0.473E+03   0.290E-06 -.374E+00 -.168E+01
   -.171E+00 0.224E+01 0.576E+03   0.299E+00 -.234E+01 -.576E+03   -.152E+00 0.129E+00 -.300E+00
   0.421E-04 -.985E-04 0.582E+03   -.442E-04 0.998E-04 -.582E+03   -.104E-05 -.983E-07 0.293E+00
   -.166E+00 -.111E-04 0.162E+04   0.177E+00 0.847E-05 -.163E+04   -.137E-01 -.179E-05 0.315E+01
   0.115E-04 0.474E+00 0.162E+04   -.103E-04 -.510E+00 -.163E+04   -.101E-05 0.453E-01 0.309E+01
   -.381E+02 0.298E+02 -.150E+04   0.372E+02 -.300E+02 0.150E+04   0.808E+00 0.140E+00 -.481E+01
   -.971E-05 0.130E-03 -.153E+04   0.965E-05 -.149E-03 0.153E+04   0.186E-05 0.157E-04 -.479E+01
   -.319E+01 0.677E-04 -.442E+03   0.345E+01 -.716E-04 0.441E+03   -.234E+00 0.755E-06 0.820E+00
   0.489E-04 0.643E+01 -.449E+03   -.489E-04 -.651E+01 0.448E+03   0.590E-07 0.742E-01 0.780E-01
   -.172E+00 -.224E+01 0.576E+03   0.299E+00 0.234E+01 -.576E+03   -.152E+00 -.129E+00 -.300E+00
   0.399E-04 0.101E-03 0.577E+03   -.407E-04 -.103E-03 -.577E+03   -.166E-06 0.612E-05 -.786E-01
   0.151E+00 0.830E-05 0.162E+04   -.153E+00 -.845E-05 -.163E+04   0.365E-02 0.224E-05 0.307E+01
   0.106E-04 -.474E+00 0.162E+04   -.102E-04 0.510E+00 -.163E+04   0.782E-07 -.453E-01 0.309E+01
   -.381E+02 -.298E+02 -.150E+04   0.372E+02 0.300E+02 0.150E+04   0.808E+00 -.140E+00 -.481E+01
   0.388E-04 0.381E-04 -.154E+04   -.414E-04 -.249E-04 0.155E+04   0.271E-05 -.160E-04 -.468E+01
   -.293E+01 -.465E-04 -.452E+03   0.305E+01 0.599E-04 0.452E+03   -.108E+00 -.116E-04 0.310E+00
   0.486E-04 -.643E+01 -.449E+03   -.487E-04 0.651E+01 0.448E+03   0.134E-07 -.742E-01 0.780E-01
   0.323E-05 0.787E-03 0.592E+02   0.111E-12 -.163E-12 0.364E-11   0.117E-04 -.713E-03 -.527E+02

 POSITION                                       TOTAL-FORCE (eV/Angst)
      4.17456      2.08727     15.32727         0.000002     -0.000576      0.294435
      4.17456      3.22762     15.82232         0.000006      0.221989      0.137381
      4.17456      0.94691     15.82232         0.000003     -0.221370      0.137073
      2.08728      0.00000      7.50000        -0.001408     -0.011554      0.316910
      4.17456      2.08728      7.50000        -0.000002     -0.000005      0.275596
      2.08728      2.08728      9.58728        -0.025634      0.000000      0.002389
      4.17456      0.00000      9.58728         0.000002     -0.098185      0.104294
      2.10445      8.34244     11.70065         0.004927     -0.003335      0.016657
      4.17456      2.08728     11.63680        -0.000000     -0.000018      0.003976
      1.97425      2.08728     13.73076        -0.047763     -0.000017      0.060185
      4.17456      8.25160     13.96592         0.000001     -0.100879      0.072215
      2.08728      4.17456      7.50000        -0.001410      0.011553      0.316904
      4.17456      6.26183      7.50000        -0.000003      0.000004      0.321522
      2.08728      6.26183      9.58728         0.023299     -0.000001      0.085445
      4.17456      4.17456      9.58728         0.000001      0.098181      0.104290
      2.10445      4.18122     11.70065         0.004904      0.003334      0.016639
      4.17456      6.26183     11.70915         0.000001      0.000017      0.017595
      2.06717      6.26183     13.76698        -0.000930      0.000005      0.112427
      4.17456      4.27206     13.96592         0.000000      0.100909      0.072197
      6.26183      0.00000      7.50000         0.001409     -0.011554      0.316921
      0.00000      2.08728      7.50000        -0.000004     -0.000001      0.290024
      6.26183      2.08728      9.58728         0.025636     -0.000001      0.002390
      0.00000      0.00000      9.58728        -0.000003     -0.049483      0.084546
      6.24466      8.34244     11.70065        -0.004926     -0.003337      0.016657
      8.34911      2.08728     11.65941        -0.000001      0.000003      0.000662
      6.37486      2.08728     13.73076         0.047769     -0.000016      0.060165
      0.00000      8.32866     13.75791        -0.000001     -0.005903      0.108800
      6.26183      4.17456      7.50000         0.001410      0.011551      0.316909
      0.00000      6.26183      7.50000         0.000001     -0.000000      0.318889
      6.26183      6.26183      9.58728        -0.023298      0.000000      0.085451
      0.00000      4.17456      9.58728        -0.000003      0.049483      0.084561
      6.24466      4.18122     11.70065        -0.004904      0.003334      0.016636
      0.00000      6.26183     11.67680        -0.000001     -0.000008      0.006885
      6.28194      6.26183     13.76698         0.000926      0.000004      0.112410
      0.00000      4.19500     13.75791        -0.000000      0.005902      0.108806
      2.08728      0.00000      9.58728         0.045596      0.046409      0.062330
      4.17456      2.08728      9.58728         0.000001     -0.000001     -0.039623
      2.08728      2.08728      7.50000         0.004546     -0.000001     -0.575770
      4.17456      0.00000      7.50000        -0.000001      0.020890     -0.589778
      2.07007      0.01271     13.78323         0.010603      0.010721      0.028618
      4.17456      2.08727     13.90283        -0.000001     -0.000001     -0.295767
      2.10686      2.08728     11.68879        -0.004489     -0.000004      0.007324
      4.17456      0.01946     11.70804         0.000001     -0.001152     -0.005291
      2.08728      4.17456      9.58728         0.045601     -0.046405      0.062328
      4.17456      6.26183      9.58728        -0.000000     -0.000004      0.123613
      2.08728      6.26183      7.50000        -0.001368      0.000001     -0.602581
      4.17456      4.17456      7.50000        -0.000005     -0.020885     -0.589772
      2.07008      4.16185     13.78323         0.010613     -0.010727      0.028636
      4.17456      6.26183     13.82562        -0.000000     -0.000002      0.018720
      2.09222      6.26183     11.68189        -0.002795     -0.000000      0.010893
      4.17456      4.15510     11.70804         0.000001      0.001159     -0.005294
      6.26183      0.00000      9.58728        -0.045596      0.046410      0.062327
      0.00000      2.08728      9.58728        -0.000004      0.000001      0.047360
      6.26183      2.08728      7.50000        -0.004542     -0.000005     -0.575760
      0.00000      0.00000      7.50000        -0.000000      0.015029     -0.595226
      6.27904      0.01271     13.78323        -0.010606      0.010717      0.028618
      0.00000      2.08728     13.77427         0.000002     -0.000001      0.028340
      6.24226      2.08728     11.68879         0.004486     -0.000003      0.007318
      0.00000      0.00444     11.66965        -0.000000      0.001390      0.007685
      6.26183      4.17456      9.58728        -0.045601     -0.046408      0.062325
      0.00000      6.26183      9.58728        -0.000001      0.000005      0.013583
      6.26183      6.26183      7.50000         0.001369      0.000003     -0.602583
      0.00000      4.17456      7.50000         0.000000     -0.015034     -0.595222
      6.27904      4.16185     13.78323        -0.010612     -0.010727      0.028636
      8.34911      6.26183     13.79138         0.000000     -0.000005      0.026590
      6.25690      6.26183     11.68189         0.002797      0.000000      0.010891
      0.00000      4.17012     11.66965        -0.000000     -0.001395      0.007687
    total drift:                                0.000019     -0.000001      0.011583

  FREE ENERGIE OF THE ION-ELECTRON SYSTEM (eV)
  free  energy   TOTEN  =      -467.25918785 eV

  energy  without entropy=     -467.25918785  energy(sigma->0) =     -467.25918785