 vasp.6.3.0 20Jan22 (build Dec 25 2023 18:06:01) complex
 executed on        HPECrayEX_GCC date 2024.01.26  01:38:48

 INCAR:
   SYSTEM = MgO-rocksalt
   ISMEAR = 0
   SIGMA = 0.05
   EDIFF = 1E-5
   ALGO = ALL
   ISTART = 0
   IBRION = -1
   NSW = 0
   ISYM = 2
   ISIF = 2
   DIPOL = 0.5 0.5 0.5
   IDIPOL = 3
   LDIPOL = .TRUE.
   LHFCALC = .TRUE.
   GGA = PE
   IVDW = 13
   VDW_S8 = 1.2007
   VDW_A1 = 0.4009
   VDW_A2 = 5.0293
   ENCUT = 600
   PREC = Accurate
   LASPH = .TRUE.
   LREAL = .FALSE.
   ISPIN = 1
   NELM = 200
   NELMIN = 8
   NCORE = 8
   KPAR = 1
   LWAVE = .FALSE.
   LCHARG = .FALSE.

 POTCAR:    PAW_PBE C 08Apr2002
 POTCAR:    PAW_PBE O 08Apr2002
 POTCAR:    PAW_PBE Mg_pv 13Apr2007
 POTCAR:    PAW_PBE O 08Apr2002
|           W    W    AA    RRRRR   N    N  II  N    N   GGGG   !!!           |
|           W    W   A  A   R    R  NN   N  II  NN   N  G    G  !!!           |
|           W    W  A    A  R    R  N N  N  II  N N  N  G       !!!           |
|           W WW W  AAAAAA  RRRRR   N  N N  II  N  N N  G  GGG   !            |
|           WW  WW  A    A  R   R   N   NN  II  N   NN  G    G                |
|           W    W  A    A  R    R  N    N  II  N    N   GGGG   !!!           |
|     You have selected ISYM=2 for a HF type calculation. This will           |
|     symmetrize the charge density but not the exchange potential. I         |
|     suggest to use ISYM=3 instead. This uses symmetry to obtain the         |
|     orbitals at all k-points in the Brillouin zone, but does not apply      |
|     symmetry to the Hartree potential directly. The resultant charge        |
|     might have lower symmetry than the crystal but, at least, Hartree       |
|     and exchange are fully compatible.                                      |

   TITEL  = PAW_PBE C 08Apr2002
   POMASS =   12.011; ZVAL   =    4.000    mass and valenz
   ENMAX  =  400.000; ENMIN  =  300.000 eV

[...]

   TITEL  = PAW_PBE Mg_pv 13Apr2007
   POMASS =   24.305; ZVAL   =    8.000    mass and valenz
   ENMAX  =  403.929; ENMIN  =  302.947 eV

   TITEL  = PAW_PBE O 08Apr2002
   POMASS =   16.000; ZVAL   =    6.000    mass and valenz
   ENMAX  =  400.000; ENMIN  =  300.000 eV

  PAW_PBE C 08Apr2002                   :
  PAW_PBE O 08Apr2002                   :
  PAW_PBE Mg_pv 13Apr2007               :
  PAW_PBE O 08Apr2002                   :

 POSCAR:  C  O Mg  O
  positions in direct lattice
|           W    W    AA    RRRRR   N    N  II  N    N   GGGG   !!!           |
|           W    W   A  A   R    R  NN   N  II  NN   N  G    G  !!!           |
|           W    W  A    A  R    R  N N  N  II  N N  N  G       !!!           |
|           W WW W  AAAAAA  RRRRR   N  N N  II  N  N N  G  GGG   !            |
|           WW  WW  A    A  R   R   N   NN  II  N   NN  G    G                |
|           W    W  A    A  R    R  N    N  II  N    N   GGGG   !!!           |
|     Specifying the vdW parameters                                           |
|     VDW_S8 = 1.201                                                          |
|     VDW_A1 = 0.401                                                          |
|     VDW_A2 = 5.029                                                          |
|     in the INCAR file will overwrite the defaults for pbe0. Please make     |
|     sure that is what you intended.                                         |

 ion  position               nearest neighbor table
   1  0.500  0.500  0.763-   2 1.14
   2  0.500  0.500  0.817-   1 1.14
   3  0.250  0.000  0.352-  35 2.11  37 2.11  38 2.11  45 2.11  54 2.11
   4  0.500  0.250  0.352-  36 2.11  37 2.11  38 2.11  46 2.11  53 2.11
   5  0.250  0.250  0.451-  37 2.11  36 2.11  35 2.11  43 2.11  52 2.11  41 2.11
   6  0.500  0.000  0.451-  38 2.11  36 2.11  35 2.11  44 2.11  51 2.11  42 2.11
   7  0.250  0.000  0.550-  42 2.11  41 2.11  49 2.11  58 2.11  35 2.12  39 2.14
   8  0.500  0.250  0.550-  50 2.11  41 2.11  57 2.11  42 2.11  36 2.12  40 2.14
   9  0.250  0.250  0.648-  41 2.10  39 2.11  56 2.11  47 2.11  40 2.11
  10  0.500  0.000  0.648-  40 2.10  48 2.10  42 2.10  39 2.11  55 2.11
  11  0.250  0.500  0.352-  43 2.11  37 2.11  45 2.11  46 2.11  62 2.11
  12  0.500  0.750  0.352-  44 2.11  38 2.11  45 2.11  46 2.11  61 2.11
  13  0.250  0.750  0.451-  45 2.11  43 2.11  44 2.11  35 2.11  60 2.11  49 2.11
  14  0.500  0.500  0.451-  46 2.11  43 2.11  44 2.11  36 2.11  59 2.11  50 2.12
  15  0.250  0.500  0.550-  50 2.11  49 2.11  41 2.11  66 2.11  43 2.12  47 2.14
  16  0.500  0.750  0.550-  50 2.11  49 2.11  65 2.11  42 2.11  44 2.12  48 2.14
  17  0.250  0.750  0.648-  49 2.10  39 2.11  64 2.11  47 2.11  48 2.11
  18  0.500  0.500  0.651-  40 2.12  47 2.12  48 2.12  63 2.12  50 2.14
  19  0.750  0.000  0.352-  51 2.11  38 2.11  53 2.11  54 2.11  61 2.11
  20  0.000  0.250  0.352-  52 2.11  37 2.11  53 2.11  54 2.11  62 2.11
  21  0.750  0.250  0.451-  53 2.11  51 2.11  52 2.11  36 2.11  59 2.11  57 2.11
  22  0.000  0.000  0.451-  54 2.11  51 2.11  52 2.11  35 2.11  60 2.11  58 2.11
  23  0.750  0.000  0.550-  42 2.11  57 2.11  65 2.11  58 2.11  51 2.12  55 2.14
  24  0.000  0.250  0.550-  66 2.11  57 2.11  41 2.11  58 2.11  52 2.12  56 2.14
  25  0.750  0.250  0.648-  57 2.10  56 2.11  55 2.11  40 2.11  63 2.11
  26  0.000  0.000  0.648-  58 2.10  55 2.11  56 2.11  39 2.11  64 2.11
  27  0.750  0.500  0.352-  59 2.11  53 2.11  46 2.11  61 2.11  62 2.11
  28  0.000  0.750  0.352-  60 2.11  54 2.11  45 2.11  61 2.11  62 2.11
  29  0.750  0.750  0.451-  61 2.11  51 2.11  59 2.11  60 2.11  44 2.11  65 2.11
  30  0.000  0.500  0.451-  62 2.11  52 2.11  59 2.11  60 2.11  43 2.11  66 2.11
  31  0.750  0.500  0.550-  50 2.11  57 2.11  65 2.11  66 2.11  59 2.12  63 2.14
  32  0.000  0.750  0.550-  66 2.11  65 2.11  49 2.11  58 2.11  60 2.12  64 2.14
  33  0.750  0.750  0.648-  65 2.10  64 2.11  55 2.11  48 2.11  63 2.11
  34  0.000  0.500  0.648-  47 2.10  63 2.10  66 2.10  64 2.11  56 2.11
  35  0.250  0.000  0.451-   3 2.11   5 2.11   6 2.11  13 2.11  22 2.11   7 2.12
  36  0.500  0.250  0.451-   4 2.11   5 2.11   6 2.11  14 2.11  21 2.11   8 2.12
  37  0.250  0.250  0.352-   5 2.11   4 2.11   3 2.11  11 2.11  20 2.11
  38  0.500  0.000  0.352-   6 2.11   4 2.11   3 2.11  12 2.11  19 2.11
  39  0.250  0.000  0.650-   9 2.11  17 2.11  26 2.11  10 2.11   7 2.14
  40  0.500  0.249  0.650-  10 2.10   9 2.11  25 2.11  18 2.12   8 2.14
  41  0.250  0.250  0.550-   9 2.10   7 2.11  24 2.11  15 2.11   8 2.11   5 2.11
  42  0.500  0.000  0.550-  10 2.10   7 2.11  23 2.11   6 2.11  16 2.11   8 2.11
  43  0.250  0.500  0.451-  11 2.11   5 2.11  13 2.11  14 2.11  30 2.11  15 2.12
  44  0.500  0.750  0.451-  12 2.11   6 2.11  13 2.11  14 2.11  29 2.11  16 2.12
  45  0.250  0.750  0.352-  13 2.11  11 2.11  12 2.11   3 2.11  28 2.11
  46  0.500  0.500  0.352-  14 2.11  11 2.11  12 2.11   4 2.11  27 2.11
  47  0.249  0.500  0.650-  34 2.10  17 2.11   9 2.11  18 2.12  15 2.14
  48  0.500  0.751  0.650-  10 2.10  17 2.11  33 2.11  18 2.12  16 2.14
  49  0.250  0.750  0.550-  17 2.10   7 2.11  32 2.11  15 2.11  16 2.11  13 2.11
  50  0.500  0.500  0.550-   8 2.11  15 2.11  16 2.11  31 2.11  14 2.12  18 2.14
  51  0.750  0.000  0.451-  19 2.11   6 2.11  21 2.11  22 2.11  29 2.11  23 2.12
  52  0.000  0.250  0.451-  20 2.11   5 2.11  21 2.11  22 2.11  30 2.11  24 2.12
  53  0.750  0.250  0.352-  21 2.11  19 2.11  20 2.11   4 2.11  27 2.11
  54  0.000  0.000  0.352-  22 2.11  19 2.11  20 2.11   3 2.11  28 2.11
  55  0.750  0.000  0.650-  25 2.11  33 2.11  26 2.11  10 2.11  23 2.14
  56  0.000  0.250  0.650-   9 2.11  25 2.11  26 2.11  34 2.11  24 2.14
  57  0.750  0.250  0.550-  25 2.10  24 2.11  23 2.11   8 2.11  31 2.11  21 2.11
  58  0.000  0.000  0.550-  26 2.10  23 2.11  24 2.11   7 2.11  32 2.11  22 2.11
  59  0.750  0.500  0.451-  27 2.11  21 2.11  14 2.11  29 2.11  30 2.11  31 2.12
  60  0.000  0.750  0.451-  28 2.11  22 2.11  13 2.11  29 2.11  30 2.11  32 2.12
  61  0.750  0.750  0.352-  29 2.11  19 2.11  27 2.11  28 2.11  12 2.11
  62  0.000  0.500  0.352-  30 2.11  20 2.11  27 2.11  28 2.11  11 2.11
  63  0.751  0.500  0.650-  34 2.10  33 2.11  25 2.11  18 2.12  31 2.14
  64  0.000  0.750  0.650-  17 2.11  33 2.11  26 2.11  34 2.11  32 2.14
  65  0.750  0.750  0.550-  33 2.10  32 2.11  23 2.11  16 2.11  31 2.11  29 2.11
  66  0.000  0.500  0.550-  34 2.10  32 2.11  24 2.11  30 2.11  15 2.11  31 2.11

  LATTYP: Found a simple tetragonal cell.
 ALAT       =     8.4405822621
 C/A-ratio  =     2.5271285836

  Lattice vectors:

 A1 = (   8.4405822621,   0.0000000000,   0.0000000000)
 A2 = (   0.0000000000,   8.4405822621,   0.0000000000)
 A3 = (   0.0000000000,   0.0000000000,  21.3304366966)

Analysis of symmetry for initial positions (statically):
 Subroutine PRICEL returns:
 Original cell was already a primitive cell.

 Routine SETGRP: Setting up the symmetry group for a
 simple tetragonal supercell.

 Subroutine GETGRP returns: Found  8 space group operations
 (whereof  8 operations were pure point group operations)
 out of a pool of 16 trial point group operations.

The static configuration has the point symmetry C_4v.

Analysis of symmetry for dynamics (positions and initial velocities):
 Subroutine PRICEL returns:
 Original cell was already a primitive cell.

[...]

The dynamic configuration has the point symmetry C_4v.

Analysis of constrained symmetry for selective dynamics:
 Subroutine PRICEL returns:
 Original cell was already a primitive cell.

 Routine SETGRP: Setting up the symmetry group for a
 simple tetragonal supercell.

 Subroutine GETGRP returns: Found  8 space group operations
 (whereof  8 operations were pure point group operations)
 out of a pool of 16 trial point group operations.

The constrained configuration has the point symmetry C_4v.

 Subroutine INISYM returns: Found  8 space group operations
 (whereof  8 operations are pure point group operations),
 and found     1 'primitive' translations

                                     Primitive cell

  volume of cell :    1519.6535

  direct lattice vectors                    reciprocal lattice vectors
     8.440582262  0.000000000  0.000000000     0.118475239  0.000000000  0.000000000
     0.000000000  8.440582262  0.000000000     0.000000000  0.118475239  0.000000000
     0.000000000  0.000000000 21.330436697     0.000000000  0.000000000  0.046881366

  length of vectors
     8.440582262  8.440582262 21.330436697     0.118475239  0.118475239  0.046881366

  position of ions in fractional coordinates (direct lattice)
     0.500000000  0.500000000  0.763496057
     0.500000000  0.500000000  0.817025071
     0.250000000  0.000000000  0.351610242
     0.500000000  0.250000000  0.351610242
     0.250000000  0.250000000  0.450536747
     0.500000000  0.000000000  0.450536747
     0.250096034  0.000000000  0.549803915
     0.500000000  0.250478300  0.550037642
     0.249708419  0.249708419  0.647948439
     0.500000000  0.000000000  0.648058606
     0.250000000  0.500000000  0.351610242
     0.500000000  0.750000000  0.351610242
     0.250000000  0.750000000  0.450536747
     0.500000000  0.500000000  0.450536747
     0.250478300  0.500000000  0.550037642
[...]
   2.11014557  2.11014557  9.61014557
   4.22029113  0.00000000  9.61014557
   2.11095615  0.00000000 11.72755760
   4.22029113  2.11418270 11.73254310
   2.10768445  2.10768445 13.82102317
   4.22029113  0.00000000 13.82337306
   2.11014557  4.22029113  7.50000000
   4.22029113  6.33043670  7.50000000
   2.11014557  6.33043670  9.61014557
   4.22029113  4.22029113  9.61014557
   2.11418270  4.22029113 11.73254310
   4.22029113  6.32639956 11.73254310
   2.10768445  6.33289781 13.82102317
   4.22029113  4.22029113 13.87854862
   6.33043670  0.00000000  7.50000000
   0.00000000  2.11014557  7.50000000
   6.33043670  2.11014557  9.61014557
   0.00000000  0.00000000  9.61014557
   6.32962612  0.00000000 11.72755760
   0.00000000  2.11095615 11.72755760
   6.33289781  2.10768445 13.82102317
   0.00000000  0.00000000 13.82469089
   6.33043670  4.22029113  7.50000000
   0.00000000  6.33043670  7.50000000
   6.33043670  6.33043670  9.61014557
   0.00000000  4.22029113  9.61014557
   6.32639956  4.22029113 11.73254310
   0.00000000  6.32962612 11.72755760
   6.33289781  6.33289781 13.82102317
   0.00000000  4.22029113 13.82337306
   2.11014557  0.00000000  9.61014557
   4.22029113  2.11014557  9.61014557
   2.11014557  2.11014557  7.50000000
   4.22029113  0.00000000  7.50000000
   2.10787215  0.00000000 13.86595544
   4.22029113  2.09922911 13.86755898
   2.10999758  2.10999758 11.72373199
   4.22029113  0.00000000 11.72209419
   2.11014557  4.22029113  9.61014557
   4.22029113  6.33043670  9.61014557
   2.11014557  6.33043670  7.50000000
   4.22029113  4.22029113  7.50000000
   2.09922911  4.22029113 13.86755898
   4.22029113  6.34135315 13.86755898
   2.10999758  6.33058468 11.72373199
   4.22029113  4.22029113 11.73376603
   6.33043670  0.00000000  9.61014557
   0.00000000  2.11014557  9.61014557
   6.33043670  2.11014557  7.50000000
   0.00000000  0.00000000  7.50000000
   6.33271011  0.00000000 13.86595544
   0.00000000  2.10787215 13.86595544
   6.33058468  2.10999758 11.72373199
   0.00000000  0.00000000 11.72231923
   6.33043670  4.22029113  9.61014557
   0.00000000  6.33043670  9.61014557
   6.33043670  6.33043670  7.50000000
   0.00000000  4.22029113  7.50000000
   6.34135315  4.22029113 13.86755898
   0.00000000  6.33271011 13.86595544
   6.33058468  6.33058468 11.72373199
   0.00000000  4.22029113 11.72209419

--------------------------------------- Iteration      FINAL  ---------------------------------------

--------------------OUTCAR has been truncated-------------------------

[...]

--------------------OUTCAR has been truncated-------------------------

  FORCE on cell =-STRESS in cart. coord.  units (eV):
  Direction    XX          YY          ZZ          XY          YZ          ZX
  Alpha Z   908.06353   908.06353   908.06353
  Ewald  158173.94950158173.94950************     0.00000     0.00000    -0.00000
  Hartree168687.71152168687.71152************    -0.00000    -0.00000    -0.00000
  E(xc)   -1888.23096 -1888.23096 -1890.58853    -0.00000    -0.00000    -0.00000
  Local  ************************336418.58078     0.00000    -0.00000     0.00000
  n-local  -733.03615  -733.44016  -765.05214     0.00000     0.00001     0.00000
  augment   833.22480   833.22480   822.26923     0.00000    -0.00000     0.00000
  Kinetic  7509.76675  7511.46285  7533.09496     0.00003     0.00001     0.00000
  Fock    -2515.83330 -2515.92837 -2515.35597    -0.00000    -0.00000     0.00000
  vdW        -8.81663    -8.81664    -6.13117    -0.00000    -0.00000     0.00000
  Total     -49.52687   -49.52687   -17.77135     0.00000    -0.00000     0.00000
  in kB     -52.21640   -52.21640   -18.73641     0.00000    -0.00000     0.00000

 VOLUME and BASIS-vectors are now :
  energy-cutoff  :      600.00
  volume of cell :     1519.65
      direct lattice vectors                 reciprocal lattice vectors
     8.440582262  0.000000000  0.000000000     0.118475239  0.000000000  0.000000000
     0.000000000  8.440582262  0.000000000     0.000000000  0.118475239  0.000000000
     0.000000000  0.000000000 21.330436697     0.000000000  0.000000000  0.046881366

  length of vectors
     8.440582262  8.440582262 21.330436697     0.118475239  0.118475239  0.046881366

 FORCES acting on ions:
    Electron-Ion                     Ewald-Force                    Non-Local-Force
   0.102E-12 0.923E-12 -.842E+03   -.171E-13 -.176E-14 0.816E+03   0.529E-22 0.794E-22 0.259E+02
   0.400E-12 0.242E-12 -.146E+04   0.489E-14 0.111E-14 0.152E+04   0.000E+00 -.662E-23 -.535E+02
   0.926E-01 0.000E+00 0.208E+04   -.909E-01 0.656E-13 -.207E+04   -.105E-02 -.106E-21 -.677E+01
   0.676E-12 0.859E-01 0.208E+04   0.584E-13 -.820E-01 -.207E+04   0.000E+00 -.258E-02 -.677E+01
   0.311E+00 0.311E+00 0.717E+03   -.294E+00 -.294E+00 -.717E+03   -.106E-01 -.106E-01 0.417E+00
   0.609E-12 -.657E-12 0.717E+03   0.367E-13 -.500E-13 -.717E+03   0.000E+00 -.265E-22 0.359E+00
   0.268E+01 -.539E-13 -.641E+03   -.265E+01 0.136E-10 0.641E+03   -.271E-01 0.000E+00 -.169E+00
   0.594E-12 0.383E+01 -.636E+03   -.104E-12 -.370E+01 0.636E+03   0.000E+00 -.111E+00 -.280E+00
   0.178E+02 0.178E+02 -.199E+04   -.179E+02 -.179E+02 0.198E+04   0.105E+00 0.105E+00 0.604E+01
   0.695E-12 -.539E-13 -.200E+04   -.120E-11 0.164E-10 0.199E+04   0.000E+00 -.529E-22 0.596E+01
   0.859E-01 0.485E-12 0.208E+04   -.820E-01 -.212E-13 -.207E+04   -.258E-02 0.132E-22 -.677E+01
   0.663E-12 -.859E-01 0.208E+04   -.156E-11 0.820E-01 -.207E+04   0.000E+00 0.258E-02 -.677E+01
   0.311E+00 -.311E+00 0.717E+03   -.294E+00 0.294E+00 -.717E+03   -.106E-01 0.106E-01 0.417E+00
   0.629E-12 0.714E-12 0.717E+03   0.142E-11 -.249E-13 -.717E+03   0.000E+00 0.000E+00 0.496E+00
   0.383E+01 0.105E-11 -.636E+03   -.370E+01 -.461E-13 0.636E+03   -.111E+00 -.212E-21 -.280E+00
   0.598E-12 -.383E+01 -.636E+03   -.551E-13 0.370E+01 0.636E+03   -.212E-21 0.111E+00 -.280E+00
   0.178E+02 -.178E+02 -.199E+04   -.179E+02 0.179E+02 0.198E+04   0.105E+00 -.105E+00 0.604E+01
   0.679E-12 0.727E-12 -.192E+04   -.141E-11 -.320E-13 0.192E+04   0.000E+00 -.132E-22 0.397E+01
   -.926E-01 -.135E-13 0.208E+04   0.909E-01 -.338E-13 -.207E+04   0.105E-02 0.225E-21 -.677E+01
   -.602E-13 0.926E-01 0.208E+04   0.146E-11 -.909E-01 -.207E+04   0.000E+00 -.105E-02 -.677E+01
   -.311E+00 0.311E+00 0.717E+03   0.294E+00 -.294E+00 -.717E+03   0.106E-01 -.106E-01 0.417E+00
   -.571E-13 -.579E-12 0.716E+03   -.151E-10 -.410E-13 -.716E+03   -.116E-22 0.000E+00 0.387E+00
   -.268E+01 -.741E-13 -.641E+03   0.265E+01 0.135E-10 0.641E+03   0.271E-01 0.212E-21 -.169E+00
   -.353E-13 0.268E+01 -.641E+03   0.166E-10 -.265E+01 0.641E+03   0.212E-21 -.271E-01 -.169E+00
   -.178E+02 0.178E+02 -.199E+04   0.179E+02 -.179E+02 0.198E+04   -.105E+00 0.105E+00 0.604E+01
   -.143E-13 0.127E-11 -.201E+04   0.273E-11 0.104E-11 0.200E+04   0.000E+00 0.000E+00 0.597E+01
   -.859E-01 -.700E-12 0.208E+04   0.820E-01 -.153E-11 -.207E+04   0.258E-02 0.000E+00 -.677E+01
   -.803E-13 -.926E-01 0.208E+04   -.996E-13 0.909E-01 -.207E+04   -.212E-21 0.105E-02 -.677E+01
   -.311E+00 -.311E+00 0.717E+03   0.294E+00 0.294E+00 -.717E+03   0.106E-01 0.106E-01 0.417E+00
   -.472E-13 -.539E-13 0.717E+03   -.106E-12 0.149E-10 -.717E+03   0.000E+00 0.132E-22 0.359E+00
   -.383E+01 0.424E-11 -.636E+03   0.370E+01 -.568E-13 0.636E+03   0.111E+00 0.000E+00 -.280E+00
   -.442E-13 -.268E+01 -.641E+03   0.153E-10 0.265E+01 0.641E+03   0.106E-21 0.271E-01 -.169E+00
   -.178E+02 -.178E+02 -.199E+04   0.179E+02 0.179E+02 0.198E+04   -.105E+00 -.105E+00 0.604E+01
   -.266E-13 0.364E-12 -.200E+04   0.156E-12 -.249E-13 0.199E+04   0.000E+00 0.000E+00 0.596E+01
   0.303E+00 -.401E-12 0.537E+03   -.296E+00 0.366E-13 -.537E+03   -.881E-02 -.132E-21 -.726E-01
   0.272E-12 0.274E+00 0.537E+03   0.127E-13 -.302E+00 -.537E+03   0.212E-21 0.320E-01 -.116E+00
   0.661E-01 0.661E-01 0.156E+04   -.633E-01 -.633E-01 -.157E+04   -.327E-02 -.327E-02 0.303E+01
   0.344E-12 0.109E-11 0.156E+04   0.661E-13 0.654E-14 -.157E+04   0.000E+00 0.106E-21 0.303E+01
   0.719E+01 -.471E-12 -.152E+04   -.711E+01 0.104E-13 0.153E+04   -.721E-01 0.000E+00 -.427E+01
   0.361E-12 0.236E+02 -.149E+04   0.620E-13 -.233E+02 0.150E+04   0.000E+00 -.292E+00 -.420E+01
   0.238E+01 0.238E+01 -.473E+03   -.237E+01 -.237E+01 0.472E+03   -.117E-01 -.117E-01 0.348E+00
   0.295E-12 0.525E-12 -.473E+03   0.136E-13 0.428E-13 0.473E+03   0.000E+00 0.000E+00 0.287E+00
   0.274E+00 -.242E-12 0.537E+03   -.302E+00 0.847E-11 -.537E+03   0.320E-01 0.106E-21 -.116E+00
   0.286E-12 -.274E+00 0.537E+03   0.793E-12 0.302E+00 -.537E+03   0.794E-22 -.320E-01 -.116E+00
   0.661E-01 -.661E-01 0.156E+04   -.633E-01 0.633E-01 -.157E+04   -.327E-02 0.327E-02 0.303E+01
   0.314E-12 0.186E-11 0.156E+04   -.821E-12 -.800E-12 -.157E+04   0.000E+00 0.000E+00 0.302E+01
   0.236E+02 0.741E-12 -.149E+04   -.233E+02 0.383E-13 0.150E+04   -.292E+00 0.000E+00 -.420E+01
   0.358E-12 -.236E+02 -.149E+04   0.799E-13 0.233E+02 0.150E+04   0.000E+00 0.292E+00 -.420E+01
   0.238E+01 -.238E+01 -.473E+03   -.237E+01 0.237E+01 0.472E+03   -.117E-01 0.117E-01 0.348E+00
   0.268E-12 0.189E-11 -.475E+03   0.110E-12 0.212E-13 0.475E+03   -.662E-23 0.000E+00 -.256E+00
   -.303E+00 -.381E-12 0.537E+03   0.296E+00 0.783E-13 -.537E+03   0.881E-02 -.943E-22 -.726E-01
   -.297E-13 0.303E+00 0.537E+03   -.926E-11 -.296E+00 -.537E+03   0.529E-22 -.881E-02 -.726E-01
   -.661E-01 0.661E-01 0.156E+04   0.633E-01 -.633E-01 -.157E+04   0.327E-02 -.327E-02 0.303E+01
   -.493E-13 -.135E-12 0.156E+04   0.175E-11 0.358E-13 -.157E+04   -.106E-21 0.000E+00 0.303E+01
   -.719E+01 -.431E-12 -.152E+04   0.711E+01 -.572E-13 0.153E+04   0.721E-01 -.265E-22 -.427E+01
   -.404E-14 0.719E+01 -.152E+04   -.905E-11 -.711E+01 0.153E+04   0.529E-22 -.721E-01 -.427E+01
   -.238E+01 0.238E+01 -.473E+03   0.237E+01 -.237E+01 0.472E+03   0.117E-01 -.117E-01 0.348E+00
   -.242E-13 0.431E-12 -.478E+03   0.644E-13 0.159E-10 0.478E+03   0.000E+00 -.248E-22 0.259E+00
   -.274E+00 0.667E-11 0.537E+03   0.302E+00 0.840E-11 -.537E+03   -.320E-01 -.596E-22 -.116E+00
   -.359E-13 -.303E+00 0.537E+03   -.840E-11 0.296E+00 -.537E+03   0.529E-22 0.881E-02 -.726E-01
   -.661E-01 -.661E-01 0.156E+04   0.633E-01 0.633E-01 -.157E+04   0.327E-02 0.327E-02 0.303E+01
   -.267E-13 0.229E-12 0.156E+04   0.873E-12 -.800E-12 -.157E+04   0.000E+00 0.000E+00 0.303E+01
   -.236E+02 0.768E-12 -.149E+04   0.233E+02 0.722E-14 0.150E+04   0.292E+00 -.132E-22 -.420E+01
   -.172E-14 -.719E+01 -.152E+04   -.823E-11 0.711E+01 0.153E+04   0.000E+00 0.721E-01 -.427E+01
   -.238E+01 -.238E+01 -.473E+03   0.237E+01 0.237E+01 0.472E+03   0.117E-01 0.117E-01 0.348E+00
   -.195E-13 0.761E-12 -.473E+03   -.853E-13 0.569E-13 0.473E+03   -.662E-23 0.199E-22 0.287E+00
   0.261E-10 -.304E-11 0.525E+02   -.490E-12 0.108E-12 0.101E-10   -.520E-16 -.451E-16 -.428E+02

 POSITION                                       TOTAL-FORCE (eV/Angst)
      4.22029      4.22029     16.28570        -0.000000     -0.000000      1.537047
      4.22029      4.22029     17.42750        -0.000000     -0.000000     -1.475240
      2.11015      0.00000      7.50000         0.000490     -0.000000      0.583652
      4.22029      2.11015      7.50000        -0.000000      0.000922      0.585415
      2.11015      2.11015      9.61015         0.005176      0.005176      0.038295
      4.22029      0.00000      9.61015        -0.000000     -0.000000      0.048736
      2.11096      0.00000     11.72756         0.001535     -0.000000     -0.017058
      4.22029      2.11418     11.73254        -0.000000      0.001704     -0.010756
      2.10768      2.10768     13.82102         0.001243      0.001243     -0.232923
      4.22029      0.00000     13.82337        -0.000000     -0.000000     -0.230752
      2.11015      4.22029      7.50000         0.000922     -0.000000      0.585415
      4.22029      6.33044      7.50000        -0.000000     -0.000922      0.585415
      2.11015      6.33044      9.61015         0.005176     -0.005176      0.038295
      4.22029      4.22029      9.61015        -0.000000     -0.000000      0.057708
      2.11418      4.22029     11.73254         0.001704     -0.000000     -0.010756
      4.22029      6.32640     11.73254        -0.000000     -0.001704     -0.010756
      2.10768      6.33290     13.82102         0.001243     -0.001243     -0.232923
      4.22029      4.22029     13.87855        -0.000000     -0.000000     -0.322898
      6.33044      0.00000      7.50000        -0.000490     -0.000000      0.583652
      0.00000      2.11015      7.50000        -0.000000      0.000490      0.583652
      6.33044      2.11015      9.61015        -0.005176      0.005176      0.038295
      0.00000      0.00000      9.61015        -0.000000     -0.000000      0.034628
      6.32963      0.00000     11.72756        -0.001535     -0.000000     -0.017058
      0.00000      2.11096     11.72756        -0.000000      0.001535     -0.017058
      6.33290      2.10768     13.82102        -0.001243      0.001243     -0.232923
      0.00000      0.00000     13.82469        -0.000000     -0.000000     -0.229674
      6.33044      4.22029      7.50000        -0.000922     -0.000000      0.585415
      0.00000      6.33044      7.50000        -0.000000     -0.000490      0.583652
      6.33044      6.33044      9.61015        -0.005176     -0.005176      0.038295
      0.00000      4.22029      9.61015        -0.000000     -0.000000      0.048736
      6.32640      4.22029     11.73254        -0.001704     -0.000000     -0.010756
      0.00000      6.32963     11.72756        -0.000000     -0.001535     -0.017058
      6.33290      6.33290     13.82102        -0.001243     -0.001243     -0.232923
      0.00000      4.22029     13.82337        -0.000000     -0.000000     -0.230752
      2.11015      0.00000      9.61015        -0.003067     -0.000000      0.040734
      4.22029      2.11015      9.61015        -0.000000      0.009807      0.050350
      2.11015      2.11015      7.50000        -0.001122     -0.001122     -0.413121
      4.22029      0.00000      7.50000        -0.000000     -0.000000     -0.413420
      2.10787      0.00000     13.86596        -0.001823     -0.000000     -0.023344
      4.22029      2.09923     13.86756        -0.000000     -0.004791     -0.013734
      2.11000      2.11000     11.72373        -0.000766     -0.000766      0.009747
      4.22029      0.00000     11.72209        -0.000000     -0.000000      0.009842
      2.11015      4.22029      9.61015         0.009807     -0.000000      0.050350
      4.22029      6.33044      9.61015        -0.000000     -0.009807      0.050350
      2.11015      6.33044      7.50000        -0.001122      0.001122     -0.413121
      4.22029      4.22029      7.50000        -0.000000     -0.000000     -0.414837
      2.09923      4.22029     13.86756        -0.004791     -0.000000     -0.013734
      4.22029      6.34135     13.86756        -0.000000      0.004791     -0.013734
      2.11000      6.33058     11.72373        -0.000766      0.000766      0.009747
      4.22029      4.22029     11.73377        -0.000000     -0.000000     -0.002321
      6.33044      0.00000      9.61015         0.003067     -0.000000      0.040734
      0.00000      2.11015      9.61015        -0.000000     -0.003067      0.040734
      6.33044      2.11015      7.50000         0.001122     -0.001122     -0.413121
      0.00000      0.00000      7.50000        -0.000000     -0.000000     -0.412450
      6.33271      0.00000     13.86596         0.001823     -0.000000     -0.023344
      0.00000      2.10787     13.86596        -0.000000     -0.001823     -0.023344
      6.33058      2.11000     11.72373         0.000766     -0.000766      0.009747
      0.00000      0.00000     11.72232        -0.000000     -0.000000      0.010194
      6.33044      4.22029      9.61015        -0.009807     -0.000000      0.050350
      0.00000      6.33044      9.61015        -0.000000      0.003067      0.040734
      6.33044      6.33044      7.50000         0.001122      0.001122     -0.413121
      0.00000      4.22029      7.50000        -0.000000     -0.000000     -0.413420
      6.34135      4.22029     13.86756         0.004791     -0.000000     -0.013734
      0.00000      6.33271     13.86596        -0.000000      0.001823     -0.023344
      6.33058      6.33058     11.72373         0.000766      0.000766      0.009747
      0.00000      4.22029     11.72209        -0.000000     -0.000000      0.009842
    total drift:                                0.000000     -0.000000      0.004341

  FREE ENERGIE OF THE ION-ELECTRON SYSTEM (eV)
  free  energy   TOTEN  =      -491.02000088 eV

  energy  without entropy=     -491.02000088  energy(sigma->0) =     -491.02000088