 vasp.6.3.0 20Jan22 (build Dec 25 2023 18:06:01) complex
 executed on        HPECrayEX_GCC date 2024.01.26  02:56:57

 INCAR:
   SYSTEM = MgO-rocksalt
   ISMEAR = 0
   SIGMA = 0.05
   EDIFF = 1E-5
   ALGO = ALL
   ISTART = 0
   IBRION = -1
   NSW = 0
   ISYM = 2
   ISIF = 2
   DIPOL = 0.5 0.5 0.5
   IDIPOL = 3
   LDIPOL = .TRUE.
   LHFCALC = .TRUE.
   GGA = PE
   IVDW = 13
   VDW_S8 = 1.2007
   VDW_A1 = 0.4009
   VDW_A2 = 5.0293
   ENCUT = 600
   PREC = Accurate
   LASPH = .TRUE.
   LREAL = .FALSE.
   ISPIN = 1
   NELM = 200
   NELMIN = 8
   NCORE = 8
   KPAR = 1
   LWAVE = .FALSE.
   LCHARG = .FALSE.

 POTCAR:    PAW_PBE Mg_pv 13Apr2007
 POTCAR:    PAW_PBE O 08Apr2002
|           W    W    AA    RRRRR   N    N  II  N    N   GGGG   !!!           |
|           W    W   A  A   R    R  NN   N  II  NN   N  G    G  !!!           |
|           W    W  A    A  R    R  N N  N  II  N N  N  G       !!!           |
|           W WW W  AAAAAA  RRRRR   N  N N  II  N  N N  G  GGG   !            |
|           WW  WW  A    A  R   R   N   NN  II  N   NN  G    G                |
|           W    W  A    A  R    R  N    N  II  N    N   GGGG   !!!           |
|     You have selected ISYM=2 for a HF type calculation. This will           |
|     symmetrize the charge density but not the exchange potential. I         |
|     suggest to use ISYM=3 instead. This uses symmetry to obtain the         |
|     orbitals at all k-points in the Brillouin zone, but does not apply      |
|     symmetry to the Hartree potential directly. The resultant charge        |
|     might have lower symmetry than the crystal but, at least, Hartree       |
|     and exchange are fully compatible.                                      |

   TITEL  = PAW_PBE Mg_pv 13Apr2007
   POMASS =   24.305; ZVAL   =    8.000    mass and valenz
   ENMAX  =  403.929; ENMIN  =  302.947 eV

   TITEL  = PAW_PBE O 08Apr2002
   POMASS =   16.000; ZVAL   =    6.000    mass and valenz
   ENMAX  =  400.000; ENMIN  =  300.000 eV

  PAW_PBE Mg_pv 13Apr2007               :
  PAW_PBE O 08Apr2002                   :

 POSCAR: Mg  O
  positions in direct lattice
|           W    W    AA    RRRRR   N    N  II  N    N   GGGG   !!!           |
|           W    W   A  A   R    R  NN   N  II  NN   N  G    G  !!!           |
|           W    W  A    A  R    R  N N  N  II  N N  N  G       !!!           |
|           W WW W  AAAAAA  RRRRR   N  N N  II  N  N N  G  GGG   !            |
|           WW  WW  A    A  R   R   N   NN  II  N   NN  G    G                |
|           W    W  A    A  R    R  N    N  II  N    N   GGGG   !!!           |
|     Specifying the vdW parameters                                           |
|     VDW_S8 = 1.201                                                          |
|     VDW_A1 = 0.401                                                          |
|     VDW_A2 = 5.029                                                          |
|     in the INCAR file will overwrite the defaults for pbe0. Please make     |
|     sure that is what you intended.                                         |

 ion  position               nearest neighbor table
   1  0.000  0.750  0.352-  33 2.11  35 2.11  36 2.11  43 2.11  52 2.11
   2  0.250  0.000  0.352-  34 2.11  35 2.11  36 2.11  44 2.11  51 2.11
   3  0.000  0.000  0.451-  35 2.11  34 2.11  33 2.11  41 2.11  50 2.11  39 2.12
   4  0.250  0.750  0.451-  36 2.11  34 2.11  33 2.11  42 2.11  49 2.11  40 2.12
   5  0.000  0.750  0.550-  47 2.11  40 2.11  56 2.11  39 2.11  33 2.12  37 2.15
   6  0.250  0.000  0.550-  55 2.11  48 2.11  40 2.11  39 2.11  34 2.12  38 2.15
   7  0.000  0.000  0.649-  37 2.11  38 2.11  45 2.11  54 2.11  39 2.11
   8  0.250  0.750  0.649-  40 2.11  38 2.11  37 2.11  46 2.11  53 2.11
   9  0.000  0.250  0.352-  41 2.11  35 2.11  43 2.11  44 2.11  60 2.11
  10  0.250  0.500  0.352-  42 2.11  36 2.11  43 2.11  44 2.11  59 2.11
  11  0.000  0.500  0.451-  43 2.11  41 2.11  42 2.11  33 2.11  58 2.11  47 2.12
  12  0.250  0.250  0.451-  44 2.11  41 2.11  42 2.11  34 2.11  57 2.11  48 2.12
  13  0.000  0.250  0.550-  47 2.11  48 2.11  64 2.11  39 2.11  41 2.12  45 2.15
  14  0.250  0.500  0.550-  63 2.11  48 2.11  40 2.11  47 2.11  42 2.13  46 2.15
  15  0.000  0.500  0.649-  46 2.10  62 2.10  47 2.11  45 2.11  37 2.11
  16  0.250  0.250  0.649-  48 2.11  45 2.11  38 2.11  46 2.11  61 2.11
  17  0.500  0.750  0.352-  49 2.11  36 2.11  51 2.11  52 2.11  59 2.11
  18  0.750  0.000  0.352-  50 2.11  35 2.11  51 2.11  52 2.11  60 2.11
  19  0.500  0.000  0.451-  51 2.11  49 2.11  50 2.11  34 2.11  57 2.11  55 2.12
  20  0.750  0.750  0.451-  52 2.11  49 2.11  50 2.11  33 2.11  58 2.11  56 2.12
  21  0.500  0.750  0.550-  63 2.11  56 2.11  40 2.11  55 2.11  49 2.13  53 2.15
  22  0.750  0.000  0.550-  55 2.11  56 2.11  64 2.11  39 2.11  50 2.12  54 2.15
  23  0.500  0.000  0.649-  53 2.10  61 2.10  55 2.11  38 2.11  54 2.11
  24  0.750  0.750  0.649-  56 2.11  54 2.11  37 2.11  53 2.11  62 2.11
  25  0.500  0.250  0.352-  57 2.11  51 2.11  44 2.11  59 2.11  60 2.11
  26  0.750  0.500  0.352-  58 2.11  52 2.11  43 2.11  59 2.11  60 2.11
  27  0.500  0.500  0.451-  59 2.11  49 2.11  57 2.11  58 2.11  42 2.11  63 2.13
  28  0.750  0.250  0.451-  60 2.11  50 2.11  57 2.11  58 2.11  41 2.11  64 2.12
  29  0.500  0.250  0.550-  63 2.11  48 2.11  64 2.11  55 2.11  57 2.13  61 2.15
  30  0.750  0.500  0.550-  63 2.11  56 2.11  64 2.11  47 2.11  58 2.13  62 2.15
  31  0.500  0.500  0.651-  46 2.12  53 2.12  61 2.12  62 2.12  63 2.14
  32  0.750  0.250  0.649-  64 2.11  54 2.11  45 2.11  62 2.11  61 2.11
  33  0.000  0.750  0.451-   1 2.11   3 2.11   4 2.11  11 2.11  20 2.11   5 2.12
  34  0.250  0.000  0.451-   2 2.11   3 2.11   4 2.11  12 2.11  19 2.11   6 2.12
  35  0.000  0.000  0.352-   3 2.11   2 2.11   1 2.11   9 2.11  18 2.11
  36  0.250  0.750  0.352-   4 2.11   2 2.11   1 2.11  10 2.11  17 2.11
  37  0.000  0.750  0.651-   7 2.11   8 2.11  24 2.11  15 2.11   5 2.15
  38  0.250  0.000  0.651-   7 2.11   8 2.11  16 2.11  23 2.11   6 2.15
  39  0.000  0.000  0.550-   7 2.11   6 2.11   5 2.11  13 2.11  22 2.11   3 2.12
  40  0.250  0.750  0.550-   8 2.11   6 2.11   5 2.11  14 2.11  21 2.11   4 2.12
  41  0.000  0.250  0.451-   9 2.11   3 2.11  11 2.11  12 2.11  28 2.11  13 2.12
  42  0.250  0.500  0.451-  10 2.11   4 2.11  11 2.11  12 2.11  27 2.11  14 2.13
  43  0.000  0.500  0.352-  11 2.11   9 2.11  10 2.11   1 2.11  26 2.11
  44  0.250  0.250  0.352-  12 2.11   9 2.11  10 2.11   2 2.11  25 2.11
  45  0.000  0.250  0.651-   7 2.11  16 2.11  32 2.11  15 2.11  13 2.15
  46  0.249  0.500  0.651-  15 2.10   8 2.11  16 2.11  31 2.12  14 2.15
  47  0.000  0.500  0.550-  15 2.11  13 2.11   5 2.11  14 2.11  30 2.11  11 2.12
  48  0.250  0.250  0.550-  16 2.11  13 2.11   6 2.11  14 2.11  29 2.11  12 2.12
  49  0.500  0.750  0.451-  17 2.11   4 2.11  19 2.11  20 2.11  27 2.11  21 2.13
  50  0.750  0.000  0.451-  18 2.11   3 2.11  19 2.11  20 2.11  28 2.11  22 2.12
  51  0.500  0.000  0.352-  19 2.11  17 2.11  18 2.11   2 2.11  25 2.11
  52  0.750  0.750  0.352-  20 2.11  17 2.11  18 2.11   1 2.11  26 2.11
  53  0.500  0.751  0.651-  23 2.10   8 2.11  24 2.11  31 2.12  21 2.15
  54  0.750  0.000  0.651-   7 2.11  24 2.11  32 2.11  23 2.11  22 2.15
  55  0.500  0.000  0.550-  23 2.11  22 2.11   6 2.11  21 2.11  29 2.11  19 2.12
  56  0.750  0.750  0.550-  24 2.11  22 2.11   5 2.11  30 2.11  21 2.11  20 2.12
  57  0.500  0.250  0.451-  25 2.11  19 2.11  12 2.11  27 2.11  28 2.11  29 2.13
  58  0.750  0.500  0.451-  26 2.11  20 2.11  11 2.11  27 2.11  28 2.11  30 2.13
  59  0.500  0.500  0.352-  27 2.11  17 2.11  25 2.11  26 2.11  10 2.11
  60  0.750  0.250  0.352-  28 2.11  18 2.11  25 2.11  26 2.11   9 2.11
  61  0.500  0.249  0.651-  23 2.10  16 2.11  32 2.11  31 2.12  29 2.15
  62  0.751  0.500  0.651-  15 2.10  24 2.11  32 2.11  31 2.12  30 2.15
  63  0.500  0.500  0.550-  14 2.11  21 2.11  29 2.11  30 2.11  27 2.13  31 2.14
  64  0.750  0.250  0.550-  32 2.11  22 2.11  13 2.11  30 2.11  29 2.11  28 2.12

  LATTYP: Found a simple tetragonal cell.
 ALAT       =     8.4409846542
 C/A-ratio  =     2.5270438657

  Lattice vectors:

 A1 = (   8.4409846542,   0.0000000000,   0.0000000000)
 A2 = (   0.0000000000,   8.4409846542,   0.0000000000)
 A3 = (   0.0000000000,   0.0000000000,  21.3307384906)

Analysis of symmetry for initial positions (statically):
 Subroutine PRICEL returns:
 Original cell was already a primitive cell.

 Routine SETGRP: Setting up the symmetry group for a
 simple tetragonal supercell.

 Subroutine GETGRP returns: Found  8 space group operations
 (whereof  8 operations were pure point group operations)
 out of a pool of 16 trial point group operations.

The static configuration has the point symmetry C_4v.

Analysis of symmetry for dynamics (positions and initial velocities):
 Subroutine PRICEL returns:
 Original cell was already a primitive cell.

[...]

The dynamic configuration has the point symmetry C_4v.

Analysis of constrained symmetry for selective dynamics:
 Subroutine PRICEL returns:
 Original cell was already a primitive cell.

 Routine SETGRP: Setting up the symmetry group for a
 simple tetragonal supercell.

 Subroutine GETGRP returns: Found  8 space group operations
 (whereof  8 operations were pure point group operations)
 out of a pool of 16 trial point group operations.

The constrained configuration has the point symmetry C_4v.

 Subroutine INISYM returns: Found  8 space group operations
 (whereof  8 operations are pure point group operations),
 and found     1 'primitive' translations

                                     Primitive cell

  volume of cell :    1519.8199

  direct lattice vectors                    reciprocal lattice vectors
     8.440984654  0.000000000  0.000000000     0.118469591  0.000000000  0.000000000
     0.000000000  8.440984654  0.000000000     0.000000000  0.118469591  0.000000000
     0.000000000  0.000000000 21.330738491     0.000000000  0.000000000  0.046880702

  length of vectors
     8.440984654  8.440984654 21.330738491     0.118469591  0.118469591  0.046880702

  position of ions in fractional coordinates (direct lattice)
     0.000000000  0.750000000  0.351605267
     0.250000000  0.000000000  0.351605267
     0.000000000  0.000000000  0.450535089
     0.250000000  0.750000000  0.450535089
     0.000000000  0.749939268  0.550083239
     0.250060732  0.000000000  0.550083239
     0.000000000  0.000000000  0.648745309
     0.249858327  0.750141673  0.648569547
     0.000000000  0.250000000  0.351605267
     0.250000000  0.500000000  0.351605267
     0.000000000  0.500000000  0.450535089
     0.250000000  0.250000000  0.450535089
     0.000000000  0.250060732  0.550083239
     0.250378379  0.500000000  0.550219524
     0.000000000  0.500000000  0.648615280
     0.249858327  0.249858327  0.648569547
     0.500000000  0.750000000  0.351605267
     0.750000000  0.000000000  0.351605267
     0.500000000  0.000000000  0.450535089
     0.750000000  0.750000000  0.450535089
     0.500000000  0.749621621  0.550219524
     0.749939268  0.000000000  0.550083239
     0.500000000  0.000000000  0.648615280
     0.750141673  0.750141673  0.648569547
[...]
   0.50000000  0.50000000  0.35160527
   0.75000000  0.25000000  0.35160527
   0.50000000  0.24882271  0.65088287
   0.75117729  0.50000000  0.65088287
   0.50000000  0.50000000  0.55023136
   0.75005423  0.24994577  0.54985911

 position of ions in cartesian coordinates  (Angst):
   0.00000000  6.33073849  7.50000000
   2.11024616  0.00000000  7.50000000
   0.00000000  0.00000000  9.61024616
   2.11024616  6.33073849  9.61024616
   0.00000000  6.33022585 11.73368172
   2.11075880  0.00000000 11.73368172
   0.00000000  0.00000000 13.83821654
   2.10905031  6.33193435 13.83446740
   0.00000000  2.11024616  7.50000000
   2.11024616  4.22049233  7.50000000
   0.00000000  4.22049233  9.61024616
   2.11024616  2.11024616  9.61024616
   0.00000000  2.11075880 11.73368172
   2.11344006  4.22049233 11.73658877
   0.00000000  4.22049233 13.83544293
   2.10905031  2.10905031 13.83446740
   4.22049233  6.33073849  7.50000000
   6.33073849  0.00000000  7.50000000
   4.22049233  0.00000000  9.61024616
   6.33073849  6.33073849  9.61024616
   4.22049233  6.32754460 11.73658877
   6.33022585  0.00000000 11.73368172
   4.22049233  0.00000000 13.83544293
   6.33193435  6.33193435 13.83446740
   4.22049233  2.11024616  7.50000000
   6.33073849  4.22049233  7.50000000
   4.22049233  4.22049233  9.61024616
   6.33073849  2.11024616  9.61024616
   4.22049233  2.11344006 11.73658877
   6.32754460  4.22049233 11.73658877
   4.22049233  4.22049233 13.87814023
   6.33193435  2.10905031 13.83446740
   0.00000000  6.33073849  9.61024616
   2.11024616  0.00000000  9.61024616
   0.00000000  0.00000000  7.50000000
   2.11024616  6.33073849  7.50000000
   0.00000000  6.33258312 13.88586825
   2.10840153  0.00000000 13.88586825
   0.00000000  0.00000000 11.72785099
   2.10978841  6.33119624 11.72890095
   0.00000000  2.11024616  9.61024616
   2.11024616  4.22049233  9.61024616
   0.00000000  4.22049233  7.50000000
   2.11024616  2.11024616  7.50000000
   0.00000000  2.10840153 13.88586825
   2.10030867  4.22049233 13.88381232
   0.00000000  4.22049233 11.72684365
   2.10978841  2.10978841 11.72890095
   4.22049233  6.33073849  9.61024616
   6.33073849  0.00000000  9.61024616
   4.22049233  0.00000000  7.50000000
   6.33073849  6.33073849  7.50000000
   4.22049233  6.34067598 13.88381232
   6.33258312  0.00000000 13.88586825
   4.22049233  0.00000000 11.72684365
   6.33119624  6.33119624 11.72890095
   4.22049233  2.11024616  9.61024616
   6.33073849  4.22049233  9.61024616
   4.22049233  4.22049233  7.50000000
   6.33073849  2.11024616  7.50000000
   4.22049233  2.10030867 13.88381232
   6.34067598  4.22049233 13.88381232
   4.22049233  4.22049233 11.73684118
   6.33119624  2.10978841 11.72890095

--------------------------------------- Iteration      FINAL  ---------------------------------------

--------------------OUTCAR has been truncated-------------------------

[...]

--------------------OUTCAR has been truncated-------------------------

  FORCE on cell =-STRESS in cart. coord.  units (eV):
  Direction    XX          YY          ZZ          XY          YZ          ZX
  Alpha Z   875.25928   875.25928   875.25928
  Ewald  161112.87060161112.87060************     0.00000     0.00000    -0.00000
  Hartree171265.10648171265.10648************    -0.00000    -0.00000    -0.00000
  E(xc)   -1854.69862 -1854.69862 -1857.82150    -0.00000    -0.00000     0.00000
  Local  ************************342630.15610    -0.00000    -0.00000     0.00000
  n-local  -719.52967  -719.96405  -743.78676     0.00001    -0.00000     0.00000
  augment   827.58765   827.58765   816.75333    -0.00000    -0.00000     0.00000
  Kinetic  7316.22175  7317.99848  7357.86795     0.00000    -0.00002     0.00000
  Fock    -2500.90130 -2500.99471 -2497.15090    -0.00000     0.00000    -0.00000
  vdW        -8.69608    -8.69609    -5.90692     0.00000    -0.00000    -0.00000
  Total     -50.62178   -50.62178   -18.02944     0.00000     0.00000     0.00000
  in kB     -53.36492   -53.36492   -19.00644     0.00000     0.00000     0.00000

 VOLUME and BASIS-vectors are now :
  energy-cutoff  :      600.00
  volume of cell :     1519.82
      direct lattice vectors                 reciprocal lattice vectors
     8.440984654  0.000000000  0.000000000     0.118469591  0.000000000  0.000000000
     0.000000000  8.440984654  0.000000000     0.000000000  0.118469591  0.000000000
     0.000000000  0.000000000 21.330738491     0.000000000  0.000000000  0.046880702

  length of vectors
     8.440984654  8.440984654 21.330738491     0.118469591  0.118469591  0.046880702

 FORCES acting on ions:
    Electron-Ion                     Ewald-Force                    Non-Local-Force
   -.244E-13 0.761E-01 0.207E+04   0.560E-13 -.754E-01 -.206E+04   0.000E+00 -.417E-03 -.677E+01
   -.761E-01 -.485E-12 0.207E+04   0.754E-01 0.671E-13 -.206E+04   0.417E-03 0.529E-22 -.677E+01
   -.374E-13 -.451E-12 0.684E+03   -.150E-10 0.150E-10 -.684E+03   0.000E+00 0.662E-23 0.439E+00
   -.440E+00 0.440E+00 0.683E+03   0.441E+00 -.441E+00 -.684E+03   -.512E-03 0.512E-03 0.473E+00
   -.506E-13 0.275E+00 -.690E+03   0.157E-11 -.271E+00 0.690E+03   0.000E+00 0.201E-02 -.149E+00
   -.275E+00 0.162E-12 -.690E+03   0.271E+00 -.151E-11 0.690E+03   -.201E-02 0.529E-22 -.149E+00
   -.508E-13 -.943E-13 -.205E+04   0.444E-12 -.416E-12 0.204E+04   0.000E+00 0.000E+00 0.568E+01
   -.137E+01 0.137E+01 -.205E+04   0.121E+01 -.121E+01 0.204E+04   0.123E+00 -.123E+00 0.574E+01
   -.331E-13 -.761E-01 0.207E+04   -.277E-12 0.754E-01 -.206E+04   0.000E+00 0.417E-03 -.677E+01
   -.115E+00 0.162E-12 0.207E+04   0.116E+00 0.131E-10 -.206E+04   -.921E-03 0.106E-21 -.677E+01
   -.393E-13 0.310E-12 0.683E+03   -.165E-10 0.000E+00 -.684E+03   0.000E+00 0.000E+00 0.420E+00
   -.440E+00 -.440E+00 0.683E+03   0.441E+00 0.441E+00 -.684E+03   -.512E-03 -.512E-03 0.473E+00
   -.630E-13 -.275E+00 -.690E+03   0.304E-11 0.271E+00 0.690E+03   0.265E-22 -.201E-02 -.149E+00
   -.164E+01 0.364E-12 -.691E+03   0.172E+01 0.178E-14 0.692E+03   -.740E-01 0.000E+00 -.208E+00
   -.587E-13 0.269E-12 -.205E+04   -.355E-13 -.995E-13 0.204E+04   0.132E-22 -.397E-22 0.566E+01
   -.137E+01 -.137E+01 -.205E+04   0.121E+01 0.121E+01 0.204E+04   0.123E+00 0.123E+00 0.574E+01
   0.684E-12 0.115E+00 0.207E+04   -.129E-10 -.116E+00 -.206E+04   0.000E+00 0.921E-03 -.677E+01
   0.761E-01 -.485E-12 0.207E+04   -.754E-01 0.471E-13 -.206E+04   -.417E-03 0.146E-21 -.677E+01
   0.596E-12 0.397E-12 0.683E+03   0.145E-11 0.150E-10 -.684E+03   0.662E-23 0.000E+00 0.420E+00
   0.440E+00 0.440E+00 0.683E+03   -.441E+00 -.441E+00 -.684E+03   0.512E-03 0.512E-03 0.473E+00
   0.594E-12 0.164E+01 -.691E+03   -.141E-11 -.172E+01 0.692E+03   -.529E-22 0.740E-01 -.208E+00
   0.275E+00 0.135E-12 -.690E+03   -.271E+00 -.156E-11 0.690E+03   0.201E-02 0.000E+00 -.149E+00
   0.654E-12 0.189E-12 -.205E+04   0.782E-13 -.355E-14 0.204E+04   0.000E+00 0.000E+00 0.566E+01
   0.137E+01 0.137E+01 -.205E+04   -.121E+01 -.121E+01 0.204E+04   -.123E+00 -.123E+00 0.574E+01
   0.680E-12 -.115E+00 0.207E+04   -.131E-10 0.116E+00 -.206E+04   -.529E-22 -.921E-03 -.677E+01
   0.115E+00 -.197E-11 0.207E+04   -.116E+00 0.131E-10 -.206E+04   0.921E-03 -.529E-22 -.677E+01
   0.596E-12 0.122E-11 0.681E+03   -.782E-13 0.355E-14 -.682E+03   0.000E+00 -.265E-22 0.562E+00
   0.440E+00 -.440E+00 0.683E+03   -.441E+00 0.441E+00 -.684E+03   0.512E-03 -.512E-03 0.473E+00
   0.607E-12 -.164E+01 -.691E+03   -.284E-13 0.172E+01 0.692E+03   0.000E+00 -.740E-01 -.208E+00
   0.164E+01 -.149E-11 -.691E+03   -.172E+01 0.000E+00 0.692E+03   0.740E-01 -.529E-22 -.208E+00
   0.700E-12 0.943E-12 -.207E+04   -.426E-13 -.391E-13 0.206E+04   0.529E-22 0.000E+00 0.607E+01
   0.137E+01 -.137E+01 -.205E+04   -.121E+01 0.121E+01 0.204E+04   -.123E+00 0.123E+00 0.574E+01
   -.289E-13 0.175E+00 0.512E+03   0.409E-13 -.177E+00 -.512E+03   0.529E-22 0.158E-02 -.107E+00
   -.175E+00 -.418E-12 0.512E+03   0.177E+00 0.391E-13 -.512E+03   -.158E-02 0.265E-22 -.107E+00
   -.459E-13 0.714E-12 0.155E+04   0.853E-11 -.844E-11 -.156E+04   0.000E+00 -.132E-22 0.303E+01
   -.725E-01 0.725E-01 0.155E+04   0.725E-01 -.725E-01 -.156E+04   0.324E-04 -.324E-04 0.303E+01
   -.480E-13 0.423E+00 -.156E+04   -.871E-12 -.450E+00 0.156E+04   -.529E-22 0.128E-01 -.454E+01
   -.423E+00 0.808E-13 -.156E+04   0.450E+00 0.881E-12 0.156E+04   -.128E-01 0.397E-22 -.454E+01
   -.430E-13 0.387E-12 -.512E+03   -.853E-13 0.639E-13 0.511E+03   0.000E+00 0.000E+00 0.223E+00
   -.698E+00 0.698E+00 -.512E+03   0.687E+00 -.687E+00 0.511E+03   0.163E-01 -.163E-01 0.313E+00
   -.322E-13 -.175E+00 0.512E+03   0.142E-13 0.177E+00 -.512E+03   0.000E+00 -.158E-02 -.107E+00
   -.416E+00 -.673E-14 0.511E+03   0.385E+00 -.764E-11 -.511E+03   0.364E-01 0.106E-21 -.118E+00
   -.383E-13 0.123E-11 0.155E+04   0.845E-11 -.796E-12 -.156E+04   -.662E-23 0.000E+00 0.303E+01
   -.725E-01 -.725E-01 0.155E+04   0.725E-01 0.725E-01 -.156E+04   0.324E-04 0.324E-04 0.303E+01
   -.672E-13 -.423E+00 -.156E+04   -.774E-12 0.450E+00 0.156E+04   0.000E+00 -.128E-01 -.454E+01
   -.309E+01 0.135E-12 -.156E+04   0.301E+01 0.810E-11 0.156E+04   0.181E+00 0.000E+00 -.426E+01
   -.551E-13 -.168E-13 -.511E+03   -.741E-11 0.711E-14 0.510E+03   0.331E-23 0.414E-23 0.294E+00
   -.698E+00 -.698E+00 -.512E+03   0.687E+00 0.687E+00 0.511E+03   0.163E-01 0.163E-01 0.313E+00
   0.298E-12 0.416E+00 0.511E+03   0.764E-11 -.385E+00 -.511E+03   -.538E-22 -.364E-01 -.118E+00
   0.175E+00 -.411E-12 0.512E+03   -.177E+00 0.142E-13 -.512E+03   0.158E-02 0.132E-22 -.107E+00
   0.314E-12 0.108E-12 0.155E+04   0.845E-12 -.846E-11 -.156E+04   0.993E-23 0.000E+00 0.303E+01
   0.725E-01 0.725E-01 0.155E+04   -.725E-01 -.725E-01 -.156E+04   -.324E-04 -.324E-04 0.303E+01
   0.356E-12 0.309E+01 -.156E+04   -.816E-11 -.301E+01 0.156E+04   0.000E+00 -.181E+00 -.426E+01
   0.423E+00 0.673E-13 -.156E+04   -.450E+00 0.924E-12 0.156E+04   0.128E-01 0.000E+00 -.454E+01
   0.269E-12 -.835E-12 -.511E+03   -.711E-14 0.738E-11 0.510E+03   0.000E+00 0.000E+00 0.294E+00
   0.698E+00 0.698E+00 -.512E+03   -.687E+00 -.687E+00 0.511E+03   -.163E-01 -.163E-01 0.313E+00
   0.300E-12 -.416E+00 0.511E+03   0.763E-11 0.385E+00 -.511E+03   0.331E-22 0.364E-01 -.118E+00
   0.416E+00 -.218E-11 0.511E+03   -.385E+00 -.769E-11 -.511E+03   -.364E-01 -.529E-22 -.118E+00
   0.325E-12 0.411E-12 0.155E+04   0.824E-12 -.838E-12 -.156E+04   0.000E+00 0.000E+00 0.303E+01
   0.725E-01 -.725E-01 0.155E+04   -.725E-01 0.725E-01 -.156E+04   -.324E-04 0.324E-04 0.303E+01
   0.368E-12 -.309E+01 -.156E+04   -.820E-11 0.301E+01 0.156E+04   0.265E-22 0.181E+00 -.426E+01
   0.309E+01 0.149E-11 -.156E+04   -.301E+01 0.819E-11 0.156E+04   -.181E+00 0.562E-22 -.426E+01
   0.284E-12 -.606E-13 -.520E+03   -.497E-13 0.426E-13 0.520E+03   0.265E-22 0.000E+00 -.869E-01
   0.698E+00 -.698E+00 -.512E+03   -.687E+00 0.687E+00 0.511E+03   -.163E-01 0.163E-01 0.313E+00
   0.205E-10 0.167E-10 0.185E+02   0.121E-12 -.744E-13 0.296E-11   0.173E-16 -.278E-16 -.157E+02

 POSITION                                       TOTAL-FORCE (eV/Angst)
      0.00000      6.33074      7.50000         0.000000      0.000194      0.585502
      2.11025      0.00000      7.50000        -0.000194      0.000000      0.585502
      0.00000      0.00000      9.61025         0.000000      0.000000      0.057043
      2.11025      6.33074      9.61025         0.000555     -0.000555      0.055634
      0.00000      6.33023     11.73368         0.000000      0.005812      0.015620
      2.11076      0.00000     11.73368        -0.005812      0.000000      0.015620
      0.00000      0.00000     13.83822         0.000000      0.000000     -0.183048
      2.10905      6.33193     13.83447        -0.026770      0.026770     -0.172821
      0.00000      2.11025      7.50000         0.000000     -0.000194      0.585502
      2.11025      4.22049      7.50000         0.000208      0.000000      0.585167
      0.00000      4.22049      9.61025         0.000000      0.000000      0.062458
      2.11025      2.11025      9.61025         0.000555      0.000555      0.055634
      0.00000      2.11076     11.73368         0.000000     -0.005812      0.015620
      2.11344      4.22049     11.73659        -0.007482      0.000000      0.006736
      0.00000      4.22049     13.83544         0.000000      0.000000     -0.167065
      2.10905      2.10905     13.83447        -0.026770     -0.026770     -0.172821
      4.22049      6.33074      7.50000         0.000000     -0.000208      0.585167
      6.33074      0.00000      7.50000         0.000194      0.000000      0.585502
      4.22049      0.00000      9.61025         0.000000      0.000000      0.062458
      6.33074      6.33074      9.61025        -0.000555     -0.000555      0.055634
      4.22049      6.32754     11.73659         0.000000      0.007482      0.006736
      6.33023      0.00000     11.73368         0.005812      0.000000      0.015620
      4.22049      0.00000     13.83544         0.000000      0.000000     -0.167065
      6.33193      6.33193     13.83447         0.026770      0.026770     -0.172821
      4.22049      2.11025      7.50000         0.000000      0.000208      0.585167
      6.33074      4.22049      7.50000        -0.000208      0.000000      0.585167
      4.22049      4.22049      9.61025         0.000000      0.000000      0.061797
      6.33074      2.11025      9.61025        -0.000555      0.000555      0.055634
      4.22049      2.11344     11.73659         0.000000     -0.007482      0.006736
      6.32754      4.22049     11.73659         0.007482      0.000000      0.006736
      4.22049      4.22049     13.87814         0.000000      0.000000     -0.476584
      6.33193      2.10905     13.83447         0.026770     -0.026770     -0.172821
      0.00000      6.33074      9.61025         0.000000      0.000750      0.059118
      2.11025      0.00000      9.61025        -0.000750      0.000000      0.059118
      0.00000      0.00000      7.50000         0.000000      0.000000     -0.413287
      2.11025      6.33074      7.50000        -0.000008      0.000008     -0.412693
      0.00000      6.33258     13.88587         0.000000     -0.012406     -0.157776
      2.10840      0.00000     13.88587         0.012406      0.000000     -0.157776
      0.00000      0.00000     11.72785         0.000000      0.000000      0.013905
      2.10979      6.33120     11.72890         0.008489     -0.008489      0.015161
      0.00000      2.11025      9.61025         0.000000     -0.000750      0.059118
      2.11025      4.22049      9.61025         0.011577      0.000000      0.069890
      0.00000      4.22049      7.50000         0.000000      0.000000     -0.412868
      2.11025      2.11025      7.50000        -0.000008     -0.000008     -0.412693
      0.00000      2.10840     13.88587         0.000000      0.012406     -0.157776
      2.10031      4.22049     13.88381         0.142193      0.000000     -0.071985
      0.00000      4.22049     11.72684         0.000000      0.000000      0.028851
      2.10979      2.10979     11.72890         0.008489      0.008489      0.015161
      4.22049      6.33074      9.61025         0.000000     -0.011577      0.069890
      6.33074      0.00000      9.61025         0.000750      0.000000      0.059118
      4.22049      0.00000      7.50000         0.000000      0.000000     -0.412868
      6.33074      6.33074      7.50000         0.000008      0.000008     -0.412693
      4.22049      6.34068     13.88381         0.000000     -0.142193     -0.071985
      6.33258      0.00000     13.88587        -0.012406      0.000000     -0.157776
      4.22049      0.00000     11.72684         0.000000      0.000000      0.028851
      6.33120      6.33120     11.72890        -0.008489     -0.008489      0.015161
      4.22049      2.11025      9.61025         0.000000      0.011577      0.069890
      6.33074      4.22049      9.61025        -0.011577      0.000000      0.069890
      4.22049      4.22049      7.50000         0.000000      0.000000     -0.413032
      6.33074      2.11025      7.50000         0.000008     -0.000008     -0.412693
      4.22049      2.10031     13.88381         0.000000      0.142193     -0.071985
      6.34068      4.22049     13.88381        -0.142193      0.000000     -0.071985
      4.22049      4.22049     11.73684         0.000000      0.000000      0.020237
      6.33120      2.10979     11.72890        -0.008489      0.008489      0.015161
    total drift:                                0.000000      0.000000      0.005277

  FREE ENERGIE OF THE ION-ELECTRON SYSTEM (eV)
  free  energy   TOTEN  =      -471.45312374 eV

  energy  without entropy=     -471.45312374  energy(sigma->0) =     -471.45312374