 vasp.6.3.0 20Jan22 (build Apr  1 2022 16:44:48) complex
 executed on        HPECrayEX_GCC date 2022.11.13  06:02:49

 INCAR:
   SYSTEM = MgO-rocksalt
   ISMEAR = 0
   SIGMA = 0.05
   EDIFF = 1E-6
   ALGO = ALL
   ISTART = 0
   IBRION = -1
   NSW = 0
   ISYM = 0
   DIPOL = 0.5 0.5 0.5
   IDIPOL = 3
   LDIPOL = .TRUE.
   LHFCALC = .TRUE.
   GGA = B5
   AEXX = 0.2
   AGGAX = 0.72
   AGGAC = 0.81
   ALDAC = 0.19
   IVDW = 1
   VDW_S6 = 1.05
   VDW_C6 = 1.75 0.70 0.63 0.70
   VDW_R0 = 1.452 1.342 1.243 1.342
   ENCUT = 600
   PREC = Accurate
   LASPH = .TRUE.
   LREAL = .FALSE.
   ISPIN = 1
   NELM = 200
   NELMIN = 8
   NCORE = 8
   KPAR = 1
   LWAVE = .FALSE.
   LCHARG = .FALSE.

 POTCAR:    PAW_PBE C 08Apr2002
 POTCAR:    PAW_PBE O 08Apr2002
 POTCAR:    PAW_PBE Mg_pv 13Apr2007
 POTCAR:    PAW_PBE O 08Apr2002
 POTCAR:    PAW_PBE C 08Apr2002
   VRHFIN =C: s2p2

   TITEL  = PAW_PBE C 08Apr2002
   POMASS =   12.011; ZVAL   =    4.000    mass and valenz
   ENMAX  =  400.000; ENMIN  =  300.000 eV

[...]

   TITEL  = PAW_PBE Mg_pv 13Apr2007
   POMASS =   24.305; ZVAL   =    8.000    mass and valenz
   ENMAX  =  403.929; ENMIN  =  302.947 eV

   TITEL  = PAW_PBE O 08Apr2002
   POMASS =   16.000; ZVAL   =    6.000    mass and valenz
   ENMAX  =  400.000; ENMIN  =  300.000 eV

  PAW_PBE C 08Apr2002                   :
  PAW_PBE O 08Apr2002                   :
  PAW_PBE Mg_pv 13Apr2007               :
  PAW_PBE O 08Apr2002                   :

 POSCAR:  C  O Mg  O
  positions in direct lattice
 exchange correlation table for  LEXCH =       12
   RHO(1)=    0.500       N(1)  =     2000
   RHO(2)=  100.500       N(2)  =     4000

 ion  position               nearest neighbor table
   1  0.625  0.625  0.782-   3 1.18   2 1.18
   2  0.527  0.527  0.783-   1 1.18
   3  0.723  0.723  0.783-   1 1.18
   4  0.000  0.750  0.350-  36 2.14  38 2.14  39 2.14  46 2.14  55 2.14
   5  0.250  0.000  0.350-  37 2.14  38 2.14  39 2.14  47 2.14  54 2.14
   6  0.000  0.000  0.450-  38 2.14  37 2.14  36 2.14  44 2.14  53 2.14  42 2.14
   7  0.250  0.750  0.450-  39 2.14  37 2.14  36 2.14  45 2.14  52 2.14  43 2.14
   8  0.000  0.750  0.550-  42 2.14  50 2.14  59 2.14  43 2.14  36 2.15  40 2.16
   9  0.250  1.000  0.550-  42 2.14  51 2.14  43 2.14  58 2.14  37 2.15  41 2.16
  10  0.000  0.000  0.650-  42 2.13  41 2.14  48 2.14  40 2.14  57 2.14
  11  0.250  0.750  0.649-  43 2.13  40 2.13  41 2.14  49 2.14  56 2.14
  12  0.000  0.250  0.350-  44 2.14  38 2.14  46 2.14  47 2.14  63 2.14
  13  0.250  0.500  0.350-  45 2.14  39 2.14  46 2.14  47 2.14  62 2.14
  14  0.000  0.500  0.450-  46 2.14  44 2.14  45 2.14  36 2.14  61 2.14  50 2.14
  15  0.250  0.250  0.450-  47 2.14  44 2.14  45 2.14  37 2.14  60 2.14  51 2.14
  16  1.000  0.250  0.550-  42 2.14  51 2.14  67 2.14  50 2.14  44 2.15  48 2.16
  17  0.250  0.500  0.550-  51 2.14  43 2.14  66 2.14  50 2.14  45 2.15  49 2.16
  18  0.000  0.500  0.649-  50 2.13  49 2.13  48 2.14  40 2.14  65 2.14
  19  0.250  0.250  0.650-  51 2.13  48 2.14  41 2.14  49 2.14  64 2.14
  20  0.500  0.750  0.350-  52 2.14  39 2.14  54 2.14  55 2.14  62 2.14
  21  0.750  0.000  0.350-  53 2.14  38 2.14  54 2.14  55 2.14  63 2.14
  22  0.500  0.000  0.450-  54 2.14  52 2.14  53 2.14  37 2.14  60 2.14  58 2.14
  23  0.750  0.750  0.450-  55 2.14  52 2.14  53 2.14  36 2.14  61 2.14  59 2.14
  24  0.500  0.750  0.551-  59 2.13  66 2.13  58 2.14  43 2.14  52 2.15  56 2.18
  25  0.750  0.000  0.550-  42 2.14  58 2.14  59 2.14  67 2.14  53 2.15  57 2.16
  26  0.500  0.000  0.649-  58 2.13  64 2.13  41 2.14  57 2.14  56 2.14
  27  0.752  0.752  0.650-  40 2.13  57 2.13  59 2.13  65 2.15  56 2.15
  28  0.500  0.250  0.350-  60 2.14  54 2.14  47 2.14  62 2.14  63 2.14
  29  0.750  0.500  0.350-  61 2.14  55 2.14  46 2.14  62 2.14  63 2.14
  30  0.500  0.500  0.450-  62 2.14  52 2.14  60 2.14  61 2.14  45 2.14  66 2.14
  31  0.750  0.250  0.450-  63 2.14  53 2.14  60 2.14  61 2.14  44 2.14  67 2.14
  32  0.500  0.250  0.550-  51 2.14  67 2.14  66 2.14  58 2.14  60 2.15  64 2.16
  33  0.750  0.500  0.551-  59 2.13  66 2.13  50 2.14  67 2.14  61 2.15  65 2.18
  34  0.498  0.498  0.650-  49 2.13  64 2.13  66 2.13  56 2.15  65 2.15
  35  0.750  0.250  0.649-  67 2.13  57 2.13  48 2.14  64 2.14  65 2.14
  36  0.000  0.750  0.450-   4 2.14   6 2.14   7 2.14  14 2.14  23 2.14   8 2.15
  37  0.250  0.000  0.450-   5 2.14   6 2.14   7 2.14  15 2.14  22 2.14   9 2.15
  38  0.000  0.000  0.350-   6 2.14   5 2.14   4 2.14  12 2.14  21 2.14
  39  0.250  0.750  0.350-   7 2.14   5 2.14   4 2.14  13 2.14  20 2.14
  40  0.000  0.750  0.651-  27 2.13  11 2.13  10 2.14  18 2.14   8 2.16
  41  0.250  1.000  0.651-  19 2.14  10 2.14  11 2.14  26 2.14   9 2.16
  42  0.000  0.000  0.550-  10 2.13  16 2.14   9 2.14   8 2.14  25 2.14   6 2.14
  43  0.250  0.750  0.550-  11 2.13  24 2.14   9 2.14  17 2.14   8 2.14   7 2.14
  44  0.000  0.250  0.450-  12 2.14   6 2.14  14 2.14  15 2.14  31 2.14  16 2.15
  45  0.250  0.500  0.450-  13 2.14   7 2.14  14 2.14  15 2.14  30 2.14  17 2.15
  46  0.000  0.500  0.350-  14 2.14  12 2.14  13 2.14   4 2.14  29 2.14
  47  0.250  0.250  0.350-  15 2.14  12 2.14  13 2.14   5 2.14  28 2.14
  48  1.000  0.250  0.651-  19 2.14  10 2.14  35 2.14  18 2.14  16 2.16
  49  0.250  0.500  0.651-  34 2.13  18 2.13  19 2.14  11 2.14  17 2.16
  50  1.000  0.500  0.550-  18 2.13  33 2.14  16 2.14   8 2.14  17 2.14  14 2.14
  51  0.250  0.250  0.550-  19 2.13  16 2.14   9 2.14  32 2.14  17 2.14  15 2.14
  52  0.500  0.750  0.450-  20 2.14   7 2.14  22 2.14  23 2.14  30 2.14  24 2.15
  53  0.750  0.000  0.450-  21 2.14   6 2.14  22 2.14  23 2.14  31 2.14  25 2.15
  54  0.500  0.000  0.350-  22 2.14  20 2.14  21 2.14   5 2.14  28 2.14
  55  0.750  0.750  0.350-  23 2.14  20 2.14  21 2.14   4 2.14  29 2.14
  56  0.500  0.750  0.652-  26 2.14  11 2.14  34 2.15  27 2.15  24 2.18
  57  0.750  0.000  0.651-  27 2.13  35 2.13  10 2.14  26 2.14  25 2.16
  58  0.500  1.000  0.550-  26 2.13  24 2.14   9 2.14  25 2.14  32 2.14  22 2.14
  59  0.750  0.750  0.550-  27 2.13  33 2.13  24 2.13  25 2.14   8 2.14  23 2.14
  60  0.500  0.250  0.450-  28 2.14  22 2.14  15 2.14  30 2.14  31 2.14  32 2.15
  61  0.750  0.500  0.450-  29 2.14  23 2.14  14 2.14  30 2.14  31 2.14  33 2.15
  62  0.500  0.500  0.350-  30 2.14  20 2.14  28 2.14  29 2.14  13 2.14
  63  0.750  0.250  0.350-  31 2.14  21 2.14  28 2.14  29 2.14  12 2.14
  64  0.500  0.250  0.651-  34 2.13  26 2.13  19 2.14  35 2.14  32 2.16
  65  0.750  0.500  0.652-  18 2.14  35 2.14  34 2.15  27 2.15  33 2.18
  66  0.500  0.500  0.550-  34 2.13  33 2.13  24 2.13  17 2.14  32 2.14  30 2.14
  67  0.750  0.250  0.550-  35 2.13  33 2.14  16 2.14  32 2.14  25 2.14  31 2.14

IMPORTANT INFORMATION: All symmetrisations will be switched off!
NOSYMM: (Re-)initialisation of all symmetry stuff for point group C_1.

                                     Primitive cell

  volume of cell :    1563.6717

  direct lattice vectors                    reciprocal lattice vectors
     8.546113626  0.000000000  0.000000000     0.117012252  0.000000000  0.000000000
     0.000000000  8.546113626  0.000000000     0.000000000  0.117012252  0.000000000
     0.000000000  0.000000000 21.409585219     0.000000000  0.000000000  0.046708051

  length of vectors
     8.546113626  8.546113626 21.409585219     0.117012252  0.117012252  0.046708051

  position of ions in fractional coordinates (direct lattice)
     0.625001202  0.625001176  0.782410767
     0.527381710  0.527381695  0.782868106
     0.722618972  0.722618947  0.782864475
     0.000000000  0.750000000  0.350310383
     0.250000000  0.000000000  0.350310383
     0.000000000  0.000000000  0.450103461
     0.250000000  0.750000000  0.450103461
     0.000126397  0.750045481  0.550364384
     0.250020198  0.999979876  0.550369020
     0.000153514  0.000153508  0.649560948
     0.249706705  0.749926150  0.649462994
     0.000000000  0.250000000  0.350310383
     0.250000000  0.500000000  0.350310383
     0.000000000  0.500000000  0.450103461
     0.250000000  0.250000000  0.450103461
     0.999979886  0.250020189  0.550369018
     0.249873462  0.499954848  0.550364380
     0.000293418  0.500074338  0.649463019
     0.249846636  0.249846645  0.649560929
     0.500000000  0.750000000  0.350310383
     0.750000000  0.000000000  0.350310383
     0.500000000  0.000000000  0.450103461
     0.750000000  0.750000000  0.450103461
     0.500197926  0.749802498  0.550584063
     0.750045473  0.000126395  0.550364389
     0.500074323  0.000293415  0.649463029
     0.751609463  0.751609452  0.649775867
     0.500000000  0.250000000  0.350310383
     0.750000000  0.500000000  0.350310383
     0.500000000  0.500000000  0.450103461
     0.750000000  0.250000000  0.450103461
     0.499954834  0.249873459  0.550364381
     0.749802489  0.500197933  0.550584061
     0.498390847  0.498390852  0.649775304
     0.749926144  0.249706712  0.649462986
     0.000000000  0.750000000  0.450103461
     0.250000000  0.000000000  0.450103461
     0.000000000  0.000000000  0.350310383
     0.250000000  0.750000000  0.350310383
     0.000492848  0.750157003  0.651068122
     0.250051487  0.999948683  0.651427282
     0.000074949  0.000074944  0.550048256
     0.250303439  0.749994628  0.550095432
     0.000000000  0.250000000  0.450103461
     0.250000000  0.500000000  0.450103461
     0.000000000  0.500000000  0.350310383
     0.250000000  0.250000000  0.350310383
     0.999948677  0.250051489  0.651427265
     0.249507344  0.499843384  0.651068059
     0.999696612  0.500005653  0.550095444
     0.249925156  0.249925155  0.550048288
     0.500000000  0.750000000  0.450103461
     0.750000000  0.000000000  0.450103461
     0.500000000  0.000000000  0.350310383
     0.750000000  0.750000000  0.350310383
     0.500218844  0.749781368  0.652186552
     0.750157005  0.000492840  0.651068120
     0.500005643  0.999696608  0.550095447
     0.749959505  0.749959506  0.550250793
     0.500000000  0.250000000  0.450103461
     0.750000000  0.500000000  0.450103461
     0.500000000  0.500000000  0.350310383
     0.750000000  0.250000000  0.350310383
     0.499843390  0.249507343  0.651068057
     0.749781364  0.500218864  0.652186559
     0.500040711  0.500040716  0.550250721
     0.749994620  0.250303442  0.550095433

  ion indices of the primitive-cell ions
   primitive index   ion index
                 1           1
                 2           2
                 3           3
                 4           4
                 5           5
                 6           6
                 7           7
                 8           8
                 9           9
                10          10
                11          11
                12          12
                13          13
                14          14
                15          15
                16          16
                17          17
                18          18
                19          19
                20          20
                21          21
                22          22
                23          23
                24          24
                25          25
                26          26
[...]
   0.49984339  0.24950734  0.65106806
   0.74978136  0.50021886  0.65218656
   0.50004071  0.50004072  0.55025072
   0.74999462  0.25030344  0.55009543

 position of ions in cartesian coordinates  (Angst):
   5.34133129  5.34133107 16.75108999
   4.50706402  4.50706389 16.76088143
   6.17558384  6.17558363 16.76080370
   0.00000000  6.40958522  7.50000000
   2.13652841  0.00000000  7.50000000
   0.00000000  0.00000000  9.63652841
   2.13652841  6.40958522  9.63652841
   0.00108021  6.40997390 11.78307319
   2.13670102  8.54594164 11.78317243
   0.00131194  0.00131190 13.90683046
   2.13402188  6.40895409 13.90473331
   0.00000000  2.13652841  7.50000000
   2.13652841  4.27305681  7.50000000
   0.00000000  4.27305681  9.63652841
   2.13652841  2.13652841  9.63652841
   8.54594173  2.13670094 11.78317240
   2.13544700  4.27267093 11.78307309
   0.00250758  4.27369211 13.90473386
   2.13521774  2.13521782 13.90683007
   4.27305681  6.40958522  7.50000000
   6.40958522  0.00000000  7.50000000
   4.27305681  0.00000000  9.63652841
   6.40958522  6.40958522  9.63652841
   4.27474831  6.40789734 11.78777643
   6.40997383  0.00108019 11.78307329
   4.27369199  0.00250756 13.90473407
   6.42333987  6.42333978 13.91143179
   4.27305681  2.13652841  7.50000000
   6.40958522  4.27305681  7.50000000
   4.27305681  4.27305681  9.63652841
   6.40958522  2.13652841  9.63652841
   4.27267082  2.13544697 11.78307311
   6.40789727  4.27474837 11.78777638
   4.25930481  4.25930485 13.91141975
   6.40895403  2.13402194 13.90473314
   0.00000000  6.40958522  9.63652841
   2.13652841  0.00000000  9.63652841
   0.00000000  0.00000000  7.50000000
   2.13652841  6.40958522  7.50000000
   0.00421193  6.41092699 13.93909844
   2.13696842  8.54567506 13.94678790
   0.00064053  0.00064048 11.77630502
   2.13912163  6.40953931 11.77731503
   0.00000000  2.13652841  9.63652841
   2.13652841  4.27305681  9.63652841
   0.00000000  4.27305681  7.50000000
   2.13652841  2.13652841  7.50000000
   8.54567501  2.13696844 13.94678755
   2.13231811  4.27171836 13.93909709
   8.54352083  4.27310512 11.77731528
   2.13588878  2.13588877 11.77630571
   4.27305681  6.40958522  9.63652841
   6.40958522  0.00000000  9.63652841
   4.27305681  0.00000000  7.50000000
   6.40958522  6.40958522  7.50000000
   4.27492708  6.40771676 13.96304356
   6.41092700  0.00421186 13.93909839
   4.27310504  8.54352080 11.77731535
   6.40923915  6.40923915 11.78064125
   4.27305681  2.13652841  9.63652841
   6.40958522  4.27305681  9.63652841
   4.27305681  4.27305681  7.50000000
   6.40958522  2.13652841  7.50000000
   4.27171840  2.13231810 13.93909704
   6.40771673  4.27492725 13.96304372
   4.27340473  4.27340478 11.78063970
   6.40953924  2.13912166 11.77731505

--------------------------------------- Iteration      FINAL  ---------------------------------------

--------------------OUTCAR has been truncated-------------------------

[...]

--------------------OUTCAR has been truncated-------------------------

  DFT-D2 method for vdW energy calculation

  Parameters of vdW forcefield:
         C6(Jnm^6/mol)     R0(A)
   C        1.750          1.452
   O        0.700          1.342
   Mg       0.630          1.243
   O        0.700          1.342

  vdW correction parametrized for the method        L¥¿

  IVDW =   1
  VDW_RADIUS =    50.000 A
  VDW_S6 =     1.050
  VDW_SR =     1.000
  VDW_D =    20.000
  LVDW_EWALD = F

  Number of pair interactions contributing to vdW energy:  771400
  Edisp (eV):   -4.99406

 VOLUME and BASIS-vectors are now :
  energy-cutoff  :      600.00
  volume of cell :     1563.67
      direct lattice vectors                 reciprocal lattice vectors
     8.546113626  0.000000000  0.000000000     0.117012252  0.000000000  0.000000000
     0.000000000  8.546113626  0.000000000     0.000000000  0.117012252  0.000000000
     0.000000000  0.000000000 21.409585219     0.000000000  0.000000000  0.046708051

  length of vectors
     8.546113626  8.546113626 21.409585219     0.117012252  0.117012252  0.046708051

 FORCES acting on ions:
    Electron-Ion                     Ewald-Force                    Non-Local-Force
   0.529E-02 0.531E-02 -.963E+03   -.668E-02 -.671E-02 0.963E+03   0.925E-04 0.929E-04 0.158E+00
   0.188E+03 0.188E+03 -.145E+04   -.233E+03 -.233E+03 0.145E+04   0.411E+02 0.411E+02 -.115E+01
   -.188E+03 -.188E+03 -.145E+04   0.233E+03 0.233E+03 0.145E+04   -.411E+02 -.411E+02 -.115E+01
   -.184E+00 -.164E+00 0.203E+04   0.184E+00 0.164E+00 -.202E+04   0.312E-03 0.346E-03 -.633E+01
   0.163E+00 -.163E+00 0.203E+04   -.163E+00 0.163E+00 -.202E+04   -.417E-03 0.427E-03 -.634E+01
   -.770E+00 -.770E+00 0.716E+03   0.786E+00 0.786E+00 -.717E+03   -.108E-01 -.108E-01 0.386E+00
   0.718E+00 -.795E+00 0.717E+03   -.674E+00 0.808E+00 -.718E+03   -.278E-01 -.888E-02 0.408E+00
   -.546E+01 -.327E+01 -.583E+03   0.546E+01 0.328E+01 0.583E+03   0.294E-02 -.761E-02 -.371E+00
   0.316E+01 -.316E+01 -.593E+03   -.317E+01 0.317E+01 0.593E+03   0.923E-02 -.919E-02 -.209E+00
   -.168E+02 -.168E+02 -.191E+04   0.169E+02 0.169E+02 0.191E+04   -.121E-01 -.121E-01 0.555E+01
   0.218E+02 -.181E+02 -.189E+04   -.221E+02 0.181E+02 0.189E+04   0.213E+00 -.881E-02 0.555E+01
   -.163E+00 0.163E+00 0.203E+04   0.163E+00 -.163E+00 -.202E+04   0.420E-03 -.422E-03 -.634E+01
   0.184E+00 0.164E+00 0.203E+04   -.184E+00 -.164E+00 -.202E+04   -.317E-03 -.345E-03 -.633E+01
   -.718E+00 0.795E+00 0.717E+03   0.674E+00 -.808E+00 -.718E+03   0.278E-01 0.888E-02 0.408E+00
   0.770E+00 0.770E+00 0.716E+03   -.786E+00 -.786E+00 -.717E+03   0.108E-01 0.108E-01 0.386E+00
   -.316E+01 0.316E+01 -.593E+03   0.317E+01 -.317E+01 0.593E+03   -.920E-02 0.922E-02 -.209E+00
   0.546E+01 0.327E+01 -.583E+03   -.546E+01 -.328E+01 0.583E+03   -.289E-02 0.759E-02 -.371E+00
   -.218E+02 0.181E+02 -.189E+04   0.221E+02 -.181E+02 0.189E+04   -.213E+00 0.880E-02 0.555E+01
   0.168E+02 0.168E+02 -.191E+04   -.169E+02 -.169E+02 0.191E+04   0.121E-01 0.121E-01 0.555E+01
   0.188E+00 -.188E+00 0.203E+04   -.186E+00 0.186E+00 -.202E+04   -.867E-03 0.847E-03 -.635E+01
   -.164E+00 -.184E+00 0.203E+04   0.164E+00 0.184E+00 -.202E+04   0.346E-03 0.333E-03 -.633E+01
   0.795E+00 -.718E+00 0.717E+03   -.808E+00 0.674E+00 -.718E+03   0.888E-02 0.278E-01 0.408E+00
   -.738E+00 -.738E+00 0.719E+03   0.712E+00 0.712E+00 -.719E+03   0.176E-01 0.176E-01 0.460E+00
   0.562E+01 -.562E+01 -.578E+03   -.561E+01 0.561E+01 0.578E+03   -.126E-01 0.126E-01 -.321E-01
   -.327E+01 -.546E+01 -.583E+03   0.328E+01 0.546E+01 0.583E+03   -.762E-02 0.294E-02 -.371E+00
   0.181E+02 -.218E+02 -.189E+04   -.181E+02 0.221E+02 0.189E+04   0.880E-02 -.213E+00 0.555E+01
   -.288E+02 -.288E+02 -.181E+04   0.292E+02 0.292E+02 0.181E+04   -.356E+00 -.356E+00 0.545E+01
   0.164E+00 0.184E+00 0.203E+04   -.164E+00 -.184E+00 -.202E+04   -.335E-03 -.328E-03 -.633E+01
   -.188E+00 0.188E+00 0.203E+04   0.186E+00 -.186E+00 -.202E+04   0.847E-03 -.854E-03 -.635E+01
   0.738E+00 0.738E+00 0.719E+03   -.712E+00 -.712E+00 -.719E+03   -.176E-01 -.176E-01 0.460E+00
   -.795E+00 0.718E+00 0.717E+03   0.808E+00 -.674E+00 -.718E+03   -.889E-02 -.278E-01 0.408E+00
   0.327E+01 0.546E+01 -.583E+03   -.328E+01 -.546E+01 0.583E+03   0.759E-02 -.289E-02 -.371E+00
   -.562E+01 0.562E+01 -.578E+03   0.561E+01 -.561E+01 0.578E+03   0.126E-01 -.126E-01 -.321E-01
   0.288E+02 0.288E+02 -.181E+04   -.292E+02 -.292E+02 0.181E+04   0.356E+00 0.356E+00 0.545E+01
   -.181E+02 0.218E+02 -.189E+04   0.181E+02 -.221E+02 0.189E+04   -.882E-02 0.213E+00 0.555E+01
   -.609E+00 -.488E+00 0.538E+03   0.604E+00 0.487E+00 -.538E+03   0.471E-02 0.800E-03 -.711E-01
   0.481E+00 -.481E+00 0.537E+03   -.483E+00 0.483E+00 -.536E+03   0.339E-02 -.338E-02 -.994E-01
   -.134E+00 -.135E+00 0.152E+04   0.136E+00 0.136E+00 -.153E+04   -.194E-02 -.193E-02 0.315E+01
   0.126E+00 -.135E+00 0.152E+04   -.123E+00 0.137E+00 -.153E+04   -.390E-02 -.202E-02 0.315E+01
   -.245E+02 -.965E+01 -.143E+04   0.245E+02 0.962E+01 0.144E+04   -.334E-01 0.256E-01 -.452E+01
   0.872E+01 -.872E+01 -.146E+04   -.869E+01 0.869E+01 0.146E+04   -.192E-01 0.191E-01 -.443E+01
   -.313E+01 -.313E+01 -.438E+03   0.312E+01 0.312E+01 0.438E+03   0.104E-01 0.104E-01 0.242E+00
   0.301E+01 -.324E+01 -.434E+03   -.302E+01 0.324E+01 0.434E+03   0.120E-01 0.359E-02 0.313E+00
   -.481E+00 0.481E+00 0.537E+03   0.483E+00 -.483E+00 -.536E+03   -.338E-02 0.339E-02 -.994E-01
   0.608E+00 0.488E+00 0.538E+03   -.604E+00 -.487E+00 -.538E+03   -.472E-02 -.787E-03 -.711E-01
   -.127E+00 0.135E+00 0.152E+04   0.123E+00 -.137E+00 -.153E+04   0.390E-02 0.201E-02 0.315E+01
   0.134E+00 0.134E+00 0.152E+04   -.136E+00 -.136E+00 -.153E+04   0.193E-02 0.193E-02 0.315E+01
   -.872E+01 0.872E+01 -.146E+04   0.869E+01 -.869E+01 0.146E+04   0.191E-01 -.192E-01 -.443E+01
   0.245E+02 0.965E+01 -.143E+04   -.245E+02 -.963E+01 0.144E+04   0.333E-01 -.256E-01 -.452E+01
   -.301E+01 0.325E+01 -.434E+03   0.302E+01 -.324E+01 0.434E+03   -.121E-01 -.358E-02 0.313E+00
   0.313E+01 0.313E+01 -.438E+03   -.312E+01 -.312E+01 0.438E+03   -.104E-01 -.104E-01 0.242E+00
   0.658E+00 -.658E+00 0.539E+03   -.675E+00 0.675E+00 -.538E+03   0.204E-01 -.204E-01 -.136E+00
   -.488E+00 -.609E+00 0.538E+03   0.487E+00 0.604E+00 -.538E+03   0.795E-03 0.472E-02 -.711E-01
   0.135E+00 -.127E+00 0.152E+04   -.137E+00 0.123E+00 -.153E+04   0.202E-02 0.391E-02 0.315E+01
   -.129E+00 -.129E+00 0.152E+04   0.125E+00 0.125E+00 -.153E+04   0.479E-02 0.479E-02 0.315E+01
   0.296E+02 -.296E+02 -.139E+04   -.296E+02 0.296E+02 0.140E+04   -.587E-01 0.588E-01 -.413E+01
   -.965E+01 -.245E+02 -.143E+04   0.962E+01 0.245E+02 0.144E+04   0.256E-01 -.334E-01 -.452E+01
   0.325E+01 -.301E+01 -.434E+03   -.324E+01 0.302E+01 0.434E+03   -.358E-02 -.121E-01 0.313E+00
   -.319E+01 -.319E+01 -.426E+03   0.321E+01 0.321E+01 0.426E+03   -.253E-01 -.253E-01 0.287E+00
   0.488E+00 0.608E+00 0.538E+03   -.487E+00 -.604E+00 -.538E+03   -.782E-03 -.473E-02 -.711E-01
   -.658E+00 0.658E+00 0.539E+03   0.675E+00 -.675E+00 -.538E+03   -.204E-01 0.204E-01 -.136E+00
   0.129E+00 0.129E+00 0.152E+04   -.125E+00 -.125E+00 -.153E+04   -.479E-02 -.479E-02 0.315E+01
   -.135E+00 0.126E+00 0.152E+04   0.137E+00 -.123E+00 -.153E+04   -.202E-02 -.390E-02 0.315E+01
   0.965E+01 0.245E+02 -.143E+04   -.963E+01 -.245E+02 0.144E+04   -.256E-01 0.333E-01 -.452E+01
   -.296E+02 0.296E+02 -.139E+04   0.296E+02 -.296E+02 0.140E+04   0.588E-01 -.587E-01 -.413E+01
   0.319E+01 0.319E+01 -.426E+03   -.322E+01 -.322E+01 0.426E+03   0.253E-01 0.253E-01 0.287E+00
   -.324E+01 0.301E+01 -.434E+03   0.324E+01 -.302E+01 0.434E+03   0.359E-02 0.120E-01 0.313E+00
   0.912E-03 0.894E-03 0.179E+02   0.146E-12 0.000E+00 -.642E-11   -.856E-03 -.806E-03 -.157E+02

 POSITION                                       TOTAL-FORCE (eV/Angst)
      5.34133      5.34133     16.75109        -0.001299     -0.001295     -0.069860
      4.50706      4.50706     16.76088         1.065114      1.065111     -0.048470
      6.17558      6.17558     16.76080        -1.063873     -1.063832     -0.048271
      0.00000      6.40959      7.50000        -0.000082     -0.000117      0.626270
      2.13653      0.00000      7.50000         0.000143     -0.000144      0.629158
      0.00000      0.00000      9.63653         0.004204      0.004205      0.021236
      2.13653      6.40959      9.63653         0.012452      0.003417      0.022841
      0.00108      6.40997     11.78307        -0.001568      0.002226     -0.005555
      2.13670      8.54594     11.78317        -0.000791      0.000790     -0.012408
      0.00131      0.00131     13.90683         0.000624      0.000616     -0.270758
      2.13402      6.40895     13.90473        -0.007614     -0.001465     -0.268187
      0.00000      2.13653      7.50000        -0.000146      0.000135      0.629191
      2.13653      4.27306      7.50000         0.000080      0.000111      0.626275
      0.00000      4.27306      9.63653        -0.012452     -0.003418      0.022829
      2.13653      2.13653      9.63653        -0.004204     -0.004204      0.021247
      8.54594      2.13670     11.78317         0.000792     -0.000797     -0.012414
      2.13545      4.27267     11.78307         0.001589     -0.002236     -0.005566
      0.00251      4.27369     13.90473         0.007618      0.001472     -0.268230
      2.13522      2.13522     13.90683        -0.000604     -0.000620     -0.270709
      4.27306      6.40959      7.50000         0.000321     -0.000321      0.630930
      6.40959      0.00000      7.50000        -0.000121     -0.000075      0.626280
      4.27306      0.00000      9.63653        -0.003412     -0.012451      0.022827
      6.40959      6.40959      9.63653        -0.005965     -0.005965      0.024608
      4.27475      6.40790     11.78778         0.000357     -0.000352     -0.021904
      6.40997      0.00108     11.78307         0.002223     -0.001573     -0.005555
      4.27369      0.00251     13.90473         0.001466      0.007627     -0.268218
      6.42334      6.42334     13.91143         0.004402      0.004418     -0.212209
      4.27306      2.13653      7.50000         0.000120      0.000072      0.626282
      6.40959      4.27306      7.50000        -0.000331      0.000318      0.630924
      4.27306      4.27306      9.63653         0.005967      0.005965      0.024601
      6.40959      2.13653      9.63653         0.003420      0.012451      0.022833
      4.27267      2.13545     11.78307        -0.002234      0.001588     -0.005567
      6.40790      4.27475     11.78778        -0.000355      0.000361     -0.021909
      4.25930      4.25930     13.91142        -0.004395     -0.004403     -0.212137
      6.40895      2.13402     13.90473        -0.001468     -0.007603     -0.268164
      0.00000      6.40959      9.63653         0.000833     -0.000051      0.042610
      2.13653      0.00000      9.63653         0.001336     -0.001332      0.032434
      0.00000      0.00000      7.50000        -0.000631     -0.000635     -0.273282
      2.13653      6.40959      7.50000        -0.001308     -0.000672     -0.273695
      0.00421      6.41093     13.93910         0.000619     -0.000813     -0.165867
      2.13697      8.54568     13.94679         0.001919     -0.001925     -0.155200
      0.00064      0.00064     11.77631         0.000660      0.000657      0.015013
      2.13912      6.40954     11.77732         0.002331      0.000036      0.021496
      0.00000      2.13653      9.63653        -0.001328      0.001332      0.032429
      2.13653      4.27306      9.63653        -0.000831      0.000054      0.042606
      0.00000      4.27306      7.50000         0.001300      0.000679     -0.273685
      2.13653      2.13653      7.50000         0.000633      0.000637     -0.273283
      8.54568      2.13697     13.94679        -0.001922      0.001913     -0.155194
      2.13232      4.27172     13.93910        -0.000621      0.000815     -0.165863
      8.54352      4.27311     11.77732        -0.002303     -0.000033      0.021503
      2.13589      2.13589     11.77631        -0.000692     -0.000687      0.015013
      4.27306      6.40959      9.63653         0.006530     -0.006518      0.039865
      6.40959      0.00000      9.63653        -0.000063      0.000835      0.042607
      4.27306      0.00000      7.50000         0.000683      0.001298     -0.273672
      6.40959      6.40959      7.50000         0.001600      0.001611     -0.274003
      4.27493      6.40772     13.96304         0.009458     -0.009423     -0.109682
      6.41093      0.00421     13.93910        -0.000803      0.000605     -0.165865
      4.27311      8.54352     11.77732        -0.000038     -0.002310      0.021489
      6.40924      6.40924     11.78064        -0.003208     -0.003210      0.019611
      4.27306      2.13653      9.63653         0.000061     -0.000840      0.042606
      6.40959      4.27306      9.63653        -0.006527      0.006522      0.039865
      4.27306      4.27306      7.50000        -0.001605     -0.001605     -0.274009
      6.40959      2.13653      7.50000        -0.000668     -0.001304     -0.273673
      4.27172      2.13232     13.93910         0.000803     -0.000626     -0.165849
      6.40772      4.27493     13.96304        -0.009421      0.009455     -0.109676
      4.27340      4.27340     11.78064         0.003186      0.003190      0.019622
      6.40954      2.13912     11.77732         0.000036      0.002330      0.021488
    total drift:                                0.000006      0.000044      0.003247

  FREE ENERGIE OF THE ION-ELECTRON SYSTEM (eV)
  free  energy   TOTEN  =      -465.23402148 eV

  energy  without entropy=     -465.23402148  energy(sigma->0) =     -465.23402148