 vasp.6.4.2 20Jul23 (build Feb 22 2024 13:53:45) complex
 executed on              LinuxNV date 2024.08.27  19:46:54
 OpenACC runtime initialized ...    4 GPUs detected

 INCAR:
   SYSTEM = Oxide-Surface
   ISMEAR = 0
   SIGMA = 0.05
   EDIFF = 1E-5
   ALGO = Normal
   IBRION = -1
   NSW = 0
   ISYM = 0
   DIPOL = 0.5 0.5 0.5
   IDIPOL = 3
   LDIPOL = .TRUE.
   ISTART = 1
   GGA = MK
   LUSE_VDW = .TRUE.
   PARAM1 = 0.1234
   PARAM2 = 0.711357
   ZAB_VDW = -1.8867
   AGGAC = 0.0
   ENCUT = 1000
   PREC = Normal
   PRECFOCK = Normal
   LASPH = .TRUE.
   LREAL = Auto
   ISPIN = 1
   NELM = 200
   NELMIN = 8
   NCORE = 1
   KPAR = 1
   LWAVE = .FALSE.
   LCHARG = .FALSE.

 POTCAR:    PAW_PBE N_h 06Feb2004
 POTCAR:    PAW_PBE O_h 06Feb2004
 POTCAR:    PAW_PBE Mg_sv 12Apr2007
 POTCAR:    PAW_PBE O_h 06Feb2004
|               ----> ADVICE to this user running VASP <----                  |
|     You have switched on vdW-DFT.                                           |
|     This routine was written and supplied by Jiri Klimes. We recommend      |
|     that you carefully read and cite the following publications:            |
|       J. Klimes, D.R. Bowler, A. Michelides                                 |
|          J. Phys.: Cond Matt. 22 022201 (2010)                              |
|       J. Klimes, D.R. Bowler, A. Michelides                                 |
|          Phys. Rev. B. 83, 195131 (2011)                                    |
|     and references therein.                                                 |

   TITEL  = PAW_PBE N_h 06Feb2004
   POMASS =   14.001; ZVAL   =    5.000    mass and valenz
   ENMAX  =  700.000; ENMIN  =  500.000 eV

[...]

   TITEL  = PAW_PBE Mg_sv 12Apr2007
   POMASS =   24.305; ZVAL   =   10.000    mass and valenz
   ENMAX  =  495.223; ENMIN  =  371.417 eV

   TITEL  = PAW_PBE O_h 06Feb2004
   POMASS =   16.000; ZVAL   =    6.000    mass and valenz
   ENMAX  =  700.000; ENMIN  =  500.000 eV

 Optimization of the real space projectors (new method)

 maximal supplied QI-value         = 34.20
 optimisation between [QCUT,QGAM] = [ 16.08, 32.15] = [ 72.37,289.48] Ry
 Optimized for a Real-space Cutoff    0.71 Angstroem

   l    n(q)    QCUT    max X(q) W(low)/X(q) W(high)/X(q)  e(spline)
   0      7    16.076   148.539    0.44E-03    0.75E-03    0.58E-07
   0      7    16.076   106.192    0.44E-03    0.75E-03    0.58E-07
   1      6    16.076    73.877    0.23E-03    0.61E-03    0.11E-06
   1      6    16.076    50.042    0.22E-03    0.60E-03    0.11E-06
 Optimization of the real space projectors (new method)

[...]

   l    n(q)    QCUT    max X(q) W(low)/X(q) W(high)/X(q)  e(spline)
   0      9    16.140     8.730    0.14E-04    0.12E-04    0.27E-07
   0      9    16.140     8.910    0.19E-04    0.17E-04    0.41E-07
   1      9    16.140     2.513    0.16E-04    0.28E-04    0.54E-07
   1      9    16.140     3.341    0.27E-04    0.13E-03    0.17E-06
   2      9    16.140     3.683    0.18E-03    0.21E-03    0.81E-07
 Optimization of the real space projectors (new method)

 maximal supplied QI-value         = 34.20
 optimisation between [QCUT,QGAM] = [ 16.08, 32.15] = [ 72.37,289.48] Ry
 Optimized for a Real-space Cutoff    0.71 Angstroem

   l    n(q)    QCUT    max X(q) W(low)/X(q) W(high)/X(q)  e(spline)
   0      7    16.076   280.207    0.42E-03    0.69E-03    0.60E-07
   0      7    16.076   228.978    0.42E-03    0.69E-03    0.61E-07
   1      6    16.076    86.127    0.11E-03    0.66E-03    0.10E-06
   1      6    16.076    65.368    0.11E-03    0.65E-03    0.10E-06
|               ----> ADVICE to this user running VASP <----                  |
|     You enforced a specific xc type in the INCAR file but a different       |
|     type was found in the POTCAR file.                                      |
|     I HOPE YOU KNOW WHAT YOU ARE DOING!                                     |

  PAW_PBE N_h 06Feb2004                 :
  PAW_PBE O_h 06Feb2004                 :
  PAW_PBE Mg_sv 12Apr2007               :
  PAW_PBE O_h 06Feb2004                 :

 POSCAR:  N  O Mg  O
  positions in direct lattice
 exchange correlation table for  LEXCH =       43
   RHO(1)=    0.500       N(1)  =     2000
   RHO(2)=  100.500       N(2)  =     4000

 ion  position               nearest neighbor table
   1  0.525  0.547  0.776-   2 1.14
   2  0.624  0.638  0.766-   1 1.14   3 1.20
   3  0.727  0.733  0.755-   2 1.20
   4  0.000  0.750  0.224-
   5  0.250  0.000  0.224-
   6  0.000  0.000  0.349-
   7  0.250  0.750  0.349-
   8  1.000  0.750  0.474-
   9  0.250  1.000  0.474-
  10  0.000  0.000  0.597-
  11  0.250  0.750  0.597-
  12  0.000  0.250  0.224-
  13  0.250  0.500  0.224-
  14  0.000  0.500  0.349-
  15  0.250  0.250  0.349-
  16  0.000  0.250  0.474-
  17  0.250  0.500  0.473-
  18  0.000  0.500  0.597-
  19  0.250  0.250  0.598-
  20  0.500  0.750  0.224-
  21  0.750  0.000  0.224-
  22  0.500  0.000  0.349-
  23  0.750  0.750  0.349-
  24  0.500  0.750  0.474-
  25  0.750  1.000  0.474-
  26  0.500  0.000  0.597-
  27  0.751  0.751  0.598-
  28  0.500  0.250  0.224-
  29  0.750  0.500  0.224-
  30  0.500  0.500  0.349-
  31  0.750  0.250  0.349-
  32  0.500  0.250  0.473-
  33  0.750  0.500  0.474-
  34  0.499  0.499  0.597-
  35  0.750  0.250  0.597-
  36  0.000  0.750  0.349-
  37  0.250  0.000  0.349-
  38  0.000  0.000  0.224-
  39  0.250  0.750  0.224-
  40  0.001  0.750  0.600-
  41  0.250  1.000  0.600-
  42  0.000  0.000  0.473-
  43  0.250  0.750  0.473-
  44  0.000  0.250  0.349-
  45  0.250  0.500  0.349-
  46  0.000  0.500  0.224-
  47  0.250  0.250  0.224-
  48  1.000  0.250  0.600-
  49  0.250  0.500  0.600-
  50  1.000  0.500  0.473-
  51  0.250  0.250  0.473-
  52  0.500  0.750  0.349-
  53  0.750  0.000  0.349-
  54  0.500  0.000  0.224-
  55  0.750  0.750  0.224-
  56  0.500  0.750  0.601-
  57  0.750  0.001  0.600-
  58  0.500  1.000  0.473-
  59  0.750  0.750  0.473-
  60  0.500  0.250  0.349-
  61  0.750  0.500  0.349-
  62  0.500  0.500  0.224-
  63  0.750  0.250  0.224-
  64  0.500  0.250  0.600-
  65  0.750  0.500  0.601-
  66  0.500  0.500  0.473-
  67  0.750  0.250  0.473-

IMPORTANT INFORMATION: All symmetrisations will be switched off!
NOSYMM: (Re-)initialisation of all symmetry stuff for point group C_1.

                                     Primitive cell

  volume of cell :    1211.2538

  direct lattice vectors                    reciprocal lattice vectors
     8.440984654  0.000000000  0.000000000     0.118469591  0.000000000  0.000000000
     0.000000000  8.440984654  0.000000000     0.000000000  0.118469591  0.000000000
     0.000000000  0.000000000 17.000000000     0.000000000  0.000000000  0.058823529

  length of vectors
     8.440984654  8.440984654 17.000000000     0.118469591  0.118469591  0.058823529

  position of ions in fractional coordinates (direct lattice)
     0.524944584  0.547217405  0.775559749
     0.623769281  0.637956602  0.766018695
     0.727373100  0.733121941  0.754888579
     0.000013589  0.750000194  0.224440251
     0.250013589  0.000000194  0.224440251
     0.000013589  0.000000194  0.348572378
     0.250013589  0.750000194  0.348572378
     0.999966561  0.750070127  0.473605150
     0.249973769  0.999999806  0.473574844
     0.000085356  0.000081940  0.597372974
     0.249911674  0.749854424  0.597278904
     0.000013589  0.250000194  0.224440251
     0.250013589  0.500000194  0.224440251
     0.000013589  0.500000194  0.348572378
     0.250013589  0.250000194  0.348572378
     0.000017243  0.249980157  0.473578238
     0.249762180  0.499976802  0.473496967
     0.000015781  0.500169160  0.597346508
     0.249951061  0.249969241  0.597528815
     0.500013589  0.750000194  0.224440251
     0.750013589  0.000000194  0.224440251
     0.500013589  0.000000194  0.348572378
     0.750013589  0.750000194  0.348572378
     0.500273599  0.749982319  0.473747038
     0.750103789  0.999951129  0.473603294
     0.500188527  0.000063732  0.597268966
     0.751053112  0.750996103  0.598352833
     0.500013589  0.250000194  0.224440251
     0.750013589  0.500000194  0.224440251
     0.500013589  0.500000194  0.348572378
     0.750013589  0.250000194  0.348572378
     0.499983585  0.249784354  0.473489942
     0.749980441  0.500264035  0.473747642
     0.498953542  0.498986092  0.596951454
     0.749883494  0.249927580  0.597279352
     0.000013589  0.750000194  0.348572378
     0.250013589  0.000000194  0.348572378
     0.000013589  0.000000194  0.224440251
     0.250013589  0.750000194  0.224440251
     0.000512942  0.750094692  0.599721879
     0.250123386  0.999979282  0.600249487
     0.000150473  0.000132421  0.473209985
     0.250249984  0.750027907  0.473193538
     0.000013589  0.250000194  0.348572378
     0.250013589  0.500000194  0.348572378
     0.000013589  0.500000194  0.224440251
     0.250013589  0.250000194  0.224440251
     0.999986411  0.250117343  0.600233718
     0.249734853  0.499887790  0.599784938
     0.999791148  0.499924508  0.473255248
     0.249972411  0.249941824  0.473253190
     0.500013589  0.750000194  0.348572378
     0.750013589  0.000000194  0.348572378
     0.500013589  0.000000194  0.224440251
     0.750013589  0.750000194  0.224440251
     0.499914099  0.749702939  0.600650516
     0.750105757  0.000531742  0.599687753
     0.499934306  0.999831741  0.473236830
     0.749939395  0.749919876  0.473484321
     0.500013589  0.250000194  0.348572378
     0.750013589  0.500000194  0.348572378
     0.500013589  0.500000194  0.224440251
     0.750013589  0.250000194  0.224440251
     0.499875703  0.249746572  0.599863902
     0.749534934  0.499934376  0.600724769
     0.499995259  0.499984022  0.473233981
     0.750019295  0.250251889  0.473198844

  ion indices of the primitive-cell ions
   primitive index   ion index
                 1           1
                 2           2
                 3           3
                 4           4
                 5           5
                 6           6
                 7           7
                 8           8
                 9           9
                10          10
                11          11
                12          12
                13          13
                14          14
                15          15
                16          16
                17          17
                18          18
                19          19
                20          20
                21          21
                22          22
                23          23
                24          24
                25          25
                26          26
                27          27
                28          28
                29          29
                30          30
                31          31
                32          32
                33          33
                34          34
                35          35
                36          36
                37          37
                38          38
                39          39
                40          40
                41          41
                42          42
                43          43
                44          44
[...]
   6.33090136  2.11237235  8.04438034

--------------------------------------- Iteration      FINAL  ---------------------------------------

--------------------OUTCAR has been truncated-------------------------

[...]

--------------------OUTCAR has been truncated-------------------------

  FORCE on cell =-STRESS in cart. coord.  units (eV):
  Direction    XX          YY          ZZ          XY          YZ          ZX
  Alpha Z  1248.51953  1248.51953  1248.51953
  Ewald  105300.17532105226.91819************   403.92923   -85.57265   -95.12632
  Hartree122249.97865122214.60033************   180.76504   -39.48987   -43.81008
  E(xc)   -3291.33988 -3291.52462 -3293.78897     1.08741    -0.21870    -0.23919
  Local  ************************236253.12180  -543.80230   116.73760   129.62052
  n-local -5645.59337 -5646.30133 -5648.97866     4.18070    -0.89179    -1.02061
  augment   726.64480   726.70559   717.79518    -0.36135     0.07869     0.08930
  Kinetic 12876.94017 12884.91344 12936.16583   -46.72196     9.57096    10.79048
  Fock        0.00000     0.00000     0.00000     0.00000     0.00000     0.00000
  Total     -26.43655   -26.21538     0.27891    -0.92323     0.21423     0.30411
  in kB     -34.96876   -34.67621     0.36892    -1.22120     0.28337     0.40226

 VOLUME and BASIS-vectors are now :
  energy-cutoff  :     1000.00
  volume of cell :     1211.25
      direct lattice vectors                 reciprocal lattice vectors
     8.440984654  0.000000000  0.000000000     0.118469591  0.000000000  0.000000000
     0.000000000  8.440984654  0.000000000     0.000000000  0.118469591  0.000000000
     0.000000000  0.000000000 17.000000000     0.000000000  0.000000000  0.058823529

  length of vectors
     8.440984654  8.440984654 17.000000000     0.118469591  0.118469591  0.058823529

 FORCES acting on ions
    electron-ion (+dipol)            ewald-force                    non-local-force                 convergence-correction
   0.214E+03 0.196E+03 -.928E+03   -.250E+03 -.230E+03 0.935E+03   0.371E+02 0.340E+02 -.729E+01   0.468E-04 0.485E-04 -.334E-02
   0.117E+02 0.107E+02 -.950E+03   -.167E+02 -.154E+02 0.952E+03   0.484E+01 0.445E+01 -.110E+01   -.400E-03 -.364E-03 -.299E-02
   -.217E+03 -.200E+03 -.117E+04   0.265E+03 0.244E+03 0.116E+04   -.487E+02 -.447E+02 0.896E+01   -.320E-03 -.300E-03 -.341E-02
   -.102E+01 -.799E+00 0.243E+04   0.103E+01 0.800E+00 -.242E+04   -.231E-02 -.121E-02 -.885E+01   -.285E-04 -.354E-04 0.414E-02
   0.872E+00 -.958E+00 0.244E+04   -.874E+00 0.961E+00 -.243E+04   0.170E-02 -.240E-02 -.886E+01   0.587E-04 -.328E-04 0.423E-02
   -.117E+01 -.130E+01 0.843E+03   0.119E+01 0.131E+01 -.844E+03   -.143E-01 -.132E-01 0.639E+00   0.143E-04 0.103E-04 0.579E-02
   0.116E+01 -.109E+01 0.845E+03   -.112E+01 0.111E+01 -.845E+03   -.288E-01 -.154E-01 0.614E+00   0.791E-05 0.212E-04 0.573E-02
   -.772E+01 -.357E+01 -.734E+03   0.768E+01 0.358E+01 0.734E+03   0.436E-01 -.125E-01 -.478E+00   0.202E-04 0.372E-04 0.639E-02
   0.387E+01 -.512E+01 -.747E+03   -.388E+01 0.512E+01 0.747E+03   0.148E-01 0.116E-02 -.210E+00   -.463E-04 0.749E-04 0.640E-02
   -.248E+02 -.257E+02 -.234E+04   0.248E+02 0.257E+02 0.233E+04   0.808E-02 0.368E-02 0.746E+01   0.218E-04 0.233E-04 0.290E-02
   0.277E+02 -.194E+02 -.231E+04   -.279E+02 0.193E+02 0.231E+04   0.134E+00 0.190E-01 0.744E+01   0.951E-06 -.454E-04 0.298E-02
   -.848E+00 0.795E+00 0.244E+04   0.851E+00 -.796E+00 -.243E+04   -.257E-02 0.106E-02 -.886E+01   -.176E-04 0.422E-04 0.424E-02
   0.105E+01 0.963E+00 0.243E+04   -.106E+01 -.966E+00 -.243E+04   0.191E-02 0.247E-02 -.884E+01   0.539E-04 0.179E-04 0.408E-02
   -.112E+01 0.132E+01 0.845E+03   0.107E+01 -.134E+01 -.845E+03   0.345E-01 0.111E-01 0.657E+00   -.831E-05 -.265E-04 0.575E-02
   0.118E+01 0.107E+01 0.843E+03   -.120E+01 -.109E+01 -.844E+03   0.148E-01 0.164E-01 0.650E+00   -.557E-05 -.101E-04 0.581E-02
   -.452E+01 0.342E+01 -.748E+03   0.452E+01 -.342E+01 0.748E+03   0.142E-03 0.837E-02 -.221E+00   0.692E-04 -.380E-04 0.640E-02
   0.636E+01 0.528E+01 -.736E+03   -.639E+01 -.528E+01 0.736E+03   0.386E-01 0.155E-02 -.365E+00   -.192E-04 -.895E-04 0.642E-02
   -.311E+02 0.274E+02 -.232E+04   0.313E+02 -.274E+02 0.231E+04   -.166E+00 -.161E-01 0.746E+01   0.383E-04 -.906E-05 0.298E-02
   0.178E+02 0.175E+02 -.234E+04   -.178E+02 -.175E+02 0.234E+04   0.259E-02 -.541E-02 0.745E+01   0.249E-04 0.448E-04 0.296E-02
   0.103E+01 -.987E+00 0.243E+04   -.104E+01 0.987E+00 -.242E+04   0.188E-02 -.548E-03 -.887E+01   0.200E-04 -.340E-04 0.395E-02
   -.875E+00 -.113E+01 0.243E+04   0.878E+00 0.114E+01 -.243E+04   -.166E-02 -.215E-02 -.885E+01   -.462E-04 -.388E-04 0.413E-02
   0.119E+01 -.127E+01 0.845E+03   -.121E+01 0.123E+01 -.845E+03   0.124E-01 0.315E-01 0.651E+00   -.288E-04 -.799E-06 0.573E-02
   -.122E+01 -.108E+01 0.847E+03   0.119E+01 0.105E+01 -.847E+03   0.203E-01 0.212E-01 0.702E+00   0.149E-04 0.633E-05 0.571E-02
   0.793E+01 -.609E+01 -.726E+03   -.789E+01 0.612E+01 0.726E+03   -.511E-01 -.283E-01 -.154E+00   -.123E-04 0.134E-04 0.634E-02
   -.404E+01 -.833E+01 -.733E+03   0.406E+01 0.828E+01 0.734E+03   -.176E-01 0.438E-01 -.492E+00   0.417E-04 0.283E-04 0.638E-02
   0.267E+02 -.357E+02 -.231E+04   -.267E+02 0.359E+02 0.230E+04   -.195E-01 -.147E+00 0.746E+01   0.382E-05 0.345E-04 0.299E-02
   -.380E+02 -.330E+02 -.219E+04   0.383E+02 0.333E+02 0.219E+04   -.313E+00 -.285E+00 0.707E+01   -.993E-04 -.803E-04 0.314E-02
   0.852E+00 0.976E+00 0.243E+04   -.856E+00 -.978E+00 -.243E+04   0.275E-02 0.120E-02 -.884E+01   0.914E-05 0.409E-04 0.409E-02
   -.106E+01 0.114E+01 0.243E+04   0.106E+01 -.115E+01 -.242E+04   -.916E-03 0.159E-02 -.887E+01   -.491E-04 0.342E-04 0.396E-02
   0.118E+01 0.133E+01 0.847E+03   -.115E+01 -.130E+01 -.847E+03   -.220E-01 -.217E-01 0.658E+00   -.159E-04 -.176E-04 0.572E-02
   -.121E+01 0.102E+01 0.845E+03   0.123E+01 -.983E+00 -.845E+03   -.136E-01 -.302E-01 0.616E+00   0.171E-04 0.938E-05 0.575E-02
   0.465E+01 0.584E+01 -.737E+03   -.466E+01 -.587E+01 0.737E+03   0.332E-02 0.369E-01 -.323E+00   -.750E-04 -.119E-04 0.644E-02
   -.659E+01 0.854E+01 -.727E+03   0.661E+01 -.849E+01 0.727E+03   -.283E-01 -.517E-01 -.129E+00   0.205E-04 -.215E-04 0.634E-02
   0.384E+02 0.443E+02 -.223E+04   -.386E+02 -.446E+02 0.222E+04   0.264E+00 0.291E+00 0.746E+01   0.298E-05 0.199E-04 0.321E-02
   -.191E+02 0.236E+02 -.232E+04   0.191E+02 -.237E+02 0.231E+04   0.879E-02 0.135E+00 0.743E+01   -.344E-04 0.612E-05 0.298E-02
   -.788E+00 -.536E+00 0.506E+03   0.795E+00 0.535E+00 -.506E+03   -.910E-02 0.166E-02 -.451E-01   -.149E-04 0.329E-04 0.358E-02
   0.604E+00 -.732E+00 0.505E+03   -.605E+00 0.726E+00 -.505E+03   0.963E-03 0.802E-02 -.737E-01   -.203E-04 0.270E-04 0.363E-02
   -.543E+00 -.600E+00 0.148E+04   0.546E+00 0.603E+00 -.148E+04   -.483E-02 -.419E-02 0.271E+01   -.108E-04 -.211E-04 0.246E-02
   0.605E+00 -.516E+00 0.147E+04   -.604E+00 0.519E+00 -.148E+04   -.201E-02 -.375E-02 0.271E+01   0.378E-04 -.198E-04 0.233E-02
   -.287E+02 -.870E+01 -.141E+04   0.287E+02 0.870E+01 0.141E+04   0.689E-02 -.929E-03 -.472E+01   -.132E-04 0.166E-04 0.218E-02
   0.869E+01 -.109E+02 -.144E+04   -.868E+01 0.109E+02 0.144E+04   -.164E-01 0.238E-01 -.470E+01   -.300E-04 0.913E-04 0.216E-02
   -.342E+01 -.365E+01 -.441E+03   0.341E+01 0.363E+01 0.440E+03   0.108E-01 0.111E-01 0.259E+00   0.226E-04 0.242E-04 0.421E-02
   0.325E+01 -.280E+01 -.436E+03   -.325E+01 0.280E+01 0.436E+03   -.117E-01 -.236E-02 0.284E+00   -.350E-04 0.141E-04 0.420E-02
   -.643E+00 0.531E+00 0.505E+03   0.637E+00 -.533E+00 -.505E+03   0.751E-02 0.280E-02 -.712E-01   0.248E-04 -.202E-04 0.364E-02
   0.731E+00 0.742E+00 0.506E+03   -.716E+00 -.734E+00 -.506E+03   -.193E-01 -.983E-02 -.330E-01   0.152E-04 -.363E-04 0.361E-02
   -.579E+00 0.602E+00 0.147E+04   0.578E+00 -.606E+00 -.148E+04   0.109E-02 0.436E-02 0.270E+01   -.236E-04 0.209E-04 0.234E-02
   0.551E+00 0.513E+00 0.148E+04   -.554E+00 -.516E+00 -.148E+04   0.367E-02 0.369E-02 0.272E+01   0.327E-04 0.252E-04 0.244E-02
   -.947E+01 0.764E+01 -.144E+04   0.945E+01 -.763E+01 0.144E+04   0.209E-01 -.114E-01 -.469E+01   0.894E-04 -.208E-04 0.217E-02
   0.214E+02 0.121E+02 -.142E+04   -.214E+02 -.121E+02 0.142E+04   0.707E-01 -.764E-02 -.475E+01   -.275E-04 -.947E-04 0.219E-02
   -.359E+01 0.378E+01 -.437E+03   0.359E+01 -.378E+01 0.437E+03   0.465E-02 0.281E-02 0.288E+00   0.392E-04 -.306E-04 0.424E-02
   0.282E+01 0.266E+01 -.443E+03   -.281E+01 -.265E+01 0.443E+03   -.116E-01 -.971E-02 0.213E+00   -.109E-04 -.319E-05 0.423E-02
   0.847E+00 -.721E+00 0.507E+03   -.871E+00 0.727E+00 -.507E+03   0.300E-01 -.826E-02 -.979E-01   -.227E-05 0.457E-05 0.360E-02
   -.610E+00 -.878E+00 0.506E+03   0.607E+00 0.884E+00 -.506E+03   0.329E-02 -.840E-02 -.442E-01   0.284E-04 -.138E-04 0.359E-02
   0.545E+00 -.654E+00 0.147E+04   -.549E+00 0.653E+00 -.148E+04   0.469E-02 0.137E-02 0.270E+01   0.821E-05 -.283E-04 0.234E-02
   -.611E+00 -.556E+00 0.147E+04   0.609E+00 0.553E+00 -.148E+04   0.234E-02 0.331E-02 0.270E+01   -.312E-04 -.281E-04 0.224E-02
   0.343E+02 -.251E+02 -.137E+04   -.342E+02 0.251E+02 0.137E+04   -.114E+00 0.300E-01 -.444E+01   0.913E-04 -.376E-04 0.228E-02
   -.994E+01 -.303E+02 -.141E+04   0.994E+01 0.303E+02 0.141E+04   -.235E-02 0.209E-01 -.473E+01   0.191E-04 -.116E-04 0.220E-02
   0.356E+01 -.408E+01 -.436E+03   -.356E+01 0.407E+01 0.436E+03   0.879E-03 0.112E-01 0.302E+00   -.252E-04 0.496E-04 0.424E-02
   -.346E+01 -.303E+01 -.429E+03   0.347E+01 0.305E+01 0.429E+03   -.487E-02 -.946E-02 0.985E-01   0.306E-04 0.220E-04 0.422E-02
   0.653E+00 0.659E+00 0.506E+03   -.646E+00 -.647E+00 -.506E+03   -.950E-02 -.148E-01 -.347E-01   -.377E-04 0.136E-04 0.361E-02
   -.800E+00 0.934E+00 0.507E+03   0.807E+00 -.957E+00 -.506E+03   -.975E-02 0.297E-01 -.992E-01   0.248E-05 0.183E-05 0.361E-02
   0.585E+00 0.661E+00 0.147E+04   -.583E+00 -.659E+00 -.148E+04   -.261E-02 -.232E-02 0.270E+01   0.197E-04 0.210E-04 0.224E-02
   -.553E+00 0.550E+00 0.147E+04   0.556E+00 -.548E+00 -.148E+04   -.421E-02 -.247E-02 0.271E+01   -.326E-04 0.327E-04 0.234E-02
   0.103E+02 0.198E+02 -.142E+04   -.103E+02 -.198E+02 0.142E+04   -.109E-01 0.692E-01 -.474E+01   -.837E-04 -.228E-04 0.218E-02
   -.258E+02 0.357E+02 -.137E+04   0.258E+02 -.356E+02 0.138E+04   0.199E-02 -.119E+00 -.448E+01   -.205E-04 0.770E-04 0.227E-02
   0.378E+01 0.428E+01 -.427E+03   -.379E+01 -.429E+01 0.427E+03   0.847E-02 0.336E-02 0.401E+00   -.377E-04 -.481E-04 0.425E-02
   -.295E+01 0.284E+01 -.437E+03   0.296E+01 -.284E+01 0.437E+03   -.613E-02 -.288E-02 0.288E+00   0.178E-04 -.253E-04 0.420E-02
   0.688E+01 0.632E+01 0.219E+02   -.160E-12 -.217E-12 -.131E-11   -.685E+01 -.633E+01 -.222E+02   -.697E-03 -.630E-03 0.243E+00

 POSITION                                       TOTAL-FORCE (eV/Angst)
      4.43105      4.61905     13.18452         0.848353      0.722061     -0.160455
      5.26523      5.38498     13.02232        -0.198003     -0.179036      0.018935
      6.13975      6.18827     12.83311        -0.613574     -0.556296      0.099312
      0.00011      6.33074      3.81548         0.000489      0.000418      0.305417
      2.11036      0.00000      3.81548        -0.000699      0.000735      0.306389
      0.00011      0.00000      5.92573         0.003272      0.003264      0.042547
      2.11036      6.33074      5.92573         0.008617      0.004274      0.044671
      8.44070      6.33133      8.05129         0.000631     -0.002698      0.038542
      2.11002      8.44098      8.05077         0.004121     -0.002912      0.035063
      0.00072      0.00069     10.15534         0.001058      0.002049      0.042091
      2.10950      6.32951     10.15374        -0.006492      0.007930      0.034889
      0.00011      2.11025      3.81548         0.000436     -0.000221      0.306099
      2.11036      4.22049      3.81548        -0.000756     -0.000576      0.303758
      0.00011      4.22049      5.92573        -0.011060     -0.002494      0.044040
      2.11036      2.11025      5.92573        -0.004160     -0.004241      0.038647
      0.00015      2.11008      8.05083        -0.003750      0.004103      0.035714
      2.10824      4.22030      8.04945         0.005343      0.001009      0.033531
      0.00013      4.22192     10.15489         0.003976     -0.008661      0.039058
      2.10983      2.10999     10.15799        -0.005535     -0.004383      0.035174
      4.22061      6.33074      3.81548        -0.000897      0.000293      0.310627
      6.33085      0.00000      3.81548         0.000244      0.000789      0.305579
      4.22061      0.00000      5.92573        -0.003071     -0.009949      0.043939
      6.33085      6.33074      5.92573        -0.004858     -0.004792      0.050069
      4.22280      6.33059      8.05370        -0.002824     -0.001606      0.034092
      6.33161      8.44057      8.05126        -0.003576      0.001529      0.038464
      4.22208      0.00054     10.15357        -0.009561      0.004366      0.037071
      6.33963      6.33915     10.17200         0.000392      0.001720      0.063979
      4.22061      2.11025      3.81548        -0.001001     -0.000249      0.304143
      6.33085      4.22049      3.81548         0.000102     -0.000479      0.310592
      4.22061      4.22049      5.92573         0.005181      0.005676      0.045931
      6.33085      2.11025      5.92573         0.003615      0.009159      0.044671
      4.22035      2.10843      8.04933        -0.000138      0.004279      0.033979
      6.33057      4.22272      8.05371        -0.003029     -0.002187      0.034257
      4.21166      4.21193     10.14817        -0.000040      0.001045      0.035825
      6.32976      2.10963     10.15375         0.006343     -0.004225      0.037355
      0.00011      6.33074      5.92573        -0.002648      0.000188      0.070573
      2.11036      0.00000      5.92573        -0.000045      0.001856      0.061071
      0.00011      0.00000      3.81548        -0.001595     -0.000873     -0.415172
      2.11036      6.33074      3.81548        -0.001019     -0.000780     -0.407680
      0.00433      6.33154     10.19527         0.000941     -0.000968     -0.079397
      2.11129      8.44081     10.20424        -0.002452     -0.000610     -0.095929
      0.00127      0.00112      8.04457        -0.003514     -0.002669      0.011114
      2.11236      6.33097      8.04429        -0.005270     -0.001918      0.006312
      0.00011      2.11025      5.92573         0.001167      0.000941      0.061930
      2.11036      4.22049      5.92573        -0.004240     -0.002104      0.066479
      0.00011      4.22049      3.81548        -0.000214      0.001067     -0.416159
      2.11036      2.11025      3.81548         0.000306      0.000929     -0.405695
      8.44087      2.11124     10.20397        -0.001644     -0.001575     -0.095306
      2.10801      4.21955     10.19634         0.005335      0.002371     -0.081973
      8.43922      4.21986      8.04534         0.001401      0.005017      0.010750
      2.11001      2.10976      8.04530        -0.000353      0.001689      0.005237
      4.22061      6.33074      5.92573         0.005976     -0.001904      0.066232
      6.33085      0.00000      5.92573        -0.000089     -0.001920      0.070691
      4.22061      0.00000      3.81548         0.000566      0.000427     -0.416525
      6.33085      6.33074      3.81548         0.000043      0.000874     -0.410721
      4.21977      6.32823     10.21106        -0.004645      0.000953     -0.077316
      6.33163      0.00449     10.19469        -0.001954      0.003329     -0.081068
      4.21994      8.43956      8.04503         0.003631      0.002595      0.011346
      6.33023      6.33006      8.04923         0.004436      0.003374      0.002651
      4.22061      2.11025      5.92573        -0.002555     -0.002653      0.065561
      6.33085      4.22049      5.92573        -0.002817      0.006458      0.065930
      4.22061      4.22049      3.81548        -0.001138     -0.000496     -0.417246
      6.33085      2.11025      3.81548        -0.001494     -0.000504     -0.407758
      4.21944      2.10811     10.19769         0.001631      0.005944     -0.084220
      6.32681      4.21994     10.21232        -0.002228     -0.004554     -0.079055
      4.22045      4.22036      8.04498        -0.001786     -0.001015      0.015136
      6.33090      2.11237      8.04438        -0.002881     -0.003167      0.006207
    total drift:                                0.023443     -0.005581     -0.019862

  FREE ENERGIE OF THE ION-ELECTRON SYSTEM (eV)
  free  energy   TOTEN  =      -272.12242937 eV

  energy  without entropy=     -272.12242937  energy(sigma->0) =     -272.12242937