 vasp.6.3.0 20Jan22 (build Aug 21 2024 11:13:42) complex
 executed on        HPECrayEX_GCC date 2024.11.26  11:39:44

 INCAR:
   SYSTEM = TiO2
   ISMEAR = 0
   SIGMA = 0.05
   EDIFF = 1E-4
   ALGO = ALL
   ISTART = 0
   IBRION = -1
   NSW = 0
   ISYM = 0
   ISIF = 2
   EDIFFG = -0.01
   DIPOL = 0.5 0.5 0.5
   IDIPOL = 3
   LDIPOL = .TRUE.
   GGA = MK
   LUSE_VDW = .TRUE.
   PARAM1 = 0.1234
   PARAM2 = 0.711357
   ZAB_VDW = -1.8867
   AGGAC = 0.0
   ENCUT = 600
   PREC = Accurate
   LASPH = .TRUE.
   LREAL = .FALSE.
   ISPIN = 1
   NELM = 200
   NELMIN = 8
   NCORE = 2
   KPAR = 1
   LWAVE = .FALSE.
   LCHARG = .FALSE.

 POTCAR:    PAW_PBE H 15Jun2001
 POTCAR:    PAW_PBE O 08Apr2002
 POTCAR:    PAW_PBE Ti_pv 07Sep2000
 POTCAR:    PAW_PBE O 08Apr2002
|               ----> ADVICE to this user running VASP <----                  |
|     You have switched on vdW-DFT.                                           |
|     This routine was written and supplied by Jiri Klimes. We recommend      |
|     that you carefully read and cite the following publications:            |
|       J. Klimes, D.R. Bowler, A. Michelides                                 |
|          J. Phys.: Cond Matt. 22 022201 (2010)                              |
|       J. Klimes, D.R. Bowler, A. Michelides                                 |
|          Phys. Rev. B. 83, 195131 (2011)                                    |
|     and references therein.                                                 |

   TITEL  = PAW_PBE H 15Jun2001
   POMASS =    1.000; ZVAL   =    1.000    mass and valenz
   ENMAX  =  250.000; ENMIN  =  200.000 eV

   TITEL  = PAW_PBE O 08Apr2002
   POMASS =   16.000; ZVAL   =    6.000    mass and valenz
   ENMAX  =  400.000; ENMIN  =  300.000 eV

   TITEL  = PAW_PBE Ti_pv 07Sep2000
   POMASS =   47.880; ZVAL   =   10.000    mass and valenz
   ENMAX  =  222.335; ENMIN  =  166.751 eV

   TITEL  = PAW_PBE O 08Apr2002
   POMASS =   16.000; ZVAL   =    6.000    mass and valenz
   ENMAX  =  400.000; ENMIN  =  300.000 eV

  PAW_PBE H 15Jun2001                   :
  PAW_PBE O 08Apr2002                   :
  PAW_PBE Ti_pv 07Sep2000               :
  PAW_PBE O 08Apr2002                   :

 POSCAR:  H  O Ti  O
  positions in direct lattice
 exchange correlation table for  LEXCH =       43
   RHO(1)=    0.500       N(1)  =     2000
   RHO(2)=  100.500       N(2)  =     4000

 ion  position               nearest neighbor table
   1  0.518  0.552  0.801-   3 0.97
   2  0.619  0.496  0.781-   3 1.00
   3  0.542  0.492  0.782-   1 0.97   2 1.00  83 2.21
   4  0.750  0.625  0.287-  84 1.96  85 1.96 144 1.96 145 1.96  87 1.98 166 1.98  14 2.97  34 2.97

   5  0.000  0.750  0.287-  86 1.96  87 1.96 106 1.96 107 1.96  88 1.98  35 2.97  15 2.97
   6  0.000  0.625  0.393-  88 1.96  89 1.96 148 1.96 149 1.96  90 1.98  91 1.98  16 2.97  36 2.97

[...]

  84  0.750  0.750  0.245-   4 1.96  14 1.96
  85  0.750  0.750  0.329-   4 1.96  14 1.96   7 1.98
  86  0.098  0.625  0.287-   5 1.96  35 1.96  44 1.98
  87  0.902  0.625  0.287-   5 1.96  35 1.96   4 1.98
  88  0.000  0.750  0.352-   6 1.96  16 1.96   5 1.98
  89  0.000  0.750  0.435-   6 1.96  16 1.96   9 1.98
  90  0.848  0.625  0.393-   7 1.96  37 1.96   6 1.98
  91  0.152  0.625  0.393-  47 1.96  77 1.96   6 1.98
  92  0.750  0.750  0.458-   8 1.96  18 1.96   7 1.98
  93  0.750  0.750  0.542-   8 1.96  18 1.96  11 2.10
  94  0.098  0.625  0.500-   9 1.96  39 1.96  48 1.98
  95  0.902  0.625  0.500-   9 1.96  39 1.96   8 1.98
  96  0.001  0.750  0.566-  20 1.90  10 1.90   9 2.01
  97  0.000  0.750  0.649-  13 1.81  10 2.02  20 2.03
  98  0.851  0.625  0.607-  11 1.93  41 1.94  10 2.03
  99  0.151  0.625  0.607-  10 1.88  81 2.02  51 2.02
 100  0.755  0.751  0.672-  11 1.87  12 2.08  22 2.10
 101  0.750  0.749  0.755-  12 1.83  22 1.84
 102  0.095  0.625  0.719-  43 1.95  13 1.96  52 2.04
 103  0.908  0.624  0.720-  43 1.95  13 1.96  12 2.03
 104  0.750  0.000  0.245-  14 1.96  24 1.96
 105  0.750  0.000  0.329-  14 1.96  24 1.96  17 1.98
 106  0.098  0.875  0.287-   5 1.96  15 1.96  54 1.98
 107  0.902  0.875  0.287-   5 1.96  15 1.96  14 1.98
 108  0.000  0.000  0.352-  16 1.96  26 1.96  15 1.98
 109  0.000  0.000  0.435-  16 1.96  26 1.96  19 1.98
 110  0.848  0.875  0.393-   7 1.96  17 1.96  16 1.98
 111  0.152  0.875  0.393-  47 1.96  57 1.96  16 1.98
 112  0.750  0.000  0.458-  18 1.96  28 1.96  17 1.98
 113  0.750  0.000  0.542-  18 1.96  28 1.96  21 2.11
 114  0.098  0.875  0.500-   9 1.96  19 1.96  58 1.98
 115  0.902  0.875  0.500-   9 1.96  19 1.96  18 1.98
 116  0.001  1.000  0.566-  20 1.90  30 1.90  19 2.01
 117  0.001  1.000  0.649-  23 1.81  30 2.02  20 2.02
 118  0.851  0.875  0.607-  21 1.93  11 1.94  20 2.04
 119  0.151  0.875  0.607-  20 1.88  51 2.02  61 2.03
 120  0.752  1.000  0.672-  21 1.88  32 2.09  22 2.10
 121  0.751  1.000  0.756-  32 1.83  22 1.84
 122  0.095  0.874  0.719-  13 1.94  23 1.95  62 2.05
 123  0.908  0.875  0.720-  13 1.95  23 1.95  22 2.04
 124  0.750  0.250  0.245-  24 1.96  34 1.96
 125  0.750  0.250  0.329-  24 1.96  34 1.96  27 1.98
 126  0.098  0.125  0.287-  15 1.96  25 1.96  64 1.98
 127  0.902  0.125  0.287-  15 1.96  25 1.96  24 1.98
 128  0.000  0.250  0.352-  26 1.96  36 1.96  25 1.98
 129  0.000  0.250  0.435-  26 1.96  36 1.96  29 1.98
 130  0.848  0.125  0.393-  17 1.96  27 1.96  26 1.98
 131  0.152  0.125  0.393-  57 1.96  67 1.96  26 1.98
 132  0.750  0.250  0.458-  28 1.96  38 1.96  27 1.98
 133  0.750  0.250  0.542-  28 1.96  38 1.96  31 2.10
 134  0.098  0.125  0.500-  19 1.96  29 1.96  68 1.98
 135  0.902  0.125  0.500-  19 1.96  29 1.96  28 1.98
 136  0.001  0.250  0.566-  40 1.90  30 1.90  29 2.01
 137  0.001  0.250  0.649-  33 1.81  40 2.03  30 2.03
 138  0.851  0.125  0.607-  21 1.93  31 1.94  30 2.04
 139  0.151  0.125  0.607-  30 1.87  71 2.02  61 2.03
 140  0.754  0.250  0.672-  31 1.88  42 2.07  32 2.11
 141  0.750  0.250  0.755-  42 1.83  32 1.85
 142  0.095  0.125  0.719-  33 1.94  23 1.95  72 2.05
 143  0.907  0.125  0.720-  33 1.95  23 1.95  32 2.04
[...]
 229  0.500  0.500  0.435-  46 1.96  76 1.96  79 1.98
 230  0.348  0.375  0.393-  67 1.96  77 1.96  76 1.98
 231  0.652  0.375  0.393-  27 1.96  37 1.96  76 1.98
 232  0.250  0.500  0.458-  48 1.96  78 1.96  77 1.98
 233  0.250  0.500  0.542-  48 1.96  78 1.96  81 2.11
 234  0.598  0.375  0.500-  69 1.96  79 1.96  38 1.98
 235  0.402  0.375  0.500-  69 1.96  79 1.96  78 1.98
 236  0.501  0.500  0.566-  50 1.90  80 1.91  79 2.01
 237  0.500  0.500  0.650-  83 1.91  50 1.99  80 1.99
 238  0.350  0.375  0.607-  71 1.93  81 1.94  80 2.04
 239  0.652  0.375  0.608-  80 1.89  41 2.02  31 2.02
 240  0.251  0.500  0.672-  81 1.87  52 2.10  82 2.11
 241  0.252  0.500  0.756-  52 1.84  82 1.84
 242  0.598  0.371  0.714-  73 1.92  83 1.97  42 2.03
 243  0.408  0.374  0.719-  83 1.93  73 1.95  82 2.05

IMPORTANT INFORMATION: All symmetrisations will be switched off!
NOSYMM: (Re-)initialisation of all symmetry stuff for point group C_1.

                                     Primitive cell

  volume of cell :    4740.1649

  direct lattice vectors                    reciprocal lattice vectors
    13.042933829  0.000000000  0.000000000     0.076669867  0.000000000  0.000000000
     0.000000000 11.878216733  0.000000000     0.000000000  0.084187721  0.000000000
     0.000000000  0.000000000 30.596159140     0.000000000  0.000000000  0.032683841

  length of vectors
    13.042933829 11.878216733 30.596159140     0.076669867  0.084187721  0.032683841

  position of ions in fractional coordinates (direct lattice)
     0.517712768  0.552156421  0.801429142
     0.618667628  0.496068710  0.781399201
     0.541827239  0.492085458  0.782417715
     0.750000000  0.625000000  0.286853412
     0.000000000  0.750000000  0.286853412
     0.000000000  0.625000000  0.393426706
     0.750000000  0.750000000  0.393426706
     0.750000000  0.625000000  0.500000000
     0.000000000  0.750000000  0.500000000
     0.006887652  0.624996465  0.604378293
     0.756183921  0.749959328  0.610248202
     0.752006800  0.625674106  0.719232798
     0.001115357  0.750173382  0.708577972
     0.750000000  0.875000000  0.286853412
     0.000000000  0.000000000  0.286853412
     0.000000000  0.875000000  0.393426706
     0.750000000  0.000000000  0.393426706
     0.750000000  0.875000000  0.500000000
     0.000000000  0.000000000  0.500000000
     0.007216500  0.874987964  0.604416698
     0.755899164  0.999991382  0.610506686
     0.750784435  0.874825305  0.720213485
     0.001206601  0.999793484  0.708536760
     0.750000000  0.125000000  0.286853412
     0.000000000  0.250000000  0.286853412
     0.000000000  0.125000000  0.393426706
     0.750000000  0.250000000  0.393426706
     0.750000000  0.125000000  0.500000000
     0.000000000  0.250000000  0.500000000
     0.007399108  0.124896292  0.604413788
     0.756011524  0.249816940  0.610212043
     0.750657021  0.124015932  0.720209580
     0.001079989  0.249455354  0.708570334
     0.750000000  0.375000000  0.286853412
     0.000000000  0.500000000  0.286853412
     0.000000000  0.375000000  0.393426706
     0.750000000  0.500000000  0.393426706
     0.750000000  0.375000000  0.500000000
     0.000000000  0.500000000  0.500000000
     0.006792053  0.374916453  0.604352351
     0.756027192  0.499927490  0.610457223
     0.752520534  0.373127023  0.719284390
     0.001841790  0.499955759  0.708526989
     0.250000000  0.625000000  0.286853412
     0.500000000  0.750000000  0.286853412
     0.500000000  0.625000000  0.393426706
     0.250000000  0.750000000  0.393426706
     0.250000000  0.625000000  0.500000000
     0.500000000  0.750000000  0.500000000
     0.506932573  0.622812932  0.605566409
     0.256148235  0.749880202  0.610520338
     0.251455144  0.625022499  0.720319228
     0.501979974  0.750080154  0.707352067
     0.250000000  0.875000000  0.286853412
     0.500000000  0.000000000  0.286853412
     0.500000000  0.875000000  0.393426706
     0.250000000  0.000000000  0.393426706
     0.250000000  0.875000000  0.500000000
     0.500000000  0.000000000  0.500000000
     0.507237675  0.874036219  0.603419594
[...]
     0.500000000  0.500000000  0.435151311
     0.347877722  0.375000000  0.393426706
     0.652122278  0.375000000  0.393426706
     0.250000000  0.500000000  0.458275395
     0.250000000  0.500000000  0.541724605
     0.597877722  0.375000000  0.500000000
     0.402122278  0.375000000  0.500000000
     0.501298984  0.499755765  0.565777376
     0.500121809  0.500347864  0.649928897
     0.350389990  0.374963323  0.607212110
     0.651567958  0.374954218  0.607789972
     0.251482110  0.500353057  0.671723858
     0.252191639  0.499795855  0.755601276
     0.597630281  0.371029694  0.714467922
     0.407932845  0.373980622  0.718589086

  ion indices of the primitive-cell ions
   primitive index   ion index
                 1           1
                 2           2
                 3           3
                 4           4
                 5           5
                 6           6
                 7           7
                 8           8
                 9           9
                10          10
[...]
   6.54729159  8.90961464 21.64225640
   3.26073346 10.39343964  8.77661266
   6.52146691  0.00000000  8.77661266
   6.52146691 10.39343964 12.03734611
   3.26073346  0.00000000 12.03734611
   3.26073346 10.39343964 15.29807957
   6.52146691  0.00000000 15.29807957
   6.61586743 10.38199164 18.46232193
[...]
   6.52146691  5.93910837 13.31395877
   4.53734611  4.45433128 12.03734611
   8.50558772  4.45433128 12.03734611
   3.26073346  5.93910837 14.02146691
   3.26073346  5.93910837 16.57469223
   7.79807957  4.45433128 15.29807957
   5.24485426  4.45433128 15.29807957
   6.53840948  5.93620729 17.31061462
   6.52305566  5.94324037 19.88532797
   4.57011346  4.45389562 18.57835836
   8.49835776  4.45378747 18.59603870
   3.28006452  5.94330205 20.55217006
   3.28931886  5.93668349 23.11849689
   7.79485221  4.40717112 21.85997424
   5.32064110  4.44222288 21.98606602

--------------------------------------- Iteration      FINAL  ---------------------------------------

--------------------OUTCAR has been truncated-------------------------

[...]

--------------------OUTCAR has been truncated-------------------------

  FORCE on cell =-STRESS in cart. coord.  units (eV):
  Direction    XX          YY          ZZ          XY          YZ          ZX
  Alpha Z  4646.49015  4646.49015  4646.49015
  Ewald  970918.08536988417.55205************   -26.25195    41.13115   -31.30235
  Hartree************************************    -7.04967     8.02891   -17.54929
  E(xc)   -8637.38392 -8632.14991 -8634.35363    -0.07503     0.15671    -0.14313
  Local  ************************************    27.41889   -37.39140    44.46470
  n-local -5503.19223 -5428.35093 -5544.56261    -0.33006     0.10609     0.08092
  augment  5257.31302  5234.89271  5263.27753     0.37230    -0.79982     0.09436
  Kinetic 28714.43963 28250.58502 28771.29570     5.86624   -11.08133     3.89622
  Fock        0.00000     0.00000     0.00000     0.00000     0.00000     0.00000
  Total      11.02945   -53.48268   -32.91119    -0.04928     0.15032    -0.45856
  in kB       3.72796   -18.07717   -11.12399    -0.01666     0.05081    -0.15499

 VOLUME and BASIS-vectors are now :
  energy-cutoff  :      600.00
  volume of cell :     4740.16
      direct lattice vectors                 reciprocal lattice vectors
    13.042933829  0.000000000  0.000000000     0.076669867  0.000000000  0.000000000
     0.000000000 11.878216733  0.000000000     0.000000000  0.084187721  0.000000000
     0.000000000  0.000000000 30.596159140     0.000000000  0.000000000  0.032683841

  length of vectors
    13.042933829 11.878216733 30.596159140     0.076669867  0.084187721  0.032683841

 FORCES acting on ions:
    Electron-Ion                     Ewald-Force                    Non-Local-Force
   0.321E+02 -.633E+02 -.451E+03   -.350E+02 0.695E+02 0.456E+03   0.291E+01 -.605E+01 -.508E+01
   -.605E+02 -.139E+01 -.432E+03   0.679E+02 0.151E+01 0.432E+03   -.741E+01 -.140E+00 0.271E+00
   0.553E+02 0.400E+02 -.256E+04   -.741E+02 -.723E+02 0.255E+04   0.187E+02 0.322E+02 0.124E+02
   -.103E+00 -.123E-01 0.377E+04   0.997E-01 0.123E-01 -.377E+04   0.100E-02 0.111E-04 0.364E+00
   -.540E-01 -.274E-01 0.395E+04   0.553E-01 0.275E-01 -.394E+04   -.248E-03 -.787E-05 -.370E+01
   -.148E+00 -.359E-01 0.192E+04   0.154E+00 0.359E-01 -.192E+04   -.108E-02 0.553E-04 -.422E-01
   -.336E+00 0.925E-02 0.191E+04   0.326E+00 -.900E-02 -.192E+04   0.257E-02 0.746E-05 0.202E+00
   -.139E+01 -.104E-01 0.314E+01   0.134E+01 -.105E-01 -.241E+01   0.110E-01 0.100E-02 -.119E+00
   0.179E+01 -.609E+00 0.106E+02   -.178E+01 0.610E+00 -.116E+02   -.448E-02 -.110E-02 0.327E+00
   0.131E+02 -.164E+01 -.186E+04   -.133E+02 0.165E+01 0.186E+04   0.303E-01 -.609E-02 0.109E+00
   0.216E+01 -.775E+01 -.191E+04   -.218E+01 0.777E+01 0.191E+04   -.321E-01 -.132E-01 -.753E-01
   -.703E+02 -.162E+02 -.371E+04   0.701E+02 0.160E+02 0.371E+04   0.166E+00 0.150E+00 0.294E-01
   -.513E+01 -.200E+01 -.376E+04   0.516E+01 0.200E+01 0.376E+04   -.419E-01 -.133E-01 0.845E+00
   -.114E+00 -.189E-01 0.377E+04   0.111E+00 0.190E-01 -.377E+04   0.104E-02 0.257E-04 0.364E+00
   -.514E-01 -.314E-02 0.395E+04   0.527E-01 0.322E-02 -.394E+04   -.247E-03 -.319E-05 -.370E+01
   -.115E+00 -.523E-01 0.192E+04   0.120E+00 0.521E-01 -.192E+04   -.109E-02 0.358E-04 -.421E-01
   -.427E+00 -.223E-01 0.191E+04   0.418E+00 0.219E-01 -.192E+04   0.244E-02 -.194E-04 0.202E+00
   -.281E+01 -.433E+00 0.228E+01   0.278E+01 0.452E+00 -.155E+01   0.873E-02 -.454E-03 -.120E+00
   0.225E+01 -.327E-01 0.986E+01   -.224E+01 0.312E-01 -.109E+02   -.452E-02 0.838E-03 0.324E+00
   0.165E+02 -.138E+01 -.186E+04   -.166E+02 0.138E+01 0.186E+04   0.331E-01 -.674E-02 0.111E+00
   0.443E+01 0.286E+00 -.192E+04   -.445E+01 -.288E+00 0.192E+04   -.413E-01 0.688E-03 -.903E-01
   -.150E+02 -.167E+02 -.374E+04   0.149E+02 0.167E+02 0.374E+04   0.470E-01 0.148E-01 -.966E-01
   -.477E+01 0.272E+00 -.376E+04   0.474E+01 -.267E+00 0.376E+04   0.273E-01 -.215E-02 0.881E+00
   -.112E+00 0.122E-01 0.377E+04   0.109E+00 -.125E-01 -.377E+04   0.102E-02 0.408E-04 0.364E+00
   -.540E-01 0.274E-01 0.395E+04   0.554E-01 -.275E-01 -.394E+04   -.264E-03 0.457E-05 -.370E+01
   -.114E+00 0.388E-01 0.192E+04   0.120E+00 -.388E-01 -.192E+04   -.116E-02 -.711E-04 -.421E-01
   -.310E+00 -.909E-02 0.191E+04   0.300E+00 0.884E-02 -.192E+04   0.245E-02 0.332E-05 0.202E+00
   -.269E+01 0.308E+00 0.223E+01   0.266E+01 -.336E+00 -.151E+01   0.937E-02 0.140E-02 -.119E+00
   0.184E+01 0.573E+00 0.107E+02   -.183E+01 -.575E+00 -.117E+02   -.495E-02 0.231E-02 0.327E+00
   0.178E+02 0.137E+01 -.186E+04   -.180E+02 -.137E+01 0.186E+04   0.378E-01 0.573E-02 0.113E+00
   0.189E+01 0.705E+01 -.191E+04   -.191E+01 -.706E+01 0.191E+04   -.349E-01 0.199E-02 -.853E-01
   -.147E+02 0.141E+02 -.374E+04   0.147E+02 -.140E+02 0.374E+04   0.472E-01 -.235E-01 -.104E+00
   -.460E+01 0.199E+01 -.376E+04   0.463E+01 -.198E+01 0.376E+04   -.415E-01 0.873E-02 0.842E+00
   -.101E+00 0.189E-01 0.377E+04   0.978E-01 -.188E-01 -.377E+04   0.983E-03 -.979E-05 0.364E+00
   -.566E-01 0.317E-02 0.395E+04   0.580E-01 -.323E-02 -.394E+04   -.265E-03 0.269E-05 -.370E+01
   -.148E+00 0.495E-01 0.192E+04   0.154E+00 -.493E-01 -.192E+04   -.114E-02 -.109E-03 -.422E-01
   -.219E+00 0.221E-01 0.191E+04   0.211E+00 -.217E-01 -.192E+04   0.227E-02 -.257E-04 0.201E+00
   -.125E+01 0.145E+00 0.304E+01   0.120E+01 -.115E+00 -.231E+01   0.113E-01 -.152E-02 -.118E+00
   0.154E+01 -.267E-01 0.114E+02   -.153E+01 0.269E-01 -.124E+02   -.457E-02 0.371E-03 0.326E+00
   0.133E+02 0.188E+01 -.186E+04   -.135E+02 -.188E+01 0.186E+04   0.269E-01 0.332E-02 0.109E+00
   0.676E+00 0.496E-01 -.190E+04   -.638E+00 -.492E-01 0.190E+04   -.810E-01 -.416E-03 -.692E-01
   -.694E+02 0.127E+02 -.371E+04   0.693E+02 -.125E+02 0.371E+04   0.113E+00 -.190E+00 0.343E-01
   -.767E+01 0.272E+00 -.376E+04   0.762E+01 -.276E+00 0.376E+04   0.367E-01 0.260E-02 0.799E+00
   0.966E-01 -.847E-02 0.377E+04   -.933E-01 0.831E-02 -.377E+04   -.925E-03 0.909E-05 0.363E+00
   0.606E-01 -.981E-02 0.395E+04   -.618E-01 0.102E-01 -.394E+04   0.244E-03 -.519E-04 -.370E+01
   0.298E+00 0.155E+00 0.192E+04   -.302E+00 -.143E+00 -.192E+04   0.416E-03 -.258E-02 -.438E-01
   0.189E+00 0.538E-01 0.191E+04   -.180E+00 -.535E-01 -.192E+04   -.146E-02 -.718E-04 0.198E+00
   -.319E+00 0.211E+00 0.794E+00   0.363E+00 -.228E+00 -.813E-02   -.703E-02 0.867E-03 -.128E+00
   0.393E+01 0.126E+01 0.140E+02   -.394E+01 -.134E+01 -.148E+02   -.161E-02 0.373E-01 0.255E+00
   0.210E+02 -.112E+02 -.186E+04   -.212E+02 0.113E+02 0.186E+04   0.131E-01 -.901E-01 0.696E-01
   0.165E+02 -.439E+01 -.192E+04   -.165E+02 0.438E+01 0.192E+04   -.479E-01 0.695E-02 -.812E-01
   0.341E+02 -.136E+02 -.373E+04   -.341E+02 0.136E+02 0.373E+04   0.848E-01 0.698E-02 -.130E+00
   0.238E+02 -.549E+02 -.371E+04   -.236E+02 0.550E+02 0.371E+04   -.162E+00 -.435E-01 0.960E+00
   0.108E+00 -.148E-01 0.377E+04   -.104E+00 0.150E-01 -.377E+04   -.994E-03 0.173E-04 0.363E+00
   0.582E-01 -.625E-02 0.395E+04   -.594E-01 0.623E-02 -.394E+04   0.245E-03 0.119E-04 -.370E+01
   0.272E+00 0.900E-01 0.192E+04   -.278E+00 -.893E-01 -.192E+04   0.510E-03 -.113E-02 -.444E-01
   0.274E+00 -.228E-01 0.191E+04   -.265E+00 0.227E-01 -.192E+04   -.151E-02 0.617E-04 0.198E+00
   0.747E+00 0.176E-01 0.651E+00   -.714E+00 -.127E-01 0.124E+00   -.282E-02 -.697E-03 -.127E+00
   0.349E+01 -.301E+00 0.170E+02   -.352E+01 0.299E+00 -.181E+02   0.605E-02 0.159E-04 0.284E+00
   0.184E+02 -.108E+02 -.183E+04   -.185E+02 0.108E+02 0.183E+04   0.200E-01 -.206E-01 -.203E-01
[...]
   -.532E+02 -.368E-01 0.115E+04   0.571E+02 0.361E-01 -.115E+04   -.350E+01 0.927E-03 0.152E+00
   0.533E+02 -.247E-01 0.115E+04   -.573E+02 0.241E-01 -.115E+04   0.351E+01 0.705E-03 0.158E+00
   -.105E+00 0.429E-01 0.503E+03   0.125E+00 -.433E-01 -.507E+03   -.291E-01 0.111E-02 0.410E+01
   0.204E+01 0.230E+00 -.518E+03   -.228E+01 -.225E+00 0.525E+03   0.240E+00 -.742E-02 -.697E+01
   -.543E+02 -.395E+00 0.808E+01   0.589E+02 0.393E+00 -.827E+01   -.498E+01 0.213E-01 0.243E+00
   0.553E+02 -.452E+00 0.494E+01   -.599E+02 0.448E+00 -.509E+01   0.501E+01 0.237E-01 0.232E+00
   0.116E+02 0.727E+00 -.615E+03   -.125E+02 -.824E+00 0.609E+03   0.932E+00 0.961E-01 0.671E+01
   0.198E+02 -.182E+01 -.160E+04   -.210E+02 0.190E+01 0.160E+04   0.117E+01 -.891E-01 -.152E+01
   -.489E+02 0.135E+01 -.112E+04   0.548E+02 -.134E+01 0.112E+04   -.592E+01 -.815E-02 0.129E+01
   0.449E+01 0.439E+01 -.113E+04   -.474E+01 -.457E+01 0.113E+04   0.276E+00 0.184E+00 0.463E+00
   0.164E+02 -.418E+00 -.180E+04   -.167E+02 0.386E+00 0.180E+04   0.267E+00 0.326E-01 -.212E+01
   0.355E+02 0.706E+00 -.270E+04   -.353E+02 -.771E+00 0.272E+04   -.976E-01 0.666E-01 -.204E+02
   -.464E+02 0.417E+02 -.221E+04   0.523E+02 -.414E+02 0.221E+04   -.582E+01 -.353E+00 -.623E+00
   0.655E+02 0.347E+02 -.229E+04   -.716E+02 -.349E+02 0.230E+04   0.613E+01 0.215E+00 -.345E+01
   0.128E+02 -.272E+02 0.805E+02   0.753E-12 0.853E-13 0.182E-11   -.128E+02 0.272E+02 -.807E+02

 POSITION                                       TOTAL-FORCE (eV/Angst)
      6.75249      6.55863     24.52065        -0.067363      0.092144      0.093908
      8.06924      5.89241     23.90781         0.055850     -0.017173      0.020149
      7.06702      5.84510     23.93898        -0.049621     -0.066096     -0.167164
      9.78220      7.42389      8.77661        -0.002332      0.000071     -3.486728
      0.00000      8.90866      8.77661         0.001025      0.000075      2.766492
      0.00000      7.42389     12.03735         0.004863      0.000088      0.513103
      9.78220      8.90866     12.03735        -0.006892      0.000286     -0.725107
      9.78220      7.42389     15.29808        -0.033340     -0.019893      0.613795
      0.00000      8.90866     15.29808         0.005928      0.000019     -0.678462
      0.08984      7.42384     18.49165        -0.034700     -0.000283     -0.001568
      9.86286      8.90818     18.67125        -0.006248     -0.000375     -0.031468
      9.80837      7.43189     22.00576         0.009921      0.013004      0.050197
      0.01455      8.91072     21.67976        -0.003971     -0.001516      0.099274
      9.78220     10.39344      8.77661        -0.002467      0.000125     -3.486922
      0.00000      0.00000      8.77661         0.001034      0.000094      2.766367
      0.00000     10.39344     12.03735         0.004738     -0.000130      0.513196
      9.78220      0.00000     12.03735        -0.007106     -0.000386     -0.726603
      9.78220     10.39344     15.29808        -0.021554      0.018105      0.614438
      0.00000      0.00000     15.29808         0.005702     -0.000710     -0.676874
      0.09412     10.39330     18.49283        -0.040293     -0.000935      0.000492
      9.85914     11.87811     18.67916        -0.011510     -0.000104     -0.028052
      9.79243     10.39136     22.03577         0.003682      0.001926      0.058815
      0.01574     11.87576     21.67850         0.000555      0.002420      0.096552
      9.78220      1.48478      8.77661        -0.002403     -0.000175     -3.487193
      0.00000      2.96955      8.77661         0.001110     -0.000073      2.766437
      0.00000      1.48478     12.03735         0.004907      0.000023      0.513087
      9.78220      2.96955     12.03735        -0.006610     -0.000228     -0.726502
      9.78220      1.48478     15.29808        -0.020154     -0.026542      0.608210
      0.00000      2.96955     15.29808         0.007802     -0.000065     -0.679855
      0.09651      1.48355     18.49274        -0.047073      0.000994      0.000600
      9.86061      2.96738     18.67014        -0.005807      0.000979     -0.027044
      9.79077      1.47309     22.03565         0.002396      0.006223      0.059458
      0.01409      2.96308     21.67953        -0.001327      0.000935      0.098717
      9.78220      4.45433      8.77661        -0.002314      0.000071     -3.486947
      0.00000      5.93911      8.77661         0.001109     -0.000037      2.766461
      0.00000      4.45433     12.03735         0.005068      0.000076      0.512949
      9.78220      5.93911     12.03735        -0.006526      0.000386     -0.724966
      9.78220      4.45433     15.29808        -0.034028      0.028350      0.609240
      0.00000      5.93911     15.29808         0.006987      0.000579     -0.681781
      0.08859      4.45334     18.49086        -0.031530      0.000181      0.002191
      9.86081      5.93825     18.67765         0.001821     -0.000383     -0.033797
      9.81508      4.43208     22.00734         0.002093     -0.011158      0.053870
      0.02402      5.93858     21.67820        -0.004870     -0.000207      0.099984
      3.26073      7.42389      8.77661         0.002351     -0.000145     -3.484678
      6.52147      8.90866      8.77661        -0.000990      0.000316      2.772421
      6.52147      7.42389     12.03735        -0.004372      0.009351      0.533964
      3.26073      8.90866     12.03735         0.006964      0.000290     -0.711046
      3.26073      7.42389     15.29808         0.036949     -0.015848      0.658404
      6.52147      8.90866     15.29808        -0.016619     -0.039542     -0.562163
      6.61189      7.39791     18.52801        -0.029530     -0.021255      0.006245
      3.34092      8.90724     18.67958        -0.006832     -0.004315     -0.028373
      3.27971      7.42415     22.03900        -0.002390      0.004080      0.059674
      6.54729      8.90961     21.64226        -0.008578      0.013258      0.094943
      3.26073     10.39344      8.77661         0.002447      0.000297     -3.484872
      6.52147      0.00000      8.77661        -0.000970      0.000004      2.772548
      6.52147     10.39344     12.03735        -0.004690     -0.000416      0.536225
      3.26073      0.00000     12.03735         0.007331     -0.000034     -0.711614
      3.26073     10.39344     15.29808         0.030260      0.004280      0.649577
      6.52147      0.00000     15.29808        -0.022093     -0.002417     -0.738312
      6.61587     10.38199     18.46232        -0.045220      0.000535      0.009913
[...]
      6.52147      5.93911     13.31396         0.003000     -0.000828     -0.122962
      4.53735      4.45433     12.03735         0.425205      0.000229      0.047061
      8.50559      4.45433     12.03735        -0.419880      0.000166      0.048726
      3.26073      5.93911     14.02147        -0.009203      0.000671     -0.106064
      3.26073      5.93911     16.57469        -0.002987     -0.002623      0.026001
      7.79808      4.45433     15.29808        -0.408851      0.019735      0.058251
      5.24485      4.45433     15.29808         0.443718      0.020207      0.086380
      6.53841      5.93621     17.31061        -0.004656     -0.000180     -0.032157
      6.52306      5.94324     19.88533        -0.005191     -0.000147     -0.011694
      4.57011      4.45390     18.57836         0.023763      0.003961     -0.000834
      8.49836      4.45379     18.59604         0.021230     -0.003521      0.000261
      3.28006      5.94330     20.55217        -0.002285      0.000411      0.063308
      3.28932      5.93668     23.11850         0.008250      0.001814     -0.060513
      7.79485      4.40717     21.85997         0.028339      0.018406     -0.014484
      5.32064      4.44222     21.98607        -0.027603      0.001361     -0.029438
    total drift:                                0.001721     -0.004214     -0.201749

  FREE ENERGIE OF THE ION-ELECTRON SYSTEM (eV)
  free  energy   TOTEN  =     -1753.67053405 eV

  energy  without entropy=    -1753.67053405  energy(sigma->0) =    -1753.67053405