 vasp.6.3.0 20Jan22 (build Apr  1 2022 16:44:48) complex
 executed on        HPECrayEX_GCC date 2023.03.02  03:04:44

 INCAR:
   SYSTEM = MgO-rocksalt
   ISMEAR = 0
   SIGMA = 0.05
   EDIFF = 1E-8
   ALGO = ALL
   ISTART = 0
   IBRION = 5
   POTIM = 0.01
   NFREE = 2
   ISYM = 0
   DIPOL = 0.5 0.5 0.5
   IDIPOL = 3
   LDIPOL = .TRUE.
   GGA = RE
   AGGAC = 0.0
   LUSE_VDW = .TRUE.
   LASPH = .TRUE.
   ENCUT = 600
   PREC = Accurate
   LASPH = .TRUE.
   LREAL = .FALSE.
   ISPIN = 1
   NELM = 200
   NELMIN = 8
   NCORE = 8
   KPAR = 1
   LWAVE = .FALSE.
   LCHARG = .FALSE.

 POTCAR:    PAW_PBE C 08Apr2002
 POTCAR:    PAW_PBE H 15Jun2001
 POTCAR:    PAW_PBE Mg_pv 13Apr2007
 POTCAR:    PAW_PBE O 08Apr2002
|               ----> ADVICE to this user running VASP <----                  |
|     You have switched on vdW-DFT.                                           |
|     This routine was written and supplied by Jiri Klimes. We recommend      |
|     that you carefully read and cite the following publications:            |
|       J. Klimes, D.R. Bowler, A. Michelides                                 |
|          J. Phys.: Cond Matt. 22 022201 (2010)                              |
|       J. Klimes, D.R. Bowler, A. Michelides                                 |
|          Phys. Rev. B. 83, 195131 (2011)                                    |
|     and references therein.                                                 |

   TITEL  = PAW_PBE C 08Apr2002
   POMASS =   12.011; ZVAL   =    4.000    mass and valenz
   ENMAX  =  400.000; ENMIN  =  300.000 eV

   TITEL  = PAW_PBE H 15Jun2001
   POMASS =    1.000; ZVAL   =    1.000    mass and valenz
   ENMAX  =  250.000; ENMIN  =  200.000 eV

   TITEL  = PAW_PBE Mg_pv 13Apr2007
   POMASS =   24.305; ZVAL   =    8.000    mass and valenz
   ENMAX  =  403.929; ENMIN  =  302.947 eV

   TITEL  = PAW_PBE O 08Apr2002
   POMASS =   16.000; ZVAL   =    6.000    mass and valenz
   ENMAX  =  400.000; ENMIN  =  300.000 eV

  PAW_PBE C 08Apr2002                   :
  PAW_PBE H 15Jun2001                   :
  PAW_PBE Mg_pv 13Apr2007               :
  PAW_PBE O 08Apr2002                   :

 POSCAR:  C  H Mg  O
  positions in direct lattice
 exchange correlation table for  LEXCH =       40
   RHO(1)=    0.500       N(1)  =     2000
   RHO(2)=  100.500       N(2)  =     4000

 ion  position               nearest neighbor table
   1  0.504  0.498  0.809-   5 1.10   4 1.10   3 1.10   2 1.54
   2  0.677  0.499  0.829-   7 1.10   6 1.10   8 1.10   1 1.54
   3  0.479  0.396  0.779-   1 1.10
   4  0.475  0.604  0.782-   1 1.10
   5  0.425  0.494  0.849-   1 1.10
   6  0.756  0.502  0.789-   2 1.10
   7  0.705  0.395  0.857-   2 1.10
   8  0.703  0.603  0.858-   2 1.10
   9  0.000  0.750  0.350-  41 2.14  43 2.14  44 2.14  51 2.14  60 2.14
  10  0.250  0.000  0.350-  42 2.14  43 2.14  44 2.14  52 2.14  59 2.14
  11  0.000  0.000  0.450-  43 2.14  42 2.14  41 2.14  49 2.14  58 2.14  47 2.14
  12  0.250  0.750  0.450-  44 2.14  42 2.14  41 2.14  50 2.14  57 2.14  48 2.14
  13  1.000  0.750  0.550-  47 2.14  64 2.14  48 2.14  55 2.14  41 2.15  45 2.16
  14  0.250  1.000  0.550-  48 2.14  56 2.14  47 2.14  63 2.14  42 2.15  46 2.16
  15  0.000  1.000  0.650-  47 2.13  45 2.14  46 2.14  53 2.14  62 2.14
  16  0.250  0.750  0.649-  48 2.13  45 2.14  54 2.14  46 2.14  61 2.14
  17  0.000  0.250  0.350-  49 2.14  43 2.14  51 2.14  52 2.14  68 2.14
  18  0.250  0.500  0.350-  50 2.14  44 2.14  51 2.14  52 2.14  67 2.14
  19  0.000  0.500  0.450-  51 2.14  49 2.14  50 2.14  41 2.14  66 2.14  55 2.14
  20  0.250  0.250  0.450-  52 2.14  49 2.14  50 2.14  42 2.14  65 2.14  56 2.14
  21  1.000  0.250  0.550-  72 2.14  56 2.14  47 2.14  55 2.14  49 2.15  53 2.16
  22  0.250  0.500  0.550-  71 2.14  55 2.14  48 2.14  56 2.14  50 2.15  54 2.16
  23  0.000  0.500  0.649-  55 2.13  54 2.13  70 2.14  45 2.14  53 2.14
  24  0.250  0.250  0.649-  56 2.13  53 2.14  54 2.14  46 2.14  69 2.14
  25  0.500  0.750  0.350-  57 2.14  44 2.14  59 2.14  60 2.14  67 2.14
  26  0.750  0.000  0.350-  58 2.14  43 2.14  59 2.14  60 2.14  68 2.14
  27  0.500  0.000  0.450-  59 2.14  57 2.14  58 2.14  42 2.14  65 2.14  63 2.14
  28  0.750  0.750  0.450-  60 2.14  57 2.14  58 2.14  41 2.14  66 2.14  64 2.14
  29  0.500  0.750  0.550-  71 2.14  48 2.14  64 2.14  63 2.14  57 2.15  61 2.16
  30  0.750  1.000  0.550-  64 2.14  72 2.14  63 2.14  47 2.14  58 2.15  62 2.16
  31  0.500  0.000  0.649-  63 2.13  69 2.14  61 2.14  46 2.14  62 2.14
  32  0.750  0.750  0.649-  64 2.13  62 2.14  45 2.14  61 2.14  70 2.14
  33  0.500  0.250  0.350-  65 2.14  59 2.14  52 2.14  67 2.14  68 2.14
  34  0.750  0.500  0.350-  66 2.14  60 2.14  51 2.14  67 2.14  68 2.14
  35  0.500  0.500  0.450-  67 2.14  57 2.14  65 2.14  66 2.14  50 2.14  71 2.14
  36  0.750  0.250  0.450-  68 2.14  58 2.14  65 2.14  66 2.14  49 2.14  72 2.14
  37  0.500  0.250  0.550-  71 2.14  56 2.14  72 2.14  63 2.14  65 2.15  69 2.16
  38  0.750  0.500  0.550-  71 2.14  55 2.14  64 2.14  72 2.14  66 2.15  70 2.16
  39  0.500  0.500  0.650-  71 2.13  61 2.14  69 2.14  54 2.14  70 2.14
  40  0.750  0.250  0.649-  72 2.13  53 2.14  62 2.14  69 2.14  70 2.14
  41  0.000  0.750  0.450-   9 2.14  11 2.14  12 2.14  19 2.14  28 2.14  13 2.15
  42  0.250  0.000  0.450-  10 2.14  11 2.14  12 2.14  20 2.14  27 2.14  14 2.15
  43  0.000  0.000  0.350-  11 2.14  10 2.14   9 2.14  17 2.14  26 2.14
  44  0.250  0.750  0.350-  12 2.14  10 2.14   9 2.14  18 2.14  25 2.14
  45  0.000  0.750  0.651-  15 2.14  16 2.14  32 2.14  23 2.14  13 2.16
  46  0.250  1.000  0.651-  15 2.14  31 2.14  16 2.14  24 2.14  14 2.16
  47  1.000  1.000  0.550-  15 2.13  13 2.14  21 2.14  30 2.14  14 2.14  11 2.14
  48  0.250  0.750  0.550-  16 2.13  14 2.14  13 2.14  29 2.14  22 2.14  12 2.14
  49  0.000  0.250  0.450-  17 2.14  11 2.14  19 2.14  20 2.14  36 2.14  21 2.15
  50  0.250  0.500  0.450-  18 2.14  12 2.14  19 2.14  20 2.14  35 2.14  22 2.15
  51  0.000  0.500  0.350-  19 2.14  17 2.14  18 2.14   9 2.14  34 2.14
  52  0.250  0.250  0.350-  20 2.14  17 2.14  18 2.14  10 2.14  33 2.14
  53  0.000  0.250  0.651-  24 2.14  40 2.14  15 2.14  23 2.14  21 2.16
  54  0.250  0.500  0.651-  23 2.13  16 2.14  24 2.14  39 2.14  22 2.16
  55  1.000  0.500  0.550-  23 2.13  38 2.14  22 2.14  13 2.14  21 2.14  19 2.14
  56  0.250  0.250  0.550-  24 2.13  14 2.14  21 2.14  37 2.14  22 2.14  20 2.14
  57  0.500  0.750  0.450-  25 2.14  12 2.14  27 2.14  28 2.14  35 2.14  29 2.15
  58  0.750  0.000  0.450-  26 2.14  11 2.14  27 2.14  28 2.14  36 2.14  30 2.15
  59  0.500  0.000  0.350-  27 2.14  25 2.14  26 2.14  10 2.14  33 2.14
  60  0.750  0.750  0.350-  28 2.14  25 2.14  26 2.14   9 2.14  34 2.14
  61  0.500  0.750  0.651-  31 2.14  39 2.14  32 2.14  16 2.14  29 2.16
  62  0.750  1.000  0.651-  32 2.14  40 2.14  15 2.14  31 2.14  30 2.16
  63  0.500  1.000  0.550-  31 2.13  30 2.14  14 2.14  37 2.14  29 2.14  27 2.14
  64  0.750  0.750  0.550-  32 2.13  30 2.14  13 2.14  29 2.14  38 2.14  28 2.14
  65  0.500  0.250  0.450-  33 2.14  27 2.14  20 2.14  35 2.14  36 2.14  37 2.15
  66  0.750  0.500  0.450-  34 2.14  28 2.14  19 2.14  35 2.14  36 2.14  38 2.15
  67  0.500  0.500  0.350-  35 2.14  25 2.14  33 2.14  34 2.14  18 2.14
  68  0.750  0.250  0.350-  36 2.14  26 2.14  33 2.14  34 2.14  17 2.14
  69  0.500  0.250  0.651-  31 2.14  39 2.14  40 2.14  24 2.14  37 2.16
  70  0.750  0.500  0.651-  23 2.14  32 2.14  40 2.14  39 2.14  38 2.16
  71  0.500  0.500  0.550-  39 2.13  37 2.14  29 2.14  38 2.14  22 2.14  35 2.14
  72  0.750  0.250  0.550-  40 2.13  30 2.14  21 2.14  37 2.14  38 2.14  36 2.14

IMPORTANT INFORMATION: All symmetrisations will be switched off!
NOSYMM: (Re-)initialisation of all symmetry stuff for point group C_1.

                                     Primitive cell

  volume of cell :    1563.6717

  direct lattice vectors                    reciprocal lattice vectors
     8.546113626  0.000000000  0.000000000     0.117012252  0.000000000  0.000000000
     0.000000000  8.546113626  0.000000000     0.000000000  0.117012252  0.000000000
     0.000000000  0.000000000 21.409585219     0.000000000  0.000000000  0.046708051

  length of vectors
     8.546113626  8.546113626 21.409585219     0.117012252  0.117012252  0.046708051

  position of ions in fractional coordinates (direct lattice)
     0.504379431  0.498428899  0.808513357
     0.677001227  0.499494382  0.829296181
     0.478779762  0.396284175  0.779066105
     0.475439682  0.604406786  0.781866183
     0.425057799  0.493682937  0.848794058
     0.755806803  0.501638710  0.788796362
     0.705018660  0.395137957  0.857026016
     0.702846967  0.602587773  0.858117273
     0.000000000  0.750000000  0.350310383
     0.250000000  0.000000000  0.350310383
     0.000000000  0.000000000  0.450103461
     0.250000000  0.750000000  0.450103461
     0.999987036  0.750052346  0.550348201
     0.249976425  0.999998619  0.550358544
     0.000067508  0.999956011  0.649633237
     0.249908042  0.749983498  0.649496341
     0.000000000  0.250000000  0.350310383
     0.250000000  0.500000000  0.350310383
     0.000000000  0.500000000  0.450103461
     0.250000000  0.250000000  0.450103461
     0.999984168  0.249960129  0.550348399
     0.249996751  0.500003680  0.550417442
     0.000142237  0.500023721  0.649457229
     0.249841038  0.249984312  0.649488902
     0.500000000  0.750000000  0.350310383
     0.750000000  0.000000000  0.350310383
     0.500000000  0.000000000  0.450103461
     0.750000000  0.750000000  0.450103461
     0.499980204  0.749930308  0.550418266
     0.749981736  0.999995356  0.550362142
     0.499954964  0.000000282  0.649478483
     0.750094972  0.750127387  0.649491240
     0.500000000  0.250000000  0.350310383
     0.750000000  0.500000000  0.350310383
     0.500000000  0.500000000  0.450103461
     0.750000000  0.250000000  0.450103461
     0.499981104  0.250064937  0.550422134
     0.749990732  0.500000255  0.550465684
     0.499905430  0.499978914  0.649764015
     0.750159990  0.249834592  0.649486684
     0.000000000  0.750000000  0.450103461
     0.250000000  0.000000000  0.450103461
     0.000000000  0.000000000  0.350310383
     0.250000000  0.750000000  0.350310383
     0.000006893  0.750065008  0.651437413
     0.250001399  0.999982107  0.651437874
     0.999978859  0.999994871  0.550123406
     0.249961326  0.750053583  0.550108422
     0.000000000  0.250000000  0.450103461
     0.250000000  0.500000000  0.450103461
     0.000000000  0.500000000  0.350310383
     0.250000000  0.250000000  0.350310383
     0.000004921  0.249911596  0.651434103
     0.249800997  0.499988285  0.651291153
     0.999978905  0.500011587  0.550086751
     0.249942865  0.249947898  0.550108244
     0.500000000  0.750000000  0.450103461
     0.750000000  0.000000000  0.450103461
     0.500000000  0.000000000  0.350310383
     0.750000000  0.750000000  0.350310383
     0.500006552  0.750076549  0.651428281
     0.750012937  0.999977968  0.651472901
     0.499985018  0.999997950  0.550095492
     0.750013019  0.750077373  0.550119365
     0.500000000  0.250000000  0.450103461
     0.750000000  0.500000000  0.450103461
[...]
  8Y    -0.007636   -0.090919   -0.077438    3.523816   19.678682   10.572059   -0.028951   -0.153046   -0.048482    0.039227   -0.074581   -0.001157    0.050637    0.000883   -0.017390   -0.099963   -0.075355   -0.061501    0.419872    2.065061    1.438068   -3.905222  -21.354344  -11.817721
  8Z     0.193575    0.666826    0.536944    2.386360   10.568515   11.789750    0.193128   -0.041271   -0.056685   -0.023331   -0.001993    0.011154    0.003313   -0.040578   -0.062067    0.481413    2.037707    1.366522   -0.360826   -1.364302   -1.014326   -2.877134  -11.814759  -12.607179

 Eigenvectors and eigenvalues of the dynamical matrix

   1 f  =   90.416273 THz   568.102200 2PiTHz 3015.962240 cm-1   373.931492 meV
             X         Y         Z           dx          dy          dz
      4.310484  4.259630 17.309936     0.067784    0.050821   -0.184883
      5.785729  4.268736 17.754887     0.060271    0.061360   -0.207909
      4.091706  3.386690 16.679482     0.028217    0.102731    0.057407
      4.063162  5.165329 16.739431     0.073803   -0.262000    0.151925
      3.632592  4.219070 18.172329    -0.335752   -0.017153    0.431012
      6.459211  4.287061 16.887803    -0.336710   -0.004795    0.433171
      6.025170  3.376894 18.348572     0.091853   -0.342091    0.214688
      6.006610  5.149784 18.371935     0.034688    0.133973    0.075270
      0.000000  6.409585  7.500000            0           0           0
      2.136528  0.000000  7.500000            0           0           0
      0.000000  0.000000  9.636528            0           0           0
      2.136528  6.409585  9.636528            0           0           0
      8.546003  6.410033 11.782727            0           0           0
      2.136327  8.546102 11.782948            0           0           0
      0.000577  8.545738 13.908378            0           0           0
      2.135743  6.409444 13.905447            0           0           0
      0.000000  2.136528  7.500000            0           0           0
      2.136528  4.273057  7.500000            0           0           0
      0.000000  4.273057  9.636528            0           0           0
      2.136528  2.136528  9.636528            0           0           0
      8.545978  2.136188 11.782731            0           0           0
      2.136501  4.273088 11.784209            0           0           0
      0.001216  4.273260 13.904610            0           0           0
      2.135170  2.136394 13.905288            0           0           0
      4.273057  6.409585  7.500000            0           0           0
      6.409585  0.000000  7.500000            0           0           0
      4.273057  0.000000  9.636528            0           0           0
      6.409585  6.409585  9.636528            0           0           0
      4.272888  6.408990 11.784227            0           0           0
      6.409429  8.546074 11.783025            0           0           0
      4.272672  0.000002 13.905065            0           0           0
      6.410397  6.410674 13.905338            0           0           0
      4.273057  2.136528  7.500000            0           0           0
      6.409585  4.273057  7.500000            0           0           0
      4.273057  4.273057  9.636528            0           0           0
      6.409585  2.136528  9.636528            0           0           0
      4.272895  2.137083 11.784310            0           0           0
      6.409506  4.273059 11.785242            0           0           0
      4.272249  4.272877 13.911178            0           0           0
      6.410953  2.135115 13.905241            0           0           0
      0.000000  6.409585  9.636528            0           0           0
      2.136528  0.000000  9.636528            0           0           0
      0.000000  0.000000  7.500000            0           0           0
      2.136528  6.409585  7.500000            0           0           0
      0.000059  6.410141 13.947005            0           0           0
      2.136540  8.545961 13.947015            0           0           0
      8.545933  8.546070 11.777914            0           0           0
      2.136198  6.410043 11.777593            0           0           0
      0.000000  2.136528  9.636528            0           0           0
      2.136528  4.273057  9.636528            0           0           0
      0.000000  4.273057  7.500000            0           0           0
      2.136528  2.136528  7.500000            0           0           0
      0.000042  2.135773 13.946934            0           0           0
      2.134828  4.272957 13.943873            0           0           0
      8.545933  4.273156 11.777129            0           0           0
      2.136040  2.136083 11.777589            0           0           0
      4.273057  6.409585  9.636528            0           0           0
      6.409585  0.000000  9.636528            0           0           0
      4.273057  0.000000  7.500000            0           0           0
      6.409585  6.409585  7.500000            0           0           0
      4.273113  6.410239 13.946809            0           0           0
      6.409696  8.545925 13.947765            0           0           0
      4.272929  8.546096 11.777316            0           0           0
      6.409696  6.410246 11.777827            0           0           0
      4.273057  2.136528  9.636528            0           0           0
      6.409585  4.273057  9.636528            0           0           0
      4.273057  4.273057  7.500000            0           0           0
      6.409585  2.136528  7.500000            0           0           0
      4.273126  2.135510 13.946688            0           0           0
      6.411309  4.272961 13.945993            0           0           0
      4.273076  4.273005 11.779369            0           0           0
      6.409843  2.135838 11.777833            0           0           0

[...]

  23 f  =    0.786954 THz     4.944577 2PiTHz   26.249956 cm-1     3.254578 meV
             X         Y         Z           dx          dy          dz
      4.310484  4.259630 17.309936     0.542696   -0.363227   -0.004193
      5.785729  4.268736 17.754887     0.569330    0.007986   -0.098887
      4.091706  3.386690 16.679482     0.213745   -0.108383   -0.016005
      4.063162  5.165329 16.739431     0.074218   -0.111289    0.023517
      3.632592  4.219070 18.172329     0.176006   -0.175884    0.010771
      6.459211  4.287061 16.887803     0.145631    0.066434   -0.041343
      6.025170  3.376894 18.348572     0.244058    0.011550   -0.046743
      6.006610  5.149784 18.371935     0.108209    0.009730   -0.019158
      0.000000  6.409585  7.500000            0           0           0
      2.136528  0.000000  7.500000            0           0           0
      0.000000  0.000000  9.636528            0           0           0
      2.136528  6.409585  9.636528            0           0           0
      8.546003  6.410033 11.782727            0           0           0
      2.136327  8.546102 11.782948            0           0           0
      0.000577  8.545738 13.908378            0           0           0
      2.135743  6.409444 13.905447            0           0           0
      0.000000  2.136528  7.500000            0           0           0
      2.136528  4.273057  7.500000            0           0           0
      0.000000  4.273057  9.636528            0           0           0
      2.136528  2.136528  9.636528            0           0           0
      8.545978  2.136188 11.782731            0           0           0
      2.136501  4.273088 11.784209            0           0           0
      0.001216  4.273260 13.904610            0           0           0
      2.135170  2.136394 13.905288            0           0           0
      4.273057  6.409585  7.500000            0           0           0
      6.409585  0.000000  7.500000            0           0           0
      4.273057  0.000000  9.636528            0           0           0
      6.409585  6.409585  9.636528            0           0           0
      4.272888  6.408990 11.784227            0           0           0
      6.409429  8.546074 11.783025            0           0           0
      4.272672  0.000002 13.905065            0           0           0
      6.410397  6.410674 13.905338            0           0           0
      4.273057  2.136528  7.500000            0           0           0
      6.409585  4.273057  7.500000            0           0           0
      4.273057  4.273057  9.636528            0           0           0
      6.409585  2.136528  9.636528            0           0           0
      4.272895  2.137083 11.784310            0           0           0
      6.409506  4.273059 11.785242            0           0           0
      4.272249  4.272877 13.911178            0           0           0
      6.410953  2.135115 13.905241            0           0           0
      0.000000  6.409585  9.636528            0           0           0
      2.136528  0.000000  9.636528            0           0           0
      0.000000  0.000000  7.500000            0           0           0
      2.136528  6.409585  7.500000            0           0           0
      0.000059  6.410141 13.947005            0           0           0
      2.136540  8.545961 13.947015            0           0           0
      8.545933  8.546070 11.777914            0           0           0
      2.136198  6.410043 11.777593            0           0           0
      0.000000  2.136528  9.636528            0           0           0
      2.136528  4.273057  9.636528            0           0           0
      0.000000  4.273057  7.500000            0           0           0
      2.136528  2.136528  7.500000            0           0           0
      0.000042  2.135773 13.946934            0           0           0
      2.134828  4.272957 13.943873            0           0           0
      8.545933  4.273156 11.777129            0           0           0
      2.136040  2.136083 11.777589            0           0           0
      4.273057  6.409585  9.636528            0           0           0
      6.409585  0.000000  9.636528            0           0           0
      4.273057  0.000000  7.500000            0           0           0
      6.409585  6.409585  7.500000            0           0           0
      4.273113  6.410239 13.946809            0           0           0
      6.409696  8.545925 13.947765            0           0           0
      4.272929  8.546096 11.777316            0           0           0
      6.409696  6.410246 11.777827            0           0           0
      4.273057  2.136528  9.636528            0           0           0
      6.409585  4.273057  9.636528            0           0           0
      4.273057  4.273057  7.500000            0           0           0
      6.409585  2.136528  7.500000            0           0           0
      4.273126  2.135510 13.946688            0           0           0
      6.411309  4.272961 13.945993            0           0           0
      4.273076  4.273005 11.779369            0           0           0
      6.409843  2.135838 11.777833            0           0           0

  24 f/i=    0.297417 THz     1.868726 2PiTHz    9.920764 cm-1     1.230017 meV
             X         Y         Z           dx          dy          dz
      4.310484  4.259630 17.309936     0.007972    0.166560   -0.004983
      5.785729  4.268736 17.754887     0.005544    0.820930   -0.010224
      4.091706  3.386690 16.679482     0.096961   -0.012715    0.049729
      4.063162  5.165329 16.739431    -0.096519   -0.012386   -0.054385
      3.632592  4.219070 18.172329     0.007138    0.025870    0.001325
      6.459211  4.287061 16.887803    -0.000932    0.240043   -0.004834
      6.025170  3.376894 18.348572     0.095902    0.307302    0.064720
      6.006610  5.149784 18.371935    -0.090638    0.307116   -0.070159
      0.000000  6.409585  7.500000            0           0           0
      2.136528  0.000000  7.500000            0           0           0
      0.000000  0.000000  9.636528            0           0           0
      2.136528  6.409585  9.636528            0           0           0
      8.546003  6.410033 11.782727            0           0           0
      2.136327  8.546102 11.782948            0           0           0
      0.000577  8.545738 13.908378            0           0           0
      2.135743  6.409444 13.905447            0           0           0
      0.000000  2.136528  7.500000            0           0           0
      2.136528  4.273057  7.500000            0           0           0
      0.000000  4.273057  9.636528            0           0           0
      2.136528  2.136528  9.636528            0           0           0
      8.545978  2.136188 11.782731            0           0           0
      2.136501  4.273088 11.784209            0           0           0
      0.001216  4.273260 13.904610            0           0           0
      2.135170  2.136394 13.905288            0           0           0
      4.273057  6.409585  7.500000            0           0           0
      6.409585  0.000000  7.500000            0           0           0
      4.273057  0.000000  9.636528            0           0           0
      6.409585  6.409585  9.636528            0           0           0
      4.272888  6.408990 11.784227            0           0           0
      6.409429  8.546074 11.783025            0           0           0
      4.272672  0.000002 13.905065            0           0           0
      6.410397  6.410674 13.905338            0           0           0
      4.273057  2.136528  7.500000            0           0           0
      6.409585  4.273057  7.500000            0           0           0
      4.273057  4.273057  9.636528            0           0           0
      6.409585  2.136528  9.636528            0           0           0
      4.272895  2.137083 11.784310            0           0           0
      6.409506  4.273059 11.785242            0           0           0
      4.272249  4.272877 13.911178            0           0           0
      6.410953  2.135115 13.905241            0           0           0
      0.000000  6.409585  9.636528            0           0           0
      2.136528  0.000000  9.636528            0           0           0
      0.000000  0.000000  7.500000            0           0           0
      2.136528  6.409585  7.500000            0           0           0
      0.000059  6.410141 13.947005            0           0           0
      2.136540  8.545961 13.947015            0           0           0
      8.545933  8.546070 11.777914            0           0           0
      2.136198  6.410043 11.777593            0           0           0
      0.000000  2.136528  9.636528            0           0           0
      2.136528  4.273057  9.636528            0           0           0
      0.000000  4.273057  7.500000            0           0           0
      2.136528  2.136528  7.500000            0           0           0
      0.000042  2.135773 13.946934            0           0           0
      2.134828  4.272957 13.943873            0           0           0
      8.545933  4.273156 11.777129            0           0           0
      2.136040  2.136083 11.777589            0           0           0
      4.273057  6.409585  9.636528            0           0           0
      6.409585  0.000000  9.636528            0           0           0
      4.273057  0.000000  7.500000            0           0           0
      6.409585  6.409585  7.500000            0           0           0
      4.273113  6.410239 13.946809            0           0           0
      6.409696  8.545925 13.947765            0           0           0
      4.272929  8.546096 11.777316            0           0           0
      6.409696  6.410246 11.777827            0           0           0
      4.273057  2.136528  9.636528            0           0           0
      6.409585  4.273057  9.636528            0           0           0
      4.273057  4.273057  7.500000            0           0           0
      6.409585  2.136528  7.500000            0           0           0
      4.273126  2.135510 13.946688            0           0           0
      6.411309  4.272961 13.945993            0           0           0
      4.273076  4.273005 11.779369            0           0           0
      6.409843  2.135838 11.777833            0           0           0

 Finite differences POTIM=   1.0000000000000000E-002