 vasp.6.3.0 20Jan22 (build Apr  1 2022 16:44:48) complex
 executed on        HPECrayEX_GCC date 2022.11.14  03:56:51

 INCAR:
   SYSTEM = MgO-rocksalt
   ISMEAR = 0
   SIGMA = 0.05
   EDIFF = 1E-6
   ALGO = ALL
   ISTART = 0
   IBRION = -1
   NSW = 0
   ISYM = 0
   DIPOL = 0.5 0.5 0.5
   IDIPOL = 3
   LDIPOL = .TRUE.
   LHFCALC = .TRUE.
   GGA = B5
   AEXX = 0.2
   AGGAX = 0.72
   AGGAC = 0.81
   ALDAC = 0.19
   IVDW = 1
   VDW_S6 = 1.05
   VDW_C6 = 1.23 0.70 0.63 0.70
   VDW_R0 = 1.397 1.342 1.243 1.342
   ENCUT = 600
   PREC = Accurate
   LASPH = .TRUE.
   LREAL = .FALSE.
   ISPIN = 2
   MAGMOM = 1.0 0.0 0.0 0.0 0.0 0.0 0.0 0.0 0.0 0.0 0.0 0.0 0.0 0.0 0.0 0.0 0.0 0.0 0.0 0.0 0.0 0.0 0.0 0.0 0.0 0.0 0.0 0.0 0.0 0.0 0.0 0.0 0.0 0.0 0.0 0.0 0.0 0.0 0.0 0.0 0.0 0.0 0.0 0.0 0.0 0.0 0.0 0.0 0.0 0.0 0.0 0.0 0.0 0.0 0.0 0.0 0.0 0.0 0.0 0.0 0.0 0.0 0.0 0.0 0.0 0.0
   NELM = 200
   NELMIN = 8
   NCORE = 8
   KPAR = 1
   LWAVE = .FALSE.
   LCHARG = .FALSE.

 POTCAR:    PAW_PBE N 08Apr2002
 POTCAR:    PAW_PBE O 08Apr2002
 POTCAR:    PAW_PBE Mg_pv 13Apr2007
 POTCAR:    PAW_PBE O 08Apr2002
 POTCAR:    PAW_PBE N 08Apr2002
   VRHFIN =N: s2p3

   TITEL  = PAW_PBE N 08Apr2002
   POMASS =   14.001; ZVAL   =    5.000    mass and valenz
   ENMAX  =  400.000; ENMIN  =  300.000 eV

[...]

   TITEL  = PAW_PBE Mg_pv 13Apr2007
   POMASS =   24.305; ZVAL   =    8.000    mass and valenz
   ENMAX  =  403.929; ENMIN  =  302.947 eV

   TITEL  = PAW_PBE O 08Apr2002
   POMASS =   16.000; ZVAL   =    6.000    mass and valenz
   ENMAX  =  400.000; ENMIN  =  300.000 eV

  PAW_PBE N 08Apr2002                   :
  PAW_PBE O 08Apr2002                   :
  PAW_PBE Mg_pv 13Apr2007               :
  PAW_PBE O 08Apr2002                   :

 POSCAR:  N  O Mg  O
  positions in direct lattice
 exchange correlation table for  LEXCH =       12
   RHO(1)=    0.500       N(1)  =     2000
   RHO(2)=  100.500       N(2)  =     4000

 ion  position               nearest neighbor table
   1  0.637  0.484  0.748-   2 1.18
   2  0.694  0.575  0.783-   1 1.18
   3  0.250  0.000  0.352-  35 2.11  37 2.11  38 2.11  45 2.11  54 2.11
   4  0.500  0.250  0.352-  36 2.11  37 2.11  38 2.11  46 2.11  53 2.11
   5  0.250  0.250  0.451-  37 2.11  36 2.11  35 2.11  43 2.11  52 2.11  41 2.11
   6  0.500  0.000  0.451-  42 2.11  38 2.11  35 2.11  36 2.11  44 2.11  51 2.11
   7  0.250  0.000  0.550-  42 2.11  41 2.11  49 2.11  58 2.11  35 2.12  39 2.14
   8  0.500  0.250  0.550-  50 2.11  40 2.11  57 2.11  41 2.11  42 2.11  36 2.13
   9  0.251  0.249  0.648-  41 2.10  39 2.10  40 2.11  56 2.11  47 2.12
  10  0.500  0.000  0.648-  40 2.10  42 2.11  48 2.11  39 2.11  55 2.12
  11  0.250  0.500  0.352-  43 2.11  37 2.11  45 2.11  46 2.11  62 2.11
  12  0.500  0.750  0.352-  44 2.11  38 2.11  45 2.11  46 2.11  61 2.11
  13  0.250  0.750  0.451-  45 2.11  43 2.11  44 2.11  35 2.11  60 2.11  49 2.11
  14  0.500  0.500  0.451-  46 2.11  43 2.11  44 2.11  36 2.11  59 2.11  50 2.12
  15  0.251  0.500  0.550-  50 2.11  41 2.11  49 2.11  66 2.12  43 2.12  47 2.14
  16  0.500  0.750  0.550-  50 2.11  49 2.11  42 2.11  65 2.11  48 2.12  44 2.13
  17  0.251  0.751  0.648-  39 2.10  49 2.11  48 2.11  64 2.11  47 2.12
  18  0.498  0.500  0.651-  47 2.09  40 2.12  48 2.12  50 2.15  63 2.15
  19  0.750  0.000  0.352-  51 2.11  38 2.11  53 2.11  54 2.11  61 2.11
  20  0.000  0.250  0.352-  52 2.11  37 2.11  53 2.11  54 2.11  62 2.11
  21  0.750  0.250  0.451-  53 2.11  51 2.11  52 2.11  36 2.11  59 2.11  57 2.12
  22  0.000  0.000  0.451-  54 2.11  51 2.11  52 2.11  35 2.11  60 2.11  58 2.11
  23  0.750  0.000  0.550-  42 2.11  58 2.11  57 2.11  65 2.12  51 2.12  55 2.13
  24  0.000  0.250  0.550-  57 2.11  41 2.11  58 2.11  66 2.11  52 2.12  56 2.14
  25  0.750  0.248  0.649-  55 2.09  40 2.11  57 2.11  56 2.11  63 2.13
  26  0.001  0.000  0.648-  39 2.10  58 2.11  56 2.11  64 2.11  55 2.11
  27  0.750  0.500  0.352-  59 2.11  53 2.11  46 2.11  61 2.11  62 2.11
  28  0.000  0.750  0.352-  60 2.11  54 2.11  45 2.11  61 2.11  62 2.11
  29  0.750  0.750  0.451-  61 2.11  51 2.11  59 2.11  60 2.11  44 2.11  65 2.12
  30  0.000  0.500  0.451-  62 2.11  52 2.11  59 2.11  60 2.11  43 2.11  66 2.12
  31  0.749  0.500  0.549-  50 2.10  57 2.10  65 2.11  59 2.11  66 2.11  63 2.16
  32  0.000  0.750  0.550-  49 2.11  65 2.11  58 2.11  66 2.11  60 2.12  64 2.14
  33  0.750  0.753  0.648-  55 2.08  65 2.10  48 2.11  64 2.11  63 2.13
  34  0.003  0.500  0.648-  47 2.08  66 2.10  56 2.11  64 2.11  63 2.12
  35  0.250  0.000  0.451-   3 2.11   5 2.11   6 2.11  13 2.11  22 2.11   7 2.12
  36  0.500  0.250  0.451-   4 2.11   5 2.11   6 2.11  14 2.11  21 2.11   8 2.13
  37  0.250  0.250  0.352-   5 2.11   4 2.11   3 2.11  11 2.11  20 2.11
  38  0.500  0.000  0.352-   6 2.11   4 2.11   3 2.11  12 2.11  19 2.11
  39  0.250  0.000  0.650-  26 2.10  17 2.10   9 2.10  10 2.11   7 2.14
  40  0.500  0.249  0.649-  10 2.10   9 2.11  25 2.11   8 2.11  18 2.12
  41  0.250  0.250  0.550-   9 2.10  24 2.11  15 2.11   7 2.11   5 2.11   8 2.11
  42  0.500  1.000  0.549-  10 2.11  23 2.11   6 2.11   7 2.11  16 2.11   8 2.11
  43  0.250  0.500  0.451-  11 2.11   5 2.11  13 2.11  14 2.11  30 2.11  15 2.12
  44  0.500  0.750  0.451-  12 2.11   6 2.11  13 2.11  14 2.11  29 2.11  16 2.13
  45  0.250  0.750  0.352-  13 2.11  11 2.11  12 2.11   3 2.11  28 2.11
  46  0.500  0.500  0.352-  14 2.11  11 2.11  12 2.11   4 2.11  27 2.11
  47  0.250  0.500  0.650-  34 2.08  18 2.09  17 2.12   9 2.12  15 2.14
  48  0.501  0.751  0.650-  10 2.11  33 2.11  17 2.11  18 2.12  16 2.12
  49  0.250  0.750  0.550-  17 2.11  32 2.11  15 2.11  16 2.11   7 2.11  13 2.11
  50  0.501  0.500  0.550-  31 2.10  16 2.11  15 2.11   8 2.11  14 2.12  18 2.15
  51  0.750  0.000  0.451-  19 2.11   6 2.11  21 2.11  22 2.11  29 2.11  23 2.12
  52  0.000  0.250  0.451-  20 2.11   5 2.11  21 2.11  22 2.11  30 2.11  24 2.12
  53  0.750  0.250  0.352-  21 2.11  19 2.11  20 2.11   4 2.11  27 2.11
  54  0.000  0.000  0.352-  22 2.11  19 2.11  20 2.11   3 2.11  28 2.11
  55  0.751  0.000  0.650-  33 2.08  25 2.09  26 2.11  10 2.12  23 2.13
  56  0.000  0.250  0.650-  34 2.11  26 2.11  25 2.11   9 2.11  24 2.14
  57  0.750  0.251  0.550-  31 2.10  24 2.11  25 2.11  23 2.11   8 2.11  21 2.12
  58  0.000  0.000  0.550-  26 2.11  32 2.11  23 2.11  24 2.11   7 2.11  22 2.11
  59  0.750  0.500  0.451-  31 2.11  27 2.11  14 2.11  29 2.11  30 2.11  21 2.11
  60  0.000  0.750  0.451-  28 2.11  22 2.11  13 2.11  29 2.11  30 2.11  32 2.12
  61  0.750  0.750  0.352-  29 2.11  19 2.11  27 2.11  28 2.11  12 2.11
  62  0.000  0.500  0.352-  30 2.11  20 2.11  27 2.11  28 2.11  11 2.11
  63  0.753  0.501  0.651-  34 2.12  33 2.13  25 2.13  18 2.15  31 2.16
  64  0.000  0.750  0.650-  33 2.11  34 2.11  26 2.11  17 2.11  32 2.14
  65  0.750  0.750  0.550-  33 2.10  31 2.11  32 2.11  16 2.11  23 2.12  29 2.12
  66  1.000  0.500  0.550-  34 2.10  32 2.11  24 2.11  31 2.11  30 2.12  15 2.12

IMPORTANT INFORMATION: All symmetrisations will be switched off!
NOSYMM: (Re-)initialisation of all symmetry stuff for point group C_1.

                                     Primitive cell

  volume of cell :    1519.6535

  direct lattice vectors                    reciprocal lattice vectors
     8.440582262  0.000000000  0.000000000     0.118475239  0.000000000  0.000000000
     0.000000000  8.440582262  0.000000000     0.000000000  0.118475239  0.000000000
     0.000000000  0.000000000 21.330436697     0.000000000  0.000000000  0.046881366

  length of vectors
     8.440582262  8.440582262 21.330436697     0.118475239  0.118475239  0.046881366

  position of ions in fractional coordinates (direct lattice)
     0.636957940  0.483676475  0.747954480
     0.694467758  0.575177366  0.783255464
     0.250000000  0.000000000  0.351610242
     0.500000000  0.250000000  0.351610242
     0.250000000  0.250000000  0.450536747
     0.500000000  0.000000000  0.450536747
     0.250202797  0.000056379  0.549834200
     0.500105005  0.250397111  0.550170429
     0.250643119  0.249392178  0.648262499
     0.499782007  0.000292357  0.648128290
     0.250000000  0.500000000  0.351610242
     0.500000000  0.750000000  0.351610242
     0.250000000  0.750000000  0.450536747
     0.500000000  0.500000000  0.450536747
     0.250883382  0.500001873  0.550060446
     0.500015870  0.749628557  0.550169583
     0.250635551  0.750749016  0.648415169
     0.497733801  0.499819334  0.650802095
     0.750000000  0.000000000  0.351610242
     0.000000000  0.250000000  0.351610242
     0.750000000  0.250000000  0.450536747
     0.000000000  0.000000000  0.450536747
     0.750023547  0.000427996  0.549804139
     0.000056232  0.250079478  0.550050991
     0.749868490  0.248085438  0.648824970
     0.000751136  0.000289921  0.648452710
     0.750000000  0.500000000  0.351610242
     0.000000000  0.750000000  0.351610242
     0.750000000  0.750000000  0.450536747
     0.000000000  0.500000000  0.450536747
     0.749358849  0.499910424  0.549430184
     0.000330768  0.750106973  0.549999636
     0.750375064  0.753363089  0.648031624
     0.003307770  0.500141658  0.648418152
     0.250000000  0.000000000  0.450536747
     0.500000000  0.250000000  0.450536747
     0.250000000  0.250000000  0.351610242
     0.500000000  0.000000000  0.351610242
     0.249990292  0.000048994  0.649941730
     0.500127753  0.249027000  0.649115670
     0.249759220  0.250169600  0.549598377
     0.500176793  0.999873324  0.549429788
     0.250000000  0.500000000  0.450536747
     0.500000000  0.750000000  0.450536747
     0.250000000  0.750000000  0.351610242
     0.500000000  0.500000000  0.351610242
     0.249966377  0.500095409  0.650175463
     0.500682045  0.750871012  0.649663604
     0.249940934  0.749894711  0.549680690
     0.500588350  0.500140380  0.550100805
     0.750000000  0.000000000  0.450536747
     0.000000000  0.250000000  0.450536747
     0.750000000  0.250000000  0.351610242
     0.000000000  0.000000000  0.351610242
     0.750530679  0.000321873  0.649873711
     0.000134487  0.250284506  0.650236667
     0.750394668  0.250605706  0.549838437
     0.000027824  0.000062978  0.549665360
     0.750000000  0.500000000  0.450536747
     0.000000000  0.750000000  0.450536747
     0.750000000  0.750000000  0.351610242
     0.000000000  0.500000000  0.351610242
     0.752738550  0.500800720  0.650522710
     0.000176142  0.750150692  0.650196492
     0.750403065  0.749660477  0.549775304
     0.999608944  0.500126347  0.549927728

  ion indices of the primitive-cell ions
   primitive index   ion index
                 1           1
                 2           2
                 3           3
                 4           4
                 5           5
                 6           6
                 7           7
                 8           8
                 9           9
                10          10
                11          11
                12          12
                13          13
                14          14
                15          15
                16          16
                17          17
                18          18
                19          19
                20          20
[...]
   0.75039467  0.25060571  0.54983844
   0.00002782  0.00006298  0.54966536
   0.75000000  0.50000000  0.45053675
   0.00000000  0.75000000  0.45053675
   0.75000000  0.75000000  0.35161024
   0.00000000  0.50000000  0.35161024
   0.75273855  0.50080072  0.65052271
   0.00017614  0.75015069  0.65019649
   0.75040306  0.74966048  0.54977530
   0.99960894  0.50012635  0.54992773

 position of ions in cartesian coordinates  (Angst):
   5.37629589  4.08251108 15.95419569
   5.86171224  4.85483187 16.70718109
   2.11014557  0.00000000  7.50000000
   4.22029113  2.11014557  7.50000000
   2.11014557  2.11014557  9.61014557
   4.22029113  0.00000000  9.61014557
   2.11185729  0.00047587 11.72820360
   4.22117743  2.11349741 11.73537550
   2.11557386  2.10501519 13.82772220
   4.21845114  0.00246766 13.82485946
   2.11014557  4.22029113  7.50000000
   4.22029113  6.33043670  7.50000000
   2.11014557  6.33043670  9.61014557
   4.22029113  4.22029113  9.61014557
   2.11760183  4.22030694 11.73302953
   4.22042508  6.32730150 11.73535747
   2.11550999  6.33675883 13.83097872
   4.20116309  4.21876621 13.88189288
   6.33043670  0.00000000  7.50000000
   0.00000000  2.11014557  7.50000000
   6.33043670  2.11014557  9.61014557
   0.00000000  0.00000000  9.61014557
   6.33063545  0.00361253 11.72756238
   0.00047463  2.11081641 11.73282785
   6.32932668  2.09398554 13.83971996
   0.00634002  0.00244711 13.83177948
   6.33043670  4.22029113  7.50000000
   0.00000000  6.33043670  7.50000000
   6.33043670  6.33043670  9.61014557
   0.00000000  4.22029113  9.61014557
   6.32502501  4.21953506 11.71958577
   0.00279187  6.33133961 11.73173243
   6.33360246  6.35882313 13.82279753
   0.02791950  4.22148681 13.83104234
   2.11014557  0.00000000  9.61014557
   4.22029113  2.11014557  9.61014557
   2.11014557  2.11014557  7.50000000
   4.22029113  0.00000000  7.50000000
   2.11006362  0.00041354 13.86354093
   4.22136944  2.10193288 13.84592071
   2.10811324  2.11157709 11.72317340
   4.22178337  8.43951304 11.71957731
   2.11014557  4.22029113  9.61014557
   4.22029113  6.33043670  9.61014557
   2.11014557  6.33043670  7.50000000
   4.22029113  4.22029113  7.50000000
   2.10986177  4.22109644 13.86852656
   4.22604799  6.33778854 13.85760838
   2.10964701  6.32954800 11.72492915
   4.22525715  4.22147602 11.73389040
   6.33043670  0.00000000  9.61014557
   0.00000000  2.11014557  9.61014557
   6.33043670  2.11014557  7.50000000
   0.00000000  0.00000000  7.50000000
   6.33491593  0.00271680 13.86209005
   0.00113515  2.11254696 13.86983206
   6.33376793  2.11525808 11.72829398
   0.00023485  0.00053157 11.72460217
   6.33043670  4.22029113  9.61014557
   0.00000000  6.33043670  9.61014557
   6.33043670  6.33043670  7.50000000
   0.00000000  4.22029113  7.50000000
   6.35355165  4.22704968 13.87593349
   0.00148674  6.33170863 13.86897512
   6.33383880  6.32757093 11.72694732
   8.43728152  4.22135758 11.73019858

--------------------------------------- Iteration      FINAL  ---------------------------------------

--------------------OUTCAR has been truncated-------------------------

[...]

--------------------OUTCAR has been truncated-------------------------

  DFT-D2 method for vdW energy calculation

  Parameters of vdW forcefield:
         C6(Jnm^6/mol)     R0(A)
   N        1.230          1.397
   O        0.700          1.342
   Mg       0.630          1.243
   O        0.700          1.342

  vdW correction parametrized for the method        LÀV

  IVDW =   1
  VDW_RADIUS =    50.000 A
  VDW_S6 =     1.050
  VDW_SR =     1.000
  VDW_D =    20.000
  LVDW_EWALD = F

  Number of pair interactions contributing to vdW energy:  768351
  Edisp (eV):   -5.20445

 VOLUME and BASIS-vectors are now :
  energy-cutoff  :      600.00
  volume of cell :     1519.65
      direct lattice vectors                 reciprocal lattice vectors
     8.440582262  0.000000000  0.000000000     0.118475239  0.000000000  0.000000000
     0.000000000  8.440582262  0.000000000     0.000000000  0.118475239  0.000000000
     0.000000000  0.000000000 21.330436697     0.000000000  0.000000000  0.046881366

  length of vectors
     8.440582262  8.440582262 21.330436697     0.118475239  0.118475239  0.046881366

 FORCES acting on ions:
    Electron-Ion                     Ewald-Force                    Non-Local-Force
   0.103E+03 0.172E+03 -.126E+04   -.121E+03 -.200E+03 0.124E+04   0.174E+02 0.269E+02 0.220E+02
   -.102E+03 -.162E+03 -.164E+04   0.126E+03 0.199E+03 0.168E+04   -.216E+02 -.342E+02 -.340E+02
   0.152E+00 -.345E-01 0.209E+04   -.149E+00 0.348E-01 -.208E+04   -.150E-02 -.158E-03 -.640E+01
   0.275E+00 0.189E+00 0.209E+04   -.280E+00 -.193E+00 -.208E+04   0.368E-02 0.195E-02 -.640E+01
   0.630E+00 0.461E+00 0.725E+03   -.631E+00 -.458E+00 -.725E+03   0.164E-02 -.188E-02 0.355E+00
   0.887E+00 -.180E+00 0.726E+03   -.900E+00 0.170E+00 -.726E+03   0.892E-02 0.711E-02 0.272E+00
   0.293E+01 -.414E+00 -.634E+03   -.291E+01 0.419E+00 0.634E+03   -.221E-01 -.518E-02 -.178E+00
   0.469E+01 0.553E+01 -.623E+03   -.467E+01 -.542E+01 0.623E+03   -.160E-01 -.977E-01 -.765E+00
   0.145E+02 0.146E+02 -.200E+04   -.143E+02 -.148E+02 0.199E+04   -.124E+00 0.231E+00 0.564E+01
   0.126E+02 -.282E+01 -.200E+04   -.128E+02 0.292E+01 0.199E+04   0.148E+00 -.995E-01 0.563E+01
   0.176E+00 0.347E-01 0.209E+04   -.172E+00 -.348E-01 -.208E+04   -.261E-02 0.748E-04 -.639E+01
   0.281E+00 -.190E+00 0.209E+04   -.287E+00 0.193E+00 -.208E+04   0.385E-02 -.191E-02 -.641E+01
   0.627E+00 -.452E+00 0.725E+03   -.605E+00 0.451E+00 -.725E+03   -.129E-01 0.465E-03 0.390E+00
   0.194E+01 0.190E+00 0.727E+03   -.198E+01 -.181E+00 -.727E+03   0.279E-01 -.621E-02 0.489E+00
   0.495E+01 0.439E+00 -.628E+03   -.476E+01 -.440E+00 0.628E+03   -.186E+00 0.328E-02 -.222E+00
   0.537E+01 -.558E+01 -.623E+03   -.539E+01 0.546E+01 0.623E+03   0.248E-01 0.990E-01 -.541E+00
   0.138E+02 -.148E+02 -.200E+04   -.138E+02 0.151E+02 0.199E+04   -.212E-01 -.234E+00 0.563E+01
   0.547E+02 0.374E+01 -.192E+04   -.559E+02 -.368E+01 0.191E+04   0.105E+01 -.462E-01 0.458E+01
   -.151E+00 -.394E-01 0.209E+04   0.149E+00 0.404E-01 -.208E+04   0.116E-02 -.746E-03 -.639E+01
   -.274E+00 0.167E+00 0.209E+04   0.280E+00 -.171E+00 -.208E+04   -.388E-02 0.274E-02 -.640E+01
   -.621E+00 0.148E+01 0.726E+03   0.628E+00 -.151E+01 -.727E+03   -.516E-02 0.151E-01 0.450E+00
   -.867E+00 -.178E+00 0.724E+03   0.889E+00 0.190E+00 -.725E+03   -.145E-01 -.760E-02 0.384E+00
   -.293E+01 -.936E+00 -.626E+03   0.292E+01 0.101E+01 0.626E+03   0.142E-01 -.709E-01 -.180E+00
   -.446E+01 0.399E+01 -.632E+03   0.443E+01 -.395E+01 0.633E+03   0.181E-01 -.224E-01 -.243E+00
   -.201E+02 0.377E+02 -.196E+04   0.201E+02 -.388E+02 0.196E+04   -.564E-02 0.959E+00 0.579E+01
   -.117E+02 -.339E+01 -.201E+04   0.119E+02 0.339E+01 0.200E+04   -.154E+00 -.425E-02 0.559E+01
   -.175E+00 0.416E-01 0.209E+04   0.172E+00 -.420E-01 -.208E+04   0.230E-02 0.220E-03 -.636E+01
   -.280E+00 -.166E+00 0.209E+04   0.286E+00 0.171E+00 -.208E+04   -.441E-02 -.302E-02 -.640E+01
   -.605E+00 -.149E+01 0.727E+03   0.601E+00 0.153E+01 -.727E+03   0.299E-02 -.245E-01 0.440E+00
   -.191E+01 0.202E+00 0.725E+03   0.197E+01 -.206E+00 -.725E+03   -.338E-01 0.267E-02 0.466E+00
   -.505E+01 0.101E+01 -.613E+03   0.489E+01 -.107E+01 0.612E+03   0.158E+00 0.574E-01 0.580E+00
   -.512E+01 -.401E+01 -.630E+03   0.513E+01 0.397E+01 0.630E+03   -.228E-01 0.231E-01 -.242E+00
   -.197E+02 -.391E+02 -.194E+04   0.198E+02 0.402E+02 0.193E+04   -.443E-01 -.100E+01 0.583E+01
   -.279E+02 0.415E+01 -.198E+04   0.286E+02 -.415E+01 0.197E+04   -.691E+00 0.891E-02 0.566E+01
   0.561E+00 -.726E-01 0.543E+03   -.550E+00 0.759E-01 -.543E+03   -.151E-01 -.442E-02 -.837E-01
   0.839E+00 0.641E+00 0.544E+03   -.867E+00 -.688E+00 -.544E+03   0.343E-01 0.566E-01 -.146E+00
   0.119E+00 0.938E-01 0.157E+04   -.117E+00 -.963E-01 -.157E+04   -.180E-02 0.304E-02 0.312E+01
   0.169E+00 -.283E-01 0.157E+04   -.174E+00 0.279E-01 -.157E+04   0.611E-02 0.616E-03 0.312E+01
   0.538E+01 -.141E+01 -.152E+04   -.534E+01 0.141E+01 0.153E+04   -.253E-01 0.976E-02 -.436E+01
   0.186E+02 0.281E+02 -.149E+04   -.185E+02 -.278E+02 0.149E+04   -.910E-01 -.242E+00 -.439E+01
   0.270E+01 0.277E+01 -.468E+03   -.266E+01 -.279E+01 0.467E+03   -.323E-01 0.180E-01 0.288E+00
   0.285E+01 -.469E+00 -.465E+03   -.285E+01 0.483E+00 0.464E+03   0.620E-02 -.105E-01 0.252E+00
   0.788E+00 0.764E-01 0.543E+03   -.815E+00 -.824E-01 -.543E+03   0.298E-01 0.761E-02 -.905E-01
   0.874E+00 -.642E+00 0.544E+03   -.896E+00 0.690E+00 -.544E+03   0.278E-01 -.587E-01 -.156E+00
   0.117E+00 -.939E-01 0.157E+04   -.114E+00 0.963E-01 -.157E+04   -.370E-02 -.294E-02 0.312E+01
   0.258E+00 0.290E-01 0.157E+04   -.266E+00 -.283E-01 -.157E+04   0.103E-01 -.767E-03 0.313E+01
   0.157E+02 0.159E+01 -.151E+04   -.156E+02 -.159E+01 0.151E+04   -.579E-01 -.180E-03 -.425E+01
   0.228E+02 -.290E+02 -.148E+04   -.227E+02 0.288E+02 0.149E+04   -.627E-01 0.211E+00 -.438E+01
   0.247E+01 -.278E+01 -.468E+03   -.245E+01 0.279E+01 0.468E+03   -.200E-01 -.100E-01 0.263E+00
   0.492E+01 0.558E+00 -.465E+03   -.494E+01 -.576E+00 0.466E+03   0.451E-02 0.148E-01 -.318E+00
   -.542E+00 -.673E-01 0.544E+03   0.519E+00 0.493E-01 -.544E+03   0.285E-01 0.202E-01 -.459E-01
   -.820E+00 0.475E+00 0.543E+03   0.841E+00 -.494E+00 -.543E+03   -.263E-01 0.251E-01 -.128E+00
   -.119E+00 0.182E+00 0.157E+04   0.117E+00 -.188E+00 -.157E+04   0.200E-02 0.760E-02 0.313E+01
   -.169E+00 -.302E-01 0.157E+04   0.174E+00 0.313E-01 -.157E+04   -.574E-02 -.132E-02 0.312E+01
   -.610E+01 -.512E+01 -.151E+04   0.606E+01 0.521E+01 0.152E+04   0.336E-01 -.754E-01 -.436E+01
   -.143E+02 0.135E+02 -.151E+04   0.142E+02 -.135E+02 0.152E+04   0.588E-01 -.788E-01 -.435E+01
   -.286E+01 0.458E+01 -.465E+03   0.281E+01 -.459E+01 0.464E+03   0.325E-01 -.111E-01 0.125E+00
   -.283E+01 -.673E+00 -.471E+03   0.283E+01 0.668E+00 0.471E+03   0.404E-03 0.611E-02 0.226E+00
   -.774E+00 0.114E+00 0.547E+03   0.791E+00 -.115E+00 -.547E+03   -.173E-01 0.198E-02 0.376E-01
   -.839E+00 -.464E+00 0.543E+03   0.842E+00 0.474E+00 -.543E+03   -.468E-02 -.137E-01 -.107E+00
   -.118E+00 -.184E+00 0.157E+04   0.114E+00 0.189E+00 -.157E+04   0.442E-02 -.690E-02 0.313E+01
   -.258E+00 0.302E-01 0.157E+04   0.266E+00 -.315E-01 -.157E+04   -.995E-02 0.164E-02 0.313E+01
   -.356E+02 0.601E+01 -.141E+04   0.358E+02 -.586E+01 0.142E+04   -.159E+00 -.142E+00 -.326E+01
   -.182E+02 -.141E+02 -.151E+04   0.181E+02 0.140E+02 0.151E+04   0.535E-01 0.111E+00 -.442E+01
   -.265E+01 -.459E+01 -.460E+03   0.263E+01 0.459E+01 0.460E+03   0.139E-01 0.165E-01 0.341E+00
   -.458E+01 0.714E+00 -.466E+03   0.455E+01 -.708E+00 0.466E+03   0.485E-01 -.699E-02 0.269E+00
   0.562E+01 0.994E+01 0.298E+02   -.426E-13 0.355E-13 -.512E-11   -.423E+01 -.771E+01 -.254E+02

 POSITION                                       TOTAL-FORCE (eV/Angst)
      5.37630      4.08251     15.95420         0.538459      0.888807      1.069096
      5.86171      4.85483     16.70718        -0.547094     -0.896142     -0.866926
      2.11015      0.00000      7.50000         0.000569      0.000064      0.467920
      4.22029      2.11015      7.50000        -0.001667     -0.001033      0.467937
      2.11015      2.11015      9.61015         0.000456      0.001043      0.038662
      4.22029      0.00000      9.61015        -0.003586     -0.002793      0.043010
      2.11186      0.00048     11.72820        -0.001608     -0.000548     -0.012020
      4.22118      2.11350     11.73538         0.005719      0.004722     -0.009217
      2.11557      2.10502     13.82772        -0.017014     -0.005643     -0.130093
      4.21845      0.00247     13.82486         0.000192     -0.007525     -0.125364
      2.11015      4.22029      7.50000         0.000859     -0.000079      0.465963
      4.22029      6.33044      7.50000        -0.001690      0.000943      0.468899
      2.11015      6.33044      9.61015         0.006684     -0.000482      0.036241
      4.22029      4.22029      9.61015        -0.014748      0.001906      0.038355
      2.11760      4.22031     11.73303        -0.009276      0.002538     -0.019507
      4.22043      6.32730     11.73536         0.008939     -0.005046     -0.007161
      2.11551      6.33676     13.83098        -0.015408      0.008062     -0.134066
      4.20116      4.21877     13.88189        -0.020889      0.006866     -0.244740
      6.33044      0.00000      7.50000        -0.000627      0.000195      0.464370
      0.00000      2.11015      7.50000         0.001615     -0.001247      0.467344
      6.33044      2.11015      9.61015         0.001122     -0.008152      0.029044
      0.00000      0.00000      9.61015         0.006287      0.003352      0.033643
      6.33064      0.00361     11.72756         0.002917     -0.002358     -0.016001
      0.00047      2.11082     11.73283        -0.007218      0.014032     -0.003327
      6.32933      2.09399     13.83972         0.019661      0.023749     -0.170595
      0.00634      0.00245     13.83178         0.001204     -0.004825     -0.129363
      6.33044      4.22029      7.50000        -0.000908     -0.000105      0.458442
      0.00000      6.33044      7.50000         0.001762      0.001262      0.465786
      6.33044      6.33044      9.61015        -0.001360      0.013419      0.032484
      0.00000      4.22029      9.61015         0.017062     -0.000868      0.045340
      6.32503      4.21954     11.71959         0.015039      0.002983      0.034512
      0.00279      6.33134     11.73173        -0.010291     -0.014102     -0.000022
      6.33360      6.35882     13.82280         0.016373     -0.038836     -0.126118
      0.02792      4.22149     13.83104        -0.053231      0.006606     -0.134615
      2.11015      0.00000      9.61015        -0.006174     -0.001827      0.033642
      4.22029      2.11015      9.61015         0.011430      0.018366      0.048126
      2.11015      2.11015      7.50000        -0.000621      0.000956     -0.437759
      4.22029      0.00000      7.50000         0.001967      0.000194     -0.437910
      2.11006      0.00041     13.86354         0.009141      0.002784      0.006216
      4.22137      2.10193     13.84592        -0.008319      0.001041      0.029300
      2.10811      2.11158     11.72317         0.003380      0.000404      0.024822
      4.22178      8.43951     11.71958         0.001465      0.001616      0.025949
      2.11015      4.22029      9.61015         0.005998      0.002735      0.057270
      4.22029      6.33044      9.61015         0.009706     -0.019166      0.044024
      2.11015      6.33044      7.50000        -0.001256     -0.000956     -0.437499
      4.22029      4.22029      7.50000         0.003373     -0.000295     -0.435208
      2.10986      4.22110     13.86853         0.024278     -0.001025      0.017937
      4.22605      6.33779     13.85761        -0.013812     -0.005626      0.018032
      2.10965      6.32955     11.72493         0.003911      0.001617      0.020438
      4.22526      4.22148     11.73389        -0.015769     -0.002011      0.002123
      6.33044      0.00000      9.61015         0.009885      0.004962      0.045013
      0.00000      2.11015      9.61015        -0.009204      0.009092      0.040998
      6.33044      2.11015      7.50000         0.000574      0.002526     -0.433809
      0.00000      0.00000      7.50000        -0.001936     -0.000453     -0.436502
      6.33492      0.00272     13.86209        -0.007177      0.007625      0.007275
      0.00114      2.11255     13.86983         0.011596     -0.015310      0.005248
      6.33377      2.11526     11.72829        -0.006287     -0.017738      0.004960
      0.00023      0.00053     11.72460         0.002429      0.002268      0.017994
      6.33044      4.22029      9.61015        -0.002546      0.001339      0.032865
      0.00000      6.33044      9.61015        -0.002871     -0.005691      0.043044
      6.33044      6.33044      7.50000         0.001393     -0.002314     -0.433130
      0.00000      4.22029      7.50000        -0.003399      0.000521     -0.432962
      6.35355      4.22705     13.87593         0.002953     -0.011277     -0.029550
      0.00149      6.33171     13.86898         0.016290      0.017394     -0.007520
      6.33384      6.32757     11.72695        -0.007046      0.020048      0.004485
      8.43728      4.22136     11.73020         0.028344     -0.002564     -0.005831
    total drift:                                0.004126      0.001750      0.004286

  FREE ENERGIE OF THE ION-ELECTRON SYSTEM (eV)
  free  energy   TOTEN  =      -454.50876403 eV

  energy  without entropy=     -454.50876403  energy(sigma->0) =     -454.50876403