 vasp.6.3.0 20Jan22 (build Mar 11 2022 13:48:16) complex

 executed on             LinuxIFC date 2024.02.11  20:40:41

 INCAR:
   SYSTEM = Oxide-Surface
   ISMEAR = 0
   SIGMA = 0.05
   EDIFF = 1E-5
   ALGO = ALL
   ISTART = 0
   IBRION = -1
   NSW = 0
   ISYM = 2
   DIPOL = 0.5 0.5 0.5
   IDIPOL = 3
   LDIPOL = .TRUE.
   GGA = PE
   IVDW = 11
   ENCUT = 600
   PREC = Accurate
   LASPH = .TRUE.
   LREAL = .FALSE.
   ISPIN = 1
   NELM = 200
   NELMIN = 8
   NCORE = 19
   KPAR = 1
   LWAVE = .FALSE.
   LCHARG = .FALSE.

 POTCAR:    PAW_PBE N 08Apr2002
 POTCAR:    PAW_PBE O 08Apr2002
 POTCAR:    PAW_PBE Mg_pv 13Apr2007
 POTCAR:    PAW_PBE O 08Apr2002
 POTCAR:    PAW_PBE N 08Apr2002
   VRHFIN =N: s2p3

   TITEL  = PAW_PBE N 08Apr2002
   POMASS =   14.001; ZVAL   =    5.000    mass and valenz
   ENMAX  =  400.000; ENMIN  =  300.000 eV

[...]

   TITEL  = PAW_PBE Mg_pv 13Apr2007
   POMASS =   24.305; ZVAL   =    8.000    mass and valenz
   ENMAX  =  403.929; ENMIN  =  302.947 eV

   TITEL  = PAW_PBE O 08Apr2002
   POMASS =   16.000; ZVAL   =    6.000    mass and valenz
   ENMAX  =  400.000; ENMIN  =  300.000 eV

  PAW_PBE N 08Apr2002                   :
  PAW_PBE O 08Apr2002                   :
  PAW_PBE Mg_pv 13Apr2007               :
  PAW_PBE O 08Apr2002                   :

 POSCAR:  N  O Mg  O
  positions in direct lattice
 exchange correlation table for  LEXCH =        8
   RHO(1)=    0.500       N(1)  =     2000
   RHO(2)=  100.500       N(2)  =     4000

 ion  position               nearest neighbor table
   1  0.525  0.547  0.791-   2 1.14
   2  0.624  0.638  0.783-   1 1.14   3 1.20
   3  0.727  0.733  0.774-   2 1.20
   4  0.000  0.750  0.352-  36 2.11  38 2.11  39 2.11  46 2.11  55 2.11
   5  0.250  0.000  0.352-  37 2.11  38 2.11  39 2.11  47 2.11  54 2.11
   6  0.000  0.000  0.451-  38 2.11  37 2.11  36 2.11  44 2.11  53 2.11  42 2.12
   7  0.250  0.750  0.451-  39 2.11  37 2.11  36 2.11  45 2.11  52 2.11  43 2.12
   8  1.000  0.750  0.550-  59 2.11  42 2.11  50 2.11  43 2.11  36 2.13  40 2.14
   9  0.250  1.000  0.550-  42 2.11  51 2.11  58 2.11  43 2.11  37 2.13  41 2.15
  10  0.000  0.000  0.649-  57 2.11  40 2.11  42 2.11  48 2.11  41 2.11
  11  0.250  0.750  0.649-  40 2.11  43 2.11  49 2.11  56 2.11  41 2.11
  12  0.000  0.250  0.352-  44 2.11  38 2.11  46 2.11  47 2.11  63 2.11
  13  0.250  0.500  0.352-  45 2.11  39 2.11  46 2.11  47 2.11  62 2.11
  14  0.000  0.500  0.451-  46 2.11  44 2.11  45 2.11  36 2.11  61 2.11  50 2.12
  15  0.250  0.250  0.451-  47 2.11  44 2.11  45 2.11  37 2.11  60 2.11  51 2.12
  16  0.000  0.250  0.550-  42 2.11  50 2.11  51 2.11  67 2.11  44 2.13  48 2.15
  17  0.250  0.500  0.550-  50 2.11  51 2.11  43 2.11  66 2.11  45 2.12  49 2.15
  18  0.000  0.500  0.649-  49 2.11  50 2.11  40 2.11  48 2.11  65 2.12
  19  0.250  0.250  0.649-  49 2.11  64 2.11  48 2.11  41 2.11  51 2.11
  20  0.500  0.750  0.352-  52 2.11  39 2.11  54 2.11  55 2.11  62 2.11
  21  0.750  0.000  0.352-  53 2.11  38 2.11  54 2.11  55 2.11  63 2.11
  22  0.500  0.000  0.451-  54 2.11  52 2.11  53 2.11  37 2.11  60 2.11  58 2.12
  23  0.750  0.750  0.451-  55 2.11  52 2.11  53 2.11  36 2.11  61 2.11  59 2.12
  24  0.500  0.750  0.550-  59 2.11  58 2.11  66 2.11  43 2.11  52 2.13  56 2.16
  25  0.750  1.000  0.550-  59 2.11  42 2.11  58 2.11  67 2.11  53 2.13  57 2.14
  26  0.500  0.000  0.649-  64 2.11  58 2.11  57 2.11  41 2.11  56 2.11
  27  0.751  0.751  0.650-  40 2.11  57 2.11  65 2.12  56 2.12  59 2.12
  28  0.500  0.250  0.352-  60 2.11  54 2.11  47 2.11  62 2.11  63 2.11
  29  0.750  0.500  0.352-  61 2.11  55 2.11  46 2.11  62 2.11  63 2.11
  30  0.500  0.500  0.451-  62 2.11  52 2.11  60 2.11  61 2.11  45 2.11  66 2.12
  31  0.750  0.250  0.451-  63 2.11  53 2.11  60 2.11  61 2.11  44 2.11  67 2.12
  32  0.500  0.250  0.550-  58 2.11  51 2.11  67 2.11  66 2.11  60 2.12  64 2.15
  33  0.750  0.500  0.550-  59 2.11  50 2.11  66 2.11  67 2.11  61 2.13  65 2.16
  34  0.499  0.499  0.648-  66 2.10  49 2.10  64 2.10  65 2.12  56 2.12
  35  0.750  0.250  0.649-  57 2.11  67 2.11  64 2.11  65 2.11  48 2.11
  36  0.000  0.750  0.451-   4 2.11   6 2.11   7 2.11  14 2.11  23 2.11   8 2.13
  37  0.250  0.000  0.451-   5 2.11   6 2.11   7 2.11  15 2.11  22 2.11   9 2.13
  38  0.000  0.000  0.352-   6 2.11   5 2.11   4 2.11  12 2.11  21 2.11
  39  0.250  0.750  0.352-   7 2.11   5 2.11   4 2.11  13 2.11  20 2.11
  40  0.000  0.750  0.651-  11 2.11  27 2.11  18 2.11  10 2.11   8 2.14
  41  0.250  1.000  0.651-  19 2.11  10 2.11  26 2.11  11 2.11   9 2.15
  42  0.000  0.000  0.550-   9 2.11  16 2.11  25 2.11  10 2.11   8 2.11   6 2.12
  43  0.250  0.750  0.550-  11 2.11   9 2.11  24 2.11  17 2.11   8 2.11   7 2.12
  44  0.000  0.250  0.451-  12 2.11   6 2.11  14 2.11  15 2.11  31 2.11  16 2.13
  45  0.250  0.500  0.451-  13 2.11   7 2.11  14 2.11  15 2.11  30 2.11  17 2.12
  46  0.000  0.500  0.352-  14 2.11  12 2.11  13 2.11   4 2.11  29 2.11
  47  0.250  0.250  0.352-  15 2.11  12 2.11  13 2.11   5 2.11  28 2.11
  48  1.000  0.250  0.651-  19 2.11  10 2.11  18 2.11  35 2.11  16 2.15
  49  0.250  0.500  0.651-  34 2.10  18 2.11  19 2.11  11 2.11  17 2.15
  50  1.000  0.500  0.550-  33 2.11  18 2.11  16 2.11  17 2.11   8 2.11  14 2.12
  51  0.250  0.250  0.550-   9 2.11  16 2.11  32 2.11  17 2.11  19 2.11  15 2.12
  52  0.500  0.750  0.451-  20 2.11   7 2.11  22 2.11  23 2.11  30 2.11  24 2.13
  53  0.750  0.000  0.451-  21 2.11   6 2.11  22 2.11  23 2.11  31 2.11  25 2.13
  54  0.500  0.000  0.352-  22 2.11  20 2.11  21 2.11   5 2.11  28 2.11
  55  0.750  0.750  0.352-  23 2.11  20 2.11  21 2.11   4 2.11  29 2.11
  56  0.500  0.750  0.651-  11 2.11  26 2.11  34 2.12  27 2.12  24 2.16
  57  0.750  0.001  0.651-  35 2.11  27 2.11  26 2.11  10 2.11  25 2.14
  58  0.500  1.000  0.550-  26 2.11  24 2.11  32 2.11   9 2.11  25 2.11  22 2.12
  59  0.750  0.750  0.550-  33 2.11  24 2.11   8 2.11  25 2.11  27 2.12  23 2.12
  60  0.500  0.250  0.451-  28 2.11  22 2.11  15 2.11  30 2.11  31 2.11  32 2.12
  61  0.750  0.500  0.451-  29 2.11  23 2.11  14 2.11  30 2.11  31 2.11  33 2.13
  62  0.500  0.500  0.352-  30 2.11  20 2.11  28 2.11  29 2.11  13 2.11
  63  0.750  0.250  0.352-  31 2.11  21 2.11  28 2.11  29 2.11  12 2.11
  64  0.500  0.250  0.651-  34 2.10  26 2.11  19 2.11  35 2.11  32 2.15
  65  0.750  0.500  0.651-  35 2.11  18 2.12  34 2.12  27 2.12  33 2.16
  66  0.500  0.500  0.550-  34 2.10  33 2.11  24 2.11  32 2.11  17 2.11  30 2.12
  67  0.750  0.250  0.550-  35 2.11  16 2.11  33 2.11  32 2.11  25 2.11  31 2.12

  LATTYP: Found a simple tetragonal cell.
 ALAT       =     8.4409846542
 C/A-ratio  =     2.5270438657

  Lattice vectors:

 A1 = (   8.4409846542,   0.0000000000,   0.0000000000)
 A2 = (   0.0000000000,   8.4409846542,   0.0000000000)
 A3 = (   0.0000000000,   0.0000000000,  21.3307384906)

Analysis of symmetry for initial positions (statically):
 Subroutine PRICEL returns:
 Original cell was already a primitive cell.

 Routine SETGRP: Setting up the symmetry group for a
 simple tetragonal supercell.

 Subroutine GETGRP returns: Found  1 space group operations
 (whereof  1 operations were pure point group operations)
 out of a pool of 16 trial point group operations.

The static configuration has the point symmetry C_1 .

Analysis of symmetry for dynamics (positions and initial velocities):
 Subroutine PRICEL returns:
 Original cell was already a primitive cell.

[...]

The dynamic configuration has the point symmetry C_1 .

Analysis of constrained symmetry for selective dynamics:
 Subroutine PRICEL returns:
 Original cell was already a primitive cell.

 Routine SETGRP: Setting up the symmetry group for a
 simple tetragonal supercell.

 Subroutine GETGRP returns: Found  1 space group operations
 (whereof  1 operations were pure point group operations)
 out of a pool of 16 trial point group operations.

The constrained configuration has the point symmetry C_1 .

 Subroutine INISYM returns: Found  1 space group operations
 (whereof  1 operations are pure point group operations),
 and found     1 'primitive' translations

                                     Primitive cell

  volume of cell :    1519.8199

  direct lattice vectors                    reciprocal lattice vectors
     8.440984654  0.000000000  0.000000000     0.118469591  0.000000000  0.000000000
     0.000000000  8.440984654  0.000000000     0.000000000  0.118469591  0.000000000
     0.000000000  0.000000000 21.330738491     0.000000000  0.000000000  0.046880702

  length of vectors
     8.440984654  8.440984654 21.330738491     0.118469591  0.118469591  0.046880702

  position of ions in fractional coordinates (direct lattice)
     0.524930995  0.547217210  0.790832042
     0.623755693  0.637956408  0.783228089
     0.727359511  0.733121747  0.774357699
     0.000000000  0.750000000  0.351605267
     0.250000000  0.000000000  0.351605267
     0.000000000  0.000000000  0.450535089
     0.250000000  0.750000000  0.450535089
     0.999952972  0.750069933  0.550182699
     0.249960180  0.999999612  0.550158547
     0.000071767  0.000081746  0.648822182
     0.249898085  0.749854229  0.648747211
     0.000000000  0.250000000  0.351605267
     0.250000000  0.500000000  0.351605267
     0.000000000  0.500000000  0.450535089
     0.250000000  0.250000000  0.450535089
     0.000003654  0.249979963  0.550161251
     0.249748591  0.499976608  0.550096481
     0.000002192  0.500168966  0.648801089
     0.249937473  0.249969046  0.648946383
     0.500000000  0.750000000  0.351605267
     0.750000000  0.000000000  0.351605267
     0.500000000  0.000000000  0.450535089
     0.750000000  0.750000000  0.450535089
     0.500260010  0.749982125  0.550295780
     0.750090200  0.999950935  0.550181221
     0.500174938  0.000063538  0.648739290
     0.751039523  0.750995909  0.649603103
     0.500000000  0.250000000  0.351605267
     0.750000000  0.500000000  0.351605267
     0.500000000  0.500000000  0.450535089
     0.750000000  0.250000000  0.450535089
     0.499969996  0.249784160  0.550090882
     0.749966853  0.500263841  0.550296262
     0.498939953  0.498985897  0.648486242
     0.749869906  0.249927386  0.648747568
     0.000000000  0.750000000  0.450535089
     0.250000000  0.000000000  0.450535089
     0.000000000  0.000000000  0.351605267
     0.250000000  0.750000000  0.351605267
     0.000499353  0.750094498  0.650694193
     0.250109797  0.999979088  0.651114683
     0.000136884  0.000132227  0.549867764
     0.250236395  0.750027713  0.549854657
     0.000000000  0.250000000  0.450535089
     0.250000000  0.500000000  0.450535089
     0.000000000  0.500000000  0.351605267
     0.250000000  0.250000000  0.351605267
     0.999972823  0.250117149  0.651102115
     0.249721265  0.499887596  0.650744450
     0.999777560  0.499924314  0.549903838
     0.249958822  0.249941630  0.549902197
     0.500000000  0.750000000  0.450535089
     0.750000000  0.000000000  0.450535089
     0.500000000  0.000000000  0.351605267
     0.750000000  0.750000000  0.351605267
     0.499900511  0.749702745  0.651434291
     0.750092168  0.000531548  0.650666996
     0.499920717  0.999831546  0.549889159
[...]
   6.33073849  0.00000000  7.50000000
   4.22049233  0.00000000  9.61024616
   6.33073849  6.33073849  9.61024616
   4.22268707  6.33058760 11.73821538
   6.33149987  8.44057049 11.73577174
   4.22196898  0.00053632 13.83808815
   6.33951309  6.33914494 13.85651391
   4.22049233  2.11024616  7.50000000
   6.33073849  4.22049233  7.50000000
   4.22049233  4.22049233  9.61024616
   6.33073849  2.11024616  9.61024616
   4.22023907  2.10842426 11.73384475
   6.33045870  4.22271940 11.73822565
   4.21154449  4.21193230 13.83269045
   6.32964037  2.10963323 13.83826472
   0.00000000  6.33073849  9.61024616
   2.11024616  0.00000000  9.61024616
   0.00000000  0.00000000  7.50000000
   2.11024616  6.33073849  7.50000000
   0.00421503  6.33153615 13.87978768
   2.11117296  8.44080814 13.88875702
   0.00115543  0.00111613 11.72908549
   2.11224157  6.33097241 11.72880589
   0.00000000  2.11024616  9.61024616
   2.11024616  4.22049233  9.61024616
   0.00000000  4.22049233  7.50000000
   2.11024616  2.11024616  7.50000000
   8.44075525  2.11123502 13.88848895
   2.10789336  4.21954353 13.88085968
   8.43910704  4.21985346 11.72985496
   2.10989858  2.10975346 11.72981997
   4.22049233  6.33073849  9.61024616
   6.33073849  0.00000000  9.61024616
   4.22049233  0.00000000  7.50000000
   6.33073849  6.33073849  7.50000000
   4.21965254  6.32822937 13.89557450
   6.33151648  0.00448679 13.87920754
   4.21982310  8.43956274 11.72954185
   6.33011222  6.33006053 11.73374919
   4.22049233  2.11024616  9.61024616
   6.33073849  4.22049233  9.61024616
   4.22049233  4.22049233  7.50000000
   6.33073849  2.11024616  7.50000000
   4.21932844  2.10810534 13.88220207
   6.32669817  4.21993676 13.89683681
   4.22033761  4.22035582 11.72949341
   6.33078666  2.11237071 11.72889608

--------------------------------------- Iteration      FINAL  ---------------------------------------

--------------------OUTCAR has been truncated-------------------------

[...]

--------------------OUTCAR has been truncated-------------------------

         DFTD3 V3.0 Rev 1
 IVDW         = 11
 DF pbe
 parameters
 VDW_S6       =    1.0000
 VDW_S8       =    0.7220
 VDW_SR       =    1.2170
 rs18     =    1.0000
 alpha6   =   14.0000
 alpha8   =   16.0000
 k1-k3    =   16.0000    1.3333   -4.0000
 VDW_RADIUS   =   50.2022 A
 VDW_CNRADIUS =   21.1671 A
 Edisp (eV)   -9.48057

 E6    (eV) :    -4.3717
 E8    (eV) :    -5.1089
 % E8        : 53.89

  FORCE on cell =-STRESS in cart. coord.  units (eV):
  Direction    XX          YY          ZZ          XY          YZ          ZX
  Alpha Z   926.74691   926.74691   926.74691
  Ewald  157170.30703157097.13218************   401.80393   -85.17924   -93.68850
  Hartree167582.43477167547.03467************   179.63432   -39.24830   -42.70682
  E(xc)   -2528.27272 -2528.46743 -2534.48762     1.14341    -0.23341    -0.25187
  Local  ************************334038.29948  -539.94221   115.99392   127.00166
  n-local -2860.01733 -2859.55212 -2877.86617    -2.69503     0.53906     0.55053
  augment  1055.25909  1055.50335  1047.37608    -1.43942     0.31106     0.34984
  Kinetic  7610.73335  7617.32606  7690.55209   -38.67154     7.87758     8.87574
  Fock        0.00000     0.00000     0.00000     0.00000     0.00000     0.00000
  vdW       -12.09666   -12.09830    -7.51542     0.02289    -0.00012    -0.00547
  Total     -31.50688   -31.42265    -3.21620    -0.14366     0.06055     0.12510
  in kB     -33.21420   -33.12541    -3.39048    -0.15144     0.06383     0.13188

 VOLUME and BASIS-vectors are now :
  energy-cutoff  :      600.00
  volume of cell :     1519.82
      direct lattice vectors                 reciprocal lattice vectors
     8.440984654  0.000000000  0.000000000     0.118469591  0.000000000  0.000000000
     0.000000000  8.440984654  0.000000000     0.000000000  0.118469591  0.000000000
     0.000000000  0.000000000 21.330738491     0.000000000  0.000000000  0.046880702

  length of vectors
     8.440984654  8.440984654 21.330738491     0.118469591  0.118469591  0.046880702

 FORCES acting on ions:
    Electron-Ion                     Ewald-Force                    Non-Local-Force
   0.214E+03 0.196E+03 -.124E+04   -.250E+03 -.230E+03 0.125E+04   0.369E+02 0.338E+02 -.730E+01
   0.167E+02 0.154E+02 -.124E+04   -.165E+02 -.153E+02 0.124E+04   -.196E+00 -.188E+00 -.117E+00
   -.219E+03 -.202E+03 -.149E+04   0.266E+03 0.244E+03 0.149E+04   -.466E+02 -.428E+02 0.859E+01
   -.209E+00 -.164E+00 0.209E+04   0.207E+00 0.164E+00 -.208E+04   0.999E-03 0.156E-03 -.704E+01
   0.185E+00 -.213E+00 0.209E+04   -.185E+00 0.213E+00 -.208E+04   -.229E-03 0.223E-03 -.705E+01
   -.837E+00 -.927E+00 0.736E+03   0.851E+00 0.940E+00 -.737E+03   -.108E-01 -.991E-02 0.518E+00
   0.870E+00 -.758E+00 0.738E+03   -.839E+00 0.774E+00 -.738E+03   -.220E-01 -.116E-01 0.505E+00
   -.629E+01 -.289E+01 -.601E+03   0.626E+01 0.290E+01 0.602E+03   0.330E-01 -.101E-01 -.375E+00
   0.313E+01 -.412E+01 -.612E+03   -.314E+01 0.412E+01 0.612E+03   0.135E-01 -.161E-02 -.176E+00
   -.197E+02 -.204E+02 -.196E+04   0.197E+02 0.204E+02 0.196E+04   0.611E-03 -.194E-02 0.601E+01
   0.224E+02 -.154E+02 -.195E+04   -.225E+02 0.154E+02 0.194E+04   0.115E+00 0.784E-02 0.600E+01
   -.189E+00 0.164E+00 0.209E+04   0.189E+00 -.163E+00 -.208E+04   0.211E-03 -.239E-03 -.705E+01
   0.208E+00 0.214E+00 0.209E+04   -.208E+00 -.214E+00 -.208E+04   0.321E-03 -.158E-03 -.704E+01
   -.869E+00 0.946E+00 0.737E+03   0.832E+00 -.957E+00 -.738E+03   0.261E-01 0.829E-02 0.536E+00
   0.825E+00 0.740E+00 0.736E+03   -.840E+00 -.757E+00 -.736E+03   0.111E-01 0.124E-01 0.527E+00
   -.365E+01 0.277E+01 -.613E+03   0.365E+01 -.277E+01 0.613E+03   -.218E-02 0.825E-02 -.184E+00
   0.509E+01 0.424E+01 -.603E+03   -.511E+01 -.424E+01 0.604E+03   0.274E-01 0.319E-02 -.288E+00
   -.250E+02 0.218E+02 -.195E+04   0.252E+02 -.218E+02 0.194E+04   -.140E+00 -.231E-02 0.601E+01
   0.141E+02 0.139E+02 -.197E+04   -.141E+02 -.139E+02 0.196E+04   0.601E-02 0.110E-02 0.600E+01
   0.211E+00 -.189E+00 0.209E+04   -.209E+00 0.189E+00 -.208E+04   -.149E-02 0.277E-03 -.705E+01
   -.186E+00 -.232E+00 0.209E+04   0.185E+00 0.231E+00 -.208E+04   0.120E-03 0.102E-02 -.704E+01
   0.857E+00 -.972E+00 0.738E+03   -.869E+00 0.938E+00 -.738E+03   0.903E-02 0.240E-01 0.532E+00
   -.894E+00 -.790E+00 0.739E+03   0.873E+00 0.769E+00 -.740E+03   0.154E-01 0.161E-01 0.575E+00
   0.649E+01 -.491E+01 -.595E+03   -.645E+01 0.493E+01 0.595E+03   -.388E-01 -.214E-01 -.111E+00
   -.326E+01 -.677E+01 -.601E+03   0.327E+01 0.674E+01 0.602E+03   -.143E-01 0.329E-01 -.384E+00
   0.212E+02 -.287E+02 -.194E+04   -.212E+02 0.288E+02 0.194E+04   -.418E-02 -.128E+00 0.601E+01
   -.309E+02 -.269E+02 -.185E+04   0.311E+02 0.271E+02 0.184E+04   -.244E+00 -.221E+00 0.562E+01
   0.190E+00 0.187E+00 0.209E+04   -.190E+00 -.187E+00 -.208E+04   -.194E-03 0.236E-03 -.704E+01
   -.211E+00 0.235E+00 0.209E+04   0.210E+00 -.233E+00 -.208E+04   0.343E-03 -.151E-02 -.706E+01
   0.887E+00 0.994E+00 0.739E+03   -.864E+00 -.972E+00 -.740E+03   -.171E-01 -.167E-01 0.537E+00
   -.845E+00 0.770E+00 0.737E+03   0.859E+00 -.738E+00 -.738E+03   -.103E-01 -.229E-01 0.507E+00
   0.374E+01 0.467E+01 -.604E+03   -.375E+01 -.470E+01 0.604E+03   0.469E-02 0.269E-01 -.258E+00
   -.530E+01 0.697E+01 -.596E+03   0.532E+01 -.694E+01 0.596E+03   -.216E-01 -.389E-01 -.955E-01
   0.311E+02 0.359E+02 -.187E+04   -.314E+02 -.362E+02 0.187E+04   0.206E+00 0.229E+00 0.595E+01
   -.152E+02 0.191E+02 -.195E+04   0.152E+02 -.192E+02 0.194E+04   0.148E-02 0.112E+00 0.599E+01
   -.722E+00 -.475E+00 0.553E+03   0.726E+00 0.473E+00 -.553E+03   -.592E-02 0.149E-02 -.913E-01
   0.536E+00 -.670E+00 0.552E+03   -.536E+00 0.665E+00 -.551E+03   0.722E-03 0.665E-02 -.113E+00
   -.149E+00 -.166E+00 0.157E+04   0.150E+00 0.167E+00 -.157E+04   -.154E-02 -.132E-02 0.349E+01
   0.148E+00 -.133E+00 0.157E+04   -.146E+00 0.135E+00 -.157E+04   -.319E-02 -.254E-02 0.349E+01
   -.285E+02 -.879E+01 -.147E+04   0.285E+02 0.879E+01 0.147E+04   0.849E-02 -.370E-03 -.505E+01
   0.880E+01 -.110E+02 -.150E+04   -.878E+01 0.110E+02 0.150E+04   -.124E-01 0.219E-01 -.502E+01
   -.344E+01 -.366E+01 -.452E+03   0.343E+01 0.365E+01 0.452E+03   0.118E-01 0.118E-01 0.245E+00
   0.332E+01 -.277E+01 -.447E+03   -.332E+01 0.277E+01 0.447E+03   -.352E-02 -.216E-02 0.282E+00
   -.592E+00 0.469E+00 0.551E+03   0.587E+00 -.470E+00 -.551E+03   0.650E-02 0.219E-02 -.112E+00
   0.672E+00 0.678E+00 0.553E+03   -.659E+00 -.673E+00 -.553E+03   -.168E-01 -.811E-02 -.754E-01
   -.148E+00 0.167E+00 0.157E+04   0.145E+00 -.167E+00 -.157E+04   0.414E-02 0.140E-02 0.349E+01
   0.147E+00 0.132E+00 0.157E+04   -.149E+00 -.134E+00 -.157E+04   0.229E-02 0.255E-02 0.349E+01
   -.956E+01 0.772E+01 -.150E+04   0.954E+01 -.771E+01 0.150E+04   0.196E-01 -.791E-02 -.502E+01
   0.212E+02 0.122E+02 -.148E+04   -.213E+02 -.122E+02 0.148E+04   0.591E-01 -.106E-01 -.509E+01
   -.368E+01 0.378E+01 -.448E+03   0.369E+01 -.378E+01 0.448E+03   0.425E-04 0.223E-03 0.279E+00
   0.280E+01 0.265E+01 -.454E+03   -.279E+01 -.264E+01 0.454E+03   -.107E-01 -.988E-02 0.202E+00
   0.762E+00 -.646E+00 0.554E+03   -.779E+00 0.650E+00 -.554E+03   0.237E-01 -.622E-02 -.141E+00
   -.543E+00 -.800E+00 0.553E+03   0.540E+00 0.804E+00 -.553E+03   0.314E-02 -.562E-02 -.904E-01
   0.150E+00 -.167E+00 0.157E+04   -.151E+00 0.164E+00 -.157E+04   0.165E-02 0.407E-02 0.349E+01
   -.150E+00 -.134E+00 0.157E+04   0.148E+00 0.131E+00 -.157E+04   0.401E-02 0.410E-02 0.348E+01
   0.347E+02 -.254E+02 -.143E+04   -.346E+02 0.254E+02 0.143E+04   -.113E+00 0.335E-01 -.476E+01
   -.100E+02 -.302E+02 -.147E+04   0.100E+02 0.302E+02 0.147E+04   -.105E-02 0.205E-01 -.506E+01
   0.357E+01 -.418E+01 -.447E+03   -.356E+01 0.417E+01 0.447E+03   -.781E-03 0.464E-02 0.294E+00
   -.353E+01 -.309E+01 -.440E+03   0.355E+01 0.311E+01 0.440E+03   -.126E-01 -.151E-01 0.913E-01
   0.600E+00 0.604E+00 0.553E+03   -.595E+00 -.594E+00 -.553E+03   -.789E-02 -.132E-01 -.761E-01
   -.717E+00 0.838E+00 0.554E+03   0.722E+00 -.856E+00 -.554E+03   -.719E-02 0.235E-01 -.142E+00
   0.151E+00 0.169E+00 0.157E+04   -.147E+00 -.165E+00 -.157E+04   -.520E-02 -.492E-02 0.349E+01
   -.148E+00 0.132E+00 0.157E+04   0.150E+00 -.129E+00 -.157E+04   -.227E-02 -.334E-02 0.349E+01
   0.104E+02 0.196E+02 -.148E+04   -.104E+02 -.197E+02 0.149E+04   -.136E-01 0.560E-01 -.508E+01
   -.261E+02 0.360E+02 -.143E+04   0.261E+02 -.359E+02 0.144E+04   0.122E-01 -.118E+00 -.480E+01
   0.388E+01 0.438E+01 -.439E+03   -.389E+01 -.439E+01 0.438E+03   0.127E-01 0.819E-02 0.391E+00
   -.292E+01 0.289E+01 -.448E+03   0.292E+01 -.290E+01 0.448E+03   -.502E-02 0.297E-02 0.285E+00
   0.100E+02 0.924E+01 0.160E+02   0.398E-12 0.409E-12 0.699E-11   -.100E+02 -.924E+01 -.160E+02

 POSITION                                       TOTAL-FORCE (eV/Angst)
      4.43093      4.61905     16.86903         0.251872      0.218382     -0.043579
      5.26511      5.38498     16.70683        -0.054632     -0.053498      0.021039
      6.13963      6.18827     16.51762        -0.185948     -0.166819      0.037422
      0.00000      6.33074      7.50000        -0.000360     -0.000134      0.375984
      2.11025      0.00000      7.50000         0.000083     -0.000116      0.378190
      0.00000      0.00000      9.61025         0.003291      0.002991      0.094955
      2.11025      6.33074      9.61025         0.008698      0.004047      0.099905
      8.44059      6.33133     11.73580        -0.001081     -0.001232     -0.009806
      2.10991      8.44098     11.73529         0.004245     -0.002411     -0.013290
      0.00061      0.00069     13.83986         0.002349      0.002619     -0.039028
      2.10939      6.32951     13.83826        -0.001803      0.003121     -0.038283
      0.00000      2.11025      7.50000        -0.000042      0.000101      0.377974
      2.11025      4.22049      7.50000        -0.000102      0.000128      0.375416
      0.00000      4.22049      9.61025        -0.010775     -0.002396      0.095785
      2.11025      2.11025      9.61025        -0.003762     -0.004157      0.095001
      0.00003      2.11008     11.73535        -0.003022      0.003731     -0.012859
      2.10812      4.22029     11.73396         0.004845      0.000017     -0.013004
      0.00002      4.22192     13.83941         0.000621     -0.003419     -0.038209
      2.10972      2.10998     13.84251        -0.001866     -0.001445     -0.042932
      4.22049      6.33074      7.50000         0.000437     -0.000142      0.379388
      6.33074      0.00000      7.50000        -0.000126     -0.000330      0.375887
      4.22049      0.00000      9.61025        -0.002728     -0.009922      0.095551
      6.33074      6.33074      9.61025        -0.004711     -0.004986      0.104299
      4.22269      6.33059     11.73822        -0.001247     -0.002947     -0.014438
      6.33150      8.44057     11.73577        -0.001834     -0.000483     -0.010045
      4.22197      0.00054     13.83809        -0.004397      0.001536     -0.039623
      6.33951      6.33914     13.85651         0.009771      0.009038     -0.037050
      4.22049      2.11025      7.50000         0.000100     -0.000088      0.375583
      6.33074      4.22049      7.50000        -0.000144      0.000458      0.379464
      4.22049      4.22049      9.61025         0.005393      0.005524      0.097257
      6.33074      2.11025      9.61025         0.003657      0.008925      0.099925
      4.22024      2.10842     11.73384        -0.000178      0.004371     -0.013073
      6.33046      4.22272     11.73823        -0.003811     -0.000991     -0.013942
      4.21154      4.21193     13.83269        -0.009775     -0.011177     -0.061331
      6.32964      2.10963     13.83826         0.001974     -0.000107     -0.036860
      0.00000      6.33074      9.61025        -0.001873      0.000040      0.084420
      2.11025      0.00000      9.61025         0.000510      0.001743      0.074299
      0.00000      0.00000      7.50000        -0.000481     -0.000420     -0.517550
      2.11025      6.33074      7.50000        -0.000914     -0.000740     -0.517711
      0.00422      6.33154     13.87979         0.007084     -0.000632      0.017768
      2.11117      8.44081     13.88876         0.000682     -0.001969      0.012771
      0.00116      0.00112     11.72909        -0.003911     -0.003597     -0.000128
      2.11224      6.33097     11.72881        -0.004931     -0.002919      0.004337
      0.00000      2.11025      9.61025         0.001663      0.000891      0.075110
      2.11025      4.22049      9.61025        -0.003751     -0.002224      0.079946
      0.00000      4.22049      7.50000         0.001178      0.000421     -0.517739
      2.11025      2.11025      7.50000         0.000572      0.000691     -0.517290
      8.44076      2.11124     13.88849        -0.002398      0.000985      0.013244
      2.10789      4.21954     13.88086        -0.001195      0.001923      0.015817
      8.43911      4.21985     11.72985         0.001314      0.005637      0.001985
      2.10990      2.10975     11.72982        -0.000290      0.000862     -0.003355
      4.22049      6.33074      9.61025         0.006204     -0.001896      0.080395
      6.33074      0.00000      9.61025         0.000477     -0.001724      0.084549
      4.22049      0.00000      7.50000         0.000467      0.001136     -0.517808
      6.33074      6.33074      7.50000         0.001163      0.001194     -0.518534
      4.21965      6.32823     13.89557        -0.014120      0.007788      0.007265
      6.33152      0.00449     13.87921        -0.001091      0.007814      0.017862
      4.21982      8.43956     11.72954         0.005568      0.000946      0.002091
      6.33011      6.33006     11.73375         0.003406      0.003503     -0.000032
      4.22049      2.11025      9.61025        -0.002102     -0.002805      0.079072
      6.33074      4.22049      9.61025        -0.002139      0.006074      0.080011
      4.22049      4.22049      7.50000        -0.001499     -0.001442     -0.517837
      6.33074      2.11025      7.50000        -0.000674     -0.000977     -0.517685
      4.21933      2.10811     13.88220         0.001922     -0.000351      0.015340
      6.32670      4.21994     13.89684         0.007081     -0.013898      0.008354
      4.22034      4.22036     11.72949        -0.000502     -0.000003      0.004853
      6.33079      2.11237     11.72890        -0.002407     -0.004238      0.004506
    total drift:                                0.000977      0.001199     -0.005422

  FREE ENERGIE OF THE ION-ELECTRON SYSTEM (eV)
  free  energy   TOTEN  =      -403.13407577 eV

  energy  without entropy=     -403.13407577  energy(sigma->0) =     -403.13407577