 vasp.6.4.1 05Apr23 (build Sep 19 2024 10:44:22) complex

 executed on             LinuxIFC date 2024.10.13  11:48:59

 INCAR:
   SYSTEM = TiO2
   ISMEAR = 0
   SIGMA = 0.05
   EDIFF = 1E-7
   ALGO = ALL
   ISTART = 0
   IBRION = 2
   NSW = 1000
   ISYM = 0
   ISIF = 2
   EDIFFG = -0.01
   DIPOL = 0.5 0.5 0.5
   IDIPOL = 3
   LDIPOL = .TRUE.
   GGA = PE
   IVDW = 21
   ENCUT = 600
   PREC = Accurate
   LASPH = .TRUE.
   LREAL = .FALSE.
   ISPIN = 1
   NELM = 200
   NELMIN = 8
   NCORE = 8
   KPAR = 1
   LWAVE = .FALSE.
   LCHARG = .FALSE.

 POTCAR:    PAW_PBE H 15Jun2001
 POTCAR:    PAW_PBE O 08Apr2002
 POTCAR:    PAW_PBE Ti_pv 07Sep2000
 POTCAR:    PAW_PBE O 08Apr2002
|           W    W    AA    RRRRR   N    N  II  N    N   GGGG   !!!           |
|           W    W   A  A   R    R  NN   N  II  NN   N  G    G  !!!           |
|           W    W  A    A  R    R  N N  N  II  N N  N  G       !!!           |
|           W WW W  AAAAAA  RRRRR   N  N N  II  N  N N  G  GGG   !            |
|           WW  WW  A    A  R   R   N   NN  II  N   NN  G    G                |
|           W    W  A    A  R    R  N    N  II  N    N   GGGG   !!!           |
|     For optimal performance we recommend to set                             |
|       NCORE = 2 up to number-of-cores-per-socket                            |
|     This setting can greatly improve the performance of VASP for DFT.       |
|     The default, NCORE=1 might be grossly inefficient on modern             |
|     multi-core architectures or massively parallel machines. Do your        |
|     Unfortunately you need to use the default for GW and RPA                |
|     calculations (for HF NCORE is supported but not extensively tested      |
|     yet).                                                                   |

   TITEL  = PAW_PBE H 15Jun2001
   POMASS =    1.000; ZVAL   =    1.000    mass and valenz
   ENMAX  =  250.000; ENMIN  =  200.000 eV

   TITEL  = PAW_PBE O 08Apr2002
   POMASS =   16.000; ZVAL   =    6.000    mass and valenz
   ENMAX  =  400.000; ENMIN  =  300.000 eV

   TITEL  = PAW_PBE Ti_pv 07Sep2000
   POMASS =   47.880; ZVAL   =   10.000    mass and valenz
   ENMAX  =  222.335; ENMIN  =  166.751 eV

   TITEL  = PAW_PBE O 08Apr2002
   POMASS =   16.000; ZVAL   =    6.000    mass and valenz
   ENMAX  =  400.000; ENMIN  =  300.000 eV

  PAW_PBE H 15Jun2001                   :
  PAW_PBE O 08Apr2002                   :
  PAW_PBE Ti_pv 07Sep2000               :
  PAW_PBE O 08Apr2002                   :

 POSCAR:  H  O Ti  O
  positions in direct lattice
 exchange correlation table for  LEXCH =        8
   RHO(1)=    0.500       N(1)  =     2000
   RHO(2)=  100.500       N(2)  =     4000

 ion  position               nearest neighbor table
   1  0.509  0.550  0.799-   3 0.97
   2  0.612  0.497  0.780-   3 1.00
   3  0.536  0.492  0.780-   1 0.97   2 1.00  83 2.23
   4  0.750  0.625  0.287-  84 1.96  85 1.96 144 1.96 145 1.96  87 1.98 166 1.98  14 2.97  34 2.97

   5  0.000  0.750  0.287-  86 1.96  87 1.96 106 1.96 107 1.96  88 1.98  35 2.97  15 2.97
   6  0.000  0.625  0.393-  88 1.96  89 1.96 148 1.96 149 1.96  90 1.98  91 1.98  16 2.97  36 2.97

[...]

  84  0.750  0.750  0.245-   4 1.96  14 1.96
  85  0.750  0.750  0.329-   4 1.96  14 1.96   7 1.98
  86  0.098  0.625  0.287-   5 1.96  35 1.96  44 1.98
  87  0.902  0.625  0.287-   5 1.96  35 1.96   4 1.98
  88  0.000  0.750  0.352-   6 1.96  16 1.96   5 1.98
  89  0.000  0.750  0.435-   6 1.96  16 1.96   9 1.98
  90  0.848  0.625  0.393-   7 1.96  37 1.96   6 1.98
  91  0.152  0.625  0.393-  47 1.96  77 1.96   6 1.98
  92  0.750  0.750  0.458-   8 1.96  18 1.96   7 1.98
  93  0.750  0.750  0.542-   8 1.96  18 1.96  11 2.11
  94  0.098  0.625  0.500-   9 1.96  39 1.96  48 1.98
  95  0.902  0.625  0.500-   9 1.96  39 1.96   8 1.98
  96  1.000  0.750  0.566-  20 1.90  10 1.90   9 2.01
  97  1.000  0.750  0.649-  13 1.81  10 2.02  20 2.02
  98  0.850  0.625  0.607-  10 1.96  11 1.98  41 1.98
  99  0.150  0.625  0.607-  10 1.96  81 1.98  51 1.98
 100  0.750  0.750  0.672-  11 1.87  12 2.10  22 2.10
 101  0.750  0.750  0.756-  22 1.84  12 1.84
 102  0.094  0.625  0.719-  13 1.95  43 1.95  52 2.04
 103  0.906  0.625  0.719-  43 1.95  13 1.95  12 2.04
 104  0.750  0.000  0.245-  14 1.96  24 1.96
 105  0.750  0.000  0.329-  14 1.96  24 1.96  17 1.98
 106  0.098  0.875  0.287-   5 1.96  15 1.96  54 1.98
 107  0.902  0.875  0.287-   5 1.96  15 1.96  14 1.98
 108  0.000  0.000  0.352-  16 1.96  26 1.96  15 1.98
 109  0.000  0.000  0.435-  16 1.96  26 1.96  19 1.98
 110  0.848  0.875  0.393-   7 1.96  17 1.96  16 1.98
 111  0.152  0.875  0.393-  47 1.96  57 1.96  16 1.98
 112  0.750  0.000  0.458-  18 1.96  28 1.96  17 1.98
 113  0.750  0.000  0.542-  18 1.96  28 1.96  21 2.11
 114  0.098  0.875  0.500-   9 1.96  19 1.96  58 1.98
 115  0.902  0.875  0.500-   9 1.96  19 1.96  18 1.98
 116  1.000  1.000  0.566-  20 1.90  30 1.90  19 2.01
 117  1.000  1.000  0.649-  23 1.81  30 2.02  20 2.02
 118  0.850  0.875  0.607-  20 1.96  11 1.98  21 1.98
 119  0.150  0.875  0.607-  20 1.96  51 1.98  61 1.98
 120  0.750  0.000  0.672-  21 1.87  32 2.10  22 2.10
 121  0.750  1.000  0.756-  22 1.84  32 1.84
 122  0.094  0.875  0.719-  13 1.95  23 1.95  62 2.04
 123  0.906  0.875  0.719-  13 1.95  23 1.95  22 2.04
 124  0.750  0.250  0.245-  24 1.96  34 1.96
 125  0.750  0.250  0.329-  24 1.96  34 1.96  27 1.98
 126  0.098  0.125  0.287-  15 1.96  25 1.96  64 1.98
 127  0.902  0.125  0.287-  15 1.96  25 1.96  24 1.98
 128  0.000  0.250  0.352-  26 1.96  36 1.96  25 1.98
 129  0.000  0.250  0.435-  26 1.96  36 1.96  29 1.98
 130  0.848  0.125  0.393-  17 1.96  27 1.96  26 1.98
 131  0.152  0.125  0.393-  57 1.96  67 1.96  26 1.98
 132  0.750  0.250  0.458-  28 1.96  38 1.96  27 1.98
 133  0.750  0.250  0.542-  28 1.96  38 1.96  31 2.11
 134  0.098  0.125  0.500-  19 1.96  29 1.96  68 1.98
 135  0.902  0.125  0.500-  19 1.96  29 1.96  28 1.98
 136  1.000  0.250  0.566-  40 1.90  30 1.90  29 2.01
 137  1.000  0.250  0.649-  33 1.81  30 2.02  40 2.02
 138  0.850  0.125  0.607-  30 1.96  21 1.98  31 1.98
 139  0.150  0.125  0.607-  30 1.96  71 1.98  61 1.98
 140  0.750  0.250  0.672-  31 1.87  32 2.10  42 2.10
 141  0.750  0.250  0.756-  42 1.84  32 1.84
 142  0.094  0.125  0.719-  33 1.95  23 1.95  72 2.04
 143  0.906  0.125  0.719-  23 1.95  33 1.95  32 2.04
[...]
 229  0.500  0.500  0.435-  46 1.96  76 1.96  79 1.98
 230  0.348  0.375  0.393-  67 1.96  77 1.96  76 1.98
 231  0.652  0.375  0.393-  27 1.96  37 1.96  76 1.98
 232  0.250  0.500  0.458-  48 1.96  78 1.96  77 1.98
 233  0.250  0.500  0.542-  48 1.96  78 1.96  81 2.11
 234  0.598  0.375  0.500-  69 1.96  79 1.96  38 1.98
 235  0.402  0.375  0.500-  69 1.96  79 1.96  78 1.98
 236  0.500  0.500  0.566-  80 1.90  50 1.90  79 2.01
 237  0.500  0.500  0.649-  83 1.81  50 2.02  80 2.02
 238  0.350  0.375  0.607-  80 1.96  81 1.98  71 1.98
 239  0.650  0.375  0.607-  80 1.96  41 1.98  31 1.98
 240  0.250  0.500  0.672-  81 1.87  52 2.10  82 2.10
 241  0.250  0.500  0.756-  82 1.84  52 1.84
 242  0.594  0.375  0.719-  83 1.95  73 1.95  42 2.04
 243  0.406  0.375  0.719-  83 1.95  73 1.95  82 2.04

IMPORTANT INFORMATION: All symmetrisations will be switched off!
NOSYMM: (Re-)initialisation of all symmetry stuff for point group C_1.

                                     Primitive cell

  volume of cell :    4740.1649

  direct lattice vectors                    reciprocal lattice vectors
    13.042933829  0.000000000  0.000000000     0.076669867  0.000000000  0.000000000
     0.000000000 11.878216733  0.000000000     0.000000000  0.084187721  0.000000000
     0.000000000  0.000000000 30.596159140     0.000000000  0.000000000  0.032683841

  length of vectors
    13.042933829 11.878216733 30.596159140     0.076669867  0.084187721  0.032683841

  position of ions in fractional coordinates (direct lattice)
     0.509191898  0.550347730  0.798851365
     0.611789835  0.496901196  0.779998397
     0.535598695  0.491958354  0.779656479
     0.750000000  0.625000000  0.286853412
     0.000000000  0.750000000  0.286853412
     0.000000000  0.625000000  0.393426706
     0.750000000  0.750000000  0.393426706
     0.750000000  0.625000000  0.500000000
     0.000000000  0.750000000  0.500000000
     0.999999988  0.624999996  0.604420548
     0.750000029  0.750000004  0.610781620
     0.749999986  0.624999976  0.720512796
     0.999999994  0.750000000  0.708478094
     0.750000000  0.875000000  0.286853412
     0.000000000  0.000000000  0.286853412
     0.000000000  0.875000000  0.393426706
     0.750000000  0.000000000  0.393426706
     0.750000000  0.875000000  0.500000000
     0.000000000  0.000000000  0.500000000
     0.000000047  0.874999985  0.604420536
     0.750000015  0.999999991  0.610781625
     0.749999989  0.874999980  0.720512821
     0.999999986  0.999999992  0.708478097
     0.750000000  0.125000000  0.286853412
     0.000000000  0.250000000  0.286853412
     0.000000000  0.125000000  0.393426706
     0.750000000  0.250000000  0.393426706
     0.750000000  0.125000000  0.500000000
     0.000000000  0.250000000  0.500000000
     0.999999985  0.125000011  0.604420556
     0.749999996  0.250000012  0.610781629
     0.750000000  0.125000005  0.720512813
     0.000000019  0.250000013  0.708478102
     0.750000000  0.375000000  0.286853412
     0.000000000  0.500000000  0.286853412
     0.000000000  0.375000000  0.393426706
     0.750000000  0.500000000  0.393426706
     0.750000000  0.375000000  0.500000000
     0.000000000  0.500000000  0.500000000
     0.000000001  0.375000014  0.604420545
     0.750000001  0.499999992  0.610781619
     0.750000006  0.375000035  0.720512810
     0.999999988  0.500000008  0.708478097
     0.250000000  0.625000000  0.286853412
     0.500000000  0.750000000  0.286853412
     0.500000000  0.625000000  0.393426706
     0.250000000  0.750000000  0.393426706
     0.250000000  0.625000000  0.500000000
     0.500000000  0.750000000  0.500000000
     0.500000049  0.624999998  0.604420575
     0.250000032  0.749999979  0.610781590
     0.249999982  0.624999991  0.720512811
     0.499999969  0.749999986  0.708478101
     0.250000000  0.875000000  0.286853412
     0.500000000  0.000000000  0.286853412
     0.500000000  0.875000000  0.393426706
     0.250000000  0.000000000  0.393426706
     0.250000000  0.875000000  0.500000000
     0.500000000  0.000000000  0.500000000
     0.500000006  0.874999991  0.604420542
[...]
     0.500000000  0.500000000  0.435151311
     0.347877722  0.375000000  0.393426706
     0.652122278  0.375000000  0.393426706
     0.250000000  0.500000000  0.458275395
     0.250000000  0.500000000  0.541724605
     0.597877722  0.375000000  0.500000000
     0.402122278  0.375000000  0.500000000
     0.500000010  0.500000002  0.565535419
     0.500000024  0.500000006  0.649214872
     0.350074070  0.375000024  0.607255933
     0.649925944  0.375000018  0.607255929
     0.249999980  0.500000012  0.671750483
     0.249999991  0.500000014  0.755761153
     0.593813259  0.375000027  0.719151370
     0.406186748  0.375000019  0.719151376

  ion indices of the primitive-cell ions
   primitive index   ion index
[...]
   O          53.694          3.924         10.018          1.85523121
   O          36.922          3.687          8.308          1.53842601
   O          51.853          3.901          9.845          1.82315616
   O          50.719          3.887          9.737          1.80311294

  Number of pair interactions contributing to vdW energy: 3315377
  Edisp (eV):  -34.77858

  FORCE on cell =-STRESS in cart. coord.  units (eV):
  Direction    XX          YY          ZZ          XY          YZ          ZX
  Alpha Z  4646.49015  4646.49015  4646.49015
  Ewald  970918.08536988417.55205************   -26.25195    41.13115   -31.30235
  Hartree************************************    -7.07578     8.06277   -17.61267
  E(xc)   -8624.63597 -8606.69331 -8634.10229    -0.08268     0.16668    -0.15526
  Local  ************************************    27.46378   -37.43908    44.47822
  n-local -5438.71356 -5362.23522 -5480.88624    -0.32674     0.09783     0.08087
  augment  5227.27924  5211.24243  5232.36745     0.36818    -0.79356     0.10889
  Kinetic 28735.37074 28268.30126 28798.42896     5.89720   -11.13893     4.00547
  Fock        0.00000     0.00000     0.00000     0.00000     0.00000     0.00000
  vdW       -50.64573   -29.97335   -43.03672    -0.00412    -0.01247     0.14031
  Total      11.08750   -34.35782   -32.54018    -0.01212     0.07439    -0.25652
  in kB       3.74758   -11.61295   -10.99859    -0.00410     0.02514    -0.08670

 VOLUME and BASIS-vectors are now :
  energy-cutoff  :      600.00
  volume of cell :     4740.16
      direct lattice vectors                 reciprocal lattice vectors
    13.042933829  0.000000000  0.000000000     0.076669867  0.000000000  0.000000000
     0.000000000 11.878216733  0.000000000     0.000000000  0.084187721  0.000000000
     0.000000000  0.000000000 30.596159140     0.000000000  0.000000000  0.032683841

  length of vectors
    13.042933829 11.878216733 30.596159140     0.076669867  0.084187721  0.032683841

 FORCES acting on ions:
    Electron-Ion                     Ewald-Force                    Non-Local-Force
   0.321E+02 -.634E+02 -.451E+03   -.350E+02 0.695E+02 0.456E+03   0.291E+01 -.605E+01 -.508E+01
   -.605E+02 -.137E+01 -.432E+03   0.679E+02 0.151E+01 0.432E+03   -.741E+01 -.140E+00 0.281E+00
   0.554E+02 0.400E+02 -.256E+04   -.741E+02 -.723E+02 0.255E+04   0.187E+02 0.323E+02 0.125E+02
   -.103E+00 -.123E-01 0.377E+04   0.997E-01 0.123E-01 -.377E+04   0.101E-02 -.470E-05 0.429E+00
   -.540E-01 -.274E-01 0.395E+04   0.553E-01 0.275E-01 -.394E+04   -.252E-03 -.124E-04 -.389E+01
   -.148E+00 -.360E-01 0.192E+04   0.154E+00 0.359E-01 -.192E+04   -.109E-02 0.668E-04 -.448E-01
   -.336E+00 0.926E-02 0.191E+04   0.326E+00 -.900E-02 -.192E+04   0.258E-02 -.119E-06 0.210E+00
   -.138E+01 -.112E-01 0.315E+01   0.134E+01 -.105E-01 -.241E+01   0.106E-01 0.133E-02 -.123E+00
   0.179E+01 -.609E+00 0.106E+02   -.178E+01 0.610E+00 -.116E+02   -.670E-02 -.112E-02 0.337E+00
   0.132E+02 -.164E+01 -.186E+04   -.133E+02 0.165E+01 0.186E+04   0.204E-01 -.666E-02 0.961E-01
   0.217E+01 -.775E+01 -.191E+04   -.218E+01 0.777E+01 0.191E+04   -.321E-01 -.133E-01 -.103E+00
   -.703E+02 -.161E+02 -.371E+04   0.701E+02 0.160E+02 0.371E+04   0.182E+00 0.136E+00 -.117E-01
   -.512E+01 -.199E+01 -.376E+04   0.516E+01 0.200E+01 0.376E+04   -.440E-01 -.175E-01 0.925E+00
   -.114E+00 -.189E-01 0.377E+04   0.111E+00 0.190E-01 -.377E+04   0.106E-02 0.126E-04 0.429E+00
   -.513E-01 -.316E-02 0.395E+04   0.527E-01 0.322E-02 -.394E+04   -.255E-03 -.723E-05 -.389E+01
   -.115E+00 -.523E-01 0.192E+04   0.120E+00 0.521E-01 -.192E+04   -.110E-02 0.216E-04 -.447E-01
   -.427E+00 -.223E-01 0.191E+04   0.418E+00 0.219E-01 -.192E+04   0.245E-02 -.279E-04 0.210E+00
   -.281E+01 -.433E+00 0.229E+01   0.278E+01 0.452E+00 -.155E+01   0.834E-02 -.604E-03 -.124E+00
   0.225E+01 -.328E-01 0.984E+01   -.224E+01 0.312E-01 -.109E+02   -.689E-02 0.898E-03 0.334E+00
   0.165E+02 -.137E+01 -.186E+04   -.166E+02 0.138E+01 0.186E+04   0.219E-01 -.744E-02 0.990E-01
   0.444E+01 0.287E+00 -.192E+04   -.445E+01 -.288E+00 0.192E+04   -.410E-01 0.837E-04 -.116E+00
   -.150E+02 -.167E+02 -.374E+04   0.149E+02 0.167E+02 0.374E+04   0.461E-01 0.139E-01 -.137E+00
   -.477E+01 0.272E+00 -.376E+04   0.474E+01 -.267E+00 0.376E+04   0.288E-01 -.223E-02 0.963E+00
   -.113E+00 0.123E-01 0.377E+04   0.109E+00 -.125E-01 -.377E+04   0.104E-02 0.185E-04 0.429E+00
   -.541E-01 0.274E-01 0.395E+04   0.554E-01 -.275E-01 -.394E+04   -.263E-03 0.126E-04 -.389E+01
   -.114E+00 0.389E-01 0.192E+04   0.120E+00 -.388E-01 -.192E+04   -.117E-02 -.708E-04 -.447E-01
   -.310E+00 -.910E-02 0.191E+04   0.300E+00 0.884E-02 -.192E+04   0.245E-02 0.108E-04 0.210E+00
   -.269E+01 0.308E+00 0.224E+01   0.266E+01 -.336E+00 -.151E+01   0.898E-02 0.165E-02 -.124E+00
   0.185E+01 0.573E+00 0.106E+02   -.183E+01 -.575E+00 -.117E+02   -.715E-02 0.241E-02 0.337E+00
   0.178E+02 0.137E+01 -.186E+04   -.180E+02 -.137E+01 0.186E+04   0.257E-01 0.650E-02 0.101E+00
   0.190E+01 0.705E+01 -.191E+04   -.191E+01 -.706E+01 0.191E+04   -.353E-01 0.252E-02 -.113E+00
   -.147E+02 0.141E+02 -.374E+04   0.147E+02 -.140E+02 0.374E+04   0.456E-01 -.199E-01 -.145E+00
   -.460E+01 0.198E+01 -.376E+04   0.463E+01 -.198E+01 0.376E+04   -.436E-01 0.130E-01 0.922E+00
   -.101E+00 0.189E-01 0.377E+04   0.978E-01 -.188E-01 -.377E+04   0.993E-03 -.243E-04 0.429E+00
   -.566E-01 0.317E-02 0.395E+04   0.580E-01 -.323E-02 -.394E+04   -.261E-03 0.690E-05 -.389E+01
   -.148E+00 0.495E-01 0.192E+04   0.154E+00 -.493E-01 -.192E+04   -.115E-02 -.112E-03 -.448E-01
   -.219E+00 0.221E-01 0.191E+04   0.211E+00 -.217E-01 -.192E+04   0.228E-02 -.232E-04 0.209E+00
   -.125E+01 0.146E+00 0.305E+01   0.120E+01 -.115E+00 -.231E+01   0.108E-01 -.189E-02 -.122E+00
   0.154E+01 -.268E-01 0.114E+02   -.153E+01 0.269E-01 -.124E+02   -.685E-02 0.432E-03 0.335E+00
   0.134E+02 0.188E+01 -.186E+04   -.135E+02 -.188E+01 0.186E+04   0.170E-01 0.352E-02 0.966E-01
   0.690E+00 0.497E-01 -.190E+04   -.638E+00 -.492E-01 0.190E+04   -.844E-01 -.672E-03 -.994E-01
   -.694E+02 0.127E+02 -.371E+04   0.693E+02 -.125E+02 0.371E+04   0.126E+00 -.174E+00 -.554E-02
   -.767E+01 0.274E+00 -.376E+04   0.762E+01 -.276E+00 0.376E+04   0.400E-01 0.185E-02 0.876E+00
   0.966E-01 -.844E-02 0.377E+04   -.933E-01 0.831E-02 -.377E+04   -.929E-03 0.171E-04 0.428E+00
   0.605E-01 -.983E-02 0.395E+04   -.618E-01 0.102E-01 -.394E+04   0.248E-03 -.492E-04 -.389E+01
   0.298E+00 0.155E+00 0.192E+04   -.302E+00 -.143E+00 -.192E+04   0.433E-03 -.273E-02 -.465E-01
   0.189E+00 0.538E-01 0.191E+04   -.180E+00 -.535E-01 -.192E+04   -.147E-02 -.790E-04 0.206E+00
   -.317E+00 0.210E+00 0.801E+00   0.363E+00 -.228E+00 -.813E-02   -.776E-02 0.111E-02 -.133E+00
   0.393E+01 0.126E+01 0.140E+02   -.394E+01 -.134E+01 -.148E+02   -.403E-02 0.373E-01 0.262E+00
   0.211E+02 -.112E+02 -.186E+04   -.212E+02 0.113E+02 0.186E+04   0.532E-02 -.824E-01 0.611E-01
   0.165E+02 -.439E+01 -.192E+04   -.165E+02 0.438E+01 0.192E+04   -.454E-01 0.792E-02 -.109E+00
   0.341E+02 -.136E+02 -.373E+04   -.341E+02 0.136E+02 0.373E+04   0.897E-01 0.541E-02 -.175E+00
   0.238E+02 -.549E+02 -.371E+04   -.236E+02 0.550E+02 0.371E+04   -.173E+00 -.449E-01 0.104E+01
   0.108E+00 -.149E-01 0.377E+04   -.104E+00 0.150E-01 -.377E+04   -.997E-03 0.250E-05 0.428E+00
   0.581E-01 -.622E-02 0.395E+04   -.594E-01 0.623E-02 -.394E+04   0.249E-03 0.572E-07 -.389E+01
   0.272E+00 0.900E-01 0.192E+04   -.278E+00 -.893E-01 -.192E+04   0.542E-03 -.114E-02 -.472E-01
   0.274E+00 -.229E-01 0.191E+04   -.265E+00 0.227E-01 -.192E+04   -.153E-02 0.673E-04 0.206E+00
   0.749E+00 0.176E-01 0.658E+00   -.714E+00 -.127E-01 0.124E+00   -.359E-02 -.719E-03 -.131E+00
   0.349E+01 -.301E+00 0.170E+02   -.352E+01 0.299E+00 -.181E+02   0.416E-02 0.712E-04 0.289E+00
   0.184E+02 -.108E+02 -.183E+04   -.185E+02 0.108E+02 0.183E+04   0.102E-01 -.153E-01 -.414E-01
[...]
   -.532E+02 -.369E-01 0.115E+04   0.571E+02 0.361E-01 -.115E+04   -.354E+01 0.970E-03 0.153E+00
   0.533E+02 -.247E-01 0.115E+04   -.573E+02 0.241E-01 -.115E+04   0.355E+01 0.740E-03 0.159E+00
   -.105E+00 0.428E-01 0.503E+03   0.125E+00 -.433E-01 -.507E+03   -.291E-01 0.114E-02 0.414E+01
   0.203E+01 0.230E+00 -.518E+03   -.228E+01 -.225E+00 0.525E+03   0.246E+00 -.735E-02 -.705E+01
   -.543E+02 -.395E+00 0.808E+01   0.589E+02 0.393E+00 -.827E+01   -.503E+01 0.220E-01 0.249E+00
   0.553E+02 -.452E+00 0.494E+01   -.599E+02 0.448E+00 -.509E+01   0.506E+01 0.243E-01 0.235E+00
   0.116E+02 0.727E+00 -.615E+03   -.125E+02 -.824E+00 0.609E+03   0.934E+00 0.964E-01 0.678E+01
   0.198E+02 -.181E+01 -.160E+04   -.210E+02 0.190E+01 0.160E+04   0.118E+01 -.906E-01 -.152E+01
   -.488E+02 0.135E+01 -.112E+04   0.548E+02 -.134E+01 0.112E+04   -.598E+01 -.871E-02 0.130E+01
   0.448E+01 0.438E+01 -.113E+04   -.474E+01 -.457E+01 0.113E+04   0.260E+00 0.187E+00 0.458E+00
   0.164E+02 -.419E+00 -.180E+04   -.167E+02 0.386E+00 0.180E+04   0.273E+00 0.331E-01 -.215E+01
   0.355E+02 0.706E+00 -.270E+04   -.353E+02 -.771E+00 0.272E+04   -.111E+00 0.654E-01 -.205E+02
   -.464E+02 0.417E+02 -.221E+04   0.523E+02 -.414E+02 0.221E+04   -.588E+01 -.379E+00 -.558E+00
   0.654E+02 0.347E+02 -.229E+04   -.716E+02 -.349E+02 0.230E+04   0.619E+01 0.212E+00 -.341E+01
   0.135E+02 -.273E+02 0.823E+02   0.198E-11 0.654E-12 0.500E-11   -.136E+02 0.273E+02 -.823E+02

 POSITION                                       TOTAL-FORCE (eV/Angst)
      6.75249      6.55863     24.52065        -0.001852     -0.000931      0.004322
      8.06924      5.89241     23.90781        -0.008413     -0.000674      0.003419
      7.06702      5.84510     23.93898         0.001121     -0.001641     -0.000833
      9.78220      7.42389      8.77661        -0.002350      0.000072     -3.418629
      0.00000      8.90866      8.77661         0.001082      0.000104      2.830374
      0.00000      7.42389     12.03735         0.004891      0.000046      0.519099
      9.78220      8.90866     12.03735        -0.006884      0.000309     -0.722370
      9.78220      7.42389     15.29808        -0.033415     -0.020306      0.610584
      0.00000      8.90866     15.29808         0.006398     -0.000145     -0.683968
      0.08984      7.42384     18.49165         0.000696     -0.000710     -0.002259
      9.86286      8.90818     18.67125        -0.003493     -0.001211     -0.001255
      9.80837      7.43189     22.00576         0.002104      0.000758     -0.003846
      0.01455      8.91072     21.67976        -0.001617     -0.000470      0.001091
      9.78220     10.39344      8.77661        -0.002460      0.000111     -3.418755
      0.00000      0.00000      8.77661         0.001085      0.000074      2.830220
      0.00000     10.39344     12.03735         0.004773     -0.000116      0.519126
      9.78220      0.00000     12.03735        -0.007136     -0.000396     -0.723871
      9.78220     10.39344     15.29808        -0.021437      0.018045      0.610969
      0.00000      0.00000     15.29808         0.006229     -0.000758     -0.682501
      0.09412     10.39330     18.49283        -0.002044     -0.001109     -0.001166
      9.85914     -0.00010     18.67916        -0.006585     -0.000620      0.001920
      9.79243     10.39136     22.03577         0.004805      0.003613     -0.002247
      0.01574     -0.00245     21.67850         0.000410      0.002520     -0.001767
      9.78220      1.48478      8.77661        -0.002436     -0.000158     -3.418988
      0.00000      2.96955      8.77661         0.001112     -0.000071      2.830232
      0.00000      1.48478     12.03735         0.004923      0.000042      0.519053
      9.78220      2.96955     12.03735        -0.006611     -0.000258     -0.723779
      9.78220      1.48478     15.29808        -0.019981     -0.026522      0.604839
      0.00000      2.96955     15.29808         0.008368      0.000049     -0.685320
      0.09651      1.48355     18.49274        -0.007043      0.001291     -0.000921
      9.86061      2.96738     18.67014        -0.002400      0.002464      0.001795
      9.79077      1.47309     22.03565         0.002588      0.002716     -0.002035
      0.01409      2.96308     21.67953         0.000576      0.000980      0.000407
      9.78220      4.45433      8.77661        -0.002327      0.000047     -3.418857
      0.00000      5.93911      8.77661         0.001117     -0.000040      2.830388
      0.00000      4.45433     12.03735         0.005092      0.000092      0.518970
      9.78220      5.93911     12.03735        -0.006502      0.000406     -0.722184
      9.78220      4.45433     15.29808        -0.034125      0.028877      0.606091
      0.00000      5.93911     15.29808         0.007430      0.000498     -0.687028
      0.08859      4.45334     18.49086         0.003536      0.000708      0.000908
      9.86081      5.93825     18.67765         0.003373     -0.000513      0.002481
      9.81508      4.43208     22.00734         0.001460     -0.001570     -0.001754
      0.02402      5.93858     21.67820        -0.001597     -0.000764      0.001959
      3.26073      7.42389      8.77661         0.002444     -0.000108     -3.416616
      6.52147      8.90866      8.77661        -0.000979      0.000296      2.836235
      6.52147      7.42389     12.03735        -0.004474      0.009656      0.540147
      3.26073      8.90866     12.03735         0.007048      0.000314     -0.708191
      3.26073      7.42389     15.29808         0.037270     -0.016083      0.654724
      6.52147      8.90866     15.29808        -0.016390     -0.038668     -0.566607
      6.61189      7.39791     18.52801         0.002777     -0.002795      0.001842
      3.34092      8.90724     18.67958        -0.001915     -0.004010      0.002275
      3.27971      7.42415     22.03900        -0.003490     -0.000577     -0.002059
      6.54729      8.90961     21.64226         0.000525     -0.002288     -0.001223
      3.26073     10.39344      8.77661         0.002536      0.000182     -3.416798
      6.52147      0.00000      8.77661        -0.000976      0.000032      2.836325
      6.52147     10.39344     12.03735        -0.004761     -0.000326      0.542252
      3.26073      0.00000     12.03735         0.007403     -0.000057     -0.708786
      3.26073     10.39344     15.29808         0.030765      0.004328      0.646044
      6.52147      0.00000     15.29808        -0.021557     -0.002359     -0.738683
      6.61587     10.38199     18.46232        -0.007808     -0.000441      0.003784
[...]
      6.52147      5.93911     13.31396         0.003106     -0.000862     -0.125406
      4.53735      4.45433     12.03735         0.420845      0.000228      0.054261
      8.50559      4.45433     12.03735        -0.415358      0.000160      0.056058
      3.26073      5.93911     14.02147        -0.009118      0.000687     -0.099103
      3.26073      5.93911     16.57469        -0.004041     -0.002705      0.006700
      7.79808      4.45433     15.29808        -0.421453      0.020035      0.054403
      5.24485      4.45433     15.29808         0.457435      0.020497      0.087166
      6.53841      5.93621     17.31061         0.000585     -0.000190     -0.007821
      6.52306      5.94324     19.88533        -0.001191     -0.000644      0.002684
      4.57011      4.45390     18.57836        -0.003445      0.002277     -0.000098
      8.49836      4.45379     18.59604        -0.003245     -0.003525     -0.000854
      3.28006      5.94330     20.55217         0.001338      0.000461      0.000182
      3.28932      5.93668     23.11850         0.000163      0.001371      0.002528
      7.79485      4.40717     21.85997         0.002787      0.000635      0.000469
      5.32064      4.44222     21.98607        -0.001489      0.000284      0.001225
    total drift:                               -0.007212     -0.004443     -0.011131

  FREE ENERGIE OF THE ION-ELECTRON SYSTEM (eV)
  free  energy   TOTEN  =     -2170.09671404 eV

  energy  without entropy=    -2170.09671404  energy(sigma->0) =    -2170.09671404

 d Force = 0.7396697E-04[ 0.522E-04, 0.957E-04]  d Energy = 0.5982134E-04 0.141E-04
 d Force = 0.1103670E+02[ 0.110E+02, 0.110E+02]  d Ewald  = 0.1103670E+02 0.132E-05

 Conjugate gradient step on ions:
 trial-energy change:   -0.000060  1 .order   -0.000074   -0.000096   -0.000052
  (g-gl).g = 0.137E-03      g.g   = 0.146E-03  gl.gl    = 0.200E-03
 g(Force)  = 0.146E-03   g(Stress)= 0.000E+00 ortho     = 0.160E-04
 gamma     =   0.68382
 trial     =   0.61115
 opt step  =   1.34561  (harmonic =   1.34561) maximal distance =0.00141959
 next E    = -2170.096760   (d E  =  -0.00011)

 reached required accuracy - stopping structural energy minimisation