 vasp.6.3.0 20Jan22 (build Apr  1 2022 16:44:48) complex
 executed on        HPECrayEX_GCC date 2022.12.21  11:38:03

 INCAR:
   SYSTEM = MgO-rocksalt
   ISMEAR = 0
   SIGMA = 0.05
   EDIFF = 1E-7
   ALGO = ALL
   ISTART = 0
   IBRION = 2
   NSW = 1000
   ISYM = 0
   ISIF = 2
   EDIFFG = -0.02
   DIPOL = 0.5 0.5 0.5
   IDIPOL = 3
   LDIPOL = .TRUE.
   LHFCALC = .TRUE.
   GGA = PE
   IVDW = 13
   VDW_S8 = 1.2007
   VDW_A1 = 0.4009
   VDW_A2 = 5.0293
   ENCUT = 600
   PREC = Accurate
   LASPH = .TRUE.
   LREAL = .FALSE.
   ISPIN = 1
   NELM = 200
   NELMIN = 8
   NCORE = 8
   KPAR = 1
   LWAVE = .FALSE.
   LCHARG = .FALSE.

 POTCAR:    PAW_PBE N 08Apr2002
 POTCAR:    PAW_PBE O 08Apr2002
 POTCAR:    PAW_PBE Mg_pv 13Apr2007
 POTCAR:    PAW_PBE O 08Apr2002
 POTCAR:    PAW_PBE N 08Apr2002
   VRHFIN =N: s2p3

   TITEL  = PAW_PBE N 08Apr2002
   POMASS =   14.001; ZVAL   =    5.000    mass and valenz
   ENMAX  =  400.000; ENMIN  =  300.000 eV

[...]

   TITEL  = PAW_PBE Mg_pv 13Apr2007
   POMASS =   24.305; ZVAL   =    8.000    mass and valenz
   ENMAX  =  403.929; ENMIN  =  302.947 eV

   TITEL  = PAW_PBE O 08Apr2002
   POMASS =   16.000; ZVAL   =    6.000    mass and valenz
   ENMAX  =  400.000; ENMIN  =  300.000 eV

  PAW_PBE N 08Apr2002                   :
  PAW_PBE O 08Apr2002                   :
  PAW_PBE Mg_pv 13Apr2007               :
  PAW_PBE O 08Apr2002                   :

 POSCAR:  N  O Mg  O
  positions in direct lattice
  velocities in cartesian coordinates
|           W    W    AA    RRRRR   N    N  II  N    N   GGGG   !!!           |
|           W    W   A  A   R    R  NN   N  II  NN   N  G    G  !!!           |
|           W    W  A    A  R    R  N N  N  II  N N  N  G       !!!           |
|           W WW W  AAAAAA  RRRRR   N  N N  II  N  N N  G  GGG   !            |
|           WW  WW  A    A  R   R   N   NN  II  N   NN  G    G                |
|           W    W  A    A  R    R  N    N  II  N    N   GGGG   !!!           |
|     Specifying the vdW parameters                                           |
|     VDW_S8 = 1.201                                                          |
|     VDW_A1 = 0.401                                                          |
|     VDW_A2 = 5.029                                                          |
|     in the INCAR file will overwrite the defaults for pbe0. Please make     |
|     sure that is what you intended.                                         |

 ion  position               nearest neighbor table
   1  0.550  0.550  0.754-   3 1.16
   2  0.702  0.702  0.754-   4 1.16
   3  0.523  0.523  0.806-   1 1.16
   4  0.730  0.730  0.806-   2 1.16
   5  0.250  0.000  0.353-  39 2.09  40 2.09  47 2.09  56 2.09  37 2.09
   6  0.500  0.250  0.353-  39 2.09  40 2.09  48 2.09  55 2.09  38 2.09
   7  0.250  0.250  0.451-  37 2.09  38 2.09  45 2.09  54 2.09  39 2.09  43 2.09
   8  0.500  0.000  0.451-  37 2.09  38 2.09  46 2.09  53 2.09  40 2.09  44 2.09
   9  0.250  0.000  0.550-  60 2.09  44 2.09  43 2.09  51 2.09  37 2.10  41 2.12
  10  0.500  0.250  0.550-  52 2.09  43 2.09  59 2.09  44 2.09  38 2.10  42 2.12
  11  0.250  0.250  0.647-  43 2.08  41 2.08  58 2.08  49 2.09  42 2.09
  12  0.500  0.001  0.647-  42 2.07  44 2.08  50 2.08  41 2.09  57 2.09
  13  0.250  0.500  0.353-  39 2.09  47 2.09  48 2.09  64 2.09  45 2.09
  14  0.500  0.750  0.353-  40 2.09  47 2.09  48 2.09  63 2.09  46 2.09
  15  0.250  0.750  0.451-  37 2.09  45 2.09  46 2.09  62 2.09  47 2.09  51 2.09
  16  0.500  0.500  0.451-  38 2.09  45 2.09  46 2.09  61 2.09  48 2.09  52 2.10
  17  0.250  0.500  0.550-  52 2.09  43 2.09  51 2.09  68 2.09  45 2.10  49 2.12
  18  0.500  0.750  0.550-  52 2.08  67 2.08  51 2.09  44 2.09  46 2.10  50 2.13
  19  0.249  0.750  0.647-  66 2.07  51 2.08  50 2.08  41 2.09  49 2.09
  20  0.498  0.498  0.649-  49 2.08  42 2.08  52 2.11  65 2.12  50 2.12
  21  0.750  0.000  0.353-  40 2.09  55 2.09  56 2.09  63 2.09  53 2.09
  22  0.000  0.250  0.353-  39 2.09  55 2.09  56 2.09  64 2.09  54 2.09
  23  0.750  0.250  0.451-  38 2.09  53 2.09  54 2.09  61 2.09  55 2.09  59 2.09
  24  0.000  0.000  0.451-  37 2.09  53 2.09  54 2.09  62 2.09  56 2.09  60 2.09
  25  0.750  1.000  0.550-  67 2.09  60 2.09  44 2.09  59 2.09  53 2.10  57 2.12
  26  0.000  0.250  0.550-  60 2.09  68 2.09  43 2.09  59 2.09  54 2.10  58 2.12
  27  0.750  0.249  0.647-  57 2.07  59 2.08  65 2.08  58 2.09  42 2.09
  28  0.000  0.000  0.647-  60 2.08  58 2.08  41 2.08  66 2.09  57 2.09
  29  0.750  0.500  0.353-  48 2.09  55 2.09  63 2.09  64 2.09  61 2.09
  30  0.000  0.750  0.353-  47 2.09  56 2.09  63 2.09  64 2.09  62 2.09
  31  0.750  0.750  0.451-  46 2.09  53 2.09  61 2.09  62 2.09  63 2.09  67 2.10
  32  0.000  0.500  0.451-  45 2.09  54 2.09  61 2.09  62 2.09  64 2.09  68 2.09
  33  0.750  0.500  0.550-  52 2.08  67 2.08  59 2.09  68 2.09  61 2.10  65 2.13
  34  1.000  0.750  0.550-  67 2.09  60 2.09  68 2.09  51 2.09  62 2.10  66 2.12
  35  0.752  0.752  0.649-  57 2.08  66 2.08  67 2.11  50 2.12  65 2.12
  36  0.001  0.500  0.647-  49 2.07  68 2.08  65 2.08  58 2.09  66 2.09
  37  0.250  0.000  0.451-   7 2.09   8 2.09  15 2.09  24 2.09   5 2.09   9 2.10
  38  0.500  0.250  0.451-   7 2.09   8 2.09  16 2.09  23 2.09   6 2.09  10 2.10
  39  0.250  0.250  0.353-   5 2.09   6 2.09  13 2.09  22 2.09   7 2.09
  40  0.500  0.000  0.353-   5 2.09   6 2.09  14 2.09  21 2.09   8 2.09
  41  0.250  0.000  0.649-  28 2.08  11 2.08  12 2.09  19 2.09   9 2.12
  42  0.500  0.249  0.649-  12 2.07  20 2.08  11 2.09  27 2.09  10 2.12
  43  0.250  0.250  0.549-  11 2.08  26 2.09   9 2.09  10 2.09  17 2.09   7 2.09
  44  0.500  1.000  0.549-  12 2.08   9 2.09  25 2.09  18 2.09  10 2.09   8 2.09
  45  0.250  0.500  0.451-   7 2.09  15 2.09  16 2.09  32 2.09  13 2.09  17 2.10
  46  0.500  0.750  0.451-   8 2.09  15 2.09  16 2.09  31 2.09  14 2.09  18 2.10
  47  0.250  0.750  0.353-   5 2.09  13 2.09  14 2.09  30 2.09  15 2.09
  48  0.500  0.500  0.353-   6 2.09  13 2.09  14 2.09  29 2.09  16 2.09
  49  0.249  0.500  0.649-  36 2.07  20 2.08  11 2.09  19 2.09  17 2.12
  50  0.498  0.752  0.650-  12 2.08  19 2.08  20 2.12  35 2.12  18 2.13
  51  0.250  0.750  0.549-  19 2.08   9 2.09  17 2.09  18 2.09  34 2.09  15 2.09
  52  0.500  0.500  0.550-  18 2.08  33 2.08  17 2.09  10 2.09  16 2.10  20 2.11
  53  0.750  0.000  0.451-   8 2.09  23 2.09  24 2.09  31 2.09  21 2.09  25 2.10
  54  0.000  0.250  0.451-   7 2.09  23 2.09  24 2.09  32 2.09  22 2.09  26 2.10
  55  0.750  0.250  0.353-   6 2.09  21 2.09  22 2.09  29 2.09  23 2.09
  56  0.000  0.000  0.353-   5 2.09  21 2.09  22 2.09  30 2.09  24 2.09
  57  0.750  0.001  0.649-  27 2.07  35 2.08  28 2.09  12 2.09  25 2.12
  58  0.000  0.250  0.649-  28 2.08  11 2.08  36 2.09  27 2.09  26 2.12
  59  0.750  0.250  0.549-  27 2.08  26 2.09  10 2.09  33 2.09  25 2.09  23 2.09
  60  0.000  0.000  0.549-  28 2.08  26 2.09   9 2.09  34 2.09  25 2.09  24 2.09
  61  0.750  0.500  0.451-  16 2.09  23 2.09  31 2.09  32 2.09  29 2.09  33 2.10
  62  0.000  0.750  0.451-  15 2.09  24 2.09  31 2.09  32 2.09  30 2.09  34 2.10
  63  0.750  0.750  0.353-  14 2.09  21 2.09  29 2.09  30 2.09  31 2.09
  64  0.000  0.500  0.353-  13 2.09  22 2.09  29 2.09  30 2.09  32 2.09
  65  0.752  0.498  0.650-  36 2.08  27 2.08  20 2.12  35 2.12  33 2.13
  66  0.001  0.750  0.649-  19 2.07  35 2.08  28 2.09  36 2.09  34 2.12
  67  0.750  0.750  0.550-  18 2.08  33 2.08  34 2.09  25 2.09  31 2.10  35 2.11
  68  1.000  0.500  0.549-  36 2.08  26 2.09  34 2.09  33 2.09  17 2.09  32 2.09

IMPORTANT INFORMATION: All symmetrisations will be switched off!
NOSYMM: (Re-)initialisation of all symmetry stuff for point group C_1.

                                     Primitive cell

  volume of cell :    1482.1129

  direct lattice vectors                    reciprocal lattice vectors
     8.349111827  0.000000000  0.000000000     0.119773219  0.000000000  0.000000000
     0.000000000  8.349111827  0.000000000     0.000000000  0.119773219  0.000000000
     0.000000000  0.000000000 21.261833870     0.000000000  0.000000000  0.047032632

  length of vectors
     8.349111827  8.349111827 21.261833870     0.119773219  0.119773219  0.047032632

  position of ions in fractional coordinates (direct lattice)
     0.549936708  0.549936772  0.753880774
     0.701703951  0.701703987  0.753661844
     0.522667930  0.522668142  0.806350074
     0.729679660  0.729679744  0.806007502
     0.250000000  0.000000000  0.352744737
     0.500000000  0.250000000  0.352744737
     0.250000000  0.250000000  0.450914912
     0.500000000  0.000000000  0.450914912
     0.250014731  0.000025218  0.549620577
     0.499987435  0.250257135  0.549770218
     0.249757913  0.249757892  0.647266550
     0.499747715  0.001023361  0.647054288
     0.250000000  0.500000000  0.352744737
     0.500000000  0.750000000  0.352744737
     0.250000000  0.750000000  0.450914912
     0.500000000  0.500000000  0.450914912
     0.250257112  0.499987533  0.549770190
     0.500323810  0.749700802  0.549829094
     0.249046081  0.750317527  0.647055533
     0.498355820  0.498355806  0.648996368
     0.750000000  0.000000000  0.352744737
     0.000000000  0.250000000  0.352744737
     0.750000000  0.250000000  0.450914912
     0.000000000  0.000000000  0.450914912
     0.750039187  0.999803541  0.549756024
     0.000025246  0.250014709  0.549620571
     0.750317508  0.249046114  0.647055557
     0.000313926  0.000313917  0.647257096
     0.750000000  0.500000000  0.352744737
     0.000000000  0.750000000  0.352744737
     0.750000000  0.750000000  0.450914912
     0.000000000  0.500000000  0.450914912
     0.749700778  0.500323757  0.549829083
     0.999803445  0.750039197  0.549755972
     0.751781777  0.751781804  0.648898738
     0.001023419  0.499747713  0.647054270
     0.250000000  0.000000000  0.450914912
     0.500000000  0.250000000  0.450914912
     0.250000000  0.250000000  0.352744737
     0.500000000  0.000000000  0.352744737
     0.249805553  0.000264767  0.649470288
     0.499861488  0.249007422  0.649311014
     0.250004749  0.250004808  0.549317763
     0.499990179  0.999815137  0.549351348
     0.250000000  0.500000000  0.450914912
     0.500000000  0.750000000  0.450914912
     0.250000000  0.750000000  0.352744737
     0.500000000  0.500000000  0.352744737
     0.249007493  0.499861442  0.649311032
     0.498414895  0.751710973  0.650042503
     0.250250233  0.750024652  0.549355164
     0.500214272  0.500214302  0.549906970
     0.750000000  0.000000000  0.450914912
     0.000000000  0.250000000  0.450914912
     0.750000000  0.250000000  0.352744737
     0.000000000  0.000000000  0.352744737
     0.750209923  0.001113953  0.649267916
     0.000264772  0.249805517  0.649470270
     0.750024664  0.250250282  0.549355161
     0.000047512  0.000047491  0.549309389
     0.750000000  0.500000000  0.450914912
     0.000000000  0.750000000  0.450914912
     0.750000000  0.750000000  0.352744737
     0.000000000  0.500000000  0.352744737
     0.751710982  0.498414921  0.650042487
     0.001113974  0.750209945  0.649267918
     0.749829181  0.749829220  0.549884109
     0.999815149  0.499990252  0.549351328

[...]
   6.26183387  2.08727796  9.58727796
   0.00000000  0.00000000  9.58727796
   6.26216105  8.34747156 11.68882125
   0.00021078  2.08740077 11.68594127
   6.26448478  2.07931386 13.75758777
   0.00262101  0.00262093 13.76187285
   6.26183387  4.17455591  7.50000000
   0.00000000  6.26183387  7.50000000
   6.26183387  6.26183387  9.58727796
   0.00000000  4.17455591  9.58727796
   6.25933563  4.17725900 11.69037462
   8.34747077  6.26216113 11.68882014
   6.27671012  6.27671035 13.79677717
   0.00854464  4.17244954 13.75756040
   2.08727796  0.00000000  9.58727796
   4.17455591  2.08727796  9.58727796
   2.08727796  2.08727796  7.50000000
   4.17455591  0.00000000  7.50000000
   2.08565450  0.00221057 13.80892936
   4.17339946  2.07899081 13.80554292
   2.08731761  2.08731810 11.67950302
   4.17447391  8.34756839 11.68021710
   2.08727796  4.17455591  9.58727796
   4.17455591  6.26183387  9.58727796
   2.08727796  6.26183387  7.50000000
   4.17455591  4.17455591  7.50000000
   2.07899140  4.17339908 13.80554330
   4.16132169  6.27611897 13.82109571
   2.08936718  6.26203969 11.68029823
   4.17634489  4.17634515 11.69203063
   6.26183387  0.00000000  9.58727796
   0.00000000  2.08727796  9.58727796
   6.26183387  2.08727796  7.50000000
   0.00000000  0.00000000  7.50000000
   6.26358654  0.00930052 13.80462658
   0.00221061  2.08565419 13.80892899
   6.26203979  2.08936759 11.68029818
   0.00039668  0.00039651 11.67932497
   6.26183387  4.17455591  9.58727796
   0.00000000  6.26183387  9.58727796
   6.26183387  6.26183387  7.50000000
   0.00000000  4.17455591  7.50000000
   6.27611905  4.16132191 13.82109536
   0.00930069  6.26358673 13.80462661
   6.26040768  6.26040801 11.69154457
   8.34756848  4.17447452 11.68021667

--------------------------------------- Iteration      FINAL  ---------------------------------------

--------------------OUTCAR has been truncated-------------------------

[...]

--------------------OUTCAR has been truncated-------------------------

  FORCE on cell =-STRESS in cart. coord.  units (eV):
  Direction    XX          YY          ZZ          XY          YZ          ZX
  Alpha Z   969.95739   969.95739   969.95739
  Ewald  160456.68344160456.68322************   339.84007     0.74663     0.74629
  Hartree171258.75864171258.75850************   247.28979    -0.06243    -0.06250
  E(xc)   -1934.83409 -1934.83409 -1936.73128     0.38604     0.00200     0.00200
  Local  ************************340556.07735  -603.50183    -0.48339    -0.48302
  n-local  -763.65995  -763.65995  -801.35502    -6.95739    -0.01053    -0.01064
  augment   840.21569   840.21569   828.28065     2.43068    -0.00872    -0.00859
  Kinetic  7803.11660  7803.11660  7798.45607    22.14334    -0.23704    -0.23704
  Fock    -2538.87486 -2538.87486 -2539.29810    -1.67908    -0.00706    -0.00706
  vdW        -9.27460    -9.27462    -6.60856     0.03548    -0.00015    -0.00015
  Total     -29.34367   -29.34368    -2.63854    -0.01289    -0.06070    -0.06071
  in kB     -31.72077   -31.72078    -2.85229    -0.01394    -0.06562    -0.06562

 VOLUME and BASIS-vectors are now :
  energy-cutoff  :      600.00
  volume of cell :     1482.11
      direct lattice vectors                 reciprocal lattice vectors
     8.349111827  0.000000000  0.000000000     0.119773219  0.000000000  0.000000000
     0.000000000  8.349111827  0.000000000     0.000000000  0.119773219  0.000000000
     0.000000000  0.000000000 21.261833870     0.000000000  0.000000000  0.047032632

  length of vectors
     8.349111827  8.349111827 21.261833870     0.119773219  0.119773219  0.047032632

 FORCES acting on ions:
    Electron-Ion                     Ewald-Force                    Non-Local-Force
   0.536E+02 0.536E+02 -.113E+04   -.532E+02 -.532E+02 0.109E+04   -.396E+00 -.396E+00 0.389E+02
   -.523E+02 -.523E+02 -.113E+04   0.516E+02 0.516E+02 0.109E+04   0.598E+00 0.598E+00 0.389E+02
   0.145E+03 0.145E+03 -.164E+04   -.160E+03 -.160E+03 0.171E+04   0.120E+02 0.120E+02 -.524E+02
   -.147E+03 -.147E+03 -.164E+04   0.161E+03 0.161E+03 0.171E+04   -.123E+02 -.123E+02 -.523E+02
   0.198E+00 -.208E+00 0.216E+04   -.199E+00 0.209E+00 -.215E+04   0.636E-03 -.805E-03 -.683E+01
   0.208E+00 0.198E+00 0.216E+04   -.209E+00 -.198E+00 -.215E+04   0.789E-03 -.476E-03 -.683E+01
   0.750E+00 0.750E+00 0.778E+03   -.753E+00 -.753E+00 -.778E+03   0.250E-02 0.250E-02 0.402E+00
   0.794E+00 -.109E+01 0.779E+03   -.800E+00 0.108E+01 -.780E+03   0.393E-02 0.781E-02 0.412E+00
   0.434E+01 -.442E+01 -.597E+03   -.434E+01 0.443E+01 0.597E+03   0.514E-02 -.738E-02 -.163E+00
   0.449E+01 0.646E+01 -.587E+03   -.450E+01 -.640E+01 0.587E+03   0.786E-02 -.573E-01 -.339E+00
   0.219E+02 0.219E+02 -.199E+04   -.220E+02 -.220E+02 0.198E+04   0.109E+00 0.109E+00 0.580E+01
   0.242E+02 -.305E+02 -.196E+04   -.243E+02 0.308E+02 0.196E+04   0.101E+00 -.297E+00 0.582E+01
   0.198E+00 0.208E+00 0.216E+04   -.198E+00 -.209E+00 -.215E+04   -.475E-03 0.789E-03 -.683E+01
   0.212E+00 -.200E+00 0.216E+04   -.211E+00 0.199E+00 -.215E+04   -.472E-03 0.552E-03 -.683E+01
   0.105E+01 -.749E+00 0.779E+03   -.104E+01 0.753E+00 -.780E+03   -.104E-01 -.338E-02 0.413E+00
   0.112E+01 0.112E+01 0.780E+03   -.111E+01 -.111E+01 -.781E+03   -.687E-02 -.687E-02 0.579E+00
   0.646E+01 0.449E+01 -.587E+03   -.640E+01 -.450E+01 0.587E+03   -.573E-01 0.784E-02 -.339E+00
   0.678E+01 -.663E+01 -.576E+03   -.672E+01 0.656E+01 0.576E+03   -.559E-01 0.651E-01 0.922E-01
   0.299E+02 -.238E+02 -.196E+04   -.303E+02 0.239E+02 0.196E+04   0.312E+00 -.100E+00 0.582E+01
   0.449E+02 0.449E+02 -.184E+04   -.456E+02 -.456E+02 0.184E+04   0.546E+00 0.546E+00 0.380E+01
   -.198E+00 -.210E+00 0.216E+04   0.199E+00 0.210E+00 -.215E+04   -.718E-03 0.238E-03 -.682E+01
   -.208E+00 0.198E+00 0.216E+04   0.209E+00 -.199E+00 -.215E+04   -.805E-03 0.636E-03 -.683E+01
   -.749E+00 0.105E+01 0.779E+03   0.753E+00 -.104E+01 -.780E+03   -.338E-02 -.104E-01 0.413E+00
   -.790E+00 -.790E+00 0.778E+03   0.797E+00 0.797E+00 -.778E+03   -.470E-02 -.471E-02 0.399E+00
   -.439E+01 -.665E+01 -.586E+03   0.440E+01 0.659E+01 0.587E+03   -.656E-02 0.516E-01 -.345E+00
   -.442E+01 0.434E+01 -.597E+03   0.443E+01 -.434E+01 0.597E+03   -.739E-02 0.515E-02 -.163E+00
   -.238E+02 0.299E+02 -.196E+04   0.239E+02 -.303E+02 0.196E+04   -.100E+00 0.312E+00 0.582E+01
   -.223E+02 -.223E+02 -.199E+04   0.225E+02 0.225E+02 0.198E+04   -.110E+00 -.110E+00 0.581E+01
   -.200E+00 0.212E+00 0.216E+04   0.199E+00 -.211E+00 -.215E+04   0.552E-03 -.472E-03 -.683E+01
   -.210E+00 -.198E+00 0.216E+04   0.210E+00 0.199E+00 -.215E+04   0.238E-03 -.718E-03 -.682E+01
   -.107E+01 -.107E+01 0.780E+03   0.106E+01 0.106E+01 -.781E+03   0.674E-02 0.673E-02 0.574E+00
   -.109E+01 0.795E+00 0.779E+03   0.108E+01 -.800E+00 -.780E+03   0.781E-02 0.393E-02 0.412E+00
   -.663E+01 0.678E+01 -.576E+03   0.656E+01 -.672E+01 0.576E+03   0.651E-01 -.559E-01 0.922E-01
   -.665E+01 -.439E+01 -.586E+03   0.659E+01 0.440E+01 0.587E+03   0.516E-01 -.656E-02 -.345E+00
   -.444E+02 -.444E+02 -.184E+04   0.450E+02 0.450E+02 0.184E+04   -.551E+00 -.551E+00 0.375E+01
   -.305E+02 0.242E+02 -.196E+04   0.308E+02 -.243E+02 0.196E+04   -.297E+00 0.101E+00 0.582E+01
   0.623E+00 -.647E+00 0.583E+03   -.625E+00 0.647E+00 -.583E+03   0.257E-02 -.803E-03 -.105E+00
   0.650E+00 0.635E+00 0.584E+03   -.651E+00 -.664E+00 -.584E+03   0.188E-02 0.355E-01 -.104E+00
   0.138E+00 0.138E+00 0.162E+04   -.139E+00 -.139E+00 -.162E+04   0.126E-02 0.126E-02 0.300E+01
   0.146E+00 -.170E+00 0.162E+04   -.147E+00 0.170E+00 -.162E+04   0.159E-02 0.351E-03 0.300E+01
   0.117E+02 -.119E+02 -.152E+04   -.117E+02 0.118E+02 0.152E+04   -.696E-01 0.696E-01 -.455E+01
   0.135E+02 0.326E+02 -.149E+04   -.134E+02 -.324E+02 0.149E+04   -.750E-01 -.179E+00 -.456E+01
   0.378E+01 0.378E+01 -.441E+03   -.378E+01 -.378E+01 0.441E+03   -.142E-02 -.143E-02 0.258E+00
   0.390E+01 -.439E+01 -.434E+03   -.389E+01 0.440E+01 0.434E+03   -.828E-02 -.113E-01 0.337E+00
   0.634E+00 0.650E+00 0.584E+03   -.664E+00 -.651E+00 -.584E+03   0.355E-01 0.188E-02 -.104E+00
   0.700E+00 -.659E+00 0.585E+03   -.735E+00 0.691E+00 -.585E+03   0.402E-01 -.381E-01 -.117E+00
   0.162E+00 -.138E+00 0.162E+04   -.162E+00 0.139E+00 -.162E+04   -.549E-03 -.124E-02 0.300E+01
   0.171E+00 0.171E+00 0.162E+04   -.171E+00 -.171E+00 -.162E+04   -.482E-03 -.482E-03 0.301E+01
   0.326E+02 0.135E+02 -.149E+04   -.324E+02 -.134E+02 0.149E+04   -.179E+00 -.750E-01 -.456E+01
   0.426E+02 -.420E+02 -.142E+04   -.423E+02 0.417E+02 0.143E+04   -.298E+00 0.296E+00 -.413E+01
   0.431E+01 -.382E+01 -.434E+03   -.432E+01 0.381E+01 0.434E+03   0.122E-01 0.829E-02 0.335E+00
   0.460E+01 0.460E+01 -.430E+03   -.462E+01 -.462E+01 0.430E+03   0.148E-01 0.148E-01 -.413E-01
   -.619E+00 -.673E+00 0.584E+03   0.619E+00 0.700E+00 -.584E+03   0.141E-03 -.316E-01 -.101E+00
   -.647E+00 0.623E+00 0.583E+03   0.647E+00 -.625E+00 -.583E+03   -.802E-03 0.257E-02 -.105E+00
   -.138E+00 0.162E+00 0.162E+04   0.139E+00 -.162E+00 -.162E+04   -.124E-02 -.548E-03 0.300E+01
   -.146E+00 -.146E+00 0.162E+04   0.147E+00 0.147E+00 -.162E+04   -.150E-02 -.150E-02 0.300E+01
   -.133E+02 -.331E+02 -.148E+04   0.132E+02 0.329E+02 0.149E+04   0.777E-01 0.181E+00 -.456E+01
   -.119E+02 0.117E+02 -.152E+04   0.118E+02 -.117E+02 0.152E+04   0.696E-01 -.696E-01 -.455E+01
   -.382E+01 0.431E+01 -.434E+03   0.381E+01 -.432E+01 0.434E+03   0.829E-02 0.122E-01 0.335E+00
   -.386E+01 -.386E+01 -.441E+03   0.386E+01 0.386E+01 0.440E+03   0.336E-02 0.336E-02 0.256E+00
   -.659E+00 0.700E+00 0.585E+03   0.691E+00 -.735E+00 -.585E+03   -.381E-01 0.402E-01 -.117E+00
   -.673E+00 -.619E+00 0.584E+03   0.700E+00 0.619E+00 -.584E+03   -.316E-01 0.142E-03 -.100E+00
   -.163E+00 -.163E+00 0.162E+04   0.163E+00 0.163E+00 -.162E+04   0.870E-03 0.869E-03 0.301E+01
   -.170E+00 0.146E+00 0.162E+04   0.170E+00 -.147E+00 -.162E+04   0.351E-03 0.159E-02 0.300E+01
   -.420E+02 0.426E+02 -.142E+04   0.417E+02 -.423E+02 0.143E+04   0.296E+00 -.298E+00 -.413E+01
   -.331E+02 -.133E+02 -.148E+04   0.329E+02 0.132E+02 0.149E+04   0.181E+00 0.777E-01 -.456E+01
   -.448E+01 -.448E+01 -.429E+03   0.449E+01 0.449E+01 0.429E+03   -.137E-01 -.137E-01 -.220E-01
   -.439E+01 0.390E+01 -.434E+03   0.440E+01 -.389E+01 0.434E+03   -.113E-01 -.828E-02 0.337E+00
   0.822E-01 0.823E-01 0.601E+02   0.284E-12 -.426E-12 -.227E-12   -.596E-01 -.597E-01 -.476E+02

 POSITION                                       TOTAL-FORCE (eV/Angst)
      4.59155      4.59155     16.02879         0.007021      0.007021      0.012672
      5.85857      5.85857     16.02396        -0.000118     -0.000118     -0.000654
      4.36373      4.36373     17.14465        -0.007500     -0.007501     -0.002145
      6.09218      6.09218     17.13741        -0.007497     -0.007496     -0.007534
      2.08728      0.00000      7.50000        -0.000247      0.000331      0.428347
      4.17456      2.08728      7.50000        -0.000318      0.000045      0.426404
      2.08728      2.08728      9.58728        -0.000326     -0.000325      0.059347
      4.17456      0.00000      9.58728        -0.000853     -0.002876      0.066415
      2.08740      0.00021     11.68593         0.000233     -0.000121     -0.001063
      4.17447      2.08944     11.68913         0.002577      0.003381      0.000831
      2.08526      2.08526     13.76208         0.001005      0.001005      0.000552
      4.17245      0.00854     13.75756         0.000682      0.000269     -0.000264
      2.08728      4.17456      7.50000         0.000045     -0.000318      0.426403
      4.17456      6.26183      7.50000         0.000051     -0.000069      0.426837
      2.08728      6.26183      9.58728         0.004118      0.000754      0.066253
      4.17456      4.17456      9.58728         0.001968      0.001967      0.076825
      2.08944      4.17447     11.68913         0.003381      0.002570      0.000837
      4.17727      6.25933     11.69038         0.001754     -0.001643      0.001243
      2.07932      6.26448     13.75758         0.000865     -0.000302     -0.000314
      4.16083      4.16083     13.79884         0.000771      0.000773     -0.001594
      6.26183      0.00000      7.50000         0.000301      0.000062      0.426210
      0.00000      2.08728      7.50000         0.000330     -0.000247      0.428347
      6.26183      2.08728      9.58728         0.000752      0.004117      0.066254
      0.00000      0.00000      9.58728         0.001337      0.001336      0.058964
      6.26215      8.34746     11.68883        -0.002147     -0.001804      0.000878
      0.00021      2.08740     11.68593        -0.000121      0.000238     -0.001063
      6.26448      2.07932     13.75758        -0.000302      0.000864     -0.000318
      0.00262      0.00262     13.76187        -0.000798     -0.000798     -0.000197
      6.26183      4.17456      7.50000        -0.000069      0.000051      0.426837
      0.00000      6.26183      7.50000         0.000061      0.000301      0.426209
      6.26183      6.26183      9.58728        -0.001744     -0.001742      0.075629
      0.00000      4.17456      9.58728        -0.002877     -0.000855      0.066414
      6.25933      4.17727     11.69038        -0.001641      0.001759      0.001245
      8.34746      6.26215     11.68882        -0.001799     -0.002147      0.000889
      6.27671      6.27671     13.79677         0.000101      0.000098     -0.000829
      0.00854      4.17245     13.75756         0.000267      0.000681     -0.000264
      2.08728      0.00000      9.58728         0.001149     -0.000624      0.057231
      4.17456      2.08728      9.58728         0.001170      0.012112      0.076430
      2.08728      2.08728      7.50000         0.000432      0.000432     -0.565258
      4.17456      0.00000      7.50000         0.000545      0.000152     -0.564296
      2.08566      0.00220     13.80893         0.001720     -0.001810     -0.000559
      4.17340      2.07899     13.80553         0.000371     -0.000598     -0.002635
      2.08732      2.08732     11.67952         0.001226      0.001221      0.002753
      4.17448      8.34756     11.68021         0.001879     -0.002439     -0.000830
      2.08728      4.17456      9.58728         0.012112      0.001171      0.076428
      4.17456      6.26183      9.58728         0.013399     -0.012716      0.077386
      2.08728      6.26183      7.50000        -0.000198     -0.000401     -0.564284
      4.17456      4.17456      7.50000        -0.000179     -0.000179     -0.563851
      2.07899      4.17340     13.80553        -0.000603      0.000374     -0.002639
      4.16133      6.27610     13.82107         0.001052     -0.002969     -0.003993
      2.08937      6.26204     11.68029         0.001320     -0.000494     -0.001945
      4.17635      4.17635     11.69204         0.001596      0.001595      0.002396
      6.26183      0.00000      9.58728        -0.000529     -0.010844      0.076101
      0.00000      2.08728      9.58728        -0.000624      0.001149      0.057230
      6.26183      2.08728      7.50000        -0.000400     -0.000197     -0.564284
      0.00000      0.00000      7.50000        -0.000495     -0.000495     -0.565168
      6.26359      0.00930     13.80462         0.000223     -0.000293     -0.002229
      0.00220      2.08566     13.80893        -0.001811      0.001722     -0.000556
      6.26204      2.08937     11.68029        -0.000497      0.001316     -0.001942
      0.00039      0.00039     11.67934        -0.001976     -0.001974      0.002534
      6.26183      4.17456      9.58728        -0.012716      0.013400      0.077386
      0.00000      6.26183      9.58728        -0.010844     -0.000529      0.076098
      6.26183      6.26183      7.50000         0.000338      0.000338     -0.563721
      0.00000      4.17456      7.50000         0.000153      0.000545     -0.564295
      6.27610      4.16133     13.82107        -0.002969      0.001050     -0.003992
      0.00930      6.26359     13.80462        -0.000295      0.000221     -0.002231
      6.26040      6.26040     11.69156        -0.001367     -0.001369      0.002959
      8.34756      4.17449     11.68021        -0.002441      0.001874     -0.000827
    total drift:                               -0.000676     -0.000674      0.005003

  FREE ENERGIE OF THE ION-ELECTRON SYSTEM (eV)
  free  energy   TOTEN  =      -507.62454031 eV

  energy  without entropy=     -507.62454031  energy(sigma->0) =     -507.62454031

 d Force = 0.1100979E-02[-0.344E-05, 0.221E-02]  d Energy = 0.1106318E-02-0.534E-05
 d Force =-0.6443915E+00[-0.652E+00,-0.637E+00]  d Ewald  =-0.6443838E+00-0.772E-05

 reached required accuracy - stopping structural energy minimisation