 vasp.6.4.2 20Jul23 (build Nov 17 2023 15:39:20) complex
 executed on              LinuxNV date 2024.02.27  19:39:11
 OpenACC runtime initialized ...    4 GPUs detected

 INCAR:
   SYSTEM = Oxide-Surface
   ISMEAR = 0
   SIGMA = 0.05
   EDIFF = 1E-4
   ALGO = Normal
   ISTART = 2
   IBRION = -1
   NSW = 0
   ISYM = 0
   DIPOL = 0.5 0.5 0.5
   IDIPOL = 3
   LDIPOL = .TRUE.
   LHFCALC = .TRUE.
   GGA = PE
   IVDW = 21
   VDW_SR = 0.96
   ENCUT = 450
   PREC = Normal
   LASPH = .TRUE.
   LREAL = Auto
   ISPIN = 1
   NELM = 200
   NELMIN = 8
   NCORE = 1
   KPAR = 1
   LWAVE = .FALSE.
   LCHARG = .FALSE.

 POTCAR:    PAW_PBE C 08Apr2002
 POTCAR:    PAW_PBE H 15Jun2001
 POTCAR:    PAW_PBE Mg_pv 13Apr2007
 POTCAR:    PAW_PBE O 08Apr2002
 POTCAR:    PAW_PBE C 08Apr2002
   VRHFIN =C: s2p2

   TITEL  = PAW_PBE C 08Apr2002
   POMASS =   12.011; ZVAL   =    4.000    mass and valenz
   ENMAX  =  400.000; ENMIN  =  300.000 eV

   TITEL  = PAW_PBE H 15Jun2001
   POMASS =    1.000; ZVAL   =    1.000    mass and valenz
   ENMAX  =  250.000; ENMIN  =  200.000 eV

   TITEL  = PAW_PBE Mg_pv 13Apr2007
   POMASS =   24.305; ZVAL   =    8.000    mass and valenz
   ENMAX  =  403.929; ENMIN  =  302.947 eV

   TITEL  = PAW_PBE O 08Apr2002
   POMASS =   16.000; ZVAL   =    6.000    mass and valenz
   ENMAX  =  400.000; ENMIN  =  300.000 eV

 Optimization of the real space projectors (new method)

 maximal supplied QI-value         = 25.13
 optimisation between [QCUT,QGAM] = [ 10.81, 21.61] = [ 32.71,130.83] Ry
 Optimized for a Real-space Cutoff    1.23 Angstroem

   l    n(q)    QCUT    max X(q) W(low)/X(q) W(high)/X(q)  e(spline)
   0      8    10.807   115.676    0.36E-03    0.72E-03    0.24E-06
   0      8    10.807    87.132    0.35E-03    0.71E-03    0.24E-06
   1      7    10.807     4.429    0.19E-03    0.39E-03    0.11E-06
   1      7    10.807     2.733    0.14E-03    0.28E-03    0.13E-06
 Optimization of the real space projectors (new method)

[...]

   l    n(q)    QCUT    max X(q) W(low)/X(q) W(high)/X(q)  e(spline)
   1      7    10.771     2.974    0.18E-03    0.56E-05    0.13E-06
   1      7    10.771     4.279    0.39E-03    0.94E-04    0.28E-06
   0      8    10.771    16.381    0.27E-03    0.38E-03    0.44E-07
   0      8    10.771     5.611    0.18E-03    0.26E-03    0.32E-07
   2      7    10.771     4.652    0.12E-03    0.23E-03    0.45E-07
 Optimization of the real space projectors (new method)

 maximal supplied QI-value         = 24.76
 optimisation between [QCUT,QGAM] = [ 10.64, 21.54] = [ 31.73,129.89] Ry
 Optimized for a Real-space Cutoff    1.23 Angstroem

   l    n(q)    QCUT    max X(q) W(low)/X(q) W(high)/X(q)  e(spline)
   0      8    10.645    20.381    0.38E-03    0.60E-03    0.15E-06
   0      8    10.645    15.268    0.40E-03    0.65E-03    0.17E-06
   1      7    10.645     5.964    0.30E-03    0.63E-03    0.18E-06
   1      7    10.645     5.382    0.24E-03    0.53E-03    0.16E-06
  PAW_PBE C 08Apr2002                   :
  PAW_PBE H 15Jun2001                   :
  PAW_PBE Mg_pv 13Apr2007               :
  PAW_PBE O 08Apr2002                   :

 POSCAR:  C  H Mg  O
  positions in direct lattice
 exchange correlation table for  LEXCH =        8
   RHO(1)=    0.500       N(1)  =     2000
   RHO(2)=  100.500       N(2)  =     4000

 ion  position               nearest neighbor table
   1  0.500  0.500  0.796-   3 1.10   2 1.10   4 1.10   5 1.10
   2  0.500  0.606  0.825-   1 1.10
   3  0.500  0.394  0.825-   1 1.10
   4  0.607  0.500  0.766-   1 1.10
   5  0.393  0.500  0.766-   1 1.10
   6  0.000  0.750  0.352-  38 2.11  40 2.11  41 2.11  48 2.11  57 2.11
   7  0.250  0.000  0.352-  39 2.11  40 2.11  41 2.11  49 2.11  56 2.11
   8  0.000  0.000  0.451-  40 2.11  39 2.11  38 2.11  46 2.11  55 2.11  44 2.12
   9  0.250  0.750  0.451-  41 2.11  39 2.11  38 2.11  47 2.11  54 2.11  45 2.12
  10  0.000  0.750  0.550-  61 2.11  45 2.11  44 2.11  52 2.11  38 2.12  42 2.15
  11  0.250  1.000  0.550-  53 2.11  45 2.11  44 2.11  60 2.11  39 2.12  43 2.15
  12  0.000  1.000  0.649-  44 2.11  59 2.11  43 2.11  42 2.11  50 2.11
  13  0.250  0.750  0.649-  45 2.11  58 2.11  43 2.11  51 2.11  42 2.11
  14  0.000  0.250  0.352-  46 2.11  40 2.11  48 2.11  49 2.11  65 2.11
  15  0.250  0.500  0.352-  47 2.11  41 2.11  48 2.11  49 2.11  64 2.11
  16  0.000  0.500  0.451-  48 2.11  46 2.11  47 2.11  38 2.11  63 2.11  52 2.12
  17  0.250  0.250  0.451-  49 2.11  46 2.11  47 2.11  39 2.11  62 2.11  53 2.12
  18  0.000  0.250  0.550-  53 2.11  69 2.11  44 2.11  52 2.11  46 2.12  50 2.15
  19  0.250  0.500  0.550-  68 2.11  45 2.11  53 2.11  52 2.11  47 2.12  51 2.15
  20  0.000  0.500  0.649-  52 2.11  67 2.11  51 2.11  42 2.11  50 2.11
  21  0.250  0.250  0.649-  53 2.11  66 2.11  43 2.11  51 2.11  50 2.11
  22  0.500  0.750  0.352-  54 2.11  41 2.11  56 2.11  57 2.11  64 2.11
  23  0.750  0.000  0.352-  55 2.11  40 2.11  56 2.11  57 2.11  65 2.11
  24  0.500  0.000  0.451-  56 2.11  54 2.11  55 2.11  39 2.11  62 2.11  60 2.12
  25  0.750  0.750  0.451-  57 2.11  54 2.11  55 2.11  38 2.11  63 2.11  61 2.12
  26  0.500  0.750  0.550-  68 2.11  45 2.11  61 2.11  60 2.11  54 2.13  58 2.15
  27  0.750  0.000  0.550-  69 2.11  61 2.11  44 2.11  60 2.11  55 2.12  59 2.15
  28  0.500  1.000  0.649-  66 2.11  58 2.11  60 2.11  43 2.11  59 2.11
  29  0.750  0.750  0.649-  61 2.11  58 2.11  59 2.11  67 2.11  42 2.11
  30  0.500  0.250  0.352-  62 2.11  56 2.11  49 2.11  64 2.11  65 2.11
  31  0.750  0.500  0.352-  63 2.11  57 2.11  48 2.11  64 2.11  65 2.11
  32  0.500  0.500  0.451-  64 2.11  54 2.11  62 2.11  63 2.11  47 2.11  68 2.12
  33  0.750  0.250  0.451-  65 2.11  55 2.11  62 2.11  63 2.11  46 2.11  69 2.12
  34  0.500  0.250  0.550-  68 2.11  53 2.11  69 2.11  60 2.11  62 2.13  66 2.15
  35  0.750  0.500  0.550-  68 2.11  61 2.11  69 2.11  52 2.11  63 2.12  67 2.15
  36  0.500  0.500  0.649-  66 2.11  58 2.11  51 2.11  67 2.11  68 2.12
  37  0.750  0.250  0.649-  69 2.11  66 2.11  59 2.11  67 2.11  50 2.11
  38  0.000  0.750  0.451-   6 2.11   8 2.11   9 2.11  16 2.11  25 2.11  10 2.12
  39  0.250  0.000  0.451-   7 2.11   8 2.11   9 2.11  17 2.11  24 2.11  11 2.12
  40  0.000  0.000  0.352-   8 2.11   7 2.11   6 2.11  14 2.11  23 2.11
  41  0.250  0.750  0.352-   9 2.11   7 2.11   6 2.11  15 2.11  22 2.11
  42  0.000  0.750  0.651-  12 2.11  20 2.11  29 2.11  13 2.11  10 2.15
  43  0.250  0.000  0.651-  21 2.11  13 2.11  12 2.11  28 2.11  11 2.15
  44  0.000  1.000  0.550-  10 2.11  18 2.11  12 2.11  11 2.11  27 2.11   8 2.12
  45  0.250  0.750  0.550-  13 2.11  10 2.11  11 2.11  19 2.11  26 2.11   9 2.12
  46  0.000  0.250  0.451-  14 2.11   8 2.11  16 2.11  17 2.11  33 2.11  18 2.12
  47  0.250  0.500  0.451-  15 2.11   9 2.11  16 2.11  17 2.11  32 2.11  19 2.12
  48  0.000  0.500  0.352-  16 2.11  14 2.11  15 2.11   6 2.11  31 2.11
  49  0.250  0.250  0.352-  17 2.11  14 2.11  15 2.11   7 2.11  30 2.11
  50  0.000  0.250  0.651-  12 2.11  20 2.11  21 2.11  37 2.11  18 2.15
  51  0.250  0.500  0.651-  20 2.11  21 2.11  13 2.11  36 2.11  19 2.15
  52  0.000  0.500  0.550-  20 2.11  10 2.11  18 2.11  19 2.11  35 2.11  16 2.12
  53  0.250  0.250  0.550-  21 2.11  18 2.11  11 2.11  19 2.11  34 2.11  17 2.12
  54  0.500  0.750  0.451-  22 2.11   9 2.11  24 2.11  25 2.11  32 2.11  26 2.13
  55  0.750  0.000  0.451-  23 2.11   8 2.11  24 2.11  25 2.11  33 2.11  27 2.12
  56  0.500  0.000  0.352-  24 2.11  22 2.11  23 2.11   7 2.11  30 2.11
  57  0.750  0.750  0.352-  25 2.11  22 2.11  23 2.11   6 2.11  31 2.11
  58  0.500  0.750  0.651-  28 2.11  13 2.11  29 2.11  36 2.11  26 2.15
  59  0.750  0.000  0.651-  37 2.11  29 2.11  12 2.11  28 2.11  27 2.15
  60  0.500  1.000  0.550-  28 2.11  27 2.11  11 2.11  26 2.11  34 2.11  24 2.12
  61  0.750  0.750  0.550-  29 2.11  10 2.11  27 2.11  35 2.11  26 2.11  25 2.12
  62  0.500  0.250  0.451-  30 2.11  24 2.11  17 2.11  32 2.11  33 2.11  34 2.13
  63  0.750  0.500  0.451-  31 2.11  25 2.11  16 2.11  32 2.11  33 2.11  35 2.12
  64  0.500  0.500  0.352-  32 2.11  22 2.11  30 2.11  31 2.11  15 2.11
  65  0.750  0.250  0.352-  33 2.11  23 2.11  30 2.11  31 2.11  14 2.11
  66  0.500  0.250  0.651-  28 2.11  21 2.11  37 2.11  36 2.11  34 2.15
  67  0.750  0.500  0.651-  20 2.11  29 2.11  37 2.11  36 2.11  35 2.15
  68  0.500  0.500  0.550-  35 2.11  19 2.11  34 2.11  26 2.11  36 2.12  32 2.12
  69  0.750  0.250  0.550-  37 2.11  18 2.11  27 2.11  35 2.11  34 2.11  33 2.12

IMPORTANT INFORMATION: All symmetrisations will be switched off!
NOSYMM: (Re-)initialisation of all symmetry stuff for point group C_1.

                                     Primitive cell

  volume of cell :    1519.8199

  direct lattice vectors                    reciprocal lattice vectors
     8.440984654  0.000000000  0.000000000     0.118469591  0.000000000  0.000000000
     0.000000000  8.440984654  0.000000000     0.000000000  0.118469591  0.000000000
     0.000000000  0.000000000 21.330738491     0.000000000  0.000000000  0.046880702

  length of vectors
     8.440984654  8.440984654 21.330738491     0.118469591  0.118469591  0.046880702

  position of ions in fractional coordinates (direct lattice)
     0.500000022  0.499997701  0.795765481
     0.499999966  0.606400245  0.825294148
     0.499999960  0.393601765  0.825293628
     0.607088423  0.500000081  0.766452828
     0.392911520  0.500000085  0.766452812
     0.000000000  0.750000000  0.351605267
     0.250000000  0.000000000  0.351605267
     0.000000000  0.000000000  0.450535089
     0.250000000  0.750000000  0.450535089
     0.000000003  0.750032167  0.550141647
     0.249992769  0.999999998  0.550135640
     0.000000010  0.999999991  0.648847037
     0.250116514  0.750097339  0.648710816
     0.000000000  0.250000000  0.351605267
     0.250000000  0.500000000  0.351605267
     0.000000000  0.500000000  0.450535089
     0.250000000  0.250000000  0.450535089
     0.000000007  0.249967822  0.550141651
     0.250108445  0.500000001  0.550153757
     0.000000011  0.499999994  0.648675549
     0.250116504  0.249902631  0.648710813
     0.500000000  0.750000000  0.351605267
     0.750000000  0.000000000  0.351605267
     0.500000000  0.000000000  0.450535089
     0.750000000  0.750000000  0.450535089
     0.499999994  0.749901112  0.550182719
     0.750007254  0.000000005  0.550135636
     0.500000006  0.999999998  0.648747779
     0.749883526  0.750097344  0.648710829
     0.500000000  0.250000000  0.351605267
     0.750000000  0.500000000  0.351605267
     0.500000000  0.500000000  0.450535089
     0.750000000  0.250000000  0.450535089
     0.500000001  0.250098874  0.550182703
     0.749891587  0.499999991  0.550153763
     0.500000014  0.499999988  0.649279172
     0.749883523  0.249902625  0.648710829
     0.000000000  0.750000000  0.450535089
     0.250000000  0.000000000  0.450535089
     0.000000000  0.000000000  0.351605267
     0.250000000  0.750000000  0.351605267
     0.000000011  0.750041776  0.650981394
     0.249939864  0.000000003  0.651016895
     0.000000015  0.999999981  0.549923091
     0.249924098  0.750012792  0.549866046
     0.000000000  0.250000000  0.450535089
     0.250000000  0.500000000  0.450535089
[...]
   O         238.738          5.032         21.125          3.91198858
   O         195.571          4.868         19.120          3.54069741
   O         195.574          4.868         19.120          3.54072689
   O         191.203          4.849         18.905          3.50093651
   O         193.982          4.861         19.042          3.52628593
   O         241.662          5.042         21.254          3.93586881
   O         242.528          5.045         21.292          3.94291426

  vdW correction parametrized for the method YÔ5    þ

  IVDW =  21
  VDW_RADIUS =    50.000 A
  VDW_IDAMPF =  0
  VDW_S6 =     1.000
  VDW_SR =     0.960
  VDW_D =    20.000
  LVDW_ONECELL = F F F
  LVDW_SAMETYPE T T T T
  LVDW_EWALD = F

  Number of pair interactions contributing to vdW energy:  838418
  Edisp (eV):   -3.97306

 VOLUME and BASIS-vectors are now :
  energy-cutoff  :      450.00
  volume of cell :     1519.82
      direct lattice vectors                 reciprocal lattice vectors
     8.440984654  0.000000000  0.000000000     0.118469591  0.000000000  0.000000000
     0.000000000  8.440984654  0.000000000     0.000000000  0.118469591  0.000000000
     0.000000000  0.000000000 21.330738491     0.000000000  0.000000000  0.046880702

  length of vectors
     8.440984654  8.440984654 21.330738491     0.118469591  0.118469591  0.046880702

 FORCES acting on ions
    electron-ion (+dipol)            ewald-force                    non-local-force                 convergence-correction
   0.860E-05 -.835E-03 -.932E+03   -.191E-04 0.142E-02 0.932E+03   -.159E-04 0.889E-03 -.147E+00   0.728E-06 -.346E-05 0.137E+00
   0.204E-04 -.430E+02 -.231E+03   -.216E-04 0.474E+02 0.234E+03   0.277E-05 -.437E+01 -.306E+01   0.131E-06 0.679E-04 0.312E-01
   0.228E-04 0.430E+02 -.231E+03   -.245E-04 -.474E+02 0.234E+03   0.297E-05 0.437E+01 -.306E+01   0.153E-06 -.680E-04 0.312E-01
   -.432E+02 -.833E-03 -.235E+03   0.477E+02 0.885E-03 0.232E+03   -.443E+01 -.117E-03 0.295E+01   -.893E-04 -.487E-06 0.361E-01
   0.432E+02 -.834E-03 -.235E+03   -.477E+02 0.887E-03 0.232E+03   0.443E+01 -.117E-03 0.295E+01   0.896E-04 -.466E-06 0.361E-01
   0.753E-06 -.144E+00 0.208E+04   -.251E-05 0.144E+00 -.207E+04   -.832E-06 -.330E-03 -.674E+01   0.275E-05 -.132E-04 -.237E+00
   0.139E+00 0.227E-05 0.208E+04   -.139E+00 -.297E-05 -.207E+04   -.197E-05 0.925E-07 -.674E+01   0.705E-05 0.490E-06 -.237E+00
   0.640E-05 -.254E-05 0.707E+03   -.610E-05 0.103E-05 -.707E+03   -.192E-06 0.734E-06 0.512E+00   0.780E-06 0.805E-06 -.106E+00
   0.554E+00 -.601E+00 0.708E+03   -.553E+00 0.602E+00 -.709E+03   -.417E-03 -.366E-03 0.495E+00   0.165E-04 -.671E-04 -.106E+00
   0.186E-04 -.231E+01 -.652E+03   -.193E-04 0.232E+01 0.653E+03   0.189E-05 -.672E-02 -.157E+00   -.129E-05 -.207E-03 0.623E-01
   0.229E+01 0.400E-04 -.652E+03   -.229E+01 -.401E-04 0.653E+03   -.362E-02 -.371E-06 -.142E+00   0.388E-04 0.763E-06 0.622E-01
   -.197E-04 0.657E-04 -.201E+04   0.194E-04 -.665E-04 0.201E+04   0.206E-05 0.476E-06 0.573E+01   -.162E-05 -.106E-06 0.208E+00
   0.147E+02 -.148E+02 -.200E+04   -.146E+02 0.149E+02 0.199E+04   -.274E-01 -.504E-01 0.574E+01   0.149E-03 -.601E-03 0.208E+00
   0.121E-05 0.144E+00 0.208E+04   -.234E-05 -.144E+00 -.207E+04   -.233E-06 0.329E-03 -.674E+01   0.161E-05 0.125E-04 -.237E+00
   0.145E+00 -.387E-05 0.208E+04   -.144E+00 0.287E-05 -.207E+04   -.673E-03 0.194E-06 -.674E+01   0.563E-05 0.711E-06 -.237E+00
   0.152E-04 0.493E-06 0.708E+03   -.154E-04 -.836E-06 -.709E+03   0.177E-06 -.709E-06 0.479E+00   0.370E-07 0.489E-06 -.106E+00
   0.554E+00 0.601E+00 0.708E+03   -.553E+00 -.602E+00 -.709E+03   -.416E-03 0.366E-03 0.495E+00   0.166E-04 0.674E-04 -.106E+00
   0.373E-04 0.231E+01 -.652E+03   -.348E-04 -.232E+01 0.653E+03   -.850E-06 0.672E-02 -.157E+00   -.150E-05 0.206E-03 0.623E-01
   0.388E+01 -.167E-04 -.646E+03   -.386E+01 0.167E-04 0.646E+03   -.252E-01 0.179E-06 -.152E+00   0.991E-04 -.550E-06 0.628E-01
   -.344E-04 -.565E-04 -.200E+04   0.334E-04 0.567E-04 0.199E+04   0.292E-05 -.390E-06 0.571E+01   -.146E-05 0.375E-06 0.208E+00
   0.147E+02 0.148E+02 -.200E+04   -.146E+02 -.149E+02 0.199E+04   -.274E-01 0.504E-01 0.574E+01   0.150E-03 0.602E-03 0.208E+00
   -.110E-05 -.149E+00 0.208E+04   0.274E-05 0.149E+00 -.207E+04   0.806E-06 0.348E-03 -.675E+01   -.248E-05 -.108E-04 -.237E+00
   -.139E+00 0.312E-05 0.208E+04   0.139E+00 -.330E-05 -.207E+04   0.243E-05 -.788E-06 -.674E+01   -.651E-05 0.708E-06 -.237E+00
   -.408E-05 0.247E-04 0.708E+03   0.536E-05 -.265E-04 -.709E+03   -.430E-06 0.208E-05 0.466E+00   -.852E-06 -.955E-06 -.106E+00
   -.554E+00 -.601E+00 0.708E+03   0.553E+00 0.602E+00 -.709E+03   0.417E-03 -.365E-03 0.495E+00   -.166E-04 -.676E-04 -.106E+00
   -.673E-04 -.395E+01 -.646E+03   0.685E-04 0.393E+01 0.646E+03   -.164E-06 0.203E-01 -.277E+00   0.133E-05 -.272E-03 0.626E-01
   -.229E+01 0.785E-04 -.652E+03   0.229E+01 -.769E-04 0.653E+03   0.362E-02 -.278E-05 -.142E+00   -.387E-04 0.120E-07 0.622E-01
   -.527E-04 0.150E-03 -.200E+04   0.492E-04 -.141E-03 0.200E+04   0.284E-05 -.711E-05 0.573E+01   0.954E-06 0.384E-06 0.207E+00
   -.147E+02 -.148E+02 -.200E+04   0.146E+02 0.149E+02 0.199E+04   0.274E-01 -.504E-01 0.574E+01   -.149E-03 -.603E-03 0.208E+00
   -.680E-06 0.149E+00 0.208E+04   0.235E-05 -.149E+00 -.207E+04   0.258E-07 -.349E-03 -.675E+01   -.181E-05 0.105E-04 -.237E+00
   -.145E+00 -.277E-05 0.208E+04   0.144E+00 0.313E-05 -.207E+04   0.673E-03 0.646E-06 -.674E+01   -.645E-05 -.110E-05 -.237E+00
   -.148E-04 -.257E-04 0.709E+03   0.163E-04 0.270E-04 -.710E+03   -.376E-06 -.115E-05 0.520E+00   -.305E-06 0.491E-06 -.106E+00
   -.554E+00 0.601E+00 0.708E+03   0.553E+00 -.602E+00 -.709E+03   0.416E-03 0.366E-03 0.495E+00   -.154E-04 0.673E-04 -.106E+00
   -.257E-04 0.395E+01 -.646E+03   0.282E-04 -.393E+01 0.646E+03   -.153E-05 -.203E-01 -.277E+00   -.316E-06 0.273E-03 0.626E-01
   -.388E+01 -.268E-04 -.646E+03   0.386E+01 0.286E-04 0.646E+03   0.252E-01 -.138E-05 -.152E+00   -.993E-04 -.845E-07 0.628E-01
   -.527E-04 -.256E-03 -.195E+04   0.463E-04 0.238E-03 0.194E+04   0.335E-05 0.111E-04 0.553E+01   0.250E-05 -.325E-06 0.211E+00
   -.147E+02 0.148E+02 -.200E+04   0.146E+02 -.149E+02 0.199E+04   0.274E-01 0.504E-01 0.574E+01   -.149E-03 0.602E-03 0.208E+00
   0.809E-05 -.436E+00 0.530E+03   -.831E-05 0.430E+00 -.530E+03   0.111E-06 0.700E-02 -.715E-01   0.767E-07 -.493E-04 -.770E-01
   0.427E+00 0.876E-05 0.530E+03   -.419E+00 -.932E-05 -.530E+03   -.970E-02 -.434E-06 -.683E-01   0.104E-04 0.432E-06 -.771E-01
   0.307E-06 0.808E-06 0.156E+04   -.130E-05 -.115E-05 -.156E+04   -.703E-06 -.134E-05 0.310E+01   0.136E-05 0.928E-06 -.178E+00
   0.106E+00 -.110E+00 0.156E+04   -.105E+00 0.110E+00 -.156E+04   -.596E-03 -.577E-04 0.310E+01   0.630E-05 -.120E-04 -.178E+00
   -.244E-04 -.613E+01 -.153E+04   0.279E-04 0.612E+01 0.153E+04   -.816E-06 0.245E-02 -.452E+01   -.144E-05 -.141E-03 0.158E+00
   0.588E+01 0.109E-03 -.153E+04   -.587E+01 -.109E-03 0.153E+04   -.128E-03 -.376E-06 -.453E+01   -.107E-03 -.117E-05 0.158E+00
   0.175E-04 -.231E-06 -.486E+03   -.150E-04 -.190E-05 0.485E+03   -.242E-05 0.290E-05 0.228E+00   -.594E-06 0.291E-06 0.458E-01
   0.229E+01 -.230E+01 -.481E+03   -.227E+01 0.230E+01 0.481E+03   -.145E-01 0.203E-02 0.266E+00   0.672E-04 -.204E-03 0.458E-01
   0.105E-04 0.436E+00 0.530E+03   -.942E-05 -.430E+00 -.530E+03   -.368E-08 -.700E-02 -.715E-01   -.885E-06 0.485E-04 -.770E-01
   0.462E+00 -.832E-05 0.531E+03   -.470E+00 0.758E-05 -.531E+03   0.950E-02 -.699E-06 -.690E-01   0.157E-04 0.771E-06 -.770E-01
   0.417E-07 -.134E-05 0.156E+04   -.224E-05 0.108E-05 -.156E+04   -.502E-06 -.136E-06 0.310E+01   0.236E-05 0.358E-07 -.178E+00
   0.106E+00 0.110E+00 0.156E+04   -.105E+00 -.110E+00 -.156E+04   -.596E-03 0.575E-04 0.310E+01   0.742E-05 0.108E-04 -.178E+00
   0.273E-05 0.613E+01 -.153E+04   -.101E-05 -.612E+01 0.153E+04   0.722E-07 -.246E-02 -.452E+01   -.158E-05 0.141E-03 0.158E+00
   0.189E+02 -.999E-04 -.150E+04   -.188E+02 0.934E-04 0.151E+04   -.608E-01 0.834E-05 -.446E+01   0.701E-03 -.327E-06 0.159E+00
   0.111E-04 -.271E-05 -.482E+03   -.963E-05 0.212E-05 0.481E+03   -.253E-05 0.763E-06 0.279E+00   0.102E-07 -.621E-06 0.459E-01
   0.229E+01 0.230E+01 -.481E+03   -.227E+01 -.230E+01 0.481E+03   -.145E-01 -.203E-02 0.266E+00   0.673E-04 0.207E-03 0.458E-01
   -.124E-04 -.474E+00 0.531E+03   0.130E-04 0.485E+00 -.531E+03   -.528E-06 -.126E-01 -.794E-01   0.760E-07 -.566E-04 -.770E-01
   -.427E+00 0.133E-04 0.530E+03   0.419E+00 -.137E-04 -.530E+03   0.970E-02 -.397E-07 -.683E-01   -.990E-05 0.418E-06 -.771E-01
   -.234E-06 0.442E-05 0.156E+04   0.137E-05 -.357E-05 -.156E+04   0.369E-06 -.271E-07 0.310E+01   -.122E-05 -.263E-06 -.178E+00
   -.106E+00 -.110E+00 0.156E+04   0.105E+00 0.110E+00 -.156E+04   0.596E-03 -.574E-04 0.310E+01   -.604E-05 -.114E-04 -.178E+00
   -.509E-04 -.187E+02 -.150E+04   0.541E-04 0.186E+02 0.151E+04   -.138E-05 0.765E-01 -.457E+01   -.174E-06 -.854E-03 0.158E+00
   -.588E+01 0.117E-03 -.153E+04   0.587E+01 -.118E-03 0.153E+04   0.129E-03 0.175E-06 -.453E+01   0.106E-03 -.150E-06 0.158E+00
   -.214E-04 0.340E-04 -.482E+03   0.246E-04 -.343E-04 0.481E+03   -.293E-05 -.402E-06 0.243E+00   -.300E-06 0.435E-06 0.457E-01
   -.229E+01 -.230E+01 -.481E+03   0.227E+01 0.230E+01 0.481E+03   0.145E-01 0.203E-02 0.266E+00   -.670E-04 -.206E-03 0.458E-01
   -.708E-05 0.474E+00 0.531E+03   0.802E-05 -.485E+00 -.531E+03   0.184E-06 0.126E-01 -.794E-01   -.608E-06 0.595E-04 -.770E-01
   -.462E+00 -.116E-04 0.531E+03   0.470E+00 0.103E-04 -.531E+03   -.950E-02 -.115E-05 -.690E-01   -.158E-04 0.147E-05 -.770E-01
   -.162E-05 -.195E-05 0.156E+04   0.236E-05 0.350E-05 -.156E+04   0.389E-06 -.193E-06 0.310E+01   -.112E-05 -.854E-06 -.178E+00
   -.106E+00 0.110E+00 0.156E+04   0.105E+00 -.110E+00 -.156E+04   0.595E-03 0.577E-04 0.310E+01   -.554E-05 0.109E-04 -.178E+00
   -.283E-04 0.187E+02 -.150E+04   0.290E-04 -.186E+02 0.151E+04   0.293E-06 -.765E-01 -.457E+01   0.108E-06 0.851E-03 0.158E+00
   -.189E+02 -.923E-04 -.150E+04   0.188E+02 0.859E-04 0.151E+04   0.608E-01 0.722E-05 -.446E+01   -.702E-03 0.116E-06 0.159E+00
   -.308E-04 -.380E-04 -.477E+03   0.316E-04 0.362E-04 0.477E+03   -.371E-05 0.253E-05 0.116E+00   0.162E-05 -.507E-07 0.463E-01
   -.229E+01 0.230E+01 -.481E+03   0.227E+01 -.230E+01 0.481E+03   0.145E-01 -.203E-02 0.266E+00   -.658E-04 0.205E-03 0.458E-01
   0.127E-04 -.124E-02 0.198E+02   -.544E-12 0.163E-12 -.682E-12   -.157E-04 0.119E-02 -.162E+02   0.161E-06 -.264E-05 -.716E+00

 POSITION                                       TOTAL-FORCE (eV/Angst)
      4.22049      4.22047     16.97427        -0.000027      0.001533      0.010039
      4.22049      5.11862     17.60413         0.000002     -0.212164     -0.150792
      4.22049      3.32239     17.60412         0.000002      0.210802     -0.149942
      5.12442      4.22049     16.34900        -0.183688     -0.000072      0.139251
      3.31656      4.22049     16.34900         0.183711     -0.000071      0.139264
      0.00000      6.33074      7.50000         0.000000      0.000093      0.501741
      2.11025      0.00000      7.50000         0.000066     -0.000000      0.501744
      0.00000      0.00000      9.61025         0.000001     -0.000000      0.023704
      2.11025      6.33074      9.61025         0.000641     -0.000008      0.023637
      0.00000      6.33101     11.73493         0.000000     -0.001418      0.046481
      2.11019      8.44098     11.73480         0.002923     -0.000000      0.046537
      0.00000      8.44098     13.84039         0.000000     -0.000001     -0.123908
      2.11123      6.33156     13.83748        -0.004204      0.007154     -0.125205
      0.00000      2.11025      7.50000         0.000000     -0.000093      0.501741
      2.11025      4.22049      7.50000         0.000205     -0.000001      0.502239
      0.00000      4.22049      9.61025         0.000000     -0.000001      0.025416
      2.11025      2.11025      9.61025         0.000641      0.000008      0.023637
      0.00000      2.10997     11.73493         0.000000      0.001417      0.046481
      2.11116      4.22049     11.73519         0.000688     -0.000001      0.048346
      0.00000      4.22049     13.83673         0.000001     -0.000000     -0.121650
      2.11123      2.10942     13.83748        -0.004200     -0.007153     -0.125197
      4.22049      6.33074      7.50000         0.000000     -0.000067      0.503081
      6.33074      0.00000      7.50000        -0.000065     -0.000001      0.501744
      4.22049      0.00000      9.61025         0.000000     -0.000001      0.027887
      6.33074      6.33074      9.61025        -0.000642     -0.000008      0.023637
      4.22049      6.32990     11.73580         0.000002      0.001905      0.048832
      6.33080      0.00000     11.73480        -0.002923     -0.000002      0.046537
      4.22049      8.44098     13.83827         0.000001      0.000001     -0.126858
      6.32976      6.33156     13.83748         0.004203      0.007155     -0.125201
      4.22049      2.11025      7.50000        -0.000000      0.000066      0.503082
      6.33074      4.22049      7.50000        -0.000204     -0.000000      0.502239
      4.22049      4.22049      9.61025         0.000001     -0.000000      0.026575
      6.33074      2.11025      9.61025        -0.000641      0.000008      0.023637
      4.22049      2.11108     11.73580         0.000000     -0.001905      0.048831
      6.32982      4.22049     11.73519        -0.000690     -0.000000      0.048351
      4.22049      4.22049     13.84960        -0.000000     -0.000006     -0.099153
      6.32976      2.10942     13.83748         0.004200     -0.007153     -0.125193
      0.00000      6.33074      9.61025         0.000000      0.002356      0.085114
      2.11025      0.00000      9.61025        -0.003344     -0.000001      0.085848
      0.00000      0.00000      7.50000        -0.000000     -0.000001     -0.422676
      2.11025      6.33074      7.50000        -0.000177     -0.000047     -0.422490
      0.00000      6.33109     13.88591         0.000001     -0.007748     -0.118018
      2.10974      0.00000     13.88667         0.006981     -0.000001     -0.124322
      0.00000      8.44098     11.73027        -0.000001      0.000001      0.001356
      2.10961      6.33085     11.72905        -0.000459     -0.001339      0.011797
      0.00000      2.11025      9.61025         0.000000     -0.002357      0.085112
      2.11025      4.22049      9.61025         0.003063     -0.000001      0.087358
      0.00000      4.22049      7.50000        -0.000000     -0.000001     -0.422416
      2.11025      2.11025      7.50000        -0.000177      0.000047     -0.422490
      0.00000      2.10989     13.88591         0.000000      0.007747     -0.118015
      2.10813      4.22049     13.88636        -0.013709      0.000003     -0.121554
      0.00000      4.22049     11.72825        -0.000001     -0.000001      0.016715
      2.10961      2.11014     11.72905        -0.000460      0.001336      0.011796
      4.22049      6.33074      9.61025         0.000000     -0.004107      0.086579
      6.33074      0.00000      9.61025         0.003343     -0.000000      0.085846
      4.22049      0.00000      7.50000         0.000000      0.000000     -0.422871
      6.33074      6.33074      7.50000         0.000176     -0.000047     -0.422490
      4.22049      6.33193     13.88124         0.000002      0.021869     -0.134964
      6.33125      0.00000     13.88667        -0.006982     -0.000002     -0.124323
      4.22049      8.44098     11.72805        -0.000001     -0.000001      0.012103
      6.33138      6.33085     11.72905         0.000460     -0.001337      0.011797
      4.22049      2.11025      9.61025         0.000001      0.004103      0.086578
      6.33074      4.22049      9.61025        -0.003062     -0.000002      0.087358
      4.22049      4.22049      7.50000         0.000000      0.000000     -0.422926
      6.33074      2.11025      7.50000         0.000176      0.000047     -0.422491
      4.22049      2.10905     13.88124         0.000001     -0.021871     -0.134966
      6.33285      4.22049     13.88636         0.013707      0.000002     -0.121556
      4.22049      4.22049     11.73184        -0.000002      0.000001     -0.000177
      6.33138      2.11014     11.72905         0.000462      0.001338      0.011795
    total drift:                               -0.000003      0.000028      0.085839

  FREE ENERGIE OF THE ION-ELECTRON SYSTEM (eV)
  free  energy   TOTEN  =      -496.72339924 eV

  energy  without entropy=     -496.72339924  energy(sigma->0) =     -496.72339924