 vasp.6.4.2 20Jul23 (build Nov 17 2023 15:39:20) complex
 executed on              LinuxNV date 2024.02.27  20:18:28
 OpenACC runtime initialized ...    4 GPUs detected

 INCAR:
   SYSTEM = Oxide-Surface
   ISMEAR = 0
   SIGMA = 0.05
   EDIFF = 1E-4
   ALGO = Normal
   ISTART = 2
   IBRION = -1
   NSW = 0
   ISYM = 0
   DIPOL = 0.5 0.5 0.5
   IDIPOL = 3
   LDIPOL = .TRUE.
   LHFCALC = .TRUE.
   GGA = PE
   IVDW = 21
   VDW_SR = 0.96
   ENCUT = 450
   PREC = Normal
   LASPH = .TRUE.
   LREAL = Auto
   ISPIN = 1
   NELM = 200
   NELMIN = 8
   NCORE = 1
   KPAR = 1
   LWAVE = .FALSE.
   LCHARG = .FALSE.

 POTCAR:    PAW_PBE Mg_pv 13Apr2007
 POTCAR:    PAW_PBE O 08Apr2002
 POTCAR:    PAW_PBE Mg_pv 13Apr2007
   VRHFIN =Mg: p6s2

   TITEL  = PAW_PBE Mg_pv 13Apr2007
   POMASS =   24.305; ZVAL   =    8.000    mass and valenz
   ENMAX  =  403.929; ENMIN  =  302.947 eV

   TITEL  = PAW_PBE O 08Apr2002
   POMASS =   16.000; ZVAL   =    6.000    mass and valenz
   ENMAX  =  400.000; ENMIN  =  300.000 eV

 Optimization of the real space projectors (new method)

 maximal supplied QI-value         = 18.90
 optimisation between [QCUT,QGAM] = [ 10.77, 21.73] = [ 32.49,132.25] Ry
 Optimized for a Real-space Cutoff    1.23 Angstroem

   l    n(q)    QCUT    max X(q) W(low)/X(q) W(high)/X(q)  e(spline)
   1      7    10.771     2.974    0.18E-03    0.56E-05    0.13E-06
   1      7    10.771     4.279    0.39E-03    0.94E-04    0.28E-06
   0      8    10.771    16.381    0.27E-03    0.38E-03    0.44E-07
   0      8    10.771     5.611    0.18E-03    0.26E-03    0.32E-07
   2      7    10.771     4.652    0.12E-03    0.23E-03    0.45E-07
 Optimization of the real space projectors (new method)

 maximal supplied QI-value         = 24.76
 optimisation between [QCUT,QGAM] = [ 10.64, 21.54] = [ 31.73,129.89] Ry
 Optimized for a Real-space Cutoff    1.23 Angstroem

   l    n(q)    QCUT    max X(q) W(low)/X(q) W(high)/X(q)  e(spline)
   0      8    10.645    20.381    0.38E-03    0.60E-03    0.15E-06
   0      8    10.645    15.268    0.40E-03    0.65E-03    0.17E-06
   1      7    10.645     5.964    0.30E-03    0.63E-03    0.18E-06
   1      7    10.645     5.382    0.24E-03    0.53E-03    0.16E-06
  PAW_PBE Mg_pv 13Apr2007               :
  PAW_PBE O 08Apr2002                   :

 POSCAR: Mg  O
  positions in direct lattice
 exchange correlation table for  LEXCH =        8
   RHO(1)=    0.500       N(1)  =     2000
   RHO(2)=  100.500       N(2)  =     4000

 ion  position               nearest neighbor table
   1  0.000  0.750  0.352-  33 2.11  35 2.11  36 2.11  43 2.11  52 2.11
   2  0.250  0.000  0.352-  34 2.11  35 2.11  36 2.11  44 2.11  51 2.11
   3  0.000  0.000  0.451-  35 2.11  34 2.11  33 2.11  41 2.11  50 2.11  39 2.12
   4  0.250  0.750  0.451-  36 2.11  34 2.11  33 2.11  42 2.11  49 2.11  40 2.12
   5  1.000  0.750  0.550-  56 2.11  39 2.11  47 2.11  40 2.11  33 2.13  37 2.14
   6  0.250  1.000  0.550-  39 2.11  48 2.11  55 2.11  40 2.11  34 2.13  38 2.15
   7  0.000  0.000  0.649-  54 2.11  37 2.11  39 2.11  45 2.11  38 2.11
   8  0.250  0.750  0.649-  37 2.11  40 2.11  46 2.11  53 2.11  38 2.11
   9  0.000  0.250  0.352-  41 2.11  35 2.11  43 2.11  44 2.11  60 2.11
  10  0.250  0.500  0.352-  42 2.11  36 2.11  43 2.11  44 2.11  59 2.11
  11  0.000  0.500  0.451-  43 2.11  41 2.11  42 2.11  33 2.11  58 2.11  47 2.12
  12  0.250  0.250  0.451-  44 2.11  41 2.11  42 2.11  34 2.11  57 2.11  48 2.12
  13  0.000  0.250  0.550-  39 2.11  47 2.11  48 2.11  64 2.11  41 2.13  45 2.15
  14  0.250  0.500  0.550-  47 2.11  48 2.11  40 2.11  63 2.11  42 2.12  46 2.15
  15  0.000  0.500  0.649-  46 2.11  47 2.11  37 2.11  45 2.11  62 2.12
  16  0.250  0.250  0.649-  46 2.11  61 2.11  45 2.11  38 2.11  48 2.11
  17  0.500  0.750  0.352-  49 2.11  36 2.11  51 2.11  52 2.11  59 2.11
  18  0.750  0.000  0.352-  50 2.11  35 2.11  51 2.11  52 2.11  60 2.11
  19  0.500  0.000  0.451-  51 2.11  49 2.11  50 2.11  34 2.11  57 2.11  55 2.12
  20  0.750  0.750  0.451-  52 2.11  49 2.11  50 2.11  33 2.11  58 2.11  56 2.12
  21  0.500  0.750  0.550-  56 2.11  55 2.11  63 2.11  40 2.11  49 2.13  53 2.16
  22  0.750  1.000  0.550-  56 2.11  39 2.11  55 2.11  64 2.11  50 2.13  54 2.14
  23  0.500  0.000  0.649-  61 2.11  55 2.11  54 2.11  38 2.11  53 2.11
  24  0.751  0.751  0.650-  37 2.11  54 2.11  62 2.12  53 2.12  56 2.12
  25  0.500  0.250  0.352-  57 2.11  51 2.11  44 2.11  59 2.11  60 2.11
  26  0.750  0.500  0.352-  58 2.11  52 2.11  43 2.11  59 2.11  60 2.11
  27  0.500  0.500  0.451-  59 2.11  49 2.11  57 2.11  58 2.11  42 2.11  63 2.12
  28  0.750  0.250  0.451-  60 2.11  50 2.11  57 2.11  58 2.11  41 2.11  64 2.12
  29  0.500  0.250  0.550-  55 2.11  48 2.11  64 2.11  63 2.11  57 2.12  61 2.15
  30  0.750  0.500  0.550-  56 2.11  47 2.11  63 2.11  64 2.11  58 2.13  62 2.16
  31  0.499  0.499  0.648-  63 2.10  46 2.10  61 2.10  62 2.12  53 2.12
  32  0.750  0.250  0.649-  54 2.11  64 2.11  61 2.11  62 2.11  45 2.11
  33  0.000  0.750  0.451-   1 2.11   3 2.11   4 2.11  11 2.11  20 2.11   5 2.13
  34  0.250  0.000  0.451-   2 2.11   3 2.11   4 2.11  12 2.11  19 2.11   6 2.13
  35  0.000  0.000  0.352-   3 2.11   2 2.11   1 2.11   9 2.11  18 2.11
  36  0.250  0.750  0.352-   4 2.11   2 2.11   1 2.11  10 2.11  17 2.11
  37  0.000  0.750  0.651-   8 2.11  24 2.11  15 2.11   7 2.11   5 2.14
  38  0.250  1.000  0.651-  16 2.11   7 2.11  23 2.11   8 2.11   6 2.15
  39  0.000  0.000  0.550-   6 2.11  13 2.11  22 2.11   7 2.11   5 2.11   3 2.12
  40  0.250  0.750  0.550-   8 2.11   6 2.11  21 2.11  14 2.11   5 2.11   4 2.12
  41  0.000  0.250  0.451-   9 2.11   3 2.11  11 2.11  12 2.11  28 2.11  13 2.13
  42  0.250  0.500  0.451-  10 2.11   4 2.11  11 2.11  12 2.11  27 2.11  14 2.12
  43  0.000  0.500  0.352-  11 2.11   9 2.11  10 2.11   1 2.11  26 2.11
  44  0.250  0.250  0.352-  12 2.11   9 2.11  10 2.11   2 2.11  25 2.11
  45  1.000  0.250  0.651-  16 2.11   7 2.11  15 2.11  32 2.11  13 2.15
  46  0.250  0.500  0.651-  31 2.10  15 2.11  16 2.11   8 2.11  14 2.15
  47  1.000  0.500  0.550-  30 2.11  15 2.11  13 2.11  14 2.11   5 2.11  11 2.12
  48  0.250  0.250  0.550-   6 2.11  13 2.11  29 2.11  14 2.11  16 2.11  12 2.12
  49  0.500  0.750  0.451-  17 2.11   4 2.11  19 2.11  20 2.11  27 2.11  21 2.13
  50  0.750  0.000  0.451-  18 2.11   3 2.11  19 2.11  20 2.11  28 2.11  22 2.13
  51  0.500  0.000  0.352-  19 2.11  17 2.11  18 2.11   2 2.11  25 2.11
  52  0.750  0.750  0.352-  20 2.11  17 2.11  18 2.11   1 2.11  26 2.11
  53  0.500  0.750  0.651-   8 2.11  23 2.11  31 2.12  24 2.12  21 2.16
  54  0.750  0.001  0.651-  32 2.11  24 2.11  23 2.11   7 2.11  22 2.14
  55  0.500  1.000  0.550-  23 2.11  21 2.11  29 2.11   6 2.11  22 2.11  19 2.12
  56  0.750  0.750  0.550-  30 2.11  21 2.11   5 2.11  22 2.11  24 2.12  20 2.12
  57  0.500  0.250  0.451-  25 2.11  19 2.11  12 2.11  27 2.11  28 2.11  29 2.12
  58  0.750  0.500  0.451-  26 2.11  20 2.11  11 2.11  27 2.11  28 2.11  30 2.13
  59  0.500  0.500  0.352-  27 2.11  17 2.11  25 2.11  26 2.11  10 2.11
  60  0.750  0.250  0.352-  28 2.11  18 2.11  25 2.11  26 2.11   9 2.11
  61  0.500  0.250  0.651-  31 2.10  23 2.11  16 2.11  32 2.11  29 2.15
  62  0.750  0.500  0.651-  32 2.11  15 2.12  31 2.12  24 2.12  30 2.16
  63  0.500  0.500  0.550-  31 2.10  30 2.11  21 2.11  29 2.11  14 2.11  27 2.12
  64  0.750  0.250  0.550-  32 2.11  13 2.11  30 2.11  29 2.11  22 2.11  28 2.12

IMPORTANT INFORMATION: All symmetrisations will be switched off!
NOSYMM: (Re-)initialisation of all symmetry stuff for point group C_1.

                                     Primitive cell

  volume of cell :    1519.8199

  direct lattice vectors                    reciprocal lattice vectors
     8.440984654  0.000000000  0.000000000     0.118469591  0.000000000  0.000000000
     0.000000000  8.440984654  0.000000000     0.000000000  0.118469591  0.000000000
     0.000000000  0.000000000 21.330738491     0.000000000  0.000000000  0.046880702

  length of vectors
     8.440984654  8.440984654 21.330738491     0.118469591  0.118469591  0.046880702

  position of ions in fractional coordinates (direct lattice)
     0.000000000  0.750000000  0.351605267
     0.250000000  0.000000000  0.351605267
     0.000000000  0.000000000  0.450535089
     0.250000000  0.750000000  0.450535089
     0.999952972  0.750069933  0.550182699
     0.249960180  0.999999612  0.550158547
     0.000071767  0.000081746  0.648822182
     0.249898085  0.749854229  0.648747211
     0.000000000  0.250000000  0.351605267
     0.250000000  0.500000000  0.351605267
     0.000000000  0.500000000  0.450535089
     0.250000000  0.250000000  0.450535089
     0.000003654  0.249979963  0.550161251
     0.249748591  0.499976608  0.550096481
     0.000002192  0.500168966  0.648801089
     0.249937473  0.249969046  0.648946383
     0.500000000  0.750000000  0.351605267
     0.750000000  0.000000000  0.351605267
     0.500000000  0.000000000  0.450535089
     0.750000000  0.750000000  0.450535089
     0.500260010  0.749982125  0.550295780
     0.750090200  0.999950935  0.550181221
     0.500174938  0.000063538  0.648739290
     0.751039523  0.750995909  0.649603103
     0.500000000  0.250000000  0.351605267
     0.750000000  0.500000000  0.351605267
     0.500000000  0.500000000  0.450535089
     0.750000000  0.250000000  0.450535089
     0.499969996  0.249784160  0.550090882
     0.749966853  0.500263841  0.550296262
     0.498939953  0.498985897  0.648486242
     0.749869906  0.249927386  0.648747568
     0.000000000  0.750000000  0.450535089
     0.250000000  0.000000000  0.450535089
     0.000000000  0.000000000  0.351605267
     0.250000000  0.750000000  0.351605267
     0.000499353  0.750094498  0.650694193
     0.250109797  0.999979088  0.651114683
     0.000136884  0.000132227  0.549867764
     0.250236395  0.750027713  0.549854657
     0.000000000  0.250000000  0.450535089
     0.250000000  0.500000000  0.450535089
     0.000000000  0.500000000  0.351605267
     0.250000000  0.250000000  0.351605267
     0.999972823  0.250117149  0.651102115
     0.249721265  0.499887596  0.650744450
     0.999777560  0.499924314  0.549903838
     0.249958822  0.249941630  0.549902197
     0.500000000  0.750000000  0.450535089
     0.750000000  0.000000000  0.450535089
     0.500000000  0.000000000  0.351605267
     0.750000000  0.750000000  0.351605267
     0.499900511  0.749702745  0.651434291
     0.750092168  0.000531548  0.650666996
     0.499920717  0.999831546  0.549889159
     0.749925806  0.749919682  0.550086402
     0.500000000  0.250000000  0.450535089
     0.750000000  0.500000000  0.450535089
     0.500000000  0.500000000  0.351605267
     0.750000000  0.250000000  0.351605267
     0.499862115  0.249746378  0.650807382
     0.749521345  0.499934182  0.651493469
     0.499981670  0.499983828  0.549886888
     0.750005706  0.250251695  0.549858885

  ion indices of the primitive-cell ions
   primitive index   ion index
                 1           1
                 2           2
                 3           3
                 4           4
                 5           5
                 6           6
                 7           7
[...]
   O         195.510          4.867         19.117          3.54014505
   O         195.740          4.868         19.128          3.54222473
   O         191.068          4.849         18.898          3.49969835
   O         190.634          4.847         18.877          3.49571637
   O         242.102          5.044         21.273          3.93944646
   O         241.785          5.043         21.259          3.93687205
   O         238.506          5.031         21.114          3.91008374
   O         238.819          5.032         21.128          3.91265072
   O         195.692          4.868         19.126          3.54179011
   O         195.563          4.868         19.119          3.54062023
   O         191.339          4.850         18.912          3.50217742
   O         191.419          4.850         18.916          3.50290575
   O         242.195          5.044         21.277          3.94020820
   O         240.557          5.038         21.205          3.92686012
   O         238.689          5.032         21.123          3.91158110
   O         238.522          5.031         21.115          3.91021474
   O         195.724          4.868         19.127          3.54207771
   O         195.573          4.868         19.120          3.54071466
   O         190.657          4.847         18.878          3.49592712
   O         191.448          4.850         18.917          3.50317453
   O         242.213          5.044         21.278          3.94035262
   O         241.905          5.043         21.264          3.93784698

  vdW correction parametrized for the method `ýÙ5    þ

  IVDW =  21
  VDW_RADIUS =    50.000 A
  VDW_IDAMPF =  0
  VDW_S6 =     1.000
  VDW_SR =     0.960
  VDW_D =    20.000
  LVDW_ONECELL = F F F
  LVDW_SAMETYPE T T
  LVDW_EWALD = F

  Number of pair interactions contributing to vdW energy:  723328
  Edisp (eV):   -3.83983

 VOLUME and BASIS-vectors are now :
  energy-cutoff  :      450.00
  volume of cell :     1519.82
      direct lattice vectors                 reciprocal lattice vectors
     8.440984654  0.000000000  0.000000000     0.118469591  0.000000000  0.000000000
     0.000000000  8.440984654  0.000000000     0.000000000  0.118469591  0.000000000
     0.000000000  0.000000000 21.330738491     0.000000000  0.000000000  0.046880702

  length of vectors
     8.440984654  8.440984654 21.330738491     0.118469591  0.118469591  0.046880702

 FORCES acting on ions
    electron-ion (+dipol)            ewald-force                    non-local-force                 convergence-correction
   0.698E-01 0.219E-01 0.207E+04   -.712E-01 -.227E-01 -.206E+04   0.862E-03 0.461E-03 -.674E+01   0.388E-05 0.279E-05 -.231E+00
   -.178E-01 0.509E-01 0.207E+04   0.188E-01 -.517E-01 -.206E+04   -.630E-03 0.470E-03 -.675E+01   -.431E-05 -.754E-06 -.231E+00
   0.242E+00 0.228E+00 0.683E+03   -.228E+00 -.216E+00 -.684E+03   -.907E-02 -.830E-02 0.494E+00   -.796E-07 -.181E-06 -.972E-01
   -.128E+00 0.332E-01 0.683E+03   0.162E+00 -.200E-01 -.683E+03   -.210E-01 -.841E-02 0.477E+00   -.379E-05 0.614E-05 -.972E-01
   0.650E+00 0.314E+00 -.689E+03   -.703E+00 -.316E+00 0.689E+03   0.428E-01 -.236E-02 -.238E+00   0.109E-04 0.751E-05 0.706E-01
   -.302E+00 0.324E+00 -.691E+03   0.306E+00 -.318E+00 0.691E+03   0.409E-02 -.540E-02 -.148E+00   -.365E-05 -.128E-04 0.706E-01
   -.269E+00 -.251E+00 -.205E+04   0.393E+00 0.374E+00 0.204E+04   -.767E-01 -.768E-01 0.575E+01   -.217E-05 -.316E-05 0.214E+00
   -.141E+01 -.363E+00 -.205E+04   0.152E+01 0.417E+00 0.204E+04   -.460E-01 -.282E-01 0.567E+01   -.222E-04 0.361E-04 0.213E+00
   0.519E-01 -.223E-01 0.207E+04   -.526E-01 0.231E-01 -.206E+04   0.442E-03 -.565E-03 -.675E+01   -.112E-05 -.321E-05 -.231E+00
   -.187E-01 -.504E-01 0.207E+04   0.190E-01 0.511E-01 -.206E+04   -.165E-03 -.433E-03 -.674E+01   -.513E-05 0.138E-05 -.231E+00
   0.327E+00 -.215E+00 0.683E+03   -.365E+00 0.205E+00 -.683E+03   0.231E-01 0.682E-02 0.502E+00   -.113E-05 -.239E-06 -.972E-01
   -.130E-01 -.453E-01 0.683E+03   0.919E-03 0.312E-01 -.684E+03   0.778E-02 0.911E-02 0.493E+00   -.386E-05 -.352E-05 -.972E-01
   0.347E+00 -.315E+00 -.691E+03   -.342E+00 0.323E+00 0.691E+03   -.600E-02 0.164E-03 -.150E+00   -.128E-04 -.465E-05 0.706E-01
   -.201E+00 -.321E+00 -.688E+03   0.195E+00 0.310E+00 0.689E+03   0.143E-01 0.773E-02 -.209E+00   -.393E-05 0.942E-05 0.704E-01
   0.177E+01 0.156E+00 -.205E+04   -.177E+01 -.282E+00 0.204E+04   -.290E-01 0.757E-01 0.571E+01   -.218E-04 0.504E-05 0.214E+00
   0.374E+00 0.410E+00 -.205E+04   -.424E+00 -.473E+00 0.205E+04   0.291E-01 0.363E-01 0.574E+01   -.397E-04 -.382E-04 0.214E+00
   -.677E-01 0.209E-01 0.207E+04   0.697E-01 -.218E-01 -.206E+04   -.126E-02 0.571E-03 -.676E+01   -.465E-05 0.417E-05 -.231E+00
   0.174E-01 0.689E-01 0.207E+04   -.183E-01 -.702E-01 -.206E+04   0.516E-03 0.885E-03 -.674E+01   0.408E-05 0.425E-05 -.231E+00
   -.228E+00 0.343E+00 0.683E+03   0.217E+00 -.378E+00 -.683E+03   0.754E-02 0.212E-01 0.497E+00   0.584E-06 -.156E-05 -.972E-01
   0.117E+00 0.125E+00 0.682E+03   -.139E+00 -.149E+00 -.682E+03   0.149E-01 0.153E-01 0.537E+00   0.211E-05 0.332E-05 -.972E-01
   -.791E+00 0.368E+00 -.693E+03   0.842E+00 -.361E+00 0.694E+03   -.465E-01 -.118E-01 -.159E+00   -.994E-05 0.288E-05 0.708E-01
   0.298E+00 0.639E+00 -.689E+03   -.298E+00 -.691E+00 0.689E+03   -.548E-02 0.431E-01 -.249E+00   0.573E-05 0.112E-04 0.706E-01
   0.152E+00 0.168E+01 -.205E+04   -.279E+00 -.169E+01 0.204E+04   0.757E-01 -.168E-01 0.570E+01   0.392E-05 -.199E-04 0.213E+00
   0.283E+01 0.265E+01 -.206E+04   -.294E+01 -.276E+01 0.205E+04   -.187E-01 -.105E-01 0.580E+01   0.276E-04 0.215E-04 0.215E+00
   -.513E-01 -.230E-01 0.207E+04   0.520E-01 0.233E-01 -.206E+04   -.406E-03 -.150E-03 -.674E+01   0.137E-05 -.388E-05 -.231E+00
   0.162E-01 -.669E-01 0.207E+04   -.173E-01 0.688E-01 -.206E+04   0.699E-03 -.129E-02 -.676E+01   0.533E-05 -.483E-05 -.231E+00
   -.322E+00 -.334E+00 0.683E+03   0.344E+00 0.356E+00 -.683E+03   -.146E-01 -.144E-01 0.492E+00   0.190E-05 0.873E-06 -.973E-01
   -.137E-02 -.132E+00 0.683E+03   0.125E-01 0.167E+00 -.683E+03   -.705E-02 -.215E-01 0.479E+00   0.422E-05 -.255E-05 -.972E-01
   -.344E+00 -.247E+00 -.689E+03   0.331E+00 0.239E+00 0.689E+03   0.945E-02 0.150E-01 -.190E+00   0.112E-04 -.445E-05 0.704E-01
   0.313E+00 -.768E+00 -.694E+03   -.306E+00 0.821E+00 0.694E+03   -.127E-01 -.469E-01 -.139E+00   -.151E-05 -.114E-04 0.708E-01
   -.264E+01 -.280E+01 -.205E+04   0.271E+01 0.285E+01 0.204E+04   0.245E-01 0.445E-01 0.564E+01   0.210E-04 0.162E-04 0.213E+00
   -.328E+00 -.141E+01 -.205E+04   0.367E+00 0.150E+01 0.204E+04   -.219E-01 -.379E-01 0.567E+01   0.367E-04 -.159E-04 0.213E+00
   0.255E+00 0.858E-01 0.512E+03   -.252E+00 -.895E-01 -.511E+03   -.430E-02 0.411E-02 -.637E-01   -.935E-07 0.250E-05 -.707E-01
   -.744E-01 0.136E+00 0.512E+03   0.770E-01 -.141E+00 -.512E+03   -.272E-02 0.532E-02 -.833E-01   -.639E-06 -.602E-05 -.707E-01
   0.407E-01 0.391E-01 0.155E+04   -.397E-01 -.383E-01 -.156E+04   -.118E-02 -.994E-03 0.309E+01   -.877E-06 -.768E-06 -.173E+00
   -.192E-01 0.105E-01 0.155E+04   0.222E-01 -.930E-02 -.156E+04   -.363E-02 -.151E-02 0.309E+01   -.339E-05 0.202E-05 -.173E+00
   0.142E+00 0.338E+00 -.156E+04   -.225E-01 -.373E+00 0.156E+04   -.138E+00 0.400E-01 -.435E+01   0.167E-04 0.194E-04 0.162E+00
   -.301E+00 0.372E+00 -.156E+04   0.363E+00 -.413E+00 0.156E+04   -.707E-01 0.402E-01 -.457E+01   -.208E-04 -.184E-04 0.163E+00
   0.214E+00 0.206E+00 -.512E+03   -.213E+00 -.205E+00 0.511E+03   -.830E-02 -.910E-02 0.249E+00   -.104E-05 -.785E-06 0.518E-01
   -.438E+00 -.760E-01 -.512E+03   0.473E+00 0.800E-01 0.511E+03   -.435E-01 -.754E-02 0.267E+00   -.948E-06 0.923E-05 0.518E-01
   0.141E+00 -.869E-01 0.512E+03   -.146E+00 0.879E-01 -.512E+03   0.517E-02 -.946E-03 -.816E-01   -.457E-05 -.704E-06 -.707E-01
   -.928E-01 -.132E+00 0.512E+03   0.109E+00 0.138E+00 -.512E+03   -.187E-01 -.654E-02 -.551E-01   -.369E-05 0.118E-05 -.707E-01
   0.515E-01 -.388E-01 0.155E+04   -.547E-01 0.379E-01 -.156E+04   0.379E-02 0.107E-02 0.309E+01   0.936E-06 0.267E-06 -.173E+00
   -.652E-02 -.110E-01 0.155E+04   0.556E-02 0.972E-02 -.156E+04   0.116E-02 0.150E-02 0.309E+01   -.151E-05 -.742E-06 -.173E+00
   0.371E+00 -.285E+00 -.156E+04   -.409E+00 0.333E+00 0.156E+04   0.362E-01 -.549E-01 -.456E+01   -.170E-04 -.200E-04 0.163E+00
   0.359E+00 -.414E+00 -.156E+04   -.422E+00 0.453E+00 0.156E+04   0.541E-01 -.397E-01 -.449E+01   -.148E-04 0.182E-04 0.162E+00
   0.722E+00 -.177E+00 -.512E+03   -.743E+00 0.165E+00 0.512E+03   0.250E-01 0.179E-01 0.256E+00   -.385E-05 -.253E-05 0.518E-01
   0.666E-01 0.428E-01 -.512E+03   -.560E-01 -.354E-01 0.512E+03   -.905E-02 -.410E-02 0.188E+00   -.611E-05 -.534E-05 0.518E-01
   -.226E+00 0.738E-01 0.511E+03   0.208E+00 -.720E-01 -.511E+03   0.202E-01 -.233E-02 -.114E+00   0.115E-05 0.412E-05 -.707E-01
   0.727E-01 0.250E+00 0.512E+03   -.782E-01 -.246E+00 -.511E+03   0.605E-02 -.402E-02 -.633E-01   0.119E-05 0.100E-06 -.707E-01
   -.404E-01 0.519E-01 0.155E+04   0.393E-01 -.550E-01 -.156E+04   0.127E-02 0.373E-02 0.309E+01   0.509E-06 0.181E-05 -.173E+00
   0.176E-01 0.201E-01 0.155E+04   -.211E-01 -.236E-01 -.156E+04   0.423E-02 0.421E-02 0.309E+01   0.427E-05 0.325E-05 -.173E+00
   -.160E+01 0.890E+00 -.156E+04   0.172E+01 -.106E+01 0.157E+04   -.968E-01 0.179E+00 -.466E+01   -.114E-04 0.111E-04 0.163E+00
   0.368E+00 0.227E+00 -.156E+04   -.413E+00 -.117E+00 0.156E+04   0.505E-01 -.130E+00 -.435E+01   0.194E-04 0.149E-04 0.162E+00
   -.186E+00 0.721E+00 -.512E+03   0.175E+00 -.744E+00 0.511E+03   0.195E-01 0.280E-01 0.264E+00   -.158E-05 -.592E-05 0.518E-01
   0.482E+00 0.493E+00 -.516E+03   -.499E+00 -.506E+00 0.515E+03   0.288E-01 0.244E-01 0.941E-01   -.479E-06 0.155E-05 0.520E-01
   -.137E+00 -.105E+00 0.512E+03   0.142E+00 0.119E+00 -.512E+03   -.631E-02 -.151E-01 -.562E-01   0.283E-05 -.209E-05 -.707E-01
   0.569E-01 -.222E+00 0.511E+03   -.547E-01 0.204E+00 -.511E+03   -.270E-02 0.200E-01 -.115E+00   0.266E-05 -.163E-05 -.707E-01
   -.497E-01 -.503E-01 0.155E+04   0.535E-01 0.539E-01 -.156E+04   -.459E-02 -.438E-02 0.309E+01   -.214E-05 -.194E-05 -.173E+00
   0.603E-02 -.215E-01 0.155E+04   -.508E-02 0.246E-01 -.156E+04   -.116E-02 -.361E-02 0.309E+01   0.334E-05 -.217E-05 -.173E+00
   -.426E+00 0.341E+00 -.156E+04   0.471E+00 -.400E+00 0.156E+04   -.435E-01 0.514E-01 -.451E+01   0.194E-04 -.136E-04 0.162E+00
   0.717E+00 -.153E+01 -.156E+04   -.898E+00 0.165E+01 0.157E+04   0.197E+00 -.894E-01 -.466E+01   0.110E-04 -.118E-04 0.163E+00
   -.742E+00 -.756E+00 -.511E+03   0.746E+00 0.766E+00 0.511E+03   -.109E-01 -.153E-01 0.328E+00   0.935E-05 0.737E-05 0.518E-01
   -.110E+00 -.449E+00 -.512E+03   0.114E+00 0.475E+00 0.511E+03   -.612E-02 -.356E-01 0.269E+00   0.677E-05 -.142E-05 0.518E-01
   0.848E-01 0.121E-01 0.194E+02   -.107E-12 -.377E-14 0.568E-13   -.802E-01 -.180E-01 -.159E+02   0.325E-05 0.259E-05 -.592E+00

 POSITION                                       TOTAL-FORCE (eV/Angst)
      0.00000      6.33074      7.50000        -0.000286     -0.000143      0.501722
      2.11025      0.00000      7.50000         0.000313     -0.000124      0.503879
      0.00000      0.00000      9.61025         0.003423      0.003177      0.023756
      2.11025      6.33074      9.61025         0.009913      0.003560      0.030553
      8.44059      6.33133     11.73580        -0.004042     -0.004177      0.033964
      2.10991      8.44098     11.73529         0.008185     -0.000723      0.055244
      0.00061      0.00069     13.83986         0.035344      0.034824     -0.136234
      2.10939      6.32951     13.83826         0.049378      0.020891     -0.101547
      0.00000      2.11025      7.50000        -0.000158      0.000326      0.503691
      2.11025      4.22049      7.50000         0.000194      0.000312      0.501511
      0.00000      4.22049      9.61025        -0.011156     -0.002322      0.026758
      2.11025      2.11025      9.61025        -0.003068     -0.003534      0.026636
      0.00003      2.11008     11.73535        -0.001418      0.007286      0.054370
      2.10812      4.22029     11.73396         0.008204     -0.002079      0.044231
      0.00002      4.22192     13.83941        -0.028156     -0.037749     -0.116713
      2.10972      2.10998     13.84251        -0.016112     -0.020644     -0.144052
      4.22049      6.33074      7.50000         0.000513     -0.000190      0.505898
      6.33074      0.00000      7.50000        -0.000228     -0.000251      0.501700
      4.22049      0.00000      9.61025        -0.002622     -0.010273      0.026952
      6.33074      6.33074      9.61025        -0.005434     -0.005523      0.035450
      4.22269      6.33059     11.73822         0.000420     -0.005500      0.063644
      6.33150      8.44057     11.73577        -0.005390     -0.003392      0.034287
      4.22197      0.00054     13.83809        -0.039011     -0.029292     -0.106035
      6.33951      6.33914     13.85651        -0.121565     -0.113704     -0.233336
      4.22049      2.11025      7.50000         0.000256      0.000217      0.501647
      6.33074      4.22049      7.50000        -0.000281      0.000572      0.505924
      4.22049      4.22049      9.61025         0.005598      0.005825      0.031257
      6.33074      2.11025      9.61025         0.003054      0.010065      0.030540
      4.22024      2.10842     11.73384        -0.002376      0.007071      0.046169
      6.33046      4.22272     11.73823        -0.006640      0.001173      0.063405
      4.21154      4.21193     13.83269         0.095325      0.094479     -0.052767
      6.32964      2.10963     13.83826         0.014005      0.046845     -0.099331
      0.00000      6.33074      9.61025        -0.001616      0.001129      0.092759
      2.11025      0.00000      9.61025        -0.000521      0.001737      0.082648
      0.00000      0.00000      7.50000        -0.000415     -0.000300     -0.423090
      2.11025      6.33074      7.50000        -0.001219     -0.000464     -0.423685
      0.00422      6.33154     13.87979        -0.042568      0.012266     -0.065192
      2.11117      8.44081     13.88876        -0.020525      0.005989     -0.149241
      0.00116      0.00112     11.72909        -0.009597     -0.010399      0.012342
      2.11224      6.33097     11.72881        -0.018013     -0.004920      0.011691
      0.00000      2.11025      9.61025         0.001589      0.000082      0.083594
      2.11025      4.22049      9.61025        -0.005220     -0.001974      0.086837
      0.00000      4.22049      7.50000         0.001338      0.000528     -0.423570
      2.11025      2.11025      7.50000         0.000473      0.000642     -0.423380
      8.44076      2.11124     13.88849         0.004672     -0.016177     -0.144969
      2.10789      4.21954     13.88086        -0.001010     -0.007157     -0.106660
      8.43911      4.21985     11.72985         0.009932      0.010677      0.006518
      2.10990      2.10975     11.72982        -0.000027      0.002832      0.000946
      4.22049      6.33074      9.61025         0.006309     -0.000817      0.085823
      6.33074      0.00000      9.61025         0.001684     -0.001428      0.092781
      4.22049      0.00000      7.50000         0.000550      0.001366     -0.423683
      6.33074      6.33074      7.50000         0.001536      0.001574     -0.424799
      4.21965      6.32823     13.89557         0.013010      0.037361     -0.187793
      6.33152      0.00449     13.87921         0.014406     -0.043288     -0.065224
      4.21982      8.43956     11.72954         0.012499      0.009987      0.005162
      6.33011      6.33006     11.73375         0.017211      0.016527      0.005817
      4.22049      2.11025      9.61025        -0.001917     -0.004030      0.085805
      6.33074      4.22049      9.61025        -0.000935      0.006267      0.085638
      4.22049      4.22049      7.50000        -0.001545     -0.001424     -0.423959
      6.33074      2.11025      7.50000        -0.000384     -0.001165     -0.423641
      4.21933      2.10811     13.88220        -0.006142     -0.000289     -0.117313
      6.32670      4.21994     13.89684         0.051760      0.012621     -0.189797
      4.22034      4.22036     11.72949        -0.008435     -0.008200      0.002426
      6.33079      2.11237     11.72890        -0.003065     -0.016556      0.012037
    total drift:                               -0.003054     -0.006001      0.062029

  FREE ENERGIE OF THE ION-ELECTRON SYSTEM (eV)
  free  energy   TOTEN  =      -467.78024108 eV

  energy  without entropy=     -467.78024108  energy(sigma->0) =     -467.78024108