 vasp.6.3.0 20Jan22 (build Apr  1 2022 16:44:48) complex
 executed on        HPECrayEX_GCC date 2022.11.16  22:38:31

 INCAR:
   SYSTEM = MgO-rocksalt
   ISMEAR = 0
   SIGMA = 0.05
   EDIFF = 1E-6
   ALGO = ALL
   ISTART = 0
   IBRION = -1
   NSW = 0
   ISYM = 0
   DIPOL = 0.5 0.5 0.5
   IDIPOL = 3
   LDIPOL = .TRUE.
   LHFCALC = .TRUE.
   GGA = B5
   AEXX = 0.2
   AGGAX = 0.72
   AGGAC = 0.81
   ALDAC = 0.19
   IVDW = 1
   VDW_S6 = 1.05
   VDW_C6 = 0.63 0.70
   VDW_R0 = 1.243 1.342
   ENCUT = 600
   PREC = Accurate
   LASPH = .TRUE.
   LREAL = .FALSE.
   ISPIN = 2
   MAGMOM = 0.0 0.0 0.0 0.0 0.0 0.0 0.0 0.0 0.0 0.0 0.0 0.0 0.0 0.0 0.0 0.0 0.0 0.0 0.0 0.0 0.0 0.0 0.0 0.0 0.0 0.0 0.0 0.0 0.0 0.0 0.0 0.0 0.0 0.0 0.0 0.0 0.0 0.0 0.0 0.0 0.0 0.0 0.0 0.0 0.0 0.0 0.0 0.0 0.0 0.0 0.0 0.0 0.0 0.0 0.0 0.0 0.0 0.0 0.0 0.0 0.0 0.0 0.0 0.0
   NELM = 200
   NELMIN = 8
   NCORE = 8
   KPAR = 1
   LWAVE = .FALSE.
   LCHARG = .FALSE.

 POTCAR:    PAW_PBE Mg_pv 13Apr2007
 POTCAR:    PAW_PBE O 08Apr2002
 POTCAR:    PAW_PBE Mg_pv 13Apr2007
   VRHFIN =Mg: p6s2

   TITEL  = PAW_PBE Mg_pv 13Apr2007
   POMASS =   24.305; ZVAL   =    8.000    mass and valenz
   ENMAX  =  403.929; ENMIN  =  302.947 eV

   TITEL  = PAW_PBE O 08Apr2002
   POMASS =   16.000; ZVAL   =    6.000    mass and valenz
   ENMAX  =  400.000; ENMIN  =  300.000 eV

  PAW_PBE Mg_pv 13Apr2007               :
  PAW_PBE O 08Apr2002                   :

 POSCAR: Mg  O
  positions in direct lattice
 exchange correlation table for  LEXCH =       12
   RHO(1)=    0.500       N(1)  =     2000
   RHO(2)=  100.500       N(2)  =     4000

 ion  position               nearest neighbor table
   1  0.250  0.000  0.352-  35 2.10  36 2.10  43 2.10  52 2.10  33 2.10
   2  0.500  0.250  0.352-  35 2.10  36 2.10  44 2.10  51 2.10  34 2.10
   3  0.250  0.250  0.451-  33 2.10  34 2.10  41 2.10  50 2.10  35 2.10  39 2.10
   4  0.500  0.000  0.451-  33 2.10  34 2.10  42 2.10  49 2.10  36 2.10  40 2.11
   5  0.250  1.000  0.550-  47 2.10  39 2.10  40 2.10  56 2.10  33 2.11  37 2.13
   6  0.500  0.250  0.550-  48 2.10  55 2.10  39 2.10  40 2.10  34 2.11  38 2.14
   7  0.250  0.250  0.647-  39 2.09  54 2.10  45 2.10  37 2.10  38 2.10
   8  0.500  0.000  0.648-  40 2.09  38 2.10  46 2.10  37 2.10  53 2.10
   9  0.250  0.500  0.352-  35 2.10  43 2.10  44 2.10  60 2.10  41 2.10
  10  0.500  0.750  0.352-  36 2.10  43 2.10  44 2.10  59 2.10  42 2.10
  11  0.250  0.750  0.451-  33 2.10  41 2.10  42 2.10  58 2.10  43 2.10  47 2.10
  12  0.500  0.500  0.451-  34 2.10  41 2.10  42 2.10  57 2.10  44 2.10  48 2.11
  13  0.250  0.500  0.550-  48 2.10  39 2.10  47 2.10  64 2.10  41 2.11  45 2.12
  14  0.500  0.750  0.550-  48 2.10  47 2.10  63 2.10  40 2.10  42 2.11  46 2.14
  15  0.250  0.750  0.647-  47 2.09  62 2.10  45 2.10  37 2.10  46 2.10
  16  0.500  0.500  0.649-  38 2.10  46 2.10  45 2.11  61 2.11  48 2.11
  17  0.750  0.000  0.352-  36 2.10  51 2.10  52 2.10  59 2.10  49 2.10
  18  0.000  0.250  0.352-  35 2.10  51 2.10  52 2.10  60 2.10  50 2.10
  19  0.750  0.250  0.451-  34 2.10  49 2.10  50 2.10  57 2.10  51 2.10  55 2.10
  20  0.000  0.000  0.451-  33 2.10  49 2.10  50 2.10  58 2.10  52 2.10  56 2.10
  21  0.750  0.000  0.550-  55 2.10  63 2.10  40 2.10  56 2.10  49 2.11  53 2.13
  22  1.000  0.250  0.550-  64 2.10  56 2.10  55 2.10  39 2.10  50 2.11  54 2.13
  23  0.750  0.250  0.647-  55 2.09  54 2.10  61 2.10  53 2.10  38 2.10
  24  0.000  0.000  0.647-  56 2.09  54 2.10  62 2.10  53 2.10  37 2.10
  25  0.750  0.500  0.352-  44 2.10  51 2.10  59 2.10  60 2.10  57 2.10
  26  0.000  0.750  0.352-  43 2.10  52 2.10  59 2.10  60 2.10  58 2.10
  27  0.750  0.750  0.451-  42 2.10  49 2.10  57 2.10  58 2.10  59 2.10  63 2.10
  28  0.000  0.500  0.451-  64 2.10  50 2.10  57 2.10  58 2.10  41 2.10  60 2.10
  29  0.750  0.500  0.550-  48 2.10  63 2.10  55 2.10  64 2.10  57 2.11  61 2.12
  30  0.000  0.750  0.550-  64 2.10  56 2.10  47 2.10  63 2.10  58 2.11  62 2.13
  31  0.750  0.750  0.647-  63 2.09  62 2.10  61 2.10  53 2.10  46 2.10
  32  0.000  0.500  0.647-  64 2.09  45 2.09  61 2.09  54 2.10  62 2.10
  33  0.250  0.000  0.451-   3 2.10   4 2.10  11 2.10  20 2.10   1 2.10   5 2.11
  34  0.500  0.250  0.451-   3 2.10   4 2.10  12 2.10  19 2.10   2 2.10   6 2.11
  35  0.250  0.250  0.352-   1 2.10   2 2.10   9 2.10  18 2.10   3 2.10
  36  0.500  0.000  0.352-   1 2.10   2 2.10  10 2.10  17 2.10   4 2.10
  37  0.250  1.000  0.650-  24 2.10   8 2.10   7 2.10  15 2.10   5 2.13
  38  0.500  0.250  0.650-   8 2.10  16 2.10   7 2.10  23 2.10   6 2.14
  39  0.250  0.250  0.549-   7 2.09   5 2.10   6 2.10  22 2.10   3 2.10  13 2.10
  40  0.500  1.000  0.550-   8 2.09  21 2.10   5 2.10  14 2.10   6 2.10   4 2.11
  41  0.250  0.500  0.451-   3 2.10  11 2.10  12 2.10  28 2.10   9 2.10  13 2.11
  42  0.500  0.750  0.451-   4 2.10  11 2.10  12 2.10  27 2.10  10 2.10  14 2.11
  43  0.250  0.750  0.352-   1 2.10   9 2.10  10 2.10  26 2.10  11 2.10
  44  0.500  0.500  0.352-   2 2.10   9 2.10  10 2.10  25 2.10  12 2.10
  45  0.249  0.500  0.649-  32 2.09   7 2.10  15 2.10  16 2.11  13 2.12
  46  0.500  0.750  0.650-   8 2.10  16 2.10  31 2.10  15 2.10  14 2.14
  47  0.250  0.750  0.549-  15 2.09   5 2.10  14 2.10  30 2.10  13 2.10  11 2.10
  48  0.500  0.500  0.550-  14 2.10   6 2.10  29 2.10  13 2.10  12 2.11  16 2.11
  49  0.750  0.000  0.451-   4 2.10  19 2.10  20 2.10  27 2.10  17 2.10  21 2.11
  50  0.000  0.250  0.451-   3 2.10  19 2.10  20 2.10  28 2.10  18 2.10  22 2.11
  51  0.750  0.250  0.352-   2 2.10  17 2.10  18 2.10  25 2.10  19 2.10
  52  0.000  0.000  0.352-   1 2.10  17 2.10  18 2.10  26 2.10  20 2.10
  53  0.750  0.000  0.650-  24 2.10   8 2.10  31 2.10  23 2.10  21 2.13
  54  1.000  0.250  0.649-   7 2.10  23 2.10  24 2.10  32 2.10  22 2.13
  55  0.750  0.250  0.549-  23 2.09  21 2.10   6 2.10  22 2.10  29 2.10  19 2.10
  56  1.000  0.000  0.549-  24 2.09  22 2.10  30 2.10  21 2.10   5 2.10  20 2.10
  57  0.750  0.500  0.451-  12 2.10  19 2.10  27 2.10  28 2.10  25 2.10  29 2.11
  58  0.000  0.750  0.451-  11 2.10  20 2.10  27 2.10  28 2.10  26 2.10  30 2.11
  59  0.750  0.750  0.352-  10 2.10  17 2.10  25 2.10  26 2.10  27 2.10
  60  0.000  0.500  0.352-   9 2.10  18 2.10  25 2.10  26 2.10  28 2.10
  61  0.751  0.500  0.649-  32 2.09  31 2.10  23 2.10  16 2.11  29 2.12
  62  0.000  0.750  0.649-  31 2.10  15 2.10  24 2.10  32 2.10  30 2.13
  63  0.750  0.750  0.549-  31 2.09  21 2.10  14 2.10  30 2.10  27 2.10  29 2.10
  64  0.000  0.500  0.549-  32 2.09  28 2.10  22 2.10  30 2.10  13 2.10  29 2.10

IMPORTANT INFORMATION: All symmetrisations will be switched off!
NOSYMM: (Re-)initialisation of all symmetry stuff for point group C_1.

                                     Primitive cell

  volume of cell :    1504.9259

  direct lattice vectors                    reciprocal lattice vectors
     8.404861995  0.000000000  0.000000000     0.118978753  0.000000000  0.000000000
     0.000000000  8.404861995  0.000000000     0.000000000  0.118978753  0.000000000
     0.000000000  0.000000000 21.303646496     0.000000000  0.000000000  0.046940321

  length of vectors
     8.404861995  8.404861995 21.303646496     0.118978753  0.118978753  0.046940321

  position of ions in fractional coordinates (direct lattice)
     0.250000000  0.000000000  0.352052406
     0.500000000  0.250000000  0.352052406
     0.250000000  0.250000000  0.450684135
     0.500000000  0.000000000  0.450684135
     0.250071353  0.999978178  0.549683878
     0.499982176  0.250317883  0.549726593
     0.249663013  0.250218391  0.647310424
     0.499999984  0.000000044  0.647535654
     0.250000000  0.500000000  0.352052406
     0.500000000  0.750000000  0.352052406
     0.250000000  0.750000000  0.450684135
     0.500000000  0.500000000  0.450684135
     0.250214635  0.499980015  0.549708443
     0.500017831  0.749682123  0.549726652
     0.249735853  0.749708600  0.647335285
     0.499999969  0.499999951  0.648709534
     0.750000000  0.000000000  0.352052406
     0.000000000  0.250000000  0.352052406
     0.750000000  0.250000000  0.450684135
     0.000000000  0.000000000  0.450684135
     0.749928696  0.000021744  0.549683855
     0.999977217  0.250040512  0.549588086
     0.750264205  0.250291371  0.647335198
     0.000000035  0.000000047  0.647437222
     0.750000000  0.500000000  0.352052406
     0.000000000  0.750000000  0.352052406
     0.750000000  0.750000000  0.450684135
     0.000000000  0.500000000  0.450684135
     0.749785400  0.500019981  0.549708491
     0.000022842  0.749959465  0.549588083
     0.750337019  0.749781584  0.647310545
     0.000000036  0.499999912  0.647169128
     0.250000000  0.000000000  0.450684135
     0.500000000  0.250000000  0.450684135
     0.250000000  0.250000000  0.352052406
     0.500000000  0.000000000  0.352052406
     0.249995122  0.999980838  0.649618063
     0.499958362  0.249821233  0.649983640
     0.250129842  0.249803216  0.549385356
     0.500000042  0.999999977  0.549522644
     0.250000000  0.500000000  0.450684135
     0.500000000  0.750000000  0.450684135
     0.250000000  0.750000000  0.352052406
     0.500000000  0.500000000  0.352052406
     0.249099928  0.499957281  0.649000475
     0.500041571  0.750178799  0.649983821
     0.250165886  0.750160877  0.549390039
     0.500000019  0.500000014  0.549606681
     0.750000000  0.000000000  0.450684135
     0.000000000  0.250000000  0.450684135
     0.750000000  0.250000000  0.352052406
     0.000000000  0.000000000  0.352052406
     0.750004956  0.000019191  0.649618189
     0.999980453  0.249828682  0.649461019
     0.749834202  0.249839063  0.549390049
     0.999999983  0.000000031  0.549391359
     0.750000000  0.500000000  0.450684135
     0.000000000  0.750000000  0.450684135
     0.750000000  0.750000000  0.352052406
     0.000000000  0.500000000  0.352052406
     0.750900117  0.500042635  0.649000462
     0.000019642  0.750171339  0.649460997
     0.749870118  0.750196800  0.549385399
     0.000000028  0.499999958  0.549193796

  ion indices of the primitive-cell ions
   primitive index   ion index
                 1           1
                 2           2
                 3           3
                 4           4
                 5           5
                 6           6
                 7           7
                 8           8
                 9           9
                10          10
                11          11
                12          12
                13          13
                14          14
                15          15
                16          16
                17          17
                18          18
                19          19
                20          20
                21          21
                22          22
                23          23
                24          24
                25          25
                26          26
                27          27
                28          28
                29          29
                30          30
                31          31
                32          32
                33          33
                34          34
                35          35
[...]
   0.50000000  0.75000000  0.45068414
   0.25000000  0.75000000  0.35205241
   0.50000000  0.50000000  0.35205241
   0.24909993  0.49995728  0.64900048
   0.50004157  0.75017880  0.64998382
   0.25016589  0.75016088  0.54939004
   0.50000002  0.50000001  0.54960668
   0.75000000  0.00000000  0.45068414
   0.00000000  0.25000000  0.45068414
   0.75000000  0.25000000  0.35205241
   0.00000000  0.00000000  0.35205241
   0.75000496  0.00001919  0.64961819
   0.99998045  0.24982868  0.64946102
   0.74983420  0.24983906  0.54939005
   0.99999998  0.00000003  0.54939136
   0.75000000  0.50000000  0.45068414
   0.00000000  0.75000000  0.45068414
   0.75000000  0.75000000  0.35205241
   0.00000000  0.50000000  0.35205241
   0.75090012  0.50004263  0.64900046
   0.00001964  0.75017134  0.64946100
   0.74987012  0.75019680  0.54938540
   0.00000003  0.49999996  0.54919380

 position of ions in cartesian coordinates  (Angst):
   2.10121550  0.00000000  7.50000000
   4.20243100  2.10121550  7.50000000
   2.10121550  2.10121550  9.60121550
   4.20243100  0.00000000  9.60121550
   2.10181521  8.40467859 11.71027102
   4.20228119  2.10388726 11.71118100
   2.09838317  2.10305105 13.79007245
   4.20243086  0.00000037 13.79487066
   2.10121550  4.20243100  7.50000000
   4.20243100  6.30364650  7.50000000
   2.10121550  6.30364650  9.60121550
   4.20243100  4.20243100  9.60121550
   2.10301948  4.20226303 11.71079435
   4.20258087  6.30097479 11.71118227
   2.09899538  6.30119732 13.79060207
   4.20243074  4.20243059 13.81987858
   6.30364650  0.00000000  7.50000000
   0.00000000  2.10121550  7.50000000
   6.30364650  2.10121550  9.60121550
   0.00000000  0.00000000  9.60121550
   6.30304719  0.00018276 11.71027052
   8.40467051  2.10155600 11.70823030
   6.30586710  2.10366443 13.79060022
   0.00000029  0.00000040 13.79277370
   6.30364650  4.20243100  7.50000000
   0.00000000  6.30364650  7.50000000
   6.30364650  6.30364650  9.60121550
   0.00000000  4.20243100  9.60121550
   6.30184281  4.20259894 11.71079536
   0.00019198  6.30330581 11.70823023
   6.30647910  6.30181074 13.79007502
   0.00000030  4.20243026 13.78706234
   2.10121550  0.00000000  9.60121550
   4.20243100  2.10121550  9.60121550
   2.10121550  2.10121550  7.50000000
   4.20243100  0.00000000  7.50000000
   2.10117450  8.40470094 13.83923358
   4.20208104  2.09971299 13.84702170
   2.10230681  2.09956156 11.70391141
   4.20243135  8.40486180 11.70683614
   2.10121550  4.20243100  9.60121550
   4.20243100  6.30364650  9.60121550
   2.10121550  6.30364650  7.50000000
   4.20243100  4.20243100  7.50000000
   2.09365052  4.20207195 13.82607670
   4.20278039  6.30514927 13.84702554
   2.10260975  6.30499864 11.70401118
   4.20243116  4.20243111 11.70862643
   6.30364650  0.00000000  9.60121550
   0.00000000  2.10121550  9.60121550
   6.30364650  2.10121550  7.50000000
   0.00000000  0.00000000  7.50000000
   6.30368815  0.00016130 13.83923625
   8.40469770  2.09977559 13.83588796
   6.30225298  2.09986285 11.70401140
   8.40486185  0.00000026 11.70403931
   6.30364650  4.20243100  9.60121550
   0.00000000  6.30364650  9.60121550
   6.30364650  6.30364650  7.50000000
   0.00000000  4.20243100  7.50000000
   6.31121186  4.20278934 13.82607643
   0.00016509  6.30508658 13.83588748
   6.30255485  6.30530057 11.70391232
   0.00000023  4.20243064 11.69983048

--------------------------------------- Iteration      FINAL  ---------------------------------------

--------------------OUTCAR has been truncated-------------------------

[...]

--------------------OUTCAR has been truncated-------------------------

  DFT-D2 method for vdW energy calculation

  Parameters of vdW forcefield:
         C6(Jnm^6/mol)     R0(A)
   Mg       0.630          1.243
   O        0.700          1.342

  vdW correction parametrized for the method ý      

  IVDW =   1
  VDW_RADIUS =    50.000 A
  VDW_S6 =     1.050
  VDW_SR =     1.000
  VDW_D =    20.000
  LVDW_EWALD = F

  Number of pair interactions contributing to vdW energy:  731176
  Edisp (eV):   -5.17690

 VOLUME and BASIS-vectors are now :
  energy-cutoff  :      600.00
  volume of cell :     1504.93
      direct lattice vectors                 reciprocal lattice vectors
     8.404861995  0.000000000  0.000000000     0.118978753  0.000000000  0.000000000
     0.000000000  8.404861995  0.000000000     0.000000000  0.118978753  0.000000000
     0.000000000  0.000000000 21.303646496     0.000000000  0.000000000  0.046940321

  length of vectors
     8.404861995  8.404861995 21.303646496     0.118978753  0.118978753  0.046940321

 FORCES acting on ions:
    Electron-Ion                     Ewald-Force                    Non-Local-Force
   -.100E+00 0.508E-03 0.209E+04   0.101E+00 -.575E-03 -.208E+04   -.496E-03 0.485E-04 -.641E+01
   -.788E-03 0.842E-02 0.209E+04   0.743E-03 -.788E-02 -.208E+04   0.296E-04 -.421E-03 -.641E+01
   -.436E+00 0.131E-01 0.693E+03   0.449E+00 -.219E-01 -.694E+03   -.903E-02 0.584E-02 0.362E+00
   -.980E-05 0.784E-04 0.693E+03   0.883E-05 -.863E-04 -.693E+03   0.288E-05 0.710E-05 0.388E+00
   -.572E+00 0.265E-01 -.698E+03   0.603E+00 -.264E-01 0.698E+03   -.261E-01 0.235E-03 -.228E+00
   -.242E-01 0.377E-02 -.700E+03   0.275E-01 0.649E-01 0.700E+03   -.199E-02 -.708E-01 -.116E+00
   -.142E+01 0.611E+00 -.208E+04   0.134E+01 -.701E+00 0.207E+04   0.815E-01 0.374E-01 0.553E+01
   -.258E-03 0.655E-04 -.208E+04   0.251E-03 -.649E-04 0.207E+04   0.189E-04 -.587E-05 0.545E+01
   -.121E+00 -.807E-03 0.209E+04   0.122E+00 0.759E-03 -.208E+04   -.108E-02 0.338E-04 -.641E+01
   0.760E-03 -.841E-02 0.209E+04   -.718E-03 0.788E-02 -.208E+04   -.322E-04 0.420E-03 -.641E+01
   -.435E+00 -.130E-01 0.693E+03   0.451E+00 0.195E-01 -.694E+03   -.103E-01 -.461E-02 0.363E+00
   -.935E-04 -.900E-04 0.692E+03   0.956E-04 0.989E-04 -.693E+03   0.598E-06 -.722E-05 0.410E+00
   -.157E+01 -.292E-01 -.696E+03   0.166E+01 0.321E-01 0.697E+03   -.699E-01 -.159E-02 -.369E+00
   0.240E-01 -.371E-02 -.700E+03   -.272E-01 -.650E-01 0.700E+03   0.200E-02 0.708E-01 -.116E+00
   -.140E+01 -.627E+00 -.208E+04   0.132E+01 0.724E+00 0.207E+04   0.838E-01 -.400E-01 0.553E+01
   -.224E-03 -.170E-03 -.209E+04   0.205E-03 0.164E-03 0.208E+04   0.220E-04 0.966E-05 0.572E+01
   0.100E+00 -.486E-03 0.209E+04   -.101E+00 0.541E-03 -.208E+04   0.484E-03 -.442E-04 -.641E+01
   0.517E-03 0.285E-01 0.209E+04   -.575E-03 -.289E-01 -.208E+04   0.470E-04 0.263E-03 -.641E+01
   0.435E+00 0.129E-01 0.693E+03   -.451E+00 -.194E-01 -.694E+03   0.102E-01 0.461E-02 0.363E+00
   0.441E-05 0.845E-04 0.694E+03   -.141E-05 -.771E-04 -.694E+03   -.130E-05 -.291E-05 0.352E+00
   0.572E+00 -.262E-01 -.698E+03   -.603E+00 0.261E-01 0.698E+03   0.261E-01 -.229E-03 -.228E+00
   0.257E-01 0.543E+00 -.696E+03   -.257E-01 -.576E+00 0.697E+03   0.412E-03 0.178E-01 -.191E+00
   0.140E+01 0.628E+00 -.208E+04   -.132E+01 -.724E+00 0.207E+04   -.838E-01 0.400E-01 0.553E+01
   0.453E-04 0.236E-03 -.208E+04   -.610E-04 -.232E-03 0.207E+04   0.190E-04 -.489E-05 0.551E+01
   0.121E+00 0.769E-03 0.209E+04   -.122E+00 -.724E-03 -.208E+04   0.108E-02 -.287E-04 -.641E+01
   -.489E-03 -.285E-01 0.209E+04   0.549E-03 0.289E-01 -.208E+04   -.404E-04 -.262E-03 -.641E+01
   0.436E+00 -.130E-01 0.693E+03   -.449E+00 0.217E-01 -.694E+03   0.904E-02 -.584E-02 0.362E+00
   0.106E-03 -.839E-04 0.694E+03   -.103E-03 0.788E-04 -.695E+03   -.131E-05 0.543E-05 0.292E+00
   0.157E+01 0.288E-01 -.696E+03   -.166E+01 -.317E-01 0.697E+03   0.699E-01 0.157E-02 -.369E+00
   -.254E-01 -.543E+00 -.696E+03   0.254E-01 0.576E+00 0.697E+03   -.415E-03 -.178E-01 -.191E+00
   0.142E+01 -.611E+00 -.208E+04   -.134E+01 0.701E+00 0.207E+04   -.815E-01 -.374E-01 0.553E+01
   0.773E-04 -.416E-03 -.208E+04   -.789E-04 0.393E-03 0.207E+04   -.118E-06 0.241E-04 0.553E+01
   -.302E+00 0.160E-02 0.520E+03   0.298E+00 -.178E-03 -.519E+03   0.427E-02 -.169E-02 -.853E-01
   -.642E-02 0.558E-01 0.519E+03   0.748E-02 -.693E-01 -.519E+03   -.125E-02 0.150E-01 -.821E-01
   -.816E-01 0.114E-01 0.157E+04   0.829E-01 -.117E-01 -.157E+04   -.167E-02 0.414E-03 0.312E+01
   -.503E-05 0.613E-05 0.157E+04   0.541E-05 -.142E-04 -.157E+04   -.289E-06 0.784E-06 0.312E+01
   -.289E+00 0.526E-01 -.158E+04   0.320E+00 -.578E-01 0.159E+04   -.360E-01 0.477E-02 -.465E+01
   -.136E-01 -.328E+00 -.158E+04   0.584E-02 0.182E+00 0.159E+04   0.952E-02 0.186E+00 -.454E+01
   -.663E+00 0.110E+00 -.517E+03   0.649E+00 -.116E+00 0.517E+03   0.733E-02 0.177E-01 0.316E+00
   -.819E-04 0.846E-04 -.519E+03   0.904E-04 -.850E-04 0.518E+03   -.968E-06 -.177E-05 0.284E+00
   -.433E+00 -.697E-02 0.520E+03   0.414E+00 0.810E-02 -.519E+03   0.229E-01 -.132E-02 -.820E-01
   0.632E-02 -.558E-01 0.519E+03   -.739E-02 0.693E-01 -.519E+03   0.126E-02 -.150E-01 -.821E-01
   -.818E-01 -.112E-01 0.157E+04   0.830E-01 0.116E-01 -.157E+04   -.158E-02 -.514E-03 0.312E+01
   -.302E-04 -.127E-04 0.157E+04   0.135E-04 0.146E-04 -.157E+04   0.466E-05 -.750E-05 0.312E+01
   -.213E+01 -.165E-01 -.158E+04   0.216E+01 0.904E-02 0.158E+04   0.320E-01 0.933E-02 -.434E+01
   0.132E-01 0.328E+00 -.158E+04   -.547E-02 -.183E+00 0.159E+04   -.953E-02 -.186E+00 -.454E+01
   -.676E+00 -.931E-01 -.517E+03   0.667E+00 0.938E-01 0.517E+03   0.150E-02 -.117E-01 0.310E+00
   -.935E-04 -.142E-03 -.523E+03   0.988E-04 0.149E-03 0.523E+03   -.482E-05 -.255E-05 0.159E-01
   0.302E+00 -.151E-02 0.520E+03   -.298E+00 0.848E-04 -.519E+03   -.427E-02 0.169E-02 -.853E-01
   0.147E-02 0.159E+00 0.520E+03   -.159E-04 -.154E+00 -.520E+03   -.172E-02 -.710E-02 -.556E-01
   0.818E-01 0.112E-01 0.157E+04   -.830E-01 -.116E-01 -.157E+04   0.158E-02 0.512E-03 0.312E+01
   0.482E-05 0.176E-04 0.157E+04   -.521E-05 -.120E-04 -.157E+04   -.439E-05 -.200E-05 0.312E+01
   0.289E+00 -.524E-01 -.158E+04   -.320E+00 0.576E-01 0.159E+04   0.360E-01 -.477E-02 -.465E+01
   0.527E-01 0.142E+00 -.158E+04   -.579E-01 -.167E+00 0.158E+04   0.469E-02 0.433E-01 -.461E+01
   0.676E+00 0.931E-01 -.517E+03   -.667E+00 -.938E-01 0.517E+03   -.150E-02 0.117E-01 0.310E+00
   0.219E-04 0.222E-03 -.517E+03   -.143E-04 -.215E-03 0.517E+03   -.178E-05 -.494E-05 0.251E+00
   0.433E+00 0.687E-02 0.520E+03   -.414E+00 -.799E-02 -.519E+03   -.229E-01 0.131E-02 -.820E-01
   -.136E-02 -.159E+00 0.520E+03   -.846E-04 0.154E+00 -.520E+03   0.172E-02 0.710E-02 -.556E-01
   0.816E-01 -.114E-01 0.157E+04   -.829E-01 0.117E-01 -.157E+04   0.168E-02 -.414E-03 0.312E+01
   0.295E-04 -.186E-04 0.157E+04   -.136E-04 0.121E-04 -.158E+04   -.158E-05 0.340E-05 0.312E+01
   0.213E+01 0.162E-01 -.158E+04   -.216E+01 -.876E-02 0.158E+04   -.320E-01 -.933E-02 -.434E+01
   -.526E-01 -.142E+00 -.158E+04   0.577E-01 0.167E+00 0.158E+04   -.467E-02 -.433E-01 -.461E+01
   0.663E+00 -.109E+00 -.517E+03   -.649E+00 0.116E+00 0.517E+03   -.733E-02 -.177E-01 0.316E+00
   0.103E-03 -.224E-03 -.515E+03   -.103E-03 0.222E-03 0.515E+03   0.162E-05 0.312E-05 0.322E+00
   -.270E-04 0.550E-05 0.179E+02   -.728E-13 -.121E-12 -.523E-11   0.198E-04 0.206E-05 -.157E+02

 POSITION                                       TOTAL-FORCE (eV/Angst)
      2.10122      0.00000      7.50000         0.000186     -0.000015      0.406710
      4.20243      2.10122      7.50000        -0.000012      0.000072      0.406335
      2.10122      2.10122      9.60122         0.003436     -0.002138      0.022251
      4.20243      0.00000      9.60122         0.000002      0.000000      0.034614
      2.10182      8.40468     11.71027         0.002250      0.000357      0.015004
      4.20228      2.10389     11.71118         0.000975     -0.007987      0.023568
      2.09838      2.10305     13.79007         0.010591     -0.045217      0.034459
      4.20243      0.00000     13.79487         0.000012     -0.000006      0.046555
      2.10122      4.20243      7.50000         0.000328     -0.000010      0.406264
      4.20243      6.30365      7.50000         0.000006     -0.000062      0.406328
      2.10122      6.30365      9.60122         0.004189      0.001373      0.022403
      4.20243      4.20243      9.60122         0.000003      0.000002      0.028867
      2.10302      4.20226     11.71079         0.008586      0.001101     -0.016970
      4.20258      6.30097     11.71118        -0.000965      0.007984      0.023566
      2.09900      6.30120     13.79060         0.007210      0.048553      0.029978
      4.20243      4.20243     13.81988         0.000004      0.000004     -0.185320
      6.30365      0.00000      7.50000        -0.000190      0.000005      0.406708
      0.00000      2.10122      7.50000        -0.000005     -0.000084      0.405502
      6.30365      2.10122      9.60122        -0.004193     -0.001370      0.022407
      0.00000      0.00000      9.60122         0.000001      0.000005      0.024381
      6.30305      0.00018     11.71027        -0.002263     -0.000357      0.015010
      8.40467      2.10156     11.70823         0.000389     -0.012399      0.006760
      6.30587      2.10366     13.79060        -0.007212     -0.048555      0.029971
      0.00000      0.00000     13.79277         0.000004     -0.000001      0.025958
      6.30365      4.20243      7.50000        -0.000331      0.000013      0.406279
      0.00000      6.30365      7.50000         0.000016      0.000082      0.405495
      6.30365      6.30365      9.60122        -0.003443      0.002141      0.022251
      0.00000      4.20243      9.60122         0.000003      0.000002      0.018658
      6.30184      4.20260     11.71080        -0.008590     -0.001097     -0.016976
      0.00019      6.30331     11.70823        -0.000389      0.012399      0.006770
      6.30648      6.30181     13.79008        -0.010602      0.045220      0.034421
      0.00000      4.20243     13.78706        -0.000002      0.000003      0.028294
      2.10122      0.00000      9.60122         0.001614     -0.000505      0.033032
      4.20243      2.10122      9.60122        -0.000364      0.003508      0.039140
      2.10122      2.10122      7.50000        -0.000579      0.000155     -0.494207
      4.20243      0.00000      7.50000        -0.000000     -0.000007     -0.494265
      2.10117      8.40470     13.83923        -0.009424      0.000082     -0.019636
      4.20208      2.09971     13.84702         0.003174      0.067282     -0.015241
      2.10231      2.09956     11.70391        -0.006460      0.014155     -0.002562
      4.20243      8.40486     11.70684         0.000008     -0.000003     -0.012465
      2.10122      4.20243      9.60122         0.007721     -0.000367      0.037127
      4.20243      6.30365      9.60122         0.000364     -0.003513      0.039133
      2.10122      6.30365      7.50000        -0.000543     -0.000182     -0.494213
      4.20243      4.20243      7.50000        -0.000012     -0.000007     -0.494506
      2.09365      4.20207     13.82608         0.076684      0.003248      0.103033
      4.20278      6.30515     13.84703        -0.003177     -0.067293     -0.015280
      2.10261      6.30500     11.70401        -0.007887     -0.012789     -0.002216
      4.20243      4.20243     11.70863        -0.000000      0.000005      0.009107
      6.30365      0.00000      9.60122        -0.001613      0.000507      0.033035
      0.00000      2.10122      9.60122        -0.000504     -0.003094      0.032726
      6.30365      2.10122      7.50000         0.000542      0.000184     -0.494218
      0.00000      0.00000      7.50000        -0.000006      0.000003     -0.494043
      6.30369      0.00016     13.83924         0.009424     -0.000084     -0.019659
      8.40470      2.09978     13.83589         0.000039      0.024600     -0.004046
      6.30225      2.09986     11.70401         0.007878      0.012775     -0.002221
      8.40486      0.00000     11.70404         0.000006      0.000001     -0.009089
      6.30365      4.20243      9.60122        -0.007719      0.000377      0.037116
      0.00000      6.30365      9.60122         0.000519      0.003087      0.032724
      6.30365      6.30365      7.50000         0.000578     -0.000141     -0.494199
      0.00000      4.20243      7.50000         0.000014     -0.000003     -0.493991
      6.31121      4.20279     13.82608        -0.076676     -0.003247      0.103026
      0.00017      6.30509     13.83589        -0.000054     -0.024601     -0.004034
      6.30255      6.30530     11.70391         0.006458     -0.014154     -0.002559
      0.00000      4.20243     11.69983         0.000001      0.000002      0.016953
    total drift:                               -0.000005      0.000009     -0.001672

  FREE ENERGIE OF THE ION-ELECTRON SYSTEM (eV)
  free  energy   TOTEN  =      -438.71742037 eV

  energy  without entropy=     -438.71742037  energy(sigma->0) =     -438.71742037