 vasp.6.3.0 20Jan22 (build Mar 11 2022 13:48:16) complex

 executed on             LinuxIFC date 2024.01.22  03:28:33

 INCAR:
   SYSTEM = TiO2
   ISMEAR = 0
   SIGMA = 0.05
   EDIFF = 1E-5
   ALGO = ALL
   ISTART = 0
   IBRION = -1
   NSW = 0
   ISYM = 0
   ISIF = 2
   EDIFFG = -0.01
   DIPOL = 0.5 0.5 0.5
   IDIPOL = 3
   LDIPOL = .TRUE.
   GGA = RE
   IVDW = 13
   VDW_S8 = 1.7468
   VDW_A1 = 0.5363
   VDW_A2 = 3.0726
   ENCUT = 600
   PREC = Accurate
   LASPH = .TRUE.
   LREAL = .FALSE.
   ISPIN = 1
   NELM = 200
   NELMIN = 8
   NCORE = 2
   KPAR = 1
   LWAVE = .FALSE.
   LCHARG = .FALSE.

 POTCAR:    PAW_PBE Ti_pv 07Sep2000
 POTCAR:    PAW_PBE O 08Apr2002
|           W    W    AA    RRRRR   N    N  II  N    N   GGGG   !!!           |
|           W    W   A  A   R    R  NN   N  II  NN   N  G    G  !!!           |
|           W    W  A    A  R    R  N N  N  II  N N  N  G       !!!           |
|           W WW W  AAAAAA  RRRRR   N  N N  II  N  N N  G  GGG   !            |
|           WW  WW  A    A  R   R   N   NN  II  N   NN  G    G                |
|           W    W  A    A  R    R  N    N  II  N    N   GGGG   !!!           |
|     For optimal performance we recommend to set                             |
|       NCORE = 2 up to number-of-cores-per-socket                            |
|     This setting can greatly improve the performance of VASP for DFT.       |
|     The default, NCORE=1 might be grossly inefficient on modern             |
|     multi-core architectures or massively parallel machines. Do your        |
|     Unfortunately you need to use the default for GW and RPA                |
|     calculations (for HF NCORE is supported but not extensively tested      |
|     yet).                                                                   |

   TITEL  = PAW_PBE Ti_pv 07Sep2000
   POMASS =   47.880; ZVAL   =   10.000    mass and valenz
   ENMAX  =  222.335; ENMIN  =  166.751 eV

   TITEL  = PAW_PBE O 08Apr2002
   POMASS =   16.000; ZVAL   =    6.000    mass and valenz
   ENMAX  =  400.000; ENMIN  =  300.000 eV

  PAW_PBE Ti_pv 07Sep2000               :
  PAW_PBE O 08Apr2002                   :

 POSCAR: Ti  O
  positions in direct lattice
|           W    W    AA    RRRRR   N    N  II  N    N   GGGG   !!!           |
|           W    W   A  A   R    R  NN   N  II  NN   N  G    G  !!!           |
|           W    W  A    A  R    R  N N  N  II  N N  N  G       !!!           |
|           W WW W  AAAAAA  RRRRR   N  N N  II  N  N N  G  GGG   !            |
|           WW  WW  A    A  R   R   N   NN  II  N   NN  G    G                |
|           W    W  A    A  R    R  N    N  II  N    N   GGGG   !!!           |
|     Specifying the vdW parameters                                           |
|     VDW_S8 = 1.747                                                          |
|     VDW_A1 = 0.536                                                          |
|     VDW_A2 = 3.073                                                          |
|     in the INCAR file will overwrite the defaults for revpbe. Please        |
|     make sure that is what you intended.                                    |

 ion  position               nearest neighbor table
   1  0.804  0.833  0.293-  85 1.97  51 1.97  53 1.97  50 2.01  52 2.01  18 3.09   4 3.09   2 3.09

   2  0.588  0.667  0.325-  49 1.97 116 1.97  52 1.97  54 1.97  53 2.01  55 2.01  33 3.09   3 3.09
                             1 3.09   7 3.11
   3  0.304  0.667  0.293- 121 1.97  55 1.97  57 1.97  49 2.01  56 2.01  36 3.09   2 3.09   4 3.09

   4  0.088  0.833  0.325-  50 1.97  88 1.97  56 1.97  58 1.97  57 2.01  51 2.01  19 3.09   1 3.09
                             3 3.09   5 3.11
   5  0.942  0.833  0.421-  59 1.97  93 1.97  61 1.97  51 2.00  60 2.01  58 2.01   8 3.06   6 3.09
                            22 3.09   4 3.11
   6  0.725  0.666  0.451-  54 1.95 124 1.97  60 1.97  62 1.98  61 2.01  63 2.01   7 3.07   5 3.09
                            37 3.10  11 3.12
   7  0.442  0.667  0.421-  63 1.97 129 1.97  65 1.97  55 1.99  64 2.01  54 2.02   6 3.07   8 3.10
                            40 3.10   2 3.11
   8  0.225  0.833  0.452-  58 1.95  96 1.97  64 1.97  66 1.99  59 2.00  65 2.02   5 3.06   7 3.10
                            23 3.10   9 3.12
   9  0.083  0.834  0.549- 101 1.97  69 1.97  67 1.98  68 2.00  59 2.01  66 2.01  12 3.03  10 3.09
                            26 3.09   8 3.12
  10  0.864  0.666  0.577-  62 1.93 132 1.97  68 1.97  71 1.99  70 2.01  69 2.02  11 3.05   9 3.09
                            41 3.10
  11  0.581  0.667  0.549- 137 1.97  73 1.97  71 1.97  63 1.99  72 2.01  62 2.02  10 3.05  12 3.10
                            44 3.10   6 3.12
  12  0.363  0.833  0.578-  66 1.93 104 1.97  72 1.97  67 1.99  74 1.99  73 2.02   9 3.03  27 3.09
                            11 3.10
  13  0.226  0.833  0.680-  75 1.91  77 1.97 109 1.98  76 2.04  67 2.09  74 2.09  16 2.92  30 3.12
                            14 3.13
  14  0.998  0.666  0.703-  70 1.84  78 1.88 140 2.00  76 2.01  77 2.05  15 2.94  13 3.13  45 3.15

[...]

  17  0.804  0.167  0.293-  85 1.97  83 1.97 117 1.97  82 2.01  84 2.01  18 3.09  20 3.09  34 3.09

[...]

  36  0.088  0.500  0.325- 114 1.97  56 1.97 120 1.97 122 1.97 121 2.01 115 2.01   3 3.09  35 3.09
                            33 3.09  37 3.10
  37  0.943  0.500  0.421-  61 1.97 125 1.97 123 1.97 115 2.00 122 2.00 124 2.01  40 3.07   6 3.10
                            38 3.10  36 3.10
  38  0.725  0.334  0.451- 118 1.95 124 1.97  92 1.97 126 1.98 125 2.01 127 2.01  39 3.07  21 3.09
                            37 3.10  43 3.12
  39  0.442  0.333  0.421- 127 1.97 129 1.97  97 1.97 119 1.99 128 2.01 118 2.02  38 3.07  24 3.10
                            40 3.10  34 3.11
  40  0.225  0.500  0.453-  64 1.97 128 1.97 122 1.98 130 1.99 123 1.99 129 2.02  37 3.07  39 3.10
                             7 3.10  41 3.10
  41  0.085  0.500  0.550-  69 1.97 133 1.97 131 1.97 130 2.00 123 2.02 132 2.02  44 3.04  10 3.10
                            42 3.10  40 3.10
  42  0.864  0.334  0.577- 126 1.93 132 1.97 100 1.97 135 1.99 134 2.01 133 2.02  43 3.05  25 3.09
                            41 3.10
  43  0.581  0.333  0.549- 137 1.97 105 1.97 135 1.97 127 1.99 136 2.01 126 2.02  42 3.05  28 3.10
                            44 3.10  38 3.12
  44  0.365  0.500  0.581-  72 1.98 136 1.98 130 1.98 131 1.98 138 1.99 137 2.03  41 3.04  11 3.10
                            43 3.10  45 3.15
  45  0.230  0.500  0.681- 139 1.90  77 1.98 141 1.98 138 2.05 140 2.07 131 2.09  48 2.96  14 3.15
                            46 3.15  44 3.15
  46  0.998  0.334  0.703- 134 1.84 142 1.88 140 2.00 108 2.01 141 2.05  47 2.94  29 3.13  45 3.15

  47  0.724  0.334  0.677- 142 1.94 144 1.97 112 1.98 143 2.03 135 2.03 134 2.08  46 2.94  48 3.12
                            32 3.12
  48  0.504  0.500  0.709- 139 1.86 138 1.94  79 2.01 143 2.01 144 2.08  45 2.96  15 3.12  47 3.12

  49  0.483  0.667  0.267-   2 1.97   3 2.01
  50  0.983  0.833  0.267-   4 1.97   1 2.01
  51  0.909  0.833  0.351-   1 1.97   5 2.00   4 2.01
  52  0.625  0.833  0.319-  18 1.97   2 1.97   1 2.01
  53  0.768  0.667  0.298-  33 1.97   1 1.97   2 2.01
  54  0.621  0.667  0.394-   6 1.95   2 1.97   7 2.02
  55  0.409  0.667  0.351-   3 1.97   7 1.99   2 2.01
  56  0.125  0.667  0.319-  36 1.97   4 1.97   3 2.01
  57  0.268  0.833  0.298-  19 1.97   3 1.97   4 2.01
  58  0.121  0.833  0.394-   8 1.95   4 1.97   5 2.01
  59  0.047  0.834  0.479-   5 1.97   8 2.00   9 2.01
  60  0.762  0.833  0.447-  22 1.97   6 1.97   5 2.01
  61  0.906  0.667  0.426-   5 1.97  37 1.97   6 2.01
  62  0.760  0.666  0.520-  10 1.93   6 1.98  11 2.02
  63  0.547  0.666  0.479-   7 1.97  11 1.99   6 2.01
  64  0.262  0.667  0.447-  40 1.97   8 1.97   7 2.01
  65  0.405  0.833  0.426-   7 1.97  23 1.97   8 2.02
  66  0.260  0.833  0.521-  12 1.93   8 1.99   9 2.01
  67  0.189  0.833  0.608-   9 1.98  12 1.99  13 2.09
  68  0.901  0.833  0.573-  10 1.97  26 1.97   9 2.00
  69  0.047  0.667  0.553-   9 1.97  41 1.97  10 2.02
  70  0.906  0.668  0.646-  14 1.84  10 2.01  15 2.08
  71  0.690  0.669  0.606-  11 1.97  10 1.99  15 2.03
  72  0.402  0.667  0.575-  12 1.97  44 1.98  11 2.01
  73  0.545  0.833  0.553-  27 1.97  11 1.97  12 2.02
  74  0.406  0.834  0.647-  16 1.84  12 1.99  13 2.09
  75  0.342  0.833  0.733-  16 1.86  13 1.91
  76  0.047  0.833  0.710-  30 2.01  14 2.01  13 2.04
  77  0.187  0.666  0.682-  13 1.97  45 1.98  14 2.05
  78  0.836  0.660  0.732-  14 1.88  15 1.94
  79  0.550  0.669  0.709-  16 1.99  48 2.01  15 2.03
  80  0.688  0.834  0.681-  31 1.97  15 1.98  16 2.05
  81  0.483  0.000  0.267-  18 1.97  19 2.01
  82  0.983  0.167  0.267-  20 1.97  17 2.01
  83  0.909  0.167  0.351-  17 1.97  21 2.00  20 2.01
  84  0.625  0.167  0.319-  18 1.97  34 1.97  17 2.01
  85  0.768  0.000  0.298-   1 1.97  17 1.97  18 2.01
  86  0.621  0.000  0.394-  22 1.95  18 1.97  23 2.01
  87  0.409  0.000  0.351-  19 1.97  23 1.99  18 2.01
  88  0.125  0.000  0.319-   4 1.97  20 1.97  19 2.01
  89  0.268  0.167  0.298-  19 1.97  35 1.97  20 2.01
  90  0.121  0.167  0.394-  24 1.95  20 1.97  21 2.01
  91  0.047  0.166  0.479-  21 1.97  24 2.00  25 2.01
  92  0.762  0.167  0.447-  22 1.97  38 1.97  21 2.01
  93  0.906  0.000  0.426-  21 1.97   5 1.97  22 2.02
  94  0.759  1.000  0.521-  26 1.93  22 1.98  27 2.02
  95  0.547  0.000  0.479-  23 1.97  27 2.00  22 2.01
  96  0.262  0.000  0.447-  24 1.97   8 1.97  23 2.01
  97  0.405  0.167  0.426-  39 1.97  23 1.97  24 2.02
  98  0.260  0.167  0.521-  28 1.93  24 1.99  25 2.01
  99  0.189  0.167  0.608-  25 1.98  28 1.99  29 2.09
 100  0.901  0.167  0.573-  42 1.97  26 1.97  25 2.00
 101  0.046  1.000  0.554-   9 1.97  25 1.97  26 2.03
 102  0.907  0.000  0.647-  30 1.85  26 2.00  31 2.08
 103  0.690  0.000  0.607-  27 1.98  26 1.99  31 2.08
 104  0.401  0.000  0.574-  28 1.97  12 1.97  27 2.01
 105  0.545  0.167  0.553-  27 1.97  43 1.97  28 2.02
 106  0.406  0.166  0.647-  32 1.84  28 1.99  29 2.09
 107  0.342  0.167  0.733-  32 1.86  29 1.91
 108  0.047  0.167  0.710-  30 2.01  46 2.01  29 2.04
[...]
 130  0.261  0.500  0.522-  44 1.98  40 1.99  41 2.00
 131  0.190  0.500  0.608-  41 1.97  44 1.98  45 2.09
 132  0.902  0.500  0.574-  42 1.97  10 1.97  41 2.02
 133  0.047  0.333  0.553-  25 1.97  41 1.97  42 2.02
 134  0.906  0.332  0.646-  46 1.84  42 2.01  47 2.08
 135  0.690  0.331  0.606-  43 1.97  42 1.99  47 2.03
 136  0.402  0.333  0.575-  28 1.97  44 1.98  43 2.01
 137  0.546  0.500  0.554-  11 1.97  43 1.97  44 2.03
 138  0.407  0.500  0.650-  48 1.94  44 1.99  45 2.05
 139  0.341  0.500  0.735-  48 1.86  45 1.90
 140  0.048  0.500  0.710-  14 2.00  46 2.00  45 2.07
 141  0.187  0.334  0.682-  29 1.97  45 1.98  46 2.05
 142  0.836  0.340  0.732-  46 1.88  47 1.94
 143  0.550  0.331  0.709-  32 1.99  48 2.01  47 2.03
 144  0.684  0.500  0.676-  47 1.97  15 1.97  48 2.08

IMPORTANT INFORMATION: All symmetrisations will be switched off!
NOSYMM: (Re-)initialisation of all symmetry stuff for point group C_1.

                                     Primitive cell

  volume of cell :    3393.6075

[...]
   4.25968104  7.71797456  9.88664838
   1.29803342  7.71797456  8.99054093
   2.78849410  9.64746821  8.39610745
   1.25640789  9.64746821 11.08442980
   0.49232191  9.64965578 13.48829726
   7.93994839  9.64675764 12.57345660
[...]
   2.72221632  5.78848083 14.69022210
   1.98015222  5.78848048 17.11826894
   9.39750275  5.78848013 16.15124055
   0.48689764  3.85987583 15.57313572
   9.44141874  3.84671678 18.19237919
   7.18961592  3.82761580 17.05539463
   4.18841137  3.85912241 16.17838348
   5.68880985  5.78848123 15.59452129
   4.24415889  5.78848069 18.28831140
   3.54859558  5.78847923 20.68342803
   0.49539282  5.78848168 19.97920930
   1.94540542  3.86315086 19.20494694
   8.71056542  3.93495293 20.60199216
   5.72991201  3.83636052 19.96144963
   7.12728591  5.78848018 19.03287377

--------------------------------------- Iteration      FINAL  ---------------------------------------

--------------------OUTCAR has been truncated-------------------------

[...]

--------------------OUTCAR has been truncated-------------------------

  FORCE on cell =-STRESS in cart. coord.  units (eV):
  Direction    XX          YY          ZZ          XY          YZ          ZX
  Alpha Z  2320.65960  2320.65960  2320.65960
  Ewald  469280.42452462541.88368************    -0.00018     0.00024 -2384.68898
  Hartree490451.63149486343.25947************    -0.00009     0.00017 -1537.35415
  E(xc)   -5141.32349 -5148.00173 -5157.66980    -0.00000     0.00000    -2.95689
  Local  ************************968000.07552     0.00028    -0.00042  3931.57454
  n-local -3232.45322 -3212.27140 -3248.15076    -0.00000    -0.00001    -3.11686
  augment  3137.64274  3128.45324  3119.44397     0.00000     0.00000    -3.52137
  Kinetic 16962.25476 17010.08091 17060.33112    -0.00002     0.00002   -17.15433
  Fock        0.00000     0.00000     0.00000     0.00000     0.00000     0.00000
  vdW       -63.40029   -65.64766   -56.07326    -0.00000     0.00000    -0.55978
  Total    -131.89460  -113.37434   -96.30272    -0.00002     0.00000   -17.77784
  in kB     -62.26959   -53.52587   -45.46608    -0.00001     0.00000    -8.39321

 VOLUME and BASIS-vectors are now :
  energy-cutoff  :      600.00
  volume of cell :     3393.61
      direct lattice vectors                 reciprocal lattice vectors
    10.417029087  0.000000000  0.000000000     0.095996660 -0.000000000  0.000000000
     0.000000000 11.576961846  0.000000000     0.000000000  0.086378448  0.000000000
     0.000000000  0.000000000 28.139937787     0.000000000  0.000000000  0.035536681

  length of vectors
    10.417029087 11.576961846 28.139937787     0.095996660  0.086378448  0.035536681

 FORCES acting on ions:
    Electron-Ion                     Ewald-Force                    Non-Local-Force
   0.612E+01 0.854E-01 0.324E+04   -.136E+01 -.871E-01 -.323E+04   -.112E+01 0.232E-03 -.353E+01
   0.344E+01 0.665E-01 0.266E+04   -.485E+01 -.673E-01 -.266E+04   -.655E-01 -.600E-04 0.235E-02
   0.631E+01 0.279E+00 0.324E+04   -.157E+01 -.284E+00 -.323E+04   -.111E+01 0.130E-02 -.353E+01
   0.241E+01 0.295E+00 0.266E+04   -.386E+01 -.302E+00 -.266E+04   -.598E-01 0.156E-02 -.339E-03
   -.429E+00 0.286E+00 0.120E+04   0.389E+00 -.281E+00 -.120E+04   0.914E-01 0.175E-03 -.236E-01
   0.205E+01 -.747E+00 0.744E+03   -.206E+01 0.728E+00 -.744E+03   -.283E-01 0.200E-01 -.836E-01
   0.187E+01 0.605E+00 0.120E+04   -.191E+01 -.612E+00 -.120E+04   0.829E-01 0.596E-02 -.391E-01
   -.171E+01 0.115E+01 0.736E+03   0.162E+01 -.114E+01 -.736E+03   -.797E-02 -.962E-03 -.644E-01
   -.622E+01 0.102E+00 -.766E+03   0.607E+01 -.819E-01 0.766E+03   0.189E+00 0.299E-04 0.110E+00
   -.326E+01 0.199E+01 -.117E+04   0.313E+01 -.194E+01 0.117E+04   -.278E-01 -.501E-01 -.165E+00
   0.190E+01 0.198E+01 -.745E+03   -.198E+01 -.195E+01 0.745E+03   0.138E+00 -.346E-02 0.591E-01
   0.429E+01 0.183E+01 -.119E+04   -.447E+01 -.178E+01 0.119E+04   -.335E-01 -.144E-01 -.182E+00
   0.228E+02 -.378E+00 -.269E+04   -.235E+02 0.392E+00 0.269E+04   0.724E+00 0.559E-02 -.161E+00
   -.512E+02 -.910E+01 -.310E+04   0.499E+02 0.889E+01 0.310E+04   0.214E+00 0.184E+00 0.122E+01
   0.105E+02 -.614E+01 -.266E+04   -.105E+02 0.622E+01 0.266E+04   0.535E+00 -.276E-01 -.911E-01
   -.583E+02 -.397E+01 -.310E+04   0.574E+02 0.416E+01 0.310E+04   0.214E+00 -.290E-01 0.125E+01
   0.612E+01 -.855E-01 0.324E+04   -.136E+01 0.871E-01 -.323E+04   -.112E+01 -.237E-03 -.353E+01
   0.328E+01 -.443E-04 0.266E+04   -.471E+01 0.449E-04 -.266E+04   -.618E-01 0.716E-06 -.106E-02
   0.620E+01 -.539E-04 0.324E+04   -.144E+01 0.371E-04 -.323E+04   -.111E+01 -.226E-05 -.353E+01
   0.241E+01 -.295E+00 0.266E+04   -.386E+01 0.303E+00 -.266E+04   -.598E-01 -.156E-02 -.335E-03
   -.429E+00 -.287E+00 0.120E+04   0.389E+00 0.282E+00 -.120E+04   0.914E-01 -.180E-03 -.236E-01
   0.918E-01 0.600E-04 0.741E+03   -.150E+00 -.552E-04 -.741E+03   -.466E-02 -.278E-05 -.758E-01
   0.135E+01 -.293E-03 0.120E+04   -.139E+01 0.320E-03 -.120E+04   0.841E-01 -.285E-05 -.356E-01
   -.171E+01 -.115E+01 0.736E+03   0.162E+01 0.114E+01 -.736E+03   -.797E-02 0.961E-03 -.644E-01
   -.622E+01 -.102E+00 -.766E+03   0.607E+01 0.818E-01 0.766E+03   0.189E+00 -.344E-04 0.110E+00
   -.113E+01 0.286E-03 -.118E+04   0.938E+00 -.289E-03 0.118E+04   -.102E-01 -.246E-05 -.170E+00
   -.303E+01 0.278E-03 -.758E+03   0.292E+01 -.295E-03 0.758E+03   0.174E+00 -.116E-05 0.122E+00
   0.429E+01 -.183E+01 -.119E+04   -.447E+01 0.178E+01 0.119E+04   -.336E-01 0.144E-01 -.182E+00
   0.228E+02 0.378E+00 -.269E+04   -.235E+02 -.393E+00 0.269E+04   0.724E+00 -.558E-02 -.161E+00
   -.585E+02 0.984E-04 -.310E+04   0.576E+02 -.888E-04 0.310E+04   0.184E+00 -.724E-05 0.124E+01
   0.151E+02 0.435E-03 -.268E+04   -.155E+02 -.453E-03 0.268E+04   0.637E+00 -.471E-05 -.121E+00
   -.583E+02 0.397E+01 -.310E+04   0.574E+02 -.416E+01 0.310E+04   0.214E+00 0.290E-01 0.125E+01
   0.604E+01 0.315E-04 0.324E+04   -.126E+01 -.346E-04 -.323E+04   -.112E+01 -.320E-06 -.353E+01
   0.344E+01 -.664E-01 0.266E+04   -.485E+01 0.672E-01 -.266E+04   -.655E-01 0.600E-04 0.234E-02
   0.631E+01 -.279E+00 0.324E+04   -.157E+01 0.284E+00 -.323E+04   -.111E+01 -.130E-02 -.353E+01
   0.180E+01 0.643E-04 0.265E+04   -.324E+01 -.563E-04 -.266E+04   -.655E-01 0.701E-06 -.384E-02
   -.137E+01 0.395E-03 0.120E+04   0.137E+01 -.414E-03 -.120E+04   0.886E-01 0.483E-05 0.240E-01
   0.205E+01 0.747E+00 0.744E+03   -.206E+01 -.728E+00 -.744E+03   -.283E-01 -.200E-01 -.836E-01
   0.187E+01 -.605E+00 0.120E+04   -.191E+01 0.612E+00 -.120E+04   0.830E-01 -.595E-02 -.391E-01
   -.335E+01 0.315E-04 0.721E+03   0.326E+01 -.323E-04 -.721E+03   -.196E-01 0.325E-05 0.423E-03
   -.541E+01 0.625E-04 -.775E+03   0.530E+01 -.588E-04 0.775E+03   0.149E+00 0.325E-05 0.150E+00
   -.326E+01 -.199E+01 -.117E+04   0.313E+01 0.194E+01 0.117E+04   -.278E-01 0.501E-01 -.165E+00
   0.190E+01 -.198E+01 -.745E+03   -.198E+01 0.195E+01 0.745E+03   0.138E+00 0.346E-02 0.591E-01
   0.628E+00 0.794E-04 -.124E+04   -.817E+00 -.873E-04 0.124E+04   -.417E-01 0.571E-06 0.578E-01
   0.245E+02 -.346E-03 -.270E+04   -.254E+02 0.354E-03 0.270E+04   0.618E+00 0.142E-05 -.800E-01
   -.512E+02 0.910E+01 -.310E+04   0.499E+02 -.888E+01 0.310E+04   0.214E+00 -.184E+00 0.122E+01
   0.105E+02 0.614E+01 -.266E+04   -.105E+02 -.622E+01 0.266E+04   0.535E+00 0.276E-01 -.911E-01
   -.655E+02 -.215E-03 -.320E+04   0.634E+02 0.215E-03 0.319E+04   0.812E+00 0.354E-05 0.281E+01
   -.342E+02 0.548E-01 0.219E+04   0.391E+02 -.554E-01 -.220E+04   -.665E+01 0.920E-03 0.169E+02
   -.345E+02 0.567E-01 0.219E+04   0.394E+02 -.588E-01 -.220E+04   -.665E+01 0.269E-02 0.169E+02
   0.830E+02 0.186E+00 0.132E+04   -.879E+02 -.189E+00 -.132E+04   0.406E+01 0.264E-02 -.403E+01
   0.753E+02 0.604E-01 0.161E+04   -.821E+02 -.593E-01 -.161E+04   0.724E+01 -.221E-02 -.283E+01
   -.867E+02 0.422E-01 0.186E+04   0.938E+02 -.450E-01 -.186E+04   -.687E+01 0.719E-02 -.137E+00
   -.748E+02 -.385E+00 0.101E+04   0.808E+02 0.417E+00 -.101E+04   -.620E+01 -.306E-01 0.370E+01
   0.837E+02 0.299E+00 0.132E+04   -.886E+02 -.287E+00 -.132E+04   0.404E+01 -.150E-01 -.391E+01
   0.747E+02 0.257E+00 0.161E+04   -.815E+02 -.265E+00 -.161E+04   0.726E+01 0.192E-01 -.285E+01
   -.867E+02 0.133E+00 0.186E+04   0.937E+02 -.132E+00 -.186E+04   -.685E+01 -.177E-02 -.140E+00
   -.782E+02 0.470E+00 0.101E+04   0.845E+02 -.473E+00 -.101E+04   -.637E+01 0.852E-03 0.375E+01
   0.801E+02 -.101E-01 0.149E+03   -.866E+02 0.454E-01 -.145E+03   0.660E+01 -.383E-01 -.392E+01
   0.806E+02 0.268E+00 0.454E+03   -.871E+02 -.293E+00 -.451E+03   0.658E+01 0.242E-01 -.284E+01
[...]
   0.878E+02 0.481E-04 -.105E+04   -.950E+02 -.488E-04 0.105E+04   0.735E+01 0.154E-04 -.583E+01
   0.738E+02 -.135E-03 -.711E+03   -.799E+02 0.136E-03 0.714E+03   0.616E+01 0.829E-05 -.297E+01
   -.844E+02 -.146E+01 -.459E+03   0.909E+02 0.146E+01 0.456E+03   -.651E+01 0.240E-01 0.271E+01
   -.690E+02 0.552E+01 -.127E+04   0.722E+02 -.607E+01 0.127E+04   -.298E+01 0.566E+00 0.770E+01
   0.833E+02 0.847E+01 -.102E+04   -.896E+02 -.920E+01 0.102E+04   0.637E+01 0.756E+00 -.462E+01
   0.805E+02 -.269E+01 -.720E+03   -.869E+02 0.268E+01 0.723E+03   0.649E+01 0.789E-01 -.282E+01
   -.760E+02 0.351E-03 -.465E+03   0.822E+02 -.379E-03 0.463E+03   -.627E+01 0.756E-05 0.235E+01
   -.760E+02 -.140E-03 -.131E+04   0.813E+02 0.140E-03 0.130E+04   -.493E+01 0.297E-05 0.647E+01
   0.606E+02 -.809E-04 -.220E+04   -.671E+02 0.524E-04 0.222E+04   0.720E+01 0.366E-04 -.192E+02
   0.544E+02 0.165E-03 -.195E+04   -.581E+02 -.174E-03 0.195E+04   0.390E+01 0.695E-05 -.716E+01
   -.616E+02 -.122E+00 -.161E+04   0.665E+02 0.191E+00 0.161E+04   -.472E+01 0.133E-01 0.269E+01
   0.519E+02 -.556E+01 -.220E+04   -.581E+02 0.671E+01 0.222E+04   0.667E+01 -.130E+01 -.199E+02
   0.589E+02 0.298E+00 -.194E+04   -.634E+02 -.457E+00 0.195E+04   0.442E+01 0.707E+00 -.587E+01
   -.491E+02 -.353E-03 -.154E+04   0.531E+02 0.359E-03 0.153E+04   -.422E+01 -.186E-04 0.629E+01
   -.862E+01 0.107E-03 0.601E+02   -.568E-13 0.839E-12 -.364E-11   0.862E+01 -.982E-04 -.601E+02

 POSITION                                       TOTAL-FORCE (eV/Angst)
      8.37521      9.64747      8.24527         3.680496     -0.001382      2.071626
      6.12834      7.71797      9.14138        -1.478714     -0.000870     -1.580450
      3.16670      7.71797      8.24527         3.653831     -0.003570      2.057956
      0.91983      9.64747      9.14138        -1.506511     -0.005457     -1.573629
      9.81418      9.64809     11.85255         0.050633      0.006218      0.139662
      7.55357      7.71468     12.70010        -0.051559     -0.003754     -0.117938
      4.59953      7.71636     11.84963         0.039483     -0.002319      0.116897
      2.33910      9.64731     12.71216        -0.109383      0.005510     -0.117592
      0.86051      9.64953     15.46228         0.023465      0.022617      0.169769
      9.00067      7.71536     16.23498        -0.193244     -0.004074     -0.193571
      6.05364      7.71641     15.44109         0.046257      0.026302      0.100189
      3.78024      9.64727     16.26921        -0.247227      0.043273     -0.266800
      2.35678      9.64081     19.14599         0.053398      0.015296      0.404548
     10.39317      7.70476     19.77109        -1.326710     -0.047584     -0.491704
      7.54525      7.70996     19.05713         0.521278      0.033415      0.708657
      5.21260      9.65633     19.77172        -0.934326      0.162506     -0.666201
      8.37521      1.92949      8.24527         3.680545      0.001369      2.071608
      6.12834      0.00000      9.14138        -1.492842      0.000001     -1.576196
      3.16670      0.00000      8.24527         3.670696     -0.000019      2.065947
      0.91983      1.92949      9.14138        -1.506525      0.005460     -1.573581
      9.81418      1.92888     11.85255         0.050617     -0.006183      0.139652
      7.54920     11.57696     12.70469        -0.074653      0.000002     -0.108981
      4.60179     11.57696     11.85159         0.049634      0.000023      0.140587
      2.33909      1.92966     12.71216        -0.109364     -0.005507     -0.117635
      0.86051      1.92743     15.46228         0.023430     -0.022616      0.169759
      8.98858     11.57696     16.25044        -0.246984     -0.000005     -0.231374
      6.05744      0.00000     15.45169         0.056758     -0.000016      0.156263
      3.78024      1.92970     16.26921        -0.247211     -0.043274     -0.266822
      2.35678      1.93615     19.14599         0.053388     -0.015290      0.404579
     10.41301     11.57696     19.77002        -0.974851      0.000002     -0.657970
      7.57437     11.57696     19.11726         0.197458     -0.000023      0.418229
      5.21260      1.92063     19.77172        -0.934345     -0.162508     -0.666150
      8.37521      5.78848      8.24527         3.696774     -0.000004      2.077470
      6.12834      3.85899      9.14138        -1.478694      0.000880     -1.580474
      3.16670      3.85899      8.24527         3.653808      0.003585      2.057949
      0.91983      5.78848      9.14138        -1.499799      0.000009     -1.516487
      9.82492      5.78848     11.85204         0.091234     -0.000012      0.098422
      7.55357      3.86228     12.70010        -0.051547      0.003734     -0.117951
      4.59953      3.86060     11.84963         0.039472      0.002288      0.116895
      2.34323      5.78848     12.73593        -0.119161      0.000003     -0.065795
      0.88647      5.78848     15.47433         0.054567      0.000007      0.083050
      9.00067      3.86160     16.23498        -0.193222      0.004083     -0.193618
      6.05364      3.86055     15.44109         0.046238     -0.026286      0.100174
      3.80106      5.78848     16.34665        -0.258662     -0.000007     -0.352679
      2.39753      5.78848     19.16866        -0.220873      0.000010      0.218963
     10.39317      3.87220     19.77109        -1.326723      0.047556     -0.491648
      7.54525      3.86700     19.05713         0.521267     -0.033391      0.708708
      5.25210      5.78848     19.94300        -1.486663      0.000004     -2.133609
      5.03536      7.71797      7.50000        -1.739793      0.000315      1.450780
     10.24388      9.64747      7.50000        -1.737647      0.000596      1.445962
      9.46820      9.64747      9.88665        -0.844457     -0.000898     -0.237552
      6.50655      9.64747      8.99054         0.405197     -0.001100     -0.114801
      7.99701      7.71797      8.39611         0.184904      0.004432     -0.964305
      6.46492      7.71797     11.08443        -0.143227      0.001567      0.434535
      4.25968      7.71797      9.88665        -0.848507     -0.002550     -0.225085
      1.29803      7.71797      8.99054         0.416774      0.011185     -0.122910
      2.78849      9.64747      8.39611         0.196104     -0.001487     -0.966642
      1.25641      9.64747     11.08443        -0.093370     -0.002006      0.494556
      0.49232      9.64966     13.48830         0.078317     -0.003275     -0.169486
      7.93995      9.64676     12.57346         0.100943     -0.000921     -0.054961
[...]
      2.72222      5.78848     14.69022        -0.055501      0.000006      0.148512
      1.98015      5.78848     17.11827         0.227722      0.000015     -0.266722
      9.39750      5.78848     16.15124         0.075770      0.000009     -0.069824
      0.48690      3.85988     15.57314        -0.055508      0.018554      0.046016
      9.44142      3.84672     18.19238         0.295108      0.018240      0.360013
      7.18962      3.82762     17.05539         0.078424      0.030213     -0.273734
      4.18841      3.85912     16.17838         0.088132      0.068112     -0.032077
      5.68881      5.78848     15.59452        -0.080147     -0.000020      0.040657
      4.24416      5.78848     18.28831         0.413202      0.000003      0.802932
      3.54860      5.78848     20.68343         0.680320      0.000008     -0.468573
      0.49539      5.78848     19.97921         0.186925     -0.000003     -0.232002
      1.94541      3.86315     19.20495         0.245851      0.081156     -0.030455
      8.71057      3.93495     20.60199         0.471778     -0.162317     -1.102139
      5.72991      3.83636     19.96145        -0.052471      0.547875      0.138914
      7.12729      5.78848     19.03287        -0.218391     -0.000012      0.500463
    total drift:                               -0.004170      0.000009      0.059517

  FREE ENERGIE OF THE ION-ELECTRON SYSTEM (eV)
  free  energy   TOTEN  =     -1270.71522898 eV

  energy  without entropy=    -1270.71522898  energy(sigma->0) =    -1270.71522898