 vasp.6.4.1 05Apr23 (build Sep 19 2024 10:44:22) complex

 executed on             LinuxIFC date 2024.10.13  21:55:10

 INCAR:
   SYSTEM = TiO2
   ISMEAR = 0
   SIGMA = 0.05
   EDIFF = 1E-7
   ALGO = ALL
   ISTART = 0
   IBRION = 2
   NSW = 1000
   ISYM = 0
   ISIF = 2
   EDIFFG = -0.01
   DIPOL = 0.5 0.5 0.5
   IDIPOL = 3
   LDIPOL = .TRUE.
   GGA = PE
   IVDW = 21
   ENCUT = 600
   PREC = Accurate
   LASPH = .TRUE.
   LREAL = .FALSE.
   ISPIN = 1
   NELM = 200
   NELMIN = 8
   NCORE = 8
   KPAR = 1
   LWAVE = .FALSE.
   LCHARG = .FALSE.

 POTCAR:    PAW_PBE C 08Apr2002
 POTCAR:    PAW_PBE O 08Apr2002
 POTCAR:    PAW_PBE Ti_pv 07Sep2000
 POTCAR:    PAW_PBE O 08Apr2002
|           W    W    AA    RRRRR   N    N  II  N    N   GGGG   !!!           |
|           W    W   A  A   R    R  NN   N  II  NN   N  G    G  !!!           |
|           W    W  A    A  R    R  N N  N  II  N N  N  G       !!!           |
|           W WW W  AAAAAA  RRRRR   N  N N  II  N  N N  G  GGG   !            |
|           WW  WW  A    A  R   R   N   NN  II  N   NN  G    G                |
|           W    W  A    A  R    R  N    N  II  N    N   GGGG   !!!           |
|     For optimal performance we recommend to set                             |
|       NCORE = 2 up to number-of-cores-per-socket                            |
|     This setting can greatly improve the performance of VASP for DFT.       |
|     The default, NCORE=1 might be grossly inefficient on modern             |
|     multi-core architectures or massively parallel machines. Do your        |
|     Unfortunately you need to use the default for GW and RPA                |
|     calculations (for HF NCORE is supported but not extensively tested      |
|     yet).                                                                   |

   TITEL  = PAW_PBE C 08Apr2002
   POMASS =   12.011; ZVAL   =    4.000    mass and valenz
   ENMAX  =  400.000; ENMIN  =  300.000 eV

[...]

   TITEL  = PAW_PBE Ti_pv 07Sep2000
   POMASS =   47.880; ZVAL   =   10.000    mass and valenz
   ENMAX  =  222.335; ENMIN  =  166.751 eV

   TITEL  = PAW_PBE O 08Apr2002
   POMASS =   16.000; ZVAL   =    6.000    mass and valenz
   ENMAX  =  400.000; ENMIN  =  300.000 eV

  PAW_PBE C 08Apr2002                   :
  PAW_PBE O 08Apr2002                   :
  PAW_PBE Ti_pv 07Sep2000               :
  PAW_PBE O 08Apr2002                   :

 POSCAR:  C  O Ti  O
  positions in direct lattice
 exchange correlation table for  LEXCH =        8
   RHO(1)=    0.500       N(1)  =     2000
   RHO(2)=  100.500       N(2)  =     4000

 ion  position               nearest neighbor table
   1  0.500  0.611  0.802-   2 1.18   3 1.18
   2  0.500  0.709  0.808-   1 1.18
   3  0.500  0.513  0.796-   1 1.18
   4  0.750  0.625  0.287-  84 1.96  85 1.96 144 1.96 145 1.96  87 1.98 166 1.98  14 2.97  34 2.97

   5  0.000  0.750  0.287-  86 1.96  87 1.96 106 1.96 107 1.96  88 1.98  35 2.97  15 2.97
   6  0.000  0.625  0.393-  88 1.96  89 1.96 148 1.96 149 1.96  90 1.98  91 1.98  16 2.97  36 2.97

[...]

  83  0.500  0.500  0.708- 237 1.81 242 1.95 182 1.95 243 1.95 183 1.95  53 2.97  73 2.97
  84  0.750  0.750  0.245-   4 1.96  14 1.96
  85  0.750  0.750  0.329-   4 1.96  14 1.96   7 1.98
  86  0.098  0.625  0.287-   5 1.96  35 1.96  44 1.98
  87  0.902  0.625  0.287-   5 1.96  35 1.96   4 1.98
  88  0.000  0.750  0.352-   6 1.96  16 1.96   5 1.98
  89  0.000  0.750  0.435-   6 1.96  16 1.96   9 1.98
  90  0.848  0.625  0.393-   7 1.96  37 1.96   6 1.98
  91  0.152  0.625  0.393-  47 1.96  77 1.96   6 1.98
  92  0.750  0.750  0.458-   8 1.96  18 1.96   7 1.98
  93  0.750  0.750  0.542-   8 1.96  18 1.96  11 2.11
  94  0.098  0.625  0.500-   9 1.96  39 1.96  48 1.98
  95  0.902  0.625  0.500-   9 1.96  39 1.96   8 1.98
  96  1.000  0.750  0.566-  20 1.90  10 1.90   9 2.01
  97  1.000  0.750  0.649-  13 1.81  10 2.02  20 2.02
  98  0.850  0.625  0.607-  10 1.96  11 1.98  41 1.98
  99  0.150  0.625  0.607-  10 1.96  81 1.98  51 1.98
 100  0.750  0.750  0.672-  11 1.87  12 2.10  22 2.10
 101  0.750  0.750  0.756-  22 1.84  12 1.84
 102  0.094  0.625  0.719-  13 1.95  43 1.95  52 2.04
 103  0.906  0.625  0.719-  43 1.95  13 1.95  12 2.04
 104  0.750  0.000  0.245-  14 1.96  24 1.96
 105  0.750  0.000  0.329-  14 1.96  24 1.96  17 1.98
 106  0.098  0.875  0.287-   5 1.96  15 1.96  54 1.98
 107  0.902  0.875  0.287-   5 1.96  15 1.96  14 1.98
 108  0.000  0.000  0.352-  16 1.96  26 1.96  15 1.98
 109  0.000  0.000  0.435-  16 1.96  26 1.96  19 1.98
 110  0.848  0.875  0.393-   7 1.96  17 1.96  16 1.98
 111  0.152  0.875  0.393-  47 1.96  57 1.96  16 1.98
 112  0.750  0.000  0.458-  18 1.96  28 1.96  17 1.98
 113  0.750  0.000  0.542-  18 1.96  28 1.96  21 2.11
 114  0.098  0.875  0.500-   9 1.96  19 1.96  58 1.98
 115  0.902  0.875  0.500-   9 1.96  19 1.96  18 1.98
 116  1.000  1.000  0.566-  20 1.90  30 1.90  19 2.01
 117  1.000  1.000  0.649-  23 1.81  30 2.02  20 2.02
 118  0.850  0.875  0.607-  20 1.96  11 1.98  21 1.98
 119  0.150  0.875  0.607-  20 1.96  51 1.98  61 1.98
 120  0.750  0.000  0.672-  21 1.87  32 2.10  22 2.10
 121  0.750  1.000  0.756-  22 1.84  32 1.84
 122  0.094  0.875  0.719-  13 1.95  23 1.95  62 2.04
 123  0.906  0.875  0.719-  13 1.95  23 1.95  22 2.04
 124  0.750  0.250  0.245-  24 1.96  34 1.96
 125  0.750  0.250  0.329-  24 1.96  34 1.96  27 1.98
 126  0.098  0.125  0.287-  15 1.96  25 1.96  64 1.98
 127  0.902  0.125  0.287-  15 1.96  25 1.96  24 1.98
 128  0.000  0.250  0.352-  26 1.96  36 1.96  25 1.98
 129  0.000  0.250  0.435-  26 1.96  36 1.96  29 1.98
 130  0.848  0.125  0.393-  17 1.96  27 1.96  26 1.98
 131  0.152  0.125  0.393-  57 1.96  67 1.96  26 1.98
 132  0.750  0.250  0.458-  28 1.96  38 1.96  27 1.98
 133  0.750  0.250  0.542-  28 1.96  38 1.96  31 2.11
 134  0.098  0.125  0.500-  19 1.96  29 1.96  68 1.98
 135  0.902  0.125  0.500-  19 1.96  29 1.96  28 1.98
 136  1.000  0.250  0.566-  40 1.90  30 1.90  29 2.01
 137  1.000  0.250  0.649-  33 1.81  30 2.02  40 2.02
 138  0.850  0.125  0.607-  30 1.96  21 1.98  31 1.98
 139  0.150  0.125  0.607-  30 1.96  71 1.98  61 1.98
 140  0.750  0.250  0.672-  31 1.87  32 2.10  42 2.10
 141  0.750  0.250  0.756-  42 1.84  32 1.84
 142  0.094  0.125  0.719-  33 1.95  23 1.95  72 2.04
[...]
 229  0.500  0.500  0.435-  46 1.96  76 1.96  79 1.98
 230  0.348  0.375  0.393-  67 1.96  77 1.96  76 1.98
 231  0.652  0.375  0.393-  27 1.96  37 1.96  76 1.98
 232  0.250  0.500  0.458-  48 1.96  78 1.96  77 1.98
 233  0.250  0.500  0.542-  48 1.96  78 1.96  81 2.11
 234  0.598  0.375  0.500-  69 1.96  79 1.96  38 1.98
 235  0.402  0.375  0.500-  69 1.96  79 1.96  78 1.98
 236  0.500  0.500  0.566-  80 1.90  50 1.90  79 2.01
 237  0.500  0.500  0.649-  83 1.81  50 2.02  80 2.02
 238  0.350  0.375  0.607-  80 1.96  81 1.98  71 1.98
 239  0.650  0.375  0.607-  80 1.96  41 1.98  31 1.98
 240  0.250  0.500  0.672-  81 1.87  52 2.10  82 2.10
 241  0.250  0.500  0.756-  82 1.84  52 1.84
 242  0.594  0.375  0.719-  83 1.95  73 1.95  42 2.04
 243  0.406  0.375  0.719-  83 1.95  73 1.95  82 2.04

IMPORTANT INFORMATION: All symmetrisations will be switched off!
NOSYMM: (Re-)initialisation of all symmetry stuff for point group C_1.

                                     Primitive cell

  volume of cell :    4740.1649

  direct lattice vectors                    reciprocal lattice vectors
    13.042933829  0.000000000  0.000000000     0.076669867  0.000000000  0.000000000
     0.000000000 11.878216733  0.000000000     0.000000000  0.084187721  0.000000000
     0.000000000  0.000000000 30.596159140     0.000000000  0.000000000  0.032683841

  length of vectors
    13.042933829 11.878216733 30.596159140     0.076669867  0.084187721  0.032683841

  position of ions in fractional coordinates (direct lattice)
     0.499999676  0.610714571  0.802317981
     0.499999566  0.708710784  0.807719333
     0.499999802  0.512563116  0.795948118
     0.750000000  0.625000000  0.286853412
     0.000000000  0.750000000  0.286853412
     0.000000000  0.625000000  0.393426706
     0.750000000  0.750000000  0.393426706
     0.750000000  0.625000000  0.500000000
     0.000000000  0.750000000  0.500000000
     0.999999988  0.624999996  0.604420548
     0.750000029  0.750000004  0.610781620
     0.749999986  0.624999976  0.720512796
     0.999999994  0.750000000  0.708478094
     0.750000000  0.875000000  0.286853412
     0.000000000  0.000000000  0.286853412
     0.000000000  0.875000000  0.393426706
     0.750000000  0.000000000  0.393426706
     0.750000000  0.875000000  0.500000000
     0.000000000  0.000000000  0.500000000
     0.000000047  0.874999985  0.604420536
     0.750000015  0.999999991  0.610781625
     0.749999989  0.874999980  0.720512821
     0.999999986  0.999999992  0.708478097
     0.750000000  0.125000000  0.286853412
     0.000000000  0.250000000  0.286853412
     0.000000000  0.125000000  0.393426706
     0.750000000  0.250000000  0.393426706
     0.750000000  0.125000000  0.500000000
     0.000000000  0.250000000  0.500000000
     0.999999985  0.125000011  0.604420556
     0.749999996  0.250000012  0.610781629
     0.750000000  0.125000005  0.720512813
     0.000000019  0.250000013  0.708478102
     0.750000000  0.375000000  0.286853412
     0.000000000  0.500000000  0.286853412
     0.000000000  0.375000000  0.393426706
     0.750000000  0.500000000  0.393426706
     0.750000000  0.375000000  0.500000000
     0.000000000  0.500000000  0.500000000
     0.000000001  0.375000014  0.604420545
     0.750000001  0.499999992  0.610781619
     0.750000006  0.375000035  0.720512810
     0.999999988  0.500000008  0.708478097
     0.250000000  0.625000000  0.286853412
     0.500000000  0.750000000  0.286853412
     0.500000000  0.625000000  0.393426706
     0.250000000  0.750000000  0.393426706
     0.250000000  0.625000000  0.500000000
     0.500000000  0.750000000  0.500000000
     0.500000049  0.624999998  0.604420575
     0.250000032  0.749999979  0.610781590
     0.249999982  0.624999991  0.720512811
     0.499999969  0.749999986  0.708478101
     0.250000000  0.875000000  0.286853412
     0.500000000  0.000000000  0.286853412
     0.500000000  0.875000000  0.393426706
     0.250000000  0.000000000  0.393426706
     0.250000000  0.875000000  0.500000000
     0.500000000  0.000000000  0.500000000
     0.500000006  0.874999991  0.604420542
[...]
     0.500000000  0.500000000  0.435151311
     0.347877722  0.375000000  0.393426706
     0.652122278  0.375000000  0.393426706
     0.250000000  0.500000000  0.458275395
     0.250000000  0.500000000  0.541724605
     0.597877722  0.375000000  0.500000000
     0.402122278  0.375000000  0.500000000
     0.500000010  0.500000002  0.565535419
     0.500000024  0.500000006  0.649214872
     0.350074070  0.375000024  0.607255933
     0.649925944  0.375000018  0.607255929
     0.249999980  0.500000012  0.671750483
     0.249999991  0.500000014  0.755761153
     0.593813259  0.375000027  0.719151370
     0.406186748  0.375000019  0.719151376

  ion indices of the primitive-cell ions
   primitive index   ion index
                 1           1
                 2           2
                 3           3
[...]
   O          53.383          3.920          9.989          1.84985470
   O          53.380          3.920          9.989          1.84980868
   O          53.042          3.916          9.957          1.84393367
   O          53.674          3.924         10.016          1.85489494
   O          53.387          3.920          9.990          1.84992613
   O          53.387          3.920          9.990          1.84991744
   O          53.472          3.922          9.998          1.85140442
   O          37.641          3.699          8.388          1.55333567
   O          52.456          3.909          9.902          1.83373175
   O          52.456          3.909          9.902          1.83371533

  Number of pair interactions contributing to vdW energy: 3315050
  Edisp (eV):  -34.80536

  FORCE on cell =-STRESS in cart. coord.  units (eV):
  Direction    XX          YY          ZZ          XY          YZ          ZX
  Alpha Z  4682.06099  4682.06099  4682.06099
  Ewald  961636.30605979834.14557************     0.00363   248.72342    -0.04211
  Hartree************************************     0.00164   115.95656    -0.03015
  E(xc)   -8663.17809 -8642.97616 -8672.04652     0.00001     0.64878    -0.00005
  Local  ************************************    -0.00515  -341.68418     0.07153
  n-local -5456.03930 -5385.32207 -5501.10529    -0.00004    -2.01364    -0.00146
  augment  5234.76335  5215.10465  5237.66854     0.00004    -0.86855     0.00035
  Kinetic 28936.72222 28396.59861 28975.96367    -0.00005   -21.06139     0.00369
  Fock        0.00000     0.00000     0.00000     0.00000     0.00000     0.00000
  vdW       -50.60422   -29.92755   -43.17699     0.00000     0.00488    -0.00028
  Total       6.58286   -36.34734   -33.19008     0.00009    -0.29413     0.00151
  in kB       2.22501   -12.28541   -11.21826     0.00003    -0.09941     0.00051

 VOLUME and BASIS-vectors are now :
  energy-cutoff  :      600.00
  volume of cell :     4740.16
      direct lattice vectors                 reciprocal lattice vectors
    13.042933829  0.000000000  0.000000000     0.076669867  0.000000000  0.000000000
     0.000000000 11.878216733  0.000000000     0.000000000  0.084187721  0.000000000
     0.000000000  0.000000000 30.596159140     0.000000000  0.000000000  0.032683841

  length of vectors
    13.042933829 11.878216733 30.596159140     0.076669867  0.084187721  0.032683841

 FORCES acting on ions:
    Electron-Ion                     Ewald-Force                    Non-Local-Force
   0.653E-03 0.578E+01 -.155E+04   -.651E-03 -.573E+01 0.155E+04   -.657E-05 -.681E-01 0.593E-01
   0.234E-03 -.261E+03 -.228E+04   0.185E-04 0.322E+03 0.230E+04   -.251E-03 -.611E+02 -.221E+02
   0.241E-02 0.257E+03 -.237E+04   -.260E-02 -.316E+03 0.235E+04   0.185E-03 0.592E+02 0.176E+02
   -.247E+00 -.505E-02 0.376E+04   0.246E+00 0.516E-02 -.376E+04   0.124E-03 -.113E-05 0.428E+00
   -.721E-05 -.705E-01 0.394E+04   0.742E-05 0.707E-01 -.393E+04   0.348E-07 -.192E-04 -.389E+01
   0.114E-03 -.187E-01 0.193E+04   -.124E-03 0.188E-01 -.193E+04   0.422E-05 0.848E-04 -.455E-01
   -.432E+00 -.121E+00 0.192E+04   0.430E+00 0.122E+00 -.192E+04   0.341E-03 -.301E-04 0.204E+00
   -.184E+01 -.442E-01 0.167E+02   0.184E+01 0.417E-01 -.159E+02   0.156E-02 0.325E-03 -.131E+00
   0.378E-02 -.643E+00 0.249E+02   -.422E-02 0.649E+00 -.259E+02   0.204E-03 -.317E-02 0.345E+00
   0.179E+00 -.882E+00 -.183E+04   -.179E+00 0.881E+00 0.183E+04   -.152E-03 0.828E-03 0.413E-01
   -.111E+02 -.566E+01 -.188E+04   0.111E+02 0.566E+01 0.188E+04   -.390E-02 -.980E-03 -.783E-01
   -.773E+02 -.810E+01 -.367E+04   0.773E+02 0.809E+01 0.367E+04   0.163E-02 0.546E-02 -.172E+00
   -.161E-02 -.819E+01 -.373E+04   0.145E-02 0.820E+01 0.373E+04   0.114E-03 0.554E-03 0.945E+00
   -.243E+00 -.989E-01 0.376E+04   0.243E+00 0.993E-01 -.376E+04   0.175E-03 -.245E-04 0.428E+00
   -.746E-05 -.604E-01 0.394E+04   0.767E-05 0.605E-01 -.393E+04   0.321E-07 -.459E-05 -.389E+01
   0.118E-03 -.174E+00 0.193E+04   -.129E-03 0.174E+00 -.193E+04   0.428E-05 0.826E-04 -.456E-01
   -.438E+00 -.125E+00 0.192E+04   0.436E+00 0.125E+00 -.192E+04   0.424E-03 0.153E-04 0.204E+00
   -.204E+01 -.993E+00 0.155E+02   0.204E+01 0.100E+01 -.147E+02   0.103E-02 -.833E-03 -.133E+00
   0.358E-02 -.419E+00 0.237E+02   -.401E-02 0.422E+00 -.247E+02   0.202E-03 -.208E-02 0.345E+00
   0.188E+00 -.357E+01 -.184E+04   -.188E+00 0.357E+01 0.184E+04   -.166E-03 0.987E-03 0.410E-01
   -.765E+01 -.283E+01 -.190E+04   0.766E+01 0.283E+01 0.190E+04   -.745E-03 0.125E-02 -.746E-01
   -.383E+02 -.273E+02 -.370E+04   0.383E+02 0.273E+02 0.370E+04   0.188E-01 0.682E-02 -.202E+00
   -.111E-02 -.521E+01 -.374E+04   0.956E-03 0.521E+01 0.374E+04   0.109E-03 0.140E-02 0.956E+00
   -.235E+00 0.503E-02 0.376E+04   0.235E+00 -.517E-02 -.376E+04   0.173E-03 0.283E-05 0.428E+00
   -.746E-05 0.705E-01 0.394E+04   0.769E-05 -.707E-01 -.393E+04   0.244E-07 0.193E-04 -.389E+01
   0.107E-03 0.190E-01 0.193E+04   -.117E-03 -.191E-01 -.193E+04   0.417E-05 0.563E-04 -.457E-01
   -.403E+00 0.121E+00 0.192E+04   0.402E+00 -.121E+00 -.192E+04   0.334E-03 0.239E-05 0.204E+00
   -.184E+01 0.471E-01 0.146E+02   0.184E+01 -.486E-01 -.138E+02   0.114E-02 0.729E-04 -.134E+00
   0.289E-02 0.791E+00 0.240E+02   -.330E-02 -.792E+00 -.250E+02   0.195E-03 -.109E-02 0.345E+00
   0.169E+00 0.630E+00 -.184E+04   -.169E+00 -.633E+00 0.184E+04   -.154E-03 0.327E-02 0.414E-01
   -.848E+01 0.551E+01 -.189E+04   0.848E+01 -.551E+01 0.189E+04   -.475E-02 0.467E-02 -.763E-01
   -.229E+02 0.729E+01 -.371E+04   0.229E+02 -.729E+01 0.372E+04   0.118E-01 0.272E-02 -.200E+00
   -.482E-03 0.686E+01 -.374E+04   0.331E-03 -.687E+01 0.374E+04   0.103E-03 0.487E-02 0.946E+00
   -.239E+00 0.989E-01 0.376E+04   0.239E+00 -.993E-01 -.376E+04   0.124E-03 0.218E-04 0.428E+00
   -.718E-05 0.605E-01 0.394E+04   0.741E-05 -.605E-01 -.393E+04   0.277E-07 0.457E-05 -.389E+01
   0.103E-03 0.174E+00 0.193E+04   -.112E-03 -.174E+00 -.193E+04   0.412E-05 0.566E-04 -.456E-01
   -.398E+00 0.125E+00 0.192E+04   0.397E+00 -.126E+00 -.192E+04   0.183E-03 -.504E-04 0.204E+00
   -.164E+01 0.973E+00 0.157E+02   0.163E+01 -.982E+00 -.149E+02   0.135E-02 0.805E-03 -.132E+00
   0.311E-02 0.564E+00 0.251E+02   -.352E-02 -.564E+00 -.262E+02   0.197E-03 -.172E-02 0.345E+00
   0.163E+00 0.331E+01 -.184E+04   -.163E+00 -.331E+01 0.184E+04   -.153E-03 0.177E-02 0.422E-01
   -.123E+02 0.356E+01 -.188E+04   0.123E+02 -.356E+01 0.188E+04   -.367E-02 0.678E-03 -.828E-01
   -.553E+02 0.324E+02 -.369E+04   0.553E+02 -.324E+02 0.369E+04   0.761E-02 0.111E-01 -.189E+00
   -.111E-02 0.533E+01 -.373E+04   0.956E-03 -.534E+01 0.373E+04   0.107E-03 0.514E-02 0.936E+00
   0.247E+00 -.505E-02 0.376E+04   -.246E+00 0.516E-02 -.376E+04   -.123E-03 -.114E-05 0.428E+00
   0.254E-04 -.764E-01 0.394E+04   -.247E-04 0.768E-01 -.393E+04   -.495E-07 -.499E-04 -.389E+01
   0.268E-03 0.395E-01 0.193E+04   -.276E-03 -.344E-01 -.193E+04   0.384E-05 -.101E-02 -.458E-01
   0.431E+00 -.121E+00 0.192E+04   -.430E+00 0.122E+00 -.192E+04   -.334E-03 -.302E-04 0.204E+00
   0.184E+01 -.443E-01 0.167E+02   -.183E+01 0.418E-01 -.159E+02   -.151E-02 0.326E-03 -.131E+00
   0.488E-02 -.425E+00 0.291E+02   -.531E-02 0.408E+00 -.300E+02   0.199E-03 0.102E-01 0.328E+00
   0.176E+00 -.240E+01 -.181E+04   -.176E+00 0.243E+01 0.181E+04   -.198E-03 -.341E-01 0.373E-01
   0.113E+02 -.566E+01 -.188E+04   -.113E+02 0.566E+01 0.188E+04   0.273E-02 -.974E-03 -.783E-01
   0.773E+02 -.810E+01 -.367E+04   -.773E+02 0.809E+01 0.367E+04   -.151E-02 0.547E-02 -.172E+00
   0.102E-02 -.677E+02 -.361E+04   -.118E-02 0.677E+02 0.361E+04   0.111E-03 0.817E-03 0.990E+00
   0.243E+00 -.989E-01 0.376E+04   -.243E+00 0.993E-01 -.376E+04   -.174E-03 -.245E-04 0.428E+00
   0.256E-04 -.726E-01 0.394E+04   -.248E-04 0.727E-01 -.393E+04   -.534E-07 -.461E-05 -.389E+01
   0.280E-03 -.162E+00 0.193E+04   -.289E-03 0.164E+00 -.193E+04   0.413E-05 -.607E-03 -.460E-01
   0.437E+00 -.125E+00 0.192E+04   -.435E+00 0.125E+00 -.192E+04   -.417E-03 0.152E-04 0.204E+00
   0.204E+01 -.993E+00 0.155E+02   -.203E+01 0.100E+01 -.147E+02   -.991E-03 -.833E-03 -.133E+00
   0.421E-02 -.761E+00 0.286E+02   -.465E-02 0.764E+00 -.297E+02   0.212E-03 -.190E-02 0.330E+00
   0.181E+00 -.998E+01 -.181E+04   -.181E+00 0.999E+01 0.181E+04   -.252E-03 -.219E-02 -.397E-02
[...]
   -.531E+02 0.102E+00 0.115E+04   0.571E+02 -.102E+00 -.115E+04   -.353E+01 0.115E-02 0.156E+00
   0.531E+02 0.102E+00 0.115E+04   -.571E+02 -.102E+00 -.115E+04   0.353E+01 0.115E-02 0.156E+00
   0.563E+00 0.203E+00 0.510E+03   -.560E+00 -.205E+00 -.514E+03   -.453E-02 0.385E-02 0.413E+01
   0.199E+01 0.835E+00 -.505E+03   -.198E+01 -.849E+00 0.512E+03   -.455E-02 0.179E-01 -.709E+01
   -.556E+02 0.466E+00 0.161E+02   0.602E+02 -.469E+00 -.163E+02   -.513E+01 0.148E-01 0.321E+00
   0.556E+02 0.466E+00 0.161E+02   -.602E+02 -.470E+00 -.163E+02   0.513E+01 0.148E-01 0.320E+00
   0.970E-01 0.143E+01 -.603E+03   -.107E+00 -.145E+01 0.596E+03   0.978E-02 0.124E-01 0.652E+01
   0.654E-01 0.513E+01 -.155E+04   -.720E-01 -.504E+01 0.155E+04   0.649E-02 -.870E-01 0.200E+01
   -.232E+02 0.471E+01 -.110E+04   0.262E+02 -.474E+01 0.110E+04   -.300E+01 0.329E-01 0.876E+00
   0.228E+02 0.470E+01 -.110E+04   -.257E+02 -.473E+01 0.110E+04   0.295E+01 0.321E-01 0.874E+00
   0.220E+02 0.515E+01 -.177E+04   -.221E+02 -.514E+01 0.177E+04   0.816E-01 -.147E-01 -.222E+01
   0.681E+02 0.166E+02 -.267E+04   -.679E+02 -.165E+02 0.269E+04   -.148E+00 -.610E-01 -.205E+02
   -.564E+02 0.479E+02 -.226E+04   0.624E+02 -.480E+02 0.226E+04   -.602E+01 0.113E+00 -.343E+01
   0.564E+02 0.479E+02 -.226E+04   -.624E+02 -.480E+02 0.226E+04   0.602E+01 0.113E+00 -.343E+01
   0.247E+00 0.227E+01 0.100E+03   -.261E-11 0.214E-11 0.277E-10   -.246E+00 -.227E+01 -.100E+03

 POSITION                                       TOTAL-FORCE (eV/Angst)
      6.52146      7.06874     24.71307        -0.000007     -0.006835      0.000882
      6.52147      8.17283     25.10174        -0.000001     -0.000166      0.006209
      6.52146      5.95970     24.30466        -0.000012      0.007162      0.005982
      9.78220      7.42389      8.77661        -0.000312      0.000084     -3.416685
      0.00000      8.90866      8.77661        -0.000002      0.000102      2.831276
      0.00000      7.42389     12.03735        -0.000009      0.000065      0.520051
      9.78220      8.90866     12.03735        -0.001163      0.000571     -0.705180
      9.78220      7.42389     15.29808        -0.005924     -0.002243      0.674780
      0.00000      8.90866     15.29808        -0.000227      0.002564     -0.698297
      0.00057      7.42601     18.49382         0.000630     -0.000830     -0.002107
      9.78319      8.91133     18.68500         0.000175      0.000048     -0.001574
      9.78494      7.43277     22.03656        -0.000500     -0.003247     -0.002988
     -0.00004      8.91402     21.68026        -0.000050      0.006411      0.000150
      9.78220     10.39344      8.77661        -0.000401      0.000316     -3.416676
      0.00000      0.00000      8.77661        -0.000002      0.000012      2.831193
      0.00000     10.39344     12.03735        -0.000009      0.000163      0.520252
      9.78220      0.00000     12.03735        -0.001450      0.000171     -0.703904
      9.78220     10.39344     15.29808        -0.004321      0.010821      0.680137
      0.00000      0.00000     15.29808        -0.000224      0.001576     -0.696982
      0.00061     10.39546     18.49464         0.000663      0.000812     -0.000379
      9.78215      0.00245     18.68754         0.001472     -0.000965     -0.000112
      9.78028     10.40086     22.04574         0.000088      0.002151     -0.004668
     13.04289      0.00379     21.68111        -0.000050      0.000481     -0.000293
      9.78220      1.48478      8.77661        -0.000395     -0.000169     -3.416601
      0.00000      2.96955      8.77661        -0.000002     -0.000182      2.831262
      0.00000      1.48478     12.03735        -0.000008     -0.000106      0.520302
      9.78220      2.96955     12.03735        -0.001151     -0.000664     -0.703752
      9.78220      1.48478     15.29808        -0.004057     -0.001506      0.686577
      0.00000      2.96955     15.29808        -0.000209     -0.001782     -0.697571
      0.00054      1.48628     18.49470         0.000610      0.000022      0.000137
      9.78340      2.97157     18.68725         0.000577     -0.000811      0.000225
      9.78128      1.49151     22.04459        -0.000349      0.001067     -0.002536
     -0.00004      2.97249     21.68067        -0.000049     -0.003647     -0.001411
      9.78220      4.45433      8.77661        -0.000307     -0.000377     -3.416598
      0.00000      5.93911      8.77661        -0.000002     -0.000067      2.831341
      0.00000      4.45433     12.03735        -0.000008     -0.000261      0.520115
      9.78220      5.93911     12.03735        -0.000885     -0.000282     -0.704850
      9.78220      4.45433     15.29808        -0.006658     -0.007558      0.681286
      0.00000      5.93911     15.29808        -0.000213     -0.001373     -0.698749
      0.00050      4.45601     18.49388         0.000587     -0.001482     -0.000686
      9.78310      5.94141     18.68591         0.001177     -0.000351     -0.000511
      9.78517      4.46132     22.04268         0.000404     -0.003637     -0.002513
     -0.00004      5.94374     21.67975        -0.000048     -0.006069     -0.001090
      3.26073      7.42389      8.77661         0.000308      0.000084     -3.416685
      6.52147      8.90866      8.77661        -0.000002      0.000306      2.832430
      6.52147      7.42389     12.03735        -0.000007      0.004001      0.522588
      3.26073      8.90866     12.03735         0.001175      0.000572     -0.705182
      3.26073      7.42389     15.29808         0.006284     -0.002246      0.674777
      6.52147      8.90866     15.29808        -0.000226     -0.006517     -0.669742
      6.52205      7.41911     18.50466         0.000636      0.000327     -0.001953
      3.26073      8.91133     18.68500         0.000777      0.000045     -0.001576
      3.25791      7.43277     22.03656         0.000414     -0.003253     -0.002987
      6.52142      8.91723     21.66835        -0.000052      0.002470      0.000143
      3.26073     10.39344      8.77661         0.000397      0.000316     -3.416677
      6.52147      0.00000      8.77661        -0.000002      0.000018      2.832565
      6.52147     10.39344     12.03735        -0.000008      0.001750      0.525305
      3.26073      0.00000     12.03735         0.001462      0.000171     -0.703907
      3.26073     10.39344     15.29808         0.004699      0.010817      0.680131
      6.52147      0.00000     15.29808        -0.000227      0.001530     -0.717009
      6.52208     10.39259     18.48566         0.000649      0.001179     -0.000805
[...]
      6.52147      5.93911     13.31396        -0.000005      0.000185     -0.106956
      4.53735      4.45433     12.03735         0.426483      0.000437      0.055009
      8.50559      4.45433     12.03735        -0.426497      0.000437      0.055010
      3.26073      5.93911     14.02147        -0.001326      0.002181     -0.106229
      3.26073      5.93911     16.57469         0.000468      0.003960      0.001078
      7.79808      4.45433     15.29808        -0.477477      0.011141      0.087317
      5.24485      4.45433     15.29808         0.477395      0.011141      0.087160
      6.52138      5.93939     17.30912        -0.000092     -0.000734     -0.001889
      6.52140      5.94307     19.88146        -0.000074     -0.000573      0.000761
      4.56438      4.45633     18.58423         0.001085     -0.000484      0.000450
      8.47831      4.45633     18.58417        -0.001315     -0.000483      0.000389
      3.25195      5.94278     20.55182         0.001202     -0.000183      0.000231
      3.27351      5.94662     23.12107         0.000855      0.001253     -0.000764
      7.75088      4.44589     21.97586        -0.000798      0.000636     -0.001180
      5.29197      4.44590     21.97587         0.000716      0.000639     -0.001179
    total drift:                                0.000532      0.009043     -0.033201

  FREE ENERGIE OF THE ION-ELECTRON SYSTEM (eV)
  free  energy   TOTEN  =     -2178.17763363 eV

  energy  without entropy=    -2178.17763363  energy(sigma->0) =    -2178.17763363

 d Force = 0.1350654E-04[ 0.106E-04, 0.164E-04]  d Energy = 0.1253630E-04 0.970E-06
 d Force =-0.8095753E+01[-0.810E+01,-0.810E+01]  d Ewald  =-0.8095754E+01 0.150E-05

 reached required accuracy - stopping structural energy minimisation