 vasp.6.4.2 20Jul23 (build Nov 17 2023 15:39:20) complex
 executed on              LinuxNV date 2024.02.25  15:03:10
 OpenACC runtime initialized ...    4 GPUs detected

 INCAR:
   SYSTEM = Oxide-Surface
   ISMEAR = 0
   SIGMA = 0.05
   EDIFF = 1E-4
   ALGO = Normal
   ISTART = 2
   IBRION = -1
   NSW = 0
   ISYM = 0
   DIPOL = 0.5 0.5 0.5
   IDIPOL = 3
   LDIPOL = .TRUE.
   LHFCALC = .TRUE.
   HFSCREEN = 0.2
   GGA = PE
   ENCUT = 450
   PREC = Normal
   LASPH = .TRUE.
   LREAL = Auto
   ISPIN = 1
   NELM = 200
   NELMIN = 8
   NCORE = 1
   KPAR = 1
   LWAVE = .FALSE.
   LCHARG = .FALSE.

 POTCAR:    PAW_PBE Ti_pv 07Sep2000
 POTCAR:    PAW_PBE O 08Apr2002
 POTCAR:    PAW_PBE Ti_pv 07Sep2000
   VRHFIN =Ti: d3 s1

   TITEL  = PAW_PBE Ti_pv 07Sep2000
   POMASS =   47.880; ZVAL   =   10.000    mass and valenz
   ENMAX  =  222.335; ENMIN  =  166.751 eV

   TITEL  = PAW_PBE O 08Apr2002
   POMASS =   16.000; ZVAL   =    6.000    mass and valenz
   ENMAX  =  400.000; ENMIN  =  300.000 eV

 Optimization of the real space projectors (new method)

 maximal supplied QI-value         = 15.12
 optimisation between [QCUT,QGAM] = [ 10.73, 21.62] = [ 32.26,130.87] Ry
 Optimized for a Real-space Cutoff    1.46 Angstroem

   l    n(q)    QCUT    max X(q) W(low)/X(q) W(high)/X(q)  e(spline)
   1      9    10.734     4.216    0.90E-04    0.17E-04    0.73E-07
   1      9    10.734     5.422    0.20E-03    0.95E-04    0.21E-06
   2      9    10.734    72.084    0.40E-03    0.60E-03    0.19E-06
   2      9    10.734    65.965    0.40E-03    0.59E-03    0.19E-06
   0      9    10.734    41.531    0.93E-04    0.36E-04    0.17E-06
   0      9    10.734    16.290    0.71E-04    0.26E-04    0.13E-06
 Optimization of the real space projectors (new method)

 maximal supplied QI-value         = 24.76
 optimisation between [QCUT,QGAM] = [ 10.64, 21.54] = [ 31.73,129.89] Ry
 Optimized for a Real-space Cutoff    1.23 Angstroem

   l    n(q)    QCUT    max X(q) W(low)/X(q) W(high)/X(q)  e(spline)
   0      8    10.645    20.381    0.38E-03    0.60E-03    0.15E-06
   0      8    10.645    15.268    0.40E-03    0.65E-03    0.17E-06
   1      7    10.645     5.964    0.30E-03    0.63E-03    0.18E-06
   1      7    10.645     5.382    0.24E-03    0.53E-03    0.16E-06
  PAW_PBE Ti_pv 07Sep2000               :
  PAW_PBE O 08Apr2002                   :

 POSCAR: Ti  O
  positions in direct lattice
 exchange correlation table for  LEXCH =        8
   RHO(1)=    0.500       N(1)  =     2000
   RHO(2)=  100.500       N(2)  =     4000

 ion  position               nearest neighbor table
   1  0.808  0.833  0.295-  85 1.94  51 1.94  53 1.94  50 1.99  52 1.99  18 3.05   4 3.05   2 3.05

   2  0.592  0.667  0.327-  49 1.94 116 1.94  52 1.94  54 1.94  53 1.99  55 1.99  33 3.05   3 3.05
                             1 3.05   7 3.08
   3  0.308  0.667  0.295- 121 1.94  55 1.94  57 1.94  49 1.99  56 1.99  36 3.05   2 3.05   4 3.05

   4  0.092  0.833  0.327-  50 1.94  88 1.94  56 1.94  58 1.94  57 1.99  51 1.99  19 3.05   1 3.05
                             3 3.05   5 3.08
   5  0.945  0.834  0.423-  59 1.92  93 1.93  61 1.94  51 1.98  60 1.98  58 2.00   8 2.99   6 3.04
                            22 3.05   4 3.08
   6  0.727  0.666  0.451-  54 1.89 124 1.93  60 1.94  62 1.96  63 1.99  61 2.00   7 3.01   5 3.04
                            37 3.05  11 3.10
   7  0.444  0.667  0.422-  63 1.93 129 1.93  65 1.93  55 1.97  64 1.99  54 2.00   6 3.01   8 3.05
                            40 3.05   2 3.08
   8  0.226  0.833  0.452-  58 1.90  96 1.94  64 1.94  59 1.97  66 1.97  65 2.01   5 2.99  23 3.05
                             7 3.05   9 3.11
   9  0.086  0.834  0.550-  67 1.92 101 1.93  69 1.94  68 1.97  66 2.01  59 2.01  12 2.95  10 3.04
                            26 3.05   8 3.11
  10  0.865  0.666  0.575-  62 1.86 132 1.93  68 1.94  71 1.95  69 2.01  70 2.01  11 2.98   9 3.04
                            41 3.05  15 3.17
  11  0.584  0.667  0.549- 137 1.93  71 1.93  73 1.93  63 1.97  72 1.98  62 2.02  10 2.98  12 3.05
                            44 3.06   6 3.10
  12  0.364  0.834  0.577-  66 1.86 104 1.94  72 1.94  67 1.95  74 2.00  73 2.02   9 2.95  27 3.05
                            11 3.05
  13  0.231  0.833  0.681-  75 1.86  77 1.93 109 1.94  76 2.00  74 2.10  67 2.10  16 2.85  30 3.07
                            14 3.09
  14  0.000  0.666  0.700-  70 1.78  78 1.84 140 1.97  76 1.98  77 2.07  15 2.86  13 3.09  45 3.10

[...]

  17  0.808  0.167  0.295-  85 1.94  83 1.94 117 1.94  82 1.99  84 1.99  18 3.05  20 3.05  34 3.05

[...]

  36  0.092  0.500  0.327- 114 1.94  56 1.94 120 1.94 122 1.94 121 1.99 115 1.99   3 3.05  35 3.05
                            33 3.05  37 3.07
  37  0.946  0.500  0.422- 123 1.93  61 1.93 125 1.94 115 1.97 122 1.98 124 2.00  40 2.99  38 3.05
                             6 3.05  36 3.07
  38  0.727  0.334  0.451- 118 1.89 124 1.93  92 1.94 126 1.96 127 1.99 125 2.00  39 3.01  21 3.04
                            37 3.05  43 3.10
  39  0.444  0.334  0.422- 127 1.93 129 1.93  97 1.93 119 1.97 128 1.99 118 2.01  38 3.01  24 3.05
                            40 3.05  34 3.08
  40  0.226  0.500  0.453- 122 1.92 128 1.94  64 1.94 123 1.96 130 1.97 129 2.01  37 2.99  39 3.05
                             7 3.05  41 3.07
  41  0.089  0.500  0.551- 131 1.92  69 1.93 133 1.93 130 1.98 132 2.00 123 2.01  44 2.96  42 3.05
                            10 3.05  40 3.07
  42  0.865  0.334  0.575- 126 1.86 132 1.93 100 1.94 135 1.95 133 2.01 134 2.01  43 2.98  25 3.04
                            41 3.05  47 3.16
  43  0.584  0.334  0.549- 137 1.93 135 1.93 105 1.93 127 1.97 136 1.98 126 2.02  42 2.98  28 3.05
                            44 3.06  38 3.10
  44  0.366  0.500  0.580- 130 1.92  72 1.94 136 1.94 131 1.94 138 2.00 137 2.03  41 2.96  43 3.06
                            11 3.06  45 3.14
  45  0.234  0.500  0.681- 139 1.86 141 1.93  77 1.93 140 2.03 138 2.05 131 2.10  48 2.87  14 3.10
                            46 3.10  44 3.14
  46  1.000  0.335  0.700- 134 1.78 142 1.84 140 1.97 108 1.98 141 2.07  47 2.86  29 3.09  45 3.10

  47  0.729  0.335  0.677- 142 1.90 144 1.92 112 1.94 143 1.99 135 2.03 134 2.10  46 2.86  32 3.08
                            48 3.08  42 3.16
  48  0.505  0.500  0.706- 139 1.82 138 1.86 143 1.98  79 1.98 144 2.11  45 2.87  47 3.08  15 3.08

  49  0.488  0.667  0.269-   2 1.94   3 1.99
  50  0.988  0.833  0.269-   4 1.94   1 1.99
  51  0.911  0.833  0.353-   1 1.94   5 1.98   4 1.99
  52  0.627  0.833  0.321-  18 1.94   2 1.94   1 1.99
  53  0.772  0.667  0.300-  33 1.94   1 1.94   2 1.99
  54  0.624  0.667  0.395-   6 1.89   2 1.94   7 2.00
  55  0.411  0.667  0.353-   3 1.94   7 1.97   2 1.99
  56  0.127  0.667  0.321-  36 1.94   4 1.94   3 1.99
  57  0.272  0.833  0.300-  19 1.94   3 1.94   4 1.99
  58  0.124  0.833  0.395-   8 1.90   4 1.94   5 2.00
  59  0.049  0.834  0.480-   5 1.92   8 1.97   9 2.01
  60  0.764  0.833  0.447-  22 1.94   6 1.94   5 1.98
  61  0.910  0.667  0.427-  37 1.93   5 1.94   6 2.00
  62  0.764  0.666  0.520-  10 1.86   6 1.96  11 2.02
  63  0.549  0.666  0.480-   7 1.93  11 1.97   6 1.99
  64  0.264  0.667  0.448-  40 1.94   8 1.94   7 1.99
  65  0.409  0.833  0.427-   7 1.93  23 1.93   8 2.01
  66  0.264  0.833  0.521-  12 1.86   8 1.97   9 2.01
  67  0.193  0.833  0.607-   9 1.92  12 1.95  13 2.10
  68  0.904  0.834  0.573-  26 1.94  10 1.94   9 1.97
  69  0.052  0.667  0.553-  41 1.93   9 1.94  10 2.01
  70  0.914  0.668  0.645-  14 1.78  10 2.01  15 2.10
  71  0.694  0.669  0.605-  11 1.93  10 1.95  15 2.03
  72  0.405  0.667  0.575-  44 1.94  12 1.94  11 1.98
  73  0.549  0.834  0.553-  27 1.93  11 1.93  12 2.02
  74  0.412  0.835  0.646-  16 1.78  12 2.00  13 2.10
  75  0.347  0.833  0.732-  16 1.84  13 1.86
  76  0.052  0.833  0.709-  30 1.98  14 1.98  13 2.00
  77  0.195  0.666  0.681-  13 1.93  45 1.93  14 2.07
  78  0.841  0.661  0.731-  14 1.84  15 1.89
  79  0.554  0.668  0.708-  16 1.97  48 1.98  15 1.99
  80  0.695  0.834  0.679-  31 1.93  15 1.94  16 2.06
  81  0.488  0.000  0.269-  18 1.94  19 1.99
  82  0.988  0.167  0.269-  20 1.94  17 1.99
  83  0.911  0.167  0.353-  17 1.94  21 1.98  20 1.99
  84  0.627  0.167  0.321-  18 1.94  34 1.94  17 1.99
  85  0.772  0.000  0.300-   1 1.94  17 1.94  18 1.99
  86  0.624  0.000  0.395-  22 1.89  18 1.94  23 2.00
  87  0.411  0.000  0.353-  19 1.94  23 1.98  18 1.99
  88  0.127  0.000  0.321-   4 1.94  20 1.94  19 1.99
  89  0.272  0.167  0.300-  19 1.94  35 1.94  20 1.99
  90  0.124  0.167  0.395-  24 1.90  20 1.94  21 2.00
  91  0.049  0.167  0.480-  21 1.92  24 1.97  25 2.01
  92  0.764  0.167  0.447-  22 1.94  38 1.94  21 1.98
  93  0.909  0.000  0.427-   5 1.93  21 1.93  22 2.00
  94  0.764  0.000  0.520-  26 1.86  22 1.97  27 2.01
  95  0.549  0.000  0.480-  23 1.92  22 1.98  27 2.00
  96  0.264  0.000  0.448-  24 1.94   8 1.94  23 1.99
  97  0.409  0.167  0.427-  39 1.93  23 1.93  24 2.01
  98  0.264  0.167  0.521-  28 1.86  24 1.97  25 2.01
  99  0.193  0.167  0.607-  25 1.92  28 1.95  29 2.10
 100  0.904  0.167  0.573-  26 1.94  42 1.94  25 1.97
 101  0.051  0.000  0.553-   9 1.93  25 1.93  26 2.03
 102  0.913  0.000  0.646-  30 1.78  26 2.01  31 2.09
 103  0.693  0.000  0.606-  27 1.92  26 1.94  31 2.09
 104  0.404  0.000  0.574-  12 1.94  28 1.94  27 1.98
 105  0.549  0.167  0.553-  27 1.93  43 1.93  28 2.02
 106  0.412  0.165  0.646-  32 1.78  28 2.00  29 2.10
 107  0.347  0.167  0.732-  32 1.84  29 1.86
 108  0.052  0.168  0.709-  30 1.98  46 1.98  29 2.00
[...]
 130  0.266  0.500  0.522-  44 1.92  40 1.97  41 1.98
 131  0.193  0.500  0.608-  41 1.92  44 1.94  45 2.10
 132  0.904  0.500  0.573-  42 1.93  10 1.93  41 2.00
 133  0.051  0.334  0.553-  41 1.93  25 1.94  42 2.01
 134  0.914  0.332  0.645-  46 1.78  42 2.01  47 2.10
 135  0.694  0.331  0.605-  43 1.93  42 1.95  47 2.03
 136  0.405  0.334  0.575-  44 1.94  28 1.94  43 1.98
 137  0.551  0.500  0.554-  43 1.93  11 1.93  44 2.03
 138  0.413  0.500  0.649-  48 1.86  44 2.00  45 2.05
 139  0.345  0.500  0.734-  48 1.82  45 1.86
 140  0.051  0.500  0.708-  46 1.97  14 1.97  45 2.03
 141  0.195  0.334  0.681-  29 1.93  45 1.93  46 2.07
 142  0.841  0.340  0.731-  46 1.84  47 1.90
 143  0.554  0.332  0.708-  32 1.97  48 1.98  47 1.99
 144  0.693  0.500  0.675-  15 1.92  47 1.92  48 2.11

IMPORTANT INFORMATION: All symmetrisations will be switched off!
NOSYMM: (Re-)initialisation of all symmetry stuff for point group C_1.

                                     Primitive cell

  volume of cell :    3260.9117

  direct lattice vectors                    reciprocal lattice vectors
    10.273755933  0.000000000  0.000000000     0.097335386 -0.000000000  0.000000000
     0.000000000 11.368810418  0.000000000     0.000000000  0.087959950  0.000000000
     0.000000000  0.000000000 27.918672987     0.000000000  0.000000000  0.035818321

  length of vectors
    10.273755933 11.368810418 27.918672987     0.097335386  0.087959950  0.035818321

  position of ions in fractional coordinates (direct lattice)
     0.807806441  0.833333333  0.294980927
     0.591821331  0.666666667  0.326522323
     0.307806441  0.666666667  0.294980927
[...]
   0.469E+01 -.114E+00 0.277E+04   -.653E+01 0.120E+00 -.277E+04   0.175E-01 -.139E-02 0.321E-01   -.168E-02 -.905E-04 0.111E+00
   0.702E+01 0.190E+00 0.337E+04   -.159E+01 -.190E+00 -.336E+04   -.130E+01 0.301E-03 -.372E+01   0.414E-02 -.729E-04 0.117E+00
   0.300E+01 0.174E+00 0.277E+04   -.489E+01 -.179E+00 -.277E+04   0.287E-01 0.123E-02 0.290E-01   -.151E-02 -.218E-04 0.111E+00
   0.380E-01 0.242E+00 0.124E+04   -.231E+00 -.235E+00 -.125E+04   0.159E+00 -.217E-01 -.537E-02   -.490E-03 -.165E-04 0.827E-01
   0.187E+01 -.146E+01 0.782E+03   -.184E+01 0.143E+01 -.781E+03   -.504E-02 0.266E-01 -.982E-01   0.106E-02 -.306E-04 0.644E-01
   0.168E+01 0.666E-01 0.125E+04   -.184E+01 -.756E-01 -.125E+04   0.158E+00 0.132E-01 -.415E-01   -.786E-03 0.584E-04 0.828E-01
   -.665E+01 0.905E+00 0.771E+03   0.665E+01 -.900E+00 -.771E+03   0.463E-01 0.105E-02 -.796E-01   0.120E-02 -.917E-04 0.639E-01
   -.522E+01 0.196E+00 -.813E+03   0.488E+01 -.183E+00 0.813E+03   0.282E+00 0.178E-02 0.546E-01   0.943E-05 -.309E-03 -.115E-01
   -.914E+01 0.308E+00 -.121E+04   0.922E+01 -.259E+00 0.121E+04   0.759E-02 -.292E-01 -.165E+00   0.815E-03 -.144E-03 -.337E-01
   0.179E+01 0.186E+01 -.786E+03   -.199E+01 -.183E+01 0.786E+03   0.224E+00 -.662E-02 0.111E-01   -.872E-03 -.470E-04 -.105E-01
   -.435E+01 0.244E+01 -.124E+04   0.441E+01 -.237E+01 0.124E+04   0.148E-01 -.239E-01 -.150E+00   0.494E-03 -.480E-03 -.338E-01
   0.228E+02 -.157E+01 -.282E+04   -.238E+02 0.158E+01 0.282E+04   0.891E+00 0.212E-01 -.362E+00   0.400E-02 -.112E-02 -.105E+00
   -.669E+02 -.875E+01 -.321E+04   0.660E+02 0.850E+01 0.321E+04   0.472E+00 0.207E+00 0.106E+01   -.443E-02 -.762E-03 -.117E+00
   0.104E+02 -.744E+01 -.277E+04   -.106E+02 0.754E+01 0.277E+04   0.715E+00 -.497E-02 -.219E+00   0.200E-02 0.162E-03 -.100E+00
   -.729E+02 -.273E+01 -.321E+04   0.725E+02 0.294E+01 0.321E+04   0.445E+00 -.626E-01 0.107E+01   -.554E-02 -.679E-03 -.117E+00
   0.710E+01 0.242E-01 0.337E+04   -.164E+01 -.296E-01 -.337E+04   -.131E+01 0.124E-02 -.372E+01   0.400E-02 0.421E-04 0.117E+00
   0.461E+01 0.206E-01 0.277E+04   -.648E+01 -.213E-01 -.277E+04   0.264E-01 0.216E-03 0.250E-01   -.168E-02 0.254E-04 0.111E+00
   0.689E+01 0.104E-01 0.337E+04   -.143E+01 -.108E-01 -.336E+04   -.131E+01 0.106E-03 -.372E+01   0.420E-02 -.116E-05 0.117E+00
   0.301E+01 -.138E+00 0.277E+04   -.490E+01 0.141E+00 -.277E+04   0.287E-01 -.482E-03 0.287E-01   -.150E-02 0.156E-04 0.111E+00
   -.800E-01 -.365E+00 0.124E+04   -.108E+00 0.351E+00 -.125E+04   0.160E+00 0.179E-01 -.113E-01   -.508E-03 0.311E-04 0.827E-01
   -.184E+01 0.474E-02 0.777E+03   0.183E+01 -.774E-02 -.777E+03   0.700E-01 -.122E-02 -.935E-01   0.109E-02 0.894E-05 0.641E-01
   0.181E+01 -.361E-01 0.125E+04   -.198E+01 0.334E-01 -.125E+04   0.152E+00 -.461E-02 -.357E-01   -.846E-03 -.284E-05 0.826E-01
   -.657E+01 -.756E+00 0.771E+03   0.657E+01 0.752E+00 -.771E+03   0.493E-01 -.374E-02 -.784E-01   0.121E-02 0.756E-04 0.639E-01
   -.542E+01 -.287E+00 -.813E+03   0.508E+01 0.270E+00 0.813E+03   0.291E+00 0.762E-02 0.552E-01   0.278E-04 0.294E-03 -.115E-01
   -.932E+01 0.103E-01 -.122E+04   0.934E+01 -.959E-02 0.122E+04   0.582E-01 0.250E-02 -.162E+00   0.463E-03 -.147E-04 -.340E-01
   -.154E+01 -.698E-02 -.802E+03   0.126E+01 0.559E-02 0.801E+03   0.256E+00 0.544E-02 0.981E-01   -.568E-03 -.429E-05 -.109E-01
   -.426E+01 -.250E+01 -.123E+04   0.432E+01 0.243E+01 0.124E+04   0.173E-01 0.321E-01 -.151E+00   0.498E-03 0.491E-03 -.338E-01
   0.231E+02 0.110E+01 -.282E+04   -.241E+02 -.112E+01 0.282E+04   0.895E+00 -.689E-02 -.363E+00   0.396E-02 0.108E-02 -.105E+00
   -.700E+02 -.234E+00 -.321E+04   0.696E+02 0.235E+00 0.321E+04   0.403E+00 0.644E-02 0.105E+01   -.400E-02 0.231E-04 -.119E+00
   0.148E+02 -.295E-01 -.281E+04   -.155E+02 0.342E-01 0.281E+04   0.780E+00 0.596E-02 -.290E+00   0.121E-02 0.114E-04 -.104E+00
   -.733E+02 0.290E+01 -.321E+04   0.729E+02 -.312E+01 0.321E+04   0.449E+00 0.565E-01 0.108E+01   -.548E-02 0.696E-03 -.117E+00
   0.710E+01 -.330E-02 0.337E+04   -.163E+01 0.398E-02 -.337E+04   -.131E+01 -.796E-04 -.372E+01   0.401E-02 -.601E-04 0.117E+00
   0.469E+01 0.125E+00 0.277E+04   -.652E+01 -.131E+00 -.277E+04   0.170E-01 0.163E-02 0.322E-01   -.169E-02 0.596E-04 0.111E+00
   0.703E+01 -.198E+00 0.337E+04   -.160E+01 0.198E+00 -.336E+04   -.130E+01 -.395E-03 -.372E+01   0.424E-02 0.713E-04 0.117E+00
   0.200E+01 0.119E-01 0.277E+04   -.384E+01 -.123E-01 -.277E+04   0.112E-01 0.279E-03 0.335E-01   -.157E-02 -.369E-06 0.111E+00
   0.909E+00 -.604E-01 0.124E+04   -.109E+01 0.594E-01 -.124E+04   0.122E+00 0.210E-02 0.577E-01   -.571E-03 -.756E-05 0.830E-01
   0.210E+01 0.143E+01 0.782E+03   -.206E+01 -.141E+01 -.782E+03   -.131E-01 -.317E-01 -.917E-01   0.106E-02 0.167E-04 0.644E-01
   0.156E+01 -.165E+00 0.125E+04   -.172E+01 0.171E+00 -.125E+04   0.158E+00 -.125E-01 -.458E-01   -.782E-03 -.511E-04 0.829E-01
   -.952E+01 0.771E-01 0.753E+03   0.953E+01 -.750E-01 -.753E+03   0.429E-01 -.462E-02 0.110E-01   0.103E-02 0.113E-05 0.631E-01
   -.189E+01 -.217E-01 -.819E+03   0.156E+01 0.197E-01 0.819E+03   0.187E+00 0.182E-02 0.888E-01   -.419E-03 0.117E-04 -.114E-01
   -.893E+01 -.445E+00 -.121E+04   0.901E+01 0.393E+00 0.121E+04   0.594E-02 0.408E-01 -.163E+00   0.785E-03 0.165E-03 -.337E-01
   0.174E+01 -.183E+01 -.786E+03   -.194E+01 0.180E+01 0.786E+03   0.226E+00 0.140E-02 0.138E-01   -.886E-03 0.527E-04 -.105E-01
   -.829E+01 0.205E+00 -.128E+04   0.829E+01 -.202E+00 0.128E+04   0.870E-02 -.441E-02 0.113E+00   0.770E-03 -.112E-04 -.351E-01
   0.267E+02 0.936E-01 -.283E+04   -.280E+02 -.941E-01 0.283E+04   0.765E+00 -.597E-02 -.194E+00   0.725E-02 0.399E-04 -.101E+00
   -.665E+02 0.912E+01 -.322E+04   0.656E+02 -.886E+01 0.322E+04   0.471E+00 -.195E+00 0.108E+01   -.455E-02 0.738E-03 -.117E+00
   0.980E+01 0.791E+01 -.277E+04   -.996E+01 -.800E+01 0.277E+04   0.711E+00 0.818E-02 -.217E+00   0.202E-02 -.147E-03 -.100E+00
   -.858E+02 -.594E-02 -.331E+04   0.841E+02 0.239E-01 0.331E+04   0.101E+01 -.224E-03 0.262E+01   -.985E-02 -.179E-04 -.117E+00
   -.316E+02 0.110E-01 0.228E+04   0.370E+02 -.915E-02 -.229E+04   -.642E+01 -.196E-02 0.167E+02   -.350E-02 -.512E-04 0.766E-01
   -.320E+02 0.119E-01 0.228E+04   0.373E+02 -.121E-01 -.230E+04   -.641E+01 0.178E-03 0.167E+02   -.347E-02 -.812E-05 0.766E-01
   0.813E+02 0.165E+00 0.138E+04   -.863E+02 -.188E+00 -.137E+04   0.366E+01 0.205E-01 -.418E+01   -.252E-02 -.880E-05 0.616E-01
   0.744E+02 -.264E-01 0.168E+04   -.819E+02 0.315E-01 -.168E+04   0.712E+01 -.826E-02 -.254E+01   0.241E-02 -.970E-04 0.683E-01
   -.858E+02 -.550E-01 0.194E+04   0.934E+02 0.567E-01 -.194E+04   -.657E+01 -.441E-02 -.247E+00   0.249E-02 -.428E-04 0.706E-01
   -.684E+02 -.663E+00 0.105E+04   0.742E+02 0.696E+00 -.105E+04   -.532E+01 -.246E-01 0.410E+01   0.102E-02 -.111E-04 0.573E-01
   0.821E+02 0.168E+00 0.138E+04   -.870E+02 -.158E+00 -.137E+04   0.362E+01 -.104E-01 -.400E+01   -.253E-02 -.118E-04 0.615E-01
   0.733E+02 0.118E+00 0.168E+04   -.808E+02 -.124E+00 -.168E+04   0.714E+01 0.119E-01 -.255E+01   0.254E-02 -.202E-04 0.683E-01
   -.861E+02 0.700E-01 0.194E+04   0.936E+02 -.659E-01 -.194E+04   -.655E+01 -.915E-02 -.252E+00   0.263E-02 -.596E-04 0.706E-01
   -.735E+02 0.479E+00 0.105E+04   0.797E+02 -.503E+00 -.106E+04   -.552E+01 0.198E-01 0.422E+01   0.111E-02 -.105E-04 0.573E-01
   0.782E+02 -.180E+00 0.143E+03   -.851E+02 0.195E+00 -.138E+03   0.618E+01 -.146E-01 -.496E+01   -.516E-03 -.734E-04 0.267E-01
   0.802E+02 0.233E+00 0.472E+03   -.872E+02 -.296E+00 -.469E+03   0.631E+01 0.585E-01 -.288E+01   -.166E-03 -.619E-04 0.401E-01
[...]
   0.854E+02 -.286E-01 -.110E+04   -.928E+02 0.374E-01 0.111E+04   0.680E+01 -.908E-02 -.701E+01   -.549E-03 0.113E-04 -.350E-01
   0.719E+02 -.157E+00 -.740E+03   -.781E+02 0.172E+00 0.744E+03   0.568E+01 -.100E-01 -.309E+01   -.328E-03 0.957E-05 -.184E-01
   -.815E+02 -.334E+00 -.479E+03   0.883E+02 0.239E+00 0.476E+03   -.606E+01 0.995E-01 0.263E+01   0.427E-03 -.361E-04 -.847E-02
   -.603E+02 0.681E+01 -.131E+04   0.629E+02 -.750E+01 0.130E+04   -.247E+01 0.615E+00 0.905E+01   0.293E-03 0.910E-04 -.521E-01
   0.819E+02 0.869E+01 -.107E+04   -.885E+02 -.952E+01 0.107E+04   0.584E+01 0.765E+00 -.543E+01   -.117E-02 -.136E-03 -.346E-01
   0.775E+02 -.108E+01 -.757E+03   -.842E+02 0.897E+00 0.760E+03   0.602E+01 0.208E+00 -.315E+01   -.358E-03 -.147E-03 -.185E-01
   -.733E+02 -.484E-01 -.488E+03   0.797E+02 0.538E-01 0.486E+03   -.586E+01 -.141E-02 0.221E+01   0.321E-03 -.519E-05 -.877E-02
   -.697E+02 -.391E+00 -.135E+04   0.746E+02 0.433E+00 0.134E+04   -.422E+01 -.401E-01 0.795E+01   0.191E-03 0.877E-05 -.516E-01
   0.596E+02 0.119E+00 -.230E+04   -.668E+02 -.116E+00 0.232E+04   0.682E+01 -.805E-02 -.196E+02   0.663E-03 -.480E-05 -.810E-01
   0.557E+02 0.533E-01 -.203E+04   -.599E+02 -.514E-01 0.203E+04   0.397E+01 0.383E-02 -.731E+01   -.899E-04 0.657E-05 -.749E-01
   -.533E+02 0.948E+00 -.168E+04   0.581E+02 -.896E+00 0.167E+04   -.422E+01 0.242E-01 0.294E+01   0.267E-02 0.717E-03 -.649E-01
   0.518E+02 -.495E+01 -.229E+04   -.584E+02 0.615E+01 0.231E+04   0.614E+01 -.119E+01 -.201E+02   -.137E-02 0.134E-02 -.832E-01
   0.567E+02 0.159E+01 -.202E+04   -.615E+02 -.205E+01 0.203E+04   0.421E+01 0.859E+00 -.602E+01   -.221E-02 0.150E-02 -.731E-01
   -.427E+02 -.284E-02 -.161E+04   0.467E+02 -.903E-02 0.160E+04   -.388E+01 0.151E-01 0.577E+01   0.398E-03 -.181E-04 -.621E-01
   -.178E+02 0.154E-01 0.694E+02   -.966E-12 -.303E-12 0.114E-10   0.174E+02 0.438E-01 -.631E+02   0.319E-02 0.251E-04 0.137E+01

 POSITION                                       TOTAL-FORCE (eV/Angst)
      8.29921      9.47401      8.23548         4.295228      0.004132      2.056422
      6.08023      7.57921      9.11607        -1.868606      0.003987     -2.169528
      3.16233      7.57921      8.23548         4.259304     -0.000114      2.031089
      0.94335      9.47401      9.11607        -1.912697     -0.003527     -2.172074
      9.70804      9.47696     11.79939        -0.018920      0.000781     -0.010445
      7.46680      7.57573     12.59376         0.002682     -0.002945      0.001641
      4.56313      7.57772     11.79452        -0.007771      0.001067     -0.012552
      2.31691      9.47426     12.60946        -0.003560      0.005754     -0.007679
      0.88581      9.47973     15.36543        -0.027817      0.014441      0.021486
      8.89061      7.57665     16.05893         0.009371      0.011395      0.101941
      6.00361      7.58012     15.33207         0.041622      0.024777      0.004572
      3.73970      9.47663     16.10029        -0.018655      0.040286      0.001129
      2.37420      9.46848     19.00448         0.040253      0.028994      0.278460
      0.00061      7.57079     19.54914        -0.659321     -0.055655      0.168401
      7.48719      7.56984     18.89699         0.594276      0.074945      0.688031
      5.17131      9.48586     19.55488        -0.292353      0.156992     -0.046133
      8.29921      1.89480      8.23548         4.294668     -0.004363      2.055776
      6.08023      0.00000      9.11607        -1.895458     -0.000655     -2.164526
      3.16233      0.00000      8.23548         4.286298     -0.000462      2.049169
      0.94335      1.89480      9.11607        -1.912111      0.002005     -2.171913
      9.70775      1.89443     11.79934        -0.014983     -0.006020     -0.011088
      7.45840      0.00121     12.59926         0.001303     -0.002826     -0.000040
      4.56506      0.00071     11.79888        -0.006201     -0.002755     -0.006451
      2.31702      1.89600     12.60912        -0.004409     -0.007474     -0.005059
      0.88555      1.89426     15.36503        -0.024007     -0.014687      0.021571
      8.87554      0.00249     16.07756        -0.011196      0.001052      0.039710
      6.01053      0.00188     15.34967         0.013528      0.000345      0.023427
      3.73944      1.89581     16.10016        -0.020426     -0.040647     -0.001481
      2.37400      1.90629     19.00429         0.032873     -0.024432      0.275588
      0.02796      0.00320     19.54922        -0.327591      0.002762     -0.001066
      7.52089      0.00202     18.97289         0.186133      0.003991      0.306061
      5.17094      1.88638     19.55435        -0.289578     -0.165888     -0.054493
      8.29921      5.68441      8.23548         4.299605      0.000345      2.045665
      6.08023      3.78960      9.11607        -1.866991     -0.004557     -2.169303
      3.16233      3.78960      8.23548         4.258239      0.000387      2.029830
      0.94335      5.68441      9.11607        -1.877082     -0.000318     -2.112117
      9.72335      5.68586     11.79347        -0.027838      0.000300     -0.030792
      7.46718      3.79564     12.59351        -0.000712      0.001456      0.005062
      4.56290      3.79264     11.79430        -0.006053     -0.002230     -0.013538
      2.32113      5.68515     12.63847        -0.003112     -0.000427     -0.049069
      0.91611      5.68740     15.37096        -0.087354     -0.000637     -0.037242
      8.89151      3.79737     16.05804         0.007966     -0.012148      0.106208
      6.00291      3.79240     15.33113         0.046754     -0.025635      0.004961
      3.76101      5.68639     16.18358        -0.070200      0.000384     -0.288581
      2.40874      5.68700     19.01769        -0.374301     -0.002382      0.106996
     10.27277      3.80414     19.54998        -0.689118      0.060298      0.175774
      7.48558      3.80345     18.89296         0.618910     -0.067661      0.712749
      5.18998      5.68612     19.72347        -0.997010      0.015645     -1.915104
      5.01563      7.57921      7.50000        -2.121072     -0.000634      1.556510
     10.15251      9.47401      7.50000        -2.113562     -0.000196      1.549818
      9.36381      9.47401      9.85155        -0.815447      0.000364     -0.349779
      6.44591      9.47401      8.97095         0.701233     -0.004872     -0.213662
      7.93353      7.57921      8.38059         0.022037     -0.003726     -1.119258
      6.41347      7.57921     11.02238        -0.307619      0.005401      0.573103
      4.22693      7.57921      9.85155        -0.826022     -0.001616     -0.331715
      1.30903      7.57921      8.97095         0.714123      0.008058     -0.220992
      2.79665      9.47401      8.38059         0.033990     -0.006973     -1.122300
      1.27659      9.47401     11.02238        -0.219858     -0.000887      0.655053
      0.50804      9.47723     13.39340         0.248790     -0.002308     -0.184195
      7.84846      9.47461     12.49029         0.270629      0.003556     -0.108022
[...]
      2.72799      5.68568     14.57069        -0.209787      0.000720      0.249800
      1.98509      5.68729     16.96420         0.374746     -0.001751     -0.143037
      9.29014      5.68673     16.00732         0.252759      0.003768     -0.121695
      0.52907      3.79466     15.44053        -0.245585      0.020352      0.085957
      9.38592      3.77763     18.00929        -0.189586      0.021724      0.165004
      7.13023      3.76182     16.89922         0.182145      0.041887     -0.237838
      4.15795      3.79366     16.04770         0.227388      0.059835     -0.081903
      5.65779      5.68618     15.46271        -0.296114      0.002798      0.117156
      4.24705      5.68812     18.11858         0.118342     -0.003532      0.948091
      3.54204      5.68646     20.49770         0.721567     -0.005907     -0.394301
      0.52904      5.68717     19.77764         0.350864      0.006076     -0.223599
      1.99939      3.79770     19.01108        -0.088804      0.084152      0.146258
      8.63879      3.86148     20.39754         0.447807     -0.172341     -1.132855
      5.69334      3.77385     19.75785         0.033301      0.548458      0.187042
      7.11529      5.68720     18.85004        -0.546065      0.005154      0.648641
    total drift:                                0.048819      0.028818      0.227183

  FREE ENERGIE OF THE ION-ELECTRON SYSTEM (eV)
  free  energy   TOTEN  =     -1573.87478463 eV

  energy  without entropy=    -1573.87478463  energy(sigma->0) =    -1573.87478463

     |            E. Caldeweyher, S. Ehlert & S. Grimme          |
     |          Mulliken Center for Theoretical Chemistry        |
     |                    University of Bonn                     |

Rational (Becke-Johnson) damping: hse06-D4-ATM
  s6         1.0000
  s8         1.1953
  s9         1.0000
  a1         0.3866
  a2         5.1913
 alp        16.0000

Dispersion energy:      -7.6820031553607E-01 Eh