 vasp.6.3.0 20Jan22 (build Apr  1 2022 16:44:48) complex
 executed on        HPECrayEX_GCC date 2023.03.11  23:46:49

 INCAR:
   SYSTEM = MgO-rocksalt
   ISMEAR = 0
   SIGMA = 0.05
   EDIFF = 1E-6
   ALGO = ALL
   ISTART = 0
   IBRION = -1
   NSW = 0
   ISYM = 0
   DIPOL = 0.5 0.5 0.5
   IDIPOL = 3
   LDIPOL = .TRUE.
   LHFCALC = .TRUE.
   GGA = B5
   AEXX = 0.2
   AGGAX = 0.72
   AGGAC = 0.81
   ALDAC = 0.19
   IVDW = 1
   VDW_S6 = 1.05
   VDW_C6 = 0.63 0.70
   VDW_R0 = 1.243 1.342
   ENCUT = 600
   PREC = Accurate
   LASPH = .TRUE.
   LREAL = .FALSE.
   ISPIN = 1
   NELM = 200
   NELMIN = 8
   NCORE = 8
   KPAR = 1
   LWAVE = .FALSE.
   LCHARG = .FALSE.

 POTCAR:    PAW_PBE Mg_pv 13Apr2007
 POTCAR:    PAW_PBE O 08Apr2002
 POTCAR:    PAW_PBE Mg_pv 13Apr2007
   VRHFIN =Mg: p6s2

   TITEL  = PAW_PBE Mg_pv 13Apr2007
   POMASS =   24.305; ZVAL   =    8.000    mass and valenz
   ENMAX  =  403.929; ENMIN  =  302.947 eV

   TITEL  = PAW_PBE O 08Apr2002
   POMASS =   16.000; ZVAL   =    6.000    mass and valenz
   ENMAX  =  400.000; ENMIN  =  300.000 eV

  PAW_PBE Mg_pv 13Apr2007               :
  PAW_PBE O 08Apr2002                   :

 POSCAR: Mg  O
  positions in direct lattice
 exchange correlation table for  LEXCH =       12
   RHO(1)=    0.500       N(1)  =     2000
   RHO(2)=  100.500       N(2)  =     4000

 ion  position               nearest neighbor table
   1  0.250  0.000  0.352-  35 2.10  36 2.10  43 2.10  52 2.10  33 2.10
   2  0.500  0.250  0.352-  35 2.10  36 2.10  44 2.10  51 2.10  34 2.10
   3  0.250  0.250  0.451-  33 2.10  34 2.10  41 2.10  50 2.10  35 2.10  39 2.10
   4  0.500  0.000  0.451-  33 2.10  34 2.10  42 2.10  49 2.10  36 2.10  40 2.11
   5  0.250  1.000  0.550-  56 2.10  47 2.10  40 2.10  39 2.10  33 2.11  37 2.13
   6  0.500  0.250  0.550-  55 2.10  40 2.10  39 2.10  48 2.10  34 2.11  38 2.13
   7  0.250  0.250  0.648-  39 2.09  54 2.10  37 2.10  45 2.10  38 2.10
   8  0.500  0.000  0.648-  40 2.09  38 2.10  53 2.10  37 2.10  46 2.11
   9  0.250  0.500  0.352-  35 2.10  43 2.10  44 2.10  60 2.10  41 2.10
  10  0.500  0.750  0.352-  36 2.10  43 2.10  44 2.10  59 2.10  42 2.10
  11  0.250  0.750  0.451-  33 2.10  41 2.10  42 2.10  58 2.10  43 2.10  47 2.11
  12  0.500  0.500  0.451-  34 2.10  41 2.10  42 2.10  57 2.10  44 2.10  48 2.11
  13  0.250  0.500  0.550-  47 2.10  64 2.10  39 2.10  48 2.10  41 2.11  45 2.13
  14  0.500  0.750  0.550-  63 2.10  40 2.10  48 2.10  47 2.10  42 2.12  46 2.14
  15  0.250  0.750  0.648-  47 2.09  62 2.09  46 2.10  37 2.10  45 2.10
  16  0.499  0.499  0.647-  48 2.08  45 2.09  38 2.09  61 2.11  46 2.11
  17  0.750  0.000  0.352-  36 2.10  51 2.10  52 2.10  59 2.10  49 2.10
  18  0.000  0.250  0.352-  35 2.10  51 2.10  52 2.10  60 2.10  50 2.10
  19  0.750  0.250  0.451-  34 2.10  49 2.10  50 2.10  57 2.10  51 2.10  55 2.11
  20  0.000  0.000  0.451-  33 2.10  49 2.10  50 2.10  58 2.10  52 2.10  56 2.11
  21  0.750  1.000  0.550-  63 2.10  56 2.10  40 2.10  55 2.11  49 2.11  53 2.12
  22  1.000  0.250  0.550-  56 2.10  55 2.10  64 2.10  39 2.10  50 2.11  54 2.13
  23  0.750  0.250  0.648-  55 2.09  53 2.09  61 2.10  54 2.10  38 2.10
  24  0.000  0.000  0.648-  56 2.09  54 2.10  37 2.10  53 2.10  62 2.10
  25  0.750  0.500  0.352-  44 2.10  51 2.10  59 2.10  60 2.10  57 2.10
  26  0.000  0.750  0.352-  43 2.10  52 2.10  59 2.10  60 2.10  58 2.10
  27  0.750  0.750  0.451-  42 2.10  49 2.10  57 2.10  58 2.10  59 2.10  63 2.11
  28  0.000  0.500  0.451-  41 2.10  50 2.10  57 2.10  58 2.10  60 2.10  64 2.11
  29  0.750  0.500  0.550-  63 2.10  64 2.10  48 2.10  55 2.10  57 2.12  61 2.14
  30  1.000  0.750  0.550-  63 2.10  56 2.10  64 2.10  47 2.11  58 2.11  62 2.12
  31  0.751  0.751  0.649-  62 2.10  53 2.10  61 2.11  46 2.11  63 2.11
  32  0.000  0.500  0.648-  64 2.09  45 2.10  54 2.10  62 2.10  61 2.11
  33  0.250  0.000  0.451-   3 2.10   4 2.10  11 2.10  20 2.10   1 2.10   5 2.11
  34  0.500  0.250  0.451-   3 2.10   4 2.10  12 2.10  19 2.10   2 2.10   6 2.11
  35  0.250  0.250  0.352-   1 2.10   2 2.10   9 2.10  18 2.10   3 2.10
  36  0.500  0.000  0.352-   1 2.10   2 2.10  10 2.10  17 2.10   4 2.10
  37  0.250  0.000  0.650-   7 2.10   8 2.10  24 2.10  15 2.10   5 2.13
  38  0.500  0.250  0.650-  16 2.09   8 2.10   7 2.10  23 2.10   6 2.13
  39  0.250  0.250  0.549-   7 2.09   5 2.10   6 2.10  13 2.10  22 2.10   3 2.10
  40  0.500  1.000  0.550-   8 2.09  14 2.10   6 2.10   5 2.10  21 2.10   4 2.11
  41  0.250  0.500  0.451-   3 2.10  11 2.10  12 2.10  28 2.10   9 2.10  13 2.11
  42  0.500  0.750  0.451-   4 2.10  11 2.10  12 2.10  27 2.10  10 2.10  14 2.12
  43  0.250  0.750  0.352-   1 2.10   9 2.10  10 2.10  26 2.10  11 2.10
  44  0.500  0.500  0.352-   2 2.10   9 2.10  10 2.10  25 2.10  12 2.10
  45  0.250  0.500  0.650-  16 2.09  32 2.10   7 2.10  15 2.10  13 2.13
  46  0.500  0.750  0.650-  15 2.10   8 2.11  16 2.11  31 2.11  14 2.14
  47  0.250  0.750  0.550-  15 2.09   5 2.10  13 2.10  14 2.10  30 2.11  11 2.11
  48  0.500  0.500  0.550-  16 2.08  29 2.10  14 2.10   6 2.10  13 2.10  12 2.11
  49  0.750  0.000  0.451-   4 2.10  19 2.10  20 2.10  27 2.10  17 2.10  21 2.11
  50  0.000  0.250  0.451-   3 2.10  19 2.10  20 2.10  28 2.10  18 2.10  22 2.11
  51  0.750  0.250  0.352-   2 2.10  17 2.10  18 2.10  25 2.10  19 2.10
  52  0.000  0.000  0.352-   1 2.10  17 2.10  18 2.10  26 2.10  20 2.10
  53  0.750  0.001  0.650-  23 2.09  31 2.10   8 2.10  24 2.10  21 2.12
  54  1.000  0.250  0.650-   7 2.10  24 2.10  32 2.10  23 2.10  22 2.13
  55  0.750  0.250  0.550-  23 2.09   6 2.10  22 2.10  29 2.10  21 2.11  19 2.11
  56  0.000  0.000  0.550-  24 2.09   5 2.10  22 2.10  21 2.10  30 2.10  20 2.11
  57  0.750  0.500  0.451-  12 2.10  19 2.10  27 2.10  28 2.10  25 2.10  29 2.12
  58  0.000  0.750  0.451-  11 2.10  20 2.10  27 2.10  28 2.10  26 2.10  30 2.11
  59  0.750  0.750  0.352-  10 2.10  17 2.10  25 2.10  26 2.10  27 2.10
  60  0.000  0.500  0.352-   9 2.10  18 2.10  25 2.10  26 2.10  28 2.10
  61  0.749  0.500  0.651-  23 2.10  16 2.11  32 2.11  31 2.11  29 2.14
  62  0.001  0.750  0.650-  15 2.09  31 2.10  32 2.10  24 2.10  30 2.12
  63  0.750  0.750  0.550-  29 2.10  14 2.10  30 2.10  21 2.10  27 2.11  31 2.11
  64  1.000  0.500  0.550-  32 2.09  29 2.10  13 2.10  22 2.10  30 2.10  28 2.11

IMPORTANT INFORMATION: All symmetrisations will be switched off!
NOSYMM: (Re-)initialisation of all symmetry stuff for point group C_1.

                                     Primitive cell

  volume of cell :    1504.9259

  direct lattice vectors                    reciprocal lattice vectors
     8.404861995  0.000000000  0.000000000     0.118978753  0.000000000  0.000000000
     0.000000000  8.404861995  0.000000000     0.000000000  0.118978753  0.000000000
     0.000000000  0.000000000 21.303646496     0.000000000  0.000000000  0.046940321

  length of vectors
     8.404861995  8.404861995 21.303646496     0.118978753  0.118978753  0.046940321

  position of ions in fractional coordinates (direct lattice)
     0.250000000  0.000000000  0.352052406
     0.500000000  0.250000000  0.352052406
     0.250000000  0.250000000  0.450684135
     0.500000000  0.000000000  0.450684135
     0.249911680  0.999929864  0.549787010
     0.499978062  0.249765930  0.549732372
     0.249776756  0.249894274  0.647715488
     0.500009635  0.000193437  0.647645646
     0.250000000  0.500000000  0.352052406
     0.500000000  0.750000000  0.352052406
     0.250000000  0.750000000  0.450684135
     0.500000000  0.500000000  0.450684135
     0.249679908  0.500028870  0.549739881
     0.500337056  0.749994509  0.550035686
     0.249615983  0.749949730  0.647606730
     0.498689610  0.498793728  0.647268419
     0.750000000  0.000000000  0.352052406
     0.000000000  0.250000000  0.352052406
     0.750000000  0.250000000  0.450684135
     0.000000000  0.000000000  0.450684135
     0.750048350  0.999787187  0.549932830
     0.999868760  0.249988550  0.549794521
     0.749877607  0.249752797  0.647627684
     0.000028367  0.000135705  0.647721950
     0.750000000  0.500000000  0.352052406
     0.000000000  0.750000000  0.352052406
     0.750000000  0.750000000  0.450684135
     0.000000000  0.500000000  0.450684135
     0.749936390  0.500397036  0.550038645
     0.999717214  0.750082824  0.549933959
     0.751108078  0.751178758  0.649154450
     0.000047231  0.500092483  0.647711347
     0.250000000  0.000000000  0.450684135
     0.500000000  0.250000000  0.450684135
     0.250000000  0.250000000  0.352052406
     0.500000000  0.000000000  0.352052406
     0.250023599  0.000051541  0.649820219
     0.499713021  0.249790086  0.649580295
     0.249929268  0.249973191  0.549489771
     0.499911163  0.999788430  0.549572644
     0.250000000  0.500000000  0.450684135
     0.500000000  0.750000000  0.450684135
     0.250000000  0.750000000  0.352052406
     0.500000000  0.500000000  0.352052406
     0.249692188  0.499812455  0.649542664
     0.499550615  0.749540221  0.650475701
     0.250186814  0.749985050  0.549525812
     0.499957669  0.500013800  0.549567412
     0.750000000  0.000000000  0.450684135
     0.000000000  0.250000000  0.450684135
     0.750000000  0.250000000  0.352052406
     0.000000000  0.000000000  0.352052406
     0.749993483  0.000704799  0.649509390
     0.999961590  0.250112861  0.649819680
     0.749920664  0.250262058  0.549530778
     0.000050324  0.000097095  0.549517671
     0.750000000  0.500000000  0.450684135
     0.000000000  0.750000000  0.450684135
     0.750000000  0.750000000  0.352052406
     0.000000000  0.500000000  0.352052406
     0.749327892  0.499699399  0.650501998
     0.000574494  0.750087358  0.649546102
     0.749834747  0.749888767  0.549878285
     0.999704299  0.499971390  0.549587662

  ion indices of the primitive-cell ions
   primitive index   ion index
                 1           1
                 2           2
                 3           3
                 4           4
                 5           5
                 6           6
                 7           7
                 8           8
                 9           9
                10          10
                11          11
                12          12
                13          13
                14          14
                15          15
                16          16
                17          17
                18          18
                19          19
                20          20
                21          21
                22          22
                23          23
                24          24
                25          25
                26          26
                27          27
                28          28
                29          29
                30          30
                31          31
                32          32
                33          33
                34          34
                35          35
                36          36
                37          37
                38          38
                39          39
                40          40
                41          41
                42          42
                43          43
                44          44
[...]
   0.50000000  0.75000000  0.45068414
   0.25000000  0.75000000  0.35205241
   0.50000000  0.50000000  0.35205241
   0.24969219  0.49981246  0.64954266
   0.49955061  0.74954022  0.65047570
   0.25018681  0.74998505  0.54952581
   0.49995767  0.50001380  0.54956741
   0.75000000  0.00000000  0.45068414
   0.00000000  0.25000000  0.45068414
   0.75000000  0.25000000  0.35205241
   0.00000000  0.00000000  0.35205241
   0.74999348  0.00070480  0.64950939
   0.99996159  0.25011286  0.64981968
   0.74992066  0.25026206  0.54953078
   0.00005032  0.00009709  0.54951767
   0.75000000  0.50000000  0.45068414
   0.00000000  0.75000000  0.45068414
   0.75000000  0.75000000  0.35205241
   0.00000000  0.50000000  0.35205241
   0.74932789  0.49969940  0.65050200
   0.00057449  0.75008736  0.64954610
   0.74983475  0.74988877  0.54987828
   0.99970430  0.49997139  0.54958766

 position of ions in cartesian coordinates  (Angst):
   2.10121550  0.00000000  7.50000000
   4.20243100  2.10121550  7.50000000
   2.10121550  2.10121550  9.60121550
   4.20243100  0.00000000  9.60121550
   2.10047318  8.40427251 11.71246812
   4.20224661  2.09924817 11.71130413
   2.09933916  2.10032688 13.79870179
   4.20251198  0.00162581 13.79721390
   2.10121550  4.20243100  7.50000000
   4.20243100  6.30364650  7.50000000
   2.10121550  6.30364650  9.60121550
   4.20243100  4.20243100  9.60121550
   2.09852517  4.20267365 11.71146409
   4.20526390  6.30360034 11.71776581
   2.09798789  6.30322398 13.79638485
   4.19141735  4.19229245 13.78917759
   6.30364650  0.00000000  7.50000000
   0.00000000  2.10121550  7.50000000
   6.30364650  2.10121550  9.60121550
   0.00000000  0.00000000  9.60121550
   6.30405287  8.40307333 11.71557460
   8.40375894  2.10111926 11.71262812
   6.30261780  2.09913779 13.79683124
   0.00023842  0.00114058 13.79883944
   6.30364650  4.20243100  7.50000000
   0.00000000  6.30364650  7.50000000
   6.30364650  6.30364650  9.60121550
   0.00000000  4.20243100  9.60121550
   6.30311187  4.20576803 11.71782885
   8.40248522  6.30434262 11.71559865
   6.31295974  6.31355379 13.82935692
   0.00039697  4.20320831 13.79861357
   2.10121550  0.00000000  9.60121550
   4.20243100  2.10121550  9.60121550
   2.10121550  2.10121550  7.50000000
   4.20243100  0.00000000  7.50000000
   2.10141385  0.00043319 13.84354022
   4.20001898  2.09945120 13.83842898
   2.10062101  2.10099018 11.70613582
   4.20168433  8.40308378 11.70790134
   2.10121550  4.20243100  9.60121550
   4.20243100  6.30364650  9.60121550
   2.10121550  6.30364650  7.50000000
   4.20243100  4.20243100  7.50000000
   2.09862839  4.20085471 13.83762730
   4.19865398  6.29978211 13.85750440
   2.10278564  6.30352084 11.70690364
   4.20207521  4.20254699 11.70778987
   6.30364650  0.00000000  9.60121550
   0.00000000  2.10121550  9.60121550
   6.30364650  2.10121550  7.50000000
   0.00000000  0.00000000  7.50000000
   6.30359172  0.00592373 13.83691844
   8.40453916  2.10216408 13.84352875
   6.30297969  2.10341806 11.70700944
   0.00042297  0.00081607 11.70673022
   6.30364650  4.20243100  9.60121550
   0.00000000  6.30364650  9.60121550
   6.30364650  6.30364650  7.50000000
   0.00000000  4.20243100  7.50000000
   6.29799752  4.19990448 13.85806461
   0.00482854  6.30438073 13.83770053
   6.30225757  6.30271160 11.71441259
   8.40237667  4.20219054 11.70822126

--------------------------------------- Iteration      FINAL  ---------------------------------------

--------------------OUTCAR has been truncated-------------------------

[...]

--------------------OUTCAR has been truncated-------------------------

  DFT-D2 method for vdW energy calculation

  Parameters of vdW forcefield:
         C6(Jnm^6/mol)     R0(A)
   Mg       0.630          1.243
   O        0.700          1.342

  vdW correction parametrized for the method ÀJü      

  IVDW =   1
  VDW_RADIUS =    50.000 A
  VDW_S6 =     1.050
  VDW_SR =     1.000
  VDW_D =    20.000
  LVDW_EWALD = F

  Number of pair interactions contributing to vdW energy:  731224
  Edisp (eV):   -5.17036

 VOLUME and BASIS-vectors are now :
  energy-cutoff  :      600.00
  volume of cell :     1504.93
      direct lattice vectors                 reciprocal lattice vectors
     8.404861995  0.000000000  0.000000000     0.118978753  0.000000000  0.000000000
     0.000000000  8.404861995  0.000000000     0.000000000  0.118978753  0.000000000
     0.000000000  0.000000000 21.303646496     0.000000000  0.000000000  0.046940321

  length of vectors
     8.404861995  8.404861995 21.303646496     0.118978753  0.118978753  0.046940321

 FORCES acting on ions:
    Electron-Ion                     Ewald-Force                    Non-Local-Force
   -.260E-01 0.994E-01 0.209E+04   0.269E-01 -.101E+00 -.208E+04   -.599E-03 0.126E-02 -.641E+01
   -.100E+00 -.272E-01 0.209E+04   0.102E+00 0.276E-01 -.208E+04   -.111E-02 -.202E-03 -.641E+01
   -.255E-01 -.531E-01 0.693E+03   0.128E-01 0.423E-01 -.693E+03   0.828E-02 0.717E-02 0.379E+00
   -.444E+00 0.562E+00 0.692E+03   0.443E+00 -.608E+00 -.693E+03   0.112E-02 0.286E-01 0.417E+00
   -.418E+00 0.481E+00 -.696E+03   0.424E+00 -.484E+00 0.697E+03   0.244E-02 0.528E-02 -.206E+00
   -.512E+00 -.212E+00 -.695E+03   0.512E+00 0.201E+00 0.695E+03   -.420E-02 0.170E-01 -.245E+00
   0.234E+00 0.298E+00 -.208E+04   -.280E+00 -.354E+00 0.207E+04   0.335E-01 0.383E-01 0.551E+01
   -.309E-01 0.240E+01 -.208E+04   -.149E+00 -.237E+01 0.207E+04   0.120E+00 -.603E-01 0.549E+01
   -.228E-01 -.993E-01 0.209E+04   0.230E-01 0.101E+00 -.208E+04   -.943E-04 -.121E-02 -.641E+01
   -.118E+00 0.253E-01 0.209E+04   0.121E+00 -.264E-01 -.208E+04   -.203E-02 0.651E-03 -.642E+01
   -.157E+00 0.455E-01 0.692E+03   0.189E+00 -.363E-01 -.693E+03   -.200E-01 -.610E-02 0.388E+00
   -.555E+00 -.561E+00 0.692E+03   0.583E+00 0.592E+00 -.692E+03   -.190E-01 -.206E-01 0.410E+00
   -.188E+00 -.512E+00 -.694E+03   0.177E+00 0.512E+00 0.695E+03   0.185E-01 -.352E-02 -.259E+00
   -.123E+01 0.352E+00 -.702E+03   0.133E+01 -.348E+00 0.702E+03   -.910E-01 -.117E-01 -.185E+00
   -.196E+01 -.200E+00 -.208E+04   0.211E+01 0.243E+00 0.207E+04   -.605E-01 -.308E-01 0.544E+01
   -.323E+01 -.339E+01 -.207E+04   0.329E+01 0.344E+01 0.207E+04   0.499E-01 0.628E-01 0.538E+01
   0.257E-01 0.118E+00 0.209E+04   -.267E-01 -.121E+00 -.208E+04   0.651E-03 0.179E-02 -.641E+01
   0.100E+00 -.305E-01 0.209E+04   -.102E+00 0.315E-01 -.208E+04   0.133E-02 -.677E-03 -.641E+01
   0.724E-02 -.158E+00 0.692E+03   -.663E-03 0.193E+00 -.693E+03   -.442E-02 -.222E-01 0.390E+00
   0.440E+00 0.431E+00 0.693E+03   -.440E+00 -.430E+00 -.693E+03   -.429E-03 -.144E-02 0.404E+00
   0.457E+00 0.105E+01 -.696E+03   -.463E+00 -.115E+01 0.697E+03   -.246E-02 0.863E-01 -.312E+00
   0.478E+00 -.424E+00 -.696E+03   -.482E+00 0.434E+00 0.697E+03   0.657E-02 -.201E-02 -.206E+00
   -.154E+00 -.195E+01 -.208E+04   0.185E+00 0.208E+01 0.207E+04   -.256E-01 -.487E-01 0.544E+01
   -.182E+00 -.127E+00 -.208E+04   0.360E+00 0.302E+00 0.207E+04   -.118E+00 -.118E+00 0.555E+01
   0.204E-01 -.117E+00 0.209E+04   -.216E-01 0.120E+00 -.208E+04   0.766E-03 -.215E-02 -.642E+01
   0.119E+00 0.306E-01 0.209E+04   -.122E+00 -.315E-01 -.208E+04   0.188E-02 0.576E-03 -.641E+01
   0.145E+00 0.158E+00 0.691E+03   -.171E+00 -.182E+00 -.691E+03   0.172E-01 0.160E-01 0.484E+00
   0.545E+00 -.425E+00 0.692E+03   -.594E+00 0.426E+00 -.693E+03   0.309E-01 -.636E-03 0.423E+00
   0.312E+00 -.122E+01 -.702E+03   -.307E+00 0.132E+01 0.702E+03   -.135E-01 -.900E-01 -.174E+00
   0.104E+01 0.463E+00 -.697E+03   -.114E+01 -.472E+00 0.697E+03   0.871E-01 0.141E-02 -.299E+00
   0.354E+01 0.333E+01 -.209E+04   -.368E+01 -.348E+01 0.208E+04   -.124E-01 -.289E-02 0.563E+01
   0.239E+01 -.429E-01 -.208E+04   -.235E+01 -.133E+00 0.207E+04   -.688E-01 0.118E+00 0.550E+01
   -.114E+00 0.279E+00 0.519E+03   0.118E+00 -.280E+00 -.519E+03   -.376E-02 0.145E-02 -.823E-01
   -.287E+00 -.116E+00 0.519E+03   0.293E+00 0.131E+00 -.519E+03   -.642E-02 -.173E-01 -.589E-01
   -.998E-02 -.147E-01 0.157E+04   0.929E-02 0.138E-01 -.157E+04   0.878E-03 0.106E-02 0.312E+01
   -.770E-01 0.898E-01 0.157E+04   0.775E-01 -.940E-01 -.157E+04   -.609E-03 0.522E-02 0.312E+01
   -.434E+00 0.476E+00 -.158E+04   0.512E+00 -.527E+00 0.158E+04   -.921E-01 0.483E-01 -.461E+01
   -.552E+00 0.431E+00 -.158E+04   0.613E+00 -.466E+00 0.158E+04   -.600E-01 0.160E-01 -.459E+01
   0.986E-01 0.779E-01 -.516E+03   -.898E-01 -.710E-01 0.516E+03   -.105E-01 -.744E-02 0.246E+00
   -.359E+00 0.107E+01 -.517E+03   0.342E+00 -.108E+01 0.516E+03   0.242E-01 0.185E-01 0.324E+00
   -.109E+00 -.281E+00 0.519E+03   0.129E+00 0.284E+00 -.519E+03   -.234E-01 -.370E-02 -.593E-01
   -.377E+00 0.867E-01 0.518E+03   0.357E+00 -.858E-01 -.518E+03   0.235E-01 -.145E-02 -.137E+00
   -.240E-01 0.145E-01 0.157E+04   0.270E-01 -.136E-01 -.157E+04   -.374E-02 -.110E-02 0.312E+01
   -.877E-01 -.884E-01 0.157E+04   0.925E-01 0.931E-01 -.157E+04   -.605E-02 -.588E-02 0.312E+01
   0.438E+00 -.578E+00 -.158E+04   -.474E+00 0.641E+00 0.158E+04   0.156E-01 -.623E-01 -.458E+01
   -.212E+01 0.745E+00 -.158E+04   0.224E+01 -.951E+00 0.159E+04   -.683E-01 0.235E+00 -.472E+01
   -.601E+00 -.774E-01 -.516E+03   0.634E+00 0.761E-01 0.516E+03   -.468E-01 0.107E-02 0.336E+00
   -.110E+01 -.113E+01 -.516E+03   0.111E+01 0.114E+01 0.515E+03   -.847E-02 -.131E-01 0.407E+00
   0.110E+00 0.390E+00 0.518E+03   -.112E+00 -.380E+00 -.518E+03   0.196E-02 -.122E-01 -.868E-01
   0.276E+00 -.122E+00 0.519E+03   -.274E+00 0.121E+00 -.519E+03   -.234E-02 0.113E-02 -.820E-01
   0.997E-02 -.266E-01 0.157E+04   -.911E-02 0.296E-01 -.157E+04   -.110E-02 -.366E-02 0.312E+01
   0.771E-01 0.755E-01 0.157E+04   -.776E-01 -.761E-01 -.157E+04   0.555E-03 0.737E-03 0.312E+01
   0.588E+00 0.638E+00 -.158E+04   -.658E+00 -.519E+00 0.158E+04   0.815E-01 -.160E+00 -.433E+01
   0.465E+00 -.422E+00 -.158E+04   -.512E+00 0.490E+00 0.158E+04   0.432E-01 -.800E-01 -.460E+01
   -.966E-01 -.608E+00 -.516E+03   0.930E-01 0.636E+00 0.516E+03   0.438E-02 -.420E-01 0.334E+00
   0.343E+00 0.338E+00 -.516E+03   -.330E+00 -.325E+00 0.516E+03   -.205E-01 -.201E-01 0.314E+00
   0.664E-01 -.370E+00 0.518E+03   -.628E-01 0.347E+00 -.518E+03   -.456E-02 0.270E-01 -.138E+00
   0.387E+00 0.127E+00 0.518E+03   -.373E+00 -.131E+00 -.518E+03   -.168E-01 0.358E-02 -.872E-01
   0.231E-01 0.255E-01 0.157E+04   -.263E-01 -.288E-01 -.157E+04   0.404E-02 0.419E-02 0.311E+01
   0.894E-01 -.756E-01 0.157E+04   -.935E-01 0.761E-01 -.157E+04   0.512E-02 -.613E-03 0.312E+01
   0.653E+00 -.207E+01 -.158E+04   -.866E+00 0.219E+01 0.159E+04   0.250E+00 -.731E-01 -.471E+01
   0.558E+00 0.539E+00 -.158E+04   -.434E+00 -.598E+00 0.158E+04   -.162E+00 0.698E-01 -.433E+01
   0.710E+00 0.698E+00 -.523E+03   -.736E+00 -.718E+00 0.523E+03   0.415E-01 0.352E-01 0.170E-01
   0.106E+01 -.356E+00 -.517E+03   -.107E+01 0.340E+00 0.517E+03   0.168E-01 0.229E-01 0.315E+00
   0.920E-01 0.540E-01 0.181E+02   0.122E-12 0.143E-12 -.568E-11   -.879E-01 -.501E-01 -.159E+02

 POSITION                                       TOTAL-FORCE (eV/Angst)
      2.10122      0.00000      7.50000         0.000322     -0.000524      0.405877
      4.20243      2.10122      7.50000         0.000549      0.000153      0.404124
      2.10122      2.10122      9.60122        -0.003382     -0.002776      0.032083
      4.20243      0.00000      9.60122         0.000138     -0.012968      0.035109
      2.10047      8.40427     11.71247         0.008200      0.002698      0.006253
      4.20225      2.09925     11.71130        -0.004127      0.007483     -0.001911
      2.09934      2.10033     13.79870        -0.008311     -0.012787     -0.004339
      4.20251      0.00163     13.79721        -0.045388     -0.037557      0.024806
      2.10122      4.20243      7.50000         0.000168      0.000525      0.404119
      4.20243      6.30365      7.50000         0.000767     -0.000278      0.408662
      2.10122      6.30365      9.60122         0.008686      0.002397      0.040343
      4.20243      4.20243      9.60122         0.007195      0.008110      0.040891
      2.09853      4.20267     11.71146         0.008499     -0.003873     -0.003852
      4.20526      6.30360     11.71777         0.002949     -0.008136      0.020022
      2.09799      6.30322     13.79638         0.074481      0.008558      0.041527
      4.19142      4.19229     13.78918         0.103977      0.105173      0.114809
      6.30365      0.00000      7.50000        -0.000242     -0.000626      0.404780
      0.00000      2.10122      7.50000        -0.000495      0.000301      0.405776
      6.30365      2.10122      9.60122         0.001679      0.009655      0.040269
      0.00000      0.00000      9.60122        -0.000414      0.000149      0.030845
      6.30405      8.40307     11.71557        -0.007646     -0.003371     -0.031108
      8.40376      2.10112     11.71263         0.002899      0.007282      0.004629
      6.30262      2.09914     13.79683         0.003392      0.070249      0.038910
      0.00024      0.00114     13.79884         0.044731      0.042661     -0.015208
      6.30365      4.20243      7.50000        -0.000272      0.000754      0.408667
      0.00000      6.30365      7.50000        -0.000610     -0.000251      0.404816
      6.30365      6.30365      9.60122        -0.006430     -0.005709      0.047351
      0.00000      4.20243      9.60122        -0.014043      0.000912      0.035061
      6.30311      4.20577     11.71783        -0.008730      0.003115      0.019168
      8.40249      6.30434     11.71560        -0.003043     -0.006821     -0.030773
      6.31296      6.31355     13.82936        -0.143547     -0.137826     -0.177162
      0.00040      4.20321     13.79861        -0.034663     -0.043486      0.015027
      2.10122      0.00000      9.60122        -0.000647      0.000436      0.046482
      4.20243      2.10122      9.60122        -0.001847     -0.004774      0.049365
      2.10122      2.10122      7.50000         0.000360      0.000381     -0.493351
      4.20243      0.00000      7.50000        -0.000126      0.001767     -0.494297
      2.10141      0.00043     13.84354        -0.026540      0.003470     -0.019739
      4.20002      2.09945     13.83843        -0.006469     -0.017917      0.000154
      2.10062      2.10099     11.70614        -0.002968     -0.001384     -0.003645
      4.20168      8.40308     11.70790         0.011258      0.008770     -0.003766
      2.10122      4.20243      9.60122        -0.006546     -0.001109      0.050134
      4.20243      6.30365      9.60122         0.007240     -0.000744      0.054624
      2.10122      6.30365      7.50000        -0.001225     -0.000384     -0.494401
      4.20243      4.20243      7.50000        -0.002004     -0.001996     -0.494781
      2.09863      4.20085     13.83763        -0.019631     -0.007349      0.006939
      4.19865      6.29978     13.85750         0.039525      0.061993     -0.079015
      2.10279      6.30352     11.70690        -0.021018     -0.000205      0.003579
      4.20208      4.20255     11.70779        -0.008318     -0.008578     -0.018089
      6.30365      0.00000      9.60122         0.000259     -0.003823      0.061899
      0.00000      2.10122      9.60122        -0.000652      0.000746      0.047469
      6.30365      2.10122      7.50000        -0.000337     -0.001231     -0.494355
      0.00000      0.00000      7.50000         0.000214      0.000239     -0.493739
      6.30359      0.00592     13.83692         0.022544     -0.063498      0.080457
      8.40454      2.10216     13.84353         0.001761     -0.022710     -0.016200
      6.30298      2.10342     11.70701         0.001270     -0.020277      0.004166
      0.00042      0.00082     11.70673        -0.010450     -0.009842      0.010320
      6.30365      4.20243      9.60122        -0.001599      0.008215      0.054625
      0.00000      6.30365      9.60122        -0.005146      0.000689      0.061860
      6.30365      6.30365      7.50000         0.001445      0.001422     -0.495795
      0.00000      4.20243      7.50000         0.001753     -0.000174     -0.494294
      6.29800      4.19990     13.85806         0.072416      0.034895     -0.079475
      0.00483      6.30438     13.83770        -0.061627      0.019442      0.077167
      6.30226      6.30271     11.71441         0.020737      0.019757     -0.001375
      8.40238      4.20219     11.70822         0.009077      0.010587     -0.002495
    total drift:                               -0.003267     -0.000506      0.003834

  FREE ENERGIE OF THE ION-ELECTRON SYSTEM (eV)
  free  energy   TOTEN  =      -438.71461684 eV

  energy  without entropy=     -438.71461684  energy(sigma->0) =     -438.71461684