 vasp.6.3.0 20Jan22 (build Apr  1 2022 16:44:48) complex
 executed on        HPECrayEX_GCC date 2022.11.13  14:40:35

 INCAR:
   SYSTEM = MgO-rocksalt
   ISMEAR = 0
   SIGMA = 0.05
   EDIFF = 1E-6
   ALGO = ALL
   ISTART = 0
   IBRION = -1
   NSW = 0
   ISYM = 0
   DIPOL = 0.5 0.5 0.5
   IDIPOL = 3
   LDIPOL = .TRUE.
   LHFCALC = .TRUE.
   GGA = B5
   AEXX = 0.2
   AGGAX = 0.72
   AGGAC = 0.81
   ALDAC = 0.19
   IVDW = 1
   VDW_S6 = 1.05
   VDW_C6 = 1.75 0.70 0.14 0.63 0.70
   VDW_R0 = 1.452 1.342 1.001 1.243 1.342
   ENCUT = 600
   PREC = Accurate
   LASPH = .TRUE.
   LREAL = .FALSE.
   ISPIN = 1
   NELM = 200
   NELMIN = 8
   NCORE = 8
   KPAR = 1
   LWAVE = .FALSE.
   LCHARG = .FALSE.

 POTCAR:    PAW_PBE C 08Apr2002
 POTCAR:    PAW_PBE O 08Apr2002
 POTCAR:    PAW_PBE H 15Jun2001
 POTCAR:    PAW_PBE Mg_pv 13Apr2007
 POTCAR:    PAW_PBE O 08Apr2002
 POTCAR:    PAW_PBE C 08Apr2002
   VRHFIN =C: s2p2

   TITEL  = PAW_PBE C 08Apr2002
   POMASS =   12.011; ZVAL   =    4.000    mass and valenz
   ENMAX  =  400.000; ENMIN  =  300.000 eV

[...]

   TITEL  = PAW_PBE H 15Jun2001
   POMASS =    1.000; ZVAL   =    1.000    mass and valenz
   ENMAX  =  250.000; ENMIN  =  200.000 eV

   TITEL  = PAW_PBE Mg_pv 13Apr2007
   POMASS =   24.305; ZVAL   =    8.000    mass and valenz
   ENMAX  =  403.929; ENMIN  =  302.947 eV

   TITEL  = PAW_PBE O 08Apr2002
   POMASS =   16.000; ZVAL   =    6.000    mass and valenz
   ENMAX  =  400.000; ENMIN  =  300.000 eV

  PAW_PBE C 08Apr2002                   :
  PAW_PBE O 08Apr2002                   :
  PAW_PBE H 15Jun2001                   :
  PAW_PBE Mg_pv 13Apr2007               :
  PAW_PBE O 08Apr2002                   :

 POSCAR:  C  O  H Mg  O
  positions in direct lattice
 exchange correlation table for  LEXCH =       12
   RHO(1)=    0.500       N(1)  =     2000
   RHO(2)=  100.500       N(2)  =     4000

 ion  position               nearest neighbor table
   1  0.431  0.619  0.795-   3 1.09   6 1.09   5 1.10   2 1.41
   2  0.422  0.493  0.751-   4 1.00   1 1.41  22 2.21
   3  0.541  0.603  0.822-   1 1.09
   4  0.323  0.501  0.725-   2 1.00
   5  0.436  0.736  0.772-   1 1.10
   6  0.330  0.616  0.828-   1 1.09
   7  0.250  0.000  0.353-  41 2.09  42 2.09  49 2.09  58 2.09  39 2.09
   8  0.500  0.250  0.353-  41 2.09  42 2.09  50 2.09  57 2.09  40 2.09
   9  0.250  0.250  0.451-  39 2.09  40 2.09  47 2.09  56 2.09  41 2.09  45 2.10
  10  0.500  0.000  0.451-  46 2.09  40 2.09  39 2.09  48 2.09  55 2.09  42 2.09
  11  0.250  0.000  0.549-  46 2.08  62 2.09  45 2.09  39 2.09  53 2.09  43 2.12
  12  0.500  0.251  0.550-  54 2.08  44 2.09  61 2.09  45 2.09  46 2.10  40 2.11
  13  0.250  0.247  0.647-  43 2.07  45 2.07  44 2.09  60 2.09  51 2.12
  14  0.500  0.000  0.647-  44 2.07  52 2.08  46 2.08  59 2.09  43 2.09
  15  0.250  0.500  0.353-  41 2.09  49 2.09  50 2.09  66 2.09  47 2.09
  16  0.500  0.750  0.353-  42 2.09  49 2.09  50 2.09  65 2.09  48 2.09
  17  0.250  0.750  0.451-  39 2.09  47 2.09  48 2.09  64 2.09  49 2.09  53 2.10
  18  0.500  0.500  0.451-  40 2.09  47 2.09  48 2.09  63 2.09  50 2.09  54 2.11
  19  0.251  0.500  0.550-  54 2.07  45 2.08  53 2.08  70 2.09  47 2.11  51 2.17
  20  0.500  0.749  0.550-  54 2.08  69 2.09  53 2.09  46 2.09  52 2.11  48 2.11
  21  0.249  0.753  0.646-  53 2.06  43 2.06  68 2.08  52 2.09  51 2.11
  22  0.507  0.499  0.652-  67 2.05  44 2.10  52 2.11  54 2.17  51 2.18   2 2.21
  23  0.750  0.000  0.353-  42 2.09  57 2.09  58 2.09  65 2.09  55 2.09
  24  0.000  0.250  0.353-  41 2.09  57 2.09  58 2.09  66 2.09  56 2.09
  25  0.750  0.250  0.451-  40 2.09  55 2.09  56 2.09  63 2.09  57 2.09  61 2.09
  26  0.000  0.000  0.451-  39 2.09  55 2.09  56 2.09  64 2.09  58 2.09  62 2.09
  27  0.750  0.000  0.549-  46 2.09  61 2.09  69 2.09  62 2.09  55 2.09  59 2.12
  28  1.000  0.250  0.550-  61 2.08  45 2.09  70 2.09  62 2.09  56 2.10  60 2.12
  29  0.750  0.249  0.647-  59 2.08  61 2.08  44 2.09  60 2.09  67 2.10
  30  0.999  0.000  0.647-  62 2.08  59 2.08  60 2.08  68 2.08  43 2.09
  31  0.750  0.500  0.353-  50 2.09  57 2.09  65 2.09  66 2.09  63 2.09
  32  0.000  0.750  0.353-  49 2.09  58 2.09  65 2.09  66 2.09  64 2.09
  33  0.750  0.750  0.451-  48 2.09  55 2.09  63 2.09  64 2.09  65 2.09  69 2.09
  34  0.000  0.500  0.451-  47 2.09  56 2.09  63 2.09  64 2.09  66 2.09  70 2.10
  35  0.749  0.500  0.550-  54 2.08  61 2.09  69 2.09  70 2.10  63 2.10  67 2.12
  36  1.000  0.750  0.550-  69 2.08  70 2.09  53 2.09  62 2.09  64 2.10  68 2.12
  37  0.750  0.751  0.647-  69 2.08  59 2.08  68 2.09  52 2.09  67 2.09
  38  0.998  0.500  0.647-  67 2.05  51 2.07  70 2.08  60 2.09  68 2.09
  39  0.250  0.000  0.451-   9 2.09  10 2.09  17 2.09  26 2.09   7 2.09  11 2.09
  40  0.500  0.250  0.451-   9 2.09  10 2.09  18 2.09  25 2.09   8 2.09  12 2.11
  41  0.250  0.250  0.353-   7 2.09   8 2.09  15 2.09  24 2.09   9 2.09
  42  0.500  0.000  0.353-   7 2.09   8 2.09  16 2.09  23 2.09  10 2.09
  43  0.250  1.000  0.649-  21 2.06  13 2.07  30 2.09  14 2.09  11 2.12
  44  0.500  0.248  0.648-  14 2.07  13 2.09  12 2.09  29 2.09  22 2.10
  45  0.250  0.251  0.550-  13 2.07  19 2.08  28 2.09  11 2.09  12 2.09   9 2.10
  46  0.500  1.000  0.549-  14 2.08  11 2.08  10 2.09  27 2.09  20 2.09  12 2.10
  47  0.250  0.500  0.451-   9 2.09  17 2.09  18 2.09  34 2.09  15 2.09  19 2.11
  48  0.500  0.750  0.451-  10 2.09  17 2.09  18 2.09  33 2.09  16 2.09  20 2.11
  49  0.250  0.750  0.353-   7 2.09  15 2.09  16 2.09  32 2.09  17 2.09
  50  0.500  0.500  0.353-   8 2.09  15 2.09  16 2.09  31 2.09  18 2.09
  51  0.245  0.500  0.652-  38 2.07  21 2.11  13 2.12  19 2.17  22 2.18
  52  0.500  0.752  0.649-  14 2.08  21 2.09  37 2.09  20 2.11  22 2.11
  53  0.250  0.749  0.549-  21 2.06  19 2.08  36 2.09  20 2.09  11 2.09  17 2.10
  54  0.499  0.500  0.550-  19 2.07  20 2.08  12 2.08  35 2.08  18 2.11  22 2.17
  55  0.750  0.000  0.451-  10 2.09  25 2.09  26 2.09  33 2.09  23 2.09  27 2.09
  56  0.000  0.250  0.451-   9 2.09  25 2.09  26 2.09  34 2.09  24 2.09  28 2.10
  57  0.750  0.250  0.353-   8 2.09  23 2.09  24 2.09  31 2.09  25 2.09
  58  0.000  0.000  0.353-   7 2.09  23 2.09  24 2.09  32 2.09  26 2.09
  59  0.750  1.000  0.649-  37 2.08  30 2.08  29 2.08  14 2.09  27 2.12
  60  0.000  0.249  0.649-  30 2.08  29 2.09  13 2.09  38 2.09  28 2.12
  61  0.750  0.250  0.549-  28 2.08  29 2.08  35 2.09  27 2.09  12 2.09  25 2.09
  62  0.000  1.000  0.549-  30 2.08  11 2.09  36 2.09  28 2.09  27 2.09  26 2.09
  63  0.750  0.500  0.451-  18 2.09  25 2.09  33 2.09  34 2.09  31 2.09  35 2.10
  64  0.000  0.750  0.451-  17 2.09  26 2.09  33 2.09  34 2.09  32 2.09  36 2.10
  65  0.750  0.750  0.353-  16 2.09  23 2.09  31 2.09  32 2.09  33 2.09
  66  0.000  0.500  0.353-  15 2.09  24 2.09  31 2.09  32 2.09  34 2.09
  67  0.752  0.500  0.649-  38 2.05  22 2.05  37 2.09  29 2.10  35 2.12
  68  1.000  0.751  0.649-  30 2.08  21 2.08  37 2.09  38 2.09  36 2.12
  69  0.750  0.750  0.549-  37 2.08  36 2.08  20 2.09  35 2.09  27 2.09  33 2.09
  70  0.001  0.500  0.549-  38 2.08  36 2.09  28 2.09  19 2.09  34 2.10  35 2.10

IMPORTANT INFORMATION: All symmetrisations will be switched off!
NOSYMM: (Re-)initialisation of all symmetry stuff for point group C_1.

                                     Primitive cell

  volume of cell :    1482.1129

  direct lattice vectors                    reciprocal lattice vectors
     8.349111827  0.000000000  0.000000000     0.119773219  0.000000000  0.000000000
     0.000000000  8.349111827  0.000000000     0.000000000  0.119773219  0.000000000
     0.000000000  0.000000000 21.261833870     0.000000000  0.000000000  0.047032632

  length of vectors
     8.349111827  8.349111827 21.261833870     0.119773219  0.119773219  0.047032632

  position of ions in fractional coordinates (direct lattice)
     0.431292163  0.618754330  0.795133326
     0.422096156  0.492838203  0.750849130
     0.541107486  0.602866581  0.822153320
     0.322738588  0.500819286  0.724961872
     0.436247762  0.735894408  0.771986430
     0.329867477  0.615819502  0.827693236
     0.250000000  0.000000000  0.352744737
     0.500000000  0.250000000  0.352744737
     0.250000000  0.250000000  0.450914912
     0.500000000  0.000000000  0.450914912
     0.250227883  0.000187923  0.549322304
     0.500190670  0.250922993  0.549981269
     0.250170031  0.247307299  0.646969261
     0.500456821  0.000351607  0.646757370
     0.250000000  0.500000000  0.352744737
     0.500000000  0.750000000  0.352744737
     0.250000000  0.750000000  0.450914912
     0.500000000  0.500000000  0.450914912
     0.251008758  0.499803780  0.549970062
     0.500240848  0.748907207  0.550026247
     0.249454202  0.752708188  0.646202182
     0.506551502  0.498977220  0.652478451
     0.750000000  0.000000000  0.352744737
     0.000000000  0.250000000  0.352744737
     0.750000000  0.250000000  0.450914912
     0.000000000  0.000000000  0.450914912
     0.749762177  0.000067976  0.549447066
     0.999808952  0.250125476  0.549627130
     0.749837147  0.249030027  0.647240497
     0.999481469  0.000089173  0.647102148
     0.750000000  0.500000000  0.352744737
     0.000000000  0.750000000  0.352744737
     0.750000000  0.750000000  0.450914912
     0.000000000  0.500000000  0.450914912
     0.749139578  0.499867307  0.549871136
     0.999663208  0.749818477  0.549526307
     0.750171706  0.750844408  0.647018700
     0.997607772  0.499810301  0.647115235
     0.250000000  0.000000000  0.450914912
     0.500000000  0.250000000  0.450914912
     0.250000000  0.250000000  0.352744737
     0.500000000  0.000000000  0.352744737
     0.249619794  0.999762896  0.649259659
     0.499933278  0.248026973  0.648109944
     0.249591690  0.250592519  0.549539662
     0.499808641  0.999689109  0.549026183
     0.250000000  0.500000000  0.450914912
     0.500000000  0.750000000  0.450914912
     0.250000000  0.750000000  0.352744737
     0.500000000  0.500000000  0.352744737
     0.244978237  0.500317530  0.652008358
     0.499748173  0.751648347  0.649056826
     0.249703572  0.749376129  0.549452493
     0.499479801  0.500123746  0.550327091
     0.750000000  0.000000000  0.450914912
     0.000000000  0.250000000  0.450914912
     0.750000000  0.250000000  0.352744737
     0.000000000  0.000000000  0.352744737
     0.750277162  0.999813170  0.649344883
     0.000001646  0.249310822  0.649465781
     0.750424724  0.250030465  0.549292391
     0.000170891  0.999905781  0.549248207
     0.750000000  0.500000000  0.450914912
     0.000000000  0.750000000  0.450914912
     0.750000000  0.750000000  0.352744737
     0.000000000  0.500000000  0.352744737
     0.752159835  0.500113464  0.649459675
     0.999990277  0.750612363  0.649454314
     0.750232090  0.749901570  0.549332483
     0.000535025  0.500038769  0.549497338

  ion indices of the primitive-cell ions
   primitive index   ion index
                 1           1
                 2           2
                 3           3
                 4           4
                 5           5
                 6           6
                 7           7
                 8           8
                 9           9
                10          10
[...]
   4.17836996  0.00293561 13.75124776
   2.08727796  4.17455591  7.50000000
   4.17455591  6.26183387  7.50000000
   2.08727796  6.26183387  9.58727796
   4.17455591  4.17455591  9.58727796
   2.09570019  4.17291765 11.69337210
   4.17656678  6.25271002 11.69456668
   2.08272103  6.28444483 13.73944344
   4.22925513  4.16601661 13.87288842
   6.26183387  0.00000000  7.50000000
   0.00000000  2.08727796  7.50000000
   6.26183387  2.08727796  9.58727796
   0.00000000  0.00000000  9.58727796
   6.25984826  0.00056754 11.68225224
   8.34751674  2.08832557 11.68608072
   6.26047419  2.07917954 13.76151992
   8.34478255  0.00074452 13.75857837
   6.26183387  4.17455591  7.50000000
   0.00000000  6.26183387  7.50000000
   6.26183387  6.26183387  9.58727796
   0.00000000  4.17455591  9.58727796
   6.25465011  4.17344805 11.69126874
   8.34629991  6.26031832 11.68393704
   6.26326746  6.26888393 13.75680411
   8.32913885  4.17297209 13.75885662
   2.08727796  0.00000000  9.58727796
   4.17455591  2.08727796  9.58727796
   2.08727796  2.08727796  7.50000000
   4.17455591  0.00000000  7.50000000
   2.08410357  8.34713221 13.80445100
   4.17399885  2.07080493 13.78000596
   2.08386893  2.09222497 11.68422101
   4.17295824  8.34651616 11.67330349
   2.08727796  4.17455591  9.58727796
   4.17455591  6.26183387  9.58727796
   2.08727796  6.26183387  7.50000000
   4.17455591  4.17455591  7.50000000
   2.04535070  4.17720701 13.86289339
   4.17245339  6.27559610 13.80013840
   2.08480304  6.25662510 11.68236762
   4.17021271  4.17558909 11.70096318
   6.26183387  0.00000000  9.58727796
   0.00000000  2.08727796  9.58727796
   6.26183387  2.08727796  7.50000000
   0.00000000  0.00000000  7.50000000
   6.26414792  8.34755196 13.80626303
   0.00001374  2.08152393 13.80883353
   6.26537994  2.08753231 11.67896356
   0.00142679  8.34832518 11.67802414
   6.26183387  4.17455591  9.58727796
   0.00000000  6.26183387  9.58727796
   6.26183387  6.26183387  7.50000000
   0.00000000  4.17455591  7.50000000
   6.27986657  4.17550324 13.80870372
   8.34903065  6.26694656 13.80858972
   6.26377161  6.26101207 11.67981600
   0.00446698  4.17487960 11.68332111

--------------------------------------- Iteration      FINAL  ---------------------------------------

--------------------OUTCAR has been truncated-------------------------

[...]

--------------------OUTCAR has been truncated-------------------------

  DFT-D2 method for vdW energy calculation

  Parameters of vdW forcefield:
         C6(Jnm^6/mol)     R0(A)
   C        1.750          1.452
   O        0.700          1.342
   H        0.140          1.001
   Mg       0.630          1.243
   O        0.700          1.342

  vdW correction parametrized for the method        ¬DM

  IVDW =   1
  VDW_RADIUS =    50.000 A
  VDW_S6 =     1.050
  VDW_SR =     1.000
  VDW_D =    20.000
  LVDW_EWALD = F

  Number of pair interactions contributing to vdW energy:  885486
  Edisp (eV):   -5.56621

 VOLUME and BASIS-vectors are now :
  energy-cutoff  :      600.00
  volume of cell :     1482.11
      direct lattice vectors                 reciprocal lattice vectors
     8.349111827  0.000000000  0.000000000     0.119773219  0.000000000  0.000000000
     0.000000000  8.349111827  0.000000000     0.000000000  0.119773219  0.000000000
     0.000000000  0.000000000 21.261833870     0.000000000  0.000000000  0.047032632

  length of vectors
     8.349111827  8.349111827 21.261833870     0.119773219  0.119773219  0.047032632

 FORCES acting on ions:
    Electron-Ion                     Ewald-Force                    Non-Local-Force
   -.845E+01 -.934E+02 -.105E+04   0.900E+01 0.983E+02 0.105E+04   -.474E+00 -.438E+01 -.363E+01
   -.233E+02 0.136E+03 -.165E+04   0.481E+02 -.168E+03 0.164E+04   -.220E+02 0.285E+02 0.200E+01
   -.524E+02 -.135E+01 -.251E+03   0.574E+02 0.640E+00 0.254E+03   -.486E+01 0.692E+00 -.306E+01
   0.720E+02 0.414E+01 -.260E+03   -.783E+02 -.392E+01 0.256E+03   0.603E+01 -.248E+00 0.406E+01
   -.318E+01 -.624E+02 -.246E+03   0.349E+01 0.676E+02 0.243E+03   -.295E+00 -.507E+01 0.256E+01
   0.459E+02 -.719E+01 -.251E+03   -.504E+02 0.707E+01 0.254E+03   0.436E+01 0.113E+00 -.363E+01
   0.137E+00 -.976E-01 0.215E+04   -.132E+00 0.988E-01 -.214E+04   -.311E-02 -.853E-03 -.641E+01
   -.699E-01 -.347E-01 0.215E+04   0.729E-01 0.408E-01 -.214E+04   -.193E-02 -.426E-02 -.645E+01
   0.401E+00 0.437E-01 0.754E+03   -.389E+00 0.458E-01 -.754E+03   -.615E-02 -.586E-01 0.505E+00
   -.456E+00 -.419E+00 0.755E+03   0.494E+00 0.394E+00 -.756E+03   -.245E-01 0.166E-01 0.226E+00
   0.488E+01 -.184E+01 -.627E+03   -.480E+01 0.191E+01 0.627E+03   -.727E-01 -.573E-01 -.706E-02
   -.190E+01 0.470E+01 -.622E+03   0.196E+01 -.441E+01 0.623E+03   -.583E-01 -.264E+00 -.103E+01
   0.287E+02 0.320E+02 -.200E+04   -.287E+02 -.332E+02 0.199E+04   -.335E-01 0.107E+01 0.559E+01
   -.856E+01 -.907E+01 -.202E+04   0.875E+01 0.929E+01 0.201E+04   -.171E+00 -.197E+00 0.545E+01
   0.107E+00 0.982E-01 0.215E+04   -.987E-01 -.993E-01 -.214E+04   -.582E-02 0.806E-03 -.645E+01
   -.821E-01 0.338E-01 0.215E+04   0.854E-01 -.404E-01 -.214E+04   -.216E-02 0.460E-02 -.646E+01
   0.389E+00 -.599E-01 0.755E+03   -.344E+00 -.287E-01 -.755E+03   -.281E-01 0.583E-01 0.499E+00
   -.468E+00 0.399E+00 0.753E+03   0.436E+00 -.384E+00 -.753E+03   0.219E-01 -.105E-01 0.613E+00
   0.501E+01 0.193E+01 -.631E+03   -.472E+01 -.199E+01 0.630E+03   -.266E+00 0.556E-01 0.926E+00
   -.245E+01 -.467E+01 -.622E+03   0.255E+01 0.438E+01 0.623E+03   -.857E-01 0.269E+00 -.600E+00
   0.344E+02 -.330E+02 -.197E+04   -.346E+02 0.342E+02 0.196E+04   0.176E+00 -.106E+01 0.567E+01
   -.400E+02 0.123E+02 -.191E+04   0.422E+02 -.126E+02 0.190E+04   -.200E+01 0.201E+00 0.235E+01
   -.136E+00 -.860E-01 0.215E+04   0.131E+00 0.867E-01 -.214E+04   0.312E-02 -.431E-03 -.644E+01
   0.693E-01 -.499E-02 0.215E+04   -.723E-01 0.758E-02 -.214E+04   0.191E-02 -.168E-02 -.644E+01
   -.389E+00 -.261E-01 0.754E+03   0.377E+00 0.335E-01 -.754E+03   0.577E-02 -.391E-02 0.369E+00
   0.440E+00 -.421E+00 0.753E+03   -.479E+00 0.436E+00 -.753E+03   0.249E-01 -.920E-02 0.375E+00
   -.479E+01 -.132E+01 -.634E+03   0.471E+01 0.135E+01 0.634E+03   0.703E-01 -.297E-01 -.463E-01
   0.187E+01 0.348E+01 -.635E+03   -.195E+01 -.343E+01 0.636E+03   0.671E-01 -.439E-01 -.145E+00
   -.249E+02 0.209E+02 -.203E+04   0.248E+02 -.212E+02 0.202E+04   0.555E-01 0.328E+00 0.547E+01
   0.734E+01 -.456E+01 -.204E+04   -.753E+01 0.461E+01 0.203E+04   0.165E+00 -.461E-01 0.537E+01
   -.106E+00 0.860E-01 0.215E+04   0.978E-01 -.868E-01 -.214E+04   0.561E-02 0.549E-03 -.644E+01
   0.808E-01 0.449E-02 0.215E+04   -.844E-01 -.723E-02 -.214E+04   0.237E-02 0.180E-02 -.643E+01
   -.377E+00 0.164E-01 0.754E+03   0.326E+00 -.260E-01 -.755E+03   0.309E-01 0.528E-02 0.405E+00
   0.456E+00 0.420E+00 0.753E+03   -.420E+00 -.438E+00 -.753E+03   -.243E-01 0.108E-01 0.432E+00
   -.594E+01 0.136E+01 -.627E+03   0.568E+01 -.139E+01 0.627E+03   0.234E+00 0.288E-01 -.306E+00
   0.240E+01 -.349E+01 -.632E+03   -.250E+01 0.344E+01 0.632E+03   0.963E-01 0.437E-01 -.799E-01
   -.292E+02 -.215E+02 -.201E+04   0.294E+02 0.219E+02 0.201E+04   -.102E+00 -.314E+00 0.549E+01
   0.163E+02 0.487E+01 -.201E+04   -.168E+02 -.492E+01 0.201E+04   0.447E+00 0.490E-01 0.529E+01
   0.604E+00 -.281E+00 0.566E+03   -.578E+00 0.275E+00 -.566E+03   -.332E-01 0.644E-02 0.249E-01
   -.136E+00 -.687E-01 0.565E+03   0.153E+00 0.416E-02 -.564E+03   -.228E-01 0.784E-01 -.157E+00
   0.881E-01 -.145E-01 0.161E+04   -.838E-01 0.229E-01 -.162E+04   -.538E-02 -.106E-01 0.311E+01
   -.611E-01 -.685E-01 0.161E+04   0.675E-01 0.675E-01 -.162E+04   -.796E-02 0.128E-02 0.310E+01
   0.125E+02 -.711E+01 -.154E+04   -.124E+02 0.716E+01 0.155E+04   -.978E-01 -.440E-01 -.471E+01
   -.115E+02 0.352E+02 -.150E+04   0.115E+02 -.347E+02 0.151E+04   0.789E-01 -.444E+00 -.487E+01
   0.373E+01 0.270E+01 -.465E+03   -.364E+01 -.278E+01 0.464E+03   -.766E-01 0.695E-01 0.462E+00
   -.191E+01 -.122E+01 -.462E+03   0.195E+01 0.125E+01 0.462E+03   -.284E-01 -.279E-01 0.278E+00
   0.453E+00 0.289E+00 0.565E+03   -.497E+00 -.284E+00 -.565E+03   0.512E-01 -.550E-02 -.133E+00
   -.211E+00 0.589E-01 0.565E+03   0.223E+00 0.171E-01 -.565E+03   -.164E-01 -.922E-01 -.182E+00
   0.856E-01 0.140E-01 0.161E+04   -.777E-01 -.225E-01 -.162E+04   -.984E-02 0.107E-01 0.311E+01
   -.600E-01 0.691E-01 0.161E+04   0.590E-01 -.677E-01 -.162E+04   0.136E-02 -.174E-02 0.309E+01
   0.479E+02 0.821E+01 -.147E+04   -.478E+02 -.827E+01 0.147E+04   -.150E+00 0.562E-01 -.166E+01
   -.154E+02 -.372E+02 -.148E+04   0.153E+02 0.367E+02 0.149E+04   0.659E-01 0.455E+00 -.458E+01
   0.378E+01 -.274E+01 -.459E+03   -.371E+01 0.282E+01 0.458E+03   -.592E-01 -.681E-01 0.695E+00
   -.715E+00 0.126E+01 -.473E+03   0.757E+00 -.130E+01 0.473E+03   -.378E-01 0.337E-01 -.805E+00
   -.595E+00 -.217E+00 0.565E+03   0.570E+00 0.221E+00 -.565E+03   0.323E-01 -.551E-02 -.664E-01
   0.128E+00 0.569E-01 0.564E+03   -.145E+00 -.555E-01 -.564E+03   0.234E-01 -.878E-03 -.966E-01
   -.877E-01 -.134E-01 0.161E+04   0.833E-01 0.144E-01 -.162E+04   0.540E-02 -.126E-02 0.310E+01
   0.605E-01 -.714E-01 0.161E+04   -.670E-01 0.737E-01 -.162E+04   0.795E-02 -.291E-02 0.311E+01
   -.116E+02 -.459E+01 -.155E+04   0.115E+02 0.461E+01 0.156E+04   0.909E-01 -.180E-01 -.467E+01
   0.852E+01 0.114E+02 -.155E+04   -.846E+01 -.111E+02 0.155E+04   -.501E-01 -.204E+00 -.468E+01
   -.369E+01 0.302E+01 -.467E+03   0.360E+01 -.303E+01 0.467E+03   0.822E-01 0.672E-02 0.252E+00
   0.183E+01 -.115E+01 -.472E+03   -.186E+01 0.117E+01 0.472E+03   0.237E-01 -.959E-02 0.246E+00
   -.431E+00 0.213E+00 0.564E+03   0.470E+00 -.214E+00 -.564E+03   -.448E-01 0.241E-02 -.937E-01
   0.191E+00 -.651E-01 0.565E+03   -.197E+00 0.668E-01 -.565E+03   0.966E-02 -.286E-02 -.580E-01
   -.847E-01 0.134E-01 0.161E+04   0.769E-01 -.143E-01 -.162E+04   0.964E-02 0.121E-02 0.310E+01
   0.592E-01 0.717E-01 0.161E+04   -.583E-01 -.740E-01 -.162E+04   -.122E-02 0.279E-02 0.311E+01
   -.341E+02 0.497E+01 -.152E+04   0.342E+02 -.500E+01 0.153E+04   -.431E-01 0.231E-01 -.454E+01
   0.109E+02 -.116E+02 -.154E+04   -.108E+02 0.114E+02 0.155E+04   -.110E-01 0.210E+00 -.469E+01
   -.374E+01 -.305E+01 -.465E+03   0.366E+01 0.306E+01 0.465E+03   0.652E-01 -.827E-02 0.346E+00
   0.140E+01 0.118E+01 -.467E+03   -.144E+01 -.119E+01 0.466E+03   0.286E-01 0.114E-01 0.401E+00
   0.216E+02 -.229E+02 0.211E+02   -.926E-13 0.462E-13 -.176E-11   -.189E+02 0.197E+02 -.189E+02

 POSITION                                       TOTAL-FORCE (eV/Angst)
      3.60091      5.16605     16.90599         0.067714      0.299131      0.284450
      3.52413      4.11476     15.96443         0.030276     -0.252624     -0.140949
      4.51777      5.03340     17.48049         0.012124     -0.003446      0.010383
      2.69458      4.18140     15.41402        -0.069686     -0.012735      0.026190
      3.64228      6.14406     16.41385        -0.009807     -0.018966     -0.017800
      2.75410      5.14155     17.59828        -0.020871     -0.008568      0.004107
      2.08728      0.00000      7.50000         0.001443      0.000275      0.304235
      4.17456      2.08728      7.50000         0.000854      0.001317      0.313285
      2.08728      2.08728      9.58728         0.005035      0.023519      0.042359
      4.17456      0.00000      9.58728         0.010644     -0.006496      0.059405
      2.08918      0.00157     11.67960         0.001024      0.001047      0.012966
      4.17615      2.09498     11.69361        -0.000650      0.000910      0.018446
      2.08870      2.06480     13.75575         0.002580      0.005685      0.108591
      4.17837      0.00294     13.75125         0.001638      0.003318      0.105367
      2.08728      4.17456      7.50000         0.002087     -0.000211      0.313009
      4.17456      6.26183      7.50000         0.000916     -0.001408      0.315554
      2.08728      6.26183      9.58728         0.013411     -0.022834      0.038438
      4.17456      4.17456      9.58728        -0.007186      0.003260      0.082309
      2.09570      4.17292     11.69337         0.000738     -0.000305      0.016554
      4.17657      6.25271     11.69457        -0.000040     -0.000162      0.017520
      2.08272      6.28444     13.73944         0.000975     -0.002996      0.099077
      4.22926      4.16602     13.87289         0.055867     -0.006459      0.071499
      6.26183      0.00000      7.50000        -0.001380      0.000221      0.312195
      0.00000      2.08728      7.50000        -0.000810      0.000726      0.311184
      6.26183      2.08728      9.58728        -0.005030      0.002694      0.045996
      0.00000      0.00000      9.58728        -0.010694      0.004025      0.032267
      6.25985      0.00057     11.68225        -0.002476      0.000241      0.014388
      8.34752      2.08833     11.68608         0.000042      0.001419      0.013818
      6.26047      2.07918     13.76152        -0.001271     -0.002718      0.108116
      8.34478      0.00074     13.75858        -0.002721      0.002235      0.112091
      6.26183      4.17456      7.50000        -0.002026     -0.000126      0.310028
      0.00000      6.26183      7.50000        -0.000870     -0.000689      0.308504
      6.26183      6.26183      9.58728        -0.015312     -0.003245      0.042639
      0.00000      4.17456      9.58728         0.009113     -0.004846      0.064030
      6.25465      4.17345     11.69127        -0.000775     -0.000323      0.015744
      8.34630      6.26032     11.68394        -0.000445     -0.001267      0.012570
      6.26327      6.26888     13.75680         0.001207      0.004028      0.102806
      8.32914      4.17297     13.75886         0.002070     -0.002127      0.104786
      2.08728      0.00000      9.58728        -0.012393      0.001392      0.063012
      4.17456      2.08728      9.58728        -0.009255      0.025177      0.076372
      2.08728      2.08728      7.50000        -0.001744     -0.003639     -0.589518
      4.17456      0.00000      7.50000        -0.002600      0.000482     -0.591914
      2.08410      8.34713     13.80445        -0.001537     -0.001120      0.022257
      4.17400      2.07080     13.78001        -0.005762      0.011046      0.022770
      2.08387      2.09222     11.68422        -0.002655     -0.001496      0.008120
      4.17296      8.34652     11.67330        -0.000236     -0.000348      0.006119
      2.08728      4.17456      9.58728         0.014506     -0.001126      0.080320
      4.17456      6.26183      9.58728        -0.007168     -0.029483      0.070807
      2.08728      6.26183      7.50000        -0.003240      0.003680     -0.589089
      4.17456      4.17456      7.50000         0.000555     -0.000549     -0.593873
      2.04535      4.17721     13.86289        -0.037844      0.007579     -0.047682
      4.17245      6.27560     13.80014        -0.011617     -0.016287      0.046158
      2.08480      6.25663     11.68237        -0.002460      0.002094      0.010771
      4.17021      4.17559     11.70096        -0.000608      0.000708     -0.000101
      6.26183      0.00000      9.58728         0.012106     -0.002365      0.043875
      0.00000      2.08728      9.58728         0.009674      0.000387      0.053992
      6.26183      2.08728      7.50000         0.001812     -0.000453     -0.591758
      0.00000      0.00000      7.50000         0.002631     -0.000931     -0.588676
      6.26415      8.34755     13.80626         0.002779     -0.000258      0.024456
      0.00001      2.08152     13.80883        -0.001082     -0.002321      0.025663
      6.26538      2.08753     11.67896         0.002127     -0.000216      0.007334
      0.00143      8.34833     11.67802         0.000083     -0.000264      0.009772
      6.26183      4.17456      9.58728        -0.012936      0.001478      0.086096
      0.00000      6.26183      9.58728         0.005383     -0.001451      0.056104
      6.26183      6.26183      7.50000         0.003254      0.000466     -0.591499
      0.00000      4.17456      7.50000        -0.000447      0.000969     -0.589782
      6.27987      4.17550     13.80870        -0.007841      0.001348      0.022662
      8.34903      6.26695     13.80859        -0.000537      0.002981      0.026474
      6.26377      6.26101     11.67982         0.002239      0.000409      0.007901
      0.00447      4.17488     11.68332        -0.002896      0.000615      0.006698
    total drift:                               -0.002283     -0.002031      0.015300

  FREE ENERGIE OF THE ION-ELECTRON SYSTEM (eV)
  free  energy   TOTEN  =      -475.09296557 eV

  energy  without entropy=     -475.09296557  energy(sigma->0) =     -475.09296557