 vasp.6.3.0 20Jan22 (build Aug 21 2024 11:13:42) gamma-only
 executed on        HPECrayEX_GCC date 2024.11.28  13:26:49

 INCAR:
   SYSTEM = MgO-rocksalt
   ISMEAR = 0
   SIGMA = 0.05
   EDIFF = 1E-4
   ALGO = ALL
   IBRION = -1
   NSW = 0
   ISYM = 0
   DIPOL = 0.5 0.5 0.5
   IDIPOL = 3
   LDIPOL = .TRUE.
   GGA = PE
   IVDW = 1
   VDW_C6 = 1.75 0.14 0.70 0.63 0.70
   VDW_R0 = 1.452 1.001 1.342 1.243 1.342
   ENCUT = 520
   PREC = Accurate
   LASPH = .TRUE.
   LREAL = Auto
   ISPIN = 1
   NELM = 200
   NELMIN = 8
   NCORE = 8
   KPAR = 1
   LWAVE = .TRUE.
   LCHARG = .FALSE.

 POTCAR:    PAW_PBE C 08Apr2002
 POTCAR:    PAW_PBE H 15Jun2001
 POTCAR:    PAW_PBE O 08Apr2002
 POTCAR:    PAW_PBE Mg_pv 13Apr2007
 POTCAR:    PAW_PBE O 08Apr2002
 POTCAR:    PAW_PBE C 08Apr2002
   VRHFIN =C: s2p2

   TITEL  = PAW_PBE C 08Apr2002
   POMASS =   12.011; ZVAL   =    4.000    mass and valenz
   ENMAX  =  400.000; ENMIN  =  300.000 eV

   TITEL  = PAW_PBE H 15Jun2001
   POMASS =    1.000; ZVAL   =    1.000    mass and valenz
   ENMAX  =  250.000; ENMIN  =  200.000 eV

[...]

   TITEL  = PAW_PBE Mg_pv 13Apr2007
   POMASS =   24.305; ZVAL   =    8.000    mass and valenz
   ENMAX  =  403.929; ENMIN  =  302.947 eV

   TITEL  = PAW_PBE O 08Apr2002
   POMASS =   16.000; ZVAL   =    6.000    mass and valenz
   ENMAX  =  400.000; ENMIN  =  300.000 eV

 Optimization of the real space projectors (new method)

 maximal supplied QI-value         = 25.13
 optimisation between [QCUT,QGAM] = [ 11.56, 23.12] = [ 37.43,149.72] Ry
 Optimized for a Real-space Cutoff    1.04 Angstroem

   l    n(q)    QCUT    max X(q) W(low)/X(q) W(high)/X(q)  e(spline)
   0      7    11.561   115.676    0.20E-03    0.60E-03    0.21E-06
   0      7    11.561    87.132    0.20E-03    0.59E-03    0.21E-06
   1      7    11.561     4.429    0.23E-03    0.35E-03    0.15E-06
   1      7    11.561     2.733    0.18E-03    0.25E-03    0.12E-06
 Optimization of the real space projectors (new method)

[...]

   l    n(q)    QCUT    max X(q) W(low)/X(q) W(high)/X(q)  e(spline)
   1      8    11.527     2.974    0.44E-04    0.56E-04    0.12E-06
   1      8    11.527     4.279    0.12E-03    0.12E-03    0.26E-06
   0      9    11.527    16.381    0.46E-04    0.64E-04    0.78E-07
   0      9    11.527     5.611    0.26E-04    0.43E-04    0.55E-07
   2      8    11.527     4.652    0.22E-03    0.72E-04    0.47E-07
 Optimization of the real space projectors (new method)

 maximal supplied QI-value         = 24.76
 optimisation between [QCUT,QGAM] = [ 11.64, 23.27] = [ 37.91,151.63] Ry
 Optimized for a Real-space Cutoff    1.14 Angstroem

   l    n(q)    QCUT    max X(q) W(low)/X(q) W(high)/X(q)  e(spline)
   0      8    11.635    20.381    0.10E-03    0.33E-03    0.24E-06
   0      8    11.635    15.268    0.11E-03    0.35E-03    0.26E-06
   1      7    11.635     5.964    0.24E-03    0.31E-03    0.30E-06
   1      7    11.635     5.382    0.22E-03    0.25E-03    0.26E-06
  PAW_PBE C 08Apr2002                   :
  PAW_PBE H 15Jun2001                   :
  PAW_PBE O 08Apr2002                   :
  PAW_PBE Mg_pv 13Apr2007               :
  PAW_PBE O 08Apr2002                   :

 POSCAR:  C  H  O Mg  O
  positions in direct lattice
  velocities in cartesian coordinates
 exchange correlation table for  LEXCH =        8
   RHO(1)=    0.500       N(1)  =     2000
   RHO(2)=  100.500       N(2)  =     4000

 ion  position               nearest neighbor table
   1  0.527  0.556  0.796-   8 1.09   7 1.10   5 1.10  21 1.44
   2  0.319  0.401  0.796-  12 1.10  11 1.10   9 1.10  22 1.44
   3  0.474  0.195  0.797-  16 1.10  15 1.10  13 1.10  23 1.44
   4  0.681  0.348  0.796-  20 1.10  19 1.10  17 1.10  24 1.44
   5  0.520  0.543  0.846-   1 1.10
   6  0.552  0.449  0.761-  21 1.00
   7  0.588  0.576  0.787-   1 1.10
   8  0.487  0.604  0.782-   1 1.09
   9  0.332  0.394  0.846-   2 1.10
  10  0.426  0.427  0.761-  22 1.00
  11  0.299  0.462  0.788-   2 1.10
  12  0.271  0.361  0.782-   2 1.10
  13  0.481  0.209  0.847-   3 1.10
  14  0.448  0.301  0.761-  23 1.00
  15  0.412  0.176  0.788-   3 1.10
  16  0.514  0.147  0.783-   3 1.10
  17  0.667  0.355  0.846-   4 1.10
  18  0.574  0.323  0.761-  24 1.00
  19  0.699  0.286  0.787-   4 1.10
  20  0.729  0.388  0.782-   4 1.10
  21  0.508  0.488  0.758-   6 1.00   1 1.44
  22  0.387  0.383  0.758-  10 1.00   2 1.44
  23  0.492  0.262  0.758-  14 1.00   3 1.44
  24  0.613  0.367  0.758-  18 1.00   4 1.44
  25  0.000  0.375  0.352- 153 2.11 156 2.11 163 2.11 187 2.11 236 2.11
  26  0.125  0.000  0.352- 154 2.11 155 2.11 164 2.11 171 2.11 188 2.11
  27  0.000  0.000  0.451- 155 2.11 154 2.11 161 2.11 185 2.11 234 2.11 159 2.12
  28  0.125  0.375  0.451- 156 2.11 153 2.11 162 2.11 169 2.11 186 2.11 160 2.12
  29  1.000  0.375  0.550- 160 2.11 240 2.11 191 2.11 167 2.11 153 2.12 157 2.16
  30  0.125  1.000  0.550- 168 2.11 175 2.11 192 2.11 159 2.11 154 2.12 158 2.15
  31  1.000  1.000  0.649- 159 2.11 238 2.11 158 2.11 189 2.11 165 2.11
  32  0.125  0.375  0.648- 173 2.09 160 2.10 157 2.11 190 2.11 166 2.11
  33  0.000  0.125  0.352- 161 2.11 155 2.11 163 2.11 164 2.11 244 2.11
  34  0.125  0.250  0.352- 162 2.11 156 2.11 163 2.11 164 2.11 179 2.11
  35  0.000  0.250  0.451- 163 2.11 161 2.11 162 2.11 153 2.11 242 2.11 167 2.12
  36  0.125  0.125  0.451- 164 2.11 161 2.11 162 2.11 154 2.11 177 2.11 168 2.12
  37  1.000  0.125  0.550- 168 2.11 248 2.11 167 2.11 159 2.11 161 2.12 165 2.15
  38  0.125  0.250  0.550- 183 2.10 167 2.11 160 2.11 168 2.11 162 2.12 166 2.16
  39  1.000  0.250  0.649- 167 2.11 246 2.11 166 2.11 165 2.11 157 2.11
  40  0.125  0.125  0.649- 181 2.11 168 2.11 165 2.11 166 2.11 158 2.11
  41  0.250  0.375  0.352- 169 2.11 156 2.11 172 2.11 179 2.11 203 2.11
  42  0.375  0.000  0.352- 170 2.11 171 2.11 180 2.11 204 2.11 219 2.11
  43  0.250  0.000  0.451- 171 2.11 170 2.11 154 2.11 177 2.11 201 2.11 175 2.12
  44  0.375  0.375  0.451- 172 2.11 169 2.11 178 2.11 202 2.11 217 2.11 176 2.13
  45  0.250  0.375  0.550- 176 2.10 183 2.11 207 2.11 160 2.12 169 2.13 173 2.15
  46  0.375  1.000  0.550- 184 2.10 223 2.11 208 2.11 175 2.11 170 2.12 174 2.16
  47  0.250  1.000  0.649- 181 2.10 175 2.11 205 2.11 174 2.11 158 2.11
  48  0.375  0.375  0.652- 221 2.12 173 2.12 182 2.13 206 2.14 176 2.17
  49  0.250  0.125  0.352- 177 2.11 171 2.11 164 2.11 179 2.11 180 2.11
  50  0.375  0.250  0.352- 178 2.11 172 2.11 179 2.11 180 2.11 227 2.11
  51  0.250  0.250  0.451- 179 2.11 169 2.11 177 2.11 178 2.11 162 2.11 183 2.12
  52  0.375  0.125  0.451- 180 2.11 177 2.11 178 2.11 170 2.11 225 2.11 184 2.12
  53  0.250  0.125  0.550- 183 2.11 184 2.11 168 2.11 175 2.11 177 2.12 181 2.16
  54  0.375  0.251  0.551- 231 2.10 176 2.10 183 2.13 184 2.13 182 2.13 178 2.14
  55  0.250  0.250  0.648- 182 2.09 183 2.10 166 2.11 173 2.11 181 2.12
  56  0.375  0.125  0.648- 182 2.09 184 2.09 174 2.11 229 2.11 181 2.11
  57  0.000  0.875  0.352- 185 2.11 155 2.11 188 2.11 195 2.11 268 2.11
  58  0.125  0.500  0.352- 186 2.11 156 2.11 187 2.11 196 2.11 203 2.11
  59  0.000  0.500  0.451- 187 2.11 186 2.11 153 2.11 193 2.11 266 2.11 191 2.12
  60  0.125  0.875  0.451- 188 2.11 185 2.11 154 2.11 194 2.11 201 2.11 192 2.12
[...]
 266  0.875  0.500  0.451- 138 2.11 108 2.11  59 2.11 139 2.11 148 2.11 142 2.12
 267  0.750  0.500  0.352- 139 2.11 122 2.11 138 2.11 105 2.11 145 2.11
 268  0.875  0.875  0.352- 140 2.11 106 2.11 137 2.11  57 2.11 146 2.11
 269  0.750  0.875  0.651- 151 2.11 111 2.11 144 2.11 128 2.11 141 2.15
 270  0.875  0.500  0.651-  63 2.11 152 2.11 143 2.11 112 2.11 142 2.16
 271  0.750  0.500  0.550- 143 2.10 142 2.10 149 2.11 109 2.11 139 2.12 126 2.13
 272  0.875  0.875  0.550- 144 2.11  61 2.11 150 2.11 110 2.11 141 2.11 140 2.12
 273  0.750  0.625  0.451- 145 2.11 139 2.11 132 2.11 147 2.11 148 2.11 149 2.12
 274  0.875  0.750  0.451- 146 2.11 140 2.11  67 2.11 147 2.11 148 2.11 150 2.12
 275  0.750  0.750  0.352- 147 2.11 137 2.11 145 2.11 146 2.11 130 2.11
 276  0.875  0.625  0.352- 148 2.11 138 2.11 145 2.11 146 2.11  65 2.11
 277  0.750  0.625  0.651- 151 2.10 152 2.11 136 2.11 143 2.12 149 2.16
 278  0.875  0.750  0.651- 144 2.11  71 2.11 152 2.11 151 2.11 150 2.15
 279  0.750  0.750  0.550- 151 2.11 141 2.11 150 2.11 134 2.11 149 2.11 147 2.12
 280  0.875  0.625  0.550- 152 2.11  69 2.11 150 2.11 149 2.11 142 2.11 148 2.12

IMPORTANT INFORMATION: All symmetrisations will be switched off!
NOSYMM: (Re-)initialisation of all symmetry stuff for point group C_1.

                                     Primitive cell

  volume of cell :    6079.2794

  direct lattice vectors                    reciprocal lattice vectors
    16.881969308  0.000000000  0.000000000     0.059234796  0.000000000  0.000000000
     0.000000000 16.881969308  0.000000000     0.000000000  0.059234796  0.000000000
     0.000000000  0.000000000 21.330738491     0.000000000  0.000000000  0.046880702

  length of vectors
    16.881969308 16.881969308 21.330738491     0.059234796  0.059234796  0.046880702

  position of ions in fractional coordinates (direct lattice)
     0.526860992  0.556493160  0.795805784
     0.318859418  0.401083519  0.796193016
     0.473607197  0.194687370  0.796659993
     0.680728403  0.347897400  0.796246437
     0.519733066  0.543252873  0.846065741
     0.552131873  0.449183684  0.760994677
     0.588124613  0.575539307  0.786690651
     0.486726659  0.604277547  0.781807647
     0.332450659  0.393557510  0.846357188
     0.425821804  0.427397416  0.761041772
     0.299285363  0.462282629  0.787533266
     0.271296177  0.360711621  0.782138612
     0.481485763  0.208710886  0.846721704
     0.447815713  0.301387298  0.760902781
     0.412192107  0.175578121  0.788311031
     0.513509438  0.146644775  0.782793470
     0.667158016  0.355440425  0.846414499
     0.573603342  0.323148849  0.760942310
     0.699283922  0.286407544  0.787456220
     0.728978710  0.387533364  0.782343647
     0.507806541  0.488104571  0.758100001
     0.387132996  0.382879485  0.758107612
     0.492167859  0.262454782  0.758123217
     0.612789884  0.367280887  0.758141760
     0.000000000  0.375000000  0.351605267
     0.125000000  0.000000000  0.351605267
     0.000000000  0.000000000  0.450535089
     0.125000000  0.375000000  0.450535089
     0.999995310  0.375003845  0.550033603
     0.124973830  0.999972573  0.550078808
     0.999989581  0.999914710  0.648708790
     0.124917076  0.375016174  0.648449433
     0.000000000  0.125000000  0.351605267
     0.125000000  0.250000000  0.351605267
     0.000000000  0.250000000  0.450535089
     0.125000000  0.125000000  0.450535089
     0.999995993  0.124961986  0.550071214
     0.124976093  0.250019090  0.549995597
     0.999991300  0.249908268  0.648686697
     0.124918147  0.124857218  0.648674822
     0.250000000  0.375000000  0.351605267
     0.375000000  0.000000000  0.351605267
     0.250000000  0.000000000  0.450535089
     0.375000000  0.375000000  0.450535089
     0.250432645  0.374983964  0.550298647
     0.375025301  0.999985266  0.549988609
     0.249873252  0.999925991  0.648665753
     0.374653798  0.374998556  0.651967400
     0.250000000  0.125000000  0.351605267
[...]
  12.66147698 12.66147698  7.50000000
  14.77172314 10.55123082  7.50000000
  12.66851931 10.55886748 13.88887770
  14.77423899 12.66408807 13.88757522
  12.66310920 12.66330704 11.72916209
  14.77365844 10.55291949 11.72934123

--------------------------------------- Iteration      FINAL  ---------------------------------------

--------------------OUTCAR has been truncated-------------------------

[...]

--------------------OUTCAR has been truncated-------------------------

  DFT-D2 method for vdW energy calculation

  Parameters of vdW forcefield:
         C6(Jnm^6/mol)     R0(A)
   C        1.750          1.452
   H        0.140          1.001
   O        0.700          1.342
   Mg       0.630          1.243
   O        0.700          1.342

  vdW correction parametrized for the method pbe

  IVDW =   1
  VDW_RADIUS =    50.000 A
  VDW_S6 =     0.750
  VDW_SR =     1.000
  VDW_D =    20.000
  LVDW_EWALD = F

  Number of pair interactions contributing to vdW energy: 3413296
  Edisp (eV):  -15.39365

  FORCE on cell =-STRESS in cart. coord.  units (eV):
  Direction    XX          YY          ZZ          XY          YZ          ZX
  Alpha Z  3675.42456  3675.42456  3675.42456
  Ewald  632003.72726632003.11558************     0.00171    -7.08397    -0.29034
  Hartree673680.56515673680.13502************     0.03166    -5.36765    -0.22678
  E(xc)  -10056.39315-10056.39406-10077.51822    -0.00017    -0.00550     0.00054
  Local  ************************************    -0.03659    12.23033     0.55243
  n-local-11399.60494-11399.61858-11481.21992     0.01722    -0.04580    -0.00598
  augment  4215.97282  4215.97290  4182.17871    -0.00889     0.02037    -0.00291
  Kinetic 30126.34783 30126.39366 30330.57000    -0.00495     0.22116    -0.00972
  Fock        0.00000     0.00000     0.00000     0.00000     0.00000     0.00000
  vdW       -21.97499   -21.97479   -18.77784    -0.00004     0.00188     0.00021
  Total     -84.22008   -84.22936     9.54989    -0.00005    -0.02918     0.01744
  in kB     -22.19597   -22.19841     2.51685    -0.00001    -0.00769     0.00460

 VOLUME and BASIS-vectors are now :
  energy-cutoff  :      520.00
  volume of cell :     6079.28
      direct lattice vectors                 reciprocal lattice vectors
    16.881969308  0.000000000  0.000000000     0.059234796  0.000000000  0.000000000
     0.000000000 16.881969308  0.000000000     0.000000000  0.059234796  0.000000000
     0.000000000  0.000000000 21.330738491     0.000000000  0.000000000  0.046880702

  length of vectors
    16.881969308 16.881969308 21.330738491     0.059234796  0.059234796  0.046880702

 FORCES acting on ions:
    Electron-Ion                     Ewald-Force                    Non-Local-Force
   -.374E+02 -.194E+03 -.102E+04   0.386E+02 0.200E+03 0.102E+04   -.115E+01 -.569E+01 -.331E+01
   0.194E+03 -.363E+02 -.102E+04   -.200E+03 0.374E+02 0.102E+04   0.569E+01 -.110E+01 -.335E+01
   0.368E+02 0.194E+03 -.101E+04   -.379E+02 -.199E+03 0.102E+04   0.114E+01 0.564E+01 -.340E+01
   -.194E+03 0.379E+02 -.102E+04   0.200E+03 -.390E+02 0.102E+04   -.565E+01 0.118E+01 -.335E+01
   0.169E+01 -.182E+02 -.253E+03   -.230E+01 0.171E+02 0.258E+03   0.610E+00 0.108E+01 -.546E+01
   -.583E+02 0.211E+02 -.266E+03   0.640E+02 -.262E+02 0.266E+03   -.560E+01 0.507E+01 -.292E+00
   -.642E+02 -.487E+02 -.241E+03   0.695E+02 0.504E+02 0.240E+03   -.529E+01 -.170E+01 0.992E+00
   0.343E+02 -.742E+02 -.240E+03   -.378E+02 0.785E+02 0.238E+03   0.353E+01 -.432E+01 0.164E+01
   0.179E+02 0.215E+01 -.252E+03   -.168E+02 -.279E+01 0.258E+03   -.111E+01 0.645E+00 -.545E+01
   -.208E+02 -.588E+02 -.266E+03   0.259E+02 0.645E+02 0.266E+03   -.504E+01 -.563E+01 -.296E+00
   0.491E+02 -.640E+02 -.241E+03   -.509E+02 0.693E+02 0.240E+03   0.175E+01 -.529E+01 0.942E+00
   0.740E+02 0.346E+02 -.239E+03   -.783E+02 -.382E+02 0.238E+03   0.430E+01 0.355E+01 0.165E+01
   -.244E+01 0.174E+02 -.252E+03   0.311E+01 -.163E+02 0.258E+03   -.674E+00 -.114E+01 -.543E+01
   0.582E+02 -.210E+02 -.266E+03   -.639E+02 0.261E+02 0.266E+03   0.559E+01 -.505E+01 -.270E+00
   0.643E+02 0.488E+02 -.240E+03   -.696E+02 -.505E+02 0.239E+03   0.531E+01 0.171E+01 0.909E+00
   -.341E+02 0.744E+02 -.239E+03   0.376E+02 -.788E+02 0.238E+03   -.351E+01 0.434E+01 0.163E+01
   -.179E+02 -.205E+01 -.252E+03   0.168E+02 0.269E+01 0.258E+03   0.111E+01 -.646E+00 -.544E+01
   0.213E+02 0.577E+02 -.266E+03   -.264E+02 -.633E+02 0.266E+03   0.508E+01 0.556E+01 -.275E+00
   -.484E+02 0.645E+02 -.241E+03   0.500E+02 -.698E+02 0.240E+03   -.166E+01 0.531E+01 0.957E+00
   -.745E+02 -.337E+02 -.239E+03   0.789E+02 0.372E+02 0.238E+03   -.436E+01 -.349E+01 0.163E+01
   0.388E+02 -.105E+03 -.153E+04   -.684E+02 0.101E+03 0.152E+04   0.296E+02 0.420E+01 0.195E+02
   0.105E+03 0.366E+02 -.153E+04   -.101E+03 -.659E+02 0.151E+04   -.426E+01 0.293E+02 0.198E+02
   -.374E+02 0.107E+03 -.153E+04   0.667E+02 -.103E+03 0.151E+04   -.293E+02 -.397E+01 0.199E+02
   -.106E+03 -.394E+02 -.153E+04   0.103E+03 0.690E+02 0.151E+04   0.392E+01 -.295E+02 0.196E+02
   -.131E-02 0.132E-02 0.209E+04   0.987E-03 -.115E-02 -.208E+04   0.277E-03 -.203E-03 -.702E+01
   0.553E+01 0.554E+01 0.208E+04   -.553E+01 -.553E+01 -.207E+04   -.725E-02 -.730E-02 -.702E+01
   -.381E-01 0.773E+01 0.712E+03   0.385E-01 -.773E+01 -.713E+03   -.224E-03 -.306E-02 0.568E+00
   0.146E+02 0.623E-01 0.731E+03   -.145E+02 -.645E-01 -.731E+03   -.607E-01 0.148E-02 0.536E+00
   0.404E-02 0.613E-02 -.634E+03   -.299E-02 -.658E-02 0.634E+03   -.730E-03 -.128E-03 -.679E-01
   0.152E+02 0.151E+02 -.651E+03   -.151E+02 -.151E+02 0.651E+03   -.149E-01 -.156E-01 -.125E+00
   -.121E+00 0.184E+02 -.202E+04   0.118E+00 -.184E+02 0.202E+04   0.354E-02 0.122E-01 0.597E+01
   0.781E+02 0.182E+01 -.197E+04   -.778E+02 -.182E+01 0.196E+04   -.404E+00 -.825E-02 0.598E+01
   -.153E-01 0.733E+01 0.208E+04   0.153E-01 -.732E+01 -.208E+04   0.135E-04 -.785E-02 -.702E+01
   0.751E+01 0.564E+01 0.209E+04   -.749E+01 -.563E+01 -.208E+04   -.215E-01 -.907E-02 -.703E+01
   -.630E-01 0.821E+01 0.722E+03   0.657E-01 -.820E+01 -.723E+03   -.212E-02 -.349E-02 0.592E+00
   0.113E+02 0.128E+02 0.721E+03   -.113E+02 -.128E+02 -.722E+03   -.166E-01 -.129E-01 0.568E+00
   -.208E+00 0.187E+02 -.647E+03   0.210E+00 -.187E+02 0.647E+03   -.121E-02 -.457E-02 -.120E+00
   0.313E+02 0.180E+02 -.626E+03   -.311E+02 -.180E+02 0.626E+03   -.148E+00 -.379E-01 -.207E-01
   -.943E+00 0.227E+02 -.200E+04   0.944E+00 -.227E+02 0.200E+04   -.209E-05 0.241E-01 0.598E+01
   0.395E+02 0.380E+02 -.200E+04   -.394E+02 -.380E+02 0.200E+04   -.100E+00 -.145E-01 0.597E+01
   0.112E+02 0.149E-01 0.209E+04   -.112E+02 -.151E-01 -.208E+04   -.419E-01 0.861E-04 -.707E+01
   0.563E+01 0.751E+01 0.209E+04   -.562E+01 -.749E+01 -.208E+04   -.939E-02 -.215E-01 -.703E+01
   0.128E+02 0.113E+02 0.721E+03   -.128E+02 -.113E+02 -.722E+03   -.114E-01 -.171E-01 0.563E+00
   0.145E+02 0.557E-01 0.761E+03   -.143E+02 -.516E-01 -.761E+03   -.101E+00 -.285E-02 0.498E+00
   0.556E+02 0.505E+00 -.580E+03   -.552E+02 -.513E+00 0.580E+03   -.495E+00 0.855E-02 -.227E+00
   0.179E+02 0.315E+02 -.625E+03   -.178E+02 -.313E+02 0.625E+03   -.390E-01 -.131E+00 -.364E-01
   0.395E+02 0.401E+02 -.200E+04   -.395E+02 -.400E+02 0.200E+04   -.253E-01 -.112E+00 0.597E+01
   0.130E+03 0.608E+01 -.171E+04   -.130E+03 -.606E+01 0.171E+04   -.341E+00 -.180E-01 0.343E+01
   0.929E+01 0.929E+01 0.209E+04   -.926E+01 -.926E+01 -.208E+04   -.222E-01 -.222E-01 -.703E+01
   0.756E+01 0.758E+01 0.209E+04   -.753E+01 -.754E+01 -.209E+04   -.288E-01 -.290E-01 -.710E+01
   0.194E+02 0.117E+02 0.742E+03   -.192E+02 -.116E+02 -.742E+03   -.841E-01 -.438E-01 0.454E+00
   0.116E+02 0.193E+02 0.742E+03   -.116E+02 -.192E+02 -.742E+03   -.458E-01 -.892E-01 0.466E+00
   0.354E+02 0.350E+02 -.618E+03   -.353E+02 -.349E+02 0.618E+03   -.880E-01 -.996E-01 -.144E-01
   0.386E+02 0.384E+02 -.551E+03   -.382E+02 -.380E+02 0.551E+03   -.398E+00 -.410E+00 -.741E+00
   0.118E+03 0.678E+02 -.192E+04   -.118E+03 -.678E+02 0.191E+04   -.629E+00 0.661E-02 0.603E+01
   0.705E+02 0.119E+03 -.191E+04   -.705E+02 -.118E+03 0.190E+04   0.295E-01 -.501E+00 0.606E+01
   -.119E-01 0.387E-03 0.208E+04   0.120E-01 -.546E-03 -.207E+04   -.121E-04 0.621E-04 -.702E+01
   0.753E+01 -.563E+01 0.209E+04   -.750E+01 0.562E+01 -.208E+04   -.213E-01 0.909E-02 -.703E+01
   0.500E-01 -.821E+01 0.722E+03   -.530E-01 0.820E+01 -.723E+03   0.228E-02 0.293E-02 0.592E+00
   0.771E+01 0.713E-02 0.712E+03   -.771E+01 -.752E-02 -.713E+03   -.354E-02 0.212E-03 0.574E+00
[...]
   -.799E+01 -.495E+01 0.157E+04   0.796E+01 0.493E+01 -.157E+04   0.456E-01 0.258E-01 0.347E+01
   -.385E+01 -.270E-02 0.156E+04   0.385E+01 0.278E-02 -.157E+04   0.986E-02 0.323E-02 0.353E+01
   -.217E+02 -.481E+00 -.153E+04   0.217E+02 0.484E+00 0.154E+04   0.285E-01 -.675E-04 -.498E+01
   -.458E+02 -.254E+02 -.151E+04   0.457E+02 0.253E+02 0.152E+04   0.842E-01 0.698E-01 -.500E+01
   -.342E+02 -.199E+02 -.436E+03   0.339E+02 0.198E+02 0.435E+03   0.302E+00 0.770E-01 0.466E+00
   -.933E+01 -.321E-01 -.486E+03   0.932E+01 0.322E-01 0.485E+03   0.155E-01 -.814E-03 0.287E+00
   -.123E+02 -.123E+02 0.548E+03   0.123E+02 0.122E+02 -.548E+03   0.683E-01 0.680E-01 -.477E-01
   -.661E+01 -.656E+01 0.536E+03   0.659E+01 0.655E+01 -.536E+03   0.203E-01 0.157E-01 -.473E-01
   -.594E+01 -.490E+01 0.157E+04   0.593E+01 0.489E+01 -.157E+04   0.151E-01 0.167E-01 0.351E+01
   -.491E+01 -.593E+01 0.157E+04   0.490E+01 0.592E+01 -.157E+04   0.197E-01 0.125E-01 0.351E+01
   -.538E+02 -.510E+02 -.150E+04   0.537E+02 0.509E+02 0.151E+04   0.152E+00 0.165E+00 -.502E+01
   -.179E+02 -.177E+02 -.154E+04   0.179E+02 0.176E+02 0.154E+04   0.442E-01 0.425E-01 -.499E+01
   -.173E+02 -.163E+02 -.474E+03   0.172E+02 0.163E+02 0.474E+03   0.427E-01 0.550E-01 0.286E+00
   -.163E+02 -.170E+02 -.475E+03   0.163E+02 0.169E+02 0.474E+03   0.473E-01 0.463E-01 0.287E+00
   0.188E-01 -.935E-01 0.233E+02   -.400E-11 -.183E-11 -.637E-11   0.375E-03 0.866E-01 -.233E+02

 POSITION                                       TOTAL-FORCE (eV/Angst)
      8.89445      9.39470     16.97513        -0.030025     -0.077235     -0.022637
      5.38297      6.77108     16.98339         0.075350     -0.035413     -0.020027
      7.99542      3.28671     16.99335         0.047673      0.078751     -0.032885
     11.49204      5.87319     16.98452        -0.080806      0.027050     -0.029847
      8.77412      9.17118     18.04721        -0.003394     -0.013992      0.005586
      9.32107      7.58311     16.23258         0.060337     -0.075202     -0.021767
      9.92870      9.71624     16.78069         0.023888     -0.008299     -0.014764
      8.21690     10.20140     16.67653        -0.023913      0.020382     -0.017620
      5.61242      6.64403     18.05342         0.015270     -0.002685      0.005682
      7.18871      7.21531     16.23358         0.076271      0.059233     -0.022348
      5.05253      7.80424     16.79867         0.007930      0.023350     -0.016008
      4.58001      6.08952     16.68359        -0.020306     -0.021531     -0.017069
      8.12843      3.52345     18.06120         0.003374      0.011970      0.002964
      7.56001      5.08801     16.23062        -0.058414      0.076428     -0.022915
      6.95861      2.96410     16.81526        -0.023166      0.005015     -0.016638
      8.66905      2.47565     16.69756         0.023666     -0.021638     -0.018637
     11.26294      6.00053     18.05465        -0.012352      0.004124      0.005140
      9.68355      5.45539     16.23146        -0.073931     -0.059656     -0.024613
     11.80529      4.83512     16.79702        -0.005372     -0.023484     -0.014803
     12.30660      6.54233     16.68797         0.018616      0.023653     -0.018357
      8.57277      8.24017     16.17083        -0.039190      0.114385      0.065280
      6.53557      6.46376     16.17100        -0.120245     -0.035377      0.068115
      8.30876      4.43075     16.17133         0.042245     -0.118011      0.062704
     10.34510      6.20042     16.17172         0.116473      0.041635      0.069642
      0.00000      6.33074      7.50000        -0.000110     -0.000009      0.337290
      2.11025      0.00000      7.50000         0.001992      0.002071      0.335194
      0.00000      0.00000      9.61025         0.000068      0.001079      0.021134
      2.11025      6.33074      9.61025         0.024283     -0.000695      0.033109
     16.88189      6.33080     11.73262         0.000239     -0.000542      0.040202
      2.10980     16.88151     11.73359         0.000467      0.000793      0.039304
     16.88179     16.88053     13.83744         0.000482      0.001184     -0.004823
      2.10885      6.33101     13.83191        -0.007390     -0.000171     -0.012469
      0.00000      2.11025      7.50000        -0.000047      0.002316      0.335581
      2.11025      4.22049      7.50000         0.006010      0.002762      0.339984
      0.00000      4.22049      9.61025         0.000455      0.001151      0.019161
      2.11025      2.11025      9.61025         0.004231      0.003769      0.022096
     16.88190      2.10960     11.73343         0.000290     -0.000699      0.040158
      2.10984      4.22081     11.73181        -0.000039     -0.001471      0.038196
     16.88182      4.21894     13.83697         0.000532     -0.000825     -0.006320
      2.10886      2.10784     13.83671        -0.000851     -0.000742     -0.007928
      4.22049      6.33074      7.50000         0.011827     -0.000121      0.351715
      6.33074      0.00000      7.50000         0.002712      0.005973      0.339368
      4.22049      0.00000      9.61025         0.003169      0.004307      0.021430
      6.33074      6.33074      9.61025         0.043558      0.001255      0.110885
      4.22780      6.33047     11.73828         0.000499      0.000060      0.034087
      6.33117     16.88172     11.73166        -0.002883     -0.000270      0.038937
      4.21835     16.88072     13.83652        -0.001890     -0.001337     -0.008273
      6.32489      6.33071     13.90695        -0.003234      0.003622      0.036087
      4.22049      2.11025      7.50000         0.006286      0.006579      0.341285
      6.33074      4.22049      7.50000         0.008237      0.008524      0.359639
      4.22049      4.22049      9.61025         0.034253      0.015811      0.047275
      6.33074      2.11025      9.61025         0.016572      0.036763      0.047638
      4.22051      2.11057     11.73069        -0.000912     -0.001286      0.038026
      6.33865      4.22965     11.74698         0.001723     -0.001887      0.035623
      4.21857      4.21704     13.82258        -0.007571     -0.008102     -0.018050
      6.32728      2.10876     13.82125        -0.007893     -0.006366     -0.015697
      0.00000     14.77172      7.50000        -0.000028     -0.000071      0.334057
      2.11025      8.44098      7.50000         0.005950     -0.002685      0.339358
      0.00000      8.44098      9.61025        -0.000809     -0.000706      0.019117
      2.11025     14.77172      9.61025         0.001121     -0.000163      0.021925
[...]
     14.77172      8.44098      9.61025         0.021291      0.007869      0.063149
     12.66148      8.44098      7.50000         0.012635      0.007194     -0.522745
     14.77172     14.77172      7.50000         0.005037      0.003336     -0.507507
     12.66391     14.77177     13.88792        -0.000565      0.002658      0.026425
     14.77473      8.44414     13.88981        -0.000295     -0.000939      0.019905
     12.66806      8.44392     11.72579        -0.000353      0.000439      0.012545
     14.77264     14.77167     11.72922        -0.001774     -0.000697      0.013270
     12.66148     10.55123      9.61025         0.019690      0.018129      0.060466
     14.77172     12.66148      9.61025         0.007447      0.004453      0.074015
     12.66148     12.66148      7.50000         0.004025      0.004595     -0.512390
     14.77172     10.55123      7.50000         0.007739      0.001107     -0.510355
     12.66852     10.55887     13.88888         0.001465      0.000773      0.022062
     14.77424     12.66409     13.88758         0.001536      0.000348      0.025003
     12.66311     12.66331     11.72916        -0.000873     -0.000831      0.009993
     14.77366     10.55292     11.72934        -0.003594     -0.000327      0.010696
    total drift:                                0.019149     -0.006894      0.027280

  FREE ENERGIE OF THE ION-ELECTRON SYSTEM (eV)
  free  energy   TOTEN  =     -1626.71303397 eV

  energy  without entropy=    -1626.71303397  energy(sigma->0) =    -1626.71303397

 writing wavefunctions