 vasp.6.3.0 20Jan22 (build Apr  1 2022 16:44:48) complex
 executed on        HPECrayEX_GCC date 2023.02.26  11:39:58

 INCAR:
   SYSTEM = MgO-rocksalt
   ISMEAR = 0
   SIGMA = 0.05
   EDIFF = 1E-7
   ALGO = ALL
   ISTART = 0
   IBRION = 2
   NSW = 1000
   ISYM = 0
   ISIF = 2
   EDIFFG = -0.01
   DIPOL = 0.5 0.5 0.5
   IDIPOL = 3
   LDIPOL = .TRUE.
   GGA = RE
   AGGAC = 0.0
   LUSE_VDW = .TRUE.
   LASPH = .TRUE.
   ENCUT = 600
   PREC = Accurate
   LASPH = .TRUE.
   LREAL = .FALSE.
   ISPIN = 1
   NELM = 200
   NELMIN = 8
   NCORE = 8
   KPAR = 1
   LWAVE = .FALSE.
   LCHARG = .FALSE.

 POTCAR:    PAW_PBE N 08Apr2002
 POTCAR:    PAW_PBE O 08Apr2002
 POTCAR:    PAW_PBE Mg_pv 13Apr2007
 POTCAR:    PAW_PBE O 08Apr2002
|               ----> ADVICE to this user running VASP <----                  |
|     You have switched on vdW-DFT.                                           |
|     This routine was written and supplied by Jiri Klimes. We recommend      |
|     that you carefully read and cite the following publications:            |
|       J. Klimes, D.R. Bowler, A. Michelides                                 |
|          J. Phys.: Cond Matt. 22 022201 (2010)                              |
|       J. Klimes, D.R. Bowler, A. Michelides                                 |
|          Phys. Rev. B. 83, 195131 (2011)                                    |
|     and references therein.                                                 |

   TITEL  = PAW_PBE N 08Apr2002
   POMASS =   14.001; ZVAL   =    5.000    mass and valenz
   ENMAX  =  400.000; ENMIN  =  300.000 eV

[...]

   TITEL  = PAW_PBE Mg_pv 13Apr2007
   POMASS =   24.305; ZVAL   =    8.000    mass and valenz
   ENMAX  =  403.929; ENMIN  =  302.947 eV

   TITEL  = PAW_PBE O 08Apr2002
   POMASS =   16.000; ZVAL   =    6.000    mass and valenz
   ENMAX  =  400.000; ENMIN  =  300.000 eV

  PAW_PBE N 08Apr2002                   :
  PAW_PBE O 08Apr2002                   :
  PAW_PBE Mg_pv 13Apr2007               :
  PAW_PBE O 08Apr2002                   :

 POSCAR:  N  O Mg  O
  positions in direct lattice
 exchange correlation table for  LEXCH =       40
   RHO(1)=    0.500       N(1)  =     2000
   RHO(2)=  100.500       N(2)  =     4000

 ion  position               nearest neighbor table
   1  0.524  0.547  0.791-   2 1.14
   2  0.622  0.636  0.784-   1 1.14   3 1.20
   3  0.725  0.730  0.775-   2 1.20
   4  0.000  0.750  0.350-  36 2.14  38 2.14  39 2.14  46 2.14  55 2.14
   5  0.250  0.000  0.350-  37 2.14  38 2.14  39 2.14  47 2.14  54 2.14
   6  0.000  0.000  0.450-  38 2.14  37 2.14  36 2.14  44 2.14  53 2.14  42 2.14
   7  0.250  0.750  0.450-  39 2.14  37 2.14  36 2.14  45 2.14  52 2.14  43 2.14
   8  0.000  0.750  0.550-  42 2.14  43 2.14  50 2.14  59 2.14  36 2.15  40 2.16
   9  0.250  0.000  0.550-  42 2.14  43 2.14  51 2.14  58 2.14  37 2.15  41 2.16
  10  0.000  0.000  0.650-  42 2.13  41 2.14  40 2.14  48 2.14  57 2.14
  11  0.250  0.750  0.650-  43 2.13  41 2.14  40 2.14  49 2.14  56 2.14
  12  0.000  0.250  0.350-  44 2.14  38 2.14  46 2.14  47 2.14  63 2.14
  13  0.250  0.500  0.350-  45 2.14  39 2.14  46 2.14  47 2.14  62 2.14
  14  0.000  0.500  0.450-  46 2.14  44 2.14  45 2.14  36 2.14  61 2.14  50 2.14
  15  0.250  0.250  0.450-  47 2.14  44 2.14  45 2.14  37 2.14  60 2.14  51 2.14
  16  0.000  0.250  0.550-  42 2.14  50 2.14  51 2.14  67 2.14  44 2.15  48 2.16
  17  0.250  0.500  0.550-  43 2.14  50 2.14  51 2.14  66 2.14  45 2.15  49 2.16
  18  0.000  0.500  0.650-  50 2.13  48 2.14  49 2.14  40 2.14  65 2.14
  19  0.250  0.250  0.650-  51 2.13  48 2.14  49 2.14  41 2.14  64 2.14
  20  0.500  0.750  0.350-  52 2.14  39 2.14  54 2.14  55 2.14  62 2.14
  21  0.750  0.000  0.350-  53 2.14  38 2.14  54 2.14  55 2.14  63 2.14
  22  0.500  0.000  0.450-  54 2.14  52 2.14  53 2.14  37 2.14  60 2.14  58 2.14
  23  0.750  0.750  0.450-  55 2.14  52 2.14  53 2.14  36 2.14  61 2.14  59 2.14
  24  0.500  0.750  0.550-  43 2.14  58 2.14  59 2.14  66 2.14  52 2.15  56 2.16
  25  0.750  0.000  0.550-  42 2.14  58 2.14  59 2.14  67 2.14  53 2.15  57 2.16
  26  0.500  0.000  0.650-  58 2.13  56 2.14  57 2.14  41 2.14  64 2.14
  27  0.750  0.750  0.650-  59 2.13  56 2.14  57 2.14  40 2.14  65 2.14
  28  0.500  0.250  0.350-  60 2.14  54 2.14  47 2.14  62 2.14  63 2.14
  29  0.750  0.500  0.350-  61 2.14  55 2.14  46 2.14  62 2.14  63 2.14
  30  0.500  0.500  0.450-  62 2.14  52 2.14  60 2.14  61 2.14  45 2.14  66 2.14
  31  0.750  0.250  0.450-  63 2.14  53 2.14  60 2.14  61 2.14  44 2.14  67 2.14
  32  0.500  0.250  0.550-  51 2.14  58 2.14  66 2.14  67 2.14  60 2.15  64 2.16
  33  0.750  0.500  0.550-  50 2.14  59 2.14  66 2.14  67 2.14  61 2.15  65 2.16
  34  0.500  0.500  0.650-  66 2.13  56 2.14  64 2.14  65 2.14  49 2.14
  35  0.750  0.250  0.650-  67 2.13  57 2.14  64 2.14  65 2.14  48 2.14
  36  0.000  0.750  0.450-   4 2.14   6 2.14   7 2.14  14 2.14  23 2.14   8 2.15
  37  0.250  0.000  0.450-   5 2.14   6 2.14   7 2.14  15 2.14  22 2.14   9 2.15
  38  0.000  0.000  0.350-   6 2.14   5 2.14   4 2.14  12 2.14  21 2.14
  39  0.250  0.750  0.350-   7 2.14   5 2.14   4 2.14  13 2.14  20 2.14
  40  0.000  0.750  0.651-  10 2.14  11 2.14  18 2.14  27 2.14   8 2.16
  41  0.250  0.000  0.651-  10 2.14  11 2.14  19 2.14  26 2.14   9 2.16
  42  0.000  0.000  0.550-  10 2.13   9 2.14   8 2.14  16 2.14  25 2.14   6 2.14
  43  0.250  0.750  0.550-  11 2.13   9 2.14   8 2.14  17 2.14  24 2.14   7 2.14
  44  0.000  0.250  0.450-  12 2.14   6 2.14  14 2.14  15 2.14  31 2.14  16 2.15
  45  0.250  0.500  0.450-  13 2.14   7 2.14  14 2.14  15 2.14  30 2.14  17 2.15
  46  0.000  0.500  0.350-  14 2.14  12 2.14  13 2.14   4 2.14  29 2.14
  47  0.250  0.250  0.350-  15 2.14  12 2.14  13 2.14   5 2.14  28 2.14
  48  0.000  0.250  0.651-  10 2.14  18 2.14  19 2.14  35 2.14  16 2.16
  49  0.250  0.500  0.651-  11 2.14  18 2.14  19 2.14  34 2.14  17 2.16
  50  0.000  0.500  0.550-  18 2.13  16 2.14  17 2.14   8 2.14  33 2.14  14 2.14
  51  0.250  0.250  0.550-  19 2.13  16 2.14  17 2.14   9 2.14  32 2.14  15 2.14
  52  0.500  0.750  0.450-  20 2.14   7 2.14  22 2.14  23 2.14  30 2.14  24 2.15
  53  0.750  0.000  0.450-  21 2.14   6 2.14  22 2.14  23 2.14  31 2.14  25 2.15
  54  0.500  0.000  0.350-  22 2.14  20 2.14  21 2.14   5 2.14  28 2.14
  55  0.750  0.750  0.350-  23 2.14  20 2.14  21 2.14   4 2.14  29 2.14
  56  0.500  0.750  0.651-  11 2.14  26 2.14  27 2.14  34 2.14  24 2.16
  57  0.750  0.000  0.651-  10 2.14  26 2.14  27 2.14  35 2.14  25 2.16
  58  0.500  0.000  0.550-  26 2.13  24 2.14  25 2.14   9 2.14  32 2.14  22 2.14
  59  0.750  0.750  0.550-  27 2.13  24 2.14  25 2.14   8 2.14  33 2.14  23 2.14
  60  0.500  0.250  0.450-  28 2.14  22 2.14  15 2.14  30 2.14  31 2.14  32 2.15
  61  0.750  0.500  0.450-  29 2.14  23 2.14  14 2.14  30 2.14  31 2.14  33 2.15
  62  0.500  0.500  0.350-  30 2.14  20 2.14  28 2.14  29 2.14  13 2.14
  63  0.750  0.250  0.350-  31 2.14  21 2.14  28 2.14  29 2.14  12 2.14
  64  0.500  0.250  0.651-  19 2.14  26 2.14  34 2.14  35 2.14  32 2.16
  65  0.750  0.500  0.651-  18 2.14  27 2.14  34 2.14  35 2.14  33 2.16
  66  0.500  0.500  0.550-  34 2.13  24 2.14  32 2.14  33 2.14  17 2.14  30 2.14
  67  0.750  0.250  0.550-  35 2.13  25 2.14  32 2.14  33 2.14  16 2.14  31 2.14

IMPORTANT INFORMATION: All symmetrisations will be switched off!
NOSYMM: (Re-)initialisation of all symmetry stuff for point group C_1.

                                     Primitive cell

  volume of cell :    1563.6717

  direct lattice vectors                    reciprocal lattice vectors
     8.546113626  0.000000000  0.000000000     0.117012252  0.000000000  0.000000000
     0.000000000  8.546113626  0.000000000     0.000000000  0.117012252  0.000000000
     0.000000000  0.000000000 21.409585219     0.000000000  0.000000000  0.046708051

  length of vectors
     8.546113626  8.546113626 21.409585219     0.117012252  0.117012252  0.046708051

  position of ions in fractional coordinates (direct lattice)
     0.524240636  0.546829860  0.791213518
     0.622048770  0.636270366  0.783623500
     0.724617374  0.730106541  0.774813965
     0.000000000  0.750000000  0.350310383
     0.250000000  0.000000000  0.350310383
     0.000000000  0.000000000  0.450103461
     0.250000000  0.750000000  0.450103461
     0.000000000  0.750000000  0.550423065
     0.250000000  0.000000000  0.550423065
     0.000000000  0.000000000  0.649678241
     0.250000000  0.750000000  0.649678241
     0.000000000  0.250000000  0.350310383
     0.250000000  0.500000000  0.350310383
     0.000000000  0.500000000  0.450103461
     0.250000000  0.250000000  0.450103461
     0.000000000  0.250000000  0.550423065
     0.250000000  0.500000000  0.550423065
     0.000000000  0.500000000  0.649678241
     0.250000000  0.250000000  0.649678241
     0.500000000  0.750000000  0.350310383
     0.750000000  0.000000000  0.350310383
     0.500000000  0.000000000  0.450103461
     0.750000000  0.750000000  0.450103461
     0.500000000  0.750000000  0.550423065
     0.750000000  0.000000000  0.550423065
     0.500000000  0.000000000  0.649678241
     0.750000000  0.750000000  0.649678241
     0.500000000  0.250000000  0.350310383
     0.750000000  0.500000000  0.350310383
     0.500000000  0.500000000  0.450103461
     0.750000000  0.250000000  0.450103461
     0.500000000  0.250000000  0.550423065
     0.750000000  0.500000000  0.550423065
     0.500000000  0.500000000  0.649678241
     0.750000000  0.250000000  0.649678241
     0.000000000  0.750000000  0.450103461
     0.250000000  0.000000000  0.450103461
     0.000000000  0.000000000  0.350310383
     0.250000000  0.750000000  0.350310383
     0.000000000  0.750000000  0.651489980
     0.250000000  0.000000000  0.651489980
     0.000000000  0.000000000  0.550159231
     0.250000000  0.750000000  0.550159231
     0.000000000  0.250000000  0.450103461
     0.250000000  0.500000000  0.450103461
     0.000000000  0.500000000  0.350310383
     0.250000000  0.250000000  0.350310383
     0.000000000  0.250000000  0.651489980
     0.250000000  0.500000000  0.651489980
     0.000000000  0.500000000  0.550159231
     0.250000000  0.250000000  0.550159231
     0.500000000  0.750000000  0.450103461
     0.750000000  0.000000000  0.450103461
     0.500000000  0.000000000  0.350310383
     0.750000000  0.750000000  0.350310383
     0.500000000  0.750000000  0.651489980
     0.750000000  0.000000000  0.651489980
     0.500000000  0.000000000  0.550159231
     0.750000000  0.750000000  0.550159231
     0.500000000  0.250000000  0.450103461
     0.750000000  0.500000000  0.450103461
     0.500000000  0.500000000  0.350310383
     0.750000000  0.250000000  0.350310383
     0.500000000  0.250000000  0.651489980
     0.750000000  0.500000000  0.651489980
     0.500000000  0.500000000  0.550159231
     0.750000000  0.250000000  0.550159231

  ion indices of the primitive-cell ions
   primitive index   ion index
                 1           1
                 2           2
                 3           3
                 4           4
                 5           5
                 6           6
                 7           7
[...]
   2.13652841  2.13652841  9.63652841
   0.00000000  2.13652841 11.78432951
   2.13652841  4.27305681 11.78432951
   0.00000000  4.27305681 13.90934166
   2.13652841  2.13652841 13.90934166
   4.27305681  6.40958522  7.50000000
   6.40958522  0.00000000  7.50000000
   4.27305681  0.00000000  9.63652841
   6.40958522  6.40958522  9.63652841
   4.27305681  6.40958522 11.78432951
   6.40958522  0.00000000 11.78432951
   4.27305681  0.00000000 13.90934166
   6.40958522  6.40958522 13.90934166
   4.27305681  2.13652841  7.50000000
   6.40958522  4.27305681  7.50000000
   4.27305681  4.27305681  9.63652841
   6.40958522  2.13652841  9.63652841
   4.27305681  2.13652841 11.78432951
   6.40958522  4.27305681 11.78432951
   4.27305681  4.27305681 13.90934166
   6.40958522  2.13652841 13.90934166
   0.00000000  6.40958522  9.63652841
   2.13652841  0.00000000  9.63652841
   0.00000000  0.00000000  7.50000000
   2.13652841  6.40958522  7.50000000
   0.00000000  6.40958522 13.94813025
   2.13652841  0.00000000 13.94813025
   0.00000000  0.00000000 11.77868095
   2.13652841  6.40958522 11.77868095
   0.00000000  2.13652841  9.63652841
   2.13652841  4.27305681  9.63652841
   0.00000000  4.27305681  7.50000000
   2.13652841  2.13652841  7.50000000
   0.00000000  2.13652841 13.94813025
   2.13652841  4.27305681 13.94813025
   0.00000000  4.27305681 11.77868095
   2.13652841  2.13652841 11.77868095
   4.27305681  6.40958522  9.63652841
   6.40958522  0.00000000  9.63652841
   4.27305681  0.00000000  7.50000000
   6.40958522  6.40958522  7.50000000
   4.27305681  6.40958522 13.94813025
   6.40958522  0.00000000 13.94813025
   4.27305681  0.00000000 11.77868095
   6.40958522  6.40958522 11.77868095
   4.27305681  2.13652841  9.63652841
   6.40958522  4.27305681  9.63652841
   4.27305681  4.27305681  7.50000000
   6.40958522  2.13652841  7.50000000
   4.27305681  2.13652841 13.94813025
   6.40958522  4.27305681 13.94813025
   4.27305681  4.27305681 11.77868095
   6.40958522  2.13652841 11.77868095

--------------------------------------- Iteration      FINAL  ---------------------------------------

--------------------OUTCAR has been truncated-------------------------

[...]

--------------------OUTCAR has been truncated-------------------------

  FORCE on cell =-STRESS in cart. coord.  units (eV):
  Direction    XX          YY          ZZ          XY          YZ          ZX
  Alpha Z   900.75707   900.75707   900.75707
  Ewald  151722.77390151702.89022************   388.67052  -135.56710  -139.04252
  Hartree162198.37834162188.67296************   174.92534   -62.52968   -63.95458
  E(xc)   -2591.63344 -2591.72458 -2596.08848     1.91353    -0.64237    -0.65693
  Local  ************************322842.33488  -523.96690   184.71315   189.22028
  n-local -2863.05816 -2862.93900 -2879.31169    -2.46161     0.80143     0.81754
  augment  1086.09796  1086.16292  1078.72087    -1.38661     0.48477     0.50160
  Kinetic  7618.02658  7619.80730  7688.68765   -37.55151    12.76547    13.12481
  Fock        0.00000     0.00000     0.00000     0.00000     0.00000     0.00000
  Total     -30.59856   -30.59390    -2.61747     0.14276     0.02568     0.01020
  in kB     -31.35205   -31.34728    -2.68193     0.14627     0.02631     0.01046

 VOLUME and BASIS-vectors are now :
  energy-cutoff  :      600.00
  volume of cell :     1563.67
      direct lattice vectors                 reciprocal lattice vectors
     8.546113626  0.000000000  0.000000000     0.117012252  0.000000000  0.000000000
     0.000000000  8.546113626  0.000000000     0.000000000  0.117012252  0.000000000
     0.000000000  0.000000000 21.409585219     0.000000000  0.000000000  0.046708051

  length of vectors
     8.546113626  8.546113626 21.409585219     0.117012252  0.117012252  0.046708051

 FORCES acting on ions:
    Electron-Ion                     Ewald-Force                    Non-Local-Force
   0.204E+03 0.199E+03 -.116E+04   -.240E+03 -.234E+03 0.117E+04   0.353E+02 0.345E+02 -.116E+02
   0.135E+02 0.132E+02 -.116E+04   -.128E+02 -.125E+02 0.116E+04   -.749E+00 -.734E+00 0.490E-01
   -.207E+03 -.202E+03 -.140E+04   0.251E+03 0.245E+03 0.139E+04   -.439E+02 -.429E+02 0.139E+02
   -.179E+00 -.147E+00 0.203E+04   0.177E+00 0.147E+00 -.202E+04   0.174E-02 -.951E-04 -.640E+01
   0.158E+00 -.167E+00 0.203E+04   -.158E+00 0.166E+00 -.202E+04   -.732E-04 0.930E-03 -.641E+01
   -.663E+00 -.695E+00 0.714E+03   0.667E+00 0.696E+00 -.714E+03   -.284E-02 -.119E-02 0.431E+00
   0.704E+00 -.634E+00 0.715E+03   -.682E+00 0.647E+00 -.715E+03   -.154E-01 -.941E-02 0.422E+00
   -.586E+01 -.240E+01 -.585E+03   0.580E+01 0.242E+01 0.586E+03   0.554E-01 -.147E-01 -.436E+00
   0.251E+01 -.362E+01 -.594E+03   -.252E+01 0.361E+01 0.594E+03   0.173E-01 0.684E-02 -.213E+00
   -.190E+02 -.192E+02 -.191E+04   0.190E+02 0.192E+02 0.190E+04   -.953E-02 -.121E-01 0.560E+01
   0.175E+02 -.120E+02 -.189E+04   -.176E+02 0.120E+02 0.189E+04   0.907E-01 -.409E-02 0.559E+01
   -.160E+00 0.147E+00 0.203E+04   0.158E+00 -.147E+00 -.202E+04   0.827E-03 -.344E-04 -.641E+01
   0.178E+00 0.168E+00 0.203E+04   -.178E+00 -.166E+00 -.202E+04   0.505E-03 -.893E-03 -.640E+01
   -.696E+00 0.705E+00 0.715E+03   0.662E+00 -.703E+00 -.715E+03   0.239E-01 -.832E-03 0.457E+00
   0.671E+00 0.626E+00 0.713E+03   -.683E+00 -.640E+00 -.714E+03   0.888E-02 0.101E-01 0.430E+00
   -.348E+01 0.233E+01 -.594E+03   0.347E+01 -.235E+01 0.595E+03   0.769E-02 0.148E-01 -.216E+00
   0.403E+01 0.368E+01 -.587E+03   -.407E+01 -.367E+01 0.587E+03   0.438E-01 -.554E-02 -.293E+00
   -.242E+02 0.203E+02 -.189E+04   0.244E+02 -.203E+02 0.189E+04   -.127E+00 0.123E-01 0.561E+01
   0.112E+02 0.109E+02 -.192E+04   -.112E+02 -.109E+02 0.191E+04   0.120E-01 0.914E-02 0.559E+01
   0.181E+00 -.169E+00 0.203E+04   -.178E+00 0.169E+00 -.202E+04   -.216E-02 -.156E-03 -.641E+01
   -.158E+00 -.187E+00 0.203E+04   0.158E+00 0.185E+00 -.202E+04   -.222E-03 0.182E-02 -.640E+01
   0.681E+00 -.729E+00 0.715E+03   -.678E+00 0.694E+00 -.715E+03   -.144E-02 0.245E-01 0.455E+00
   -.706E+00 -.664E+00 0.716E+03   0.694E+00 0.650E+00 -.717E+03   0.885E-02 0.105E-01 0.502E+00
   0.596E+01 -.400E+01 -.580E+03   -.591E+01 0.404E+01 0.580E+03   -.598E-01 -.357E-01 -.187E+00
   -.259E+01 -.601E+01 -.585E+03   0.260E+01 0.595E+01 0.585E+03   -.163E-01 0.549E-01 -.445E+00
   0.203E+02 -.255E+02 -.189E+04   -.203E+02 0.256E+02 0.188E+04   0.115E-01 -.129E+00 0.561E+01
   -.242E+02 -.224E+02 -.181E+04   0.244E+02 0.226E+02 0.180E+04   -.215E+00 -.208E+00 0.547E+01
   0.160E+00 0.167E+00 0.203E+04   -.159E+00 -.168E+00 -.202E+04   -.960E-03 0.531E-03 -.640E+01
   -.179E+00 0.188E+00 0.203E+04   0.179E+00 -.186E+00 -.202E+04   -.279E-03 -.211E-02 -.641E+01
   0.711E+00 0.737E+00 0.716E+03   -.683E+00 -.711E+00 -.717E+03   -.201E-01 -.188E-01 0.456E+00
   -.672E+00 0.656E+00 0.715E+03   0.687E+00 -.635E+00 -.715E+03   -.105E-01 -.152E-01 0.422E+00
   0.353E+01 0.385E+01 -.587E+03   -.352E+01 -.389E+01 0.588E+03   -.585E-02 0.412E-01 -.284E+00
   -.418E+01 0.611E+01 -.581E+03   0.421E+01 -.605E+01 0.581E+03   -.376E-01 -.595E-01 -.180E+00
   0.290E+02 0.305E+02 -.184E+04   -.292E+02 -.307E+02 0.183E+04   0.188E+00 0.194E+00 0.571E+01
   -.121E+02 0.161E+02 -.190E+04   0.121E+02 -.162E+02 0.189E+04   -.636E-02 0.956E-01 0.558E+01
   -.617E+00 -.394E+00 0.536E+03   0.624E+00 0.394E+00 -.536E+03   -.873E-02 -.931E-03 -.827E-01
   0.432E+00 -.508E+00 0.535E+03   -.438E+00 0.504E+00 -.535E+03   0.849E-02 0.557E-02 -.727E-01
   -.126E+00 -.131E+00 0.152E+04   0.125E+00 0.131E+00 -.152E+04   0.960E-03 0.985E-03 0.357E+01
   0.127E+00 -.118E+00 0.152E+04   -.125E+00 0.120E+00 -.153E+04   -.166E-02 -.236E-02 0.358E+01
   -.273E+02 -.750E+01 -.143E+04   0.272E+02 0.749E+01 0.143E+04   0.294E-01 0.481E-02 -.495E+01
   0.711E+01 -.984E+01 -.145E+04   -.710E+01 0.980E+01 0.146E+04   -.111E-01 0.385E-01 -.491E+01
   -.322E+01 -.328E+01 -.439E+03   0.321E+01 0.327E+01 0.439E+03   0.126E-01 0.136E-01 0.268E+00
   0.255E+01 -.224E+01 -.436E+03   -.256E+01 0.223E+01 0.435E+03   0.697E-02 0.236E-02 0.301E+00
   -.481E+00 0.395E+00 0.535E+03   0.475E+00 -.399E+00 -.535E+03   0.839E-02 0.586E-02 -.726E-01
   0.541E+00 0.510E+00 0.536E+03   -.534E+00 -.505E+00 -.536E+03   -.914E-02 -.708E-02 -.402E-01
   -.127E+00 0.131E+00 0.152E+04   0.123E+00 -.131E+00 -.153E+04   0.508E-02 -.832E-03 0.358E+01
   0.125E+00 0.118E+00 0.152E+04   -.127E+00 -.120E+00 -.152E+04   0.244E-02 0.233E-02 0.358E+01
   -.938E+01 0.662E+01 -.145E+04   0.935E+01 -.661E+01 0.146E+04   0.354E-01 -.945E-02 -.491E+01
   0.163E+02 0.107E+02 -.144E+04   -.164E+02 -.106E+02 0.144E+04   0.553E-01 -.359E-01 -.496E+01
   -.341E+01 0.334E+01 -.436E+03   0.342E+01 -.333E+01 0.436E+03   -.415E-02 -.124E-01 0.302E+00
   0.225E+01 0.218E+01 -.441E+03   -.225E+01 -.217E+01 0.441E+03   -.841E-02 -.684E-02 0.229E+00
   0.646E+00 -.530E+00 0.537E+03   -.665E+00 0.532E+00 -.536E+03   0.256E-01 -.335E-02 -.113E+00
   -.423E+00 -.644E+00 0.536E+03   0.421E+00 0.652E+00 -.536E+03   0.238E-02 -.109E-01 -.815E-01
   0.126E+00 -.132E+00 0.152E+04   -.126E+00 0.129E+00 -.153E+04   -.607E-03 0.495E-02 0.358E+01
   -.128E+00 -.120E+00 0.152E+04   0.126E+00 0.118E+00 -.153E+04   0.231E-02 0.241E-02 0.357E+01
   0.321E+02 -.198E+02 -.139E+04   -.320E+02 0.198E+02 0.140E+04   -.115E+00 -.577E-02 -.473E+01
   -.811E+01 -.279E+02 -.143E+04   0.811E+01 0.278E+02 0.143E+04   0.201E-02 0.347E-01 -.496E+01
   0.328E+01 -.357E+01 -.435E+03   -.326E+01 0.357E+01 0.435E+03   -.150E-01 -.522E-03 0.308E+00
   -.267E+01 -.248E+01 -.429E+03   0.269E+01 0.250E+01 0.429E+03   -.138E-01 -.141E-01 0.386E-01
   0.491E+00 0.506E+00 0.536E+03   -.489E+00 -.497E+00 -.536E+03   -.383E-02 -.113E-01 -.400E-01
   -.559E+00 0.665E+00 0.537E+03   0.559E+00 -.682E+00 -.536E+03   -.261E-03 0.231E-01 -.114E+00
   0.128E+00 0.134E+00 0.152E+04   -.124E+00 -.130E+00 -.153E+04   -.551E-02 -.555E-02 0.358E+01
   -.126E+00 0.119E+00 0.152E+04   0.127E+00 -.117E+00 -.153E+04   -.226E-02 -.191E-02 0.358E+01
   0.101E+02 0.157E+02 -.144E+04   -.101E+02 -.157E+02 0.144E+04   -.381E-01 0.570E-01 -.496E+01
   -.203E+02 0.324E+02 -.140E+04   0.203E+02 -.323E+02 0.140E+04   -.121E-01 -.113E+00 -.474E+01
   0.352E+01 0.368E+01 -.427E+03   -.352E+01 -.368E+01 0.427E+03   0.170E-02 0.162E-02 0.467E+00
   -.232E+01 0.238E+01 -.436E+03   0.232E+01 -.239E+01 0.435E+03   0.173E-03 0.106E-01 0.299E+00
   0.944E+01 0.924E+01 0.118E+02   -.448E-12 -.639E-13 -.330E-11   -.944E+01 -.924E+01 -.117E+02

 POSITION                                       TOTAL-FORCE (eV/Angst)
      4.62723      4.69716     17.22036         0.005259      0.003404     -0.005801
      5.42321      5.47437     16.95899         0.004373      0.003008     -0.002273
      6.26314      6.29457     16.66589         0.000522     -0.000762     -0.002902
      0.00000      6.40959      7.50000        -0.000521      0.000019      0.323382
      2.13653      0.00000      7.50000        -0.000001     -0.000372      0.323930
      0.00000      0.00000      9.63653         0.000498     -0.000249      0.023575
      2.13653      6.40959      9.63653         0.006134      0.003401      0.028504
     -0.00106      6.41027     11.78569         0.000550     -0.000008      0.002969
      2.13675     -0.00030     11.78278        -0.000550     -0.000886      0.003425
      0.00200      0.00148     13.90659        -0.003411     -0.002950      0.001596
      2.13550      6.40940     13.90451        -0.002101     -0.000574      0.001729
      0.00000      2.13653      7.50000        -0.000344     -0.000006      0.323886
      2.13653      4.27306      7.50000        -0.000155      0.000370      0.321568
      0.00000      4.27306      9.63653        -0.009774      0.001151      0.022274
      2.13653      2.13653      9.63653        -0.003011     -0.003599      0.019537
      0.00008      2.13641     11.78284        -0.001286     -0.000013      0.003659
      2.13492      4.27314     11.78166        -0.000168      0.000394      0.002795
      0.00215      4.27325     13.90563        -0.001524      0.001736     -0.000316
      2.13628      2.13574     13.90748        -0.000007      0.000817     -0.000084
      4.27306      6.40959      7.50000         0.000671      0.000019      0.325493
      6.40959      0.00000      7.50000         0.000057     -0.000546      0.323307
      4.27306      0.00000      9.63653         0.001557     -0.010203      0.022069
      6.40959      6.40959      9.63653        -0.002506     -0.003212      0.032747
      4.27600      6.41004     11.78719        -0.001003     -0.000928      0.000963
      6.41070     -0.00139     11.78564        -0.000199      0.000931      0.003026
      4.27386      0.00175     13.90498         0.001049     -0.001139     -0.000398
      6.41771      6.41719     13.93082         0.002018      0.002320     -0.000458
      4.27306      2.13653      7.50000         0.000384     -0.000158      0.321596
      6.40959      4.27306      7.50000         0.000054      0.000662      0.325544
      4.27306      4.27306      9.63653         0.007469      0.006876      0.022257
      6.40959      2.13653      9.63653         0.003990      0.005931      0.028501
      4.27355      2.13465     11.78158         0.000010      0.000121      0.002657
      6.41047      4.27566     11.78719        -0.001402     -0.000653      0.001140
      4.26567      4.26503     13.89416        -0.001660     -0.000983      0.001414
      6.41004      2.13502     13.90468        -0.000955     -0.001318      0.001781
      0.00000      6.40959      9.63653        -0.002430     -0.000659      0.056948
      2.13653      0.00000      9.63653         0.002569      0.001448      0.045666
      0.00000      0.00000      7.50000         0.000275      0.000273     -0.396951
      2.13653      6.40959      7.50000        -0.000474     -0.000675     -0.396849
      0.00519      6.41035     13.94249        -0.000617     -0.001491     -0.001653
      2.13780      0.00067     13.94850         0.000973     -0.001639     -0.004445
      0.00140      0.00098     11.77736        -0.001535     -0.001124     -0.002036
      2.13837      6.40968     11.77734        -0.000389     -0.001230     -0.002778
      0.00000      2.13653      9.63653         0.002155      0.001910      0.045994
      2.13653      4.27306      9.63653        -0.001793     -0.001835      0.050697
      0.00000      4.27306      7.50000         0.001454     -0.000239     -0.396897
      2.13653      2.13653      7.50000         0.000701      0.000662     -0.395861
      0.00124      2.13723     13.94848        -0.002106      0.001230     -0.004380
      2.13588      4.27157     13.94287         0.001191      0.001037     -0.000335
     -0.00086      4.27264     11.77838        -0.000965      0.001256     -0.003467
      2.13663      2.13623     11.77712        -0.000110      0.000226     -0.003815
      4.27306      6.40959      9.63653         0.006628     -0.001316      0.054044
      6.40959      0.00000      9.63653         0.000177     -0.002964      0.057073
      4.27306      0.00000      7.50000        -0.000166      0.001408     -0.396879
      6.40959      6.40959      7.50000         0.000675      0.000697     -0.398321
      4.27102      6.40657     13.95774        -0.000619     -0.001952     -0.001359
      6.41089      0.00480     13.94191        -0.002189     -0.000089     -0.001092
      4.27297     -0.00112     11.77822         0.000947     -0.000748     -0.003533
      6.40940      6.40899     11.78353        -0.000494     -0.000074     -0.004750
      4.27306      2.13653      9.63653        -0.001021     -0.002341      0.050396
      6.40959      4.27306      9.63653        -0.000545      0.005987      0.053792
      4.27306      4.27306      7.50000        -0.001577     -0.001599     -0.396733
      6.40959      2.13653      7.50000        -0.000636     -0.000553     -0.396835
      4.27213      2.13533     13.94316         0.000560      0.001676     -0.000571
      6.40690      4.27073     13.95820        -0.003041     -0.000057     -0.001744
      4.27336      4.27294     11.77748        -0.000058      0.000423     -0.003575
      6.41003      2.13815     11.77738        -0.001555     -0.000255     -0.002842
    total drift:                               -0.000196      0.000207      0.022747

  FREE ENERGIE OF THE ION-ELECTRON SYSTEM (eV)
  free  energy   TOTEN  =      -242.84580882 eV

  energy  without entropy=     -242.84580882  energy(sigma->0) =     -242.84580882

 d Force = 0.5860488E-05[ 0.287E-05, 0.886E-05]  d Energy = 0.7554270E-05-0.169E-05
 d Force =-0.1226292E+01[-0.123E+01,-0.123E+01]  d Ewald  =-0.1226291E+01-0.107E-05

 reached required accuracy - stopping structural energy minimisation