 vasp.6.3.0 20Jan22 (build Apr  1 2022 16:44:48) complex
 executed on        HPECrayEX_GCC date 2022.11.13  15:27:32

 INCAR:
   SYSTEM = MgO-rocksalt
   ISMEAR = 0
   SIGMA = 0.05
   EDIFF = 1E-6
   ALGO = ALL
   ISTART = 0
   IBRION = -1
   NSW = 0
   ISYM = 0
   DIPOL = 0.5 0.5 0.5
   IDIPOL = 3
   LDIPOL = .TRUE.
   LHFCALC = .TRUE.
   GGA = B5
   AEXX = 0.2
   AGGAX = 0.72
   AGGAC = 0.81
   ALDAC = 0.19
   IVDW = 1
   VDW_S6 = 1.05
   VDW_C6 = 1.23 0.70 0.63 0.70
   VDW_R0 = 1.397 1.342 1.243 1.342
   ENCUT = 600
   PREC = Accurate
   LASPH = .TRUE.
   LREAL = .FALSE.
   ISPIN = 2
   MAGMOM = 1.0 0.0 0.0 0.0 0.0 0.0 0.0 0.0 0.0 0.0 0.0 0.0 0.0 0.0 0.0 0.0 0.0 0.0 0.0 0.0 0.0 0.0 0.0 0.0 0.0 0.0 0.0 0.0 0.0 0.0 0.0 0.0 0.0 0.0 0.0 0.0 0.0 0.0 0.0 0.0 0.0 0.0 0.0 0.0 0.0 0.0 0.0 0.0 0.0 0.0 0.0 0.0 0.0 0.0 0.0 0.0 0.0 0.0 0.0 0.0 0.0 0.0 0.0 0.0 0.0 0.0
   NELM = 200
   NELMIN = 8
   NCORE = 8
   KPAR = 1
   LWAVE = .FALSE.
   LCHARG = .FALSE.

 POTCAR:    PAW_PBE N 08Apr2002
 POTCAR:    PAW_PBE O 08Apr2002
 POTCAR:    PAW_PBE Mg_pv 13Apr2007
 POTCAR:    PAW_PBE O 08Apr2002
 POTCAR:    PAW_PBE N 08Apr2002
   VRHFIN =N: s2p3

   TITEL  = PAW_PBE N 08Apr2002
   POMASS =   14.001; ZVAL   =    5.000    mass and valenz
   ENMAX  =  400.000; ENMIN  =  300.000 eV

[...]

   TITEL  = PAW_PBE Mg_pv 13Apr2007
   POMASS =   24.305; ZVAL   =    8.000    mass and valenz
   ENMAX  =  403.929; ENMIN  =  302.947 eV

   TITEL  = PAW_PBE O 08Apr2002
   POMASS =   16.000; ZVAL   =    6.000    mass and valenz
   ENMAX  =  400.000; ENMIN  =  300.000 eV

  PAW_PBE N 08Apr2002                   :
  PAW_PBE O 08Apr2002                   :
  PAW_PBE Mg_pv 13Apr2007               :
  PAW_PBE O 08Apr2002                   :

 POSCAR:  N  O Mg  O
  positions in direct lattice
 exchange correlation table for  LEXCH =       12
   RHO(1)=    0.500       N(1)  =     2000
   RHO(2)=  100.500       N(2)  =     4000

 ion  position               nearest neighbor table
   1  0.625  0.625  0.756-   2 1.18
   2  0.625  0.625  0.811-   1 1.18
   3  0.250  0.000  0.351-  35 2.12  37 2.12  38 2.12  45 2.12  54 2.12
   4  0.500  0.250  0.351-  36 2.12  37 2.12  38 2.12  46 2.12  53 2.12
   5  0.250  0.250  0.450-  37 2.12  36 2.12  35 2.12  43 2.12  52 2.12  41 2.12
   6  0.500  0.000  0.450-  38 2.12  36 2.12  35 2.12  44 2.12  51 2.12  42 2.12
   7  0.250  0.000  0.550-  58 2.12  41 2.12  49 2.12  42 2.12  35 2.13  39 2.15
   8  0.500  0.250  0.550-  50 2.11  41 2.12  57 2.12  42 2.12  36 2.13  40 2.15
   9  0.250  0.250  0.649-  41 2.11  39 2.12  56 2.12  47 2.12  40 2.12
  10  0.500  0.001  0.648-  42 2.10  40 2.11  48 2.11  39 2.12  55 2.12
  11  0.250  0.500  0.351-  43 2.12  37 2.12  45 2.12  46 2.12  62 2.12
  12  0.500  0.750  0.351-  44 2.12  38 2.12  45 2.12  46 2.12  61 2.12
  13  0.250  0.750  0.450-  45 2.12  43 2.12  44 2.12  35 2.12  60 2.12  49 2.12
  14  0.500  0.500  0.450-  46 2.12  43 2.12  44 2.12  36 2.12  59 2.12  50 2.13
  15  0.250  0.500  0.550-  50 2.11  41 2.12  49 2.12  66 2.12  43 2.13  47 2.15
  16  0.500  0.750  0.550-  50 2.11  65 2.11  49 2.12  42 2.12  44 2.13  48 2.13
  17  0.249  0.750  0.648-  49 2.10  64 2.11  48 2.11  39 2.12  47 2.12
  18  0.500  0.500  0.650-  47 2.12  40 2.12  50 2.13  48 2.13  63 2.13
  19  0.750  0.000  0.351-  51 2.12  38 2.12  53 2.12  54 2.12  61 2.12
  20  0.000  0.250  0.351-  52 2.12  37 2.12  53 2.12  54 2.12  62 2.12
  21  0.750  0.250  0.450-  53 2.12  51 2.12  52 2.12  36 2.12  59 2.12  57 2.12
  22  0.000  0.000  0.450-  54 2.12  51 2.12  52 2.12  35 2.12  60 2.12  58 2.12
  23  0.750  1.000  0.550-  65 2.11  58 2.12  42 2.12  57 2.12  51 2.13  55 2.15
  24  0.000  0.250  0.550-  58 2.12  41 2.12  57 2.12  66 2.12  52 2.13  56 2.15
  25  0.750  0.249  0.648-  57 2.10  55 2.11  63 2.11  56 2.12  40 2.12
  26  0.000  0.000  0.649-  58 2.11  39 2.12  56 2.12  55 2.12  64 2.12
  27  0.750  0.500  0.351-  59 2.12  53 2.12  46 2.12  61 2.12  62 2.12
  28  0.000  0.750  0.351-  60 2.12  54 2.12  45 2.12  61 2.12  62 2.12
  29  0.750  0.750  0.450-  61 2.12  51 2.12  59 2.12  60 2.12  44 2.12  65 2.13
  30  0.000  0.500  0.450-  62 2.12  52 2.12  59 2.12  60 2.12  43 2.12  66 2.12
  31  0.750  0.500  0.550-  50 2.11  65 2.11  57 2.12  66 2.12  59 2.13  63 2.13
  32  1.000  0.750  0.550-  65 2.11  58 2.12  66 2.12  49 2.12  60 2.13  64 2.15
  33  0.750  0.750  0.650-  55 2.12  64 2.12  65 2.13  48 2.13  63 2.13
  34  0.001  0.500  0.648-  66 2.10  47 2.11  63 2.11  56 2.12  64 2.12
  35  0.250  0.000  0.450-   3 2.12   5 2.12   6 2.12  13 2.12  22 2.12   7 2.13
  36  0.500  0.250  0.450-   4 2.12   5 2.12   6 2.12  14 2.12  21 2.12   8 2.13
  37  0.250  0.250  0.351-   5 2.12   4 2.12   3 2.12  11 2.12  20 2.12
  38  0.500  0.000  0.351-   6 2.12   4 2.12   3 2.12  12 2.12  19 2.12
  39  0.250  0.000  0.651-  26 2.12   9 2.12  17 2.12  10 2.12   7 2.15
  40  0.500  0.250  0.651-  10 2.11  18 2.12   9 2.12  25 2.12   8 2.15
  41  0.250  0.250  0.550-   9 2.11  24 2.12   7 2.12  15 2.12   8 2.12   5 2.12
  42  0.500  0.000  0.550-  10 2.10   7 2.12  23 2.12   8 2.12  16 2.12   6 2.12
  43  0.250  0.500  0.450-  11 2.12   5 2.12  13 2.12  14 2.12  30 2.12  15 2.13
  44  0.500  0.750  0.450-  12 2.12   6 2.12  13 2.12  14 2.12  29 2.12  16 2.13
  45  0.250  0.750  0.351-  13 2.12  11 2.12  12 2.12   3 2.12  28 2.12
  46  0.500  0.500  0.351-  14 2.12  11 2.12  12 2.12   4 2.12  27 2.12
  47  0.250  0.500  0.651-  34 2.11  18 2.12   9 2.12  17 2.12  15 2.15
  48  0.498  0.752  0.650-  17 2.11  10 2.11  16 2.13  18 2.13  33 2.13
  49  0.250  0.750  0.550-  17 2.10   7 2.12  15 2.12  32 2.12  16 2.12  13 2.12
  50  0.500  0.500  0.550-   8 2.11  15 2.11  16 2.11  31 2.11  14 2.13  18 2.13
  51  0.750  0.000  0.450-  19 2.12   6 2.12  21 2.12  22 2.12  29 2.12  23 2.13
  52  0.000  0.250  0.450-  20 2.12   5 2.12  21 2.12  22 2.12  30 2.12  24 2.13
  53  0.750  0.250  0.351-  21 2.12  19 2.12  20 2.12   4 2.12  27 2.12
  54  0.000  0.000  0.351-  22 2.12  19 2.12  20 2.12   3 2.12  28 2.12
  55  0.750  1.000  0.651-  25 2.11  33 2.12  26 2.12  10 2.12  23 2.15
  56  0.000  0.250  0.651-  26 2.12   9 2.12  25 2.12  34 2.12  24 2.15
  57  0.750  0.250  0.550-  25 2.10  24 2.12   8 2.12  23 2.12  31 2.12  21 2.12
  58  1.000  1.000  0.550-  26 2.11   7 2.12  24 2.12  32 2.12  23 2.12  22 2.12
  59  0.750  0.500  0.450-  27 2.12  21 2.12  14 2.12  29 2.12  30 2.12  31 2.13
  60  0.000  0.750  0.450-  28 2.12  22 2.12  13 2.12  29 2.12  30 2.12  32 2.13
  61  0.750  0.750  0.351-  29 2.12  19 2.12  27 2.12  28 2.12  12 2.12
  62  0.000  0.500  0.351-  30 2.12  20 2.12  27 2.12  28 2.12  11 2.12
  63  0.752  0.498  0.650-  25 2.11  34 2.11  31 2.13  18 2.13  33 2.13
  64  1.000  0.750  0.651-  17 2.11  33 2.12  26 2.12  34 2.12  32 2.15
  65  0.750  0.750  0.550-  23 2.11  32 2.11  31 2.11  16 2.11  29 2.13  33 2.13
  66  0.000  0.500  0.550-  34 2.10  24 2.12  32 2.12  15 2.12  31 2.12  30 2.12

IMPORTANT INFORMATION: All symmetrisations will be switched off!
NOSYMM: (Re-)initialisation of all symmetry stuff for point group C_1.

                                     Primitive cell

  volume of cell :    1530.6606

  direct lattice vectors                    reciprocal lattice vectors
     8.467142631  0.000000000  0.000000000     0.118103597  0.000000000  0.000000000
     0.000000000  8.467142631  0.000000000     0.000000000  0.118103597  0.000000000
     0.000000000  0.000000000 21.350356973     0.000000000  0.000000000  0.046837624

  length of vectors
     8.467142631  8.467142631 21.350356973     0.118103597  0.118103597  0.046837624

  position of ions in fractional coordinates (direct lattice)
     0.624999999  0.624999997  0.756294935
     0.624999998  0.624999990  0.811361018
     0.250000000  0.000000000  0.351282183
     0.500000000  0.250000000  0.351282183
     0.250000000  0.250000000  0.450427394
     0.500000000  0.000000000  0.450427394
     0.249937844  0.000062152  0.550128748
     0.500029213  0.250463329  0.550227208
     0.249978371  0.249978371  0.648557316
     0.499657893  0.000976693  0.648276515
     0.250000000  0.500000000  0.351282183
     0.500000000  0.750000000  0.351282183
     0.250000000  0.750000000  0.450427394
     0.500000000  0.500000000  0.450427394
     0.250463325  0.500029211  0.550227207
     0.500113427  0.749886564  0.549984896
     0.249023307  0.750342106  0.648276541
     0.499941778  0.499941778  0.649861115
     0.750000000  0.000000000  0.351282183
     0.000000000  0.250000000  0.351282183
     0.750000000  0.250000000  0.450427394
     0.000000000  0.000000000  0.450427394
     0.749970793  0.999536681  0.550227223
     0.000062151  0.249937845  0.550128747
     0.750342106  0.249023306  0.648276540
     0.000021631  0.000021630  0.648557307
     0.750000000  0.500000000  0.351282183
     0.000000000  0.750000000  0.351282183
     0.750000000  0.750000000  0.450427394
     0.000000000  0.500000000  0.450427394
     0.749886565  0.500113427  0.549984896
     0.999536682  0.749970793  0.550227222
     0.750058217  0.750058218  0.649861111
     0.000976693  0.499657895  0.648276516
     0.250000000  0.000000000  0.450427394
     0.500000000  0.250000000  0.450427394
     0.250000000  0.250000000  0.351282183
     0.500000000  0.000000000  0.351282183
     0.249771214  0.000228785  0.650770012
     0.500158286  0.250064556  0.650845058
     0.250039319  0.250039320  0.549855041
     0.499931256  0.000240257  0.549738904
     0.250000000  0.500000000  0.450427394
     0.500000000  0.750000000  0.450427394
     0.250000000  0.750000000  0.351282183
     0.500000000  0.500000000  0.351282183
     0.250064556  0.500158284  0.650845058
     0.498164512  0.751835479  0.649835775
     0.249759742  0.750068747  0.549738913
     0.500139030  0.500139030  0.550073341
     0.750000000  0.000000000  0.450427394
     0.000000000  0.250000000  0.450427394
     0.750000000  0.250000000  0.351282183
     0.000000000  0.000000000  0.351282183
     0.749841717  0.999935442  0.650845058
     0.000228784  0.249771214  0.650770012
     0.750068747  0.249759743  0.549738913
     0.999960680  0.999960680  0.549855042
     0.750000000  0.500000000  0.450427394
     0.000000000  0.750000000  0.450427394
     0.750000000  0.750000000  0.351282183
     0.000000000  0.500000000  0.351282183
     0.751835480  0.498164511  0.649835775
     0.999935443  0.749841715  0.650845058
     0.749860971  0.749860970  0.550073347
     0.000240256  0.499931255  0.549738905

  ion indices of the primitive-cell ions
   primitive index   ion index
                 1           1
                 2           2
                 3           3
                 4           4
                 5           5
                 6           6
                 7           7
                 8           8
                 9           9
                10          10
                11          11
                12          12
                13          13
                14          14
                15          15
                16          16
                17          17
                18          18
                19          19
                20          20
[...]
   0.75006875  0.24975974  0.54973891
   0.99996068  0.99996068  0.54985504
   0.75000000  0.50000000  0.45042739
   0.00000000  0.75000000  0.45042739
   0.75000000  0.75000000  0.35128218
   0.00000000  0.50000000  0.35128218
   0.75183548  0.49816451  0.64983578
   0.99993544  0.74984172  0.65084506
   0.74986097  0.74986097  0.55007335
   0.00024026  0.49993125  0.54973890

 position of ions in cartesian coordinates  (Angst):
   5.29196414  5.29196412 16.14716685
   5.29196413  5.29196406 17.32284737
   2.11678566  0.00000000  7.50000000
   4.23357132  2.11678566  7.50000000
   2.11678566  2.11678566  9.61678566
   4.23357132  0.00000000  9.61678566
   2.11625937  0.00052625 11.74544514
   4.23381867  2.12070873 11.74754731
   2.11660252  2.11660252 13.84693021
   4.23067465  0.00826980 13.84093502
   2.11678566  4.23357132  7.50000000
   4.23357132  6.35035697  7.50000000
   2.11678566  6.35035697  9.61678566
   4.23357132  4.23357132  9.61678566
   2.12070869  4.23381865 11.74754729
   4.23453172  6.34939650 11.74237386
   2.10851586  6.35325363 13.84093556
   4.23307834  4.23307834 13.87476680
   6.35035697  0.00000000  7.50000000
   0.00000000  2.11678566  7.50000000
   6.35035697  2.11678566  9.61678566
   0.00000000  0.00000000  9.61678566
   6.35010967  8.46321965 11.74754762
   0.00052625  2.11625938 11.74544514
   6.35325363  2.10851585 13.84093556
   0.00018315  0.00018314 13.84693003
   6.35035697  4.23357132  7.50000000
   0.00000000  6.35035697  7.50000000
   6.35035697  6.35035697  9.61678566
   0.00000000  4.23357132  9.61678566
   6.34939651  4.23453172 11.74237386
   8.46321965  6.35010968 11.74754761
   6.35084990  6.35084991 13.87476670
   0.00826980  4.23067466 13.84093502
   2.11678566  0.00000000  9.61678566
   4.23357132  2.11678566  9.61678566
   2.11678566  2.11678566  7.50000000
   4.23357132  0.00000000  7.50000000
   2.11484849  0.00193715 13.89417207
   4.23491154  2.11733227 13.89577433
   2.11711858  2.11711859 11.73960142
   4.23298925  0.00203429 11.73712185
   2.11678566  4.23357132  9.61678566
   4.23357132  6.35035697  9.61678566
   2.11678566  6.35035697  7.50000000
   4.23357132  4.23357132  7.50000000
   2.11733226  4.23491153 13.89577432
   4.21802997  6.36589824 13.87422578
   2.11475136  6.35093906 11.73712204
   4.23474850  4.23474850 11.74426220
   6.35035697  0.00000000  9.61678566
   0.00000000  2.11678566  9.61678566
   6.35035697  2.11678566  7.50000000
   0.00000000  0.00000000  7.50000000
   6.34901677  8.46659601 13.89577431
   0.00193715  2.11484849 13.89417206
   6.35093906  2.11475137 11.73712203
   8.46680971  8.46680971 11.73960142
   6.35035697  4.23357132  9.61678566
   0.00000000  6.35035697  9.61678566
   6.35035697  6.35035697  7.50000000
   0.00000000  4.23357132  7.50000000
   6.36589824  4.21802997 13.87422577
   8.46659601  6.34901675 13.89577431
   6.34917979  6.34917979 11.74426232
   0.00203428  4.23298924 11.73712186

--------------------------------------- Iteration      FINAL  ---------------------------------------

--------------------OUTCAR has been truncated-------------------------

[...]

--------------------OUTCAR has been truncated-------------------------

  DFT-D2 method for vdW energy calculation

  Parameters of vdW forcefield:
         C6(Jnm^6/mol)     R0(A)
   N        1.230          1.397
   O        0.700          1.342
   Mg       0.630          1.243
   O        0.700          1.342

  vdW correction parametrized for the method        ¼

  IVDW =   1
  VDW_RADIUS =    50.000 A
  VDW_S6 =     1.050
  VDW_SR =     1.000
  VDW_D =    20.000
  LVDW_EWALD = F

  Number of pair interactions contributing to vdW energy:  763767
  Edisp (eV):   -5.12785

 VOLUME and BASIS-vectors are now :
  energy-cutoff  :      600.00
  volume of cell :     1530.66
      direct lattice vectors                 reciprocal lattice vectors
     8.467142631  0.000000000  0.000000000     0.118103597  0.000000000  0.000000000
     0.000000000  8.467142631  0.000000000     0.000000000  0.118103597  0.000000000
     0.000000000  0.000000000 21.350356973     0.000000000  0.000000000  0.046837624

  length of vectors
     8.467142631  8.467142631 21.350356973     0.118103597  0.118103597  0.046837624

 FORCES acting on ions:
    Electron-Ion                     Ewald-Force                    Non-Local-Force
   -.867E-05 -.176E-04 -.110E+04   0.843E-05 0.213E-04 0.106E+04   -.817E-05 -.113E-05 0.406E+02
   -.444E-05 0.142E-04 -.154E+04   0.871E-06 -.122E-04 0.160E+04   -.181E-04 0.711E-05 -.537E+02
   0.177E+00 -.177E+00 0.207E+04   -.179E+00 0.179E+00 -.206E+04   0.147E-02 -.147E-02 -.638E+01
   0.177E+00 0.170E+00 0.207E+04   -.179E+00 -.170E+00 -.206E+04   0.132E-02 -.174E-03 -.639E+01
   0.517E+00 0.517E+00 0.714E+03   -.503E+00 -.503E+00 -.715E+03   -.834E-02 -.835E-02 0.444E+00
   0.502E+00 -.978E+00 0.716E+03   -.493E+00 0.103E+01 -.716E+03   -.542E-02 -.309E-01 0.381E+00
   0.301E+01 -.301E+01 -.632E+03   -.298E+01 0.298E+01 0.632E+03   -.139E-01 0.139E-01 -.164E+00
   0.307E+01 0.370E+01 -.629E+03   -.305E+01 -.363E+01 0.629E+03   -.146E-01 -.658E-01 -.168E+00
   0.915E+01 0.915E+01 -.198E+04   -.927E+01 -.927E+01 0.198E+04   0.100E+00 0.100E+00 0.543E+01
   0.106E+02 -.201E+02 -.197E+04   -.107E+02 0.200E+02 0.196E+04   0.898E-01 0.414E-01 0.550E+01
   0.170E+00 0.177E+00 0.207E+04   -.170E+00 -.179E+00 -.206E+04   -.177E-03 0.131E-02 -.639E+01
   0.168E+00 -.168E+00 0.207E+04   -.169E+00 0.169E+00 -.206E+04   0.584E-03 -.574E-03 -.637E+01
   0.978E+00 -.502E+00 0.716E+03   -.103E+01 0.493E+00 -.716E+03   0.309E-01 0.542E-02 0.381E+00
   0.101E+01 0.101E+01 0.717E+03   -.104E+01 -.104E+01 -.717E+03   0.173E-01 0.173E-01 0.479E+00
   0.370E+01 0.307E+01 -.629E+03   -.363E+01 -.305E+01 0.629E+03   -.658E-01 -.146E-01 -.168E+00
   0.391E+01 -.391E+01 -.615E+03   -.385E+01 0.385E+01 0.615E+03   -.568E-01 0.568E-01 -.402E+00
   0.201E+02 -.106E+02 -.197E+04   -.200E+02 0.107E+02 0.196E+04   -.414E-01 -.897E-01 0.550E+01
   0.321E+02 0.321E+02 -.192E+04   -.325E+02 -.325E+02 0.191E+04   0.382E+00 0.382E+00 0.550E+01
   -.177E+00 -.170E+00 0.207E+04   0.179E+00 0.170E+00 -.206E+04   -.132E-02 0.178E-03 -.639E+01
   -.177E+00 0.177E+00 0.207E+04   0.179E+00 -.179E+00 -.206E+04   -.147E-02 0.147E-02 -.638E+01
   -.502E+00 0.978E+00 0.716E+03   0.493E+00 -.103E+01 -.716E+03   0.540E-02 0.309E-01 0.381E+00
   -.517E+00 -.516E+00 0.714E+03   0.503E+00 0.503E+00 -.715E+03   0.835E-02 0.834E-02 0.444E+00
   -.307E+01 -.370E+01 -.629E+03   0.305E+01 0.363E+01 0.629E+03   0.146E-01 0.658E-01 -.168E+00
   -.301E+01 0.301E+01 -.632E+03   0.298E+01 -.298E+01 0.632E+03   0.139E-01 -.139E-01 -.164E+00
   -.106E+02 0.201E+02 -.197E+04   0.107E+02 -.200E+02 0.196E+04   -.898E-01 -.414E-01 0.550E+01
   -.915E+01 -.915E+01 -.198E+04   0.927E+01 0.927E+01 0.198E+04   -.100E+00 -.100E+00 0.543E+01
   -.168E+00 0.168E+00 0.207E+04   0.169E+00 -.169E+00 -.206E+04   -.588E-03 0.572E-03 -.637E+01
   -.170E+00 -.177E+00 0.207E+04   0.170E+00 0.179E+00 -.206E+04   0.189E-03 -.130E-02 -.639E+01
   -.101E+01 -.101E+01 0.717E+03   0.104E+01 0.104E+01 -.717E+03   -.173E-01 -.173E-01 0.479E+00
   -.978E+00 0.502E+00 0.716E+03   0.103E+01 -.493E+00 -.716E+03   -.309E-01 -.542E-02 0.381E+00
   -.391E+01 0.391E+01 -.615E+03   0.385E+01 -.385E+01 0.615E+03   0.568E-01 -.568E-01 -.402E+00
   -.370E+01 -.307E+01 -.629E+03   0.363E+01 0.305E+01 0.629E+03   0.658E-01 0.146E-01 -.168E+00
   -.321E+02 -.321E+02 -.192E+04   0.325E+02 0.325E+02 0.191E+04   -.382E+00 -.382E+00 0.550E+01
   -.201E+02 0.106E+02 -.197E+04   0.200E+02 -.107E+02 0.196E+04   0.414E-01 0.898E-01 0.550E+01
   0.565E+00 -.565E+00 0.536E+03   -.556E+00 0.556E+00 -.535E+03   -.120E-01 0.120E-01 -.907E-01
   0.571E+00 0.540E+00 0.536E+03   -.566E+00 -.578E+00 -.536E+03   -.629E-02 0.459E-01 -.120E+00
   0.109E+00 0.109E+00 0.155E+04   -.108E+00 -.108E+00 -.156E+04   -.859E-03 -.859E-03 0.313E+01
   0.109E+00 -.153E+00 0.155E+04   -.108E+00 0.157E+00 -.156E+04   -.956E-03 -.443E-02 0.313E+01
   0.734E+01 -.734E+01 -.151E+04   -.729E+01 0.729E+01 0.152E+04   -.605E-01 0.604E-01 -.466E+01
   0.857E+01 0.150E+02 -.150E+04   -.853E+01 -.150E+02 0.150E+04   -.423E-01 -.824E-01 -.456E+01
   0.185E+01 0.185E+01 -.469E+03   -.185E+01 -.185E+01 0.468E+03   0.437E-02 0.437E-02 0.364E+00
   0.185E+01 -.337E+01 -.463E+03   -.184E+01 0.330E+01 0.463E+03   -.760E-02 0.726E-01 0.365E+00
   0.540E+00 0.571E+00 0.536E+03   -.578E+00 -.566E+00 -.536E+03   0.459E-01 -.629E-02 -.120E+00
   0.523E+00 -.523E+00 0.538E+03   -.534E+00 0.534E+00 -.538E+03   0.140E-01 -.140E-01 -.525E-01
   0.153E+00 -.109E+00 0.155E+04   -.157E+00 0.108E+00 -.156E+04   0.444E-02 0.956E-03 0.313E+01
   0.152E+00 0.152E+00 0.155E+04   -.156E+00 -.156E+00 -.156E+04   0.562E-02 0.562E-02 0.314E+01
   0.150E+02 0.857E+01 -.150E+04   -.150E+02 -.853E+01 0.150E+04   -.824E-01 -.423E-01 -.456E+01
   0.241E+02 -.241E+02 -.145E+04   -.239E+02 0.239E+02 0.145E+04   -.125E+00 0.125E+00 -.437E+01
   0.337E+01 -.185E+01 -.463E+03   -.330E+01 0.184E+01 0.463E+03   -.726E-01 0.759E-02 0.365E+00
   0.350E+01 0.350E+01 -.462E+03   -.344E+01 -.344E+01 0.463E+03   -.670E-01 -.670E-01 -.163E-01
   -.571E+00 -.540E+00 0.536E+03   0.566E+00 0.578E+00 -.536E+03   0.629E-02 -.459E-01 -.120E+00
   -.565E+00 0.565E+00 0.536E+03   0.556E+00 -.556E+00 -.535E+03   0.120E-01 -.121E-01 -.907E-01
   -.109E+00 0.153E+00 0.155E+04   0.108E+00 -.157E+00 -.156E+04   0.958E-03 0.444E-02 0.313E+01
   -.109E+00 -.109E+00 0.155E+04   0.108E+00 0.108E+00 -.156E+04   0.857E-03 0.860E-03 0.313E+01
   -.857E+01 -.150E+02 -.150E+04   0.853E+01 0.150E+02 0.150E+04   0.423E-01 0.824E-01 -.456E+01
   -.734E+01 0.734E+01 -.151E+04   0.729E+01 -.729E+01 0.152E+04   0.605E-01 -.604E-01 -.466E+01
   -.185E+01 0.337E+01 -.463E+03   0.184E+01 -.330E+01 0.463E+03   0.759E-02 -.726E-01 0.365E+00
   -.185E+01 -.185E+01 -.469E+03   0.185E+01 0.185E+01 0.468E+03   -.437E-02 -.437E-02 0.364E+00
   -.523E+00 0.523E+00 0.538E+03   0.534E+00 -.534E+00 -.538E+03   -.140E-01 0.140E-01 -.525E-01
   -.540E+00 -.571E+00 0.536E+03   0.578E+00 0.566E+00 -.536E+03   -.459E-01 0.629E-02 -.120E+00
   -.152E+00 -.152E+00 0.155E+04   0.156E+00 0.156E+00 -.156E+04   -.562E-02 -.562E-02 0.314E+01
   -.153E+00 0.109E+00 0.155E+04   0.157E+00 -.108E+00 -.156E+04   -.443E-02 -.957E-03 0.313E+01
   -.241E+02 0.241E+02 -.145E+04   0.239E+02 -.239E+02 0.145E+04   0.125E+00 -.125E+00 -.437E+01
   -.150E+02 -.857E+01 -.150E+04   0.150E+02 0.853E+01 0.150E+04   0.824E-01 0.423E-01 -.456E+01
   -.350E+01 -.350E+01 -.462E+03   0.344E+01 0.344E+01 0.463E+03   0.670E-01 0.670E-01 -.163E-01
   -.337E+01 0.185E+01 -.463E+03   0.330E+01 -.184E+01 0.463E+03   0.726E-01 -.760E-02 0.365E+00
   0.172E-04 -.168E-04 0.343E+02   -.362E-12 0.277E-12 0.330E-11   -.291E-04 0.166E-04 -.286E+02

 POSITION                                       TOTAL-FORCE (eV/Angst)
      5.29196      5.29196     16.14717        -0.000027     -0.000015      1.778628
      5.29196      5.29196     17.32285        -0.000015      0.000020     -1.547064
      2.11679      0.00000      7.50000        -0.000558      0.000567      0.509157
      4.23357      2.11679      7.50000        -0.000520     -0.000087      0.510910
      2.11679      2.11679      9.61679         0.003633      0.003623      0.027785
      4.23357      0.00000      9.61679         0.002362      0.014156      0.035104
      2.11626      0.00053     11.74545         0.007073     -0.007063     -0.019976
      4.23382      2.12071     11.74755         0.009996      0.001710     -0.026892
      2.11660      2.11660     13.84693        -0.009346     -0.009338     -0.085503
      4.23067      0.00827     13.84094        -0.013806     -0.036511     -0.100584
      2.11679      4.23357      7.50000        -0.000088     -0.000530      0.510900
      4.23357      6.35036      7.50000        -0.000354      0.000366      0.506262
      2.11679      6.35036      9.61679        -0.014147     -0.002357      0.035074
      4.23357      4.23357      9.61679        -0.006174     -0.006178      0.031426
      2.12071      4.23382     11.74755         0.001707      0.009998     -0.026892
      4.23453      6.34940     11.74237        -0.002887      0.002881      0.030950
      2.10852      6.35325     13.84094         0.036500      0.013810     -0.100552
      4.23308      4.23308     13.87477         0.000560      0.000558     -0.201984
      6.35036      0.00000      7.50000         0.000519      0.000096      0.510891
      0.00000      2.11679      7.50000         0.000558     -0.000563      0.509197
      6.35036      2.11679      9.61679        -0.002368     -0.014146      0.035067
      0.00000      0.00000      9.61679        -0.003625     -0.003634      0.027819
      6.35011      8.46322     11.74755        -0.009992     -0.001696     -0.026925
      0.00053      2.11626     11.74545        -0.007064      0.007069     -0.019978
      6.35325      2.10852     13.84094         0.013799      0.036492     -0.100536
      0.00018      0.00018     13.84693         0.009351      0.009346     -0.085437
      6.35036      4.23357      7.50000         0.000358     -0.000371      0.506261
      0.00000      6.35036      7.50000         0.000099      0.000528      0.510926
      6.35036      6.35036      9.61679         0.006179      0.006179      0.031388
      0.00000      4.23357      9.61679         0.014146      0.002359      0.035105
      6.34940      4.23453     11.74237         0.002876     -0.002889      0.030947
      8.46322      6.35011     11.74755        -0.001691     -0.009984     -0.026928
      6.35085      6.35085     13.87477        -0.000578     -0.000568     -0.202002
      0.00827      4.23067     13.84094        -0.036511     -0.013816     -0.100592
      2.11679      0.00000      9.61679        -0.004092      0.004094      0.048403
      4.23357      2.11679      9.61679        -0.002166      0.014181      0.048793
      2.11679      2.11679      7.50000        -0.000305     -0.000312     -0.395205
      4.23357      0.00000      7.50000        -0.000322     -0.001467     -0.394098
      2.11485      0.00194     13.89417        -0.011574      0.011568     -0.122497
      4.23491      2.11733     13.89577        -0.007274      0.006261     -0.100580
      2.11712      2.11712     11.73960         0.001977      0.001978      0.024267
      4.23299      0.00203     11.73712         0.000536      0.020284      0.015394
      2.11679      4.23357      9.61679         0.014190     -0.002173      0.048802
      4.23357      6.35036      9.61679         0.004352     -0.004349      0.048417
      2.11679      6.35036      7.50000         0.001469      0.000326     -0.394079
      4.23357      4.23357      7.50000         0.001906      0.001895     -0.393388
      2.11733      4.23491     13.89577         0.006258     -0.007271     -0.100576
      4.21803      6.36590     13.87423         0.006716     -0.006720     -0.103943
      2.11475      6.35094     11.73712        -0.020294     -0.000536      0.015401
      4.23475      4.23475     11.74426        -0.014637     -0.014632      0.003907
      6.35036      0.00000      9.61679         0.002175     -0.014179      0.048797
      0.00000      2.11679      9.61679         0.004090     -0.004100      0.048402
      6.35036      2.11679      7.50000         0.000326      0.001474     -0.394044
      0.00000      0.00000      7.50000         0.000309      0.000318     -0.395231
      6.34902      8.46660     13.89577         0.007285     -0.006259     -0.100577
      0.00194      2.11485     13.89417         0.011570     -0.011571     -0.122497
      6.35094      2.11475     11.73712        -0.000532     -0.020298      0.015395
      8.46681      8.46681     11.73960        -0.001978     -0.001982      0.024231
      6.35036      4.23357      9.61679        -0.004348      0.004344      0.048405
      0.00000      6.35036      9.61679        -0.014185      0.002175      0.048801
      6.35036      6.35036      7.50000        -0.001903     -0.001907     -0.393330
      0.00000      4.23357      7.50000        -0.001476     -0.000331     -0.394117
      6.36590      4.21803     13.87423        -0.006711      0.006724     -0.103937
      8.46660      6.34902     13.89577        -0.006254      0.007289     -0.100573
      6.34918      6.34918     11.74426         0.014631      0.014629      0.003904
      0.00203      4.23299     11.73712         0.020293      0.000534      0.015398
    total drift:                               -0.000045     -0.000033      0.014738

  FREE ENERGIE OF THE ION-ELECTRON SYSTEM (eV)
  free  energy   TOTEN  =      -454.18067141 eV

  energy  without entropy=     -454.18067141  energy(sigma->0) =     -454.18067141