 vasp.6.4.2 20Jul23 (build Feb 22 2024 13:53:45) complex
 executed on              LinuxNV date 2024.08.29  00:34:31
 OpenACC runtime initialized ...    4 GPUs detected

 INCAR:
   SYSTEM = Oxide-Surface
   ISMEAR = 0
   SIGMA = 0.05
   EDIFF = 1E-5
   ALGO = Normal
   IBRION = -1
   NSW = 0
   ISYM = 0
   DIPOL = 0.5 0.5 0.5
   IDIPOL = 3
   LDIPOL = .TRUE.
   ISTART = 1
   LHFCALC = .TRUE.
   HFSCREEN = 0.2
   GGA = PE
   HFRCUT = -1
   ENCUT = 520
   PREC = Normal
   PRECFOCK = Normal
   LASPH = .TRUE.
   LREAL = Auto
   ISPIN = 1
   NELM = 200
   NELMIN = 8
   NCORE = 1
   KPAR = 1
   LWAVE = .FALSE.
   LCHARG = .FALSE.

 POTCAR:    PAW_PBE N 08Apr2002
 POTCAR:    PAW_PBE H 15Jun2001
 POTCAR:    PAW_PBE Ti_pv 07Sep2000
 POTCAR:    PAW_PBE O 08Apr2002
 POTCAR:    PAW_PBE N 08Apr2002
   VRHFIN =N: s2p3

   TITEL  = PAW_PBE N 08Apr2002
   POMASS =   14.001; ZVAL   =    5.000    mass and valenz
   ENMAX  =  400.000; ENMIN  =  300.000 eV

   TITEL  = PAW_PBE H 15Jun2001
   POMASS =    1.000; ZVAL   =    1.000    mass and valenz
   ENMAX  =  250.000; ENMIN  =  200.000 eV

   TITEL  = PAW_PBE Ti_pv 07Sep2000
   POMASS =   47.880; ZVAL   =   10.000    mass and valenz
   ENMAX  =  222.335; ENMIN  =  166.751 eV

   TITEL  = PAW_PBE O 08Apr2002
   POMASS =   16.000; ZVAL   =    6.000    mass and valenz
   ENMAX  =  400.000; ENMIN  =  300.000 eV

 Optimization of the real space projectors (new method)

 maximal supplied QI-value         = 25.13
 optimisation between [QCUT,QGAM] = [ 11.56, 23.12] = [ 37.43,149.72] Ry
 Optimized for a Real-space Cutoff    1.25 Angstroem

   l    n(q)    QCUT    max X(q) W(low)/X(q) W(high)/X(q)  e(spline)
   0      9    11.561    79.467    0.52E-04    0.16E-03    0.37E-06
   0      9    11.561    66.151    0.51E-04    0.16E-03    0.37E-06
   1      8    11.561    18.886    0.46E-03    0.28E-03    0.80E-06
   1      8    11.561    13.488    0.47E-03    0.29E-03    0.82E-06
 Optimization of the real space projectors (new method)

[...]

   l    n(q)    QCUT    max X(q) W(low)/X(q) W(high)/X(q)  e(spline)
   1     10    11.641     4.216    0.33E-04    0.72E-04    0.48E-07
   1     10    11.641     5.422    0.11E-03    0.20E-03    0.10E-06
   2      9    11.641    72.084    0.36E-03    0.27E-03    0.57E-06
   2      9    11.641    65.965    0.35E-03    0.27E-03    0.57E-06
   0     10    11.641    41.531    0.11E-03    0.93E-04    0.16E-06
   0     10    11.641    16.290    0.82E-04    0.72E-04    0.13E-06
 Optimization of the real space projectors (new method)

 maximal supplied QI-value         = 24.76
 optimisation between [QCUT,QGAM] = [ 11.64, 23.27] = [ 37.91,151.63] Ry
 Optimized for a Real-space Cutoff    1.04 Angstroem

   l    n(q)    QCUT    max X(q) W(low)/X(q) W(high)/X(q)  e(spline)
   0      7    11.635    20.381    0.14E-03    0.49E-03    0.18E-06
   0      7    11.635    15.268    0.16E-03    0.52E-03    0.19E-06
   1      7    11.635     5.964    0.30E-03    0.44E-03    0.22E-06
   1      7    11.635     5.382    0.27E-03    0.34E-03    0.19E-06
  PAW_PBE N 08Apr2002                   :
  PAW_PBE H 15Jun2001                   :
  PAW_PBE Ti_pv 07Sep2000               :
  PAW_PBE O 08Apr2002                   :

 POSCAR:  N  H Ti  O
  positions in direct lattice
 exchange correlation table for  LEXCH =        8
   RHO(1)=    0.500       N(1)  =     2000
   RHO(2)=  100.500       N(2)  =     4000

 ion  position               nearest neighbor table
   1  0.617  0.500  0.769-   2 1.02   4 1.02   3 1.02  52 2.30
   2  0.554  0.500  0.800-   1 1.02
   3  0.676  0.428  0.772-   1 1.02
   4  0.676  0.572  0.772-   1 1.02
   5  0.813  0.833  0.229-  89 1.94  55 1.94  57 1.94  56 1.99  54 1.99  22 3.05   8 3.05   6 3.05

   6  0.597  0.667  0.264- 120 1.94  53 1.94  58 1.94  56 1.94  57 1.99  59 1.99  37 3.05   7 3.05
                             5 3.05  11 3.08
   7  0.313  0.667  0.229- 125 1.94  59 1.94  61 1.94  60 1.99  53 1.99  40 3.05   6 3.05   8 3.05

   8  0.097  0.833  0.264-  54 1.94  92 1.94  62 1.94  60 1.94  61 1.99  55 1.99  23 3.05   5 3.05
                             7 3.05   9 3.08
   9  0.950  0.833  0.372-  63 1.92  97 1.93  65 1.93  55 1.98  64 1.98  62 2.00  12 3.00  10 3.05
                            26 3.05   8 3.08
  10  0.732  0.666  0.404-  58 1.89 128 1.93  64 1.94  66 1.96  67 1.99  65 2.00  11 3.01   9 3.05
                            41 3.05  15 3.11
  11  0.450  0.666  0.371-  67 1.93 133 1.93  69 1.94  59 1.97  68 1.98  58 2.01  10 3.01  12 3.05
                            44 3.05   6 3.08
  12  0.231  0.833  0.404-  62 1.89 100 1.94  68 1.94  70 1.97  63 1.98  69 2.01   9 3.00  27 3.05
                            11 3.05  13 3.11
  13  0.091  0.833  0.514-  71 1.92 105 1.93  73 1.93  72 1.97  63 2.00  70 2.01  16 2.95  14 3.04
                            30 3.05  12 3.11
  14  0.870  0.666  0.542-  66 1.86 136 1.93  72 1.95  75 1.95  73 2.01  74 2.01  15 2.97  13 3.04
                            45 3.06  19 3.17
  15  0.590  0.666  0.513- 141 1.93  77 1.93  75 1.93  76 1.98  67 1.98  66 2.01  14 2.97  16 3.05
                            48 3.06  10 3.11
  16  0.369  0.833  0.543-  70 1.86 108 1.94  76 1.94  71 1.95  78 2.00  77 2.02  13 2.95  15 3.05
                            31 3.05
  17  0.237  0.833  0.659-  79 1.86  81 1.93 113 1.94  80 2.00  71 2.09  78 2.10  20 2.85  34 3.07
                            18 3.08
  18  0.006  0.666  0.682-  74 1.78  82 1.84 144 1.97  80 1.99  81 2.07  19 2.86  17 3.08  49 3.10

[...]

  21  0.813  0.167  0.229-  89 1.94  87 1.94 121 1.94  88 1.99  86 1.99  22 3.05  24 3.05  38 3.05

[...]

  37  0.813  0.500  0.229-  57 1.94 119 1.94 121 1.94 120 1.99 118 1.99   6 3.05  40 3.05  38 3.05

  38  0.597  0.333  0.264- 117 1.94 122 1.94 120 1.94  88 1.94 121 1.99 123 1.99  39 3.05  37 3.05
                            21 3.05  43 3.08
  39  0.313  0.333  0.229- 123 1.94  93 1.94 125 1.94 124 1.99 117 1.99  38 3.05  40 3.05  24 3.05

  40  0.097  0.500  0.264-  60 1.94 118 1.94 126 1.94 124 1.94 125 1.99 119 1.99   7 3.05  37 3.05
                            39 3.05  41 3.07
  41  0.952  0.500  0.371- 127 1.92  65 1.94 129 1.94 119 1.97 126 1.99 128 2.00  44 2.99  10 3.05
                            42 3.05  40 3.07
  42  0.732  0.334  0.404- 122 1.89 128 1.93  96 1.94 130 1.96 131 1.99 129 2.00  43 3.01  25 3.05
                            41 3.05  47 3.11
  43  0.450  0.334  0.371- 131 1.93 133 1.93 101 1.94 123 1.97 132 1.98 122 2.01  42 3.01  28 3.05
                            44 3.05  38 3.08
  44  0.231  0.500  0.405- 126 1.92  68 1.94 132 1.94 127 1.96 134 1.97 133 2.01  41 2.99  11 3.05
                            43 3.05  45 3.08
  45  0.094  0.500  0.514- 135 1.91 137 1.93  73 1.93 134 1.98 136 2.00 127 2.01  48 2.96  14 3.06
                            46 3.06  44 3.08
  46  0.870  0.334  0.542- 130 1.86 136 1.93 104 1.95 139 1.95 137 2.01 138 2.01  47 2.97  29 3.04
                            45 3.06  51 3.17
  47  0.590  0.334  0.513- 141 1.93 109 1.93 139 1.93 140 1.98 131 1.98 130 2.01  46 2.97  32 3.05
                            48 3.06  42 3.11
  48  0.371  0.500  0.547- 134 1.92  76 1.94 140 1.94 135 1.94 142 1.98 141 2.03  45 2.96  15 3.06
                            47 3.06  49 3.13
  49  0.240  0.500  0.660- 143 1.86 145 1.93  81 1.93 142 2.03 144 2.03 135 2.10  52 2.87  18 3.10
                            50 3.10  48 3.13
  50  0.006  0.334  0.682- 138 1.78 146 1.84 144 1.97 112 1.99 145 2.07  51 2.86  33 3.08  49 3.10

  51  0.735  0.333  0.657- 146 1.89 148 1.93 116 1.94 147 1.99 139 2.04 138 2.10  50 2.86  36 3.08
                            52 3.08  46 3.17
  52  0.512  0.500  0.688- 143 1.84 142 1.88  83 1.98 147 1.98 148 2.07   1 2.30  49 2.87  19 3.08
                            51 3.08
  53  0.494  0.667  0.200-   6 1.94   7 1.99
  54  0.994  0.833  0.200-   8 1.94   5 1.99
  55  0.917  0.833  0.294-   5 1.94   9 1.98   8 1.99
  56  0.633  0.833  0.258-  22 1.94   6 1.94   5 1.99
  57  0.778  0.667  0.235-  37 1.94   5 1.94   6 1.99
  58  0.630  0.667  0.340-  10 1.89   6 1.94  11 2.01
  59  0.417  0.667  0.294-   7 1.94  11 1.97   6 1.99
  60  0.133  0.667  0.258-  40 1.94   8 1.94   7 1.99
  61  0.278  0.833  0.235-  23 1.94   7 1.94   8 1.99
  62  0.130  0.833  0.340-  12 1.89   8 1.94   9 2.00
  63  0.054  0.833  0.435-   9 1.92  12 1.98  13 2.00
  64  0.769  0.833  0.399-  26 1.94  10 1.94   9 1.98
  65  0.914  0.667  0.376-   9 1.93  41 1.94  10 2.00
  66  0.769  0.666  0.481-  14 1.86  10 1.96  15 2.01
  67  0.554  0.666  0.435-  11 1.93  15 1.98  10 1.99
  68  0.269  0.667  0.400-  44 1.94  12 1.94  11 1.98
  69  0.414  0.833  0.376-  27 1.93  11 1.94  12 2.01
  70  0.269  0.833  0.481-  16 1.86  12 1.97  13 2.01
  71  0.198  0.833  0.577-  13 1.92  16 1.95  17 2.09
  72  0.909  0.833  0.540-  30 1.94  14 1.95  13 1.97
  73  0.056  0.667  0.517-  13 1.93  45 1.93  14 2.01
  74  0.919  0.667  0.620-  18 1.78  14 2.01  19 2.10
  75  0.699  0.668  0.576-  15 1.93  14 1.95  19 2.04
  76  0.409  0.667  0.541-  48 1.94  16 1.94  15 1.98
  77  0.555  0.833  0.517-  15 1.93  31 1.93  16 2.02
  78  0.418  0.836  0.621-  20 1.78  16 2.00  17 2.10
  79  0.352  0.833  0.717-  20 1.84  17 1.86
  80  0.058  0.833  0.691-  34 1.98  18 1.99  17 2.00
  81  0.200  0.666  0.660-  17 1.93  49 1.93  18 2.07
  82  0.848  0.664  0.716-  18 1.84  19 1.89
  83  0.558  0.669  0.689-  20 1.96  52 1.98  19 1.99
  84  0.701  0.834  0.658-  35 1.93  19 1.94  20 2.06
  85  0.494  0.000  0.200-  22 1.94  23 1.99
  86  0.994  0.167  0.200-  24 1.94  21 1.99
  87  0.917  0.167  0.294-  21 1.94  25 1.98  24 1.99
  88  0.633  0.167  0.258-  22 1.94  38 1.94  21 1.99
  89  0.778  0.000  0.235-   5 1.94  21 1.94  22 1.99
  90  0.630  0.000  0.340-  26 1.89  22 1.94  27 2.01
  91  0.417  0.000  0.294-  23 1.94  27 1.98  22 1.99
  92  0.133  0.000  0.258-   8 1.94  24 1.94  23 1.99
  93  0.278  0.167  0.235-  23 1.94  39 1.94  24 1.99
  94  0.130  0.167  0.340-  28 1.89  24 1.94  25 2.00
  95  0.054  0.167  0.435-  25 1.92  28 1.98  29 2.00
  96  0.769  0.167  0.399-  26 1.94  42 1.94  25 1.98
  97  0.914  0.000  0.376-  25 1.93   9 1.93  26 2.00
  98  0.769  0.000  0.481-  30 1.86  26 1.97  31 2.01
  99  0.554  1.000  0.435-  27 1.92  26 1.98  31 2.00
 100  0.269  0.000  0.400-  12 1.94  28 1.94  27 1.99
 101  0.414  0.167  0.376-  27 1.93  43 1.94  28 2.01
 102  0.269  0.167  0.481-  32 1.86  28 1.97  29 2.01
 103  0.198  0.167  0.577-  29 1.92  32 1.95  33 2.09
 104  0.909  0.167  0.540-  30 1.94  46 1.95  29 1.97
 105  0.056  0.000  0.517-  13 1.93  29 1.93  30 2.03
 106  0.919  0.000  0.621-  34 1.78  30 2.01  35 2.08
 107  0.698  1.000  0.577-  31 1.92  30 1.94  35 2.10
 108  0.408  0.000  0.540-  32 1.94  16 1.94  31 1.98
 109  0.555  0.167  0.517-  47 1.93  31 1.93  32 2.02
 110  0.418  0.164  0.621-  36 1.78  32 2.00  33 2.10
 111  0.352  0.167  0.717-  36 1.84  33 1.86
 112  0.058  0.167  0.691-  34 1.98  50 1.99  33 2.00
[...]
 134  0.270  0.500  0.482-  48 1.92  44 1.97  45 1.98
 135  0.197  0.500  0.578-  45 1.91  48 1.94  49 2.10
 136  0.909  0.500  0.540-  46 1.93  14 1.93  45 2.00
 137  0.056  0.333  0.517-  29 1.93  45 1.93  46 2.01
[...]
   0.429E+02 -.268E-06 -.313E+03   -.475E+02 0.263E-06 0.319E+03   0.462E+01 0.674E-07 -.541E+01   0.134E-03 -.163E-07 -.607E-02
   -.421E+02 0.550E+02 -.301E+03   0.463E+02 -.607E+02 0.302E+03   -.426E+01 0.574E+01 -.371E+00   -.547E-04 0.124E-03 -.582E-02
   -.421E+02 -.550E+02 -.301E+03   0.463E+02 0.607E+02 0.302E+03   -.426E+01 -.574E+01 -.371E+00   -.547E-04 -.124E-03 -.582E-02
   0.699E+01 -.206E+00 0.297E+04   -.152E+01 0.207E+00 -.297E+04   -.131E+01 -.174E-02 -.372E+01   -.164E-04 -.408E-04 0.466E-01
   0.456E+01 -.217E+00 0.243E+04   -.641E+01 0.219E+00 -.243E+04   0.260E-01 0.636E-02 0.522E-01   0.353E-05 -.255E-04 0.455E-01
   0.711E+01 -.208E-01 0.297E+04   -.168E+01 0.159E-01 -.297E+04   -.131E+01 0.273E-02 -.372E+01   0.157E-04 -.422E-04 0.465E-01
   0.327E+01 -.428E-01 0.243E+04   -.515E+01 0.350E-01 -.243E+04   0.342E-01 -.549E-02 0.493E-01   -.142E-04 -.218E-04 0.456E-01
   -.739E+00 0.331E-01 0.111E+04   0.546E+00 -.293E-01 -.111E+04   0.157E+00 -.797E-02 -.445E-01   -.703E-04 0.498E-05 0.349E-01
   0.311E+00 -.141E+01 0.701E+03   -.284E+00 0.139E+01 -.701E+03   0.892E-02 0.162E-01 -.780E-01   0.438E-04 0.147E-04 0.294E-01
   0.857E+00 -.382E+00 0.111E+04   -.104E+01 0.367E+00 -.111E+04   0.153E+00 0.140E-01 -.460E-01   -.712E-04 0.763E-05 0.348E-01
   -.529E+01 0.155E+00 0.695E+03   0.529E+01 -.158E+00 -.694E+03   0.432E-01 0.106E-01 -.807E-01   0.129E-04 0.128E-04 0.294E-01
   -.511E+01 -.236E+01 -.688E+03   0.480E+01 0.235E+01 0.688E+03   0.289E+00 -.464E-02 0.621E-01   -.877E-04 0.211E-04 0.627E-02
   -.114E+02 -.496E+01 -.103E+04   0.115E+02 0.496E+01 0.103E+04   0.196E-01 0.116E-01 -.125E+00   -.499E-05 0.207E-04 -.833E-03
   0.114E+01 -.167E+01 -.665E+03   -.142E+01 0.167E+01 0.665E+03   0.260E+00 0.839E-03 0.479E-01   -.752E-04 0.357E-04 0.643E-02
   -.226E+01 -.855E+00 -.105E+04   0.234E+01 0.874E+00 0.105E+04   0.924E-02 -.203E-01 -.170E+00   -.689E-04 0.249E-04 -.108E-02
   0.280E+02 -.109E+02 -.244E+04   -.288E+02 0.109E+02 0.244E+04   0.849E+00 0.207E-01 -.309E+00   0.566E-04 -.917E-04 -.314E-01
   -.876E+02 -.215E+02 -.280E+04   0.872E+02 0.213E+02 0.279E+04   0.409E+00 0.160E+00 0.103E+01   -.306E-03 -.176E-03 -.371E-01
   -.101E+02 -.399E+02 -.237E+04   0.935E+01 0.399E+02 0.237E+04   0.825E+00 -.215E-02 -.161E+00   0.614E-04 -.112E-04 -.302E-01
   -.613E+02 -.339E+02 -.279E+04   0.609E+02 0.339E+02 0.279E+04   0.450E+00 0.648E-01 0.105E+01   -.115E-03 -.152E-03 -.371E-01
   0.699E+01 0.206E+00 0.297E+04   -.152E+01 -.207E+00 -.297E+04   -.131E+01 0.174E-02 -.372E+01   -.164E-04 0.413E-04 0.466E-01
   0.452E+01 -.565E-05 0.243E+04   -.639E+01 0.561E-05 -.243E+04   0.325E-01 -.560E-07 0.429E-01   0.437E-05 0.276E-06 0.456E-01
   0.701E+01 -.262E-05 0.297E+04   -.156E+01 0.308E-05 -.297E+04   -.131E+01 0.374E-07 -.372E+01   0.128E-04 -.320E-06 0.466E-01
   0.327E+01 0.428E-01 0.243E+04   -.515E+01 -.349E-01 -.243E+04   0.342E-01 0.549E-02 0.493E-01   -.151E-04 0.221E-04 0.456E-01
   -.739E+00 -.331E-01 0.111E+04   0.546E+00 0.293E-01 -.111E+04   0.157E+00 0.797E-02 -.445E-01   -.701E-04 -.521E-05 0.349E-01
   -.199E+01 -.372E-04 0.698E+03   0.198E+01 0.388E-04 -.698E+03   0.403E-01 0.691E-08 -.690E-01   0.355E-04 -.319E-06 0.295E-01
   0.942E+00 -.221E-04 0.111E+04   -.112E+01 0.210E-04 -.111E+04   0.147E+00 0.347E-06 -.511E-01   -.624E-04 0.354E-06 0.349E-01
   -.529E+01 -.155E+00 0.695E+03   0.529E+01 0.158E+00 -.694E+03   0.432E-01 -.106E-01 -.807E-01   0.130E-04 -.123E-04 0.294E-01
   -.511E+01 0.236E+01 -.688E+03   0.480E+01 -.235E+01 0.688E+03   0.289E+00 0.464E-02 0.621E-01   -.886E-04 -.202E-04 0.627E-02
   -.111E+02 -.270E-04 -.105E+04   0.112E+02 0.277E-04 0.105E+04   0.562E-01 0.721E-06 -.118E+00   -.571E-04 0.145E-06 -.995E-03
   -.294E+01 -.630E-04 -.680E+03   0.261E+01 0.642E-04 0.680E+03   0.309E+00 -.159E-06 0.109E+00   -.600E-04 0.493E-06 0.637E-02
   -.226E+01 0.855E+00 -.105E+04   0.234E+01 -.874E+00 0.105E+04   0.924E-02 0.203E-01 -.170E+00   -.680E-04 -.245E-04 -.108E-02
   0.280E+02 0.109E+02 -.244E+04   -.288E+02 -.109E+02 0.244E+04   0.849E+00 -.207E-01 -.309E+00   0.556E-04 0.926E-04 -.314E-01
   -.758E+02 -.101E-04 -.281E+04   0.755E+02 0.121E-04 0.281E+04   0.382E+00 0.342E-06 0.104E+01   -.263E-03 -.370E-06 -.375E-01
   0.119E+02 -.186E-04 -.244E+04   -.127E+02 0.212E-04 0.244E+04   0.792E+00 -.391E-06 -.269E+00   0.120E-04 -.447E-06 -.312E-01
   -.613E+02 0.339E+02 -.279E+04   0.609E+02 -.339E+02 0.279E+04   0.450E+00 -.648E-01 0.105E+01   -.115E-03 0.151E-03 -.371E-01
   0.700E+01 0.747E-05 0.297E+04   -.153E+01 -.747E-05 -.297E+04   -.132E+01 0.330E-07 -.372E+01   -.246E-04 -.288E-06 0.465E-01
   0.456E+01 0.217E+00 0.243E+04   -.641E+01 -.219E+00 -.243E+04   0.260E-01 -.636E-02 0.522E-01   0.437E-05 0.265E-04 0.455E-01
   0.711E+01 0.208E-01 0.297E+04   -.168E+01 -.159E-01 -.297E+04   -.131E+01 -.273E-02 -.372E+01   0.164E-04 0.422E-04 0.465E-01
   0.233E+01 0.109E-04 0.243E+04   -.417E+01 -.110E-04 -.243E+04   0.203E-01 0.138E-07 0.421E-01   -.491E-05 0.554E-07 0.455E-01
   0.206E+01 0.412E-04 0.111E+04   -.222E+01 -.434E-04 -.111E+04   0.950E-01 0.699E-06 0.204E-03   -.706E-04 0.381E-06 0.349E-01
   0.311E+00 0.141E+01 0.701E+03   -.284E+00 -.139E+01 -.701E+03   0.893E-02 -.162E-01 -.780E-01   0.437E-04 -.145E-04 0.294E-01
   0.857E+00 0.382E+00 0.111E+04   -.104E+01 -.367E+00 -.111E+04   0.153E+00 -.140E-01 -.460E-01   -.709E-04 -.801E-05 0.348E-01
   -.897E+01 0.332E-04 0.680E+03   0.897E+01 -.342E-04 -.680E+03   0.497E-01 0.361E-06 -.194E-01   0.115E-04 0.183E-06 0.292E-01
   -.546E+00 0.197E-04 -.689E+03   0.343E+00 -.217E-04 0.689E+03   0.141E+00 0.109E-05 0.783E-01   -.957E-04 -.633E-06 0.621E-02
   -.114E+02 0.496E+01 -.103E+04   0.115E+02 -.496E+01 0.103E+04   0.196E-01 -.116E-01 -.125E+00   -.487E-05 -.197E-04 -.835E-03
   0.114E+01 0.167E+01 -.665E+03   -.142E+01 -.167E+01 0.665E+03   0.260E+00 -.839E-03 0.479E-01   -.745E-04 -.359E-04 0.643E-02
   -.256E+01 0.411E-04 -.109E+04   0.263E+01 -.453E-04 0.109E+04   0.333E-02 0.117E-05 -.120E+00   -.104E-03 0.481E-06 -.202E-02
   0.482E+02 -.199E-04 -.244E+04   -.487E+02 0.189E-04 0.244E+04   0.483E+00 0.101E-05 -.188E+00   -.103E-04 -.135E-05 -.314E-01
   -.876E+02 0.215E+02 -.280E+04   0.872E+02 -.213E+02 0.279E+04   0.409E+00 -.160E+00 0.103E+01   -.302E-03 0.175E-03 -.371E-01
   -.101E+02 0.399E+02 -.237E+04   0.935E+01 -.399E+02 0.237E+04   0.825E+00 0.215E-02 -.161E+00   0.603E-04 0.128E-04 -.302E-01
   0.110E+02 0.164E-04 -.273E+04   -.107E+02 -.164E-04 0.273E+04   -.174E+00 -.124E-06 -.832E-01   -.407E-03 -.440E-06 -.387E-01
   -.316E+02 -.176E+00 0.201E+04   0.369E+02 0.177E+00 -.202E+04   -.641E+01 0.459E-02 0.167E+02   -.791E-05 -.396E-04 0.280E-01
   -.320E+02 -.165E+00 0.201E+04   0.373E+02 0.165E+00 -.202E+04   -.641E+01 -.551E-02 0.167E+02   -.482E-04 -.365E-04 0.281E-01
   0.811E+02 -.117E-01 0.121E+04   -.860E+02 0.110E-01 -.120E+04   0.361E+01 -.699E-02 -.413E+01   -.418E-04 -.729E-05 0.264E-01
   0.744E+02 -.757E-01 0.148E+04   -.819E+02 0.775E-01 -.147E+04   0.711E+01 -.136E-01 -.253E+01   0.429E-05 -.129E-04 0.277E-01
   -.859E+02 -.135E+00 0.171E+04   0.935E+02 0.134E+00 -.171E+04   -.657E+01 0.749E-02 -.247E+00   0.313E-04 -.263E-04 0.281E-01
   -.687E+02 -.761E+00 0.934E+03   0.745E+02 0.817E+00 -.938E+03   -.533E+01 -.518E-01 0.416E+01   0.332E-04 0.124E-05 0.236E-01
   0.818E+02 0.493E-01 0.121E+04   -.867E+02 -.314E-01 -.120E+04   0.360E+01 -.103E-01 -.401E+01   -.346E-04 -.773E-05 0.264E-01
   0.735E+02 0.282E-01 0.148E+04   -.810E+02 -.387E-01 -.147E+04   0.713E+01 0.308E-01 -.255E+01   -.353E-05 -.268E-04 0.277E-01
[...]
   0.867E+02 0.157E-04 -.958E+03   -.939E+02 -.169E-04 0.966E+03   0.648E+01 0.155E-05 -.740E+01   -.618E-04 0.316E-07 -.594E-02
   0.699E+02 -.803E-05 -.633E+03   -.761E+02 0.100E-04 0.637E+03   0.561E+01 0.143E-06 -.289E+01   0.243E-04 -.384E-06 -.169E-04
   -.808E+02 0.698E+00 -.399E+03   0.874E+02 -.712E+00 0.396E+03   -.598E+01 0.181E-01 0.269E+01   0.721E-05 -.705E-05 0.339E-02
   -.662E+02 0.981E+01 -.112E+04   0.686E+02 -.101E+02 0.110E+04   -.226E+01 0.294E+00 0.932E+01   0.377E-04 0.140E-04 -.124E-01
   0.805E+02 0.870E+01 -.927E+03   -.871E+02 -.898E+01 0.933E+03   0.601E+01 0.249E+00 -.571E+01   -.156E-04 -.302E-04 -.565E-02
   0.794E+02 0.958E+00 -.647E+03   -.861E+02 -.993E+00 0.651E+03   0.606E+01 0.251E-01 -.315E+01   -.235E-04 -.179E-04 -.242E-03
   -.726E+02 -.177E-04 -.402E+03   0.789E+02 0.184E-04 0.400E+03   -.567E+01 0.173E-05 0.232E+01   -.231E-05 0.233E-06 0.323E-02
   -.613E+02 -.103E-04 -.114E+04   0.672E+02 0.114E-04 0.113E+04   -.542E+01 -.101E-05 0.596E+01   -.535E-04 0.223E-06 -.130E-01
   0.107E+03 -.102E-04 -.200E+04   -.113E+03 0.866E-05 0.202E+04   0.553E+01 0.148E-05 -.197E+02   0.323E-03 0.158E-06 -.286E-01
   0.450E+02 -.708E-05 -.177E+04   -.488E+02 0.806E-05 0.178E+04   0.338E+01 0.107E-05 -.720E+01   -.154E-03 -.234E-05 -.240E-01
   -.490E+02 0.664E+01 -.145E+04   0.541E+02 -.647E+01 0.144E+04   -.464E+01 -.174E+00 0.302E+01   -.175E-04 0.514E-04 -.188E-01
   0.114E+02 0.312E+02 -.200E+04   -.171E+02 -.311E+02 0.202E+04   0.511E+01 -.136E+00 -.190E+02   0.618E-05 0.218E-03 -.281E-01
   0.781E+02 0.459E+02 -.171E+04   -.834E+02 -.455E+02 0.172E+04   0.479E+01 -.417E+00 -.625E+01   -.368E-04 -.444E-04 -.235E-01
   -.683E+02 -.418E-05 -.136E+04   0.729E+02 0.217E-05 0.135E+04   -.416E+01 0.211E-05 0.417E+01   0.913E-04 0.313E-06 -.182E-01
   -.172E+02 -.498E-04 0.601E+02   0.369E-12 0.129E-11 -.705E-11   0.168E+02 0.492E-04 -.550E+02   -.217E-02 0.191E-05 0.117E+01

 POSITION                                       TOTAL-FORCE (eV/Angst)
      6.34213      5.68441     19.22002         0.031185     -0.000001      0.210664
      5.69641      5.68441     20.00999         0.178078      0.000000     -0.238179
      6.94928      4.86545     19.29664        -0.161111      0.217603     -0.034642
      6.94928      6.50336     19.29664        -0.161110     -0.217602     -0.034642
      8.35552      9.47401      5.72548         4.289492     -0.000809      2.042571
      6.13654      7.57921      6.60608        -1.872503      0.004408     -2.170529
      3.21864      7.57921      5.72548         4.258354     -0.001945      2.028926
      0.99966      9.47401      6.60608        -1.903117     -0.009582     -2.174927
      9.75957      9.47437      9.28903        -0.016549     -0.000847     -0.023898
      7.51700      7.57438     10.08794        -0.001622     -0.005085     -0.013776
      4.61807      7.57657      9.28580        -0.015628     -0.001312     -0.014860
      2.37146      9.47353     10.09692        -0.001420     -0.001682     -0.013610
      0.93172      9.47543     12.85212        -0.004445     -0.006464      0.012814
      8.93836      7.57219     13.55759        -0.007322     -0.000696      0.006983
      6.05754      7.57719     12.83162        -0.008200     -0.001404      0.007111
      3.78959      9.47473     13.58229        -0.005964     -0.001828      0.005705
      2.42983      9.46625     16.48491         0.121399     -0.009469      0.258816
      0.06494      7.56667     17.03936        -0.278709     -0.011163     -0.079290
      7.55101      7.57738     16.41337         0.089125     -0.008416      0.216217
      5.22381      9.48941     17.03324        -0.307285     -0.017440     -0.069611
      8.35552      1.89480      5.72548         4.289492      0.000810      2.042572
      6.13654      0.00000      6.60608        -1.889554      0.000000     -2.173923
      3.21864      0.00000      5.72548         4.277887      0.000000      2.035469
      0.99966      1.89480      6.60608        -1.903117      0.009582     -2.174926
      9.75957      1.89444      9.28903        -0.016548      0.000849     -0.023898
      7.51265     11.36881     10.09039        -0.010499      0.000001     -0.013342
      4.61992      0.00000      9.28852        -0.013268     -0.000001     -0.012566
      2.37146      1.89528     10.09692        -0.001423      0.001682     -0.013611
      0.93172      1.89338     12.85212        -0.004447      0.006465      0.012817
      8.92628      0.00000     13.57148        -0.012457      0.000001     -0.001940
      6.06404     11.36881     12.84173        -0.010889      0.000001      0.002039
      3.78959      1.89408     13.58229        -0.005960      0.001831      0.005715
      2.42983      1.90256     16.48491         0.121401      0.009471      0.258814
      0.08924     11.36881     17.04068        -0.303742      0.000002     -0.061556
      7.58388     11.36881     16.46961         0.126156      0.000002      0.254837
      5.22381      1.87940     17.03324        -0.307281      0.017441     -0.069595
      8.35552      5.68441      5.72548         4.301519     -0.000000      2.041297
      6.13654      3.78960      6.60608        -1.872503     -0.004409     -2.170527
      3.21864      3.78960      5.72548         4.258354      0.001945      2.028926
      0.99966      5.68441      6.60608        -1.871804     -0.000000     -2.100866
      9.77592      5.68441      9.28385        -0.020982     -0.000002     -0.031270
      7.51700      3.79443     10.08794        -0.001623      0.005084     -0.013778
      4.61807      3.79224      9.28580        -0.015627      0.001313     -0.014861
      2.37498      5.68441     10.12668        -0.001989     -0.000001     -0.011500
      0.96349      5.68441     12.85884         0.004804     -0.000002      0.003706
      8.93836      3.79662     13.55759        -0.007322      0.000695      0.006977
      6.05754      3.79162     12.83162        -0.008201      0.001402      0.007110
      3.80876      5.68441     13.66891        -0.002253     -0.000003      0.015086
      2.46966      5.68441     16.50312         0.141116     -0.000001      0.241721
      0.06494      3.80214     17.03936        -0.278705      0.011163     -0.079297
      7.55101      3.79143     16.41337         0.089119      0.008414      0.216210
      5.25517      5.68441     17.19821        -0.180504     -0.000000      0.139914
      5.07194      7.57921      4.99001        -2.125759      0.004825      1.560616
     10.20882      9.47401      4.99001        -2.122901     -0.004701      1.558330
      9.42012      9.47401      7.34155        -0.823165     -0.006466     -0.344180
      6.50222      9.47401      6.46096         0.708927     -0.011049     -0.213138
      7.98984      7.57921      5.87060         0.022152      0.005883     -1.120781
      6.46979      7.57921      8.51238        -0.302252     -0.001232      0.612425
      4.28324      7.57921      7.34155        -0.828251      0.003763     -0.327201
      1.36534      7.57921      6.46096         0.720410      0.022454     -0.222008
[...]
      2.77424      5.68441     12.05627        -0.262770      0.000000      0.171649
      2.02691      5.68441     14.44776         0.276524      0.000001     -0.227299
      9.33808      5.68441     13.49704         0.242709      0.000002     -0.096000
      0.57450      3.79142     12.92875        -0.258292      0.004444      0.099652
      9.43956      3.78626     15.50614        -0.134459      0.007354      0.339367
      7.17961      3.77877     14.40526         0.250295      0.004967     -0.194962
      4.20634      3.79019     13.53304         0.253414     -0.005431     -0.115268
      5.70520      5.68441     12.95031        -0.231045      0.000003      0.092589
      4.28726      5.68441     15.59184        -0.240178      0.000000      0.225116
      3.59586      5.68441     17.98291         0.191016      0.000000     -0.655922
      0.58811      5.68441     17.27820         0.166664     -0.000000     -0.159324
      2.05851      3.79374     16.49565        -0.251178     -0.021807      0.163086
      8.71298      3.82129     17.89773         0.234689     -0.021675     -0.648391
      5.73708      3.76119     17.23361         0.205437     -0.055945     -0.155529
      7.17537      5.68441     16.41854        -0.201160      0.000001      0.170035
    total drift:                               -0.007259      0.000003     -0.051164

  FREE ENERGIE OF THE ION-ELECTRON SYSTEM (eV)
  free  energy   TOTEN  =     -1597.77232071 eV

  energy  without entropy=    -1597.77232071  energy(sigma->0) =    -1597.77232071

     |            E. Caldeweyher, S. Ehlert & S. Grimme          |
     |          Mulliken Center for Theoretical Chemistry        |
     |                    University of Bonn                     |

Rational (Becke-Johnson) damping: hse06-D4-ATM
  s6         1.0000
  s8         1.1953
  s9         1.0000
  a1         0.3866
  a2         5.1913
 alp        16.0000

Dispersion energy:      -7.7660646136478E-01 Eh