 vasp.6.3.0 20Jan22 (build Apr  1 2022 16:44:48) complex
 executed on        HPECrayEX_GCC date 2022.10.11  00:30:51

 INCAR:
   SYSTEM = MgO-rocksalt
   ISMEAR = 0
   SIGMA = 0.05
   EDIFF = 1E-6
   ALGO = ALL
   ISTART = 0
   IBRION = -1
   NSW = 0
   ISYM = 0
   DIPOL = 0.5 0.5 0.5
   IDIPOL = 3
   LDIPOL = .TRUE.
   LHFCALC = .TRUE.
   GGA = B5
   AEXX = 0.2
   AGGAX = 0.72
   AGGAC = 0.81
   ALDAC = 0.19
   IVDW = 1
   VDW_S6 = 1.05
   VDW_C6 = 0.63 0.70
   VDW_R0 = 1.243 1.342
   ENCUT = 600
   PREC = Accurate
   LASPH = .TRUE.
   LREAL = .FALSE.
   ISPIN = 1
   NELM = 200
   NELMIN = 8
   NCORE = 8
   KPAR = 1
   LWAVE = .FALSE.
   LCHARG = .FALSE.

 POTCAR:    PAW_PBE Mg_pv 13Apr2007
 POTCAR:    PAW_PBE O 08Apr2002
 POTCAR:    PAW_PBE Mg_pv 13Apr2007
   VRHFIN =Mg: p6s2

   TITEL  = PAW_PBE Mg_pv 13Apr2007
   POMASS =   24.305; ZVAL   =    8.000    mass and valenz
   ENMAX  =  403.929; ENMIN  =  302.947 eV

   TITEL  = PAW_PBE O 08Apr2002
   POMASS =   16.000; ZVAL   =    6.000    mass and valenz
   ENMAX  =  400.000; ENMIN  =  300.000 eV

  PAW_PBE Mg_pv 13Apr2007               :
  PAW_PBE O 08Apr2002                   :

 POSCAR: Mg  O
  positions in direct lattice
 exchange correlation table for  LEXCH =       12
   RHO(1)=    0.500       N(1)  =     2000
   RHO(2)=  100.500       N(2)  =     4000

 ion  position               nearest neighbor table
   1  0.250  0.000  0.352-  33 2.11  35 2.11  36 2.11  43 2.11  52 2.11
   2  0.500  0.250  0.352-  34 2.11  35 2.11  36 2.11  44 2.11  51 2.11
   3  0.250  0.250  0.451-  35 2.11  34 2.11  33 2.11  41 2.11  50 2.11  39 2.12
   4  0.500  0.000  0.451-  36 2.11  34 2.11  33 2.11  42 2.11  49 2.11  40 2.11
   5  0.250  0.000  0.550-  40 2.11  39 2.11  47 2.11  56 2.11  33 2.12  37 2.14
   6  0.500  0.250  0.550-  48 2.11  40 2.11  55 2.11  39 2.11  34 2.12  38 2.13
   7  0.250  0.250  0.648-  39 2.10  37 2.11  38 2.11  54 2.11  45 2.11
   8  0.500  0.000  0.648-  40 2.10  38 2.11  46 2.11  37 2.11  53 2.11
   9  0.250  0.500  0.352-  41 2.11  35 2.11  43 2.11  44 2.11  60 2.11
  10  0.500  0.750  0.352-  42 2.11  36 2.11  43 2.11  44 2.11  59 2.11
  11  0.250  0.750  0.451-  43 2.11  41 2.11  42 2.11  33 2.11  58 2.11  47 2.12
  12  0.500  0.500  0.451-  44 2.11  41 2.11  42 2.11  34 2.11  57 2.11  48 2.12
  13  0.250  0.500  0.550-  48 2.11  47 2.11  39 2.11  64 2.11  41 2.12  45 2.14
  14  0.500  0.750  0.550-  48 2.11  40 2.11  63 2.11  47 2.11  42 2.12  46 2.13
  15  0.250  0.750  0.648-  47 2.10  37 2.11  46 2.11  62 2.11  45 2.11
  16  0.500  0.500  0.649-  38 2.11  46 2.11  48 2.11  45 2.11  61 2.11
  17  0.750  0.000  0.352-  49 2.11  36 2.11  51 2.11  52 2.11  59 2.11
  18  0.000  0.250  0.352-  50 2.11  35 2.11  51 2.11  52 2.11  60 2.11
  19  0.750  0.250  0.451-  51 2.11  49 2.11  50 2.11  34 2.11  57 2.11  55 2.12
  20  0.000  0.000  0.451-  52 2.11  49 2.11  50 2.11  33 2.11  58 2.11  56 2.12
  21  0.750  0.000  0.550-  40 2.11  55 2.11  63 2.11  56 2.11  49 2.12  53 2.14
  22  1.000  0.250  0.550-  55 2.11  39 2.11  56 2.11  64 2.11  50 2.12  54 2.14
  23  0.750  0.250  0.648-  55 2.10  53 2.11  38 2.11  54 2.11  61 2.11
  24  1.000  0.000  0.648-  56 2.10  53 2.11  37 2.11  54 2.11  62 2.11
  25  0.750  0.500  0.352-  57 2.11  51 2.11  44 2.11  59 2.11  60 2.11
  26  0.000  0.750  0.352-  58 2.11  52 2.11  43 2.11  59 2.11  60 2.11
  27  0.750  0.750  0.451-  59 2.11  49 2.11  57 2.11  58 2.11  42 2.11  63 2.12
  28  0.000  0.500  0.451-  60 2.11  50 2.11  57 2.11  58 2.11  41 2.11  64 2.12
  29  0.750  0.500  0.550-  48 2.11  55 2.11  63 2.11  64 2.11  57 2.12  61 2.14
  30  1.000  0.750  0.550-  63 2.11  47 2.11  56 2.11  64 2.11  58 2.12  62 2.14
  31  0.750  0.750  0.648-  63 2.10  53 2.11  46 2.11  62 2.11  61 2.11
  32  1.000  0.500  0.648-  64 2.10  45 2.11  61 2.11  54 2.11  62 2.11
  33  0.250  0.000  0.451-   1 2.11   3 2.11   4 2.11  11 2.11  20 2.11   5 2.12
  34  0.500  0.250  0.451-   2 2.11   3 2.11   4 2.11  12 2.11  19 2.11   6 2.12
  35  0.250  0.250  0.352-   3 2.11   2 2.11   1 2.11   9 2.11  18 2.11
  36  0.500  0.000  0.352-   4 2.11   2 2.11   1 2.11  10 2.11  17 2.11
  37  0.250  0.000  0.650-   7 2.11  15 2.11  24 2.11   8 2.11   5 2.14
  38  0.500  0.250  0.650-   8 2.11  23 2.11   7 2.11  16 2.11   6 2.13
  39  0.250  0.250  0.550-   7 2.10  22 2.11  13 2.11   5 2.11   6 2.11   3 2.12
  40  0.500  0.000  0.550-   8 2.10   5 2.11  21 2.11  14 2.11   6 2.11   4 2.11
  41  0.250  0.500  0.451-   9 2.11   3 2.11  11 2.11  12 2.11  28 2.11  13 2.12
  42  0.500  0.750  0.451-  10 2.11   4 2.11  11 2.11  12 2.11  27 2.11  14 2.12
  43  0.250  0.750  0.352-  11 2.11   9 2.11  10 2.11   1 2.11  26 2.11
  44  0.500  0.500  0.352-  12 2.11   9 2.11  10 2.11   2 2.11  25 2.11
  45  0.250  0.500  0.650-  32 2.11   7 2.11  15 2.11  16 2.11  13 2.14
  46  0.500  0.750  0.650-   8 2.11  31 2.11  15 2.11  16 2.11  14 2.13
  47  0.250  0.750  0.550-  15 2.10  30 2.11  13 2.11   5 2.11  14 2.11  11 2.12
  48  0.500  0.500  0.550-  13 2.11  29 2.11   6 2.11  14 2.11  16 2.11  12 2.12
  49  0.750  0.000  0.451-  17 2.11   4 2.11  19 2.11  20 2.11  27 2.11  21 2.12
  50  0.000  0.250  0.451-  18 2.11   3 2.11  19 2.11  20 2.11  28 2.11  22 2.12
  51  0.750  0.250  0.352-  19 2.11  17 2.11  18 2.11   2 2.11  25 2.11
  52  0.000  0.000  0.352-  20 2.11  17 2.11  18 2.11   1 2.11  26 2.11
  53  0.750  0.000  0.650-  23 2.11  31 2.11  24 2.11   8 2.11  21 2.14
  54  1.000  0.250  0.650-  24 2.11  32 2.11   7 2.11  23 2.11  22 2.14
  55  0.750  0.250  0.550-  23 2.10  22 2.11  29 2.11  21 2.11   6 2.11  19 2.12
  56  1.000  0.000  0.550-  24 2.10  22 2.11  30 2.11   5 2.11  21 2.11  20 2.12
  57  0.750  0.500  0.451-  25 2.11  19 2.11  12 2.11  27 2.11  28 2.11  29 2.12
  58  0.000  0.750  0.451-  26 2.11  20 2.11  11 2.11  27 2.11  28 2.11  30 2.12
  59  0.750  0.750  0.352-  27 2.11  17 2.11  25 2.11  26 2.11  10 2.11
  60  0.000  0.500  0.352-  28 2.11  18 2.11  25 2.11  26 2.11   9 2.11
  61  0.750  0.500  0.650-  32 2.11  31 2.11  23 2.11  16 2.11  29 2.14
  62  1.000  0.750  0.650-  24 2.11  32 2.11  31 2.11  15 2.11  30 2.14
  63  0.750  0.750  0.550-  31 2.10  30 2.11  29 2.11  21 2.11  14 2.11  27 2.12
  64  1.000  0.500  0.550-  32 2.10  22 2.11  30 2.11  29 2.11  13 2.11  28 2.12

IMPORTANT INFORMATION: All symmetrisations will be switched off!
NOSYMM: (Re-)initialisation of all symmetry stuff for point group C_1.

                                     Primitive cell

  volume of cell :    1519.6535

  direct lattice vectors                    reciprocal lattice vectors
     8.440582262  0.000000000  0.000000000     0.118475239  0.000000000  0.000000000
     0.000000000  8.440582262  0.000000000     0.000000000  0.118475239  0.000000000
     0.000000000  0.000000000 21.330436697     0.000000000  0.000000000  0.046881366

  length of vectors
     8.440582262  8.440582262 21.330436697     0.118475239  0.118475239  0.046881366

  position of ions in fractional coordinates (direct lattice)
     0.250000000  0.000000000  0.351610242
     0.500000000  0.250000000  0.351610242
     0.250000000  0.250000000  0.450536747
     0.500000000  0.000000000  0.450536747
     0.250020383  0.000000002  0.549964511
     0.499999995  0.250059851  0.550024624
     0.250059453  0.249849588  0.648270450
     0.499999989  0.000000005  0.648330813
     0.250000000  0.500000000  0.351610242
     0.500000000  0.750000000  0.351610242
     0.250000000  0.750000000  0.450536747
     0.500000000  0.500000000  0.450536747
     0.250073483  0.500000003  0.550017913
     0.499999994  0.749940154  0.550024627
     0.250059451  0.750150420  0.648270445
     0.499999985  0.500000002  0.648823829
     0.750000000  0.000000000  0.351610242
     0.000000000  0.250000000  0.351610242
     0.750000000  0.250000000  0.450536747
     0.000000000  0.000000000  0.450536747
     0.749979604  0.000000004  0.549964510
     0.999999993  0.249994039  0.549974874
     0.749940525  0.249849582  0.648270453
     0.999999988  0.000000003  0.648413763
     0.750000000  0.500000000  0.351610242
     0.000000000  0.750000000  0.351610242
     0.750000000  0.750000000  0.450536747
     0.000000000  0.500000000  0.450536747
     0.749926503  0.500000000  0.550017911
     0.999999993  0.750005964  0.549974872
     0.749940526  0.750150423  0.648270447
     0.999999993  0.500000001  0.648293177
     0.250000000  0.000000000  0.450536747
     0.500000000  0.250000000  0.450536747
     0.250000000  0.250000000  0.351610242
     0.500000000  0.000000000  0.351610242
     0.249967574  0.000000004  0.650232023
     0.499999992  0.249790432  0.650054103
     0.249935855  0.250001082  0.549704381
     0.499999991  0.000000000  0.549674093
     0.250000000  0.500000000  0.450536747
     0.500000000  0.750000000  0.450536747
     0.250000000  0.750000000  0.351610242
     0.500000000  0.500000000  0.351610242
     0.249741506  0.500000004  0.650297624
     0.499999994  0.750209573  0.650054100
     0.249935854  0.749998920  0.549704382
     0.499999993  0.500000002  0.549802910
     0.750000000  0.000000000  0.450536747
     0.000000000  0.250000000  0.450536747
     0.750000000  0.250000000  0.351610242
     0.000000000  0.000000000  0.351610242
     0.750032406  0.000000003  0.650232024
     0.999999991  0.249978599  0.650229220
     0.750064135  0.250001085  0.549704379
     0.999999996  0.000000003  0.549734307
     0.750000000  0.500000000  0.450536747
     0.000000000  0.750000000  0.450536747
     0.750000000  0.750000000  0.351610242
     0.000000000  0.500000000  0.351610242
     0.750258474  0.500000004  0.650297619
     0.999999985  0.750021408  0.650229221
     0.750064133  0.749998918  0.549704381
     0.999999993  0.500000001  0.549711215

  ion indices of the primitive-cell ions
   primitive index   ion index
                 1           1
                 2           2
                 3           3
                 4           4
                 5           5
                 6           6
                 7           7
                 8           8
                 9           9
                10          10
                11          11
                12          12
                13          13
                14          14
                15          15
                16          16
                17          17
                18          18
                19          19
                20          20
                21          21
                22          22
                23          23
                24          24
                25          25
                26          26
                27          27
                28          28
                29          29
                30          30
                31          31
                32          32
                33          33
                34          34
                35          35
                36          36
                37          37
                38          38
                39          39
                40          40
                41          41
                42          42
                43          43
                44          44
[...]
   0.50000000  0.75000000  0.45053675
   0.25000000  0.75000000  0.35161024
   0.50000000  0.50000000  0.35161024
   0.24974151  0.50000000  0.65029762
   0.49999999  0.75020957  0.65005410
   0.24993585  0.74999892  0.54970438
   0.49999999  0.50000000  0.54980291
   0.75000000  0.00000000  0.45053675
   0.00000000  0.25000000  0.45053675
   0.75000000  0.25000000  0.35161024
   0.00000000  0.00000000  0.35161024
   0.75003241  0.00000000  0.65023202
   0.99999999  0.24997860  0.65022922
   0.75006413  0.25000108  0.54970438
   1.00000000  0.00000000  0.54973431
   0.75000000  0.50000000  0.45053675
   0.00000000  0.75000000  0.45053675
   0.75000000  0.75000000  0.35161024
   0.00000000  0.50000000  0.35161024
   0.75025847  0.50000000  0.65029762
   0.99999998  0.75002141  0.65022922
   0.75006413  0.74999892  0.54970438
   0.99999999  0.50000000  0.54971122

 position of ions in cartesian coordinates  (Angst):
   2.11014557  0.00000000  7.50000000
   4.22029113  2.11014557  7.50000000
   2.11014557  2.11014557  9.61014557
   4.22029113  0.00000000  9.61014557
   2.11031761  0.00000002 11.73098320
   4.22029109  2.11065074 11.73226542
   2.11064739  2.10887600 13.82789180
   4.22029104  0.00000005 13.82917936
   2.11014557  4.22029113  7.50000000
   4.22029113  6.33043670  7.50000000
   2.11014557  6.33043670  9.61014557
   4.22029113  4.22029113  9.61014557
   2.11076581  4.22029115 11.73212228
   4.22029108  6.32993156 11.73226550
   2.11064737  6.33170633 13.82789168
   4.22029100  4.22029115 13.83969561
   6.33043670  0.00000000  7.50000000
   0.00000000  2.11014557  7.50000000
   6.33043670  2.11014557  9.61014557
   0.00000000  0.00000000  9.61014557
   6.33026455  0.00000003 11.73098317
   8.44058221  2.11009525 11.73120423
   6.32993470  2.10887595 13.82789187
   8.44058216  0.00000003 13.83094873
   6.33043670  4.22029113  7.50000000
   0.00000000  6.33043670  7.50000000
   6.33043670  6.33043670  9.61014557
   0.00000000  4.22029113  9.61014557
   6.32981634  4.22029113 11.73212224
   8.44058220  6.33048703 11.73120420
   6.32993470  6.33170636 13.82789174
   8.44058221  4.22029114 13.82837658
   2.11014557  0.00000000  9.61014557
   4.22029113  2.11014557  9.61014557
   2.11014557  2.11014557  7.50000000
   4.22029113  0.00000000  7.50000000
   2.10987187  0.00000003 13.86973301
   4.22029106  2.10837669 13.86593789
   2.10960414  2.11015470 11.72543450
   4.22029105  0.00000000 11.72478843
   2.11014557  4.22029113  9.61014557
   4.22029113  6.33043670  9.61014557
   2.11014557  6.33043670  7.50000000
   4.22029113  4.22029113  7.50000000
   2.10796372  4.22029116 13.87113230
   4.22029108  6.33220561 13.86593782
   2.10960414  6.33042758 11.72543453
   4.22029107  4.22029115 11.72753617
   6.33043670  0.00000000  9.61014557
   0.00000000  2.11014557  9.61014557
   6.33043670  2.11014557  7.50000000
   0.00000000  0.00000000  7.50000000
   6.33071023  0.00000003 13.86973303
   8.44058218  2.10996492 13.86967322
   6.33097803  2.11015472 11.72543445
   8.44058223  0.00000002 11.72607284
   6.33043670  4.22029113  9.61014557
   0.00000000  6.33043670  9.61014557
   6.33043670  6.33043670  7.50000000
   0.00000000  4.22029113  7.50000000
   6.33261837  4.22029116 13.87113220
   8.44058213  6.33061739 13.86967324
   6.33097801  6.33042756 11.72543451
   8.44058220  4.22029114 11.72558028

--------------------------------------- Iteration      FINAL  ---------------------------------------

--------------------OUTCAR has been truncated-------------------------

[...]

--------------------OUTCAR has been truncated-------------------------

  DFT-D2 method for vdW energy calculation

  Parameters of vdW forcefield:
         C6(Jnm^6/mol)     R0(A)
   Mg       0.630          1.243
   O        0.700          1.342

  vdW correction parametrized for the method \ý      

  IVDW =   1
  VDW_RADIUS =    50.000 A
  VDW_S6 =     1.050
  VDW_SR =     1.000
  VDW_D =    20.000
  LVDW_EWALD = F

  Number of pair interactions contributing to vdW energy:  723296
  Edisp (eV):   -5.08045

 VOLUME and BASIS-vectors are now :
  energy-cutoff  :      600.00
  volume of cell :     1519.65
      direct lattice vectors                 reciprocal lattice vectors
     8.440582262  0.000000000  0.000000000     0.118475239  0.000000000  0.000000000
     0.000000000  8.440582262  0.000000000     0.000000000  0.118475239  0.000000000
     0.000000000  0.000000000 21.330436697     0.000000000  0.000000000  0.046881366

  length of vectors
     8.440582262  8.440582262 21.330436697     0.118475239  0.118475239  0.046881366

 FORCES acting on ions:
    Electron-Ion                     Ewald-Force                    Non-Local-Force
   -.112E-01 -.176E-05 0.207E+04   0.114E-01 -.339E-06 -.206E+04   -.159E-03 -.136E-05 -.639E+01
   0.743E-06 -.420E-01 0.207E+04   -.502E-06 0.428E-01 -.206E+04   -.164E-05 -.522E-03 -.639E+01
   -.110E+00 -.156E+00 0.685E+03   0.111E+00 0.161E+00 -.685E+03   -.579E-03 -.297E-02 0.410E+00
   -.176E-05 0.268E-05 0.685E+03   0.776E-06 -.308E-05 -.685E+03   -.161E-05 -.361E-06 0.396E+00
   0.849E-01 -.499E-06 -.690E+03   -.971E-01 0.285E-05 0.690E+03   0.620E-02 -.915E-06 -.197E+00
   -.306E-05 -.585E+00 -.690E+03   0.165E-05 0.619E+00 0.690E+03   -.450E-05 -.260E-01 -.270E+00
   0.961E-02 -.654E+00 -.206E+04   -.596E-01 0.629E+00 0.205E+04   0.282E-01 0.315E-01 0.555E+01
   0.792E-05 0.727E-05 -.206E+04   -.223E-05 -.566E-05 0.205E+04   -.433E-05 0.178E-05 0.555E+01
   -.267E-01 0.129E-05 0.207E+04   0.273E-01 0.308E-06 -.206E+04   -.397E-03 -.400E-06 -.639E+01
   0.905E-06 0.420E-01 0.207E+04   -.280E-06 -.428E-01 -.206E+04   -.511E-05 0.523E-03 -.639E+01
   -.110E+00 0.156E+00 0.685E+03   0.111E+00 -.161E+00 -.685E+03   -.578E-03 0.296E-02 0.410E+00
   -.165E-05 -.549E-06 0.684E+03   -.256E-05 0.334E-05 -.685E+03   0.163E-05 0.286E-07 0.427E+00
   -.403E+00 0.946E-05 -.691E+03   0.430E+00 -.922E-05 0.691E+03   -.217E-01 0.193E-05 -.210E+00
   -.396E-05 0.585E+00 -.690E+03   0.275E-05 -.619E+00 0.690E+03   -.176E-05 0.260E-01 -.270E+00
   0.963E-02 0.654E+00 -.206E+04   -.597E-01 -.629E+00 0.205E+04   0.282E-01 -.315E-01 0.555E+01
   -.184E-04 0.324E-05 -.206E+04   0.175E-04 -.134E-05 0.205E+04   0.101E-05 -.197E-05 0.563E+01
   0.112E-01 -.644E-06 0.207E+04   -.114E-01 -.556E-06 -.206E+04   0.161E-03 0.210E-05 -.639E+01
   0.135E-05 -.265E-01 0.207E+04   0.524E-06 0.270E-01 -.206E+04   -.449E-05 -.279E-03 -.639E+01
   0.110E+00 -.156E+00 0.685E+03   -.111E+00 0.161E+00 -.685E+03   0.578E-03 -.297E-02 0.410E+00
   -.753E-06 0.323E-05 0.685E+03   0.240E-06 -.647E-06 -.685E+03   0.188E-05 0.160E-05 0.413E+00
   -.849E-01 0.207E-05 -.690E+03   0.971E-01 -.800E-06 0.690E+03   -.620E-02 0.211E-05 -.197E+00
   -.402E-05 -.126E+00 -.690E+03   -.153E-06 0.120E+00 0.690E+03   0.422E-05 0.492E-02 -.221E+00
   -.963E-02 -.654E+00 -.206E+04   0.597E-01 0.629E+00 0.205E+04   -.282E-01 0.315E-01 0.555E+01
   -.783E-05 0.565E-05 -.206E+04   0.775E-05 -.343E-05 0.205E+04   -.907E-06 -.143E-05 0.555E+01
   0.267E-01 0.108E-05 0.207E+04   -.273E-01 0.539E-06 -.206E+04   0.396E-03 -.191E-06 -.639E+01
   0.116E-05 0.265E-01 0.207E+04   0.304E-06 -.270E-01 -.206E+04   0.121E-05 0.280E-03 -.639E+01
   0.110E+00 0.156E+00 0.685E+03   -.111E+00 -.161E+00 -.685E+03   0.578E-03 0.296E-02 0.410E+00
   -.523E-05 -.394E-07 0.685E+03   0.347E-05 -.294E-06 -.685E+03   0.243E-05 0.877E-06 0.406E+00
   0.404E+00 0.596E-05 -.691E+03   -.430E+00 -.302E-05 0.691E+03   0.217E-01 -.175E-06 -.210E+00
   -.509E-06 0.126E+00 -.690E+03   -.178E-05 -.120E+00 0.690E+03   0.487E-06 -.492E-02 -.221E+00
   -.961E-02 0.654E+00 -.206E+04   0.597E-01 -.629E+00 0.205E+04   -.282E-01 -.315E-01 0.555E+01
   0.114E-04 -.993E-05 -.206E+04   -.155E-04 0.704E-05 0.205E+04   0.559E-05 0.496E-05 0.551E+01
   -.221E-02 0.123E-05 0.513E+03   0.406E-02 -.126E-05 -.513E+03   -.249E-02 0.778E-06 -.841E-01
   0.251E-05 -.160E+00 0.513E+03   -.117E-05 0.156E+00 -.513E+03   -.208E-05 0.526E-02 -.963E-01
   -.150E-01 -.258E-01 0.155E+04   0.153E-01 0.264E-01 -.156E+04   -.415E-03 -.810E-03 0.313E+01
   0.426E-06 0.172E-05 0.155E+04   -.171E-06 -.481E-06 -.156E+04   -.261E-05 0.142E-05 0.313E+01
   0.143E-01 -.129E-05 -.156E+04   -.307E-01 -.323E-05 0.157E+04   0.223E-01 0.175E-05 -.443E+01
   0.555E-05 -.696E+00 -.156E+04   -.170E-05 0.699E+00 0.156E+04   -.498E-05 0.139E-01 -.434E+01
   -.120E+00 -.280E+00 -.512E+03   0.119E+00 0.285E+00 0.512E+03   0.503E-02 -.503E-02 0.295E+00
   -.809E-05 -.441E-05 -.512E+03   0.782E-05 0.595E-05 0.511E+03   -.235E-05 0.161E-05 0.282E+00
   -.101E+00 0.128E-05 0.513E+03   0.964E-01 0.657E-07 -.513E+03   0.517E-02 0.126E-06 -.947E-01
   -.352E-05 0.160E+00 0.513E+03   0.325E-06 -.156E+00 -.513E+03   -.207E-05 -.526E-02 -.963E-01
   -.150E-01 0.258E-01 0.155E+04   0.153E-01 -.264E-01 -.156E+04   -.415E-03 0.811E-03 0.313E+01
   -.260E-05 -.204E-05 0.155E+04   -.423E-06 0.484E-06 -.156E+04   -.246E-05 -.259E-06 0.313E+01
   -.557E+00 -.636E-05 -.156E+04   0.521E+00 0.362E-05 0.157E+04   0.637E-01 0.243E-05 -.440E+01
   0.160E-05 0.696E+00 -.156E+04   -.882E-05 -.699E+00 0.156E+04   -.363E-07 -.139E-01 -.434E+01
   -.120E+00 0.280E+00 -.512E+03   0.119E+00 -.285E+00 0.512E+03   0.503E-02 0.503E-02 0.295E+00
   -.335E-06 0.648E-05 -.514E+03   0.107E-06 -.316E-05 0.514E+03   -.185E-05 -.717E-06 0.176E+00
   0.220E-02 0.220E-06 0.513E+03   -.406E-02 -.283E-05 -.513E+03   0.249E-02 0.404E-05 -.841E-01
   -.216E-05 -.639E-01 0.513E+03   0.293E-05 0.662E-01 -.513E+03   -.146E-05 -.276E-02 -.899E-01
   0.150E-01 -.258E-01 0.155E+04   -.153E-01 0.264E-01 -.156E+04   0.415E-03 -.811E-03 0.313E+01
   -.650E-06 0.198E-05 0.155E+04   0.176E-06 -.167E-06 -.156E+04   0.247E-05 0.218E-05 0.313E+01
   -.143E-01 0.560E-05 -.156E+04   0.307E-01 -.255E-05 0.157E+04   -.223E-01 -.124E-05 -.443E+01
   0.101E-04 -.178E+00 -.156E+04   -.577E-05 0.206E+00 0.157E+04   -.192E-05 -.302E-01 -.445E+01
   0.120E+00 -.280E+00 -.512E+03   -.119E+00 0.285E+00 0.512E+03   -.503E-02 -.503E-02 0.295E+00
   0.539E-05 0.443E-05 -.513E+03   -.611E-05 -.288E-05 0.512E+03   0.948E-06 -.569E-07 0.243E+00
   0.101E+00 0.153E-05 0.513E+03   -.964E-01 0.204E-05 -.513E+03   -.517E-02 -.232E-05 -.947E-01
   -.301E-05 0.639E-01 0.513E+03   0.168E-05 -.662E-01 -.513E+03   0.107E-05 0.275E-02 -.899E-01
   0.150E-01 0.258E-01 0.155E+04   -.153E-01 -.264E-01 -.156E+04   0.415E-03 0.809E-03 0.313E+01
   -.270E-05 -.109E-05 0.155E+04   0.423E-06 0.145E-06 -.156E+04   0.229E-05 -.152E-05 0.313E+01
   0.557E+00 0.772E-05 -.156E+04   -.521E+00 -.289E-05 0.157E+04   -.637E-01 -.261E-05 -.440E+01
   -.125E-04 0.178E+00 -.156E+04   0.671E-05 -.206E+00 0.157E+04   0.512E-05 0.302E-01 -.445E+01
   0.120E+00 0.280E+00 -.512E+03   -.119E+00 -.285E+00 0.512E+03   -.503E-02 0.503E-02 0.295E+00
   -.131E-05 0.109E-06 -.512E+03   -.350E-07 0.562E-07 0.512E+03   0.559E-06 0.123E-05 0.285E+00
   -.119E-05 0.104E-04 0.159E+02   -.260E-14 0.407E-13 -.114E-11   -.291E-05 -.215E-05 -.140E+02

 POSITION                                       TOTAL-FORCE (eV/Angst)
      2.11015      0.00000      7.50000         0.000081     -0.000004      0.466556
      4.22029      2.11015      7.50000        -0.000002      0.000192      0.467094
      2.11015      2.11015      9.61015         0.000536      0.001396      0.032661
      4.22029      0.00000      9.61015        -0.000003     -0.000001      0.032991
      2.11032      0.00000     11.73098        -0.004982      0.000002     -0.003298
      4.22029      2.11065     11.73227        -0.000007      0.005548     -0.013795
      2.11065      2.10888     13.82789        -0.017846      0.008049     -0.095736
      4.22029      0.00000     13.82918         0.000000      0.000004     -0.108619
      2.11015      4.22029      7.50000         0.000143      0.000001      0.467103
      4.22029      6.33044      7.50000        -0.000005     -0.000188      0.467091
      2.11015      6.33044      9.61015         0.000540     -0.001401      0.032663
      4.22029      4.22029      9.61015        -0.000003      0.000003      0.037403
      2.11077      4.22029     11.73212         0.002122      0.000002     -0.001615
      4.22029      6.32993     11.73227        -0.000003     -0.005553     -0.013802
      2.11065      6.33171     13.82789        -0.017849     -0.008055     -0.095718
      4.22029      4.22029     13.83970         0.000001     -0.000001     -0.183500
      6.33044      0.00000      7.50000        -0.000079      0.000002      0.466570
      0.00000      2.11015      7.50000        -0.000003      0.000121      0.466890
      6.33044      2.11015      9.61015        -0.000532      0.001396      0.032663
      0.00000      0.00000      9.61015         0.000001      0.000005      0.033991
      6.33026      0.00000     11.73098         0.004989      0.000004     -0.003300
      8.44058      2.11010     11.73120        -0.000001     -0.001126      0.001703
      6.32993      2.10888     13.82789         0.017851      0.008052     -0.095710
      8.44058      0.00000     13.83095        -0.000001      0.000001     -0.111765
      6.33044      4.22029      7.50000        -0.000143      0.000000      0.467067
      0.00000      6.33044      7.50000         0.000004     -0.000120      0.466896
      6.33044      6.33044      9.61015        -0.000534     -0.001401      0.032663
      0.00000      4.22029      9.61015         0.000000      0.000001      0.035319
      6.32982      4.22029     11.73212        -0.002113      0.000003     -0.001615
      8.44058      6.33049     11.73120        -0.000002      0.001124      0.001707
      6.32993      6.33171     13.82789         0.017848     -0.008055     -0.095736
      8.44058      4.22029     13.82838         0.000002      0.000002     -0.084646
      2.11015      0.00000      9.61015        -0.001026      0.000001      0.047046
      4.22029      2.11015      9.61015        -0.000001      0.001804      0.049292
      2.11015      2.11015      7.50000        -0.000137     -0.000270     -0.435113
      4.22029      0.00000      7.50000        -0.000003      0.000003     -0.435040
      2.10987      0.00000     13.86973         0.009158     -0.000003     -0.022226
      4.22029      2.10838     13.86594        -0.000001      0.019856      0.015941
      2.10960      2.11015     11.72543         0.005218     -0.000899      0.012452
      4.22029      0.00000     11.72479        -0.000003      0.000003      0.018907
      2.11015      4.22029      9.61015         0.001605      0.000001      0.049132
      4.22029      6.33044      9.61015        -0.000006     -0.001806      0.049299
      2.11015      6.33044      7.50000        -0.000139      0.000270     -0.435104
      4.22029      4.22029      7.50000        -0.000006     -0.000002     -0.435471
      2.10796      4.22029     13.87113         0.037269     -0.000001     -0.017767
      4.22029      6.33221     13.86594        -0.000008     -0.019861      0.015943
      2.10960      6.33043     11.72543         0.005219      0.000896      0.012451
      4.22029      4.22029     11.72754        -0.000002      0.000002      0.013072
      6.33044      0.00000      9.61015         0.001029      0.000002      0.047051
      0.00000      2.11015      9.61015        -0.000001     -0.000896      0.046112
      6.33044      2.11015      7.50000         0.000141     -0.000274     -0.435109
      0.00000      0.00000      7.50000         0.000002      0.000004     -0.434860
      6.33071      0.00000     13.86973        -0.009157      0.000002     -0.022224
      8.44058      2.10996     13.86967         0.000003     -0.006533     -0.026517
      6.33098      2.11015     11.72543        -0.005216     -0.000900      0.012451
      8.44058      0.00000     11.72607         0.000000      0.000001      0.006401
      6.33044      4.22029      9.61015        -0.001602      0.000001      0.049135
      0.00000      6.33044      9.61015        -0.000000      0.000893      0.046120
      6.33044      6.33044      7.50000         0.000138      0.000271     -0.435122
      0.00000      4.22029      7.50000         0.000001     -0.000003     -0.435124
      6.33262      4.22029     13.87113        -0.037265      0.000002     -0.017759
      8.44058      6.33062     13.86967        -0.000000      0.006532     -0.026532
      6.33098      6.33043     11.72543        -0.005217      0.000896      0.012448
      8.44058      4.22029     11.72558        -0.000001      0.000002      0.010541
    total drift:                               -0.000004      0.000008      0.011989

  FREE ENERGIE OF THE ION-ELECTRON SYSTEM (eV)
  free  energy   TOTEN  =      -438.45316883 eV

  energy  without entropy=     -438.45316883  energy(sigma->0) =     -438.45316883