 vasp.6.3.0 20Jan22 (build Apr  1 2022 16:44:48) complex
 executed on        HPECrayEX_GCC date 2022.11.13  15:47:35

 INCAR:
   SYSTEM = MgO-rocksalt
   ISMEAR = 0
   SIGMA = 0.05
   EDIFF = 1E-6
   ALGO = ALL
   ISTART = 0
   IBRION = -1
   NSW = 0
   ISYM = 0
   DIPOL = 0.5 0.5 0.5
   IDIPOL = 3
   LDIPOL = .TRUE.
   LHFCALC = .TRUE.
   GGA = B5
   AEXX = 0.2
   AGGAX = 0.72
   AGGAC = 0.81
   ALDAC = 0.19
   IVDW = 1
   VDW_S6 = 1.05
   VDW_C6 = 1.23 0.70 0.63 0.70
   VDW_R0 = 1.397 1.342 1.243 1.342
   ENCUT = 600
   PREC = Accurate
   LASPH = .TRUE.
   LREAL = .FALSE.
   ISPIN = 2
   MAGMOM = 1.0 0.0 0.0 0.0 0.0 0.0 0.0 0.0 0.0 0.0 0.0 0.0 0.0 0.0 0.0 0.0 0.0 0.0 0.0 0.0 0.0 0.0 0.0 0.0 0.0 0.0 0.0 0.0 0.0 0.0 0.0 0.0 0.0 0.0 0.0 0.0 0.0 0.0 0.0 0.0 0.0 0.0 0.0 0.0 0.0 0.0 0.0 0.0 0.0 0.0 0.0 0.0 0.0 0.0 0.0 0.0 0.0 0.0 0.0 0.0 0.0 0.0 0.0 0.0 0.0 0.0
   NELM = 200
   NELMIN = 8
   NCORE = 8
   KPAR = 1
   LWAVE = .FALSE.
   LCHARG = .FALSE.

 POTCAR:    PAW_PBE N 08Apr2002
 POTCAR:    PAW_PBE O 08Apr2002
 POTCAR:    PAW_PBE Mg_pv 13Apr2007
 POTCAR:    PAW_PBE O 08Apr2002
 POTCAR:    PAW_PBE N 08Apr2002
   VRHFIN =N: s2p3

   TITEL  = PAW_PBE N 08Apr2002
   POMASS =   14.001; ZVAL   =    5.000    mass and valenz
   ENMAX  =  400.000; ENMIN  =  300.000 eV

[...]

   TITEL  = PAW_PBE Mg_pv 13Apr2007
   POMASS =   24.305; ZVAL   =    8.000    mass and valenz
   ENMAX  =  403.929; ENMIN  =  302.947 eV

   TITEL  = PAW_PBE O 08Apr2002
   POMASS =   16.000; ZVAL   =    6.000    mass and valenz
   ENMAX  =  400.000; ENMIN  =  300.000 eV

  PAW_PBE N 08Apr2002                   :
  PAW_PBE O 08Apr2002                   :
  PAW_PBE Mg_pv 13Apr2007               :
  PAW_PBE O 08Apr2002                   :

 POSCAR:  N  O Mg  O
  positions in direct lattice
 exchange correlation table for  LEXCH =       12
   RHO(1)=    0.500       N(1)  =     2000
   RHO(2)=  100.500       N(2)  =     4000

 ion  position               nearest neighbor table
   1  0.496  0.750  0.770-   2 1.19
   2  0.627  0.750  0.788-   1 1.19
   3  0.000  0.750  0.350-  35 2.14  37 2.14  38 2.14  45 2.14  54 2.14
   4  0.250  0.000  0.350-  36 2.14  37 2.14  38 2.14  46 2.14  53 2.14
   5  0.000  0.000  0.450-  41 2.14  37 2.14  35 2.14  36 2.14  43 2.14  52 2.14
   6  0.250  0.750  0.450-  38 2.14  36 2.14  35 2.14  44 2.14  51 2.14  42 2.14
   7  0.000  0.750  0.550-  42 2.14  49 2.14  41 2.14  35 2.14  58 2.14  39 2.16
   8  0.250  0.000  0.550-  41 2.14  50 2.14  42 2.14  57 2.14  36 2.15  40 2.15
   9  0.000  0.000  0.649-  41 2.13  47 2.13  40 2.14  39 2.14  56 2.14
  10  0.249  0.750  0.650-  39 2.13  42 2.13  40 2.13  48 2.13  55 2.15
  11  0.000  0.250  0.350-  43 2.14  37 2.14  45 2.14  46 2.14  62 2.14
  12  0.250  0.500  0.350-  44 2.14  38 2.14  45 2.14  46 2.14  61 2.14
  13  0.000  0.500  0.450-  49 2.14  45 2.14  44 2.14  35 2.14  43 2.14  60 2.14
  14  0.250  0.250  0.450-  46 2.14  43 2.14  44 2.14  36 2.14  59 2.14  50 2.14
  15  0.000  0.250  0.550-  50 2.14  49 2.14  41 2.14  66 2.14  43 2.14  47 2.16
  16  0.250  0.500  0.550-  49 2.14  50 2.14  42 2.14  65 2.14  44 2.15  48 2.15
  17  0.000  0.500  0.649-  49 2.13  47 2.13  48 2.14  39 2.14  64 2.14
  18  0.250  0.250  0.649-  50 2.13  47 2.13  40 2.14  48 2.14  63 2.14
  19  0.500  0.750  0.350-  51 2.14  38 2.14  53 2.14  54 2.14  61 2.14
  20  0.750  0.000  0.350-  52 2.14  37 2.14  53 2.14  54 2.14  62 2.14
  21  0.500  0.000  0.450-  53 2.14  51 2.14  52 2.14  36 2.14  59 2.14  57 2.14
  22  0.750  0.750  0.450-  54 2.14  51 2.14  52 2.14  35 2.14  60 2.14  58 2.14
  23  0.500  0.750  0.550-  42 2.13  65 2.13  57 2.13  51 2.13  58 2.14  55 2.17
  24  0.750  0.000  0.550-  66 2.14  41 2.14  57 2.14  58 2.14  52 2.14  56 2.16
  25  0.500  0.001  0.650-  63 2.13  57 2.13  40 2.13  56 2.14  55 2.15
  26  0.752  0.750  0.649-  39 2.12  58 2.12  56 2.13  64 2.13  55 2.15
  27  0.500  0.250  0.350-  59 2.14  53 2.14  46 2.14  61 2.14  62 2.14
  28  0.750  0.500  0.350-  60 2.14  54 2.14  45 2.14  61 2.14  62 2.14
  29  0.500  0.500  0.450-  61 2.14  51 2.14  59 2.14  60 2.14  44 2.14  65 2.14
  30  0.750  0.250  0.450-  62 2.14  52 2.14  59 2.14  60 2.14  43 2.14  66 2.14
  31  0.500  0.250  0.550-  66 2.14  50 2.14  65 2.14  57 2.14  59 2.14  63 2.16
  32  0.750  0.500  0.550-  66 2.14  49 2.14  65 2.14  58 2.14  60 2.14  64 2.16
  33  0.500  0.499  0.650-  63 2.13  65 2.13  48 2.13  64 2.14  55 2.15
  34  0.750  0.250  0.649-  66 2.13  47 2.14  63 2.14  56 2.14  64 2.14
  35  0.000  0.750  0.450-   3 2.14   5 2.14   6 2.14  13 2.14  22 2.14   7 2.14
  36  0.250  0.000  0.450-   4 2.14   5 2.14   6 2.14  14 2.14  21 2.14   8 2.15
  37  0.000  0.000  0.350-   5 2.14   4 2.14   3 2.14  11 2.14  20 2.14
  38  0.250  0.750  0.350-   6 2.14   4 2.14   3 2.14  12 2.14  19 2.14
  39  0.000  0.750  0.651-  26 2.12  10 2.13   9 2.14  17 2.14   7 2.16
  40  0.250  1.000  0.651-  25 2.13  10 2.13   9 2.14  18 2.14   8 2.15
  41  0.000  0.000  0.550-   9 2.13   8 2.14   5 2.14  15 2.14  24 2.14   7 2.14
  42  0.250  0.750  0.550-  23 2.13  10 2.13   7 2.14  16 2.14   8 2.14   6 2.14
  43  0.000  0.250  0.450-  11 2.14   5 2.14  13 2.14  14 2.14  30 2.14  15 2.14
  44  0.250  0.500  0.450-  12 2.14   6 2.14  13 2.14  14 2.14  29 2.14  16 2.15
  45  0.000  0.500  0.350-  13 2.14  11 2.14  12 2.14   3 2.14  28 2.14
  46  0.250  0.250  0.350-  14 2.14  11 2.14  12 2.14   4 2.14  27 2.14
  47  0.000  0.250  0.651-   9 2.13  17 2.13  18 2.13  34 2.14  15 2.16
  48  0.250  0.500  0.651-  33 2.13  10 2.13  17 2.14  18 2.14  16 2.15
  49  0.000  0.500  0.550-  17 2.13  16 2.14  13 2.14  15 2.14  32 2.14   7 2.14
  50  0.250  0.250  0.550-  18 2.13  15 2.14  16 2.14   8 2.14  14 2.14  31 2.14
  51  0.500  0.750  0.450-  23 2.13  19 2.14  21 2.14  22 2.14   6 2.14  29 2.14
  52  0.750  0.000  0.450-  20 2.14   5 2.14  21 2.14  22 2.14  30 2.14  24 2.14
  53  0.500  0.000  0.350-  21 2.14  19 2.14  20 2.14   4 2.14  27 2.14
  54  0.750  0.750  0.350-  22 2.14  19 2.14  20 2.14   3 2.14  28 2.14
  55  0.501  0.750  0.651-  33 2.15  25 2.15  10 2.15  26 2.15  23 2.17
  56  0.750  1.000  0.651-  26 2.13  25 2.14   9 2.14  34 2.14  24 2.16
  57  0.500  1.000  0.550-  25 2.13  23 2.13  24 2.14   8 2.14  31 2.14  21 2.14
  58  0.750  0.750  0.550-  26 2.12  23 2.14  22 2.14  32 2.14  24 2.14   7 2.14
  59  0.500  0.250  0.450-  27 2.14  21 2.14  14 2.14  29 2.14  30 2.14  31 2.14
  60  0.750  0.500  0.450-  28 2.14  22 2.14  13 2.14  29 2.14  30 2.14  32 2.14
  61  0.500  0.500  0.350-  29 2.14  19 2.14  27 2.14  28 2.14  12 2.14
  62  0.750  0.250  0.350-  30 2.14  20 2.14  27 2.14  28 2.14  11 2.14
  63  0.500  0.250  0.651-  25 2.13  33 2.13  34 2.14  18 2.14  31 2.16
  64  0.750  0.500  0.651-  26 2.13  33 2.14  17 2.14  34 2.14  32 2.16
  65  0.500  0.500  0.550-  33 2.13  23 2.13  32 2.14  16 2.14  31 2.14  29 2.14
  66  0.750  0.250  0.550-  34 2.13  32 2.14  24 2.14  30 2.14  15 2.14  31 2.14

IMPORTANT INFORMATION: All symmetrisations will be switched off!
NOSYMM: (Re-)initialisation of all symmetry stuff for point group C_1.

                                     Primitive cell

  volume of cell :    1563.6717

  direct lattice vectors                    reciprocal lattice vectors
     8.546113626  0.000000000  0.000000000     0.117012252  0.000000000  0.000000000
     0.000000000  8.546113626  0.000000000     0.000000000  0.117012252  0.000000000
     0.000000000  0.000000000 21.409585219     0.000000000  0.000000000  0.046708051

  length of vectors
     8.546113626  8.546113626 21.409585219     0.117012252  0.117012252  0.046708051

  position of ions in fractional coordinates (direct lattice)
     0.495854260  0.749999789  0.769856014
     0.626908189  0.750000004  0.788196400
     0.000000000  0.750000000  0.350310383
     0.250000000  0.000000000  0.350310383
     0.000000000  0.000000000  0.450103461
     0.250000000  0.750000000  0.450103461
     0.000422533  0.750000001  0.550090899
     0.249894166  0.000037740  0.550321836
     0.000176701  0.000288942  0.649438187
     0.248980712  0.750000010  0.649682397
     0.000000000  0.250000000  0.350310383
     0.250000000  0.500000000  0.350310383
     0.000000000  0.500000000  0.450103461
     0.250000000  0.250000000  0.450103461
     0.000064213  0.250000005  0.550105863
     0.249894192  0.499962261  0.550321837
     0.000176699  0.499711066  0.649438240
     0.249755145  0.249999996  0.649437344
     0.500000000  0.750000000  0.350310383
     0.750000000  0.000000000  0.350310383
     0.500000000  0.000000000  0.450103461
     0.750000000  0.750000000  0.450103461
     0.500017219  0.749999976  0.549815726
     0.750045448  0.000158354  0.550268012
     0.499864033  0.001309613  0.649514492
     0.752336680  0.750000005  0.648962486
     0.500000000  0.250000000  0.350310383
     0.750000000  0.500000000  0.350310383
     0.500000000  0.500000000  0.450103461
     0.750000000  0.250000000  0.450103461
     0.499996866  0.250000028  0.550148935
     0.750045409  0.499841649  0.550268019
     0.499864042  0.498690395  0.649514607
     0.750234220  0.249999999  0.649438737
     0.000000000  0.750000000  0.450103461
     0.250000000  0.000000000  0.450103461
     0.000000000  0.000000000  0.350310383
     0.250000000  0.750000000  0.350310383
     0.000296412  0.750000012  0.650890835
     0.250222337  0.999777699  0.650926188
     0.000008543  0.000068334  0.549857998
     0.250365878  0.749999995  0.549986307
     0.000000000  0.250000000  0.450103461
     0.250000000  0.500000000  0.450103461
     0.000000000  0.500000000  0.350310383
     0.250000000  0.250000000  0.350310383
     0.000029794  0.249999994  0.651068882
     0.250222327  0.500222307  0.650926217
     0.000008545  0.499931669  0.549858003
     0.249958592  0.250000010  0.549909475
     0.500000000  0.750000000  0.450103461
     0.750000000  0.000000000  0.450103461
     0.500000000  0.000000000  0.350310383
     0.750000000  0.750000000  0.350310383
     0.500653025  0.750000005  0.651008359
     0.749845493  0.999647380  0.650940299
     0.500011647  0.999773554  0.550028952
     0.749932465  0.749999997  0.549940817
     0.500000000  0.250000000  0.450103461
     0.750000000  0.500000000  0.450103461
     0.500000000  0.500000000  0.350310383
     0.750000000  0.250000000  0.350310383
     0.500013822  0.249999991  0.651024438
     0.749845492  0.500352629  0.650940330
     0.500011646  0.500226449  0.550028965
     0.750033776  0.250000010  0.549903780

  ion indices of the primitive-cell ions
   primitive index   ion index
                 1           1
                 2           2
                 3           3
                 4           4
                 5           5
                 6           6
                 7           7
                 8           8
                 9           9
                10          10
                11          11
                12          12
                13          13
                14          14
                15          15
                16          16
                17          17
                18          18
                19          19
                20          20
[...]
   0.50001165  0.99977355  0.55002895
   0.74993247  0.75000000  0.54994082
   0.50000000  0.25000000  0.45010346
   0.75000000  0.50000000  0.45010346
   0.50000000  0.50000000  0.35031038
   0.75000000  0.25000000  0.35031038
   0.50001382  0.24999999  0.65102444
   0.74984549  0.50035263  0.65094033
   0.50001165  0.50022645  0.55002896
   0.75003378  0.25000001  0.54990378

 position of ions in cartesian coordinates  (Angst):
   4.23762684  6.40958341 16.48229793
   5.35762861  6.40958525 16.87495800
   0.00000000  6.40958522  7.50000000
   2.13652841  0.00000000  7.50000000
   0.00000000  0.00000000  9.63652841
   2.13652841  6.40958522  9.63652841
   0.00361102  6.40958522 11.77721799
   2.13562394  0.00032253 11.78216224
   0.00151011  0.00246933 13.90420221
   2.12781746  6.40958531 13.90943065
   0.00000000  2.13652841  7.50000000
   2.13652841  4.27305681  7.50000000
   0.00000000  4.27305681  9.63652841
   2.13652841  2.13652841  9.63652841
   0.00054877  2.13652845 11.77753836
   2.13562416  4.27273429 11.78216226
   0.00151009  4.27058755 13.90420335
   2.13443585  2.13652837 13.90418417
   4.27305681  6.40958522  7.50000000
   6.40958522  0.00000000  7.50000000
   4.27305681  0.00000000  9.63652841
   6.40958522  6.40958522  9.63652841
   4.27320397  6.40958502 11.77132665
   6.40997362  0.00135332 11.78100990
   4.27189482  0.01119211 13.90583586
   6.42955475  6.40958526 13.89401764
   4.27305681  2.13652841  7.50000000
   6.40958522  4.27305681  7.50000000
   4.27305681  4.27305681  9.63652841
   6.40958522  2.13652841  9.63652841
   4.27303003  2.13652865 11.77846052
   6.40997329  4.27170352 11.78101005
   4.27189490  4.26186478 13.90583833
   6.41158689  2.13652840 13.90421399
   0.00000000  6.40958522  9.63652841
   2.13652841  0.00000000  9.63652841
   0.00000000  0.00000000  7.50000000
   2.13652841  6.40958522  7.50000000
   0.00253317  6.40958532 13.93530279
   2.13842852  8.54421382 13.93605969
   0.00007301  0.00058399 11.77223167
   2.13965525  6.40958518 11.77497871
   0.00000000  2.13652841  9.63652841
   2.13652841  4.27305681  9.63652841
   0.00000000  4.27305681  7.50000000
   2.13652841  2.13652841  7.50000000
   0.00025462  2.13652835 13.93911471
   2.13842844  4.27495668 13.93606033
   0.00007303  4.27247285 11.77223177
   2.13617453  2.13652849 11.77333377
   4.27305681  6.40958522  9.63652841
   6.40958522  0.00000000  9.63652841
   4.27305681  0.00000000  7.50000000
   6.40958522  6.40958522  7.50000000
   4.27863764  6.40958526 13.93781895
   6.40826479  8.54310009 13.93636181
   4.27315635  8.54417839 11.77589173
   6.40900806  6.40958519 11.77400480
   4.27305681  2.13652841  9.63652841
   6.40958522  4.27305681  9.63652841
   4.27305681  4.27305681  7.50000000
   6.40958522  2.13652841  7.50000000
   4.27317494  2.13652833 13.93816319
   6.40826478  4.27607042 13.93636248
   4.27315634  4.27499207 11.77589199
   6.40987388  2.13652849 11.77321185

--------------------------------------- Iteration      FINAL  ---------------------------------------

--------------------OUTCAR has been truncated-------------------------

[...]

--------------------OUTCAR has been truncated-------------------------

  DFT-D2 method for vdW energy calculation

  Parameters of vdW forcefield:
         C6(Jnm^6/mol)     R0(A)
   N        1.230          1.397
   O        0.700          1.342
   Mg       0.630          1.243
   O        0.700          1.342

  vdW correction parametrized for the method        ¬kB

  IVDW =   1
  VDW_RADIUS =    50.000 A
  VDW_S6 =     1.050
  VDW_SR =     1.000
  VDW_D =    20.000
  LVDW_EWALD = F

  Number of pair interactions contributing to vdW energy:  749140
  Edisp (eV):   -4.93685

 VOLUME and BASIS-vectors are now :
  energy-cutoff  :      600.00
  volume of cell :     1563.67
      direct lattice vectors                 reciprocal lattice vectors
     8.546113626  0.000000000  0.000000000     0.117012252  0.000000000  0.000000000
     0.000000000  8.546113626  0.000000000     0.000000000  0.117012252  0.000000000
     0.000000000  0.000000000 21.409585219     0.000000000  0.000000000  0.046708051

  length of vectors
     8.546113626  8.546113626 21.409585219     0.117012252  0.117012252  0.046708051

 FORCES acting on ions:
    Electron-Ion                     Ewald-Force                    Non-Local-Force
   0.245E+03 0.787E-03 -.119E+04   -.285E+03 -.408E-03 0.117E+04   0.386E+02 -.239E-03 0.116E+02
   -.231E+03 -.515E-03 -.149E+04   0.285E+03 0.521E-03 0.151E+04   -.491E+02 -.184E-04 -.178E+02
   -.103E+00 0.342E-04 0.202E+04   0.104E+00 -.517E-05 -.202E+04   -.956E-03 -.278E-04 -.633E+01
   0.196E+00 -.281E+00 0.202E+04   -.199E+00 0.284E+00 -.202E+04   0.203E-02 -.191E-02 -.634E+01
   -.402E+00 -.934E+00 0.702E+03   0.406E+00 0.948E+00 -.702E+03   -.285E-02 -.963E-02 0.329E+00
   0.127E+01 0.103E-04 0.703E+03   -.128E+01 -.141E-04 -.704E+03   0.754E-02 -.456E-06 0.371E+00
   -.222E+01 0.862E-04 -.610E+03   0.228E+01 -.954E-04 0.610E+03   -.605E-01 0.198E-05 -.223E+00
   0.405E+01 -.482E+01 -.614E+03   -.404E+01 0.480E+01 0.614E+03   0.270E-02 0.832E-02 -.346E+00
   -.705E+01 -.145E+02 -.194E+04   0.707E+01 0.146E+02 0.193E+04   -.224E-01 -.736E-01 0.559E+01
   0.310E+02 -.205E-05 -.191E+04   -.315E+02 0.819E-05 0.190E+04   0.516E+00 -.367E-05 0.569E+01
   -.952E-01 -.216E-04 0.202E+04   0.960E-01 0.511E-05 -.202E+04   -.462E-03 0.879E-05 -.634E+01
   0.196E+00 0.281E+00 0.202E+04   -.199E+00 -.284E+00 -.202E+04   0.203E-02 0.192E-02 -.634E+01
   -.402E+00 0.934E+00 0.702E+03   0.406E+00 -.948E+00 -.702E+03   -.285E-02 0.963E-02 0.329E+00
   0.539E+00 -.100E-04 0.701E+03   -.549E+00 0.123E-04 -.702E+03   0.750E-02 -.392E-05 0.346E+00
   -.107E+01 -.773E-04 -.619E+03   0.108E+01 0.890E-04 0.619E+03   -.145E-01 -.103E-04 -.173E+00
   0.405E+01 0.482E+01 -.614E+03   -.404E+01 -.480E+01 0.614E+03   0.270E-02 -.832E-02 -.346E+00
   -.705E+01 0.145E+02 -.194E+04   0.707E+01 -.146E+02 0.193E+04   -.224E-01 0.736E-01 0.559E+01
   0.105E+02 -.124E-04 -.195E+04   -.105E+02 0.697E-05 0.194E+04   0.732E-01 0.736E-05 0.561E+01
   0.108E+00 0.212E-04 0.202E+04   -.109E+00 -.289E-05 -.202E+04   0.349E-03 -.125E-04 -.632E+01
   -.199E+00 -.291E+00 0.202E+04   0.202E+00 0.294E+00 -.202E+04   -.197E-02 -.207E-02 -.634E+01
   0.466E+00 -.168E+01 0.703E+03   -.474E+00 0.170E+01 -.704E+03   0.428E-02 -.140E-01 0.384E+00
   -.132E+01 0.314E-04 0.704E+03   0.136E+01 -.202E-04 -.705E+03   -.193E-01 -.101E-04 0.366E+00
   0.264E+01 0.372E-05 -.597E+03   -.269E+01 -.225E-04 0.597E+03   0.427E-01 0.174E-04 0.178E+00
   -.437E+01 -.611E+01 -.609E+03   0.436E+01 0.613E+01 0.610E+03   0.324E-02 -.249E-01 -.329E+00
   0.906E+01 -.374E+02 -.190E+04   -.908E+01 0.379E+02 0.189E+04   0.266E-01 -.441E+00 0.569E+01
   -.362E+02 -.177E-05 -.187E+04   0.368E+02 0.357E-04 0.186E+04   -.605E+00 -.178E-04 0.577E+01
   0.977E-01 -.146E-04 0.202E+04   -.984E-01 0.283E-05 -.202E+04   0.452E-03 0.166E-04 -.633E+01
   -.199E+00 0.291E+00 0.202E+04   0.202E+00 -.294E+00 -.202E+04   -.197E-02 0.208E-02 -.634E+01
   0.466E+00 0.168E+01 0.703E+03   -.474E+00 -.170E+01 -.704E+03   0.430E-02 0.140E-01 0.384E+00
   -.587E+00 -.294E-04 0.702E+03   0.599E+00 0.185E-04 -.702E+03   -.813E-02 0.611E-05 0.348E+00
   0.138E+01 -.202E-04 -.612E+03   -.138E+01 0.225E-04 0.613E+03   0.227E-02 -.881E-05 -.211E+00
   -.437E+01 0.611E+01 -.609E+03   0.436E+01 -.613E+01 0.610E+03   0.325E-02 0.249E-01 -.329E+00
   0.906E+01 0.374E+02 -.190E+04   -.908E+01 -.379E+02 0.189E+04   0.266E-01 0.441E+00 0.569E+01
   -.110E+02 -.165E-04 -.194E+04   0.111E+02 -.110E-04 0.193E+04   -.670E-01 0.216E-04 0.560E+01
   -.271E+00 0.243E-04 0.527E+03   0.253E+00 -.213E-04 -.527E+03   0.193E-01 -.620E-05 -.483E-01
   0.565E+00 -.857E+00 0.526E+03   -.573E+00 0.865E+00 -.526E+03   0.113E-01 -.970E-02 -.115E+00
   -.751E-01 -.186E+00 0.152E+04   0.761E-01 0.189E+00 -.152E+04   -.122E-02 -.351E-02 0.315E+01
   0.180E+00 -.606E-05 0.152E+04   -.184E+00 -.273E-05 -.152E+04   0.536E-02 0.688E-05 0.315E+01
   -.977E+01 0.138E-04 -.146E+04   0.985E+01 -.887E-05 0.147E+04   -.679E-01 -.213E-04 -.441E+01
   0.155E+02 -.159E+02 -.146E+04   -.155E+02 0.159E+02 0.147E+04   -.318E-01 0.409E-01 -.440E+01
   -.118E+01 -.305E+01 -.457E+03   0.115E+01 0.304E+01 0.456E+03   0.268E-01 0.330E-02 0.229E+00
   0.393E+01 0.392E-04 -.453E+03   -.389E+01 -.346E-04 0.453E+03   -.507E-01 -.114E-05 0.145E+00
   -.254E+00 -.235E-04 0.526E+03   0.254E+00 0.196E-04 -.526E+03   -.493E-03 0.709E-05 -.753E-01
   0.565E+00 0.857E+00 0.526E+03   -.573E+00 -.865E+00 -.526E+03   0.113E-01 0.970E-02 -.115E+00
   -.751E-01 0.186E+00 0.152E+04   0.761E-01 -.189E+00 -.152E+04   -.124E-02 0.352E-02 0.315E+01
   0.118E+00 0.280E-05 0.152E+04   -.121E+00 0.268E-05 -.152E+04   0.356E-02 -.969E-05 0.315E+01
   -.285E+01 -.249E-04 -.148E+04   0.283E+01 0.157E-04 0.148E+04   0.232E-01 0.117E-04 -.434E+01
   0.155E+02 0.159E+02 -.146E+04   -.155E+02 -.159E+02 0.147E+04   -.318E-01 -.409E-01 -.440E+01
   -.118E+01 0.305E+01 -.457E+03   0.115E+01 -.304E+01 0.456E+03   0.268E-01 -.330E-02 0.229E+00
   0.207E+01 -.329E-04 -.458E+03   -.206E+01 0.267E-04 0.458E+03   -.773E-03 0.297E-05 0.241E+00
   0.362E+00 0.166E-04 0.529E+03   -.370E+00 -.278E-05 -.529E+03   0.964E-02 -.622E-05 0.823E-02
   -.612E+00 -.909E+00 0.527E+03   0.624E+00 0.912E+00 -.527E+03   -.156E-01 -.468E-02 -.101E+00
   0.776E-01 -.248E+00 0.152E+04   -.784E-01 0.252E+00 -.152E+04   0.101E-02 -.483E-02 0.315E+01
   -.184E+00 0.224E-04 0.152E+04   0.187E+00 -.330E-05 -.152E+04   -.441E-02 -.129E-04 0.315E+01
   0.136E+02 0.649E-04 -.138E+04   -.136E+02 0.739E-04 0.139E+04   -.311E-01 -.164E-03 -.383E+01
   -.170E+02 -.240E+02 -.145E+04   0.169E+02 0.240E+02 0.146E+04   0.538E-01 0.400E-01 -.444E+01
   0.152E+01 -.512E+01 -.451E+03   -.153E+01 0.510E+01 0.451E+03   0.639E-02 0.290E-01 0.180E+00
   -.430E+01 0.382E-04 -.446E+03   0.430E+01 -.326E-04 0.446E+03   0.186E-01 -.219E-05 0.299E+00
   0.294E+00 -.168E-04 0.526E+03   -.296E+00 0.156E-05 -.526E+03   0.237E-02 0.717E-05 -.537E-01
   -.612E+00 0.909E+00 0.527E+03   0.624E+00 -.912E+00 -.527E+03   -.156E-01 0.468E-02 -.101E+00
   0.776E-01 0.248E+00 0.152E+04   -.784E-01 -.252E+00 -.152E+04   0.103E-02 0.483E-02 0.315E+01
   -.120E+00 -.660E-05 0.152E+04   0.123E+00 0.326E-05 -.152E+04   -.347E-02 0.759E-05 0.315E+01
   0.327E+01 0.672E-05 -.147E+04   -.326E+01 -.184E-04 0.147E+04   -.170E-02 0.106E-04 -.435E+01
   -.170E+02 0.240E+02 -.145E+04   0.169E+02 -.240E+02 0.146E+04   0.538E-01 -.400E-01 -.444E+01
   0.152E+01 0.512E+01 -.451E+03   -.153E+01 -.510E+01 0.451E+03   0.639E-02 -.290E-01 0.180E+00
   -.232E+01 -.327E-04 -.457E+03   0.233E+01 0.274E-04 0.457E+03   -.116E-01 0.628E-05 0.229E+00
   0.137E+02 0.486E-03 0.219E+02   -.206E-12 0.186E-12 -.415E-11   -.106E+02 -.423E-03 -.189E+02

 POSITION                                       TOTAL-FORCE (eV/Angst)
      4.23763      6.40958     16.48230         1.866271      0.000118      0.686021
      5.35763      6.40959     16.87496        -1.902264     -0.000014     -0.669793
      0.00000      6.40959      7.50000         0.000467      0.000001      0.630914
      2.13653      0.00000      7.50000        -0.000979      0.000861      0.633473
      0.00000      0.00000      9.63653         0.000679      0.003597      0.012088
      2.13653      6.40959      9.63653        -0.003296     -0.000004      0.010074
      0.00361      6.40959     11.77722        -0.005645     -0.000006     -0.001694
      2.13562      0.00032     11.78216         0.014527     -0.008304     -0.008971
      0.00151      0.00247     13.90420        -0.007943     -0.003148     -0.287256
      2.12782      6.40959     13.90943         0.021421      0.000000     -0.292121
      0.00000      2.13653      7.50000         0.000200     -0.000008      0.633515
      2.13653      4.27306      7.50000        -0.000964     -0.000851      0.633374
      0.00000      4.27306      9.63653         0.000697     -0.003600      0.012105
      2.13653      2.13653      9.63653        -0.002401     -0.000003      0.013983
      0.00055      2.13653     11.77754        -0.003313     -0.000000      0.006326
      2.13562      4.27273     11.78216         0.014519      0.008304     -0.008979
      0.00151      4.27059     13.90420        -0.007958      0.003166     -0.287277
      2.13444      2.13653     13.90418         0.001812      0.000003     -0.292551
      4.27306      6.40959      7.50000        -0.000173      0.000004      0.627963
      6.40959      0.00000      7.50000         0.000913      0.000948      0.632741
      4.27306      0.00000      9.63653        -0.002293      0.007476      0.013129
      6.40959      6.40959      9.63653         0.010602     -0.000001      0.011785
      4.27320      6.40959     11.77133        -0.004871      0.000001      0.011417
      6.40997      0.00135     11.78101        -0.004964     -0.007435     -0.001756
      4.27189      0.01119     13.90584         0.005515     -0.020861     -0.297802
      6.42955      6.40959     13.89402        -0.016893      0.000014     -0.263405
      4.27306      2.13653      7.50000        -0.000192      0.000006      0.630865
      6.40959      4.27306      7.50000         0.000916     -0.000954      0.632741
      4.27306      4.27306      9.63653        -0.002294     -0.007481      0.013139
      6.40959      2.13653      9.63653         0.003128     -0.000005      0.011187
      4.27303      2.13653     11.77846        -0.001929     -0.000009      0.000238
      6.40997      4.27170     11.78101        -0.004951      0.007435     -0.001759
      4.27189      4.26186     13.90584         0.005494      0.020839     -0.297824
      6.41159      2.13653     13.90421         0.003983     -0.000004     -0.289949
      0.00000      6.40959      9.63653         0.004738     -0.000005      0.022521
      2.13653      0.00000      9.63653         0.004606     -0.003435      0.020861
      0.00000      0.00000      7.50000        -0.000418     -0.001160     -0.276535
      2.13653      6.40959      7.50000         0.001734     -0.000001     -0.274777
      0.00253      6.40959     13.93530         0.002455     -0.000020     -0.138645
      2.13843      8.54421     13.93606        -0.013617      0.017450     -0.123815
      0.00007      0.00058     11.77223         0.003336     -0.005806      0.036593
      2.13966      6.40959     11.77498        -0.014793      0.000004      0.016903
      0.00000      2.13653      9.63653        -0.000455      0.000004      0.013532
      2.13653      4.27306      9.63653         0.004598      0.003440      0.020866
      0.00000      4.27306      7.50000        -0.000427      0.001146     -0.276534
      2.13653      2.13653      7.50000         0.001186     -0.000005     -0.276747
      0.00025      2.13653     13.93911         0.002744      0.000004     -0.130700
      2.13843      4.27496     13.93606        -0.013618     -0.017451     -0.123846
      0.00007      4.27247     11.77223         0.003330      0.005804      0.036621
      2.13617      2.13653     11.77333         0.007730     -0.000004      0.030931
      4.27306      6.40959      9.63653         0.003332      0.000007      0.014320
      6.40959      0.00000      9.63653        -0.005584     -0.002288      0.020463
      4.27306      0.00000      7.50000         0.000332     -0.001590     -0.274393
      6.40959      6.40959      7.50000        -0.001425      0.000004     -0.274061
      4.27864      6.40959     13.93782         0.000322     -0.000050     -0.076871
      6.40826      8.54310     13.93636         0.015129      0.021329     -0.131675
      4.27316      8.54418     11.77589         0.000484      0.014040      0.007041
      6.40901      6.40959     11.77400         0.012457      0.000003      0.007731
      4.27306      2.13653      9.63653         0.000753     -0.000008      0.026617
      6.40959      4.27306      9.63653        -0.005571      0.002284      0.020467
      4.27306      4.27306      7.50000         0.000322      0.001577     -0.274377
      6.40959      2.13653      7.50000        -0.001131      0.000005     -0.276240
      4.27317      2.13653     13.93816        -0.000075     -0.000000     -0.127334
      6.40826      4.27607     13.93636         0.015145     -0.021327     -0.131659
      4.27316      4.27499     11.77589         0.000482     -0.014037      0.007035
      6.40987      2.13653     11.77321        -0.005925      0.000001      0.029765
    total drift:                                0.000096      0.000021      0.017340

  FREE ENERGIE OF THE ION-ELECTRON SYSTEM (eV)
  free  energy   TOTEN  =      -453.19832407 eV

  energy  without entropy=     -453.19832407  energy(sigma->0) =     -453.19832407