 vasp.6.3.0 20Jan22 (build Apr  1 2022 16:44:48) complex
 executed on        HPECrayEX_GCC date 2022.10.10  23:50:42

 INCAR:
   SYSTEM = MgO-rocksalt
   ISMEAR = 0
   SIGMA = 0.05
   EDIFF = 1E-6
   ALGO = ALL
   ISTART = 0
   IBRION = -1
   NSW = 0
   ISYM = 0
   DIPOL = 0.5 0.5 0.5
   IDIPOL = 3
   LDIPOL = .TRUE.
   LHFCALC = .TRUE.
   GGA = B5
   AEXX = 0.2
   AGGAX = 0.72
   AGGAC = 0.81
   ALDAC = 0.19
   IVDW = 1
   VDW_S6 = 1.05
   VDW_C6 = 1.75 0.14 0.63 0.70
   VDW_R0 = 1.452 1.001 1.243 1.342
   ENCUT = 600
   PREC = Accurate
   LASPH = .TRUE.
   LREAL = .FALSE.
   ISPIN = 1
   NELM = 200
   NELMIN = 8
   NCORE = 8
   KPAR = 1
   LWAVE = .FALSE.
   LCHARG = .FALSE.

 POTCAR:    PAW_PBE C 08Apr2002
 POTCAR:    PAW_PBE H 15Jun2001
 POTCAR:    PAW_PBE Mg_pv 13Apr2007
 POTCAR:    PAW_PBE O 08Apr2002
 POTCAR:    PAW_PBE C 08Apr2002
   VRHFIN =C: s2p2

   TITEL  = PAW_PBE C 08Apr2002
   POMASS =   12.011; ZVAL   =    4.000    mass and valenz
   ENMAX  =  400.000; ENMIN  =  300.000 eV

   TITEL  = PAW_PBE H 15Jun2001
   POMASS =    1.000; ZVAL   =    1.000    mass and valenz
   ENMAX  =  250.000; ENMIN  =  200.000 eV

   TITEL  = PAW_PBE Mg_pv 13Apr2007
   POMASS =   24.305; ZVAL   =    8.000    mass and valenz
   ENMAX  =  403.929; ENMIN  =  302.947 eV

   TITEL  = PAW_PBE O 08Apr2002
   POMASS =   16.000; ZVAL   =    6.000    mass and valenz
   ENMAX  =  400.000; ENMIN  =  300.000 eV

  PAW_PBE C 08Apr2002                   :
  PAW_PBE H 15Jun2001                   :
  PAW_PBE Mg_pv 13Apr2007               :
  PAW_PBE O 08Apr2002                   :

 POSCAR:  C  H Mg  O
  positions in direct lattice
 exchange correlation table for  LEXCH =       12
   RHO(1)=    0.500       N(1)  =     2000
   RHO(2)=  100.500       N(2)  =     4000

 ion  position               nearest neighbor table
   1  0.500  0.500  0.791-   3 1.09   2 1.09   5 1.09   4 1.09
   2  0.500  0.607  0.820-   1 1.09
   3  0.500  0.393  0.820-   1 1.09
   4  0.608  0.500  0.762-   1 1.09
   5  0.392  0.500  0.762-   1 1.09
   6  0.250  0.000  0.353-  40 2.09  41 2.09  48 2.09  57 2.09  38 2.09
   7  0.500  0.250  0.353-  40 2.09  41 2.09  49 2.09  56 2.09  39 2.09
   8  0.250  0.250  0.451-  38 2.09  39 2.09  46 2.09  55 2.09  40 2.09  44 2.09
   9  0.500  0.000  0.451-  38 2.09  39 2.09  47 2.09  54 2.09  41 2.09  45 2.09
  10  0.250  0.000  0.550-  45 2.09  61 2.09  44 2.09  52 2.09  38 2.10  42 2.12
  11  0.500  0.250  0.550-  53 2.09  44 2.09  60 2.09  45 2.09  39 2.10  43 2.12
  12  0.250  0.250  0.647-  44 2.08  42 2.09  43 2.09  59 2.09  50 2.09
  13  0.500  0.000  0.647-  45 2.08  51 2.09  43 2.09  42 2.09  58 2.09
  14  0.250  0.500  0.353-  40 2.09  48 2.09  49 2.09  65 2.09  46 2.09
  15  0.500  0.750  0.353-  41 2.09  48 2.09  49 2.09  64 2.09  47 2.09
  16  0.250  0.750  0.451-  38 2.09  46 2.09  47 2.09  63 2.09  48 2.09  52 2.09
  17  0.500  0.500  0.451-  39 2.09  46 2.09  47 2.09  62 2.09  49 2.09  53 2.10
  18  0.250  0.500  0.550-  53 2.09  44 2.09  52 2.09  69 2.09  46 2.10  50 2.12
  19  0.500  0.750  0.550-  53 2.09  68 2.09  52 2.09  45 2.09  47 2.10  51 2.12
  20  0.250  0.750  0.647-  52 2.08  42 2.09  51 2.09  67 2.09  50 2.09
  21  0.500  0.500  0.648-  43 2.09  51 2.09  66 2.09  50 2.09  53 2.09
  22  0.750  0.000  0.353-  41 2.09  56 2.09  57 2.09  64 2.09  54 2.09
  23  0.000  0.250  0.353-  40 2.09  56 2.09  57 2.09  65 2.09  55 2.09
  24  0.750  0.250  0.451-  39 2.09  54 2.09  55 2.09  62 2.09  56 2.09  60 2.09
  25  0.000  0.000  0.451-  38 2.09  54 2.09  55 2.09  63 2.09  57 2.09  61 2.10
  26  0.750  0.000  0.550-  45 2.09  61 2.09  60 2.09  68 2.09  54 2.10  58 2.12
  27  1.000  0.250  0.550-  60 2.09  44 2.09  61 2.09  69 2.09  55 2.10  59 2.12
  28  0.750  0.250  0.647-  60 2.08  58 2.09  43 2.09  59 2.09  66 2.09
  29  1.000  1.000  0.647-  61 2.08  67 2.09  59 2.09  58 2.09  42 2.09
  30  0.750  0.500  0.353-  49 2.09  56 2.09  64 2.09  65 2.09  62 2.09
  31  0.000  0.750  0.353-  48 2.09  57 2.09  64 2.09  65 2.09  63 2.09
  32  0.750  0.750  0.451-  47 2.09  54 2.09  62 2.09  63 2.09  64 2.09  68 2.09
  33  0.000  0.500  0.451-  46 2.09  55 2.09  62 2.09  63 2.09  65 2.09  69 2.10
  34  0.750  0.500  0.550-  53 2.09  60 2.09  68 2.09  69 2.09  62 2.10  66 2.12
  35  1.000  0.750  0.550-  68 2.09  52 2.09  61 2.09  69 2.09  63 2.10  67 2.12
  36  0.750  0.750  0.647-  68 2.08  58 2.09  51 2.09  67 2.09  66 2.09
  37  1.000  0.500  0.647-  69 2.08  50 2.08  66 2.08  67 2.09  59 2.09
  38  0.250  0.000  0.451-   8 2.09   9 2.09  16 2.09  25 2.09   6 2.09  10 2.10
  39  0.500  0.250  0.451-   8 2.09   9 2.09  17 2.09  24 2.09   7 2.09  11 2.10
  40  0.250  0.250  0.353-   6 2.09   7 2.09  14 2.09  23 2.09   8 2.09
  41  0.500  0.000  0.353-   6 2.09   7 2.09  15 2.09  22 2.09   9 2.09
  42  0.250  0.000  0.650-  12 2.09  20 2.09  29 2.09  13 2.09  10 2.12
  43  0.500  0.250  0.649-  13 2.09  12 2.09  28 2.09  21 2.09  11 2.12
  44  0.250  0.250  0.549-  12 2.08  27 2.09  18 2.09  10 2.09  11 2.09   8 2.09
  45  0.500  0.000  0.549-  13 2.08  26 2.09  10 2.09  11 2.09  19 2.09   9 2.09
  46  0.250  0.500  0.451-   8 2.09  16 2.09  17 2.09  33 2.09  14 2.09  18 2.10
  47  0.500  0.750  0.451-   9 2.09  16 2.09  17 2.09  32 2.09  15 2.09  19 2.10
  48  0.250  0.750  0.353-   6 2.09  14 2.09  15 2.09  31 2.09  16 2.09
  49  0.500  0.500  0.353-   7 2.09  14 2.09  15 2.09  30 2.09  17 2.09
  50  0.250  0.500  0.650-  37 2.08  12 2.09  20 2.09  21 2.09  18 2.12
  51  0.500  0.750  0.649-  13 2.09  20 2.09  36 2.09  21 2.09  19 2.12
  52  0.250  0.750  0.549-  20 2.08  35 2.09  18 2.09  10 2.09  19 2.09  16 2.09
  53  0.500  0.500  0.550-  11 2.09  19 2.09  18 2.09  34 2.09  21 2.09  17 2.10
  54  0.750  0.000  0.451-   9 2.09  24 2.09  25 2.09  32 2.09  22 2.09  26 2.10
  55  0.000  0.250  0.451-   8 2.09  24 2.09  25 2.09  33 2.09  23 2.09  27 2.10
  56  0.750  0.250  0.353-   7 2.09  22 2.09  23 2.09  30 2.09  24 2.09
  57  0.000  0.000  0.353-   6 2.09  22 2.09  23 2.09  31 2.09  25 2.09
  58  0.750  0.000  0.650-  28 2.09  36 2.09  29 2.09  13 2.09  26 2.12
  59  1.000  0.250  0.650-  29 2.09  28 2.09  12 2.09  37 2.09  27 2.12
  60  0.750  0.250  0.549-  28 2.08  27 2.09  34 2.09  26 2.09  11 2.09  24 2.09
  61  1.000  0.000  0.549-  29 2.08  27 2.09  35 2.09  26 2.09  10 2.09  25 2.10
  62  0.750  0.500  0.451-  17 2.09  24 2.09  32 2.09  33 2.09  30 2.09  34 2.10
  63  0.000  0.750  0.451-  16 2.09  25 2.09  32 2.09  33 2.09  31 2.09  35 2.10
  64  0.750  0.750  0.353-  15 2.09  22 2.09  30 2.09  31 2.09  32 2.09
  65  0.000  0.500  0.353-  14 2.09  23 2.09  30 2.09  31 2.09  33 2.09
  66  0.750  0.500  0.650-  37 2.08  28 2.09  36 2.09  21 2.09  34 2.12
  67  1.000  0.750  0.650-  29 2.09  36 2.09  20 2.09  37 2.09  35 2.12
  68  0.750  0.750  0.549-  36 2.08  35 2.09  34 2.09  26 2.09  19 2.09  32 2.09
  69  1.000  0.500  0.549-  37 2.08  27 2.09  35 2.09  34 2.09  18 2.09  33 2.10

IMPORTANT INFORMATION: All symmetrisations will be switched off!
NOSYMM: (Re-)initialisation of all symmetry stuff for point group C_1.

                                     Primitive cell

  volume of cell :    1482.1129

  direct lattice vectors                    reciprocal lattice vectors
     8.349111827  0.000000000  0.000000000     0.119773219  0.000000000  0.000000000
     0.000000000  8.349111827  0.000000000     0.000000000  0.119773219  0.000000000
     0.000000000  0.000000000 21.261833870     0.000000000  0.000000000  0.047032632

  length of vectors
     8.349111827  8.349111827 21.261833870     0.119773219  0.119773219  0.047032632

  position of ions in fractional coordinates (direct lattice)
     0.499999845  0.499999895  0.790985147
     0.500000026  0.606873873  0.820340115
     0.500000007  0.393126242  0.820340086
     0.607710071  0.500000027  0.761840837
     0.392290109  0.500000032  0.761840868
     0.250000000  0.000000000  0.352744737
     0.500000000  0.250000000  0.352744737
     0.250000000  0.250000000  0.450914912
     0.500000000  0.000000000  0.450914912
     0.250002059  0.000000021  0.549701940
     0.499999985  0.250125161  0.549775393
     0.250052983  0.249810988  0.647256905
     0.499999998  0.000000017  0.647286844
     0.250000000  0.500000000  0.352744737
     0.500000000  0.750000000  0.352744737
     0.250000000  0.750000000  0.450914912
     0.500000000  0.500000000  0.450914912
     0.250118172  0.499999977  0.549775604
     0.500000000  0.749874868  0.549775364
     0.250053002  0.750189031  0.647256894
     0.500000008  0.499999949  0.647956803
     0.750000000  0.000000000  0.352744737
     0.000000000  0.250000000  0.352744737
     0.750000000  0.250000000  0.450914912
     0.000000000  0.000000000  0.450914912
     0.749997956  0.000000020  0.549701949
     0.999999991  0.249987696  0.549722026
     0.749947068  0.249810996  0.647256912
     0.999999968  0.999999984  0.647396083
     0.750000000  0.500000000  0.352744737
     0.000000000  0.750000000  0.352744737
     0.750000000  0.750000000  0.450914912
     0.000000000  0.500000000  0.450914912
     0.749881839  0.499999992  0.549775619
     0.999999987  0.750012315  0.549721997
     0.749947072  0.750189020  0.647256912
     0.999999997  0.500000019  0.647300533
     0.250000000  0.000000000  0.450914912
     0.500000000  0.250000000  0.450914912
     0.250000000  0.250000000  0.352744737
     0.500000000  0.000000000  0.352744737
     0.249940563  0.000000012  0.649608281
     0.500000000  0.249734324  0.649381278
     0.249916718  0.250009585  0.549418272
     0.500000016  0.000000041  0.549347396
     0.250000000  0.500000000  0.450914912
     0.500000000  0.750000000  0.450914912
     0.250000000  0.750000000  0.352744737
     0.500000000  0.500000000  0.352744737
     0.249632364  0.499999972  0.649687261
     0.499999991  0.750265729  0.649381281
     0.249916704  0.749990416  0.549418280
     0.500000002  0.499999951  0.549569470
     0.750000000  0.000000000  0.450914912
     0.000000000  0.250000000  0.450914912
     0.750000000  0.250000000  0.352744737
     0.000000000  0.000000000  0.352744737
     0.750059501  0.000000017  0.649608277
     0.999999995  0.249924609  0.649612784
     0.750083283  0.250009563  0.549418263
     0.999999989  0.000000014  0.549473329
     0.750000000  0.500000000  0.450914912
     0.000000000  0.750000000  0.450914912
     0.750000000  0.750000000  0.352744737
     0.000000000  0.500000000  0.352744737
     0.750367624  0.499999984  0.649687255
     0.999999980  0.750075386  0.649612778
     0.750083279  0.749990421  0.549418288
     0.999999990  0.499999963  0.549448751

  ion indices of the primitive-cell ions
   primitive index   ion index
                 1           1
                 2           2
                 3           3
                 4           4
                 5           5
                 6           6
                 7           7
                 8           8
                 9           9
                10          10
                11          11
                12          12
                13          13
                14          14
                15          15
                16          16
[...]
   4.17455591  2.08727796  7.50000000
   2.08727796  2.08727796  9.58727796
   4.17455591  0.00000000  9.58727796
   2.08729515  0.00000018 11.68767132
   4.17455579  2.08832294 11.68923308
   2.08772032  2.08569988 13.76186878
   4.17455590  0.00000014 13.76250534
   2.08727796  4.17455591  7.50000000
   4.17455591  6.26183387  7.50000000
   2.08727796  6.26183387  9.58727796
   4.17455591  4.17455591  9.58727796
   2.08826458  4.17455572 11.68923756
   4.17455591  6.26078913 11.68923246
   2.08772048  6.26341211 13.76186856
   4.17455598  4.17455549 13.77674991
   6.26183387  0.00000000  7.50000000
   0.00000000  2.08727796  7.50000000
   6.26183387  2.08727796  9.58727796
   0.00000000  0.00000000  9.58727796
   6.26181681  0.00000017 11.68767152
   8.34911175  2.08717523 11.68809840
   6.26139194  2.08569994 13.76186893
   8.34911156  8.34911169 13.76482796
   6.26183387  4.17455591  7.50000000
   0.00000000  6.26183387  7.50000000
   6.26183387  6.26183387  9.58727796
   0.00000000  4.17455591  9.58727796
   6.26084733  4.17455585 11.68923788
   8.34911172  6.26193669 11.68809779
   6.26139197  6.26341202 13.76186893
   8.34911180  4.17455607 13.76279640
   2.08727796  0.00000000  9.58727796
   4.17455591  2.08727796  9.58727796
   2.08727796  2.08727796  7.50000000
   4.17455591  0.00000000  7.50000000
   2.08678171  0.00000010 13.81186335
   4.17455592  2.08505980 13.80703685
   2.08658262  2.08735798 11.68164002
   4.17455605  0.00000034 11.68013307
   2.08727796  4.17455591  9.58727796
   4.17455591  6.26183387  9.58727796
   2.08727796  6.26183387  7.50000000
   4.17455591  4.17455591  7.50000000
   2.08420852  4.17455568 13.81354261
   4.17455584  6.26405247 13.80703691
   2.08658251  6.26175385 11.68164019
   4.17455593  4.17455551 11.68485476
   6.26183387  0.00000000  9.58727796
   0.00000000  2.08727796  9.58727796
   6.26183387  2.08727796  7.50000000
   0.00000000  0.00000000  7.50000000
   6.26233065  0.00000014 13.81186327
   8.34911179  2.08664851 13.81195909
   6.26252921  2.08735780 11.68163983
   8.34911173  0.00000011 11.68281064
   6.26183387  4.17455591  9.58727796
   0.00000000  6.26183387  9.58727796
   6.26183387  6.26183387  7.50000000
   0.00000000  4.17455591  7.50000000
   6.26490320  4.17455578 13.81354248
   8.34911166  6.26246327 13.81195897
   6.26252917  6.26175390 11.68164037
   8.34911174  4.17455561 11.68228806

--------------------------------------- Iteration      FINAL  ---------------------------------------

--------------------OUTCAR has been truncated-------------------------

[...]

--------------------OUTCAR has been truncated-------------------------

  DFT-D2 method for vdW energy calculation

  Parameters of vdW forcefield:
         C6(Jnm^6/mol)     R0(A)
   C        1.750          1.452
   H        0.140          1.001
   Mg       0.630          1.243
   O        0.700          1.342

  vdW correction parametrized for the method .ý      

  IVDW =   1
  VDW_RADIUS =    50.000 A
  VDW_S6 =     1.050
  VDW_SR =     1.000
  VDW_D =    20.000
  LVDW_EWALD = F

  Number of pair interactions contributing to vdW energy:  860611
  Edisp (eV):   -5.48734

 VOLUME and BASIS-vectors are now :
  energy-cutoff  :      600.00
  volume of cell :     1482.11
      direct lattice vectors                 reciprocal lattice vectors
     8.349111827  0.000000000  0.000000000     0.119773219  0.000000000  0.000000000
     0.000000000  8.349111827  0.000000000     0.000000000  0.119773219  0.000000000
     0.000000000  0.000000000 21.261833870     0.000000000  0.000000000  0.047032632

  length of vectors
     8.349111827  8.349111827 21.261833870     0.119773219  0.119773219  0.047032632

 FORCES acting on ions:
    Electron-Ion                     Ewald-Force                    Non-Local-Force
   -.430E-04 -.539E-04 -.974E+03   0.971E-04 0.781E-04 0.974E+03   0.685E-04 0.513E-04 -.390E-01
   -.597E-04 -.434E+02 -.241E+03   0.677E-04 0.481E+02 0.244E+03   -.844E-05 -.460E+01 -.321E+01
   -.523E-04 0.434E+02 -.241E+03   0.599E-04 -.481E+02 0.244E+03   -.794E-05 0.460E+01 -.321E+01
   -.436E+02 -.523E-04 -.246E+03   0.484E+02 0.549E-04 0.243E+03   -.467E+01 -.653E-05 0.308E+01
   0.436E+02 -.543E-04 -.246E+03   -.484E+02 0.586E-04 0.243E+03   0.467E+01 -.690E-05 0.308E+01
   0.144E+00 0.540E-05 0.213E+04   -.143E+00 -.471E-05 -.213E+04   -.425E-03 0.392E-06 -.644E+01
   -.300E-05 0.127E+00 0.213E+04   0.101E-05 -.126E+00 -.213E+04   -.204E-05 -.711E-03 -.644E+01
   0.579E+00 0.521E+00 0.729E+03   -.575E+00 -.516E+00 -.730E+03   -.229E-02 -.327E-02 0.429E+00
   0.277E-05 0.328E-04 0.729E+03   0.566E-06 -.249E-04 -.730E+03   -.203E-05 -.412E-05 0.388E+00
   0.241E+01 0.130E-03 -.669E+03   -.240E+01 -.127E-03 0.669E+03   -.843E-02 -.401E-05 -.136E+00
   -.473E-04 0.395E+01 -.663E+03   0.519E-04 -.393E+01 0.663E+03   -.194E-06 -.242E-01 -.296E+00
   0.151E+02 0.153E+02 -.205E+04   -.151E+02 -.154E+02 0.204E+04   -.130E-01 0.740E-01 0.541E+01
   -.978E-04 0.861E-04 -.206E+04   0.889E-04 -.926E-04 0.205E+04   0.983E-05 0.438E-05 0.538E+01
   0.150E+00 -.573E-05 0.213E+04   -.149E+00 0.518E-05 -.213E+04   -.981E-03 -.174E-05 -.644E+01
   0.101E-06 -.127E+00 0.213E+04   0.137E-05 0.126E+00 -.213E+04   0.871E-06 0.716E-03 -.644E+01
   0.579E+00 -.521E+00 0.729E+03   -.575E+00 0.516E+00 -.730E+03   -.228E-02 0.327E-02 0.429E+00
   -.151E-04 -.464E-04 0.730E+03   0.182E-04 0.397E-04 -.730E+03   -.151E-05 0.549E-05 0.461E+00
   0.397E+01 -.191E-03 -.663E+03   -.395E+01 0.187E-03 0.664E+03   -.224E-01 0.675E-05 -.161E+00
   0.183E-04 -.395E+01 -.663E+03   -.123E-04 0.393E+01 0.663E+03   -.424E-05 0.242E-01 -.296E+00
   0.151E+02 -.153E+02 -.205E+04   -.151E+02 0.154E+02 0.204E+04   -.130E-01 -.740E-01 0.541E+01
   0.353E-04 -.354E-03 -.200E+04   -.307E-04 0.345E-03 0.199E+04   -.362E-05 0.162E-04 0.534E+01
   -.144E+00 0.679E-05 0.213E+04   0.143E+00 -.540E-05 -.213E+04   0.422E-03 -.173E-05 -.644E+01
   -.305E-06 0.120E+00 0.213E+04   -.388E-06 -.120E+00 -.213E+04   -.600E-06 -.119E-03 -.644E+01
   -.579E+00 0.521E+00 0.729E+03   0.575E+00 -.516E+00 -.730E+03   0.229E-02 -.327E-02 0.429E+00
   -.124E-04 0.121E-04 0.728E+03   0.938E-05 -.813E-05 -.728E+03   0.924E-06 -.166E-05 0.448E+00
   -.241E+01 0.143E-03 -.669E+03   0.240E+01 -.136E-03 0.669E+03   0.843E-02 -.689E-05 -.136E+00
   -.608E-04 0.234E+01 -.669E+03   0.575E-04 -.233E+01 0.670E+03   0.322E-05 -.336E-02 -.151E+00
   -.151E+02 0.153E+02 -.205E+04   0.151E+02 -.154E+02 0.204E+04   0.130E-01 0.740E-01 0.541E+01
   -.257E-03 0.262E-04 -.207E+04   0.247E-03 -.401E-04 0.206E+04   0.138E-04 0.164E-04 0.538E+01
   -.150E+00 -.243E-05 0.213E+04   0.149E+00 0.551E-05 -.213E+04   0.982E-03 -.262E-05 -.644E+01
   -.113E-05 -.120E+00 0.213E+04   -.104E-05 0.120E+00 -.213E+04   0.103E-05 0.120E-03 -.644E+01
   -.579E+00 -.521E+00 0.729E+03   0.575E+00 0.516E+00 -.730E+03   0.229E-02 0.327E-02 0.429E+00
   0.422E-05 -.268E-04 0.729E+03   -.599E-05 0.209E-04 -.729E+03   0.992E-06 0.313E-05 0.429E+00
   -.397E+01 -.111E-03 -.663E+03   0.395E+01 0.107E-03 0.664E+03   0.224E-01 0.257E-05 -.161E+00
   -.676E-04 -.234E+01 -.669E+03   0.683E-04 0.233E+01 0.670E+03   0.530E-06 0.335E-02 -.151E+00
   -.151E+02 -.153E+02 -.205E+04   0.151E+02 0.154E+02 0.204E+04   0.130E-01 -.740E-01 0.541E+01
   -.707E-04 -.459E-04 -.206E+04   0.757E-04 0.552E-04 0.205E+04   -.273E-05 -.311E-05 0.538E+01
   0.457E+00 0.239E-04 0.546E+03   -.447E+00 -.246E-04 -.546E+03   -.132E-01 -.737E-06 -.869E-01
   -.444E-05 0.419E+00 0.547E+03   0.682E-05 -.432E+00 -.547E+03   -.257E-05 0.155E-01 -.105E+00
   0.109E+00 0.926E-01 0.160E+04   -.108E+00 -.920E-01 -.161E+04   -.133E-02 -.794E-03 0.310E+01
   -.377E-08 0.430E-05 0.160E+04   0.333E-06 -.381E-05 -.161E+04   -.477E-08 -.169E-05 0.310E+01
   0.608E+01 0.611E-04 -.157E+04   -.607E+01 -.625E-04 0.158E+04   -.116E-01 0.311E-05 -.466E+01
   -.646E-04 0.195E+02 -.155E+04   0.704E-04 -.194E+02 0.155E+04   -.317E-05 -.719E-01 -.472E+01
   0.234E+01 0.231E+01 -.493E+03   -.232E+01 -.230E+01 0.493E+03   -.180E-01 -.520E-02 0.320E+00
   0.137E-04 0.122E-03 -.494E+03   -.977E-05 -.119E-03 0.493E+03   -.450E-05 -.493E-05 0.291E+00
   0.502E+00 -.320E-04 0.547E+03   -.509E+00 0.314E-04 -.546E+03   0.757E-02 0.206E-05 -.990E-01
   -.319E-05 -.419E+00 0.547E+03   0.388E-05 0.432E+00 -.547E+03   -.499E-06 -.155E-01 -.105E+00
   0.109E+00 -.926E-01 0.160E+04   -.108E+00 0.920E-01 -.161E+04   -.133E-02 0.796E-03 0.310E+01
   -.195E-05 -.405E-05 0.160E+04   0.172E-05 0.417E-05 -.161E+04   -.817E-06 0.672E-06 0.310E+01
   0.197E+02 -.166E-03 -.155E+04   -.196E+02 0.176E-03 0.155E+04   -.563E-01 -.395E-05 -.464E+01
   -.837E-04 -.195E+02 -.155E+04   0.922E-04 0.194E+02 0.155E+04   -.479E-05 0.719E-01 -.472E+01
   0.234E+01 -.231E+01 -.493E+03   -.232E+01 0.230E+01 0.493E+03   -.180E-01 0.521E-02 0.320E+00
   -.117E-04 -.229E-03 -.490E+03   0.147E-04 0.234E-03 0.489E+03   -.328E-05 -.273E-08 0.154E+00
   -.457E+00 0.304E-04 0.546E+03   0.447E+00 -.307E-04 -.546E+03   0.132E-01 -.366E-05 -.869E-01
   -.661E-05 0.370E+00 0.546E+03   0.642E-05 -.365E+00 -.546E+03   0.214E-05 -.573E-02 -.914E-01
   -.109E+00 0.926E-01 0.160E+04   0.108E+00 -.920E-01 -.161E+04   0.133E-02 -.794E-03 0.310E+01
   -.215E-06 0.162E-05 0.160E+04   0.153E-07 -.264E-05 -.161E+04   0.138E-05 -.141E-05 0.310E+01
   -.608E+01 0.550E-04 -.157E+04   0.607E+01 -.597E-04 0.158E+04   0.116E-01 0.290E-05 -.466E+01
   -.108E-03 0.636E+01 -.157E+04   0.116E-03 -.634E+01 0.158E+04   -.663E-05 -.225E-01 -.465E+01
   -.234E+01 0.231E+01 -.493E+03   0.232E+01 -.230E+01 0.493E+03   0.180E-01 -.520E-02 0.320E+00
   -.933E-04 0.524E-04 -.498E+03   0.948E-04 -.554E-04 0.498E+03   -.275E-06 0.798E-06 0.274E+00
   -.502E+00 -.321E-04 0.547E+03   0.509E+00 0.278E-04 -.546E+03   -.757E-02 0.361E-05 -.990E-01
   -.858E-06 -.370E+00 0.546E+03   0.153E-05 0.365E+00 -.546E+03   -.492E-06 0.574E-02 -.914E-01
   -.109E+00 -.926E-01 0.160E+04   0.108E+00 0.920E-01 -.161E+04   0.133E-02 0.795E-03 0.310E+01
   0.623E-06 -.992E-06 0.160E+04   -.134E-05 0.292E-05 -.161E+04   -.104E-05 -.155E-05 0.310E+01
   -.197E+02 -.114E-03 -.155E+04   0.196E+02 0.119E-03 0.155E+04   0.563E-01 -.236E-05 -.464E+01
   -.189E-03 -.636E+01 -.157E+04   0.201E-03 0.634E+01 0.158E+04   -.580E-05 0.225E-01 -.465E+01
   -.234E+01 -.231E+01 -.493E+03   0.232E+01 0.230E+01 0.493E+03   0.180E-01 0.520E-02 0.320E+00
   -.493E-04 -.119E-03 -.494E+03   0.519E-04 0.126E-03 0.494E+03   -.260E-06 -.170E-05 0.307E+00
   -.465E-04 -.365E-04 0.201E+02   0.185E-12 0.156E-12 0.483E-11   0.695E-04 0.628E-04 -.177E+02

 POSITION                                       TOTAL-FORCE (eV/Angst)
      4.17455      4.17456     16.81779         0.000125      0.000077     -0.023401
      4.17456      5.06686     17.44194        -0.000001      0.027464      0.036031
      4.17456      3.28225     17.44193        -0.000001     -0.027521      0.036073
      5.07384      4.17456     16.19813        -0.009533     -0.000005     -0.011744
      3.27527      4.17456     16.19813         0.009430     -0.000003     -0.011803
      2.08728      0.00000      7.50000         0.000213      0.000002      0.309540
      4.17456      2.08728      7.50000        -0.000004      0.000276      0.310408
      2.08728      2.08728      9.58728         0.001461      0.001607      0.047695
      4.17456      0.00000      9.58728         0.000001      0.000003      0.050671
      2.08730      0.00000     11.68767         0.003782     -0.000001      0.011768
      4.17456      2.08832     11.68923         0.000004     -0.003077      0.014283
      2.08772      2.08570     13.76187        -0.001363     -0.001580      0.111616
      4.17456      0.00000     13.76251         0.000001     -0.000002      0.109468
      2.08728      4.17456      7.50000         0.000443     -0.000002      0.309901
      4.17456      6.26183      7.50000         0.000002     -0.000274      0.310419
      2.08728      6.26183      9.58728         0.001462     -0.001610      0.047691
      4.17456      4.17456      9.58728         0.000001     -0.000001      0.053923
      2.08826      4.17456     11.68924        -0.002106      0.000003      0.015330
      4.17456      6.26079     11.68923         0.000001      0.003071      0.014294
      2.08772      6.26341     13.76187        -0.001361      0.001572      0.111602
      4.17456      4.17456     13.77675         0.000001      0.000007      0.129570
      6.26183      0.00000      7.50000        -0.000216     -0.000000      0.309523
      0.00000      2.08728      7.50000        -0.000002      0.000074      0.309470
      6.26183      2.08728      9.58728        -0.001462      0.001607      0.047695
      0.00000      0.00000      9.58728        -0.000003      0.000002      0.046482
      6.26182      0.00000     11.68767        -0.003784     -0.000000      0.011764
      8.34911      2.08718     11.68810        -0.000000      0.003442      0.012702
      6.26139      2.08570     13.76187         0.001356     -0.001579      0.111607
      8.34911      8.34911     13.76483         0.000004      0.000004      0.113469
      6.26183      4.17456      7.50000        -0.000440      0.000000      0.309895
      0.00000      6.26183      7.50000        -0.000002     -0.000079      0.309464
      6.26183      6.26183      9.58728        -0.001463     -0.001609      0.047694
      0.00000      4.17456      9.58728        -0.000001     -0.000003      0.052292
      6.26085      4.17456     11.68924         0.002102     -0.000001      0.015327
      8.34911      6.26194     11.68810         0.000001     -0.003445      0.012711
      6.26139      6.26341     13.76187         0.001350      0.001573      0.111572
      8.34911      4.17456     13.76280         0.000001      0.000006      0.109996
      2.08728      0.00000      9.58728        -0.004667     -0.000002      0.066726
      4.17456      2.08728      9.58728        -0.000001      0.005252      0.068912
      2.08728      2.08728      7.50000        -0.000449     -0.000273     -0.591343
      4.17456      0.00000      7.50000        -0.000000     -0.000002     -0.591549
      2.08678      0.00000     13.81186         0.001866      0.000002      0.020321
      4.17456      2.08506     13.80704         0.000002      0.004408      0.022869
      2.08658      2.08736     11.68164        -0.000179     -0.000760      0.011285
      4.17456      0.00000     11.68013        -0.000002     -0.000003      0.016733
      2.08728      4.17456      9.58728         0.002285      0.000001      0.071180
      4.17456      6.26183      9.58728        -0.000000     -0.005255      0.068912
      2.08728      6.26183      7.50000        -0.000452      0.000273     -0.591337
      4.17456      4.17456      7.50000        -0.000001      0.000001     -0.591854
      2.08421      4.17456     13.81354         0.010429      0.000005      0.028250
      4.17456      6.26405     13.80704         0.000003     -0.004419      0.022870
      2.08658      6.26175     11.68164        -0.000175      0.000765      0.011282
      4.17456      4.17456     11.68485        -0.000001      0.000006      0.006862
      6.26183      0.00000      9.58728         0.004668     -0.000005      0.066727
      0.00000      2.08728      9.58728         0.000002     -0.001782      0.067415
      6.26183      2.08728      7.50000         0.000454     -0.000274     -0.591336
      0.00000      0.00000      7.50000         0.000001     -0.000003     -0.590890
      6.26233      0.00000     13.81186        -0.001873     -0.000002      0.020326
      8.34911      2.08665     13.81196         0.000001      0.002012      0.024609
      6.26253      2.08736     11.68164         0.000174     -0.000757      0.011289
      8.34911      0.00000     11.68281         0.000001     -0.000002      0.001576
      6.26183      4.17456      9.58728        -0.002288     -0.000001      0.071179
      0.00000      6.26183      9.58728        -0.000000      0.001791      0.067422
      6.26183      6.26183      7.50000         0.000450      0.000271     -0.591341
      0.00000      4.17456      7.50000        -0.000002     -0.000000     -0.590999
      6.26490      4.17456     13.81354        -0.010428      0.000002      0.028252
      8.34911      6.26246     13.81196         0.000005     -0.002012      0.024594
      6.26253      6.26175     11.68164         0.000175      0.000764      0.011278
      8.34911      4.17456     11.68229         0.000002      0.000005      0.004785
    total drift:                                0.000027      0.000030      0.022977

  FREE ENERGIE OF THE ION-ELECTRON SYSTEM (eV)
  free  energy   TOTEN  =      -466.56874893 eV

  energy  without entropy=     -466.56874893  energy(sigma->0) =     -466.56874893