 vasp.6.3.0 20Jan22 (build Dec 25 2023 18:06:01) complex
 executed on        HPECrayEX_GCC date 2024.01.24  06:33:22

 INCAR:
   SYSTEM = MgO-rocksalt
   ISMEAR = 0
   SIGMA = 0.05
   EDIFF = 1E-8
   ALGO = ALL
   ISTART = 0
   IBRION = 5
   POTIM = 0.01
   NFREE = 2
   ISYM = 0
   DIPOL = 0.5 0.5 0.5
   IDIPOL = 3
   LDIPOL = .TRUE.
   GGA = PE
   IVDW = 21
   LDAU = .TRUE.
   LDAUTYPE = 2
   LDAUL = -1 -1 2 -1
   LDAUU = 0.0 0.0 4.2 0.0
   LDAUPRINT = 1
   LMAXMIX = 4
   ENCUT = 600
   PREC = Accurate
   LASPH = .TRUE.
   LREAL = .FALSE.
   ISPIN = 1
   NELM = 200
   NELMIN = 8
   NCORE = 8
   KPAR = 1
   LWAVE = .FALSE.
   LCHARG = .FALSE.

 POTCAR:    PAW_PBE N 08Apr2002
 POTCAR:    PAW_PBE H 15Jun2001
 POTCAR:    PAW_PBE Ti_pv 07Sep2000
 POTCAR:    PAW_PBE O 08Apr2002
 POTCAR:    PAW_PBE N 08Apr2002
   VRHFIN =N: s2p3

   TITEL  = PAW_PBE N 08Apr2002
   POMASS =   14.001; ZVAL   =    5.000    mass and valenz
   ENMAX  =  400.000; ENMIN  =  300.000 eV

   TITEL  = PAW_PBE H 15Jun2001
   POMASS =    1.000; ZVAL   =    1.000    mass and valenz
   ENMAX  =  250.000; ENMIN  =  200.000 eV

   TITEL  = PAW_PBE Ti_pv 07Sep2000
   POMASS =   47.880; ZVAL   =   10.000    mass and valenz
   ENMAX  =  222.335; ENMIN  =  166.751 eV

   TITEL  = PAW_PBE O 08Apr2002
   POMASS =   16.000; ZVAL   =    6.000    mass and valenz
   ENMAX  =  400.000; ENMIN  =  300.000 eV

  PAW_PBE N 08Apr2002                   :
  PAW_PBE H 15Jun2001                   :
  PAW_PBE Ti_pv 07Sep2000               :
  PAW_PBE O 08Apr2002                   :

 POSCAR:  N  H Ti  O
  positions in direct lattice
 exchange correlation table for  LEXCH =        8
   RHO(1)=    0.500       N(1)  =     2000
   RHO(2)=  100.500       N(2)  =     4000

 ion  position               nearest neighbor table
   1  0.608  0.500  0.779-   2 1.02   3 1.02   4 1.02  52 2.27
   2  0.546  0.500  0.807-   1 1.02
   3  0.666  0.429  0.781-   1 1.02
   4  0.666  0.571  0.781-   1 1.02
   5  0.804  0.833  0.293-  89 1.97  55 1.97  57 1.97  54 2.01  56 2.01  22 3.09   8 3.09   6 3.09

   6  0.588  0.667  0.325-  53 1.97 120 1.97  56 1.97  58 1.97  57 2.01  59 2.01  37 3.09   7 3.09
                             5 3.09  11 3.11
   7  0.304  0.667  0.293- 125 1.97  59 1.97  61 1.97  53 2.01  60 2.01  40 3.09   6 3.09   8 3.09

   8  0.088  0.833  0.325-  54 1.97  92 1.97  60 1.97  62 1.97  61 2.01  55 2.01  23 3.09   5 3.09
                             7 3.09   9 3.11
   9  0.942  0.833  0.421-  63 1.97  65 1.97  97 1.97  55 2.00  64 2.01  62 2.01  12 3.07  10 3.09
                            26 3.09   8 3.11
  10  0.725  0.666  0.451-  58 1.95 128 1.97  64 1.97  66 1.98  67 2.01  65 2.02  11 3.07   9 3.09
                            41 3.10  15 3.13
  11  0.442  0.667  0.421-  67 1.97 133 1.97  69 1.97  59 1.99  68 2.01  58 2.02  10 3.07  12 3.10
                            44 3.10   6 3.11
  12  0.224  0.833  0.452-  62 1.95  68 1.97 100 1.97  70 1.98  63 2.01  69 2.02   9 3.07  11 3.10
                            27 3.10  13 3.12
  13  0.082  0.833  0.549- 105 1.97  73 1.97  71 1.98  72 2.00  63 2.01  70 2.01  16 3.03  14 3.09
                            30 3.09  12 3.12
  14  0.864  0.666  0.577-  66 1.93 136 1.97  72 1.97  75 1.99  74 2.00  73 2.02  15 3.05  13 3.09
                            45 3.10
  15  0.581  0.666  0.549- 141 1.97  77 1.97  75 1.98  67 2.00  76 2.00  66 2.02  14 3.05  16 3.09
                            48 3.10  10 3.13
  16  0.363  0.833  0.578-  70 1.93  76 1.97 108 1.97  71 1.99  78 1.99  77 2.02  13 3.03  15 3.09
                            31 3.09
  17  0.227  0.833  0.680-  79 1.91  81 1.97 113 1.98  80 2.04  71 2.08  78 2.09  20 2.92  34 3.11
                            18 3.13
  18  0.999  0.666  0.702-  74 1.84  82 1.87 144 2.00  80 2.01  81 2.05  19 2.93  17 3.13  49 3.14

[...]

  21  0.804  0.167  0.293-  89 1.97  87 1.97 121 1.97  86 2.01  88 2.01  22 3.09  24 3.09  38 3.09

[...]

  37  0.804  0.500  0.293-  57 1.97 121 1.97 119 1.97 118 2.01 120 2.01  38 3.09   6 3.09  40 3.09

  38  0.588  0.333  0.325- 117 1.97 120 1.97  88 1.97 122 1.97 121 2.01 123 2.01  37 3.09  39 3.09
                            21 3.09  43 3.11
  39  0.304  0.333  0.293- 125 1.97 123 1.97  93 1.97 117 2.01 124 2.01  40 3.09  38 3.09  24 3.09

  40  0.088  0.500  0.325- 118 1.97  60 1.97 124 1.97 126 1.97 125 2.01 119 2.01   7 3.09  39 3.09
                            37 3.09  41 3.10
  41  0.943  0.500  0.421- 127 1.97  65 1.97 129 1.97 119 2.00 126 2.00 128 2.01  44 3.07  10 3.10
                            42 3.10  40 3.10
  42  0.725  0.334  0.451- 122 1.95 128 1.97  96 1.97 130 1.98 131 2.01 129 2.02  43 3.07  25 3.09
                            41 3.10  47 3.13
  43  0.442  0.333  0.421- 131 1.97 133 1.97 101 1.97 123 1.99 132 2.01 122 2.02  42 3.07  28 3.10
                            44 3.10  38 3.11
  44  0.225  0.500  0.452- 126 1.97 132 1.97  68 1.97 134 1.99 127 2.00 133 2.02  41 3.07  43 3.10
                            11 3.10  45 3.10
  45  0.084  0.500  0.550- 135 1.97 137 1.97  73 1.97 134 2.00 127 2.01 136 2.02  48 3.04  14 3.10
                            46 3.10  44 3.10
  46  0.864  0.334  0.577- 130 1.93 136 1.97 104 1.97 139 1.99 138 2.00 137 2.02  47 3.05  29 3.09
                            45 3.10
  47  0.581  0.334  0.549- 141 1.97 109 1.97 139 1.98 131 2.00 140 2.00 130 2.02  46 3.05  32 3.09
                            48 3.10  42 3.13
  48  0.364  0.500  0.580- 134 1.97 140 1.98  76 1.98 135 1.98 142 1.98 141 2.03  45 3.04  47 3.10
                            15 3.10  49 3.15
  49  0.230  0.500  0.681- 143 1.90  81 1.98 145 1.98 142 2.04 144 2.07 135 2.09  52 2.95  18 3.14
                            50 3.14  48 3.15
  50  0.999  0.334  0.702- 138 1.84 146 1.87 144 2.00 112 2.01 145 2.05  51 2.93  33 3.13  49 3.14

  51  0.726  0.333  0.678- 146 1.93 148 1.97 116 1.98 147 2.03 139 2.05 138 2.08  50 2.93  36 3.12
                            52 3.12
  52  0.504  0.500  0.708- 143 1.87 142 1.94 147 2.02  83 2.02 148 2.06   1 2.27  49 2.95  19 3.12
                            51 3.12
  53  0.483  0.667  0.267-   6 1.97   7 2.01
  54  0.983  0.833  0.267-   8 1.97   5 2.01
  55  0.909  0.833  0.351-   5 1.97   9 2.00   8 2.01
  56  0.625  0.833  0.319-  22 1.97   6 1.97   5 2.01
  57  0.768  0.667  0.298-  37 1.97   5 1.97   6 2.01
  58  0.621  0.667  0.394-  10 1.95   6 1.97  11 2.02
  59  0.409  0.667  0.351-   7 1.97  11 1.99   6 2.01
  60  0.125  0.667  0.319-  40 1.97   8 1.97   7 2.01
  61  0.268  0.833  0.298-  23 1.97   7 1.97   8 2.01
  62  0.121  0.833  0.394-  12 1.95   8 1.97   9 2.01
  63  0.047  0.834  0.479-   9 1.97  12 2.01  13 2.01
  64  0.762  0.833  0.447-  26 1.97  10 1.97   9 2.01
  65  0.906  0.667  0.426-   9 1.97  41 1.97  10 2.02
  66  0.759  0.666  0.521-  14 1.93  10 1.98  15 2.02
  67  0.547  0.666  0.479-  11 1.97  15 2.00  10 2.01
  68  0.262  0.667  0.447-  12 1.97  44 1.97  11 2.01
  69  0.405  0.833  0.426-  27 1.97  11 1.97  12 2.02
  70  0.259  0.833  0.521-  16 1.93  12 1.98  13 2.01
  71  0.189  0.833  0.607-  13 1.98  16 1.99  17 2.08
  72  0.901  0.833  0.574-  30 1.97  14 1.97  13 2.00
  73  0.046  0.667  0.553-  13 1.97  45 1.97  14 2.02
  74  0.907  0.667  0.646-  18 1.84  14 2.00  19 2.08
  75  0.690  0.668  0.607-  15 1.98  14 1.99  19 2.05
  76  0.402  0.667  0.575-  16 1.97  48 1.98  15 2.00
  77  0.545  0.833  0.553-  31 1.97  15 1.97  16 2.02
  78  0.406  0.836  0.647-  20 1.84  16 1.99  17 2.09
  79  0.343  0.833  0.733-  20 1.86  17 1.91
  80  0.049  0.833  0.710-  34 2.01  18 2.01  17 2.04
  81  0.188  0.666  0.682-  17 1.97  49 1.98  18 2.05
  82  0.839  0.664  0.732-  18 1.87  19 1.93
  83  0.549  0.669  0.708-  20 1.99  52 2.02  19 2.03
  84  0.689  0.834  0.681-  35 1.97  19 1.98  20 2.05
  85  0.483  0.000  0.267-  22 1.97  23 2.01
  86  0.983  0.167  0.267-  24 1.97  21 2.01
  87  0.909  0.167  0.351-  21 1.97  25 2.00  24 2.01
  88  0.625  0.167  0.319-  22 1.97  38 1.97  21 2.01
  89  0.768  0.000  0.298-   5 1.97  21 1.97  22 2.01
  90  0.621  0.000  0.394-  26 1.95  22 1.97  27 2.02
  91  0.409  0.000  0.351-  23 1.97  27 1.99  22 2.01
  92  0.125  0.000  0.319-   8 1.97  24 1.97  23 2.01
  93  0.268  0.167  0.298-  23 1.97  39 1.97  24 2.01
  94  0.121  0.167  0.394-  28 1.95  24 1.97  25 2.01
  95  0.047  0.166  0.479-  25 1.97  28 2.01  29 2.01
  96  0.762  0.167  0.447-  26 1.97  42 1.97  25 2.01
  97  0.905  0.000  0.426-   9 1.97  25 1.97  26 2.02
  98  0.759  0.000  0.521-  30 1.93  26 1.98  31 2.02
  99  0.547  0.000  0.479-  27 1.97  31 2.00  26 2.01
 100  0.262  1.000  0.447-  28 1.97  12 1.97  27 2.01
 101  0.405  0.167  0.426-  27 1.97  43 1.97  28 2.02
 102  0.259  0.167  0.521-  32 1.93  28 1.98  29 2.01
 103  0.189  0.167  0.607-  29 1.98  32 1.99  33 2.08
 104  0.901  0.167  0.574-  30 1.97  46 1.97  29 2.00
 105  0.046  0.000  0.553-  13 1.97  29 1.97  30 2.02
 106  0.907  1.000  0.647-  34 1.85  30 2.00  35 2.08
 107  0.690  1.000  0.607-  31 1.98  30 1.99  35 2.08
 108  0.401  1.000  0.574-  32 1.97  16 1.97  31 2.00
 109  0.545  0.167  0.553-  31 1.97  47 1.97  32 2.02
 110  0.406  0.164  0.647-  36 1.84  32 1.99  33 2.09
 111  0.343  0.167  0.733-  36 1.86  33 1.91
 112  0.049  0.167  0.710-  34 2.01  50 2.01  33 2.04
[...]
 134  0.261  0.500  0.522-  48 1.97  44 1.99  45 2.00
 135  0.189  0.500  0.608-  45 1.97  48 1.98  49 2.09
 136  0.902  0.500  0.574-  14 1.97  46 1.97  45 2.02
 137  0.046  0.333  0.553-  29 1.97  45 1.97  46 2.02
 138  0.907  0.333  0.646-  50 1.84  46 2.00  51 2.08
 139  0.690  0.332  0.607-  47 1.98  46 1.99  51 2.05
 140  0.402  0.333  0.575-  32 1.97  48 1.98  47 2.00
 141  0.546  0.500  0.554-  47 1.97  15 1.97  48 2.03
 142  0.407  0.500  0.649-  52 1.94  48 1.98  49 2.04
 143  0.340  0.500  0.735-  52 1.87  49 1.90
 144  0.048  0.500  0.710-  18 2.00  50 2.00  49 2.07
 145  0.188  0.334  0.682-  33 1.97  49 1.98  50 2.05
 146  0.839  0.336  0.732-  50 1.87  51 1.93
 147  0.549  0.331  0.708-  36 1.99  52 2.02  51 2.03
 148  0.686  0.500  0.679-  51 1.97  19 1.97  52 2.06

IMPORTANT INFORMATION: All symmetrisations will be switched off!
NOSYMM: (Re-)initialisation of all symmetry stuff for point group C_1.

                                     Primitive cell

  volume of cell :    3393.6075

  direct lattice vectors                    reciprocal lattice vectors
    10.417029087  0.000000000  0.000000000     0.095996660 -0.000000000  0.000000000
     0.000000000 11.576961846  0.000000000     0.000000000  0.086378448  0.000000000
     0.000000000  0.000000000 28.139937787     0.000000000  0.000000000  0.035536681

  length of vectors
    10.417029087 11.576961846 28.139937787     0.095996660  0.086378448  0.035536681

  position of ions in fractional coordinates (direct lattice)
     0.607609968  0.499999968  0.779135166
     0.546163750  0.499999983  0.807398153
     0.666139422  0.429050933  0.781300555
     0.666139431  0.570949047  0.781300557
     0.803992356  0.833333333  0.293009548
     0.588300636  0.666666667  0.324854233
     0.303992356  0.666666667  0.293009548
     0.088300636  0.833333333  0.324854233
     0.941902255  0.833336510  0.421190305
     0.724823106  0.666423216  0.451404676
[...]

 Eigenvectors and eigenvalues of the dynamical matrix

   1 f  =  105.380562 THz   662.125599 2PiTHz 3515.117183 cm-1   435.818790 meV
             X         Y         Z           dx          dy          dz
      6.329491  5.788481 21.924815     0.232231   -0.000057   -0.161895
      5.689404  5.788481 22.720134    -0.545787   -0.000003    0.667097
      6.939194  4.967106 21.985749    -0.162710    0.247314   -0.030434
      6.939194  6.609855 21.985749    -0.162503   -0.247103   -0.030407
      8.375212  9.647468  8.245270            0           0           0
      6.128345  7.717975  9.141378            0           0           0
      3.166697  7.717975  8.245270            0           0           0
      0.919830  9.647468  9.141378            0           0           0
      9.811823  9.647505 11.852269            0           0           0
      7.550503  7.715156 12.702500            0           0           0
      4.599947  7.716167 11.850566            0           0           0
      2.338182  9.647042 12.708275            0           0           0
      0.855424  9.648287 15.459026            0           0           0
      8.996248  7.714275 16.239258            0           0           0
      6.054379  7.715009 15.447589            0           0           0
      3.778658  9.647704 16.257240            0           0           0
      2.365102  9.642310 19.135518            0           0           0
     10.409155  7.707277 19.763282            0           0           0
      7.561341  7.716389 19.079338            0           0           0
      5.218686  9.660762 19.751998            0           0           0
      8.375212  1.929494  8.245270            0           0           0
      6.128345  0.000000  9.141378            0           0           0
      3.166697  0.000000  8.245270            0           0           0
      0.919830  1.929494  9.141378            0           0           0
      9.811824  1.929458 11.852269            0           0           0
      7.548725  0.000000 12.704506            0           0           0
      4.601633  0.000000 11.851649            0           0           0
      2.338182  1.929919 12.708276            0           0           0
      0.855424  1.928675 15.459026            0           0           0
      8.988227  0.000000 16.250510            0           0           0
      6.059511 11.576962 15.452220            0           0           0
      3.778658  1.929258 16.257241            0           0           0
      2.365102  1.934652 19.135518            0           0           0
      0.008409 11.576961 19.765945            0           0           0
      7.588001  0.000000 19.120196            0           0           0
      5.218686  1.916200 19.751998            0           0           0
      8.375212  5.788481  8.245270            0           0           0
      6.128345  3.858987  9.141378            0           0           0
      3.166697  3.858987  8.245270            0           0           0
      0.919830  5.788481  9.141378            0           0           0
      9.821720  5.788481 11.851397            0           0           0
      7.550503  3.861806 12.702500            0           0           0
      4.599947  3.860795 11.850566            0           0           0
      2.342049  5.788481 12.730857            0           0           0
      0.878937  5.788481 15.467876            0           0           0
      8.996248  3.862687 16.239258            0           0           0
      6.054379  3.861953 15.447589            0           0           0
      3.794280  5.788481 16.334095            0           0           0
      2.400707  5.788481 19.155558            0           0           0
     10.409155  3.869684 19.763283            0           0           0
      7.561342  3.860573 19.079339            0           0           0
      5.253816  5.788481 19.921084            0           0           0
      5.035361  7.717975  7.500000            0           0           0
     10.243876  9.647468  7.500000            0           0           0
      9.468196  9.647468  9.886648            0           0           0
      6.506548  9.647468  8.990541            0           0           0
      7.997009  7.717975  8.396107            0           0           0
      6.464922  7.717975 11.084430            0           0           0
      4.259681  7.717975  9.886648            0           0           0
      1.298033  7.717975  8.990541            0           0           0
[...]
      2.715770  5.788481 14.682279            0           0           0
      1.970489  5.788481 17.108471            0           0           0
      9.392587  5.788481 16.145694            0           0           0
      0.480829  3.859172 15.568616            0           0           0
      9.446510  3.855606 18.191137            0           0           0
      7.188097  3.845349 17.068391            0           0           0
      4.184203  3.857820 16.170289            0           0           0
      5.684592  5.788481 15.590258            0           0           0
      4.236673  5.788481 18.265530            0           0           0
      3.544375  5.788481 20.674385            0           0           0
      0.504330  5.788481 19.978060            0           0           0
      1.958030  3.861002 19.193331            0           0           0
      8.740533  3.892653 20.605254            0           0           0
      5.723458  3.828170 19.933888            0           0           0
      7.150941  5.788481 19.114548            0           0           0

[...]

  11 f  =    3.294944 THz    20.702746 2PiTHz  109.907512 cm-1    13.626789 meV
             X         Y         Z           dx          dy          dz
      6.329491  5.788481 21.924815    -0.781070   -0.007792    0.333824
      5.689404  5.788481 22.720134    -0.336795   -0.002904   -0.013908
      6.939194  4.967106 21.985749    -0.226061   -0.005916    0.176404
      6.939194  6.609855 21.985749    -0.225025    0.000783    0.178616
      8.375212  9.647468  8.245270            0           0           0
      6.128345  7.717975  9.141378            0           0           0
      3.166697  7.717975  8.245270            0           0           0
      0.919830  9.647468  9.141378            0           0           0
      9.811823  9.647505 11.852269            0           0           0
      7.550503  7.715156 12.702500            0           0           0
      4.599947  7.716167 11.850566            0           0           0
      2.338182  9.647042 12.708275            0           0           0
      0.855424  9.648287 15.459026            0           0           0
      8.996248  7.714275 16.239258            0           0           0
      6.054379  7.715009 15.447589            0           0           0
      3.778658  9.647704 16.257240            0           0           0
      2.365102  9.642310 19.135518            0           0           0
     10.409155  7.707277 19.763282            0           0           0
      7.561341  7.716389 19.079338            0           0           0
      5.218686  9.660762 19.751998            0           0           0
      8.375212  1.929494  8.245270            0           0           0
      6.128345  0.000000  9.141378            0           0           0
      3.166697  0.000000  8.245270            0           0           0
      0.919830  1.929494  9.141378            0           0           0
      9.811824  1.929458 11.852269            0           0           0
      7.548725  0.000000 12.704506            0           0           0
      4.601633  0.000000 11.851649            0           0           0
      2.338182  1.929919 12.708276            0           0           0
      0.855424  1.928675 15.459026            0           0           0
      8.988227  0.000000 16.250510            0           0           0
      6.059511 11.576962 15.452220            0           0           0
      3.778658  1.929258 16.257241            0           0           0
      2.365102  1.934652 19.135518            0           0           0
      0.008409 11.576961 19.765945            0           0           0
      7.588001  0.000000 19.120196            0           0           0
      5.218686  1.916200 19.751998            0           0           0
      8.375212  5.788481  8.245270            0           0           0
      6.128345  3.858987  9.141378            0           0           0
      3.166697  3.858987  8.245270            0           0           0
      0.919830  5.788481  9.141378            0           0           0
      9.821720  5.788481 11.851397            0           0           0
      7.550503  3.861806 12.702500            0           0           0
      4.599947  3.860795 11.850566            0           0           0
      2.342049  5.788481 12.730857            0           0           0
      0.878937  5.788481 15.467876            0           0           0
      8.996248  3.862687 16.239258            0           0           0
      6.054379  3.861953 15.447589            0           0           0
      3.794280  5.788481 16.334095            0           0           0
      2.400707  5.788481 19.155558            0           0           0
     10.409155  3.869684 19.763283            0           0           0
      7.561342  3.860573 19.079339            0           0           0
      5.253816  5.788481 19.921084            0           0           0
      5.035361  7.717975  7.500000            0           0           0
     10.243876  9.647468  7.500000            0           0           0
      9.468196  9.647468  9.886648            0           0           0
      6.506548  9.647468  8.990541            0           0           0
      7.997009  7.717975  8.396107            0           0           0
      6.464922  7.717975 11.084430            0           0           0
      4.259681  7.717975  9.886648            0           0           0
      1.298033  7.717975  8.990541            0           0           0
[...]
      2.715770  5.788481 14.682279            0           0           0
      1.970489  5.788481 17.108471            0           0           0
      9.392587  5.788481 16.145694            0           0           0
      0.480829  3.859172 15.568616            0           0           0
      9.446510  3.855606 18.191137            0           0           0
      7.188097  3.845349 17.068391            0           0           0
      4.184203  3.857820 16.170289            0           0           0
      5.684592  5.788481 15.590258            0           0           0
      4.236673  5.788481 18.265530            0           0           0
      3.544375  5.788481 20.674385            0           0           0
      0.504330  5.788481 19.978060            0           0           0
      1.958030  3.861002 19.193331            0           0           0
      8.740533  3.892653 20.605254            0           0           0
      5.723458  3.828170 19.933888            0           0           0
      7.150941  5.788481 19.114548            0           0           0

  12 f/i=    2.049599 THz    12.878012 2PiTHz   68.367271 cm-1     8.476457 meV
             X         Y         Z           dx          dy          dz
      6.329491  5.788481 21.924815    -0.002145    0.256554    0.001341
      5.689404  5.788481 22.720134    -0.001084    0.634599   -0.000053
      6.939194  4.967106 21.985749    -0.391460   -0.195230    0.274427
      6.939194  6.609855 21.985749     0.390100   -0.195085   -0.273046
      8.375212  9.647468  8.245270            0           0           0
      6.128345  7.717975  9.141378            0           0           0
      3.166697  7.717975  8.245270            0           0           0
      0.919830  9.647468  9.141378            0           0           0
      9.811823  9.647505 11.852269            0           0           0
      7.550503  7.715156 12.702500            0           0           0
      4.599947  7.716167 11.850566            0           0           0
      2.338182  9.647042 12.708275            0           0           0
      0.855424  9.648287 15.459026            0           0           0
      8.996248  7.714275 16.239258            0           0           0
      6.054379  7.715009 15.447589            0           0           0
      3.778658  9.647704 16.257240            0           0           0
      2.365102  9.642310 19.135518            0           0           0
     10.409155  7.707277 19.763282            0           0           0
      7.561341  7.716389 19.079338            0           0           0
      5.218686  9.660762 19.751998            0           0           0
      8.375212  1.929494  8.245270            0           0           0
      6.128345  0.000000  9.141378            0           0           0
      3.166697  0.000000  8.245270            0           0           0
      0.919830  1.929494  9.141378            0           0           0
      9.811824  1.929458 11.852269            0           0           0
      7.548725  0.000000 12.704506            0           0           0
      4.601633  0.000000 11.851649            0           0           0
      2.338182  1.929919 12.708276            0           0           0
      0.855424  1.928675 15.459026            0           0           0
      8.988227  0.000000 16.250510            0           0           0
      6.059511 11.576962 15.452220            0           0           0
      3.778658  1.929258 16.257241            0           0           0
      2.365102  1.934652 19.135518            0           0           0
      0.008409 11.576961 19.765945            0           0           0
      7.588001  0.000000 19.120196            0           0           0
      5.218686  1.916200 19.751998            0           0           0
      8.375212  5.788481  8.245270            0           0           0
      6.128345  3.858987  9.141378            0           0           0
      3.166697  3.858987  8.245270            0           0           0
      0.919830  5.788481  9.141378            0           0           0
      9.821720  5.788481 11.851397            0           0           0
      7.550503  3.861806 12.702500            0           0           0
      4.599947  3.860795 11.850566            0           0           0
      2.342049  5.788481 12.730857            0           0           0
      0.878937  5.788481 15.467876            0           0           0
      8.996248  3.862687 16.239258            0           0           0
      6.054379  3.861953 15.447589            0           0           0
      3.794280  5.788481 16.334095            0           0           0
      2.400707  5.788481 19.155558            0           0           0
     10.409155  3.869684 19.763283            0           0           0
      7.561342  3.860573 19.079339            0           0           0
      5.253816  5.788481 19.921084            0           0           0
      5.035361  7.717975  7.500000            0           0           0
     10.243876  9.647468  7.500000            0           0           0
      9.468196  9.647468  9.886648            0           0           0
      6.506548  9.647468  8.990541            0           0           0
      7.997009  7.717975  8.396107            0           0           0
      6.464922  7.717975 11.084430            0           0           0
      4.259681  7.717975  9.886648            0           0           0
      1.298033  7.717975  8.990541            0           0           0
[...]
      2.715770  5.788481 14.682279            0           0           0
      1.970489  5.788481 17.108471            0           0           0
      9.392587  5.788481 16.145694            0           0           0
      0.480829  3.859172 15.568616            0           0           0
      9.446510  3.855606 18.191137            0           0           0
      7.188097  3.845349 17.068391            0           0           0
      4.184203  3.857820 16.170289            0           0           0
      5.684592  5.788481 15.590258            0           0           0
      4.236673  5.788481 18.265530            0           0           0
      3.544375  5.788481 20.674385            0           0           0
      0.504330  5.788481 19.978060            0           0           0
      1.958030  3.861002 19.193331            0           0           0
      8.740533  3.892653 20.605254            0           0           0
      5.723458  3.828170 19.933888            0           0           0
      7.150941  5.788481 19.114548            0           0           0

 Finite differences POTIM=   1.0000000000000000E-002