 vasp.6.4.2 20Jul23 (build Nov 17 2023 15:39:20) complex
 executed on              LinuxNV date 2024.02.24  21:30:54
 OpenACC runtime initialized ...    4 GPUs detected

 INCAR:
   SYSTEM = Oxide-Surface
   ISMEAR = 0
   SIGMA = 0.05
   EDIFF = 1E-4
   ALGO = Normal
   ISTART = 2
   IBRION = -1
   NSW = 0
   ISYM = 0
   DIPOL = 0.5 0.5 0.5
   IDIPOL = 3
   LDIPOL = .TRUE.
   LHFCALC = .TRUE.
   HFSCREEN = 0.2
   GGA = PE
   ENCUT = 450
   PREC = Normal
   LASPH = .TRUE.
   LREAL = Auto
   ISPIN = 1
   NELM = 200
   NELMIN = 8
   NCORE = 1
   KPAR = 1
   LWAVE = .FALSE.
   LCHARG = .FALSE.

 POTCAR:    PAW_PBE C 08Apr2002
 POTCAR:    PAW_PBE O 08Apr2002
 POTCAR:    PAW_PBE H 15Jun2001
 POTCAR:    PAW_PBE Ti_pv 07Sep2000
 POTCAR:    PAW_PBE O 08Apr2002
 POTCAR:    PAW_PBE C 08Apr2002
   VRHFIN =C: s2p2

   TITEL  = PAW_PBE C 08Apr2002
   POMASS =   12.011; ZVAL   =    4.000    mass and valenz
   ENMAX  =  400.000; ENMIN  =  300.000 eV

[...]

   TITEL  = PAW_PBE H 15Jun2001
   POMASS =    1.000; ZVAL   =    1.000    mass and valenz
   ENMAX  =  250.000; ENMIN  =  200.000 eV

   TITEL  = PAW_PBE Ti_pv 07Sep2000
   POMASS =   47.880; ZVAL   =   10.000    mass and valenz
   ENMAX  =  222.335; ENMIN  =  166.751 eV

   TITEL  = PAW_PBE O 08Apr2002
   POMASS =   16.000; ZVAL   =    6.000    mass and valenz
   ENMAX  =  400.000; ENMIN  =  300.000 eV

 Optimization of the real space projectors (new method)

 maximal supplied QI-value         = 25.13
 optimisation between [QCUT,QGAM] = [ 10.81, 21.61] = [ 32.71,130.83] Ry
 Optimized for a Real-space Cutoff    1.23 Angstroem

   l    n(q)    QCUT    max X(q) W(low)/X(q) W(high)/X(q)  e(spline)
   0      8    10.807   115.676    0.36E-03    0.72E-03    0.24E-06
   0      8    10.807    87.132    0.35E-03    0.71E-03    0.24E-06
   1      7    10.807     4.429    0.19E-03    0.39E-03    0.11E-06
   1      7    10.807     2.733    0.14E-03    0.28E-03    0.13E-06
 Optimization of the real space projectors (new method)

[...]

   l    n(q)    QCUT    max X(q) W(low)/X(q) W(high)/X(q)  e(spline)
   1      9    10.734     4.216    0.90E-04    0.17E-04    0.73E-07
   1      9    10.734     5.422    0.20E-03    0.95E-04    0.21E-06
   2      9    10.734    72.084    0.40E-03    0.60E-03    0.19E-06
   2      9    10.734    65.965    0.40E-03    0.59E-03    0.19E-06
   0      9    10.734    41.531    0.93E-04    0.36E-04    0.17E-06
   0      9    10.734    16.290    0.71E-04    0.26E-04    0.13E-06
 Optimization of the real space projectors (new method)

 maximal supplied QI-value         = 24.76
 optimisation between [QCUT,QGAM] = [ 10.64, 21.54] = [ 31.73,129.89] Ry
 Optimized for a Real-space Cutoff    1.23 Angstroem

   l    n(q)    QCUT    max X(q) W(low)/X(q) W(high)/X(q)  e(spline)
   0      8    10.645    20.381    0.38E-03    0.60E-03    0.15E-06
   0      8    10.645    15.268    0.40E-03    0.65E-03    0.17E-06
   1      7    10.645     5.964    0.30E-03    0.63E-03    0.18E-06
   1      7    10.645     5.382    0.24E-03    0.53E-03    0.16E-06
  PAW_PBE C 08Apr2002                   :
  PAW_PBE O 08Apr2002                   :
  PAW_PBE H 15Jun2001                   :
  PAW_PBE Ti_pv 07Sep2000               :
  PAW_PBE O 08Apr2002                   :

 POSCAR:  C  O  H Ti  O
  positions in direct lattice
 exchange correlation table for  LEXCH =        8
   RHO(1)=    0.500       N(1)  =     2000
   RHO(2)=  100.500       N(2)  =     4000

 ion  position               nearest neighbor table
   1  0.510  0.588  0.811-   3 1.09   5 1.10   6 1.10   2 1.45
   2  0.539  0.498  0.782-   4 1.00   1 1.45  86 2.18
   3  0.427  0.597  0.810-   1 1.09
   4  0.615  0.493  0.780-   2 1.00
   5  0.534  0.564  0.845-   1 1.10
   6  0.549  0.667  0.802-   1 1.10
   7  0.750  0.625  0.287-  88 1.95 148 1.95 147 1.95  87 1.95  90 1.98 169 1.98  17 2.96  37 2.96

   8  0.000  0.750  0.287-  89 1.95  90 1.95 109 1.95 110 1.95  91 1.98  38 2.96  18 2.96
   9  0.000  0.625  0.394-  91 1.95 151 1.95  92 1.95 152 1.95  93 1.98  94 1.98  19 2.96  39 2.96

[...]

  87  0.750  0.750  0.245-   7 1.95  17 1.95
  88  0.750  0.750  0.329-   7 1.95  17 1.95  10 1.98
  89  0.098  0.625  0.287-   8 1.95  38 1.95  47 1.98
  90  0.902  0.625  0.287-   8 1.95  38 1.95   7 1.98
  91  0.000  0.750  0.352-   9 1.95  19 1.95   8 1.98
  92  0.000  0.750  0.435-   9 1.95  19 1.95  12 1.98
  93  0.848  0.625  0.394-  10 1.95  40 1.95   9 1.98
  94  0.152  0.625  0.394-  50 1.95  80 1.95   9 1.98
  95  0.750  0.750  0.458-  11 1.95  21 1.95  10 1.98
  96  0.750  0.750  0.542-  11 1.95  21 1.95  14 2.09
  97  0.098  0.625  0.500-  12 1.95  42 1.95  51 1.98
  98  0.902  0.625  0.500-  12 1.95  42 1.95  11 1.98
  99  0.001  0.750  0.565-  23 1.90  13 1.90  12 2.00
 100  1.000  0.750  0.649-  16 1.81  13 2.02  23 2.02
 101  0.851  0.625  0.607-  14 1.93  44 1.93  13 2.03
 102  0.150  0.625  0.607-  13 1.87  84 2.02  54 2.02
 103  0.754  0.751  0.671-  14 1.87  15 2.08  25 2.09
 104  0.748  0.749  0.756-  15 1.83  25 1.84
 105  0.095  0.625  0.719-  46 1.94  16 1.95  55 2.03
 106  0.906  0.624  0.720-  46 1.95  16 1.96  15 2.02
 107  0.750  0.000  0.245-  17 1.95  27 1.95
 108  0.750  0.000  0.329-  17 1.95  27 1.95  20 1.98
 109  0.098  0.875  0.287-   8 1.95  18 1.95  57 1.98
 110  0.902  0.875  0.287-   8 1.95  18 1.95  17 1.98
 111  0.000  0.000  0.352-  19 1.95  29 1.95  18 1.98
 112  0.000  0.000  0.435-  19 1.95  29 1.95  22 1.98
 113  0.848  0.875  0.394-  10 1.95  20 1.95  19 1.98
 114  0.152  0.875  0.394-  50 1.95  60 1.95  19 1.98
 115  0.750  0.000  0.458-  21 1.95  31 1.95  20 1.98
 116  0.750  0.000  0.542-  21 1.95  31 1.95  24 2.10
 117  0.098  0.875  0.500-  12 1.95  22 1.95  61 1.98
 118  0.902  0.875  0.500-  12 1.95  22 1.95  21 1.98
 119  0.001  0.000  0.565-  33 1.90  23 1.90  22 2.00
 120  0.000  0.000  0.649-  26 1.81  33 2.02  23 2.02
 121  0.851  0.876  0.607-  24 1.93  14 1.93  23 2.04
 122  0.150  0.875  0.607-  23 1.87  54 2.02  64 2.02
 123  0.751  0.000  0.672-  24 1.87  35 2.09  25 2.09
 124  0.750  1.000  0.756-  35 1.83  25 1.84
 125  0.094  0.875  0.719-  16 1.94  26 1.95  65 2.04
 126  0.906  0.875  0.719-  16 1.94  26 1.95  25 2.04
 127  0.750  0.250  0.245-  27 1.95  37 1.95
 128  0.750  0.250  0.329-  27 1.95  37 1.95  30 1.98
 129  0.098  0.125  0.287-  18 1.95  28 1.95  67 1.98
 130  0.902  0.125  0.287-  18 1.95  28 1.95  27 1.98
 131  0.000  0.250  0.352-  29 1.95  39 1.95  28 1.98
 132  0.000  0.250  0.435-  29 1.95  39 1.95  32 1.98
 133  0.848  0.125  0.394-  20 1.95  30 1.95  29 1.98
 134  0.152  0.125  0.394-  60 1.95  70 1.95  29 1.98
 135  0.750  0.250  0.458-  31 1.95  41 1.95  30 1.98
 136  0.750  0.250  0.542-  31 1.95  41 1.95  34 2.09
 137  0.098  0.125  0.500-  22 1.95  32 1.95  71 1.98
 138  0.902  0.125  0.500-  22 1.95  32 1.95  31 1.98
 139  0.001  0.250  0.565-  43 1.90  33 1.90  32 2.00
 140  0.000  0.250  0.649-  36 1.81  43 2.02  33 2.02
 141  0.851  0.125  0.607-  24 1.93  34 1.93  33 2.04
 142  0.150  0.125  0.607-  33 1.86  64 2.02  74 2.02
 143  0.753  0.250  0.671-  34 1.87  45 2.06  35 2.10
 144  0.749  0.251  0.756-  45 1.83  35 1.84
 145  0.094  0.125  0.719-  36 1.94  26 1.95  75 2.04
 146  0.906  0.125  0.719-  36 1.94  26 1.95  35 2.04
[...]
 232  0.500  0.500  0.435-  49 1.95  79 1.95  82 1.98
 233  0.348  0.375  0.394-  70 1.95  80 1.95  79 1.98
 234  0.652  0.375  0.394-  30 1.95  40 1.95  79 1.98
 235  0.250  0.500  0.458-  51 1.95  81 1.95  80 1.98
 236  0.250  0.500  0.542-  51 1.95  81 1.95  84 2.11
 237  0.598  0.375  0.500-  72 1.95  82 1.95  41 1.98
 238  0.402  0.375  0.500-  72 1.95  82 1.95  81 1.98
 239  0.501  0.500  0.566-  53 1.90  83 1.90  82 2.00
 240  0.500  0.500  0.650-  86 1.91  53 1.98  83 1.98
 241  0.350  0.375  0.607-  74 1.92  84 1.93  83 2.04
 242  0.651  0.375  0.608-  83 1.88  34 2.01  44 2.02
 243  0.250  0.500  0.672-  84 1.86  55 2.09  85 2.10
 244  0.252  0.500  0.756-  85 1.84  55 1.84
 245  0.597  0.371  0.715-  76 1.92  86 1.96  45 2.02
 246  0.407  0.374  0.718-  86 1.93  76 1.94  85 2.03

IMPORTANT INFORMATION: All symmetrisations will be switched off!
NOSYMM: (Re-)initialisation of all symmetry stuff for point group C_1.

                                     Primitive cell

  volume of cell :    4700.2961

  direct lattice vectors                    reciprocal lattice vectors
    13.003980404  0.000000000  0.000000000     0.076899531  0.000000000  0.000000000
     0.000000000 11.830378115  0.000000000     0.000000000  0.084528152  0.000000000
     0.000000000  0.000000000 30.552748813     0.000000000  0.000000000  0.032730279

  length of vectors
    13.003980404 11.830378115 30.552748813     0.076899531  0.084528152  0.032730279

  position of ions in fractional coordinates (direct lattice)
     0.510331046  0.587956007  0.811456567
     0.538671440  0.497713104  0.781633741
     0.426741788  0.597312864  0.809779257
     0.615374851  0.493003635  0.780229999
     0.533730470  0.564408842  0.844772367
     0.548744893  0.667393848  0.802204187
     0.750000000  0.625000000  0.287188045
     0.000000000  0.750000000  0.287188045
     0.000000000  0.625000000  0.393594023
     0.750000000  0.750000000  0.393594023
     0.750000000  0.625000000  0.500000000
     0.000000000  0.750000000  0.500000000
     0.006993774  0.625073986  0.604046202
     0.756133557  0.750114422  0.610207977
     0.750759752  0.625797847  0.719102266
     0.999978673  0.750342000  0.708177627
     0.750000000  0.875000000  0.287188045
     0.000000000  0.000000000  0.287188045
     0.000000000  0.875000000  0.393594023
     0.750000000  0.000000000  0.393594023
     0.750000000  0.875000000  0.500000000
     0.000000000  0.000000000  0.500000000
     0.007105127  0.875049078  0.604101504
     0.755700079  0.000050128  0.610520273
     0.749628850  0.874940193  0.720168330
     0.000248360  0.999945581  0.708144814
     0.750000000  0.125000000  0.287188045
     0.000000000  0.250000000  0.287188045
     0.000000000  0.125000000  0.393594023
     0.750000000  0.250000000  0.393594023
     0.750000000  0.125000000  0.500000000
     0.000000000  0.250000000  0.500000000
     0.007272160  0.124967895  0.604110878
     0.756020659  0.249869324  0.610140302
     0.749590896  0.124216859  0.720174278
     0.000192105  0.249631163  0.708168764
     0.750000000  0.375000000  0.287188045
     0.000000000  0.500000000  0.287188045
     0.000000000  0.375000000  0.393594023
     0.750000000  0.500000000  0.393594023
     0.750000000  0.375000000  0.500000000
     0.000000000  0.500000000  0.500000000
     0.006984987  0.374982529  0.604028350
     0.756360084  0.500008577  0.610371278
     0.751441947  0.373222885  0.719136832
     0.000822413  0.500125693  0.708109682
     0.250000000  0.625000000  0.287188045
     0.500000000  0.750000000  0.287188045
     0.500000000  0.625000000  0.393594023
     0.250000000  0.750000000  0.393594023
     0.250000000  0.625000000  0.500000000
     0.500000000  0.750000000  0.500000000
     0.507162857  0.622674843  0.605370118
     0.256146052  0.749992212  0.610460436
     0.250336699  0.625322801  0.720069271
     0.500758605  0.750128350  0.706878545
[...]
   0.252E+02 0.125E+03 -.251E+04   -.483E+02 -.151E+03 0.250E+04   0.205E+02 0.230E+02 0.851E+01   0.409E-02 0.154E-02 -.214E+00
   0.581E+02 -.156E+02 -.394E+03   -.638E+02 0.162E+02 0.393E+03   0.572E+01 -.605E+00 0.228E+00   -.513E-03 0.332E-03 -.339E-01
   -.698E+02 0.160E+02 -.428E+03   0.770E+02 -.166E+02 0.427E+03   -.737E+01 0.578E+00 0.366E+00   0.153E-02 0.114E-03 -.354E-01
   -.117E+02 0.633E+01 -.385E+03   0.132E+02 -.771E+01 0.390E+03   -.150E+01 0.138E+01 -.521E+01   0.619E-03 0.140E-03 -.288E-01
   -.190E+02 -.612E+02 -.392E+03   0.215E+02 0.659E+02 0.391E+03   -.252E+01 -.471E+01 0.130E+01   0.705E-03 0.559E-03 -.344E-01
   -.202E+00 -.190E-01 0.380E+04   0.198E+00 0.192E-01 -.380E+04   0.131E-02 -.193E-04 0.584E+00   0.179E-03 -.335E-04 0.327E+00
   -.601E-01 -.654E-01 0.398E+04   0.617E-01 0.656E-01 -.397E+04   -.295E-03 -.204E-04 -.420E+01   -.136E-03 -.660E-05 0.328E+00
   -.176E+00 -.490E-01 0.194E+04   0.182E+00 0.489E-01 -.194E+04   -.128E-02 0.734E-04 -.104E+00   -.168E-03 0.224E-04 0.212E+00
   -.481E+00 -.742E-01 0.194E+04   0.468E+00 0.743E-01 -.194E+04   0.298E-02 0.264E-04 0.239E+00   0.502E-03 -.655E-05 0.218E+00
   -.193E+01 -.117E+00 0.160E+02   0.188E+01 0.982E-01 -.152E+02   0.125E-01 0.178E-02 -.147E+00   0.952E-03 -.115E-04 0.406E-01
   0.117E+01 -.939E+00 0.236E+02   -.117E+01 0.944E+00 -.248E+02   -.220E-02 -.303E-02 0.381E+00   0.539E-04 0.205E-03 0.408E-01
   0.138E+02 -.193E+01 -.186E+04   -.137E+02 0.194E+01 0.186E+04   -.102E+00 -.701E-02 0.245E+00   0.191E-02 0.300E-03 -.148E+00
   -.108E+01 -.977E+01 -.191E+04   0.113E+01 0.978E+01 0.191E+04   -.123E+00 -.110E-03 -.252E+00   0.605E-03 0.618E-03 -.163E+00
   -.100E+03 -.173E+02 -.371E+04   0.999E+02 0.172E+02 0.371E+04   0.202E+00 0.972E-01 -.245E+00   0.469E-02 0.361E-02 -.308E+00
   -.528E+01 -.546E+01 -.378E+04   0.535E+01 0.550E+01 0.378E+04   -.616E-01 -.692E-01 0.121E+01   -.333E-03 0.469E-03 -.300E+00
   -.210E+00 -.701E-01 0.380E+04   0.205E+00 0.704E-01 -.380E+04   0.136E-02 0.132E-04 0.584E+00   0.161E-03 -.166E-03 0.328E+00
   -.576E-01 -.323E-01 0.398E+04   0.592E-01 0.324E-01 -.397E+04   -.307E-03 -.127E-04 -.420E+01   -.160E-03 -.188E-04 0.328E+00
   -.143E+00 -.152E+00 0.194E+04   0.149E+00 0.152E+00 -.194E+04   -.125E-02 0.873E-04 -.104E+00   -.893E-04 0.294E-04 0.213E+00
   -.564E+00 -.857E-01 0.194E+04   0.552E+00 0.851E-01 -.194E+04   0.288E-02 0.129E-04 0.239E+00   0.446E-03 0.635E-04 0.218E+00
   -.329E+01 -.994E+00 0.145E+02   0.326E+01 0.102E+01 -.137E+02   0.726E-02 -.184E-02 -.150E+00   0.944E-03 0.314E-03 0.408E-01
   0.159E+01 -.286E+00 0.221E+02   -.159E+01 0.286E+00 -.233E+02   -.283E-02 -.417E-03 0.379E+00   0.691E-04 -.509E-04 0.409E-01
   0.166E+02 -.302E+01 -.186E+04   -.165E+02 0.304E+01 0.186E+04   -.106E+00 -.115E-01 0.256E+00   0.184E-02 0.147E-03 -.148E+00
   0.249E+01 -.177E+01 -.193E+04   -.244E+01 0.177E+01 0.193E+04   -.135E+00 0.112E-02 -.257E+00   0.350E-03 -.974E-04 -.164E+00
   -.304E+02 -.297E+02 -.376E+04   0.303E+02 0.297E+02 0.376E+04   0.832E-01 0.104E-01 -.409E+00   0.361E-02 -.133E-02 -.308E+00
   -.466E+01 -.228E+01 -.378E+04   0.464E+01 0.229E+01 0.378E+04   0.531E-02 0.961E-02 0.125E+01   -.105E-03 -.355E-03 -.300E+00
   -.204E+00 0.190E-01 0.380E+04   0.200E+00 -.193E-01 -.380E+04   0.134E-02 0.347E-04 0.584E+00   0.170E-03 0.247E-04 0.328E+00
   -.607E-01 0.654E-01 0.398E+04   0.624E-01 -.655E-01 -.397E+04   -.315E-03 0.189E-04 -.420E+01   -.139E-03 0.358E-05 0.328E+00
   -.147E+00 0.521E-01 0.194E+04   0.154E+00 -.520E-01 -.194E+04   -.138E-02 -.416E-04 -.104E+00   -.146E-03 -.697E-04 0.213E+00
   -.442E+00 0.746E-01 0.194E+04   0.430E+00 -.746E-01 -.194E+04   0.286E-02 -.389E-04 0.239E+00   0.466E-03 -.967E-04 0.218E+00
   -.312E+01 0.429E+00 0.140E+02   0.309E+01 -.472E+00 -.132E+02   0.810E-02 0.409E-02 -.148E+00   0.878E-03 -.323E-03 0.408E-01
   0.116E+01 0.967E+00 0.230E+02   -.116E+01 -.972E+00 -.243E+02   -.313E-02 0.271E-02 0.381E+00   0.671E-04 -.135E-03 0.408E-01
   0.178E+02 0.156E+01 -.186E+04   -.178E+02 -.157E+01 0.186E+04   -.105E+00 0.104E-01 0.263E+00   0.182E-02 -.248E-03 -.149E+00
   0.309E-01 0.913E+01 -.191E+04   0.871E-02 -.913E+01 0.191E+04   -.114E+00 -.394E-02 -.273E+00   0.738E-03 -.672E-03 -.163E+00
   -.223E+02 0.149E+02 -.376E+04   0.222E+02 -.149E+02 0.376E+04   0.692E-01 -.165E-01 -.426E+00   0.395E-02 0.473E-03 -.309E+00
   -.440E+01 0.487E+01 -.378E+04   0.446E+01 -.491E+01 0.378E+04   -.766E-01 0.570E-01 0.121E+01   -.408E-03 -.641E-03 -.300E+00
   -.197E+00 0.701E-01 0.380E+04   0.192E+00 -.703E-01 -.380E+04   0.129E-02 -.305E-04 0.584E+00   0.169E-03 0.173E-03 0.328E+00
   -.632E-01 0.323E-01 0.398E+04   0.648E-01 -.324E-01 -.397E+04   -.307E-03 0.126E-04 -.420E+01   -.860E-04 0.197E-04 0.328E+00
   -.181E+00 0.149E+00 0.194E+04   0.188E+00 -.149E+00 -.194E+04   -.140E-02 -.864E-04 -.104E+00   -.132E-03 0.102E-04 0.213E+00
   -.362E+00 0.853E-01 0.194E+04   0.350E+00 -.848E-01 -.194E+04   0.272E-02 -.575E-04 0.238E+00   0.510E-03 0.368E-04 0.218E+00
   -.173E+01 0.686E+00 0.155E+02   0.168E+01 -.653E+00 -.148E+02   0.131E-01 -.322E-02 -.146E+00   0.975E-03 0.174E-04 0.405E-01
   0.102E+01 0.302E+00 0.245E+02   -.102E+01 -.300E+00 -.257E+02   -.404E-02 -.543E-03 0.379E+00   0.167E-04 -.191E-04 0.406E-01
   0.142E+02 0.342E+01 -.186E+04   -.141E+02 -.342E+01 0.186E+04   -.102E+00 0.620E-02 0.244E+00   0.187E-02 -.193E-03 -.148E+00
   -.228E+01 0.183E+01 -.190E+04   0.238E+01 -.184E+01 0.190E+04   -.164E+00 0.529E-02 -.274E+00   0.911E-03 0.142E-03 -.164E+00
   -.844E+02 0.259E+02 -.372E+04   0.842E+02 -.258E+02 0.372E+04   0.124E+00 -.122E+00 -.256E+00   0.481E-02 -.280E-02 -.309E+00
   -.728E+01 0.291E+01 -.377E+04   0.726E+01 -.292E+01 0.377E+04   -.174E-02 0.323E-02 0.115E+01   -.248E-03 0.530E-03 -.300E+00
   0.197E+00 -.145E-01 0.380E+04   -.192E+00 0.145E-01 -.380E+04   -.126E-02 0.257E-04 0.584E+00   -.172E-03 -.141E-03 0.328E+00
   0.656E-01 -.537E-01 0.398E+04   -.672E-01 0.541E-01 -.397E+04   0.288E-03 -.559E-04 -.421E+01   0.128E-03 -.185E-05 0.328E+00
   0.302E+00 0.149E+00 0.195E+04   -.309E+00 -.136E+00 -.194E+04   0.982E-03 -.266E-02 -.108E+00   0.672E-04 -.429E-04 0.212E+00
   0.358E+00 -.272E-01 0.194E+04   -.346E+00 0.273E-01 -.194E+04   -.245E-02 -.239E-04 0.234E+00   -.384E-03 0.108E-03 0.218E+00
   0.542E+00 0.157E+00 0.136E+02   -.471E+00 -.176E+00 -.127E+02   -.154E-01 0.201E-02 -.158E+00   -.107E-02 0.998E-04 0.411E-01
   0.343E+01 0.865E+00 0.284E+02   -.346E+01 -.966E+00 -.294E+02   0.977E-03 0.400E-01 0.290E+00   0.410E-04 0.169E-03 0.399E-01
   0.219E+02 -.133E+02 -.184E+04   -.218E+02 0.134E+02 0.184E+04   -.112E+00 -.248E-01 0.154E+00   0.121E-02 0.280E-03 -.153E+00
   0.218E+02 -.680E+01 -.192E+04   -.217E+02 0.678E+01 0.192E+04   -.137E+00 0.113E-01 -.260E+00   -.403E-02 0.626E-03 -.163E+00
   0.653E+02 -.154E+02 -.372E+04   -.654E+02 0.154E+02 0.373E+04   0.713E-01 0.153E-01 -.447E+00   -.454E-02 0.179E-02 -.310E+00
   0.248E+02 -.819E+02 -.368E+04   -.246E+02 0.820E+02 0.368E+04   -.225E+00 -.320E-01 0.137E+01   0.152E-03 0.228E-02 -.300E+00
   0.204E+00 -.663E-01 0.380E+04   -.200E+00 0.666E-01 -.380E+04   -.133E-02 -.263E-04 0.584E+00   -.160E-03 0.251E-04 0.328E+00
   0.632E-01 -.407E-01 0.398E+04   -.649E-01 0.408E-01 -.397E+04   0.304E-03 -.113E-05 -.421E+01   0.173E-03 -.698E-04 0.328E+00
   0.273E+00 -.222E-01 0.195E+04   -.280E+00 0.215E-01 -.194E+04   0.114E-02 -.568E-03 -.109E+00   0.136E-04 0.895E-04 0.212E+00
   0.436E+00 -.954E-01 0.194E+04   -.424E+00 0.955E-01 -.194E+04   -.248E-02 0.550E-04 0.234E+00   -.410E-03 -.983E-04 0.218E+00
[...]
   -.529E+02 0.305E-01 0.116E+04   0.571E+02 -.314E-01 -.116E+04   -.343E+01 0.109E-02 0.161E+00   0.197E-04 0.101E-04 0.129E+00
   0.530E+02 0.406E-01 0.116E+04   -.573E+02 -.411E-01 -.116E+04   0.344E+01 0.528E-03 0.169E+00   0.281E-04 0.310E-05 0.129E+00
   0.155E+00 0.161E+00 0.513E+03   -.126E+00 -.163E+00 -.518E+03   -.346E-01 0.426E-02 0.402E+01   -.455E-03 0.707E-05 0.671E-01
   0.296E+01 0.674E+00 -.513E+03   -.324E+01 -.677E+00 0.521E+03   0.247E+00 0.314E-02 -.689E+01   -.117E-02 0.227E-04 -.210E-01
   -.543E+02 0.309E-02 0.160E+02   0.594E+02 -.755E-02 -.162E+02   -.496E+01 0.218E-01 0.263E+00   0.839E-03 -.945E-04 0.238E-01
   0.555E+02 -.651E-01 0.130E+02   -.605E+02 0.562E-01 -.132E+02   0.500E+01 0.285E-01 0.217E+00   -.842E-03 -.925E-04 0.238E-01
   0.127E+02 0.149E+01 -.608E+03   -.140E+02 -.158E+01 0.601E+03   0.111E+01 0.759E-01 0.661E+01   0.146E-03 0.299E-04 -.495E-01
   0.190E+02 0.298E+01 -.159E+04   -.203E+02 -.289E+01 0.160E+04   0.115E+01 -.843E-01 -.195E+01   0.137E-03 0.175E-03 -.135E+00
   -.483E+02 0.395E+01 -.111E+04   0.551E+02 -.398E+01 0.111E+04   -.601E+01 0.293E-01 0.126E+01   -.167E-02 -.194E-03 -.944E-01
   0.275E+00 0.633E+01 -.112E+04   -.202E+00 -.650E+01 0.112E+04   -.225E-01 0.158E+00 0.516E+00   0.136E-02 -.199E-03 -.947E-01
   0.256E+02 0.286E+01 -.180E+04   -.261E+02 -.292E+01 0.180E+04   0.453E+00 0.501E-01 -.210E+01   -.267E-02 0.230E-03 -.155E+00
   0.594E+02 0.103E+02 -.271E+04   -.591E+02 -.103E+02 0.273E+04   -.267E+00 0.416E-01 -.198E+02   -.333E-02 0.965E-03 -.208E+00
   -.512E+02 0.574E+02 -.221E+04   0.576E+02 -.570E+02 0.221E+04   -.582E+01 -.336E+00 -.731E+00   0.154E-02 -.141E-02 -.187E+00
   0.696E+02 0.493E+02 -.228E+04   -.763E+02 -.495E+02 0.229E+04   0.608E+01 0.132E+00 -.307E+01   -.850E-03 -.871E-03 -.190E+00
   0.110E+02 -.187E+02 0.903E+02   -.186E-11 -.924E-13 -.168E-10   -.113E+02 0.156E+02 -.859E+02   0.653E-02 0.312E-02 0.372E+01

 POSITION                                       TOTAL-FORCE (eV/Angst)
      6.63633      6.95574     24.79223         0.055859     -0.274866     -0.128873
      7.00487      5.88813     23.88106         0.267451      0.480155      0.162236
      5.54934      7.06644     24.74098         0.234594     -0.032411      0.025270
      8.00232      5.83242     23.83817        -0.416728      0.005098      0.009758
      6.94062      6.67717     25.81012        -0.078375      0.054702     -0.264295
      7.13587      7.89552     24.50954        -0.096752     -0.231498      0.072826
      9.75299      7.39399      8.77438        -0.003001      0.000197     -4.030316
      0.00000      8.87278      8.77438         0.001264      0.000160      3.243565
      0.00000      7.39399     12.02538         0.005340      0.000067      0.561490
      9.75299      8.87278     12.02538        -0.009018      0.000188     -0.817725
      9.75299      7.39399     15.27637        -0.041596     -0.017485      0.697073
      0.00000      8.87278     15.27637        -0.004037      0.002277     -0.814589
      0.09095      7.39486     18.45527         0.073293      0.001968     -0.003617
      9.83275      8.87414     18.64353        -0.014356      0.002931      0.146076
      9.76287      7.40343     21.97055        -0.044102      0.088044      0.323359
     13.00370      8.87683     21.63677         0.017206      0.010595     -0.103911
      9.75299     10.35158      8.77438        -0.003117      0.000185     -4.030461
      0.00000      0.00000      8.77438         0.001277      0.000100      3.243341
      0.00000     10.35158     12.02538         0.005237     -0.000169      0.561547
      9.75299      0.00000     12.02538        -0.009016     -0.000529     -0.819317
      9.75299     10.35158     15.27637        -0.020382      0.025766      0.705719
      0.00000      0.00000     15.27637        -0.003625     -0.000004     -0.808945
      0.09239     10.35216     18.45696         0.070955      0.004402     -0.000062
      9.82711      0.00059     18.65307        -0.021950      0.002703      0.149485
      9.74816     10.35087     22.00312         0.007206      0.022316      0.359892
      0.00323     11.82973     21.63577         0.001522      0.007723     -0.106897
      9.75299      1.47880      8.77438        -0.003076     -0.000292     -4.030742
      0.00000      2.95759      8.77438         0.001324     -0.000129      3.243384
      0.00000      1.47880     12.02538         0.005632      0.000025      0.561445
      9.75299      2.95759     12.02538        -0.008686     -0.000158     -0.819947
      9.75299      1.47880     15.27637        -0.020261     -0.040064      0.696249
      0.00000      2.95759     15.27637         0.000067     -0.002747     -0.813907
      0.09457      1.47842     18.45725         0.068815     -0.003110     -0.000988
      9.83128      2.95605     18.64146        -0.018800     -0.000054      0.148968
      9.74767      1.46953     22.00330         0.001838     -0.019563      0.364996
      0.00250      2.95323     21.63650         0.008776     -0.012531     -0.101637
      9.75299      4.43639      8.77438        -0.002969     -0.000023     -4.030602
      0.00000      5.91519      8.77438         0.001315     -0.000060      3.243597
      0.00000      4.43639     12.02538         0.005771      0.000147      0.561325
      9.75299      5.91519     12.02538        -0.008699      0.000560     -0.817990
      9.75299      4.43639     15.27637        -0.042483      0.031500      0.688748
      0.00000      5.91519     15.27637        -0.001631      0.000651     -0.817625
      0.09083      4.43619     18.45473         0.072803     -0.002186     -0.002566
      9.83569      5.91529     18.64852        -0.015135     -0.001871      0.153329
      9.77174      4.41537     21.97161        -0.060771     -0.116995      0.330953
      0.01069      5.91668     21.63470         0.006492     -0.005504     -0.097385
      3.25100      7.39399      8.77438         0.003093     -0.000103     -4.028063
      6.50199      8.87278      8.77438        -0.001151      0.000406      3.250939
      6.50199      7.39399     12.02538        -0.005356      0.010125      0.588193
      3.25100      8.87278     12.02538         0.009431      0.000214     -0.802438
      3.25100      7.39399     15.27637         0.056124     -0.017137      0.744490
      6.50199      8.87278     15.27637        -0.029497     -0.059639     -0.665354
      6.59514      7.36648     18.49572         0.059410     -0.020168      0.007105
      3.33092      8.87269     18.65124        -0.011464     -0.010063      0.152759
      3.25537      7.39781     22.00010         0.001611      0.006228      0.370745
      6.51186      8.87430     21.59708         0.023238     -0.014909     -0.117636
      3.25100     10.35158      8.77438         0.003216      0.000394     -4.028263
      6.50199      0.00000      8.77438        -0.001152      0.000041      3.250912
      6.50199     10.35158     12.02538        -0.005632     -0.001267      0.589445
      3.25100      0.00000     12.02538         0.009558      0.000085     -0.802192
[...]
      6.50199      5.91519     13.29976         0.003783     -0.000645     -0.316909
      4.52538      4.43639     12.02538         0.293562      0.000416      0.060037
      8.47860      4.43639     12.02538        -0.287006      0.000120      0.062198
      3.25100      5.91519     14.00199        -0.011419      0.002664      0.054148
      3.25100      5.91519     16.55076         0.001634      0.000379     -0.211971
      7.77637      4.43639     15.27637        -0.657446      0.021200      0.074742
      5.22761      4.43639     15.27637         0.698109      0.024533      0.087591
      6.51379      5.91397     17.27821         0.028465      0.003524      0.216345
      6.50129      5.91934     19.84480         0.027059     -0.009015     -0.112362
      4.55311      4.43707     18.55134        -0.163650     -0.000592      0.036656
      8.46902      4.43627     18.56161         0.045001      0.005060      0.020016
      3.25382      5.91924     20.51845         0.017384      0.001388     -0.037151
      3.27789      5.91810     23.08995        -0.029641      0.004623     -0.616144
      7.75933      4.39470     21.83016        -0.295995     -0.035181      0.035407
      5.28648      4.42570     21.93276         0.301182     -0.012416     -0.040983
    total drift:                               -0.011785     -0.004576     -0.376397

  FREE ENERGIE OF THE ION-ELECTRON SYSTEM (eV)
  free  energy   TOTEN  =     -2656.16062967 eV

  energy  without entropy=    -2656.16062967  energy(sigma->0) =    -2656.16062967

     |            E. Caldeweyher, S. Ehlert & S. Grimme          |
     |          Mulliken Center for Theoretical Chemistry        |
     |                    University of Bonn                     |

Rational (Becke-Johnson) damping: hse06-D4-ATM
  s6         1.0000
  s8         1.1953
  s9         1.0000
  a1         0.3866
  a2         5.1913
 alp        16.0000

Dispersion energy:      -1.4464099829416E+00 Eh