 vasp.6.3.0 20Jan22 (build Dec 25 2023 18:06:01) gamma-only
 executed on        HPECrayEX_GCC date 2024.11.24  20:37:50

 INCAR:
   SYSTEM = MgO-rocksalt
   ISMEAR = 0
   SIGMA = 0.05
   EDIFF = 1E-6
   ALGO = ALL
   ISTART = 0
   IBRION = -1
   NSW = 0
   ISYM = 0
   DIPOL = 0.5 0.5 0.5
   IDIPOL = 3
   LDIPOL = .TRUE.
   GGA = RE
   AGGAC = 0.0
   LUSE_VDW = .TRUE.
   LASPH = .TRUE.
   ENCUT = 520
   PREC = Accurate
   LASPH = .TRUE.
   LREAL = Auto
   ISPIN = 1
   NELM = 200
   NELMIN = 8
   NCORE = 8
   KPAR = 1
   LWAVE = .FALSE.
   LCHARG = .FALSE.

 POTCAR:    PAW_PBE H 15Jun2001
 POTCAR:    PAW_PBE O 08Apr2002
 POTCAR:    PAW_PBE Mg_pv 13Apr2007
 POTCAR:    PAW_PBE O 08Apr2002
|               ----> ADVICE to this user running VASP <----                  |
|     You have switched on vdW-DFT.                                           |
|     This routine was written and supplied by Jiri Klimes. We recommend      |
|     that you carefully read and cite the following publications:            |
|       J. Klimes, D.R. Bowler, A. Michelides                                 |
|          J. Phys.: Cond Matt. 22 022201 (2010)                              |
|       J. Klimes, D.R. Bowler, A. Michelides                                 |
|          Phys. Rev. B. 83, 195131 (2011)                                    |
|     and references therein.                                                 |

   TITEL  = PAW_PBE H 15Jun2001
   POMASS =    1.000; ZVAL   =    1.000    mass and valenz
   ENMAX  =  250.000; ENMIN  =  200.000 eV

   TITEL  = PAW_PBE O 08Apr2002
   POMASS =   16.000; ZVAL   =    6.000    mass and valenz
   ENMAX  =  400.000; ENMIN  =  300.000 eV

   TITEL  = PAW_PBE Mg_pv 13Apr2007
   POMASS =   24.305; ZVAL   =    8.000    mass and valenz
   ENMAX  =  403.929; ENMIN  =  302.947 eV

   TITEL  = PAW_PBE O 08Apr2002
   POMASS =   16.000; ZVAL   =    6.000    mass and valenz
   ENMAX  =  400.000; ENMIN  =  300.000 eV

 Optimization of the real space projectors (new method)

 maximal supplied QI-value         = 34.20
 optimisation between [QCUT,QGAM] = [ 11.63, 23.26] = [ 37.87,151.49] Ry
 Optimized for a Real-space Cutoff    1.21 Angstroem

   l    n(q)    QCUT    max X(q) W(low)/X(q) W(high)/X(q)  e(spline)
   0      8    11.629    19.460    0.17E-03    0.34E-03    0.21E-06
   0      8    11.629    12.209    0.16E-03    0.33E-03    0.21E-06
   1      8    11.629     4.655    0.18E-03    0.16E-03    0.26E-06
 Optimization of the real space projectors (new method)

[...]

   l    n(q)    QCUT    max X(q) W(low)/X(q) W(high)/X(q)  e(spline)
   1      8    11.527     2.974    0.44E-04    0.56E-04    0.12E-06
   1      8    11.527     4.279    0.12E-03    0.12E-03    0.26E-06
   0      9    11.527    16.381    0.46E-04    0.64E-04    0.78E-07
   0      9    11.527     5.611    0.26E-04    0.43E-04    0.55E-07
   2      8    11.527     4.652    0.22E-03    0.72E-04    0.47E-07
 Optimization of the real space projectors (new method)

 maximal supplied QI-value         = 24.76
 optimisation between [QCUT,QGAM] = [ 11.64, 23.27] = [ 37.91,151.63] Ry
 Optimized for a Real-space Cutoff    1.14 Angstroem

   l    n(q)    QCUT    max X(q) W(low)/X(q) W(high)/X(q)  e(spline)
   0      8    11.635    20.381    0.10E-03    0.33E-03    0.24E-06
   0      8    11.635    15.268    0.11E-03    0.35E-03    0.26E-06
   1      7    11.635     5.964    0.24E-03    0.31E-03    0.30E-06
   1      7    11.635     5.382    0.22E-03    0.25E-03    0.26E-06
|               ----> ADVICE to this user running VASP <----                  |
|     You enforced a specific xc type in the INCAR file but a different       |
|     type was found in the POTCAR file.                                      |
|     I HOPE YOU KNOW WHAT YOU ARE DOING!                                     |

  PAW_PBE H 15Jun2001                   :
  PAW_PBE O 08Apr2002                   :
  PAW_PBE Mg_pv 13Apr2007               :
  PAW_PBE O 08Apr2002                   :

 POSCAR:  H  O Mg  O
  positions in direct lattice
  velocities in cartesian coordinates
 exchange correlation table for  LEXCH =       40
   RHO(1)=    0.500       N(1)  =     2000
   RHO(2)=  100.500       N(2)  =     4000

 ion  position               nearest neighbor table
   1  0.455  0.451  0.762-  12 1.03
   2  0.356  0.373  0.787-   9 0.97
   3  0.581  0.331  0.764-  10 1.00
   4  0.674  0.343  0.767-  10 0.97
   5  0.451  0.316  0.761-  11 1.12   9 1.35
   6  0.489  0.228  0.785-  11 0.97
   7  0.618  0.494  0.708- 242 0.98
   8  0.471  0.544  0.771-  12 0.97
   9  0.398  0.377  0.756-   2 0.97   5 1.35  36 2.12
  10  0.626  0.369  0.755-   4 0.97   3 1.00  84 2.17
  11  0.499  0.272  0.757-   6 0.97   5 1.12  91 2.18
  12  0.495  0.496  0.754-   8 0.97   1 1.03 115 2.15
  13  0.000  0.375  0.352- 141 2.11 144 2.11 151 2.11 175 2.11 224 2.11
  14  0.125  0.000  0.352- 142 2.11 143 2.11 152 2.11 159 2.11 176 2.11
  15  0.000  0.000  0.451- 143 2.11 142 2.11 149 2.11 173 2.11 222 2.11 147 2.12
  16  0.125  0.375  0.451- 144 2.11 141 2.11 150 2.11 157 2.11 174 2.11 148 2.12
  17  0.000  0.375  0.550- 148 2.10 155 2.11 179 2.12 228 2.12 141 2.12 145 2.15
  18  0.125  0.000  0.550- 156 2.11 163 2.11 180 2.11 147 2.11 142 2.12 146 2.15
  19  0.000  1.000  0.649- 146 2.10 153 2.11 226 2.11 147 2.11 177 2.11
  20  0.125  0.375  0.649- 161 2.08 148 2.11 154 2.11 145 2.11 178 2.12
  21  0.000  0.125  0.352- 149 2.11 143 2.11 151 2.11 152 2.11 232 2.11
  22  0.125  0.250  0.352- 150 2.11 144 2.11 151 2.11 152 2.11 167 2.11
  23  0.000  0.250  0.451- 151 2.11 149 2.11 150 2.11 141 2.11 230 2.11 155 2.12
  24  0.125  0.125  0.451- 152 2.11 149 2.11 150 2.11 142 2.11 165 2.11 156 2.12
  25  0.000  0.125  0.550- 156 2.10 147 2.11 155 2.11 236 2.11 149 2.12 153 2.15
  26  0.125  0.250  0.550- 171 2.10 148 2.11 156 2.11 155 2.12 150 2.12 154 2.15
  27  0.001  0.250  0.649- 154 2.10 153 2.11 155 2.11 234 2.11 145 2.12
  28  0.125  0.125  0.649- 169 2.10 154 2.11 156 2.11 146 2.11 153 2.11
  29  0.250  0.375  0.352- 157 2.11 144 2.11 160 2.11 167 2.11 191 2.11
  30  0.375  0.000  0.352- 158 2.11 159 2.11 168 2.11 192 2.11 207 2.11
  31  0.250  0.000  0.451- 159 2.11 158 2.11 142 2.11 165 2.11 189 2.11 163 2.12
  32  0.375  0.375  0.451- 160 2.11 157 2.11 166 2.11 190 2.11 205 2.11 164 2.12
  33  0.251  0.375  0.551- 164 2.09 171 2.11 195 2.12 148 2.14 157 2.14 161 2.14
  34  0.375  0.000  0.550- 172 2.10 211 2.11 163 2.11 196 2.12 158 2.12 162 2.15
  35  0.250  0.000  0.649- 169 2.10 162 2.11 163 2.11 146 2.11 193 2.11
  36  0.374  0.374  0.659-   9 2.12 161 2.13 170 2.13 209 2.17 194 2.18
  37  0.250  0.125  0.352- 165 2.11 159 2.11 152 2.11 167 2.11 168 2.11
  38  0.375  0.250  0.352- 166 2.11 160 2.11 167 2.11 168 2.11 215 2.11
  39  0.250  0.250  0.451- 167 2.11 157 2.11 165 2.11 166 2.11 150 2.11 171 2.11
  40  0.375  0.125  0.451- 168 2.11 165 2.11 166 2.11 158 2.11 213 2.11 172 2.11
  41  0.250  0.125  0.550- 171 2.10 172 2.10 156 2.12 163 2.12 165 2.12 169 2.15
  42  0.376  0.251  0.551- 164 2.10 170 2.10 219 2.10 171 2.13 172 2.14 166 2.15
  43  0.250  0.250  0.648- 170 2.08 171 2.11 161 2.11 169 2.12 154 2.12
  44  0.375  0.125  0.648- 170 2.08 172 2.10 217 2.12 169 2.12 162 2.12
  45  0.000  0.875  0.352- 173 2.11 143 2.11 176 2.11 183 2.11 256 2.11
  46  0.125  0.500  0.352- 174 2.11 144 2.11 175 2.11 184 2.11 191 2.11
  47  0.000  0.500  0.451- 175 2.11 174 2.11 141 2.11 181 2.11 254 2.11 179 2.12
  48  0.125  0.875  0.451- 176 2.11 173 2.11 142 2.11 182 2.11 189 2.11 180 2.12
  49  0.000  0.875  0.550- 180 2.11 147 2.11 187 2.11 260 2.11 173 2.12 177 2.15
  50  0.125  0.500  0.550- 195 2.09 148 2.11 179 2.11 188 2.12 174 2.12 178 2.15
  51  0.001  0.500  0.649- 178 2.09 258 2.10 179 2.11 145 2.11 185 2.12
  52  0.125  0.875  0.649- 146 2.10 193 2.11 186 2.11 180 2.11 177 2.11
  53  0.000  0.625  0.352- 181 2.11 175 2.11 183 2.11 184 2.11 264 2.11
  54  0.125  0.750  0.352- 182 2.11 176 2.11 183 2.11 184 2.11 199 2.11
  55  0.000  0.750  0.451- 183 2.11 181 2.11 182 2.11 173 2.11 262 2.11 187 2.12
  56  0.125  0.625  0.451- 184 2.11 181 2.11 182 2.11 174 2.11 197 2.11 188 2.12
  57  0.000  0.625  0.550- 188 2.10 187 2.11 179 2.11 268 2.12 181 2.12 185 2.15
  58  0.125  0.750  0.550- 203 2.11 180 2.11 188 2.11 187 2.11 182 2.12 186 2.15
  59  0.000  0.750  0.649- 186 2.10 177 2.10 187 2.11 185 2.11 266 2.11
  60  0.125  0.625  0.649- 201 2.09 178 2.11 188 2.11 185 2.11 186 2.11
[...]
 254  0.875  0.500  0.451- 126 2.11  96 2.11  47 2.11 127 2.11 136 2.11 130 2.12
 255  0.750  0.500  0.352- 127 2.11 110 2.11 126 2.11  93 2.11 133 2.11
 256  0.875  0.875  0.352- 128 2.11  94 2.11 125 2.11  45 2.11 134 2.11
 257  0.750  0.875  0.651- 139 2.09  99 2.11 132 2.11 116 2.12 129 2.15
 258  0.876  0.500  0.651- 131 2.04  51 2.10 140 2.12 100 2.13 130 2.16
 259  0.748  0.500  0.552- 131 2.08 114 2.10 137 2.11  97 2.12 130 2.15 127 2.16
 260  0.875  0.875  0.550- 138 2.10 129 2.11 132 2.11  49 2.11  98 2.11 128 2.12
 261  0.750  0.625  0.451- 133 2.11 127 2.11 120 2.11 135 2.11 136 2.11 137 2.13
 262  0.875  0.750  0.451- 134 2.11 128 2.11  55 2.11 135 2.11 136 2.11 138 2.12
 263  0.750  0.750  0.352- 135 2.11 125 2.11 133 2.11 134 2.11 118 2.11
 264  0.875  0.625  0.352- 136 2.11 126 2.11 133 2.11 134 2.11  53 2.11
 265  0.750  0.625  0.652- 131 2.12 124 2.12 139 2.13 140 2.13 137 2.15
 266  0.875  0.750  0.651- 140 2.10 139 2.10 132 2.11  59 2.11 138 2.15
 267  0.750  0.750  0.550- 137 2.10 139 2.11 122 2.11 138 2.12 129 2.12 135 2.12
 268  0.875  0.625  0.550- 137 2.10 140 2.11 130 2.11 138 2.12  57 2.12 136 2.12

IMPORTANT INFORMATION: All symmetrisations will be switched off!
NOSYMM: (Re-)initialisation of all symmetry stuff for point group C_1.

                                     Primitive cell

  volume of cell :    6079.2794

  direct lattice vectors                    reciprocal lattice vectors
    16.881969308  0.000000000  0.000000000     0.059234796  0.000000000  0.000000000
     0.000000000 16.881969308  0.000000000     0.000000000  0.059234796  0.000000000
     0.000000000  0.000000000 21.330738491     0.000000000  0.000000000  0.046880702

  length of vectors
    16.881969308 16.881969308 21.330738491     0.059234796  0.059234796  0.046880702

  position of ions in fractional coordinates (direct lattice)
     0.454952297  0.450679083  0.761650957
     0.355532226  0.372815326  0.786579602
     0.581354248  0.331303927  0.763804079
     0.674247474  0.342842760  0.767260901
     0.450504221  0.316371457  0.761263871
     0.488953074  0.228366438  0.785323628
     0.617854620  0.493860564  0.708485981
     0.470725556  0.543685030  0.770815212
     0.398289219  0.376585777  0.756438141
     0.625682443  0.369307491  0.754800651
     0.499441554  0.272002590  0.756970706
     0.494895823  0.495937885  0.754258061
     0.000000000  0.375000000  0.351605267
     0.125000000  0.000000000  0.351605267
     0.000000000  0.000000000  0.450535089
     0.125000000  0.375000000  0.450535089
     0.000473976  0.374839352  0.550038770
     0.125122728  0.000110445  0.550026380
     0.000271183  0.999976755  0.648669490
     0.125276386  0.374687369  0.648673277
[...]
   0.00000000 10.55123082  7.50000000
   2.11024616 12.66147698  7.50000000
   0.00000000 12.66147698  9.61024616
   2.11024616 10.55123082  9.61024616
   0.00625321 10.55297297 11.73287093
   2.11098733 12.66360800 11.73196628
   0.00701195 12.66864877 13.83655462
   2.11126955 10.55624881 13.83545653
[...]
  14.77172314  8.44098465  9.61024616
  12.66147698  8.44098465  7.50000000
  14.77172314 14.77172314  7.50000000
  12.66847310 14.77321712 13.88441682
  14.79696011  8.44689501 13.88881145
  12.63336716  8.44598375 11.76522190
  14.77178463 14.76904302 11.72718678
  12.66147698 10.55123082  9.61024616
  14.77172314 12.66147698  9.61024616
  12.66147698 12.66147698  7.50000000
  14.77172314 10.55123082  7.50000000
  12.66281943 10.55243016 13.89791811
  14.77469291 12.66454659 13.88417903
  12.65837932 12.65770827 11.73100929
  14.76781333 10.54785846 11.73114508

--------------------------------------- Iteration      FINAL  ---------------------------------------

--------------------OUTCAR has been truncated-------------------------

[...]

--------------------OUTCAR has been truncated-------------------------

  FORCE on cell =-STRESS in cart. coord.  units (eV):
  Direction    XX          YY          ZZ          XY          YZ          ZX
  Alpha Z  3597.19734  3597.19734  3597.19734
  Ewald  639776.29144639760.69797************    -6.83070   -46.07510   -54.61429
  Hartree680762.28143680748.73447************    -7.46656     3.30255     6.65702
  E(xc)  -10240.27546-10240.29098-10251.89892     0.02380    -0.42702    -0.58057
  Local  ************************************    12.65947    25.37508    24.43873
  n-local-11369.30967-11369.20567-11445.95851    -0.21810     0.10080     0.30494
  augment  4337.11399  4337.13896  4303.82619     0.09796     1.18292     1.58035
  Kinetic 29908.58753 29909.25489 30059.90705     1.16198    16.54025    22.10154
  Fock        0.00000     0.00000     0.00000     0.00000     0.00000     0.00000
  Total     -20.73091   -20.79550    60.05886    -0.57215    -0.00051    -0.11228
  in kB      -5.46357    -5.48060    15.82835    -0.15079    -0.00014    -0.02959

 VOLUME and BASIS-vectors are now :
  energy-cutoff  :      520.00
  volume of cell :     6079.28
      direct lattice vectors                 reciprocal lattice vectors
    16.881969308  0.000000000  0.000000000     0.059234796  0.000000000  0.000000000
     0.000000000 16.881969308  0.000000000     0.000000000  0.059234796  0.000000000
     0.000000000  0.000000000 21.330738491     0.000000000  0.000000000  0.046880702

  length of vectors
    16.881969308 16.881969308 21.330738491     0.059234796  0.059234796  0.046880702

 FORCES acting on ions:
    Electron-Ion                     Ewald-Force                    Non-Local-Force
   0.392E+02 0.148E+02 -.286E+03   -.431E+02 -.195E+02 0.287E+03   0.401E+01 0.481E+01 -.943E+00
   0.881E+02 0.534E+01 -.308E+03   -.944E+02 -.585E+01 0.313E+03   0.621E+01 0.506E+00 -.549E+01
   0.215E+02 0.443E+02 -.288E+03   -.271E+02 -.488E+02 0.289E+03   0.566E+01 0.458E+01 -.136E+01
   -.955E+02 0.401E+02 -.290E+03   0.103E+03 -.438E+02 0.293E+03   -.724E+01 0.369E+01 -.228E+01
   0.309E+02 0.426E+01 -.280E+03   -.331E+02 -.229E+01 0.281E+03   0.225E+01 -.205E+01 -.290E+00
   0.153E+02 0.898E+02 -.305E+03   -.167E+02 -.963E+02 0.310E+03   0.143E+01 0.643E+01 -.519E+01
   -.108E+02 -.123E+02 -.343E+03   0.924E+01 0.110E+02 0.351E+03   0.157E+01 0.139E+01 -.786E+01
   0.362E+02 -.949E+02 -.295E+03   -.396E+02 0.102E+03 0.298E+03   0.337E+01 -.709E+01 -.306E+01
   0.156E+03 -.140E+02 -.165E+04   -.136E+03 0.204E+02 0.162E+04   -.197E+02 -.633E+01 0.208E+02
   -.153E+03 -.513E+02 -.166E+04   0.145E+03 0.898E+02 0.165E+04   0.809E+01 -.384E+02 0.108E+02
   -.318E+02 0.163E+03 -.164E+04   0.515E+02 -.149E+03 0.162E+04   -.197E+02 -.139E+02 0.213E+02
   -.551E+02 -.155E+03 -.166E+04   0.899E+02 0.145E+03 0.165E+04   -.349E+02 0.105E+02 0.119E+02
   0.656E+00 -.429E+00 0.208E+04   -.530E+00 0.372E+00 -.207E+04   -.971E-01 0.431E-01 -.645E+01
   0.316E+01 0.321E+01 0.208E+04   -.311E+01 -.316E+01 -.207E+04   -.414E-01 -.396E-01 -.647E+01
   -.124E+00 0.471E+01 0.703E+03   0.187E+00 -.467E+01 -.703E+03   -.466E-01 -.304E-01 0.457E+00
   0.845E+01 0.258E+00 0.713E+03   -.813E+01 -.304E+00 -.714E+03   -.229E+00 0.338E-01 0.372E+00
   0.345E+01 -.981E+00 -.657E+03   -.298E+01 0.843E+00 0.657E+03   -.474E+00 0.138E+00 -.860E-01
   0.910E+01 0.923E+01 -.667E+03   -.896E+01 -.909E+01 0.667E+03   -.139E+00 -.137E+00 -.110E+00
   -.281E+00 0.108E+02 -.204E+04   0.419E+00 -.107E+02 0.203E+04   -.138E+00 -.879E-01 0.536E+01
   0.522E+02 -.256E+00 -.201E+04   -.512E+02 0.464E-01 0.201E+04   -.983E+00 0.209E+00 0.534E+01
   0.260E-02 0.402E+01 0.208E+04   0.602E-01 -.400E+01 -.207E+04   -.486E-01 -.818E-02 -.646E+01
   0.444E+01 0.302E+01 0.208E+04   -.433E+01 -.302E+01 -.207E+04   -.861E-01 -.974E-03 -.649E+01
   -.151E+00 0.394E+01 0.709E+03   0.300E+00 -.398E+01 -.709E+03   -.110E+00 0.323E-01 0.470E+00
   0.637E+01 0.720E+01 0.708E+03   -.625E+01 -.714E+01 -.708E+03   -.906E-01 -.418E-01 0.416E+00
   -.108E+00 0.104E+02 -.664E+03   0.274E+00 -.104E+02 0.664E+03   -.166E+00 0.111E-01 -.921E-01
   0.215E+02 0.105E+02 -.652E+03   -.210E+02 -.104E+02 0.652E+03   -.504E+00 -.851E-01 -.112E+00
   0.106E+01 0.117E+02 -.203E+04   -.610E+00 -.119E+02 0.202E+04   -.456E+00 0.181E+00 0.538E+01
   0.251E+02 0.231E+02 -.203E+04   -.247E+02 -.229E+02 0.202E+04   -.399E+00 -.177E+00 0.536E+01
   0.644E+01 -.959E-02 0.208E+04   -.638E+01 -.518E-01 -.208E+04   -.440E-01 0.468E-01 -.660E+01
   0.306E+01 0.452E+01 0.208E+04   -.307E+01 -.442E+01 -.207E+04   0.873E-02 -.791E-01 -.649E+01
   0.723E+01 0.647E+01 0.708E+03   -.719E+01 -.636E+01 -.708E+03   -.332E-01 -.869E-01 0.420E+00
   0.693E+01 -.228E+00 0.734E+03   -.697E+01 0.109E-01 -.734E+03   0.475E-01 0.159E+00 -.752E-01
   0.389E+02 0.862E+00 -.628E+03   -.379E+02 -.105E+01 0.629E+03   -.996E+00 0.184E+00 -.538E+00
   0.104E+02 0.217E+02 -.652E+03   -.103E+02 -.212E+02 0.652E+03   -.318E-01 -.467E+00 -.913E-01
   0.227E+02 0.253E+02 -.203E+04   -.225E+02 -.249E+02 0.202E+04   -.128E+00 -.385E+00 0.536E+01
   0.138E+03 0.217E+01 -.183E+04   -.138E+03 -.293E+01 0.183E+04   0.956E-01 0.762E+00 -.421E+00
   0.528E+01 0.528E+01 0.208E+04   -.522E+01 -.521E+01 -.207E+04   -.463E-01 -.532E-01 -.651E+01
   0.420E+01 0.416E+01 0.209E+04   -.422E+01 -.416E+01 -.208E+04   0.168E-01 0.416E-03 -.665E+01
   0.108E+02 0.657E+01 0.720E+03   -.106E+02 -.645E+01 -.720E+03   -.185E+00 -.914E-01 0.248E+00
   0.682E+01 0.107E+02 0.720E+03   -.674E+01 -.104E+02 -.721E+03   -.569E-01 -.198E+00 0.243E+00
   0.228E+02 0.230E+02 -.646E+03   -.226E+02 -.227E+02 0.646E+03   -.286E+00 -.324E+00 -.118E+00
   0.271E+02 0.269E+02 -.603E+03   -.266E+02 -.261E+02 0.605E+03   -.494E+00 -.744E+00 -.157E+01
   0.876E+02 0.461E+02 -.197E+04   -.866E+02 -.460E+02 0.197E+04   -.100E+01 -.178E+00 0.542E+01
   0.455E+02 0.882E+02 -.197E+04   -.455E+02 -.872E+02 0.197E+04   -.447E-01 -.107E+01 0.543E+01
   0.339E+00 0.386E+00 0.208E+04   -.284E+00 -.339E+00 -.207E+04   -.421E-01 -.363E-01 -.645E+01
   0.483E+01 -.317E+01 0.208E+04   -.472E+01 0.311E+01 -.207E+04   -.814E-01 0.461E-01 -.650E+01
   0.194E+01 -.487E+01 0.709E+03   -.163E+01 0.482E+01 -.709E+03   -.237E+00 0.331E-01 0.491E+00
   0.461E+01 -.206E-01 0.703E+03   -.456E+01 0.719E-01 -.703E+03   -.342E-01 -.381E-01 0.456E+00
   0.103E+01 0.107E+01 -.670E+03   -.893E+00 -.951E+00 0.670E+03   -.141E+00 -.123E+00 -.991E-01
   0.233E+02 -.104E+02 -.651E+03   -.228E+02 0.102E+02 0.651E+03   -.526E+00 0.224E+00 -.390E-01
   0.140E+01 -.126E+02 -.203E+04   -.960E+00 0.125E+02 0.202E+04   -.445E+00 0.657E-01 0.534E+01
   0.106E+02 -.328E+00 -.204E+04   -.105E+02 0.432E+00 0.203E+04   -.958E-01 -.103E+00 0.536E+01
   0.105E+01 -.397E+01 0.208E+04   -.942E+00 0.397E+01 -.207E+04   -.869E-01 0.149E-02 -.644E+01
   0.347E+01 -.306E+01 0.208E+04   -.342E+01 0.306E+01 -.207E+04   -.389E-01 -.577E-02 -.646E+01
   0.128E+01 -.378E+01 0.703E+03   -.117E+01 0.382E+01 -.703E+03   -.827E-01 -.342E-01 0.478E+00
   0.766E+01 -.742E+01 0.709E+03   -.757E+01 0.736E+01 -.709E+03   -.752E-01 0.425E-01 0.428E+00
   0.510E+01 -.105E+02 -.664E+03   -.465E+01 0.105E+02 0.664E+03   -.450E+00 -.255E-01 -.112E+00
   0.103E+02 -.928E+01 -.666E+03   -.101E+02 0.928E+01 0.666E+03   -.136E+00 -.211E-02 -.106E+00
   0.256E+01 -.987E+01 -.204E+04   -.218E+01 0.100E+02 0.203E+04   -.386E+00 -.152E+00 0.536E+01
   0.269E+02 -.224E+02 -.203E+04   -.265E+02 0.223E+02 0.202E+04   -.401E+00 0.774E-01 0.536E+01
[...]
   -.460E+01 -.333E+01 0.156E+04   0.464E+01 0.328E+01 -.157E+04   -.545E-01 0.689E-01 0.372E+01
   -.189E+01 0.577E+00 0.156E+04   0.192E+01 -.533E+00 -.156E+04   -.310E-01 -.582E-01 0.358E+01
   -.115E+02 -.973E+00 -.155E+04   0.114E+02 0.124E+01 0.155E+04   0.115E+00 -.267E+00 -.509E+01
   -.372E+02 -.147E+02 -.153E+04   0.386E+02 0.146E+02 0.154E+04   -.140E+01 0.172E+00 -.502E+01
   -.165E+02 -.141E+02 -.484E+03   0.168E+02 0.139E+02 0.483E+03   -.320E+00 0.186E+00 0.814E+00
   -.513E+01 0.813E+00 -.496E+03   0.518E+01 -.699E+00 0.496E+03   -.476E-01 -.113E+00 0.227E+00
   -.582E+01 -.583E+01 0.530E+03   0.595E+01 0.596E+01 -.530E+03   -.188E+00 -.201E+00 0.860E-01
   -.222E+01 -.220E+01 0.527E+03   0.228E+01 0.226E+01 -.527E+03   -.878E-01 -.865E-01 0.170E-01
   -.306E+01 -.192E+01 0.156E+04   0.308E+01 0.198E+01 -.156E+04   -.273E-01 -.820E-01 0.363E+01
   -.194E+01 -.308E+01 0.156E+04   0.200E+01 0.310E+01 -.156E+04   -.849E-01 -.312E-01 0.363E+01
   -.310E+02 -.316E+02 -.153E+04   0.310E+02 0.316E+02 0.153E+04   -.804E-02 -.259E-01 -.508E+01
   -.112E+02 -.112E+02 -.155E+04   0.114E+02 0.114E+02 0.155E+04   -.264E+00 -.257E+00 -.507E+01
   -.929E+01 -.723E+01 -.489E+03   0.937E+01 0.741E+01 0.489E+03   -.761E-01 -.181E+00 0.308E+00
   -.731E+01 -.944E+01 -.489E+03   0.751E+01 0.953E+01 0.489E+03   -.197E+00 -.835E-01 0.311E+00
   0.536E+02 0.401E+02 0.175E+02   -.568E-12 -.341E-12 -.118E-10   -.536E+02 -.401E+02 -.174E+02

 POSITION                                       TOTAL-FORCE (eV/Angst)
      7.68049      7.60835     16.24658         0.091097      0.119939      0.060112
      6.00208      6.29386     16.77832        -0.078511     -0.006322      0.069124
      9.81440      5.59306     16.29251         0.102475      0.078483      0.060599
     11.38263      5.78786     16.36624         0.057820     -0.014008      0.065147
      7.60540      5.34097     16.23832         0.044531     -0.077818      0.059114
      8.25449      3.85528     16.75153        -0.016369     -0.073980      0.068868
     10.43060      8.33734     15.11253         0.035842      0.033723      0.024064
      7.94677      9.17847     16.44206        -0.018661      0.066551      0.067476
      6.72391      6.35751     16.13538        -0.165607      0.007956      0.017887
     10.56275      6.23464     16.10046        -0.019067     -0.018402      0.054617
      8.43156      4.59194     16.14674        -0.027958     -0.093551      0.015710
      8.35482      8.37241     16.08888        -0.008497     -0.014451      0.050654
      0.00000      6.33074      7.50000         0.027651     -0.013047      0.152309
      2.11025      0.00000      7.50000         0.012031      0.011402      0.158588
      0.00000      0.00000      9.61025         0.016134      0.009790      0.030388
      2.11025      6.33074      9.61025         0.086599     -0.011664      0.074677
      0.00800      6.32803     11.73273        -0.002597      0.000708      0.035956
      2.11232      0.00186     11.73247         0.000391     -0.000554      0.036292
      0.00458     16.88158     13.83660        -0.000187      0.000278      0.191838
      2.11491      6.32546     13.83668        -0.001189     -0.000260      0.191167
      0.00000      2.11025      7.50000         0.014026      0.002623      0.156659
      2.11025      4.22049      7.50000         0.024794      0.000772      0.167166
      0.00000      4.22049      9.61025         0.039009     -0.010384      0.028692
      2.11025      2.11025      9.61025         0.030587      0.014036      0.043401
      0.00385      2.10887     11.73198        -0.000179     -0.000075      0.036400
      2.11625      4.22134     11.73247         0.001520     -0.000000      0.035750
      0.00887      4.21259     13.83558        -0.001380      0.002003      0.192224
      2.11380      2.10856     13.83595        -0.000453     -0.000366      0.191586
      4.22049      6.33074      7.50000         0.013375     -0.014350      0.192348
      6.33074      0.00000      7.50000        -0.002201      0.022492      0.165533
      4.22049      0.00000      9.61025         0.011096      0.029242      0.042469
      6.33074      6.33074      9.61025         0.003773     -0.057349      0.172226
      4.24097      6.32712     11.74996        -0.004334      0.000022      0.034333
      6.33069      0.00492     11.73210        -0.000043     -0.000188      0.035542
      4.21854      0.00297     13.83593        -0.000263     -0.001275      0.191802
      6.31928      6.31621     14.05327        -0.043597     -0.000182      0.115572
      4.22049      2.11025      7.50000         0.013801      0.015788      0.171652
      6.33074      4.22049      7.50000        -0.004520      0.000510      0.202749
      4.22049      4.22049      9.61025         0.075055      0.035019      0.106618
      6.33074      2.11025      9.61025         0.022509      0.080171      0.103676
      4.22522      2.11533     11.73224        -0.001252      0.000761      0.034799
      6.34539      4.24063     11.76102        -0.000449     -0.004858      0.033597
      4.22461      4.21887     13.83157        -0.013312     -0.007914      0.173949
      6.32714      2.11341     13.82886        -0.011022     -0.012059      0.174861
      0.00000     14.77172      7.50000         0.012220      0.010457      0.152741
      2.11025      8.44098      7.50000         0.023511     -0.013860      0.166162
      0.00000      8.44098      9.61025         0.072921     -0.010845      0.021176
      2.11025     14.77172      9.61025         0.011263      0.013107      0.031423
      0.00240     14.77372     11.73220        -0.000140      0.000153      0.035831
      2.11429      8.43724     11.73059         0.001207      0.000777      0.035644
      0.01507      8.44158     13.83752        -0.001574     -0.000444      0.192480
      2.11024     14.77569     13.83667         0.000189      0.001071      0.191738
      0.00000     10.55123      7.50000         0.024974      0.000004      0.148345
      2.11025     12.66148      7.50000         0.011442      0.001803      0.155125
      0.00000     12.66148      9.61025         0.026383      0.011059      0.025171
      2.11025     10.55123      9.61025         0.022253     -0.013735      0.033441
      0.00625     10.55297     11.73287        -0.002397     -0.000647      0.035652
      2.11099     12.66361     11.73197        -0.000401     -0.000586      0.035621
      0.00701     12.66865     13.83655        -0.001599     -0.001457      0.192171
      2.11127     10.55625     13.83546        -0.001240     -0.000302      0.192103
[...]
     14.77172      8.44098      9.61025        -0.097755      0.021886      0.150411
     12.66148      8.44098      7.50000        -0.015855      0.019425     -0.517883
     14.77172     14.77172      7.50000        -0.006317     -0.013988     -0.554895
     12.66847     14.77322     13.88442         0.001037      0.002417      0.048560
     14.79696      8.44690     13.88881        -0.000038      0.001685      0.050557
     12.63337      8.44598     11.76522         0.004945      0.000188      0.005926
     14.77178     14.76904     11.72719        -0.000637      0.001344      0.008613
     12.66148     10.55123      9.61025        -0.058683     -0.064563      0.169956
     14.77172     12.66148      9.61025        -0.027233     -0.028503      0.085789
     12.66148     12.66148      7.50000        -0.007678     -0.023137     -0.541775
     14.77172     10.55123      7.50000        -0.021560     -0.011121     -0.539767
     12.66282     10.55243     13.89792         0.002521      0.002852      0.050565
     14.77469     12.66455     13.88418         0.001219     -0.000032      0.046388
     12.65838     12.65771     11.73101         0.000830      0.000011      0.010242
     14.76781     10.54786     11.73115        -0.000882      0.002418      0.010427
    total drift:                               -0.008360     -0.003066      0.087951

  FREE ENERGIE OF THE ION-ELECTRON SYSTEM (eV)
  free  energy   TOTEN  =      -960.98707706 eV

  energy  without entropy=     -960.98707706  energy(sigma->0) =     -960.98707706