 vasp.6.4.2 20Jul23 (build Feb 22 2024 13:53:45) complex
 executed on              LinuxNV date 2024.08.27  22:23:49
 OpenACC runtime initialized ...    4 GPUs detected

 INCAR:
   SYSTEM = Oxide-Surface
   ISMEAR = 0
   SIGMA = 0.05
   EDIFF = 1E-5
   ALGO = Normal
   IBRION = -1
   NSW = 0
   ISYM = 0
   DIPOL = 0.5 0.5 0.5
   IDIPOL = 3
   LDIPOL = .TRUE.
   ISTART = 1
   LHFCALC = .TRUE.
   GGA = PE
   IVDW = 21
   VDW_SR = 0.96
   HFRCUT = -1
   ENCUT = 520
   PREC = Normal
   PRECFOCK = Normal
   LASPH = .TRUE.
   LREAL = Auto
   ISPIN = 1
   NELM = 200
   NELMIN = 8
   NCORE = 1
   KPAR = 1
   LWAVE = .FALSE.
   LCHARG = .FALSE.

 POTCAR:    PAW_PBE N 08Apr2002
 POTCAR:    PAW_PBE H 15Jun2001
 POTCAR:    PAW_PBE Mg_pv 13Apr2007
 POTCAR:    PAW_PBE O 08Apr2002
 POTCAR:    PAW_PBE N 08Apr2002
   VRHFIN =N: s2p3

   TITEL  = PAW_PBE N 08Apr2002
   POMASS =   14.001; ZVAL   =    5.000    mass and valenz
   ENMAX  =  400.000; ENMIN  =  300.000 eV

   TITEL  = PAW_PBE H 15Jun2001
   POMASS =    1.000; ZVAL   =    1.000    mass and valenz
   ENMAX  =  250.000; ENMIN  =  200.000 eV

   TITEL  = PAW_PBE Mg_pv 13Apr2007
   POMASS =   24.305; ZVAL   =    8.000    mass and valenz
   ENMAX  =  403.929; ENMIN  =  302.947 eV

   TITEL  = PAW_PBE O 08Apr2002
   POMASS =   16.000; ZVAL   =    6.000    mass and valenz
   ENMAX  =  400.000; ENMIN  =  300.000 eV

 Optimization of the real space projectors (new method)

 maximal supplied QI-value         = 25.13
 optimisation between [QCUT,QGAM] = [ 11.56, 23.12] = [ 37.43,149.72] Ry
 Optimized for a Real-space Cutoff    1.25 Angstroem

   l    n(q)    QCUT    max X(q) W(low)/X(q) W(high)/X(q)  e(spline)
   0      9    11.561    79.467    0.52E-04    0.16E-03    0.37E-06
   0      9    11.561    66.151    0.51E-04    0.16E-03    0.37E-06
   1      8    11.561    18.886    0.46E-03    0.28E-03    0.80E-06
   1      8    11.561    13.488    0.47E-03    0.29E-03    0.82E-06
 Optimization of the real space projectors (new method)

[...]

   l    n(q)    QCUT    max X(q) W(low)/X(q) W(high)/X(q)  e(spline)
   1      8    11.527     2.974    0.16E-03    0.13E-03    0.98E-07
   1      8    11.527     4.279    0.42E-03    0.30E-03    0.22E-06
   0      8    11.527    16.381    0.13E-03    0.20E-03    0.72E-07
   0      8    11.527     5.611    0.88E-04    0.13E-03    0.50E-07
   2      7    11.527     4.652    0.25E-03    0.73E-04    0.51E-07
 Optimization of the real space projectors (new method)

 maximal supplied QI-value         = 24.76
 optimisation between [QCUT,QGAM] = [ 11.64, 23.27] = [ 37.91,151.63] Ry
 Optimized for a Real-space Cutoff    1.04 Angstroem

   l    n(q)    QCUT    max X(q) W(low)/X(q) W(high)/X(q)  e(spline)
   0      7    11.635    20.381    0.14E-03    0.49E-03    0.18E-06
   0      7    11.635    15.268    0.16E-03    0.52E-03    0.19E-06
   1      7    11.635     5.964    0.30E-03    0.44E-03    0.22E-06
   1      7    11.635     5.382    0.27E-03    0.34E-03    0.19E-06
  PAW_PBE N 08Apr2002                   :
  PAW_PBE H 15Jun2001                   :
  PAW_PBE Mg_pv 13Apr2007               :
  PAW_PBE O 08Apr2002                   :

 POSCAR:  N  H Mg  O
  positions in direct lattice
 exchange correlation table for  LEXCH =        8
   RHO(1)=    0.500       N(1)  =     2000
   RHO(2)=  100.500       N(2)  =     4000

 ion  position               nearest neighbor table
   1  0.500  0.516  0.743-   4 1.02   3 1.02   2 1.02
   2  0.500  0.635  0.753-   1 1.02
   3  0.402  0.469  0.770-   1 1.02
   4  0.598  0.469  0.770-   1 1.02
   5  0.000  0.750  0.230-  37 2.11  47 2.11  40 2.11  39 2.11  56 2.11
   6  0.250  0.000  0.230-  38 2.11  39 2.11  40 2.11  48 2.11  55 2.11
   7  0.000  0.000  0.354-  39 2.11  38 2.11  37 2.11  45 2.11  54 2.11  43 2.12
   8  0.250  0.750  0.354-  40 2.11  46 2.11  37 2.11  38 2.11  53 2.11  44 2.12
   9  0.000  0.750  0.479-  51 2.11  44 2.11  60 2.11  43 2.11  37 2.12  41 2.16
  10  0.250  1.000  0.479-  59 2.11  52 2.11  44 2.11  43 2.11  38 2.12  42 2.16
  11  0.000  1.000  0.603-  43 2.10  42 2.11  58 2.11  49 2.11  41 2.11
  12  0.250  0.750  0.602-  44 2.09  41 2.11  42 2.11  50 2.11  57 2.11
  13  0.000  0.250  0.230-  45 2.11  39 2.11  48 2.11  64 2.11  47 2.11
  14  0.250  0.500  0.230-  46 2.11  40 2.11  47 2.11  63 2.11  48 2.11
  15  0.000  0.500  0.354-  47 2.11  37 2.11  46 2.11  62 2.11  45 2.11  51 2.11
  16  0.250  0.250  0.354-  48 2.11  45 2.11  38 2.11  61 2.11  46 2.11  52 2.12
  17  1.000  0.250  0.479-  51 2.11  68 2.11  52 2.11  43 2.11  45 2.12  49 2.16
  18  0.251  0.500  0.480-  67 2.10  52 2.11  44 2.11  51 2.12  46 2.13  50 2.15
  19  0.000  0.500  0.602-  66 2.09  50 2.09  51 2.10  49 2.12  41 2.12
  20  0.250  0.250  0.602-  52 2.10  42 2.11  49 2.11  65 2.11  50 2.11
  21  0.500  0.750  0.230-  53 2.11  63 2.11  55 2.11  56 2.11  40 2.11
  22  0.750  0.000  0.230-  54 2.11  39 2.11  55 2.11  56 2.11  64 2.11
  23  0.500  0.000  0.354-  55 2.11  53 2.11  54 2.11  38 2.11  61 2.11  59 2.11
  24  0.750  0.750  0.354-  56 2.11  62 2.11  54 2.11  37 2.11  53 2.11  60 2.12
  25  0.500  0.749  0.480-  67 2.10  60 2.11  44 2.11  59 2.12  53 2.13  57 2.15
  26  0.750  1.000  0.479-  59 2.11  68 2.11  60 2.11  43 2.11  54 2.12  58 2.16
  27  0.500  0.000  0.602-  65 2.09  57 2.09  59 2.10  42 2.12  58 2.12
  28  0.750  0.750  0.602-  60 2.09  41 2.11  58 2.11  66 2.11  57 2.11
  29  0.500  0.250  0.230-  61 2.11  55 2.11  48 2.11  64 2.11  63 2.11
  30  0.750  0.500  0.230-  62 2.11  56 2.11  47 2.11  63 2.11  64 2.11
  31  0.500  0.500  0.354-  63 2.11  53 2.11  62 2.11  46 2.11  61 2.11  67 2.14
  32  0.750  0.250  0.354-  64 2.11  54 2.11  61 2.11  45 2.11  62 2.11  68 2.12
  33  0.500  0.251  0.480-  67 2.10  52 2.11  68 2.11  59 2.12  61 2.13  65 2.14
  34  0.749  0.500  0.480-  67 2.10  68 2.11  60 2.11  51 2.12  62 2.13  66 2.15
  35  0.500  0.499  0.611-  65 2.12  66 2.13  50 2.13  57 2.15  67 2.22
  36  0.750  0.250  0.602-  68 2.10  58 2.11  49 2.11  65 2.11  66 2.11
  37  0.000  0.750  0.354-   5 2.11  15 2.11   8 2.11   7 2.11  24 2.11   9 2.12
  38  0.250  0.000  0.354-   6 2.11   7 2.11   8 2.11  16 2.11  23 2.11  10 2.12
  39  0.000  0.000  0.230-   7 2.11   6 2.11   5 2.11  13 2.11  22 2.11
  40  0.250  0.750  0.230-   8 2.11  14 2.11   5 2.11   6 2.11  21 2.11
  41  1.000  0.750  0.606-  11 2.11  28 2.11  12 2.11  19 2.12   9 2.16
  42  0.249  1.000  0.606-  11 2.11  20 2.11  12 2.11  27 2.12  10 2.16
  43  1.000  1.000  0.479-  11 2.10   9 2.11  26 2.11  10 2.11  17 2.11   7 2.12
  44  0.250  0.750  0.479-  12 2.09  10 2.11   9 2.11  25 2.11  18 2.11   8 2.12
  45  0.000  0.250  0.354-  13 2.11   7 2.11  16 2.11  32 2.11  15 2.11  17 2.12
  46  0.250  0.500  0.354-  14 2.11   8 2.11  15 2.11  31 2.11  16 2.11  18 2.13
  47  0.000  0.500  0.230-  15 2.11   5 2.11  14 2.11  30 2.11  13 2.11
  48  0.250  0.250  0.230-  16 2.11  13 2.11   6 2.11  29 2.11  14 2.11
  49  0.000  0.249  0.606-  11 2.11  36 2.11  20 2.11  19 2.12  17 2.16
  50  0.247  0.500  0.606-  19 2.09  12 2.11  20 2.11  35 2.13  18 2.15
  51  0.000  0.500  0.479-  19 2.10   9 2.11  17 2.11  15 2.11  34 2.12  18 2.12
  52  0.250  0.250  0.479-  20 2.10  10 2.11  17 2.11  18 2.11  33 2.11  16 2.12
  53  0.500  0.750  0.354-  21 2.11  31 2.11  23 2.11  24 2.11   8 2.11  25 2.13
  54  0.750  0.000  0.354-  22 2.11   7 2.11  23 2.11  24 2.11  32 2.11  26 2.12
  55  0.500  0.000  0.230-  23 2.11  21 2.11  22 2.11   6 2.11  29 2.11
  56  0.750  0.750  0.230-  24 2.11  30 2.11  22 2.11   5 2.11  21 2.11
  57  0.500  0.753  0.606-  27 2.09  12 2.11  28 2.11  35 2.15  25 2.15
  58  0.751  1.000  0.606-  11 2.11  36 2.11  28 2.11  27 2.12  26 2.16
  59  0.500  1.000  0.479-  27 2.10  26 2.11  10 2.11  23 2.11  25 2.12  33 2.12
  60  0.750  0.750  0.479-  28 2.09  26 2.11   9 2.11  25 2.11  34 2.11  24 2.12
  61  0.500  0.250  0.354-  29 2.11  23 2.11  16 2.11  32 2.11  31 2.11  33 2.13
  62  0.750  0.500  0.354-  30 2.11  24 2.11  15 2.11  31 2.11  32 2.11  34 2.13
  63  0.500  0.500  0.230-  31 2.11  21 2.11  30 2.11  14 2.11  29 2.11
  64  0.750  0.250  0.230-  32 2.11  22 2.11  29 2.11  13 2.11  30 2.11
  65  0.500  0.247  0.606-  27 2.09  20 2.11  36 2.11  35 2.12  33 2.14
  66  0.753  0.500  0.606-  19 2.09  28 2.11  36 2.11  35 2.13  34 2.15
  67  0.500  0.500  0.480-  25 2.10  18 2.10  34 2.10  33 2.10  31 2.14  35 2.22
  68  0.750  0.250  0.479-  36 2.10  26 2.11  17 2.11  34 2.11  33 2.11  32 2.12

IMPORTANT INFORMATION: All symmetrisations will be switched off!
NOSYMM: (Re-)initialisation of all symmetry stuff for point group C_1.

                                     Primitive cell

  volume of cell :    1211.2538

  direct lattice vectors                    reciprocal lattice vectors
     8.440984654  0.000000000  0.000000000     0.118469591  0.000000000  0.000000000
     0.000000000  8.440984654  0.000000000     0.000000000  0.118469591  0.000000000
     0.000000000  0.000000000 17.000000000     0.000000000  0.000000000  0.058823529

  length of vectors
     8.440984654  8.440984654 17.000000000     0.118469591  0.118469591  0.058823529

  position of ions in fractional coordinates (direct lattice)
     0.500000238  0.515521052  0.743122297
     0.499999982  0.635072459  0.752584339
     0.402069062  0.469398098  0.769809164
     0.597931074  0.469398359  0.769809375
     0.000000001  0.750005063  0.230190625
     0.250000001  0.000005063  0.230190625
     0.000000001  0.000005063  0.354322752
     0.250000001  0.750005063  0.354322752
     0.000000003  0.749688989  0.478992539
     0.250263523  0.999994937  0.479012029
     0.000000001  0.999958952  0.602562889
     0.249680170  0.750040946  0.602146405
     0.000000001  0.250005063  0.230190625
     0.250000001  0.500005063  0.230190625
     0.000000001  0.500005063  0.354322752
     0.250000001  0.250005063  0.354322752
     0.999999996  0.250234310  0.479017192
     0.251264403  0.499912485  0.479817993
     0.000000018  0.499894003  0.602327959
     0.249874846  0.249737023  0.602282337
     0.500000001  0.750005063  0.230190625
     0.750000001  0.000005063  0.230190625
     0.500000001  0.000005063  0.354322752
     0.750000001  0.750005063  0.354322752
     0.499999997  0.748694190  0.479856547
     0.749736478  0.999994937  0.479012045
     0.499999996  0.000235948  0.602315670
     0.750319839  0.750040932  0.602146398
     0.500000001  0.250005063  0.230190625
     0.750000001  0.500005063  0.230190625
     0.500000001  0.500005063  0.354322752
     0.750000001  0.250005063  0.354322752
     0.500000000  0.251193808  0.479761393
     0.748735611  0.499912479  0.479818037
     0.500000034  0.498643644  0.610784368
     0.750125162  0.249737020  0.602282348
     0.000000001  0.750005063  0.354322752
     0.250000001  0.000005063  0.354322752
     0.000000001  0.000005063  0.230190625
     0.250000001  0.750005063  0.230190625
     0.999999999  0.750491851  0.605981896
     0.249403678  0.999911150  0.606023354
     0.999999998  0.999937384  0.478809541
     0.249933155  0.750101855  0.478982330
     0.000000001  0.250005063  0.354322752
     0.250000001  0.500005063  0.354322752
     0.000000001  0.500005063  0.230190625
[...]
   O         242.387          5.045         21.286          3.94176439
   O         245.944          5.057         21.441          3.97058467
   O         237.910          5.029         21.088          3.90519216
   O         237.814          5.029         21.084          3.90440324
   O         195.679          4.868         19.125          3.54166994
   O         195.446          4.867         19.114          3.53956340
   O         187.638          4.834         18.728          3.46814561
   O         186.877          4.831         18.690          3.46110223
   O         236.517          5.024         21.026          3.89374757
   O         245.292          5.055         21.413          3.96532077

  vdW correction parametrized for the method ²å>    þ

  IVDW =  21
  VDW_RADIUS =    50.000 A
  VDW_IDAMPF =  0
  VDW_S6 =     1.000
  VDW_SR =     0.960
  VDW_D =    20.000
  LVDW_ONECELL = F F F
  LVDW_SAMETYPE T T T T
  LVDW_EWALD = F

  Number of pair interactions contributing to vdW energy: 1007698
  Edisp (eV):   -4.02466

 VOLUME and BASIS-vectors are now :
  energy-cutoff  :      520.00
  volume of cell :     1211.25
      direct lattice vectors                 reciprocal lattice vectors
     8.440984654  0.000000000  0.000000000     0.118469591  0.000000000  0.000000000
     0.000000000  8.440984654  0.000000000     0.000000000  0.118469591  0.000000000
     0.000000000  0.000000000 17.000000000     0.000000000  0.000000000  0.058823529

  length of vectors
     8.440984654  8.440984654 17.000000000     0.118469591  0.118469591  0.058823529

 FORCES acting on ions
    electron-ion (+dipol)            ewald-force                    non-local-force                 convergence-correction
   -.706E-04 0.804E+01 -.956E+03   0.922E-04 -.130E+02 0.931E+03   -.775E-04 0.456E+01 0.226E+02   0.300E-06 0.275E-03 0.113E+00
   0.141E-03 -.701E+02 -.196E+03   -.154E-03 0.771E+02 0.197E+03   0.152E-04 -.696E+01 -.855E+00   0.513E-07 -.300E-03 0.229E-01
   0.581E+02 0.280E+02 -.197E+03   -.638E+02 -.307E+02 0.200E+03   0.575E+01 0.273E+01 -.293E+01   0.551E-04 0.245E-04 0.222E-01
   -.581E+02 0.280E+02 -.197E+03   0.638E+02 -.307E+02 0.200E+03   -.575E+01 0.273E+01 -.293E+01   -.551E-04 0.245E-04 0.222E-01
   0.522E-05 -.267E+00 0.172E+04   -.565E-05 0.264E+00 -.171E+04   0.243E-06 0.202E-02 -.675E+01   0.115E-06 0.639E-04 -.163E+00
   0.268E+00 -.329E-01 0.172E+04   -.264E+00 0.321E-01 -.171E+04   -.250E-02 0.507E-03 -.675E+01   -.583E-04 -.925E-05 -.163E+00
   0.173E-04 -.478E-01 0.584E+03   -.190E-04 0.531E-01 -.584E+03   0.835E-06 -.340E-02 0.470E+00   0.193E-06 -.343E-04 -.956E-01
   -.281E+00 0.281E+00 0.584E+03   0.349E+00 -.339E+00 -.584E+03   -.419E-01 0.354E-01 0.522E+00   0.203E-03 -.189E-03 -.951E-01
   0.109E-04 -.277E+01 -.540E+03   -.993E-05 0.269E+01 0.540E+03   -.574E-06 0.787E-01 0.287E-01   -.461E-06 -.605E-03 0.618E-02
   0.281E+01 -.237E+00 -.540E+03   -.272E+01 0.253E+00 0.540E+03   -.762E-01 -.132E-01 0.327E-01   0.635E-03 -.111E-03 0.624E-02
   -.245E-04 -.949E+00 -.167E+04   0.243E-04 0.962E+00 0.167E+04   0.474E-06 -.107E-01 0.568E+01   -.492E-06 -.571E-05 0.102E+00
   0.208E+02 -.199E+02 -.165E+04   -.210E+02 0.200E+02 0.164E+04   0.117E+00 -.560E-01 0.582E+01   0.238E-02 -.203E-02 0.102E+00
   0.523E-05 0.267E+00 0.172E+04   -.531E-05 -.263E+00 -.171E+04   0.259E-06 -.190E-02 -.676E+01   -.326E-06 -.617E-04 -.163E+00
   0.313E+00 0.327E-01 0.172E+04   -.304E+00 -.322E-01 -.171E+04   -.535E-02 -.355E-03 -.679E+01   -.901E-04 0.652E-05 -.162E+00
   0.362E-04 0.389E-01 0.584E+03   -.398E-04 -.477E-01 -.584E+03   0.216E-05 0.542E-02 0.376E+00   0.203E-06 0.310E-04 -.951E-01
   -.249E+00 -.290E+00 0.584E+03   0.295E+00 0.344E+00 -.584E+03   -.275E-01 -.329E-01 0.504E+00   0.185E-03 0.185E-03 -.952E-01
   -.133E-04 0.277E+01 -.541E+03   0.122E-04 -.268E+01 0.541E+03   0.158E-05 -.786E-01 0.438E-01   -.780E-06 0.600E-03 0.622E-02
   0.274E+01 0.235E+00 -.536E+03   -.238E+01 -.248E+00 0.537E+03   -.324E+00 0.112E-01 -.376E+00   0.814E-03 0.107E-03 0.842E-02
   -.971E-04 0.107E+01 -.166E+04   0.939E-04 -.108E+01 0.165E+04   0.301E-05 0.110E-01 0.566E+01   -.435E-06 0.111E-04 0.101E+00
   0.188E+02 0.194E+02 -.165E+04   -.189E+02 -.194E+02 0.164E+04   0.487E-01 0.651E-01 0.581E+01   0.187E-02 0.196E-02 0.102E+00
   -.543E-05 -.311E+00 0.172E+04   0.566E-05 0.304E+00 -.171E+04   -.443E-06 0.488E-02 -.679E+01   0.408E-06 0.849E-04 -.162E+00
   -.268E+00 -.329E-01 0.172E+04   0.264E+00 0.321E-01 -.171E+04   0.250E-02 0.507E-03 -.675E+01   0.582E-04 -.887E-05 -.163E+00
   -.194E-04 -.348E-03 0.584E+03   0.208E-04 -.149E-01 -.584E+03   -.117E-05 0.953E-02 0.379E+00   0.392E-06 -.432E-04 -.951E-01
   0.281E+00 0.281E+00 0.584E+03   -.349E+00 -.339E+00 -.584E+03   0.419E-01 0.354E-01 0.522E+00   -.204E-03 -.189E-03 -.951E-01
   -.935E-08 -.253E+01 -.537E+03   0.450E-06 0.217E+01 0.538E+03   -.409E-06 0.320E+00 -.241E+00   0.439E-07 -.753E-03 0.878E-02
   -.281E+01 -.237E+00 -.540E+03   0.272E+01 0.253E+00 0.540E+03   0.762E-01 -.132E-01 0.327E-01   -.634E-03 -.111E-03 0.624E-02
   0.805E-05 -.265E+01 -.166E+04   -.806E-05 0.268E+01 0.165E+04   0.150E-06 -.262E-01 0.565E+01   0.361E-06 -.461E-03 0.101E+00
   -.208E+02 -.199E+02 -.165E+04   0.210E+02 0.200E+02 0.164E+04   -.117E+00 -.560E-01 0.582E+01   -.238E-02 -.203E-02 0.102E+00
   -.530E-05 0.311E+00 0.172E+04   0.546E-05 -.304E+00 -.171E+04   -.372E-06 -.476E-02 -.678E+01   0.461E-06 -.920E-04 -.162E+00
   -.313E+00 0.327E-01 0.172E+04   0.304E+00 -.322E-01 -.171E+04   0.535E-02 -.356E-03 -.679E+01   0.895E-04 0.644E-05 -.162E+00
   -.370E-04 -.635E-02 0.581E+03   0.417E-04 0.174E-01 -.582E+03   -.312E-05 -.714E-02 0.590E+00   0.714E-07 0.428E-04 -.946E-01
   0.249E+00 -.290E+00 0.584E+03   -.295E+00 0.344E+00 -.584E+03   0.276E-01 -.329E-01 0.504E+00   -.185E-03 0.185E-03 -.952E-01
   -.875E-05 0.272E+01 -.536E+03   0.890E-05 -.237E+01 0.536E+03   0.107E-05 -.315E+00 -.434E+00   -.497E-07 0.779E-03 0.814E-02
   -.274E+01 0.235E+00 -.536E+03   0.238E+01 -.248E+00 0.537E+03   0.324E+00 0.112E-01 -.376E+00   -.813E-03 0.107E-03 0.842E-02
   0.144E-03 0.593E+01 -.157E+04   -.136E-03 -.624E+01 0.157E+04   -.660E-05 0.270E+00 0.897E+00   0.787E-07 0.102E-02 0.122E+00
   -.188E+02 0.194E+02 -.165E+04   0.189E+02 -.194E+02 0.164E+04   -.487E-01 0.651E-01 0.581E+01   -.187E-02 0.196E-02 0.102E+00
   0.176E-04 -.911E-01 0.438E+03   -.183E-04 0.699E-01 -.438E+03   0.521E-06 0.263E-01 -.274E-01   0.476E-06 -.143E-03 -.742E-01
   0.953E-01 0.287E-03 0.438E+03   -.717E-01 0.354E-02 -.438E+03   -.287E-01 -.459E-02 -.379E-01   0.144E-03 -.296E-04 -.742E-01
   0.303E-05 -.240E-01 0.129E+04   -.344E-05 0.247E-01 -.129E+04   0.370E-06 -.709E-03 0.304E+01   -.170E-06 -.133E-04 -.124E+00
   0.215E+00 -.213E+00 0.129E+04   -.206E+00 0.206E+00 -.129E+04   -.105E-01 0.854E-02 0.303E+01   -.414E-04 0.423E-04 -.124E+00
   -.392E-04 -.751E+01 -.127E+04   0.386E-04 0.736E+01 0.128E+04   0.159E-05 0.136E+00 -.452E+01   -.550E-06 -.638E-03 0.770E-01
   0.758E+01 -.130E+01 -.127E+04   -.742E+01 0.129E+01 0.128E+04   -.147E+00 0.153E-01 -.451E+01   0.705E-03 -.107E-03 0.771E-01
   0.157E-05 -.245E+00 -.402E+03   -.114E-05 0.250E+00 0.402E+03   -.111E-06 -.498E-02 0.287E+00   -.457E-06 -.473E-04 -.451E-03
   0.187E+01 -.187E+01 -.396E+03   -.186E+01 0.185E+01 0.395E+03   -.153E-01 0.262E-01 0.490E+00   0.644E-03 -.568E-03 0.314E-03
   0.139E-04 0.840E-01 0.438E+03   -.139E-04 -.583E-01 -.438E+03   0.469E-06 -.311E-01 -.440E-01   -.152E-06 0.139E-03 -.743E-01
   -.504E-01 -.834E-02 0.436E+03   0.743E-03 0.992E-02 -.436E+03   0.544E-01 -.139E-02 -.178E+00   0.172E-03 0.330E-04 -.740E-01
   0.488E-05 0.242E-01 0.129E+04   -.527E-05 -.247E-01 -.129E+04   0.667E-06 0.739E-03 0.302E+01   0.335E-07 0.902E-05 -.124E+00
   0.213E+00 0.213E+00 0.129E+04   -.207E+00 -.206E+00 -.129E+04   -.783E-02 -.852E-02 0.302E+01   -.426E-04 -.465E-04 -.124E+00
   -.390E-04 0.742E+01 -.127E+04   0.380E-04 -.726E+01 0.128E+04   0.212E-05 -.134E+00 -.450E+01   -.554E-06 0.622E-03 0.771E-01
   0.256E+02 0.180E+01 -.124E+04   -.248E+02 -.179E+01 0.124E+04   -.664E+00 -.135E-01 -.442E+01   0.359E-02 0.166E-03 0.784E-01
   -.559E-05 0.248E+00 -.396E+03   0.523E-05 -.252E+00 0.395E+03   0.760E-06 0.345E-02 0.371E+00   -.658E-06 0.439E-04 0.134E-03
   0.195E+01 0.188E+01 -.397E+03   -.192E+01 -.185E+01 0.396E+03   -.316E-01 -.266E-01 0.440E+00   0.551E-03 0.572E-03 0.194E-03
   -.170E-04 0.577E-01 0.436E+03   0.179E-04 -.578E-02 -.436E+03   -.100E-05 -.569E-01 -.186E+00   0.339E-06 -.173E-03 -.740E-01
   -.953E-01 0.290E-03 0.438E+03   0.717E-01 0.353E-02 -.438E+03   0.287E-01 -.459E-02 -.379E-01   -.144E-03 -.290E-04 -.742E-01
   -.346E-05 -.254E-01 0.129E+04   0.349E-05 0.239E-01 -.129E+04   -.427E-06 0.190E-02 0.302E+01   0.279E-06 -.822E-05 -.124E+00
   -.215E+00 -.213E+00 0.129E+04   0.206E+00 0.206E+00 -.129E+04   0.105E-01 0.854E-02 0.303E+01   0.411E-04 0.422E-04 -.124E+00
   0.275E-04 -.259E+02 -.123E+04   -.254E-04 0.250E+02 0.124E+04   -.135E-05 0.796E+00 -.427E+01   0.254E-06 -.370E-02 0.788E-01
   -.758E+01 -.130E+01 -.127E+04   0.742E+01 0.129E+01 0.128E+04   0.147E+00 0.153E-01 -.451E+01   -.704E-03 -.107E-03 0.771E-01
   -.114E-04 -.106E+00 -.396E+03   0.107E-04 0.111E+00 0.395E+03   0.110E-06 -.313E-02 0.371E+00   0.728E-07 -.153E-03 0.228E-03
   -.187E+01 -.187E+01 -.396E+03   0.186E+01 0.185E+01 0.395E+03   0.153E-01 0.262E-01 0.490E+00   -.644E-03 -.568E-03 0.315E-03
   -.166E-04 -.683E-01 0.436E+03   0.173E-04 0.217E-01 -.436E+03   -.894E-06 0.511E-01 -.165E+00   0.512E-06 0.174E-03 -.740E-01
   0.504E-01 -.834E-02 0.436E+03   -.746E-03 0.992E-02 -.436E+03   -.544E-01 -.139E-02 -.178E+00   -.173E-03 0.327E-04 -.740E-01
   -.491E-05 0.258E-01 0.129E+04   0.535E-05 -.241E-01 -.129E+04   -.711E-06 -.192E-02 0.300E+01   0.470E-06 0.122E-04 -.124E+00
   -.213E+00 0.213E+00 0.129E+04   0.207E+00 -.206E+00 -.129E+04   0.783E-02 -.852E-02 0.302E+01   0.425E-04 -.469E-04 -.124E+00
   0.412E-04 0.249E+02 -.124E+04   -.407E-04 -.243E+02 0.124E+04   -.318E-06 -.562E+00 -.447E+01   -.189E-06 0.337E-02 0.783E-01
   -.256E+02 0.180E+01 -.124E+04   0.248E+02 -.179E+01 0.124E+04   0.664E+00 -.135E-01 -.442E+01   -.359E-02 0.166E-03 0.784E-01
   0.158E-05 -.491E-01 -.408E+03   -.152E-05 0.429E-01 0.410E+03   0.163E-07 0.577E-02 -.107E+01   -.381E-06 0.131E-03 0.222E-02
   -.195E+01 0.188E+01 -.397E+03   0.192E+01 -.185E+01 0.396E+03   0.316E-01 -.266E-01 0.440E+00   -.550E-03 0.571E-03 0.194E-03
   0.940E-04 -.403E+01 0.794E+01   0.313E-12 -.639E-13 0.114E-11   -.846E-04 0.356E+01 -.498E+01   0.156E-05 0.184E-03 -.195E+01

 POSITION                                       TOTAL-FORCE (eV/Angst)
      4.22049      4.35151     12.63308        -0.000062      0.085088      0.372939
      4.22049      5.36064     12.79393         0.000003     -0.346857     -0.070267
      3.39386      3.96218     13.08676         0.282975      0.131121     -0.164821
      5.04713      3.96218     13.08676        -0.282920      0.131097     -0.164796
      0.00000      6.33078      3.91324        -0.000000     -0.000883      0.536683
      2.11025      0.00004      3.91324         0.001170     -0.000124      0.537468
      0.00000      0.00004      6.02349        -0.000001      0.001397      0.018248
      2.11025      6.33078      6.02349         0.019718     -0.017296      0.032010
      0.00000      6.32811      8.14287        -0.000000     -0.000143      0.041471
      2.11247      8.44094      8.14320         0.000390      0.000326      0.041033
      0.00000      8.44064     10.24357        -0.000000      0.000287     -0.138521
      2.10755      6.33108     10.23649        -0.003996      0.002112     -0.156347
      0.00000      2.11029      3.91324        -0.000000      0.000991      0.538574
      2.11025      4.22054      3.91324         0.001958      0.000241      0.547584
      0.00000      4.22054      6.02349        -0.000001     -0.002422      0.054734
      2.11025      2.11029      6.02349         0.013909      0.015996      0.032163
      8.44098      2.11222      8.14329        -0.000000      0.000347      0.040334
      2.12092      4.21975      8.15691         0.000815      0.000100      0.042169
      0.00000      4.21960     10.23958        -0.000000     -0.000446     -0.150173
      2.10919      2.10803     10.23880        -0.001092     -0.002756     -0.154215
      4.22049      6.33078      3.91324         0.000000     -0.001666      0.547808
      6.33074      0.00004      3.91324        -0.001171     -0.000124      0.537469
      4.22049      0.00004      6.02349         0.000000     -0.004132      0.054333
      6.33074      6.33078      6.02349        -0.019718     -0.017297      0.032010
      4.22049      6.31972      8.15756        -0.000000     -0.000347      0.040709
      6.32851      8.44094      8.14320        -0.000390      0.000326      0.041047
      4.22049      0.00199     10.23937         0.000000      0.003543     -0.150500
      6.33344      6.33108     10.23649         0.003995      0.002113     -0.156361
      4.22049      2.11029      3.91324         0.000000      0.001777      0.546532
      6.33074      4.22054      3.91324        -0.001958      0.000241      0.547585
      4.22049      4.22054      6.02349         0.000001      0.002945      0.075990
      6.33074      2.11029      6.02349        -0.013910      0.015996      0.032164
      4.22049      2.12032      8.15594         0.000001      0.000450      0.043176
      6.32007      4.21975      8.15691        -0.000815      0.000100      0.042231
      4.22049      4.20904     10.38333         0.000001      0.001891     -0.012244
      6.33179      2.10803     10.23880         0.001092     -0.002757     -0.154220
      0.00000      6.33078      6.02349         0.000000      0.009405      0.069724
      2.11025      0.00004      6.02349        -0.009991     -0.001654      0.067469
      0.00000      0.00004      3.91324        -0.000000     -0.000147     -0.445875
      2.11025      6.33078      3.91324        -0.003460      0.002902     -0.450939
      8.44098      6.33489     10.30169         0.000001      0.001750     -0.125871
      2.10521      8.44023     10.30240        -0.002148      0.001207     -0.125795
      8.44098      8.44046      8.13976        -0.000000     -0.000958      0.028173
      2.10968      6.33160      8.14270        -0.000062      0.000333      0.026001
      0.00000      2.11029      6.02349         0.000000     -0.010611      0.065670
      2.11025      4.22054      6.02349         0.015240      0.000080      0.086258
      0.00000      4.22054      3.91324         0.000000      0.000375     -0.452595
      2.11025      2.11029      3.91324        -0.002522     -0.002671     -0.451387
      0.00000      2.10492     10.30298         0.000001      0.000209     -0.125826
      2.08807      4.21992     10.30232        -0.040038     -0.003719     -0.144347
      0.00000      4.22035      8.13812        -0.000000      0.000165      0.036181
      2.10871      2.10861      8.14203        -0.000215      0.000045      0.028203
      4.22049      6.33078      6.02349         0.000000     -0.015861      0.086135
      6.33074      0.00004      6.02349         0.009991     -0.001653      0.067468
      4.22049      0.00004      3.91324        -0.000000      0.000771     -0.452099
      6.33074      6.33078      3.91324         0.003460      0.002902     -0.450939
      4.22049      6.35541     10.30990         0.000001      0.041336     -0.130756
      6.33577      8.44023     10.30240         0.002148      0.001207     -0.125796
      4.22049      8.43994      8.13822        -0.000001      0.000920      0.032842
      6.33130      6.33160      8.14270         0.000064      0.000333      0.026001
      4.22049      2.11029      6.02349         0.000000      0.014451      0.086518
      6.33074      4.22054      6.02349        -0.015240      0.000080      0.086259
      4.22049      4.22054      3.91324         0.000000     -0.000548     -0.460423
      6.33074      2.11029      3.91324         0.002522     -0.002671     -0.451387
      4.22049      2.08776     10.29781        -0.000000     -0.035682     -0.140221
      6.35291      4.21992     10.30232         0.040038     -0.003720     -0.144353
      4.22049      4.22089      8.16097        -0.000000      0.000139     -0.046495
      6.33227      2.10861      8.14203         0.000215      0.000046      0.028202
    total drift:                                0.000004     -0.005281     -0.346091

  FREE ENERGIE OF THE ION-ELECTRON SYSTEM (eV)
  free  energy   TOTEN  =      -492.24015383 eV

  energy  without entropy=     -492.24015383  energy(sigma->0) =     -492.24015383