 vasp.6.4.2 20Jul23 (build Feb 22 2024 13:53:45) complex
 executed on              LinuxNV date 2024.08.27  22:08:20
 OpenACC runtime initialized ...    4 GPUs detected

 INCAR:
   SYSTEM = Oxide-Surface
   ISMEAR = 0
   SIGMA = 0.05
   EDIFF = 1E-5
   ALGO = Normal
   IBRION = -1
   NSW = 0
   ISYM = 0
   DIPOL = 0.5 0.5 0.5
   IDIPOL = 3
   LDIPOL = .TRUE.
   ISTART = 0
   LHFCALC = .FALSE.
   GGA = PE
   IVDW = 21
   VDW_SR = 0.96
   HFRCUT = -1
   ENCUT = 1000
   PREC = Normal
   PRECFOCK = Normal
   LASPH = .TRUE.
   LREAL = Auto
   ISPIN = 1
   NELM = 200
   NELMIN = 8
   NCORE = 1
   KPAR = 1
   LWAVE = .FALSE.
   LCHARG = .FALSE.

 POTCAR:    PAW_PBE N_h 06Feb2004
 POTCAR:    PAW_PBE H_h 06Feb2004
 POTCAR:    PAW_PBE Mg_sv 12Apr2007
 POTCAR:    PAW_PBE O_h 06Feb2004
 POTCAR:    PAW_PBE N_h 06Feb2004
   VRHFIN =N: s2p3

   TITEL  = PAW_PBE N_h 06Feb2004
   POMASS =   14.001; ZVAL   =    5.000    mass and valenz
   ENMAX  =  700.000; ENMIN  =  500.000 eV

[...]

   TITEL  = PAW_PBE Mg_sv 12Apr2007
   POMASS =   24.305; ZVAL   =   10.000    mass and valenz
   ENMAX  =  495.223; ENMIN  =  371.417 eV

   TITEL  = PAW_PBE O_h 06Feb2004
   POMASS =   16.000; ZVAL   =    6.000    mass and valenz
   ENMAX  =  700.000; ENMIN  =  500.000 eV

 Optimization of the real space projectors (new method)

 maximal supplied QI-value         = 34.20
 optimisation between [QCUT,QGAM] = [ 16.08, 32.15] = [ 72.37,289.48] Ry
 Optimized for a Real-space Cutoff    0.71 Angstroem

   l    n(q)    QCUT    max X(q) W(low)/X(q) W(high)/X(q)  e(spline)
   0      7    16.076   148.539    0.44E-03    0.75E-03    0.58E-07
   0      7    16.076   106.192    0.44E-03    0.75E-03    0.58E-07
   1      6    16.076    73.877    0.23E-03    0.61E-03    0.11E-06
   1      6    16.076    50.042    0.22E-03    0.60E-03    0.11E-06
 Optimization of the real space projectors (new method)

[...]

   l    n(q)    QCUT    max X(q) W(low)/X(q) W(high)/X(q)  e(spline)
   0      9    16.140     8.730    0.14E-04    0.12E-04    0.27E-07
   0      9    16.140     8.910    0.19E-04    0.17E-04    0.41E-07
   1      9    16.140     2.513    0.16E-04    0.28E-04    0.54E-07
   1      9    16.140     3.341    0.27E-04    0.13E-03    0.17E-06
   2      9    16.140     3.683    0.18E-03    0.21E-03    0.81E-07
 Optimization of the real space projectors (new method)

 maximal supplied QI-value         = 34.20
 optimisation between [QCUT,QGAM] = [ 16.08, 32.15] = [ 72.37,289.48] Ry
 Optimized for a Real-space Cutoff    0.71 Angstroem

   l    n(q)    QCUT    max X(q) W(low)/X(q) W(high)/X(q)  e(spline)
   0      7    16.076   280.207    0.42E-03    0.69E-03    0.60E-07
   0      7    16.076   228.978    0.42E-03    0.69E-03    0.61E-07
   1      6    16.076    86.127    0.11E-03    0.66E-03    0.10E-06
   1      6    16.076    65.368    0.11E-03    0.65E-03    0.10E-06
  PAW_PBE N_h 06Feb2004                 :
  PAW_PBE H_h 06Feb2004                 :
  PAW_PBE Mg_sv 12Apr2007               :
  PAW_PBE O_h 06Feb2004                 :

 POSCAR:  N  H Mg  O
  positions in direct lattice
 exchange correlation table for  LEXCH =        8
   RHO(1)=    0.500       N(1)  =     2000
   RHO(2)=  100.500       N(2)  =     4000

 ion  position               nearest neighbor table
   1  0.500  0.516  0.743-   4 1.02   3 1.02   2 1.02
   2  0.500  0.635  0.753-   1 1.02
   3  0.402  0.469  0.770-   1 1.02
   4  0.598  0.469  0.770-   1 1.02
   5  0.000  0.750  0.230-
   6  0.250  0.000  0.230-
   7  0.000  0.000  0.354-
   8  0.250  0.750  0.354-
   9  0.000  0.750  0.479-
  10  0.250  1.000  0.479-
  11  0.000  1.000  0.603-
  12  0.250  0.750  0.602-
  13  0.000  0.250  0.230-
  14  0.250  0.500  0.230-
  15  0.000  0.500  0.354-
  16  0.250  0.250  0.354-
  17  1.000  0.250  0.479-
  18  0.251  0.500  0.480-
  19  0.000  0.500  0.602-
  20  0.250  0.250  0.602-
  21  0.500  0.750  0.230-
  22  0.750  0.000  0.230-
  23  0.500  0.000  0.354-
  24  0.750  0.750  0.354-
  25  0.500  0.749  0.480-
  26  0.750  1.000  0.479-
  27  0.500  0.000  0.602-
  28  0.750  0.750  0.602-
  29  0.500  0.250  0.230-
  30  0.750  0.500  0.230-
  31  0.500  0.500  0.354-
  32  0.750  0.250  0.354-
  33  0.500  0.251  0.480-
  34  0.749  0.500  0.480-
  35  0.500  0.499  0.611-
  36  0.750  0.250  0.602-
  37  0.000  0.750  0.354-
  38  0.250  0.000  0.354-
  39  0.000  0.000  0.230-
  40  0.250  0.750  0.230-
  41  1.000  0.750  0.606-
  42  0.249  1.000  0.606-
  43  1.000  1.000  0.479-
  44  0.250  0.750  0.479-
  45  0.000  0.250  0.354-
  46  0.250  0.500  0.354-
  47  0.000  0.500  0.230-
  48  0.250  0.250  0.230-
  49  0.000  0.249  0.606-
  50  0.247  0.500  0.606-
  51  0.000  0.500  0.479-
  52  0.250  0.250  0.479-
  53  0.500  0.750  0.354-
  54  0.750  0.000  0.354-
  55  0.500  0.000  0.230-
  56  0.750  0.750  0.230-
  57  0.500  0.753  0.606-
  58  0.751  1.000  0.606-
  59  0.500  1.000  0.479-
  60  0.750  0.750  0.479-
  61  0.500  0.250  0.354-
  62  0.750  0.500  0.354-
  63  0.500  0.500  0.230-
  64  0.750  0.250  0.230-
  65  0.500  0.247  0.606-
  66  0.753  0.500  0.606-
  67  0.500  0.500  0.480-
  68  0.750  0.250  0.479-

IMPORTANT INFORMATION: All symmetrisations will be switched off!
NOSYMM: (Re-)initialisation of all symmetry stuff for point group C_1.

                                     Primitive cell

  volume of cell :    1211.2538

  direct lattice vectors                    reciprocal lattice vectors
     8.440984654  0.000000000  0.000000000     0.118469591  0.000000000  0.000000000
     0.000000000  8.440984654  0.000000000     0.000000000  0.118469591  0.000000000
     0.000000000  0.000000000 17.000000000     0.000000000  0.000000000  0.058823529

  length of vectors
     8.440984654  8.440984654 17.000000000     0.118469591  0.118469591  0.058823529

  position of ions in fractional coordinates (direct lattice)
     0.500000238  0.515521052  0.743122297
     0.499999982  0.635072459  0.752584339
     0.402069062  0.469398098  0.769809164
     0.597931074  0.469398359  0.769809375
     0.000000001  0.750005063  0.230190625
     0.250000001  0.000005063  0.230190625
     0.000000001  0.000005063  0.354322752
     0.250000001  0.750005063  0.354322752
     0.000000003  0.749688989  0.478992539
     0.250263523  0.999994937  0.479012029
     0.000000001  0.999958952  0.602562889
     0.249680170  0.750040946  0.602146405
     0.000000001  0.250005063  0.230190625
     0.250000001  0.500005063  0.230190625
     0.000000001  0.500005063  0.354322752
     0.250000001  0.250005063  0.354322752
     0.999999996  0.250234310  0.479017192
     0.251264403  0.499912485  0.479817993
     0.000000018  0.499894003  0.602327959
     0.249874846  0.249737023  0.602282337
     0.500000001  0.750005063  0.230190625
     0.750000001  0.000005063  0.230190625
     0.500000001  0.000005063  0.354322752
     0.750000001  0.750005063  0.354322752
     0.499999997  0.748694190  0.479856547
     0.749736478  0.999994937  0.479012045
     0.499999996  0.000235948  0.602315670
     0.750319839  0.750040932  0.602146398
     0.500000001  0.250005063  0.230190625
     0.750000001  0.500005063  0.230190625
     0.500000001  0.500005063  0.354322752
     0.750000001  0.250005063  0.354322752
     0.500000000  0.251193808  0.479761393
     0.748735611  0.499912479  0.479818037
     0.500000034  0.498643644  0.610784368
     0.750125162  0.249737020  0.602282348
     0.000000001  0.750005063  0.354322752
     0.250000001  0.000005063  0.354322752
     0.000000001  0.000005063  0.230190625
     0.250000001  0.750005063  0.230190625
     0.999999999  0.750491851  0.605981896
     0.249403678  0.999911150  0.606023354
     0.999999998  0.999937384  0.478809541
     0.249933155  0.750101855  0.478982330
     0.000000001  0.250005063  0.354322752
     0.250000001  0.500005063  0.354322752
     0.000000001  0.500005063  0.230190625
     0.250000001  0.250005063  0.230190625
     0.000000003  0.249368438  0.606057731
     0.247373171  0.499932707  0.606018755
     0.000000006  0.499983562  0.478713219
     0.249818530  0.249806475  0.478943030
     0.500000001  0.750005063  0.354322752
     0.750000001  0.000005063  0.354322752
     0.500000001  0.000005063  0.230190625
     0.750000001  0.750005063  0.230190625
     0.499999997  0.752922771  0.606464953
     0.750596323  0.999911142  0.606023376
     0.500000001  0.999876204  0.478718645
     0.750066840  0.750101852  0.478982337
     0.500000001  0.250005063  0.354322752
     0.750000001  0.500005063  0.354322752
     0.500000001  0.500005063  0.230190625
     0.750000001  0.250005063  0.230190625
     0.500000003  0.247335548  0.605753670
     0.752626877  0.499932691  0.606018757
     0.500000006  0.500046709  0.480056781
     0.750181474  0.249806464  0.478943037

  ion indices of the primitive-cell ions
   primitive index   ion index
                 1           1
                 2           2
                 3           3
                 4           4
                 5           5
                 6           6
                 7           7
                 8           8
                 9           9
                10          10
                11          11
                12          12
                13          13
                14          14
                15          15
                16          16
                17          17
                18          18
                19          19
                20          20
                21          21
                22          22
                23          23
                24          24
                25          25
                26          26
                27          27
                28          28
                29          29
                30          30
                31          31
                32          32
                33          33
                34          34
                35          35
                36          36
                37          37
                38          38
                39          39
                40          40
                41          41
                42          42
                43          43
                44          44
                45          45
                46          46
                47          47
                48          48
                49          49
                50          50
                51          51
                52          52
                53          53
                54          54
                55          55
                56          56
                57          57
                58          58
                59          59
                60          60
                61          61
                62          62
                63          63
                64          64
                65          65
                66          66
                67          67
                68          68

 KPOINTS: pymatgen v2020.8.13 with grid density =

Automatic generation of k-mesh.
 Grid dimensions read from file:
 generate k-points for:    2    2    1

 Generating k-lattice:

[...]

  FORCE on cell =-STRESS in cart. coord.  units (eV):
  Direction    XX          YY          ZZ          XY          YZ          ZX
  Alpha Z  1219.66076  1219.66076  1219.66076
  Ewald  109099.14479109096.85408************    -0.00005    -6.96863     0.00027
  Hartree125942.47168125942.81388************    -0.00001     1.47512    -0.00006
  E(xc)   -3256.03240 -3256.04704 -3262.12282     0.00000    -0.07155     0.00000
  Local  ************************244399.61598     0.00004     1.45710    -0.00015
  n-local -5633.95035 -5634.15774 -5637.28414    -0.00000    -0.64239     0.00001
  augment   723.82360   723.83549   714.94783    -0.00001     0.01965     0.00000
  Kinetic 12637.76227 12639.32558 12676.55617     0.00001     4.79922    -0.00007
  Fock        0.00000     0.00000     0.00000     0.00000     0.00000     0.00000
  vdW        -5.26725    -5.27045    -3.70408    -0.00000     0.01649    -0.00000
  Total     -19.91593   -19.87440     4.24043    -0.00002     0.08502     0.00001
  in kB     -26.34365   -26.28873     5.60900    -0.00002     0.11246     0.00001

 VOLUME and BASIS-vectors are now :
  energy-cutoff  :     1000.00
  volume of cell :     1211.25
      direct lattice vectors                 reciprocal lattice vectors
     8.440984654  0.000000000  0.000000000     0.118469591  0.000000000  0.000000000
     0.000000000  8.440984654  0.000000000     0.000000000  0.118469591  0.000000000
     0.000000000  0.000000000 17.000000000     0.000000000  0.000000000  0.058823529

  length of vectors
     8.440984654  8.440984654 17.000000000     0.118469591  0.118469591  0.058823529

 FORCES acting on ions
    electron-ion (+dipol)            ewald-force                    non-local-force                 convergence-correction
   -.344E-04 0.689E+01 -.111E+04   0.992E-04 -.121E+02 0.108E+04   -.112E-03 0.524E+01 0.271E+02   -.229E-04 0.759E-03 -.104E-02
   0.141E-03 -.704E+02 -.223E+03   -.154E-03 0.776E+02 0.224E+03   0.150E-04 -.716E+01 -.879E+00   -.210E-06 0.228E-03 -.718E-03
   0.582E+02 0.279E+02 -.221E+03   -.641E+02 -.307E+02 0.224E+03   0.592E+01 0.281E+01 -.301E+01   -.404E-04 0.493E-04 -.631E-03
   -.582E+02 0.279E+02 -.221E+03   0.641E+02 -.307E+02 0.224E+03   -.592E+01 0.281E+01 -.301E+01   0.350E-04 0.510E-04 -.627E-03
   0.195E-04 -.281E+00 0.245E+04   -.867E-05 0.277E+00 -.244E+04   0.112E-04 0.202E-02 -.913E+01   -.201E-04 0.662E-03 -.384E-02
   0.282E+00 -.340E-01 0.245E+04   -.277E+00 0.330E-01 -.244E+04   -.262E-02 0.821E-03 -.913E+01   -.562E-03 0.188E-04 -.386E-02
   0.811E-04 -.464E-01 0.831E+03   -.292E-04 0.532E-01 -.832E+03   0.559E-04 -.531E-02 0.688E+00   -.112E-03 -.454E-04 0.101E-01
   -.643E+00 0.621E+00 0.831E+03   0.723E+00 -.689E+00 -.832E+03   -.604E-01 0.508E-01 0.762E+00   -.428E-03 0.450E-03 0.110E-01
   0.405E-04 -.330E+01 -.776E+03   -.119E-04 0.319E+01 0.776E+03   -.345E-04 0.111E+00 -.229E-01   0.808E-05 0.562E-03 0.114E-01
   0.333E+01 -.219E+00 -.777E+03   -.322E+01 0.239E+00 0.777E+03   -.107E+00 -.196E-01 -.166E-01   -.602E-03 0.110E-04 0.117E-01
   -.471E-04 -.114E+01 -.239E+04   0.346E-04 0.115E+01 0.238E+04   -.384E-05 -.110E-01 0.769E+01   0.150E-04 -.836E-04 0.821E-02
   0.260E+02 -.251E+02 -.235E+04   -.262E+02 0.252E+02 0.235E+04   0.189E+00 -.966E-01 0.787E+01   -.698E-03 0.466E-03 0.843E-02
   0.211E-05 0.280E+00 0.245E+04   -.814E-05 -.277E+00 -.244E+04   -.907E-05 -.173E-02 -.914E+01   0.147E-04 -.717E-03 -.388E-02
   0.353E+00 0.337E-01 0.245E+04   -.342E+00 -.329E-01 -.244E+04   -.855E-02 -.441E-03 -.918E+01   -.437E-03 -.103E-03 -.365E-02
   0.169E-04 0.404E-01 0.832E+03   -.604E-04 -.510E-01 -.832E+03   -.780E-05 0.828E-02 0.551E+00   0.478E-04 -.687E-04 0.108E-01
   -.556E+00 -.625E+00 0.831E+03   0.609E+00 0.688E+00 -.832E+03   -.391E-01 -.473E-01 0.734E+00   -.564E-03 -.369E-03 0.112E-01
   -.466E-04 0.330E+01 -.777E+03   0.163E-04 -.319E+01 0.777E+03   -.316E-05 -.111E+00 -.349E-03   0.294E-04 -.435E-03 0.114E-01
   0.229E+01 0.194E+00 -.773E+03   -.186E+01 -.212E+00 0.774E+03   -.437E+00 0.197E-01 -.567E+00   0.507E-03 -.254E-04 0.166E-01
   -.220E-03 0.129E+01 -.237E+04   0.129E-03 -.131E+01 0.236E+04   0.890E-04 0.175E-01 0.766E+01   -.221E-05 -.181E-04 0.109E-01
   0.239E+02 0.245E+02 -.236E+04   -.240E+02 -.246E+02 0.235E+04   0.830E-01 0.109E+00 0.787E+01   -.371E-03 -.675E-03 0.891E-02
   0.317E-04 -.353E+00 0.245E+04   0.871E-05 0.342E+00 -.244E+04   0.313E-04 0.802E-02 -.918E+01   -.665E-04 0.430E-03 -.374E-02
   -.282E+00 -.340E-01 0.245E+04   0.277E+00 0.330E-01 -.244E+04   0.253E-02 0.784E-03 -.913E+01   0.729E-03 0.755E-04 -.393E-02
   0.379E-04 0.613E-01 0.832E+03   0.317E-04 -.790E-01 -.832E+03   0.416E-04 0.138E-01 0.555E+00   -.104E-03 0.284E-05 0.106E-01
   0.643E+00 0.621E+00 0.831E+03   -.723E+00 -.689E+00 -.832E+03   0.603E-01 0.508E-01 0.762E+00   0.626E-03 0.521E-03 0.110E-01
   -.484E-04 -.200E+01 -.775E+03   0.186E-05 0.157E+01 0.775E+03   -.258E-04 0.433E+00 -.367E+00   0.585E-04 -.431E-03 0.163E-01
   -.333E+01 -.219E+00 -.777E+03   0.322E+01 0.239E+00 0.777E+03   0.107E+00 -.196E-01 -.166E-01   0.646E-03 -.824E-04 0.117E-01
   0.107E-05 -.294E+01 -.237E+04   -.112E-04 0.298E+01 0.236E+04   0.111E-04 -.471E-01 0.765E+01   -.431E-05 0.432E-03 0.110E-01
   -.260E+02 -.251E+02 -.235E+04   0.262E+02 0.252E+02 0.235E+04   -.189E+00 -.966E-01 0.787E+01   0.680E-03 0.602E-03 0.839E-02
   0.917E-05 0.352E+00 0.245E+04   0.838E-05 -.342E+00 -.244E+04   0.133E-04 -.776E-02 -.917E+01   -.285E-04 -.380E-03 -.377E-02
   -.353E+00 0.337E-01 0.245E+04   0.342E+00 -.329E-01 -.244E+04   0.864E-02 -.470E-03 -.918E+01   0.287E-03 -.618E-04 -.367E-02
   -.260E-04 -.635E-01 0.828E+03   0.646E-04 0.769E-01 -.829E+03   -.100E-04 -.105E-01 0.842E+00   -.233E-04 -.156E-03 0.114E-01
   0.556E+00 -.625E+00 0.831E+03   -.609E+00 0.688E+00 -.832E+03   0.391E-01 -.473E-01 0.734E+00   0.581E-03 -.375E-03 0.112E-01
   -.339E-04 0.232E+01 -.772E+03   0.134E-04 -.190E+01 0.773E+03   -.202E-04 -.426E+00 -.653E+00   0.534E-04 0.516E-03 0.171E-01
   -.229E+01 0.194E+00 -.773E+03   0.186E+01 -.212E+00 0.774E+03   0.437E+00 0.198E-01 -.567E+00   -.547E-03 -.710E-04 0.165E-01
   0.375E-03 0.676E+01 -.226E+04   -.193E-03 -.716E+01 0.226E+04   0.512E-04 0.405E+00 0.117E+01   -.309E-03 -.705E-03 0.521E-02
   -.239E+02 0.245E+02 -.236E+04   0.240E+02 -.246E+02 0.235E+04   -.830E-01 0.109E+00 0.787E+01   0.255E-03 -.711E-03 0.867E-02
   0.509E-04 0.169E-01 0.499E+03   -.217E-04 -.439E-01 -.499E+03   0.186E-04 0.355E-01 0.448E-02   -.458E-04 0.306E-03 0.979E-02
   -.166E-01 0.189E-01 0.499E+03   0.463E-01 -.135E-01 -.499E+03   -.389E-01 -.717E-02 -.952E-02   -.257E-03 -.728E-04 0.963E-02
   0.399E-04 -.210E-01 0.148E+04   -.422E-05 0.220E-01 -.149E+04   -.164E-05 -.133E-02 0.267E+01   -.374E-04 0.139E-04 -.438E-02
   0.186E+00 -.186E+00 0.148E+04   -.174E+00 0.176E+00 -.148E+04   -.148E-01 0.118E-01 0.264E+01   -.309E-03 0.360E-03 -.439E-02
   -.812E-04 -.734E+01 -.146E+04   0.431E-04 0.720E+01 0.147E+04   -.806E-05 0.151E+00 -.464E+01   0.441E-04 0.538E-03 0.143E-01
   0.737E+01 -.117E+01 -.147E+04   -.721E+01 0.115E+01 0.147E+04   -.164E+00 0.177E-01 -.464E+01   -.477E-03 0.817E-04 0.140E-01
   0.451E-04 -.234E+00 -.463E+03   -.545E-06 0.239E+00 0.462E+03   0.999E-05 -.793E-02 0.345E+00   -.509E-04 -.900E-04 0.183E-01
   0.159E+01 -.163E+01 -.456E+03   -.158E+01 0.160E+01 0.455E+03   -.723E-02 0.218E-01 0.574E+00   -.413E-03 0.379E-03 0.183E-01
   0.201E-04 -.280E-01 0.499E+03   -.165E-04 0.604E-01 -.499E+03   -.936E-08 -.424E-01 -.184E-01   -.371E-05 -.272E-03 0.952E-02
   -.735E-01 -.325E-01 0.497E+03   0.149E-01 0.338E-01 -.496E+03   0.724E-01 -.135E-02 -.142E+00   -.897E-04 0.355E-04 0.942E-02
   -.455E-04 0.212E-01 0.148E+04   -.650E-05 -.220E-01 -.148E+04   -.934E-05 0.985E-03 0.264E+01   0.605E-04 0.711E-05 -.448E-02
   0.187E+00 0.186E+00 0.148E+04   -.178E+00 -.176E+00 -.148E+04   -.109E-01 -.123E-01 0.263E+01   -.273E-03 -.252E-03 -.445E-02
   -.363E-04 0.725E+01 -.147E+04   0.422E-04 -.710E+01 0.147E+04   -.242E-04 -.153E+00 -.462E+01   0.107E-04 -.561E-03 0.142E-01
   0.248E+02 0.162E+01 -.143E+04   -.241E+02 -.161E+01 0.143E+04   -.759E+00 -.105E-01 -.457E+01   -.615E-04 0.374E-04 0.152E-01
   -.690E-04 0.234E+00 -.455E+03   0.633E-05 -.239E+00 0.455E+03   -.472E-05 0.504E-02 0.419E+00   0.609E-04 0.789E-04 0.177E-01
   0.174E+01 0.164E+01 -.456E+03   -.171E+01 -.162E+01 0.456E+03   -.272E-01 -.205E-01 0.511E+00   -.396E-03 -.360E-03 0.181E-01
   0.509E-04 0.777E-01 0.496E+03   0.218E-04 -.165E-01 -.496E+03   0.216E-04 -.757E-01 -.151E+00   -.844E-04 0.102E-03 0.951E-02
   0.165E-01 0.189E-01 0.499E+03   -.463E-01 -.135E-01 -.499E+03   0.389E-01 -.716E-02 -.955E-02   0.415E-03 -.131E-03 0.972E-02
   0.544E-04 -.198E-01 0.148E+04   0.428E-05 0.178E-01 -.148E+04   0.187E-04 0.247E-02 0.264E+01   -.714E-04 -.500E-05 -.453E-02
   -.186E+00 -.186E+00 0.148E+04   0.174E+00 0.176E+00 -.148E+04   0.148E-01 0.118E-01 0.264E+01   0.334E-03 0.354E-03 -.437E-02
   -.338E-04 -.248E+02 -.142E+04   -.268E-04 0.239E+02 0.143E+04   0.913E-05 0.906E+00 -.442E+01   0.515E-04 0.994E-05 0.154E-01
   -.737E+01 -.117E+01 -.147E+04   0.721E+01 0.115E+01 0.147E+04   0.164E+00 0.177E-01 -.464E+01   0.424E-03 0.108E-03 0.141E-01
   0.226E-04 -.888E-02 -.455E+03   0.123E-04 0.158E-01 0.455E+03   -.964E-05 -.139E-01 0.427E+00   -.244E-04 -.101E-03 0.179E-01
   -.159E+01 -.163E+01 -.456E+03   0.158E+01 0.160E+01 0.455E+03   0.723E-02 0.218E-01 0.574E+00   0.361E-03 0.449E-03 0.182E-01
   -.130E-05 -.932E-01 0.497E+03   0.208E-04 0.383E-01 -.497E+03   0.992E-06 0.678E-01 -.127E+00   -.191E-04 -.297E-04 0.948E-02
   0.735E-01 -.325E-01 0.497E+03   -.149E-01 0.338E-01 -.496E+03   -.724E-01 -.134E-02 -.142E+00   0.644E-04 0.552E-06 0.950E-02
   -.418E-04 0.204E-01 0.148E+04   0.662E-05 -.181E-01 -.148E+04   0.417E-05 -.289E-02 0.260E+01   0.313E-04 -.873E-04 -.492E-02
   -.187E+00 0.186E+00 0.148E+04   0.178E+00 -.176E+00 -.148E+04   0.109E-01 -.123E-01 0.263E+01   0.317E-03 -.305E-03 -.443E-02
   0.721E-05 0.245E+02 -.143E+04   -.464E-04 -.238E+02 0.144E+04   0.329E-05 -.647E+00 -.463E+01   0.373E-04 -.270E-03 0.151E-01
   -.248E+02 0.162E+01 -.143E+04   0.241E+02 -.161E+01 0.143E+04   0.759E+00 -.105E-01 -.457E+01   0.173E-03 -.207E-04 0.151E-01
   -.160E-04 -.193E+00 -.473E+03   -.190E-05 0.184E+00 0.474E+03   -.934E-05 0.130E-01 -.109E+01   0.274E-04 -.612E-04 0.182E-01
   -.174E+01 0.164E+01 -.456E+03   0.171E+01 -.162E+01 0.456E+03   0.273E-01 -.204E-01 0.511E+00   0.288E-03 -.366E-03 0.182E-01
   0.200E-03 -.433E+01 0.752E+01   0.384E-12 -.444E-12 -.398E-11   -.408E-04 0.436E+01 -.796E+01   -.284E-03 0.197E-03 0.539E+00

 POSITION                                       TOTAL-FORCE (eV/Angst)
      4.22049      4.35151     12.63308        -0.000068      0.008662      0.041817
      4.22049      5.36064     12.79393         0.000004      0.014613      0.000966
      3.39386      3.96218     13.08676        -0.010031     -0.000759      0.009647
      5.04713      3.96218     13.08676         0.010087     -0.000782      0.009675
      0.00000      6.33078      3.91324         0.000004     -0.001065      0.324311
      2.11025      0.00004      3.91324         0.000899     -0.000528      0.325112
      0.00000      0.00004      6.02349        -0.000003      0.001052      0.015397
      2.11025      6.33078      6.02349         0.018904     -0.016981      0.024660
      0.00000      6.32811      8.14287         0.000004      0.001790      0.038619
      2.11247      8.44094      8.14320        -0.002413     -0.000010      0.037745
      0.00000      8.44064     10.24357         0.000000      0.003351      0.014698
      2.10755      6.33108     10.23649        -0.007377      0.005776     -0.001743
      0.00000      2.11029      3.91324         0.000001      0.000327      0.326204
      2.11025      4.22054      3.91324         0.002035     -0.000170      0.334163
      0.00000      4.22054      6.02349        -0.000002     -0.002811      0.050773
      2.11025      2.11029      6.02349         0.013260      0.014930      0.024863
      8.44098      2.11222      8.14329        -0.000002     -0.003087      0.037325
      2.12092      4.21975      8.15691        -0.004783      0.001425      0.038348
      0.00000      4.21960     10.23958        -0.000002      0.001803      0.002569
      2.10919      2.10803     10.23880        -0.003102     -0.004828     -0.001929
      4.22049      6.33078      3.91324         0.000007     -0.002200      0.334288
      6.33074      0.00004      3.91324        -0.000900     -0.000530      0.325118
      4.22049      0.00004      6.02349         0.000009     -0.004330      0.050350
      6.33074      6.33078      6.02349        -0.018910     -0.016983      0.024660
      4.22049      6.31972      8.15756        -0.000012      0.005851      0.035402
      6.32851      8.44094      8.14320         0.002408     -0.000005      0.037721
      4.22049      0.00199     10.23937        -0.000002      0.000433      0.001368
      6.33344      6.33108     10.23649         0.007383      0.005773     -0.001735
      4.22049      2.11029      3.91324         0.000004      0.001439      0.333287
      6.33074      4.22054      3.91324        -0.002030     -0.000172      0.334173
      4.22049      4.22054      6.02349         0.000007      0.002300      0.073643
      6.33074      2.11029      6.02349        -0.013254      0.014932      0.024874
      4.22049      2.12032      8.15594         0.000015     -0.005640      0.040415
      6.32007      4.21975      8.15691         0.004753      0.001455      0.038403
      4.22049      4.20904     10.38333        -0.000074      0.007723      0.066061
      6.33179      2.10803     10.23880         0.003111     -0.004823     -0.001933
      0.00000      6.33078      6.02349         0.000004      0.008040      0.073905
      2.11025      0.00004      6.02349        -0.009137     -0.002265      0.071717
      0.00000      0.00004      3.91324        -0.000001     -0.000736     -0.503532
      2.11025      6.33078      3.91324        -0.003294      0.002162     -0.515637
      8.44098      6.33489     10.30169        -0.000000      0.000550      0.014952
      2.10521      8.44023     10.30240        -0.000593     -0.000128      0.014613
      8.44098      8.44046      8.13976         0.000006     -0.003634      0.009484
      2.10968      6.33160      8.14270         0.004424     -0.003505      0.009044
      0.00000      2.11029      6.02349         0.000002     -0.010332      0.069888
      2.11025      4.22054      6.02349         0.013987     -0.000394      0.092950
      0.00000      4.22054      3.91324         0.000001     -0.000187     -0.509433
      2.11025      2.11029      3.91324        -0.002377     -0.003151     -0.516106
      0.00000      2.10492     10.30298        -0.000006     -0.002081      0.017184
      2.08807      4.21992     10.30232        -0.028446     -0.002883     -0.007774
      0.00000      4.22035      8.13812        -0.000005      0.000213      0.002666
      2.10871      2.10861      8.14203         0.004731      0.005004      0.008276
      4.22049      6.33078      6.02349         0.000012     -0.015107      0.093028
      6.33074      0.00004      6.02349         0.009134     -0.002261      0.071711
      4.22049      0.00004      3.91324         0.000008      0.000145     -0.508971
      6.33074      6.33078      3.91324         0.003291      0.002171     -0.515635
      4.22049      6.35541     10.30990         0.000002      0.024254     -0.005312
      6.33577      8.44023     10.30240         0.000601     -0.000127      0.014618
      4.22049      8.43994      8.13822         0.000003     -0.007554      0.005739
      6.33130      6.33160      8.14270        -0.004418     -0.003508      0.009046
      4.22049      2.11029      6.02349         0.000003      0.012644      0.093032
      6.33074      4.22054      6.02349        -0.013981     -0.000391      0.092950
      4.22049      4.22054      3.91324         0.000002     -0.001097     -0.517199
      6.33074      2.11029      3.91324         0.002382     -0.003151     -0.516111
      4.22049      2.08776     10.29781         0.000003     -0.025908     -0.007185
      6.35291      4.21992     10.30232         0.028447     -0.002881     -0.007754
      4.22049      4.22089      8.16097         0.000002      0.003155     -0.011742
      6.33227      2.10861      8.14203        -0.004721      0.005012      0.008272
    total drift:                               -0.000125      0.025544      0.107674

  FREE ENERGIE OF THE ION-ELECTRON SYSTEM (eV)
  free  energy   TOTEN  =      -396.34699705 eV

  energy  without entropy=     -396.34699705  energy(sigma->0) =     -396.34699705