 vasp.6.4.2 20Jul23 (build Nov 17 2023 15:39:20) complex
 executed on              LinuxNV date 2024.02.27  22:42:15
 OpenACC runtime initialized ...    4 GPUs detected

 INCAR:
   SYSTEM = Oxide-Surface
   ISMEAR = 0
   SIGMA = 0.05
   EDIFF = 1E-4
   ALGO = Normal
   ISTART = 2
   IBRION = -1
   NSW = 0
   ISYM = 0
   DIPOL = 0.5 0.5 0.5
   IDIPOL = 3
   LDIPOL = .TRUE.
   LHFCALC = .TRUE.
   HFSCREEN = 0.2
   GGA = PE
   ENCUT = 450
   PREC = Normal
   LASPH = .TRUE.
   LREAL = Auto
   ISPIN = 1
   NELM = 200
   NELMIN = 8
   NCORE = 1
   KPAR = 1
   LWAVE = .FALSE.
   LCHARG = .FALSE.

 POTCAR:    PAW_PBE C 08Apr2002
 POTCAR:    PAW_PBE O 08Apr2002
 POTCAR:    PAW_PBE Mg_pv 13Apr2007
 POTCAR:    PAW_PBE O 08Apr2002
 POTCAR:    PAW_PBE C 08Apr2002
   VRHFIN =C: s2p2

   TITEL  = PAW_PBE C 08Apr2002
   POMASS =   12.011; ZVAL   =    4.000    mass and valenz
   ENMAX  =  400.000; ENMIN  =  300.000 eV

[...]

   TITEL  = PAW_PBE Mg_pv 13Apr2007
   POMASS =   24.305; ZVAL   =    8.000    mass and valenz
   ENMAX  =  403.929; ENMIN  =  302.947 eV

   TITEL  = PAW_PBE O 08Apr2002
   POMASS =   16.000; ZVAL   =    6.000    mass and valenz
   ENMAX  =  400.000; ENMIN  =  300.000 eV

 Optimization of the real space projectors (new method)

 maximal supplied QI-value         = 25.13
 optimisation between [QCUT,QGAM] = [ 10.81, 21.61] = [ 32.71,130.83] Ry
 Optimized for a Real-space Cutoff    1.23 Angstroem

   l    n(q)    QCUT    max X(q) W(low)/X(q) W(high)/X(q)  e(spline)
   0      8    10.807   115.676    0.36E-03    0.72E-03    0.24E-06
   0      8    10.807    87.132    0.35E-03    0.71E-03    0.24E-06
   1      7    10.807     4.429    0.19E-03    0.39E-03    0.11E-06
   1      7    10.807     2.733    0.14E-03    0.28E-03    0.13E-06
 Optimization of the real space projectors (new method)

[...]

   l    n(q)    QCUT    max X(q) W(low)/X(q) W(high)/X(q)  e(spline)
   1      7    10.771     2.974    0.18E-03    0.56E-05    0.13E-06
   1      7    10.771     4.279    0.39E-03    0.94E-04    0.28E-06
   0      8    10.771    16.381    0.27E-03    0.38E-03    0.44E-07
   0      8    10.771     5.611    0.18E-03    0.26E-03    0.32E-07
   2      7    10.771     4.652    0.12E-03    0.23E-03    0.45E-07
 Optimization of the real space projectors (new method)

 maximal supplied QI-value         = 24.76
 optimisation between [QCUT,QGAM] = [ 10.64, 21.54] = [ 31.73,129.89] Ry
 Optimized for a Real-space Cutoff    1.23 Angstroem

   l    n(q)    QCUT    max X(q) W(low)/X(q) W(high)/X(q)  e(spline)
   0      8    10.645    20.381    0.38E-03    0.60E-03    0.15E-06
   0      8    10.645    15.268    0.40E-03    0.65E-03    0.17E-06
   1      7    10.645     5.964    0.30E-03    0.63E-03    0.18E-06
   1      7    10.645     5.382    0.24E-03    0.53E-03    0.16E-06
  PAW_PBE C 08Apr2002                   :
  PAW_PBE O 08Apr2002                   :
  PAW_PBE Mg_pv 13Apr2007               :
  PAW_PBE O 08Apr2002                   :

 POSCAR:  C  O Mg  O
  positions in direct lattice
 exchange correlation table for  LEXCH =        8
   RHO(1)=    0.500       N(1)  =     2000
   RHO(2)=  100.500       N(2)  =     4000

 ion  position               nearest neighbor table
   1  0.500  0.500  0.765-   2 1.15
   2  0.500  0.500  0.819-   1 1.15
   3  0.000  0.750  0.352-  35 2.11  37 2.11  38 2.11  45 2.11  54 2.11
   4  0.250  0.000  0.352-  36 2.11  37 2.11  38 2.11  46 2.11  53 2.11
   5  0.000  0.000  0.451-  37 2.11  36 2.11  35 2.11  43 2.11  52 2.11  41 2.12
   6  0.250  0.750  0.451-  38 2.11  36 2.11  35 2.11  44 2.11  51 2.11  42 2.12
   7  0.000  0.750  0.550-  49 2.11  42 2.11  58 2.11  41 2.11  35 2.12  39 2.15
   8  0.250  0.000  0.550-  57 2.11  50 2.11  42 2.11  41 2.11  36 2.12  40 2.15
   9  0.000  0.000  0.649-  39 2.11  40 2.11  47 2.11  56 2.11  41 2.11
  10  0.250  0.750  0.649-  42 2.11  40 2.11  39 2.11  48 2.11  55 2.11
  11  0.000  0.250  0.352-  43 2.11  37 2.11  45 2.11  46 2.11  62 2.11
  12  0.250  0.500  0.352-  44 2.11  38 2.11  45 2.11  46 2.11  61 2.11
  13  0.000  0.500  0.451-  45 2.11  43 2.11  44 2.11  35 2.11  60 2.11  49 2.12
  14  0.250  0.250  0.451-  46 2.11  43 2.11  44 2.11  36 2.11  59 2.11  50 2.12
  15  0.000  0.250  0.550-  49 2.11  50 2.11  66 2.11  41 2.11  43 2.12  47 2.15
  16  0.250  0.500  0.550-  65 2.11  50 2.11  42 2.11  49 2.11  44 2.13  48 2.15
  17  0.000  0.500  0.649-  48 2.10  64 2.10  49 2.11  47 2.11  39 2.11
  18  0.250  0.250  0.649-  50 2.11  47 2.11  40 2.11  48 2.11  63 2.11
  19  0.500  0.750  0.352-  51 2.11  38 2.11  53 2.11  54 2.11  61 2.11
  20  0.750  0.000  0.352-  52 2.11  37 2.11  53 2.11  54 2.11  62 2.11
  21  0.500  0.000  0.451-  53 2.11  51 2.11  52 2.11  36 2.11  59 2.11  57 2.12
  22  0.750  0.750  0.451-  54 2.11  51 2.11  52 2.11  35 2.11  60 2.11  58 2.12
  23  0.500  0.750  0.550-  65 2.11  58 2.11  42 2.11  57 2.11  51 2.13  55 2.15
  24  0.750  0.000  0.550-  57 2.11  58 2.11  66 2.11  41 2.11  52 2.12  56 2.15
  25  0.500  0.000  0.649-  55 2.10  63 2.10  57 2.11  40 2.11  56 2.11
  26  0.750  0.750  0.649-  58 2.11  56 2.11  39 2.11  55 2.11  64 2.11
  27  0.500  0.250  0.352-  59 2.11  53 2.11  46 2.11  61 2.11  62 2.11
  28  0.750  0.500  0.352-  60 2.11  54 2.11  45 2.11  61 2.11  62 2.11
  29  0.500  0.500  0.451-  61 2.11  51 2.11  59 2.11  60 2.11  44 2.11  65 2.13
  30  0.750  0.250  0.451-  62 2.11  52 2.11  59 2.11  60 2.11  43 2.11  66 2.12
  31  0.500  0.250  0.550-  65 2.11  50 2.11  66 2.11  57 2.11  59 2.13  63 2.15
  32  0.750  0.500  0.550-  65 2.11  58 2.11  66 2.11  49 2.11  60 2.13  64 2.15
  33  0.500  0.500  0.651-  48 2.12  55 2.12  63 2.12  64 2.12  65 2.14
  34  0.750  0.250  0.649-  66 2.11  56 2.11  47 2.11  64 2.11  63 2.11
  35  0.000  0.750  0.451-   3 2.11   5 2.11   6 2.11  13 2.11  22 2.11   7 2.12
  36  0.250  0.000  0.451-   4 2.11   5 2.11   6 2.11  14 2.11  21 2.11   8 2.12
  37  0.000  0.000  0.352-   5 2.11   4 2.11   3 2.11  11 2.11  20 2.11
  38  0.250  0.750  0.352-   6 2.11   4 2.11   3 2.11  12 2.11  19 2.11
  39  0.000  0.750  0.651-   9 2.11  10 2.11  26 2.11  17 2.11   7 2.15
  40  0.250  0.000  0.651-   9 2.11  10 2.11  18 2.11  25 2.11   8 2.15
  41  0.000  0.000  0.550-   9 2.11   8 2.11   7 2.11  15 2.11  24 2.11   5 2.12
  42  0.250  0.750  0.550-  10 2.11   8 2.11   7 2.11  23 2.11  16 2.11   6 2.12
  43  0.000  0.250  0.451-  11 2.11   5 2.11  13 2.11  14 2.11  30 2.11  15 2.12
  44  0.250  0.500  0.451-  12 2.11   6 2.11  13 2.11  14 2.11  29 2.11  16 2.13
  45  0.000  0.500  0.352-  13 2.11  11 2.11  12 2.11   3 2.11  28 2.11
  46  0.250  0.250  0.352-  14 2.11  11 2.11  12 2.11   4 2.11  27 2.11
  47  0.000  0.250  0.651-   9 2.11  18 2.11  34 2.11  17 2.11  15 2.15
  48  0.249  0.500  0.651-  17 2.10  10 2.11  18 2.11  33 2.12  16 2.15
  49  0.000  0.500  0.550-  17 2.11  15 2.11   7 2.11  16 2.11  32 2.11  13 2.12
  50  0.250  0.250  0.550-  18 2.11  15 2.11   8 2.11  31 2.11  16 2.11  14 2.12
  51  0.500  0.750  0.451-  19 2.11   6 2.11  21 2.11  22 2.11  29 2.11  23 2.13
  52  0.750  0.000  0.451-  20 2.11   5 2.11  21 2.11  22 2.11  30 2.11  24 2.12
  53  0.500  0.000  0.352-  21 2.11  19 2.11  20 2.11   4 2.11  27 2.11
  54  0.750  0.750  0.352-  22 2.11  19 2.11  20 2.11   3 2.11  28 2.11
  55  0.500  0.751  0.651-  25 2.10  10 2.11  26 2.11  33 2.12  23 2.15
  56  0.750  0.000  0.651-   9 2.11  26 2.11  34 2.11  25 2.11  24 2.15
  57  0.500  0.000  0.550-  25 2.11  24 2.11   8 2.11  23 2.11  31 2.11  21 2.12
  58  0.750  0.750  0.550-  26 2.11  24 2.11   7 2.11  23 2.11  32 2.11  22 2.12
  59  0.500  0.250  0.451-  27 2.11  21 2.11  14 2.11  29 2.11  30 2.11  31 2.13
  60  0.750  0.500  0.451-  28 2.11  22 2.11  13 2.11  29 2.11  30 2.11  32 2.13
  61  0.500  0.500  0.352-  29 2.11  19 2.11  27 2.11  28 2.11  12 2.11
  62  0.750  0.250  0.352-  30 2.11  20 2.11  27 2.11  28 2.11  11 2.11
  63  0.500  0.249  0.651-  25 2.10  18 2.11  34 2.11  33 2.12  31 2.15
  64  0.751  0.500  0.651-  17 2.10  26 2.11  34 2.11  33 2.12  32 2.15
  65  0.500  0.500  0.550-  16 2.11  23 2.11  31 2.11  32 2.11  29 2.13  33 2.14
  66  0.750  0.250  0.550-  34 2.11  24 2.11  15 2.11  31 2.11  32 2.11  30 2.12

IMPORTANT INFORMATION: All symmetrisations will be switched off!
NOSYMM: (Re-)initialisation of all symmetry stuff for point group C_1.

                                     Primitive cell

  volume of cell :    1519.8199

  direct lattice vectors                    reciprocal lattice vectors
     8.440984654  0.000000000  0.000000000     0.118469591  0.000000000  0.000000000
     0.000000000  8.440984654  0.000000000     0.000000000  0.118469591  0.000000000
     0.000000000  0.000000000 21.330738491     0.000000000  0.000000000  0.046880702

  length of vectors
     8.440984654  8.440984654 21.330738491     0.118469591  0.118469591  0.046880702

  position of ions in fractional coordinates (direct lattice)
     0.500000000  0.500000000  0.765053803
     0.500000000  0.500000000  0.818817521
     0.000000000  0.750000000  0.351605267
     0.250000000  0.000000000  0.351605267
     0.000000000  0.000000000  0.450535089
     0.250000000  0.750000000  0.450535089
     0.000000000  0.749939268  0.550083239
     0.250060732  0.000000000  0.550083239
     0.000000000  0.000000000  0.648745309
     0.249858327  0.750141673  0.648569547
     0.000000000  0.250000000  0.351605267
     0.250000000  0.500000000  0.351605267
     0.000000000  0.500000000  0.450535089
     0.250000000  0.250000000  0.450535089
     0.000000000  0.250060732  0.550083239
     0.250378379  0.500000000  0.550219524
     0.000000000  0.500000000  0.648615280
     0.249858327  0.249858327  0.648569547
     0.500000000  0.750000000  0.351605267
     0.750000000  0.000000000  0.351605267
     0.500000000  0.000000000  0.450535089
     0.750000000  0.750000000  0.450535089
     0.500000000  0.749621621  0.550219524
     0.749939268  0.000000000  0.550083239
     0.500000000  0.000000000  0.648615280
     0.750141673  0.750141673  0.648569547
     0.500000000  0.250000000  0.351605267
     0.750000000  0.500000000  0.351605267
     0.500000000  0.500000000  0.450535089
     0.750000000  0.250000000  0.450535089
     0.500000000  0.250378379  0.550219524
     0.749621621  0.500000000  0.550219524
     0.500000000  0.500000000  0.650616960
     0.750141673  0.249858327  0.648569547
     0.000000000  0.750000000  0.450535089
     0.250000000  0.000000000  0.450535089
     0.000000000  0.000000000  0.351605267
     0.250000000  0.750000000  0.351605267
     0.000000000  0.750218533  0.650979255
     0.249781467  0.000000000  0.650979255
     0.000000000  0.000000000  0.549809890
     0.249945770  0.750054230  0.549859113
     0.000000000  0.250000000  0.450535089
     0.250000000  0.500000000  0.450535089
     0.000000000  0.500000000  0.351605267
     0.250000000  0.250000000  0.351605267
     0.000000000  0.249781467  0.650979255
     0.248822710  0.500000000  0.650882872
     0.000000000  0.500000000  0.549762666
     0.249945770  0.249945770  0.549859113
     0.500000000  0.750000000  0.450535089
     0.750000000  0.000000000  0.450535089
     0.500000000  0.000000000  0.351605267
[...]
   0.00000000  4.22049233  7.50000000
   2.11024616  2.11024616  7.50000000
   0.00000000  2.10840153 13.88586825
   2.10030867  4.22049233 13.88381232
   0.00000000  4.22049233 11.72684365
   2.10978841  2.10978841 11.72890095
   4.22049233  6.33073849  9.61024616
   6.33073849  0.00000000  9.61024616
   4.22049233  0.00000000  7.50000000
   6.33073849  6.33073849  7.50000000
   4.22049233  6.34067598 13.88381232
   6.33258312  0.00000000 13.88586825
   4.22049233  0.00000000 11.72684365
   6.33119624  6.33119624 11.72890095
   4.22049233  2.11024616  9.61024616
   6.33073849  4.22049233  9.61024616
   4.22049233  4.22049233  7.50000000
   6.33073849  2.11024616  7.50000000
   4.22049233  2.10030867 13.88381232
   6.34067598  4.22049233 13.88381232
   4.22049233  4.22049233 11.73684118
   6.33119624  2.10978841 11.72890095

--------------------------------------- Iteration      FINAL  ---------------------------------------

--------------------OUTCAR has been truncated-------------------------

[...]

--------------------OUTCAR has been truncated-------------------------

 VOLUME and BASIS-vectors are now :
  energy-cutoff  :      450.00
  volume of cell :     1519.82
      direct lattice vectors                 reciprocal lattice vectors
     8.440984654  0.000000000  0.000000000     0.118469591  0.000000000  0.000000000
     0.000000000  8.440984654  0.000000000     0.000000000  0.118469591  0.000000000
     0.000000000  0.000000000 21.330738491     0.000000000  0.000000000  0.046880702

  length of vectors
     8.440984654  8.440984654 21.330738491     0.118469591  0.118469591  0.046880702

 FORCES acting on ions
    electron-ion (+dipol)            ewald-force                    non-local-force                 convergence-correction
   -.531E-06 0.845E-07 -.837E+03   0.129E-13 -.244E-14 0.811E+03   0.276E-06 -.153E-07 0.262E+02   0.177E-06 0.999E-09 0.151E+00
   -.260E-06 -.335E-06 -.145E+04   -.222E-15 -.289E-14 0.151E+04   -.320E-06 0.543E-06 -.542E+02   0.243E-06 0.153E-06 0.198E+00
   0.371E-06 -.129E+00 0.208E+04   -.103E-12 0.129E+00 -.207E+04   -.522E-06 0.128E-04 -.681E+01   0.411E-06 -.537E-04 -.238E+00
   0.129E+00 -.142E-05 0.208E+04   -.129E+00 0.586E-13 -.207E+04   -.122E-04 0.763E-06 -.681E+01   0.504E-04 0.416E-06 -.238E+00
   -.620E-06 0.269E-07 0.713E+03   -.213E-13 0.782E-13 -.714E+03   0.116E-06 -.545E-06 0.482E+00   0.646E-06 0.667E-06 -.942E-01
   0.472E+00 -.472E+00 0.714E+03   -.467E+00 0.467E+00 -.715E+03   -.284E-02 0.284E-02 0.504E+00   0.222E-03 -.225E-03 -.937E-01
   -.474E-06 -.285E+01 -.643E+03   0.693E-13 0.283E+01 0.643E+03   0.522E-06 0.175E-01 -.124E+00   0.162E-06 -.741E-03 0.824E-01
   0.285E+01 -.303E-05 -.643E+03   -.283E+01 0.391E-13 0.643E+03   -.174E-01 0.111E-05 -.124E+00   0.738E-03 0.180E-05 0.824E-01
   -.343E-05 -.230E-06 -.200E+04   -.128E-12 0.249E-13 0.200E+04   0.252E-05 -.697E-06 0.576E+01   -.449E-07 0.988E-06 0.228E+00
   0.181E+02 -.181E+02 -.198E+04   -.182E+02 0.182E+02 0.198E+04   0.764E-01 -.764E-01 0.585E+01   0.173E-02 -.173E-02 0.228E+00
   -.393E-06 0.129E+00 0.208E+04   -.453E-13 -.129E+00 -.207E+04   -.591E-06 -.142E-04 -.681E+01   0.114E-05 0.535E-04 -.238E+00
   0.124E+00 0.281E-05 0.208E+04   -.121E+00 -.124E-13 -.207E+04   -.148E-02 -.177E-05 -.682E+01   0.504E-04 -.478E-06 -.238E+00
   -.244E-06 -.508E-06 0.714E+03   -.711E-14 0.711E-13 -.715E+03   -.373E-06 -.152E-06 0.444E+00   0.672E-06 0.416E-06 -.937E-01
   0.472E+00 0.472E+00 0.714E+03   -.467E+00 -.467E+00 -.715E+03   -.284E-02 -.284E-02 0.504E+00   0.222E-03 0.224E-03 -.937E-01
   -.316E-06 0.285E+01 -.643E+03   -.284E-13 -.283E+01 0.643E+03   -.328E-06 -.175E-01 -.124E+00   0.831E-06 0.740E-03 0.824E-01
   0.413E+01 0.830E-07 -.636E+03   -.405E+01 -.817E-13 0.636E+03   -.738E-01 0.372E-06 -.244E+00   0.560E-03 -.588E-06 0.842E-01
   0.813E-06 0.101E-05 -.199E+04   -.213E-13 -.320E-13 0.198E+04   -.566E-06 0.121E-06 0.577E+01   -.261E-06 -.845E-06 0.228E+00
   0.181E+02 0.181E+02 -.198E+04   -.182E+02 -.182E+02 0.198E+04   0.764E-01 0.764E-01 0.585E+01   0.173E-02 0.173E-02 0.228E+00
   -.323E-06 -.124E+00 0.208E+04   -.138E-13 0.121E+00 -.207E+04   0.131E-05 0.148E-02 -.682E+01   -.142E-05 -.528E-04 -.238E+00
   -.129E+00 -.154E-05 0.208E+04   0.129E+00 0.462E-13 -.207E+04   0.116E-04 0.323E-06 -.681E+01   -.505E-04 0.110E-05 -.238E+00
   0.980E-06 -.169E-05 0.714E+03   0.711E-14 0.000E+00 -.715E+03   -.373E-06 0.151E-05 0.444E+00   -.195E-06 -.138E-06 -.937E-01
   -.472E+00 -.472E+00 0.714E+03   0.467E+00 0.467E+00 -.715E+03   0.284E-02 0.284E-02 0.504E+00   -.222E-03 -.225E-03 -.937E-01
   0.128E-05 -.413E+01 -.636E+03   -.373E-13 0.405E+01 0.636E+03   -.981E-06 0.738E-01 -.244E+00   0.113E-07 -.562E-03 0.842E-01
   -.285E+01 -.247E-05 -.643E+03   0.283E+01 -.568E-13 0.643E+03   0.174E-01 0.190E-05 -.124E+00   -.738E-03 -.233E-06 0.824E-01
   -.803E-06 -.136E-05 -.199E+04   0.568E-13 -.995E-13 0.198E+04   -.188E-07 0.563E-06 0.577E+01   0.891E-06 0.448E-06 0.228E+00
   -.181E+02 -.181E+02 -.198E+04   0.182E+02 0.182E+02 0.198E+04   -.764E-01 -.764E-01 0.585E+01   -.173E-02 -.173E-02 0.228E+00
   0.456E-06 0.124E+00 0.208E+04   -.853E-13 -.121E+00 -.207E+04   -.286E-06 -.148E-02 -.682E+01   -.130E-06 0.526E-04 -.238E+00
   -.124E+00 0.268E-06 0.208E+04   0.121E+00 -.178E-14 -.207E+04   0.148E-02 0.361E-07 -.682E+01   -.500E-04 -.303E-06 -.238E+00
   -.287E-06 0.241E-06 0.715E+03   -.497E-13 0.604E-13 -.715E+03   0.105E-05 -.598E-06 0.574E+00   -.818E-06 0.606E-06 -.933E-01
   -.472E+00 0.472E+00 0.714E+03   0.467E+00 -.467E+00 -.715E+03   0.284E-02 -.284E-02 0.504E+00   -.223E-03 0.224E-03 -.937E-01
   -.550E-06 0.413E+01 -.636E+03   -.284E-13 -.405E+01 0.636E+03   0.525E-06 -.738E-01 -.244E+00   -.349E-06 0.560E-03 0.842E-01
   -.413E+01 0.480E-06 -.636E+03   0.405E+01 0.000E+00 0.636E+03   0.738E-01 -.378E-06 -.244E+00   -.559E-03 0.364E-06 0.842E-01
   0.159E-05 0.495E-05 -.191E+04   0.639E-13 0.000E+00 0.191E+04   -.489E-06 -.304E-05 0.388E+01   -.570E-06 -.606E-06 0.236E+00
   -.181E+02 0.181E+02 -.198E+04   0.182E+02 -.182E+02 0.198E+04   -.764E-01 0.764E-01 0.585E+01   -.173E-02 0.173E-02 0.228E+00
   0.122E-05 -.406E+00 0.535E+03   0.311E-13 0.400E+00 -.535E+03   -.256E-06 0.755E-02 -.711E-01   -.246E-06 -.189E-03 -.686E-01
   0.406E+00 0.601E-05 0.535E+03   -.400E+00 -.284E-13 -.535E+03   -.755E-02 -.473E-05 -.711E-01   0.186E-03 -.102E-05 -.686E-01
   -.690E-06 -.262E-07 0.156E+04   0.395E-13 -.666E-14 -.156E+04   0.172E-06 -.178E-05 0.315E+01   -.184E-06 0.135E-05 -.179E+00
   0.940E-01 -.940E-01 0.156E+04   -.931E-01 0.931E-01 -.156E+04   -.114E-02 0.114E-02 0.315E+01   0.458E-04 -.487E-04 -.179E+00
   -.190E-05 -.733E+01 -.152E+04   0.284E-13 0.727E+01 0.153E+04   -.191E-05 0.530E-01 -.460E+01   0.159E-05 -.884E-03 0.173E+00
   0.733E+01 -.109E-05 -.152E+04   -.727E+01 0.106E-12 0.153E+04   -.530E-01 -.395E-06 -.460E+01   0.884E-03 0.102E-05 0.173E+00
   0.265E-05 -.111E-05 -.478E+03   -.995E-13 0.711E-13 0.478E+03   -.254E-05 0.303E-06 0.242E+00   0.708E-06 0.452E-06 0.600E-01
   0.257E+01 -.257E+01 -.473E+03   -.256E+01 0.256E+01 0.473E+03   -.967E-02 0.967E-02 0.305E+00   0.568E-03 -.569E-03 0.606E-01
   -.273E-05 0.406E+00 0.535E+03   0.355E-13 -.400E+00 -.535E+03   -.557E-06 -.756E-02 -.711E-01   0.145E-05 0.188E-03 -.686E-01
   0.378E+00 0.154E-05 0.536E+03   -.406E+00 -.338E-13 -.535E+03   0.327E-01 0.197E-05 -.908E-01   0.161E-03 -.116E-05 -.684E-01
   0.896E-06 -.293E-06 0.156E+04   0.493E-13 -.107E-13 -.156E+04   0.426E-06 -.154E-05 0.315E+01   0.151E-06 0.373E-06 -.179E+00
   0.940E-01 0.940E-01 0.156E+04   -.931E-01 -.931E-01 -.156E+04   -.113E-02 -.114E-02 0.315E+01   0.444E-04 0.472E-04 -.179E+00
   0.173E-05 0.733E+01 -.152E+04   0.853E-13 -.727E+01 0.153E+04   0.322E-06 -.530E-01 -.460E+01   -.513E-06 0.885E-03 0.173E+00
   0.236E+02 0.332E-06 -.149E+04   -.233E+02 -.355E-13 0.150E+04   -.279E+00 0.454E-06 -.455E+01   0.170E-02 -.753E-06 0.174E+00
   0.251E-05 -.146E-05 -.473E+03   -.114E-12 -.924E-13 0.473E+03   -.158E-05 -.915E-06 0.259E+00   0.362E-06 0.680E-06 0.606E-01
   0.257E+01 0.257E+01 -.473E+03   -.256E+01 -.256E+01 0.473E+03   -.967E-02 -.967E-02 0.305E+00   0.568E-03 0.566E-03 0.606E-01
   0.420E-05 -.378E+00 0.536E+03   0.924E-13 0.406E+00 -.535E+03   -.112E-05 -.327E-01 -.908E-01   -.181E-05 -.162E-03 -.684E-01
   -.406E+00 -.302E-06 0.535E+03   0.400E+00 -.497E-13 -.535E+03   0.756E-02 -.251E-05 -.711E-01   -.188E-03 0.183E-05 -.686E-01
   -.261E-06 0.627E-06 0.156E+04   0.109E-12 -.213E-13 -.156E+04   0.576E-06 0.571E-06 0.315E+01   -.359E-06 0.147E-07 -.179E+00
   -.940E-01 -.940E-01 0.156E+04   0.931E-01 0.931E-01 -.156E+04   0.114E-02 0.114E-02 0.315E+01   -.442E-04 -.478E-04 -.179E+00
   -.128E-05 -.236E+02 -.149E+04   -.107E-13 0.233E+02 0.150E+04   0.859E-06 0.279E+00 -.455E+01   0.133E-05 -.170E-02 0.174E+00
   -.733E+01 -.985E-06 -.152E+04   0.727E+01 0.128E-12 0.153E+04   0.530E-01 0.403E-06 -.460E+01   -.887E-03 0.254E-06 0.173E+00
   -.204E-05 0.674E-05 -.473E+03   0.213E-13 0.568E-13 0.473E+03   0.231E-05 -.848E-05 0.259E+00   0.844E-06 0.375E-06 0.606E-01
   -.257E+01 -.257E+01 -.473E+03   0.256E+01 0.256E+01 0.473E+03   0.967E-02 0.967E-02 0.305E+00   -.568E-03 -.567E-03 0.606E-01
   -.132E-05 0.378E+00 0.536E+03   0.426E-13 -.406E+00 -.535E+03   -.135E-05 0.327E-01 -.908E-01   0.178E-05 0.161E-03 -.684E-01
   -.378E+00 -.445E-05 0.536E+03   0.406E+00 -.355E-13 -.535E+03   -.327E-01 0.276E-05 -.908E-01   -.160E-03 0.853E-06 -.684E-01
   0.113E-05 -.264E-06 0.156E+04   0.488E-14 -.608E-13 -.156E+04   -.345E-06 0.234E-05 0.315E+01   -.359E-06 0.209E-06 -.179E+00
   -.940E-01 0.940E-01 0.156E+04   0.931E-01 -.931E-01 -.156E+04   0.113E-02 -.114E-02 0.315E+01   -.466E-04 0.478E-04 -.179E+00
   -.225E-06 0.236E+02 -.149E+04   0.355E-13 -.233E+02 0.150E+04   0.223E-05 -.279E+00 -.455E+01   -.163E-05 0.170E-02 0.174E+00
   -.236E+02 0.283E-05 -.149E+04   0.233E+02 -.711E-14 0.150E+04   0.279E+00 0.927E-06 -.455E+01   -.169E-02 -.622E-06 0.174E+00
   0.998E-06 -.349E-06 -.473E+03   0.711E-14 0.711E-14 0.473E+03   -.968E-06 0.320E-06 -.168E+00   -.694E-06 0.880E-07 0.619E-01
   -.257E+01 0.257E+01 -.473E+03   0.256E+01 -.256E+01 0.473E+03   0.967E-02 -.967E-02 0.305E+00   -.570E-03 0.568E-03 0.606E-01
   -.376E-05 0.418E-05 0.548E+02   -.444E-12 0.437E-12 0.148E-11   0.101E-04 -.268E-05 -.457E+02   -.111E-05 -.157E-05 0.823E-01

 POSITION                                       TOTAL-FORCE (eV/Angst)
      4.22049      4.22049     16.31916        -0.000000      0.000000      2.029756
      4.22049      4.22049     17.46598        -0.000001      0.000000     -1.963162
      0.00000      6.33074      7.50000         0.000000     -0.000087      0.496592
      2.11025      0.00000      7.50000         0.000087     -0.000000      0.496593
      0.00000      0.00000      9.61025         0.000000      0.000000      0.023696
      2.11025      6.33074      9.61025         0.001645     -0.001646      0.025138
      0.00000      6.33023     11.73368         0.000000     -0.002278      0.037805
      2.11076      0.00000     11.73368         0.002278      0.000000      0.037800
      0.00000      0.00000     13.83822        -0.000001     -0.000000     -0.120154
      2.10905      6.33193     13.83447        -0.009817      0.009818     -0.137180
      0.00000      2.11025      7.50000         0.000000      0.000087      0.496593
      2.11025      4.22049      7.50000         0.000519      0.000000      0.497779
      0.00000      4.22049      9.61025        -0.000000     -0.000000      0.034033
      2.11025      2.11025      9.61025         0.001645      0.001646      0.025139
      0.00000      2.11076     11.73368         0.000000      0.002279      0.037801
      2.11344      4.22049     11.73659        -0.004630     -0.000000      0.045834
      0.00000      4.22049     13.83544        -0.000000      0.000000     -0.128771
      2.10905      2.10905     13.83447        -0.009818     -0.009818     -0.137175
      4.22049      6.33074      7.50000        -0.000000     -0.000519      0.497778
      6.33074      0.00000      7.50000        -0.000087     -0.000000      0.496593
      4.22049      0.00000      9.61025         0.000000     -0.000000      0.034036
      6.33074      6.33074      9.61025        -0.001646     -0.001646      0.025139
      4.22049      6.32754     11.73659         0.000000      0.004628      0.045856
      6.33023      0.00000     11.73368        -0.002279     -0.000001      0.037804
      4.22049      0.00000     13.83544        -0.000000     -0.000000     -0.128770
      6.33193      6.33193     13.83447         0.009817      0.009818     -0.137190
      4.22049      2.11025      7.50000        -0.000000      0.000519      0.497778
      6.33074      4.22049      7.50000        -0.000520      0.000000      0.497779
      4.22049      4.22049      9.61025        -0.000000      0.000000      0.032408
      6.33074      2.11025      9.61025        -0.001645      0.001646      0.025138
      4.22049      2.11344     11.73659        -0.000000     -0.004628      0.045834
      6.32754      4.22049     11.73659         0.004629      0.000000      0.045856
      4.22049      4.22049     13.87814         0.000000      0.000001     -0.098915
      6.33193      2.10905     13.83447         0.009817     -0.009819     -0.137181
      0.00000      6.33074      9.61025         0.000001      0.002615      0.072770
      2.11025      0.00000      9.61025        -0.002616     -0.000001      0.072771
      0.00000      0.00000      7.50000        -0.000001     -0.000001     -0.449559
      2.11025      6.33074      7.50000        -0.000391      0.000390     -0.449211
      0.00000      6.33258     13.88587        -0.000003     -0.000812     -0.091654
      2.10840      0.00000     13.88587         0.000812     -0.000001     -0.091648
      0.00000      0.00000     11.72785         0.000000     -0.000000      0.019049
      2.10979      6.33120     11.72890         0.000898     -0.000896      0.015469
      0.00000      2.11025      9.61025        -0.000002     -0.002617      0.072769
      2.11025      4.22049      9.61025         0.010078      0.000003      0.079942
      0.00000      4.22049      7.50000         0.000002     -0.000002     -0.449603
      2.11025      2.11025      7.50000        -0.000393     -0.000392     -0.449207
      0.00000      2.10840     13.88587         0.000002      0.000812     -0.091654
      2.10031      4.22049     13.88381        -0.007407      0.000000     -0.087341
      0.00000      4.22049     11.72684         0.000001     -0.000002      0.016049
      2.10979      2.10979     11.72890         0.000897      0.000898      0.015465
      4.22049      6.33074      9.61025         0.000001     -0.010078      0.079938
      6.33074      0.00000      9.61025         0.002615     -0.000001      0.072769
      4.22049      0.00000      7.50000        -0.000000      0.000001     -0.449602
      6.33074      6.33074      7.50000         0.000393      0.000391     -0.449212
      4.22049      6.34068     13.88381         0.000001      0.007406     -0.087354
      6.33258      0.00000     13.88587        -0.000806     -0.000000     -0.091644
      4.22049      0.00000     11.72684         0.000001     -0.000003      0.016050
      6.33120      6.33120     11.72890        -0.000899     -0.000895      0.015465
      4.22049      2.11025      9.61025        -0.000001      0.010080      0.079940
      6.33074      4.22049      9.61025        -0.010078     -0.000000      0.079942
      4.22049      4.22049      7.50000         0.000000      0.000003     -0.449384
      6.33074      2.11025      7.50000         0.000391     -0.000389     -0.449205
      4.22049      2.10031     13.88381         0.000001     -0.007411     -0.087348
      6.34068      4.22049     13.88381         0.007404      0.000003     -0.087350
      4.22049      4.22049     11.73684        -0.000001      0.000000      0.009054
      6.33120      2.10979     11.72890        -0.000895      0.000898      0.015468
    total drift:                                0.000007     -0.000001      0.006020

  FREE ENERGIE OF THE ION-ELECTRON SYSTEM (eV)
  free  energy   TOTEN  =      -464.49154217 eV

  energy  without entropy=     -464.49154217  energy(sigma->0) =     -464.49154217

     |            E. Caldeweyher, S. Ehlert & S. Grimme          |
     |          Mulliken Center for Theoretical Chemistry        |
     |                    University of Bonn                     |

Rational (Becke-Johnson) damping: hse06-D4-ATM
  s6         1.0000
  s8         1.1953
  s9         1.0000
  a1         0.3866
  a2         5.1913
 alp        16.0000

Dispersion energy:      -2.7219086039714E-01 Eh