 vasp.6.3.0 20Jan22 (build Apr  1 2022 16:44:48) complex
 executed on        HPECrayEX_GCC date 2023.04.14  15:46:58

 INCAR:
   SYSTEM = MgO-rocksalt
   ISMEAR = 0
   SIGMA = 0.05
   EDIFF = 1E-6
   ALGO = ALL
   ISTART = 0
   IBRION = 2
   NSW = 1000
   ISYM = 2
   ISIF = 3
   EDIFFG = -0.01
   LHFCALC = .TRUE.
   HFSCREEN = 0.2
   GGA = PE
   IVDW = 13
   VDW_S8 = 1.19528249
   VDW_A1 = 0.38663183
   VDW_A2 = 5.19133469
   ENCUT = 520
   PREC = Normal
   PRECFOCK = FAST
   NKRED = 2
   LASPH = .TRUE.
   LREAL = .FALSE.
   ISPIN = 1
   NELM = 200
   NELMIN = 8
   NCORE = 4
   KPAR = 2
   LWAVE = .FALSE.
   LCHARG = .FALSE.

 POTCAR:    PAW_PBE Ti 08Apr2002
 POTCAR:    PAW_PBE O 08Apr2002
|           W    W    AA    RRRRR   N    N  II  N    N   GGGG   !!!           |
|           W    W   A  A   R    R  NN   N  II  NN   N  G    G  !!!           |
|           W    W  A    A  R    R  N N  N  II  N N  N  G       !!!           |
|           W WW W  AAAAAA  RRRRR   N  N N  II  N  N N  G  GGG   !            |
|           WW  WW  A    A  R   R   N   NN  II  N   NN  G    G                |
|           W    W  A    A  R    R  N    N  II  N    N   GGGG   !!!           |
|     You have selected ISYM=2 for a HF type calculation. This will           |
|     symmetrize the charge density but not the exchange potential. I         |
|     suggest to use ISYM=3 instead. This uses symmetry to obtain the         |
|     orbitals at all k-points in the Brillouin zone, but does not apply      |
|     symmetry to the Hartree potential directly. The resultant charge        |
|     might have lower symmetry than the crystal but, at least, Hartree       |
|     and exchange are fully compatible.                                      |

   TITEL  = PAW_PBE Ti 08Apr2002
   POMASS =   47.880; ZVAL   =    4.000    mass and valenz
   ENMAX  =  178.330; ENMIN  =  133.747 eV

   TITEL  = PAW_PBE O 08Apr2002
   POMASS =   16.000; ZVAL   =    6.000    mass and valenz
   ENMAX  =  400.000; ENMIN  =  300.000 eV

  PAW_PBE Ti 08Apr2002                  :
  PAW_PBE O 08Apr2002                   :

 POSCAR: Ti4 O8
  positions in direct lattice
  velocities in cartesian coordinates
|           W    W    AA    RRRRR   N    N  II  N    N   GGGG   !!!           |
|           W    W   A  A   R    R  NN   N  II  NN   N  G    G  !!!           |
|           W    W  A    A  R    R  N N  N  II  N N  N  G       !!!           |
|           W WW W  AAAAAA  RRRRR   N  N N  II  N  N N  G  GGG   !            |
|           WW  WW  A    A  R   R   N   NN  II  N   NN  G    G                |
|           W    W  A    A  R    R  N    N  II  N    N   GGGG   !!!           |
|     Specifying the vdW parameters                                           |
|     VDW_S8 = 1.195                                                          |
|     VDW_A1 = 0.387                                                          |
|     VDW_A2 = 5.191                                                          |
|     in the INCAR file will overwrite the defaults for hse06. Please         |
|     make sure that is what you intended.                                    |

 ion  position               nearest neighbor table
   1  0.500  0.500  0.500-   5 1.93   7 1.93   7 1.93   5 1.93   6 1.97  12 1.97   2 3.04   2 3.04
                             4 3.04   4 3.04
   2  0.500  0.000  0.750-   6 1.93   8 1.93   6 1.93   8 1.93   7 1.97   9 1.97   1 3.04   1 3.04
                             3 3.04   3 3.04
   3  0.000  0.000  0.000-   9 1.93  11 1.93  11 1.93   9 1.93  10 1.97   8 1.97   4 3.04   2 3.04
                             2 3.04   4 3.04
   4  0.000  0.500  0.250-  10 1.93  12 1.93  10 1.93  12 1.93  11 1.97   5 1.97   3 3.04   1 3.04
                             1 3.04   3 3.04
   5  0.000  0.500  0.457-   1 1.93   1 1.93   4 1.97
   6  0.500  0.500  0.707-   2 1.93   2 1.93   1 1.97
   7  0.500  0.000  0.543-   1 1.93   1 1.93   2 1.97
   8  0.000  0.000  0.793-   2 1.93   2 1.93   3 1.97
   9  0.500  0.000  0.957-   3 1.93   3 1.93   2 1.97
  10  0.000  0.000  0.207-   4 1.93   4 1.93   3 1.97
  11  0.000  0.500  0.043-   3 1.93   3 1.93   4 1.97
  12  0.500  0.500  0.293-   4 1.93   4 1.93   1 1.97

  LATTYP: Found a simple tetragonal cell.
 ALAT       =     3.7694470703
 C/A-ratio  =     2.5249905815

  Lattice vectors:

 A1 = (   3.7694470703,   0.0000000000,   0.0000000000)
 A2 = (   0.0000000000,   3.7694470703,   0.0000000000)
 A3 = (   0.0000000000,   0.0000000000,   9.5178183500)

Analysis of symmetry for initial positions (statically):
 Subroutine PRICEL returns following result:

  LATTYP: Found a body centered tetragonal cell.
 ALAT       =     3.7694470703
 C/A-ratio  =     2.5249905815

[...]

   2 primitive cells build up your supercell.

 Routine SETGRP: Setting up the symmetry group for a
 simple tetragonal supercell.

 Subroutine GETGRP returns: Found 16 space group operations
 (whereof  8 operations were pure point group operations)
 out of a pool of 16 trial point group operations.

The static configuration has the point symmetry D_2d.
 The point group associated with its full space group is D_4h.

Analysis of symmetry for dynamics (positions and initial velocities):
 Subroutine PRICEL returns following result:

  LATTYP: Found a body centered tetragonal cell.
 ALAT       =     3.7694470703
 C/A-ratio  =     2.5249905815

  Lattice vectors:

 A1 = (  -1.8847235352,   1.8847235352,   4.7589091750)
 A2 = (   1.8847235352,  -1.8847235352,   4.7589091750)
 A3 = (   1.8847235352,   1.8847235352,  -4.7589091750)

   2 primitive cells build up your supercell.

 Routine SETGRP: Setting up the symmetry group for a
 simple tetragonal supercell.

 Subroutine GETGRP returns: Found 16 space group operations
 (whereof  8 operations were pure point group operations)
 out of a pool of 16 trial point group operations.

The dynamic configuration has the point symmetry D_2d.
 The point group associated with its full space group is D_4h.

 Subroutine INISYM returns: Found 16 space group operations
 (whereof  8 operations are pure point group operations),
 and found     2 'primitive' translations

                                     Primitive cell

  volume of cell :      67.6181

  direct lattice vectors                    reciprocal lattice vectors
    -1.884723535  1.884723535  4.758909175     0.000000000  0.265290898  0.105066094
     1.884723535 -1.884723535  4.758909175     0.265290898 -0.000000000  0.105066094
     1.884723535  1.884723535 -4.758909175     0.265290898  0.265290898  0.000000000

  length of vectors
     5.454501090  5.454501090  5.454501090     0.285338650  0.285338650  0.375177987

  position of ions in fractional coordinates (direct lattice)
     0.000000000  0.000000000  0.000000000
     0.750000000  0.250000000  0.500000000
     0.957290572  0.457290572  0.500000000
     0.207290572  0.207290572  0.000000000
     0.542709428  0.042709428  0.500000000
     0.792709428  0.792709428  0.000000000

  ion indices of the primitive-cell ions
   primitive index   ion index
                 1           1
                 2           2
                 3           5
                 4           6
                 5           7
                 6          12

 KPOINTS: pymatgen v2020.8.13 with grid density =

Automatic generation of k-mesh.
 Grid dimensions read from file:
 generate k-points for:    6    6    2

 Generating k-lattice:

  Cartesian coordinates                     Fractional coordinates (reciprocal lattice)
     0.044215150 -0.000000000  0.000000000     0.166666667 -0.000000000  0.000000000
     0.000000000  0.044215150  0.000000000     0.000000000  0.166666667  0.000000000
    -0.000000000 -0.000000000  0.052533047    -0.000000000 -0.000000000  0.500000000

  Length of vectors
     0.044215150  0.044215150  0.052533047

  Shift w.r.t. Gamma in fractional coordinates (k-lattice)
     0.000000000  0.000000000  0.000000000

 Subroutine IBZKPT returns following result:

 Found     20 irreducible k-points:

 Following reciprocal coordinates:
            Coordinates               Weight
  0.000000  0.000000  0.000000      1.000000
  0.166667  0.000000  0.000000      4.000000
  0.333333  0.000000  0.000000      4.000000
  0.500000  0.000000  0.000000      2.000000
  0.166667  0.166667  0.000000      4.000000
  0.333333  0.166667  0.000000      8.000000
  0.500000  0.166667  0.000000      4.000000
  0.333333  0.333333  0.000000      4.000000
  0.500000  0.333333  0.000000      4.000000
  0.500000  0.500000  0.000000      1.000000
  0.000000  0.000000  0.500000      1.000000
  0.166667  0.000000  0.500000      4.000000
  0.333333  0.000000  0.500000      4.000000
  0.500000  0.000000  0.500000      2.000000
  0.166667  0.166667  0.500000      4.000000
  0.333333  0.166667  0.500000      8.000000
  0.500000  0.166667  0.500000      4.000000
  0.333333  0.333333  0.500000      4.000000
  0.500000  0.333333  0.500000      4.000000
  0.500000  0.500000  0.500000      1.000000

 Following cartesian coordinates:
            Coordinates               Weight
  0.000000  0.000000  0.000000      1.000000
  0.044215  0.000000  0.000000      4.000000
  0.088430  0.000000  0.000000      4.000000
  0.132645  0.000000  0.000000      2.000000
  0.044215  0.044215  0.000000      4.000000
  0.088430  0.044215  0.000000      8.000000
  0.132645  0.044215  0.000000      4.000000
  0.088430  0.088430  0.000000      4.000000
  0.132645  0.088430  0.000000      4.000000
  0.132645  0.132645  0.000000      1.000000
  0.000000  0.000000  0.052533      1.000000
  0.044215  0.000000  0.052533      4.000000
  0.088430  0.000000  0.052533      4.000000
  0.132645  0.000000  0.052533      2.000000
  0.044215  0.044215  0.052533      4.000000
  0.088430  0.044215  0.052533      8.000000
  0.132645  0.044215  0.052533      4.000000
  0.088430  0.088430  0.052533      4.000000
  0.132645  0.088430  0.052533      4.000000
  0.132645  0.132645  0.052533      1.000000

 Subroutine IBZKPT_HF returns following result:

 Found     72 k-points in 1st BZ
 the following     72 k-points will be used (e.g. in the exchange kernel)
 Following reciprocal coordinates:   # in IRBZ
  0.000000  0.000000  0.000000    0.01388889   1 t-inv F
  0.166667  0.000000  0.000000    0.01388889   2 t-inv F
  0.333333  0.000000  0.000000    0.01388889   3 t-inv F
  0.500000  0.000000  0.000000    0.01388889   4 t-inv F
  0.166667  0.166667  0.000000    0.01388889   5 t-inv F
  0.333333  0.166667  0.000000    0.01388889   6 t-inv F
  0.500000  0.166667  0.000000    0.01388889   7 t-inv F
  0.333333  0.333333  0.000000    0.01388889   8 t-inv F
  0.500000  0.333333  0.000000    0.01388889   9 t-inv F
  0.500000  0.500000  0.000000    0.01388889  10 t-inv F
  0.000000  0.000000  0.500000    0.01388889  11 t-inv F
  0.166667  0.000000  0.500000    0.01388889  12 t-inv F
  0.333333  0.000000  0.500000    0.01388889  13 t-inv F
  0.500000  0.000000  0.500000    0.01388889  14 t-inv F
  0.166667  0.166667  0.500000    0.01388889  15 t-inv F
  0.333333  0.166667  0.500000    0.01388889  16 t-inv F
  0.500000  0.166667  0.500000    0.01388889  17 t-inv F
  0.333333  0.333333  0.500000    0.01388889  18 t-inv F
  0.500000  0.333333  0.500000    0.01388889  19 t-inv F
  0.500000  0.500000  0.500000    0.01388889  20 t-inv F
  0.000000 -0.166667 -0.000000    0.01388889   2 t-inv F
 -0.166667 -0.000000  0.000000    0.01388889   2 t-inv F
 -0.000000  0.166667 -0.000000    0.01388889   2 t-inv F
  0.000000 -0.333333 -0.000000    0.01388889   3 t-inv F
 -0.333333 -0.000000  0.000000    0.01388889   3 t-inv F
 -0.000000  0.333333 -0.000000    0.01388889   3 t-inv F
  0.000000 -0.500000 -0.000000    0.01388889   4 t-inv F
  0.166667 -0.166667 -0.000000    0.01388889   5 t-inv F
 -0.166667 -0.166667  0.000000    0.01388889   5 t-inv F
 -0.166667  0.166667 -0.000000    0.01388889   5 t-inv F
  0.166667 -0.333333 -0.000000    0.01388889   6 t-inv F
 -0.333333 -0.166667  0.000000    0.01388889   6 t-inv F
 -0.166667  0.333333 -0.000000    0.01388889   6 t-inv F
  0.333333 -0.166667  0.000000    0.01388889   6 t-inv F
  0.166667  0.333333 -0.000000    0.01388889   6 t-inv F
 -0.333333  0.166667  0.000000    0.01388889   6 t-inv F
 -0.166667 -0.333333 -0.000000    0.01388889   6 t-inv F
  0.166667 -0.500000 -0.000000    0.01388889   7 t-inv F
 -0.500000 -0.166667  0.000000    0.01388889   7 t-inv F
 -0.166667  0.500000 -0.000000    0.01388889   7 t-inv F
  0.333333 -0.333333 -0.000000    0.01388889   8 t-inv F
 -0.333333 -0.333333  0.000000    0.01388889   8 t-inv F
 -0.333333  0.333333 -0.000000    0.01388889   8 t-inv F
  0.333333 -0.500000 -0.000000    0.01388889   9 t-inv F
 -0.500000 -0.333333  0.000000    0.01388889   9 t-inv F
 -0.333333  0.500000 -0.000000    0.01388889   9 t-inv F
  0.000000 -0.166667 -0.500000    0.01388889  12 t-inv F
 -0.166667 -0.000000  0.500000    0.01388889  12 t-inv F
 -0.000000  0.166667 -0.500000    0.01388889  12 t-inv F
  0.000000 -0.333333 -0.500000    0.01388889  13 t-inv F
 -0.333333 -0.000000  0.500000    0.01388889  13 t-inv F
 -0.000000  0.333333 -0.500000    0.01388889  13 t-inv F
  0.000000 -0.500000 -0.500000    0.01388889  14 t-inv F
  0.166667 -0.166667 -0.500000    0.01388889  15 t-inv F
 -0.166667 -0.166667  0.500000    0.01388889  15 t-inv F
 -0.166667  0.166667 -0.500000    0.01388889  15 t-inv F
  0.166667 -0.333333 -0.500000    0.01388889  16 t-inv F
 -0.333333 -0.166667  0.500000    0.01388889  16 t-inv F
 -0.166667  0.333333 -0.500000    0.01388889  16 t-inv F
  0.333333 -0.166667  0.500000    0.01388889  16 t-inv F
  0.166667  0.333333 -0.500000    0.01388889  16 t-inv F
 -0.333333  0.166667  0.500000    0.01388889  16 t-inv F
 -0.166667 -0.333333 -0.500000    0.01388889  16 t-inv F
  0.166667 -0.500000 -0.500000    0.01388889  17 t-inv F
 -0.500000 -0.166667  0.500000    0.01388889  17 t-inv F
 -0.166667  0.500000 -0.500000    0.01388889  17 t-inv F
  0.333333 -0.333333 -0.500000    0.01388889  18 t-inv F
 -0.333333 -0.333333  0.500000    0.01388889  18 t-inv F
 -0.333333  0.333333 -0.500000    0.01388889  18 t-inv F
  0.333333 -0.500000 -0.500000    0.01388889  19 t-inv F
 -0.500000 -0.333333  0.500000    0.01388889  19 t-inv F
 -0.333333  0.500000 -0.500000    0.01388889  19 t-inv F

 SYSTEM =  MgO-rocksalt
 POSCAR =  Ti4 O8

  energy-cutoff  :      520.00
  volume of cell :      135.24
      direct lattice vectors                 reciprocal lattice vectors
     3.769447070  0.000000000  0.000000000     0.265290898 -0.000000000  0.000000000
     0.000000000  3.769447070  0.000000000     0.000000000  0.265290898  0.000000000
     0.000000000  0.000000000  9.517818350    -0.000000000 -0.000000000  0.105066094

[...]

 k-points in units of 2pi/SCALE and weight: pymatgen v2020.8.13 with grid density =
   0.00000000  0.00000000  0.00000000       0.014
   0.04421515  0.00000000  0.00000000       0.056
   0.08843030  0.00000000  0.00000000       0.056
   0.13264545  0.00000000  0.00000000       0.028
   0.04421515  0.04421515  0.00000000       0.056
   0.08843030  0.04421515  0.00000000       0.111
   0.13264545  0.04421515  0.00000000       0.056
   0.08843030  0.08843030  0.00000000       0.056
   0.13264545  0.08843030  0.00000000       0.056
   0.13264545  0.13264545  0.00000000       0.014
   0.00000000  0.00000000  0.05253305       0.014
   0.04421515  0.00000000  0.05253305       0.056
   0.08843030  0.00000000  0.05253305       0.056
   0.13264545  0.00000000  0.05253305       0.028
   0.04421515  0.04421515  0.05253305       0.056
   0.08843030  0.04421515  0.05253305       0.111
   0.13264545  0.04421515  0.05253305       0.056
   0.08843030  0.08843030  0.05253305       0.056
   0.13264545  0.08843030  0.05253305       0.056
   0.13264545  0.13264545  0.05253305       0.014

 k-points in reciprocal lattice and weights: pymatgen v2020.8.13 with grid density =
   0.00000000  0.00000000  0.00000000       0.014
   0.16666667  0.00000000  0.00000000       0.056
   0.33333333  0.00000000  0.00000000       0.056
   0.50000000  0.00000000  0.00000000       0.028
   0.16666667  0.16666667  0.00000000       0.056
   0.33333333  0.16666667  0.00000000       0.111
   0.50000000  0.16666667  0.00000000       0.056
   0.33333333  0.33333333  0.00000000       0.056
   0.50000000  0.33333333  0.00000000       0.056
   0.50000000  0.50000000  0.00000000       0.014
   0.00000000  0.00000000  0.50000000       0.014
   0.16666667  0.00000000  0.50000000       0.056
   0.33333333  0.00000000  0.50000000       0.056
   0.50000000  0.00000000  0.50000000       0.028
   0.16666667  0.16666667  0.50000000       0.056
   0.33333333  0.16666667  0.50000000       0.111
   0.50000000  0.16666667  0.50000000       0.056
   0.33333333  0.33333333  0.50000000       0.056
   0.50000000  0.33333333  0.50000000       0.056
   0.50000000  0.50000000  0.50000000       0.014

 position of ions in fractional coordinates (direct lattice)
   0.50000000  0.50000000  0.50000000
   0.50000000  0.00000000  0.75000000
   0.00000000  0.00000000  0.00000000
   0.00000000  0.50000000  0.25000000
   0.00000000  0.50000000  0.45729057
   0.50000000  0.50000000  0.70729057
   0.50000000  0.00000000  0.54270943
   0.00000000  0.00000000  0.79270943
   0.50000000  0.00000000  0.95729057
   0.00000000  0.00000000  0.20729057
   0.00000000  0.50000000  0.04270943
   0.50000000  0.50000000  0.29270943

 position of ions in cartesian coordinates  (Angst):
   1.88472354  1.88472354  4.75890918
   1.88472354  0.00000000  7.13836376
   0.00000000  0.00000000  0.00000000
   0.00000000  1.88472354  2.37945459
   0.00000000  1.88472354  4.35240859
   1.88472354  1.88472354  6.73186318
   1.88472354  0.00000000  5.16540976
   0.00000000  0.00000000  7.54486434
   1.88472354  0.00000000  9.11131777
   0.00000000  0.00000000  1.97295401
   0.00000000  1.88472354  0.40650058
   1.88472354  1.88472354  2.78595517

--------------------------------------- Iteration      FINAL  ---------------------------------------

--------------------OUTCAR has been truncated-------------------------

[...]

--------------------OUTCAR has been truncated-------------------------

  FORCE on cell =-STRESS in cart. coord.  units (eV):
  Direction    XX          YY          ZZ          XY          YZ          ZX
  Alpha Z   254.46337   254.46337   254.46337
  Ewald   -1041.16570 -1041.16570  -869.81958     0.00000     0.00000     0.00000
  Hartree   361.01680   361.01680   423.20733    -0.00000    -0.00000    -0.00000
  E(xc)    -233.90737  -233.90737  -234.10079     0.00000    -0.00000    -0.00000
  Local    -319.55635  -319.55635  -547.13064    -0.00000    -0.00000    -0.00000
  n-local  -147.13081  -138.90481  -143.67619    -0.11366     0.00004     0.00001
  augment    66.75341    66.75341    66.86981    -0.00000    -0.00000    -0.00000
  Kinetic  1158.33276  1172.23366  1160.56596    -1.01414    -0.00003     0.00013
  Fock     -107.77109  -106.43230  -107.81130     0.02553     0.00000    -0.00000
  vdW        -2.77647    -2.77649    -2.64442    -0.00000    -0.00000    -0.00000
  Total      -0.00862    -0.00862    -0.07646     0.00000    -0.00000    -0.00000
  in kB      -0.10212    -0.10212    -0.90588     0.00000    -0.00000    -0.00000

 VOLUME and BASIS-vectors are now :
  energy-cutoff  :      520.00
  volume of cell :      135.24
      direct lattice vectors                 reciprocal lattice vectors
     3.769447070  0.000000000  0.000000000     0.265290898 -0.000000000  0.000000000
     0.000000000  3.769447070  0.000000000     0.000000000  0.265290898  0.000000000
     0.000000000  0.000000000  9.517818350    -0.000000000 -0.000000000  0.105066094

  length of vectors
     3.769447070  3.769447070  9.517818350     0.265290898  0.265290898  0.105066094

 FORCES acting on ions:
    Electron-Ion                     Ewald-Force                    Non-Local-Force
   0.162E-14 -.313E-13 -.112E-13   -.314E-14 0.830E-16 0.426E-13   0.169E-20 -.847E-21 -.985E-17
   0.284E-14 0.243E-13 -.933E-13   -.626E-14 0.425E-15 0.266E-13   -.265E-21 0.339E-20 0.122E-16
   -.106E-14 -.412E-13 0.213E-13   -.307E-14 -.105E-15 -.355E-13   0.000E+00 -.249E-20 0.482E-17
   0.125E-14 0.337E-13 0.646E-13   -.617E-14 0.495E-15 0.355E-13   0.000E+00 0.127E-20 -.430E-16
   -.162E-13 0.305E-12 -.442E+02   -.187E-14 0.107E-14 0.516E+02   0.000E+00 0.106E-21 -.645E+01
   0.163E-12 0.805E-12 -.442E+02   -.464E-14 -.447E-14 0.516E+02   0.463E-21 -.185E-20 -.645E+01
   0.145E-12 -.551E-13 0.442E+02   0.544E-14 0.418E-14 -.516E+02   -.424E-21 0.180E-20 0.645E+01
   0.119E-13 -.222E-12 0.442E+02   0.148E-13 -.270E-14 -.516E+02   -.212E-21 -.106E-21 0.645E+01
   0.128E-12 0.215E-12 -.442E+02   -.461E-14 0.374E-14 0.516E+02   0.169E-20 0.000E+00 -.645E+01
   0.174E-13 0.400E-13 -.442E+02   -.371E-14 -.209E-14 0.516E+02   -.212E-21 -.529E-22 -.645E+01
   -.149E-13 0.504E-13 0.442E+02   0.649E-14 0.702E-14 -.516E+02   0.424E-21 0.000E+00 0.645E+01
   0.152E-12 -.475E-12 0.442E+02   0.121E-13 0.301E-15 -.516E+02   -.148E-20 -.132E-22 0.645E+01
   0.109E-02 -.188E-03 -.355E-03   0.533E-14 0.795E-14 0.426E-13   0.168E-20 0.120E-20 0.355E-14

 POSITION                                       TOTAL-FORCE (eV/Angst)
      1.88472      1.88472      4.75891        -0.000000     -0.000000      0.000000
      1.88472      0.00000      7.13836         0.000000      0.000000      0.000000
      0.00000      0.00000      0.00000        -0.000000      0.000000      0.000000
      0.00000      1.88472      2.37945         0.000000      0.000000      0.000000
      0.00000      1.88472      4.35241         0.000000      0.000000      0.006610
      1.88472      1.88472      6.73186         0.000000     -0.000000      0.006610
      1.88472      0.00000      5.16541        -0.000000      0.000000     -0.006610
      0.00000      0.00000      7.54486        -0.000000     -0.000000     -0.006610
      1.88472      0.00000      9.11132         0.000000      0.000000      0.006610
      0.00000      0.00000      1.97295        -0.000000      0.000000      0.006610
      0.00000      1.88472      0.40650         0.000000      0.000000     -0.006610
      1.88472      1.88472      2.78596        -0.000000     -0.000000     -0.006610
    total drift:                                0.001091     -0.000188     -0.000355

  FREE ENERGIE OF THE ION-ELECTRON SYSTEM (eV)
  free  energy   TOTEN  =      -132.41086338 eV

  energy  without entropy=     -132.41086338  energy(sigma->0) =     -132.41086338

 reached required accuracy - stopping structural energy minimisation