 vasp.6.3.0 20Jan22 (build Apr  1 2022 16:44:48) complex
 executed on        HPECrayEX_GCC date 2023.04.10  21:46:19

 INCAR:
   SYSTEM = TiO2
   ISMEAR = 0
   SIGMA = 0.05
   EDIFF = 1E-7
   ALGO = ALL
   ISTART = 0
   IBRION = 2
   NSW = 1000
   ISYM = 0
   ISIF = 2
   EDIFFG = -0.01
   DIPOL = 0.5 0.5 0.5
   IDIPOL = 3
   LDIPOL = .TRUE.
   GGA = RE
   IVDW = 13
   VDW_S8 = 1.7468
   VDW_A1 = 0.5363
   VDW_A2 = 3.0726
   ENCUT = 600
   PREC = Accurate
   LASPH = .TRUE.
   LREAL = .FALSE.
   ISPIN = 1
   NELM = 200
   NELMIN = 8
   NCORE = 8
   KPAR = 1
   LWAVE = .FALSE.
   LCHARG = .FALSE.

 POTCAR:    PAW_PBE C 08Apr2002
 POTCAR:    PAW_PBE O 08Apr2002
 POTCAR:    PAW_PBE Ti_pv 07Sep2000
 POTCAR:    PAW_PBE O 08Apr2002
 POTCAR:    PAW_PBE C 08Apr2002
   VRHFIN =C: s2p2

   TITEL  = PAW_PBE C 08Apr2002
   POMASS =   12.011; ZVAL   =    4.000    mass and valenz
   ENMAX  =  400.000; ENMIN  =  300.000 eV

[...]

   TITEL  = PAW_PBE Ti_pv 07Sep2000
   POMASS =   47.880; ZVAL   =   10.000    mass and valenz
   ENMAX  =  222.335; ENMIN  =  166.751 eV

   TITEL  = PAW_PBE O 08Apr2002
   POMASS =   16.000; ZVAL   =    6.000    mass and valenz
   ENMAX  =  400.000; ENMIN  =  300.000 eV

  PAW_PBE C 08Apr2002                   :
  PAW_PBE O 08Apr2002                   :
  PAW_PBE Ti_pv 07Sep2000               :
  PAW_PBE O 08Apr2002                   :

 POSCAR:  C  O Ti  O
  positions in direct lattice
|           W    W    AA    RRRRR   N    N  II  N    N   GGGG   !!!           |
|           W    W   A  A   R    R  NN   N  II  NN   N  G    G  !!!           |
|           W    W  A    A  R    R  N N  N  II  N N  N  G       !!!           |
|           W WW W  AAAAAA  RRRRR   N  N N  II  N  N N  G  GGG   !            |
|           WW  WW  A    A  R   R   N   NN  II  N   NN  G    G                |
|           W    W  A    A  R    R  N    N  II  N    N   GGGG   !!!           |
|     Specifying the vdW parameters                                           |
|     VDW_S8 = 1.747                                                          |
|     VDW_A1 = 0.536                                                          |
|     VDW_A2 = 3.073                                                          |
|     in the INCAR file will overwrite the defaults for revpbe. Please        |
|     make sure that is what you intended.                                    |

 ion  position               nearest neighbor table
   1  0.500  0.610  0.803-   2 1.18   3 1.18
   2  0.500  0.708  0.808-   1 1.18
   3  0.500  0.512  0.796-   1 1.18
   4  0.750  0.625  0.287-  85 1.95 145 1.95 144 1.95  84 1.95  87 1.98 166 1.98  14 2.96  34 2.96

   5  0.000  0.750  0.287-  86 1.95  87 1.95 106 1.95 107 1.95  88 1.98  35 2.96  15 2.96
   6  0.000  0.625  0.394-  88 1.95 148 1.95  89 1.95 149 1.95  90 1.98  91 1.98  16 2.96  36 2.96

[...]

  83  0.500  0.500  0.708- 237 1.81 182 1.95 242 1.95 183 1.95 243 1.95  73 2.96  53 2.96
  84  0.750  0.750  0.245-   4 1.95  14 1.95
  85  0.750  0.750  0.329-   4 1.95  14 1.95   7 1.98
  86  0.098  0.625  0.287-   5 1.95  35 1.95  44 1.98
  87  0.902  0.625  0.287-   5 1.95  35 1.95   4 1.98
  88  0.000  0.750  0.352-   6 1.95  16 1.95   5 1.98
  89  0.000  0.750  0.435-   6 1.95  16 1.95   9 1.98
  90  0.848  0.625  0.394-   7 1.95  37 1.95   6 1.98
  91  0.152  0.625  0.394-  47 1.95  77 1.95   6 1.98
  92  0.750  0.750  0.458-   8 1.95  18 1.95   7 1.98
  93  0.750  0.750  0.542-   8 1.95  18 1.95  11 2.11
  94  0.098  0.625  0.500-   9 1.95  39 1.95  48 1.98
  95  0.902  0.625  0.500-   9 1.95  39 1.95   8 1.98
  96  1.000  0.750  0.565-  10 1.89  20 1.89   9 2.00
  97  0.000  0.750  0.649-  13 1.81  20 2.02  10 2.02
  98  0.850  0.625  0.607-  10 1.95  41 1.97  11 1.97
  99  0.150  0.625  0.607-  10 1.95  51 1.97  81 1.97
 100  0.750  0.750  0.672-  11 1.86  22 2.10  12 2.10
 101  0.750  0.750  0.756-  12 1.83  22 1.83
 102  0.094  0.625  0.719-  13 1.95  43 1.95  52 2.03
 103  0.906  0.625  0.719-  13 1.95  43 1.95  12 2.03
 104  0.750  0.000  0.245-  14 1.95  24 1.95
 105  0.750  0.000  0.329-  14 1.95  24 1.95  17 1.98
 106  0.098  0.875  0.287-   5 1.95  15 1.95  54 1.98
 107  0.902  0.875  0.287-   5 1.95  15 1.95  14 1.98
 108  0.000  0.000  0.352-  16 1.95  26 1.95  15 1.98
 109  0.000  0.000  0.435-  16 1.95  26 1.95  19 1.98
 110  0.848  0.875  0.394-   7 1.95  17 1.95  16 1.98
 111  0.152  0.875  0.394-  47 1.95  57 1.95  16 1.98
 112  0.750  0.000  0.458-  18 1.95  28 1.95  17 1.98
 113  0.750  0.000  0.542-  18 1.95  28 1.95  21 2.11
 114  0.098  0.875  0.500-   9 1.95  19 1.95  58 1.98
 115  0.902  0.875  0.500-   9 1.95  19 1.95  18 1.98
 116  1.000  0.000  0.565-  30 1.89  20 1.89  19 2.00
 117  0.000  1.000  0.649-  23 1.81  20 2.02  30 2.02
 118  0.850  0.875  0.607-  20 1.95  21 1.97  11 1.97
 119  0.150  0.875  0.607-  20 1.95  51 1.97  61 1.97
 120  0.750  0.000  0.672-  21 1.86  32 2.10  22 2.10
 121  0.750  1.000  0.756-  22 1.83  32 1.83
 122  0.094  0.875  0.719-  23 1.95  13 1.95  62 2.03
 123  0.906  0.875  0.719-  23 1.95  13 1.95  22 2.03
 124  0.750  0.250  0.245-  24 1.95  34 1.95
 125  0.750  0.250  0.329-  24 1.95  34 1.95  27 1.98
 126  0.098  0.125  0.287-  15 1.95  25 1.95  64 1.98
 127  0.902  0.125  0.287-  15 1.95  25 1.95  24 1.98
 128  0.000  0.250  0.352-  26 1.95  36 1.95  25 1.98
 129  0.000  0.250  0.435-  26 1.95  36 1.95  29 1.98
 130  0.848  0.125  0.394-  17 1.95  27 1.95  26 1.98
 131  0.152  0.125  0.394-  57 1.95  67 1.95  26 1.98
 132  0.750  0.250  0.458-  28 1.95  38 1.95  27 1.98
 133  0.750  0.250  0.542-  28 1.95  38 1.95  31 2.11
 134  0.098  0.125  0.500-  19 1.95  29 1.95  68 1.98
 135  0.902  0.125  0.500-  19 1.95  29 1.95  28 1.98
 136  1.000  0.250  0.565-  40 1.89  30 1.89  29 2.00
 137  1.000  0.250  0.649-  33 1.81  30 2.02  40 2.02
 138  0.850  0.125  0.607-  30 1.95  31 1.97  21 1.97
 139  0.150  0.125  0.607-  30 1.95  61 1.97  71 1.97
 140  0.750  0.250  0.672-  31 1.86  32 2.10  42 2.10
 141  0.750  0.250  0.756-  42 1.83  32 1.83
 142  0.094  0.125  0.719-  23 1.95  33 1.95  72 2.03
[...]
 229  0.500  0.500  0.435-  46 1.95  76 1.95  79 1.98
 230  0.348  0.375  0.394-  67 1.95  77 1.95  76 1.98
 231  0.652  0.375  0.394-  27 1.95  37 1.95  76 1.98
 232  0.250  0.500  0.458-  48 1.95  78 1.95  77 1.98
 233  0.250  0.500  0.542-  48 1.95  78 1.95  81 2.11
 234  0.598  0.375  0.500-  69 1.95  79 1.95  38 1.98
 235  0.402  0.375  0.500-  69 1.95  79 1.95  78 1.98
 236  0.500  0.500  0.565-  80 1.89  50 1.89  79 2.00
 237  0.500  0.500  0.649-  83 1.81  50 2.02  80 2.02
 238  0.350  0.375  0.607-  80 1.95  71 1.97  81 1.97
 239  0.650  0.375  0.607-  80 1.95  41 1.97  31 1.97
 240  0.250  0.500  0.672-  81 1.86  52 2.10  82 2.10
 241  0.250  0.500  0.756-  52 1.83  82 1.83
 242  0.594  0.375  0.719-  73 1.95  83 1.95  42 2.03
 243  0.406  0.375  0.719-  73 1.95  83 1.95  82 2.03

IMPORTANT INFORMATION: All symmetrisations will be switched off!
NOSYMM: (Re-)initialisation of all symmetry stuff for point group C_1.

                                     Primitive cell

  volume of cell :    4700.2961

  direct lattice vectors                    reciprocal lattice vectors
    13.003980404  0.000000000  0.000000000     0.076899531  0.000000000  0.000000000
     0.000000000 11.830378115  0.000000000     0.000000000  0.084528152  0.000000000
     0.000000000  0.000000000 30.552748813     0.000000000  0.000000000  0.032730279

  length of vectors
    13.003980404 11.830378115 30.552748813     0.076899531  0.084528152  0.032730279

  position of ions in fractional coordinates (direct lattice)
     0.499999610  0.610217920  0.802519727
     0.499999569  0.708495646  0.808223049
     0.499999671  0.511788722  0.795831358
     0.750000000  0.625000000  0.287188045
     0.000000000  0.750000000  0.287188045
     0.000000000  0.625000000  0.393594023
     0.750000000  0.750000000  0.393594023
     0.750000000  0.625000000  0.500000000
     0.000000000  0.750000000  0.500000000
     0.999999955  0.625000002  0.604130556
     0.749999964  0.750000003  0.610777676
     0.750000006  0.625000015  0.720488722
     0.000000007  0.749999999  0.708137356
     0.750000000  0.875000000  0.287188045
     0.000000000  0.000000000  0.287188045
     0.000000000  0.875000000  0.393594023
     0.750000000  0.000000000  0.393594023
     0.750000000  0.875000000  0.500000000
     0.000000000  0.000000000  0.500000000
     0.999999988  0.875000010  0.604130566
     0.750000007  0.000000005  0.610777698
     0.750000008  0.875000003  0.720488715
     0.000000013  0.000000002  0.708137369
     0.750000000  0.125000000  0.287188045
     0.000000000  0.250000000  0.287188045
     0.000000000  0.125000000  0.393594023
     0.750000000  0.250000000  0.393594023
     0.750000000  0.125000000  0.500000000
     0.000000000  0.250000000  0.500000000
     0.000000025  0.125000008  0.604130562
     0.750000035  0.250000018  0.610777675
     0.750000000  0.125000012  0.720488716
     0.999999975  0.249999992  0.708137360
     0.750000000  0.375000000  0.287188045
     0.000000000  0.500000000  0.287188045
     0.000000000  0.375000000  0.393594023
     0.750000000  0.500000000  0.393594023
     0.750000000  0.375000000  0.500000000
     0.000000000  0.500000000  0.500000000
     0.000000044  0.374999984  0.604130557
     0.749999994  0.499999982  0.610777696
     0.749999991  0.374999994  0.720488723
     0.000000003  0.499999993  0.708137373
     0.250000000  0.625000000  0.287188045
     0.500000000  0.750000000  0.287188045
     0.500000000  0.625000000  0.393594023
     0.250000000  0.750000000  0.393594023
     0.250000000  0.625000000  0.500000000
     0.500000000  0.750000000  0.500000000
     0.499999991  0.624999998  0.604130558
     0.249999964  0.749999998  0.610777689
     0.250000005  0.625000004  0.720488721
     0.500000001  0.750000008  0.708137359
     0.250000000  0.875000000  0.287188045
     0.500000000  0.000000000  0.287188045
     0.500000000  0.875000000  0.393594023
     0.250000000  0.000000000  0.393594023
     0.250000000  0.875000000  0.500000000
     0.500000000  0.000000000  0.500000000
     0.499999981  0.875000006  0.604130559
[...]
     0.500000000  0.500000000  0.435304973
     0.347999548  0.375000000  0.393594023
     0.652000452  0.375000000  0.393594023
     0.250000000  0.500000000  0.458289049
     0.250000000  0.500000000  0.541710951
     0.597999548  0.375000000  0.500000000
     0.402000452  0.375000000  0.500000000
     0.499999995  0.499999996  0.565347940
     0.500000004  0.499999996  0.648994558
     0.350197920  0.374999994  0.607139181
     0.649802075  0.374999993  0.607139172
     0.249999993  0.499999995  0.671650649
     0.249999997  0.500000011  0.755932774
     0.594073977  0.374999992  0.718728066
     0.405926019  0.375000002  0.718728071

  ion indices of the primitive-cell ions
   primitive index   ion index
                 1           1
                 2           2
                 3           3
                 4           4
                 5           5
                 6           6
                 7           7
                 8           8
                 9           9
[...]
[...]
   6.50199020  5.91518906 13.29976351
   4.52537931  4.43639179 12.02537931
   8.47860110  4.43639179 12.02537931
   3.25099510  5.91518906 14.00199020
   3.25099510  5.91518906 16.55075861
   7.77637441  4.43639179 15.27637441
   5.22760600  4.43639179 15.27637441
   6.50199013  5.91518901 17.27293360
   6.50199025  5.91518901 19.82856771
   4.55396689  4.43639172 18.54977089
   8.45001345  4.43639171 18.54977063
   3.25099501  5.91518900 20.52077357
   3.25099506  5.91518919 23.09582416
   7.72532635  4.43639170 21.95911805
   5.27865399  4.43639182 21.95911821

--------------------------------------- Iteration      FINAL  ---------------------------------------

--------------------OUTCAR has been truncated-------------------------

[...]

--------------------OUTCAR has been truncated-------------------------

  FORCE on cell =-STRESS in cart. coord.  units (eV):
  Direction    XX          YY          ZZ          XY          YZ          ZX
  Alpha Z  4721.77504  4721.77504  4721.77504
  Ewald  971201.58764989393.71688************    -0.00102   118.73900     0.00045
  Hartree************************************    -0.00048    55.88381     0.00046
  E(xc)   -8693.93497 -8664.10365 -8707.82934    -0.00000     0.39111    -0.00000
  Local  ************************************     0.00141  -163.78441    -0.00093
  n-local -5386.59756 -5315.79645 -5432.60271     0.00001    -0.87719     0.00000
  augment  5228.82536  5212.04095  5230.94189     0.00000    -0.41464     0.00000
  Kinetic 28988.82608 28449.99069 29031.92375     0.00009    -9.91600     0.00002
  Fock        0.00000     0.00000     0.00000     0.00000     0.00000     0.00000
  vdW      -131.21277  -130.50332  -118.12617     0.00000    -0.00949    -0.00000
  Total      13.73995   -29.69542   -31.99048     0.00000     0.01218    -0.00000
  in kB       4.68350   -10.12220   -10.90451     0.00000     0.00415    -0.00000

 VOLUME and BASIS-vectors are now :
  energy-cutoff  :      600.00
  volume of cell :     4700.30
      direct lattice vectors                 reciprocal lattice vectors
    13.003980404  0.000000000  0.000000000     0.076899531  0.000000000  0.000000000
     0.000000000 11.830378115  0.000000000     0.000000000  0.084528152  0.000000000
     0.000000000  0.000000000 30.552748813     0.000000000  0.000000000  0.032730279

  length of vectors
    13.003980404 11.830378115 30.552748813     0.076899531  0.084528152  0.032730279

 FORCES acting on ions:
    Electron-Ion                     Ewald-Force                    Non-Local-Force
   -.842E-04 0.356E+01 -.160E+04   0.842E-04 -.355E+01 0.160E+04   0.550E-06 -.781E-02 -.220E-01
   0.105E-03 -.272E+03 -.237E+04   -.191E-03 0.335E+03 0.238E+04   0.873E-04 -.631E+02 -.102E+02
   -.500E-03 0.269E+03 -.242E+04   0.579E-03 -.331E+03 0.241E+04   -.787E-04 0.619E+02 0.718E+01
   -.240E+00 -.213E-02 0.379E+04   0.240E+00 0.219E-02 -.380E+04   0.935E-04 -.491E-07 0.454E+00
   0.497E-06 -.658E-01 0.398E+04   -.494E-06 0.659E-01 -.397E+04   -.287E-09 -.161E-04 -.403E+01
   0.126E-05 -.874E-02 0.194E+04   -.125E-05 0.874E-02 -.194E+04   0.916E-08 0.108E-04 -.465E-01
   -.463E+00 -.144E+00 0.194E+04   0.461E+00 0.145E+00 -.194E+04   0.242E-03 0.217E-04 0.205E+00
   -.211E+01 -.200E-01 0.169E+02   0.210E+01 0.193E-01 -.160E+02   0.124E-02 0.108E-03 -.139E+00
   -.169E-05 -.724E+00 0.263E+02   0.141E-05 0.727E+00 -.274E+02   0.118E-06 -.764E-03 0.358E+00
   -.854E-04 -.401E+00 -.185E+04   0.862E-04 0.401E+00 0.185E+04   -.169E-07 -.583E-03 0.127E-01
   -.128E+02 -.562E+01 -.190E+04   0.128E+02 0.562E+01 0.190E+04   -.333E-02 -.334E-02 -.876E-01
   -.854E+02 -.463E+01 -.370E+04   0.854E+02 0.464E+01 0.370E+04   0.723E-02 -.382E-03 -.189E+00
   0.158E-03 -.755E+01 -.376E+04   -.159E-03 0.755E+01 0.376E+04   0.326E-06 -.345E-02 0.103E+01
   -.235E+00 -.960E-01 0.379E+04   0.235E+00 0.965E-01 -.380E+04   0.122E-03 -.341E-04 0.454E+00
   0.399E-06 -.613E-01 0.398E+04   -.398E-06 0.614E-01 -.397E+04   -.152E-08 -.105E-04 -.403E+01
   0.753E-06 -.196E+00 0.194E+04   -.733E-06 0.196E+00 -.194E+04   -.460E-08 -.792E-06 -.466E-01
   -.455E+00 -.147E+00 0.194E+04   0.454E+00 0.147E+00 -.194E+04   0.313E-03 0.338E-04 0.204E+00
   -.212E+01 -.116E+01 0.156E+02   0.212E+01 0.117E+01 -.148E+02   0.917E-03 -.122E-02 -.140E+00
   -.297E-05 -.613E+00 0.250E+02   0.273E-05 0.616E+00 -.261E+02   0.220E-06 -.446E-03 0.358E+00
   0.539E-04 -.364E+01 -.185E+04   -.544E-04 0.364E+01 0.185E+04   -.227E-06 -.132E-02 0.122E-01
   -.876E+01 -.403E+01 -.191E+04   0.876E+01 0.403E+01 0.191E+04   0.105E-02 -.481E-03 -.817E-01
   -.459E+02 -.316E+02 -.374E+04   0.459E+02 0.316E+02 0.374E+04   0.164E-01 -.170E-02 -.216E+00
   0.417E-04 -.581E+01 -.377E+04   -.410E-04 0.581E+01 0.377E+04   -.911E-07 -.836E-03 0.104E+01
   -.229E+00 0.212E-02 0.379E+04   0.228E+00 -.218E-02 -.380E+04   0.129E-03 0.110E-05 0.454E+00
   0.397E-06 0.658E-01 0.398E+04   -.393E-06 -.659E-01 -.397E+04   -.456E-08 0.157E-04 -.403E+01
   0.253E-06 0.865E-02 0.194E+04   -.239E-06 -.869E-02 -.194E+04   -.179E-08 -.307E-05 -.467E-01
   -.439E+00 0.144E+00 0.194E+04   0.438E+00 -.145E+00 -.194E+04   0.271E-03 -.177E-04 0.204E+00
   -.194E+01 0.219E-01 0.145E+02   0.194E+01 -.227E-01 -.136E+02   0.108E-02 0.278E-05 -.142E+00
   0.157E-05 0.722E+00 0.252E+02   -.214E-05 -.725E+00 -.263E+02   0.305E-06 0.760E-03 0.359E+00
   0.217E-03 0.309E+00 -.185E+04   -.217E-03 -.309E+00 0.185E+04   -.624E-07 0.127E-02 0.152E-01
   -.924E+01 0.525E+01 -.191E+04   0.924E+01 -.525E+01 0.191E+04   -.175E-02 0.208E-02 -.830E-01
   -.244E+02 0.320E+01 -.375E+04   0.244E+02 -.320E+01 0.375E+04   0.862E-02 -.159E-02 -.216E+00
   0.936E-04 0.663E+01 -.377E+04   -.964E-04 -.663E+01 0.377E+04   0.316E-06 0.312E-02 0.103E+01
   -.233E+00 0.960E-01 0.379E+04   0.233E+00 -.965E-01 -.380E+04   0.991E-04 0.332E-04 0.454E+00
   0.495E-06 0.613E-01 0.398E+04   -.490E-06 -.614E-01 -.397E+04   -.412E-08 0.105E-04 -.403E+01
   0.819E-06 0.196E+00 0.194E+04   -.833E-06 -.196E+00 -.194E+04   0.341E-09 -.411E-05 -.466E-01
   -.447E+00 0.146E+00 0.194E+04   0.446E+00 -.147E+00 -.194E+04   0.167E-03 -.410E-04 0.205E+00
   -.193E+01 0.116E+01 0.157E+02   0.192E+01 -.117E+01 -.149E+02   0.105E-02 0.115E-02 -.140E+00
   0.390E-05 0.620E+00 0.264E+02   -.440E-05 -.623E+00 -.276E+02   0.231E-06 0.326E-03 0.358E+00
   0.317E-03 0.368E+01 -.185E+04   -.319E-03 -.368E+01 0.185E+04   -.281E-06 0.817E-03 0.127E-01
   -.133E+02 0.438E+01 -.190E+04   0.133E+02 -.438E+01 0.190E+04   -.418E-02 0.102E-02 -.908E-01
   -.551E+02 0.332E+02 -.373E+04   0.551E+02 -.332E+02 0.373E+04   0.109E-01 0.530E-02 -.209E+00
   0.926E-04 0.657E+01 -.376E+04   -.936E-04 -.657E+01 0.376E+04   0.367E-07 0.274E-02 0.102E+01
   0.240E+00 -.213E-02 0.379E+04   -.240E+00 0.219E-02 -.380E+04   -.934E-04 -.466E-07 0.454E+00
   -.492E-06 -.731E-01 0.398E+04   0.493E-06 0.734E-01 -.397E+04   0.195E-08 -.328E-04 -.403E+01
   -.128E-05 0.189E-01 0.195E+04   0.127E-05 -.164E-01 -.194E+04   0.676E-08 -.534E-03 -.467E-01
   0.463E+00 -.144E+00 0.194E+04   -.461E+00 0.145E+00 -.194E+04   -.242E-03 0.218E-04 0.205E+00
   0.211E+01 -.200E-01 0.169E+02   -.210E+01 0.193E-01 -.160E+02   -.124E-02 0.108E-03 -.139E+00
   -.183E-04 -.758E+00 0.307E+02   0.185E-04 0.746E+00 -.317E+02   0.140E-06 0.783E-02 0.348E+00
   -.960E-04 -.142E+01 -.182E+04   0.973E-04 0.144E+01 0.182E+04   -.230E-06 -.168E-01 0.178E-01
   0.128E+02 -.562E+01 -.190E+04   -.128E+02 0.562E+01 0.190E+04   0.333E-02 -.334E-02 -.876E-01
   0.854E+02 -.463E+01 -.370E+04   -.854E+02 0.464E+01 0.370E+04   -.723E-02 -.382E-03 -.189E+00
   -.202E-03 -.685E+02 -.362E+04   0.201E-03 0.686E+02 0.362E+04   -.170E-06 -.158E-01 0.112E+01
   0.235E+00 -.960E-01 0.379E+04   -.235E+00 0.965E-01 -.380E+04   -.122E-03 -.341E-04 0.454E+00
   -.384E-06 -.717E-01 0.398E+04   0.386E-06 0.719E-01 -.397E+04   0.254E-08 -.155E-04 -.403E+01
   -.695E-06 -.205E+00 0.195E+04   0.661E-06 0.207E+00 -.194E+04   0.675E-08 -.547E-03 -.469E-01
   0.455E+00 -.147E+00 0.194E+04   -.454E+00 0.147E+00 -.194E+04   -.313E-03 0.337E-04 0.204E+00
   0.212E+01 -.116E+01 0.156E+02   -.212E+01 0.117E+01 -.148E+02   -.917E-03 -.122E-02 -.140E+00
   0.622E-06 -.924E+00 0.296E+02   -.141E-05 0.926E+00 -.307E+02   0.316E-06 0.459E-03 0.347E+00
   -.799E-04 -.105E+02 -.183E+04   0.804E-04 0.105E+02 0.183E+04   0.330E-07 -.246E-02 -.195E-01
[...]
   -.531E+02 0.124E+00 0.116E+04   0.571E+02 -.125E+00 -.116E+04   -.356E+01 0.114E-02 0.157E+00
   0.531E+02 0.124E+00 0.116E+04   -.571E+02 -.125E+00 -.116E+04   0.356E+01 0.114E-02 0.157E+00
   0.655E+00 0.240E+00 0.515E+03   -.653E+00 -.242E+00 -.519E+03   -.333E-02 0.465E-02 0.415E+01
   0.232E+01 0.938E+00 -.511E+03   -.231E+01 -.939E+00 0.518E+03   -.459E-02 0.257E-02 -.719E+01
   -.561E+02 0.655E+00 0.168E+02   0.608E+02 -.659E+00 -.170E+02   -.521E+01 0.109E-01 0.354E+00
   0.561E+02 0.655E+00 0.168E+02   -.608E+02 -.659E+00 -.170E+02   0.521E+01 0.109E-01 0.354E+00
   0.363E-04 0.139E+01 -.607E+03   -.404E-04 -.135E+01 0.601E+03   0.405E-05 -.444E-01 0.650E+01
   -.747E-04 0.760E+01 -.156E+04   0.787E-04 -.749E+01 0.156E+04   -.416E-05 -.109E+00 0.237E+01
   -.216E+02 0.526E+01 -.111E+04   0.246E+02 -.529E+01 0.111E+04   -.299E+01 0.278E-01 0.873E+00
   0.216E+02 0.526E+01 -.111E+04   -.246E+02 -.529E+01 0.111E+04   0.299E+01 0.279E-01 0.873E+00
   0.232E+02 0.759E+01 -.179E+04   -.232E+02 -.768E+01 0.179E+04   0.821E-01 0.830E-01 -.222E+01
   0.691E+02 0.208E+02 -.270E+04   -.689E+02 -.208E+02 0.272E+04   -.212E+00 -.939E-03 -.207E+02
   -.530E+02 0.484E+02 -.228E+04   0.591E+02 -.484E+02 0.229E+04   -.605E+01 0.690E-01 -.349E+01
   0.530E+02 0.484E+02 -.228E+04   -.591E+02 -.484E+02 0.229E+04   0.605E+01 0.690E-01 -.349E+01
   0.127E-03 0.873E+00 0.968E+02   0.306E-11 0.200E-11 0.132E-10   -.125E-03 -.870E+00 -.969E+02

 POSITION                                       TOTAL-FORCE (eV/Angst)
      6.50199      7.21853     24.52568         0.000000      0.005669      0.002108
      6.50198      8.38255     24.69094         0.000001      0.001123     -0.001599
      6.50199      6.05266     24.33079         0.000000     -0.004654      0.003432
      9.75299      7.39399      8.77438        -0.000238      0.000045     -3.375652
      0.00000      8.87278      8.77438        -0.000000      0.000099      2.809182
      0.00000      7.39399     12.02538         0.000000      0.000006      0.541854
      9.75299      8.87278     12.02538        -0.000861      0.000567     -0.705404
      9.75299      7.39399     15.27637        -0.004874     -0.000498      0.701043
      0.00000      8.87278     15.27637        -0.000000      0.002575     -0.761826
     13.00398      7.39414     18.45787        -0.000000     -0.000195      0.001137
      9.75327      8.87320     18.65847         0.000166      0.000073      0.000478
      9.75303      7.39516     22.00370         0.000592      0.001382      0.000079
      0.00000      8.87335     21.63640        -0.000001      0.000989      0.002164
      9.75299     10.35158      8.77438        -0.000287      0.000425     -3.375610
      0.00000      0.00000      8.77438        -0.000000      0.000076      2.809076
      0.00000     10.35158     12.02538         0.000000      0.000284      0.542039
      9.75299      0.00000     12.02538        -0.001090      0.000391     -0.703497
      9.75299     10.35158     15.27637        -0.003826      0.014355      0.709924
      0.00000      0.00000     15.27637        -0.000000      0.002225     -0.760598
     13.00398     10.35169     18.45827        -0.000001     -0.000172      0.001471
      9.75277      0.00015     18.66152         0.000192     -0.000594      0.000314
      9.75138     10.35149     22.01403         0.000027     -0.002212      0.000533
     -0.00000     -0.00017     21.63685         0.000001     -0.001805      0.001941
      9.75299      1.47880      8.77438        -0.000295     -0.000070     -3.375501
      0.00000      2.95759      8.77438        -0.000000     -0.000130      2.809114
      0.00000      1.47880     12.02538         0.000000     -0.000056      0.542164
      9.75299      2.95759     12.02538        -0.000936     -0.000588     -0.703460
      9.75299      1.47880     15.27637        -0.003902     -0.000915      0.719023
      0.00000      2.95759     15.27637        -0.000000     -0.002672     -0.760772
      0.00000      1.47864     18.45845         0.000001      0.000367      0.001291
      9.75326      2.95720     18.66142         0.000528      0.000172     -0.000640
      9.75215      1.47891     22.01326         0.000190     -0.000868     -0.000687
      0.00000      2.95722     21.63680        -0.000002      0.000735      0.001075
      9.75299      4.43639      8.77438        -0.000245     -0.000429     -3.375567
      0.00000      5.91519      8.77438        -0.000000     -0.000086      2.809214
      0.00000      4.43639     12.02538        -0.000000     -0.000274      0.541981
      9.75299      5.91519     12.02538        -0.000717     -0.000417     -0.705282
      9.75299      4.43639     15.27637        -0.004826     -0.013005      0.709875
      0.00000      5.91519     15.27637        -0.000000     -0.002177     -0.762056
      0.00000      4.43632     18.45797         0.000000      0.000258      0.001180
      9.75354      5.91492     18.65888         0.000745      0.000423      0.000164
      9.75376      4.43723     22.01238         0.001343      0.002755      0.001423
     -0.00000      5.91574     21.63605        -0.000001      0.000889      0.001744
      3.25100      7.39399      8.77438         0.000238      0.000045     -3.375652
      6.50199      8.87278      8.77438        -0.000000      0.000245      2.810053
      6.50199      7.39399     12.02538        -0.000000      0.001948      0.543835
      3.25100      8.87278     12.02538         0.000861      0.000567     -0.705404
      3.25100      7.39399     15.27637         0.004874     -0.000498      0.701041
      6.50199      8.87278     15.27637         0.000000     -0.004013     -0.736232
      6.50199      7.39071     18.46690         0.000000      0.000567      0.000326
      3.25071      8.87320     18.65847        -0.000170      0.000075      0.000482
      3.25096      7.39516     22.00370        -0.000592      0.001381      0.000079
      6.50199      8.87939     21.63291        -0.000001     -0.002333     -0.002063
      3.25100     10.35158      8.77438         0.000287      0.000425     -3.375610
      6.50199      0.00000      8.77438        -0.000000      0.000119      2.810138
      6.50199     10.35158     12.02538        -0.000000      0.001750      0.545592
      3.25100      0.00000     12.02538         0.001090      0.000391     -0.703497
      3.25100     10.35158     15.27637         0.003827      0.014356      0.709925
      6.50199      0.00000     15.27637        -0.000000      0.002329     -0.765584
      6.50199     10.34956     18.45418        -0.000000      0.000222     -0.000401
[...]
      6.50199      5.91519     13.29976        -0.000000      0.000304     -0.105913
      4.52538      4.43639     12.02538         0.438961      0.000527      0.048760
      8.47860      4.43639     12.02538        -0.438961      0.000527      0.048760
      3.25100      5.91519     14.00199        -0.000950      0.002650     -0.115288
      3.25100      5.91519     16.55076         0.000725      0.001821      0.027743
      7.77637      4.43639     15.27637        -0.494948      0.007287      0.096528
      5.22761      4.43639     15.27637         0.494948      0.007287      0.096527
      6.50199      5.91531     17.27591        -0.000000     -0.000733      0.000393
      6.50199      5.91455     19.83683        -0.000000     -0.000408      0.000106
      4.55288      4.43640     18.55266        -0.000177      0.000415     -0.001415
      8.45110      4.43640     18.55266         0.000176      0.000415     -0.001414
      3.24421      5.91558     20.51999        -0.001056     -0.000583     -0.001399
      3.26640      5.91880     23.09439         0.001225     -0.001388     -0.001391
      7.72931      4.42765     21.93715         0.000401     -0.000804     -0.003345
      5.27467      4.42765     21.93715        -0.000402     -0.000804     -0.003345
    total drift:                                0.000001      0.002112     -0.048922

  FREE ENERGIE OF THE ION-ELECTRON SYSTEM (eV)
  free  energy   TOTEN  =     -2148.76065869 eV

  energy  without entropy=    -2148.76065869  energy(sigma->0) =    -2148.76065869

 d Force = 0.8923035E-05[ 0.541E-05, 0.124E-04]  d Energy = 0.9644661E-05-0.722E-06
 d Force =-0.2666069E+01[-0.267E+01,-0.267E+01]  d Ewald  =-0.2666068E+01-0.281E-06

 reached required accuracy - stopping structural energy minimisation