 vasp.6.3.0 20Jan22 (build Apr  1 2022 16:44:48) complex
 executed on        HPECrayEX_GCC date 2023.03.02  02:57:54

 INCAR:
   SYSTEM = MgO-rocksalt
   ISMEAR = 0
   SIGMA = 0.05
   EDIFF = 1E-8
   ALGO = ALL
   ISTART = 0
   IBRION = 5
   POTIM = 0.01
   NFREE = 2
   ISYM = 0
   DIPOL = 0.5 0.5 0.5
   IDIPOL = 3
   LDIPOL = .TRUE.
   GGA = RE
   IVDW = 13
   VDW_S8 = 1.7468
   VDW_A1 = 0.5363
   VDW_A2 = 3.0726
   ENCUT = 600
   PREC = Accurate
   LASPH = .TRUE.
   LREAL = .FALSE.
   ISPIN = 1
   NELM = 200
   NELMIN = 8
   NCORE = 8
   KPAR = 1
   LWAVE = .FALSE.
   LCHARG = .FALSE.

 POTCAR:    PAW_PBE C 08Apr2002
 POTCAR:    PAW_PBE H 15Jun2001
 POTCAR:    PAW_PBE Mg_pv 13Apr2007
 POTCAR:    PAW_PBE O 08Apr2002
 POTCAR:    PAW_PBE C 08Apr2002
   VRHFIN =C: s2p2

   TITEL  = PAW_PBE C 08Apr2002
   POMASS =   12.011; ZVAL   =    4.000    mass and valenz
   ENMAX  =  400.000; ENMIN  =  300.000 eV

   TITEL  = PAW_PBE H 15Jun2001
   POMASS =    1.000; ZVAL   =    1.000    mass and valenz
   ENMAX  =  250.000; ENMIN  =  200.000 eV

   TITEL  = PAW_PBE Mg_pv 13Apr2007
   POMASS =   24.305; ZVAL   =    8.000    mass and valenz
   ENMAX  =  403.929; ENMIN  =  302.947 eV

   TITEL  = PAW_PBE O 08Apr2002
   POMASS =   16.000; ZVAL   =    6.000    mass and valenz
   ENMAX  =  400.000; ENMIN  =  300.000 eV

  PAW_PBE C 08Apr2002                   :
  PAW_PBE H 15Jun2001                   :
  PAW_PBE Mg_pv 13Apr2007               :
  PAW_PBE O 08Apr2002                   :

 POSCAR:  C  H Mg  O
  positions in direct lattice
|           W    W    AA    RRRRR   N    N  II  N    N   GGGG   !!!           |
|           W    W   A  A   R    R  NN   N  II  NN   N  G    G  !!!           |
|           W    W  A    A  R    R  N N  N  II  N N  N  G       !!!           |
|           W WW W  AAAAAA  RRRRR   N  N N  II  N  N N  G  GGG   !            |
|           WW  WW  A    A  R   R   N   NN  II  N   NN  G    G                |
|           W    W  A    A  R    R  N    N  II  N    N   GGGG   !!!           |
|     Specifying the vdW parameters                                           |
|     VDW_S8 = 1.747                                                          |
|     VDW_A1 = 0.536                                                          |
|     VDW_A2 = 3.073                                                          |
|     in the INCAR file will overwrite the defaults for revpbe. Please        |
|     make sure that is what you intended.                                    |

 ion  position               nearest neighbor table
   1  0.504  0.498  0.793-   5 1.10   3 1.10   4 1.10   2 1.53
   2  0.675  0.499  0.817-   6 1.10   8 1.10   7 1.10   1 1.53
   3  0.482  0.392  0.764-   1 1.10
   4  0.479  0.604  0.765-   1 1.10
   5  0.418  0.495  0.832-   1 1.10
   6  0.759  0.502  0.778-   2 1.10
   7  0.701  0.394  0.846-   2 1.10
   8  0.698  0.604  0.847-   2 1.10
   9  0.000  0.750  0.352-  41 2.11  43 2.11  44 2.11  51 2.11  60 2.11
  10  0.250  0.000  0.352-  42 2.11  43 2.11  44 2.11  52 2.11  59 2.11
  11  0.000  0.000  0.451-  43 2.11  42 2.11  41 2.11  49 2.11  58 2.11  47 2.12
  12  0.250  0.750  0.451-  44 2.11  42 2.11  41 2.11  50 2.11  57 2.11  48 2.12
  13  1.000  0.750  0.550-  64 2.11  48 2.11  55 2.11  47 2.11  41 2.12  45 2.15
  14  0.250  1.000  0.550-  48 2.11  56 2.11  63 2.11  47 2.11  42 2.12  46 2.15
  15  1.000  1.000  0.649-  46 2.11  62 2.11  47 2.11  45 2.11  53 2.11
  16  0.250  0.750  0.649-  48 2.11  54 2.11  45 2.11  46 2.11  61 2.11
  17  0.000  0.250  0.352-  49 2.11  43 2.11  51 2.11  52 2.11  68 2.11
  18  0.250  0.500  0.352-  50 2.11  44 2.11  51 2.11  52 2.11  67 2.11
  19  0.000  0.500  0.451-  51 2.11  49 2.11  50 2.11  41 2.11  66 2.11  55 2.12
  20  0.250  0.250  0.451-  52 2.11  49 2.11  50 2.11  42 2.11  65 2.11  56 2.12
  21  1.000  0.250  0.550-  72 2.11  56 2.11  55 2.11  47 2.11  49 2.12  53 2.15
  22  0.250  0.500  0.550-  71 2.11  56 2.11  48 2.11  55 2.11  50 2.13  54 2.15
  23  0.000  0.500  0.649-  54 2.11  55 2.11  70 2.11  45 2.11  53 2.11
  24  0.250  0.250  0.649-  56 2.11  53 2.11  54 2.11  46 2.11  69 2.11
  25  0.500  0.750  0.352-  57 2.11  44 2.11  59 2.11  60 2.11  67 2.11
  26  0.750  0.000  0.352-  58 2.11  43 2.11  59 2.11  60 2.11  68 2.11
  27  0.500  0.000  0.451-  59 2.11  57 2.11  58 2.11  42 2.11  65 2.11  63 2.12
  28  0.750  0.750  0.451-  60 2.11  57 2.11  58 2.11  41 2.11  66 2.11  64 2.12
  29  0.500  0.750  0.550-  71 2.11  64 2.11  48 2.11  63 2.11  57 2.13  61 2.15
  30  0.750  1.000  0.550-  64 2.11  72 2.11  47 2.11  63 2.11  58 2.13  62 2.15
  31  0.500  1.000  0.649-  69 2.11  61 2.11  63 2.11  46 2.11  62 2.11
  32  0.750  0.750  0.649-  64 2.11  45 2.11  62 2.11  70 2.11  61 2.11
  33  0.500  0.250  0.352-  65 2.11  59 2.11  52 2.11  67 2.11  68 2.11
  34  0.750  0.500  0.352-  66 2.11  60 2.11  51 2.11  67 2.11  68 2.11
  35  0.500  0.500  0.451-  67 2.11  57 2.11  65 2.11  66 2.11  50 2.11  71 2.12
  36  0.750  0.250  0.451-  68 2.11  58 2.11  65 2.11  66 2.11  49 2.11  72 2.12
  37  0.500  0.250  0.550-  71 2.11  72 2.11  56 2.11  63 2.11  65 2.13  69 2.15
  38  0.750  0.500  0.550-  71 2.11  72 2.11  64 2.11  55 2.11  66 2.13  70 2.15
  39  0.500  0.500  0.649-  54 2.11  61 2.11  69 2.11  70 2.11  71 2.12
  40  0.750  0.250  0.649-  72 2.11  53 2.11  62 2.11  70 2.11  69 2.11
  41  0.000  0.750  0.451-   9 2.11  11 2.11  12 2.11  19 2.11  28 2.11  13 2.12
  42  0.250  0.000  0.451-  10 2.11  11 2.11  12 2.11  20 2.11  27 2.11  14 2.12
  43  0.000  0.000  0.352-  11 2.11  10 2.11   9 2.11  17 2.11  26 2.11
  44  0.250  0.750  0.352-  12 2.11  10 2.11   9 2.11  18 2.11  25 2.11
  45  1.000  0.750  0.651-  32 2.11  16 2.11  23 2.11  15 2.11  13 2.15
  46  0.250  1.000  0.651-  15 2.11  31 2.11  24 2.11  16 2.11  14 2.15
  47  1.000  1.000  0.550-  30 2.11  13 2.11  21 2.11  14 2.11  15 2.11  11 2.12
  48  0.250  0.750  0.550-  16 2.11  14 2.11  13 2.11  29 2.11  22 2.11  12 2.12
  49  0.000  0.250  0.451-  17 2.11  11 2.11  19 2.11  20 2.11  36 2.11  21 2.12
  50  0.250  0.500  0.451-  18 2.11  12 2.11  19 2.11  20 2.11  35 2.11  22 2.13
  51  0.000  0.500  0.352-  19 2.11  17 2.11  18 2.11   9 2.11  34 2.11
  52  0.250  0.250  0.352-  20 2.11  17 2.11  18 2.11  10 2.11  33 2.11
  53  1.000  0.250  0.651-  40 2.11  24 2.11  23 2.11  15 2.11  21 2.15
  54  0.250  0.500  0.651-  23 2.11  16 2.11  24 2.11  39 2.11  22 2.15
  55  1.000  0.500  0.550-  23 2.11  21 2.11  13 2.11  38 2.11  22 2.11  19 2.12
  56  0.250  0.250  0.550-  24 2.11  14 2.11  21 2.11  37 2.11  22 2.11  20 2.12
  57  0.500  0.750  0.451-  25 2.11  12 2.11  27 2.11  28 2.11  35 2.11  29 2.13
  58  0.750  0.000  0.451-  26 2.11  11 2.11  27 2.11  28 2.11  36 2.11  30 2.13
  59  0.500  0.000  0.352-  27 2.11  25 2.11  26 2.11  10 2.11  33 2.11
  60  0.750  0.750  0.352-  28 2.11  25 2.11  26 2.11   9 2.11  34 2.11
  61  0.500  0.750  0.651-  31 2.11  32 2.11  16 2.11  39 2.11  29 2.15
  62  0.750  1.000  0.651-  40 2.11  15 2.11  32 2.11  31 2.11  30 2.15
  63  0.500  1.000  0.550-  31 2.11  30 2.11  14 2.11  29 2.11  37 2.11  27 2.12
  64  0.750  0.750  0.550-  32 2.11  30 2.11  13 2.11  29 2.11  38 2.11  28 2.12
  65  0.500  0.250  0.451-  33 2.11  27 2.11  20 2.11  35 2.11  36 2.11  37 2.13
  66  0.750  0.500  0.451-  34 2.11  28 2.11  19 2.11  35 2.11  36 2.11  38 2.13
  67  0.500  0.500  0.352-  35 2.11  25 2.11  33 2.11  34 2.11  18 2.11
  68  0.750  0.250  0.352-  36 2.11  26 2.11  33 2.11  34 2.11  17 2.11
  69  0.500  0.250  0.651-  31 2.11  40 2.11  24 2.11  39 2.11  37 2.15
  70  0.750  0.500  0.651-  23 2.11  32 2.11  40 2.11  39 2.11  38 2.15
  71  0.500  0.500  0.550-  38 2.11  29 2.11  37 2.11  22 2.11  39 2.12  35 2.12
  72  0.750  0.250  0.550-  40 2.11  30 2.11  21 2.11  37 2.11  38 2.11  36 2.12

IMPORTANT INFORMATION: All symmetrisations will be switched off!
NOSYMM: (Re-)initialisation of all symmetry stuff for point group C_1.

                                     Primitive cell

  volume of cell :    1519.8199

  direct lattice vectors                    reciprocal lattice vectors
     8.440984654  0.000000000  0.000000000     0.118469591  0.000000000  0.000000000
     0.000000000  8.440984654  0.000000000     0.000000000  0.118469591  0.000000000
     0.000000000  0.000000000 21.330738491     0.000000000  0.000000000  0.046880702

  length of vectors
     8.440984654  8.440984654 21.330738491     0.118469591  0.118469591  0.046880702

  position of ions in fractional coordinates (direct lattice)
     0.504434876  0.497571925  0.793182562
     0.675419507  0.499339829  0.817254959
     0.481938651  0.392229692  0.763981212
     0.478802048  0.604112785  0.765085782
     0.417852208  0.495000411  0.831710663
     0.759152897  0.502002316  0.777764631
     0.701471206  0.393571335  0.845561462
     0.698192892  0.603729020  0.846776833
     0.000000000  0.750000000  0.351605267
     0.250000000  0.000000000  0.351605267
     0.000000000  0.000000000  0.450535089
     0.250000000  0.750000000  0.450535089
     0.999969335  0.749932564  0.550143009
     0.249979009  0.999932854  0.550153760
     0.999984729  0.999879620  0.648880782
     0.249865610  0.749814499  0.648764798
     0.000000000  0.250000000  0.351605267
     0.250000000  0.500000000  0.351605267
     0.000000000  0.500000000  0.450535089
     0.250000000  0.250000000  0.450535089
     0.999969716  0.249949331  0.550140365
     0.250119639  0.499932684  0.550205747
     0.000137590  0.499892464  0.648694835
     0.249861482  0.249941717  0.648759231
     0.500000000  0.750000000  0.351605267
     0.750000000  0.000000000  0.351605267
     0.500000000  0.000000000  0.450535089
     0.750000000  0.750000000  0.450535089
     0.499983604  0.749784240  0.550199518
     0.749978902  0.999929979  0.550160720
     0.499953859  0.999865553  0.648719052
     0.750035499  0.749892856  0.648802828
     0.500000000  0.250000000  0.351605267
     0.750000000  0.500000000  0.351605267
     0.500000000  0.500000000  0.450535089
     0.750000000  0.250000000  0.450535089
     0.499985367  0.250051482  0.550198962
     0.749853021  0.499929383  0.550227143
     0.499835929  0.499867681  0.649468757
     0.750050535  0.249858113  0.648796072
     0.000000000  0.750000000  0.450535089
     0.250000000  0.000000000  0.450535089
     0.000000000  0.000000000  0.351605267
     0.250000000  0.750000000  0.351605267
     0.999935709  0.749855480  0.651031248
     0.249938454  0.999880825  0.651034598
     0.999963400  0.999937428  0.549922155
     0.249957400  0.750009151  0.549898012
     0.000000000  0.250000000  0.450535089
     0.250000000  0.500000000  0.450535089
     0.000000000  0.500000000  0.351605267
     0.250000000  0.250000000  0.351605267
     0.999938240  0.249914393  0.651023838
     0.249711433  0.499880155  0.650777859
     0.999963453  0.499938781  0.549848970
     0.249949301  0.249857489  0.549894283
     0.500000000  0.750000000  0.450535089
     0.750000000  0.000000000  0.450535089
     0.500000000  0.000000000  0.351605267
     0.750000000  0.750000000  0.351605267
     0.499982066  0.750187993  0.650991390
     0.749999064  0.999877994  0.651061537
[...]
  2Y     0.104744    6.978286    0.035457    0.095193  -51.555783    0.011064    2.467020   -0.094567    0.808343   -2.489283   -0.144504   -0.823956    0.057514    0.080036    0.026887    0.309862    4.397582   -0.388606   -3.554324   20.405699  -10.808246    3.012903   19.976989   11.128042
  2Z     3.605250    0.042311    8.273001    2.512053    0.009716  -50.992422    1.736248   -0.101738    0.643170    1.666777    0.128474    0.625279   -2.207782   -0.019613   -0.940208  -11.765892   -0.379125   18.741867    2.337684  -10.815634   11.452166    2.090379   11.134463   12.094074
  3X     4.640868    2.942569    2.032520    0.630122    2.467168    1.735766   -5.413108   -3.427517   -2.509099    0.066256   -0.386618   -0.370017   -0.254203   -1.627930   -1.020896   -0.118859    0.016420   -0.052680   -0.137291   -0.033534   -0.027547    0.571664   -0.023446    0.210707
  3Y     3.058689   20.069038   10.734816    0.006028   -0.094310   -0.102759   -3.430512  -21.683584  -11.702742    0.342425    1.844366    1.477963   -0.057224   -0.087155   -0.150425    0.030475   -0.006085   -0.000224    0.031490   -0.072088   -0.005115   -0.048598   -0.150075   -0.051505
  3Z     2.050823   10.564299   11.715603    0.229722    0.807876    0.643116   -2.510692  -11.697490  -12.725550   -0.317152   -1.415725   -1.054230    0.385770    1.910468    1.314283   -0.015049   -0.047325   -0.051074   -0.034273    0.002186    0.007735    0.211390   -0.049728   -0.033330
  4X     4.827157   -3.458381    2.256828    0.705595   -2.490407    1.665766    0.066320    0.341789   -0.317890   -5.614432    3.985522   -2.758647   -0.303867    1.645989   -0.979903   -0.119958   -0.018149   -0.052227    0.569369    0.039713    0.210539   -0.136522    0.032617   -0.026986
  4Y    -3.571933   20.427243  -10.439660    0.010738   -0.144609    0.129878   -0.387940    1.844335   -1.416894    3.988244  -22.082759   11.390609    0.037984    0.014588    0.083788   -0.034831   -0.010051    0.000719    0.061493   -0.150054    0.053000   -0.033201   -0.072519    0.001526
  4Z     2.272930  -10.271469   11.160519    0.255118   -0.823783    0.626508   -0.370278    1.476719   -1.055107   -2.759656   11.384481  -12.111130    0.443960   -1.934268    1.266944   -0.016388    0.048411   -0.050674    0.212704    0.053156   -0.029815   -0.034357   -0.005008    0.009056
  5X    14.343756    0.310569  -11.961004    1.967732    0.057667   -2.208810   -0.253657   -0.057703    0.384129   -0.303370    0.039115    0.443070  -16.050157   -0.349608   13.085518    0.518626    0.005137    0.312828   -0.111534   -0.051308   -0.002760   -0.114397    0.047893   -0.000204
  5Y     0.309836    4.092744   -0.360581    0.017542    0.081116   -0.019769   -1.628286   -0.088544    1.909360    1.645774    0.013318   -1.933795   -0.349164   -4.165288    0.399649    0.005092   -0.084667    0.004443   -0.022680   -0.006566    0.043746    0.020819   -0.002994   -0.042236
  5Z   -12.100421   -0.365293   18.222599    0.872001    0.027393   -0.939856   -1.022324   -0.150860    1.314878   -0.980942    0.083651    1.267632   13.087160    0.398991  -19.621197    0.298148    0.004003   -0.020278   -0.067264    0.016105   -0.066477   -0.066365   -0.016663   -0.068858
  6X     2.124999    0.064012   -2.256070   13.758229    0.309890  -11.762983   -0.121071    0.031188   -0.014660   -0.119874   -0.035045   -0.016718    0.518890    0.005167    0.295944  -15.600358   -0.348401   12.929300   -0.341323    0.039173    0.501461   -0.290524   -0.062778    0.443664
  6Y     0.018685    0.064933   -0.021264    0.310251    4.398674   -0.378120    0.015955   -0.006722   -0.047886   -0.018153   -0.010064    0.048518    0.004816   -0.084673    0.004109   -0.349711   -4.415170    0.428036    1.644418    0.040281   -1.925554   -1.626054   -0.066080    1.898397
  6Z     0.780044    0.025646   -0.918621  -12.039812   -0.388847   18.743655   -0.052044   -0.000562   -0.051267   -0.052532    0.000416   -0.050762    0.313250    0.004490   -0.020284   12.931992    0.427750  -20.155837   -0.914154    0.072983    1.204619   -0.954369   -0.140448    1.252366
  7X     0.698586   -2.502593    1.708315    4.914882   -3.551121    2.335359   -0.136837    0.031434   -0.034031    0.569940    0.061468    0.212486   -0.111695   -0.022719   -0.066968   -0.342762    1.644374   -0.912857   -5.611759    4.034041   -2.910995    0.017498    0.345829   -0.303598
  7Y     0.041607   -0.122999    0.114012   -3.666193   20.408317  -10.821396   -0.034343   -0.072937    0.002122    0.039457   -0.150201    0.053434   -0.051528   -0.006636    0.016518    0.038885    0.041785    0.073301    4.037643  -22.054999   11.947422   -0.397281    1.961020   -1.379339
  7Z     0.186464   -0.773670    0.611344    2.401278  -10.802156   11.451613   -0.027795   -0.005442    0.007929    0.210709    0.053118   -0.030067   -0.002458    0.043496   -0.066712    0.502170   -1.926337    1.203138   -2.911282   11.941086  -12.249937   -0.358136    1.452947   -0.971446
  8X     0.623906    2.477680    1.783812    4.707551    3.009774    2.089951    0.571674   -0.048696    0.211243   -0.136449   -0.032808   -0.034615   -0.114759    0.021245   -0.066067   -0.292118   -1.626042   -0.952806    0.017727   -0.395313   -0.359972   -5.382815   -3.446440   -2.644663
  8Y    -0.023416   -0.065665   -0.080981    3.124061   19.979933   11.140537   -0.023274   -0.149714   -0.049863    0.033008   -0.072442   -0.005048    0.047811   -0.002647   -0.016349   -0.063597   -0.063615   -0.138769    0.346047    1.961695    1.453983   -3.448408  -21.593506  -12.304752
  8Z     0.160935    0.758365    0.628100    2.158611   11.123813   12.095744    0.210146   -0.051416   -0.033499   -0.027222    0.001909    0.008390   -0.000349   -0.042033   -0.068843    0.443796    1.900710    1.252510   -0.303485   -1.377284   -0.970946   -2.644649  -12.301005  -12.952304

 Eigenvectors and eigenvalues of the dynamical matrix

   1 f  =   91.196649 THz   573.005445 2PiTHz 3041.992770 cm-1   377.158865 meV
             X         Y         Z           dx          dy          dz
      4.257927  4.199997 16.919170    -0.075374   -0.000909    0.152967
      5.701206  4.214920 17.432652    -0.077992    0.003885    0.237888
      4.068037  3.310805 16.296283    -0.032826   -0.136888   -0.083808
      4.041561  5.099307 16.319845    -0.034953    0.130277   -0.074999
      3.527084  4.178291 17.741003     0.325039    0.009786   -0.368303
      6.407998  4.237394 16.590294     0.405128    0.013589   -0.476755
      5.921108  3.322130 18.036450    -0.066051    0.263588   -0.160663
      5.893435  5.096067 18.062375    -0.064181   -0.290731   -0.190454
      0.000000  6.330738  7.500000            0           0           0
      2.110246  0.000000  7.500000            0           0           0
      0.000000  0.000000  9.610246            0           0           0
      2.110246  6.330738  9.610246            0           0           0
      8.440726  6.330169 11.734957            0           0           0
      2.110069  8.440418 11.735186            0           0           0
      8.440856  8.439969 13.841106            0           0           0
      2.109112  6.329173 13.838632            0           0           0
      0.000000  2.110246  7.500000            0           0           0
      2.110246  4.220492  7.500000            0           0           0
      0.000000  4.220492  9.610246            0           0           0
      2.110246  2.110246  9.610246            0           0           0
      8.440729  2.109818 11.734900            0           0           0
      2.111256  4.219924 11.736295            0           0           0
      0.001161  4.219585 13.837140            0           0           0
      2.109077  2.109754 13.838513            0           0           0
      4.220492  6.330738  7.500000            0           0           0
      6.330738  0.000000  7.500000            0           0           0
      4.220492  0.000000  9.610246            0           0           0
      6.330738  6.330738  9.610246            0           0           0
      4.220354  6.328917 11.736162            0           0           0
      6.330560  8.440394 11.735334            0           0           0
      4.220103  8.439850 13.837656            0           0           0
      6.331038  6.329834 13.839443            0           0           0
      4.220492  2.110246  7.500000            0           0           0
      6.330738  4.220492  7.500000            0           0           0
      4.220492  4.220492  9.610246            0           0           0
      6.330738  2.110246  9.610246            0           0           0
      4.220369  2.110681 11.736150            0           0           0
      6.329498  4.219896 11.736751            0           0           0
      4.219107  4.219375 13.853648            0           0           0
      6.331165  2.109048 13.839299            0           0           0
      0.000000  6.330738  9.610246            0           0           0
      2.110246  0.000000  9.610246            0           0           0
      0.000000  0.000000  7.500000            0           0           0
      2.110246  6.330738  7.500000            0           0           0
      8.440442  6.329519 13.886977            0           0           0
      2.109727  8.439979 13.887049            0           0           0
      8.440676  8.440456 11.730246            0           0           0
      2.109887  6.330816 11.729731            0           0           0
      0.000000  2.110246  9.610246            0           0           0
      2.110246  4.220492  9.610246            0           0           0
      0.000000  4.220492  7.500000            0           0           0
      2.110246  2.110246  7.500000            0           0           0
      8.440463  2.109524 13.886819            0           0           0
      2.107810  4.219481 13.881572            0           0           0
      8.440676  4.219976 11.728685            0           0           0
      2.109818  2.109043 11.729651            0           0           0
      4.220492  6.330738  9.610246            0           0           0
      6.330738  0.000000  9.610246            0           0           0
      4.220492  0.000000  7.500000            0           0           0
      6.330738  6.330738  7.500000            0           0           0
      4.220341  6.332325 13.886127            0           0           0
      6.330731  8.439955 13.887623            0           0           0
      4.220398  8.440276 11.729067            0           0           0
      6.330716  6.330734 11.730113            0           0           0
      4.220492  2.110246  9.610246            0           0           0
      6.330738  4.220492  9.610246            0           0           0
      4.220492  4.220492  7.500000            0           0           0
      6.330738  2.110246  7.500000            0           0           0
      4.220403  2.106232 13.885544            0           0           0
      6.332424  4.219469 13.884356            0           0           0
      4.220558  4.219900 11.732877            0           0           0
      6.330803  2.109084 11.730032            0           0           0

[...]

  24 f  =    0.317840 THz     1.997045 2PiTHz   10.601990 cm-1     1.314479 meV
             X         Y         Z           dx          dy          dz
      4.257927  4.199997 16.919170     0.009803    0.265162    0.004224
      5.701206  4.214920 17.432652     0.008776    0.814089   -0.008595
      4.068037  3.310805 16.296283     0.082419    0.032767    0.039036
      4.041561  5.099307 16.319845    -0.080663    0.031222   -0.036216
      3.527084  4.178291 17.741003     0.006652    0.044210    0.003782
      6.407998  4.237394 16.590294    -0.001044    0.247356   -0.005132
      5.921108  3.322130 18.036450     0.084326    0.289681    0.048743
      5.893435  5.096067 18.062375    -0.075772    0.288518   -0.053743
      0.000000  6.330738  7.500000            0           0           0
      2.110246  0.000000  7.500000            0           0           0
      0.000000  0.000000  9.610246            0           0           0
      2.110246  6.330738  9.610246            0           0           0
      8.440726  6.330169 11.734957            0           0           0
      2.110069  8.440418 11.735186            0           0           0
      8.440856  8.439969 13.841106            0           0           0
      2.109112  6.329173 13.838632            0           0           0
      0.000000  2.110246  7.500000            0           0           0
      2.110246  4.220492  7.500000            0           0           0
      0.000000  4.220492  9.610246            0           0           0
      2.110246  2.110246  9.610246            0           0           0
      8.440729  2.109818 11.734900            0           0           0
      2.111256  4.219924 11.736295            0           0           0
      0.001161  4.219585 13.837140            0           0           0
      2.109077  2.109754 13.838513            0           0           0
      4.220492  6.330738  7.500000            0           0           0
      6.330738  0.000000  7.500000            0           0           0
      4.220492  0.000000  9.610246            0           0           0
      6.330738  6.330738  9.610246            0           0           0
      4.220354  6.328917 11.736162            0           0           0
      6.330560  8.440394 11.735334            0           0           0
      4.220103  8.439850 13.837656            0           0           0
      6.331038  6.329834 13.839443            0           0           0
      4.220492  2.110246  7.500000            0           0           0
      6.330738  4.220492  7.500000            0           0           0
      4.220492  4.220492  9.610246            0           0           0
      6.330738  2.110246  9.610246            0           0           0
      4.220369  2.110681 11.736150            0           0           0
      6.329498  4.219896 11.736751            0           0           0
      4.219107  4.219375 13.853648            0           0           0
      6.331165  2.109048 13.839299            0           0           0
      0.000000  6.330738  9.610246            0           0           0
      2.110246  0.000000  9.610246            0           0           0
      0.000000  0.000000  7.500000            0           0           0
      2.110246  6.330738  7.500000            0           0           0
      8.440442  6.329519 13.886977            0           0           0
      2.109727  8.439979 13.887049            0           0           0
      8.440676  8.440456 11.730246            0           0           0
      2.109887  6.330816 11.729731            0           0           0
      0.000000  2.110246  9.610246            0           0           0
      2.110246  4.220492  9.610246            0           0           0
      0.000000  4.220492  7.500000            0           0           0
      2.110246  2.110246  7.500000            0           0           0
      8.440463  2.109524 13.886819            0           0           0
      2.107810  4.219481 13.881572            0           0           0
      8.440676  4.219976 11.728685            0           0           0
      2.109818  2.109043 11.729651            0           0           0
      4.220492  6.330738  9.610246            0           0           0
      6.330738  0.000000  9.610246            0           0           0
      4.220492  0.000000  7.500000            0           0           0
      6.330738  6.330738  7.500000            0           0           0
      4.220341  6.332325 13.886127            0           0           0
      6.330731  8.439955 13.887623            0           0           0
      4.220398  8.440276 11.729067            0           0           0
      6.330716  6.330734 11.730113            0           0           0
      4.220492  2.110246  9.610246            0           0           0
      6.330738  4.220492  9.610246            0           0           0
      4.220492  4.220492  7.500000            0           0           0
      6.330738  2.110246  7.500000            0           0           0
      4.220403  2.106232 13.885544            0           0           0
      6.332424  4.219469 13.884356            0           0           0
      4.220558  4.219900 11.732877            0           0           0
      6.330803  2.109084 11.730032            0           0           0

 Finite differences POTIM=   1.0000000000000000E-002