 vasp.6.2.1 16May21 (build Aug 23 2021 11:19:13) complex

 executed on SGIICEXA-Intel19-HMP date 2024.11.01  20:22:05

 INCAR:
   SYSTEM = Oxide-Surface
   ISMEAR = 0
   SIGMA = 0.05
   EDIFF = 1E-5
   ALGO = Normal
   IBRION = -1
   NSW = 0
   ISYM = 0
   DIPOL = 0.5 0.5 0.5
   IDIPOL = 3
   LDIPOL = .TRUE.
   ISTART = 1
   LHFCALC = .TRUE.
   GGA = PE
   IVDW = 21
   VDW_SR = 0.96
   HFRCUT = -1
   ENCUT = 520
   PREC = Normal
   PRECFOCK = Normal
   LASPH = .TRUE.
   LREAL = Auto
   ISPIN = 1
   NELM = 200
   NELMIN = 8
   NCORE = 1
   KPAR = 1
   LWAVE = .FALSE.
   LCHARG = .FALSE.

 POTCAR:    PAW_PBE Mg_sv 12Apr2007
 POTCAR:    PAW_PBE O 08Apr2002
 POTCAR:    PAW_PBE Mg_sv 12Apr2007
   VRHFIN =Mg: p6s2

   TITEL  = PAW_PBE Mg_sv 12Apr2007
   POMASS =   24.305; ZVAL   =   10.000    mass and valenz
   ENMAX  =  495.223; ENMIN  =  371.417 eV

   TITEL  = PAW_PBE O 08Apr2002
   POMASS =   16.000; ZVAL   =    6.000    mass and valenz
   ENMAX  =  400.000; ENMIN  =  300.000 eV

 Optimization of the real space projectors (new method)

 maximal supplied QI-value         = 22.11
 optimisation between [QCUT,QGAM] = [ 11.50, 23.22] = [ 37.02,150.92] Ry
 Optimized for a Real-space Cutoff    1.14 Angstroem

   l    n(q)    QCUT    max X(q) W(low)/X(q) W(high)/X(q)  e(spline)
   0      8    11.497     8.730    0.49E-04    0.64E-04    0.16E-07
   0      8    11.497     8.910    0.67E-04    0.91E-04    0.30E-07
   1      7    11.497     2.513    0.13E-03    0.16E-04    0.93E-07
   1      7    11.497     3.341    0.38E-03    0.12E-03    0.27E-06
   2      7    11.497     3.683    0.37E-03    0.44E-03    0.72E-07
 Optimization of the real space projectors (new method)

 maximal supplied QI-value         = 24.76
 optimisation between [QCUT,QGAM] = [ 11.64, 23.27] = [ 37.91,151.63] Ry
 Optimized for a Real-space Cutoff    1.04 Angstroem

   l    n(q)    QCUT    max X(q) W(low)/X(q) W(high)/X(q)  e(spline)
   0      7    11.635    20.381    0.14E-03    0.49E-03    0.18E-06
   0      7    11.635    15.268    0.16E-03    0.52E-03    0.19E-06
   1      7    11.635     5.964    0.30E-03    0.44E-03    0.22E-06
   1      7    11.635     5.382    0.27E-03    0.34E-03    0.19E-06
  PAW_PBE Mg_sv 12Apr2007               :
  PAW_PBE O 08Apr2002                   :

 POSCAR: Mg  O
  positions in direct lattice
 exchange correlation table for  LEXCH =        8
   RHO(1)=    0.500       N(1)  =     2000
   RHO(2)=  100.500       N(2)  =     4000

 ion  position               nearest neighbor table
   1  0.000  0.750  0.352-  33 2.11  35 2.11  36 2.11  43 2.11  52 2.11
   2  0.250  0.000  0.352-  34 2.11  35 2.11  36 2.11  44 2.11  51 2.11
   3  0.000  0.000  0.451-  39 2.11  35 2.11  33 2.11  34 2.11  41 2.11  50 2.11
   4  0.250  0.750  0.451-  36 2.11  34 2.11  33 2.11  42 2.11  49 2.11  40 2.13
   5  1.000  0.750  0.549-  33 2.10  47 2.11  39 2.11
   6  0.252  0.001  0.551-  55 2.09  48 2.10  38 2.11  40 2.12
   7  0.000  0.002  0.649-  45 2.09  38 2.10  54 2.10  39 2.12
   8  0.237  0.750  0.647-  37 2.00  40 2.08  46 2.10  38 2.10
   9  0.000  0.250  0.352-  41 2.11  35 2.11  43 2.11  44 2.11  60 2.11
  10  0.250  0.500  0.352-  42 2.11  36 2.11  43 2.11  44 2.11  59 2.11
  11  0.000  0.500  0.451-  47 2.11  43 2.11  42 2.11  33 2.11  41 2.11  58 2.11
  12  0.250  0.250  0.451-  44 2.11  41 2.11  42 2.11  34 2.11  57 2.11  48 2.12
  13  0.000  0.250  0.550-  41 2.11  48 2.11  64 2.11  47 2.11  39 2.11
  14  0.252  0.499  0.551-  63 2.09  48 2.10  46 2.11  40 2.12
  15  0.000  0.498  0.649-  45 2.09  46 2.10  62 2.10  47 2.12
  16  0.248  0.250  0.649-  45 2.09  48 2.11  46 2.12  38 2.12
  17  0.500  0.750  0.352-  49 2.11  36 2.11  51 2.11  52 2.11  59 2.11
  18  0.750  0.000  0.352-  50 2.11  35 2.11  51 2.11  52 2.11  60 2.11
  19  0.500  0.000  0.451-  51 2.11  49 2.11  50 2.11  34 2.11  57 2.11
  20  0.750  0.750  0.451-  52 2.11  49 2.11  50 2.11  33 2.11  58 2.11  56 2.13
  21  0.500  0.750  0.548-  49 2.07  56 2.09  40 2.09  63 2.09  55 2.09
  22  0.748  0.001  0.551-  55 2.09  64 2.10  54 2.11  56 2.12
  23  0.500  0.011  0.658-  61 2.02
  24  0.763  0.750  0.647-  37 2.00  56 2.08  62 2.10  54 2.10
  25  0.500  0.250  0.352-  57 2.11  51 2.11  44 2.11  59 2.11  60 2.11
  26  0.750  0.500  0.352-  58 2.11  52 2.11  43 2.11  59 2.11  60 2.11
  27  0.500  0.500  0.451-  59 2.11  49 2.11  57 2.11  58 2.11  42 2.11
  28  0.750  0.250  0.451-  60 2.11  50 2.11  57 2.11  58 2.11  41 2.11  64 2.12
  29  0.500  0.250  0.551-  48 2.11  64 2.11
  30  0.748  0.499  0.551-  63 2.09  64 2.10  62 2.11  56 2.12
  31  0.500  0.489  0.658-  61 2.02
  32  0.752  0.250  0.649-  45 2.09  64 2.11  62 2.12  54 2.12
  33  0.000  0.750  0.451-   5 2.10   1 2.11   4 2.11   3 2.11  11 2.11  20 2.11
  34  0.250  0.000  0.451-   2 2.11   3 2.11   4 2.11  12 2.11  19 2.11
  35  0.000  0.000  0.352-   3 2.11   2 2.11   1 2.11   9 2.11  18 2.11
  36  0.250  0.750  0.352-   4 2.11   2 2.11   1 2.11  10 2.11  17 2.11
  37  0.000  0.750  0.649-   8 2.00  24 2.00
  38  0.248  0.999  0.650-   7 2.10   8 2.10   6 2.11  16 2.12
  39  0.000  0.999  0.549-   5 2.11   3 2.11  13 2.11   7 2.12
  40  0.252  0.750  0.550-   8 2.08  21 2.09   6 2.12  14 2.12   4 2.13
  41  0.000  0.250  0.451-   9 2.11   3 2.11  11 2.11  12 2.11  28 2.11  13 2.11
  42  0.250  0.500  0.451-  10 2.11   4 2.11  11 2.11  12 2.11  27 2.11
  43  0.000  0.500  0.352-  11 2.11   9 2.11  10 2.11   1 2.11  26 2.11
  44  0.250  0.250  0.352-  12 2.11   9 2.11  10 2.11   2 2.11  25 2.11
  45  0.000  0.250  0.650-  16 2.09  32 2.09   7 2.09  15 2.09
  46  0.248  0.501  0.650-  15 2.10   8 2.10  14 2.11  16 2.12
  47  0.000  0.501  0.549-   5 2.11  11 2.11  13 2.11  15 2.12
  48  0.251  0.250  0.550-   6 2.10  14 2.10  29 2.11  16 2.11  13 2.11  12 2.12
  49  0.500  0.750  0.451-  21 2.07  17 2.11  19 2.11  20 2.11   4 2.11  27 2.11
  50  0.750  0.000  0.451-  18 2.11   3 2.11  19 2.11  20 2.11  28 2.11
  51  0.500  0.000  0.352-  19 2.11  17 2.11  18 2.11   2 2.11  25 2.11
  52  0.750  0.750  0.352-  20 2.11  17 2.11  18 2.11   1 2.11  26 2.11
  53  0.500  0.750  0.655-
  54  0.752  0.999  0.650-   7 2.10  24 2.10  22 2.11  32 2.12
  55  0.500  0.998  0.551-  21 2.09   6 2.09  22 2.09
  56  0.748  0.750  0.550-  24 2.08  21 2.09  22 2.12  30 2.12  20 2.13
  57  0.500  0.250  0.451-  25 2.11  19 2.11  12 2.11  27 2.11  28 2.11
  58  0.750  0.500  0.451-  26 2.11  20 2.11  11 2.11  27 2.11  28 2.11
  59  0.500  0.500  0.352-  27 2.11  17 2.11  25 2.11  26 2.11  10 2.11
  60  0.750  0.250  0.352-  28 2.11  18 2.11  25 2.11  26 2.11   9 2.11
  61  0.500  0.250  0.652-  23 2.02  31 2.02
  62  0.752  0.501  0.650-  15 2.10  24 2.10  30 2.11  32 2.12
  63  0.500  0.502  0.551-  21 2.09  14 2.09  30 2.09
  64  0.749  0.250  0.550-  22 2.10  30 2.10  29 2.11  32 2.11  13 2.11  28 2.12

IMPORTANT INFORMATION: All symmetrisations will be switched off!
NOSYMM: (Re-)initialisation of all symmetry stuff for point group C_1.

                                     Primitive cell

  volume of cell :    1519.8199

  direct lattice vectors                    reciprocal lattice vectors
     8.440984654  0.000000000  0.000000000     0.118469591  0.000000000  0.000000000
     0.000000000  8.440984654  0.000000000     0.000000000  0.118469591  0.000000000
     0.000000000  0.000000000 21.330738491     0.000000000  0.000000000  0.046880702

  length of vectors
     8.440984654  8.440984654 21.330738491     0.118469591  0.118469591  0.046880702

  position of ions in fractional coordinates (direct lattice)
     0.000000000  0.750000000  0.351605267
     0.250000000  0.000000000  0.351605267
     0.000000000  0.000000000  0.450535089
     0.250000000  0.750000000  0.450535089
     0.999999975  0.749999946  0.548865087
     0.252039878  0.000756628  0.550788885
     0.000000022  0.002311195  0.648546918
     0.237174188  0.749999934  0.647363126
     0.000000000  0.250000000  0.351605267
     0.250000000  0.500000000  0.351605267
     0.000000000  0.500000000  0.450535089
     0.250000000  0.250000000  0.450535089
     0.000000013  0.249999998  0.549624541
     0.252039900  0.499243377  0.550788959
     0.000000021  0.497688821  0.648546972
     0.247666318  0.250000068  0.648931672
     0.500000000  0.750000000  0.351605267
     0.750000000  0.000000000  0.351605267
     0.500000000  0.000000000  0.450535089
     0.750000000  0.750000000  0.450535089
     0.500000019  0.750000015  0.547754495
     0.747960121  0.000756607  0.550788926
     0.499999989  0.011207993  0.658121991
     0.762825847  0.749999939  0.647363220
     0.500000000  0.250000000  0.351605267
     0.750000000  0.500000000  0.351605267
     0.500000000  0.500000000  0.450535089
     0.750000000  0.250000000  0.450535089
     0.499999992  0.250000035  0.551140650
     0.747960100  0.499243403  0.550789001
     0.499999989  0.488792575  0.658122307
     0.752333689  0.250000066  0.648931633
     0.000000000  0.750000000  0.450535089
     0.250000000  0.000000000  0.450535089
     0.000000000  0.000000000  0.351605267
     0.250000000  0.750000000  0.351605267
     0.000000022  0.750000036  0.649408351
     0.248158655  0.998502614  0.649732587
     0.000000003  0.999457034  0.549345342
     0.252314547  0.750000035  0.550267426
     0.000000000  0.250000000  0.450535089
     0.250000000  0.500000000  0.450535089
     0.000000000  0.500000000  0.351605267
     0.250000000  0.250000000  0.351605267
     0.000000004  0.249999984  0.650138735
     0.248158633  0.501497394  0.649732528
     0.000000002  0.500542928  0.549345336
     0.250533587  0.249999977  0.549905895
     0.500000000  0.750000000  0.450535089
     0.750000000  0.000000000  0.450535089
     0.500000000  0.000000000  0.351605267
     0.750000000  0.750000000  0.351605267
     0.499999960  0.750000818  0.655054079
     0.751841360  0.998502595  0.649732592
     0.499999996  0.997699832  0.551095612
     0.747685455  0.750000036  0.550267463
     0.500000000  0.250000000  0.450535089
     0.750000000  0.500000000  0.450535089
     0.500000000  0.500000000  0.351605267
     0.750000000  0.250000000  0.351605267
     0.500000007  0.249999918  0.651663796
     0.751841378  0.501497418  0.649732540
     0.499999996  0.502300219  0.551095607
     0.749466420  0.249999975  0.549905909

  ion indices of the primitive-cell ions
   primitive index   ion index
                 1           1
                 2           2
                 3           3
                 4           4
                 5           5
                 6           6
                 7           7
                 8           8
                 9           9
                10          10
                11          11
                12          12
                13          13
                14          14
                15          15
                16          16
                17          17
                18          18
                19          19
                20          20
                21          21
                22          22
                23          23
                24          24
                25          25
                26          26
                27          27
[...]
   O         197.140          4.874         19.196          3.55487309
   O         197.281          4.875         19.203          3.55613870
   O         204.838          4.905         19.568          3.62361239
   O         199.755          4.885         19.323          3.57836843
   O         240.389          5.038         21.198          3.92548588
   O         248.259          5.065         21.542          3.98922611
   O         246.795          5.060         21.478          3.97744617
   O         241.095          5.040         21.229          3.93124628
   O         197.166          4.874         19.198          3.55510809
   O         196.939          4.873         19.186          3.55305493
   O         174.659          4.777         18.069          3.34604465
   O         199.755          4.885         19.323          3.57837242
   O         228.807          4.997         20.681          3.82975281
   O         242.058          5.044         21.271          3.93909347
   O         242.775          5.046         21.303          3.94492314
   O         241.095          5.040         21.229          3.93124563
   O         197.167          4.874         19.198          3.55511001
   O         197.281          4.875         19.203          3.55613805
   O         210.098          4.926         19.817          3.66984128
   O         199.755          4.885         19.323          3.57836953
   O         228.806          4.997         20.681          3.82975046
   O         248.259          5.065         21.542          3.98922673

  vdW correction parametrized for the method ÿÿÿÿ    ÿÿ

  IVDW =  21
  VDW_RADIUS =    50.000 A
  VDW_IDAMPF =  0
  VDW_S6 =     1.000
  VDW_SR =     0.960
  VDW_D =    20.000
  LVDW_ONECELL = F F F
  LVDW_SAMETYPE T T
  LVDW_EWALD = F

  Number of pair interactions contributing to vdW energy:  723252
  Edisp (eV):   -3.88017

 VOLUME and BASIS-vectors are now :
  energy-cutoff  :      520.00
  volume of cell :     1519.82
      direct lattice vectors                 reciprocal lattice vectors
     8.440984654  0.000000000  0.000000000     0.118469591  0.000000000  0.000000000
     0.000000000  8.440984654  0.000000000     0.000000000  0.118469591  0.000000000
     0.000000000  0.000000000 21.330738491     0.000000000  0.000000000  0.046880702

  length of vectors
     8.440984654  8.440984654 21.330738491     0.118469591  0.118469591  0.046880702

 FORCES acting on ions
    electron-ion (+dipol)            ewald-force                    non-local-force                 convergence-correction
   0.205E-04 0.305E-04 0.294E+04   -.211E-04 -.319E-04 -.293E+04   0.304E-06 0.616E-06 -.594E+01   0.119E-08 0.108E-06 -.248E+00
   -.916E+00 -.381E+00 0.294E+04   0.932E+00 0.403E+00 -.293E+04   -.841E-02 -.112E-01 -.602E+01   0.165E-04 0.471E-07 -.248E+00
   0.975E-04 -.986E+00 0.978E+03   -.102E-03 0.102E+01 -.978E+03   0.207E-05 -.176E-01 0.292E+00   0.444E-08 -.102E-04 -.940E-01
   -.177E+01 0.185E-03 0.972E+03   0.177E+01 -.193E-03 -.973E+03   -.519E-02 0.395E-05 0.439E+00   0.103E-03 0.922E-07 -.939E-01
   0.530E-04 0.189E-04 -.946E+03   -.623E-04 -.108E-04 0.945E+03   0.555E-05 -.282E-05 0.458E+00   -.361E-08 0.295E-07 0.867E-01
   -.157E+02 0.507E+01 -.989E+03   0.172E+02 -.556E+01 0.990E+03   -.794E+00 0.236E+00 -.502E+00   0.565E-04 -.137E-03 0.907E-01
   0.216E-05 0.177E+01 -.292E+04   0.628E-05 -.964E+00 0.291E+04   -.498E-05 -.477E+00 0.546E+01   0.435E-08 0.499E-03 0.244E+00
   -.737E+02 0.160E-04 -.289E+04   0.743E+02 0.656E-04 0.288E+04   0.769E-01 -.394E-04 0.513E+01   0.581E-03 -.759E-07 0.242E+00
   0.214E-04 -.316E-04 0.294E+04   -.218E-04 0.327E-04 -.293E+04   0.238E-06 -.624E-06 -.595E+01   -.113E-07 0.563E-07 -.248E+00
   -.916E+00 0.381E+00 0.294E+04   0.932E+00 -.403E+00 -.293E+04   -.841E-02 0.112E-01 -.602E+01   0.164E-04 -.193E-06 -.248E+00
   0.100E-03 0.986E+00 0.978E+03   -.104E-03 -.102E+01 -.978E+03   0.221E-05 0.176E-01 0.292E+00   -.660E-08 0.101E-04 -.940E-01
   -.539E+01 -.188E-03 0.973E+03   0.562E+01 0.196E-03 -.974E+03   -.115E+00 -.398E-05 0.553E+00   0.511E-04 -.403E-07 -.940E-01
   0.652E-04 -.903E-04 -.964E+03   -.621E-04 0.901E-04 0.963E+03   -.202E-05 -.276E-06 0.317E+00   -.443E-09 -.448E-08 0.885E-01
   -.157E+02 -.507E+01 -.989E+03   0.172E+02 0.556E+01 0.990E+03   -.794E+00 -.236E+00 -.502E+00   0.565E-04 0.137E-03 0.907E-01
   0.120E-04 -.176E+01 -.292E+04   -.374E-05 0.964E+00 0.291E+04   -.490E-05 0.477E+00 0.546E+01   -.963E-08 -.499E-03 0.244E+00
   -.555E+01 -.713E-04 -.291E+04   0.360E+01 0.195E-04 0.290E+04   0.108E+01 0.257E-04 0.578E+01   -.171E-03 0.154E-07 0.245E+00
   -.207E-04 0.381E-04 0.294E+04   0.214E-04 -.392E-04 -.293E+04   -.317E-06 0.352E-06 -.595E+01   -.605E-08 0.156E-07 -.248E+00
   0.916E+00 -.381E+00 0.294E+04   -.932E+00 0.403E+00 -.293E+04   0.841E-02 -.112E-01 -.602E+01   -.165E-04 0.607E-07 -.248E+00
   -.101E-03 -.460E+01 0.965E+03   0.105E-03 0.485E+01 -.966E+03   -.210E-05 -.125E+00 0.387E+00   0.122E-08 -.658E-04 -.938E-01
   0.177E+01 0.187E-03 0.972E+03   -.177E+01 -.195E-03 -.973E+03   0.519E-02 0.401E-05 0.439E+00   -.103E-03 0.967E-07 -.939E-01
   -.755E-04 0.649E-03 -.100E+04   0.815E-04 -.632E-03 0.100E+04   -.365E-05 -.885E-05 -.271E+00   0.350E-08 0.803E-08 0.856E-01
   0.157E+02 0.507E+01 -.989E+03   -.172E+02 -.556E+01 0.990E+03   0.794E+00 0.236E+00 -.502E+00   -.565E-04 -.137E-03 0.907E-01
   -.462E-04 0.653E+02 -.301E+04   0.357E-04 -.674E+02 0.299E+04   0.609E-05 0.741E+00 0.654E+01   0.223E-08 -.132E-03 0.257E+00
   0.737E+02 0.227E-04 -.289E+04   -.743E+02 0.584E-04 0.288E+04   -.769E-01 -.393E-04 0.513E+01   -.581E-03 -.785E-07 0.242E+00
   -.214E-04 -.376E-04 0.294E+04   0.219E-04 0.390E-04 -.293E+04   -.240E-06 -.675E-06 -.603E+01   -.167E-07 -.370E-07 -.248E+00
   0.916E+00 0.381E+00 0.294E+04   -.932E+00 -.403E+00 -.293E+04   0.841E-02 0.112E-01 -.602E+01   -.164E-04 -.187E-06 -.248E+00
   -.104E-03 0.460E+01 0.965E+03   0.109E-03 -.485E+01 -.966E+03   -.223E-05 0.125E+00 0.387E+00   -.129E-08 0.657E-04 -.938E-01
   0.539E+01 -.193E-03 0.973E+03   -.562E+01 0.201E-03 -.974E+03   0.115E+00 -.410E-05 0.553E+00   -.511E-04 -.443E-07 -.940E-01
   -.725E-04 -.710E-03 -.996E+03   0.681E-04 0.714E-03 0.995E+03   0.263E-05 -.137E-05 0.576E+00   0.484E-08 0.202E-07 0.910E-01
   0.157E+02 -.507E+01 -.989E+03   -.172E+02 0.556E+01 0.990E+03   0.794E+00 -.236E+00 -.502E+00   -.565E-04 0.137E-03 0.907E-01
   -.424E-04 -.653E+02 -.301E+04   0.338E-04 0.674E+02 0.299E+04   0.504E-05 -.741E+00 0.654E+01   0.774E-08 0.132E-03 0.257E+00
   0.555E+01 -.923E-04 -.291E+04   -.360E+01 0.396E-04 0.290E+04   -.108E+01 0.263E-04 0.578E+01   0.171E-03 0.137E-07 0.245E+00
   0.444E-04 0.492E-04 0.589E+03   -.432E-04 -.483E-04 -.589E+03   -.142E-05 -.916E-06 0.203E+00   0.772E-08 0.546E-07 -.552E-01
   -.227E+01 -.404E+00 0.581E+03   0.223E+01 0.386E+00 -.580E+03   0.379E-01 0.180E-01 -.286E+00   0.505E-04 -.191E-04 -.551E-01
   0.127E-04 -.139E+00 0.178E+04   -.132E-04 0.149E+00 -.178E+04   0.569E-06 -.115E-01 0.307E+01   -.193E-08 0.668E-06 -.149E+00
   -.406E+00 0.214E-04 0.178E+04   0.412E+00 -.226E-04 -.178E+04   -.708E-02 0.129E-05 0.309E+01   0.156E-04 -.455E-07 -.149E+00
   -.471E-04 -.613E-04 -.177E+04   0.502E-04 0.914E-04 0.178E+04   -.294E-05 -.350E-04 -.381E+01   -.329E-08 -.145E-06 0.148E+00
   -.179E+02 0.877E+01 -.177E+04   0.190E+02 -.100E+02 0.177E+04   -.106E+01 0.151E+01 -.292E+01   -.877E-04 0.250E-04 0.148E+00
   0.438E-04 -.838E+00 -.573E+03   -.449E-04 0.707E+00 0.572E+03   0.101E-05 0.186E+00 0.535E+00   0.202E-08 0.268E-04 0.515E-01
   -.135E+02 0.161E-03 -.588E+03   0.143E+02 -.151E-03 0.588E+03   -.101E+01 -.125E-04 0.720E-01   0.269E-03 0.531E-07 0.526E-01
   0.551E-04 -.665E-04 0.587E+03   -.559E-04 0.687E-04 -.587E+03   0.859E-06 -.251E-05 0.111E+00   -.274E-08 -.314E-07 -.552E-01
   -.227E+01 0.404E+00 0.581E+03   0.223E+01 -.386E+00 -.580E+03   0.379E-01 -.180E-01 -.286E+00   0.505E-04 0.190E-04 -.551E-01
   0.130E-04 0.139E+00 0.178E+04   -.134E-04 -.149E+00 -.178E+04   0.586E-06 0.115E-01 0.307E+01   -.956E-08 -.872E-06 -.149E+00
   -.667E+00 -.216E-04 0.178E+04   0.689E+00 0.227E-04 -.178E+04   -.267E-01 -.112E-05 0.306E+01   0.752E-05 -.465E-07 -.149E+00
   0.224E-04 0.167E-04 -.178E+04   -.237E-04 -.438E-04 0.178E+04   0.125E-05 0.328E-04 -.374E+01   -.274E-08 0.981E-07 0.149E+00
   -.179E+02 -.877E+01 -.177E+04   0.190E+02 0.100E+02 0.177E+04   -.106E+01 -.151E+01 -.292E+01   -.876E-04 -.250E-04 0.148E+00
   0.469E-04 0.838E+00 -.573E+03   -.474E-04 -.707E+00 0.572E+03   0.478E-06 -.186E+00 0.535E+00   -.102E-08 -.268E-04 0.515E-01
   -.585E+01 -.168E-03 -.579E+03   0.578E+01 0.162E-03 0.578E+03   0.397E-01 0.818E-05 0.823E+00   -.159E-04 0.497E-07 0.521E-01
   -.487E-04 0.103E-03 0.589E+03   0.475E-04 -.106E-03 -.589E+03   0.137E-05 0.430E-05 0.203E+00   0.864E-09 0.426E-07 -.551E-01
   0.227E+01 -.404E+00 0.581E+03   -.223E+01 0.386E+00 -.580E+03   -.379E-01 0.180E-01 -.286E+00   -.505E-04 -.191E-04 -.551E-01
   -.128E-04 -.400E+00 0.178E+04   0.133E-04 0.426E+00 -.178E+04   -.579E-06 -.311E-01 0.305E+01   -.253E-08 -.904E-05 -.149E+00
   0.406E+00 0.216E-04 0.178E+04   -.412E+00 -.228E-04 -.178E+04   0.708E-02 0.132E-05 0.309E+01   -.156E-04 -.435E-07 -.149E+00
   -.723E-04 0.138E-02 -.178E+04   0.740E-04 -.132E-02 0.178E+04   -.530E-06 -.887E-04 -.222E+01   0.513E-08 0.123E-07 0.152E+00
   0.179E+02 0.877E+01 -.177E+04   -.190E+02 -.100E+02 0.177E+04   0.106E+01 0.151E+01 -.292E+01   0.877E-04 0.250E-04 0.148E+00
   -.469E-04 0.514E+01 -.627E+03   0.465E-04 -.592E+01 0.629E+03   0.731E-06 0.106E+01 -.198E+01   0.348E-08 -.259E-03 0.535E-01
   0.135E+02 0.161E-03 -.588E+03   -.143E+02 -.151E-03 0.588E+03   0.101E+01 -.129E-04 0.720E-01   -.269E-03 0.504E-07 0.526E-01
   -.552E-04 -.958E-04 0.577E+03   0.556E-04 0.954E-04 -.577E+03   -.420E-06 0.477E-06 -.261E+00   -.384E-08 -.991E-08 -.551E-01
   0.227E+01 0.404E+00 0.581E+03   -.223E+01 -.386E+00 -.580E+03   -.379E-01 -.180E-01 -.286E+00   -.505E-04 0.190E-04 -.551E-01
   -.131E-04 0.400E+00 0.178E+04   0.136E-04 -.426E+00 -.178E+04   -.597E-06 0.311E-01 0.305E+01   -.231E-09 0.906E-05 -.149E+00
   0.667E+00 -.219E-04 0.178E+04   -.689E+00 0.230E-04 -.178E+04   0.267E-01 -.113E-05 0.306E+01   -.753E-05 -.489E-07 -.149E+00
   -.215E-04 -.143E-02 -.176E+04   0.226E-04 0.148E-02 0.176E+04   -.881E-06 -.104E-04 -.158E+01   0.254E-08 0.867E-07 0.150E+00
   0.179E+02 -.877E+01 -.177E+04   -.190E+02 0.100E+02 0.177E+04   0.106E+01 -.151E+01 -.292E+01   0.876E-04 -.250E-04 0.148E+00
   -.529E-04 -.514E+01 -.627E+03   0.524E-04 0.592E+01 0.629E+03   0.871E-06 -.106E+01 -.198E+01   0.542E-08 0.259E-03 0.535E-01
   0.585E+01 -.184E-03 -.579E+03   -.578E+01 0.179E-03 0.578E+03   -.397E-01 0.806E-05 0.823E+00   0.159E-04 0.453E-07 0.521E-01
   0.125E-04 -.690E-04 -.181E+00   0.277E-12 0.730E-13 -.625E-11   -.719E-05 0.577E-04 -.238E+00   -.166E-07 -.549E-06 -.752E-01

 POSITION                                       TOTAL-FORCE (eV/Angst)
      0.00000      6.33074      7.50000        -0.000000     -0.000000      0.517207
      2.11025      0.00000      7.50000         0.003497      0.004803      0.537243
      0.00000      0.00000      9.61025        -0.000001      0.009128      0.026942
      2.11025      6.33074      9.61025        -0.004679     -0.000002      0.061154
      8.44098      6.33074     11.70770         0.000000      0.000006     -0.093148
      2.12746      0.00639     11.74873         0.141346     -0.181039     -0.070218
      0.00000      0.01951     13.83398        -0.000000     -0.058044     -0.384164
      2.00198      6.33074     13.80873         1.554505      0.000027     -0.091290
      0.00000      2.11025      7.50000        -0.000000      0.000000      0.520236
      2.11025      4.22049      7.50000         0.003497     -0.004803      0.537243
      0.00000      4.22049      9.61025        -0.000001     -0.009129      0.026942
      2.11025      2.11025      9.61025         0.050685      0.000002      0.010495
      0.00000      2.11025     11.72390        -0.000000     -0.000001     -0.111633
      2.12746      4.21411     11.74874         0.141349      0.181037     -0.070205
      0.00000      4.20098     13.83399        -0.000000      0.058042     -0.384085
      2.09055      2.11025     13.84219        -0.175638     -0.000015     -0.507185
      4.22049      6.33074      7.50000         0.000000     -0.000000      0.518832
      6.33074      0.00000      7.50000        -0.003497      0.004803      0.537243
      4.22049      0.00000      9.61025         0.000001      0.064700      0.124821
      6.33074      6.33074      9.61025         0.004679     -0.000002      0.061155
      4.22049      6.33074     11.68401        -0.000001      0.000005      1.210948
      6.31352      0.00639     11.74873        -0.141347     -0.181040     -0.070139
      4.22049      0.09461     14.03823        -0.000000     -1.668828     -1.365648
      6.43900      6.33074     13.80874        -1.554506      0.000027     -0.091383
      4.22049      2.11025      7.50000         0.000000      0.000000      0.541130
      6.33074      4.22049      7.50000        -0.003497     -0.004803      0.537244
      4.22049      4.22049      9.61025         0.000001     -0.064699      0.124822
      6.33074      2.11025      9.61025        -0.050685      0.000002      0.010497
      4.22049      2.11025     11.75624         0.000000      0.000002     -0.269798
      6.31352      4.21411     11.74874        -0.141349      0.181038     -0.070126
      4.22049      4.12589     14.03823        -0.000000      1.668768     -1.365665
      6.35044      2.11025     13.84219         0.175638     -0.000015     -0.507265
      0.00000      6.33074      9.61025        -0.000000     -0.000000      0.030505
      2.11025      0.00000      9.61025         0.008058      0.003036      0.061732
      0.00000      0.00000      7.50000         0.000000     -0.004114     -0.433331
      2.11025      6.33074      7.50000        -0.001918     -0.000000     -0.428030
      0.00000      6.33074     13.85236        -0.000001     -0.000012      0.133469
      2.09470      8.42835     13.85928        -0.100010      0.531034      0.427677
      0.00000      8.43640     11.71794         0.000000      0.089134      0.185158
      2.12978      6.33074     11.73761        -0.442714     -0.000006     -0.202828
      0.00000      2.11025      9.61025         0.000000     -0.000001      0.080624
      2.11025      4.22049      9.61025         0.008058     -0.003036      0.061734
      0.00000      4.22049      7.50000         0.000000      0.004114     -0.433332
      2.11025      2.11025      7.50000        -0.008566     -0.000000     -0.437677
      0.00000      2.11025     13.86794         0.000000      0.000012      0.130225
      2.09470      4.23313     13.85927        -0.100014     -0.531020      0.427813
      0.00000      4.22508     11.71794        -0.000000     -0.089131      0.185232
      2.11475      2.11025     11.72990        -0.017563      0.000004      0.211672
      4.22049      6.33074      9.61025         0.000000      0.000001     -0.105477
      6.33074      0.00000      9.61025        -0.008058      0.003036      0.061733
      4.22049      0.00000      7.50000        -0.000000     -0.010759     -0.440538
      6.33074      6.33074      7.50000         0.001918     -0.000000     -0.428030
      4.22049      6.33075     13.97279         0.000002     -0.000050      0.080829
      6.34628      8.42835     13.85928         0.100010      0.531029      0.427772
      4.22049      8.42157     11.75528         0.000001      0.480644     -0.163693
      6.31120      6.33074     11.73761         0.442714     -0.000006     -0.203009
      4.22049      2.11025      9.61025        -0.000000      0.000000      0.105353
      6.33074      4.22049      9.61025        -0.008058     -0.003035      0.061736
      4.22049      4.22049      7.50000        -0.000000      0.010759     -0.440538
      6.33074      2.11025      7.50000         0.008566     -0.000000     -0.437677
      4.22049      2.11025     13.90047         0.000000      0.000043      0.552680
      6.34628      4.23313     13.85927         0.100014     -0.531015      0.427908
      4.22049      4.23991     11.75528         0.000001     -0.480634     -0.163504
      6.32623      2.11025     11.72990         0.017562      0.000004      0.211612
    total drift:                               -0.000001      0.000005     -0.268827

  FREE ENERGIE OF THE ION-ELECTRON SYSTEM (eV)
  free  energy   TOTEN  =      -467.86238255 eV

  energy  without entropy=     -467.86238255  energy(sigma->0) =     -467.86238255