 vasp.6.2.1 16May21 (build Aug 23 2021 11:19:13) complex

 executed on SGIICEXA-Intel19-HMP date 2024.11.01  20:08:13

 INCAR:
   SYSTEM = Oxide-Surface
   ISMEAR = 0
   SIGMA = 0.05
   EDIFF = 1E-5
   ALGO = Normal
   IBRION = -1
   NSW = 0
   ISYM = 0
   DIPOL = 0.5 0.5 0.5
   IDIPOL = 3
   LDIPOL = .TRUE.
   ISTART = 0
   GGA = PE
   IVDW = 11
   ENCUT = 520
   PREC = Normal
   PRECFOCK = Normal
   LASPH = .TRUE.
   LREAL = Auto
   ISPIN = 1
   NELM = 200
   NELMIN = 8
   NCORE = 1
   KPAR = 1
   LWAVE = .TRUE.
   LCHARG = .FALSE.

 POTCAR:    PAW_PBE Mg_sv 12Apr2007
 POTCAR:    PAW_PBE O 08Apr2002
 POTCAR:    PAW_PBE Mg_sv 12Apr2007
   VRHFIN =Mg: p6s2

   TITEL  = PAW_PBE Mg_sv 12Apr2007
   POMASS =   24.305; ZVAL   =   10.000    mass and valenz
   ENMAX  =  495.223; ENMIN  =  371.417 eV

   TITEL  = PAW_PBE O 08Apr2002
   POMASS =   16.000; ZVAL   =    6.000    mass and valenz
   ENMAX  =  400.000; ENMIN  =  300.000 eV

 Optimization of the real space projectors (new method)

 maximal supplied QI-value         = 22.11
 optimisation between [QCUT,QGAM] = [ 11.50, 23.22] = [ 37.02,150.92] Ry
 Optimized for a Real-space Cutoff    1.14 Angstroem

   l    n(q)    QCUT    max X(q) W(low)/X(q) W(high)/X(q)  e(spline)
   0      8    11.497     8.730    0.49E-04    0.64E-04    0.16E-07
   0      8    11.497     8.910    0.67E-04    0.91E-04    0.30E-07
   1      7    11.497     2.513    0.13E-03    0.16E-04    0.93E-07
   1      7    11.497     3.341    0.38E-03    0.12E-03    0.27E-06
   2      7    11.497     3.683    0.37E-03    0.44E-03    0.72E-07
 Optimization of the real space projectors (new method)

 maximal supplied QI-value         = 24.76
 optimisation between [QCUT,QGAM] = [ 11.64, 23.27] = [ 37.91,151.63] Ry
 Optimized for a Real-space Cutoff    1.04 Angstroem

   l    n(q)    QCUT    max X(q) W(low)/X(q) W(high)/X(q)  e(spline)
   0      7    11.635    20.381    0.14E-03    0.49E-03    0.18E-06
   0      7    11.635    15.268    0.16E-03    0.52E-03    0.19E-06
   1      7    11.635     5.964    0.30E-03    0.44E-03    0.22E-06
   1      7    11.635     5.382    0.27E-03    0.34E-03    0.19E-06
  PAW_PBE Mg_sv 12Apr2007               :
  PAW_PBE O 08Apr2002                   :

 POSCAR: Mg  O
  positions in direct lattice
 exchange correlation table for  LEXCH =        8
   RHO(1)=    0.500       N(1)  =     2000
   RHO(2)=  100.500       N(2)  =     4000

 ion  position               nearest neighbor table
   1  0.000  0.750  0.352-  33 2.11  35 2.11  36 2.11  43 2.11  52 2.11
   2  0.250  0.000  0.352-  34 2.11  35 2.11  36 2.11  44 2.11  51 2.11
   3  0.000  0.000  0.451-  39 2.11  35 2.11  33 2.11  34 2.11  41 2.11  50 2.11
   4  0.250  0.750  0.451-  36 2.11  34 2.11  33 2.11  42 2.11  49 2.11  40 2.13
   5  1.000  0.750  0.549-  33 2.10  47 2.11  39 2.11
   6  0.252  0.001  0.551-  55 2.09  48 2.10  38 2.11  40 2.12
   7  0.000  0.002  0.649-  45 2.09  38 2.10  54 2.10  39 2.12
   8  0.237  0.750  0.647-  37 2.00  40 2.08  46 2.10  38 2.10
   9  0.000  0.250  0.352-  41 2.11  35 2.11  43 2.11  44 2.11  60 2.11
  10  0.250  0.500  0.352-  42 2.11  36 2.11  43 2.11  44 2.11  59 2.11
  11  0.000  0.500  0.451-  47 2.11  43 2.11  42 2.11  33 2.11  41 2.11  58 2.11
  12  0.250  0.250  0.451-  44 2.11  41 2.11  42 2.11  34 2.11  57 2.11  48 2.12
  13  0.000  0.250  0.550-  41 2.11  48 2.11  64 2.11  47 2.11  39 2.11
  14  0.252  0.499  0.551-  63 2.09  48 2.10  46 2.11  40 2.12
  15  0.000  0.498  0.649-  45 2.09  46 2.10  62 2.10  47 2.12
  16  0.248  0.250  0.649-  45 2.09  48 2.11  46 2.12  38 2.12
  17  0.500  0.750  0.352-  49 2.11  36 2.11  51 2.11  52 2.11  59 2.11
  18  0.750  0.000  0.352-  50 2.11  35 2.11  51 2.11  52 2.11  60 2.11
  19  0.500  0.000  0.451-  51 2.11  49 2.11  50 2.11  34 2.11  57 2.11
  20  0.750  0.750  0.451-  52 2.11  49 2.11  50 2.11  33 2.11  58 2.11  56 2.13
  21  0.500  0.750  0.548-  49 2.07  56 2.09  40 2.09  63 2.09  55 2.09
  22  0.748  0.001  0.551-  55 2.09  64 2.10  54 2.11  56 2.12
  23  0.500  0.011  0.658-  61 2.02
  24  0.763  0.750  0.647-  37 2.00  56 2.08  62 2.10  54 2.10
  25  0.500  0.250  0.352-  57 2.11  51 2.11  44 2.11  59 2.11  60 2.11
  26  0.750  0.500  0.352-  58 2.11  52 2.11  43 2.11  59 2.11  60 2.11
  27  0.500  0.500  0.451-  59 2.11  49 2.11  57 2.11  58 2.11  42 2.11
  28  0.750  0.250  0.451-  60 2.11  50 2.11  57 2.11  58 2.11  41 2.11  64 2.12
  29  0.500  0.250  0.551-  48 2.11  64 2.11
  30  0.748  0.499  0.551-  63 2.09  64 2.10  62 2.11  56 2.12
  31  0.500  0.489  0.658-  61 2.02
  32  0.752  0.250  0.649-  45 2.09  64 2.11  62 2.12  54 2.12
  33  0.000  0.750  0.451-   5 2.10   1 2.11   4 2.11   3 2.11  11 2.11  20 2.11
  34  0.250  0.000  0.451-   2 2.11   3 2.11   4 2.11  12 2.11  19 2.11
  35  0.000  0.000  0.352-   3 2.11   2 2.11   1 2.11   9 2.11  18 2.11
  36  0.250  0.750  0.352-   4 2.11   2 2.11   1 2.11  10 2.11  17 2.11
  37  0.000  0.750  0.649-   8 2.00  24 2.00
  38  0.248  0.999  0.650-   7 2.10   8 2.10   6 2.11  16 2.12
  39  0.000  0.999  0.549-   5 2.11   3 2.11  13 2.11   7 2.12
  40  0.252  0.750  0.550-   8 2.08  21 2.09   6 2.12  14 2.12   4 2.13
  41  0.000  0.250  0.451-   9 2.11   3 2.11  11 2.11  12 2.11  28 2.11  13 2.11
  42  0.250  0.500  0.451-  10 2.11   4 2.11  11 2.11  12 2.11  27 2.11
  43  0.000  0.500  0.352-  11 2.11   9 2.11  10 2.11   1 2.11  26 2.11
  44  0.250  0.250  0.352-  12 2.11   9 2.11  10 2.11   2 2.11  25 2.11
  45  0.000  0.250  0.650-  16 2.09  32 2.09   7 2.09  15 2.09
  46  0.248  0.501  0.650-  15 2.10   8 2.10  14 2.11  16 2.12
  47  0.000  0.501  0.549-   5 2.11  11 2.11  13 2.11  15 2.12
  48  0.251  0.250  0.550-   6 2.10  14 2.10  29 2.11  16 2.11  13 2.11  12 2.12
  49  0.500  0.750  0.451-  21 2.07  17 2.11  19 2.11  20 2.11   4 2.11  27 2.11
  50  0.750  0.000  0.451-  18 2.11   3 2.11  19 2.11  20 2.11  28 2.11
  51  0.500  0.000  0.352-  19 2.11  17 2.11  18 2.11   2 2.11  25 2.11
  52  0.750  0.750  0.352-  20 2.11  17 2.11  18 2.11   1 2.11  26 2.11
  53  0.500  0.750  0.655-
  54  0.752  0.999  0.650-   7 2.10  24 2.10  22 2.11  32 2.12
  55  0.500  0.998  0.551-  21 2.09   6 2.09  22 2.09
  56  0.748  0.750  0.550-  24 2.08  21 2.09  22 2.12  30 2.12  20 2.13
  57  0.500  0.250  0.451-  25 2.11  19 2.11  12 2.11  27 2.11  28 2.11
  58  0.750  0.500  0.451-  26 2.11  20 2.11  11 2.11  27 2.11  28 2.11
  59  0.500  0.500  0.352-  27 2.11  17 2.11  25 2.11  26 2.11  10 2.11
  60  0.750  0.250  0.352-  28 2.11  18 2.11  25 2.11  26 2.11   9 2.11
  61  0.500  0.250  0.652-  23 2.02  31 2.02
  62  0.752  0.501  0.650-  15 2.10  24 2.10  30 2.11  32 2.12
  63  0.500  0.502  0.551-  21 2.09  14 2.09  30 2.09
  64  0.749  0.250  0.550-  22 2.10  30 2.10  29 2.11  32 2.11  13 2.11  28 2.12

IMPORTANT INFORMATION: All symmetrisations will be switched off!
NOSYMM: (Re-)initialisation of all symmetry stuff for point group C_1.

                                     Primitive cell

  volume of cell :    1519.8199

  direct lattice vectors                    reciprocal lattice vectors
     8.440984654  0.000000000  0.000000000     0.118469591  0.000000000  0.000000000
     0.000000000  8.440984654  0.000000000     0.000000000  0.118469591  0.000000000
     0.000000000  0.000000000 21.330738491     0.000000000  0.000000000  0.046880702

  length of vectors
     8.440984654  8.440984654 21.330738491     0.118469591  0.118469591  0.046880702

  position of ions in fractional coordinates (direct lattice)
     0.000000000  0.750000000  0.351605267
     0.250000000  0.000000000  0.351605267
     0.000000000  0.000000000  0.450535089
     0.250000000  0.750000000  0.450535089
     0.999999975  0.749999946  0.548865087
     0.252039878  0.000756628  0.550788885
     0.000000022  0.002311195  0.648546918
     0.237174188  0.749999934  0.647363126
     0.000000000  0.250000000  0.351605267
     0.250000000  0.500000000  0.351605267
     0.000000000  0.500000000  0.450535089
     0.250000000  0.250000000  0.450535089
     0.000000013  0.249999998  0.549624541
     0.252039900  0.499243377  0.550788959
     0.000000021  0.497688821  0.648546972
     0.247666318  0.250000068  0.648931672
     0.500000000  0.750000000  0.351605267
     0.750000000  0.000000000  0.351605267
     0.500000000  0.000000000  0.450535089
     0.750000000  0.750000000  0.450535089
     0.500000019  0.750000015  0.547754495
     0.747960121  0.000756607  0.550788926
     0.499999989  0.011207993  0.658121991
     0.762825847  0.749999939  0.647363220
     0.500000000  0.250000000  0.351605267
     0.750000000  0.500000000  0.351605267
     0.500000000  0.500000000  0.450535089
     0.750000000  0.250000000  0.450535089
     0.499999992  0.250000035  0.551140650
     0.747960100  0.499243403  0.550789001
     0.499999989  0.488792575  0.658122307
     0.752333689  0.250000066  0.648931633
     0.000000000  0.750000000  0.450535089
     0.250000000  0.000000000  0.450535089
     0.000000000  0.000000000  0.351605267
     0.250000000  0.750000000  0.351605267
     0.000000022  0.750000036  0.649408351
     0.248158655  0.998502614  0.649732587
     0.000000003  0.999457034  0.549345342
     0.252314547  0.750000035  0.550267426
     0.000000000  0.250000000  0.450535089
     0.250000000  0.500000000  0.450535089
     0.000000000  0.500000000  0.351605267
     0.250000000  0.250000000  0.351605267
     0.000000004  0.249999984  0.650138735
     0.248158633  0.501497394  0.649732528
     0.000000002  0.500542928  0.549345336
     0.250533587  0.249999977  0.549905895
     0.500000000  0.750000000  0.450535089
     0.750000000  0.000000000  0.450535089
     0.500000000  0.000000000  0.351605267
     0.750000000  0.750000000  0.351605267
     0.499999960  0.750000818  0.655054079
     0.751841360  0.998502595  0.649732592
     0.499999996  0.997699832  0.551095612
     0.747685455  0.750000036  0.550267463
     0.500000000  0.250000000  0.450535089
     0.750000000  0.500000000  0.450535089
     0.500000000  0.500000000  0.351605267
     0.750000000  0.250000000  0.351605267
     0.500000007  0.249999918  0.651663796
     0.751841378  0.501497418  0.649732540
     0.499999996  0.502300219  0.551095607
     0.749466420  0.249999975  0.549905909

  ion indices of the primitive-cell ions
   primitive index   ion index
                 1           1
                 2           2
                 3           3
                 4           4
                 5           5
                 6           6
                 7           7
                 8           8
                 9           9
                10          10
                11          11
                12          12
                13          13
                14          14
                15          15
                16          16
                17          17
                18          18
                19          19
                20          20
                21          21
                22          22
                23          23
                24          24
                25          25
                26          26
                27          27
                28          28
[...]
   6.33073849  2.11024616  7.50000000
   4.22049238  2.11024547 13.90047003
   6.34628153  4.23313201 13.85927490
   4.22049229  4.23990844 11.75527627
   6.32623455  2.11024596 11.72989914

--------------------------------------- Iteration      FINAL  ---------------------------------------

--------------------OUTCAR has been truncated-------------------------

[...]

--------------------OUTCAR has been truncated-------------------------

         DFTD3 V3.0 Rev 1
 IVDW         = 11
 DF pbe
 parameters
 VDW_S6       =    1.0000
 VDW_S8       =    0.7220
 VDW_SR       =    1.2170
 rs18     =    1.0000
 alpha6   =   14.0000
 alpha8   =   16.0000
 k1-k3    =   16.0000    1.3333   -4.0000
 VDW_RADIUS   =   50.2022 A
 VDW_CNRADIUS =   21.1671 A
 Edisp (eV)   -9.21521

 E6    (eV) :    -4.2143
 E8    (eV) :    -5.0009
 % E8        : 54.27

  FORCE on cell =-STRESS in cart. coord.  units (eV):
  Direction    XX          YY          ZZ          XY          YZ          ZX
  Alpha Z  1031.57327  1031.57327  1031.57327
  Ewald  209236.66745209259.97268************    -0.00000     0.00054    -0.00004
  Hartree225207.79607225225.29438************    -0.00000     0.00036    -0.00003
  E(xc)   -3201.67150 -3201.65444 -3207.87897    -0.00000     0.00000     0.00000
  Local  ************************445984.44096     0.00000    -0.00090     0.00006
  n-local -5912.43093 -5912.38003 -5906.71020    -0.00000     0.00001     0.00000
  augment   916.71759   916.73502   907.79913     0.00000     0.00000     0.00000
  Kinetic 10942.14862 10941.55160 10950.42014     0.00000    -0.00005    -0.00000
  Fock        0.00000     0.00000     0.00000     0.00000     0.00000     0.00000
  vdW       -11.75877   -11.76740    -7.03881     0.00000     0.00000     0.00000
  Total     -36.03584   -36.45373    -9.13872     0.00000    -0.00005    -0.00000
  in kB     -37.98858   -38.42912    -9.63394     0.00000    -0.00005    -0.00000

 VOLUME and BASIS-vectors are now :
  energy-cutoff  :      520.00
  volume of cell :     1519.82
      direct lattice vectors                 reciprocal lattice vectors
     8.440984654  0.000000000  0.000000000     0.118469591  0.000000000  0.000000000
     0.000000000  8.440984654  0.000000000     0.000000000  0.118469591  0.000000000
     0.000000000  0.000000000 21.330738491     0.000000000  0.000000000  0.046880702

  length of vectors
     8.440984654  8.440984654 21.330738491     0.118469591  0.118469591  0.046880702

 FORCES acting on ions
    electron-ion (+dipol)            ewald-force                    non-local-force                 convergence-correction
   0.206E-04 0.306E-04 0.294E+04   -.211E-04 -.319E-04 -.293E+04   0.483E-06 0.873E-06 -.906E+01   -.838E-07 0.945E-07 -.135E-05
   -.917E+00 -.382E+00 0.294E+04   0.932E+00 0.403E+00 -.293E+04   -.121E-01 -.164E-01 -.919E+01   -.130E-05 -.257E-05 0.639E-05
   0.977E-04 -.988E+00 0.978E+03   -.102E-03 0.102E+01 -.978E+03   0.295E-05 -.249E-01 0.485E+00   -.577E-07 0.415E-05 -.101E-03
   -.178E+01 0.186E-03 0.972E+03   0.177E+01 -.193E-03 -.973E+03   0.343E-02 0.570E-05 0.739E+00   0.326E-05 -.920E-07 -.108E-03
   0.534E-04 0.179E-04 -.945E+03   -.623E-04 -.108E-04 0.945E+03   0.918E-05 -.100E-05 0.699E+00   0.691E-07 -.134E-07 -.678E-05
   -.158E+02 0.513E+01 -.989E+03   0.172E+02 -.556E+01 0.990E+03   -.122E+01 0.259E+00 -.886E+00   0.935E-05 0.193E-05 -.294E-04
   0.173E-05 0.176E+01 -.291E+04   0.628E-05 -.964E+00 0.291E+04   -.799E-05 -.854E+00 0.836E+01   -.144E-06 0.200E-04 0.157E-04
   -.737E+02 0.845E-05 -.289E+04   0.743E+02 0.656E-04 0.288E+04   0.940E+00 -.486E-04 0.802E+01   0.176E-04 -.928E-07 -.778E-05
   0.215E-04 -.316E-04 0.294E+04   -.218E-04 0.327E-04 -.293E+04   0.324E-06 -.782E-06 -.908E+01   -.555E-07 -.550E-07 0.922E-05
   -.917E+00 0.382E+00 0.294E+04   0.932E+00 -.403E+00 -.293E+04   -.121E-01 0.164E-01 -.919E+01   -.124E-05 0.259E-05 0.651E-05
   0.100E-03 0.988E+00 0.978E+03   -.104E-03 -.102E+01 -.978E+03   0.312E-05 0.249E-01 0.485E+00   -.475E-07 -.406E-05 -.101E-03
   -.540E+01 -.188E-03 0.973E+03   0.562E+01 0.196E-03 -.974E+03   -.165E+00 -.589E-05 0.897E+00   0.150E-05 0.240E-07 -.992E-04
   0.650E-04 -.900E-04 -.963E+03   -.621E-04 0.901E-04 0.963E+03   -.344E-05 -.109E-05 0.410E+00   0.642E-07 -.104E-07 -.416E-04
   -.158E+02 -.513E+01 -.989E+03   0.172E+02 0.556E+01 0.990E+03   -.122E+01 -.259E+00 -.886E+00   0.934E-05 -.196E-05 -.295E-04
   0.114E-04 -.176E+01 -.291E+04   -.374E-05 0.964E+00 0.291E+04   -.799E-05 0.854E+00 0.836E+01   0.332E-07 -.199E-04 0.157E-04
   -.546E+01 -.676E-04 -.291E+04   0.360E+01 0.195E-04 0.290E+04   0.170E+01 0.334E-04 0.880E+01   0.225E-04 0.162E-06 0.459E-04
   -.208E-04 0.382E-04 0.294E+04   0.214E-04 -.392E-04 -.293E+04   -.466E-06 0.694E-06 -.906E+01   0.647E-07 0.386E-07 -.112E-04
   0.917E+00 -.382E+00 0.294E+04   -.932E+00 0.403E+00 -.293E+04   0.121E-01 -.164E-01 -.919E+01   0.129E-05 -.262E-05 0.668E-05
   -.101E-03 -.459E+01 0.965E+03   0.105E-03 0.485E+01 -.966E+03   -.294E-05 -.190E+00 0.674E+00   -.215E-07 0.255E-05 -.103E-03
   0.178E+01 0.188E-03 0.972E+03   -.177E+01 -.195E-03 -.973E+03   -.343E-02 0.579E-05 0.739E+00   -.322E-05 -.620E-07 -.109E-03
   -.756E-04 0.645E-03 -.100E+04   0.815E-04 -.632E-03 0.100E+04   -.635E-05 -.937E-05 0.177E+00   -.777E-07 -.160E-07 -.429E-04
   0.158E+02 0.513E+01 -.989E+03   -.172E+02 -.556E+01 0.990E+03   0.122E+01 0.259E+00 -.886E+00   -.929E-05 0.192E-05 -.296E-04
   -.455E-04 0.654E+02 -.301E+04   0.357E-04 -.674E+02 0.299E+04   0.944E-05 0.321E+00 0.953E+01   0.126E-06 0.398E-04 0.597E-04
   0.737E+02 0.151E-04 -.289E+04   -.743E+02 0.584E-04 0.288E+04   -.940E+00 -.485E-04 0.802E+01   -.175E-04 -.182E-07 -.776E-05
   -.215E-04 -.378E-04 0.294E+04   0.219E-04 0.390E-04 -.293E+04   -.347E-06 -.916E-06 -.920E+01   0.564E-07 -.169E-07 0.187E-04
   0.917E+00 0.382E+00 0.294E+04   -.932E+00 -.403E+00 -.293E+04   0.121E-01 0.164E-01 -.919E+01   0.126E-05 0.257E-05 0.668E-05
   -.105E-03 0.459E+01 0.965E+03   0.109E-03 -.485E+01 -.966E+03   -.314E-05 0.190E+00 0.674E+00   -.533E-09 -.258E-05 -.103E-03
   0.540E+01 -.193E-03 0.973E+03   -.562E+01 0.201E-03 -.974E+03   0.165E+00 -.608E-05 0.897E+00   -.149E-05 0.683E-07 -.994E-04
   -.722E-04 -.709E-03 -.996E+03   0.681E-04 0.714E-03 0.995E+03   0.442E-05 -.246E-05 0.763E+00   -.741E-07 0.381E-07 -.393E-04
   0.158E+02 -.513E+01 -.989E+03   -.172E+02 0.556E+01 0.990E+03   0.122E+01 -.259E+00 -.886E+00   -.932E-05 -.188E-05 -.295E-04
   -.417E-04 -.654E+02 -.301E+04   0.338E-04 0.674E+02 0.299E+04   0.793E-05 -.321E+00 0.953E+01   -.416E-07 -.398E-04 0.598E-04
   0.546E+01 -.884E-04 -.291E+04   -.360E+01 0.396E-04 0.290E+04   -.170E+01 0.348E-04 0.880E+01   -.225E-04 -.690E-07 0.460E-04
   0.444E-04 0.493E-04 0.589E+03   -.432E-04 -.483E-04 -.589E+03   -.149E-05 -.101E-05 0.227E+00   -.528E-07 -.592E-07 -.445E-04
   -.227E+01 -.401E+00 0.581E+03   0.223E+01 0.386E+00 -.580E+03   0.432E-01 0.165E-01 -.314E+00   0.175E-05 0.159E-05 -.499E-04
   0.128E-04 -.140E+00 0.178E+04   -.132E-04 0.149E+00 -.178E+04   0.652E-06 -.129E-01 0.349E+01   -.295E-07 0.109E-06 -.705E-05
   -.407E+00 0.216E-04 0.178E+04   0.412E+00 -.226E-04 -.178E+04   -.688E-02 0.142E-05 0.351E+01   0.601E-06 -.420E-07 -.653E-05
   -.473E-04 -.641E-04 -.177E+04   0.502E-04 0.914E-04 0.178E+04   -.336E-05 -.378E-04 -.431E+01   0.590E-08 -.470E-07 -.583E-05
   -.179E+02 0.886E+01 -.177E+04   0.190E+02 -.100E+02 0.177E+04   -.117E+01 0.165E+01 -.333E+01   0.253E-05 0.343E-05 0.957E-05
   0.438E-04 -.823E+00 -.573E+03   -.449E-04 0.707E+00 0.572E+03   0.108E-05 0.198E+00 0.578E+00   0.129E-06 0.525E-06 -.725E-04
   -.136E+02 0.160E-03 -.588E+03   0.143E+02 -.151E-03 0.588E+03   -.110E+01 -.134E-04 0.879E-01   0.244E-04 0.146E-07 -.546E-04
   0.552E-04 -.667E-04 0.587E+03   -.559E-04 0.687E-04 -.587E+03   0.933E-06 -.277E-05 0.126E+00   -.735E-08 -.319E-07 -.453E-04
   -.227E+01 0.401E+00 0.581E+03   0.223E+01 -.386E+00 -.580E+03   0.432E-01 -.165E-01 -.314E+00   0.182E-05 -.153E-05 -.500E-04
   0.131E-04 0.140E+00 0.178E+04   -.134E-04 -.149E+00 -.178E+04   0.709E-06 0.129E-01 0.349E+01   -.136E-06 -.121E-06 -.674E-05
   -.667E+00 -.218E-04 0.178E+04   0.689E+00 0.227E-04 -.178E+04   -.302E-01 -.142E-05 0.347E+01   -.873E-06 0.439E-07 0.659E-06
   0.224E-04 0.185E-04 -.178E+04   -.237E-04 -.438E-04 0.178E+04   0.135E-05 0.364E-04 -.423E+01   0.168E-07 -.303E-07 0.238E-04
   -.179E+02 -.886E+01 -.177E+04   0.190E+02 0.100E+02 0.177E+04   -.117E+01 -.165E+01 -.333E+01   0.246E-05 -.356E-05 0.981E-05
   0.468E-04 0.823E+00 -.573E+03   -.474E-04 -.707E+00 0.572E+03   0.554E-06 -.198E+00 0.578E+00   -.897E-08 -.512E-06 -.726E-04
   -.585E+01 -.167E-03 -.579E+03   0.578E+01 0.162E-03 0.578E+03   0.489E-01 0.910E-05 0.890E+00   0.251E-05 0.330E-08 -.676E-04
   -.486E-04 0.103E-03 0.589E+03   0.475E-04 -.106E-03 -.589E+03   0.145E-05 0.511E-05 0.247E+00   0.244E-07 -.682E-07 -.296E-04
   0.227E+01 -.401E+00 0.581E+03   -.223E+01 0.386E+00 -.580E+03   -.432E-01 0.165E-01 -.314E+00   -.171E-05 0.159E-05 -.500E-04
   -.129E-04 -.400E+00 0.178E+04   0.133E-04 0.426E+00 -.178E+04   -.669E-06 -.363E-01 0.347E+01   0.743E-07 -.157E-05 -.310E-06
   0.407E+00 0.218E-04 0.178E+04   -.412E+00 -.228E-04 -.178E+04   0.688E-02 0.142E-05 0.351E+01   -.613E-06 0.258E-07 -.647E-05
   -.719E-04 0.137E-02 -.178E+04   0.740E-04 -.132E-02 0.178E+04   -.405E-06 -.101E-03 -.254E+01   -.475E-07 -.614E-08 0.363E-05
   0.179E+02 0.886E+01 -.177E+04   -.190E+02 -.100E+02 0.177E+04   0.117E+01 0.165E+01 -.333E+01   -.255E-05 0.355E-05 0.101E-04
   -.468E-04 0.522E+01 -.627E+03   0.465E-04 -.592E+01 0.629E+03   0.864E-06 0.115E+01 -.219E+01   -.973E-07 -.230E-04 -.796E-04
   0.136E+02 0.160E-03 -.588E+03   -.143E+02 -.151E-03 0.588E+03   0.110E+01 -.139E-04 0.879E-01   -.243E-04 -.904E-07 -.545E-04
   -.552E-04 -.959E-04 0.577E+03   0.556E-04 0.954E-04 -.577E+03   -.461E-06 0.461E-06 -.295E+00   0.472E-07 0.125E-06 -.499E-04
   0.227E+01 0.401E+00 0.581E+03   -.223E+01 -.386E+00 -.580E+03   -.432E-01 -.165E-01 -.314E+00   -.180E-05 -.159E-05 -.500E-04
   -.132E-04 0.400E+00 0.178E+04   0.136E-04 -.426E+00 -.178E+04   -.702E-06 0.363E-01 0.347E+01   0.104E-06 0.156E-05 -.216E-08
   0.667E+00 -.220E-04 0.178E+04   -.689E+00 0.230E-04 -.178E+04   0.302E-01 -.144E-05 0.347E+01   0.871E-06 0.565E-07 0.595E-06
   -.216E-04 -.143E-02 -.176E+04   0.226E-04 0.148E-02 0.176E+04   -.106E-05 -.127E-04 -.184E+01   0.371E-07 0.261E-07 0.751E-04
   0.179E+02 -.886E+01 -.177E+04   -.190E+02 0.100E+02 0.177E+04   0.117E+01 -.165E+01 -.333E+01   -.250E-05 -.343E-05 0.978E-05
   -.528E-04 -.522E+01 -.627E+03   0.524E-04 0.592E+01 0.629E+03   0.973E-06 -.115E+01 -.219E+01   -.165E-07 0.229E-04 -.796E-04
   0.585E+01 -.184E-03 -.579E+03   -.578E+01 0.179E-03 0.578E+03   -.489E-01 0.894E-05 0.890E+00   -.250E-05 0.502E-07 -.678E-04
   0.116E-04 -.627E-04 -.957E-02   0.277E-12 0.730E-13 -.625E-11   -.125E-04 0.663E-04 -.259E+00   0.111E-06 0.131E-06 -.161E-02

 POSITION                                       TOTAL-FORCE (eV/Angst)
      0.00000      6.33074      7.50000        -0.000000     -0.000000      0.361610
      2.11025      0.00000      7.50000         0.003184      0.004379      0.380251
      0.00000      0.00000      9.61025        -0.000001      0.008738      0.087087
      2.11025      6.33074      9.61025        -0.009854     -0.000002      0.120220
      8.44098      6.33074     11.70770         0.000000      0.000006     -0.137909
      2.12746      0.00639     11.74873         0.123121     -0.167206     -0.133665
      0.00000      0.01951     13.83398        -0.000000     -0.054700     -0.242978
      2.00198      6.33074     13.80873         1.529356      0.000025      0.038253
      0.00000      2.11025      7.50000        -0.000000      0.000000      0.363918
      2.11025      4.22049      7.50000         0.003184     -0.004379      0.380252
      0.00000      4.22049      9.61025        -0.000001     -0.008739      0.087087
      2.11025      2.11025      9.61025         0.048100      0.000002      0.075390
      0.00000      2.11025     11.72390        -0.000000     -0.000001     -0.148946
      2.12746      4.21411     11.74874         0.123124      0.167204     -0.133652
      0.00000      4.20098     13.83399        -0.000000      0.054698     -0.242899
      2.09055      2.11025     13.84219        -0.160697     -0.000015     -0.358092
      4.22049      6.33074      7.50000         0.000000     -0.000000      0.362313
      6.33074      0.00000      7.50000        -0.003184      0.004379      0.380252
      4.22049      0.00000      9.61025         0.000001      0.067057      0.185791
      6.33074      6.33074      9.61025         0.009854     -0.000002      0.120222
      4.22049      6.33074     11.68401        -0.000001      0.000004      1.124377
      6.31352      0.00639     11.74873        -0.123121     -0.167207     -0.133586
      4.22049      0.09461     14.03823        -0.000000     -1.621795     -1.163579
      6.43900      6.33074     13.80874        -1.529357      0.000025      0.038161
      4.22049      2.11025      7.50000         0.000000      0.000000      0.385030
      6.33074      4.22049      7.50000        -0.003184     -0.004379      0.380252
      4.22049      4.22049      9.61025         0.000001     -0.067056      0.185791
      6.33074      2.11025      9.61025        -0.048099      0.000002      0.075392
      4.22049      2.11025     11.75624         0.000000      0.000002     -0.314355
      6.31352      4.21411     11.74874        -0.123124      0.167205     -0.133572
      4.22049      4.12589     14.03823        -0.000000      1.621738     -1.163593
      6.35044      2.11025     13.84219         0.160697     -0.000014     -0.358172
      0.00000      6.33074      9.61025        -0.000000     -0.000000      0.035723
      2.11025      0.00000      9.61025         0.006189      0.002194      0.076852
      0.00000      0.00000      7.50000         0.000000     -0.003661     -0.527032
      2.11025      6.33074      7.50000        -0.001938      0.000000     -0.522406
      0.00000      6.33074     13.85236        -0.000000     -0.000011      0.244367
      2.09470      8.42835     13.85928        -0.070005      0.485604      0.515680
      0.00000      8.43640     11.71794         0.000000      0.083321      0.156495
      2.12978      6.33074     11.73761        -0.410573     -0.000005     -0.210373
      0.00000      2.11025      9.61025         0.000000     -0.000001      0.087222
      2.11025      4.22049      9.61025         0.006189     -0.002194      0.076854
      0.00000      4.22049      7.50000         0.000000      0.003661     -0.527032
      2.11025      2.11025      7.50000        -0.008620     -0.000000     -0.532228
      0.00000      2.11025     13.86794         0.000000      0.000011      0.239219
      2.09470      4.23313     13.85927        -0.070010     -0.485591      0.515814
      0.00000      4.22508     11.71794        -0.000000     -0.083319      0.156568
      2.11475      2.11025     11.72990        -0.018155      0.000004      0.174668
      4.22049      6.33074      9.61025         0.000000      0.000001     -0.094743
      6.33074      0.00000      9.61025        -0.006189      0.002193      0.076853
      4.22049      0.00000      7.50000        -0.000000     -0.010332     -0.533158
      6.33074      6.33074      7.50000         0.001938      0.000000     -0.522406
      4.22049      6.33075     13.97279         0.000002     -0.000048      0.156000
      6.34628      8.42835     13.85928         0.070005      0.485599      0.515775
      4.22049      8.42157     11.75528         0.000001      0.446677     -0.122730
      6.31120      6.33074     11.73761         0.410573     -0.000005     -0.210553
      4.22049      2.11025      9.61025         0.000000      0.000000      0.119343
      6.33074      4.22049      9.61025        -0.006189     -0.002193      0.076856
      4.22049      4.22049      7.50000        -0.000000      0.010332     -0.533159
      6.33074      2.11025      7.50000         0.008620     -0.000000     -0.532228
      4.22049      2.11025     13.90047         0.000000      0.000043      0.609136
      6.34628      4.23313     13.85927         0.070010     -0.485586      0.515908
      4.22049      4.23991     11.75528         0.000001     -0.446669     -0.122542
      6.32623      2.11025     11.72990         0.018154      0.000004      0.174608
    total drift:                               -0.000001      0.000004     -0.269908

  FREE ENERGIE OF THE ION-ELECTRON SYSTEM (eV)
  free  energy   TOTEN  =      -381.38477483 eV

  energy  without entropy=     -381.38477483  energy(sigma->0) =     -381.38477483

 writing wavefunctions