 vasp.6.3.0 20Jan22 (build Mar 11 2022 13:48:16) complex

 executed on             LinuxIFC date 2024.01.22  14:22:43

 INCAR:
   SYSTEM = TiO2
   ISMEAR = 0
   SIGMA = 0.05
   EDIFF = 1E-5
   ALGO = ALL
   ISTART = 0
   IBRION = -1
   NSW = 0
   ISYM = 0
   ISIF = 2
   EDIFFG = -0.01
   DIPOL = 0.5 0.5 0.5
   IDIPOL = 3
   LDIPOL = .TRUE.
   GGA = PE
   IVDW = 21
   LDAU = .TRUE.
   LDAUTYPE = 2
   LDAUL = -1 -1 2 -1
   LDAUU = 0.0 0.0 4.2 0.0
   LDAUPRINT = 1
   LMAXMIX = 4
   ENCUT = 600
   PREC = Accurate
   LASPH = .TRUE.
   LREAL = .FALSE.
   ISPIN = 1
   NELM = 200
   NELMIN = 8
   NCORE = 2
   KPAR = 1
   LWAVE = .FALSE.
   LCHARG = .FALSE.

 POTCAR:    PAW_PBE C 08Apr2002
 POTCAR:    PAW_PBE O 08Apr2002
 POTCAR:    PAW_PBE Ti_pv 07Sep2000
 POTCAR:    PAW_PBE O 08Apr2002
|           W    W    AA    RRRRR   N    N  II  N    N   GGGG   !!!           |
|           W    W   A  A   R    R  NN   N  II  NN   N  G    G  !!!           |
|           W    W  A    A  R    R  N N  N  II  N N  N  G       !!!           |
|           W WW W  AAAAAA  RRRRR   N  N N  II  N  N N  G  GGG   !            |
|           WW  WW  A    A  R   R   N   NN  II  N   NN  G    G                |
|           W    W  A    A  R    R  N    N  II  N    N   GGGG   !!!           |
|     For optimal performance we recommend to set                             |
|       NCORE = 2 up to number-of-cores-per-socket                            |
|     This setting can greatly improve the performance of VASP for DFT.       |
|     The default, NCORE=1 might be grossly inefficient on modern             |
|     multi-core architectures or massively parallel machines. Do your        |
|     Unfortunately you need to use the default for GW and RPA                |
|     calculations (for HF NCORE is supported but not extensively tested      |
|     yet).                                                                   |

   TITEL  = PAW_PBE C 08Apr2002
   POMASS =   12.011; ZVAL   =    4.000    mass and valenz
   ENMAX  =  400.000; ENMIN  =  300.000 eV

[...]

   TITEL  = PAW_PBE Ti_pv 07Sep2000
   POMASS =   47.880; ZVAL   =   10.000    mass and valenz
   ENMAX  =  222.335; ENMIN  =  166.751 eV

   TITEL  = PAW_PBE O 08Apr2002
   POMASS =   16.000; ZVAL   =    6.000    mass and valenz
   ENMAX  =  400.000; ENMIN  =  300.000 eV

  PAW_PBE C 08Apr2002                   :
  PAW_PBE O 08Apr2002                   :
  PAW_PBE Ti_pv 07Sep2000               :
  PAW_PBE O 08Apr2002                   :

 POSCAR:  C  O Ti  O
  positions in direct lattice
 exchange correlation table for  LEXCH =        8
   RHO(1)=    0.500       N(1)  =     2000
   RHO(2)=  100.500       N(2)  =     4000

 ion  position               nearest neighbor table
   1  0.500  0.609  0.799-   2 1.16   3 1.17
   2  0.500  0.706  0.805-   1 1.16
   3  0.500  0.512  0.791-   1 1.17  83 2.50
   4  0.750  0.625  0.287-  85 1.95 145 1.95 144 1.95  84 1.95  87 1.97 166 1.97  14 2.96  34 2.96

   5  0.000  0.750  0.287-  86 1.95  87 1.95 106 1.95 107 1.95  88 1.97  35 2.96  15 2.96
   6  0.000  0.625  0.394-  88 1.95  89 1.95 148 1.95 149 1.95  90 1.97  91 1.97  16 2.96  36 2.96

[...]

  84  0.750  0.750  0.246-   4 1.95  14 1.95
  85  0.750  0.750  0.329-   4 1.95  14 1.95   7 1.97
  86  0.098  0.625  0.287-   5 1.95  35 1.95  44 1.97
  87  0.902  0.625  0.287-   5 1.95  35 1.95   4 1.97
  88  0.000  0.750  0.352-   6 1.95  16 1.95   5 1.97
  89  0.000  0.750  0.435-   6 1.95  16 1.95   9 1.97
  90  0.848  0.625  0.394-   7 1.95  37 1.95   6 1.97
  91  0.152  0.625  0.394-  47 1.95  77 1.95   6 1.97
  92  0.750  0.750  0.458-   8 1.95  18 1.95   7 1.97
  93  0.750  0.750  0.542-   8 1.95  18 1.95  11 2.09
  94  0.098  0.625  0.500-   9 1.95  39 1.95  48 1.97
  95  0.902  0.625  0.500-   9 1.95  39 1.95   8 1.97
  96  1.000  0.750  0.565-  10 1.90  20 1.90   9 1.99
  97  0.000  0.750  0.649-  13 1.81  10 2.01  20 2.01
  98  0.850  0.625  0.607-  10 1.95  11 1.97  41 1.97
  99  0.150  0.625  0.607-  10 1.95  51 1.97  81 1.97
 100  0.751  0.750  0.671-  11 1.87  12 2.08  22 2.09
 101  0.749  0.750  0.755-  12 1.83  22 1.83
 102  0.094  0.625  0.719-  43 1.94  13 1.94  52 2.03
 103  0.906  0.625  0.719-  43 1.94  13 1.94  12 2.03
 104  0.750  0.000  0.246-  14 1.95  24 1.95
 105  0.750  0.000  0.329-  14 1.95  24 1.95  17 1.97
 106  0.098  0.875  0.287-   5 1.95  15 1.95  54 1.97
 107  0.902  0.875  0.287-   5 1.95  15 1.95  14 1.97
 108  0.000  0.000  0.352-  16 1.95  26 1.95  15 1.97
 109  0.000  0.000  0.435-  16 1.95  26 1.95  19 1.97
 110  0.848  0.875  0.394-   7 1.95  17 1.95  16 1.97
 111  0.152  0.875  0.394-  47 1.95  57 1.95  16 1.97
 112  0.750  0.000  0.458-  18 1.95  28 1.95  17 1.97
 113  0.750  0.000  0.542-  18 1.95  28 1.95  21 2.09
 114  0.098  0.875  0.500-   9 1.95  19 1.95  58 1.97
 115  0.902  0.875  0.500-   9 1.95  19 1.95  18 1.97
 116  1.000  0.000  0.565-  30 1.90  20 1.90  19 1.99
 117  0.000  1.000  0.649-  23 1.81  20 2.01  30 2.01
 118  0.850  0.875  0.607-  20 1.95  21 1.97  11 1.97
 119  0.150  0.875  0.607-  20 1.95  61 1.97  51 1.97
 120  0.750  0.000  0.671-  21 1.87  22 2.09  32 2.09
 121  0.750  0.000  0.755-  22 1.83  32 1.83
 122  0.094  0.875  0.718-  13 1.94  23 1.94  62 2.03
 123  0.906  0.875  0.718-  13 1.94  23 1.94  22 2.03
 124  0.750  0.250  0.246-  24 1.95  34 1.95
 125  0.750  0.250  0.329-  24 1.95  34 1.95  27 1.97
 126  0.098  0.125  0.287-  15 1.95  25 1.95  64 1.97
 127  0.902  0.125  0.287-  15 1.95  25 1.95  24 1.97
 128  0.000  0.250  0.352-  26 1.95  36 1.95  25 1.97
 129  0.000  0.250  0.435-  26 1.95  36 1.95  29 1.97
 130  0.848  0.125  0.394-  17 1.95  27 1.95  26 1.97
 131  0.152  0.125  0.394-  57 1.95  67 1.95  26 1.97
 132  0.750  0.250  0.458-  28 1.95  38 1.95  27 1.97
 133  0.750  0.250  0.542-  28 1.95  38 1.95  31 2.09
 134  0.098  0.125  0.500-  19 1.95  29 1.95  68 1.97
 135  0.902  0.125  0.500-  19 1.95  29 1.95  28 1.97
 136  1.000  0.250  0.565-  40 1.90  30 1.90  29 1.99
 137  0.000  0.250  0.649-  33 1.81  40 2.01  30 2.01
 138  0.850  0.125  0.607-  30 1.95  21 1.97  31 1.97
 139  0.150  0.125  0.607-  30 1.95  61 1.97  71 1.97
 140  0.751  0.250  0.671-  31 1.87  32 2.09  42 2.09
 141  0.750  0.250  0.755-  42 1.83  32 1.83
 142  0.094  0.125  0.718-  33 1.94  23 1.94  72 2.03
 143  0.906  0.125  0.718-  33 1.94  23 1.94  32 2.03
[...]
 229  0.500  0.500  0.435-  46 1.95  76 1.95  79 1.97
 230  0.348  0.375  0.394-  67 1.95  77 1.95  76 1.97
 231  0.652  0.375  0.394-  27 1.95  37 1.95  76 1.97
 232  0.250  0.500  0.458-  48 1.95  78 1.95  77 1.97
 233  0.250  0.500  0.542-  48 1.95  78 1.95  81 2.09
 234  0.598  0.375  0.500-  69 1.95  79 1.95  38 1.97
 235  0.402  0.375  0.500-  69 1.95  79 1.95  78 1.97
 236  0.500  0.500  0.565-  80 1.90  50 1.90  79 1.99
 237  0.500  0.500  0.649-  83 1.83  80 2.00  50 2.00
 238  0.350  0.375  0.607-  80 1.95  81 1.97  71 1.97
 239  0.650  0.375  0.607-  80 1.95  41 1.97  31 1.97
 240  0.249  0.500  0.671-  81 1.87  52 2.09  82 2.09
 241  0.252  0.500  0.755-  82 1.83  52 1.83
 242  0.594  0.374  0.718-  83 1.93  73 1.94  42 2.03
 243  0.406  0.374  0.718-  83 1.93  73 1.94  82 2.03

IMPORTANT INFORMATION: All symmetrisations will be switched off!
NOSYMM: (Re-)initialisation of all symmetry stuff for point group C_1.

                                     Primitive cell

  volume of cell :    4687.8040

  direct lattice vectors                    reciprocal lattice vectors
    12.981773603  0.000000000  0.000000000     0.077031077  0.000000000  0.000000000
     0.000000000 11.829932295  0.000000000     0.000000000  0.084531338  0.000000000
     0.000000000  0.000000000 30.524823105     0.000000000  0.000000000  0.032760223

  length of vectors
    12.981773603 11.829932295 30.524823105     0.077031077  0.084531338  0.032760223

  position of ions in fractional coordinates (direct lattice)
     0.499999974  0.609303053  0.798597701
     0.499999899  0.706281624  0.805024240
     0.500000004  0.511980319  0.791042007
     0.750000000  0.625000000  0.287357103
     0.000000000  0.750000000  0.287357103
     0.000000000  0.625000000  0.393678552
     0.750000000  0.750000000  0.393678552
     0.750000000  0.625000000  0.500000000
     0.000000000  0.750000000  0.500000000
     0.999999896  0.625034575  0.604142359
     0.750037279  0.750060206  0.610061920
     0.750210406  0.625245139  0.719335905
     0.000000093  0.750162338  0.708049038
     0.750000000  0.875000000  0.287357103
     0.000000000  0.000000000  0.287357103
     0.000000000  0.875000000  0.393678552
     0.750000000  0.000000000  0.393678552
     0.750000000  0.875000000  0.500000000
     0.000000000  0.000000000  0.500000000
     0.999999899  0.875042675  0.604157023
     0.749983473  0.000031890  0.610167384
     0.749899410  0.875144527  0.719720725
     0.000000134  0.000048180  0.708068521
     0.750000000  0.125000000  0.287357103
     0.000000000  0.250000000  0.287357103
     0.000000000  0.125000000  0.393678552
     0.750000000  0.250000000  0.393678552
     0.750000000  0.125000000  0.500000000
     0.000000000  0.250000000  0.500000000
     0.999999905  0.125009247  0.604179473
     0.750023589  0.249993590  0.610163923
     0.749943263  0.125083689  0.719707659
     0.000000145  0.249982373  0.708074474
     0.750000000  0.375000000  0.287357103
     0.000000000  0.500000000  0.287357103
     0.000000000  0.375000000  0.393678552
     0.750000000  0.500000000  0.393678552
     0.750000000  0.375000000  0.500000000
     0.000000000  0.500000000  0.500000000
     0.999999900  0.375004388  0.604145210
     0.750074282  0.499995300  0.610095561
     0.750181913  0.375085320  0.719662777
     0.000000065  0.500081082  0.708039677
     0.250000000  0.625000000  0.287357103
     0.500000000  0.750000000  0.287357103
     0.500000000  0.625000000  0.393678552
     0.250000000  0.750000000  0.393678552
     0.250000000  0.625000000  0.500000000
     0.500000000  0.750000000  0.500000000
     0.499999887  0.624515489  0.604646984
     0.249962459  0.750060204  0.610061903
     0.249789651  0.625245143  0.719335863
     0.500000113  0.750847524  0.707844845
     0.250000000  0.875000000  0.287357103
     0.500000000  0.000000000  0.287357103
     0.500000000  0.875000000  0.393678552
     0.250000000  0.000000000  0.393678552
     0.250000000  0.875000000  0.500000000
     0.500000000  0.000000000  0.500000000
     0.499999880  0.874735977  0.603893140
[...]
     0.500000000  0.500000000  0.435333986
     0.347946921  0.375000000  0.393678552
     0.652053079  0.375000000  0.393678552
     0.250000000  0.500000000  0.458344566
     0.250000000  0.500000000  0.541655434
     0.597946921  0.375000000  0.500000000
     0.402053079  0.375000000  0.500000000
     0.499999942  0.500061973  0.565313438
     0.500000098  0.499886491  0.649111606
     0.349915819  0.375035537  0.606980879
     0.650084314  0.375035532  0.606980851
     0.249139675  0.500008445  0.671248131
     0.251551718  0.500422576  0.754857327
     0.594244948  0.373940551  0.717517153
     0.405755322  0.373940476  0.717517257

  ion indices of the primitive-cell ions
   primitive index   ion index
[...]
   O          59.000          3.986         10.502          1.94474227
   O          59.000          3.986         10.502          1.94474215
   O          58.806          3.984         10.484          1.94155059
   O          59.055          3.987         10.506          1.94564443
   O          59.115          3.988         10.512          1.94663591
   O          59.115          3.988         10.512          1.94663697
   O          59.521          3.992         10.548          1.95330730
   O          39.881          3.734          8.634          1.59889896
   O          57.657          3.971         10.381          1.92247636
   O          57.657          3.971         10.381          1.92247595

  vdW correction parametrized for the method pbe

  IVDW =  21
  VDW_RADIUS =    50.000 A
  VDW_IDAMPF =  0
  VDW_S6 =     1.000
  VDW_SR =     0.950
  VDW_D =    20.000
  LVDW_ONECELL = F F F
  LVDW_SAMETYPE T T T T
  LVDW_EWALD = F

  Number of pair interactions contributing to vdW energy: 3349656
  Edisp (eV):  -35.20639

  FORCE on cell =-STRESS in cart. coord.  units (eV):
  Direction    XX          YY          ZZ          XY          YZ          ZX
  Alpha Z  4734.35770  4734.35770  4734.35770
  Ewald  976586.79309994836.34008************    -0.00060   143.42011     0.00075
  Hartree************************************    -0.00022    66.86825     0.00064
  E(xc)   -8667.02309 -8648.55730 -8676.01581    -0.00000     0.36551    -0.00000
  Local  ************************************     0.00075  -196.95166    -0.00131
  n-local -5235.02973 -5113.69531 -5276.79859    -0.00001    -1.09398     0.00002
  augment  5275.79771  5260.32127  5276.83561     0.00000    -0.52307    -0.00001
  Kinetic 28954.00925 28384.79233 28988.09250     0.00009   -11.88579    -0.00016
  Fock        0.00000     0.00000     0.00000     0.00000     0.00000     0.00000
  vdW       -49.99317   -33.19473   -42.54265     0.00000    -0.02409     0.00000
  Total     166.74974   224.52602   122.83449     0.00001     0.17528    -0.00007
  in kB      56.99100    76.73753    41.98184     0.00000     0.05991    -0.00002

 VOLUME and BASIS-vectors are now :
  energy-cutoff  :      600.00
  volume of cell :     4687.80
      direct lattice vectors                 reciprocal lattice vectors
    12.981773603  0.000000000  0.000000000     0.077031077  0.000000000  0.000000000
     0.000000000 11.829932295  0.000000000     0.000000000  0.084531338  0.000000000
     0.000000000  0.000000000 30.524823105     0.000000000  0.000000000  0.032760223

  length of vectors
    12.981773603 11.829932295 30.524823105     0.077031077  0.084531338  0.032760223

 FORCES acting on ions:
    Electron-Ion                     Ewald-Force                    Non-Local-Force
   -.105E-03 0.521E+01 -.164E+04   0.108E-03 -.525E+01 0.164E+04   -.457E-05 -.209E-01 0.126E-01
   0.212E-03 -.275E+03 -.242E+04   -.272E-03 0.340E+03 0.243E+04   0.650E-04 -.639E+02 -.125E+02
   -.779E-04 0.271E+03 -.247E+04   0.950E-04 -.333E+03 0.246E+04   -.117E-04 0.619E+02 0.775E+01
   -.228E+00 0.246E-02 0.381E+04   0.227E+00 -.243E-02 -.381E+04   0.191E-03 -.259E-06 0.831E+00
   -.138E-05 -.605E-01 0.399E+04   -.243E-05 0.607E-01 -.398E+04   0.816E-06 -.303E-04 -.479E+01
   0.133E-05 0.294E-02 0.195E+04   -.114E-04 -.300E-02 -.195E+04   0.218E-05 0.225E-04 -.119E+00
   -.458E+00 -.117E+00 0.194E+04   0.456E+00 0.117E+00 -.195E+04   0.519E-03 -.706E-04 0.273E+00
   -.197E+01 0.853E-01 0.204E+02   0.196E+01 -.889E-01 -.197E+02   0.324E-02 0.593E-03 -.177E+00
   -.171E-04 -.719E+00 0.296E+02   0.142E-04 0.723E+00 -.306E+02   0.347E-05 -.134E-02 0.385E+00
   -.399E-03 -.402E+00 -.186E+04   0.380E-03 0.403E+00 0.186E+04   0.191E-04 -.140E-02 0.471E+00
   -.130E+02 -.580E+01 -.191E+04   0.130E+02 0.581E+01 0.191E+04   -.361E-02 -.615E-02 -.689E+00
   -.892E+02 -.483E+01 -.371E+04   0.892E+02 0.482E+01 0.371E+04   0.240E-01 -.849E-02 -.112E+01
   0.366E-03 -.757E+01 -.378E+04   -.359E-03 0.757E+01 0.378E+04   -.171E-05 -.149E-01 0.196E+01
   -.226E+00 -.899E-01 0.381E+04   0.226E+00 0.904E-01 -.381E+04   0.236E-03 -.676E-04 0.831E+00
   -.760E-05 -.607E-01 0.399E+04   -.231E-05 0.608E-01 -.398E+04   0.770E-06 -.200E-04 -.479E+01
   -.767E-05 -.195E+00 0.195E+04   -.103E-04 0.195E+00 -.195E+04   0.112E-05 -.529E-04 -.119E+00
   -.470E+00 -.153E+00 0.194E+04   0.467E+00 0.154E+00 -.195E+04   0.621E-03 -.451E-04 0.272E+00
   -.221E+01 -.112E+01 0.193E+02   0.221E+01 0.113E+01 -.185E+02   0.178E-02 -.248E-02 -.179E+00
   -.206E-04 -.635E+00 0.283E+02   0.207E-04 0.640E+00 -.293E+02   0.776E-06 -.172E-02 0.385E+00
   -.417E-03 -.375E+01 -.186E+04   0.410E-03 0.375E+01 0.186E+04   0.167E-04 -.321E-02 0.468E+00
   -.886E+01 -.431E+01 -.192E+04   0.886E+01 0.431E+01 0.192E+04   0.420E-02 -.394E-03 -.687E+00
   -.466E+02 -.322E+02 -.375E+04   0.466E+02 0.322E+02 0.375E+04   0.343E-01 -.762E-02 -.115E+01
   0.385E-03 -.597E+01 -.379E+04   -.384E-03 0.597E+01 0.379E+04   -.356E-05 -.275E-02 0.198E+01
   -.220E+00 -.248E-02 0.381E+04   0.219E+00 0.244E-02 -.381E+04   0.247E-03 0.362E-05 0.831E+00
   -.548E-05 0.605E-01 0.399E+04   -.233E-05 -.606E-01 -.398E+04   0.282E-05 0.296E-04 -.479E+01
   0.862E-05 -.292E-02 0.195E+04   -.961E-05 0.291E-02 -.195E+04   -.273E-06 0.293E-05 -.119E+00
   -.435E+00 0.117E+00 0.194E+04   0.433E+00 -.118E+00 -.195E+04   0.554E-03 0.652E-04 0.272E+00
   -.204E+01 -.781E-01 0.181E+02   0.204E+01 0.778E-01 -.173E+02   0.192E-02 0.800E-04 -.182E+00
   -.286E-04 0.735E+00 0.284E+02   0.195E-04 -.739E+00 -.294E+02   0.444E-06 0.126E-02 0.386E+00
   -.419E-03 0.264E+00 -.186E+04   0.409E-03 -.266E+00 0.186E+04   0.185E-04 0.410E-02 0.474E+00
   -.936E+01 0.556E+01 -.192E+04   0.936E+01 -.556E+01 0.192E+04   -.244E-03 0.273E-02 -.694E+00
   -.245E+02 0.366E+01 -.377E+04   0.245E+02 -.366E+01 0.377E+04   0.187E-01 -.250E-02 -.115E+01
   0.385E-03 0.655E+01 -.379E+04   -.374E-03 -.655E+01 0.379E+04   -.123E-05 0.209E-01 0.197E+01
   -.222E+00 0.899E-01 0.381E+04   0.221E+00 -.904E-01 -.381E+04   0.198E-03 0.683E-04 0.831E+00
   -.945E-06 0.607E-01 0.399E+04   -.246E-05 -.608E-01 -.398E+04   -.165E-05 0.243E-04 -.479E+01
   0.906E-05 0.194E+00 0.195E+04   -.107E-04 -.195E+00 -.195E+04   -.153E-05 0.557E-04 -.119E+00
   -.424E+00 0.153E+00 0.194E+04   0.422E+00 -.153E+00 -.195E+04   0.406E-03 0.307E-04 0.272E+00
   -.181E+01 0.111E+01 0.192E+02   0.179E+01 -.112E+01 -.185E+02   0.305E-02 0.204E-02 -.179E+00
   -.652E-05 0.666E+00 0.298E+02   0.551E-05 -.669E+00 -.308E+02   0.187E-05 0.342E-03 0.385E+00
   -.391E-03 0.379E+01 -.186E+04   0.381E-03 -.379E+01 0.186E+04   0.170E-04 0.319E-02 0.469E+00
   -.135E+02 0.452E+01 -.190E+04   0.135E+02 -.453E+01 0.190E+04   -.243E-02 0.407E-02 -.700E+00
   -.575E+02 0.340E+02 -.374E+04   0.575E+02 -.340E+02 0.374E+04   0.254E-01 0.952E-02 -.114E+01
   0.398E-03 0.659E+01 -.378E+04   -.387E-03 -.659E+01 0.378E+04   -.334E-05 0.554E-02 0.195E+01
   0.228E+00 0.246E-02 0.381E+04   -.227E+00 -.243E-02 -.381E+04   -.192E-03 0.941E-06 0.831E+00
   -.831E-05 -.630E-01 0.399E+04   0.256E-05 0.634E-01 -.398E+04   -.138E-05 -.789E-04 -.479E+01
   -.206E-04 0.601E-01 0.195E+04   0.144E-04 -.562E-01 -.195E+04   0.114E-05 -.103E-02 -.120E+00
   0.458E+00 -.117E+00 0.194E+04   -.456E+00 0.117E+00 -.195E+04   -.520E-03 -.696E-04 0.273E+00
   0.197E+01 0.853E-01 0.204E+02   -.196E+01 -.889E-01 -.197E+02   -.325E-02 0.591E-03 -.177E+00
   -.135E-03 -.479E+00 0.339E+02   0.135E-03 0.447E+00 -.349E+02   0.251E-05 0.156E-01 0.367E+00
   -.685E-03 -.152E+01 -.183E+04   0.675E-03 0.155E+01 0.183E+04   0.205E-04 -.139E-02 0.449E+00
   0.130E+02 -.580E+01 -.191E+04   -.130E+02 0.581E+01 0.191E+04   0.362E-02 -.615E-02 -.689E+00
   0.892E+02 -.483E+01 -.371E+04   -.892E+02 0.482E+01 0.371E+04   -.239E-01 -.849E-02 -.112E+01
   0.264E-03 -.761E+02 -.363E+04   -.256E-03 0.761E+02 0.363E+04   -.301E-05 -.154E-01 0.209E+01
   0.226E+00 -.899E-01 0.381E+04   -.226E+00 0.904E-01 -.381E+04   -.237E-03 -.707E-04 0.831E+00
   -.185E-05 -.703E-01 0.399E+04   0.244E-05 0.704E-01 -.398E+04   -.333E-05 -.333E-04 -.479E+01
   -.960E-05 -.171E+00 0.195E+04   0.134E-04 0.174E+00 -.195E+04   0.154E-05 -.860E-03 -.120E+00
   0.470E+00 -.153E+00 0.194E+04   -.467E+00 0.154E+00 -.195E+04   -.621E-03 -.438E-04 0.272E+00
   0.221E+01 -.112E+01 0.193E+02   -.221E+01 0.113E+01 -.185E+02   -.178E-02 -.248E-02 -.179E+00
   -.133E-03 -.916E+00 0.337E+02   0.126E-03 0.920E+00 -.347E+02   0.962E-06 -.772E-03 0.356E+00
   -.694E-03 -.117E+02 -.183E+04   0.688E-03 0.117E+02 0.183E+04   0.184E-04 0.291E-01 0.402E+00
[...]
   -.527E+02 0.110E+00 0.117E+04   0.570E+02 -.111E+00 -.117E+04   -.367E+01 0.141E-02 0.182E+00
   0.527E+02 0.110E+00 0.117E+04   -.570E+02 -.111E+00 -.117E+04   0.367E+01 0.142E-02 0.182E+00
   0.609E+00 0.250E+00 0.517E+03   -.605E+00 -.253E+00 -.522E+03   -.651E-02 0.512E-02 0.439E+01
   0.213E+01 0.961E+00 -.507E+03   -.212E+01 -.964E+00 0.515E+03   -.936E-02 0.591E-02 -.706E+01
   -.552E+02 0.506E+00 0.183E+02   0.603E+02 -.511E+00 -.185E+02   -.532E+01 0.168E-01 0.308E+00
   0.552E+02 0.506E+00 0.183E+02   -.603E+02 -.511E+00 -.185E+02   0.532E+01 0.168E-01 0.308E+00
   -.199E-03 0.136E+01 -.611E+03   0.193E-03 -.130E+01 0.604E+03   0.133E-04 -.601E-01 0.642E+01
   -.217E-03 0.811E+01 -.157E+04   0.267E-03 -.796E+01 0.157E+04   -.489E-04 -.148E+00 0.126E+01
   -.230E+02 0.551E+01 -.112E+04   0.261E+02 -.556E+01 0.112E+04   -.308E+01 0.464E-01 0.890E+00
   0.230E+02 0.551E+01 -.112E+04   -.261E+02 -.556E+01 0.112E+04   0.308E+01 0.464E-01 0.890E+00
   0.246E+02 0.792E+01 -.179E+04   -.248E+02 -.802E+01 0.179E+04   0.115E+00 0.961E-01 -.194E+01
   0.705E+02 0.212E+02 -.271E+04   -.702E+02 -.212E+02 0.273E+04   -.297E+00 0.359E-02 -.212E+02
   -.569E+02 0.525E+02 -.229E+04   0.636E+02 -.527E+02 0.229E+04   -.650E+01 0.151E+00 -.381E+01
   0.569E+02 0.525E+02 -.229E+04   -.636E+02 -.527E+02 0.229E+04   0.650E+01 0.151E+00 -.381E+01
   -.192E-02 0.144E+01 0.105E+03   -.867E-12 -.220E-11 -.314E-10   0.192E-02 -.143E+01 -.105E+03

 POSITION                                       TOTAL-FORCE (eV/Angst)
      6.49089      7.20801     24.37705        -0.000002     -0.047675      0.065925
      6.49089      8.35526     24.57322         0.000005      0.768672      0.260315
      6.49089      6.05669     24.14642         0.000005     -0.738108      0.025730
      9.73633      7.39371      8.77152        -0.000388      0.000016     -3.485737
      0.00000      8.87245      8.77152        -0.000003      0.000137      2.255365
      0.00000      7.39371     12.01697        -0.000008     -0.000043      0.490038
      9.73633      8.87245     12.01697        -0.001452      0.000519     -0.726389
      9.73633      7.39371     15.26241        -0.009870     -0.002937      0.582467
      0.00000      8.87245     15.26241         0.000001      0.002250     -0.620831
     12.98177      7.39412     18.44134        -0.000003     -0.000476      0.459611
      9.73681      8.87316     18.62203         0.000784     -0.002022     -0.584446
      9.73906      7.39661     21.95760         0.005492     -0.011587     -0.826176
      0.00000      8.87437     21.61307         0.000005     -0.012009      0.921012
      9.73633     10.35119      8.77152        -0.000478      0.000420     -3.485703
      0.00000      0.00000      8.77152        -0.000009      0.000092      2.255250
      0.00000     10.35119     12.01697        -0.000017      0.000358      0.490254
      9.73633      0.00000     12.01697        -0.001734      0.000427     -0.724790
      9.73633     10.35119     15.26241        -0.005077      0.013646      0.589439
      0.00000      0.00000     15.26241         0.000001      0.003323     -0.617061
     12.98177     10.35170     18.44179         0.000007      0.000054      0.459102
      9.73612      0.00038     18.62525         0.004285      0.000343     -0.591427
      9.73502     10.35290     21.96935         0.014255     -0.005197     -0.828317
      0.00000      0.00057     21.61367        -0.000003     -0.001567      0.922985
      9.73633      1.47874      8.77152        -0.000492     -0.000051     -3.485606
      0.00000      2.95748      8.77152        -0.000005     -0.000160      2.255344
      0.00000      1.47874     12.01697        -0.000001     -0.000015      0.490538
      9.73633      2.95748     12.01697        -0.001550     -0.000568     -0.724311
      9.73633      1.47874     15.26241        -0.005241     -0.000215      0.598563
      0.00000      2.95748     15.26241        -0.000009     -0.003047     -0.617413
     12.98177      1.47885     18.44247         0.000005      0.002191      0.459906
      9.73664      2.95741     18.62515         0.002058      0.002482     -0.592477
      9.73559      1.47973     21.96895         0.009743      0.000624     -0.828647
      0.00000      2.95727     21.61385         0.000010      0.019271      0.922741
      9.73633      4.43622      8.77152        -0.000403     -0.000424     -3.485645
      0.00000      5.91497      8.77152        -0.000005     -0.000115      2.255402
      0.00000      4.43622     12.01697        -0.000003     -0.000345      0.490256
      9.73633      5.91497     12.01697        -0.001269     -0.000431     -0.725767
      9.73633      4.43622     15.26241        -0.009267     -0.010673      0.591287
      0.00000      5.91497     15.26241         0.000001     -0.002307     -0.621134
     12.98177      4.43628     18.44143         0.000004      0.000626      0.460545
      9.73729      5.91491     18.62306        -0.000681      0.001997     -0.586844
      9.73869      4.43723     21.96758        -0.003724      0.005736     -0.828826
      0.00000      5.91593     21.61279         0.000007     -0.000191      0.919583
      3.24544      7.39371      8.77152         0.000383      0.000024     -3.485754
      6.49089      8.87245      8.77152        -0.000007      0.000291      2.256701
      6.49089      7.39371     12.01697        -0.000005      0.002927      0.493603
      3.24544      8.87245     12.01697         0.001474      0.000523     -0.726400
      3.24544      7.39371     15.26241         0.009859     -0.002933      0.582471
      6.49089      8.87245     15.26241         0.000003     -0.016088     -0.578943
      6.49089      7.38798     18.45674         0.000008      0.033948      0.418978
      3.24496      8.87316     18.62203        -0.000722     -0.002002     -0.584452
      3.24271      7.39661     21.95760        -0.005469     -0.011570     -0.826164
      6.49089      8.88248     21.60684         0.000005     -0.003077      0.872282
      3.24544     10.35119      8.77152         0.000487      0.000418     -3.485711
      6.49089      0.00000      8.77152        -0.000003      0.000134      2.256829
      6.49089     10.35119     12.01697         0.000005      0.002134      0.495383
      3.24544      0.00000     12.01697         0.001739      0.000427     -0.724785
      3.24544     10.35119     15.26241         0.005080      0.013654      0.589447
      6.49089      0.00000     15.26241        -0.000005      0.003071     -0.650024
      6.49089     10.34807     18.43373         0.000009      0.031258      0.467739
[...]
      6.49089      5.91497     13.28849         0.000004      0.000393      0.049921
      4.51697      4.43622     12.01697         0.588951      0.000568      0.061792
      8.46481      4.43622     12.01697        -0.588949      0.000566      0.061790
      3.24544      5.91497     13.99089        -0.001808      0.002516     -0.230001
      3.24544      5.91497     16.53394         0.000993      0.002614      0.481707
      7.76241      4.43622     15.26241        -0.259730      0.011148      0.079296
      5.21936      4.43622     15.26241         0.259732      0.011146      0.079294
      6.49089      5.91570     17.25609         0.000007      0.005861     -0.478316
      6.49089      5.91362     19.81402         0.000000      0.003997     -0.573236
      4.54253      4.43665     18.52798         0.073066     -0.000918     -0.000122
      8.43925      4.43664     18.52798        -0.073109     -0.000897     -0.000116
      3.23427      5.91507     20.48973        -0.006068     -0.002966      0.532198
      3.26559      5.91997     23.04189         0.000808      0.012329      1.189917
      7.71435      4.42369     21.90208         0.222011     -0.022132      0.088750
      5.26742      4.42369     21.90209        -0.222022     -0.022135      0.088744
    total drift:                               -0.000001      0.002573     -0.082798

  FREE ENERGIE OF THE ION-ELECTRON SYSTEM (eV)
  free  energy   TOTEN  =     -1932.06483371 eV

  energy  without entropy=    -1932.06483371  energy(sigma->0) =    -1932.06483371