 vasp.6.3.0 20Jan22 (build Mar 11 2022 13:48:16) complex

 executed on             LinuxIFC date 2023.12.26  17:25:39

 INCAR:
   SYSTEM = MgO-rocksalt
   ISMEAR = 0
   SIGMA = 0.05
   EDIFF = 1E-5
   ALGO = ALL
   ISTART = 0
   IBRION = -1
   NSW = 0
   ISYM = 2
   ISIF = 2
   DIPOL = 0.5 0.5 0.5
   IDIPOL = 3
   LDIPOL = .TRUE.
   GGA = RE
   LUSE_VDW = .TRUE.
   AGGAC = 0.0
   ENCUT = 600
   PREC = Accurate
   LASPH = .TRUE.
   LREAL = .FALSE.
   ISPIN = 1
   NELM = 200
   NELMIN = 8
   NCORE = 2
   KPAR = 1
   LWAVE = .FALSE.
   LCHARG = .FALSE.

 POTCAR:    PAW_PBE Mg_pv 13Apr2007
 POTCAR:    PAW_PBE O 08Apr2002
|           W    W    AA    RRRRR   N    N  II  N    N   GGGG   !!!           |
|           W    W   A  A   R    R  NN   N  II  NN   N  G    G  !!!           |
|           W    W  A    A  R    R  N N  N  II  N N  N  G       !!!           |
|           W WW W  AAAAAA  RRRRR   N  N N  II  N  N N  G  GGG   !            |
|           WW  WW  A    A  R   R   N   NN  II  N   NN  G    G                |
|           W    W  A    A  R    R  N    N  II  N    N   GGGG   !!!           |
|     For optimal performance we recommend to set                             |
|       NCORE = 2 up to number-of-cores-per-socket                            |
|     This setting can greatly improve the performance of VASP for DFT.       |
|     The default, NCORE=1 might be grossly inefficient on modern             |
|     multi-core architectures or massively parallel machines. Do your        |
|     Unfortunately you need to use the default for GW and RPA                |
|     calculations (for HF NCORE is supported but not extensively tested      |
|     yet).                                                                   |

   TITEL  = PAW_PBE Mg_pv 13Apr2007
   POMASS =   24.305; ZVAL   =    8.000    mass and valenz
   ENMAX  =  403.929; ENMIN  =  302.947 eV

   TITEL  = PAW_PBE O 08Apr2002
   POMASS =   16.000; ZVAL   =    6.000    mass and valenz
   ENMAX  =  400.000; ENMIN  =  300.000 eV

  PAW_PBE Mg_pv 13Apr2007               :
  PAW_PBE O 08Apr2002                   :

 POSCAR: Mg  O
  positions in direct lattice
 exchange correlation table for  LEXCH =       40
   RHO(1)=    0.500       N(1)  =     2000
   RHO(2)=  100.500       N(2)  =     4000

 ion  position               nearest neighbor table
   1  0.250  0.000  0.351-  33 2.12  35 2.12  36 2.12  43 2.12  52 2.12
   2  0.500  0.250  0.351-  34 2.12  35 2.12  36 2.12  44 2.12  51 2.12
   3  0.250  0.250  0.450-  35 2.12  34 2.12  33 2.12  41 2.12  50 2.12  39 2.12
   4  0.500  0.000  0.450-  36 2.12  34 2.12  33 2.12  42 2.12  49 2.12  40 2.12
   5  0.250  0.000  0.550-  40 2.12  39 2.12  47 2.12  56 2.12  33 2.13  37 2.15
   6  0.500  0.251  0.550-  48 2.11  39 2.12  55 2.12  40 2.12  34 2.13  38 2.15
   7  0.250  0.250  0.648-  39 2.10  37 2.11  54 2.11  45 2.12  38 2.12
   8  0.500  0.000  0.648-  40 2.10  38 2.11  46 2.11  37 2.12  53 2.12
   9  0.250  0.500  0.351-  41 2.12  35 2.12  43 2.12  44 2.12  60 2.12
  10  0.500  0.750  0.351-  42 2.12  36 2.12  43 2.12  44 2.12  59 2.12
  11  0.250  0.750  0.450-  43 2.12  41 2.12  42 2.12  33 2.12  58 2.12  47 2.12
  12  0.500  0.500  0.450-  44 2.12  41 2.12  42 2.12  34 2.12  57 2.12  48 2.13
  13  0.251  0.500  0.550-  48 2.11  47 2.12  39 2.12  64 2.12  41 2.13  45 2.15
  14  0.500  0.749  0.550-  48 2.11  47 2.12  63 2.12  40 2.12  42 2.13  46 2.15
  15  0.250  0.750  0.648-  47 2.10  37 2.11  62 2.11  45 2.12  46 2.12
  16  0.500  0.500  0.651-  38 2.13  45 2.13  46 2.13  61 2.13  48 2.15
  17  0.750  0.000  0.351-  49 2.12  36 2.12  51 2.12  52 2.12  59 2.12
  18  0.000  0.250  0.351-  50 2.12  35 2.12  51 2.12  52 2.12  60 2.12
  19  0.750  0.250  0.450-  51 2.12  49 2.12  50 2.12  34 2.12  57 2.12  55 2.12
  20  0.000  0.000  0.450-  52 2.12  49 2.12  50 2.12  33 2.12  58 2.12  56 2.12
  21  0.750  0.000  0.550-  40 2.12  55 2.12  63 2.12  56 2.12  49 2.13  53 2.15
  22  0.000  0.250  0.550-  64 2.12  55 2.12  39 2.12  56 2.12  50 2.13  54 2.15
  23  0.750  0.250  0.648-  55 2.10  54 2.11  53 2.11  38 2.12  61 2.12
  24  0.000  0.000  0.648-  56 2.11  53 2.11  54 2.11  37 2.11  62 2.11
  25  0.750  0.500  0.351-  57 2.12  51 2.12  44 2.12  59 2.12  60 2.12
  26  0.000  0.750  0.351-  58 2.12  52 2.12  43 2.12  59 2.12  60 2.12
  27  0.750  0.750  0.450-  59 2.12  49 2.12  57 2.12  58 2.12  42 2.12  63 2.12
  28  0.000  0.500  0.450-  60 2.12  50 2.12  57 2.12  58 2.12  41 2.12  64 2.12
  29  0.749  0.500  0.550-  48 2.11  55 2.12  63 2.12  64 2.12  57 2.13  61 2.15
  30  0.000  0.750  0.550-  64 2.12  63 2.12  47 2.12  56 2.12  58 2.13  62 2.15
  31  0.750  0.750  0.648-  63 2.10  62 2.11  53 2.11  46 2.12  61 2.12
  32  0.000  0.500  0.648-  64 2.10  61 2.11  45 2.11  62 2.12  54 2.12
  33  0.250  0.000  0.450-   1 2.12   3 2.12   4 2.12  11 2.12  20 2.12   5 2.13
  34  0.500  0.250  0.450-   2 2.12   3 2.12   4 2.12  12 2.12  19 2.12   6 2.13
  35  0.250  0.250  0.351-   3 2.12   2 2.12   1 2.12   9 2.12  18 2.12
  36  0.500  0.000  0.351-   4 2.12   2 2.12   1 2.12  10 2.12  17 2.12
  37  0.250  0.000  0.651-   7 2.11  15 2.11  24 2.11   8 2.12   5 2.15
  38  0.500  0.249  0.651-   8 2.11   7 2.12  23 2.12  16 2.13   6 2.15
  39  0.250  0.250  0.550-   7 2.10   5 2.12  22 2.12  13 2.12   6 2.12   3 2.12
  40  0.500  0.000  0.550-   8 2.10   5 2.12  21 2.12   4 2.12  14 2.12   6 2.12
  41  0.250  0.500  0.450-   9 2.12   3 2.12  11 2.12  12 2.12  28 2.12  13 2.13
  42  0.500  0.750  0.450-  10 2.12   4 2.12  11 2.12  12 2.12  27 2.12  14 2.13
  43  0.250  0.750  0.351-  11 2.12   9 2.12  10 2.12   1 2.12  26 2.12
  44  0.500  0.500  0.351-  12 2.12   9 2.12  10 2.12   2 2.12  25 2.12
  45  0.249  0.500  0.651-  32 2.11  15 2.12   7 2.12  16 2.13  13 2.15
  46  0.500  0.751  0.651-   8 2.11  15 2.12  31 2.12  16 2.13  14 2.15
  47  0.250  0.750  0.550-  15 2.10   5 2.12  30 2.12  13 2.12  14 2.12  11 2.12
  48  0.500  0.500  0.550-   6 2.11  13 2.11  14 2.11  29 2.11  12 2.13  16 2.15
  49  0.750  0.000  0.450-  17 2.12   4 2.12  19 2.12  20 2.12  27 2.12  21 2.13
  50  0.000  0.250  0.450-  18 2.12   3 2.12  19 2.12  20 2.12  28 2.12  22 2.13
  51  0.750  0.250  0.351-  19 2.12  17 2.12  18 2.12   2 2.12  25 2.12
  52  0.000  0.000  0.351-  20 2.12  17 2.12  18 2.12   1 2.12  26 2.12
  53  0.750  0.000  0.651-  23 2.11  31 2.11  24 2.11   8 2.12  21 2.15
  54  0.000  0.250  0.651-   7 2.11  23 2.11  24 2.11  32 2.12  22 2.15
  55  0.750  0.250  0.550-  23 2.10  22 2.12  21 2.12   6 2.12  29 2.12  19 2.12
  56  0.000  0.000  0.550-  24 2.11  21 2.12  22 2.12   5 2.12  30 2.12  20 2.12
  57  0.750  0.500  0.450-  25 2.12  19 2.12  12 2.12  27 2.12  28 2.12  29 2.13
  58  0.000  0.750  0.450-  26 2.12  20 2.12  11 2.12  27 2.12  28 2.12  30 2.13
  59  0.750  0.750  0.351-  27 2.12  17 2.12  25 2.12  26 2.12  10 2.12
  60  0.000  0.500  0.351-  28 2.12  18 2.12  25 2.12  26 2.12   9 2.12
  61  0.751  0.500  0.651-  32 2.11  31 2.12  23 2.12  16 2.13  29 2.15
  62  0.000  0.750  0.651-  15 2.11  31 2.11  24 2.11  32 2.12  30 2.15
  63  0.750  0.750  0.550-  31 2.10  30 2.12  21 2.12  14 2.12  29 2.12  27 2.12
  64  0.000  0.500  0.550-  32 2.10  30 2.12  22 2.12  28 2.12  13 2.12  29 2.12

  LATTYP: Found a simple tetragonal cell.
 ALAT       =     8.4671426306
 C/A-ratio  =     2.5215539532

  Lattice vectors:

 A1 = (   8.4671426306,   0.0000000000,   0.0000000000)
 A2 = (   0.0000000000,   8.4671426306,   0.0000000000)
 A3 = (   0.0000000000,   0.0000000000,  21.3503569730)

Analysis of symmetry for initial positions (statically):
 Subroutine PRICEL returns:
 Original cell was already a primitive cell.

 Routine SETGRP: Setting up the symmetry group for a
 simple tetragonal supercell.

 Subroutine GETGRP returns: Found  8 space group operations
 (whereof  8 operations were pure point group operations)
 out of a pool of 16 trial point group operations.

The static configuration has the point symmetry C_4v.

Analysis of symmetry for dynamics (positions and initial velocities):
 Subroutine PRICEL returns:
 Original cell was already a primitive cell.

[...]

The dynamic configuration has the point symmetry C_4v.

Analysis of constrained symmetry for selective dynamics:
 Subroutine PRICEL returns:
 Original cell was already a primitive cell.

 Routine SETGRP: Setting up the symmetry group for a
 simple tetragonal supercell.

 Subroutine GETGRP returns: Found  8 space group operations
 (whereof  8 operations were pure point group operations)
 out of a pool of 16 trial point group operations.

The constrained configuration has the point symmetry C_4v.

 Subroutine INISYM returns: Found  8 space group operations
 (whereof  8 operations are pure point group operations),
 and found     1 'primitive' translations

                                     Primitive cell

  volume of cell :    1530.6606

  direct lattice vectors                    reciprocal lattice vectors
     8.467142631  0.000000000  0.000000000     0.118103597  0.000000000  0.000000000
     0.000000000  8.467142631  0.000000000     0.000000000  0.118103597  0.000000000
     0.000000000  0.000000000 21.350356973     0.000000000  0.000000000  0.046837624

  length of vectors
     8.467142631  8.467142631 21.350356973     0.118103597  0.118103597  0.046837624

  position of ions in fractional coordinates (direct lattice)
     0.250000000  0.000000000  0.351282183
     0.500000000  0.250000000  0.351282183
     0.250000000  0.250000000  0.450427394
     0.500000000  0.000000000  0.450427394
     0.250130675  0.000000000  0.550051025
     0.500000000  0.250549374  0.550337361
     0.249664725  0.249664725  0.648233062
     0.500000000  0.000000000  0.648327315
     0.250000000  0.500000000  0.351282183
     0.500000000  0.750000000  0.351282183
     0.250000000  0.750000000  0.450427394
     0.500000000  0.500000000  0.450427394
     0.250549374  0.500000000  0.550337361
     0.500000000  0.749450626  0.550337361
     0.249664725  0.750335275  0.648233062
     0.500000000  0.500000000  0.651025884
     0.750000000  0.000000000  0.351282183
     0.000000000  0.250000000  0.351282183
     0.750000000  0.250000000  0.450427394
     0.000000000  0.000000000  0.450427394
     0.749869325  0.000000000  0.550051025
     0.000000000  0.250130675  0.550051025
     0.750335275  0.249664725  0.648233062
     0.000000000  0.000000000  0.648316240
     0.750000000  0.500000000  0.351282183
     0.000000000  0.750000000  0.351282183
     0.750000000  0.750000000  0.450427394
     0.000000000  0.500000000  0.450427394
     0.749450626  0.500000000  0.550337361
     0.000000000  0.749869325  0.550051025
     0.750335275  0.750335275  0.648233062
     0.000000000  0.500000000  0.648327315
     0.250000000  0.000000000  0.450427394
     0.500000000  0.250000000  0.450427394
     0.250000000  0.250000000  0.351282183
     0.500000000  0.000000000  0.351282183
     0.249675969  0.000000000  0.650693757
     0.500000000  0.248616374  0.650874873
     0.249995626  0.249995626  0.549815020
     0.500000000  0.000000000  0.549743658
     0.250000000  0.500000000  0.450427394
     0.500000000  0.750000000  0.450427394
[...]
   0.75000000  0.50000000  0.45042739
   0.00000000  0.75000000  0.45042739
   0.75000000  0.75000000  0.35128218
   0.00000000  0.50000000  0.35128218
   0.75138363  0.50000000  0.65087487
   0.00000000  0.75032403  0.65069376
   0.75000437  0.75000437  0.54981502
   0.00000000  0.50000000  0.54974366

 position of ions in cartesian coordinates  (Angst):
   2.11678566  0.00000000  7.50000000
   4.23357132  2.11678566  7.50000000
   2.11678566  2.11678566  9.61678566
   4.23357132  0.00000000  9.61678566
   2.11789210  0.00000000 11.74378574
   4.23357132  2.12143728 11.74989911
   2.11394684  2.11394684 13.84000727
   4.23357132  0.00000000 13.84201961
   2.11678566  4.23357132  7.50000000
   4.23357132  6.35035697  7.50000000
   2.11678566  6.35035697  9.61678566
   4.23357132  4.23357132  9.61678566
   2.12143728  4.23357132 11.74989911
   4.23357132  6.34570535 11.74989911
   2.11394684  6.35319579 13.84000727
   4.23357132  4.23357132 13.89963502
   6.35035697  0.00000000  7.50000000
   0.00000000  2.11678566  7.50000000
   6.35035697  2.11678566  9.61678566
   0.00000000  0.00000000  9.61678566
   6.34925053  0.00000000 11.74378574
   0.00000000  2.11789210 11.74378574
   6.35319579  2.11394684 13.84000727
   0.00000000  0.00000000 13.84178315
   6.35035697  4.23357132  7.50000000
   0.00000000  6.35035697  7.50000000
   6.35035697  6.35035697  9.61678566
   0.00000000  4.23357132  9.61678566
   6.34570535  4.23357132 11.74989911
   0.00000000  6.34925053 11.74378574
   6.35319579  6.35319579 13.84000727
   0.00000000  4.23357132 13.84201961
   2.11678566  0.00000000  9.61678566
   4.23357132  2.11678566  9.61678566
   2.11678566  2.11678566  7.50000000
   4.23357132  0.00000000  7.50000000
   2.11404204  0.00000000 13.89254400
   4.23357132  2.10507030 13.89641088
   2.11674862  2.11674862 11.73874694
   4.23357132  0.00000000 11.73722335
   2.11678566  4.23357132  9.61678566
   4.23357132  6.35035697  9.61678566
   2.11678566  6.35035697  7.50000000
   4.23357132  4.23357132  7.50000000
   2.10507030  4.23357132 13.89641088
   4.23357132  6.36207233 13.89641088
   2.11674862  6.35039401 11.73874694
   4.23357132  4.23357132 11.75041252
   6.35035697  0.00000000  9.61678566
   0.00000000  2.11678566  9.61678566
   6.35035697  2.11678566  7.50000000
   0.00000000  0.00000000  7.50000000
   6.35310059  0.00000000 13.89254400
   0.00000000  2.11404204 13.89254400
   6.35039401  2.11674862 11.73874694
   0.00000000  0.00000000 11.73652345
   6.35035697  4.23357132  9.61678566
   0.00000000  6.35035697  9.61678566
   6.35035697  6.35035697  7.50000000
   0.00000000  4.23357132  7.50000000
   6.36207233  4.23357132 13.89641088
   0.00000000  6.35310059 13.89254400
   6.35039401  6.35039401 11.73874694
   0.00000000  4.23357132 11.73722335

--------------------------------------- Iteration      FINAL  ---------------------------------------

--------------------OUTCAR has been truncated-------------------------

[...]

--------------------OUTCAR has been truncated-------------------------

  FORCE on cell =-STRESS in cart. coord.  units (eV):
  Direction    XX          YY          ZZ          XY          YZ          ZX
  Alpha Z   869.06037   869.06037   869.06037
  Ewald  160117.10880160117.10880************     0.00000     0.00000     0.00000
  Hartree170164.20077170164.20077************    -0.00000    -0.00000    -0.00000
  E(xc)   -2521.58642 -2521.58642 -2524.16770     0.00000    -0.00000    -0.00000
  Local  ************************340437.49450    -0.00000    -0.00000    -0.00000
  n-local -2813.67680 -2814.50433 -2833.17204    -0.00002    -0.00000     0.00000
  augment  1077.83841  1077.83841  1069.08803     0.00000     0.00000     0.00000
  Kinetic  7321.07824  7323.68805  7357.93632     0.00001     0.00000     0.00000
  Fock        0.00000     0.00000     0.00000     0.00000     0.00000     0.00000
  Total     -14.49775   -14.49775     9.46443     0.00000     0.00000     0.00000
  in kB     -15.17512   -15.17512     9.90664     0.00000     0.00000     0.00000

 VOLUME and BASIS-vectors are now :
  energy-cutoff  :      600.00
  volume of cell :     1530.66
      direct lattice vectors                 reciprocal lattice vectors
     8.467142631  0.000000000  0.000000000     0.118103597  0.000000000  0.000000000
     0.000000000  8.467142631  0.000000000     0.000000000  0.118103597  0.000000000
     0.000000000  0.000000000 21.350356973     0.000000000  0.000000000  0.046837624

  length of vectors
     8.467142631  8.467142631 21.350356973     0.118103597  0.118103597  0.046837624

 FORCES acting on ions:
    Electron-Ion                     Ewald-Force                    Non-Local-Force
   -.136E+00 0.557E-12 0.205E+04   0.137E+00 0.123E-12 -.205E+04   -.612E-03 0.389E-23 -.645E+01
   0.713E-12 -.175E+00 0.205E+04   0.155E-12 0.179E+00 -.205E+04   -.719E-23 -.264E-02 -.645E+01
   -.709E+00 -.709E+00 0.680E+03   0.725E+00 0.725E+00 -.680E+03   -.111E-01 -.111E-01 0.460E+00
   0.619E-12 0.655E-12 0.680E+03   0.151E-10 -.149E-10 -.680E+03   -.317E-23 -.477E-23 0.405E+00
   -.591E+00 0.812E-12 -.683E+03   0.600E+00 -.146E-11 0.683E+03   -.171E-01 0.968E-23 -.232E+00
   0.614E-12 -.207E+01 -.687E+03   0.143E-11 0.219E+01 0.687E+03   -.543E-23 -.130E+00 -.277E+00
   -.201E+01 -.201E+01 -.203E+04   0.182E+01 0.182E+01 0.203E+04   0.178E+00 0.178E+00 0.548E+01
   0.684E-12 -.309E-12 -.204E+04   0.490E-12 -.432E-12 0.203E+04   -.853E-23 0.246E-23 0.539E+01
   -.175E+00 0.123E-11 0.205E+04   0.179E+00 -.168E-10 -.205E+04   -.264E-02 -.620E-23 -.645E+01
   0.710E-12 0.175E+00 0.205E+04   -.297E-11 -.179E+00 -.205E+04   0.330E-22 0.264E-02 -.645E+01
   -.709E+00 0.709E+00 0.680E+03   0.725E+00 -.725E+00 -.680E+03   -.111E-01 0.111E-01 0.460E+00
   0.610E-12 0.109E-11 0.677E+03   0.165E-10 0.245E-13 -.677E+03   0.369E-22 0.385E-22 0.598E+00
   -.207E+01 0.480E-12 -.687E+03   0.219E+01 -.252E-13 0.687E+03   -.130E+00 0.171E-23 -.277E+00
   0.595E-12 0.207E+01 -.687E+03   0.299E-11 -.219E+01 0.687E+03   -.249E-23 0.130E+00 -.277E+00
   -.201E+01 0.201E+01 -.203E+04   0.182E+01 -.182E+01 0.203E+04   0.178E+00 -.178E+00 0.548E+01
   0.685E-12 0.309E-12 -.206E+04   0.543E-13 0.720E-14 0.205E+04   -.344E-22 0.115E-21 0.586E+01
   0.136E+00 0.618E-12 0.205E+04   -.137E+00 0.281E-13 -.205E+04   0.612E-03 0.606E-23 -.645E+01
   -.605E-13 -.136E+00 0.205E+04   0.202E-10 0.137E+00 -.205E+04   -.893E-23 -.612E-03 -.645E+01
   0.709E+00 -.709E+00 0.680E+03   -.725E+00 0.725E+00 -.680E+03   0.111E-01 -.111E-01 0.460E+00
   -.463E-13 -.621E-12 0.681E+03   -.120E-11 -.149E-10 -.681E+03   -.645E-23 0.133E-22 0.401E+00
   0.591E+00 0.853E-12 -.683E+03   -.600E+00 -.151E-11 0.683E+03   0.171E-01 -.281E-22 -.232E+00
   -.604E-13 -.591E+00 -.683E+03   -.148E-11 0.600E+00 0.683E+03   -.201E-22 -.171E-01 -.232E+00
   0.201E+01 -.201E+01 -.203E+04   -.182E+01 0.182E+01 0.203E+04   -.178E+00 0.178E+00 0.548E+01
   -.547E-13 0.302E-12 -.204E+04   -.147E-13 0.557E-13 0.203E+04   0.257E-22 -.672E-22 0.543E+01
   0.175E+00 0.745E-12 0.205E+04   -.179E+00 -.168E-10 -.205E+04   0.264E-02 0.618E-22 -.645E+01
   -.563E-13 0.136E+00 0.205E+04   0.169E-10 -.137E+00 -.205E+04   0.881E-23 0.612E-03 -.645E+01
   0.709E+00 0.709E+00 0.680E+03   -.725E+00 -.725E+00 -.680E+03   0.111E-01 0.111E-01 0.460E+00
   -.464E-13 -.671E-14 0.680E+03   0.221E-12 0.430E-13 -.680E+03   -.306E-23 0.851E-23 0.405E+00
   0.207E+01 -.129E-11 -.687E+03   -.219E+01 -.573E-13 0.687E+03   0.130E+00 -.132E-24 -.277E+00
   -.541E-13 0.591E+00 -.683E+03   0.289E-13 -.600E+00 0.683E+03   -.159E-23 0.171E-01 -.232E+00
   0.201E+01 0.201E+01 -.203E+04   -.182E+01 -.182E+01 0.203E+04   -.178E+00 -.178E+00 0.548E+01
   -.762E-13 0.122E-11 -.204E+04   -.319E-13 -.249E-13 0.203E+04   -.109E-22 0.528E-23 0.539E+01
   -.355E+00 -.381E-12 0.510E+03   0.355E+00 -.520E-13 -.510E+03   0.448E-03 0.229E-22 -.561E-01
   0.289E-12 -.588E+00 0.508E+03   -.141E-12 0.553E+00 -.508E+03   0.790E-23 0.484E-01 -.102E+00
   -.118E+00 -.118E+00 0.154E+04   0.120E+00 0.120E+00 -.155E+04   -.268E-02 -.268E-02 0.356E+01
   0.348E-12 -.457E-12 0.154E+04   -.855E-11 0.834E-11 -.155E+04   0.449E-23 0.303E-22 0.356E+01
   -.727E+00 0.282E-12 -.155E+04   0.778E+00 -.232E-12 0.156E+04   -.356E-01 0.258E-22 -.530E+01
   0.361E-12 -.356E+01 -.155E+04   -.549E-13 0.350E+01 0.155E+04   -.859E-23 0.207E+00 -.498E+01
   -.103E+01 -.103E+01 -.506E+03   0.102E+01 0.102E+01 0.506E+03   0.245E-01 0.245E-01 0.425E+00
   0.277E-12 0.550E-12 -.506E+03   -.811E-12 0.832E-12 0.505E+03   0.153E-22 0.397E-23 0.390E+00
   -.588E+00 -.504E-13 0.508E+03   0.553E+00 0.828E-11 -.508E+03   0.484E-01 0.132E-22 -.102E+00
   0.268E-12 0.588E+00 0.508E+03   0.647E-12 -.553E+00 -.508E+03   0.974E-23 -.484E-01 -.102E+00
   -.118E+00 0.118E+00 0.154E+04   0.120E+00 -.120E+00 -.155E+04   -.268E-02 0.268E-02 0.356E+01
   0.350E-12 -.309E-12 0.154E+04   -.948E-11 -.396E-13 -.155E+04   -.140E-22 0.201E-22 0.355E+01
   -.356E+01 -.725E-12 -.155E+04   0.350E+01 -.211E-13 0.155E+04   0.207E+00 0.316E-22 -.498E+01
   0.375E-12 0.356E+01 -.155E+04   -.758E-14 -.350E+01 0.155E+04   0.237E-22 -.207E+00 -.498E+01
   -.103E+01 0.103E+01 -.506E+03   0.102E+01 -.102E+01 0.506E+03   0.245E-01 -.245E-01 0.425E+00
   0.284E-12 0.193E-12 -.518E+03   0.823E-11 -.141E-13 0.518E+03   -.826E-24 -.780E-24 -.176E+00
   0.355E+00 -.368E-12 0.510E+03   -.355E+00 -.546E-13 -.510E+03   -.448E-03 -.207E-22 -.561E-01
   -.429E-13 -.355E+00 0.510E+03   -.935E-11 0.355E+00 -.510E+03   0.784E-23 0.448E-03 -.561E-01
   0.118E+00 -.118E+00 0.154E+04   -.120E+00 0.120E+00 -.155E+04   0.268E-02 -.268E-02 0.356E+01
   -.290E-13 0.169E-11 0.154E+04   0.908E-12 0.838E-11 -.155E+04   0.283E-22 0.699E-22 0.356E+01
   0.727E+00 0.282E-12 -.155E+04   -.778E+00 -.220E-12 0.156E+04   0.356E-01 0.477E-22 -.530E+01
   -.100E-14 -.727E+00 -.155E+04   -.121E-12 0.778E+00 0.156E+04   0.574E-22 -.356E-01 -.530E+01
   0.103E+01 -.103E+01 -.506E+03   -.102E+01 0.102E+01 0.506E+03   -.245E-01 0.245E-01 0.425E+00
   -.280E-13 -.334E-12 -.506E+03   0.142E-13 -.576E-13 0.505E+03   -.503E-23 0.202E-23 0.295E+00
   0.588E+00 0.509E-11 0.508E+03   -.553E+00 0.838E-11 -.508E+03   -.484E-01 -.137E-22 -.102E+00
   -.317E-13 0.355E+00 0.510E+03   -.861E-11 -.355E+00 -.510E+03   0.158E-22 -.448E-03 -.561E-01
   0.118E+00 0.118E+00 0.154E+04   -.120E+00 -.120E+00 -.155E+04   0.268E-02 0.268E-02 0.356E+01
   -.363E-13 0.193E-11 0.154E+04   -.166E-12 -.246E-12 -.155E+04   -.125E-23 -.695E-23 0.356E+01
   0.356E+01 -.524E-11 -.155E+04   -.350E+01 -.498E-13 0.155E+04   -.207E+00 -.199E-22 -.498E+01
   -.775E-14 0.727E+00 -.155E+04   0.148E-13 -.778E+00 0.156E+04   0.107E-22 0.356E-01 -.530E+01
   0.103E+01 0.103E+01 -.506E+03   -.102E+01 -.102E+01 0.506E+03   -.245E-01 -.245E-01 0.425E+00
   -.375E-13 -.571E-13 -.506E+03   -.214E-13 0.213E-13 0.505E+03   0.869E-23 0.729E-23 0.390E+00
   0.204E-10 -.316E-11 0.168E+02   0.182E-12 -.332E-12 -.477E-11   -.451E-16 0.902E-16 -.167E+02

 POSITION                                       TOTAL-FORCE (eV/Angst)
      2.11679      0.00000      7.50000         0.000232     -0.000000      0.197018
      4.23357      2.11679      7.50000         0.000000      0.000737      0.197922
      2.11679      2.11679      9.61679         0.004721      0.004721      0.028741
      4.23357      0.00000      9.61679         0.000000     -0.000000      0.037641
      2.11789      0.00000     11.74379        -0.007646     -0.000000      0.004399
      4.23357      2.12144     11.74990         0.000000     -0.008554     -0.011391
      2.11395      2.11395     13.84001        -0.015250     -0.015250      0.242983
      4.23357      0.00000     13.84202         0.000000     -0.000000      0.243501
      2.11679      4.23357      7.50000         0.000737     -0.000000      0.197922
      4.23357      6.35036      7.50000         0.000000     -0.000737      0.197922
      2.11679      6.35036      9.61679         0.004721     -0.004721      0.028741
      4.23357      4.23357      9.61679         0.000000     -0.000000      0.044332
      2.12144      4.23357     11.74990        -0.008554     -0.000000     -0.011391
      4.23357      6.34571     11.74990         0.000000      0.008554     -0.011391
      2.11395      6.35320     13.84001        -0.015250      0.015250      0.242983
      4.23357      4.23357     13.89964         0.000000     -0.000000     -0.130886
      6.35036      0.00000      7.50000        -0.000232     -0.000000      0.197018
      0.00000      2.11679      7.50000         0.000000      0.000232      0.197018
      6.35036      2.11679      9.61679        -0.004721      0.004721      0.028741
      0.00000      0.00000      9.61679         0.000000     -0.000000      0.027113
      6.34925      0.00000     11.74379         0.007646     -0.000000      0.004399
      0.00000      2.11789     11.74379         0.000000     -0.007646      0.004399
      6.35320      2.11395     13.84001         0.015250     -0.015250      0.242983
      0.00000      0.00000     13.84178         0.000000     -0.000000      0.227991
      6.35036      4.23357      7.50000        -0.000737     -0.000000      0.197922
      0.00000      6.35036      7.50000         0.000000     -0.000232      0.197018
      6.35036      6.35036      9.61679        -0.004721     -0.004721      0.028741
      0.00000      4.23357      9.61679         0.000000     -0.000000      0.037641
      6.34571      4.23357     11.74990         0.008554     -0.000000     -0.011391
      0.00000      6.34925     11.74379         0.000000      0.007646      0.004399
      6.35320      6.35320     13.84001         0.015250      0.015250      0.242983
      0.00000      4.23357     13.84202         0.000000     -0.000000      0.243501
      2.11679      0.00000      9.61679        -0.000080     -0.000000      0.056906
      4.23357      2.11679      9.61679         0.000000      0.012751      0.073840
      2.11679      2.11679      7.50000        -0.000774     -0.000774     -0.518747
      4.23357      0.00000      7.50000         0.000000     -0.000000     -0.518681
      2.11404      0.00000     13.89254         0.015333     -0.000000      0.002313
      4.23357      2.10507     13.89641         0.000000      0.155962      0.073758
      2.11675      2.11675     11.73875         0.007526      0.007526     -0.010138
      4.23357      0.00000     11.73722         0.000000     -0.000000      0.001229
      2.11679      4.23357      9.61679         0.012751     -0.000000      0.073840
      4.23357      6.35036      9.61679         0.000000     -0.012751      0.073840
      2.11679      6.35036      7.50000        -0.000774      0.000774     -0.518747
      4.23357      4.23357      7.50000         0.000000     -0.000000     -0.519852
      2.10507      4.23357     13.89641         0.155962     -0.000000      0.073758
      4.23357      6.36207     13.89641         0.000000     -0.155962      0.073758
      2.11675      6.35039     11.73875         0.007526     -0.007526     -0.010138
      4.23357      4.23357     11.75041         0.000000     -0.000000      0.006877
      6.35036      0.00000      9.61679         0.000080     -0.000000      0.056906
      0.00000      2.11679      9.61679         0.000000     -0.000080      0.056906
      6.35036      2.11679      7.50000         0.000774     -0.000774     -0.518747
      0.00000      0.00000      7.50000         0.000000     -0.000000     -0.518310
      6.35310      0.00000     13.89254        -0.015333     -0.000000      0.002313
      0.00000      2.11404     13.89254         0.000000      0.015333      0.002313
      6.35039      2.11675     11.73875        -0.007526      0.007526     -0.010138
      0.00000      0.00000     11.73652         0.000000     -0.000000     -0.015060
      6.35036      4.23357      9.61679        -0.012751     -0.000000      0.073840
      0.00000      6.35036      9.61679         0.000000      0.000080      0.056906
      6.35036      6.35036      7.50000         0.000774      0.000774     -0.518747
      0.00000      4.23357      7.50000         0.000000     -0.000000     -0.518681
      6.36207      4.23357     13.89641        -0.155962     -0.000000      0.073758
      0.00000      6.35310     13.89254         0.000000     -0.015333      0.002313
      6.35039      6.35039     11.73875        -0.007526     -0.007526     -0.010138
      0.00000      4.23357     11.73722         0.000000     -0.000000      0.001229
    total drift:                                0.000000     -0.000000      0.085834

  FREE ENERGIE OF THE ION-ELECTRON SYSTEM (eV)
  free  energy   TOTEN  =      -227.41205247 eV

  energy  without entropy=     -227.41205247  energy(sigma->0) =     -227.41205247