 vasp.6.3.0 20Jan22 (build Mar 11 2022 13:48:16) complex

 executed on             LinuxIFC date 2024.01.23  10:19:27

 INCAR:
   SYSTEM = TiO2
   ISMEAR = 0
   SIGMA = 0.05
   EDIFF = 1E-5
   ALGO = ALL
   ISTART = 0
   IBRION = -1
   NSW = 0
   ISYM = 0
   ISIF = 2
   EDIFFG = -0.01
   DIPOL = 0.5 0.5 0.5
   IDIPOL = 3
   LDIPOL = .TRUE.
   GGA = MK
   LUSE_VDW = .TRUE.
   PARAM1 = 0.1234
   PARAM2 = 0.711357
   ZAB_VDW = -1.8867
   AGGAC = 0.0
   ENCUT = 600
   PREC = Accurate
   LASPH = .TRUE.
   LREAL = .FALSE.
   ISPIN = 1
   NELM = 200
   NELMIN = 8
   NCORE = 2
   KPAR = 1
   LWAVE = .FALSE.
   LCHARG = .FALSE.

 POTCAR:    PAW_PBE H 15Jun2001
 POTCAR:    PAW_PBE O 08Apr2002
 POTCAR:    PAW_PBE Ti_pv 07Sep2000
 POTCAR:    PAW_PBE O 08Apr2002
|           W    W    AA    RRRRR   N    N  II  N    N   GGGG   !!!           |
|           W    W   A  A   R    R  NN   N  II  NN   N  G    G  !!!           |
|           W    W  A    A  R    R  N N  N  II  N N  N  G       !!!           |
|           W WW W  AAAAAA  RRRRR   N  N N  II  N  N N  G  GGG   !            |
|           WW  WW  A    A  R   R   N   NN  II  N   NN  G    G                |
|           W    W  A    A  R    R  N    N  II  N    N   GGGG   !!!           |
|     For optimal performance we recommend to set                             |
|       NCORE = 2 up to number-of-cores-per-socket                            |
|     This setting can greatly improve the performance of VASP for DFT.       |
|     The default, NCORE=1 might be grossly inefficient on modern             |
|     multi-core architectures or massively parallel machines. Do your        |
|     Unfortunately you need to use the default for GW and RPA                |
|     calculations (for HF NCORE is supported but not extensively tested      |
|     yet).                                                                   |

   TITEL  = PAW_PBE H 15Jun2001
   POMASS =    1.000; ZVAL   =    1.000    mass and valenz
   ENMAX  =  250.000; ENMIN  =  200.000 eV

   TITEL  = PAW_PBE O 08Apr2002
   POMASS =   16.000; ZVAL   =    6.000    mass and valenz
   ENMAX  =  400.000; ENMIN  =  300.000 eV

   TITEL  = PAW_PBE Ti_pv 07Sep2000
   POMASS =   47.880; ZVAL   =   10.000    mass and valenz
   ENMAX  =  222.335; ENMIN  =  166.751 eV

   TITEL  = PAW_PBE O 08Apr2002
   POMASS =   16.000; ZVAL   =    6.000    mass and valenz
   ENMAX  =  400.000; ENMIN  =  300.000 eV

  PAW_PBE H 15Jun2001                   :
  PAW_PBE O 08Apr2002                   :
  PAW_PBE Ti_pv 07Sep2000               :
  PAW_PBE O 08Apr2002                   :

 POSCAR:  H  O Ti  O
  positions in direct lattice
 exchange correlation table for  LEXCH =       43
   RHO(1)=    0.500       N(1)  =     2000
   RHO(2)=  100.500       N(2)  =     4000

 ion  position               nearest neighbor table
   1  0.482  0.540  0.806-   3 0.97
   2  0.592  0.501  0.794-   3 0.98
   3  0.520  0.491  0.787-   1 0.97   2 0.98  83 2.30
   4  0.750  0.625  0.285-  85 1.98 145 1.98 144 1.98  84 1.98  87 2.02 166 2.02  14 3.00  34 3.00

   5  0.000  0.750  0.285-  86 1.98  87 1.98 106 1.98 107 1.98  88 2.02  35 3.00  15 3.00
   6  0.000  0.625  0.393-  88 1.98 148 1.98  89 1.98 149 1.98  90 2.02  91 2.02  16 3.00  36 3.00

[...]

  84  0.750  0.750  0.243-   4 1.98  14 1.98
  85  0.750  0.750  0.327-   4 1.98  14 1.98   7 2.02
  86  0.098  0.625  0.285-   5 1.98  35 1.98  44 2.02
  87  0.902  0.625  0.285-   5 1.98  35 1.98   4 2.02
  88  0.000  0.750  0.351-   6 1.98  16 1.98   5 2.02
  89  0.000  0.750  0.434-   6 1.98  16 1.98   9 2.02
  90  0.848  0.625  0.393-   7 1.98  37 1.98   6 2.02
  91  0.152  0.625  0.393-  47 1.98  77 1.98   6 2.02
  92  0.750  0.750  0.458-   8 1.98  18 1.98   7 2.02
  93  0.750  0.750  0.542-   8 1.98  18 1.98  11 2.16
  94  0.098  0.625  0.500-   9 1.98  39 1.98  48 2.02
  95  0.902  0.625  0.500-   9 1.98  39 1.98   8 2.02
  96  0.000  0.750  0.566-  10 1.92  20 1.92   9 2.05
  97  0.000  0.750  0.651-  13 1.83  10 2.05  20 2.06
  98  0.850  0.625  0.608-  11 1.93  41 1.93  10 2.12
  99  0.150  0.625  0.608-  10 1.87  51 2.07  81 2.07
 100  0.752  0.751  0.673-  11 1.89  12 2.12  22 2.13
 101  0.749  0.749  0.757-  12 1.85  22 1.85
 102  0.094  0.625  0.721-  43 1.97  13 1.98  52 2.06
 103  0.907  0.625  0.721-  43 1.97  13 1.98  12 2.07
 104  0.750  0.000  0.243-  14 1.98  24 1.98
 105  0.750  0.000  0.327-  14 1.98  24 1.98  17 2.02
 106  0.098  0.875  0.285-   5 1.98  15 1.98  54 2.02
 107  0.902  0.875  0.285-   5 1.98  15 1.98  14 2.02
 108  0.000  0.000  0.351-  16 1.98  26 1.98  15 2.02
 109  0.000  0.000  0.434-  16 1.98  26 1.98  19 2.02
 110  0.848  0.875  0.393-   7 1.98  17 1.98  16 2.02
 111  0.152  0.875  0.393-  47 1.98  57 1.98  16 2.02
 112  0.750  0.000  0.458-  18 1.98  28 1.98  17 2.02
 113  0.750  0.000  0.542-  18 1.98  28 1.98  21 2.16
 114  0.098  0.875  0.500-   9 1.98  19 1.98  58 2.02
 115  0.902  0.875  0.500-   9 1.98  19 1.98  18 2.02
 116  0.001  1.000  0.566-  20 1.92  30 1.92  19 2.05
 117  0.000  0.000  0.651-  23 1.83  30 2.05  20 2.05
 118  0.849  0.875  0.608-  11 1.93  21 1.93  20 2.12
 119  0.150  0.875  0.608-  20 1.87  61 2.07  51 2.07
 120  0.751  0.000  0.673-  21 1.89  32 2.12  22 2.13
 121  0.750  1.000  0.758-  32 1.85  22 1.85
 122  0.094  0.875  0.721-  13 1.97  23 1.98  62 2.08
 123  0.907  0.875  0.721-  13 1.97  23 1.97  22 2.08
 124  0.750  0.250  0.243-  24 1.98  34 1.98
 125  0.750  0.250  0.327-  24 1.98  34 1.98  27 2.02
 126  0.098  0.125  0.285-  15 1.98  25 1.98  64 2.02
 127  0.902  0.125  0.285-  15 1.98  25 1.98  24 2.02
 128  0.000  0.250  0.351-  26 1.98  36 1.98  25 2.02
 129  0.000  0.250  0.434-  26 1.98  36 1.98  29 2.02
 130  0.848  0.125  0.393-  17 1.98  27 1.98  26 2.02
 131  0.152  0.125  0.393-  57 1.98  67 1.98  26 2.02
 132  0.750  0.250  0.458-  28 1.98  38 1.98  27 2.02
 133  0.750  0.250  0.542-  28 1.98  38 1.98  31 2.16
 134  0.098  0.125  0.500-  19 1.98  29 1.98  68 2.02
 135  0.902  0.125  0.500-  19 1.98  29 1.98  28 2.02
 136  0.001  0.250  0.566-  40 1.92  30 1.92  29 2.05
 137  0.000  0.250  0.651-  33 1.83  40 2.05  30 2.05
 138  0.849  0.125  0.608-  31 1.93  21 1.93  30 2.13
 139  0.150  0.125  0.608-  30 1.87  61 2.07  71 2.07
 140  0.752  0.250  0.673-  31 1.89  42 2.11  32 2.13
 141  0.750  0.250  0.757-  42 1.85  32 1.86
 142  0.094  0.125  0.721-  33 1.97  23 1.98  72 2.08
 143  0.907  0.125  0.721-  33 1.97  23 1.97  32 2.08
[...]
 229  0.500  0.500  0.434-  46 1.98  76 1.98  79 2.02
 230  0.348  0.375  0.393-  67 1.98  77 1.98  76 2.02
 231  0.652  0.375  0.393-  27 1.98  37 1.98  76 2.02
 232  0.250  0.500  0.458-  48 1.98  78 1.98  77 2.02
 233  0.250  0.500  0.542-  48 1.98  78 1.98  81 2.17
 234  0.598  0.375  0.500-  69 1.98  79 1.98  38 2.02
 235  0.402  0.375  0.500-  69 1.98  79 1.98  78 2.02
 236  0.501  0.500  0.567-  50 1.92  80 1.92  79 2.05
 237  0.500  0.500  0.651-  83 1.91  50 2.03  80 2.03
 238  0.349  0.375  0.609-  71 1.93  81 1.93  80 2.13
 239  0.651  0.375  0.608-  80 1.87  41 2.06  31 2.06
 240  0.250  0.500  0.673-  81 1.89  52 2.13  82 2.13
 241  0.252  0.500  0.757-  82 1.85  52 1.86
 242  0.596  0.372  0.718-  73 1.95  83 1.99  42 2.06
 243  0.406  0.374  0.719-  83 1.96  73 1.97  82 2.08

IMPORTANT INFORMATION: All symmetrisations will be switched off!
NOSYMM: (Re-)initialisation of all symmetry stuff for point group C_1.

                                     Primitive cell

  volume of cell :    4895.9617

  direct lattice vectors                    reciprocal lattice vectors
    13.251680751  0.000000000  0.000000000     0.075462126  0.000000000  0.000000000
     0.000000000 11.981436613  0.000000000     0.000000000  0.083462445  0.000000000
     0.000000000  0.000000000 30.836008487     0.000000000  0.000000000  0.032429619

  length of vectors
    13.251680751 11.981436613 30.836008487     0.075462126  0.083462445  0.032429619

  position of ions in fractional coordinates (direct lattice)
     0.481764245  0.540390638  0.805656768
     0.592153435  0.500872016  0.793788013
     0.520438073  0.490537000  0.787069101
     0.750000000  0.625000000  0.285126523
     0.000000000  0.750000000  0.285126523
     0.000000000  0.625000000  0.392563261
     0.750000000  0.750000000  0.392563261
     0.750000000  0.625000000  0.500000000
     0.000000000  0.750000000  0.500000000
     0.009390686  0.625085650  0.605221482
     0.757534768  0.750151113  0.611785260
     0.750664453  0.625325054  0.721600750
     0.000164746  0.750433103  0.710089723
     0.750000000  0.875000000  0.285126523
     0.000000000  0.000000000  0.285126523
     0.000000000  0.875000000  0.392563261
     0.750000000  0.000000000  0.392563261
     0.750000000  0.875000000  0.500000000
     0.000000000  0.000000000  0.500000000
     0.009507384  0.875063628  0.605236994
     0.757181219  0.000027815  0.611976310
     0.749572170  0.874872815  0.722205654
     0.000103617  0.999974971  0.710053756
     0.750000000  0.125000000  0.285126523
     0.000000000  0.250000000  0.285126523
     0.000000000  0.125000000  0.392563261
     0.750000000  0.250000000  0.392563261
     0.750000000  0.125000000  0.500000000
     0.000000000  0.250000000  0.500000000
     0.009649065  0.124949852  0.605248387
     0.757576875  0.249844127  0.611799880
     0.749426914  0.124455624  0.722205195
     0.000170914  0.249535007  0.710075573
     0.750000000  0.375000000  0.285126523
     0.000000000  0.500000000  0.285126523
     0.000000000  0.375000000  0.392563261
     0.750000000  0.500000000  0.392563261
     0.750000000  0.375000000  0.500000000
     0.000000000  0.500000000  0.500000000
     0.009342040  0.374983966  0.605189128
     0.757775484  0.500065434  0.611907013
     0.751037748  0.374084906  0.721678213
     0.000328891  0.500081748  0.710047777
     0.250000000  0.625000000  0.285126523
     0.500000000  0.750000000  0.285126523
     0.500000000  0.625000000  0.392563261
     0.250000000  0.750000000  0.392563261
     0.250000000  0.625000000  0.500000000
     0.500000000  0.750000000  0.500000000
     0.509679334  0.623123671  0.606235807
     0.257483643  0.749876779  0.611924220
     0.249806197  0.625370408  0.722110896
     0.500989487  0.750040563  0.709081532
     0.250000000  0.875000000  0.285126523
     0.500000000  0.000000000  0.285126523
     0.500000000  0.875000000  0.392563261
     0.250000000  0.000000000  0.392563261
     0.250000000  0.875000000  0.500000000
     0.500000000  0.000000000  0.500000000
     0.509546747  0.874169846  0.604418789
[...]
     0.500000000  0.500000000  0.434467643
     0.347509432  0.375000000  0.392563261
     0.652490568  0.375000000  0.392563261
     0.250000000  0.500000000  0.458095618
     0.250000000  0.500000000  0.541904382
     0.597509432  0.375000000  0.500000000
     0.402490568  0.375000000  0.500000000
     0.500684287  0.499853410  0.566601931
     0.500309054  0.500293425  0.651218227
     0.348938778  0.375064314  0.608543519
     0.650929002  0.375114212  0.608497596
     0.249838819  0.500325542  0.673176387
     0.252291984  0.500042066  0.757446024
     0.595589949  0.372170905  0.717816289
     0.406208668  0.373610388  0.719236252
[...]
   6.63895274  8.98656346 21.86524414
   3.31292019 10.48375704  8.79216387
   6.62584038  0.00000000  8.79216387
   6.62584038 10.48375704 12.10508406
   3.31292019  0.00000000 12.10508406
   3.31292019 10.48375704 15.41800424
   6.62584038  0.00000000 15.41800424
   6.75235082 10.47381060 18.63786292
[...]
   6.62584038  5.99071831 13.39724792
   4.60508406  4.49303873 12.10508406
   8.64659670  4.49303873 12.10508406
   3.31292019  5.99071831 14.12584038
   3.31292019  5.99071831 16.71016811
   7.91800424  4.49303873 15.41800424
   5.33367651  4.49303873 15.41800424
   6.63490832  5.98896195 17.47174195
   6.62993585  5.99423396 20.08097078
   4.62402528  4.49380930 18.76505310
   8.62590332  4.49440715 18.76363704
   3.31078427  5.99461877 20.75807279
   3.34329282  5.99122232 23.35661204
   7.89256786  4.45914211 22.13458919
   5.38294759  4.47638918 22.17837519

--------------------------------------- Iteration      FINAL  ---------------------------------------

--------------------OUTCAR has been truncated-------------------------

[...]

--------------------OUTCAR has been truncated-------------------------

  FORCE on cell =-STRESS in cart. coord.  units (eV):
  Direction    XX          YY          ZZ          XY          YZ          ZX
  Alpha Z  4498.63184  4498.63184  4498.63184
  Ewald  935539.35489953452.21589************   -24.67585    32.94752   -26.18422
  Hartree976655.17965986516.44365************    -6.11768     5.28406   -15.01190
  E(xc)   -8611.89619 -8606.23255 -8608.85383    -0.08090     0.13640    -0.06575
  Local  ************************************    24.85376   -27.92433    39.06559
  n-local -5529.90203 -5453.87251 -5566.83180    -0.25106    -0.02174    -0.22714
  augment  5259.19123  5241.64423  5265.52087     0.37656    -0.70024     0.04298
  Kinetic 28596.78852 28150.58710 28659.28586     5.90591    -9.66151     2.56249
  Fock        0.00000     0.00000     0.00000     0.00000     0.00000     0.00000
  Total    -116.58653  -188.23045  -149.35697     0.01074     0.06017     0.18206
  in kB     -38.15232   -61.59741   -48.87627     0.00352     0.01969     0.05958

 VOLUME and BASIS-vectors are now :
  energy-cutoff  :      600.00
  volume of cell :     4895.96
      direct lattice vectors                 reciprocal lattice vectors
    13.251680751  0.000000000  0.000000000     0.075462126  0.000000000  0.000000000
     0.000000000 11.981436613  0.000000000     0.000000000  0.083462445  0.000000000
     0.000000000  0.000000000 30.836008487     0.000000000  0.000000000  0.032429619

  length of vectors
    13.251680751 11.981436613 30.836008487     0.075462126  0.083462445  0.032429619

 FORCES acting on ions:
    Electron-Ion                     Ewald-Force                    Non-Local-Force
   0.465E+02 -.525E+02 -.432E+03   -.513E+02 0.576E+02 0.437E+03   0.465E+01 -.502E+01 -.491E+01
   -.724E+02 -.873E+01 -.420E+03   0.806E+02 0.955E+01 0.422E+03   -.807E+01 -.827E+00 -.160E+01
   0.326E+02 0.379E+02 -.244E+04   -.475E+02 -.689E+02 0.242E+04   0.149E+02 0.310E+02 0.224E+02
   -.111E+00 -.165E-01 0.364E+04   0.108E+00 0.166E-01 -.364E+04   0.812E-03 0.187E-05 0.315E+00
   -.324E-01 -.299E-01 0.381E+04   0.329E-01 0.301E-01 -.381E+04   -.106E-03 -.261E-04 -.368E+01
   -.446E-01 -.322E-01 0.186E+04   0.466E-01 0.323E-01 -.186E+04   -.339E-03 0.538E-04 -.451E-01
   -.337E+00 0.777E-02 0.185E+04   0.330E+00 -.728E-02 -.185E+04   0.213E-02 -.130E-04 0.207E+00
   -.204E+01 -.657E-01 0.887E+00   0.201E+01 0.550E-01 -.128E+00   0.942E-02 0.539E-03 -.117E+00
   0.249E+01 -.491E+00 0.865E+01   -.251E+01 0.493E+00 -.970E+01   0.101E-01 -.142E-02 0.368E+00
   0.285E+02 -.158E+01 -.179E+04   -.285E+02 0.158E+01 0.179E+04   -.747E-01 -.331E-02 0.177E+00
   0.522E+01 -.527E+01 -.185E+04   -.515E+01 0.528E+01 0.185E+04   -.116E+00 -.684E-02 -.197E+00
   -.568E+02 -.166E+02 -.359E+04   0.566E+02 0.166E+02 0.359E+04   0.111E+00 0.568E-01 -.331E-01
   -.187E+01 -.214E+01 -.364E+04   0.188E+01 0.214E+01 0.364E+04   -.131E-01 -.116E-01 0.973E+00
   -.119E+00 -.201E-01 0.364E+04   0.116E+00 0.205E-01 -.364E+04   0.877E-03 -.628E-05 0.315E+00
   -.308E-01 -.202E-02 0.381E+04   0.314E-01 0.209E-02 -.381E+04   -.102E-03 -.120E-04 -.368E+01
   -.249E-01 -.451E-01 0.186E+04   0.267E-01 0.452E-01 -.186E+04   -.288E-03 0.999E-05 -.451E-01
   -.415E+00 -.145E-01 0.185E+04   0.408E+00 0.144E-01 -.185E+04   0.213E-02 0.494E-05 0.207E+00
   -.315E+01 -.287E+00 0.255E+00   0.313E+01 0.303E+00 0.508E+00   0.727E-02 -.639E-03 -.118E+00
   0.274E+01 -.279E-01 0.803E+01   -.276E+01 0.280E-01 -.907E+01   0.105E-01 0.106E-03 0.366E+00
   0.300E+02 -.132E+01 -.180E+04   -.300E+02 0.132E+01 0.180E+04   -.793E-01 -.352E-02 0.178E+00
   0.664E+01 0.319E+00 -.186E+04   -.657E+01 -.315E+00 0.186E+04   -.114E+00 -.315E-02 -.198E+00
   -.153E+02 -.144E+02 -.362E+04   0.153E+02 0.144E+02 0.362E+04   0.585E-01 0.477E-02 -.114E+00
   -.194E+01 0.265E+00 -.364E+04   0.192E+01 -.261E+00 0.364E+04   0.163E-01 -.171E-02 0.100E+01
   -.118E+00 0.164E-01 0.364E+04   0.115E+00 -.166E-01 -.364E+04   0.853E-03 0.108E-04 0.315E+00
   -.325E-01 0.299E-01 0.381E+04   0.331E-01 -.301E-01 -.381E+04   -.111E-03 0.219E-04 -.368E+01
   -.241E-01 0.336E-01 0.186E+04   0.260E-01 -.337E-01 -.186E+04   -.320E-03 -.319E-05 -.451E-01
   -.325E+00 -.747E-02 0.185E+04   0.318E+00 0.700E-02 -.185E+04   0.208E-02 0.426E-05 0.207E+00
   -.310E+01 0.190E+00 0.200E+00   0.309E+01 -.206E+00 0.564E+00   0.737E-02 0.874E-03 -.118E+00
   0.254E+01 0.529E+00 0.863E+01   -.257E+01 -.531E+00 -.968E+01   0.962E-02 0.108E-02 0.368E+00
   0.308E+02 0.126E+01 -.180E+04   -.308E+02 -.126E+01 0.180E+04   -.749E-01 0.492E-02 0.178E+00
   0.507E+01 0.502E+01 -.185E+04   -.499E+01 -.501E+01 0.185E+04   -.120E+00 -.103E-02 -.200E+00
   -.156E+02 0.125E+02 -.362E+04   0.155E+02 -.124E+02 0.362E+04   0.633E-01 -.157E-01 -.118E+00
   -.149E+01 0.185E+01 -.364E+04   0.150E+01 -.185E+01 0.364E+04   -.115E-01 0.940E-02 0.972E+00
   -.110E+00 0.202E-01 0.364E+04   0.108E+00 -.205E-01 -.364E+04   0.805E-03 -.291E-05 0.315E+00
   -.340E-01 0.201E-02 0.381E+04   0.346E-01 -.210E-02 -.381E+04   -.115E-03 0.947E-05 -.368E+01
   -.445E-01 0.437E-01 0.186E+04   0.466E-01 -.438E-01 -.186E+04   -.365E-03 -.264E-04 -.451E-01
   -.249E+00 0.142E-01 0.185E+04   0.242E+00 -.141E-01 -.185E+04   0.194E-02 -.373E-04 0.207E+00
   -.199E+01 0.162E+00 0.791E+00   0.196E+01 -.152E+00 -.308E-01   0.961E-02 -.187E-03 -.117E+00
   0.237E+01 0.166E-01 0.927E+01   -.239E+01 -.159E-01 -.103E+02   0.924E-02 -.518E-03 0.368E+00
   0.285E+02 0.167E+01 -.179E+04   -.285E+02 -.167E+01 0.179E+04   -.763E-01 0.271E-02 0.179E+00
   0.330E+01 0.293E+00 -.184E+04   -.321E+01 -.298E+00 0.184E+04   -.133E+00 0.208E-03 -.205E+00
   -.569E+02 0.139E+02 -.359E+04   0.568E+02 -.138E+02 0.359E+04   0.735E-01 -.793E-01 -.375E-01
   -.327E+01 0.259E+00 -.363E+04   0.325E+01 -.264E+00 0.363E+04   0.173E-01 0.173E-02 0.935E+00
   0.102E+00 -.140E-01 0.364E+04   -.997E-01 0.140E-01 -.364E+04   -.712E-03 0.144E-04 0.315E+00
   0.412E-01 -.175E-01 0.381E+04   -.417E-01 0.179E-01 -.381E+04   0.110E-03 -.663E-04 -.368E+01
   0.247E+00 0.116E+00 0.186E+04   -.250E+00 -.106E+00 -.186E+04   0.310E-03 -.210E-02 -.465E-01
   0.139E+00 0.358E-01 0.185E+04   -.132E+00 -.353E-01 -.185E+04   -.974E-03 -.835E-04 0.205E+00
   -.993E+00 0.121E+00 -.588E+00   0.104E+01 -.137E+00 0.137E+01   -.606E-02 0.934E-03 -.122E+00
   0.389E+01 0.110E+01 0.113E+02   -.392E+01 -.116E+01 -.122E+02   0.107E-01 0.280E-01 0.306E+00
   0.332E+02 -.101E+02 -.179E+04   -.332E+02 0.102E+02 0.179E+04   -.991E-01 -.522E-01 0.118E+00
   0.182E+02 -.483E+01 -.185E+04   -.182E+02 0.483E+01 0.185E+04   -.129E+00 0.307E-02 -.210E+00
   0.391E+02 -.141E+02 -.360E+04   -.391E+02 0.141E+02 0.360E+04   0.403E-01 0.182E-01 -.102E+00
   0.139E+02 -.513E+02 -.359E+04   -.138E+02 0.513E+02 0.359E+04   -.886E-01 -.144E-01 0.104E+01
   0.110E+00 -.178E-01 0.364E+04   -.107E+00 0.181E-01 -.364E+04   -.789E-03 0.162E-05 0.315E+00
   0.397E-01 -.353E-02 0.381E+04   -.402E-01 0.357E-02 -.381E+04   0.955E-04 -.358E-05 -.368E+01
   0.230E+00 0.802E-01 0.186E+04   -.233E+00 -.779E-01 -.186E+04   0.412E-03 -.109E-02 -.470E-01
   0.214E+00 -.151E-01 0.185E+04   -.206E+00 0.151E-01 -.185E+04   -.104E-02 0.563E-04 0.205E+00
   -.376E-01 -.234E-01 -.820E+00   0.783E-01 0.290E-01 0.160E+01   -.410E-02 -.528E-03 -.121E+00
   0.360E+01 -.200E+00 0.142E+02   -.365E+01 0.198E+00 -.152E+02   0.163E-01 0.589E-03 0.321E+00
   0.305E+02 -.933E+01 -.177E+04   -.305E+02 0.934E+01 0.177E+04   -.109E+00 -.522E-02 0.907E-01
[...]
   -.560E+02 -.295E-01 0.111E+04   0.601E+02 0.288E-01 -.111E+04   -.380E+01 0.934E-03 0.156E+00
   0.561E+02 -.213E-01 0.111E+04   -.602E+02 0.206E-01 -.111E+04   0.380E+01 0.973E-03 0.158E+00
   -.201E+00 0.291E-01 0.489E+03   0.223E+00 -.297E-01 -.493E+03   -.321E-01 0.145E-02 0.436E+01
   0.142E+01 0.149E+00 -.505E+03   -.169E+01 -.147E+00 0.513E+03   0.277E+00 -.326E-02 -.746E+01
   -.572E+02 -.310E+00 0.763E+01   0.620E+02 0.306E+00 -.788E+01   -.531E+01 0.201E-01 0.329E+00
   0.581E+02 -.376E+00 0.380E+01   -.629E+02 0.373E+00 -.396E+01   0.532E+01 0.196E-01 0.256E+00
   0.194E+02 0.453E+00 -.591E+03   -.210E+02 -.518E+00 0.584E+03   0.167E+01 0.658E-01 0.705E+01
   0.173E+02 -.178E+01 -.154E+04   -.185E+02 0.182E+01 0.154E+04   0.125E+01 -.468E-01 -.727E+00
   -.663E+02 0.167E+01 -.108E+04   0.739E+02 -.168E+01 0.108E+04   -.773E+01 0.768E-03 0.131E+01
   -.995E+01 0.373E+01 -.108E+04   0.113E+02 -.387E+01 0.108E+04   -.130E+01 0.142E+00 0.627E+00
   0.204E+02 -.571E+00 -.174E+04   -.210E+02 0.570E+00 0.174E+04   0.598E+00 0.149E-02 -.220E+01
   0.368E+02 -.999E-01 -.261E+04   -.364E+02 0.873E-01 0.263E+04   -.353E+00 0.148E-01 -.202E+02
   -.533E+02 0.362E+02 -.217E+04   0.591E+02 -.359E+02 0.217E+04   -.597E+01 -.335E+00 -.173E+01
   0.634E+02 0.348E+02 -.220E+04   -.696E+02 -.350E+02 0.220E+04   0.624E+01 0.205E+00 -.280E+01
   0.303E+02 -.257E+02 0.702E+02   0.261E-11 0.158E-11 -.209E-10   -.303E+02 0.257E+02 -.702E+02

 POSITION                                       TOTAL-FORCE (eV/Angst)
      6.38419      6.47466     24.84324        -0.088142      0.063830      0.018284
      7.84703      6.00117     24.47725         0.176969     -0.006326     -0.053406
      6.89668      5.87734     24.27007        -0.065393     -0.046112     -0.345018
      9.93876      7.48840      8.79216        -0.001760      0.000140     -3.250490
      0.00000      8.98608      8.79216         0.000482      0.000180      3.045403
      0.00000      7.48840     12.10508         0.001665      0.000152      0.485012
      9.93876      8.98608     12.10508        -0.005053      0.000482     -0.676147
      9.93876      7.48840     15.41800        -0.015173     -0.010227      0.641936
      0.00000      8.98608     15.41800        -0.014763      0.000765     -0.694185
      0.12444      7.48942     18.66261         0.042384     -0.002333     -0.027198
     10.03861      8.98789     18.86502         0.020980     -0.002362      0.050087
      9.94757      7.49229     22.25129        -0.025224      0.014194     -0.008188
      0.00218      8.99127     21.89633         0.001321      0.004254     -0.255767
      9.93876     10.48376      8.79216        -0.001829      0.000317     -3.250615
      0.00000      0.00000      8.79216         0.000480      0.000064      3.045253
      0.00000     10.48376     12.10508         0.001523      0.000094      0.485156
      9.93876      0.00000     12.10508        -0.005306     -0.000138     -0.676250
      9.93876     10.48376     15.41800        -0.006221      0.014756      0.645022
      0.00000      0.00000     15.41800        -0.015813      0.000201     -0.693557
      0.12599     10.48452     18.66309         0.043153     -0.001263     -0.024874
     10.03392      0.00033     18.87091         0.021981      0.001621      0.050068
      9.93309     10.48223     22.26994        -0.000977      0.003250     -0.007059
      0.00137     11.98114     21.89522        -0.000341      0.002077     -0.253524
      9.93876      1.49768      8.79216        -0.001843     -0.000240     -3.250716
      0.00000      2.99536      8.79216         0.000467     -0.000167      3.045298
      0.00000      1.49768     12.10508         0.001574     -0.000100      0.485135
      9.93876      2.99536     12.10508        -0.004875     -0.000456     -0.676248
      9.93876      1.49768     15.41800        -0.005174     -0.014299      0.645341
      0.00000      2.99536     15.41800        -0.014005     -0.000971     -0.694028
      0.12787      1.49708     18.66344         0.035289      0.002156     -0.028072
     10.03917      2.99349     18.86547         0.020767      0.005104      0.051230
      9.93117      1.49116     22.26993        -0.002186     -0.002627     -0.008722
      0.00226      2.98979     21.89590         0.002950     -0.004380     -0.255596
      9.93876      4.49304      8.79216        -0.001735     -0.000212     -3.250580
      0.00000      5.99072      8.79216         0.000499     -0.000068      3.045426
      0.00000      4.49304     12.10508         0.001736     -0.000133      0.484917
      9.93876      5.99072     12.10508        -0.004686      0.000120     -0.675887
      9.93876      4.49304     15.41800        -0.015646      0.009852      0.643100
      0.00000      5.99072     15.41800        -0.013295      0.000231     -0.694864
      0.12380      4.49285     18.66162         0.042169      0.000099     -0.023406
     10.04180      5.99150     18.86877         0.024102     -0.003791      0.048723
      9.95251      4.48207     22.25368        -0.022656     -0.018134     -0.008296
      0.00436      5.99170     21.89504         0.000818     -0.002629     -0.256198
      3.31292      7.48840      8.79216         0.001827     -0.000027     -3.249714
      6.62584      8.98608      8.79216        -0.000398      0.000318      3.050276
      6.62584      7.48840     12.10508        -0.002089      0.007418      0.501164
      3.31292      8.98608     12.10508         0.005931      0.000368     -0.670432
      3.31292      7.48840     15.41800         0.039790     -0.015165      0.663694
      6.62584      8.98608     15.41800        -0.023628     -0.030719     -0.592653
      6.75411      7.46592     18.69389         0.037966     -0.014877     -0.016867
      3.41209      8.98460     18.86930         0.025490     -0.002901      0.048654
      3.31035      7.49284     22.26702         0.001708     -0.003153     -0.007544
      6.63895      8.98656     21.86524         0.014502     -0.023452     -0.248403
      3.31292     10.48376      8.79216         0.001901      0.000262     -3.249976
      6.62584      0.00000      8.79216        -0.000419      0.000042      3.050341
      6.62584     10.48376     12.10508        -0.002247      0.001144      0.503906
      3.31292      0.00000     12.10508         0.006309      0.000000     -0.670883
      3.31292     10.48376     15.41800         0.036553      0.005173      0.656331
      6.62584      0.00000     15.41800        -0.028306     -0.001683     -0.719272
      6.75235     10.47381     18.63786         0.033363     -0.010473     -0.020941
[...]
      6.62584      5.99072     13.39725         0.001885     -0.000436     -0.202263
      4.60508      4.49304     12.10508         0.307820      0.000256      0.049001
      8.64660      4.49304     12.10508        -0.306191      0.000324      0.049841
      3.31292      5.99072     14.12584        -0.009972      0.000835     -0.021990
      3.31292      5.99072     16.71017         0.005203     -0.000703     -0.190868
      7.91800      4.49304     15.41800        -0.527164      0.016400      0.079829
      5.33368      4.49304     15.41800         0.542749      0.016436      0.090049
      6.63491      5.98896     17.47174         0.027311      0.000175      0.134374
      6.62994      5.99423     20.08097         0.019682     -0.000744     -0.065487
      4.62403      4.49381     18.76505        -0.144715     -0.004888      0.017813
      8.62590      4.49441     18.76364         0.015242     -0.000647      0.007834
      3.31078      5.99462     20.75807         0.010695      0.000532     -0.019950
      3.34329      5.99122     23.35661        -0.010825      0.002330     -0.507072
      7.89257      4.45914     22.13459        -0.111363      0.001730     -0.054639
      5.38295      4.47639     22.17838         0.114604      0.006909     -0.083049
    total drift:                                0.002159     -0.000819      0.036226

  FREE ENERGIE OF THE ION-ELECTRON SYSTEM (eV)
  free  energy   TOTEN  =     -1750.69021557 eV

  energy  without entropy=    -1750.69021557  energy(sigma->0) =    -1750.69021557