 vasp.6.4.1 05Apr23 (build Sep 19 2024 10:44:22) complex

 executed on             LinuxIFC date 2024.10.16  10:06:12

 INCAR:
   SYSTEM = TiO2
   ISMEAR = 0
   SIGMA = 0.05
   EDIFF = 1E-7
   ALGO = ALL
   ISTART = 0
   IBRION = 2
   NSW = 1000
   ISYM = 0
   ISIF = 2
   EDIFFG = -0.01
   DIPOL = 0.5 0.5 0.5
   IDIPOL = 3
   LDIPOL = .TRUE.
   GGA = MK
   LUSE_VDW = .TRUE.
   PARAM1 = 0.1234
   PARAM2 = 0.711357
   ZAB_VDW = -1.8867
   AGGAC = 0.0
   ENCUT = 600
   PREC = Accurate
   LASPH = .TRUE.
   LREAL = .FALSE.
   ISPIN = 1
   NELM = 200
   NELMIN = 8
   NCORE = 8
   KPAR = 1
   LWAVE = .FALSE.
   LCHARG = .FALSE.

 POTCAR:    PAW_PBE C 08Apr2002
 POTCAR:    PAW_PBE O 08Apr2002
 POTCAR:    PAW_PBE Ti_pv 07Sep2000
 POTCAR:    PAW_PBE O 08Apr2002
|           W    W    AA    RRRRR   N    N  II  N    N   GGGG   !!!           |
|           W    W   A  A   R    R  NN   N  II  NN   N  G    G  !!!           |
|           W    W  A    A  R    R  N N  N  II  N N  N  G       !!!           |
|           W WW W  AAAAAA  RRRRR   N  N N  II  N  N N  G  GGG   !            |
|           WW  WW  A    A  R   R   N   NN  II  N   NN  G    G                |
|           W    W  A    A  R    R  N    N  II  N    N   GGGG   !!!           |
|     For optimal performance we recommend to set                             |
|       NCORE = 2 up to number-of-cores-per-socket                            |
|     This setting can greatly improve the performance of VASP for DFT.       |
|     The default, NCORE=1 might be grossly inefficient on modern             |
|     multi-core architectures or massively parallel machines. Do your        |
|     Unfortunately you need to use the default for GW and RPA                |
|     calculations (for HF NCORE is supported but not extensively tested      |
|     yet).                                                                   |

   TITEL  = PAW_PBE C 08Apr2002
   POMASS =   12.011; ZVAL   =    4.000    mass and valenz
   ENMAX  =  400.000; ENMIN  =  300.000 eV

[...]

   TITEL  = PAW_PBE Ti_pv 07Sep2000
   POMASS =   47.880; ZVAL   =   10.000    mass and valenz
   ENMAX  =  222.335; ENMIN  =  166.751 eV

   TITEL  = PAW_PBE O 08Apr2002
   POMASS =   16.000; ZVAL   =    6.000    mass and valenz
   ENMAX  =  400.000; ENMIN  =  300.000 eV

  PAW_PBE C 08Apr2002                   :
  PAW_PBE O 08Apr2002                   :
  PAW_PBE Ti_pv 07Sep2000               :
  PAW_PBE O 08Apr2002                   :

 POSCAR:  C  O Ti  O
  positions in direct lattice
 exchange correlation table for  LEXCH =       43
   RHO(1)=    0.500       N(1)  =     2000
   RHO(2)=  100.500       N(2)  =     4000

 ion  position               nearest neighbor table
   1  0.500  0.611  0.802-   2 1.18   3 1.18
   2  0.500  0.709  0.808-   1 1.18
   3  0.500  0.513  0.796-   1 1.18
   4  0.750  0.625  0.287-  84 1.96  85 1.96 144 1.96 145 1.96  87 1.99 166 1.99  14 2.96  34 2.96

   5  0.000  0.750  0.287-  86 1.96  87 1.96 106 1.96 107 1.96  88 1.99  35 2.96  15 2.96
   6  0.000  0.625  0.393-  88 1.96  89 1.96 148 1.96 149 1.96  90 1.99  91 1.99  16 2.96  36 2.96

[...]

  83  0.500  0.500  0.708- 237 1.82 183 1.95 182 1.95 243 1.95 242 1.95  73 2.96  53 2.96
  84  0.750  0.750  0.245-   4 1.96  14 1.96
  85  0.750  0.750  0.328-   4 1.96  14 1.96   7 1.99
  86  0.098  0.625  0.287-   5 1.96  35 1.96  44 1.99
  87  0.902  0.625  0.287-   5 1.96  35 1.96   4 1.99
  88  0.000  0.750  0.352-   6 1.96  16 1.96   5 1.99
  89  0.000  0.750  0.435-   6 1.96  16 1.96   9 1.99
  90  0.848  0.625  0.393-   7 1.96  37 1.96   6 1.99
  91  0.152  0.625  0.393-  47 1.96  77 1.96   6 1.99
  92  0.750  0.750  0.458-   8 1.96  18 1.96   7 1.99
  93  0.750  0.750  0.542-   8 1.96  18 1.96  11 2.11
  94  0.098  0.625  0.500-   9 1.96  39 1.96  48 1.99
  95  0.902  0.625  0.500-   9 1.96  39 1.96   8 1.99
  96  0.000  0.750  0.565-  10 1.90  20 1.90   9 2.00
  97  0.000  0.750  0.649-  13 1.82  10 2.02  20 2.02
  98  0.850  0.625  0.607-  10 1.96  41 1.98  11 1.98
  99  0.150  0.625  0.607-  10 1.96  81 1.98  51 1.98
 100  0.750  0.750  0.672-  11 1.87  12 2.10  22 2.10
 101  0.750  0.750  0.756-  22 1.83  12 1.83
 102  0.094  0.625  0.719-  13 1.95  43 1.95  52 2.04
 103  0.906  0.625  0.719-  43 1.95  13 1.95  12 2.04
 104  0.750  0.000  0.245-  14 1.96  24 1.96
 105  0.750  0.000  0.328-  14 1.96  24 1.96  17 1.99
 106  0.098  0.875  0.287-   5 1.96  15 1.96  54 1.99
 107  0.902  0.875  0.287-   5 1.96  15 1.96  14 1.99
 108  0.000  0.000  0.352-  16 1.96  26 1.96  15 1.99
 109  0.000  0.000  0.435-  16 1.96  26 1.96  19 1.99
 110  0.848  0.875  0.393-   7 1.96  17 1.96  16 1.99
 111  0.152  0.875  0.393-  47 1.96  57 1.96  16 1.99
 112  0.750  0.000  0.458-  18 1.96  28 1.96  17 1.99
 113  0.750  0.000  0.542-  18 1.96  28 1.96  21 2.11
 114  0.098  0.875  0.500-   9 1.96  19 1.96  58 1.99
 115  0.902  0.875  0.500-   9 1.96  19 1.96  18 1.99
 116  0.000  0.000  0.565-  20 1.90  30 1.90  19 2.00
 117  1.000  0.000  0.649-  23 1.82  30 2.02  20 2.02
 118  0.850  0.875  0.607-  20 1.96  11 1.98  21 1.98
 119  0.150  0.875  0.607-  20 1.96  61 1.98  51 1.98
 120  0.750  0.000  0.672-  21 1.87  32 2.10  22 2.10
 121  0.750  1.000  0.756-  22 1.83  32 1.83
 122  0.094  0.875  0.719-  23 1.95  13 1.95  62 2.04
 123  0.906  0.875  0.719-  23 1.95  13 1.95  22 2.04
 124  0.750  0.250  0.245-  24 1.96  34 1.96
 125  0.750  0.250  0.328-  24 1.96  34 1.96  27 1.99
 126  0.098  0.125  0.287-  15 1.96  25 1.96  64 1.99
 127  0.902  0.125  0.287-  15 1.96  25 1.96  24 1.99
 128  0.000  0.250  0.352-  26 1.96  36 1.96  25 1.99
 129  0.000  0.250  0.435-  26 1.96  36 1.96  29 1.99
 130  0.848  0.125  0.393-  17 1.96  27 1.96  26 1.99
 131  0.152  0.125  0.393-  57 1.96  67 1.96  26 1.99
 132  0.750  0.250  0.458-  28 1.96  38 1.96  27 1.99
 133  0.750  0.250  0.542-  28 1.96  38 1.96  31 2.11
 134  0.098  0.125  0.500-  19 1.96  29 1.96  68 1.99
 135  0.902  0.125  0.500-  19 1.96  29 1.96  28 1.99
 136  0.000  0.250  0.565-  40 1.90  30 1.90  29 2.00
 137  0.000  0.250  0.649-  33 1.82  30 2.02  40 2.02
 138  0.850  0.125  0.607-  30 1.96  31 1.98  21 1.98
 139  0.150  0.125  0.607-  30 1.96  61 1.98  71 1.98
 140  0.750  0.250  0.672-  31 1.87  32 2.10  42 2.10
 141  0.750  0.250  0.756-  42 1.83  32 1.83
 142  0.094  0.125  0.719-  33 1.95  23 1.95  72 2.04
[...]
 229  0.500  0.500  0.435-  46 1.96  76 1.96  79 1.99
 230  0.348  0.375  0.393-  67 1.96  77 1.96  76 1.99
 231  0.652  0.375  0.393-  27 1.96  37 1.96  76 1.99
 232  0.250  0.500  0.458-  48 1.96  78 1.96  77 1.99
 233  0.250  0.500  0.542-  48 1.96  78 1.96  81 2.11
 234  0.598  0.375  0.500-  69 1.96  79 1.96  38 1.99
 235  0.402  0.375  0.500-  69 1.96  79 1.96  78 1.99
 236  0.500  0.500  0.565-  50 1.90  80 1.90  79 2.00
 237  0.500  0.500  0.649-  83 1.82  50 2.02  80 2.02
 238  0.350  0.375  0.607-  80 1.96  71 1.98  81 1.98
 239  0.650  0.375  0.607-  80 1.96  31 1.98  41 1.98
 240  0.250  0.500  0.672-  81 1.87  82 2.10  52 2.10
 241  0.250  0.500  0.756-  82 1.83  52 1.83
 242  0.594  0.375  0.719-  73 1.95  83 1.95  42 2.04
 243  0.406  0.375  0.719-  73 1.95  83 1.95  82 2.04

IMPORTANT INFORMATION: All symmetrisations will be switched off!
NOSYMM: (Re-)initialisation of all symmetry stuff for point group C_1.

                                     Primitive cell

  volume of cell :    4737.1735

  direct lattice vectors                    reciprocal lattice vectors
    13.061198858  0.000000000  0.000000000     0.076562650  0.000000000  0.000000000
     0.000000000 11.845266045  0.000000000     0.000000000  0.084421911  0.000000000
     0.000000000  0.000000000 30.619030317     0.000000000  0.000000000  0.032659427

  length of vectors
    13.061198858 11.845266045 30.619030317     0.076562650  0.084421911  0.032659427

  position of ions in fractional coordinates (direct lattice)
     0.499999623  0.611022597  0.802267015
     0.499999513  0.709291411  0.807664333
     0.499999749  0.512598107  0.795901910
     0.750000000  0.625000000  0.286714362
     0.000000000  0.750000000  0.286714362
     0.000000000  0.625000000  0.393357181
     0.750000000  0.750000000  0.393357181
     0.750000000  0.625000000  0.500000000
     0.000000000  0.750000000  0.500000000
     0.000000038  0.625000012  0.604439268
     0.750000022  0.749999988  0.610750177
     0.749999940  0.625000009  0.720421785
     0.000000012  0.749999988  0.708497273
     0.750000000  0.875000000  0.286714362
     0.000000000  0.000000000  0.286714362
     0.000000000  0.875000000  0.393357181
     0.750000000  0.000000000  0.393357181
     0.750000000  0.875000000  0.500000000
     0.000000000  0.000000000  0.500000000
     0.999999981  0.875000008  0.604439275
     0.750000000  0.000000010  0.610750189
     0.749999929  0.875000013  0.720421816
     0.999999966  0.999999970  0.708497268
     0.750000000  0.125000000  0.286714362
     0.000000000  0.250000000  0.286714362
     0.000000000  0.125000000  0.393357181
     0.750000000  0.250000000  0.393357181
     0.750000000  0.125000000  0.500000000
     0.000000000  0.250000000  0.500000000
     0.999999998  0.125000010  0.604439287
     0.750000012  0.249999994  0.610750204
     0.749999969  0.124999992  0.720421820
     0.999999985  0.249999987  0.708497291
     0.750000000  0.375000000  0.286714362
     0.000000000  0.500000000  0.286714362
     0.000000000  0.375000000  0.393357181
     0.750000000  0.500000000  0.393357181
     0.750000000  0.375000000  0.500000000
     0.000000000  0.500000000  0.500000000
     0.999999980  0.374999975  0.604439276
     0.750000027  0.500000018  0.610750194
     0.750000010  0.374999992  0.720421849
     0.999999973  0.500000001  0.708497251
     0.250000000  0.625000000  0.286714362
     0.500000000  0.750000000  0.286714362
     0.500000000  0.625000000  0.393357181
     0.250000000  0.750000000  0.393357181
     0.250000000  0.625000000  0.500000000
     0.500000000  0.750000000  0.500000000
     0.499999996  0.624999984  0.604439241
     0.249999994  0.750000011  0.610750197
     0.250000015  0.625000016  0.720421825
     0.500000055  0.750000054  0.708497233
     0.250000000  0.875000000  0.286714362
     0.500000000  0.000000000  0.286714362
     0.500000000  0.875000000  0.393357181
     0.250000000  0.000000000  0.393357181
     0.250000000  0.875000000  0.500000000
     0.500000000  0.000000000  0.500000000
     0.500000015  0.875000007  0.604439258
[...]
     0.500000000  0.500000000  0.435125836
     0.347917178  0.375000000  0.393357181
     0.652082822  0.375000000  0.393357181
     0.250000000  0.500000000  0.458231344
     0.250000000  0.500000000  0.541768656
     0.597917178  0.375000000  0.500000000
     0.402082822  0.375000000  0.500000000
     0.499999972  0.499999984  0.565446779
     0.499999995  0.500000009  0.649151821
     0.350086065  0.374999994  0.607256810
     0.649913924  0.374999996  0.607256792
     0.249999963  0.499999993  0.671819536
     0.250000011  0.500000001  0.755695036
     0.593928640  0.375000020  0.718931270
     0.406071379  0.374999999  0.718931263

  ion indices of the primitive-cell ions
   primitive index   ion index
[...]
   6.53059943  0.00000000 15.30951516
   6.53059963 10.36460787 18.50734398
[...]
   6.53059943  5.92263302 13.32313117
   4.54421544  4.44197477 12.04421544
   8.51698341  4.44197477 12.04421544
   3.26529971  5.92263302 14.03059943
   3.26529971  5.92263302 16.58843089
   7.80951516  4.44197477 15.30951516
   5.25168370  4.44197477 15.30951516
   6.53059906  5.92263283 17.31343208
   6.53059936  5.92263313 19.87639928
   4.57254372  4.44197470 18.59361466
   8.48865501  4.44197472 18.59361412
   3.26529923  5.92263294 20.57046276
   3.26529986  5.92263304 23.13864922
   7.75742008  4.44197500 22.01297835
   5.30377904  4.44197476 22.01297814

--------------------------------------- Iteration      FINAL  ---------------------------------------

--------------------OUTCAR has been truncated-------------------------

[...]

--------------------OUTCAR has been truncated-------------------------

  FORCE on cell =-STRESS in cart. coord.  units (eV):
  Direction    XX          YY          ZZ          XY          YZ          ZX
  Alpha Z  4685.01752  4685.01752  4685.01752
  Ewald  964279.33758982626.82048************     0.00041   213.23815     0.00402
  Hartree************************************     0.00014    99.49511     0.00267
  E(xc)   -8676.50679 -8669.13070 -8673.07622     0.00000     0.52583     0.00000
  Local  ************************************    -0.00052  -293.15873    -0.00666
  n-local -5520.00864 -5450.86136 -5563.23608    -0.00000    -1.63777     0.00011
  augment  5264.58007  5238.37794  5268.50966    -0.00000    -0.76567    -0.00001
  Kinetic 28912.49871 28389.54871 28948.76807    -0.00003   -17.86636    -0.00029
  Fock        0.00000     0.00000     0.00000     0.00000     0.00000     0.00000
  Total       2.85051   -39.70912   -34.78513    -0.00000    -0.16942    -0.00016
  in kB       0.96408   -13.43017   -11.76481    -0.00000    -0.05730    -0.00005

 VOLUME and BASIS-vectors are now :
  energy-cutoff  :      600.00
  volume of cell :     4737.17
      direct lattice vectors                 reciprocal lattice vectors
    13.061198858  0.000000000  0.000000000     0.076562650  0.000000000  0.000000000
     0.000000000 11.845266045  0.000000000     0.000000000  0.084421911  0.000000000
     0.000000000  0.000000000 30.619030317     0.000000000  0.000000000  0.032659427

  length of vectors
    13.061198858 11.845266045 30.619030317     0.076562650  0.084421911  0.032659427

 FORCES acting on ions:
    Electron-Ion                     Ewald-Force                    Non-Local-Force
   -.283E-04 0.638E+01 -.159E+04   0.287E-04 -.636E+01 0.159E+04   -.455E-06 -.406E-01 0.566E-01
   -.158E-03 -.266E+03 -.234E+04   0.189E-03 0.329E+03 0.236E+04   -.313E-04 -.626E+02 -.187E+02
   0.830E-04 0.262E+03 -.242E+04   -.120E-03 -.322E+03 0.240E+04   0.375E-04 0.603E+02 0.138E+02
   -.247E+00 -.138E-02 0.377E+04   0.246E+00 0.149E-02 -.377E+04   0.208E-03 -.128E-05 0.356E+00
   0.471E-06 -.631E-01 0.394E+04   -.473E-06 0.633E-01 -.394E+04   -.534E-08 -.204E-04 -.369E+01
   -.740E-05 -.778E-02 0.193E+04   0.794E-05 0.787E-02 -.193E+04   -.235E-06 0.422E-04 -.423E-01
   -.482E+00 -.112E+00 0.192E+04   0.480E+00 0.113E+00 -.192E+04   0.495E-03 -.874E-05 0.200E+00
   -.210E+01 0.146E-01 0.187E+02   0.209E+01 -.169E-01 -.180E+02   0.246E-02 0.243E-03 -.120E+00
   -.194E-03 -.642E+00 0.274E+02   0.219E-03 0.647E+00 -.285E+02   -.119E-04 -.187E-02 0.328E+00
   -.902E-02 -.613E+00 -.183E+04   0.903E-02 0.612E+00 0.183E+04   0.688E-06 -.217E-04 0.493E-01
   -.123E+02 -.583E+01 -.189E+04   0.123E+02 0.583E+01 0.189E+04   -.391E-02 -.135E-02 -.646E-01
   -.839E+02 -.731E+01 -.367E+04   0.839E+02 0.730E+01 0.367E+04   0.164E-01 0.467E-02 -.830E-01
   0.648E-04 -.767E+01 -.374E+04   -.493E-04 0.768E+01 0.374E+04   -.901E-05 -.865E-03 0.923E+00
   -.244E+00 -.912E-01 0.377E+04   0.243E+00 0.916E-01 -.377E+04   0.253E-03 -.285E-04 0.356E+00
   0.446E-06 -.580E-01 0.394E+04   -.441E-06 0.581E-01 -.394E+04   -.132E-07 -.894E-05 -.369E+01
   -.741E-05 -.172E+00 0.193E+04   0.803E-05 0.173E+00 -.193E+04   -.209E-06 0.184E-04 -.424E-01
   -.488E+00 -.132E+00 0.192E+04   0.486E+00 0.132E+00 -.192E+04   0.563E-03 0.209E-04 0.200E+00
   -.228E+01 -.101E+01 0.176E+02   0.228E+01 0.102E+01 -.168E+02   0.137E-02 -.974E-03 -.121E+00
   -.321E-03 -.486E+00 0.262E+02   0.350E-03 0.489E+00 -.273E+02   -.134E-04 -.966E-03 0.328E+00
   -.964E-02 -.357E+01 -.184E+04   0.965E-02 0.357E+01 0.184E+04   0.157E-05 0.520E-04 0.513E-01
   -.874E+01 -.345E+01 -.190E+04   0.874E+01 0.346E+01 0.190E+04   0.508E-02 -.244E-03 -.595E-01
   -.422E+02 -.297E+02 -.371E+04   0.422E+02 0.297E+02 0.371E+04   0.231E-01 0.201E-02 -.113E+00
   0.920E-04 -.553E+01 -.375E+04   -.767E-04 0.553E+01 0.375E+04   -.922E-05 -.344E-03 0.931E+00
   -.237E+00 0.134E-02 0.377E+04   0.236E+00 -.148E-02 -.377E+04   0.252E-03 0.373E-05 0.356E+00
   0.316E-06 0.631E-01 0.394E+04   -.322E-06 -.633E-01 -.394E+04   -.999E-08 0.184E-04 -.369E+01
   -.109E-04 0.821E-02 0.193E+04   0.117E-04 -.830E-02 -.193E+04   -.237E-06 0.237E-04 -.425E-01
   -.453E+00 0.112E+00 0.192E+04   0.451E+00 -.113E+00 -.192E+04   0.482E-03 -.601E-05 0.200E+00
   -.207E+01 -.903E-02 0.166E+02   0.206E+01 0.646E-02 -.158E+02   0.140E-02 0.156E-03 -.122E+00
   -.425E-03 0.705E+00 0.265E+02   0.457E-03 -.708E+00 -.275E+02   -.143E-04 -.251E-03 0.328E+00
   -.136E-01 0.496E+00 -.184E+04   0.136E-01 -.496E+00 0.184E+04   0.601E-06 0.143E-02 0.529E-01
   -.928E+01 0.551E+01 -.189E+04   0.928E+01 -.551E+01 0.189E+04   -.336E-02 0.255E-02 -.618E-01
   -.241E+02 0.571E+01 -.372E+04   0.241E+02 -.571E+01 0.372E+04   0.130E-01 -.163E-02 -.109E+00
   0.814E-04 0.654E+01 -.375E+04   -.685E-04 -.654E+01 0.375E+04   -.707E-05 0.199E-02 0.920E+00
   -.240E+00 0.912E-01 0.377E+04   0.239E+00 -.916E-01 -.377E+04   0.207E-03 0.259E-04 0.356E+00
   0.341E-06 0.581E-01 0.394E+04   -.355E-06 -.581E-01 -.394E+04   -.363E-08 0.618E-05 -.369E+01
   -.110E-04 0.172E+00 0.193E+04   0.118E-04 -.172E+00 -.193E+04   -.216E-06 0.505E-04 -.424E-01
   -.449E+00 0.132E+00 0.192E+04   0.447E+00 -.133E+00 -.192E+04   0.353E-03 -.465E-04 0.200E+00
   -.189E+01 0.998E+00 0.177E+02   0.187E+01 -.101E+01 -.169E+02   0.208E-02 0.955E-03 -.121E+00
   -.289E-03 0.571E+00 0.276E+02   0.317E-03 -.572E+00 -.286E+02   -.128E-04 -.661E-03 0.328E+00
   -.128E-01 0.345E+01 -.184E+04   0.129E-01 -.346E+01 0.184E+04   0.187E-06 0.130E-02 0.502E-01
   -.134E+02 0.380E+01 -.188E+04   0.134E+02 -.380E+01 0.188E+04   -.307E-02 0.425E-04 -.701E-01
   -.580E+02 0.330E+02 -.370E+04   0.580E+02 -.330E+02 0.370E+04   0.137E-01 0.558E-02 -.101E+00
   -.429E-04 0.599E+01 -.374E+04   0.588E-04 -.601E+01 0.374E+04   -.780E-05 0.481E-02 0.913E+00
   0.247E+00 -.138E-02 0.377E+04   -.246E+00 0.149E-02 -.377E+04   -.208E-03 -.128E-05 0.356E+00
   -.172E-05 -.676E-01 0.394E+04   0.165E-05 0.680E-01 -.394E+04   0.854E-08 -.553E-04 -.369E+01
   -.181E-04 0.498E-01 0.193E+04   0.183E-04 -.451E-01 -.193E+04   -.214E-06 -.988E-03 -.426E-01
   0.482E+00 -.112E+00 0.192E+04   -.480E+00 0.113E+00 -.192E+04   -.495E-03 -.876E-05 0.200E+00
   0.210E+01 0.146E-01 0.187E+02   -.209E+01 -.169E-01 -.180E+02   -.247E-02 0.243E-03 -.120E+00
   -.273E-03 -.420E+00 0.321E+02   0.297E-03 0.399E+00 -.331E+02   -.114E-04 0.127E-01 0.308E+00
   -.869E-02 -.258E+01 -.181E+04   0.870E-02 0.263E+01 0.181E+04   0.449E-05 -.388E-01 0.472E-01
   0.123E+02 -.583E+01 -.189E+04   -.123E+02 0.583E+01 0.189E+04   0.397E-02 -.135E-02 -.646E-01
   0.839E+02 -.731E+01 -.367E+04   -.839E+02 0.730E+01 0.367E+04   -.164E-01 0.466E-02 -.830E-01
   -.296E-03 -.727E+02 -.361E+04   0.305E-03 0.727E+02 0.361E+04   -.463E-05 -.112E-02 0.986E+00
   0.244E+00 -.912E-01 0.377E+04   -.243E+00 0.916E-01 -.377E+04   -.253E-03 -.285E-04 0.356E+00
   -.185E-05 -.693E-01 0.394E+04   0.178E-05 0.693E-01 -.394E+04   0.780E-08 -.772E-05 -.369E+01
   -.196E-04 -.159E+00 0.193E+04   0.200E-04 0.162E+00 -.193E+04   -.182E-06 -.686E-03 -.429E-01
   0.488E+00 -.132E+00 0.192E+04   -.486E+00 0.132E+00 -.192E+04   -.563E-03 0.209E-04 0.200E+00
   0.228E+01 -.101E+01 0.176E+02   -.228E+01 0.102E+01 -.168E+02   -.138E-02 -.974E-03 -.121E+00
   -.392E-03 -.837E+00 0.319E+02   0.422E-03 0.839E+00 -.329E+02   -.141E-04 -.974E-03 0.312E+00
   -.951E-02 -.107E+02 -.181E+04   0.951E-02 0.107E+02 0.181E+04   0.653E-05 -.862E-02 0.335E-02
[...]
   -.542E+02 0.101E+00 0.116E+04   0.583E+02 -.102E+00 -.116E+04   -.364E+01 0.121E-02 0.159E+00
   0.542E+02 0.101E+00 0.116E+04   -.583E+02 -.102E+00 -.116E+04   0.364E+01 0.121E-02 0.159E+00
   0.646E+00 0.217E+00 0.513E+03   -.642E+00 -.219E+00 -.517E+03   -.595E-02 0.427E-02 0.424E+01
   0.226E+01 0.864E+00 -.506E+03   -.225E+01 -.870E+00 0.513E+03   -.987E-02 0.927E-02 -.707E+01
   -.569E+02 0.490E+00 0.175E+02   0.616E+02 -.494E+00 -.177E+02   -.520E+01 0.147E-01 0.312E+00
   0.569E+02 0.490E+00 0.175E+02   -.616E+02 -.494E+00 -.177E+02   0.520E+01 0.147E-01 0.312E+00
   -.668E-02 0.145E+01 -.601E+03   0.738E-02 -.144E+01 0.594E+03   -.696E-03 -.708E-02 0.654E+01
   -.447E-02 0.594E+01 -.155E+04   0.493E-02 -.582E+01 0.155E+04   -.465E-03 -.121E+00 0.156E+01
   -.238E+02 0.509E+01 -.111E+04   0.270E+02 -.513E+01 0.110E+04   -.310E+01 0.473E-01 0.880E+00
   0.239E+02 0.508E+01 -.111E+04   -.270E+02 -.513E+01 0.110E+04   0.310E+01 0.468E-01 0.880E+00
   0.235E+02 0.619E+01 -.177E+04   -.235E+02 -.623E+01 0.177E+04   0.514E-01 0.368E-01 -.199E+01
   0.699E+02 0.186E+02 -.268E+04   -.697E+02 -.186E+02 0.270E+04   -.238E+00 -.950E-02 -.205E+02
   -.589E+02 0.512E+02 -.226E+04   0.651E+02 -.513E+02 0.226E+04   -.621E+01 0.145E+00 -.326E+01
   0.589E+02 0.512E+02 -.226E+04   -.651E+02 -.513E+02 0.226E+04   0.621E+01 0.145E+00 -.326E+01
   -.160E-01 0.187E+01 0.942E+02   -.392E-11 -.388E-11 0.114E-10   0.160E-01 -.186E+01 -.943E+02

 POSITION                                       TOTAL-FORCE (eV/Angst)
      6.53060      7.10921     24.58860         0.000000     -0.004551      0.003950
      6.53060      8.23430     24.90732        -0.000000     -0.005343      0.002966
      6.53060      5.97885     24.24332         0.000001      0.006706      0.004106
      9.79590      7.40329      8.77892        -0.000501      0.000098     -3.479857
      0.00000      8.88395      8.77892         0.000000      0.000125      2.774803
      0.00000      7.40329     12.04422         0.000000      0.000115      0.518832
      9.79590      8.88395     12.04422        -0.001720      0.000655     -0.710045
      9.79590      7.40329     15.30952        -0.008932     -0.002000      0.652251
      0.00000      8.88395     15.30952         0.000013      0.003132     -0.709194
     -0.00003      7.40451     18.50823        -0.000023     -0.000956     -0.001683
      9.79610      8.88537     18.69730        -0.000498     -0.001689     -0.001237
      9.79732      7.40851     22.04942        -0.000141     -0.002958     -0.004473
      0.00000      8.88724     21.69753         0.000007      0.003090     -0.000255
      9.79590     10.36461      8.77892        -0.000583      0.000393     -3.479819
      0.00000      0.00000      8.77892         0.000000      0.000053      2.774731
      0.00000     10.36461     12.04422         0.000000      0.000334      0.519145
      9.79590      0.00000     12.04422        -0.001988      0.000266     -0.708472
      9.79590     10.36461     15.30952        -0.006600      0.013878      0.659668
      0.00000      0.00000     15.30952         0.000016      0.001766     -0.707181
     -0.00003     10.36563     18.50904        -0.000029      0.002253     -0.002660
      9.79559      0.00095     18.70038         0.001639      0.002448     -0.000471
      9.79377     10.36812     22.05951         0.001404      0.004487     -0.005740
      0.00000      0.00160     21.69795         0.000006      0.003030      0.000643
      9.79590      1.48066      8.77892        -0.000576     -0.000136     -3.479727
      0.00000      2.96132      8.77892         0.000000     -0.000159      2.774783
      0.00000      1.48066     12.04422         0.000001     -0.000086      0.519269
      9.79590      2.96132     12.04422        -0.001702     -0.000686     -0.708377
      9.79590      1.48066     15.30952        -0.006335     -0.002449      0.667603
      0.00000      2.96132     15.30952         0.000018     -0.002592     -0.707669
     -0.00005      1.48127     18.50879        -0.000035      0.000430     -0.000875
      9.79636      2.96175     18.69985         0.000912     -0.000787      0.001529
      9.79503      1.48359     22.05859         0.000019      0.002522     -0.005682
      0.00000      2.96212     21.69768         0.000006     -0.000593      0.002131
      9.79590      4.44197      8.77892        -0.000500     -0.000398     -3.479760
      0.00000      5.92263      8.77892         0.000000     -0.000065      2.774848
      0.00000      4.44197     12.04422         0.000001     -0.000419      0.518998
      9.79590      5.92263     12.04422        -0.001455     -0.000317     -0.709793
      9.79590      4.44197     15.30952        -0.009058     -0.009609      0.659940
      0.00000      5.92263     15.30952         0.000015     -0.002093     -0.709769
     -0.00005      4.44282     18.50841        -0.000028     -0.002673     -0.001557
      9.79650      5.92340     18.69830         0.000420      0.000530     -0.000899
      9.79893      4.44530     22.05641         0.002471     -0.004809     -0.003874
      0.00000      5.92552     21.69699         0.000008     -0.006465     -0.000346
      3.26530      7.40329      8.77892         0.000501      0.000098     -3.479857
      6.53060      8.88395      8.77892        -0.000000      0.000310      2.776459
      6.53060      7.40329     12.04422         0.000000      0.003763      0.523423
      3.26530      8.88395     12.04422         0.001719      0.000655     -0.710044
      3.26530      7.40329     15.30952         0.008911     -0.001999      0.652253
      6.53060      8.88395     15.30952         0.000012     -0.008908     -0.674488
      6.53057      7.39665     18.52088        -0.000029      0.000937     -0.006170
      3.26506      8.88537     18.69730         0.000462     -0.001695     -0.001237
      3.26388      7.40851     22.04942         0.000134     -0.002946     -0.004470
      6.53060      8.89232     21.68505         0.000005      0.002160     -0.001519
      3.26530     10.36461      8.77892         0.000583      0.000393     -3.479819
      6.53060      0.00000      8.77892        -0.000000      0.000061      2.776564
      6.53060     10.36461     12.04422         0.000000      0.001822      0.525803
      3.26530      0.00000     12.04422         0.001987      0.000266     -0.708471
      3.26530     10.36461     15.30952         0.006577      0.013875      0.659670
      6.53060      0.00000     15.30952         0.000017      0.001712     -0.732300
      6.53057     10.36224     18.49874        -0.000028     -0.000181     -0.001698
[...]
      6.53060      5.92263     13.32313         0.000000      0.000123     -0.120353
      4.54422      4.44197     12.04422         0.420470      0.000507      0.049994
      8.51698      4.44197     12.04422        -0.420469      0.000507      0.049993
      3.26530      5.92263     14.03060        -0.001684      0.002412     -0.097348
      3.26530      5.92263     16.58843        -0.000481      0.002912      0.010260
      7.80952      4.44197     15.30952        -0.455726      0.010788      0.085821
      5.25168      4.44197     15.30952         0.455730      0.010789      0.085833
      6.53060      5.92252     17.31877         0.000003     -0.001570      0.001725
      6.53060      5.92495     19.89323         0.000004     -0.001103      0.003108
      4.57076      4.44267     18.59708         0.003249      0.002698      0.000043
      8.49045      4.44267     18.59709        -0.003239      0.002703      0.000048
      3.25767      5.92519     20.56930        -0.005235      0.000690      0.001845
      3.28445      5.92789     23.13665        -0.000685      0.003646      0.002906
      7.76325      4.43066     21.98551        -0.002679     -0.001898     -0.001288
      5.29795      4.43066     21.98551         0.002678     -0.001903     -0.001287
    total drift:                               -0.000007      0.002958     -0.021683

  FREE ENERGIE OF THE ION-ELECTRON SYSTEM (eV)
  free  energy   TOTEN  =     -1759.45684715 eV

  energy  without entropy=    -1759.45684715  energy(sigma->0) =    -1759.45684715

 d Force = 0.1548108E-04[ 0.159E-05, 0.294E-04]  d Energy = 0.1557296E-04-0.919E-07
 d Force = 0.5603119E+01[ 0.560E+01, 0.560E+01]  d Ewald  = 0.5603119E+01-0.373E-06

 reached required accuracy - stopping structural energy minimisation