 vasp.6.3.0 20Jan22 (build Aug 21 2024 11:13:42) complex
 executed on        HPECrayEX_GCC date 2024.11.28  00:15:35

 INCAR:
   SYSTEM = TiO2
   ISMEAR = 0
   SIGMA = 0.05
   EDIFF = 1E-4
   ALGO = Normal
   IBRION = -1
   NSW = 0
   ISYM = 0
   ISIF = 2
   EDIFFG = -0.01
   DIPOL = 0.5 0.5 0.5
   IDIPOL = 3
   LDIPOL = .TRUE.
   LHFCALC = .TRUE.
   HFSCREEN = 0.2
   GGA = PE
   IVDW = 13
   VDW_S8 = 1.19528249
   VDW_A1 = 0.38663183
   VDW_A2 = 5.19133469
   ENCUT = 520
   PREC = Normal
   PRECFOCK = Fast
   LASPH = .TRUE.
   LREAL = .FALSE.
   ISPIN = 1
   NKREDX = 2
   NKREDY = 2
   NELM = 200
   NELMIN = 8
   NCORE = 16
   KPAR = 1
   LWAVE = .FALSE.
   LCHARG = .FALSE.

 POTCAR:    PAW_PBE C 08Apr2002
 POTCAR:    PAW_PBE O 08Apr2002
 POTCAR:    PAW_PBE H 15Jun2001
 POTCAR:    PAW_PBE Ti 08Apr2002
 POTCAR:    PAW_PBE O 08Apr2002
 POTCAR:    PAW_PBE C 08Apr2002
   VRHFIN =C: s2p2

   TITEL  = PAW_PBE C 08Apr2002
   POMASS =   12.011; ZVAL   =    4.000    mass and valenz
   ENMAX  =  400.000; ENMIN  =  300.000 eV

[...]

   TITEL  = PAW_PBE H 15Jun2001
   POMASS =    1.000; ZVAL   =    1.000    mass and valenz
   ENMAX  =  250.000; ENMIN  =  200.000 eV

[...]

   TITEL  = PAW_PBE O 08Apr2002
   POMASS =   16.000; ZVAL   =    6.000    mass and valenz
   ENMAX  =  400.000; ENMIN  =  300.000 eV

  PAW_PBE C 08Apr2002                   :
  PAW_PBE O 08Apr2002                   :
  PAW_PBE H 15Jun2001                   :
  PAW_PBE Ti 08Apr2002                  :
  PAW_PBE O 08Apr2002                   :

 POSCAR:  C  O  H Ti  O
  positions in direct lattice
 WARNING: Using user supplied parameters
     VDW_S8 = 1.195
     VDW_A1 = 0.387
     VDW_A2 = 5.191
     because the xc functional is not supported. Required parameters not
     defined in the INCAR file will be replaced with PBE defaults ones.

 ion  position               nearest neighbor table
   1  0.511  0.589  0.811-   3 1.09   5 1.10   6 1.10   2 1.45
   2  0.540  0.500  0.782-   4 1.00   1 1.45  86 2.17
   3  0.427  0.598  0.810-   1 1.09
   4  0.617  0.496  0.780-   2 1.00
   5  0.533  0.566  0.845-   1 1.10
   6  0.548  0.669  0.802-   1 1.10
   7  0.750  0.625  0.287-  87 1.96  88 1.96 147 1.96 148 1.96  90 1.98 169 1.98  17 2.97  37 2.97

   8  0.000  0.750  0.287-  89 1.96  90 1.96 109 1.96 110 1.96  91 1.98  38 2.97  18 2.97
   9  0.000  0.625  0.393-  91 1.96  92 1.96 151 1.96 152 1.96  93 1.98  94 1.98  19 2.97  39 2.97

[...]

  87  0.750  0.750  0.245-   7 1.96  17 1.96
  88  0.750  0.750  0.329-   7 1.96  17 1.96  10 1.98
  89  0.098  0.625  0.287-   8 1.96  38 1.96  47 1.98
  90  0.902  0.625  0.287-   8 1.96  38 1.96   7 1.98
  91  0.000  0.750  0.352-   9 1.96  19 1.96   8 1.98
  92  0.000  0.750  0.435-   9 1.96  19 1.96  12 1.98
  93  0.848  0.625  0.393-  10 1.96  40 1.96   9 1.98
  94  0.152  0.625  0.393-  50 1.96  80 1.96   9 1.98
  95  0.750  0.750  0.458-  11 1.96  21 1.96  10 1.98
  96  0.750  0.750  0.542-  11 1.96  21 1.96  14 2.10
  97  0.098  0.625  0.500-  12 1.96  42 1.96  51 1.98
  98  0.902  0.625  0.500-  12 1.96  42 1.96  11 1.98
  99  0.000  0.750  0.566-  23 1.90  13 1.90  12 2.01
 100  0.999  0.750  0.649-  16 1.81  13 2.02  23 2.03
 101  0.850  0.625  0.607-  13 1.97  44 1.97  14 1.98
 102  0.150  0.625  0.607-  13 1.94  54 1.98  84 1.99
 103  0.754  0.751  0.672-  14 1.87  15 2.08  25 2.10
 104  0.749  0.749  0.755-  15 1.84  25 1.84
 105  0.094  0.625  0.719-  46 1.95  16 1.96  55 2.03
 106  0.906  0.624  0.720-  46 1.95  16 1.96  15 2.03
 107  0.750  0.000  0.245-  17 1.96  27 1.96
 108  0.750  0.000  0.329-  17 1.96  27 1.96  20 1.98
 109  0.098  0.875  0.287-   8 1.96  18 1.96  57 1.98
 110  0.902  0.875  0.287-   8 1.96  18 1.96  17 1.98
 111  0.000  0.000  0.352-  19 1.96  29 1.96  18 1.98
 112  0.000  0.000  0.435-  19 1.96  29 1.96  22 1.98
 113  0.848  0.875  0.393-  10 1.96  20 1.96  19 1.98
 114  0.152  0.875  0.393-  50 1.96  60 1.96  19 1.98
 115  0.750  0.000  0.458-  21 1.96  31 1.96  20 1.98
 116  0.750  0.000  0.542-  21 1.96  31 1.96  24 2.11
 117  0.098  0.875  0.500-  12 1.96  22 1.96  61 1.98
 118  0.902  0.875  0.500-  12 1.96  22 1.96  21 1.98
 119  0.000  1.000  0.566-  33 1.90  23 1.90  22 2.01
 120  1.000  1.000  0.649-  26 1.81  23 2.02  33 2.02
 121  0.850  0.876  0.607-  23 1.95  14 1.98  24 1.98
 122  0.150  0.875  0.607-  23 1.96  64 1.97  54 1.98
 123  0.750  1.000  0.672-  24 1.88  35 2.09  25 2.10
 124  0.750  1.000  0.756-  35 1.83  25 1.84
 125  0.094  0.874  0.719-  16 1.94  26 1.95  65 2.05
 126  0.907  0.875  0.720-  16 1.95  26 1.95  25 2.04
 127  0.750  0.250  0.245-  27 1.96  37 1.96
 128  0.750  0.250  0.329-  27 1.96  37 1.96  30 1.98
 129  0.098  0.125  0.287-  18 1.96  28 1.96  67 1.98
 130  0.902  0.125  0.287-  18 1.96  28 1.96  27 1.98
 131  0.000  0.250  0.352-  29 1.96  39 1.96  28 1.98
 132  0.000  0.250  0.435-  29 1.96  39 1.96  32 1.98
 133  0.848  0.125  0.393-  20 1.96  30 1.96  29 1.98
 134  0.152  0.125  0.393-  60 1.96  70 1.96  29 1.98
 135  0.750  0.250  0.458-  31 1.96  41 1.96  30 1.98
 136  0.750  0.250  0.542-  31 1.96  41 1.96  34 2.10
 137  0.098  0.125  0.500-  22 1.96  32 1.96  71 1.98
 138  0.902  0.125  0.500-  22 1.96  32 1.96  31 1.98
 139  0.000  0.250  0.566-  33 1.90  43 1.90  32 2.01
 140  0.999  0.250  0.650-  36 1.81  43 2.02  33 2.03
 141  0.850  0.125  0.607-  33 1.96  34 1.98  24 1.98
 142  0.150  0.125  0.607-  33 1.95  64 1.98  74 1.99
 143  0.752  0.250  0.672-  34 1.88  45 2.07  35 2.11
 144  0.749  0.250  0.755-  45 1.83  35 1.85
 145  0.094  0.125  0.719-  36 1.94  26 1.95  75 2.05
 146  0.906  0.125  0.720-  36 1.95  26 1.95  35 2.04
[...]
 232  0.500  0.500  0.435-  49 1.96  79 1.96  82 1.98
 233  0.348  0.375  0.393-  70 1.96  80 1.96  79 1.98
 234  0.652  0.375  0.393-  30 1.96  40 1.96  79 1.98
 235  0.250  0.500  0.458-  51 1.96  81 1.96  80 1.98
 236  0.250  0.500  0.542-  51 1.96  81 1.96  84 2.11
 237  0.598  0.375  0.500-  72 1.96  82 1.96  41 1.98
 238  0.402  0.375  0.500-  72 1.96  82 1.96  81 1.98
 239  0.500  0.500  0.566-  53 1.90  83 1.90  82 2.01
 240  0.499  0.500  0.650-  86 1.92  83 1.98  53 1.98
 241  0.349  0.375  0.607-  84 1.97  74 1.97  83 1.98
 242  0.650  0.375  0.608-  83 1.95  34 1.98  44 1.99
 243  0.250  0.500  0.672-  84 1.87  55 2.09  85 2.11
 244  0.252  0.500  0.756-  55 1.84  85 1.84
 245  0.596  0.371  0.715-  76 1.92  86 1.97  45 2.03
 246  0.407  0.374  0.719-  86 1.93  76 1.95  85 2.04

IMPORTANT INFORMATION: All symmetrisations will be switched off!
NOSYMM: (Re-)initialisation of all symmetry stuff for point group C_1.

                                     Primitive cell

  volume of cell :    4740.1649

  direct lattice vectors                    reciprocal lattice vectors
    13.042933829  0.000000000  0.000000000     0.076669867  0.000000000  0.000000000
     0.000000000 11.878216733  0.000000000     0.000000000  0.084187721  0.000000000
     0.000000000  0.000000000 30.596159140     0.000000000  0.000000000  0.032683841

  length of vectors
    13.042933829 11.878216733 30.596159140     0.076669867  0.084187721  0.032683841

  position of ions in fractional coordinates (direct lattice)
     0.510519096  0.589272208  0.811491696
     0.540066063  0.500126764  0.781835080
     0.427115979  0.597656537  0.809585011
     0.616866388  0.495849325  0.780221188
     0.533460527  0.566257949  0.844821005
     0.547923946  0.669095882  0.802413349
     0.750000000  0.625000000  0.286853412
     0.000000000  0.750000000  0.286853412
     0.000000000  0.625000000  0.393426706
     0.750000000  0.750000000  0.393426706
     0.750000000  0.625000000  0.500000000
     0.000000000  0.750000000  0.500000000
     0.000894969  0.624976036  0.604434265
     0.750340284  0.749875810  0.610291194
     0.750884348  0.625722219  0.719170879
     0.000028877  0.750211979  0.708703241
     0.750000000  0.875000000  0.286853412
     0.000000000  0.000000000  0.286853412
     0.000000000  0.875000000  0.393426706
     0.750000000  0.000000000  0.393426706
     0.750000000  0.875000000  0.500000000
     0.000000000  0.000000000  0.500000000
     0.999398443  0.874965426  0.604484378
     0.749249702  0.000153633  0.610588765
     0.749882510  0.874893505  0.720283113
     0.000398598  0.999781004  0.708681335
     0.750000000  0.125000000  0.286853412
     0.000000000  0.250000000  0.286853412
     0.000000000  0.125000000  0.393426706
     0.750000000  0.250000000  0.393426706
     0.750000000  0.125000000  0.500000000
     0.000000000  0.250000000  0.500000000
     0.000147572  0.124893411  0.604507895
     0.750008814  0.249462154  0.610275268
     0.749717121  0.124014381  0.720342591
     0.000032340  0.249442449  0.708716800
     0.750000000  0.375000000  0.286853412
     0.000000000  0.500000000  0.286853412
     0.000000000  0.375000000  0.393426706
     0.750000000  0.500000000  0.393426706
     0.750000000  0.375000000  0.500000000
     0.000000000  0.500000000  0.500000000
     0.000103087  0.374912645  0.604427645
     0.751220984  0.500017726  0.610499117
     0.751393167  0.373063935  0.719355956
     0.000583192  0.499948857  0.708643400
     0.250000000  0.625000000  0.286853412
     0.500000000  0.750000000  0.286853412
     0.500000000  0.625000000  0.393426706
     0.250000000  0.750000000  0.393426706
     0.250000000  0.625000000  0.500000000
     0.500000000  0.750000000  0.500000000
     0.500357702  0.622578867  0.605809586
     0.250392109  0.750012952  0.610549924
     0.250073406  0.624985907  0.720169882
     0.501097434  0.749912700  0.707399408
     0.250000000  0.875000000  0.286853412
     0.500000000  0.000000000  0.286853412
     0.500000000  0.875000000  0.393426706
     0.250000000  0.000000000  0.393426706
[...]
     0.500000000  0.500000000  0.435151311
     0.347877722  0.375000000  0.393426706
     0.652122278  0.375000000  0.393426706
     0.250000000  0.500000000  0.458275395
     0.250000000  0.500000000  0.541724605
     0.597877722  0.375000000  0.500000000
     0.402122278  0.375000000  0.500000000
     0.500262283  0.499831593  0.565800911
     0.499173972  0.500161057  0.649922827
     0.349416402  0.374834467  0.607349233
     0.650447822  0.374872898  0.607744939
     0.249768799  0.500269397  0.671766192
     0.251650950  0.500009815  0.755659627
     0.596212819  0.371279663  0.715327750
     0.406613585  0.373880771  0.718656073

  ion indices of the primitive-cell ions
   primitive index   ion index
                 1           1
                 2           2
                 3           3
                 4           4
                 5           5
                 6           6
                 7           7
                 8           8
                 9           9
                10          10
                11          11
                12          12
                13          13
                14          14
                15          15
                16          16
                17          17
                18          18
                19          19
                20          20
                21          21
                22          22
                23          23
                24          24
[...]
     0.000000000  0.000000000 30.596159140     0.000000000  0.000000000  0.032683841

  length of vectors
    13.042933829 11.878216733 30.596159140     0.076669867  0.084187721  0.032683841

 FORCES acting on ions
    electron-ion (+dipol)            ewald-force                    non-local-force                 convergence-correction
   0.388E+02 -.893E+02 -.118E+04   -.414E+02 0.944E+02 0.118E+04   0.251E+01 -.496E+01 -.461E+01   0.132E-02 -.189E-02 -.782E-01
   0.315E+02 0.125E+03 -.174E+04   -.537E+02 -.151E+03 0.173E+04   0.198E+02 0.232E+02 0.856E+01   0.210E-02 0.939E-03 -.121E+00
   0.590E+02 -.146E+02 -.284E+03   -.647E+02 0.152E+02 0.284E+03   0.572E+01 -.551E+00 0.267E+00   0.167E-03 -.222E-03 -.198E-01
   -.694E+02 0.150E+02 -.303E+03   0.764E+02 -.155E+02 0.303E+03   -.724E+01 0.541E+00 0.409E+00   0.551E-03 0.179E-03 -.203E-01
   -.114E+02 0.621E+01 -.296E+03   0.129E+02 -.759E+01 0.301E+03   -.148E+01 0.136E+01 -.523E+01   0.702E-04 -.433E-04 -.173E-01
   -.186E+02 -.613E+02 -.279E+03   0.210E+02 0.661E+02 0.278E+03   -.245E+01 -.474E+01 0.127E+01   0.223E-03 -.567E-03 -.199E-01
   -.848E-01 -.108E-01 0.109E+04   0.820E-01 0.109E-01 -.109E+04   -.323E-03 0.731E-04 -.118E+01   0.307E-04 0.437E-05 0.518E-01
   -.195E-01 -.292E-01 0.116E+04   0.204E-01 0.293E-01 -.116E+04   0.261E-03 0.569E-04 -.175E+01   0.327E-05 -.384E-05 0.509E-01
   -.670E-01 -.230E-01 0.562E+03   0.711E-01 0.230E-01 -.562E+03   0.134E-02 0.102E-03 0.166E+00   0.115E-04 -.342E-06 0.301E-01
   -.177E+00 -.540E-01 0.559E+03   0.170E+00 0.545E-01 -.560E+03   -.174E-02 0.311E-03 -.162E+00   0.236E-04 0.438E-06 0.289E-01
   -.567E+00 -.111E+00 0.917E+01   0.532E+00 0.968E-01 -.868E+01   -.105E-01 -.717E-02 0.179E+00   0.107E-03 0.240E-04 -.302E-02
   -.314E+00 -.345E+00 0.789E+01   0.328E+00 0.349E+00 -.861E+01   0.977E-03 -.541E-03 -.570E-01   0.470E-04 0.502E-05 -.528E-02
   -.962E+00 -.716E+00 -.534E+03   0.924E+00 0.725E+00 0.534E+03   0.180E-01 -.358E-02 -.286E-01   0.923E-04 0.378E-04 -.338E-01
   -.335E+01 -.422E+01 -.540E+03   0.337E+01 0.424E+01 0.540E+03   -.129E-01 -.104E-01 0.499E-01   0.110E-03 0.999E-04 -.364E-01
   -.400E+02 -.756E+01 -.104E+04   0.399E+02 0.739E+01 0.104E+04   0.155E+00 0.626E-01 0.694E-01   -.249E-05 0.127E-03 -.654E-01
   -.212E+01 -.215E+01 -.109E+04   0.215E+01 0.214E+01 0.109E+04   -.384E-01 -.123E-01 0.658E+00   -.188E-05 0.298E-04 -.636E-01
   -.847E-01 -.320E-01 0.109E+04   0.818E-01 0.322E-01 -.109E+04   -.330E-03 0.123E-03 -.118E+01   0.117E-04 -.165E-04 0.518E-01
   -.186E-01 -.135E-01 0.116E+04   0.195E-01 0.135E-01 -.116E+04   0.266E-03 0.251E-04 -.175E+01   0.279E-04 0.372E-05 0.509E-01
   -.588E-01 -.659E-01 0.562E+03   0.629E-01 0.659E-01 -.562E+03   0.139E-02 0.561E-04 0.166E+00   0.219E-04 -.698E-06 0.301E-01
   -.188E+00 -.366E-01 0.559E+03   0.181E+00 0.364E-01 -.560E+03   -.196E-02 -.181E-03 -.162E+00   0.174E-04 -.495E-05 0.289E-01
   -.778E+00 -.407E+00 0.853E+01   0.751E+00 0.424E+00 -.804E+01   -.732E-02 0.987E-02 0.182E+00   0.825E-04 0.482E-04 -.298E-02
   -.260E+00 -.130E+00 0.739E+01   0.274E+00 0.131E+00 -.811E+01   0.230E-02 0.190E-03 -.567E-01   0.329E-04 0.648E-05 -.527E-02
   -.207E+01 -.114E+01 -.536E+03   0.209E+01 0.116E+01 0.536E+03   -.871E-02 -.817E-02 -.319E-01   0.447E-04 0.192E-04 -.338E-01
   -.241E+01 -.343E+00 -.547E+03   0.244E+01 0.336E+00 0.546E+03   -.224E-01 0.648E-02 0.490E-01   0.934E-04 -.176E-04 -.365E-01
   -.121E+02 -.117E+02 -.106E+04   0.121E+02 0.117E+02 0.106E+04   0.296E-01 0.103E-01 -.345E-01   0.319E-04 -.953E-04 -.661E-01
   -.190E+01 -.980E+00 -.109E+04   0.187E+01 0.980E+00 0.109E+04   0.218E-01 -.123E-02 0.690E+00   -.286E-04 -.629E-04 -.637E-01
   -.827E-01 0.107E-01 0.109E+04   0.798E-01 -.109E-01 -.109E+04   -.322E-03 -.106E-03 -.118E+01   0.181E-04 -.597E-05 0.518E-01
   -.194E-01 0.292E-01 0.116E+04   0.204E-01 -.293E-01 -.116E+04   0.262E-03 -.600E-04 -.175E+01   0.130E-04 -.808E-06 0.509E-01
   -.585E-01 0.231E-01 0.562E+03   0.628E-01 -.233E-01 -.562E+03   0.142E-02 -.135E-03 0.166E+00   0.263E-04 0.906E-05 0.301E-01
   -.164E+00 0.543E-01 0.559E+03   0.157E+00 -.549E-01 -.560E+03   -.171E-02 -.274E-03 -.162E+00   0.338E-04 0.546E-05 0.289E-01
   -.727E+00 0.145E+00 0.828E+01   0.698E+00 -.167E+00 -.779E+01   -.651E-02 -.117E-01 0.179E+00   0.899E-04 -.515E-04 -.298E-02
   -.313E+00 0.312E+00 0.764E+01   0.328E+00 -.318E+00 -.836E+01   0.208E-02 0.172E-02 -.557E-01   0.462E-04 -.447E-06 -.530E-02
   -.637E+00 0.542E+00 -.536E+03   0.616E+00 -.550E+00 0.537E+03   0.407E-02 0.415E-02 -.280E-01   0.631E-04 -.477E-04 -.338E-01
   -.313E+01 0.288E+01 -.542E+03   0.315E+01 -.285E+01 0.542E+03   -.130E-01 -.139E-01 0.390E-01   0.992E-04 -.709E-04 -.365E-01
   -.883E+01 0.544E+01 -.107E+04   0.881E+01 -.538E+01 0.107E+04   0.273E-01 -.992E-02 -.533E-01   0.617E-04 -.605E-04 -.663E-01
   -.173E+01 0.199E+01 -.109E+04   0.176E+01 -.198E+01 0.109E+04   -.345E-01 0.103E-01 0.661E+00   -.290E-05 -.239E-04 -.637E-01
   -.828E-01 0.321E-01 0.109E+04   0.800E-01 -.322E-01 -.109E+04   -.321E-03 -.946E-04 -.118E+01   0.289E-04 0.127E-04 0.518E-01
   -.203E-01 0.135E-01 0.116E+04   0.212E-01 -.135E-01 -.116E+04   0.265E-03 -.199E-04 -.175E+01   -.123E-05 0.166E-05 0.509E-01
   -.673E-01 0.658E-01 0.562E+03   0.717E-01 -.657E-01 -.562E+03   0.143E-02 -.112E-03 0.166E+00   0.142E-04 -.110E-04 0.301E-01
   -.153E+00 0.363E-01 0.559E+03   0.146E+00 -.360E-01 -.560E+03   -.173E-02 0.995E-04 -.162E+00   0.360E-04 -.270E-06 0.289E-01
   -.503E+00 0.376E+00 0.893E+01   0.467E+00 -.358E+00 -.844E+01   -.100E-01 0.942E-02 0.180E+00   0.109E-03 -.252E-04 -.301E-02
   -.341E+00 0.121E+00 0.818E+01   0.354E+00 -.122E+00 -.890E+01   0.588E-03 0.544E-03 -.587E-01   0.501E-04 -.112E-04 -.531E-02
   -.191E+01 0.139E+01 -.534E+03   0.191E+01 -.140E+01 0.535E+03   0.457E-02 0.217E-02 -.302E-01   0.675E-04 -.847E-05 -.338E-01
   -.302E+01 0.110E+01 -.537E+03   0.305E+01 -.111E+01 0.537E+03   -.387E-01 0.709E-02 0.529E-01   0.119E-03 -.130E-04 -.364E-01
   -.332E+02 0.113E+02 -.105E+04   0.331E+02 -.111E+02 0.105E+04   0.105E+00 -.978E-01 0.679E-01   -.190E-04 -.117E-04 -.657E-01
   -.340E+01 0.126E+01 -.109E+04   0.337E+01 -.126E+01 0.109E+04   0.264E-01 0.249E-02 0.618E+00   0.422E-04 0.590E-04 -.636E-01
   0.851E-01 -.960E-02 0.109E+04   -.822E-01 0.959E-02 -.109E+04   0.324E-03 0.132E-04 -.118E+01   -.148E-04 0.862E-05 0.518E-01
   0.192E-01 -.292E-01 0.116E+04   -.201E-01 0.296E-01 -.116E+04   -.269E-03 0.136E-03 -.175E+01   -.492E-05 0.591E-05 0.509E-01
   0.607E-01 0.241E-01 0.563E+03   -.646E-01 -.152E-01 -.562E+03   -.140E-02 0.247E-02 0.174E+00   -.138E-04 0.215E-04 0.300E-01
   0.184E+00 -.409E-01 0.559E+03   -.177E+00 0.414E-01 -.560E+03   0.174E-02 0.279E-03 -.159E+00   -.288E-04 0.152E-05 0.289E-01
   0.817E+00 -.344E-01 0.848E+01   -.779E+00 0.264E-01 -.796E+01   0.778E-02 -.417E-02 0.192E+00   -.115E-03 0.180E-04 -.295E-02
   0.298E+00 -.337E+00 0.100E+02   -.302E+00 0.277E+00 -.106E+02   -.592E-02 0.853E-02 -.590E-01   -.480E-04 0.619E-04 -.538E-02
   0.139E+01 -.409E+01 -.527E+03   -.140E+01 0.425E+01 0.527E+03   0.208E-01 -.110E+00 -.141E-01   -.469E-04 0.207E-04 -.340E-01
   0.561E+01 -.249E+01 -.544E+03   -.561E+01 0.248E+01 0.544E+03   -.464E-02 0.114E-01 0.600E-01   -.147E-03 0.743E-04 -.365E-01
   0.250E+02 -.599E+01 -.105E+04   -.251E+02 0.598E+01 0.105E+04   0.518E-01 0.185E-02 -.576E-01   0.464E-04 -.605E-04 -.659E-01
   0.104E+02 -.330E+02 -.105E+04   -.103E+02 0.331E+02 0.105E+04   -.140E+00 -.307E-01 0.801E+00   -.848E-04 0.142E-03 -.626E-01
   0.851E-01 -.305E-01 0.109E+04   -.820E-01 0.309E-01 -.109E+04   0.324E-03 0.190E-03 -.118E+01   -.290E-04 0.105E-04 0.518E-01
   0.183E-01 -.166E-01 0.116E+04   -.192E-01 0.166E-01 -.116E+04   -.261E-03 0.697E-05 -.175E+01   -.102E-04 -.127E-05 0.509E-01
   0.519E-01 -.465E-01 0.563E+03   -.559E-01 0.475E-01 -.562E+03   -.140E-02 -.418E-03 0.175E+00   -.127E-04 -.758E-05 0.300E-01
   0.195E+00 -.369E-01 0.559E+03   -.188E+00 0.368E-01 -.560E+03   0.181E-02 0.136E-03 -.158E+00   -.287E-04 0.837E-05 0.289E-01
[...]
   -.247E+02 0.742E-01 0.840E+03   0.288E+02 -.754E-01 -.841E+03   -.337E+01 0.159E-02 0.176E+00   0.928E-04 -.102E-04 0.459E-01
   0.248E+02 0.845E-01 0.841E+03   -.289E+02 -.854E-01 -.841E+03   0.338E+01 0.114E-02 0.184E+00   -.155E-03 -.186E-04 0.459E-01
   0.566E+00 0.153E+00 0.360E+03   -.544E+00 -.155E+00 -.364E+03   -.258E-01 0.366E-02 0.398E+01   -.127E-03 0.100E-04 0.171E-01
   0.241E+01 0.573E+00 -.340E+03   -.239E+01 -.565E+00 0.347E+03   -.288E-01 -.563E-02 -.684E+01   -.247E-03 0.199E-04 -.233E-01
   -.238E+02 0.269E+00 0.155E+02   0.288E+02 -.275E+00 -.157E+02   -.489E+01 0.240E-01 0.261E+00   0.152E-03 -.729E-04 -.484E-02
   0.245E+02 0.198E+00 0.150E+02   -.295E+02 -.210E+00 -.152E+02   0.494E+01 0.313E-01 0.245E+00   -.286E-03 -.593E-04 -.482E-02
   0.875E+00 0.107E+01 -.452E+03   -.911E+00 -.113E+01 0.444E+03   0.320E-01 0.595E-01 0.670E+01   -.291E-04 -.327E-04 -.336E-01
   0.911E+01 0.417E+01 -.113E+04   -.949E+01 -.403E+01 0.113E+04   0.336E+00 -.126E+00 -.207E+01   -.120E-03 -.358E-04 -.657E-01
   -.645E+01 0.435E+01 -.800E+03   0.103E+02 -.462E+01 0.799E+03   -.341E+01 0.246E+00 0.111E+01   -.101E-02 -.679E-04 -.510E-01
   0.691E+01 0.472E+01 -.799E+03   -.971E+01 -.469E+01 0.799E+03   0.252E+01 -.189E-01 0.688E+00   0.876E-03 -.749E-04 -.512E-01
   0.207E+02 0.288E+01 -.127E+04   -.207E+02 -.298E+01 0.128E+04   0.291E-01 0.909E-01 -.222E+01   -.140E-03 0.706E-04 -.742E-01
   0.589E+02 0.109E+02 -.187E+04   -.587E+02 -.110E+02 0.189E+04   -.202E+00 0.842E-01 -.195E+02   0.916E-03 0.362E-03 -.115E+00
   -.188E+02 0.604E+02 -.156E+04   0.252E+02 -.599E+02 0.156E+04   -.571E+01 -.398E+00 -.922E+00   0.921E-03 -.272E-03 -.960E-01
   0.381E+02 0.471E+02 -.161E+04   -.449E+02 -.474E+02 0.162E+04   0.602E+01 0.359E+00 -.320E+01   -.107E-02 0.246E-03 -.977E-01
   -.170E+02 -.199E+02 0.889E+02   -.419E-12 0.945E-12 0.259E-10   0.146E+02 0.168E+02 -.810E+02   0.412E-02 -.159E-02 -.153E+01

 POSITION                                       TOTAL-FORCE (eV/Angst)
      6.65867      6.99950     24.82853         0.042917     -0.169086     -0.182273
      7.04405      5.94061     23.92115         0.365405      0.346785      0.044965
      5.57085      7.09909     24.77019         0.232162     -0.028632      0.011810
      8.04575      5.88981     23.87177        -0.564767      0.023329      0.004637
      6.95789      6.72613     25.84828        -0.052628      0.031392     -0.251216
      7.14654      7.94767     24.55077        -0.103329     -0.247641      0.050348
      9.78220      7.42389      8.77661        -0.003289      0.000192     -3.831203
      0.00000      8.90866      8.77661         0.001135      0.000149      3.350827
      0.00000      7.42389     12.03735         0.005478      0.000153      0.554107
      9.78220      8.90866     12.03735        -0.009512      0.000808     -0.839086
      9.78220      7.42389     15.29808        -0.046095     -0.021898      0.688909
      0.00000      8.90866     15.29808         0.014565      0.002902     -0.825779
      0.01167      7.42360     18.49337         0.009148      0.005697     -0.000118
      9.78664      8.90719     18.67257         0.004714      0.002939      0.023700
      9.79373      7.43246     22.00387        -0.015840     -0.011903     -0.160882
      0.00038      8.91118     21.68360         0.003277      0.010377      0.036211
      9.78220     10.39344      8.77661        -0.003472      0.000313     -3.831204
      0.00000      0.00000      8.77661         0.001170      0.000072      3.350570
      0.00000     10.39344     12.03735         0.005627      0.000054      0.554368
      9.78220      0.00000     12.03735        -0.009965     -0.000389     -0.839669
      9.78220     10.39344     15.29808        -0.035361      0.028252      0.696946
      0.00000      0.00000     15.29808         0.016677      0.001028     -0.820430
     13.03509     10.39303     18.49490        -0.007091      0.006137      0.001413
      9.77241      0.00182     18.68167        -0.000694      0.008615      0.028912
      9.78067     10.39217     22.03790        -0.003264     -0.007651     -0.180161
      0.00520     11.87562     21.68293        -0.001588     -0.000040      0.037518
      9.78220      1.48478      8.77661        -0.003391     -0.000364     -3.831472
      0.00000      2.96955      8.77661         0.001181     -0.000213      3.350580
      0.00000      1.48478     12.03735         0.005861     -0.000311      0.554322
      9.78220      2.96955     12.03735        -0.009170     -0.000943     -0.840153
      9.78220      1.48478     15.29808        -0.035776     -0.035426      0.689102
      0.00000      2.96955     15.29808         0.017603     -0.004638     -0.824762
      0.00192      1.48351     18.49562        -0.006553     -0.005049     -0.000261
      9.78232      2.96317     18.67208         0.002008     -0.008272      0.028870
      9.77851      1.47307     22.03972        -0.002232      0.009477     -0.182334
      0.00042      2.96293     21.68401         0.003859     -0.007628      0.036979
      9.78220      4.45433      8.77661        -0.003280     -0.000250     -3.831394
      0.00000      5.93911      8.77661         0.001178     -0.000074      3.350865
      0.00000      4.45433     12.03735         0.005895     -0.000054      0.553930
      9.78220      5.93911     12.03735        -0.008760      0.000412     -0.839476
      9.78220      4.45433     15.29808        -0.046679      0.028667      0.688093
      0.00000      5.93911     15.29808         0.014438     -0.000183     -0.828134
      0.00134      4.45329     18.49316         0.004214     -0.003405     -0.000322
      9.79813      5.93932     18.67893         0.009016      0.004807      0.032569
      9.80037      4.43133     22.00953        -0.031149      0.018443     -0.160398
      0.00761      5.93850     21.68177        -0.003501      0.001552      0.040190
      3.26073      7.42389      8.77661         0.003074     -0.000004     -3.828956
      6.52147      8.90866      8.77661        -0.001409      0.000506      3.358374
      6.52147      7.42389     12.03735        -0.005595      0.011997      0.580296
      3.26073      8.90866     12.03735         0.009070      0.000865     -0.822826
      3.26073      7.42389     15.29808         0.045835     -0.012559      0.736056
      6.52147      8.90866     15.29808        -0.010770     -0.053356     -0.675531
      6.52613      7.39513     18.53545         0.011649     -0.028353     -0.003809
      3.26585      8.90882     18.68048         0.004089      0.005204      0.033528
      3.26169      7.42372     22.03443         0.003013     -0.003631     -0.166800
      6.53578      8.90763     21.64370         0.007450      0.029165      0.020067
      3.26073     10.39344      8.77661         0.003248      0.000578     -3.828912
      6.52147      0.00000      8.77661        -0.001404     -0.000022      3.358517
      6.52147     10.39344     12.03735        -0.005608      0.000648      0.583710
      3.26073      0.00000     12.03735         0.009415      0.000096     -0.821308
[...]
      6.52147      5.93911     13.31396         0.002028     -0.000884     -0.280359
      4.53735      4.45433     12.03735         0.302707      0.000700      0.054912
      8.50559      4.45433     12.03735        -0.296381      0.000464      0.057221
      3.26073      5.93911     14.02147        -0.007806      0.002388      0.064386
      3.26073      5.93911     16.57469        -0.016572      0.001150     -0.227851
      7.79808      4.45433     15.29808        -0.652993      0.022043      0.087618
      5.24485      4.45433     15.29808         0.683254      0.025192      0.088199
      6.52489      5.93711     17.31133        -0.000609      0.002785      0.169758
      6.51069      5.94102     19.88514         0.005056     -0.007740     -0.140146
      4.55742      4.45237     18.58255        -0.095958      0.009955      0.031166
      8.48375      4.45282     18.59466         0.088880      0.006639      0.017912
      3.25772      5.94231     20.55347        -0.002863      0.000376      0.099932
      3.28227      5.93922     23.12028         0.003281      0.004439     -0.309700
      7.77636      4.41014     21.88628        -0.176226      0.031414     -0.028167
      5.30343      4.44104     21.98812         0.183494      0.038333     -0.089079
    total drift:                                0.029787      0.005982      0.076893

  FREE ENERGIE OF THE ION-ELECTRON SYSTEM (eV)
  free  energy   TOTEN  =     -2653.79381536 eV

  energy  without entropy=    -2653.79381536  energy(sigma->0) =    -2653.79381536