 vasp.6.3.0 20Jan22 (build Aug 21 2024 11:13:42) complex
 executed on        HPECrayEX_GCC date 2024.08.27  13:55:16

 INCAR:
   SYSTEM = MgO-rocksalt
   ISMEAR = 0
   SIGMA = 0.05
   EDIFF = 1E-6
   ALGO = ALL
   ISTART = 0
   IBRION = -1
   NSW = 0
   ISYM = 0
   DIPOL = 0.5 0.5 0.5
   IDIPOL = 3
   LDIPOL = .TRUE.
   GGA = RE
   AGGAC = 0.0
   LUSE_VDW = .TRUE.
   LASPH = .TRUE.
   ENCUT = 600
   PREC = Accurate
   LASPH = .TRUE.
   LREAL = .FALSE.
   ISPIN = 1
   NELM = 200
   NELMIN = 8
   NCORE = 8
   KPAR = 1
   LWAVE = .FALSE.
   LCHARG = .FALSE.

 POTCAR:    PAW_PBE C 08Apr2002
 POTCAR:    PAW_PBE H 15Jun2001
 POTCAR:    PAW_PBE Mg_pv 13Apr2007
 POTCAR:    PAW_PBE O 08Apr2002
|               ----> ADVICE to this user running VASP <----                  |
|     You have switched on vdW-DFT.                                           |
|     This routine was written and supplied by Jiri Klimes. We recommend      |
|     that you carefully read and cite the following publications:            |
|       J. Klimes, D.R. Bowler, A. Michelides                                 |
|          J. Phys.: Cond Matt. 22 022201 (2010)                              |
|       J. Klimes, D.R. Bowler, A. Michelides                                 |
|          Phys. Rev. B. 83, 195131 (2011)                                    |
|     and references therein.                                                 |

   TITEL  = PAW_PBE C 08Apr2002
   POMASS =   12.011; ZVAL   =    4.000    mass and valenz
   ENMAX  =  400.000; ENMIN  =  300.000 eV

   TITEL  = PAW_PBE H 15Jun2001
   POMASS =    1.000; ZVAL   =    1.000    mass and valenz
   ENMAX  =  250.000; ENMIN  =  200.000 eV

   TITEL  = PAW_PBE Mg_pv 13Apr2007
   POMASS =   24.305; ZVAL   =    8.000    mass and valenz
   ENMAX  =  403.929; ENMIN  =  302.947 eV

   TITEL  = PAW_PBE O 08Apr2002
   POMASS =   16.000; ZVAL   =    6.000    mass and valenz
   ENMAX  =  400.000; ENMIN  =  300.000 eV

  PAW_PBE C 08Apr2002                   :
  PAW_PBE H 15Jun2001                   :
  PAW_PBE Mg_pv 13Apr2007               :
  PAW_PBE O 08Apr2002                   :

 POSCAR:  C  H Mg  O
  positions in direct lattice
 exchange correlation table for  LEXCH =       40
   RHO(1)=    0.500       N(1)  =     2000
   RHO(2)=  100.500       N(2)  =     4000

 ion  position               nearest neighbor table
   1  0.500  0.500  0.791-   6 1.09   5 1.09   7 1.09   8 1.09
   2  0.000  0.500  0.791-  10 1.09   9 1.09  11 1.09  12 1.09
   3  0.500  1.000  0.791-  14 1.09  13 1.09  15 1.09  16 1.09
   4  0.000  1.000  0.791-  18 1.09  17 1.09  19 1.09  20 1.09
   5  0.500  0.606  0.820-   1 1.09
   6  0.500  0.394  0.820-   1 1.09
   7  0.607  0.500  0.762-   1 1.09
   8  0.393  0.500  0.762-   1 1.09
   9  0.894  0.500  0.820-   2 1.09
  10  0.106  0.500  0.820-   2 1.09
  11  1.000  0.607  0.762-   2 1.09
  12  1.000  0.393  0.762-   2 1.09
  13  0.394  1.000  0.820-   3 1.09
  14  0.606  1.000  0.820-   3 1.09
  15  0.500  0.107  0.762-   3 1.09
  16  0.500  0.893  0.762-   3 1.09
  17  1.000  0.106  0.820-   4 1.09
  18  1.000  0.894  0.820-   4 1.09
  19  0.107  0.000  0.762-   4 1.09
  20  0.893  0.000  0.762-   4 1.09
  21  0.250  0.000  0.352-  55 2.10  56 2.10  63 2.10  72 2.10  53 2.10
  22  0.500  0.250  0.352-  55 2.10  56 2.10  64 2.10  71 2.10  54 2.10
  23  0.250  0.250  0.451-  53 2.10  54 2.10  61 2.10  70 2.10  55 2.10  59 2.10
  24  0.500  0.000  0.451-  53 2.10  54 2.10  62 2.10  69 2.10  56 2.10  60 2.11
  25  0.250  1.000  0.550-  76 2.10  60 2.10  67 2.10  59 2.10  53 2.11  57 2.13
  26  0.500  0.250  0.550-  75 2.10  59 2.10  68 2.10  60 2.10  54 2.11  58 2.13
  27  0.250  0.250  0.647-  59 2.08  57 2.10  74 2.10  58 2.10  65 2.10
  28  0.500  1.000  0.648-  60 2.10  66 2.10  58 2.10  57 2.10  73 2.10
  29  0.250  0.500  0.352-  55 2.10  63 2.10  64 2.10  80 2.10  61 2.10
  30  0.500  0.750  0.352-  56 2.10  63 2.10  64 2.10  79 2.10  62 2.10
  31  0.250  0.750  0.451-  53 2.10  61 2.10  62 2.10  78 2.10  63 2.10  67 2.10
  32  0.500  0.500  0.451-  54 2.10  61 2.10  62 2.10  77 2.10  64 2.10  68 2.11
  33  0.250  0.500  0.550-  67 2.10  59 2.10  84 2.10  68 2.10  61 2.11  65 2.13
  34  0.500  0.750  0.550-  67 2.10  83 2.10  68 2.10  60 2.10  62 2.11  66 2.13
  35  0.250  0.750  0.647-  67 2.08  57 2.10  82 2.10  66 2.10  65 2.10
  36  0.500  0.500  0.648-  68 2.10  81 2.10  65 2.10  66 2.10  58 2.10
  37  0.750  0.000  0.352-  56 2.10  71 2.10  72 2.10  79 2.10  69 2.10
  38  0.000  0.250  0.352-  55 2.10  71 2.10  72 2.10  80 2.10  70 2.10
  39  0.750  0.250  0.451-  54 2.10  69 2.10  70 2.10  77 2.10  71 2.10  75 2.10
  40  0.000  0.000  0.451-  53 2.10  69 2.10  70 2.10  78 2.10  72 2.10  76 2.11
  41  0.750  1.000  0.550-  76 2.10  60 2.10  75 2.10  83 2.10  69 2.11  73 2.13
  42  0.000  0.250  0.550-  84 2.10  59 2.10  75 2.10  76 2.10  70 2.11  74 2.13
  43  0.750  0.250  0.647-  75 2.08  73 2.10  74 2.10  58 2.10  81 2.10
  44  0.000  1.000  0.648-  76 2.10  57 2.10  73 2.10  74 2.10  82 2.10
  45  0.750  0.500  0.352-  64 2.10  71 2.10  79 2.10  80 2.10  77 2.10
  46  0.000  0.750  0.352-  63 2.10  72 2.10  79 2.10  80 2.10  78 2.10
  47  0.750  0.750  0.451-  62 2.10  69 2.10  77 2.10  78 2.10  79 2.10  83 2.10
  48  0.000  0.500  0.451-  61 2.10  70 2.10  77 2.10  78 2.10  80 2.10  84 2.11
  49  0.750  0.500  0.550-  75 2.10  83 2.10  84 2.10  68 2.10  77 2.11  81 2.13
  50  0.000  0.750  0.550-  84 2.10  67 2.10  83 2.10  76 2.10  78 2.11  82 2.13
  51  0.750  0.750  0.647-  83 2.08  73 2.10  82 2.10  66 2.10  81 2.10
  52  0.000  0.500  0.648-  84 2.10  74 2.10  82 2.10  81 2.10  65 2.10
  53  0.250  0.000  0.451-  23 2.10  24 2.10  31 2.10  40 2.10  21 2.10  25 2.11
  54  0.500  0.250  0.451-  23 2.10  24 2.10  32 2.10  39 2.10  22 2.10  26 2.11
  55  0.250  0.250  0.352-  21 2.10  22 2.10  29 2.10  38 2.10  23 2.10
  56  0.500  0.000  0.352-  21 2.10  22 2.10  30 2.10  37 2.10  24 2.10
  57  0.250  1.000  0.650-  44 2.10  35 2.10  27 2.10  28 2.10  25 2.13
  58  0.500  0.250  0.650-  28 2.10  27 2.10  43 2.10  36 2.10  26 2.13
  59  0.250  0.250  0.549-  27 2.08  26 2.10  33 2.10  25 2.10  42 2.10  23 2.10
  60  0.500  1.000  0.550-  28 2.10  41 2.10  25 2.10  26 2.10  34 2.10  24 2.11
[...]
  70  0.000  0.250  0.451-  23 2.10  39 2.10  40 2.10  48 2.10  38 2.10  42 2.11
  71  0.750  0.250  0.352-  22 2.10  37 2.10  38 2.10  45 2.10  39 2.10
  72  0.000  0.000  0.352-  21 2.10  37 2.10  38 2.10  46 2.10  40 2.10
  73  0.750  1.000  0.650-  44 2.10  43 2.10  51 2.10  28 2.10  41 2.13
  74  0.000  0.250  0.650-  52 2.10  44 2.10  43 2.10  27 2.10  42 2.13
  75  0.750  0.250  0.549-  43 2.08  26 2.10  49 2.10  41 2.10  42 2.10  39 2.10
  76  0.000  1.000  0.550-  44 2.10  41 2.10  25 2.10  50 2.10  42 2.10  40 2.11
  77  0.750  0.500  0.451-  32 2.10  39 2.10  47 2.10  48 2.10  45 2.10  49 2.11
  78  0.000  0.750  0.451-  31 2.10  40 2.10  47 2.10  48 2.10  46 2.10  50 2.11
  79  0.750  0.750  0.352-  30 2.10  37 2.10  45 2.10  46 2.10  47 2.10
  80  0.000  0.500  0.352-  29 2.10  38 2.10  45 2.10  46 2.10  48 2.10
  81  0.750  0.500  0.650-  36 2.10  52 2.10  51 2.10  43 2.10  49 2.13
  82  0.000  0.750  0.650-  52 2.10  44 2.10  35 2.10  51 2.10  50 2.13
  83  0.750  0.750  0.549-  51 2.08  34 2.10  49 2.10  41 2.10  50 2.10  47 2.10
  84  0.000  0.500  0.550-  52 2.10  50 2.10  42 2.10  33 2.10  49 2.10  48 2.11

IMPORTANT INFORMATION: All symmetrisations will be switched off!
NOSYMM: (Re-)initialisation of all symmetry stuff for point group C_1.

                                     Primitive cell

  volume of cell :    1504.9259

  direct lattice vectors                    reciprocal lattice vectors
     8.404861995  0.000000000  0.000000000     0.118978753  0.000000000  0.000000000
     0.000000000  8.404861995  0.000000000     0.000000000  0.118978753  0.000000000
     0.000000000  0.000000000 21.303646496     0.000000000  0.000000000  0.046940321

  length of vectors
     8.404861995  8.404861995 21.303646496     0.118978753  0.118978753  0.046940321

  position of ions in fractional coordinates (direct lattice)
     0.500003812  0.499996287  0.791119279
     0.000000399  0.499994072  0.791121498
     0.499999722  0.999993982  0.791118258
     0.000002638  0.999995489  0.791118579
     0.499999540  0.606329819  0.820436864
     0.499999439  0.393678694  0.820435644
     0.606930690  0.500001879  0.761974110
     0.393064195  0.500001910  0.761973342
     0.893681544  0.499990081  0.820437320
     0.106302478  0.499990030  0.820436057
     0.999994475  0.606914507  0.761976069
     0.999994474  0.393062095  0.761975098
     0.393688651  0.999990190  0.820438047
     0.606296233  0.999990082  0.820436910
     0.499994556  0.106902461  0.761971752
     0.499994524  0.893074359  0.761970829
     0.999999399  0.106311057  0.820436865
     0.999999357  0.893697563  0.820435465
     0.106916746  0.000001859  0.761973010
     0.893078710  0.000001843  0.761972439
     0.250000000  0.000000000  0.352052406
     0.500000000  0.250000000  0.352052406
     0.250000000  0.250000000  0.450684135
     0.500000000  0.000000000  0.450684135
     0.249981383  0.999999883  0.549785611
     0.500000092  0.250021738  0.549809574
     0.249987197  0.249982572  0.647130316
     0.500000018  0.999999757  0.648084753
     0.250000000  0.500000000  0.352052406
     0.500000000  0.750000000  0.352052406
     0.250000000  0.750000000  0.450684135
     0.500000000  0.500000000  0.450684135
     0.249993345  0.499999893  0.549829400
     0.500000082  0.749978009  0.549809581
     0.249986874  0.750017140  0.647130392
     0.500000123  0.499999853  0.648163177
     0.750000000  0.000000000  0.352052406
     0.000000000  0.250000000  0.352052406
     0.750000000  0.250000000  0.450684135
     0.000000000  0.000000000  0.450684135
     0.750018865  0.999999893  0.549785611
     0.000000111  0.250035704  0.549797598
     0.750013088  0.249982562  0.647130333
     0.000000119  0.999999839  0.648066009
     0.750000000  0.500000000  0.352052406
     0.000000000  0.750000000  0.352052406
     0.750000000  0.750000000  0.450684135
     0.000000000  0.500000000  0.450684135
     0.750006795  0.499999878  0.549829409
     0.000000108  0.749964043  0.549797590
     0.750013031  0.750016940  0.647130255
     0.000000014  0.499999763  0.648144849
     0.250000000  0.000000000  0.450684135
     0.500000000  0.250000000  0.450684135
     0.250000000  0.250000000  0.352052406
     0.500000000  0.000000000  0.352052406
     0.249948740  0.999999798  0.649680437
     0.500000079  0.249921046  0.649732577
     0.250028174  0.250023778  0.549466341
     0.500000135  0.999999917  0.549572534
[...]
     0.000000000  0.250000000  0.450684135
     0.750000000  0.250000000  0.352052406
     0.000000000  0.000000000  0.352052406
     0.750051312  0.999999812  0.649680535
     0.000000062  0.250034065  0.649705208
     0.749972007  0.250023702  0.549466349
     0.000000036  0.999999867  0.549551894
     0.750000000  0.500000000  0.450684135
     0.000000000  0.750000000  0.450684135
     0.750000000  0.750000000  0.352052406
     0.000000000  0.500000000  0.352052406
[...]
   2.10121550  0.00000000  9.60121550
   4.20243100  2.10121550  9.60121550
   2.10121550  2.10121550  7.50000000
   4.20243100  0.00000000  7.50000000
   2.10078466  8.40486030 13.84056236
   4.20243166  2.10055190 13.84167313
   2.10145230  2.10141535 11.70563670
   4.20243213  8.40486130 11.70789899
[...]
   0.00000000  2.10121550  9.60121550
   6.30364650  2.10121550  7.50000000
   0.00000000  0.00000000  7.50000000
   6.30407777  8.40486041 13.84056445
   0.00000052  2.10150181 13.84109009
   6.30341122  2.10141471 11.70563686
   0.00000031  8.40486088 11.70745928
   6.30364650  4.20243100  9.60121550
   0.00000000  6.30364650  9.60121550
   6.30364650  6.30364650  7.50000000
   0.00000000  4.20243100  7.50000000
   6.30327815  4.20242941 13.84236137
   0.00000053  6.30335655 13.84109326
   6.30341168  6.30344534 11.70563666
   0.00000076  4.20243021 11.70844365

--------------------------------------- Iteration      FINAL  ---------------------------------------

--------------------OUTCAR has been truncated-------------------------

[...]

--------------------OUTCAR has been truncated-------------------------

  FORCE on cell =-STRESS in cart. coord.  units (eV):
  Direction    XX          YY          ZZ          XY          YZ          ZX
  Alpha Z   985.69205   985.69205   985.69205
  Ewald  154723.57864154723.55704************     0.00000    -0.02504     0.00441
  Hartree165296.47711165296.46282************    -0.00000    -0.00257     0.00064
  E(xc)   -2638.32378 -2638.32379 -2641.07070     0.00000    -0.00013     0.00003
  Local  ************************329815.24813     0.00001     0.01969    -0.00379
  n-local -2876.84041 -2876.84006 -2896.40775     0.00000     0.00059    -0.00013
  augment  1077.96630  1077.96629  1069.29460    -0.00000     0.00009    -0.00002
  Kinetic  7748.50296  7748.50125  7783.56362    -0.00001     0.00121     0.00005
  Fock        0.00000     0.00000     0.00000     0.00000     0.00000     0.00000
  Total       0.64314     0.64005    23.66708     0.00000    -0.00615     0.00119
  in kB       0.68470     0.68141    25.19649     0.00000    -0.00654     0.00127

 VOLUME and BASIS-vectors are now :
  energy-cutoff  :      600.00
  volume of cell :     1504.93
      direct lattice vectors                 reciprocal lattice vectors
     8.404861995  0.000000000  0.000000000     0.118978753  0.000000000  0.000000000
     0.000000000  8.404861995  0.000000000     0.000000000  0.118978753  0.000000000
     0.000000000  0.000000000 21.303646496     0.000000000  0.000000000  0.046940321

  length of vectors
     8.404861995  8.404861995 21.303646496     0.118978753  0.118978753  0.046940321

 FORCES acting on ions:
    Electron-Ion                     Ewald-Force                    Non-Local-Force
   0.279E-02 -.155E-02 -.960E+03   -.392E-02 0.303E-02 0.960E+03   -.164E-02 0.209E-02 0.481E-01
   0.229E-02 0.965E-03 -.960E+03   -.384E-02 -.219E-02 0.960E+03   -.220E-02 -.138E-02 0.459E-01
   0.201E-02 0.777E-03 -.960E+03   -.335E-02 -.196E-02 0.960E+03   -.192E-02 -.132E-02 0.508E-01
   0.228E-02 -.191E-02 -.960E+03   -.315E-02 0.355E-02 0.960E+03   -.125E-02 0.233E-02 0.495E-01
   0.156E-02 -.377E+02 -.244E+03   -.166E-02 0.426E+02 0.247E+03   0.231E-03 -.472E+01 -.329E+01
   0.159E-02 0.377E+02 -.244E+03   -.170E-02 -.426E+02 0.247E+03   0.236E-03 0.472E+01 -.329E+01
   -.380E+02 -.169E-02 -.236E+03   0.429E+02 0.183E-02 0.233E+03   -.481E+01 -.298E-03 0.318E+01
   0.380E+02 -.170E-02 -.236E+03   -.429E+02 0.184E-02 0.233E+03   0.480E+01 -.298E-03 0.318E+01
   0.377E+02 0.117E-02 -.244E+03   -.426E+02 -.127E-02 0.247E+03   0.472E+01 0.215E-03 -.329E+01
   -.377E+02 0.119E-02 -.244E+03   0.426E+02 -.129E-02 0.247E+03   -.472E+01 0.218E-03 -.329E+01
   0.194E-02 -.380E+02 -.236E+03   -.208E-02 0.429E+02 0.233E+03   0.317E-03 -.481E+01 0.318E+01
   0.193E-02 0.380E+02 -.236E+03   -.208E-02 -.429E+02 0.233E+03   0.317E-03 0.480E+01 0.318E+01
   0.377E+02 0.108E-02 -.244E+03   -.426E+02 -.117E-02 0.247E+03   0.472E+01 0.205E-03 -.329E+01
   -.377E+02 0.112E-02 -.244E+03   0.426E+02 -.121E-02 0.247E+03   -.472E+01 0.211E-03 -.329E+01
   0.169E-02 -.379E+02 -.236E+03   -.182E-02 0.429E+02 0.233E+03   0.276E-03 -.481E+01 0.318E+01
   0.170E-02 0.379E+02 -.236E+03   -.183E-02 -.429E+02 0.233E+03   0.277E-03 0.480E+01 0.318E+01
   0.120E-02 -.377E+02 -.244E+03   -.127E-02 0.426E+02 0.247E+03   0.175E-03 -.472E+01 -.329E+01
   0.121E-02 0.377E+02 -.244E+03   -.129E-02 -.426E+02 0.247E+03   0.178E-03 0.472E+01 -.329E+01
   -.380E+02 -.198E-02 -.236E+03   0.429E+02 0.214E-02 0.233E+03   -.481E+01 -.339E-03 0.318E+01
   0.380E+02 -.196E-02 -.236E+03   -.429E+02 0.212E-02 0.233E+03   0.480E+01 -.337E-03 0.318E+01
   -.611E-02 0.683E-05 0.213E+04   0.648E-02 -.612E-06 -.212E+04   -.285E-03 0.108E-05 -.649E+01
   0.401E-05 -.147E-01 0.213E+04   -.122E-05 0.151E-01 -.212E+04   0.880E-06 -.324E-03 -.649E+01
   -.149E-01 -.621E-01 0.797E+03   0.184E-01 0.665E-01 -.798E+03   -.259E-02 -.318E-02 0.426E+00
   0.292E-04 0.109E-04 0.797E+03   -.247E-04 -.129E-04 -.797E+03   -.514E-05 0.173E-05 0.411E+00
   -.696E-01 0.128E-04 -.527E+03   0.744E-01 -.170E-04 0.528E+03   -.189E-02 0.806E-05 -.288E+00
   -.154E-04 -.586E-01 -.528E+03   0.154E-04 0.622E-01 0.528E+03   -.275E-05 -.471E-02 -.283E+00
   -.202E-01 -.441E-05 -.185E+04   0.221E-01 -.581E-02 0.184E+04   -.173E-03 0.576E-02 0.575E+01
   -.543E-03 -.129E-02 -.183E+04   0.608E-03 0.128E-02 0.183E+04   -.432E-04 0.889E-05 0.580E+01
   -.505E-02 -.609E-05 0.213E+04   0.540E-02 0.644E-06 -.212E+04   -.236E-03 0.669E-06 -.649E+01
   0.509E-06 0.147E-01 0.213E+04   -.331E-05 -.151E-01 -.212E+04   -.162E-05 0.327E-03 -.649E+01
   -.149E-01 0.621E-01 0.797E+03   0.185E-01 -.665E-01 -.798E+03   -.259E-02 0.318E-02 0.426E+00
   0.430E-05 -.271E-04 0.797E+03   -.290E-06 0.175E-04 -.797E+03   0.111E-05 0.233E-05 0.422E+00
   -.268E-01 -.593E-04 -.528E+03   0.340E-01 0.699E-04 0.528E+03   -.443E-02 -.827E-05 -.280E+00
   0.150E-03 0.586E-01 -.528E+03   -.167E-03 -.622E-01 0.528E+03   0.137E-04 0.471E-02 -.283E+00
   -.193E-01 0.685E-03 -.185E+04   0.211E-01 0.515E-02 0.184E+04   -.862E-04 -.578E-02 0.575E+01
   0.420E-03 0.677E-03 -.183E+04   -.485E-03 -.682E-03 0.183E+04   0.420E-04 -.862E-05 0.580E+01
   0.612E-02 0.937E-05 0.213E+04   -.648E-02 0.136E-05 -.212E+04   0.284E-03 -.248E-05 -.649E+01
   -.850E-05 -.157E-01 0.213E+04   0.121E-05 0.162E-01 -.212E+04   0.289E-05 -.338E-03 -.649E+01
   0.149E-01 -.622E-01 0.797E+03   -.184E-01 0.665E-01 -.798E+03   0.259E-02 -.317E-02 0.426E+00
   -.444E-04 -.214E-04 0.797E+03   0.429E-04 0.145E-04 -.798E+03   0.125E-05 0.550E-05 0.408E+00
   0.698E-01 -.104E-04 -.527E+03   -.745E-01 0.207E-04 0.528E+03   0.188E-02 -.848E-05 -.288E+00
   -.529E-04 0.127E-01 -.528E+03   0.410E-04 -.526E-02 0.528E+03   0.530E-05 -.847E-02 -.285E+00
   0.208E-01 0.731E-03 -.185E+04   -.226E-01 -.663E-02 0.184E+04   0.146E-03 0.582E-02 0.575E+01
   0.484E-03 0.535E-03 -.183E+04   -.531E-03 -.538E-03 0.183E+04   0.190E-04 -.506E-05 0.579E+01
   0.505E-02 -.356E-05 0.213E+04   -.540E-02 -.149E-05 -.212E+04   0.235E-03 0.984E-07 -.649E+01
   -.818E-05 0.157E-01 0.213E+04   0.327E-05 -.162E-01 -.212E+04   0.493E-05 0.348E-03 -.649E+01
   0.149E-01 0.621E-01 0.797E+03   -.185E-01 -.665E-01 -.798E+03   0.259E-02 0.318E-02 0.426E+00
   0.177E-04 0.113E-04 0.797E+03   -.115E-04 -.128E-04 -.797E+03   -.177E-05 0.470E-06 0.424E+00
   0.268E-01 0.758E-04 -.528E+03   -.340E-01 -.852E-04 0.528E+03   0.443E-02 0.697E-05 -.280E+00
   -.753E-04 -.127E-01 -.528E+03   0.821E-04 0.530E-02 0.528E+03   -.484E-05 0.847E-02 -.285E+00
   0.189E-01 -.638E-03 -.185E+04   -.208E-01 0.654E-02 0.184E+04   0.137E-03 -.580E-02 0.575E+01
   -.793E-03 -.118E-02 -.183E+04   0.831E-03 0.116E-02 0.183E+04   -.209E-04 0.356E-05 0.580E+01
   -.260E-01 -.287E-05 0.598E+03   0.273E-01 0.104E-04 -.597E+03   -.153E-02 -.644E-05 -.624E-01
   0.947E-05 -.422E-01 0.597E+03   -.128E-04 0.412E-01 -.597E+03   0.788E-05 0.143E-02 -.695E-01
   -.383E-02 -.115E-01 0.160E+04   0.430E-02 0.120E-01 -.160E+04   -.672E-03 -.726E-03 0.354E+01
   -.281E-05 -.298E-05 0.160E+04   -.271E-05 -.908E-06 -.160E+04   0.324E-05 0.832E-06 0.354E+01
   -.660E+00 -.370E-03 -.140E+04   0.685E+00 0.359E-03 0.141E+04   -.145E-01 0.191E-04 -.507E+01
   -.195E-03 -.693E+00 -.140E+04   0.218E-03 0.715E+00 0.141E+04   -.195E-04 -.783E-02 -.507E+01
   0.147E-01 -.217E-01 -.389E+03   -.125E-01 0.174E-01 0.388E+03   -.568E-02 0.358E-02 0.435E+00
   -.336E-04 -.445E-04 -.391E+03   0.551E-04 0.342E-04 0.391E+03   -.265E-04 0.503E-05 0.155E+00
[...]
   0.382E-02 -.115E-01 0.160E+04   -.430E-02 0.120E-01 -.160E+04   0.675E-03 -.728E-03 0.354E+01
   -.410E-05 0.655E-05 0.160E+04   0.341E-05 0.107E-05 -.160E+04   -.119E-05 -.253E-05 0.354E+01
   0.660E+00 -.445E-04 -.140E+04   -.685E+00 0.102E-04 0.141E+04   0.145E-01 0.417E-04 -.507E+01
   -.311E-03 0.694E+00 -.140E+04   0.330E-03 -.713E+00 0.141E+04   -.212E-04 0.629E-02 -.507E+01
   -.147E-01 -.217E-01 -.389E+03   0.125E-01 0.174E-01 0.388E+03   0.566E-02 0.359E-02 0.435E+00
   -.128E-03 0.100E-03 -.391E+03   0.141E-03 -.995E-04 0.391E+03   -.741E-05 -.529E-05 0.161E+00
   0.167E-01 0.576E-05 0.597E+03   -.182E-01 0.628E-05 -.597E+03   0.202E-02 -.939E-05 -.718E-01
   -.671E-05 0.460E-01 0.598E+03   -.106E-06 -.441E-01 -.597E+03   0.782E-05 -.265E-02 -.629E-01
   0.383E-02 0.115E-01 0.160E+04   -.430E-02 -.120E-01 -.160E+04   0.673E-03 0.727E-03 0.354E+01
   0.671E-06 -.538E-06 0.160E+04   0.362E-06 -.144E-05 -.160E+04   0.654E-06 0.794E-07 0.354E+01
   -.646E+00 -.164E-04 -.140E+04   0.664E+00 -.194E-04 0.141E+04   -.450E-02 0.370E-04 -.508E+01
   0.182E-03 -.694E+00 -.140E+04   -.213E-03 0.713E+00 0.141E+04   0.203E-04 -.637E-02 -.507E+01
   -.148E-01 0.217E-01 -.389E+03   0.127E-01 -.174E-01 0.388E+03   0.567E-02 -.359E-02 0.435E+00
   -.105E-03 -.429E-04 -.391E+03   0.997E-04 0.380E-04 0.391E+03   -.613E-05 0.402E-05 0.149E+00
   0.979E-02 -.218E-02 0.157E+02   -.284E-12 0.853E-13 -.591E-11   -.981E-02 0.219E-02 -.157E+02

 POSITION                                       TOTAL-FORCE (eV/Angst)
      4.20246      4.20240     16.85373        -0.002752      0.003541      0.048746
      0.00000      4.20238     16.85377        -0.003724     -0.002583      0.045813
      4.20243      8.40481     16.85370        -0.003245     -0.002487      0.048347
      0.00002      8.40482     16.85371        -0.002112      0.003946      0.047550
      4.20243      5.09612     17.47830         0.000129      0.126204      0.117954
      4.20243      3.30882     17.47827         0.000131     -0.129450      0.119981
      5.10117      4.20245     16.23283         0.104643     -0.000160     -0.031005
      3.30365      4.20245     16.23281        -0.102144     -0.000158     -0.029485
      7.51127      4.20235     17.47831        -0.129707      0.000117      0.119871
      0.89346      4.20235     17.47828         0.133108      0.000119      0.122004
      8.40482      5.10103     16.23287         0.000170      0.105834     -0.031612
      8.40482      3.30363     16.23285         0.000168     -0.103432     -0.030182
      3.30890      8.40478     17.47832        -0.130309      0.000113      0.119701
      5.09584      8.40478     17.47830         0.133272      0.000116      0.121559
      4.20239      0.89850     16.23278         0.000147      0.107726     -0.032633
      4.20238      7.50617     16.23276         0.000146     -0.105408     -0.031254
      8.40486      0.89353     17.47830         0.000098      0.129734      0.119723
      8.40486      7.51140     17.47827         0.000100     -0.133342      0.121975
      0.89862      0.00002     16.23280         0.106654     -0.000180     -0.032523
      7.50620      0.00002     16.23279        -0.104735     -0.000179     -0.031354
      2.10122      0.00000      7.50000         0.000119      0.000007      0.082823
      4.20243      2.10122      7.50000         0.000004      0.000138      0.083221
      2.10122      2.10122      9.60122         0.000949      0.001203      0.023702
      4.20243      0.00000      9.60122        -0.000001     -0.000000      0.038463
      2.10106      8.40486     11.71244         0.002858      0.000004      0.009308
      4.20243      2.10140     11.71295        -0.000003     -0.001085      0.007829
      2.10111      2.10107     13.78624         0.001695     -0.000032      0.244235
      4.20243      8.40486     13.80657         0.000021     -0.000005      0.168276
      2.10122      4.20243      7.50000         0.000082     -0.000005      0.083245
      4.20243      6.30365      7.50000        -0.000004     -0.000145      0.083223
      2.10122      6.30365      9.60122         0.000949     -0.001209      0.023704
      4.20243      4.20243      9.60122         0.000005     -0.000007      0.039912
      2.10116      4.20243     11.71337         0.002761      0.000002      0.005310
      4.20243      6.30346     11.71295        -0.000003      0.001083      0.007820
      2.10111      6.30379     13.78624         0.001709      0.000028      0.244227
      4.20243      4.20243     13.80824        -0.000023     -0.000014      0.162810
      6.30365      0.00000      7.50000        -0.000112      0.000008      0.082822
      0.00000      2.10122      7.50000        -0.000004      0.000104      0.082781
      6.30365      2.10122      9.60122        -0.000945      0.001200      0.023698
      0.00000      0.00000      9.60122        -0.000000     -0.000001      0.036079
      6.30381      8.40486     11.71244        -0.002868      0.000002      0.009319
      0.00000      2.10152     11.71269        -0.000006     -0.001078      0.008215
      6.30376      2.10107     13.78624        -0.001710     -0.000058      0.244234
      0.00000      8.40486     13.80617        -0.000027     -0.000008      0.170205
      6.30365      4.20243      7.50000        -0.000083     -0.000005      0.083241
      0.00000      6.30365      7.50000         0.000000     -0.000105      0.082779
      6.30365      6.30365      9.60122        -0.000945     -0.001209      0.023707
      0.00000      4.20243      9.60122         0.000005     -0.000001      0.038027
      6.30370      4.20243     11.71337        -0.002759     -0.000002      0.005291
      0.00000      6.30334     11.71269         0.000002      0.001080      0.008223
      6.30376      6.30379     13.78623        -0.001690      0.000077      0.244247
      0.00000      4.20243     13.80785         0.000018     -0.000017      0.165092
      2.10122      0.00000      9.60122        -0.000276      0.000001      0.058542
      4.20243      2.10122      9.60122         0.000005      0.000427      0.059118
      2.10122      2.10122      7.50000        -0.000200     -0.000208     -0.621291
      4.20243      0.00000      7.50000        -0.000002     -0.000003     -0.621420
      2.10078      8.40486     13.84056         0.011157      0.000008      0.145245
      4.20243      2.10055     13.84167         0.000004      0.014958      0.141810
      2.10145      2.10142     11.70564        -0.003491     -0.000699     -0.023831
      4.20243      8.40486     11.70790        -0.000005     -0.000005     -0.017748
[...]
      0.00000      2.10122      9.60122         0.000000      0.000731      0.059759
      6.30365      2.10122      7.50000         0.000194     -0.000202     -0.621287
      0.00000      0.00000      7.50000        -0.000002      0.000005     -0.621175
      6.30408      8.40486     13.84056        -0.011156      0.000007      0.145212
      0.00000      2.10150     13.84109        -0.000002     -0.012618      0.143106
      6.30341      2.10141     11.70564         0.003494     -0.000683     -0.023839
      0.00000      8.40486     11.70746         0.000006     -0.000005     -0.014113
      6.30365      4.20243      9.60122         0.000520      0.000003      0.060659
      0.00000      6.30365      9.60122         0.000001     -0.000732      0.059757
      6.30365      6.30365      7.50000         0.000195      0.000214     -0.621295
      0.00000      4.20243      7.50000         0.000002     -0.000002     -0.621396
      6.30328      4.20243     13.84236         0.013379      0.000001      0.138969
      0.00000      6.30336     13.84109        -0.000010      0.012594      0.143106
      6.30341      6.30345     11.70564         0.003484      0.000690     -0.023830
      0.00000      4.20243     11.70844        -0.000011     -0.000001     -0.018112
    total drift:                               -0.000019      0.000006     -0.011918

  FREE ENERGIE OF THE ION-ELECTRON SYSTEM (eV)
  free  energy   TOTEN  =      -318.43184985 eV

  energy  without entropy=     -318.43184985  energy(sigma->0) =     -318.43184985