 vasp.6.4.2 20Jul23 (build Feb 22 2024 13:53:45) complex
 executed on              LinuxNV date 2024.08.27  16:07:49
 OpenACC runtime initialized ...    4 GPUs detected

 INCAR:
   SYSTEM = Oxide-Surface
   ISMEAR = 0
   SIGMA = 0.05
   EDIFF = 1E-5
   ALGO = Normal
   IBRION = -1
   NSW = 0
   ISYM = 0
   DIPOL = 0.5 0.5 0.5
   IDIPOL = 3
   LDIPOL = .TRUE.
   ISTART = 0
   LHFCALC = .FALSE.
   GGA = PE
   HFRCUT = -1
   ENCUT = 520
   PREC = Normal
   PRECFOCK = Normal
   LASPH = .TRUE.
   LREAL = Auto
   ISPIN = 1
   NELM = 200
   NELMIN = 8
   NCORE = 1
   KPAR = 1
   LWAVE = .TRUE.
   LCHARG = .FALSE.

 POTCAR:    PAW_PBE C 08Apr2002
 POTCAR:    PAW_PBE O 08Apr2002
 POTCAR:    PAW_PBE Mg_pv 13Apr2007
 POTCAR:    PAW_PBE O 08Apr2002
 POTCAR:    PAW_PBE C 08Apr2002
   VRHFIN =C: s2p2

   TITEL  = PAW_PBE C 08Apr2002
   POMASS =   12.011; ZVAL   =    4.000    mass and valenz
   ENMAX  =  400.000; ENMIN  =  300.000 eV

[...]

   TITEL  = PAW_PBE Mg_pv 13Apr2007
   POMASS =   24.305; ZVAL   =    8.000    mass and valenz
   ENMAX  =  403.929; ENMIN  =  302.947 eV

   TITEL  = PAW_PBE O 08Apr2002
   POMASS =   16.000; ZVAL   =    6.000    mass and valenz
   ENMAX  =  400.000; ENMIN  =  300.000 eV

 Optimization of the real space projectors (new method)

 maximal supplied QI-value         = 25.13
 optimisation between [QCUT,QGAM] = [ 11.56, 23.12] = [ 37.43,149.72] Ry
 Optimized for a Real-space Cutoff    1.04 Angstroem

   l    n(q)    QCUT    max X(q) W(low)/X(q) W(high)/X(q)  e(spline)
   0      7    11.561   115.676    0.20E-03    0.60E-03    0.21E-06
   0      7    11.561    87.132    0.20E-03    0.59E-03    0.21E-06
   1      7    11.561     4.429    0.23E-03    0.35E-03    0.15E-06
   1      7    11.561     2.733    0.18E-03    0.25E-03    0.12E-06
 Optimization of the real space projectors (new method)

[...]

   l    n(q)    QCUT    max X(q) W(low)/X(q) W(high)/X(q)  e(spline)
   1      8    11.527     2.974    0.16E-03    0.13E-03    0.98E-07
   1      8    11.527     4.279    0.42E-03    0.30E-03    0.22E-06
   0      8    11.527    16.381    0.13E-03    0.20E-03    0.72E-07
   0      8    11.527     5.611    0.88E-04    0.13E-03    0.50E-07
   2      7    11.527     4.652    0.25E-03    0.73E-04    0.51E-07
 Optimization of the real space projectors (new method)

 maximal supplied QI-value         = 24.76
 optimisation between [QCUT,QGAM] = [ 11.64, 23.27] = [ 37.91,151.63] Ry
 Optimized for a Real-space Cutoff    1.04 Angstroem

   l    n(q)    QCUT    max X(q) W(low)/X(q) W(high)/X(q)  e(spline)
   0      7    11.635    20.381    0.14E-03    0.49E-03    0.18E-06
   0      7    11.635    15.268    0.16E-03    0.52E-03    0.19E-06
   1      7    11.635     5.964    0.30E-03    0.44E-03    0.22E-06
   1      7    11.635     5.382    0.27E-03    0.34E-03    0.19E-06
  PAW_PBE C 08Apr2002                   :
  PAW_PBE O 08Apr2002                   :
  PAW_PBE Mg_pv 13Apr2007               :
  PAW_PBE O 08Apr2002                   :

 POSCAR:  C  O Mg  O
  positions in direct lattice
 exchange correlation table for  LEXCH =        8
   RHO(1)=    0.500       N(1)  =     2000
   RHO(2)=  100.500       N(2)  =     4000

 ion  position               nearest neighbor table
   1  0.624  0.624  0.726-   2 1.15
   2  0.624  0.624  0.793-   1 1.15
   3  0.124  0.874  0.207-  35 2.11  37 2.11  38 2.11  45 2.11  54 2.11
   4  0.374  0.124  0.207-  36 2.11  37 2.11  38 2.11  46 2.11  53 2.11
   5  0.124  0.124  0.331-  37 2.11  36 2.11  35 2.11  43 2.11  52 2.11  41 2.12
   6  0.374  0.874  0.331-  38 2.11  36 2.11  35 2.11  44 2.11  51 2.11  42 2.12
   7  0.124  0.874  0.456-  49 2.11  42 2.11  58 2.11  41 2.11  35 2.12  39 2.15
   8  0.374  0.124  0.456-  57 2.11  50 2.11  42 2.11  41 2.11  36 2.12  40 2.15
   9  0.124  0.124  0.580-  39 2.11  40 2.11  47 2.11  56 2.11  41 2.11
  10  0.374  0.875  0.579-  42 2.11  40 2.11  39 2.11  48 2.11  55 2.11
  11  0.124  0.374  0.207-  43 2.11  37 2.11  45 2.11  46 2.11  62 2.11
  12  0.374  0.624  0.207-  44 2.11  38 2.11  45 2.11  46 2.11  61 2.11
  13  0.124  0.624  0.331-  45 2.11  43 2.11  44 2.11  35 2.11  60 2.11  49 2.12
  14  0.374  0.374  0.331-  46 2.11  43 2.11  44 2.11  36 2.11  59 2.11  50 2.12
  15  0.124  0.374  0.456-  49 2.11  50 2.11  66 2.11  41 2.11  43 2.12  47 2.15
  16  0.375  0.624  0.456-  65 2.11  50 2.11  42 2.11  49 2.11  44 2.13  48 2.15
  17  0.124  0.624  0.580-  48 2.10  64 2.10  49 2.11  47 2.11  39 2.11
  18  0.374  0.374  0.579-  50 2.11  47 2.11  40 2.11  48 2.11  63 2.11
  19  0.624  0.874  0.207-  51 2.11  38 2.11  53 2.11  54 2.11  61 2.11
  20  0.874  0.124  0.207-  52 2.11  37 2.11  53 2.11  54 2.11  62 2.11
  21  0.624  0.124  0.331-  53 2.11  51 2.11  52 2.11  36 2.11  59 2.11  57 2.12
  22  0.874  0.874  0.331-  54 2.11  51 2.11  52 2.11  35 2.11  60 2.11  58 2.12
  23  0.624  0.874  0.456-  65 2.11  58 2.11  42 2.11  57 2.11  51 2.13  55 2.15
  24  0.874  0.124  0.456-  57 2.11  58 2.11  66 2.11  41 2.11  52 2.12  56 2.15
  25  0.624  0.124  0.580-  55 2.10  63 2.10  57 2.11  40 2.11  56 2.11
  26  0.875  0.875  0.579-  58 2.11  56 2.11  39 2.11  55 2.11  64 2.11
  27  0.624  0.374  0.207-  59 2.11  53 2.11  46 2.11  61 2.11  62 2.11
  28  0.874  0.624  0.207-  60 2.11  54 2.11  45 2.11  61 2.11  62 2.11
  29  0.624  0.624  0.331-  61 2.11  51 2.11  59 2.11  60 2.11  44 2.11  65 2.13
  30  0.874  0.374  0.331-  62 2.11  52 2.11  59 2.11  60 2.11  43 2.11  66 2.12
  31  0.624  0.375  0.456-  65 2.11  50 2.11  66 2.11  57 2.11  59 2.13  63 2.15
  32  0.874  0.624  0.456-  65 2.11  58 2.11  66 2.11  49 2.11  60 2.13  64 2.15
  33  0.624  0.624  0.582-  48 2.12  55 2.12  63 2.12  64 2.12  65 2.14
  34  0.875  0.374  0.579-  66 2.11  56 2.11  47 2.11  64 2.11  63 2.11
  35  0.124  0.874  0.331-   3 2.11   5 2.11   6 2.11  13 2.11  22 2.11   7 2.12
  36  0.374  0.124  0.331-   4 2.11   5 2.11   6 2.11  14 2.11  21 2.11   8 2.12
  37  0.124  0.124  0.207-   5 2.11   4 2.11   3 2.11  11 2.11  20 2.11
  38  0.374  0.874  0.207-   6 2.11   4 2.11   3 2.11  12 2.11  19 2.11
  39  0.124  0.875  0.583-   9 2.11  10 2.11  26 2.11  17 2.11   7 2.15
  40  0.374  0.124  0.583-   9 2.11  10 2.11  18 2.11  25 2.11   8 2.15
  41  0.124  0.124  0.456-   9 2.11   8 2.11   7 2.11  15 2.11  24 2.11   5 2.12
  42  0.374  0.874  0.456-  10 2.11   8 2.11   7 2.11  16 2.11  23 2.11   6 2.12
  43  0.124  0.374  0.331-  11 2.11   5 2.11  13 2.11  14 2.11  30 2.11  15 2.12
  44  0.374  0.624  0.331-  12 2.11   6 2.11  13 2.11  14 2.11  29 2.11  16 2.13
  45  0.124  0.624  0.207-  13 2.11  11 2.11  12 2.11   3 2.11  28 2.11
  46  0.374  0.374  0.207-  14 2.11  11 2.11  12 2.11   4 2.11  27 2.11
  47  0.124  0.374  0.583-   9 2.11  18 2.11  34 2.11  17 2.11  15 2.15
  48  0.373  0.624  0.582-  17 2.10  10 2.11  18 2.11  33 2.12  16 2.15
  49  0.124  0.624  0.456-  17 2.11  15 2.11   7 2.11  16 2.11  32 2.11  13 2.12
  50  0.374  0.374  0.456-  18 2.11  15 2.11   8 2.11  16 2.11  31 2.11  14 2.12
  51  0.624  0.874  0.331-  19 2.11   6 2.11  21 2.11  22 2.11  29 2.11  23 2.13
  52  0.874  0.124  0.331-  20 2.11   5 2.11  21 2.11  22 2.11  30 2.11  24 2.12
  53  0.624  0.124  0.207-  21 2.11  19 2.11  20 2.11   4 2.11  27 2.11
  54  0.874  0.874  0.207-  22 2.11  19 2.11  20 2.11   3 2.11  28 2.11
  55  0.624  0.876  0.582-  25 2.10  10 2.11  26 2.11  33 2.12  23 2.15
  56  0.875  0.124  0.583-   9 2.11  26 2.11  34 2.11  25 2.11  24 2.15
  57  0.624  0.124  0.456-  25 2.11  24 2.11   8 2.11  23 2.11  31 2.11  21 2.12
  58  0.874  0.874  0.456-  26 2.11  24 2.11   7 2.11  23 2.11  32 2.11  22 2.12
  59  0.624  0.374  0.331-  27 2.11  21 2.11  14 2.11  29 2.11  30 2.11  31 2.13
  60  0.874  0.624  0.331-  28 2.11  22 2.11  13 2.11  29 2.11  30 2.11  32 2.13
  61  0.624  0.624  0.207-  29 2.11  19 2.11  27 2.11  28 2.11  12 2.11
  62  0.874  0.374  0.207-  30 2.11  20 2.11  27 2.11  28 2.11  11 2.11
  63  0.624  0.373  0.582-  25 2.10  18 2.11  34 2.11  33 2.12  31 2.15
  64  0.876  0.624  0.582-  17 2.10  26 2.11  34 2.11  33 2.12  32 2.15
  65  0.624  0.624  0.456-  16 2.11  23 2.11  31 2.11  32 2.11  29 2.13  33 2.14
  66  0.874  0.374  0.456-  34 2.11  24 2.11  15 2.11  32 2.11  31 2.11  30 2.12

IMPORTANT INFORMATION: All symmetrisations will be switched off!
NOSYMM: (Re-)initialisation of all symmetry stuff for point group C_1.

                                     Primitive cell

  volume of cell :    1211.2538

  direct lattice vectors                    reciprocal lattice vectors
     8.440984654  0.000000000  0.000000000     0.118469591  0.000000000  0.000000000
     0.000000000  8.440984654  0.000000000     0.000000000  0.118469591  0.000000000
     0.000000000  0.000000000 17.000000000     0.000000000  0.000000000  0.058823529

  length of vectors
     8.440984654  8.440984654 17.000000000     0.118469591  0.118469591  0.058823529

  position of ions in fractional coordinates (direct lattice)
     0.624411355  0.624411355  0.725657141
     0.624411355  0.624411355  0.793117130
     0.124411355  0.874411355  0.206882870
     0.374411355  0.124411355  0.206882870
     0.124411355  0.124411355  0.331014998
     0.374411355  0.874411355  0.331014998
     0.124411355  0.874350623  0.455922972
     0.374472087  0.124411355  0.455922972
     0.124411355  0.124411355  0.579719137
     0.374269682  0.874553028  0.579498600
     0.124411355  0.374411355  0.206882870
     0.374411355  0.624411355  0.206882870
     0.124411355  0.624411355  0.331014998
     0.374411355  0.374411355  0.331014998
     0.124411355  0.374472087  0.455922972
     0.374789734  0.624411355  0.456093975
     0.124411355  0.624411355  0.579555984
     0.374269682  0.374269682  0.579498600
     0.624411355  0.874411355  0.206882870
     0.874411355  0.124411355  0.206882870
     0.624411355  0.124411355  0.331014998
     0.874411355  0.874411355  0.331014998
     0.624411355  0.874032976  0.456093975
     0.874350623  0.124411355  0.455922972
     0.624411355  0.124411355  0.579555984
     0.874553028  0.874553028  0.579498600
     0.624411355  0.374411355  0.206882870
     0.874411355  0.624411355  0.206882870
     0.624411355  0.624411355  0.331014998
     0.874411355  0.374411355  0.331014998
     0.624411355  0.374789734  0.456093975
     0.874032976  0.624411355  0.456093975
     0.624411355  0.624411355  0.582067590
     0.874553028  0.374269682  0.579498600
     0.124411355  0.874411355  0.331014998
     0.374411355  0.124411355  0.331014998
     0.124411355  0.124411355  0.206882870
     0.374411355  0.874411355  0.206882870
     0.124411355  0.874629888  0.582522179
     0.374192822  0.124411355  0.582522179
     0.124411355  0.124411355  0.455579988
     0.374357125  0.874465584  0.455641750
     0.124411355  0.374411355  0.331014998
     0.374411355  0.624411355  0.331014998
     0.124411355  0.624411355  0.206882870
     0.374411355  0.374411355  0.206882870
     0.124411355  0.374192822  0.582522179
     0.373234064  0.624411355  0.582401242
     0.124411355  0.624411355  0.455520732
     0.374357125  0.374357125  0.455641750
     0.624411355  0.874411355  0.331014998
     0.874411355  0.124411355  0.331014998
     0.624411355  0.124411355  0.206882870
[...]

[...]

--------------------OUTCAR has been truncated-------------------------

  FORCE on cell =-STRESS in cart. coord.  units (eV):
  Direction    XX          YY          ZZ          XY          YZ          ZX
  Alpha Z  1139.26734  1139.26734  1139.26734
  Ewald   81743.27536 81743.27536************    -0.00000    -0.00000     0.00000
  Hartree 92754.71876 92754.71874-85941.79475    -0.00005    -0.00037    -0.00035
  E(xc)   -2500.77211 -2500.77211 -2504.66087    -0.00002     0.00001     0.00001
  Local  ************************183858.05297     0.00015     0.00126     0.00123
  n-local -2828.46385 -2828.46385 -2859.52891     0.01177     0.01665     0.01664
  augment  1053.74382  1053.74382  1043.72736    -0.00227    -0.00114    -0.00114
  Kinetic  7493.73305  7493.73303  7516.08480     0.00001     0.00013     0.00013
  Fock        0.00000     0.00000     0.00000     0.00000     0.00000     0.00000
  Total     -15.47922   -15.47920     6.80611     0.00960     0.01652     0.01652
  in kB     -20.47502   -20.47501     9.00274     0.01269     0.02185     0.02185

 VOLUME and BASIS-vectors are now :
  energy-cutoff  :      520.00
  volume of cell :     1211.25
      direct lattice vectors                 reciprocal lattice vectors
     8.440984654  0.000000000  0.000000000     0.118469591  0.000000000  0.000000000
     0.000000000  8.440984654  0.000000000     0.000000000  0.118469591  0.000000000
     0.000000000  0.000000000 17.000000000     0.000000000  0.000000000  0.058823529

  length of vectors
     8.440984654  8.440984654 17.000000000     0.118469591  0.118469591  0.058823529

 FORCES acting on ions
    electron-ion (+dipol)            ewald-force                    non-local-force                 convergence-correction
   0.442E-05 0.118E-04 -.531E+03   0.244E-14 -.355E-14 0.505E+03   -.279E-03 -.282E-03 0.268E+02   -.485E-06 -.476E-05 -.363E-03
   -.568E-04 -.540E-04 -.892E+03   0.511E-14 0.333E-14 0.952E+03   0.225E-03 0.224E-03 -.600E+02   -.793E-06 -.298E-05 0.101E-02
   0.353E-03 -.806E+00 0.171E+04   0.182E-13 0.806E+00 -.170E+04   -.183E-02 -.135E-02 -.704E+01   -.623E-05 0.159E-03 -.848E-03
   0.807E+00 0.356E-03 0.171E+04   -.806E+00 0.488E-14 -.170E+04   -.231E-02 -.183E-02 -.704E+01   -.171E-03 -.130E-04 -.853E-03
   0.288E-03 0.281E-03 0.580E+03   -.995E-13 -.213E-13 -.580E+03   -.288E-02 -.288E-02 0.490E+00   0.382E-04 0.479E-04 -.126E-03
   0.639E+00 -.638E+00 0.580E+03   -.634E+00 0.634E+00 -.581E+03   -.571E-02 -.297E-04 0.518E+00   -.120E-04 0.150E-04 -.154E-03
   0.308E-03 -.287E+01 -.540E+03   -.183E-12 0.286E+01 0.540E+03   -.280E-02 0.108E-01 -.175E+00   -.553E-05 0.129E-03 0.985E-03
   0.287E+01 0.291E-03 -.540E+03   -.286E+01 -.995E-13 0.540E+03   -.163E-01 -.263E-02 -.175E+00   -.693E-04 0.230E-04 0.990E-03
   0.318E-03 0.302E-03 -.167E+04   0.249E-13 0.178E-13 0.166E+04   -.174E-02 -.174E-02 0.595E+01   -.686E-05 0.718E-05 -.966E-03
   0.181E+02 -.181E+02 -.165E+04   -.182E+02 0.182E+02 0.164E+04   0.913E-01 -.945E-01 0.603E+01   -.602E-04 0.727E-04 -.737E-03
   0.341E-03 0.807E+00 0.171E+04   0.586E-13 -.806E+00 -.170E+04   -.183E-02 -.231E-02 -.704E+01   0.507E-05 -.156E-03 -.810E-03
   0.105E+01 0.340E-03 0.171E+04   -.105E+01 0.577E-14 -.170E+04   -.571E-02 -.184E-02 -.704E+01   -.146E-03 0.109E-04 -.674E-03
   0.316E-03 0.345E-03 0.581E+03   0.107E-13 -.462E-13 -.581E+03   -.286E-02 -.286E-02 0.456E+00   -.844E-05 -.402E-04 -.162E-03
   0.639E+00 0.639E+00 0.580E+03   -.634E+00 -.634E+00 -.581E+03   -.569E-02 -.570E-02 0.518E+00   -.514E-04 -.231E-04 -.126E-03
   0.301E-03 0.287E+01 -.540E+03   -.114E-12 -.286E+01 0.540E+03   -.263E-02 -.163E-01 -.175E+00   0.103E-04 -.123E-03 0.957E-03
   0.416E+01 0.337E-03 -.533E+03   -.409E+01 -.515E-13 0.533E+03   -.804E-01 -.269E-02 -.270E+00   -.948E-04 -.141E-04 0.978E-03
   0.286E-03 0.343E-03 -.165E+04   -.167E-12 -.497E-13 0.165E+04   -.163E-02 -.159E-02 0.596E+01   0.148E-05 -.610E-05 -.858E-03
   0.181E+02 0.181E+02 -.165E+04   -.182E+02 -.182E+02 0.164E+04   0.910E-01 0.910E-01 0.603E+01   -.286E-04 -.782E-04 -.753E-03
   0.346E-03 -.105E+01 0.171E+04   0.200E-13 0.105E+01 -.170E+04   -.184E-02 0.202E-02 -.704E+01   0.547E-05 0.132E-03 -.671E-03
   -.806E+00 0.367E-03 0.171E+04   0.806E+00 0.888E-15 -.170E+04   -.136E-02 -.182E-02 -.704E+01   0.175E-03 -.259E-04 -.895E-03
   0.346E-03 0.307E-03 0.581E+03   0.142E-13 0.107E-13 -.581E+03   -.285E-02 -.287E-02 0.456E+00   -.468E-04 0.538E-05 -.104E-03
   -.638E+00 -.638E+00 0.580E+03   0.634E+00 0.634E+00 -.581E+03   -.304E-04 -.120E-04 0.518E+00   0.145E-04 -.407E-04 -.162E-03
   0.325E-03 -.416E+01 -.533E+03   -.147E-12 0.409E+01 0.533E+03   -.296E-02 0.749E-01 -.270E+00   -.776E-05 0.146E-03 0.973E-03
   -.287E+01 0.294E-03 -.540E+03   0.286E+01 -.853E-13 0.540E+03   0.108E-01 -.280E-02 -.175E+00   0.753E-04 0.127E-04 0.104E-02
   0.332E-03 0.253E-03 -.165E+04   -.853E-13 0.711E-14 0.165E+04   -.159E-02 -.165E-02 0.596E+01   0.406E-05 0.465E-04 -.917E-03
   -.181E+02 -.181E+02 -.165E+04   0.182E+02 0.182E+02 0.164E+04   -.942E-01 -.942E-01 0.603E+01   0.681E-04 0.807E-04 -.740E-03
   0.358E-03 0.105E+01 0.171E+04   0.107E-13 -.105E+01 -.170E+04   -.184E-02 -.571E-02 -.704E+01   -.115E-04 -.132E-03 -.670E-03
   -.105E+01 0.327E-03 0.171E+04   0.105E+01 0.187E-13 -.170E+04   0.202E-02 -.185E-02 -.704E+01   0.142E-03 0.283E-04 -.660E-03
   0.312E-03 0.324E-03 0.580E+03   -.320E-13 0.355E-13 -.581E+03   -.288E-02 -.287E-02 0.592E+00   0.119E-04 -.689E-05 -.107E-03
   -.638E+00 0.638E+00 0.580E+03   0.634E+00 -.634E+00 -.581E+03   -.412E-04 -.572E-02 0.518E+00   0.507E-04 0.366E-04 -.126E-03
   0.328E-03 0.416E+01 -.533E+03   -.171E-12 -.409E+01 0.533E+03   -.269E-02 -.804E-01 -.270E+00   -.411E-05 -.152E-03 0.100E-02
   -.416E+01 0.329E-03 -.533E+03   0.409E+01 0.000E+00 0.533E+03   0.749E-01 -.296E-02 -.270E+00   0.977E-04 -.976E-05 0.969E-03
   0.393E-03 0.423E-03 -.157E+04   -.110E-12 -.639E-13 0.157E+04   -.130E-02 -.129E-02 0.386E+01   -.278E-05 -.421E-04 -.107E-02
   -.181E+02 0.181E+02 -.165E+04   0.182E+02 -.182E+02 0.164E+04   -.945E-01 0.913E-01 0.603E+01   0.255E-04 -.848E-04 -.758E-03
   0.178E-04 -.519E+00 0.435E+03   -.790E-13 0.514E+00 -.435E+03   -.977E-03 0.596E-02 -.949E-01   0.250E-05 0.313E-04 0.114E-04
   0.519E+00 0.254E-05 0.435E+03   -.514E+00 -.115E-13 -.435E+03   -.790E-02 -.971E-03 -.949E-01   -.473E-04 0.149E-04 0.277E-04
   -.577E-05 -.548E-05 0.129E+04   -.488E-13 -.271E-13 -.129E+04   -.521E-03 -.515E-03 0.349E+01   0.778E-05 0.381E-05 -.990E-03
   0.695E+00 -.695E+00 0.128E+04   -.693E+00 0.693E+00 -.129E+04   -.307E-02 0.206E-02 0.349E+01   -.901E-04 0.799E-04 -.850E-03
   -.294E-04 -.733E+01 -.126E+04   0.142E-13 0.727E+01 0.127E+04   0.596E-02 0.602E-01 -.503E+01   0.124E-05 0.357E-04 -.932E-03
   0.733E+01 -.753E-05 -.126E+04   -.727E+01 -.115E-13 0.127E+04   -.498E-01 0.445E-02 -.503E+01   -.821E-05 0.804E-05 -.950E-03
   0.370E-04 0.304E-04 -.402E+03   -.782E-13 -.426E-13 0.402E+03   0.151E-03 0.155E-03 0.259E+00   0.243E-05 0.608E-05 0.625E-03
   0.259E+01 -.259E+01 -.397E+03   -.258E+01 0.258E+01 0.397E+03   -.680E-02 0.441E-02 0.331E+00   -.398E-04 0.652E-04 0.636E-03
   0.739E-05 0.519E+00 0.435E+03   -.497E-13 -.514E+00 -.435E+03   -.973E-03 -.790E-02 -.949E-01   0.108E-04 -.416E-04 0.127E-04
   0.515E+00 0.280E-04 0.435E+03   -.541E+00 0.373E-13 -.435E+03   0.332E-01 -.971E-03 -.114E+00   -.457E-04 -.917E-05 0.320E-04
   0.158E-05 0.995E-05 0.128E+04   -.147E-13 -.262E-13 -.129E+04   -.509E-03 -.507E-03 0.349E+01   -.136E-06 -.798E-05 -.808E-03
   0.695E+00 0.695E+00 0.128E+04   -.693E+00 -.693E+00 -.129E+04   -.306E-02 -.307E-02 0.349E+01   -.939E-04 -.796E-04 -.835E-03
   -.462E-05 0.733E+01 -.126E+04   -.355E-13 -.727E+01 0.127E+04   0.445E-02 -.498E-01 -.503E+01   0.101E-05 -.305E-04 -.947E-03
   0.236E+02 0.252E-04 -.123E+04   -.233E+02 0.488E-13 0.124E+04   -.337E+00 0.576E-02 -.503E+01   -.773E-05 -.524E-05 -.787E-03
   0.260E-04 0.484E-04 -.397E+03   0.426E-13 0.711E-14 0.397E+03   0.236E-03 0.237E-03 0.282E+00   -.504E-05 -.904E-05 0.629E-03
   0.259E+01 0.259E+01 -.397E+03   -.258E+01 -.258E+01 0.397E+03   -.603E-02 -.601E-02 0.332E+00   -.348E-04 -.679E-04 0.623E-03
   0.187E-04 -.515E+00 0.435E+03   -.444E-13 0.541E+00 -.435E+03   -.969E-03 -.351E-01 -.114E+00   -.919E-06 0.322E-04 0.497E-04
   -.519E+00 0.570E-05 0.435E+03   0.514E+00 0.142E-13 -.435E+03   0.595E-02 -.969E-03 -.949E-01   0.492E-04 0.935E-05 0.317E-04
   0.973E-05 0.394E-05 0.128E+04   -.386E-13 0.444E-15 -.129E+04   -.501E-03 -.503E-03 0.349E+01   -.133E-04 -.705E-05 -.829E-03
   -.695E+00 -.695E+00 0.128E+04   0.693E+00 0.693E+00 -.129E+04   0.205E-02 0.207E-02 0.349E+01   0.846E-04 0.649E-04 -.855E-03
   -.820E-05 -.236E+02 -.123E+04   0.444E-13 0.233E+02 0.124E+04   0.392E-02 0.340E+00 -.503E+01   -.249E-07 0.324E-04 -.804E-03
   -.733E+01 -.301E-04 -.126E+04   0.727E+01 0.426E-13 0.127E+04   0.603E-01 0.596E-02 -.503E+01   0.580E-05 0.660E-05 -.952E-03
   0.444E-04 0.890E-05 -.397E+03   -.426E-13 -.711E-14 0.397E+03   0.238E-03 0.217E-03 0.282E+00   -.405E-05 0.223E-04 0.667E-03
   -.259E+01 -.259E+01 -.397E+03   0.258E+01 0.258E+01 0.397E+03   0.364E-02 0.364E-02 0.330E+00   0.479E-04 0.554E-04 0.635E-03
   0.228E-04 0.515E+00 0.435E+03   0.213E-13 -.541E+00 -.435E+03   -.969E-03 0.332E-01 -.114E+00   -.547E-05 -.332E-04 0.652E-04
   -.515E+00 0.276E-04 0.435E+03   0.541E+00 0.426E-13 -.435E+03   -.351E-01 -.972E-03 -.114E+00   0.434E-04 -.677E-05 0.306E-04
   -.278E-05 -.652E-05 0.128E+04   0.133E-13 0.520E-13 -.129E+04   -.511E-03 -.513E-03 0.350E+01   0.228E-05 0.709E-05 -.662E-03
   -.695E+00 0.695E+00 0.128E+04   0.693E+00 -.693E+00 -.129E+04   0.204E-02 -.308E-02 0.349E+01   0.991E-04 -.633E-04 -.843E-03
   0.269E-04 0.236E+02 -.123E+04   -.284E-13 -.233E+02 0.124E+04   0.576E-02 -.337E+00 -.503E+01   -.336E-05 -.357E-04 -.810E-03
   -.236E+02 -.680E-05 -.123E+04   0.233E+02 0.426E-13 0.124E+04   0.340E+00 0.393E-02 -.503E+01   0.927E-05 -.343E-05 -.800E-03
   0.265E-04 0.371E-04 -.396E+03   0.711E-14 0.284E-13 0.396E+03   -.105E-02 -.104E-02 -.199E+00   0.838E-06 -.186E-04 0.620E-03
   -.259E+01 0.259E+01 -.397E+03   0.258E+01 -.258E+01 0.397E+03   0.443E-02 -.680E-02 0.331E+00   0.348E-04 -.557E-04 0.638E-03
   0.108E-01 0.108E-01 0.530E+02   0.330E-12 -.924E-13 0.227E-12   -.565E-01 -.565E-01 -.526E+02   -.522E-05 -.127E-05 -.137E-01

 POSITION                                       TOTAL-FORCE (eV/Angst)
      5.27065      5.27065     12.33617         0.000418      0.000418      0.346898
      5.27065      5.27065     13.48299         0.000860      0.000860     -0.359856
      1.05015      7.38089      3.51701        -0.000788     -0.001052      0.310384
      3.16040      1.05015      3.51701        -0.000529     -0.000790      0.310380
      1.05015      1.05015      5.62725        -0.001860     -0.001859      0.027116
      3.16040      7.38089      5.62725        -0.000278     -0.003442      0.028098
      1.05015      7.38038      7.75069        -0.001807     -0.000931      0.040155
      3.16091      1.05015      7.75069        -0.002495     -0.001624      0.040050
      1.05015      1.05015      9.85523        -0.000732     -0.000734      0.021118
      3.15920      7.38209      9.85148        -0.008796      0.007614      0.016350
      1.05015      3.16040      3.51701        -0.000790     -0.000527      0.310380
      3.16040      5.27065      3.51701         0.000433     -0.000797      0.309005
      1.05015      5.27065      5.62725        -0.001862     -0.001861      0.035063
      3.16040      3.16040      5.62725        -0.000278     -0.000278      0.028085
      1.05015      3.16091      7.75069        -0.001625     -0.002499      0.040050
      3.16359      5.27065      7.75360        -0.006352     -0.001670      0.041140
      1.05015      5.27065      9.85245        -0.000655     -0.000561      0.017944
      3.15920      3.15920      9.85148        -0.009030     -0.009034      0.016591
      5.27065      7.38089      3.51701        -0.000800     -0.002040      0.309005
      7.38089      1.05015      3.51701        -0.001051     -0.000789      0.310379
      5.27065      1.05015      5.62725        -0.001862     -0.001861      0.035062
      7.38089      7.38089      5.62725        -0.003442     -0.003446      0.028110
      5.27065      7.37770      7.75360        -0.001947      0.002882      0.041353
      7.38038      1.05015      7.75069        -0.000935     -0.001805      0.040155
      5.27065      1.05015      9.85245        -0.000561     -0.000654      0.017947
      7.38209      7.38209      9.85148         0.007875      0.007875      0.016389
      5.27065      3.16040      3.51701        -0.000797      0.000436      0.309003
      7.38089      5.27065      3.51701        -0.002040     -0.000800      0.309003
      5.27065      5.27065      5.62725        -0.001863     -0.001864      0.042061
      7.38089      3.16040      5.62725        -0.003440     -0.000275      0.028097
      5.27065      3.16359      7.75360        -0.001669     -0.006356      0.041139
      7.37770      5.27065      7.75360         0.002881     -0.001949      0.041353
      5.27065      5.27065      9.89515        -0.000219     -0.000220      0.148931
      7.38209      3.15920      9.85148         0.007610     -0.008798      0.016348
      1.05015      7.38089      5.62725        -0.000264      0.001720      0.057064
      3.16040      1.05015      5.62725        -0.002233     -0.000261      0.057054
      1.05015      1.05015      3.51701         0.000174      0.000175     -0.550946
      3.16040      7.38089      3.51701        -0.000520      0.000880     -0.549929
      1.05015      7.38274      9.90288         0.006626      0.005021      0.054322
      3.15856      1.05015      9.90288         0.006747      0.005144      0.053198
      1.05015      1.05015      7.74486         0.000883      0.000884      0.027962
      3.15994      7.38135      7.74591         0.003331     -0.004249      0.023730
      1.05015      3.16040      5.62725        -0.000262     -0.002237      0.057061
      3.16040      5.27065      5.62725         0.008569     -0.000260      0.065972
      1.05015      5.27065      3.51701         0.000185      0.000188     -0.550318
      3.16040      3.16040      3.51701        -0.000509     -0.000515     -0.549925
      1.05015      3.15856      9.90288         0.005143      0.006757      0.053184
      3.15046      5.27065      9.90082        -0.006986      0.006471      0.047550
      1.05015      5.27065      7.74385         0.000949      0.000969      0.024539
      3.15994      3.15994      7.74591         0.004101      0.004118      0.024596
      5.27065      7.38089      5.62725        -0.000258     -0.009082      0.065963
      7.38089      1.05015      5.62725         0.001713     -0.000261      0.057053
      5.27065      1.05015      3.51701         0.000188      0.000186     -0.550303
      7.38089      7.38089      3.51701         0.000884      0.000892     -0.549930
      5.27065      7.39083      9.90082         0.004608      0.010750      0.049016
      7.38274      1.05015      9.90288         0.005030      0.006624      0.054333
      5.27065      1.05015      7.74385         0.000971      0.000941      0.024523
      7.38135      7.38135      7.74591        -0.005014     -0.005020      0.022848
      5.27065      3.16040      5.62725        -0.000259      0.008561      0.065963
      7.38089      5.27065      5.62725        -0.009089     -0.000258      0.065973
      5.27065      5.27065      3.51701         0.000181      0.000180     -0.548974
      7.38089      3.16040      3.51701         0.000873     -0.000528     -0.549927
      5.27065      3.15046      9.90082         0.006472     -0.006977      0.047567
      7.39083      5.27065      9.90082         0.010759      0.004609      0.049012
      5.27065      5.27065      7.75385        -0.000333     -0.000325      0.014752
      7.38135      3.15994      7.74591        -0.004233      0.003335      0.023735
    total drift:                               -0.045712     -0.045705      0.475050

  FREE ENERGIE OF THE ION-ELECTRON SYSTEM (eV)
  free  energy   TOTEN  =      -387.02089777 eV

  energy  without entropy=     -387.02089777  energy(sigma->0) =     -387.02089777

 writing wavefunctions

     |            E. Caldeweyher, S. Ehlert & S. Grimme          |
     |          Mulliken Center for Theoretical Chemistry        |
     |                    University of Bonn                     |

Rational (Becke-Johnson) damping: hse06-D4-ATM
  s6         1.0000
  s8         1.1953
  s9         1.0000
  a1         0.3866
  a2         5.1913
 alp        16.0000

Dispersion energy:      -2.7297900102770E-01 Eh