 vasp.6.3.0 20Jan22 (build Apr  1 2022 16:44:48) complex
 executed on        HPECrayEX_GCC date 2022.11.14  12:11:51

 INCAR:
   SYSTEM = MgO-rocksalt
   ISMEAR = 0
   SIGMA = 0.05
   EDIFF = 1E-6
   ALGO = ALL
   ISTART = 0
   IBRION = -1
   NSW = 0
   ISYM = 0
   DIPOL = 0.5 0.5 0.5
   IDIPOL = 3
   LDIPOL = .TRUE.
   LHFCALC = .TRUE.
   GGA = B5
   AEXX = 0.2
   AGGAX = 0.72
   AGGAC = 0.81
   ALDAC = 0.19
   IVDW = 1
   VDW_S6 = 1.05
   VDW_C6 = 1.23 0.70 0.63 0.70
   VDW_R0 = 1.397 1.342 1.243 1.342
   ENCUT = 600
   PREC = Accurate
   LASPH = .TRUE.
   LREAL = .FALSE.
   ISPIN = 2
   MAGMOM = 1.0 0.0 0.0 0.0 0.0 0.0 0.0 0.0 0.0 0.0 0.0 0.0 0.0 0.0 0.0 0.0 0.0 0.0 0.0 0.0 0.0 0.0 0.0 0.0 0.0 0.0 0.0 0.0 0.0 0.0 0.0 0.0 0.0 0.0 0.0 0.0 0.0 0.0 0.0 0.0 0.0 0.0 0.0 0.0 0.0 0.0 0.0 0.0 0.0 0.0 0.0 0.0 0.0 0.0 0.0 0.0 0.0 0.0 0.0 0.0 0.0 0.0 0.0 0.0 0.0 0.0
   NELM = 200
   NELMIN = 8
   NCORE = 8
   KPAR = 1
   LWAVE = .FALSE.
   LCHARG = .FALSE.

 POTCAR:    PAW_PBE N 08Apr2002
 POTCAR:    PAW_PBE O 08Apr2002
 POTCAR:    PAW_PBE Mg_pv 13Apr2007
 POTCAR:    PAW_PBE O 08Apr2002
 POTCAR:    PAW_PBE N 08Apr2002
   VRHFIN =N: s2p3

   TITEL  = PAW_PBE N 08Apr2002
   POMASS =   14.001; ZVAL   =    5.000    mass and valenz
   ENMAX  =  400.000; ENMIN  =  300.000 eV

[...]

   TITEL  = PAW_PBE Mg_pv 13Apr2007
   POMASS =   24.305; ZVAL   =    8.000    mass and valenz
   ENMAX  =  403.929; ENMIN  =  302.947 eV

   TITEL  = PAW_PBE O 08Apr2002
   POMASS =   16.000; ZVAL   =    6.000    mass and valenz
   ENMAX  =  400.000; ENMIN  =  300.000 eV

  PAW_PBE N 08Apr2002                   :
  PAW_PBE O 08Apr2002                   :
  PAW_PBE Mg_pv 13Apr2007               :
  PAW_PBE O 08Apr2002                   :

 POSCAR:  N  O Mg  O
  positions in direct lattice
 exchange correlation table for  LEXCH =       12
   RHO(1)=    0.500       N(1)  =     2000
   RHO(2)=  100.500       N(2)  =     4000

 ion  position               nearest neighbor table
   1  0.635  0.492  0.763-   2 1.16
   2  0.696  0.589  0.794-   1 1.16
   3  0.250  0.000  0.352-  37 2.10  38 2.10  45 2.10  54 2.10  35 2.10
   4  0.500  0.250  0.352-  37 2.10  38 2.10  46 2.10  53 2.10  36 2.10
   5  0.250  0.250  0.451-  35 2.10  36 2.10  43 2.10  52 2.10  37 2.10  41 2.11
   6  0.500  0.000  0.451-  35 2.10  36 2.10  44 2.10  51 2.10  38 2.10  42 2.10
   7  0.250  0.000  0.550-  42 2.10  41 2.10  49 2.10  58 2.10  35 2.11  39 2.13
   8  0.500  0.250  0.550-  50 2.10  41 2.10  57 2.10  42 2.10  36 2.12  40 2.12
   9  0.250  0.250  0.648-  41 2.09  39 2.10  40 2.10  56 2.10  47 2.10
  10  0.500  0.000  0.648-  42 2.09  40 2.10  48 2.10  39 2.10  55 2.10
  11  0.250  0.500  0.352-  37 2.10  45 2.10  46 2.10  62 2.10  43 2.10
  12  0.500  0.750  0.352-  38 2.10  45 2.10  46 2.10  61 2.10  44 2.10
  13  0.250  0.750  0.451-  35 2.10  43 2.10  44 2.10  60 2.10  45 2.10  49 2.11
  14  0.500  0.500  0.451-  36 2.10  43 2.10  44 2.10  59 2.10  46 2.10  50 2.11
  15  0.251  0.500  0.550-  50 2.10  41 2.10  49 2.10  66 2.11  43 2.11  47 2.13
  16  0.500  0.750  0.550-  50 2.10  49 2.10  42 2.10  65 2.10  44 2.12  48 2.12
  17  0.250  0.750  0.648-  49 2.09  39 2.10  48 2.10  47 2.10  64 2.10
  18  0.499  0.500  0.649-  47 2.09  40 2.10  48 2.11  50 2.12  63 2.12
  19  0.750  0.000  0.352-  38 2.10  53 2.10  54 2.10  61 2.10  51 2.10
  20  0.000  0.250  0.352-  37 2.10  53 2.10  54 2.10  62 2.10  52 2.10
  21  0.750  0.250  0.451-  36 2.10  51 2.10  52 2.10  59 2.10  53 2.10  57 2.11
  22  0.000  0.000  0.451-  35 2.10  51 2.10  52 2.10  60 2.10  54 2.10  58 2.11
  23  0.750  0.000  0.550-  42 2.10  57 2.10  58 2.10  65 2.10  51 2.11  55 2.13
  24  0.000  0.250  0.550-  41 2.10  57 2.10  66 2.10  58 2.10  52 2.11  56 2.13
  25  0.750  0.249  0.648-  55 2.09  57 2.09  40 2.10  56 2.10  63 2.11
  26  0.000  0.000  0.648-  58 2.09  39 2.10  56 2.10  64 2.10  55 2.10
  27  0.750  0.500  0.352-  46 2.10  53 2.10  61 2.10  62 2.10  59 2.10
  28  0.000  0.750  0.352-  45 2.10  54 2.10  61 2.10  62 2.10  60 2.10
  29  0.750  0.750  0.451-  44 2.10  51 2.10  59 2.10  60 2.10  61 2.10  65 2.11
  30  0.000  0.500  0.451-  43 2.10  52 2.10  59 2.10  60 2.10  62 2.10  66 2.11
  31  0.750  0.500  0.550-  50 2.10  57 2.10  65 2.10  66 2.10  59 2.11  63 2.14
  32  0.000  0.750  0.550-  49 2.10  66 2.10  58 2.10  65 2.10  60 2.11  64 2.13
  33  0.750  0.752  0.647-  65 2.08  55 2.09  64 2.10  48 2.10  63 2.11
  34  0.002  0.500  0.648-  47 2.09  66 2.09  56 2.10  64 2.10  63 2.10
  35  0.250  0.000  0.451-   5 2.10   6 2.10  13 2.10  22 2.10   3 2.10   7 2.11
  36  0.500  0.250  0.451-   5 2.10   6 2.10  14 2.10  21 2.10   4 2.10   8 2.12
  37  0.250  0.250  0.352-   3 2.10   4 2.10  11 2.10  20 2.10   5 2.10
  38  0.500  0.000  0.352-   3 2.10   4 2.10  12 2.10  19 2.10   6 2.10
  39  0.250  0.000  0.650-  26 2.10  17 2.10   9 2.10  10 2.10   7 2.13
  40  0.500  0.250  0.649-  10 2.10   9 2.10  25 2.10  18 2.10   8 2.12
  41  0.250  0.250  0.550-   9 2.09  24 2.10  15 2.10   7 2.10   8 2.10   5 2.11
  42  0.500  1.000  0.549-  10 2.09  23 2.10   7 2.10  16 2.10   8 2.10   6 2.10
  43  0.250  0.500  0.451-   5 2.10  13 2.10  14 2.10  30 2.10  11 2.10  15 2.11
  44  0.500  0.750  0.451-   6 2.10  13 2.10  14 2.10  29 2.10  12 2.10  16 2.12
  45  0.250  0.750  0.352-   3 2.10  11 2.10  12 2.10  28 2.10  13 2.10
  46  0.500  0.500  0.352-   4 2.10  11 2.10  12 2.10  27 2.10  14 2.10
  47  0.250  0.500  0.650-  34 2.09  18 2.09  17 2.10   9 2.10  15 2.13
  48  0.500  0.750  0.650-  10 2.10  33 2.10  17 2.10  18 2.11  16 2.12
  49  0.250  0.750  0.550-  17 2.09  32 2.10  15 2.10  16 2.10   7 2.10  13 2.11
  50  0.500  0.500  0.550-  31 2.10  16 2.10  15 2.10   8 2.10  14 2.11  18 2.12
  51  0.750  0.000  0.451-   6 2.10  21 2.10  22 2.10  29 2.10  19 2.10  23 2.11
  52  0.000  0.250  0.451-   5 2.10  21 2.10  22 2.10  30 2.10  20 2.10  24 2.11
  53  0.750  0.250  0.352-   4 2.10  19 2.10  20 2.10  27 2.10  21 2.10
  54  0.000  0.000  0.352-   3 2.10  19 2.10  20 2.10  28 2.10  22 2.10
  55  0.750  0.000  0.650-  33 2.09  25 2.09  26 2.10  10 2.10  23 2.13
  56  0.000  0.250  0.650-  34 2.10  26 2.10  25 2.10   9 2.10  24 2.13
  57  0.750  0.250  0.550-  25 2.09  31 2.10  24 2.10  23 2.10   8 2.10  21 2.11
  58  0.000  0.000  0.550-  26 2.09  32 2.10  24 2.10  23 2.10   7 2.10  22 2.11
  59  0.750  0.500  0.451-  14 2.10  21 2.10  29 2.10  30 2.10  27 2.10  31 2.11
  60  0.000  0.750  0.451-  13 2.10  22 2.10  29 2.10  30 2.10  28 2.10  32 2.11
  61  0.750  0.750  0.352-  12 2.10  19 2.10  27 2.10  28 2.10  29 2.10
  62  0.000  0.500  0.352-  11 2.10  20 2.10  27 2.10  28 2.10  30 2.10
  63  0.751  0.500  0.650-  34 2.10  25 2.11  33 2.11  18 2.12  31 2.14
  64  0.000  0.750  0.650-  33 2.10  34 2.10  26 2.10  17 2.10  32 2.13
  65  0.750  0.750  0.550-  33 2.08  31 2.10  32 2.10  16 2.10  23 2.10  29 2.11
  66  1.000  0.500  0.550-  34 2.09  32 2.10  24 2.10  31 2.10  15 2.11  30 2.11

IMPORTANT INFORMATION: All symmetrisations will be switched off!
NOSYMM: (Re-)initialisation of all symmetry stuff for point group C_1.

                                     Primitive cell

  volume of cell :    1504.9259

  direct lattice vectors                    reciprocal lattice vectors
     8.404861995  0.000000000  0.000000000     0.118978753  0.000000000  0.000000000
     0.000000000  8.404861995  0.000000000     0.000000000  0.118978753  0.000000000
     0.000000000  0.000000000 21.303646496     0.000000000  0.000000000  0.046940321

  length of vectors
     8.404861995  8.404861995 21.303646496     0.118978753  0.118978753  0.046940321

  position of ions in fractional coordinates (direct lattice)
     0.635190480  0.492214212  0.763341197
     0.696084107  0.588959481  0.793975227
     0.250000000  0.000000000  0.352052406
     0.500000000  0.250000000  0.352052406
     0.250000000  0.250000000  0.450684135
     0.500000000  0.000000000  0.450684135
     0.250201296  0.000051186  0.549829182
     0.500074169  0.250267297  0.550040223
     0.250380904  0.249768525  0.647816109
     0.500027791  0.000177069  0.647770936
     0.250000000  0.500000000  0.352052406
     0.500000000  0.750000000  0.352052406
     0.250000000  0.750000000  0.450684135
     0.500000000  0.500000000  0.450684135
     0.250556007  0.500010133  0.549952401
     0.500029024  0.749770195  0.550011951
     0.250360895  0.750345249  0.647856598
     0.499163319  0.499910165  0.649266123
     0.750000000  0.000000000  0.352052406
     0.000000000  0.250000000  0.352052406
     0.750000000  0.250000000  0.450684135
     0.000000000  0.000000000  0.450684135
     0.750040870  0.000265953  0.549771423
     0.000127674  0.250061079  0.549908161
     0.750038308  0.249141597  0.647977931
     0.000432932  0.000166783  0.647856126
     0.750000000  0.500000000  0.352052406
     0.000000000  0.750000000  0.352052406
     0.750000000  0.750000000  0.450684135
     0.000000000  0.500000000  0.450684135
     0.749727982  0.499936508  0.549738246
     0.000263021  0.750039209  0.549862713
     0.750329619  0.751707916  0.647452657
     0.001503727  0.500051997  0.647744642
     0.250000000  0.000000000  0.450684135
     0.500000000  0.250000000  0.450684135
     0.250000000  0.250000000  0.352052406
     0.500000000  0.000000000  0.352052406
     0.250083279  0.000015404  0.649829528
     0.500175362  0.249607323  0.649442677
     0.249944391  0.250088293  0.549564651
     0.500136630  0.999950246  0.549483932
     0.250000000  0.500000000  0.450684135
     0.500000000  0.750000000  0.450684135
     0.250000000  0.750000000  0.352052406
     0.500000000  0.500000000  0.352052406
     0.250039983  0.500097099  0.649944714
     0.500476229  0.750430228  0.649695467
     0.250030158  0.749973742  0.549593958
     0.500341060  0.500088978  0.549853824
     0.750000000  0.000000000  0.450684135
     0.000000000  0.250000000  0.450684135
     0.750000000  0.250000000  0.352052406
     0.000000000  0.000000000  0.352052406
     0.750344121  0.000171502  0.649705803
     0.000159769  0.250115784  0.649912880
     0.750244159  0.250295708  0.549652232
     0.000089450  0.000032408  0.549565907
     0.750000000  0.500000000  0.450684135
     0.000000000  0.750000000  0.450684135
     0.750000000  0.750000000  0.352052406
     0.000000000  0.500000000  0.352052406
     0.751295068  0.500361563  0.650304388
     0.000101216  0.750090273  0.649884417
     0.750241148  0.749872146  0.549597635
     0.999948007  0.500067176  0.549660164

  ion indices of the primitive-cell ions
   primitive index   ion index
                 1           1
                 2           2
                 3           3
                 4           4
                 5           5
                 6           6
                 7           7
                 8           8
                 9           9
                10          10
                11          11
                12          12
                13          13
                14          14
                15          15
                16          16
                17          17
                18          18
                19          19
                20          20
[...]
   0.75024416  0.25029571  0.54965223
   0.00008945  0.00003241  0.54956591
   0.75000000  0.50000000  0.45068414
   0.00000000  0.75000000  0.45068414
   0.75000000  0.75000000  0.35205241
   0.00000000  0.50000000  0.35205241
   0.75129507  0.50036156  0.65030439
   0.00010122  0.75009027  0.64988442
   0.75024115  0.74987215  0.54959763
   0.99994801  0.50006718  0.54966016

 position of ions in cartesian coordinates  (Angst):
   5.33868832  4.13699253 16.26195101
   5.85049086  4.95012316 16.91456757
   2.10121550  0.00000000  7.50000000
   4.20243100  2.10121550  7.50000000
   2.10121550  2.10121550  9.60121550
   4.20243100  0.00000000  9.60121550
   2.10290737  0.00043021 11.71336654
   4.20305438  2.10346209 11.71786246
   2.10441695  2.09926998 13.80084538
   4.20266458  0.00148824 13.79988303
   2.10121550  4.20243100  7.50000000
   4.20243100  6.30364650  7.50000000
   2.10121550  6.30364650  9.60121550
   4.20243100  4.20243100  9.60121550
   2.10588866  4.20251616 11.71599155
   4.20267494  6.30171502 11.71726017
   2.10424878  6.30654827 13.80170795
   4.19539881  4.20167595 13.83173596
   6.30364650  0.00000000  7.50000000
   0.00000000  2.10121550  7.50000000
   6.30364650  2.10121550  9.60121550
   0.00000000  0.00000000  9.60121550
   6.30399000  0.00223530 11.71213605
   0.00107309  2.10172886 11.71504906
   6.30396847  2.09400074 13.80429277
   0.00363873  0.00140179 13.80169789
   6.30364650  4.20243100  7.50000000
   0.00000000  6.30364650  7.50000000
   6.30364650  6.30364650  9.60121550
   0.00000000  4.20243100  9.60121550
   6.30136022  4.20189736 11.71142927
   0.00221065  6.30397604 11.71408086
   6.30641690  6.31800129 13.79310252
   0.01263862  4.20286802 13.79932288
   2.10121550  0.00000000  9.60121550
   4.20243100  2.10121550  9.60121550
   2.10121550  2.10121550  7.50000000
   4.20243100  0.00000000  7.50000000
   2.10191545  0.00012947 13.84373855
   4.20390489  2.09791510 13.83549722
   2.10074812  2.10195759 11.70773106
   4.20357935  8.40444382 11.70601144
   2.10121550  4.20243100  9.60121550
   4.20243100  6.30364650  9.60121550
   2.10121550  6.30364650  7.50000000
   4.20243100  4.20243100  7.50000000
   2.10155155  4.20324710 13.84619243
   4.20643363  6.30726250 13.84088255
   2.10146898  6.30342580 11.70835539
   4.20529756  4.20317884 11.71389148
   6.30364650  0.00000000  9.60121550
   0.00000000  2.10121550  9.60121550
   6.30364650  2.10121550  7.50000000
   0.00000000  0.00000000  7.50000000
   6.30653879  0.00144145 13.84110275
   0.00134284  2.10218865 13.84551426
   6.30569862  2.10370088 11.70959684
   0.00075181  0.00027239 11.70775780
   6.30364650  4.20243100  9.60121550
   0.00000000  6.30364650  9.60121550
   6.30364650  6.30364650  7.50000000
   0.00000000  4.20243100  7.50000000
   6.31453136  4.20546988 13.85385480
   0.00085071  6.30440523 13.84490789
   6.30567332  6.30257190 11.70843372
   8.40442500  4.20299560 11.70976582

--------------------------------------- Iteration      FINAL  ---------------------------------------

--------------------OUTCAR has been truncated-------------------------

[...]

--------------------OUTCAR has been truncated-------------------------

  DFT-D2 method for vdW energy calculation

  Parameters of vdW forcefield:
         C6(Jnm^6/mol)     R0(A)
   N        1.230          1.397
   O        0.700          1.342
   Mg       0.630          1.243
   O        0.700          1.342

  vdW correction parametrized for the method        ìûÀ

  IVDW =   1
  VDW_RADIUS =    50.000 A
  VDW_S6 =     1.050
  VDW_SR =     1.000
  VDW_D =    20.000
  LVDW_EWALD = F

  Number of pair interactions contributing to vdW energy:  776698
  Edisp (eV):   -5.27942

 VOLUME and BASIS-vectors are now :
  energy-cutoff  :      600.00
  volume of cell :     1504.93
      direct lattice vectors                 reciprocal lattice vectors
     8.404861995  0.000000000  0.000000000     0.118978753  0.000000000  0.000000000
     0.000000000  8.404861995  0.000000000     0.000000000  0.118978753  0.000000000
     0.000000000  0.000000000 21.303646496     0.000000000  0.000000000  0.046940321

  length of vectors
     8.404861995  8.404861995 21.303646496     0.118978753  0.118978753  0.046940321

 FORCES acting on ions:
    Electron-Ion                     Ewald-Force                    Non-Local-Force
   0.118E+03 0.190E+03 -.120E+04   -.138E+03 -.222E+03 0.118E+04   0.185E+02 0.293E+02 0.216E+02
   -.113E+03 -.179E+03 -.157E+04   0.140E+03 0.222E+03 0.160E+04   -.241E+02 -.381E+02 -.309E+02
   0.998E-01 -.587E-01 0.211E+04   -.976E-01 0.593E-01 -.210E+04   -.141E-02 -.351E-03 -.642E+01
   0.229E+00 0.178E+00 0.211E+04   -.232E+00 -.178E+00 -.210E+04   0.168E-02 0.282E-03 -.642E+01
   0.405E+00 0.585E+00 0.729E+03   -.395E+00 -.584E+00 -.730E+03   -.571E-02 -.457E-03 0.395E+00
   0.859E+00 -.283E+00 0.730E+03   -.869E+00 0.281E+00 -.731E+03   0.719E-02 0.119E-02 0.351E+00
   0.225E+01 -.749E+00 -.643E+03   -.222E+01 0.755E+00 0.644E+03   -.226E-01 -.572E-02 -.207E+00
   0.414E+01 0.509E+01 -.634E+03   -.415E+01 -.502E+01 0.635E+03   0.908E-02 -.612E-01 -.530E+00
   0.116E+02 0.131E+02 -.202E+04   -.115E+02 -.132E+02 0.201E+04   -.727E-01 0.941E-01 0.551E+01
   0.118E+02 -.466E+01 -.201E+04   -.118E+02 0.472E+01 0.201E+04   0.618E-01 -.553E-01 0.550E+01
   0.112E+00 0.591E-01 0.211E+04   -.109E+00 -.595E-01 -.210E+04   -.221E-02 0.253E-03 -.641E+01
   0.238E+00 -.178E+00 0.211E+04   -.241E+00 0.179E+00 -.210E+04   0.184E-02 -.310E-03 -.642E+01
   0.424E+00 -.580E+00 0.730E+03   -.404E+00 0.582E+00 -.730E+03   -.123E-01 -.111E-02 0.412E+00
   0.132E+01 0.295E+00 0.731E+03   -.133E+01 -.294E+00 -.732E+03   0.569E-02 -.153E-02 0.472E+00
   0.363E+01 0.778E+00 -.638E+03   -.351E+01 -.783E+00 0.638E+03   -.112E+00 0.557E-02 -.249E+00
   0.491E+01 -.515E+01 -.633E+03   -.494E+01 0.508E+01 0.633E+03   0.315E-01 0.618E-01 -.400E+00
   0.121E+02 -.134E+02 -.201E+04   -.121E+02 0.135E+02 0.201E+04   -.219E-01 -.956E-01 0.551E+01
   0.419E+02 0.651E+01 -.195E+04   -.425E+02 -.651E+01 0.194E+04   0.540E+00 0.921E-03 0.512E+01
   -.993E-01 -.661E-01 0.211E+04   0.977E-01 0.672E-01 -.210E+04   0.104E-02 -.734E-03 -.641E+01
   -.229E+00 0.166E+00 0.211E+04   0.232E+00 -.167E+00 -.210E+04   -.193E-02 0.913E-03 -.642E+01
   -.396E+00 0.103E+01 0.731E+03   0.394E+00 -.103E+01 -.731E+03   0.106E-02 -.254E-02 0.441E+00
   -.835E+00 -.262E+00 0.729E+03   0.856E+00 0.270E+00 -.730E+03   -.133E-01 -.527E-02 0.402E+00
   -.229E+01 -.136E+01 -.636E+03   0.227E+01 0.141E+01 0.636E+03   0.202E-01 -.479E-01 -.220E+00
   -.391E+01 0.377E+01 -.641E+03   0.393E+01 -.377E+01 0.641E+03   -.113E-01 -.230E-03 -.235E+00
   -.154E+02 0.321E+02 -.199E+04   0.154E+02 -.327E+02 0.198E+04   0.265E-01 0.467E+00 0.556E+01
   -.109E+02 -.398E+01 -.202E+04   0.110E+02 0.400E+01 0.202E+04   -.680E-01 -.175E-01 0.549E+01
   -.112E+00 0.675E-01 0.211E+04   0.109E+00 -.681E-01 -.210E+04   0.178E-02 0.429E-03 -.640E+01
   -.236E+00 -.166E+00 0.211E+04   0.240E+00 0.168E+00 -.210E+04   -.229E-02 -.108E-02 -.641E+01
   -.413E+00 -.104E+01 0.732E+03   0.406E+00 0.104E+01 -.732E+03   0.479E-02 -.317E-02 0.434E+00
   -.128E+01 0.276E+00 0.730E+03   0.131E+01 -.280E+00 -.731E+03   -.136E-01 0.284E-02 0.441E+00
   -.392E+01 0.141E+01 -.626E+03   0.380E+01 -.146E+01 0.626E+03   0.109E+00 0.424E-01 0.209E+00
   -.465E+01 -.380E+01 -.638E+03   0.469E+01 0.380E+01 0.638E+03   -.350E-01 -.312E-03 -.217E+00
   -.168E+02 -.345E+02 -.196E+04   0.168E+02 0.351E+02 0.196E+04   -.193E-01 -.547E+00 0.564E+01
   -.263E+02 0.483E+01 -.199E+04   0.267E+02 -.485E+01 0.199E+04   -.345E+00 0.159E-01 0.551E+01
   0.364E+00 -.153E+00 0.546E+03   -.361E+00 0.154E+00 -.546E+03   -.413E-02 -.186E-02 -.926E-01
   0.708E+00 0.602E+00 0.547E+03   -.723E+00 -.627E+00 -.547E+03   0.190E-01 0.308E-01 -.131E+00
   0.762E-01 0.111E+00 0.158E+04   -.744E-01 -.112E+00 -.159E+04   -.218E-02 0.135E-02 0.311E+01
   0.157E+00 -.483E-01 0.158E+04   -.161E+00 0.485E-01 -.159E+04   0.394E-02 -.245E-03 0.311E+01
   0.486E+01 -.203E+01 -.154E+04   -.483E+01 0.204E+01 0.154E+04   -.302E-01 -.448E-02 -.456E+01
   0.155E+02 0.237E+02 -.151E+04   -.155E+02 -.236E+02 0.151E+04   -.360E-01 -.115E+00 -.464E+01
   0.202E+01 0.259E+01 -.475E+03   -.199E+01 -.260E+01 0.474E+03   -.231E-01 0.104E-01 0.291E+00
   0.263E+01 -.815E+00 -.472E+03   -.263E+01 0.822E+00 0.472E+03   0.917E-03 -.609E-02 0.267E+00
   0.475E+00 0.159E+00 0.547E+03   -.495E+00 -.163E+00 -.547E+03   0.219E-01 0.548E-02 -.942E-01
   0.760E+00 -.603E+00 0.548E+03   -.772E+00 0.628E+00 -.547E+03   0.153E-01 -.301E-01 -.129E+00
   0.772E-01 -.111E+00 0.158E+04   -.747E-01 0.112E+00 -.159E+04   -.304E-02 -.125E-02 0.312E+01
   0.196E+00 0.487E-01 0.158E+04   -.199E+00 -.489E-01 -.159E+04   0.411E-02 0.231E-03 0.312E+01
   0.136E+02 0.225E+01 -.152E+04   -.136E+02 -.225E+01 0.153E+04   -.629E-01 0.574E-02 -.453E+01
   0.204E+02 -.250E+02 -.150E+04   -.204E+02 0.249E+02 0.151E+04   -.316E-02 0.112E+00 -.460E+01
   0.200E+01 -.261E+01 -.474E+03   -.198E+01 0.262E+01 0.474E+03   -.181E-01 -.941E-02 0.288E+00
   0.420E+01 0.895E+00 -.470E+03   -.422E+01 -.907E+00 0.470E+03   0.187E-01 0.103E-01 -.385E-01
   -.345E+00 -.178E+00 0.548E+03   0.330E+00 0.168E+00 -.547E+03   0.186E-01 0.116E-01 -.598E-01
   -.682E+00 0.510E+00 0.547E+03   0.689E+00 -.519E+00 -.547E+03   -.830E-02 0.113E-01 -.105E+00
   -.767E-01 0.149E+00 0.158E+04   0.747E-01 -.150E+00 -.159E+04   0.246E-02 0.164E-02 0.312E+01
   -.158E+00 -.472E-01 0.158E+04   0.160E+00 0.481E-01 -.159E+04   -.353E-02 -.115E-02 0.312E+01
   -.553E+01 -.582E+01 -.153E+04   0.549E+01 0.588E+01 0.153E+04   0.281E-01 -.571E-01 -.459E+01
   -.124E+02 0.119E+02 -.153E+04   0.124E+02 -.119E+02 0.154E+04   0.122E-01 -.193E-01 -.457E+01
   -.217E+01 0.397E+01 -.470E+03   0.214E+01 -.399E+01 0.470E+03   0.252E-01 0.186E-01 0.258E+00
   -.259E+01 -.815E+00 -.476E+03   0.260E+01 0.814E+00 0.476E+03   -.362E-02 0.175E-02 0.266E+00
   -.464E+00 0.205E+00 0.549E+03   0.469E+00 -.206E+00 -.549E+03   -.402E-02 0.183E-02 -.491E-01
   -.724E+00 -.504E+00 0.547E+03   0.721E+00 0.509E+00 -.547E+03   0.241E-02 -.564E-02 -.891E-01
   -.782E-01 -.150E+00 0.158E+04   0.753E-01 0.151E+00 -.159E+04   0.355E-02 -.122E-02 0.312E+01
   -.196E+00 0.473E-01 0.158E+04   0.199E+00 -.483E-01 -.159E+04   -.358E-02 0.129E-02 0.312E+01
   -.257E+02 0.784E+01 -.146E+04   0.256E+02 -.779E+01 0.146E+04   0.296E-01 -.434E-01 -.413E+01
   -.167E+02 -.126E+02 -.152E+04   0.167E+02 0.125E+02 0.153E+04   -.161E-01 0.336E-01 -.459E+01
   -.218E+01 -.399E+01 -.466E+03   0.216E+01 0.401E+01 0.466E+03   0.166E-01 -.179E-01 0.400E+00
   -.390E+01 0.851E+00 -.471E+03   0.391E+01 -.850E+00 0.471E+03   -.116E-01 -.104E-02 0.345E+00
   0.716E+01 0.115E+02 0.295E+02   0.124E-12 -.363E-12 -.585E-11   -.559E+01 -.907E+01 -.252E+02

 POSITION                                       TOTAL-FORCE (eV/Angst)
      5.33869      4.13699     16.26195        -0.011963     -0.005422     -0.000724
      5.85049      4.95012     16.91457        -0.012446     -0.010188      0.008295
      2.10122      0.00000      7.50000         0.000459      0.000130      0.407310
      4.20243      2.10122      7.50000        -0.000825     -0.000253      0.407706
      2.10122      2.10122      9.60122         0.003213      0.000379      0.042635
      4.20243      0.00000      9.60122        -0.002814     -0.000352      0.046232
      2.10291      0.00043     11.71337        -0.000510      0.000100     -0.002867
      4.20305      2.10346     11.71786        -0.000243      0.000247     -0.002616
      2.10442      2.09927     13.80085         0.000016     -0.000566      0.000697
      4.20266      0.00149     13.79988        -0.001049     -0.000039     -0.000051
      2.10122      4.20243      7.50000         0.000689     -0.000165      0.406196
      4.20243      6.30365      7.50000        -0.000844      0.000171      0.407842
      2.10122      6.30365      9.60122         0.006041      0.000328      0.039981
      4.20243      4.20243      9.60122        -0.003409      0.000208      0.045697
      2.10589      4.20252     11.71599        -0.000049      0.000148     -0.003436
      4.20267      6.30172     11.71726        -0.000008      0.000083     -0.002674
      2.10425      6.30655     13.80171         0.000161      0.000958      0.000554
      4.19540      4.20168     13.83174         0.000129      0.000644     -0.000166
      6.30365      0.00000      7.50000        -0.000592      0.000195      0.404741
      0.00000      2.10122      7.50000         0.000733     -0.000459      0.406503
      6.30365      2.10122      9.60122        -0.001168      0.000575      0.036234
      0.00000      0.00000      9.60122         0.005796      0.002283      0.038030
      6.30399      0.00224     11.71214        -0.000005     -0.000399     -0.003322
      0.00107      2.10173     11.71505        -0.000238     -0.000123     -0.003051
      6.30397      2.09400     13.80429        -0.000721      0.000319      0.000416
      0.00364      0.00140     13.80170         0.000156      0.000027      0.001141
      6.30365      4.20243      7.50000        -0.000758     -0.000178      0.403659
      0.00000      6.30365      7.50000         0.000788      0.000400      0.405468
      6.30365      6.30365      9.60122        -0.002227      0.002647      0.036098
      0.00000      4.20243      9.60122         0.007038     -0.001169      0.042446
      6.30136      4.20190     11.71143         0.000016      0.000702     -0.003506
      0.00221      6.30398     11.71408        -0.000598      0.000319     -0.002673
      6.30642      6.31800     13.79310        -0.000766     -0.000120      0.000367
      0.01264      4.20287     13.79932        -0.000575      0.000460      0.000737
      2.10122      0.00000      9.60122        -0.002200     -0.000855      0.048329
      4.20243      2.10122      9.60122         0.006270      0.009891      0.058422
      2.10122      2.10122      7.50000        -0.000811      0.000394     -0.495482
      4.20243      0.00000      7.50000         0.001218     -0.000120     -0.495472
      2.10192      0.00013     13.84374        -0.000082      0.000316     -0.008627
      4.20390      2.09792     13.83550         0.000025      0.000501     -0.007569
      2.10075      2.10196     11.70773        -0.000344      0.000955      0.002706
      4.20358      8.40444     11.70601         0.000985      0.000398      0.003117
      2.10122      4.20243      9.60122         0.005277      0.001862      0.062167
      4.20243      6.30365      9.60122         0.005207     -0.009776      0.055766
      2.10122      6.30365      7.50000        -0.001105     -0.000432     -0.495107
      4.20243      4.20243      7.50000         0.001264      0.000030     -0.494591
      2.10155      4.20325     13.84619        -0.000642     -0.000050     -0.007964
      4.20643      6.30726     13.84088         0.000378     -0.000539     -0.007735
      2.10147      6.30343     11.70836        -0.000338     -0.000762      0.002619
      4.20530      4.20318     11.71389         0.000663     -0.000248      0.001443
      6.30365      0.00000      9.60122         0.006206      0.002815      0.054179
      0.00000      2.10122      9.60122        -0.003330      0.004002      0.052560
      6.30365      2.10122      7.50000         0.000724      0.000483     -0.493562
      0.00000      0.00000      7.50000        -0.001252     -0.000414     -0.494152
      6.30654      0.00144     13.84110         0.000678      0.000461     -0.008513
      0.00134      2.10219     13.84551        -0.000294      0.000857     -0.009039
      6.30570      2.10370     11.70960         0.000388      0.001070      0.001682
      0.00075      0.00027     11.70776        -0.000714      0.000528      0.002723
      6.30365      4.20243      9.60122        -0.000160      0.000992      0.053576
      0.00000      6.30365      9.60122        -0.000179     -0.002381      0.053067
      6.30365      6.30365      7.50000         0.001089     -0.000414     -0.493066
      0.00000      4.20243      7.50000        -0.001254      0.000394     -0.492969
      6.31453      4.20547     13.85385        -0.000113     -0.000210     -0.007282
      0.00085      6.30441     13.84491        -0.000285     -0.000467     -0.009773
      6.30567      6.30257     11.70843         0.000364     -0.000960      0.001256
      8.40443      4.20300     11.70977        -0.001062     -0.000217      0.003391
    total drift:                                0.006479      0.002550      0.006505

  FREE ENERGIE OF THE ION-ELECTRON SYSTEM (eV)
  free  energy   TOTEN  =      -454.82371076 eV

  energy  without entropy=     -454.82371076  energy(sigma->0) =     -454.82371076