 vasp.6.3.0 20Jan22 (build Apr  1 2022 16:44:48) complex
 executed on        HPECrayEX_GCC date 2023.03.02  04:00:49

 INCAR:
   SYSTEM = MgO-rocksalt
   ISMEAR = 0
   SIGMA = 0.05
   EDIFF = 1E-6
   ALGO = ALL
   ISTART = 0
   IBRION = -1
   NSW = 0
   ISYM = 0
   DIPOL = 0.5 0.5 0.5
   IDIPOL = 3
   LDIPOL = .TRUE.
   GGA = RE
   IVDW = 13
   VDW_S8 = 1.7468
   VDW_A1 = 0.5363
   VDW_A2 = 3.0726
   ENCUT = 600
   PREC = Accurate
   LASPH = .TRUE.
   LREAL = .FALSE.
   ISPIN = 1
   NELM = 200
   NELMIN = 8
   NCORE = 8
   KPAR = 1
   LWAVE = .FALSE.
   LCHARG = .FALSE.

 POTCAR:    PAW_PBE N 08Apr2002
 POTCAR:    PAW_PBE O 08Apr2002
 POTCAR:    PAW_PBE Mg_pv 13Apr2007
 POTCAR:    PAW_PBE O 08Apr2002
 POTCAR:    PAW_PBE N 08Apr2002
   VRHFIN =N: s2p3

   TITEL  = PAW_PBE N 08Apr2002
   POMASS =   14.001; ZVAL   =    5.000    mass and valenz
   ENMAX  =  400.000; ENMIN  =  300.000 eV

[...]

   TITEL  = PAW_PBE Mg_pv 13Apr2007
   POMASS =   24.305; ZVAL   =    8.000    mass and valenz
   ENMAX  =  403.929; ENMIN  =  302.947 eV

   TITEL  = PAW_PBE O 08Apr2002
   POMASS =   16.000; ZVAL   =    6.000    mass and valenz
   ENMAX  =  400.000; ENMIN  =  300.000 eV

  PAW_PBE N 08Apr2002                   :
  PAW_PBE O 08Apr2002                   :
  PAW_PBE Mg_pv 13Apr2007               :
  PAW_PBE O 08Apr2002                   :

 POSCAR:  N  O Mg  O
  positions in direct lattice
|           W    W    AA    RRRRR   N    N  II  N    N   GGGG   !!!           |
|           W    W   A  A   R    R  NN   N  II  NN   N  G    G  !!!           |
|           W    W  A    A  R    R  N N  N  II  N N  N  G       !!!           |
|           W WW W  AAAAAA  RRRRR   N  N N  II  N  N N  G  GGG   !            |
|           WW  WW  A    A  R   R   N   NN  II  N   NN  G    G                |
|           W    W  A    A  R    R  N    N  II  N    N   GGGG   !!!           |
|     Specifying the vdW parameters                                           |
|     VDW_S8 = 1.747                                                          |
|     VDW_A1 = 0.536                                                          |
|     VDW_A2 = 3.073                                                          |
|     in the INCAR file will overwrite the defaults for revpbe. Please        |
|     make sure that is what you intended.                                    |

 ion  position               nearest neighbor table
   1  0.503  0.540  0.789-   2 1.14
   2  0.458  0.663  0.800-   1 1.14   3 1.21
   3  0.409  0.792  0.811-   2 1.21
   4  0.000  0.750  0.350-  36 2.14  38 2.14  39 2.14  46 2.14  55 2.14
   5  0.250  0.000  0.350-  37 2.14  38 2.14  39 2.14  47 2.14  54 2.14
   6  0.000  0.000  0.450-  38 2.14  37 2.14  36 2.14  44 2.14  53 2.14  42 2.14
   7  0.250  0.750  0.450-  39 2.14  37 2.14  36 2.14  45 2.14  52 2.14  43 2.14
   8  1.000  0.750  0.550-  50 2.14  59 2.14  42 2.14  43 2.14  36 2.14  40 2.17
   9  0.250  0.000  0.550-  51 2.13  58 2.14  42 2.14  43 2.14  37 2.15  41 2.16
  10  1.000  0.000  0.650-  42 2.13  41 2.14  48 2.14  57 2.14  40 2.14
  11  0.249  0.751  0.649-  43 2.12  41 2.13  40 2.13  49 2.14  56 2.14
  12  0.000  0.250  0.350-  44 2.14  38 2.14  46 2.14  47 2.14  63 2.14
  13  0.250  0.500  0.350-  45 2.14  39 2.14  46 2.14  47 2.14  62 2.14
  14  0.000  0.500  0.450-  46 2.14  44 2.14  45 2.14  36 2.14  61 2.14  50 2.14
  15  0.250  0.250  0.450-  47 2.14  44 2.14  45 2.14  37 2.14  60 2.14  51 2.14
  16  1.000  0.250  0.550-  67 2.14  51 2.14  42 2.14  50 2.14  44 2.15  48 2.16
  17  0.250  0.500  0.550-  66 2.13  51 2.13  50 2.14  43 2.14  45 2.15  49 2.17
  18  1.000  0.500  0.650-  50 2.13  65 2.13  48 2.14  49 2.14  40 2.14
  19  0.250  0.250  0.650-  51 2.13  41 2.14  64 2.14  48 2.14  49 2.14
  20  0.500  0.750  0.350-  52 2.14  39 2.14  54 2.14  55 2.14  62 2.14
  21  0.750  0.000  0.350-  53 2.14  38 2.14  54 2.14  55 2.14  63 2.14
  22  0.500  0.000  0.450-  54 2.14  52 2.14  53 2.14  37 2.14  60 2.14  58 2.14
  23  0.750  0.750  0.450-  55 2.14  52 2.14  53 2.14  36 2.14  61 2.14  59 2.14
  24  0.500  0.750  0.551-  66 2.13  59 2.14  58 2.14  43 2.14  52 2.15  56 2.17
  25  0.750  0.000  0.550-  67 2.13  58 2.14  42 2.14  59 2.14  53 2.15  57 2.17
  26  0.500  0.000  0.650-  64 2.13  58 2.13  41 2.14  56 2.14  57 2.14
  27  0.750  0.750  0.649-  59 2.12  40 2.13  57 2.14  65 2.14  56 2.14
  28  0.500  0.250  0.350-  60 2.14  54 2.14  47 2.14  62 2.14  63 2.14
  29  0.750  0.500  0.350-  61 2.14  55 2.14  46 2.14  62 2.14  63 2.14
  30  0.500  0.500  0.450-  62 2.14  52 2.14  60 2.14  61 2.14  45 2.14  66 2.14
  31  0.750  0.250  0.450-  63 2.14  53 2.14  60 2.14  61 2.14  44 2.14  67 2.14
  32  0.500  0.250  0.551-  67 2.14  66 2.14  51 2.14  58 2.14  60 2.15  64 2.16
  33  0.750  0.500  0.550-  67 2.14  66 2.14  50 2.14  59 2.14  61 2.15  65 2.16
  34  0.500  0.499  0.650-  64 2.13  65 2.14  66 2.14  49 2.14  56 2.15
  35  0.750  0.250  0.650-  67 2.13  64 2.14  48 2.14  57 2.14  65 2.14
  36  0.000  0.750  0.450-   4 2.14   6 2.14   7 2.14  14 2.14  23 2.14   8 2.14
  37  0.250  0.000  0.450-   5 2.14   6 2.14   7 2.14  15 2.14  22 2.14   9 2.15
  38  0.000  0.000  0.350-   6 2.14   5 2.14   4 2.14  12 2.14  21 2.14
  39  0.250  0.750  0.350-   7 2.14   5 2.14   4 2.14  13 2.14  20 2.14
  40  1.000  0.750  0.651-  11 2.13  27 2.13  10 2.14  18 2.14   8 2.17
  41  0.250  0.000  0.651-  11 2.13  10 2.14  19 2.14  26 2.14   9 2.16
  42  1.000  0.000  0.550-  10 2.13   8 2.14  16 2.14  25 2.14   9 2.14   6 2.14
  43  0.250  0.750  0.550-  11 2.12  24 2.14   8 2.14  17 2.14   9 2.14   7 2.14
  44  0.000  0.250  0.450-  12 2.14   6 2.14  14 2.14  15 2.14  31 2.14  16 2.15
  45  0.250  0.500  0.450-  13 2.14   7 2.14  14 2.14  15 2.14  30 2.14  17 2.15
  46  0.000  0.500  0.350-  14 2.14  12 2.14  13 2.14   4 2.14  29 2.14
  47  0.250  0.250  0.350-  15 2.14  12 2.14  13 2.14   5 2.14  28 2.14
  48  1.000  0.250  0.652-  10 2.14  18 2.14  19 2.14  35 2.14  16 2.16
  49  0.250  0.500  0.652-  18 2.14  11 2.14  19 2.14  34 2.14  17 2.17
  50  0.000  0.500  0.550-  18 2.13   8 2.14  16 2.14  17 2.14  33 2.14  14 2.14
  51  0.250  0.250  0.550-  19 2.13  17 2.13   9 2.13  16 2.14  32 2.14  15 2.14
  52  0.500  0.750  0.450-  20 2.14   7 2.14  22 2.14  23 2.14  30 2.14  24 2.15
  53  0.750  0.000  0.450-  21 2.14   6 2.14  22 2.14  23 2.14  31 2.14  25 2.15
  54  0.500  0.000  0.350-  22 2.14  20 2.14  21 2.14   5 2.14  28 2.14
  55  0.750  0.750  0.350-  23 2.14  20 2.14  21 2.14   4 2.14  29 2.14
  56  0.500  0.750  0.652-  26 2.14  27 2.14  11 2.14  34 2.15  24 2.17
  57  0.750  1.000  0.652-  27 2.14  10 2.14  35 2.14  26 2.14  25 2.17
  58  0.500  1.000  0.550-  26 2.13  25 2.14   9 2.14  24 2.14  32 2.14  22 2.14
  59  0.750  0.750  0.550-  27 2.12   8 2.14  24 2.14  25 2.14  33 2.14  23 2.14
  60  0.500  0.250  0.450-  28 2.14  22 2.14  15 2.14  30 2.14  31 2.14  32 2.15
  61  0.750  0.500  0.450-  29 2.14  23 2.14  14 2.14  30 2.14  31 2.14  33 2.15
  62  0.500  0.500  0.350-  30 2.14  20 2.14  28 2.14  29 2.14  13 2.14
  63  0.750  0.250  0.350-  31 2.14  21 2.14  28 2.14  29 2.14  12 2.14
  64  0.500  0.250  0.651-  34 2.13  26 2.13  19 2.14  35 2.14  32 2.16
  65  0.750  0.500  0.651-  18 2.13  34 2.14  27 2.14  35 2.14  33 2.16
  66  0.500  0.500  0.550-  17 2.13  24 2.13  33 2.14  32 2.14  34 2.14  30 2.14
  67  0.750  0.250  0.550-  35 2.13  25 2.13  16 2.14  33 2.14  32 2.14  31 2.14

IMPORTANT INFORMATION: All symmetrisations will be switched off!
NOSYMM: (Re-)initialisation of all symmetry stuff for point group C_1.

                                     Primitive cell

  volume of cell :    1563.6717

  direct lattice vectors                    reciprocal lattice vectors
     8.546113626  0.000000000  0.000000000     0.117012252  0.000000000  0.000000000
     0.000000000  8.546113626  0.000000000     0.000000000  0.117012252  0.000000000
     0.000000000  0.000000000 21.409585219     0.000000000  0.000000000  0.046708051

  length of vectors
     8.546113626  8.546113626 21.409585219     0.117012252  0.117012252  0.046708051

  position of ions in fractional coordinates (direct lattice)
     0.503267929  0.539873863  0.788743300
     0.457573962  0.662619989  0.799925313
     0.408835850  0.792167960  0.810940899
     0.000000000  0.750000000  0.350310383
     0.250000000  0.000000000  0.350310383
     0.000000000  0.000000000  0.450103461
     0.250000000  0.750000000  0.450103461
     0.999908235  0.750070789  0.550260053
     0.250016923  0.000331605  0.550362379
     0.999971237  0.000232945  0.649621204
     0.249377943  0.750662215  0.649058141
     0.000000000  0.250000000  0.350310383
     0.250000000  0.500000000  0.350310383
     0.000000000  0.500000000  0.450103461
     0.250000000  0.250000000  0.450103461
     0.999955265  0.250075349  0.550422472
     0.250180560  0.499905882  0.550490506
     0.999909752  0.500064097  0.649516691
     0.249985224  0.249958015  0.649695503
     0.500000000  0.750000000  0.350310383
     0.750000000  0.000000000  0.350310383
     0.500000000  0.000000000  0.450103461
     0.750000000  0.750000000  0.450103461
     0.499999898  0.749893682  0.550518035
     0.749884821  0.000236467  0.550391165
     0.499815808  0.000245739  0.649737220
     0.750339575  0.750131907  0.649164961
     0.500000000  0.250000000  0.350310383
     0.750000000  0.500000000  0.350310383
     0.500000000  0.500000000  0.450103461
     0.750000000  0.250000000  0.450103461
     0.500007753  0.250027334  0.550519901
     0.749869320  0.499854908  0.550461301
     0.500402155  0.499079579  0.650158533
     0.749983722  0.250014727  0.649727772
     0.000000000  0.750000000  0.450103461
     0.250000000  0.000000000  0.450103461
     0.000000000  0.000000000  0.350310383
     0.250000000  0.750000000  0.350310383
     0.999940057  0.750199852  0.651399874
     0.249770307  0.000103249  0.651245912
     0.999914417  0.000046976  0.550108295
     0.249972844  0.750051360  0.550084190
     0.000000000  0.250000000  0.450103461
     0.250000000  0.500000000  0.450103461
     0.000000000  0.500000000  0.350310383
     0.250000000  0.250000000  0.350310383
     0.999987446  0.250093574  0.651511973
     0.249874506  0.500427548  0.651723206
     0.000105380  0.500125074  0.550101468
     0.249897213  0.250151319  0.550145331
     0.500000000  0.750000000  0.450103461
     0.750000000  0.000000000  0.450103461
     0.500000000  0.000000000  0.350310383
     0.750000000  0.750000000  0.350310383
     0.499939239  0.750082243  0.651858182
     0.750023051  0.999930972  0.651514594
     0.499979235  0.999860504  0.550136892
     0.749956526  0.750110301  0.550080931
     0.500000000  0.250000000  0.450103461
     0.750000000  0.500000000  0.450103461
     0.500000000  0.500000000  0.350310383
     0.750000000  0.250000000  0.350310383
     0.499981291  0.249706094  0.651236071
     0.750337487  0.500180129  0.651225934
     0.499934408  0.500098896  0.550272118
     0.750073054  0.249960028  0.550128801

  ion indices of the primitive-cell ions
   primitive index   ion index
                 1           1
                 2           2
                 3           3
[...]
   2.13121224  6.41524459 13.89606557
   0.00000000  2.13652841  7.50000000
   2.13652841  4.27305681  7.50000000
   0.00000000  4.27305681  9.63652841
   2.13652841  2.13652841  9.63652841
   8.54573132  2.13717234 11.78431682
   2.13807149  4.27225247 11.78577340
   8.54534236  4.27360459 13.90588295
   2.13640213  2.13616960 13.90971124
   4.27305681  6.40958522  7.50000000
   6.40958522  0.00000000  7.50000000
   4.27305681  0.00000000  9.63652841
   6.40958522  6.40958522  9.63652841
   4.27305594  6.40867662 11.78636279
   6.40860088  0.00202087 11.78364656
   4.27148269  0.00210012 13.91060439
   6.41248727  6.41071251 13.89835256
   4.27305681  2.13652841  7.50000000
   6.40958522  4.27305681  7.50000000
   4.27305681  4.27305681  9.63652841
   6.40958522  2.13652841  9.63652841
   4.27312307  2.13676200 11.78640273
   6.40846842  4.27181684 11.78514813
   4.27649368  4.26519079 13.91962452
   6.40944611  2.13665427 13.91040210
   0.00000000  6.40958522  9.63652841
   2.13652841  0.00000000  9.63652841
   0.00000000  0.00000000  7.50000000
   2.13652841  6.40958522  7.50000000
   8.54560134  6.41129318 13.94620111
   2.13456543  0.00088238 13.94290485
   8.54538222  0.00040146 11.77759041
   2.13629633  6.41002415 11.77707433
   0.00000000  2.13652841  9.63652841
   2.13652841  4.27305681  9.63652841
   0.00000000  4.27305681  7.50000000
   2.13652841  2.13652841  7.50000000
   8.54600634  2.13732810 13.94860111
   2.13545592  4.27671069 13.95312353
   0.00090059  4.27412571 11.77744426
   2.13564998  2.13782159 11.77838335
   4.27305681  6.40958522  9.63652841
   6.40958522  0.00000000  9.63652841
   4.27305681  0.00000000  7.50000000
   6.40958522  6.40958522  7.50000000
   4.27253754  6.41028808 13.95601330
   6.40978222  8.54552371 13.94865722
   4.27287935  8.54492148 11.77820266
   6.40921368  6.41052787 11.77700457
   4.27305681  2.13652841  9.63652841
   6.40958522  4.27305681  9.63652841
   4.27305681  4.27305681  7.50000000
   6.40958522  2.13652841  7.50000000
   4.27289692  2.13401665 13.94269417
   6.41246942  4.27459622 13.94247714
   4.27249626  4.27390199 11.78109780
   6.41020954  2.13618680 11.77802944

--------------------------------------- Iteration      FINAL  ---------------------------------------

--------------------OUTCAR has been truncated-------------------------

[...]

--------------------OUTCAR has been truncated-------------------------

  FORCE on cell =-STRESS in cart. coord.  units (eV):
  Direction    XX          YY          ZZ          XY          YZ          ZX
  Alpha Z   900.75707   900.75707   900.75707
  Ewald  150642.18411151280.61397************  -258.57242   156.37256   -58.27569
  Hartree161316.99875161628.41760************  -116.79976    70.96633   -27.68411
  E(xc)   -2534.21495 -2532.06370 -2542.22169    -0.93565     0.54918    -0.21070
  Local  ************************321391.30172   348.81793  -211.54333    80.31385
  n-local -2842.05541 -2845.97505 -2861.60428     1.69223    -0.98447     0.39782
  augment  1055.43059  1053.33658  1046.56287     0.92267    -0.52120     0.18266
  Kinetic  7628.01351  7570.80781  7677.67988    24.91557   -14.93837     5.28379
  Fock        0.00000     0.00000     0.00000     0.00000     0.00000     0.00000
  vdW       -20.47782   -20.52928   -16.10055     0.01893     0.00372     0.01011
  Total     -46.51263   -46.89166   -15.80373     0.05951    -0.09558     0.01773
  in kB     -47.65801   -48.04638   -16.19290     0.06097    -0.09793     0.01817

 VOLUME and BASIS-vectors are now :
  energy-cutoff  :      600.00
  volume of cell :     1563.67
      direct lattice vectors                 reciprocal lattice vectors
     8.546113626  0.000000000  0.000000000     0.117012252  0.000000000  0.000000000
     0.000000000  8.546113626  0.000000000     0.000000000  0.117012252  0.000000000
     0.000000000  0.000000000 21.409585219     0.000000000  0.000000000  0.046708051

  length of vectors
     8.546113626  8.546113626 21.409585219     0.117012252  0.117012252  0.046708051

 FORCES acting on ions:
    Electron-Ion                     Ewald-Force                    Non-Local-Force
   -.101E+03 0.267E+03 -.111E+04   0.118E+03 -.313E+03 0.110E+04   -.171E+02 0.458E+02 0.102E+02
   -.867E+01 0.207E+02 -.111E+04   0.842E+01 -.197E+02 0.111E+04   0.356E-01 -.402E+00 -.171E+00
   0.105E+03 -.275E+03 -.132E+04   -.126E+03 0.333E+03 0.134E+04   0.220E+02 -.587E+02 -.123E+02
   0.794E-01 -.827E-01 0.202E+04   -.796E-01 0.825E-01 -.202E+04   0.174E-03 0.121E-03 -.708E+01
   0.227E+00 -.233E+00 0.202E+04   -.226E+00 0.235E+00 -.202E+04   -.996E-03 -.133E-02 -.708E+01
   0.293E+00 -.888E+00 0.710E+03   -.304E+00 0.910E+00 -.711E+03   0.806E-02 -.149E-01 0.479E+00
   0.911E+00 -.344E+00 0.713E+03   -.887E+00 0.333E+00 -.714E+03   -.175E-01 0.888E-02 0.495E+00
   0.170E+01 -.174E+01 -.591E+03   -.171E+01 0.174E+01 0.591E+03   0.122E-01 0.335E-03 -.253E+00
   0.473E+01 -.421E+01 -.590E+03   -.472E+01 0.426E+01 0.590E+03   -.124E-01 -.575E-01 -.379E+00
   0.675E+01 -.107E+02 -.191E+04   -.673E+01 0.107E+02 0.191E+04   -.227E-01 -.221E-01 0.632E+01
   0.365E+02 -.112E+02 -.185E+04   -.366E+02 0.113E+02 0.185E+04   0.174E+00 -.101E+00 0.637E+01
   0.699E-01 0.824E-01 0.202E+04   -.700E-01 -.819E-01 -.202E+04   0.423E-04 -.421E-03 -.709E+01
   0.239E+00 0.235E+00 0.202E+04   -.236E+00 -.236E+00 -.202E+04   -.168E-02 0.862E-03 -.709E+01
   0.278E+00 0.919E+00 0.711E+03   -.265E+00 -.934E+00 -.712E+03   -.892E-02 0.107E-01 0.476E+00
   0.843E+00 0.338E+00 0.711E+03   -.845E+00 -.315E+00 -.712E+03   0.187E-02 -.155E-01 0.495E+00
   0.999E+00 0.164E+01 -.598E+03   -.100E+01 -.165E+01 0.599E+03   0.641E-02 0.759E-02 -.296E+00
   0.619E+01 0.430E+01 -.587E+03   -.615E+01 -.435E+01 0.588E+03   -.353E-01 0.508E-01 -.262E+00
   0.519E+01 0.109E+02 -.191E+04   -.525E+01 -.109E+02 0.190E+04   0.581E-01 0.257E-01 0.631E+01
   0.188E+02 0.101E+02 -.190E+04   -.188E+02 -.102E+02 0.190E+04   0.984E-03 0.953E-01 0.633E+01
   -.804E-01 -.945E-01 0.202E+04   0.803E-01 0.934E-01 -.202E+04   0.145E-04 0.859E-03 -.710E+01
   -.227E+00 -.224E+00 0.202E+04   0.225E+00 0.225E+00 -.202E+04   0.121E-02 -.111E-02 -.709E+01
   -.309E+00 -.954E+00 0.712E+03   0.316E+00 0.942E+00 -.713E+03   -.516E-02 0.848E-02 0.482E+00
   -.903E+00 -.363E+00 0.712E+03   0.875E+00 0.368E+00 -.713E+03   0.198E-01 -.364E-02 0.491E+00
   -.185E+01 -.314E+01 -.581E+03   0.186E+01 0.313E+01 0.581E+03   -.956E-02 0.180E-01 -.202E+00
   -.462E+01 -.345E+01 -.594E+03   0.462E+01 0.349E+01 0.594E+03   0.898E-02 -.520E-01 -.280E+00
   -.850E+01 -.258E+02 -.188E+04   0.849E+01 0.259E+02 0.187E+04   0.160E-01 -.120E+00 0.632E+01
   -.326E+02 -.128E+02 -.188E+04   0.328E+02 0.128E+02 0.187E+04   -.131E+00 -.215E-01 0.635E+01
   -.703E-01 0.929E-01 0.202E+04   0.703E-01 -.920E-01 -.202E+04   0.121E-04 -.662E-03 -.709E+01
   -.238E+00 0.225E+00 0.202E+04   0.236E+00 -.226E+00 -.202E+04   0.155E-02 0.960E-03 -.709E+01
   -.285E+00 0.976E+00 0.713E+03   0.276E+00 -.969E+00 -.713E+03   0.701E-02 -.554E-02 0.522E+00
   -.840E+00 0.354E+00 0.711E+03   0.841E+00 -.355E+00 -.711E+03   -.109E-02 0.160E-02 0.487E+00
   -.105E+01 0.309E+01 -.589E+03   0.105E+01 -.308E+01 0.590E+03   -.520E-02 -.987E-02 -.482E+00
   -.612E+01 0.355E+01 -.588E+03   0.609E+01 -.359E+01 0.589E+03   0.316E-01 0.474E-01 -.443E+00
   -.693E+01 0.298E+02 -.183E+04   0.701E+01 -.300E+02 0.182E+04   -.755E-01 0.226E+00 0.619E+01
   -.185E+02 0.117E+02 -.191E+04   0.185E+02 -.117E+02 0.190E+04   -.243E-02 0.154E-01 0.633E+01
   0.223E+00 -.246E+00 0.534E+03   -.220E+00 0.240E+00 -.534E+03   -.398E-02 0.804E-02 -.490E-01
   0.669E+00 -.647E+00 0.533E+03   -.665E+00 0.636E+00 -.533E+03   -.558E-02 0.132E-01 -.732E-01
   0.580E-01 -.170E+00 0.152E+04   -.589E-01 0.173E+00 -.152E+04   0.133E-02 -.362E-02 0.343E+01
   0.176E+00 -.650E-01 0.152E+04   -.173E+00 0.628E-01 -.152E+04   -.496E-02 0.308E-02 0.343E+01
   0.706E+01 -.450E+01 -.144E+04   -.707E+01 0.449E+01 0.145E+04   0.181E-01 0.109E-01 -.479E+01
   0.159E+02 -.167E+02 -.143E+04   -.159E+02 0.167E+02 0.144E+04   -.259E-01 -.320E-01 -.482E+01
   0.119E+01 -.245E+01 -.443E+03   -.118E+01 0.245E+01 0.442E+03   -.371E-02 0.707E-03 0.253E+00
   0.442E+01 -.156E+01 -.431E+03   -.442E+01 0.157E+01 0.431E+03   0.578E-02 -.873E-02 0.451E+00
   0.171E+00 0.247E+00 0.532E+03   -.170E+00 -.249E+00 -.532E+03   -.451E-03 0.266E-02 -.996E-01
   0.754E+00 0.681E+00 0.534E+03   -.762E+00 -.684E+00 -.534E+03   0.113E-01 0.474E-02 -.112E+00
   0.549E-01 0.171E+00 0.152E+04   -.539E-01 -.173E+00 -.152E+04   -.131E-02 0.398E-02 0.343E+01
   0.171E+00 0.635E-01 0.152E+04   -.170E+00 -.618E-01 -.152E+04   -.796E-03 -.236E-02 0.343E+01
   0.283E+01 0.436E+01 -.146E+04   -.283E+01 -.434E+01 0.146E+04   0.361E-03 -.235E-01 -.475E+01
   0.273E+02 0.174E+02 -.142E+04   -.273E+02 -.174E+02 0.142E+04   -.854E-01 -.448E-02 -.477E+01
   0.843E+00 0.252E+01 -.440E+03   -.853E+00 -.252E+01 0.440E+03   0.101E-01 -.364E-02 0.305E+00
   0.345E+01 0.147E+01 -.440E+03   -.344E+01 -.147E+01 0.440E+03   -.722E-02 0.220E-02 0.269E+00
   -.240E+00 -.331E+00 0.535E+03   0.242E+00 0.339E+00 -.535E+03   -.238E-02 -.112E-01 -.116E+00
   -.671E+00 -.598E+00 0.533E+03   0.673E+00 0.593E+00 -.533E+03   -.207E-02 0.559E-02 -.935E-01
   -.580E-01 -.175E+00 0.152E+04   0.591E-01 0.175E+00 -.152E+04   -.162E-02 0.621E-04 0.343E+01
   -.176E+00 -.674E-01 0.152E+04   0.172E+00 0.675E-01 -.152E+04   0.474E-02 -.784E-04 0.343E+01
   -.103E+02 -.175E+02 -.138E+04   0.103E+02 0.174E+02 0.139E+04   0.168E-01 0.838E-01 -.459E+01
   -.145E+02 -.112E+02 -.145E+04   0.145E+02 0.112E+02 0.145E+04   0.343E-01 -.156E-01 -.476E+01
   -.127E+01 -.338E+01 -.436E+03   0.126E+01 0.339E+01 0.436E+03   0.751E-02 -.850E-02 0.260E+00
   -.431E+01 -.191E+01 -.435E+03   0.431E+01 0.190E+01 0.434E+03   -.173E-02 0.859E-02 0.412E+00
   -.179E+00 0.310E+00 0.533E+03   0.180E+00 -.312E+00 -.533E+03   -.177E-02 0.291E-02 -.105E+00
   -.744E+00 0.617E+00 0.533E+03   0.748E+00 -.616E+00 -.533E+03   -.616E-02 0.233E-03 -.928E-01
   -.555E-01 0.177E+00 0.152E+04   0.544E-01 -.176E+00 -.152E+04   0.155E-02 -.486E-03 0.343E+01
   -.170E+00 0.666E-01 0.152E+04   0.170E+00 -.668E-01 -.152E+04   0.714E-03 0.310E-03 0.343E+01
   -.307E+01 0.148E+02 -.143E+04   0.307E+01 -.148E+02 0.144E+04   0.202E-02 -.574E-02 -.484E+01
   -.260E+02 0.121E+02 -.143E+04   0.259E+02 -.121E+02 0.143E+04   0.588E-01 0.126E-02 -.485E+01
   -.897E+00 0.345E+01 -.432E+03   0.907E+00 -.346E+01 0.432E+03   -.890E-02 0.905E-02 0.175E+00
   -.341E+01 0.182E+01 -.441E+03   0.340E+01 -.180E+01 0.441E+03   0.950E-02 -.127E-01 0.252E+00
   -.498E+01 0.132E+02 0.162E+02   0.277E-12 0.355E-12 -.460E-11   0.498E+01 -.132E+02 -.162E+02

 POSITION                                       TOTAL-FORCE (eV/Angst)
      4.30098      4.61382     16.88667         0.041332     -0.097199     -0.051609
      3.91048      5.66283     17.12607        -0.206330      0.540813      0.062327
      3.49396      6.76996     17.36191         0.158512     -0.434534     -0.095984
      0.00000      6.40959      7.50000        -0.000058     -0.000084      0.499792
      2.13653      0.00000      7.50000         0.000345      0.000461      0.500686
      0.00000      0.00000      9.63653        -0.003086      0.006109      0.051669
      2.13653      6.40959      9.63653         0.006865     -0.002700      0.050313
      8.54533      6.41019     11.78084         0.001634      0.001192     -0.027663
      2.13667      0.00283     11.78303        -0.001893     -0.003244     -0.032331
      8.54587      0.00199     13.90812        -0.000134     -0.002812     -0.190307
      2.13121      6.41524     13.89607         0.013774     -0.009821     -0.153365
      0.00000      2.13653      7.50000        -0.000022      0.000131      0.502508
      2.13653      4.27306      7.50000         0.000529     -0.000318      0.503102
      0.00000      4.27306      9.63653         0.003308     -0.004136      0.054621
      2.13653      2.13653      9.63653        -0.000185      0.006602      0.052693
      8.54573      2.13717     11.78432         0.001000     -0.001086     -0.034850
      2.13807      4.27225     11.78577        -0.001299      0.002271     -0.036307
      8.54534      4.27360     13.90588         0.002386      0.000765     -0.181221
      2.13640      2.13617     13.90971         0.004649      0.006007     -0.184082
      4.27306      6.40959      7.50000        -0.000010     -0.000283      0.503331
      6.40959      0.00000      7.50000        -0.000430      0.000400      0.502255
      4.27306      0.00000      9.63653         0.001540     -0.003323      0.056218
      6.40959      6.40959      9.63653        -0.008246      0.001036      0.049752
      4.27306      6.40868     11.78636        -0.000849     -0.000638     -0.039880
      6.40860      0.00202     11.78365         0.002415     -0.002316     -0.032800
      4.27148      0.00210     13.91060        -0.000277     -0.007097     -0.174906
      6.41249      6.41071     13.89835        -0.008863     -0.007920     -0.164815
      4.27306      2.13653      7.50000        -0.000022      0.000164      0.501961
      6.40959      4.27306      7.50000        -0.000484     -0.000364      0.501645
      4.27306      4.27306      9.63653        -0.002088      0.001229      0.059008
      6.40959      2.13653      9.63653        -0.000289      0.000230      0.052741
      4.27312      2.13676     11.78640        -0.000513     -0.000059     -0.039500
      6.40847      4.27182     11.78515         0.001899      0.001449     -0.038461
      4.27649      4.26519     13.91962        -0.003325      0.009716     -0.161726
      6.40945      2.13665     13.91040        -0.003580      0.003566     -0.185764
      0.00000      6.40959      9.63653        -0.000766      0.002054      0.053728
      2.13653      0.00000      9.63653        -0.001619      0.002525      0.056733
      0.00000      0.00000      7.50000         0.000364     -0.001021     -0.347356
      2.13653      6.40959      7.50000        -0.001441      0.000889     -0.347692
      8.54560      6.41129     13.94620         0.000076     -0.002489     -0.042378
      2.13457      0.00088     13.94290         0.003951     -0.000093     -0.038746
      8.54538      0.00040     11.77759         0.000708     -0.000008     -0.009046
      2.13630      6.41002     11.77707         0.003234     -0.000477     -0.005926
      0.00000      2.13653      9.63653         0.000059      0.000638      0.054328
      2.13653      4.27306      9.63653         0.002750      0.001822      0.057072
      0.00000      4.27306      7.50000        -0.000394      0.001123     -0.347870
      2.13653      2.13653      7.50000        -0.000250     -0.000691     -0.348390
      8.54601      2.13733     13.94860         0.000428     -0.000727     -0.039586
      2.13546      4.27671     13.95312         0.003123      0.001097     -0.038412
      0.00090      4.27413     11.77744        -0.000154     -0.002840     -0.005682
      2.13565      2.13782     11.77838         0.002045      0.001331     -0.006124
      4.27306      6.40959      9.63653        -0.000762     -0.002963      0.058688
      6.40959      0.00000      9.63653        -0.000329      0.000674      0.053047
      4.27306      0.00000      7.50000        -0.000474      0.000039     -0.348303
      6.40959      6.40959      7.50000         0.001369     -0.000009     -0.347784
      4.27254      6.41029     13.95601        -0.001508     -0.004989     -0.020793
      6.40978      8.54552     13.94866        -0.001914      0.000267     -0.039950
      4.27288      8.54492     11.77820         0.000771     -0.000824     -0.004026
      6.40921      6.41053     11.77700        -0.003173     -0.001248     -0.006151
      4.27306      2.13653      9.63653        -0.000597      0.000927      0.062704
      6.40959      4.27306      9.63653        -0.001483      0.000674      0.060666
      4.27306      4.27306      7.50000         0.000441     -0.000171     -0.349045
      6.40959      2.13653      7.50000         0.000193      0.000071     -0.348453
      4.27290      2.13402     13.94269        -0.000429     -0.001747     -0.042586
      6.41247      4.27460     13.94248        -0.001278      0.000606     -0.037900
      4.27250      4.27390     11.78110         0.001078     -0.000704     -0.008342
      6.41021      2.13619     11.77803        -0.002220      0.002059     -0.005473
    total drift:                                0.000785      0.000434      0.006291

  FREE ENERGIE OF THE ION-ELECTRON SYSTEM (eV)
  free  energy   TOTEN  =      -391.55314685 eV

  energy  without entropy=     -391.55314685  energy(sigma->0) =     -391.55314685