 vasp.6.3.0 20Jan22 (build Apr  1 2022 16:44:48) complex
 executed on        HPECrayEX_GCC date 2023.01.26  19:11:59

 INCAR:
   SYSTEM = MgO-rocksalt
   ISMEAR = 0
   SIGMA = 0.05
   EDIFF = 1E-6
   ALGO = ALL
   ISTART = 0
   IBRION = -1
   NSW = 0
   ISYM = 0
   DIPOL = 0.5 0.5 0.5
   IDIPOL = 3
   LDIPOL = .TRUE.
   LHFCALC = .TRUE.
   GGA = B5
   AEXX = 0.2
   AGGAX = 0.72
   AGGAC = 0.81
   ALDAC = 0.19
   IVDW = 1
   VDW_S6 = 1.05
   VDW_C6 = 1.23 0.70 0.63 0.70
   VDW_R0 = 1.397 1.342 1.243 1.342
   ENCUT = 600
   PREC = Accurate
   LASPH = .TRUE.
   LREAL = .FALSE.
   ISPIN = 1
   NELM = 200
   NELMIN = 8
   NCORE = 8
   KPAR = 1
   LWAVE = .FALSE.
   LCHARG = .FALSE.

 POTCAR:    PAW_PBE N 08Apr2002
 POTCAR:    PAW_PBE O 08Apr2002
 POTCAR:    PAW_PBE Mg_pv 13Apr2007
 POTCAR:    PAW_PBE O 08Apr2002
 POTCAR:    PAW_PBE N 08Apr2002
   VRHFIN =N: s2p3

   TITEL  = PAW_PBE N 08Apr2002
   POMASS =   14.001; ZVAL   =    5.000    mass and valenz
   ENMAX  =  400.000; ENMIN  =  300.000 eV

[...]

   TITEL  = PAW_PBE Mg_pv 13Apr2007
   POMASS =   24.305; ZVAL   =    8.000    mass and valenz
   ENMAX  =  403.929; ENMIN  =  302.947 eV

   TITEL  = PAW_PBE O 08Apr2002
   POMASS =   16.000; ZVAL   =    6.000    mass and valenz
   ENMAX  =  400.000; ENMIN  =  300.000 eV

  PAW_PBE N 08Apr2002                   :
  PAW_PBE O 08Apr2002                   :
  PAW_PBE Mg_pv 13Apr2007               :
  PAW_PBE O 08Apr2002                   :

 POSCAR:  N  O Mg  O
  positions in direct lattice
 exchange correlation table for  LEXCH =       12
   RHO(1)=    0.500       N(1)  =     2000
   RHO(2)=  100.500       N(2)  =     4000

 ion  position               nearest neighbor table
   1  0.547  0.547  0.754-   3 1.18
   2  0.704  0.704  0.753-   4 1.18
   3  0.520  0.520  0.807-   1 1.18
   4  0.731  0.731  0.806-   2 1.18
   5  0.250  0.000  0.351-  37 2.12  39 2.12  40 2.12  47 2.12  56 2.12
   6  0.500  0.250  0.351-  38 2.12  39 2.12  40 2.12  48 2.12  55 2.12
   7  0.250  0.250  0.450-  39 2.12  38 2.12  37 2.12  45 2.12  54 2.12  43 2.12
   8  0.500  0.000  0.450-  40 2.12  38 2.12  37 2.12  46 2.12  53 2.12  44 2.12
   9  0.250  0.000  0.550-  44 2.12  51 2.12  43 2.12  60 2.12  37 2.13  41 2.14
  10  0.500  0.250  0.550-  52 2.12  59 2.12  43 2.12  44 2.12  38 2.13  42 2.13
  11  0.250  0.250  0.648-  43 2.11  58 2.11  41 2.11  42 2.12  49 2.12
  12  0.500  0.002  0.648-  42 2.09  44 2.10  50 2.11  41 2.12  57 2.12
  13  0.250  0.500  0.351-  45 2.12  39 2.12  47 2.12  48 2.12  64 2.12
  14  0.500  0.750  0.351-  46 2.12  40 2.12  47 2.12  48 2.12  63 2.12
  15  0.250  0.750  0.450-  47 2.12  45 2.12  46 2.12  37 2.12  62 2.12  51 2.12
  16  0.500  0.500  0.450-  48 2.12  45 2.12  46 2.12  38 2.12  61 2.12  52 2.13
  17  0.250  0.500  0.550-  52 2.12  51 2.12  43 2.12  68 2.12  45 2.13  49 2.13
  18  0.501  0.749  0.550-  52 2.11  67 2.11  51 2.12  44 2.12  46 2.13  50 2.16
  19  0.248  0.750  0.648-  66 2.09  51 2.10  50 2.11  41 2.12  49 2.12
  20  0.498  0.498  0.651-  49 2.11  42 2.11  52 2.15  65 2.16  50 2.16
  21  0.750  0.000  0.351-  53 2.12  40 2.12  55 2.12  56 2.12  63 2.12
  22  0.000  0.250  0.351-  54 2.12  39 2.12  55 2.12  56 2.12  64 2.12
  23  0.750  0.250  0.450-  55 2.12  53 2.12  54 2.12  38 2.12  61 2.12  59 2.12
  24  0.000  0.000  0.450-  56 2.12  53 2.12  54 2.12  37 2.12  62 2.12  60 2.12
  25  0.750  1.000  0.550-  67 2.12  44 2.12  60 2.12  59 2.12  53 2.13  57 2.13
  26  0.000  0.250  0.550-  68 2.12  59 2.12  43 2.12  60 2.12  54 2.13  58 2.14
  27  0.750  0.248  0.648-  57 2.09  59 2.10  65 2.11  58 2.12  42 2.12
  28  0.001  0.001  0.648-  60 2.11  41 2.11  58 2.11  66 2.12  57 2.12
  29  0.750  0.500  0.351-  61 2.12  55 2.12  48 2.12  63 2.12  64 2.12
  30  0.000  0.750  0.351-  62 2.12  56 2.12  47 2.12  63 2.12  64 2.12
  31  0.750  0.750  0.450-  63 2.12  53 2.12  61 2.12  62 2.12  46 2.12  67 2.13
  32  0.000  0.500  0.450-  64 2.12  54 2.12  61 2.12  62 2.12  45 2.12  68 2.12
  33  0.749  0.501  0.550-  52 2.11  67 2.11  59 2.12  68 2.12  61 2.13  65 2.16
  34  1.000  0.750  0.550-  67 2.12  68 2.12  60 2.12  51 2.12  62 2.13  66 2.13
  35  0.753  0.753  0.651-  57 2.11  66 2.11  67 2.14  50 2.16  65 2.16
  36  0.002  0.500  0.648-  49 2.09  68 2.10  65 2.11  58 2.12  66 2.12
  37  0.250  0.000  0.450-   5 2.12   7 2.12   8 2.12  15 2.12  24 2.12   9 2.13
  38  0.500  0.250  0.450-   6 2.12   7 2.12   8 2.12  16 2.12  23 2.12  10 2.13
  39  0.250  0.250  0.351-   7 2.12   6 2.12   5 2.12  13 2.12  22 2.12
  40  0.500  0.000  0.351-   8 2.12   6 2.12   5 2.12  14 2.12  21 2.12
  41  0.250  0.000  0.651-  28 2.11  11 2.11  12 2.12  19 2.12   9 2.14
  42  0.500  0.249  0.650-  12 2.09  20 2.11  11 2.12  27 2.12  10 2.13
  43  0.250  0.250  0.550-  11 2.11  10 2.12  17 2.12  26 2.12   9 2.12   7 2.12
  44  0.500  1.000  0.550-  12 2.10  25 2.12   9 2.12  18 2.12   8 2.12  10 2.12
  45  0.250  0.500  0.450-  13 2.12   7 2.12  15 2.12  16 2.12  32 2.12  17 2.13
  46  0.500  0.750  0.450-  14 2.12   8 2.12  15 2.12  16 2.12  31 2.12  18 2.13
  47  0.250  0.750  0.351-  15 2.12  13 2.12  14 2.12   5 2.12  30 2.12
  48  0.500  0.500  0.351-  16 2.12  13 2.12  14 2.12   6 2.12  29 2.12
  49  0.249  0.500  0.650-  36 2.09  20 2.11  11 2.12  19 2.12  17 2.13
  50  0.498  0.752  0.651-  12 2.11  19 2.11  20 2.16  35 2.16  18 2.16
  51  0.251  0.750  0.550-  19 2.10  17 2.12   9 2.12  18 2.12  15 2.12  34 2.12
  52  0.500  0.500  0.550-  18 2.11  33 2.11  17 2.12  10 2.12  16 2.13  20 2.15
  53  0.750  0.000  0.450-  21 2.12   8 2.12  23 2.12  24 2.12  31 2.12  25 2.13
  54  0.000  0.250  0.450-  22 2.12   7 2.12  23 2.12  24 2.12  32 2.12  26 2.13
  55  0.750  0.250  0.351-  23 2.12  21 2.12  22 2.12   6 2.12  29 2.12
  56  0.000  0.000  0.351-  24 2.12  21 2.12  22 2.12   5 2.12  30 2.12
  57  0.750  0.001  0.650-  27 2.09  35 2.11  28 2.12  12 2.12  25 2.13
  58  0.000  0.250  0.651-  28 2.11  11 2.11  36 2.12  27 2.12  26 2.14
  59  0.750  0.251  0.550-  27 2.10  10 2.12  26 2.12  33 2.12  23 2.12  25 2.12
  60  0.000  0.000  0.550-  28 2.11  34 2.12  25 2.12   9 2.12  26 2.12  24 2.12
  61  0.750  0.500  0.450-  29 2.12  23 2.12  16 2.12  31 2.12  32 2.12  33 2.13
  62  0.000  0.750  0.450-  30 2.12  24 2.12  15 2.12  31 2.12  32 2.12  34 2.13
  63  0.750  0.750  0.351-  31 2.12  21 2.12  29 2.12  30 2.12  14 2.12
  64  0.000  0.500  0.351-  32 2.12  22 2.12  29 2.12  30 2.12  13 2.12
  65  0.752  0.498  0.651-  36 2.11  27 2.11  20 2.16  35 2.16  33 2.16
  66  0.001  0.750  0.650-  19 2.09  35 2.11  28 2.12  36 2.12  34 2.13
  67  0.750  0.750  0.550-  33 2.11  18 2.11  34 2.12  25 2.12  31 2.13  35 2.14
  68  1.000  0.500  0.550-  36 2.10  34 2.12  26 2.12  33 2.12  32 2.12  17 2.12

IMPORTANT INFORMATION: All symmetrisations will be switched off!
NOSYMM: (Re-)initialisation of all symmetry stuff for point group C_1.

                                     Primitive cell

  volume of cell :    1530.6606

  direct lattice vectors                    reciprocal lattice vectors
     8.467142631  0.000000000  0.000000000     0.118103597  0.000000000  0.000000000
     0.000000000  8.467142631  0.000000000     0.000000000  0.118103597  0.000000000
     0.000000000  0.000000000 21.350356973     0.000000000  0.000000000  0.046837624

  length of vectors
     8.467142631  8.467142631 21.350356973     0.118103597  0.118103597  0.046837624

  position of ions in fractional coordinates (direct lattice)
     0.547200145  0.547200072  0.753593784
     0.704005159  0.704005109  0.753398230
     0.520387496  0.520387397  0.806742586
     0.731383282  0.731383220  0.806456175
     0.250000000  0.000000000  0.351282183
     0.500000000  0.250000000  0.351282183
     0.250000000  0.250000000  0.450427394
     0.500000000  0.000000000  0.450427394
     0.250077680  0.000008961  0.550056497
     0.500031447  0.250465667  0.550269438
     0.249634973  0.249634968  0.648389504
     0.499684473  0.001668243  0.648310805
     0.250000000  0.500000000  0.351282183
     0.500000000  0.750000000  0.351282183
     0.250000000  0.750000000  0.450427394
     0.500000000  0.500000000  0.450427394
     0.250465665  0.500031447  0.550269442
     0.500598467  0.749470231  0.550093778
     0.248471357  0.750444499  0.648310874
     0.497704184  0.497704190  0.650940502
     0.750000000  0.000000000  0.351282183
     0.000000000  0.250000000  0.351282183
     0.750000000  0.250000000  0.450427394
     0.000000000  0.000000000  0.450427394
     0.750037726  0.999649832  0.550254008
     0.000008973  0.250077685  0.550056497
     0.750444492  0.248471358  0.648310869
     0.000511658  0.000511657  0.648375765
     0.750000000  0.500000000  0.351282183
     0.000000000  0.750000000  0.351282183
     0.750000000  0.750000000  0.450427394
     0.000000000  0.500000000  0.450427394
     0.749470246  0.500598467  0.550093776
     0.999649825  0.750037741  0.550254013
     0.752505500  0.752505520  0.650833694
     0.001668232  0.499684474  0.648310814
     0.250000000  0.000000000  0.450427394
     0.500000000  0.250000000  0.450427394
     0.250000000  0.250000000  0.351282183
     0.500000000  0.000000000  0.351282183
     0.249806872  0.000323331  0.650513307
     0.499824062  0.248754385  0.650261677
     0.250047117  0.250047113  0.549647183
     0.500068608  0.999551798  0.549750410
     0.250000000  0.500000000  0.450427394
     0.500000000  0.750000000  0.450427394
     0.250000000  0.750000000  0.351282183
     0.500000000  0.500000000  0.351282183
     0.248754383  0.499824058  0.650261689
     0.497920970  0.752231115  0.651110075
     0.250538065  0.749999301  0.549748806
     0.500381534  0.500381536  0.550425057
     0.750000000  0.000000000  0.450427394
     0.000000000  0.250000000  0.450427394
     0.750000000  0.250000000  0.351282183
     0.000000000  0.000000000  0.351282183
     0.750312327  0.001415846  0.650223025
     0.000323338  0.249806878  0.650513311
     0.749999306  0.250538075  0.549748802
     0.000036614  0.000036612  0.549638027
     0.750000000  0.500000000  0.450427394
     0.000000000  0.750000000  0.450427394
     0.750000000  0.750000000  0.351282183
     0.000000000  0.500000000  0.351282183
     0.752231108  0.497920959  0.651110074
     0.001415838  0.750312341  0.650223030
     0.749702416  0.749702412  0.550407763
     0.999551801  0.500068607  0.549750413

  ion indices of the primitive-cell ions
   primitive index   ion index
                 1           1
                 2           2
                 3           3
                 4           4
                 5           5
                 6           6
                 7           7
                 8           8
                 9           9
                10          10
                11          11
                12          12
                13          13
                14          14
                15          15
                16          16
                17          17
                18          18
                19          19
                20          20
                21          21
                22          22
                23          23
                24          24
[...]
   4.63322168  4.63322106 16.08949630
   5.96091209  5.96091167 16.08532115
   4.40619516  4.40619432 17.22424219
   6.19272657  6.19272604 17.21812722
   2.11678566  0.00000000  7.50000000
   4.23357132  2.11678566  7.50000000
   2.11678566  2.11678566  9.61678566
   4.23357132  0.00000000  9.61678566
   2.11744338  0.00007587 11.74390258
   4.23383758  2.12072853 11.74844893
   2.11369492  2.11369488 13.84334736
   4.23089971  0.01412525 13.84166712
   2.11678566  4.23357132  7.50000000
   4.23357132  6.35035697  7.50000000
   2.11678566  6.35035697  9.61678566
   4.23357132  4.23357132  9.61678566
   2.12072851  4.23383758 11.74844901
   4.23863862  6.34587134 11.74469853
   2.10384242  6.35412061 13.84166859
   4.21413231  4.21413236 13.89781209
   6.35035697  0.00000000  7.50000000
   0.00000000  2.11678566  7.50000000
   6.35035697  2.11678566  9.61678566
   0.00000000  0.00000000  9.61678566
   6.35067640  8.46417771 11.74811949
   0.00007598  2.11744343 11.74390257
   6.35412055  2.10384243 13.84166849
   0.00433228  0.00433227 13.84305403
   6.35035697  4.23357132  7.50000000
   0.00000000  6.35035697  7.50000000
   6.35035697  6.35035697  9.61678566
   0.00000000  4.23357132  9.61678566
   6.34587147  4.23863862 11.74469848
   8.46417764  6.35067653 11.74811961
   6.37157140  6.37157157 13.89553170
   0.01412516  4.23089971 13.84166732
   2.11678566  0.00000000  9.61678566
   4.23357132  2.11678566  9.61678566
   2.11678566  2.11678566  7.50000000
   4.23357132  0.00000000  7.50000000
   2.11515042  0.00273769 13.88869133
   4.23208162  2.10623886 13.88331894
   2.11718460  2.11718457 11.73516356
   4.23415223  8.46334764 11.73736749
   2.11678566  4.23357132  9.61678566
   4.23357132  6.35035697  9.61678566
   2.11678566  6.35035697  7.50000000
   4.23357132  4.23357132  7.50000000
   2.10623884  4.23208159 13.88331918
   4.21596787  6.36924814 13.90143254
   2.12134153  6.35035105 11.73733325
   4.23680182  4.23680184 11.75177146
   6.35035697  0.00000000  9.61678566
   0.00000000  2.11678566  9.61678566
   6.35035697  2.11678566  7.50000000
   0.00000000  0.00000000  7.50000000
   6.35300149  0.01198817 13.88249369
   0.00273775  2.11515047 13.88869140
   6.35035109  2.12134162 11.73733318
   0.00031001  0.00031000 11.73496808
   6.35035697  4.23357132  9.61678566
   0.00000000  6.35035697  9.61678566
   6.35035697  6.35035697  7.50000000
   0.00000000  4.23357132  7.50000000
   6.36924808  4.21596778 13.90143251
   0.01198811  6.35300161 13.88249381
   6.34783728  6.34783725 11.75140222
   8.46334767  4.23415222 11.73736757

--------------------------------------- Iteration      FINAL  ---------------------------------------

--------------------OUTCAR has been truncated-------------------------

[...]

--------------------OUTCAR has been truncated-------------------------

  DFT-D2 method for vdW energy calculation

  Parameters of vdW forcefield:
         C6(Jnm^6/mol)     R0(A)
   N        1.230          1.397
   O        0.700          1.342
   Mg       0.630          1.243
   O        0.700          1.342

  vdW correction parametrized for the method Pþ      

  IVDW =   1
  VDW_RADIUS =    50.000 A
  VDW_S6 =     1.050
  VDW_SR =     1.000
  VDW_D =    20.000
  LVDW_EWALD = F

  Number of pair interactions contributing to vdW energy:  810100
  Edisp (eV):   -5.24736

 VOLUME and BASIS-vectors are now :
  energy-cutoff  :      600.00
  volume of cell :     1530.66
      direct lattice vectors                 reciprocal lattice vectors
     8.467142631  0.000000000  0.000000000     0.118103597  0.000000000  0.000000000
     0.000000000  8.467142631  0.000000000     0.000000000  0.118103597  0.000000000
     0.000000000  0.000000000 21.350356973     0.000000000  0.000000000  0.046837624

  length of vectors
     8.467142631  8.467142631 21.350356973     0.118103597  0.118103597  0.046837624

 FORCES acting on ions:
    Electron-Ion                     Ewald-Force                    Non-Local-Force
   0.469E+02 0.469E+02 -.110E+04   -.453E+02 -.453E+02 0.106E+04   -.157E+01 -.157E+01 0.390E+02
   -.459E+02 -.459E+02 -.110E+04   0.441E+02 0.441E+02 0.106E+04   0.173E+01 0.173E+01 0.389E+02
   0.137E+03 0.137E+03 -.159E+04   -.150E+03 -.150E+03 0.165E+04   0.117E+02 0.117E+02 -.529E+02
   -.138E+03 -.138E+03 -.160E+04   0.151E+03 0.151E+03 0.165E+04   -.120E+02 -.120E+02 -.528E+02
   0.200E+00 -.210E+00 0.208E+04   -.203E+00 0.212E+00 -.208E+04   0.139E-02 -.163E-02 -.638E+01
   0.210E+00 0.216E+00 0.208E+04   -.212E+00 -.216E+00 -.208E+04   0.158E-02 0.654E-04 -.638E+01
   0.668E+00 0.668E+00 0.753E+03   -.668E+00 -.668E+00 -.753E+03   0.380E-03 0.384E-03 0.367E+00
   0.713E+00 -.136E+01 0.754E+03   -.713E+00 0.137E+01 -.754E+03   0.919E-03 0.119E-03 0.379E+00
   0.406E+01 -.414E+01 -.576E+03   -.401E+01 0.410E+01 0.576E+03   -.292E-01 0.275E-01 -.168E+00
   0.420E+01 0.658E+01 -.565E+03   -.416E+01 -.645E+01 0.566E+03   -.274E-01 -.116E+00 -.385E+00
   0.217E+02 0.217E+02 -.192E+04   -.220E+02 -.220E+02 0.192E+04   0.185E+00 0.185E+00 0.550E+01
   0.238E+02 -.276E+02 -.190E+04   -.240E+02 0.279E+02 0.189E+04   0.182E+00 -.353E+00 0.556E+01
   0.216E+00 0.210E+00 0.208E+04   -.216E+00 -.212E+00 -.208E+04   0.608E-04 0.159E-02 -.638E+01
   0.227E+00 -.217E+00 0.208E+04   -.227E+00 0.217E+00 -.208E+04   -.140E-03 0.163E-03 -.637E+01
   0.133E+01 -.663E+00 0.754E+03   -.132E+01 0.665E+00 -.754E+03   -.341E-02 -.176E-02 0.379E+00
   0.136E+01 0.136E+01 0.754E+03   -.137E+01 -.137E+01 -.755E+03   0.330E-02 0.330E-02 0.588E+00
   0.658E+01 0.420E+01 -.565E+03   -.645E+01 -.416E+01 0.566E+03   -.116E+00 -.274E-01 -.385E+00
   0.654E+01 -.642E+01 -.556E+03   -.645E+01 0.632E+01 0.555E+03   -.890E-01 0.967E-01 0.121E+00
   0.272E+02 -.235E+02 -.190E+04   -.276E+02 0.238E+02 0.189E+04   0.361E+00 -.180E+00 0.556E+01
   0.427E+02 0.427E+02 -.178E+04   -.434E+02 -.434E+02 0.178E+04   0.690E+00 0.690E+00 0.346E+01
   -.200E+00 -.225E+00 0.208E+04   0.203E+00 0.226E+00 -.208E+04   -.156E-02 -.340E-03 -.638E+01
   -.210E+00 0.200E+00 0.208E+04   0.212E+00 -.203E+00 -.208E+04   -.163E-02 0.138E-02 -.638E+01
   -.663E+00 0.133E+01 0.754E+03   0.665E+00 -.132E+01 -.754E+03   -.176E-02 -.341E-02 0.379E+00
   -.703E+00 -.703E+00 0.753E+03   0.708E+00 0.708E+00 -.753E+03   -.342E-02 -.342E-02 0.363E+00
   -.411E+01 -.669E+01 -.565E+03   0.407E+01 0.657E+01 0.565E+03   0.286E-01 0.107E+00 -.390E+00
   -.414E+01 0.406E+01 -.576E+03   0.410E+01 -.401E+01 0.576E+03   0.275E-01 -.292E-01 -.168E+00
   -.235E+02 0.272E+02 -.190E+04   0.238E+02 -.276E+02 0.189E+04   -.180E+00 0.361E+00 0.556E+01
   -.220E+02 -.220E+02 -.192E+04   0.222E+02 0.222E+02 0.192E+04   -.187E+00 -.187E+00 0.550E+01
   -.217E+00 0.227E+00 0.208E+04   0.217E+00 -.227E+00 -.208E+04   0.144E-03 -.152E-03 -.637E+01
   -.225E+00 -.200E+00 0.208E+04   0.226E+00 0.203E+00 -.208E+04   -.334E-03 -.157E-02 -.638E+01
   -.131E+01 -.131E+01 0.755E+03   0.132E+01 0.132E+01 -.755E+03   -.462E-02 -.461E-02 0.585E+00
   -.136E+01 0.713E+00 0.754E+03   0.137E+01 -.713E+00 -.754E+03   0.119E-03 0.925E-03 0.379E+00
   -.642E+01 0.654E+01 -.556E+03   0.632E+01 -.645E+01 0.555E+03   0.967E-01 -.890E-01 0.121E+00
   -.669E+01 -.411E+01 -.565E+03   0.657E+01 0.407E+01 0.565E+03   0.107E+00 0.286E-01 -.390E+00
   -.422E+02 -.422E+02 -.178E+04   0.429E+02 0.429E+02 0.177E+04   -.700E+00 -.700E+00 0.342E+01
   -.276E+02 0.238E+02 -.190E+04   0.279E+02 -.240E+02 0.189E+04   -.353E+00 0.182E+00 0.556E+01
   0.595E+00 -.619E+00 0.564E+03   -.601E+00 0.620E+00 -.564E+03   0.689E-02 -.183E-02 -.993E-01
   0.622E+00 0.719E+00 0.564E+03   -.625E+00 -.760E+00 -.564E+03   0.416E-02 0.500E-01 -.107E+00
   0.131E+00 0.131E+00 0.156E+04   -.133E+00 -.133E+00 -.157E+04   0.160E-02 0.159E-02 0.313E+01
   0.139E+00 -.194E+00 0.156E+04   -.140E+00 0.195E+00 -.157E+04   0.194E-02 -.224E-02 0.313E+01
   0.111E+02 -.112E+02 -.147E+04   -.109E+02 0.111E+02 0.147E+04   -.145E+00 0.143E+00 -.460E+01
   0.127E+02 0.318E+02 -.143E+04   -.126E+02 -.316E+02 0.144E+04   -.127E+00 -.203E+00 -.452E+01
   0.372E+01 0.372E+01 -.424E+03   -.372E+01 -.372E+01 0.424E+03   0.316E-03 0.312E-03 0.359E+00
   0.384E+01 -.438E+01 -.418E+03   -.384E+01 0.436E+01 0.418E+03   -.304E-02 0.463E-01 0.368E+00
   0.719E+00 0.622E+00 0.564E+03   -.760E+00 -.625E+00 -.564E+03   0.500E-01 0.415E-02 -.107E+00
   0.761E+00 -.724E+00 0.567E+03   -.813E+00 0.772E+00 -.567E+03   0.636E-01 -.586E-01 -.856E-01
   0.186E+00 -.132E+00 0.156E+04   -.188E+00 0.133E+00 -.157E+04   0.214E-02 -.153E-02 0.313E+01
   0.194E+00 0.194E+00 0.156E+04   -.196E+00 -.196E+00 -.157E+04   0.183E-02 0.184E-02 0.314E+01
   0.318E+02 0.127E+02 -.143E+04   -.316E+02 -.126E+02 0.144E+04   -.203E+00 -.127E+00 -.452E+01
   0.412E+02 -.408E+02 -.137E+04   -.408E+02 0.405E+02 0.138E+04   -.318E+00 0.312E+00 -.394E+01
   0.428E+01 -.376E+01 -.418E+03   -.425E+01 0.376E+01 0.418E+03   -.470E-01 0.566E-03 0.367E+00
   0.443E+01 0.443E+01 -.417E+03   -.443E+01 -.443E+01 0.417E+03   -.129E-01 -.129E-01 -.185E+00
   -.586E+00 -.739E+00 0.564E+03   0.585E+00 0.775E+00 -.564E+03   -.279E-04 -.439E-01 -.104E+00
   -.619E+00 0.595E+00 0.564E+03   0.620E+00 -.601E+00 -.564E+03   -.183E-02 0.689E-02 -.993E-01
   -.132E+00 0.186E+00 0.156E+04   0.133E+00 -.188E+00 -.157E+04   -.153E-02 0.213E-02 0.313E+01
   -.139E+00 -.139E+00 0.156E+04   0.140E+00 0.140E+00 -.157E+04   -.174E-02 -.174E-02 0.313E+01
   -.126E+02 -.322E+02 -.143E+04   0.124E+02 0.320E+02 0.144E+04   0.126E+00 0.199E+00 -.452E+01
   -.112E+02 0.111E+02 -.147E+04   0.111E+02 -.109E+02 0.147E+04   0.143E+00 -.145E+00 -.460E+01
   -.376E+01 0.428E+01 -.418E+03   0.376E+01 -.425E+01 0.418E+03   0.566E-03 -.470E-01 0.367E+00
   -.380E+01 -.380E+01 -.424E+03   0.380E+01 0.380E+01 0.423E+03   0.127E-02 0.127E-02 0.358E+00
   -.724E+00 0.761E+00 0.567E+03   0.772E+00 -.813E+00 -.567E+03   -.586E-01 0.635E-01 -.856E-01
   -.739E+00 -.586E+00 0.564E+03   0.775E+00 0.585E+00 -.564E+03   -.439E-01 -.252E-04 -.104E+00
   -.187E+00 -.187E+00 0.156E+04   0.188E+00 0.188E+00 -.157E+04   -.141E-02 -.141E-02 0.314E+01
   -.194E+00 0.139E+00 0.156E+04   0.195E+00 -.140E+00 -.157E+04   -.223E-02 0.194E-02 0.313E+01
   -.408E+02 0.412E+02 -.137E+04   0.405E+02 -.408E+02 0.138E+04   0.312E+00 -.318E+00 -.394E+01
   -.322E+02 -.126E+02 -.143E+04   0.320E+02 0.124E+02 0.144E+04   0.199E+00 0.126E+00 -.452E+01
   -.434E+01 -.434E+01 -.416E+03   0.434E+01 0.434E+01 0.417E+03   0.108E-01 0.108E-01 -.163E+00
   -.438E+01 0.384E+01 -.418E+03   0.436E+01 -.384E+01 0.418E+03   0.463E-01 -.304E-02 0.368E+00
   0.980E-01 0.981E-01 0.554E+02   0.256E-12 0.142E-12 -.250E-11   -.798E-01 -.798E-01 -.460E+02

 POSITION                                       TOTAL-FORCE (eV/Angst)
      4.63322      4.63322     16.08950        -0.053197     -0.053194      1.581497
      5.96091      5.96091     16.08532         0.064941      0.064951      1.574460
      4.40620      4.40619     17.22424         0.289855      0.289853     -1.458749
      6.19273      6.19273     17.21813        -0.306245     -0.306237     -1.459538
      2.11679      0.00000      7.50000        -0.000580      0.000629      0.512100
      4.23357      2.11679      7.50000        -0.000631     -0.000258      0.510146
      2.11679      2.11679      9.61679         0.000480      0.000480      0.026193
      4.23357      0.00000      9.61679         0.000308      0.001347      0.039236
      2.11744      0.00008     11.74390         0.011825     -0.012231     -0.031880
      4.23384      2.12073     11.74845         0.012712      0.001027     -0.036804
      2.11369      2.11369     13.84335        -0.016104     -0.016101     -0.112226
      4.23090      0.01413     13.84167        -0.021466     -0.047817     -0.138893
      2.11679      4.23357      7.50000        -0.000263     -0.000635      0.510113
      4.23357      6.35036      7.50000        -0.000189      0.000162      0.508869
      2.11679      6.35036      9.61679         0.000269      0.000225      0.039038
      4.23357      4.23357      9.61679        -0.003874     -0.003882      0.035339
      2.12073      4.23384     11.74845         0.001029      0.012707     -0.036803
      4.23864      6.34587     11.74470        -0.007010      0.006153      0.032772
      2.10384      6.35412     13.84167         0.047129      0.021376     -0.139027
      4.21413      4.21413     13.89781         0.014539      0.014542     -0.261607
      6.35036      0.00000      7.50000         0.000602      0.000322      0.510002
      0.00000      2.11679      7.50000         0.000628     -0.000587      0.512099
      6.35036      2.11679      9.61679         0.000226      0.000271      0.039025
      0.00000      0.00000      9.61679         0.000933      0.000932      0.026023
      6.35068      8.46418     11.74812        -0.012349     -0.000634     -0.036622
      0.00008      2.11744     11.74390        -0.012226      0.011823     -0.031872
      6.35412      2.10384     13.84167         0.021380      0.047129     -0.138981
      0.00433      0.00433     13.84305         0.015372      0.015371     -0.112444
      6.35036      4.23357      7.50000         0.000141     -0.000198      0.508877
      0.00000      6.35036      7.50000         0.000331      0.000607      0.509948
      6.35036      6.35036      9.61679         0.004705      0.004717      0.034639
      0.00000      4.23357      9.61679         0.001352      0.000305      0.039257
      6.34587      4.23864     11.74470         0.006147     -0.007018      0.032778
      8.46418      6.35068     11.74812        -0.000630     -0.012345     -0.036630
      6.37157      6.37157     13.89553        -0.015859     -0.015864     -0.259094
      0.01413      4.23090     13.84167        -0.047814     -0.021465     -0.138918
      2.11679      0.00000      9.61679         0.002513     -0.001048      0.037638
      4.23357      2.11679      9.61679         0.001908      0.015794      0.058732
      2.11679      2.11679      7.50000         0.000524      0.000539     -0.395088
      4.23357      0.00000      7.50000         0.000645     -0.000740     -0.393346
      2.11515      0.00274     13.88869        -0.017968      0.017903     -0.096178
      4.23208      2.10624     13.88332        -0.012327      0.015014     -0.064371
      2.11718      2.11718     11.73516        -0.000324     -0.000310      0.039037
      4.23415      8.46335     11.73737        -0.000187      0.029659      0.019021
      2.11679      4.23357      9.61679         0.015792      0.001906      0.058735
      4.23357      6.35036      9.61679         0.019957     -0.018481      0.047457
      2.11679      6.35036      7.50000         0.000686     -0.000537     -0.393331
      4.23357      4.23357      7.50000         0.000557      0.000566     -0.392202
      2.10624      4.23208     13.88332         0.015015     -0.012332     -0.064381
      4.21597      6.36925     13.90143         0.006100     -0.006603     -0.062985
      2.12134      6.35035     11.73733        -0.029587      0.000081      0.018944
      4.23680      4.23680     11.75177        -0.017042     -0.017030      0.005582
      6.35036      0.00000      9.61679        -0.000728     -0.014085      0.058321
      0.00000      2.11679      9.61679        -0.001040      0.002509      0.037636
      6.35036      2.11679      7.50000        -0.000535      0.000690     -0.393305
      0.00000      0.00000      7.50000        -0.000585     -0.000598     -0.395000
      6.35300      0.01199     13.88249         0.011885     -0.016123     -0.063887
      0.00274      2.11515     13.88869         0.017906     -0.017975     -0.096177
      6.35035      2.12134     11.73733         0.000071     -0.029579      0.018937
      0.00031      0.00031     11.73497         0.000358      0.000347      0.038953
      6.35036      4.23357      9.61679        -0.018493      0.019952      0.047456
      0.00000      6.35036      9.61679        -0.014078     -0.000721      0.058328
      6.35036      6.35036      7.50000        -0.000441     -0.000443     -0.392048
      0.00000      4.23357      7.50000        -0.000731      0.000642     -0.393379
      6.36925      4.21597     13.90143        -0.006595      0.006103     -0.062986
      0.01199      6.35300     13.88249        -0.016119      0.011886     -0.063905
      6.34784      6.34784     11.75140         0.016734      0.016728      0.006439
      8.46335      4.23415     11.73737         0.029663     -0.000181      0.019031
    total drift:                                0.000837      0.000875      0.018431

  FREE ENERGIE OF THE ION-ELECTRON SYSTEM (eV)
  free  energy   TOTEN  =      -470.38345903 eV

  energy  without entropy=     -470.38345903  energy(sigma->0) =     -470.38345903