 vasp.6.3.0 20Jan22 (build Mar 11 2022 13:48:16) complex

 executed on             LinuxIFC date 2024.08.21  22:57:35

 INCAR:
   SYSTEM = MgO-rocksalt
   ISMEAR = 0
   SIGMA = 0.05
   EDIFF = 1E-7
   ALGO = Normal
   ISTART = 0
   IBRION = 2
   NSW = 1000
   ISYM = 2
   ISIF = 3
   EDIFFG = -0.005
   LHFCALC = .TRUE.
   HFSCREEN = 0.2
   GGA = PE
   IVDW = 13
   VDW_S8 = 1.19528249
   VDW_A1 = 0.38663183
   VDW_A2 = 5.19133469
   ENCUT = 600
   PREC = Accurate
   LASPH = .TRUE.
   LREAL = .FALSE.
   ISPIN = 1
   NELM = 200
   NELMIN = 8
   NCORE = 8
   KPAR = 1
   LWAVE = .FALSE.
   LCHARG = .FALSE.

 POTCAR:    PAW_PBE Ti_pv 07Sep2000
 POTCAR:    PAW_PBE O 08Apr2002
|           W    W    AA    RRRRR   N    N  II  N    N   GGGG   !!!           |
|           W    W   A  A   R    R  NN   N  II  NN   N  G    G  !!!           |
|           W    W  A    A  R    R  N N  N  II  N N  N  G       !!!           |
|           W WW W  AAAAAA  RRRRR   N  N N  II  N  N N  G  GGG   !            |
|           WW  WW  A    A  R   R   N   NN  II  N   NN  G    G                |
|           W    W  A    A  R    R  N    N  II  N    N   GGGG   !!!           |
|     For optimal performance we recommend to set                             |
|       NCORE = 2 up to number-of-cores-per-socket                            |
|     This setting can greatly improve the performance of VASP for DFT.       |
|     The default, NCORE=1 might be grossly inefficient on modern             |
|     multi-core architectures or massively parallel machines. Do your        |
|     Unfortunately you need to use the default for GW and RPA                |
|     calculations (for HF NCORE is supported but not extensively tested      |
|     yet).                                                                   |

   TITEL  = PAW_PBE Ti_pv 07Sep2000
   POMASS =   47.880; ZVAL   =   10.000    mass and valenz
   ENMAX  =  222.335; ENMIN  =  166.751 eV

   TITEL  = PAW_PBE O 08Apr2002
   POMASS =   16.000; ZVAL   =    6.000    mass and valenz
   ENMAX  =  400.000; ENMIN  =  300.000 eV

  PAW_PBE Ti_pv 07Sep2000               :
  PAW_PBE O 08Apr2002                   :

 POSCAR: Ti2 O4
  positions in direct lattice
  velocities in cartesian coordinates
|           W    W    AA    RRRRR   N    N  II  N    N   GGGG   !!!           |
|           W    W   A  A   R    R  NN   N  II  NN   N  G    G  !!!           |
|           W    W  A    A  R    R  N N  N  II  N N  N  G       !!!           |
|           W WW W  AAAAAA  RRRRR   N  N N  II  N  N N  G  GGG   !            |
|           WW  WW  A    A  R   R   N   NN  II  N   NN  G    G                |
|           W    W  A    A  R    R  N    N  II  N    N   GGGG   !!!           |
|     Specifying the vdW parameters                                           |
|     VDW_S8 = 1.195                                                          |
|     VDW_A1 = 0.387                                                          |
|     VDW_A2 = 5.191                                                          |
|     in the INCAR file will overwrite the defaults for hse06. Please         |
|     make sure that is what you intended.                                    |

 ion  position               nearest neighbor table
   1  0.500  0.500  0.000-   6 1.94   3 1.94   3 1.94   6 1.94   5 1.96   4 1.96
   2  0.000  0.000  0.500-   4 1.94   5 1.94   4 1.94   5 1.94   3 1.96   6 1.96
   3  0.695  0.695  0.500-   1 1.94   1 1.94   2 1.96
   4  0.195  0.805  0.000-   2 1.94   2 1.94   1 1.96
   5  0.805  0.195  0.000-   2 1.94   2 1.94   1 1.96
   6  0.305  0.305  0.500-   1 1.94   1 1.94   2 1.96

  LATTYP: Found a simple tetragonal cell.
 ALAT       =     4.5585391730
 C/A-ratio  =     0.6450480720

  Lattice vectors:

 A1 = (   4.5585391730,   0.0000000000,   0.0000000000)
 A2 = (   0.0000000000,   4.5585391730,   0.0000000000)
 A3 = (   0.0000000000,   0.0000000000,   2.9404769045)

Analysis of symmetry for initial positions (statically):
 Subroutine PRICEL returns:
 Original cell was already a primitive cell.

 Routine SETGRP: Setting up the symmetry group for a
 simple tetragonal supercell.

 Subroutine GETGRP returns: Found 16 space group operations
 (whereof  8 operations were pure point group operations)
 out of a pool of 16 trial point group operations.

The static configuration has the point symmetry D_2h.
 The point group associated with its full space group is D_4h.

Analysis of symmetry for dynamics (positions and initial velocities):
 Subroutine PRICEL returns:
 Original cell was already a primitive cell.

 Routine SETGRP: Setting up the symmetry group for a
 simple tetragonal supercell.

 Subroutine GETGRP returns: Found 16 space group operations
 (whereof  8 operations were pure point group operations)
 out of a pool of 16 trial point group operations.

The dynamic configuration has the point symmetry D_2h.
 The point group associated with its full space group is D_4h.

 Subroutine INISYM returns: Found 16 space group operations
 (whereof  8 operations are pure point group operations),
 and found     1 'primitive' translations

                                     Primitive cell

  volume of cell :      61.1039

  direct lattice vectors                    reciprocal lattice vectors
     4.558539173  0.000000000  0.000000000     0.219368522 -0.000000000  0.000000000
     0.000000000  4.558539173  0.000000000     0.000000000  0.219368522  0.000000000
     0.000000000  0.000000000  2.940476904    -0.000000000 -0.000000000  0.340080889

  length of vectors
     4.558539173  4.558539173  2.940476904     0.219368522  0.219368522  0.340080889

  position of ions in fractional coordinates (direct lattice)
     0.500000000  0.500000000  1.000000000
     0.000000000  0.000000000  0.500000000
     0.695360640  0.695360640  0.500000000
     0.195360640  0.804639360  1.000000000
     0.804639360  0.195360640  1.000000000
     0.304639360  0.304639360  0.500000000

  ion indices of the primitive-cell ions
   primitive index   ion index
                 1           1
                 2           2
                 3           3
                 4           4
                 5           5
                 6           6

 KPOINTS: pymatgen v2020.8.13 with grid density =

Automatic generation of k-mesh.
 Grid dimensions read from file:
 generate k-points for:    5    5    8

 Generating k-lattice:

  Cartesian coordinates                     Fractional coordinates (reciprocal lattice)
     0.043873704 -0.000000000  0.000000000     0.200000000  0.000000000  0.000000000
     0.000000000  0.043873704  0.000000000     0.000000000  0.200000000  0.000000000
    -0.000000000 -0.000000000  0.042510111    -0.000000000 -0.000000000  0.125000000

  Length of vectors
     0.043873704  0.043873704  0.042510111

  Shift w.r.t. Gamma in fractional coordinates (k-lattice)
     0.000000000  0.000000000  0.000000000

 Subroutine IBZKPT returns following result:

 Found     30 irreducible k-points:

 Following reciprocal coordinates:
            Coordinates               Weight
  0.000000  0.000000  0.000000      1.000000
  0.200000  0.000000  0.000000      4.000000
  0.400000  0.000000  0.000000      4.000000
  0.200000  0.200000  0.000000      4.000000
  0.400000  0.200000  0.000000      8.000000
  0.400000  0.400000  0.000000      4.000000
  0.000000  0.000000  0.125000      2.000000
  0.200000 -0.000000  0.125000      8.000000
  0.400000  0.000000  0.125000      8.000000
  0.200000  0.200000  0.125000      8.000000
  0.400000  0.200000  0.125000     16.000000
  0.400000  0.400000  0.125000      8.000000
  0.000000  0.000000  0.250000      2.000000
  0.200000  0.000000  0.250000      8.000000
  0.400000  0.000000  0.250000      8.000000
  0.200000  0.200000  0.250000      8.000000
  0.400000  0.200000  0.250000     16.000000
  0.400000  0.400000  0.250000      8.000000
  0.000000  0.000000  0.375000      2.000000
  0.200000  0.000000  0.375000      8.000000
  0.400000  0.000000  0.375000      8.000000
  0.200000  0.200000  0.375000      8.000000
  0.400000  0.200000  0.375000     16.000000
  0.400000  0.400000  0.375000      8.000000
  0.000000  0.000000  0.500000      1.000000
  0.200000  0.000000  0.500000      4.000000
  0.400000  0.000000  0.500000      4.000000
  0.200000  0.200000  0.500000      4.000000
  0.400000  0.200000  0.500000      8.000000
  0.400000  0.400000  0.500000      4.000000

 Following cartesian coordinates:
            Coordinates               Weight
  0.000000  0.000000  0.000000      1.000000
  0.043874 -0.000000  0.000000      4.000000
  0.087747 -0.000000  0.000000      4.000000
  0.043874  0.043874  0.000000      4.000000
  0.087747  0.043874  0.000000      8.000000
  0.087747  0.087747  0.000000      4.000000
 -0.000000 -0.000000  0.042510      2.000000
  0.043874 -0.000000  0.042510      8.000000
  0.087747 -0.000000  0.042510      8.000000
  0.043874  0.043874  0.042510      8.000000
  0.087747  0.043874  0.042510     16.000000
  0.087747  0.087747  0.042510      8.000000
 -0.000000 -0.000000  0.085020      2.000000
  0.043874 -0.000000  0.085020      8.000000
  0.087747 -0.000000  0.085020      8.000000
  0.043874  0.043874  0.085020      8.000000
  0.087747  0.043874  0.085020     16.000000
  0.087747  0.087747  0.085020      8.000000
 -0.000000 -0.000000  0.127530      2.000000
  0.043874 -0.000000  0.127530      8.000000
  0.087747 -0.000000  0.127530      8.000000
  0.043874  0.043874  0.127530      8.000000
  0.087747  0.043874  0.127530     16.000000
  0.087747  0.087747  0.127530      8.000000
 -0.000000 -0.000000  0.170040      1.000000
  0.043874 -0.000000  0.170040      4.000000
  0.087747 -0.000000  0.170040      4.000000
  0.043874  0.043874  0.170040      4.000000
  0.087747  0.043874  0.170040      8.000000
  0.087747  0.087747  0.170040      4.000000

 Subroutine IBZKPT_HF returns following result:

 Found    200 k-points in 1st BZ
 the following    200 k-points will be used (e.g. in the exchange kernel)
 Following reciprocal coordinates:   # in IRBZ
  0.000000  0.000000  0.000000    0.00500000   1 t-inv F
  0.200000  0.000000  0.000000    0.00500000   2 t-inv F
  0.400000  0.000000  0.000000    0.00500000   3 t-inv F
  0.200000  0.200000  0.000000    0.00500000   4 t-inv F
  0.400000  0.200000  0.000000    0.00500000   5 t-inv F
  0.400000  0.400000  0.000000    0.00500000   6 t-inv F
  0.000000  0.000000  0.125000    0.00500000   7 t-inv F
  0.200000 -0.000000  0.125000    0.00500000   8 t-inv F
  0.400000  0.000000  0.125000    0.00500000   9 t-inv F
  0.200000  0.200000  0.125000    0.00500000  10 t-inv F
  0.400000  0.200000  0.125000    0.00500000  11 t-inv F
  0.400000  0.400000  0.125000    0.00500000  12 t-inv F
  0.000000  0.000000  0.250000    0.00500000  13 t-inv F
  0.200000  0.000000  0.250000    0.00500000  14 t-inv F
  0.400000  0.000000  0.250000    0.00500000  15 t-inv F
  0.200000  0.200000  0.250000    0.00500000  16 t-inv F
  0.400000  0.200000  0.250000    0.00500000  17 t-inv F
  0.400000  0.400000  0.250000    0.00500000  18 t-inv F
  0.000000  0.000000  0.375000    0.00500000  19 t-inv F
  0.200000  0.000000  0.375000    0.00500000  20 t-inv F
  0.400000  0.000000  0.375000    0.00500000  21 t-inv F
  0.200000  0.200000  0.375000    0.00500000  22 t-inv F
  0.400000  0.200000  0.375000    0.00500000  23 t-inv F
  0.400000  0.400000  0.375000    0.00500000  24 t-inv F
  0.000000  0.000000  0.500000    0.00500000  25 t-inv F
  0.200000  0.000000  0.500000    0.00500000  26 t-inv F
  0.400000  0.000000  0.500000    0.00500000  27 t-inv F
  0.200000  0.200000  0.500000    0.00500000  28 t-inv F
  0.400000  0.200000  0.500000    0.00500000  29 t-inv F
  0.400000  0.400000  0.500000    0.00500000  30 t-inv F
 -0.200000 -0.000000  0.000000    0.00500000   2 t-inv F
  0.000000  0.200000  0.000000    0.00500000   2 t-inv F
 -0.000000 -0.200000  0.000000    0.00500000   2 t-inv F
 -0.400000 -0.000000  0.000000    0.00500000   3 t-inv F
  0.000000  0.400000  0.000000    0.00500000   3 t-inv F
 -0.000000 -0.400000  0.000000    0.00500000   3 t-inv F
 -0.200000 -0.200000  0.000000    0.00500000   4 t-inv F
 -0.200000  0.200000  0.000000    0.00500000   4 t-inv F
  0.200000 -0.200000  0.000000    0.00500000   4 t-inv F
 -0.400000 -0.200000  0.000000    0.00500000   5 t-inv F
  0.200000  0.400000  0.000000    0.00500000   5 t-inv F
 -0.200000 -0.400000  0.000000    0.00500000   5 t-inv F
 -0.200000  0.400000  0.000000    0.00500000   5 t-inv F
  0.200000 -0.400000  0.000000    0.00500000   5 t-inv F
 -0.400000  0.200000  0.000000    0.00500000   5 t-inv F
  0.400000 -0.200000  0.000000    0.00500000   5 t-inv F
 -0.400000 -0.400000  0.000000    0.00500000   6 t-inv F
 -0.400000  0.400000  0.000000    0.00500000   6 t-inv F
  0.400000 -0.400000  0.000000    0.00500000   6 t-inv F
 -0.000000 -0.000000 -0.125000    0.00500000   7 t-inv F
 -0.200000  0.000000 -0.125000    0.00500000   8 t-inv F
 -0.200000  0.000000  0.125000    0.00500000   8 t-inv F
  0.200000 -0.000000 -0.125000    0.00500000   8 t-inv F
 -0.000000  0.200000 -0.125000    0.00500000   8 t-inv F
  0.000000 -0.200000  0.125000    0.00500000   8 t-inv F
  0.000000 -0.200000 -0.125000    0.00500000   8 t-inv F
 -0.000000  0.200000  0.125000    0.00500000   8 t-inv F
 -0.400000 -0.000000 -0.125000    0.00500000   9 t-inv F
 -0.400000 -0.000000  0.125000    0.00500000   9 t-inv F
  0.400000  0.000000 -0.125000    0.00500000   9 t-inv F
[...]
  0.000000  0.400000 -0.500000    0.00500000  27 t-inv F
 -0.000000 -0.400000  0.500000    0.00500000  27 t-inv F
 -0.200000 -0.200000 -0.500000    0.00500000  28 t-inv F
 -0.200000  0.200000  0.500000    0.00500000  28 t-inv F
  0.200000 -0.200000 -0.500000    0.00500000  28 t-inv F
 -0.400000 -0.200000 -0.500000    0.00500000  29 t-inv F
  0.200000  0.400000 -0.500000    0.00500000  29 t-inv F
 -0.200000 -0.400000  0.500000    0.00500000  29 t-inv F
 -0.200000  0.400000  0.500000    0.00500000  29 t-inv F
  0.200000 -0.400000 -0.500000    0.00500000  29 t-inv F
 -0.400000  0.200000 -0.500000    0.00500000  29 t-inv F
  0.400000 -0.200000  0.500000    0.00500000  29 t-inv F
 -0.400000 -0.400000 -0.500000    0.00500000  30 t-inv F
 -0.400000  0.400000  0.500000    0.00500000  30 t-inv F
  0.400000 -0.400000 -0.500000    0.00500000  30 t-inv F

 SYSTEM =  MgO-rocksalt
 POSCAR =  Ti2 O4

  energy-cutoff  :      600.00
  volume of cell :       61.10
      direct lattice vectors                 reciprocal lattice vectors
     4.558539173  0.000000000  0.000000000     0.219368522 -0.000000000  0.000000000
     0.000000000  4.558539173  0.000000000     0.000000000  0.219368522  0.000000000
     0.000000000  0.000000000  2.940476904    -0.000000000 -0.000000000  0.340080889

[...]

 k-points in units of 2pi/SCALE and weight: pymatgen v2020.8.13 with grid density =
   0.00000000  0.00000000  0.00000000       0.005
   0.04387370 -0.00000000  0.00000000       0.020
   0.08774741 -0.00000000  0.00000000       0.020
   0.04387370  0.04387370  0.00000000       0.020
   0.08774741  0.04387370  0.00000000       0.040
   0.08774741  0.08774741  0.00000000       0.020
  -0.00000000 -0.00000000  0.04251011       0.010
   0.04387370 -0.00000000  0.04251011       0.040
   0.08774741 -0.00000000  0.04251011       0.040
   0.04387370  0.04387370  0.04251011       0.040
   0.08774741  0.04387370  0.04251011       0.080
   0.08774741  0.08774741  0.04251011       0.040
  -0.00000000 -0.00000000  0.08502022       0.010
   0.04387370 -0.00000000  0.08502022       0.040
   0.08774741 -0.00000000  0.08502022       0.040
   0.04387370  0.04387370  0.08502022       0.040
   0.08774741  0.04387370  0.08502022       0.080
   0.08774741  0.08774741  0.08502022       0.040
  -0.00000000 -0.00000000  0.12753033       0.010
   0.04387370 -0.00000000  0.12753033       0.040
   0.08774741 -0.00000000  0.12753033       0.040
   0.04387370  0.04387370  0.12753033       0.040
   0.08774741  0.04387370  0.12753033       0.080
   0.08774741  0.08774741  0.12753033       0.040
  -0.00000000 -0.00000000  0.17004044       0.005
   0.04387370 -0.00000000  0.17004044       0.020
   0.08774741 -0.00000000  0.17004044       0.020
   0.04387370  0.04387370  0.17004044       0.020
   0.08774741  0.04387370  0.17004044       0.040
   0.08774741  0.08774741  0.17004044       0.020

 k-points in reciprocal lattice and weights: pymatgen v2020.8.13 with grid density =
   0.00000000  0.00000000  0.00000000       0.005
   0.20000000  0.00000000  0.00000000       0.020
   0.40000000  0.00000000  0.00000000       0.020
   0.20000000  0.20000000  0.00000000       0.020
   0.40000000  0.20000000  0.00000000       0.040
   0.40000000  0.40000000  0.00000000       0.020
   0.00000000  0.00000000  0.12500000       0.010
   0.20000000 -0.00000000  0.12500000       0.040
   0.40000000  0.00000000  0.12500000       0.040
   0.20000000  0.20000000  0.12500000       0.040
   0.40000000  0.20000000  0.12500000       0.080
   0.40000000  0.40000000  0.12500000       0.040
   0.00000000  0.00000000  0.25000000       0.010
   0.20000000  0.00000000  0.25000000       0.040
   0.40000000  0.00000000  0.25000000       0.040
   0.20000000  0.20000000  0.25000000       0.040
   0.40000000  0.20000000  0.25000000       0.080
   0.40000000  0.40000000  0.25000000       0.040
   0.00000000  0.00000000  0.37500000       0.010
   0.20000000  0.00000000  0.37500000       0.040
   0.40000000  0.00000000  0.37500000       0.040
   0.20000000  0.20000000  0.37500000       0.040
   0.40000000  0.20000000  0.37500000       0.080
   0.40000000  0.40000000  0.37500000       0.040
   0.00000000  0.00000000  0.50000000       0.005
   0.20000000  0.00000000  0.50000000       0.020
   0.40000000  0.00000000  0.50000000       0.020
   0.20000000  0.20000000  0.50000000       0.020
   0.40000000  0.20000000  0.50000000       0.040
   0.40000000  0.40000000  0.50000000       0.020

 position of ions in fractional coordinates (direct lattice)
   0.50000000  0.50000000  0.00000000
   0.00000000  0.00000000  0.50000000
   0.69536064  0.69536064  0.50000000
   0.19536064  0.80463936  0.00000000
   0.80463936  0.19536064  0.00000000
   0.30463936  0.30463936  0.50000000

 position of ions in cartesian coordinates  (Angst):
   2.27926959  2.27926959  0.00000000
   0.00000000  0.00000000  1.47023845
   3.16982871  3.16982871  1.47023845
   0.89055913  3.66798004  0.00000000
   3.66798004  0.89055913  0.00000000
   1.38871046  1.38871046  1.47023845

--------------------------------------- Iteration      FINAL  ---------------------------------------

--------------------OUTCAR has been truncated-------------------------

[...]

--------------------OUTCAR has been truncated-------------------------

  FORCE on cell =-STRESS in cart. coord.  units (eV):
  Direction    XX          YY          ZZ          XY          YZ          ZX
  Alpha Z   223.75947   223.75947   223.75947
  Ewald   -1129.94085 -1129.94085  -697.70251    -0.00000    -0.00000    -0.00000
  Hartree   209.67498   209.67498   429.22716    -0.00000    -0.00000    -0.00000
  E(xc)    -162.47757  -162.47757  -162.25797    -0.00000     0.00000    -0.00000
  Local     192.31756   192.31756  -447.56034     0.00000    -0.00000     0.00000
  n-local   -25.84705   -26.82882   -23.31051    -0.00476     0.08500    -0.00805
  augment   120.96573   120.96573   120.11807     0.00000     0.00000     0.00000
  Kinetic   719.47433   718.57804   705.66948    -1.06261    -0.73158    -1.45023
  Fock     -145.49732  -145.52626  -146.47295     0.00182     0.02230     0.00925
  vdW        -1.45794    -1.45794    -1.46960     0.00000     0.00000     0.00000
  Total       0.01784     0.01784     0.00028    -0.00000     0.00000     0.00000
  in kB       0.46765     0.46765     0.00746    -0.00000     0.00000     0.00000

 VOLUME and BASIS-vectors are now :
  energy-cutoff  :      600.00
  volume of cell :       61.10
      direct lattice vectors                 reciprocal lattice vectors
     4.558539173  0.000000000  0.000000000     0.219368522 -0.000000000  0.000000000
     0.000000000  4.558539173  0.000000000     0.000000000  0.219368522  0.000000000
     0.000000000  0.000000000  2.940476904    -0.000000000 -0.000000000  0.340080889

  length of vectors
     4.558539173  4.558539173  2.940476904     0.219368522  0.219368522  0.340080889

 FORCES acting on ions
    electron-ion (+dipol)            ewald-force                    non-local-force                 convergence-correction
   0.356E-09 -.435E-09 -.688E-09   -.171E-12 0.284E-13 -.638E-14   0.833E-21 -.789E-20 0.132E-19   0.415E-13 0.167E-13 -.776E-14
   -.915E-04 0.121E-03 0.106E-03   -.284E-13 0.426E-13 -.418E-14   -.127E-20 -.116E-19 -.140E-19   0.874E-13 0.111E-13 -.889E-14
   -.373E+02 -.373E+02 0.392E-06   0.407E+02 0.407E+02 -.109E-12   -.290E+01 -.290E+01 -.380E-15   0.518E-04 0.518E-04 0.134E-13
   -.373E+02 0.373E+02 -.254E-10   0.407E+02 -.407E+02 -.185E-13   -.290E+01 0.290E+01 -.231E-17   0.518E-04 -.518E-04 0.178E-13
   0.373E+02 -.373E+02 -.188E-10   -.407E+02 0.407E+02 0.187E-13   0.290E+01 -.290E+01 0.870E-18   -.518E-04 0.518E-04 -.241E-13
   0.373E+02 0.373E+02 -.392E-06   -.407E+02 -.407E+02 0.115E-12   0.290E+01 0.290E+01 0.382E-15   -.518E-04 -.518E-04 -.130E-13
   -.915E-04 0.121E-03 0.106E-03   -.711E-14 0.142E-13 -.513E-14   -.444E-15 0.444E-15 0.362E-18   0.175E-12 -.344E-14 -.225E-13

 POSITION                                       TOTAL-FORCE (eV/Angst)
      2.27927      2.27927      0.00000         0.000000     -0.000000      0.000000
      0.00000      0.00000      1.47024        -0.000000      0.000000      0.000000
      3.16983      3.16983      1.47024        -0.000855     -0.000855     -0.000000
      0.89056      3.66798      0.00000        -0.000855      0.000855     -0.000000
      3.66798      0.89056      0.00000         0.000855     -0.000855     -0.000000
      1.38871      1.38871      1.47024         0.000855      0.000855      0.000000
    total drift:                               -0.000091      0.000121      0.000106

  FREE ENERGIE OF THE ION-ELECTRON SYSTEM (eV)
  free  energy   TOTEN  =       -67.15216948 eV

  energy  without entropy=      -67.15216948  energy(sigma->0) =      -67.15216948

 reached required accuracy - stopping structural energy minimisation