 vasp.6.3.0 20Jan22 (build Apr  1 2022 16:44:48) complex
 executed on        HPECrayEX_GCC date 2022.11.13  23:09:59

 INCAR:
   SYSTEM = MgO-rocksalt
   ISMEAR = 0
   SIGMA = 0.05
   EDIFF = 1E-6
   ALGO = ALL
   ISTART = 0
   IBRION = -1
   NSW = 0
   ISYM = 0
   DIPOL = 0.5 0.5 0.5
   IDIPOL = 3
   LDIPOL = .TRUE.
   LHFCALC = .TRUE.
   GGA = B5
   AEXX = 0.2
   AGGAX = 0.72
   AGGAC = 0.81
   ALDAC = 0.19
   IVDW = 1
   VDW_S6 = 1.05
   VDW_C6 = 1.23 0.70 0.63 0.70
   VDW_R0 = 1.397 1.342 1.243 1.342
   ENCUT = 600
   PREC = Accurate
   LASPH = .TRUE.
   LREAL = .FALSE.
   ISPIN = 2
   MAGMOM = 1.0 0.0 0.0 0.0 0.0 0.0 0.0 0.0 0.0 0.0 0.0 0.0 0.0 0.0 0.0 0.0 0.0 0.0 0.0 0.0 0.0 0.0 0.0 0.0 0.0 0.0 0.0 0.0 0.0 0.0 0.0 0.0 0.0 0.0 0.0 0.0 0.0 0.0 0.0 0.0 0.0 0.0 0.0 0.0 0.0 0.0 0.0 0.0 0.0 0.0 0.0 0.0 0.0 0.0 0.0 0.0 0.0 0.0 0.0 0.0 0.0 0.0 0.0 0.0 0.0 0.0
   NELM = 200
   NELMIN = 8
   NCORE = 8
   KPAR = 1
   LWAVE = .FALSE.
   LCHARG = .FALSE.

 POTCAR:    PAW_PBE N 08Apr2002
 POTCAR:    PAW_PBE O 08Apr2002
 POTCAR:    PAW_PBE Mg_pv 13Apr2007
 POTCAR:    PAW_PBE O 08Apr2002
 POTCAR:    PAW_PBE N 08Apr2002
   VRHFIN =N: s2p3

   TITEL  = PAW_PBE N 08Apr2002
   POMASS =   14.001; ZVAL   =    5.000    mass and valenz
   ENMAX  =  400.000; ENMIN  =  300.000 eV

[...]

   TITEL  = PAW_PBE Mg_pv 13Apr2007
   POMASS =   24.305; ZVAL   =    8.000    mass and valenz
   ENMAX  =  403.929; ENMIN  =  302.947 eV

   TITEL  = PAW_PBE O 08Apr2002
   POMASS =   16.000; ZVAL   =    6.000    mass and valenz
   ENMAX  =  400.000; ENMIN  =  300.000 eV

  PAW_PBE N 08Apr2002                   :
  PAW_PBE O 08Apr2002                   :
  PAW_PBE Mg_pv 13Apr2007               :
  PAW_PBE O 08Apr2002                   :

 POSCAR:  N  O Mg  O
  positions in direct lattice
 exchange correlation table for  LEXCH =       12
   RHO(1)=    0.500       N(1)  =     2000
   RHO(2)=  100.500       N(2)  =     4000

 ion  position               nearest neighbor table
   1  0.629  0.484  0.757-   2 1.19
   2  0.683  0.577  0.792-   1 1.19
   3  0.000  0.750  0.350-  35 2.14  37 2.14  38 2.14  45 2.14  54 2.14
   4  0.250  0.000  0.350-  36 2.14  37 2.14  38 2.14  46 2.14  53 2.14
   5  0.000  0.000  0.450-  37 2.14  36 2.14  35 2.14  43 2.14  52 2.14  41 2.14
   6  0.250  0.750  0.450-  38 2.14  36 2.14  35 2.14  44 2.14  51 2.14  42 2.14
   7  0.000  0.750  0.550-  42 2.13  58 2.14  49 2.14  41 2.14  35 2.15  39 2.16
   8  0.250  0.000  0.550-  57 2.14  50 2.14  42 2.14  41 2.14  36 2.14  40 2.16
   9  0.001  0.000  0.650-  40 2.13  41 2.13  47 2.14  56 2.14  39 2.14
  10  0.250  0.751  0.650-  42 2.13  40 2.13  55 2.14  39 2.14  48 2.14
  11  0.000  0.250  0.350-  43 2.14  37 2.14  45 2.14  46 2.14  62 2.14
  12  0.250  0.500  0.350-  44 2.14  38 2.14  45 2.14  46 2.14  61 2.14
  13  0.000  0.500  0.450-  45 2.14  43 2.14  44 2.14  35 2.14  60 2.14  49 2.14
  14  0.250  0.250  0.450-  46 2.14  43 2.14  44 2.14  36 2.14  59 2.14  50 2.14
  15  0.000  0.250  0.550-  50 2.13  66 2.13  49 2.14  41 2.14  43 2.15  47 2.16
  16  0.251  0.500  0.551-  65 2.13  50 2.13  42 2.14  49 2.15  44 2.15  48 2.16
  17  0.002  0.500  0.650-  48 2.12  49 2.13  47 2.14  39 2.14  64 2.14
  18  0.250  0.250  0.649-  50 2.13  63 2.13  40 2.13  47 2.14  48 2.14
  19  0.500  0.750  0.350-  51 2.14  38 2.14  53 2.14  54 2.14  61 2.14
  20  0.750  0.000  0.350-  52 2.14  37 2.14  53 2.14  54 2.14  62 2.14
  21  0.500  0.000  0.450-  57 2.14  53 2.14  52 2.14  36 2.14  51 2.14  59 2.14
  22  0.750  0.750  0.450-  54 2.14  51 2.14  52 2.14  35 2.14  60 2.14  58 2.14
  23  0.500  0.750  0.551-  65 2.13  42 2.14  57 2.14  58 2.14  55 2.15  51 2.15
  24  0.750  0.000  0.550-  57 2.13  41 2.14  66 2.14  58 2.14  52 2.14  56 2.16
  25  0.500  0.000  0.649-  63 2.13  57 2.13  55 2.13  40 2.14  56 2.14
  26  0.750  0.753  0.649-  56 2.12  58 2.12  55 2.13  39 2.13  64 2.16
  27  0.500  0.250  0.350-  59 2.14  53 2.14  46 2.14  61 2.14  62 2.14
  28  0.750  0.500  0.350-  60 2.14  54 2.14  45 2.14  61 2.14  62 2.14
  29  0.500  0.500  0.450-  61 2.14  51 2.14  59 2.14  60 2.14  44 2.14  65 2.15
  30  0.750  0.250  0.450-  62 2.14  52 2.14  59 2.14  60 2.14  43 2.14  66 2.14
  31  0.500  0.250  0.551-  65 2.13  50 2.14  63 2.14  66 2.14  57 2.14  59 2.15
  32  0.749  0.500  0.550-  65 2.13  66 2.13  58 2.13  60 2.14  49 2.14  64 2.19
  33  0.498  0.500  0.652-  48 2.12  63 2.14  55 2.15  64 2.17  65 2.17
  34  0.750  0.248  0.650-  56 2.12  66 2.13  63 2.14  47 2.14  64 2.16
  35  0.000  0.750  0.450-   3 2.14   5 2.14   6 2.14  13 2.14  22 2.14   7 2.15
  36  0.250  0.000  0.450-   4 2.14   5 2.14   6 2.14  14 2.14  21 2.14   8 2.14
  37  0.000  0.000  0.350-   5 2.14   4 2.14   3 2.14  11 2.14  20 2.14
  38  0.250  0.750  0.350-   6 2.14   4 2.14   3 2.14  12 2.14  19 2.14
  39  1.000  0.750  0.651-  26 2.13  17 2.14   9 2.14  10 2.14   7 2.16
  40  0.250  0.000  0.651-   9 2.13  10 2.13  18 2.13  25 2.14   8 2.16
  41  1.000  0.000  0.550-   9 2.13  24 2.14   7 2.14  15 2.14   8 2.14   5 2.14
  42  0.250  0.750  0.550-  10 2.13   7 2.13  16 2.14  23 2.14   8 2.14   6 2.14
  43  0.000  0.250  0.450-  11 2.14   5 2.14  13 2.14  14 2.14  30 2.14  15 2.15
  44  0.250  0.500  0.450-  12 2.14   6 2.14  13 2.14  14 2.14  29 2.14  16 2.15
  45  0.000  0.500  0.350-  13 2.14  11 2.14  12 2.14   3 2.14  28 2.14
  46  0.250  0.250  0.350-  14 2.14  11 2.14  12 2.14   4 2.14  27 2.14
  47  0.000  0.250  0.651-  17 2.14   9 2.14  34 2.14  18 2.14  15 2.16
  48  0.250  0.500  0.651-  17 2.12  33 2.12  10 2.14  18 2.14  16 2.16
  49  1.000  0.500  0.550-  17 2.13   7 2.14  15 2.14  32 2.14  13 2.14  16 2.15
  50  0.250  0.250  0.550-  18 2.13  15 2.13  16 2.13   8 2.14  31 2.14  14 2.14
  51  0.500  0.750  0.450-  19 2.14   6 2.14  21 2.14  22 2.14  29 2.14  23 2.15
  52  0.750  0.000  0.450-  20 2.14   5 2.14  21 2.14  22 2.14  30 2.14  24 2.14
  53  0.500  0.000  0.350-  21 2.14  19 2.14  20 2.14   4 2.14  27 2.14
  54  0.750  0.750  0.350-  22 2.14  19 2.14  20 2.14   3 2.14  28 2.14
  55  0.500  0.751  0.651-  25 2.13  26 2.13  10 2.14  33 2.15  23 2.15
  56  0.750  0.000  0.651-  26 2.12  34 2.12   9 2.14  25 2.14  24 2.16
  57  0.500  1.000  0.550-  25 2.13  24 2.13  21 2.14   8 2.14  23 2.14  31 2.14
  58  0.750  0.750  0.550-  26 2.12  32 2.13   7 2.14  23 2.14  22 2.14  24 2.14
  59  0.500  0.250  0.450-  27 2.14  21 2.14  14 2.14  29 2.14  30 2.14  31 2.15
  60  0.750  0.500  0.450-  28 2.14  22 2.14  13 2.14  29 2.14  30 2.14  32 2.14
  61  0.500  0.500  0.350-  29 2.14  19 2.14  27 2.14  28 2.14  12 2.14
  62  0.750  0.250  0.350-  30 2.14  20 2.14  27 2.14  28 2.14  11 2.14
  63  0.500  0.249  0.651-  25 2.13  18 2.13  34 2.14  31 2.14  33 2.14
  64  0.752  0.500  0.652-  17 2.14  34 2.16  26 2.16  33 2.17  32 2.19
  65  0.500  0.500  0.550-  32 2.13  23 2.13  16 2.13  31 2.13  29 2.15  33 2.17
  66  0.750  0.251  0.550-  32 2.13  34 2.13  15 2.13  24 2.14  31 2.14  30 2.14

IMPORTANT INFORMATION: All symmetrisations will be switched off!
NOSYMM: (Re-)initialisation of all symmetry stuff for point group C_1.

                                     Primitive cell

  volume of cell :    1563.6717

  direct lattice vectors                    reciprocal lattice vectors
     8.546113626  0.000000000  0.000000000     0.117012252  0.000000000  0.000000000
     0.000000000  8.546113626  0.000000000     0.000000000  0.117012252  0.000000000
     0.000000000  0.000000000 21.409585219     0.000000000  0.000000000  0.046708051

  length of vectors
     8.546113626  8.546113626 21.409585219     0.117012252  0.117012252  0.046708051

  position of ions in fractional coordinates (direct lattice)
     0.629492052  0.484059208  0.756858380
     0.683325896  0.576899483  0.791944936
     0.000000000  0.750000000  0.350310383
     0.250000000  0.000000000  0.350310383
     0.000000000  0.000000000  0.450103461
     0.250000000  0.750000000  0.450103461
     0.000221180  0.750057450  0.550425678
     0.250133625  0.000065705  0.550287015
     0.000532122  0.000222155  0.649632208
     0.250437619  0.750588978  0.649545490
     0.000000000  0.250000000  0.350310383
     0.250000000  0.500000000  0.350310383
     0.000000000  0.500000000  0.450103461
     0.250000000  0.250000000  0.450103461
     0.000020179  0.250066249  0.550465832
     0.250724798  0.499991691  0.550505342
     0.002495397  0.500059755  0.649618877
     0.250442042  0.249506551  0.649451509
     0.500000000  0.750000000  0.350310383
     0.750000000  0.000000000  0.350310383
     0.500000000  0.000000000  0.450103461
     0.750000000  0.750000000  0.450103461
     0.499916323  0.749634379  0.550593820
     0.749955627  0.000330799  0.550234103
     0.499729501  0.000229380  0.649362692
     0.750221212  0.752790764  0.649150322
     0.500000000  0.250000000  0.350310383
     0.750000000  0.500000000  0.350310383
     0.500000000  0.500000000  0.450103461
     0.750000000  0.250000000  0.450103461
     0.499975765  0.250355519  0.550610844
     0.749330006  0.499888069  0.549906571
     0.498322662  0.499812574  0.651867535
     0.749837597  0.248295057  0.649797756
     0.000000000  0.750000000  0.450103461
     0.250000000  0.000000000  0.450103461
     0.000000000  0.000000000  0.350310383
     0.250000000  0.750000000  0.350310383
     0.999959225  0.750052669  0.651403341
     0.249845666  0.000000394  0.651245428
     0.999941412  0.000046888  0.550066949
     0.249863842  0.749881530  0.550077074
     0.000000000  0.250000000  0.450103461
     0.250000000  0.500000000  0.450103461
     0.000000000  0.500000000  0.350310383
     0.250000000  0.250000000  0.350310383
     0.000024999  0.250224872  0.651448271
     0.249951550  0.500095039  0.651489114
     0.999535835  0.500084843  0.550289913
     0.249706233  0.250181272  0.550013632
     0.500000000  0.750000000  0.450103461
     0.750000000  0.000000000  0.450103461
     0.500000000  0.000000000  0.350310383
     0.750000000  0.750000000  0.350310383
     0.500481283  0.750827557  0.651000667
     0.750417463  0.000239542  0.651166844
     0.500153351  0.999868815  0.549866812
     0.750267938  0.749632213  0.550145657
     0.500000000  0.250000000  0.450103461
     0.750000000  0.500000000  0.450103461
     0.500000000  0.500000000  0.350310383
     0.750000000  0.250000000  0.350310383
     0.499968348  0.249010963  0.650515507
     0.751854877  0.500496893  0.651970564
     0.500466152  0.500110542  0.550449885
     0.750280061  0.250530108  0.550188714

  ion indices of the primitive-cell ions
   primitive index   ion index
                 1           1
                 2           2
                 3           3
                 4           4
                 5           5
                 6           6
                 7           7
                 8           8
                 9           9
                10          10
                11          11
                12          12
                13          13
                14          14
                15          15
                16          16
                17          17
                18          18
                19          19
                20          20
[...]
   0.50015335  0.99986881  0.54986681
   0.75026794  0.74963221  0.55014566
   0.50000000  0.25000000  0.45010346
   0.75000000  0.50000000  0.45010346
   0.50000000  0.50000000  0.35031038
   0.75000000  0.25000000  0.35031038
   0.49996835  0.24901096  0.65051551
   0.75185488  0.50049689  0.65197056
   0.50046615  0.50011054  0.55044988
   0.75028006  0.25053011  0.55018871

 position of ions in cartesian coordinates  (Angst):
   5.37971060  4.13682499 16.20402398
   5.83978075  4.93024853 16.95521259
   0.00000000  6.40958522  7.50000000
   2.13652841  0.00000000  7.50000000
   0.00000000  0.00000000  9.63652841
   2.13652841  6.40958522  9.63652841
   0.00189023  6.41007620 11.78438545
   2.13767038  0.00056152 11.78141675
   0.00454758  0.00189856 13.90835613
   2.14026834  6.41461869 13.90649953
   0.00000000  2.13652841  7.50000000
   2.13652841  4.27305681  7.50000000
   0.00000000  4.27305681  9.63652841
   2.13652841  2.13652841  9.63652841
   0.00017245  2.13709457 11.78524514
   2.14272261  4.27298580 11.78609103
   0.02132594  4.27356749 13.90807070
   2.14030614  2.13231133 13.90448743
   4.27305681  6.40958522  7.50000000
   6.40958522  0.00000000  7.50000000
   4.27305681  0.00000000  9.63652841
   6.40958522  6.40958522  9.63652841
   4.27234170  6.40646058 11.78798532
   6.40920600  0.00282705 11.78028391
   4.27074510  0.00196031 13.90258589
   6.41147572  6.43343541 13.89803914
   4.27305681  2.13652841  7.50000000
   6.40958522  4.27305681  7.50000000
   4.27305681  4.27305681  9.63652841
   6.40958522  2.13652841  9.63652841
   4.27284969  2.13956671 11.78834979
   6.40385938  4.27210024 11.77327160
   4.25872209  4.27145505 13.95621354
   6.40819731  2.12195777 13.91190044
   0.00000000  6.40958522  9.63652841
   2.13652841  0.00000000  9.63652841
   0.00000000  0.00000000  7.50000000
   2.13652841  6.40958522  7.50000000
   8.54576516  6.41003533 13.94627534
   2.13520945  0.00000337 13.94289449
   8.54561292  0.00040071 11.77670522
   2.13536478  6.40857276 11.77692199
   0.00000000  2.13652841  9.63652841
   2.13652841  4.27305681  9.63652841
   0.00000000  4.27305681  7.50000000
   2.13652841  2.13652841  7.50000000
   0.00021364  2.13845019 13.94723726
   2.13611435  4.27386903 13.94811171
   8.54214682  4.27378189 11.78147879
   2.13401784  2.13807757 11.77556373
   4.27305681  6.40958522  9.63652841
   6.40958522  0.00000000  9.63652841
   4.27305681  0.00000000  7.50000000
   6.40958522  6.40958522  7.50000000
   4.27716992  6.41665762 13.93765426
   6.41315291  0.00204715 13.94121204
   4.27436737  8.54499250 11.77242038
   6.41187505  6.40644207 11.77839033
   4.27305681  2.13652841  9.63652841
   6.40958522  4.27305681  9.63652841
   4.27305681  4.27305681  7.50000000
   6.40958522  2.13652841  7.50000000
   4.27278631  2.12807599 13.92726719
   6.42543721  4.27730331 13.95841935
   4.27704060  4.27400152 11.78490372
   6.41197866  2.14105877 11.77931215

--------------------------------------- Iteration      FINAL  ---------------------------------------

--------------------OUTCAR has been truncated-------------------------

[...]

--------------------OUTCAR has been truncated-------------------------

  DFT-D2 method for vdW energy calculation

  Parameters of vdW forcefield:
         C6(Jnm^6/mol)     R0(A)
   N        1.230          1.397
   O        0.700          1.342
   Mg       0.630          1.243
   O        0.700          1.342

  vdW correction parametrized for the method        ¬

  IVDW =   1
  VDW_RADIUS =    50.000 A
  VDW_S6 =     1.050
  VDW_SR =     1.000
  VDW_D =    20.000
  LVDW_EWALD = F

  Number of pair interactions contributing to vdW energy:  749084
  Edisp (eV):   -4.93989

 VOLUME and BASIS-vectors are now :
  energy-cutoff  :      600.00
  volume of cell :     1563.67
      direct lattice vectors                 reciprocal lattice vectors
     8.546113626  0.000000000  0.000000000     0.117012252  0.000000000  0.000000000
     0.000000000  8.546113626  0.000000000     0.000000000  0.117012252  0.000000000
     0.000000000  0.000000000 21.409585219     0.000000000  0.000000000  0.046708051

  length of vectors
     8.546113626  8.546113626 21.409585219     0.117012252  0.117012252  0.046708051

 FORCES acting on ions:
    Electron-Ion                     Ewald-Force                    Non-Local-Force
   0.977E+02 0.175E+03 -.118E+04   -.114E+03 -.204E+03 0.115E+04   0.161E+02 0.275E+02 0.230E+02
   -.962E+02 -.165E+03 -.155E+04   0.119E+03 0.204E+03 0.158E+04   -.205E+02 -.352E+02 -.337E+02
   -.265E+00 -.156E+00 0.202E+04   0.270E+00 0.159E+00 -.202E+04   -.358E-02 -.207E-02 -.634E+01
   0.143E+00 -.332E-01 0.202E+04   -.141E+00 0.336E-01 -.202E+04   -.130E-02 -.256E-03 -.634E+01
   -.843E+00 -.143E+00 0.701E+03   0.859E+00 0.152E+00 -.701E+03   -.986E-02 -.612E-02 0.394E+00
   0.590E+00 -.432E+00 0.702E+03   -.573E+00 0.424E+00 -.702E+03   -.992E-02 0.477E-02 0.402E+00
   -.455E+01 -.353E+01 -.612E+03   0.456E+01 0.348E+01 0.612E+03   -.195E-01 0.309E-01 -.260E+00
   0.276E+01 -.376E+00 -.616E+03   -.275E+01 0.379E+00 0.616E+03   -.127E-01 -.482E-02 -.192E+00
   -.106E+02 -.292E+01 -.194E+04   0.107E+02 0.293E+01 0.194E+04   -.124E+00 -.129E-01 0.556E+01
   0.140E+02 -.139E+02 -.194E+04   -.140E+02 0.141E+02 0.193E+04   -.283E-01 -.182E+00 0.559E+01
   -.260E+00 0.156E+00 0.202E+04   0.265E+00 -.159E+00 -.202E+04   -.314E-02 0.191E-02 -.634E+01
   0.167E+00 0.335E-01 0.202E+04   -.163E+00 -.338E-01 -.202E+04   -.243E-02 0.183E-03 -.634E+01
   -.174E+01 0.162E+00 0.702E+03   0.179E+01 -.166E+00 -.702E+03   -.262E-01 0.291E-02 0.457E+00
   0.556E+00 0.438E+00 0.702E+03   -.557E+00 -.427E+00 -.702E+03   0.136E-02 -.628E-02 0.375E+00
   -.393E+01 0.350E+01 -.614E+03   0.392E+01 -.346E+01 0.615E+03   0.755E-02 -.288E-01 -.259E+00
   0.474E+01 0.391E+00 -.611E+03   -.455E+01 -.396E+00 0.611E+03   -.174E+00 0.653E-02 -.229E+00
   -.241E+02 0.350E+01 -.192E+04   0.246E+02 -.351E+01 0.191E+04   -.474E+00 0.134E-01 0.560E+01
   0.141E+02 0.137E+02 -.194E+04   -.140E+02 -.139E+02 0.193E+04   -.102E+00 0.181E+00 0.560E+01
   0.265E+00 -.180E+00 0.202E+04   -.271E+00 0.181E+00 -.202E+04   0.336E-02 -.874E-03 -.635E+01
   -.143E+00 -.377E-01 0.202E+04   0.141E+00 0.388E-01 -.202E+04   0.115E-02 -.725E-03 -.633E+01
   0.858E+00 -.183E+00 0.703E+03   -.870E+00 0.175E+00 -.703E+03   0.727E-02 0.561E-02 0.303E+00
   -.588E+00 -.132E+01 0.703E+03   0.579E+00 0.135E+01 -.704E+03   0.586E-02 -.162E-01 0.438E+00
   0.479E+01 -.501E+01 -.606E+03   -.479E+01 0.489E+01 0.606E+03   0.168E-01 0.101E+00 -.498E+00
   -.283E+01 -.826E+00 -.609E+03   0.282E+01 0.889E+00 0.609E+03   0.143E-01 -.595E-01 -.184E+00
   0.113E+02 -.282E+01 -.193E+04   -.115E+02 0.292E+01 0.193E+04   0.121E+00 -.883E-01 0.558E+01
   -.192E+02 -.338E+02 -.189E+04   0.193E+02 0.346E+02 0.188E+04   -.475E-01 -.748E+00 0.573E+01
   0.260E+00 0.179E+00 0.202E+04   -.265E+00 -.181E+00 -.202E+04   0.316E-02 0.947E-03 -.634E+01
   -.167E+00 0.393E-01 0.202E+04   0.163E+00 -.399E-01 -.202E+04   0.242E-02 0.404E-03 -.631E+01
   0.175E+01 0.188E+00 0.703E+03   -.179E+01 -.182E+00 -.704E+03   0.256E-01 -.405E-02 0.474E+00
   -.564E+00 0.131E+01 0.703E+03   0.564E+00 -.133E+01 -.703E+03   -.722E-03 0.103E-01 0.443E+00
   0.415E+01 0.496E+01 -.606E+03   -.413E+01 -.484E+01 0.607E+03   -.101E-01 -.101E+00 -.697E+00
   -.489E+01 0.868E+00 -.598E+03   0.475E+01 -.915E+00 0.598E+03   0.141E+00 0.462E-01 0.436E+00
   0.464E+02 0.391E+01 -.186E+04   -.472E+02 -.388E+01 0.186E+04   0.721E+00 -.338E-01 0.487E+01
   -.188E+02 0.328E+02 -.191E+04   0.188E+02 -.335E+02 0.190E+04   -.191E-01 0.689E+00 0.569E+01
   -.783E+00 -.424E+00 0.526E+03   0.788E+00 0.431E+00 -.526E+03   -.710E-02 -.976E-02 -.107E+00
   0.505E+00 -.648E-01 0.525E+03   -.494E+00 0.666E-01 -.525E+03   -.149E-01 -.260E-02 -.794E-01
   -.164E+00 -.271E-01 0.152E+04   0.167E+00 0.282E-01 -.152E+04   -.476E-02 -.129E-02 0.315E+01
   0.113E+00 -.919E-01 0.152E+04   -.109E+00 0.929E-01 -.152E+04   -.380E-02 -.116E-02 0.315E+01
   -.160E+02 -.124E+02 -.146E+04   0.159E+02 0.123E+02 0.147E+04   0.473E-01 0.103E+00 -.444E+01
   0.547E+01 -.139E+01 -.148E+04   -.543E+01 0.139E+01 0.148E+04   -.284E-01 0.165E-02 -.440E+01
   -.261E+01 -.547E+00 -.457E+03   0.262E+01 0.543E+00 0.457E+03   0.236E-02 0.443E-02 0.255E+00
   0.242E+01 -.256E+01 -.454E+03   -.240E+01 0.257E+01 0.454E+03   -.940E-02 -.867E-02 0.314E+00
   -.763E+00 0.429E+00 0.526E+03   0.781E+00 -.443E+00 -.525E+03   -.227E-01 0.174E-01 -.125E+00
   0.723E+00 0.694E-01 0.526E+03   -.742E+00 -.744E-01 -.526E+03   0.205E-01 0.630E-02 -.993E-01
   -.240E+00 0.272E-01 0.152E+04   0.247E+00 -.284E-01 -.152E+04   -.878E-02 0.150E-02 0.316E+01
   0.111E+00 0.917E-01 0.152E+04   -.109E+00 -.928E-01 -.152E+04   -.225E-02 0.128E-02 0.314E+01
   -.125E+02 0.119E+02 -.147E+04   0.125E+02 -.119E+02 0.147E+04   0.676E-01 -.809E-01 -.440E+01
   0.158E+02 0.155E+01 -.146E+04   -.157E+02 -.155E+01 0.147E+04   -.485E-01 -.978E-03 -.430E+01
   -.406E+01 0.585E+00 -.453E+03   0.403E+01 -.580E+00 0.453E+03   0.521E-01 -.600E-02 0.291E+00
   0.253E+01 0.254E+01 -.454E+03   -.250E+01 -.255E+01 0.454E+03   -.197E-01 0.762E-02 0.323E+00
   0.801E+00 -.596E+00 0.526E+03   -.814E+00 0.634E+00 -.526E+03   0.165E-01 -.470E-01 -.154E+00
   -.503E+00 -.665E-01 0.527E+03   0.487E+00 0.541E-01 -.527E+03   0.214E-01 0.137E-01 -.478E-01
   0.164E+00 -.289E-01 0.152E+04   -.168E+00 0.286E-01 -.152E+04   0.496E-02 0.275E-03 0.314E+01
   -.113E+00 -.169E+00 0.152E+04   0.110E+00 0.173E+00 -.152E+04   0.412E-02 -.498E-02 0.316E+01
   0.201E+02 -.265E+02 -.144E+04   -.200E+02 0.263E+02 0.144E+04   -.581E-01 0.196E+00 -.440E+01
   -.609E+01 -.451E+01 -.147E+04   0.604E+01 0.458E+01 0.147E+04   0.364E-01 -.581E-01 -.441E+01
   0.266E+01 -.464E+00 -.451E+03   -.266E+01 0.475E+00 0.451E+03   -.361E-02 -.832E-02 0.286E+00
   -.256E+01 -.400E+01 -.447E+03   0.254E+01 0.399E+01 0.447E+03   0.128E-01 0.274E-01 0.382E+00
   0.769E+00 0.593E+00 0.526E+03   -.786E+00 -.629E+00 -.526E+03   0.208E-01 0.433E-01 -.148E+00
   -.724E+00 0.974E-01 0.529E+03   0.743E+00 -.970E-01 -.529E+03   -.194E-01 0.318E-03 0.167E-01
   0.240E+00 0.294E-01 0.152E+04   -.247E+00 -.290E-01 -.152E+04   0.880E-02 -.460E-03 0.315E+01
   -.111E+00 0.168E+00 0.152E+04   0.109E+00 -.172E+00 -.152E+04   0.218E-02 0.540E-02 0.316E+01
   0.162E+02 0.255E+02 -.144E+04   -.161E+02 -.253E+02 0.145E+04   -.911E-01 -.219E+00 -.441E+01
   -.321E+02 0.526E+01 -.139E+04   0.322E+02 -.517E+01 0.139E+04   -.900E-01 -.935E-01 -.359E+01
   0.441E+01 0.544E+00 -.452E+03   -.442E+01 -.560E+00 0.452E+03   0.366E-02 0.130E-01 -.253E+00
   -.265E+01 0.402E+01 -.451E+03   0.261E+01 -.402E+01 0.451E+03   0.284E-01 -.185E-01 0.208E+00
   0.579E+01 0.103E+02 0.281E+02   0.483E-12 0.284E-12 -.108E-11   -.443E+01 -.801E+01 -.239E+02

 POSITION                                       TOTAL-FORCE (eV/Angst)
      5.37971      4.13682     16.20402         0.784157      1.371492      1.311113
      5.83978      4.93025     16.95521        -0.783843     -1.376473     -1.310305
      0.00000      6.40959      7.50000         0.001499      0.000913      0.627595
      2.13653      0.00000      7.50000         0.000581      0.000106      0.628503
      0.00000      0.00000      9.63653         0.004468      0.002643      0.021690
      2.13653      6.40959      9.63653         0.004991     -0.002001      0.023120
      0.00189      6.41008     11.78439        -0.009769     -0.014459     -0.012995
      2.13767      0.00056     11.78142        -0.003784     -0.002008     -0.022379
      0.00455      0.00190     13.90836         0.003479     -0.003276     -0.285748
      2.14027      6.41462     13.90650        -0.013397      0.008163     -0.281382
      0.00000      2.13653      7.50000         0.001335     -0.000833      0.628992
      2.13653      4.27306      7.50000         0.000901     -0.000076      0.628264
      0.00000      4.27306      9.63653         0.013659     -0.000971      0.031465
      2.13653      2.13653      9.63653         0.000259      0.002812      0.025444
      0.00017      2.13709     11.78525        -0.007639      0.013935     -0.014634
      2.14272      4.27299     11.78609        -0.003302      0.001771     -0.025651
      0.02133      4.27357     13.90807        -0.053945      0.004547     -0.286456
      2.14031      2.13231     13.90449        -0.013535     -0.007841     -0.283413
      4.27306      6.40959      7.50000        -0.001498      0.000524      0.630391
      6.40959      0.00000      7.50000        -0.000598      0.000269      0.625981
      4.27306      0.00000      9.63653        -0.003132     -0.002183      0.031275
      6.40959      6.40959      9.63653        -0.002695      0.009510      0.019669
      4.27234      6.40646     11.78799         0.009902     -0.009586     -0.015379
      6.40921      0.00283     11.78028         0.003421     -0.001242     -0.025182
      4.27075      0.00196     13.90259        -0.001802     -0.004714     -0.281009
      6.41148      6.43344     13.89804         0.013636     -0.042953     -0.275307
      4.27306      2.13653      7.50000        -0.001448     -0.000583      0.629862
      6.40959      4.27306      7.50000        -0.000986     -0.000164      0.621578
      4.27306      4.27306      9.63653        -0.013352      0.001099      0.025323
      6.40959      2.13653      9.63653        -0.000776     -0.006151      0.016841
      4.27285      2.13957     11.78835         0.008003      0.009578     -0.014757
      6.40386      4.27210     11.77327         0.012675      0.003166      0.034386
      4.25872      4.27146     13.95621         0.005906      0.004477     -0.351539
      6.40820      2.12196     13.91190         0.015131      0.034051     -0.298254
      0.00000      6.40959      9.63653        -0.003223     -0.003992      0.035510
      2.13653      0.00000      9.63653        -0.005657     -0.001181      0.031888
      0.00000      0.00000      7.50000        -0.001580     -0.000420     -0.274260
      2.13653      6.40959      7.50000        -0.001242     -0.000353     -0.275364
      8.54577      6.41004     13.94628         0.021330      0.021215     -0.148914
      2.13521      0.00000     13.94289         0.007251      0.001866     -0.145678
      8.54561      0.00040     11.77671         0.004426      0.000780      0.024267
      2.13536      6.40857     11.77692         0.005078      0.003243      0.030733
      0.00000      2.13653      9.63653        -0.007772      0.006271      0.032885
      2.13653      4.27306      9.63653         0.003697      0.002273      0.047112
      0.00000      4.27306      7.50000        -0.002902      0.000490     -0.271876
      2.13653      2.13653      7.50000        -0.000755      0.000393     -0.275678
      0.00021      2.13845     13.94724         0.017056     -0.019645     -0.143748
      2.13611      4.27387     13.94811         0.014707     -0.002247     -0.130882
      8.54215      4.27378     11.78148         0.030080     -0.001623      0.008802
      2.13402      2.13808     11.77556         0.005293     -0.003792      0.032925
      4.27306      6.40959      9.63653         0.005995     -0.014958      0.035382
      6.40959      0.00000      9.63653         0.007480      0.003222      0.038584
      4.27306      0.00000      7.50000         0.001588      0.000073     -0.275763
      6.40959      6.40959      7.50000         0.001297     -0.001621     -0.271757
      4.27717      6.41666     13.93765        -0.013386     -0.002277     -0.125562
      6.41315      0.00205     13.94121        -0.006472      0.002422     -0.144715
      4.27437      8.54499     11.77242        -0.004864      0.001459      0.033976
      6.41188      6.40644     11.77839        -0.005120      0.022244      0.017216
      4.27306      2.13653      9.63653         0.007124      0.013755      0.039209
      6.40959      4.27306      9.63653        -0.003537      0.000753      0.028244
      4.27306      4.27306      7.50000         0.002870     -0.000152     -0.273768
      6.40959      2.13653      7.50000         0.000678      0.001758     -0.272252
      4.27279      2.12808     13.92727        -0.006926      0.002450     -0.112418
      6.42544      4.27730     13.95842        -0.020671     -0.005375     -0.090093
      4.27704      4.27400     11.78490        -0.015425     -0.001402      0.003815
      6.41198      2.14106     11.77931        -0.004918     -0.019172      0.015077
    total drift:                                0.002110      0.000287     -0.001879

  FREE ENERGIE OF THE ION-ELECTRON SYSTEM (eV)
  free  energy   TOTEN  =      -453.24012720 eV

  energy  without entropy=     -453.24012720  energy(sigma->0) =     -453.24012720