 vasp.6.3.0 20Jan22 (build Mar 11 2022 13:48:16) complex

 executed on             LinuxIFC date 2024.01.22  12:18:40

 INCAR:
   SYSTEM = TiO2
   ISMEAR = 0
   SIGMA = 0.05
   EDIFF = 1E-5
   ALGO = ALL
   ISTART = 0
   IBRION = -1
   NSW = 0
   ISYM = 0
   ISIF = 2
   EDIFFG = -0.01
   DIPOL = 0.5 0.5 0.5
   IDIPOL = 3
   LDIPOL = .TRUE.
   GGA = PE
   IVDW = 21
   LDAU = .TRUE.
   LDAUTYPE = 2
   LDAUL = -1 -1 2 -1
   LDAUU = 0.0 0.0 4.2 0.0
   LDAUPRINT = 1
   LMAXMIX = 4
   ENCUT = 600
   PREC = Accurate
   LASPH = .TRUE.
   LREAL = .FALSE.
   ISPIN = 1
   NELM = 200
   NELMIN = 8
   NCORE = 2
   KPAR = 1
   LWAVE = .FALSE.
   LCHARG = .FALSE.

 POTCAR:    PAW_PBE N 08Apr2002
 POTCAR:    PAW_PBE H 15Jun2001
 POTCAR:    PAW_PBE Ti_pv 07Sep2000
 POTCAR:    PAW_PBE O 08Apr2002
|           W    W    AA    RRRRR   N    N  II  N    N   GGGG   !!!           |
|           W    W   A  A   R    R  NN   N  II  NN   N  G    G  !!!           |
|           W    W  A    A  R    R  N N  N  II  N N  N  G       !!!           |
|           W WW W  AAAAAA  RRRRR   N  N N  II  N  N N  G  GGG   !            |
|           WW  WW  A    A  R   R   N   NN  II  N   NN  G    G                |
|           W    W  A    A  R    R  N    N  II  N    N   GGGG   !!!           |
|     For optimal performance we recommend to set                             |
|       NCORE = 2 up to number-of-cores-per-socket                            |
|     This setting can greatly improve the performance of VASP for DFT.       |
|     The default, NCORE=1 might be grossly inefficient on modern             |
|     multi-core architectures or massively parallel machines. Do your        |
|     Unfortunately you need to use the default for GW and RPA                |
|     calculations (for HF NCORE is supported but not extensively tested      |
|     yet).                                                                   |

   TITEL  = PAW_PBE N 08Apr2002
   POMASS =   14.001; ZVAL   =    5.000    mass and valenz
   ENMAX  =  400.000; ENMIN  =  300.000 eV

   TITEL  = PAW_PBE H 15Jun2001
   POMASS =    1.000; ZVAL   =    1.000    mass and valenz
   ENMAX  =  250.000; ENMIN  =  200.000 eV

   TITEL  = PAW_PBE Ti_pv 07Sep2000
   POMASS =   47.880; ZVAL   =   10.000    mass and valenz
   ENMAX  =  222.335; ENMIN  =  166.751 eV

   TITEL  = PAW_PBE O 08Apr2002
   POMASS =   16.000; ZVAL   =    6.000    mass and valenz
   ENMAX  =  400.000; ENMIN  =  300.000 eV

  PAW_PBE N 08Apr2002                   :
  PAW_PBE H 15Jun2001                   :
  PAW_PBE Ti_pv 07Sep2000               :
  PAW_PBE O 08Apr2002                   :

 POSCAR:  N  H Ti  O
  positions in direct lattice
 exchange correlation table for  LEXCH =        8
   RHO(1)=    0.500       N(1)  =     2000
   RHO(2)=  100.500       N(2)  =     4000

 ion  position               nearest neighbor table
   1  0.600  0.500  0.783-   2 1.02   3 1.02   4 1.02  52 2.35
   2  0.532  0.500  0.809-   1 1.02
   3  0.657  0.429  0.788-   1 1.02
   4  0.657  0.571  0.788-   1 1.02
   5  0.815  0.833  0.293-  55 1.97  89 1.97  57 1.97  54 2.02  56 2.02  22 3.11   6 3.11   8 3.11

   6  0.599  0.667  0.325-  53 1.97 120 1.97  56 1.97  58 1.97  59 2.02  57 2.02  37 3.11   5 3.11
                             7 3.11  11 3.15
   7  0.315  0.667  0.293-  59 1.97 125 1.97  61 1.97  53 2.02  60 2.02  40 3.11   8 3.11   6 3.11

   8  0.099  0.833  0.325-  54 1.97  92 1.97  60 1.97  62 1.97  55 2.02  61 2.02  23 3.11   7 3.11
                             5 3.11   9 3.15
   9  0.949  0.833  0.422-  63 1.95  97 1.96  65 1.96  64 2.01  55 2.01  62 2.04  12 3.05  26 3.10
                            10 3.10   8 3.15
  10  0.730  0.666  0.451-  58 1.91 128 1.96  64 1.97  66 2.00  67 2.01  65 2.03  11 3.06   9 3.10
                            41 3.11
  11  0.448  0.666  0.422-  67 1.95 133 1.96  69 1.96  59 2.01  68 2.01  58 2.04  10 3.06  12 3.11
                            44 3.11   6 3.15
  12  0.229  0.833  0.451-  62 1.91 100 1.97  68 1.97  63 2.00  70 2.01  69 2.04   9 3.05  27 3.11
                            11 3.11
  13  0.088  0.833  0.551-  71 1.95 105 1.96  73 1.96  72 2.00  70 2.04  63 2.05  16 3.00  14 3.10
                            30 3.11
  14  0.866  0.666  0.576-  66 1.88 136 1.96  75 1.98  72 1.98  73 2.04  74 2.05  15 3.02  13 3.10
                            45 3.11
  15  0.587  0.666  0.550- 141 1.96  75 1.96  77 1.96  76 2.00  67 2.03  66 2.05  14 3.02  16 3.11
                            48 3.12
  16  0.365  0.833  0.577-  70 1.88 108 1.97  76 1.97  71 1.98  78 2.04  77 2.05  13 3.00  15 3.11
                            31 3.11
  17  0.231  0.833  0.683-  79 1.88  81 1.95 113 1.97  80 2.02  78 2.13  71 2.15  20 2.89  34 3.12
                            18 3.14
  18  0.001  0.666  0.702-  74 1.79  82 1.86 144 2.00  80 2.02  81 2.09  19 2.90  17 3.14  49 3.15

[...]

  21  0.815  0.167  0.293-  87 1.97  89 1.97 121 1.97  86 2.02  88 2.02  22 3.11  38 3.11  24 3.11

[...]

  37  0.815  0.500  0.293- 119 1.97  57 1.97 121 1.97 120 2.02 118 2.02   6 3.11  38 3.11  40 3.11

  38  0.599  0.333  0.325- 117 1.97 120 1.97  88 1.97 122 1.97 121 2.02 123 2.02  37 3.11  21 3.11
                            39 3.11  43 3.15
  39  0.315  0.333  0.293- 123 1.97 125 1.97  93 1.97 124 2.02 117 2.02  40 3.11  24 3.11  38 3.11

  40  0.099  0.500  0.325- 118 1.97  60 1.97 124 1.97 126 1.97 125 2.02 119 2.02  39 3.11   7 3.11
                            37 3.11  41 3.13
  41  0.950  0.500  0.422- 127 1.95 129 1.96  65 1.96 119 2.01 128 2.02 126 2.02  44 3.05  42 3.11
                            10 3.11  40 3.13
  42  0.730  0.334  0.451- 122 1.91 128 1.96  96 1.97 130 2.00 131 2.01 129 2.03  43 3.06  25 3.10
                            41 3.11
  43  0.448  0.334  0.422- 131 1.95 133 1.96 101 1.96 123 2.01 132 2.01 122 2.04  42 3.06  28 3.11
                            44 3.11  38 3.15
  44  0.229  0.500  0.452- 126 1.94  68 1.97 132 1.97 127 1.98 134 2.01 133 2.05  41 3.05  11 3.11
                            43 3.11  45 3.14
  45  0.091  0.500  0.551- 135 1.93  73 1.96 137 1.96 134 2.01 136 2.03 127 2.06  48 3.00  46 3.11
                            14 3.11  44 3.14
  46  0.866  0.334  0.576- 130 1.88 136 1.96 139 1.98 104 1.98 137 2.04 138 2.05  47 3.02  29 3.10
                            45 3.11
  47  0.587  0.334  0.550- 141 1.96 139 1.96 109 1.96 140 2.00 131 2.03 130 2.05  46 3.02  32 3.11
                            48 3.12
  48  0.366  0.500  0.580- 134 1.93 135 1.97  76 1.97 140 1.97 142 2.03 141 2.06  45 3.00  47 3.12
                            15 3.12
  49  0.235  0.500  0.684- 143 1.87 145 1.96  81 1.96 144 2.06 142 2.07 135 2.16  52 2.92  18 3.15
                            50 3.15
  50  0.001  0.334  0.702- 138 1.79 146 1.86 144 2.00 112 2.02 145 2.09  51 2.90  33 3.14  49 3.15

  51  0.730  0.333  0.680- 146 1.90 116 1.96 148 1.96 147 2.02 139 2.09 138 2.13  50 2.90  36 3.13
                            52 3.13
  52  0.506  0.500  0.707- 143 1.87 142 1.89  83 2.01 147 2.01 148 2.09   1 2.35  49 2.92  19 3.13
                            51 3.13
  53  0.494  0.667  0.267-   6 1.97   7 2.02
  54  0.994  0.833  0.267-   8 1.97   5 2.02
  55  0.919  0.833  0.351-   5 1.97   9 2.01   8 2.02
  56  0.636  0.833  0.320-  22 1.97   6 1.97   5 2.02
  57  0.778  0.667  0.299-  37 1.97   5 1.97   6 2.02
  58  0.628  0.667  0.394-  10 1.91   6 1.97  11 2.04
  59  0.419  0.667  0.351-   7 1.97  11 2.01   6 2.02
  60  0.136  0.667  0.320-  40 1.97   8 1.97   7 2.02
  61  0.278  0.833  0.299-  23 1.97   7 1.97   8 2.02
  62  0.128  0.833  0.394-  12 1.91   8 1.97   9 2.04
  63  0.054  0.833  0.479-   9 1.95  12 2.00  13 2.05
  64  0.769  0.833  0.447-  26 1.97  10 1.97   9 2.01
  65  0.912  0.667  0.426-   9 1.96  41 1.96  10 2.03
  66  0.765  0.667  0.521-  14 1.88  10 2.00  15 2.05
  67  0.554  0.666  0.479-  11 1.95  10 2.01  15 2.03
  68  0.269  0.667  0.447-  44 1.97  12 1.97  11 2.01
  69  0.411  0.833  0.426-  27 1.96  11 1.96  12 2.04
  70  0.265  0.833  0.521-  16 1.88  12 2.01  13 2.04
  71  0.195  0.833  0.607-  13 1.95  16 1.98  17 2.15
  72  0.907  0.833  0.574-  30 1.97  14 1.98  13 2.00
  73  0.051  0.666  0.554-  13 1.96  45 1.96  14 2.04
  74  0.913  0.667  0.647-  18 1.79  14 2.05  19 2.13
  75  0.696  0.667  0.607-  15 1.96  14 1.98  19 2.09
  76  0.407  0.666  0.575-  48 1.97  16 1.97  15 2.00
  77  0.550  0.833  0.554-  15 1.96  31 1.96  16 2.05
  78  0.411  0.835  0.647-  20 1.79  16 2.04  17 2.13
  79  0.348  0.833  0.734-  20 1.86  17 1.88
  80  0.053  0.833  0.710-  34 2.01  18 2.02  17 2.02
  81  0.194  0.666  0.683-  17 1.95  49 1.96  18 2.09
  82  0.844  0.665  0.733-  18 1.86  19 1.90
  83  0.554  0.669  0.709-  20 1.99  52 2.01  19 2.02
  84  0.695  0.834  0.681-  35 1.95  19 1.96  20 2.09
  85  0.494  0.000  0.267-  22 1.97  23 2.02
  86  0.994  0.167  0.267-  24 1.97  21 2.02
  87  0.919  0.167  0.351-  21 1.97  25 2.01  24 2.02
  88  0.636  0.167  0.320-  22 1.97  38 1.97  21 2.02
  89  0.778  0.000  0.299-   5 1.97  21 1.97  22 2.02
  90  0.628  0.000  0.394-  26 1.91  22 1.97  27 2.04
  91  0.419  0.000  0.351-  23 1.97  27 2.01  22 2.02
  92  0.136  0.000  0.320-   8 1.97  24 1.97  23 2.02
  93  0.278  0.167  0.299-  23 1.97  39 1.97  24 2.02
  94  0.128  0.167  0.394-  28 1.91  24 1.97  25 2.04
  95  0.054  0.167  0.479-  25 1.95  28 2.00  29 2.05
  96  0.769  0.167  0.447-  26 1.97  42 1.97  25 2.01
  97  0.912  0.000  0.426-  25 1.96   9 1.96  26 2.04
  98  0.765  0.000  0.521-  30 1.88  26 2.01  31 2.04
  99  0.554  1.000  0.479-  27 1.95  26 2.00  31 2.04
 100  0.269  0.000  0.447-  12 1.97  28 1.97  27 2.01
 101  0.411  0.167  0.426-  27 1.96  43 1.96  28 2.04
 102  0.265  0.167  0.521-  32 1.88  28 2.01  29 2.04
 103  0.195  0.167  0.607-  29 1.95  32 1.98  33 2.15
 104  0.907  0.167  0.574-  30 1.97  46 1.98  29 2.00
 105  0.051  0.000  0.554-  29 1.96  13 1.96  30 2.06
 106  0.912  1.000  0.647-  34 1.80  30 2.05  35 2.12
 107  0.696  1.000  0.607-  31 1.95  30 1.97  35 2.15
 108  0.407  1.000  0.574-  32 1.97  16 1.97  31 2.00
 109  0.550  0.167  0.554-  47 1.96  31 1.96  32 2.05
 110  0.411  0.165  0.647-  36 1.79  32 2.04  33 2.13
 111  0.348  0.167  0.734-  36 1.86  33 1.88
 112  0.053  0.167  0.710-  34 2.01  50 2.02  33 2.02
[...]
 134  0.266  0.500  0.522-  48 1.93  45 2.01  44 2.01
 135  0.195  0.500  0.608-  45 1.93  48 1.97  49 2.16
 136  0.907  0.500  0.574-  46 1.96  14 1.96  45 2.03
 137  0.051  0.334  0.554-  29 1.96  45 1.96  46 2.04
 138  0.913  0.333  0.647-  50 1.79  46 2.05  51 2.13
 139  0.696  0.333  0.607-  47 1.96  46 1.98  51 2.09
 140  0.407  0.334  0.575-  48 1.97  32 1.97  47 2.00
 141  0.551  0.500  0.555-  47 1.96  15 1.96  48 2.06
 142  0.411  0.500  0.650-  52 1.89  48 2.03  49 2.07
 143  0.345  0.500  0.736-  49 1.87  52 1.87
 144  0.052  0.500  0.710-  18 2.00  50 2.00  49 2.06
 145  0.194  0.334  0.683-  33 1.95  49 1.96  50 2.09
 146  0.844  0.335  0.733-  50 1.86  51 1.90
 147  0.554  0.331  0.709-  36 1.99  52 2.01  51 2.02
 148  0.692  0.500  0.681-  19 1.96  51 1.96  52 2.09

IMPORTANT INFORMATION: All symmetrisations will be switched off!
NOSYMM: (Re-)initialisation of all symmetry stuff for point group C_1.

[...]
   O          53.957          3.927         10.043          1.85977755
   O          56.063          3.953         10.237          1.89571478
   O          55.844          3.950         10.217          1.89202047
   O          56.147          3.954         10.245          1.89714919
   O          38.441          3.712          8.477          1.56975214
   O          55.340          3.944         10.171          1.88346132
   O          57.943          3.974         10.407          1.92723793
   O          39.540          3.729          8.597          1.59205006
   O          53.946          3.927         10.042          1.85958721
   O          56.336          3.956         10.262          1.90033220

  vdW correction parametrized for the method pbe

  IVDW =  21
  VDW_RADIUS =    50.000 A
  VDW_IDAMPF =  0
  VDW_S6 =     1.000
  VDW_SR =     0.950
  VDW_D =    20.000
  LVDW_ONECELL = F F F
  LVDW_SAMETYPE T T T T
  LVDW_EWALD = F

  Number of pair interactions contributing to vdW energy: 1691500
  Edisp (eV):  -17.11176

  FORCE on cell =-STRESS in cart. coord.  units (eV):
  Direction    XX          YY          ZZ          XY          YZ          ZX
  Alpha Z  2345.80891  2345.80891  2345.80891
  Ewald  464254.02391457344.15732************    -0.01730     0.00003 -1771.36342
  Hartree485380.70782481221.86029************    -0.00322    -0.00008 -1189.36757
  E(xc)   -5157.78029 -5162.03265 -5168.52493    -0.00001     0.00002    -1.39400
  Local  ************************957722.92163     0.01471     0.00016  2955.72304
  n-local -3143.93007 -3131.07144 -3177.97065     0.00069     0.00010     3.48780
  augment  3162.21927  3160.61261  3151.02060     0.00005    -0.00004     1.74863
  Kinetic 17000.36256 17124.62749 17184.02995     0.00078    -0.00124     5.10980
  Fock        0.00000     0.00000     0.00000     0.00000     0.00000     0.00000
  vdW       -22.12383   -25.72333   -21.28675    -0.00000     0.00000     0.10659
  Total     -42.60910    -2.96954    -6.38137    -0.00431    -0.00103     4.05087
  in kB     -20.10377    -1.40108    -3.01085    -0.00203    -0.00049     1.91128

 VOLUME and BASIS-vectors are now :
  energy-cutoff  :      600.00
  volume of cell :     3395.75
      direct lattice vectors                 reciprocal lattice vectors
    10.494937820  0.000000000  0.000000000     0.095284033 -0.000000000  0.000000000
     0.000000000 11.517876715  0.000000000     0.000000000  0.086821558  0.000000000
     0.000000000  0.000000000 28.092027652     0.000000000  0.000000000  0.035597288

  length of vectors
    10.494937820 11.517876715 28.092027652     0.095284033  0.086821558  0.035597288

 FORCES acting on ions:
    Electron-Ion                     Ewald-Force                    Non-Local-Force
   -.163E+02 -.797E-02 -.166E+04   0.792E+01 0.144E-01 0.164E+04   0.833E+01 0.192E-02 0.190E+02
   0.469E+02 -.560E-02 -.354E+03   -.522E+02 0.591E-02 0.359E+03   0.521E+01 -.742E-03 -.515E+01
   -.421E+02 0.558E+02 -.338E+03   0.464E+02 -.617E+02 0.339E+03   -.429E+01 0.591E+01 -.790E+00
   -.421E+02 -.558E+02 -.338E+03   0.464E+02 0.617E+02 0.339E+03   -.428E+01 -.591E+01 -.789E+00
   0.450E+01 -.517E-01 0.323E+04   0.543E+00 0.529E-01 -.322E+04   -.150E+01 -.304E-03 -.438E+01
   0.533E+01 -.133E+00 0.265E+04   -.709E+01 0.135E+00 -.265E+04   0.121E+00 -.777E-03 0.135E+00
   0.444E+01 0.129E+00 0.323E+04   0.577E+00 -.133E+00 -.322E+04   -.149E+01 0.134E-02 -.438E+01
   0.412E+01 0.810E-01 0.265E+04   -.590E+01 -.867E-01 -.265E+04   0.128E+00 0.136E-02 0.132E+00
   -.178E+01 0.190E+00 0.121E+04   0.158E+01 -.192E+00 -.121E+04   0.189E+00 -.800E-02 -.198E+00
   -.131E+01 -.147E+01 0.764E+03   0.137E+01 0.145E+01 -.764E+03   0.132E+00 0.423E-01 0.124E+00
   -.342E+00 -.480E+00 0.121E+04   0.149E+00 0.469E+00 -.121E+04   0.192E+00 0.278E-01 -.199E+00
   -.698E+01 0.190E+00 0.759E+03   0.703E+01 -.204E+00 -.758E+03   0.205E+00 0.620E-02 0.120E+00
   -.512E+01 -.220E+01 -.749E+03   0.481E+01 0.218E+01 0.749E+03   0.286E+00 -.788E-04 -.181E+00
   -.122E+02 -.521E+01 -.112E+04   0.124E+02 0.520E+01 0.112E+04   0.281E+00 0.604E-01 0.219E+00
   0.529E+00 -.167E+01 -.728E+03   -.808E+00 0.165E+01 0.728E+03   0.287E+00 0.152E-01 -.124E+00
   -.425E+01 -.829E+00 -.114E+04   0.444E+01 0.839E+00 0.114E+04   0.289E+00 -.243E-01 0.153E+00
   0.279E+02 -.112E+02 -.267E+04   -.286E+02 0.112E+02 0.267E+04   0.713E+00 0.569E-01 -.842E+00
   -.851E+02 -.189E+02 -.303E+04   0.850E+02 0.187E+02 0.303E+04   0.120E+01 0.190E+00 0.161E+01
   -.912E+01 -.343E+02 -.259E+04   0.837E+01 0.343E+02 0.259E+04   0.734E+00 -.106E-01 -.604E+00
   -.631E+02 -.325E+02 -.302E+04   0.629E+02 0.324E+02 0.302E+04   0.124E+01 0.758E-01 0.157E+01
   0.450E+01 0.517E-01 0.323E+04   0.543E+00 -.529E-01 -.322E+04   -.150E+01 0.305E-03 -.438E+01
   0.528E+01 -.764E-05 0.265E+04   -.706E+01 0.467E-05 -.265E+04   0.125E+00 -.595E-06 0.132E+00
   0.435E+01 0.161E-04 0.323E+04   0.681E+00 -.169E-05 -.322E+04   -.150E+01 -.538E-06 -.438E+01
   0.412E+01 -.810E-01 0.265E+04   -.590E+01 0.867E-01 -.265E+04   0.128E+00 -.136E-02 0.132E+00
   -.178E+01 -.190E+00 0.121E+04   0.158E+01 0.192E+00 -.121E+04   0.189E+00 0.800E-02 -.198E+00
   -.355E+01 -.200E-04 0.762E+03   0.359E+01 0.318E-04 -.762E+03   0.196E+00 0.369E-05 0.119E+00
   -.756E+00 -.397E-04 0.121E+04   0.569E+00 0.370E-04 -.121E+04   0.185E+00 -.130E-05 -.206E+00
   -.698E+01 -.190E+00 0.759E+03   0.703E+01 0.204E+00 -.758E+03   0.205E+00 -.620E-02 0.120E+00
   -.512E+01 0.220E+01 -.749E+03   0.481E+01 -.218E+01 0.749E+03   0.286E+00 0.863E-04 -.181E+00
   -.123E+02 -.900E-04 -.114E+04   0.124E+02 0.882E-04 0.114E+04   0.359E+00 0.123E-05 0.222E+00
   -.268E+01 -.643E-04 -.740E+03   0.237E+01 0.708E-04 0.740E+03   0.289E+00 -.645E-06 -.117E+00
   -.425E+01 0.829E+00 -.114E+04   0.444E+01 -.838E+00 0.114E+04   0.289E+00 0.243E-01 0.153E+00
   0.279E+02 0.112E+02 -.267E+04   -.286E+02 -.112E+02 0.267E+04   0.713E+00 -.569E-01 -.842E+00
   -.743E+02 -.733E-04 -.305E+04   0.742E+02 0.770E-04 0.304E+04   0.114E+01 0.979E-06 0.160E+01
   0.124E+02 -.306E-04 -.266E+04   -.131E+02 0.540E-04 0.266E+04   0.638E+00 0.566E-05 -.765E+00
   -.631E+02 0.325E+02 -.302E+04   0.629E+02 -.324E+02 0.302E+04   0.124E+01 -.758E-01 0.157E+01
   0.454E+01 0.136E-04 0.323E+04   0.502E+00 0.137E-05 -.322E+04   -.150E+01 -.212E-05 -.438E+01
   0.533E+01 0.133E+00 0.265E+04   -.709E+01 -.135E+00 -.265E+04   0.121E+00 0.775E-03 0.135E+00
   0.444E+01 -.129E+00 0.323E+04   0.577E+00 0.133E+00 -.322E+04   -.149E+01 -.134E-02 -.438E+01
   0.317E+01 0.118E-04 0.265E+04   -.490E+01 0.958E-07 -.265E+04   0.113E+00 -.206E-06 0.129E+00
   0.846E+00 -.278E-04 0.121E+04   -.103E+01 0.342E-04 -.121E+04   0.995E-01 0.231E-06 -.119E+00
   -.131E+01 0.147E+01 0.764E+03   0.137E+01 -.145E+01 -.764E+03   0.132E+00 -.423E-01 0.124E+00
   -.342E+00 0.480E+00 0.121E+04   0.149E+00 -.469E+00 -.121E+04   0.192E+00 -.278E-01 -.199E+00
   -.111E+02 0.573E-04 0.744E+03   0.112E+02 -.547E-04 -.744E+03   0.233E+00 -.555E-06 0.113E+00
   0.685E+00 -.344E-05 -.750E+03   -.930E+00 0.853E-06 0.750E+03   0.440E-01 -.149E-05 -.137E+00
   -.122E+02 0.521E+01 -.112E+04   0.124E+02 -.520E+01 0.112E+04   0.281E+00 -.604E-01 0.219E+00
   0.529E+00 0.167E+01 -.728E+03   -.808E+00 -.165E+01 0.728E+03   0.287E+00 -.152E-01 -.124E+00
   -.648E+01 0.196E-03 -.118E+04   0.662E+01 -.211E-03 0.118E+04   0.273E+00 -.185E-05 0.731E-01
   0.515E+02 -.204E-04 -.266E+04   -.519E+02 -.143E-04 0.266E+04   0.203E+00 -.303E-05 -.663E+00
   -.851E+02 0.189E+02 -.303E+04   0.850E+02 -.187E+02 0.303E+04   0.120E+01 -.190E+00 0.161E+01
   -.912E+01 0.343E+02 -.259E+04   0.838E+01 -.343E+02 0.259E+04   0.734E+00 0.106E-01 -.604E+00
   0.169E+01 -.419E-02 -.298E+04   -.136E+01 0.399E-02 0.298E+04   0.570E+00 0.928E-04 0.294E+00
   -.312E+02 -.263E-01 0.218E+04   0.361E+02 0.266E-01 -.220E+04   -.673E+01 -.221E-03 0.176E+02
   -.315E+02 -.331E-01 0.218E+04   0.364E+02 0.320E-01 -.220E+04   -.673E+01 0.141E-02 0.176E+02
   0.777E+02 0.189E-01 0.133E+04   -.819E+02 -.238E-01 -.132E+04   0.344E+01 0.467E-02 -.411E+01
   0.722E+02 -.625E-02 0.162E+04   -.788E+02 0.659E-02 -.161E+04   0.702E+01 -.605E-03 -.247E+01
   -.834E+02 -.554E-01 0.186E+04   0.900E+02 0.558E-01 -.186E+04   -.640E+01 -.154E-02 -.552E+00
   -.637E+02 -.752E+00 0.101E+04   0.684E+02 0.812E+00 -.102E+04   -.491E+01 -.606E-01 0.430E+01
   0.783E+02 0.467E-01 0.132E+04   -.825E+02 -.212E-01 -.132E+04   0.343E+01 -.279E-01 -.401E+01
   0.713E+02 0.856E-01 0.162E+04   -.779E+02 -.932E-01 -.161E+04   0.702E+01 0.159E-01 -.248E+01
[...]
   0.829E+02 0.723E-04 -.104E+04   -.891E+02 -.826E-04 0.105E+04   0.623E+01 0.144E-04 -.833E+01
   0.678E+02 -.565E-04 -.681E+03   -.732E+02 0.744E-04 0.684E+03   0.542E+01 -.401E-05 -.284E+01
   -.775E+02 0.740E+00 -.441E+03   0.832E+02 -.726E+00 0.438E+03   -.576E+01 -.205E-01 0.264E+01
   -.597E+02 0.784E+01 -.122E+04   0.609E+02 -.803E+01 0.121E+04   -.179E+01 0.184E+00 0.999E+01
   0.772E+02 0.709E+01 -.101E+04   -.829E+02 -.727E+01 0.101E+04   0.575E+01 0.183E+00 -.631E+01
   0.765E+02 0.960E+00 -.696E+03   -.824E+02 -.104E+01 0.699E+03   0.588E+01 0.545E-01 -.320E+01
   -.693E+02 -.213E-03 -.446E+03   0.746E+02 0.225E-03 0.444E+03   -.542E+01 0.168E-05 0.224E+01
   -.548E+02 -.293E-03 -.124E+04   0.593E+02 0.307E-03 0.124E+04   -.475E+01 -.125E-04 0.693E+01
   0.995E+02 -.112E-02 -.217E+04   -.105E+03 0.106E-02 0.219E+04   0.502E+01 0.853E-04 -.212E+02
   0.474E+02 -.269E-04 -.192E+04   -.509E+02 -.302E-05 0.193E+04   0.343E+01 0.347E-04 -.738E+01
   -.474E+02 0.570E+01 -.159E+04   0.518E+02 -.542E+01 0.159E+04   -.466E+01 -.274E+00 0.289E+01
   0.129E+02 0.271E+02 -.217E+04   -.182E+02 -.270E+02 0.219E+04   0.512E+01 -.217E-01 -.204E+02
   0.731E+02 0.429E+02 -.186E+04   -.779E+02 -.425E+02 0.187E+04   0.478E+01 -.391E+00 -.639E+01
   -.703E+02 -.551E-03 -.151E+04   0.746E+02 0.464E-03 0.151E+04   -.439E+01 0.102E-03 0.396E+01
   -.255E+02 -.533E-02 0.612E+02   0.313E-12 -.162E-11 0.432E-11   0.255E+02 0.526E-02 -.611E+02

 POSITION                                       TOTAL-FORCE (eV/Angst)
      6.29583      5.75885     21.99163        -0.083376      0.008347     -0.109421
      5.58647      5.75894     22.72634        -0.042961     -0.000425     -0.024876
      6.89170      4.93871     22.12479         0.020790     -0.034108     -0.059393
      6.89175      6.57924     22.12481         0.015571      0.026322     -0.060966
      8.55404      9.59823      8.23961         3.561020      0.000909      1.562751
      6.28143      7.67858      9.13291        -1.642941      0.001409     -1.736802
      3.30657      7.67858      8.23961         3.541412     -0.003525      1.553381
      1.03396      9.59823      9.13291        -1.663182     -0.004393     -1.742434
      9.95736      9.59884     11.85837        -0.027223     -0.008251     -0.227821
      7.65865      7.67404     12.66179         0.167791      0.015945      0.276006
      4.70640      7.67543     11.85563        -0.017118      0.013653     -0.196232
      2.40301      9.59740     12.66841         0.221125     -0.007169      0.278834
      0.91868      9.59898     15.47902        -0.056756     -0.010920     -0.331682
      9.08728      7.67045     16.18209         0.405178      0.042355      0.449849
      6.15634      7.67595     15.46021        -0.021966     -0.003799     -0.245281
      3.82736      9.59874     16.20356         0.433874     -0.012310      0.457077
      2.42582      9.59075     19.18099        -0.086928      0.017046     -0.606597
      0.00586      7.66603     19.71157         0.937861      0.013804      0.455263
      7.66242      7.68028     19.10807        -0.073337     -0.026744     -0.503184
      5.27187      9.61298     19.70195         0.927323     -0.022857      0.438750
      8.55404      1.91965      8.23961         3.560977     -0.000909      1.562757
      6.28143      0.00000      9.13291        -1.653026     -0.000003     -1.740842
      3.30657      0.00000      8.23961         3.552645      0.000015      1.556643
      1.03396      1.91965      9.13291        -1.663178      0.004368     -1.742491
      9.95736      1.91904     11.85837        -0.027216      0.008231     -0.227799
      7.65400      0.00000     12.66192         0.203121      0.000016      0.287376
      4.70621     11.51788     11.85781        -0.017450     -0.000004     -0.218572
      2.40301      1.92048     12.66840         0.221126      0.007163      0.278842
      0.91868      1.91890     15.47902        -0.056724      0.010929     -0.331674
      9.07643     11.51788     16.19147         0.451205     -0.000000      0.453819
      6.16178     11.51788     15.46781        -0.055169      0.000006     -0.307688
      3.82736      1.91914     16.20355         0.433874      0.012314      0.457064
      2.42581      1.92712     19.18098        -0.086945     -0.017008     -0.606592
      0.02729     11.51788     19.71118         0.888803      0.000005      0.465927
      7.69084     11.51787     19.16045        -0.124274      0.000028     -0.604199
      5.27187      1.90489     19.70194         0.927349      0.022920      0.438783
      8.55404      5.75894      8.23961         3.564610      0.000013      1.555674
      6.28143      3.83929      9.13291        -1.642962     -0.001410     -1.736765
      3.30657      3.83929      8.23961         3.541455      0.003535      1.553364
      1.03396      5.75894      9.13291        -1.629897      0.000012     -1.696879
      9.97179      5.75894     11.85233        -0.096344      0.000007     -0.188865
      7.65865      3.84384     12.66179         0.167769     -0.015955      0.275981
      4.70640      3.84245     11.85563        -0.017117     -0.013650     -0.196245
      2.40510      5.75894     12.69594         0.241338      0.000003      0.171789
      0.95033      5.75894     15.48422        -0.203071     -0.000003     -0.320191
      9.08728      3.84743     16.18209         0.405178     -0.042345      0.449858
      6.15634      3.84193     15.46021        -0.021977      0.003795     -0.245262
      3.84235      5.75894     16.28847         0.373899     -0.000015      0.242993
      2.46606      5.75894     19.20249        -0.223948     -0.000037     -0.589228
      0.00586      3.85184     19.71157         0.937838     -0.013820      0.455268
      7.66242      3.83759     19.10806        -0.073381      0.026747     -0.503129
      5.30557      5.75894     19.86499         0.809920     -0.000102      0.404458
      5.18821      7.67858      7.50000        -1.781691      0.000081      0.906763
     10.43568      9.59823      7.50000        -1.779266      0.000341      0.903963
      9.64726      9.59823      9.87252        -0.776636     -0.000234     -0.013342
      6.67240      9.59823      8.97923         0.417765     -0.000252     -0.080389
      8.16307      7.67858      8.39329         0.212481     -0.001215     -1.066122
      6.59271      7.67858     11.07317        -0.201025      0.000221      0.314710
      4.39979      7.67858      9.87252        -0.784038     -0.002258     -0.007256
      1.42493      7.67858      8.97923         0.424297      0.008437     -0.086043
[...]
      2.78975      5.75894     14.67120        -0.119310      0.000005     -0.168293
      2.04328      5.75894     17.07975         0.049390      0.000005      0.352833
      9.51648      5.75894     16.11406         0.035962      0.000014     -0.000410
      0.53793      3.84144     15.55723        -0.077088     -0.005795      0.002555
      9.57795      3.84053     18.17285        -0.511634     -0.004413     -0.588840
      7.30851      3.83174     17.04483        -0.004632     -0.002491      0.221550
      4.27551      3.84130     16.15214        -0.015882     -0.024657      0.006371
      5.78128      5.75894     15.57927        -0.106245      0.000015      0.028062
      4.30855      5.75894     18.26367        -0.284399      0.000003     -0.305697
      3.61902      5.75894     20.66899        -0.080721      0.000023      0.341518
      0.54608      5.75894     19.94993         0.009038      0.000005      0.020363
      2.03623      3.84189     19.19664        -0.196001      0.007824      0.031721
      8.85836      3.85879     20.58196        -0.128269      0.000904      0.298182
      5.80982      3.81086     19.90430        -0.034584     -0.031072      0.025311
      7.26346      5.75894     19.12920        -0.160767      0.000016      0.028724
    total drift:                               -0.002596     -0.000068      0.057955

  FREE ENERGIE OF THE ION-ELECTRON SYSTEM (eV)
  free  energy   TOTEN  =     -1165.18650204 eV

  energy  without entropy=    -1165.18650204  energy(sigma->0) =    -1165.18650204