 vasp.6.3.0 20Jan22 (build Mar 11 2022 13:48:16) complex

 executed on             LinuxIFC date 2024.01.22  07:43:58

 INCAR:
   SYSTEM = TiO2
   ISMEAR = 0
   SIGMA = 0.05
   EDIFF = 1E-5
   ALGO = ALL
   ISTART = 0
   IBRION = -1
   NSW = 0
   ISYM = 0
   ISIF = 2
   EDIFFG = -0.01
   DIPOL = 0.5 0.5 0.5
   IDIPOL = 3
   LDIPOL = .TRUE.
   METAGGA = R2SCAN
   LUSE_VDW = .TRUE.
   BPARAM = 11.95
   CPARAM = 0.0093
   LASPH = .TRUE.
   ENCUT = 600
   PREC = Accurate
   LASPH = .TRUE.
   LREAL = .FALSE.
   ISPIN = 1
   NELM = 200
   NELMIN = 8
   NCORE = 2
   KPAR = 1
   LWAVE = .FALSE.
   LCHARG = .FALSE.

 POTCAR:    PAW_PBE H 15Jun2001
 POTCAR:    PAW_PBE O 08Apr2002
 POTCAR:    PAW_PBE Ti_pv 07Sep2000
 POTCAR:    PAW_PBE O 08Apr2002
|           W    W    AA    RRRRR   N    N  II  N    N   GGGG   !!!           |
|           W    W   A  A   R    R  NN   N  II  NN   N  G    G  !!!           |
|           W    W  A    A  R    R  N N  N  II  N N  N  G       !!!           |
|           W WW W  AAAAAA  RRRRR   N  N N  II  N  N N  G  GGG   !            |
|           WW  WW  A    A  R   R   N   NN  II  N   NN  G    G                |
|           W    W  A    A  R    R  N    N  II  N    N   GGGG   !!!           |
|     For optimal performance we recommend to set                             |
|       NCORE = 2 up to number-of-cores-per-socket                            |
|     This setting can greatly improve the performance of VASP for DFT.       |
|     The default, NCORE=1 might be grossly inefficient on modern             |
|     multi-core architectures or massively parallel machines. Do your        |
|     Unfortunately you need to use the default for GW and RPA                |
|     calculations (for HF NCORE is supported but not extensively tested      |
|     yet).                                                                   |

   TITEL  = PAW_PBE H 15Jun2001
   POMASS =    1.000; ZVAL   =    1.000    mass and valenz
   ENMAX  =  250.000; ENMIN  =  200.000 eV

   TITEL  = PAW_PBE O 08Apr2002
   POMASS =   16.000; ZVAL   =    6.000    mass and valenz
   ENMAX  =  400.000; ENMIN  =  300.000 eV

   TITEL  = PAW_PBE Ti_pv 07Sep2000
   POMASS =   47.880; ZVAL   =   10.000    mass and valenz
   ENMAX  =  222.335; ENMIN  =  166.751 eV

   TITEL  = PAW_PBE O 08Apr2002
   POMASS =   16.000; ZVAL   =    6.000    mass and valenz
   ENMAX  =  400.000; ENMIN  =  300.000 eV

  PAW_PBE H 15Jun2001                   :
  PAW_PBE O 08Apr2002                   :
  PAW_PBE Ti_pv 07Sep2000               :
  PAW_PBE O 08Apr2002                   :

 POSCAR:  H  O Ti  O
  positions in direct lattice

 METAGGA = R2SCA    LMAXTAU =  6    LMIXTAU =  F

 ion  position               nearest neighbor table
   1  0.687  0.568  0.773-   3 0.98
   2  0.687  0.432  0.773-   3 0.98
   3  0.629  0.500  0.773-   1 0.98   2 0.98  51 2.26
   4  0.810  0.833  0.295-  54 1.94  88 1.94  56 1.94  55 2.00  53 2.00   7 3.06  21 3.06   5 3.06

   5  0.594  0.667  0.326-  57 1.94 119 1.94  52 1.94  55 1.94  58 2.00  56 2.00   6 3.06  36 3.06
                             4 3.06  10 3.09
   6  0.310  0.667  0.295-  58 1.94 124 1.94  60 1.94  59 2.00  52 2.00   5 3.06  39 3.06   7 3.06

   7  0.094  0.833  0.326-  61 1.94  91 1.94  53 1.94  59 1.94  54 2.00  60 2.00   4 3.06  22 3.06
                             6 3.06   8 3.09
   8  0.946  0.833  0.422-  62 1.93  96 1.94  64 1.94  54 1.98  63 1.99  61 2.00  11 3.01   9 3.05
                            25 3.06   7 3.09
   9  0.728  0.666  0.451-  57 1.90 127 1.94  63 1.94  65 1.96  66 2.00  64 2.00  10 3.02   8 3.05
                            40 3.06  14 3.11
  10  0.446  0.666  0.422-  66 1.93 132 1.94  68 1.94  58 1.98  67 1.99  57 2.00   9 3.02  11 3.06
                            43 3.06   5 3.09
  11  0.227  0.833  0.452-  61 1.90  99 1.94  67 1.94  69 1.97  62 1.98  68 2.01   8 3.01  26 3.06
                            10 3.06  12 3.11
  12  0.087  0.834  0.550-  70 1.93 104 1.93  72 1.94  71 1.98  69 2.00  62 2.01  15 2.96  13 3.05
                            29 3.06  11 3.11
  13  0.866  0.666  0.575-  65 1.87 135 1.94  71 1.95  74 1.96  73 2.01  72 2.01  14 2.99  12 3.05
                            44 3.06  18 3.17
  14  0.585  0.667  0.549- 140 1.94  74 1.94  76 1.94  66 1.98  75 1.98  65 2.02  13 2.99  15 3.06
                            47 3.07   9 3.11
  15  0.365  0.833  0.577-  69 1.87 107 1.94  75 1.95  70 1.96  77 2.00  76 2.01  12 2.96  30 3.06
                            14 3.06
  16  0.231  0.833  0.681-  78 1.86  80 1.93 112 1.94  79 2.00  77 2.10  70 2.10  19 2.86  33 3.08
                            17 3.10
  17  0.001  0.666  0.700-  73 1.78  81 1.84 143 1.97  79 1.99  80 2.06  18 2.87  16 3.10  48 3.11

[...]

  20  0.810  0.167  0.295-  86 1.94  88 1.94 120 1.94  87 2.00  85 2.00  23 3.06  21 3.06  37 3.06

[...]

  36  0.810  0.500  0.295- 118 1.94  56 1.94 120 1.94 119 2.00 117 2.00  39 3.06   5 3.06  37 3.06

  37  0.594  0.333  0.326- 121 1.94 119 1.94 116 1.94  87 1.94 122 2.00 120 2.00  38 3.06  36 3.06
                            20 3.06  42 3.09
  38  0.310  0.333  0.295- 122 1.94 124 1.94  92 1.94 123 2.00 116 2.00  37 3.06  39 3.06  23 3.06

  39  0.094  0.500  0.326- 125 1.94 123 1.94  59 1.94 117 1.94 118 2.00 124 2.00  36 3.06   6 3.06
                            38 3.06  40 3.07
  40  0.948  0.500  0.422- 126 1.93  64 1.94 128 1.94 118 1.98 125 1.98 127 2.00  43 3.01   9 3.06
                            41 3.06  39 3.07
  41  0.728  0.334  0.451- 121 1.90 127 1.94  95 1.94 129 1.96 130 2.00 128 2.00  42 3.02  24 3.05
                            40 3.06  46 3.11
  42  0.446  0.334  0.422- 130 1.93 132 1.94 100 1.94 122 1.98 131 1.99 121 2.00  41 3.02  27 3.06
                            43 3.06  37 3.09
  43  0.227  0.500  0.453- 125 1.93  67 1.94 131 1.94 126 1.97 133 1.97 132 2.01  40 3.01  10 3.06
                            42 3.06  44 3.08
  44  0.090  0.500  0.550- 134 1.93 136 1.94  72 1.94 133 1.98 135 2.00 126 2.01  47 2.97  13 3.06
                            45 3.06  43 3.08
  45  0.866  0.334  0.575- 129 1.87 135 1.94 103 1.95 138 1.96 137 2.01 136 2.01  46 2.99  28 3.05
                            44 3.06  50 3.17
  46  0.585  0.333  0.549- 140 1.94 138 1.94 108 1.94 130 1.98 139 1.98 129 2.02  45 2.99  31 3.06
                            47 3.07  41 3.11
  47  0.367  0.500  0.580- 133 1.93 139 1.94  75 1.94 134 1.95 141 1.99 140 2.03  44 2.97  46 3.07
                            14 3.07  48 3.15
  48  0.235  0.500  0.681- 142 1.86 144 1.94  80 1.94 143 2.03 141 2.05 134 2.09  51 2.88  49 3.11
                            17 3.11  47 3.15
  49  0.001  0.334  0.700- 137 1.78 145 1.84 143 1.97 111 1.99 144 2.06  50 2.87  32 3.10  48 3.11

  50  0.729  0.334  0.677- 145 1.89 147 1.93 115 1.95 146 1.99 138 2.03 137 2.09  49 2.87  35 3.09
                            51 3.09  45 3.17
  51  0.506  0.500  0.706- 142 1.82 141 1.87  82 1.98 146 1.98 147 2.11   3 2.26  48 2.88  50 3.09
                            18 3.09
  52  0.490  0.667  0.268-   5 1.94   6 2.00
  53  0.990  0.833  0.268-   7 1.94   4 2.00
  54  0.914  0.833  0.353-   4 1.94   8 1.98   7 2.00
  55  0.630  0.833  0.321-  21 1.94   5 1.94   4 2.00
  56  0.773  0.667  0.300-  36 1.94   4 1.94   5 2.00
  57  0.625  0.667  0.395-   9 1.90   5 1.94  10 2.00
  58  0.414  0.667  0.353-   6 1.94  10 1.98   5 2.00
  59  0.130  0.667  0.321-  39 1.94   7 1.94   6 2.00
  60  0.273  0.833  0.300-  22 1.94   6 1.94   7 2.00
  61  0.125  0.833  0.395-  11 1.90   7 1.94   8 2.00
  62  0.051  0.834  0.480-   8 1.93  11 1.98  12 2.01
  63  0.766  0.833  0.447-  25 1.94   9 1.94   8 1.99
  64  0.910  0.667  0.427-   8 1.94  40 1.94   9 2.00
  65  0.764  0.666  0.520-  13 1.87   9 1.96  14 2.02
  66  0.551  0.666  0.479-  10 1.93  14 1.98   9 2.00
  67  0.266  0.667  0.448-  43 1.94  11 1.94  10 1.99
  68  0.409  0.833  0.427-  10 1.94  26 1.94  11 2.01
  69  0.264  0.833  0.521-  15 1.87  11 1.97  12 2.00
  70  0.194  0.833  0.607-  12 1.93  15 1.96  16 2.10
  71  0.905  0.833  0.573-  29 1.94  13 1.95  12 1.98
  72  0.052  0.666  0.553-  44 1.94  12 1.94  13 2.01
  73  0.913  0.668  0.645-  17 1.78  13 2.01  18 2.09
  74  0.695  0.669  0.605-  14 1.94  13 1.96  18 2.03
  75  0.406  0.666  0.574-  47 1.94  15 1.95  14 1.98
  76  0.549  0.833  0.553-  30 1.94  14 1.94  15 2.01
  77  0.412  0.834  0.646-  19 1.79  15 2.00  16 2.10
  78  0.347  0.833  0.732-  19 1.84  16 1.86
  79  0.052  0.833  0.708-  33 1.98  17 1.99  16 2.00
  80  0.194  0.666  0.681-  16 1.93  48 1.94  17 2.06
  81  0.842  0.661  0.730-  17 1.84  18 1.89
  82  0.555  0.668  0.707-  19 1.97  51 1.98  18 1.99
  83  0.695  0.834  0.679-  34 1.93  18 1.95  19 2.05
  84  0.490  0.000  0.268-  21 1.94  22 2.00
  85  0.990  0.167  0.268-  23 1.94  20 2.00
  86  0.914  0.167  0.353-  20 1.94  24 1.98  23 2.00
  87  0.630  0.167  0.321-  21 1.94  37 1.94  20 2.00
  88  0.773  0.000  0.300-   4 1.94  20 1.94  21 2.00
  89  0.625  0.000  0.395-  25 1.90  21 1.94  26 2.00
  90  0.414  0.000  0.353-  22 1.94  26 1.98  21 2.00
  91  0.130  0.000  0.321-   7 1.94  23 1.94  22 2.00
  92  0.273  0.167  0.300-  22 1.94  38 1.94  23 2.00
  93  0.125  0.167  0.395-  27 1.90  23 1.94  24 2.00
  94  0.051  0.166  0.480-  24 1.93  27 1.98  28 2.01
  95  0.766  0.167  0.447-  25 1.94  41 1.94  24 1.99
  96  0.910  0.000  0.427-  24 1.94   8 1.94  25 2.00
  97  0.764  1.000  0.520-  29 1.87  25 1.97  30 2.01
  98  0.551  1.000  0.479-  26 1.93  25 1.99  30 2.00
  99  0.266  1.000  0.448-  27 1.94  11 1.94  26 1.99
 100  0.409  0.167  0.427-  42 1.94  26 1.94  27 2.01
 101  0.264  0.167  0.521-  31 1.87  27 1.97  28 2.00
 102  0.194  0.167  0.607-  28 1.93  31 1.96  32 2.10
 103  0.905  0.167  0.573-  29 1.94  45 1.95  28 1.98
 104  0.052  1.000  0.553-  28 1.93  12 1.93  29 2.02
 105  0.913  0.000  0.645-  33 1.79  29 2.01  34 2.09
 106  0.694  1.000  0.606-  30 1.93  29 1.95  34 2.09
 107  0.405  1.000  0.574-  15 1.94  31 1.94  30 1.98
 108  0.549  0.167  0.553-  30 1.94  46 1.94  31 2.01
 109  0.412  0.166  0.646-  35 1.79  31 2.00  32 2.10
 110  0.347  0.167  0.732-  35 1.84  32 1.86
 111  0.052  0.167  0.708-  33 1.98  49 1.99  32 2.00
[...]
 133  0.266  0.500  0.522-  47 1.93  43 1.97  44 1.98
 134  0.194  0.500  0.608-  44 1.93  47 1.95  48 2.09
 135  0.906  0.500  0.573-  13 1.94  45 1.94  44 2.00
 136  0.052  0.334  0.553-  44 1.94  28 1.94  45 2.01
 137  0.913  0.332  0.645-  49 1.78  45 2.01  50 2.09
 138  0.695  0.331  0.605-  46 1.94  45 1.96  50 2.03
 139  0.406  0.334  0.574-  47 1.94  31 1.95  46 1.98
 140  0.551  0.500  0.554-  14 1.94  46 1.94  47 2.03
 141  0.413  0.500  0.649-  51 1.87  47 1.99  48 2.05
 142  0.345  0.500  0.734-  51 1.82  48 1.86
 143  0.052  0.500  0.708-  17 1.97  49 1.97  48 2.03
 144  0.194  0.334  0.681-  32 1.93  48 1.94  49 2.06
 145  0.842  0.339  0.730-  49 1.84  50 1.89
 146  0.555  0.332  0.707-  35 1.97  51 1.98  50 1.99
 147  0.692  0.500  0.675-  18 1.93  50 1.93  51 2.11

IMPORTANT INFORMATION: All symmetrisations will be switched off!
NOSYMM: (Re-)initialisation of all symmetry stuff for point group C_1.

                                     Primitive cell

[...]
  10.20994543  9.49375173  7.50000000
   9.42765604  9.49375173  9.85177208
   6.49883529  9.49375173  8.96904170
   7.97998172  7.59500139  8.38273038
   6.44887506  7.59500139 11.03092153
   4.26887158  7.59500139  9.85177208
   1.34005082  7.59500139  8.96904170
   2.82119725  9.49375173  8.38273038
[...]
   2.74048625  5.69625051 14.58105333
   2.00456044  5.69625071 16.97747614
   9.34428215  5.69625079 16.01697864
   0.53296518  3.79943307 15.45660320
   9.41924550  3.78083963 18.02219307
   7.17224799  3.76553577 16.91490554
   4.18759974  3.79956037 16.04949920
   5.68532190  5.69625083 15.48225012
   4.25938983  5.69625142 18.12694258
   3.56470272  5.69625427 20.50164494
   0.53483716  5.69625066 19.77557087
   2.00278039  3.80187348 19.04016619
   8.68748311  3.86678156 20.40773494
   5.72304274  3.77940230 19.76832058
   7.14072922  5.69625190 18.87118785

--------------------------------------- Iteration      FINAL  ---------------------------------------

--------------------OUTCAR has been truncated-------------------------

[...]

--------------------OUTCAR has been truncated-------------------------

  FORCE on cell =-STRESS in cart. coord.  units (eV):
  Direction    XX          YY          ZZ          XY          YZ          ZX
  Alpha Z  2424.86000  2424.86000  2424.86000
  Ewald  484309.36315477582.50184************     0.00562    -0.00171 -1863.77654
  Hartree505409.22631501340.29198************     0.00155    -0.00092 -1245.40457
  E(xc)   -5509.81265 -5509.59346 -5507.29941     0.00001     0.00000    -1.26668
  Local  ************************998633.71215    -0.00556     0.00231  3116.77247
  n-local -3147.97205 -3120.91331 -3165.36020    -0.00029     0.00002     3.19471
  augment  3313.09563  3309.89112  3306.57010    -0.00003     0.00002    -1.78922
  Kinetic 17169.58261 17234.16382 17312.73095    -0.00006     0.00014   -15.40448
  Fock        0.00000     0.00000     0.00000     0.00000     0.00000     0.00000
  Total     -82.37328   -48.01989   -39.49936     0.00124    -0.00014    -7.67430
  in kB     -40.17941   -23.42278   -19.26670     0.00061    -0.00007    -3.74331

 VOLUME and BASIS-vectors are now :
  energy-cutoff  :      600.00
  volume of cell :     3284.68
      direct lattice vectors                 reciprocal lattice vectors
    10.317568932  0.000000000  0.000000000     0.096922057 -0.000000000  0.000000000
     0.000000000 11.392502081  0.000000000     0.000000000  0.087777030  0.000000000
     0.000000000  0.000000000 27.944536660     0.000000000  0.000000000  0.035785170

  length of vectors
    10.317568932 11.392502081 27.944536660     0.096922057  0.087777030  0.035785170

 FORCES acting on ions:
    Electron-Ion                     Ewald-Force                    Non-Local-Force
   -.512E+02 -.659E+02 -.359E+03   0.558E+02 0.721E+02 0.359E+03   -.494E+01 -.656E+01 0.430E-01
   -.512E+02 0.659E+02 -.359E+03   0.558E+02 -.721E+02 0.359E+03   -.494E+01 0.656E+01 0.429E-01
   0.101E+02 0.382E-02 -.217E+04   -.511E+02 -.662E-02 0.218E+04   0.415E+02 0.688E-03 -.870E+01
   0.603E+01 -.110E+00 0.335E+04   -.843E+00 0.113E+00 -.334E+04   -.114E+01 -.772E-03 -.351E+01
   0.477E+01 -.253E+00 0.275E+04   -.644E+01 0.257E+00 -.276E+04   -.705E-01 -.128E-02 -.686E-01
   0.605E+01 0.983E-01 0.335E+04   -.901E+00 -.101E+00 -.334E+04   -.114E+01 0.825E-03 -.351E+01
   0.317E+01 0.413E-01 0.275E+04   -.489E+01 -.465E-01 -.276E+04   -.611E-01 0.125E-02 -.725E-01
   -.146E+00 -.157E+00 0.126E+04   -.241E-01 0.162E+00 -.126E+04   0.150E+00 -.361E-02 -.554E-02
   0.191E+01 -.229E+01 0.800E+03   -.187E+01 0.227E+01 -.800E+03   -.252E-01 0.282E-01 -.117E+00
   0.186E+01 -.244E+00 0.126E+04   -.202E+01 0.234E+00 -.126E+04   0.141E+00 0.947E-02 -.287E-01
   -.523E+01 0.230E+00 0.789E+03   0.525E+01 -.234E+00 -.789E+03   0.227E-02 0.168E-02 -.118E+00
   -.661E+01 -.237E+01 -.776E+03   0.631E+01 0.237E+01 0.776E+03   0.289E+00 -.278E-02 0.105E+00
   -.118E+02 -.449E+01 -.116E+04   0.119E+02 0.453E+01 0.116E+04   -.350E-01 -.347E-01 -.179E+00
   0.247E+01 -.242E+01 -.742E+03   -.273E+01 0.242E+01 0.742E+03   0.248E+00 0.581E-02 0.683E-01
   0.133E+01 -.234E+01 -.119E+04   -.122E+01 0.235E+01 0.119E+04   -.554E-01 -.122E-01 -.236E+00
   0.287E+02 -.126E+02 -.278E+04   -.297E+02 0.126E+02 0.278E+04   0.946E+00 0.240E-01 -.169E+00
   -.895E+02 -.278E+02 -.316E+04   0.895E+02 0.276E+02 0.316E+04   0.135E+00 0.179E+00 0.926E+00
   -.116E+02 -.547E+02 -.267E+04   0.108E+02 0.547E+02 0.267E+04   0.813E+00 -.147E-01 -.149E-01
   -.574E+02 -.348E+02 -.316E+04   0.573E+02 0.348E+02 0.315E+04   0.173E+00 0.126E-01 0.945E+00
   0.603E+01 0.110E+00 0.335E+04   -.843E+00 -.113E+00 -.334E+04   -.114E+01 0.775E-03 -.351E+01
   0.468E+01 -.375E-04 0.275E+04   -.638E+01 0.387E-04 -.276E+04   -.626E-01 -.137E-05 -.754E-01
   0.591E+01 -.895E-05 0.335E+04   -.733E+00 0.122E-04 -.334E+04   -.114E+01 -.904E-06 -.351E+01
   0.317E+01 -.413E-01 0.275E+04   -.489E+01 0.466E-01 -.276E+04   -.611E-01 -.125E-02 -.725E-01
   -.145E+00 0.157E+00 0.126E+04   -.242E-01 -.162E+00 -.126E+04   0.150E+00 0.360E-02 -.554E-02
   -.135E+01 -.220E-03 0.795E+03   0.136E+01 0.235E-03 -.794E+03   0.132E-01 -.364E-05 -.122E+00
   0.198E+01 -.134E-03 0.126E+04   -.214E+01 0.125E-03 -.126E+04   0.143E+00 0.401E-05 -.249E-01
   -.523E+01 -.230E+00 0.789E+03   0.525E+01 0.234E+00 -.789E+03   0.228E-02 -.168E-02 -.118E+00
   -.661E+01 0.236E+01 -.776E+03   0.631E+01 -.236E+01 0.776E+03   0.289E+00 0.277E-02 0.105E+00
   -.898E+01 -.522E-04 -.118E+04   0.905E+01 0.526E-04 0.118E+04   -.644E-02 0.112E-05 -.203E+00
   -.166E+01 -.594E-04 -.765E+03   0.137E+01 0.516E-04 0.765E+03   0.276E+00 0.157E-05 0.129E+00
   0.133E+01 0.234E+01 -.119E+04   -.122E+01 -.235E+01 0.119E+04   -.554E-01 0.122E-01 -.236E+00
   0.287E+02 0.126E+02 -.278E+04   -.297E+02 -.126E+02 0.278E+04   0.946E+00 -.240E-01 -.169E+00
   -.755E+02 -.495E-03 -.317E+04   0.754E+02 0.497E-03 0.317E+04   0.114E+00 0.576E-05 0.921E+00
   0.109E+02 -.821E-03 -.276E+04   -.117E+02 0.788E-03 0.276E+04   0.879E+00 0.102E-04 -.107E+00
   -.574E+02 0.348E+02 -.316E+04   0.573E+02 -.348E+02 0.315E+04   0.173E+00 -.126E-01 0.945E+00
   0.601E+01 0.250E-04 0.335E+04   -.821E+00 -.279E-04 -.335E+04   -.114E+01 -.242E-05 -.351E+01
   0.477E+01 0.253E+00 0.275E+04   -.644E+01 -.257E+00 -.276E+04   -.705E-01 0.129E-02 -.686E-01
   0.605E+01 -.983E-01 0.335E+04   -.901E+00 0.101E+00 -.334E+04   -.114E+01 -.819E-03 -.351E+01
   0.219E+01 0.278E-04 0.275E+04   -.386E+01 -.281E-04 -.276E+04   -.787E-01 0.189E-05 -.679E-01
   0.365E+00 0.199E-03 0.126E+04   -.526E+00 -.215E-03 -.126E+04   0.130E+00 0.444E-05 0.379E-01
   0.191E+01 0.229E+01 0.800E+03   -.187E+01 -.227E+01 -.800E+03   -.252E-01 -.282E-01 -.117E+00
   0.186E+01 0.244E+00 0.126E+04   -.202E+01 -.234E+00 -.126E+04   0.141E+00 -.948E-02 -.287E-01
   -.786E+01 0.696E-04 0.772E+03   0.791E+01 -.802E-04 -.772E+03   -.179E-01 0.197E-05 -.305E-01
   -.403E+01 0.153E-03 -.778E+03   0.381E+01 -.162E-03 0.778E+03   0.191E+00 0.480E-05 0.123E+00
   -.118E+02 0.449E+01 -.116E+04   0.119E+02 -.453E+01 0.116E+04   -.350E-01 0.347E-01 -.179E+00
   0.247E+01 0.242E+01 -.742E+03   -.273E+01 -.242E+01 0.742E+03   0.248E+00 -.581E-02 0.683E-01
   0.104E+01 0.160E-03 -.123E+04   -.922E+00 -.150E-03 0.123E+04   -.609E-01 -.378E-05 -.131E+00
   0.437E+02 0.867E-03 -.277E+04   -.445E+02 -.844E-03 0.277E+04   0.723E+00 -.823E-05 -.660E-01
   -.895E+02 0.278E+02 -.316E+04   0.895E+02 -.276E+02 0.316E+04   0.134E+00 -.179E+00 0.926E+00
   -.116E+02 0.547E+02 -.267E+04   0.108E+02 -.547E+02 0.267E+04   0.813E+00 0.147E-01 -.149E-01
   0.332E+02 0.279E-02 -.311E+04   -.328E+02 -.272E-02 0.311E+04   -.249E+00 -.299E-04 0.478E+00
   -.323E+02 -.441E-01 0.226E+04   0.374E+02 0.451E-01 -.228E+04   -.697E+01 -.117E-02 0.178E+02
   -.327E+02 -.419E-01 0.226E+04   0.377E+02 0.412E-01 -.228E+04   -.696E+01 0.929E-03 0.178E+02
   0.816E+02 0.259E-01 0.138E+04   -.863E+02 -.340E-01 -.137E+04   0.379E+01 0.662E-02 -.439E+01
   0.747E+02 -.897E-01 0.168E+04   -.817E+02 0.932E-01 -.167E+04   0.745E+01 -.699E-02 -.269E+01
   -.861E+02 -.117E+00 0.193E+04   0.933E+02 0.117E+00 -.193E+04   -.696E+01 -.194E-02 -.407E+00
   -.692E+02 -.988E+00 0.105E+04   0.747E+02 0.104E+01 -.106E+04   -.565E+01 -.424E-01 0.426E+01
   0.824E+02 0.349E-01 0.138E+04   -.871E+02 -.167E-01 -.137E+04   0.375E+01 -.206E-01 -.421E+01
   0.737E+02 0.716E-01 0.168E+04   -.807E+02 -.790E-01 -.167E+04   0.747E+01 0.169E-01 -.270E+01
   -.863E+02 0.878E-02 0.193E+04   0.934E+02 -.594E-02 -.193E+04   -.693E+01 -.827E-02 -.412E+00
[...]
   0.873E+02 0.398E-04 -.107E+04   -.942E+02 -.259E-04 0.108E+04   0.698E+01 -.146E-04 -.743E+01
   0.692E+02 0.232E-03 -.709E+03   -.752E+02 -.248E-03 0.712E+03   0.600E+01 -.245E-05 -.318E+01
   -.835E+02 0.119E+01 -.457E+03   0.899E+02 -.125E+01 0.454E+03   -.646E+01 0.612E-01 0.275E+01
   -.703E+02 0.155E+02 -.127E+04   0.726E+02 -.162E+02 0.126E+04   -.229E+01 0.680E+00 0.979E+01
   0.803E+02 0.162E+02 -.103E+04   -.865E+02 -.170E+02 0.103E+04   0.628E+01 0.760E+00 -.565E+01
   0.816E+02 0.169E+01 -.722E+03   -.880E+02 -.178E+01 0.725E+03   0.645E+01 0.842E-01 -.322E+01
   -.729E+02 0.168E-03 -.462E+03   0.790E+02 -.176E-03 0.460E+03   -.614E+01 0.360E-05 0.215E+01
   -.540E+02 0.317E-03 -.130E+04   0.591E+02 -.302E-03 0.129E+04   -.522E+01 -.255E-04 0.676E+01
   0.110E+03 0.281E-03 -.226E+04   -.116E+03 -.199E-03 0.228E+04   0.629E+01 -.108E-03 -.217E+02
   0.429E+02 0.164E-03 -.199E+04   -.467E+02 -.165E-03 0.199E+04   0.383E+01 -.150E-04 -.727E+01
   -.516E+02 0.784E+01 -.165E+04   0.565E+02 -.770E+01 0.165E+04   -.494E+01 -.141E+00 0.287E+01
   0.329E+01 0.367E+02 -.224E+04   -.840E+01 -.363E+02 0.226E+04   0.516E+01 -.386E+00 -.197E+02
   0.839E+02 0.562E+02 -.194E+04   -.888E+02 -.562E+02 0.195E+04   0.489E+01 -.840E-02 -.683E+01
   -.585E+02 0.878E-03 -.151E+04   0.618E+02 -.868E-03 0.151E+04   -.343E+01 -.264E-04 0.541E+01
   -.421E+02 0.430E-03 0.760E+02   0.000E+00 0.115E-11 0.136E-10   0.421E+02 -.413E-03 -.761E+02

 POSITION                                       TOTAL-FORCE (eV/Angst)
      7.09244      6.47109     21.59382        -0.270985     -0.372968     -0.017587
      7.09245      4.92140     21.59384        -0.272520      0.375013     -0.017566
      6.48570      5.69628     21.60597         0.476323     -0.002109     -0.103532
      8.35439      9.49375      8.23452         4.022684      0.002987      1.903971
      6.12443      7.59500      9.11725        -1.721911      0.002742     -1.990902
      3.19561      7.59500      8.23452         3.989041     -0.001605      1.881405
      0.96564      9.49375      9.11725        -1.762659     -0.003949     -1.995218
      9.76420      9.49522     11.80409        -0.015960      0.001432     -0.027088
      7.51333      7.59058     12.60331         0.010482     -0.000927      0.028874
      4.59760      7.59260     11.79930        -0.009678     -0.000909     -0.021445
      2.34304      9.49346     12.61729         0.017472     -0.001538      0.024108
      0.89963      9.49673     15.37421        -0.014463     -0.001350     -0.031640
      8.93980      7.59079     16.07344         0.029580      0.005053      0.048342
      6.03989      7.59343     15.34347        -0.007228     -0.000693     -0.025391
      3.76726      9.49422     16.11122         0.037071      0.000852      0.050695
      2.38773      9.48587     19.01810         0.035970     -0.000080     -0.027689
      0.00627      7.58429     19.55971         0.000725     -0.017792     -0.028509
      7.52429      7.58421     18.91343         0.018989     -0.014791     -0.016987
      5.19665      9.50384     19.56343        -0.011912     -0.007634     -0.026807
      8.35439      1.89875      8.23452         4.022666     -0.002993      1.903938
      6.12443      0.00000      9.11725        -1.747163     -0.000000     -1.989570
      3.19561      0.00000      8.23452         4.014720      0.000002      1.897484
      0.96564      1.89875      9.11725        -1.762672      0.003946     -1.995191
      9.76420      1.89728     11.80409        -0.015978     -0.001414     -0.027075
      7.50579     11.39250     12.60861         0.012579      0.000012      0.027939
      4.60037     11.39250     11.80361        -0.010039     -0.000006     -0.024109
      2.34304      1.89904     12.61729         0.017458      0.001544      0.024094
      0.89963      1.89577     15.37421        -0.014470      0.001362     -0.031673
      8.92529     11.39250     16.09175         0.032727      0.000002      0.046677
      6.04711     11.39250     15.36082        -0.014194     -0.000006     -0.034476
      3.76726      1.89828     16.11122         0.037092     -0.000856      0.050673
      2.38773      1.90663     19.01810         0.035998      0.000064     -0.027665
      0.03192     11.39250     19.56031        -0.013518      0.000008     -0.025703
      7.55616     11.39250     18.99029         0.029765     -0.000023     -0.032496
      5.19665      1.88866     19.56343        -0.011981      0.007611     -0.026821
      8.35439      5.69625      8.23452         4.029149     -0.000005      1.895568
      6.12443      3.79750      9.11725        -1.721912     -0.002738     -1.990866
      3.19561      3.79750      8.23452         3.989037      0.001612      1.881401
      0.96564      5.69625      9.11725        -1.729002      0.000002     -1.929927
      9.77853      5.69625     11.79839        -0.024754     -0.000012     -0.027608
      7.51333      3.80192     12.60331         0.010489      0.000917      0.028844
      4.59760      3.79990     11.79930        -0.009641      0.000914     -0.021461
      2.34637      5.69625     12.64675         0.020853     -0.000009      0.012547
      0.92767      5.69625     15.37959        -0.021660     -0.000004     -0.027021
      8.93980      3.80171     16.07344         0.029598     -0.005049      0.048321
      6.03989      3.79907     15.34347        -0.007226      0.000710     -0.025409
      3.78750      5.69625     16.19648         0.035470      0.000006      0.018032
      2.42115      5.69625     19.03025         0.026518      0.000014     -0.025417
      0.00628      3.80821     19.55971         0.000784      0.017797     -0.028492
      7.52429      3.80829     18.91343         0.018983      0.014807     -0.017020
      5.21834      5.69625     19.73418         0.031916      0.000042     -0.005879
      5.05116      7.59500      7.50000        -1.919031     -0.000156      1.320685
     10.20995      9.49375      7.50000        -1.912467      0.000196      1.314491
      9.42766      9.49375      9.85177        -0.921972     -0.001436     -0.190505
      6.49884      9.49375      8.96904         0.458687     -0.003452     -0.096542
      7.97998      7.59500      8.38273         0.185685     -0.001760     -1.073962
      6.44888      7.59500     11.03092        -0.152201      0.004842      0.398813
      4.26887      7.59500      9.85177        -0.931555     -0.002337     -0.179445
      1.34005      7.59500      8.96904         0.470595      0.009509     -0.104270
      2.82120      9.49375      8.38273         0.196962     -0.005432     -1.076494
[...]
      2.74049      5.69625     14.58105        -0.087911      0.000001      0.045819
      2.00456      5.69625     16.97748         0.074616     -0.000001     -0.057463
      9.34428      5.69625     16.01698         0.063812     -0.000018     -0.034481
      0.53297      3.79943     15.45660        -0.077883      0.001331      0.028586
      9.41925      3.78084     18.02219        -0.074307      0.004930      0.030578
      7.17225      3.76554     16.91491         0.061330      0.007412     -0.048966
      4.18760      3.79956     16.04950         0.065068     -0.003250     -0.034089
      5.68532      5.69625     15.48225        -0.075924     -0.000004      0.025354
      4.25939      5.69625     18.12694        -0.088877     -0.000011      0.048091
      3.56470      5.69625     20.50164         0.059045     -0.000025     -0.210131
      0.53484      5.69625     19.77557         0.038389     -0.000017     -0.068353
      2.00278      3.80187     19.04017        -0.081226     -0.003879      0.039482
      8.68748      3.86678     20.40773         0.044395     -0.007841     -0.210553
      5.72304      3.77940     19.76832         0.046660     -0.010387     -0.058130
      7.14073      5.69625     18.87119        -0.064375     -0.000017      0.070348
    total drift:                               -0.017882      0.000018     -0.050505

  FREE ENERGIE OF THE ION-ELECTRON SYSTEM (eV)
  free  energy   TOTEN  =     -1640.41592052 eV

  energy  without entropy=    -1640.41592052  energy(sigma->0) =    -1640.41592052