 vasp.6.3.0 20Jan22 (build Mar 11 2022 13:48:16) complex

 executed on             LinuxIFC date 2024.01.23  05:33:29

 INCAR:
   SYSTEM = TiO2
   ISMEAR = 0
   SIGMA = 0.05
   EDIFF = 1E-5
   ALGO = ALL
   ISTART = 0
   IBRION = -1
   NSW = 0
   ISYM = 0
   ISIF = 2
   EDIFFG = -0.01
   DIPOL = 0.5 0.5 0.5
   IDIPOL = 3
   LDIPOL = .TRUE.
   METAGGA = R2SCAN
   LUSE_VDW = .TRUE.
   BPARAM = 11.95
   CPARAM = 0.0093
   LASPH = .TRUE.
   ENCUT = 600
   PREC = Accurate
   LASPH = .TRUE.
   LREAL = .FALSE.
   ISPIN = 1
   NELM = 200
   NELMIN = 8
   NCORE = 2
   KPAR = 1
   LWAVE = .FALSE.
   LCHARG = .FALSE.

 POTCAR:    PAW_PBE C 08Apr2002
 POTCAR:    PAW_PBE O 08Apr2002
 POTCAR:    PAW_PBE Ti_pv 07Sep2000
 POTCAR:    PAW_PBE O 08Apr2002
|           W    W    AA    RRRRR   N    N  II  N    N   GGGG   !!!           |
|           W    W   A  A   R    R  NN   N  II  NN   N  G    G  !!!           |
|           W    W  A    A  R    R  N N  N  II  N N  N  G       !!!           |
|           W WW W  AAAAAA  RRRRR   N  N N  II  N  N N  G  GGG   !            |
|           WW  WW  A    A  R   R   N   NN  II  N   NN  G    G                |
|           W    W  A    A  R    R  N    N  II  N    N   GGGG   !!!           |
|     For optimal performance we recommend to set                             |
|       NCORE = 2 up to number-of-cores-per-socket                            |
|     This setting can greatly improve the performance of VASP for DFT.       |
|     The default, NCORE=1 might be grossly inefficient on modern             |
|     multi-core architectures or massively parallel machines. Do your        |
|     Unfortunately you need to use the default for GW and RPA                |
|     calculations (for HF NCORE is supported but not extensively tested      |
|     yet).                                                                   |

   TITEL  = PAW_PBE C 08Apr2002
   POMASS =   12.011; ZVAL   =    4.000    mass and valenz
   ENMAX  =  400.000; ENMIN  =  300.000 eV

[...]

   TITEL  = PAW_PBE Ti_pv 07Sep2000
   POMASS =   47.880; ZVAL   =   10.000    mass and valenz
   ENMAX  =  222.335; ENMIN  =  166.751 eV

   TITEL  = PAW_PBE O 08Apr2002
   POMASS =   16.000; ZVAL   =    6.000    mass and valenz
   ENMAX  =  400.000; ENMIN  =  300.000 eV

  PAW_PBE C 08Apr2002                   :
  PAW_PBE O 08Apr2002                   :
  PAW_PBE Ti_pv 07Sep2000               :
  PAW_PBE O 08Apr2002                   :

 POSCAR:  C  O Ti  O
  positions in direct lattice

 METAGGA = R2SCA    LMAXTAU =  6    LMIXTAU =  F

 ion  position               nearest neighbor table
   1  0.427  0.500  0.824-   2 1.17   3 1.19
   2  0.370  0.500  0.853-   1 1.17
   3  0.488  0.500  0.796-   1 1.19
   4  0.750  0.625  0.285-  85 1.98 145 1.98 144 1.98  84 1.98  87 2.02 166 2.02  14 3.00  34 3.00

   5  0.000  0.750  0.285-  86 1.98  87 1.98 106 1.98 107 1.98  88 2.02  35 3.00  15 3.00
   6  0.000  0.625  0.393-  88 1.98 148 1.98  89 1.98 149 1.98  90 2.02  91 2.02  16 3.00  36 3.00

[...]

  83  0.499  0.500  0.711- 237 1.86 183 1.97 243 1.97 242 1.98 182 1.98  53 3.00  73 3.00
  84  0.750  0.750  0.243-   4 1.98  14 1.98
  85  0.750  0.750  0.327-   4 1.98  14 1.98   7 2.02
  86  0.098  0.625  0.285-   5 1.98  35 1.98  44 2.02
  87  0.902  0.625  0.285-   5 1.98  35 1.98   4 2.02
  88  0.000  0.750  0.351-   6 1.98  16 1.98   5 2.02
  89  0.000  0.750  0.434-   6 1.98  16 1.98   9 2.02
  90  0.848  0.625  0.393-   7 1.98  37 1.98   6 2.02
  91  0.152  0.625  0.393-  47 1.98  77 1.98   6 2.02
  92  0.750  0.750  0.458-   8 1.98  18 1.98   7 2.02
  93  0.750  0.750  0.542-   8 1.98  18 1.98  11 2.17
  94  0.098  0.625  0.500-   9 1.98  39 1.98  48 2.02
  95  0.902  0.625  0.500-   9 1.98  39 1.98   8 2.02
  96  0.000  0.750  0.566-  10 1.92  20 1.92   9 2.05
  97  0.000  0.750  0.651-  13 1.83  10 2.05  20 2.05
  98  0.849  0.625  0.608-  11 1.93  41 1.93  10 2.12
  99  0.150  0.625  0.608-  10 1.87  51 2.07  81 2.07
 100  0.750  0.750  0.673-  11 1.88  22 2.13  12 2.13
 101  0.749  0.750  0.757-  12 1.85  22 1.85
 102  0.093  0.625  0.721-  43 1.98  13 1.98  52 2.06
 103  0.906  0.625  0.721-  43 1.97  13 1.97  12 2.08
 104  0.750  0.000  0.243-  14 1.98  24 1.98
 105  0.750  0.000  0.327-  14 1.98  24 1.98  17 2.02
 106  0.098  0.875  0.285-   5 1.98  15 1.98  54 2.02
 107  0.902  0.875  0.285-   5 1.98  15 1.98  14 2.02
 108  0.000  0.000  0.351-  16 1.98  26 1.98  15 2.02
 109  0.000  0.000  0.434-  16 1.98  26 1.98  19 2.02
 110  0.848  0.875  0.393-   7 1.98  17 1.98  16 2.02
 111  0.152  0.875  0.393-  47 1.98  57 1.98  16 2.02
 112  0.750  0.000  0.458-  18 1.98  28 1.98  17 2.02
 113  0.750  0.000  0.542-  18 1.98  28 1.98  21 2.17
 114  0.098  0.875  0.500-   9 1.98  19 1.98  58 2.02
 115  0.902  0.875  0.500-   9 1.98  19 1.98  18 2.02
 116  0.000  0.000  0.566-  30 1.92  20 1.92  19 2.05
 117  0.000  1.000  0.651-  23 1.83  20 2.05  30 2.05
 118  0.849  0.875  0.608-  11 1.93  21 1.93  20 2.13
 119  0.150  0.875  0.608-  20 1.87  51 2.07  61 2.07
 120  0.750  0.000  0.673-  21 1.88  32 2.13  22 2.13
 121  0.750  0.000  0.758-  32 1.85  22 1.85
 122  0.093  0.875  0.721-  13 1.97  23 1.97  62 2.07
 123  0.906  0.875  0.721-  13 1.97  23 1.97  22 2.08
 124  0.750  0.250  0.243-  24 1.98  34 1.98
 125  0.750  0.250  0.327-  24 1.98  34 1.98  27 2.02
 126  0.098  0.125  0.285-  15 1.98  25 1.98  64 2.02
 127  0.902  0.125  0.285-  15 1.98  25 1.98  24 2.02
 128  0.000  0.250  0.351-  26 1.98  36 1.98  25 2.02
 129  0.000  0.250  0.434-  26 1.98  36 1.98  29 2.02
 130  0.848  0.125  0.393-  17 1.98  27 1.98  26 2.02
 131  0.152  0.125  0.393-  57 1.98  67 1.98  26 2.02
 132  0.750  0.250  0.458-  28 1.98  38 1.98  27 2.02
 133  0.750  0.250  0.542-  28 1.98  38 1.98  31 2.17
 134  0.098  0.125  0.500-  19 1.98  29 1.98  68 2.02
 135  0.902  0.125  0.500-  19 1.98  29 1.98  28 2.02
 136  0.000  0.250  0.566-  40 1.92  30 1.92  29 2.05
 137  0.000  0.250  0.651-  33 1.83  40 2.05  30 2.05
 138  0.849  0.125  0.608-  31 1.93  21 1.93  30 2.13
 139  0.150  0.125  0.608-  30 1.87  71 2.07  61 2.07
 140  0.750  0.250  0.673-  31 1.88  32 2.13  42 2.13
 141  0.749  0.250  0.757-  42 1.85  32 1.85
 142  0.093  0.125  0.721-  33 1.97  23 1.97  72 2.07
[...]
 229  0.500  0.500  0.434-  46 1.98  76 1.98  79 2.02
 230  0.348  0.375  0.393-  67 1.98  77 1.98  76 2.02
 231  0.652  0.375  0.393-  27 1.98  37 1.98  76 2.02
 232  0.250  0.500  0.458-  48 1.98  78 1.98  77 2.02
 233  0.250  0.500  0.542-  48 1.98  78 1.98  81 2.16
 234  0.598  0.375  0.500-  69 1.98  79 1.98  38 2.02
 235  0.402  0.375  0.500-  69 1.98  79 1.98  78 2.02
 236  0.500  0.500  0.567-  80 1.92  50 1.92  79 2.05
 237  0.500  0.500  0.651-  83 1.86  50 2.05  80 2.05
 238  0.349  0.375  0.609-  71 1.93  81 1.93  80 2.13
 239  0.650  0.375  0.608-  80 1.87  41 2.06  31 2.07
 240  0.249  0.500  0.673-  81 1.89  82 2.13  52 2.13
 241  0.252  0.500  0.757-  82 1.86  52 1.86
 242  0.594  0.374  0.720-  73 1.97  83 1.98  42 2.06
 243  0.405  0.374  0.719-  73 1.96  83 1.97  82 2.08

IMPORTANT INFORMATION: All symmetrisations will be switched off!
NOSYMM: (Re-)initialisation of all symmetry stuff for point group C_1.

                                     Primitive cell

  volume of cell :    4895.9617

  direct lattice vectors                    reciprocal lattice vectors
    13.251680751  0.000000000  0.000000000     0.075462126  0.000000000  0.000000000
     0.000000000 11.981436613  0.000000000     0.000000000  0.083462445  0.000000000
     0.000000000  0.000000000 30.836008487     0.000000000  0.000000000  0.032429619

  length of vectors
    13.251680751 11.981436613 30.836008487     0.075462126  0.083462445  0.032429619

  position of ions in fractional coordinates (direct lattice)
     0.427483472  0.499999909  0.824362858
     0.369573468  0.499999693  0.853061714
     0.488301939  0.500000065  0.796178279
     0.750000000  0.625000000  0.285126523
     0.000000000  0.750000000  0.285126523
     0.000000000  0.625000000  0.392563261
     0.750000000  0.750000000  0.392563261
     0.750000000  0.625000000  0.500000000
     0.000000000  0.750000000  0.500000000
     0.009075638  0.625052193  0.605160000
     0.757185322  0.750084926  0.612090071
     0.749042545  0.625072216  0.722276537
     0.999301496  0.750227145  0.709981919
     0.750000000  0.875000000  0.285126523
     0.000000000  0.000000000  0.285126523
     0.000000000  0.875000000  0.392563261
     0.750000000  0.000000000  0.392563261
     0.750000000  0.875000000  0.500000000
     0.000000000  0.000000000  0.500000000
     0.009354858  0.875050438  0.605224046
     0.757165481  0.000000661  0.612103838
     0.749033861  0.875058827  0.722324437
     0.999711295  0.999999888  0.710013828
     0.750000000  0.125000000  0.285126523
     0.000000000  0.250000000  0.285126523
     0.000000000  0.125000000  0.392563261
     0.750000000  0.250000000  0.392563261
     0.750000000  0.125000000  0.500000000
     0.000000000  0.250000000  0.500000000
     0.009352100  0.124949501  0.605223013
     0.757185064  0.249917414  0.612090093
     0.749033740  0.124941346  0.722324392
     0.999300824  0.249774189  0.709982136
     0.750000000  0.375000000  0.285126523
     0.000000000  0.500000000  0.285126523
     0.000000000  0.375000000  0.392563261
     0.750000000  0.500000000  0.392563261
     0.750000000  0.375000000  0.500000000
     0.000000000  0.500000000  0.500000000
     0.009086671  0.374947591  0.605162148
     0.757180197  0.499996325  0.612105642
     0.749038646  0.374928270  0.722277662
     0.998906507  0.499999583  0.709948796
     0.250000000  0.625000000  0.285126523
     0.500000000  0.750000000  0.285126523
     0.500000000  0.625000000  0.392563261
     0.250000000  0.750000000  0.392563261
     0.250000000  0.625000000  0.500000000
     0.500000000  0.750000000  0.500000000
     0.509390696  0.624426701  0.605612781
     0.257065487  0.749990359  0.611950487
     0.248476367  0.625231643  0.721857747
     0.499432608  0.749940199  0.709571712
     0.250000000  0.875000000  0.285126523
     0.500000000  0.000000000  0.285126523
     0.500000000  0.875000000  0.392563261
     0.250000000  0.000000000  0.392563261
     0.250000000  0.875000000  0.500000000
     0.500000000  0.000000000  0.500000000
     0.509430517  0.874748797  0.604886106
[...]
     0.500000000  0.500000000  0.434467643
     0.347509432  0.375000000  0.392563261
     0.652490568  0.375000000  0.392563261
     0.250000000  0.500000000  0.458095618
     0.250000000  0.500000000  0.541904382
     0.597509432  0.375000000  0.500000000
     0.402490568  0.375000000  0.500000000
     0.500058984  0.500000793  0.566525061
     0.500343369  0.500003419  0.651088706
     0.348767189  0.375042218  0.608557285
     0.650254512  0.375084285  0.608151827
     0.248669331  0.499998475  0.672958522
     0.251941738  0.499999701  0.757254458
     0.593522209  0.374084589  0.720084803
     0.405275735  0.373728868  0.719493197

  ion indices of the primitive-cell ions
   primitive index   ion index
                 1           1
                 2           2
                 3           3
                 4           4
[...]
   6.61832148  8.98536095 21.88035934
   3.31292019 10.48375704  8.79216387
   6.62584038  0.00000000  8.79216387
   6.62584038 10.48375704 12.10508406
   3.31292019  0.00000000 12.10508406
   3.31292019 10.48375704 15.41800424
   6.62584038  0.00000000 15.41800424
   6.75081057 10.48074726 18.65227309
[...]
   6.62584038  5.99071831 13.39724792
   4.60508406  4.49303873 12.10508406
   8.64659670  4.49303873 12.10508406
   3.31292019  5.99071831 14.12584038
   3.31292019  5.99071831 16.71016811
   7.91800424  4.49303873 15.41800424
   5.33367651  4.49303873 15.41800424
   6.62662201  5.99072780 17.46937158
   6.63039059  5.99075927 20.07697687
   4.62175145  4.49354457 18.76547761
   8.61696520  4.49404858 18.75297490
   3.29528659  5.99070003 20.75135471
   3.33865148  5.99071472 23.35070490
   7.86516683  4.48207080 22.20454110
   5.37058466  4.47780874 22.18629831

--------------------------------------- Iteration      FINAL  ---------------------------------------

--------------------OUTCAR has been truncated-------------------------

[...]

--------------------OUTCAR has been truncated-------------------------

  FORCE on cell =-STRESS in cart. coord.  units (eV):
  Direction    XX          YY          ZZ          XY          YZ          ZX
  Alpha Z  4533.07076  4533.07076  4533.07076
  Ewald  925574.27746943253.42744************    -0.00593    -0.00460  -311.47644
  Hartree966870.85784976538.42730************    -0.00355    -0.00272  -109.78161
  E(xc)   -9168.00391 -9177.04924 -9165.64825    -0.00000     0.00000    -0.02230
  Local  ************************************     0.00950     0.00721   385.21284
  n-local -5259.77425 -5160.58357 -5297.83406    -0.00010    -0.00006     2.67686
  augment  5532.26427  5505.58432  5535.62989    -0.00000     0.00000     1.47218
  Kinetic 28833.75110 28380.26472 28871.33575     0.00005     0.00030    33.64929
  Fock        0.00000     0.00000     0.00000     0.00000     0.00000     0.00000
  Total    -172.87668  -241.93746  -201.10688    -0.00004     0.00014     1.73083
  in kB     -56.57297   -79.17274   -65.81115    -0.00001     0.00005     0.56640

 VOLUME and BASIS-vectors are now :
  energy-cutoff  :      600.00
  volume of cell :     4895.96
      direct lattice vectors                 reciprocal lattice vectors
    13.251680751  0.000000000  0.000000000     0.075462126  0.000000000  0.000000000
     0.000000000 11.981436613  0.000000000     0.000000000  0.083462445  0.000000000
     0.000000000  0.000000000 30.836008487     0.000000000  0.000000000  0.032429619

  length of vectors
    13.251680751 11.981436613 30.836008487     0.075462126  0.083462445  0.032429619

 FORCES acting on ions:
    Electron-Ion                     Ewald-Force                    Non-Local-Force
   -.177E+02 -.592E-03 -.139E+04   0.169E+02 0.593E-03 0.139E+04   0.687E+00 -.886E-06 -.288E-01
   0.162E+03 0.546E-04 -.199E+04   -.206E+03 -.203E-03 0.204E+04   0.445E+02 0.158E-03 -.504E+02
   -.190E+03 -.133E-02 -.218E+04   0.234E+03 0.147E-02 0.214E+04   -.439E+02 -.141E-03 0.426E+02
   -.251E+00 -.889E-01 0.363E+04   0.250E+00 0.890E-01 -.364E+04   0.240E-03 -.774E-05 0.388E+00
   0.148E+00 -.127E+00 0.381E+04   -.149E+00 0.127E+00 -.380E+04   0.371E-03 -.958E-05 -.399E+01
   0.263E+00 -.115E+00 0.186E+04   -.267E+00 0.115E+00 -.186E+04   0.652E-03 0.169E-04 -.602E-01
   -.407E+00 -.122E+00 0.185E+04   0.405E+00 0.123E+00 -.185E+04   0.106E-02 -.653E-04 0.202E+00
   -.273E+01 -.453E+00 0.122E+02   0.273E+01 0.452E+00 -.113E+02   0.188E-02 0.881E-04 -.131E+00
   0.347E+01 -.849E+00 0.213E+02   -.352E+01 0.855E+00 -.224E+02   0.174E-01 -.225E-02 0.388E+00
   0.351E+02 -.227E+01 -.177E+04   -.349E+02 0.227E+01 0.177E+04   -.204E+00 -.262E-02 0.260E+00
   0.356E+01 -.479E+01 -.183E+04   -.337E+01 0.479E+01 0.183E+04   -.237E+00 -.239E-02 -.332E+00
   -.476E+02 -.188E+02 -.357E+04   0.476E+02 0.188E+02 0.357E+04   0.463E-01 -.818E-02 -.360E+00
   0.911E+01 -.928E+01 -.361E+04   -.912E+01 0.929E+01 0.361E+04   0.706E-02 -.465E-02 0.122E+01
   -.242E+00 -.888E-01 0.363E+04   0.241E+00 0.889E-01 -.364E+04   0.293E-03 -.967E-05 0.388E+00
   0.141E+00 -.487E-04 0.381E+04   -.141E+00 0.553E-04 -.380E+04   0.362E-03 -.140E-05 -.399E+01
   0.247E+00 -.117E+00 0.186E+04   -.250E+00 0.117E+00 -.186E+04   0.519E-03 0.343E-04 -.603E-01
   -.439E+00 -.298E-03 0.185E+04   0.437E+00 0.303E-03 -.185E+04   0.117E-02 -.678E-06 0.202E+00
   -.315E+01 -.459E+00 0.112E+02   0.316E+01 0.461E+00 -.104E+02   0.115E-02 -.641E-04 -.131E+00
   0.345E+01 -.150E-02 0.203E+02   -.350E+01 0.146E-02 -.214E+02   0.159E-01 0.747E-05 0.388E+00
   0.345E+02 -.232E+01 -.177E+04   -.343E+02 0.232E+01 0.177E+04   -.209E+00 -.218E-02 0.260E+00
   0.485E+01 0.175E-02 -.184E+04   -.468E+01 -.180E-02 0.184E+04   -.225E+00 -.578E-04 -.330E+00
   -.200E+02 -.136E+02 -.360E+04   0.199E+02 0.136E+02 0.360E+04   0.470E-01 0.109E-02 -.361E+00
   0.644E+01 -.853E-02 -.362E+04   -.645E+01 0.853E-02 0.361E+04   0.892E-02 0.171E-04 0.124E+01
   -.242E+00 0.887E-01 0.363E+04   0.241E+00 -.888E-01 -.364E+04   0.296E-03 0.104E-04 0.388E+00
   0.148E+00 0.127E+00 0.381E+04   -.149E+00 -.127E+00 -.380E+04   0.373E-03 0.125E-04 -.399E+01
   0.247E+00 0.116E+00 0.186E+04   -.250E+00 -.116E+00 -.186E+04   0.518E-03 -.373E-04 -.603E-01
   -.407E+00 0.122E+00 0.185E+04   0.405E+00 -.123E+00 -.185E+04   0.105E-02 0.677E-04 0.202E+00
   -.315E+01 0.457E+00 0.112E+02   0.316E+01 -.458E+00 -.104E+02   0.117E-02 0.666E-04 -.131E+00
   0.347E+01 0.848E+00 0.213E+02   -.353E+01 -.854E+00 -.224E+02   0.174E-01 0.223E-02 0.388E+00
   0.345E+02 0.232E+01 -.177E+04   -.343E+02 -.232E+01 0.177E+04   -.209E+00 0.213E-02 0.260E+00
   0.355E+01 0.480E+01 -.183E+04   -.337E+01 -.480E+01 0.183E+04   -.237E+00 0.246E-02 -.332E+00
   -.200E+02 0.136E+02 -.360E+04   0.199E+02 -.136E+02 0.360E+04   0.470E-01 -.112E-02 -.360E+00
   0.911E+01 0.929E+01 -.361E+04   -.912E+01 -.930E+01 0.361E+04   0.711E-02 0.467E-02 0.122E+01
   -.251E+00 0.889E-01 0.363E+04   0.250E+00 -.890E-01 -.364E+04   0.238E-03 0.583E-05 0.388E+00
   0.156E+00 0.628E-04 0.381E+04   -.157E+00 -.558E-04 -.380E+04   0.378E-03 -.126E-05 -.399E+01
   0.263E+00 0.116E+00 0.186E+04   -.267E+00 -.116E+00 -.186E+04   0.652E-03 -.166E-04 -.602E-01
   -.374E+00 0.345E-03 0.185E+04   0.373E+00 -.335E-03 -.185E+04   0.883E-03 -.261E-05 0.202E+00
   -.273E+01 0.456E+00 0.122E+02   0.273E+01 -.455E+00 -.113E+02   0.186E-02 -.907E-04 -.131E+00
   0.346E+01 0.280E-02 0.221E+02   -.352E+01 -.285E-02 -.233E+02   0.188E-01 0.204E-04 0.388E+00
   0.351E+02 0.228E+01 -.177E+04   -.349E+02 -.228E+01 0.177E+04   -.204E+00 0.268E-02 0.260E+00
   0.109E+01 -.121E-01 -.182E+04   -.916E+00 0.122E-01 0.182E+04   -.224E+00 -.277E-04 -.335E+00
   -.477E+02 0.188E+02 -.357E+04   0.476E+02 -.188E+02 0.357E+04   0.465E-01 0.822E-02 -.361E+00
   0.126E+02 -.733E-03 -.360E+04   -.126E+02 0.804E-03 0.360E+04   -.586E-02 -.420E-04 0.120E+01
   0.243E+00 -.101E+00 0.363E+04   -.243E+00 0.101E+00 -.364E+04   -.110E-03 -.439E-04 0.388E+00
   -.141E+00 -.141E+00 0.381E+04   0.141E+00 0.142E+00 -.380E+04   0.148E-03 -.444E-04 -.399E+01
   -.659E-01 -.606E-01 0.186E+04   0.686E-01 0.665E-01 -.186E+04   -.585E-03 -.112E-02 -.608E-01
   0.212E+00 -.151E+00 0.185E+04   -.210E+00 0.153E+00 -.185E+04   0.136E-03 -.194E-04 0.205E+00
   -.513E+00 -.635E+00 0.138E+02   0.541E+00 0.642E+00 -.130E+02   -.237E-02 -.723E-03 -.126E+00
   0.232E+01 -.381E+00 0.240E+02   -.235E+01 0.358E+00 -.250E+02   0.127E-01 0.127E-01 0.366E+00
   0.290E+02 -.543E+01 -.176E+04   -.289E+02 0.547E+01 0.176E+04   -.220E+00 -.269E-01 0.245E+00
   0.176E+02 -.732E+01 -.182E+04   -.174E+02 0.733E+01 0.182E+04   -.221E+00 -.454E-02 -.337E+00
   0.626E+02 -.320E+02 -.353E+04   -.626E+02 0.320E+02 0.353E+04   0.111E-01 0.134E-01 -.315E+00
   -.127E+02 -.583E+02 -.356E+04   0.127E+02 0.583E+02 0.356E+04   0.185E-01 -.309E-02 0.128E+01
   0.234E+00 -.101E+00 0.363E+04   -.233E+00 0.101E+00 -.364E+04   -.175E-03 -.422E-04 0.388E+00
   -.133E+00 -.534E-04 0.381E+04   0.133E+00 0.491E-04 -.380E+04   0.149E-03 0.747E-06 -.399E+01
   -.459E-01 -.641E-01 0.186E+04   0.480E-01 0.669E-01 -.186E+04   -.435E-03 -.710E-03 -.611E-01
   0.242E+00 -.265E-03 0.185E+04   -.239E+00 0.267E-03 -.185E+04   0.584E-04 0.682E-06 0.204E+00
   -.188E+00 -.689E+00 0.122E+02   0.215E+00 0.711E+00 -.114E+02   -.265E-02 -.147E-02 -.129E+00
   0.240E+01 -.253E-02 0.246E+02   -.245E+01 0.251E-02 -.257E+02   0.160E-01 0.171E-05 0.365E+00
   0.298E+02 -.734E+01 -.176E+04   -.296E+02 0.732E+01 0.176E+04   -.225E+00 0.111E-01 0.218E+00
[...]
   -.559E+02 0.534E-01 0.111E+04   0.602E+02 -.543E-01 -.111E+04   -.397E+01 0.155E-02 0.180E+00
   0.558E+02 0.429E-01 0.111E+04   -.600E+02 -.436E-01 -.111E+04   0.396E+01 0.948E-03 0.176E+00
   0.141E-01 0.305E-03 0.494E+03   0.773E-03 -.302E-03 -.499E+03   -.217E-01 -.163E-04 0.460E+01
   0.180E+01 0.847E-03 -.492E+03   -.211E+01 -.975E-03 0.500E+03   0.324E+00 0.137E-03 -.780E+01
   -.581E+02 0.569E-01 0.155E+02   0.631E+02 -.615E-01 -.158E+02   -.572E+01 0.167E-01 0.431E+00
   0.576E+02 0.150E+00 0.128E+02   -.627E+02 -.155E+00 -.130E+02   0.567E+01 0.159E-01 0.327E+00
   0.181E+02 -.561E-02 -.582E+03   -.200E+02 0.649E-02 0.575E+03   0.195E+01 -.984E-03 0.715E+01
   0.606E+01 0.825E-02 -.150E+04   -.714E+01 -.858E-02 0.150E+04   0.111E+01 0.117E-03 0.196E+01
   -.669E+02 0.300E+01 -.106E+04   0.747E+02 -.299E+01 0.106E+04   -.800E+01 -.102E-01 0.125E+01
   -.137E+02 0.324E+01 -.107E+04   0.154E+02 -.331E+01 0.107E+04   -.162E+01 0.730E-01 0.791E+00
   0.259E+02 0.983E-03 -.170E+04   -.266E+02 -.105E-02 0.171E+04   0.791E+00 0.142E-03 -.242E+01
   0.766E+02 -.362E-02 -.254E+04   -.763E+02 0.400E-02 0.256E+04   -.246E+00 -.336E-03 -.209E+02
   -.626E+02 0.321E+02 -.219E+04   0.685E+02 -.319E+02 0.219E+04   -.611E+01 -.198E+00 -.371E+01
   0.461E+02 0.427E+02 -.216E+04   -.525E+02 -.426E+02 0.216E+04   0.666E+01 -.671E-01 -.328E+01
   0.424E+02 0.646E-03 0.104E+03   0.654E-12 -.194E-11 -.177E-10   -.426E+02 -.665E-03 -.104E+03

 POSITION                                       TOTAL-FORCE (eV/Angst)
      5.66487      5.99072     25.42006        -0.120255      0.000000      0.031517
      4.89747      5.99071     26.30502         0.785653      0.000010     -0.897009
      6.47082      5.99072     24.55096        -0.693890     -0.000006      0.530061
      9.93876      7.48840      8.79216         0.000430      0.000055     -3.428319
      0.00000      8.98608      8.79216         0.000375      0.000079      3.337435
      0.00000      7.48840     12.10508        -0.002500      0.000239      0.501882
      9.93876      8.98608     12.10508        -0.000233      0.000493     -0.715483
      9.93876      7.48840     15.41800         0.009720     -0.000962      0.713138
      0.00000      8.98608     15.41800        -0.035612      0.004239     -0.739265
      0.12027      7.48902     18.66072         0.023455     -0.001993      0.002221
     10.03398      8.98709     18.87441        -0.027527     -0.002495      0.051122
      9.92607      7.48926     22.27213        -0.005615      0.000375      0.000956
     13.24242      8.98880     21.89301        -0.004347     -0.001727     -0.311449
      9.93876     10.48376      8.79216         0.000331      0.000111     -3.428289
      0.00000      0.00000      8.79216         0.000399      0.000005      3.337413
      0.00000     10.48376     12.10508        -0.002130      0.000099      0.502177
      9.93876      0.00000     12.10508        -0.000545      0.000004     -0.715495
      9.93876     10.48376     15.41800         0.013133      0.001498      0.712515
      0.00000      0.00000     15.41800        -0.033630     -0.000033     -0.737453
      0.12397     10.48436     18.66269         0.014493     -0.001891     -0.003484
     10.03372      0.00001     18.87484        -0.027784     -0.000101      0.049852
      9.92596     10.48446     22.27360         0.000742     -0.001659      0.001801
     13.24785     11.98144     21.89399        -0.002116      0.000013     -0.319302
      9.93876      1.49768      8.79216         0.000341     -0.000105     -3.428306
      0.00000      2.99536      8.79216         0.000378     -0.000087      3.337435
      0.00000      1.49768     12.10508        -0.002130     -0.000107      0.502167
      9.93876      2.99536     12.10508        -0.000229     -0.000504     -0.715488
      9.93876      1.49768     15.41800         0.013137     -0.001499      0.712520
      0.00000      2.99536     15.41800        -0.035593     -0.004168     -0.739203
      0.12393      1.49707     18.66266         0.014950      0.001937     -0.003384
     10.03397      2.99437     18.87442        -0.027334      0.002527      0.051180
      9.92596      1.49698     22.27360         0.000777      0.001640      0.001779
     13.24242      2.99265     21.89302        -0.004316      0.001665     -0.311318
      9.93876      4.49304      8.79216         0.000428     -0.000072     -3.428319
      0.00000      5.99072      8.79216         0.000383      0.000006      3.337406
      0.00000      4.49304     12.10508        -0.002493     -0.000231      0.501878
      9.93876      5.99072     12.10508         0.000084      0.000007     -0.715236
      9.93876      4.49304     15.41800         0.009730      0.000958      0.713125
      0.00000      5.99072     15.41800        -0.037532     -0.000032     -0.740911
      0.12041      4.49241     18.66079         0.023007      0.001954      0.001851
     10.03391      5.99067     18.87489        -0.029968      0.000108      0.057168
      9.92602      4.49218     22.27216        -0.005406     -0.000377      0.000814
     13.23719      5.99071     21.89199        -0.004037      0.000029     -0.305853
      3.31292      7.48840      8.79216         0.001241      0.000275     -3.429843
      6.62584      8.98608      8.79216         0.001270      0.000252      3.338901
      6.62584      7.48840     12.10508         0.002930      0.004714      0.505299
      3.31292      8.98608     12.10508         0.002959      0.001093     -0.723631
      3.31292      7.48840     15.41800         0.026482      0.006746      0.681667
      6.62584      8.98608     15.41800        -0.022246     -0.010041     -0.703208
      6.75028      7.48153     18.67468         0.016307      0.009963      0.000873
      3.40655      8.98596     18.87011        -0.025121     -0.000715      0.054641
      3.29273      7.49117     22.25921         0.022471      0.015582      0.001223
      6.61832      8.98536     21.88036        -0.003571     -0.011569     -0.302143
      3.31292     10.48376      8.79216         0.001328      0.000339     -3.429666
      6.62584      0.00000      8.79216         0.001262     -0.000004      3.339205
      6.62584     10.48376     12.10508         0.002516      0.002098      0.508553
      3.31292      0.00000     12.10508         0.003276      0.000002     -0.721812
      3.31292     10.48376     15.41800         0.025190      0.020115      0.699268
      6.62584      0.00000     15.41800        -0.026290     -0.000020     -0.750774
      6.75081     10.48075     18.65227         0.019647     -0.006041      0.015577
[...]
      6.62584      5.99072     13.39725         0.001143     -0.000003     -0.241223
      4.60508      4.49304     12.10508         0.276755      0.000662      0.056615
      8.64660      4.49304     12.10508        -0.278436      0.000302      0.055685
      3.31292      5.99072     14.12584        -0.006030     -0.000014      0.034861
      3.31292      5.99072     16.71017         0.017576      0.000008     -0.264938
      7.91800      4.49304     15.41800        -0.629999      0.012107      0.105143
      5.33368      4.49304     15.41800         0.621445      0.010975      0.102460
      6.62662      5.99073     17.46937         0.049677     -0.000100      0.174259
      6.63039      5.99076     20.07698         0.029818     -0.000216     -0.072867
      4.62175      4.49354     18.76548        -0.174102      0.000479      0.024076
      8.61697      4.49405     18.75297         0.048316     -0.001474      0.023816
      3.29529      5.99070     20.75135         0.028318      0.000074     -0.007225
      3.33865      5.99071     23.35070         0.012508      0.000043     -0.670878
      7.86517      4.48207     22.20454        -0.200793      0.000503     -0.141769
      5.37058      4.47781     22.18630         0.206496     -0.001852     -0.131922
    total drift:                               -0.193589     -0.000019     -0.351415

  FREE ENERGIE OF THE ION-ELECTRON SYSTEM (eV)
  free  energy   TOTEN  =     -2730.38303276 eV

  energy  without entropy=    -2730.38303276  energy(sigma->0) =    -2730.38303276