 vasp.6.3.0 20Jan22 (build Apr  1 2022 16:44:48) complex
 executed on        HPECrayEX_GCC date 2023.01.23  22:22:29

 INCAR:
   SYSTEM = MgO-rocksalt
   ISMEAR = 0
   SIGMA = 0.05
   EDIFF = 1E-8
   ALGO = ALL
   ISTART = 0
   IBRION = 5
   POTIM = 0.01
   NFREE = 2
   ISYM = 0
   DIPOL = 0.5 0.5 0.5
   IDIPOL = 3
   LDIPOL = .TRUE.
   GGA = RE
   AGGAC = 0.0
   LUSE_VDW = .TRUE.
   LASPH = .TRUE.
   ENCUT = 600
   PREC = Accurate
   LASPH = .TRUE.
   LREAL = .FALSE.
   ISPIN = 2
   MAGMOM = 1.0 0.0 0.0 0.0 0.0 0.0 0.0 0.0 0.0 0.0 0.0 0.0 0.0 0.0 0.0 0.0 0.0 0.0 0.0 0.0 0.0 0.0 0.0 0.0 0.0 0.0 0.0 0.0 0.0 0.0 0.0 0.0 0.0 0.0 0.0 0.0 0.0 0.0 0.0 0.0 0.0 0.0 0.0 0.0 0.0 0.0 0.0 0.0 0.0 0.0 0.0 0.0 0.0 0.0 0.0 0.0 0.0 0.0 0.0 0.0 0.0 0.0 0.0 0.0 0.0 0.0
   NELM = 200
   NELMIN = 8
   NCORE = 8
   KPAR = 1
   LWAVE = .FALSE.
   LCHARG = .FALSE.

 POTCAR:    PAW_PBE N 08Apr2002
 POTCAR:    PAW_PBE O 08Apr2002
 POTCAR:    PAW_PBE Mg_pv 13Apr2007
 POTCAR:    PAW_PBE O 08Apr2002
|               ----> ADVICE to this user running VASP <----                  |
|     You have switched on vdW-DFT.                                           |
|     This routine was written and supplied by Jiri Klimes. We recommend      |
|     that you carefully read and cite the following publications:            |
|       J. Klimes, D.R. Bowler, A. Michelides                                 |
|          J. Phys.: Cond Matt. 22 022201 (2010)                              |
|       J. Klimes, D.R. Bowler, A. Michelides                                 |
|          Phys. Rev. B. 83, 195131 (2011)                                    |
|     and references therein.                                                 |

   TITEL  = PAW_PBE N 08Apr2002
   POMASS =   14.001; ZVAL   =    5.000    mass and valenz
   ENMAX  =  400.000; ENMIN  =  300.000 eV

[...]

   TITEL  = PAW_PBE Mg_pv 13Apr2007
   POMASS =   24.305; ZVAL   =    8.000    mass and valenz
   ENMAX  =  403.929; ENMIN  =  302.947 eV

   TITEL  = PAW_PBE O 08Apr2002
   POMASS =   16.000; ZVAL   =    6.000    mass and valenz
   ENMAX  =  400.000; ENMIN  =  300.000 eV

  PAW_PBE N 08Apr2002                   :
  PAW_PBE O 08Apr2002                   :
  PAW_PBE Mg_pv 13Apr2007               :
  PAW_PBE O 08Apr2002                   :

 POSCAR:  N  O Mg  O
  positions in direct lattice
 exchange correlation table for  LEXCH =       40
   RHO(1)=    0.500       N(1)  =     2000
   RHO(2)=  100.500       N(2)  =     4000

 ion  position               nearest neighbor table
   1  0.506  0.507  0.768-   2 1.18
   2  0.435  0.439  0.806-   1 1.18
   3  0.000  0.750  0.350-  35 2.14  37 2.14  38 2.14  45 2.14  54 2.14
   4  0.250  0.000  0.350-  36 2.14  37 2.14  38 2.14  46 2.14  53 2.14
   5  0.000  0.000  0.450-  37 2.14  36 2.14  35 2.14  43 2.14  52 2.14  41 2.14
   6  0.250  0.750  0.450-  38 2.14  36 2.14  35 2.14  44 2.14  51 2.14  42 2.14
   7  1.000  0.750  0.550-  58 2.14  49 2.14  41 2.14  42 2.14  35 2.14  39 2.16
   8  0.250  0.000  0.550-  57 2.14  50 2.14  42 2.14  41 2.14  36 2.14  40 2.16
   9  1.000  1.000  0.649-  41 2.13  47 2.13  39 2.14  56 2.14  40 2.14
  10  0.249  0.750  0.649-  42 2.12  39 2.13  40 2.13  48 2.14  55 2.14
  11  0.000  0.250  0.350-  43 2.14  37 2.14  45 2.14  46 2.14  62 2.14
  12  0.250  0.500  0.350-  44 2.14  38 2.14  45 2.14  46 2.14  61 2.14
  13  0.000  0.500  0.450-  45 2.14  43 2.14  44 2.14  35 2.14  60 2.14  49 2.14
  14  0.250  0.250  0.450-  46 2.14  43 2.14  44 2.14  36 2.14  59 2.14  50 2.14
  15  1.000  0.250  0.550-  49 2.14  66 2.14  50 2.14  41 2.14  43 2.14  47 2.16
  16  0.250  0.500  0.550-  65 2.13  50 2.14  42 2.14  49 2.14  44 2.15  48 2.16
  17  1.000  0.500  0.649-  49 2.13  48 2.13  64 2.13  47 2.14  39 2.14
  18  0.250  0.250  0.649-  50 2.13  47 2.13  40 2.13  48 2.14  63 2.14
  19  0.500  0.750  0.350-  51 2.14  38 2.14  53 2.14  54 2.14  61 2.14
  20  0.750  0.000  0.350-  52 2.14  37 2.14  53 2.14  54 2.14  62 2.14
  21  0.500  0.000  0.450-  53 2.14  51 2.14  52 2.14  36 2.14  59 2.14  57 2.14
  22  0.750  0.750  0.450-  54 2.14  51 2.14  52 2.14  35 2.14  60 2.14  58 2.14
  23  0.500  0.750  0.550-  65 2.13  58 2.14  42 2.14  57 2.14  51 2.15  55 2.16
  24  0.750  1.000  0.550-  57 2.14  58 2.14  66 2.14  41 2.14  52 2.14  56 2.16
  25  0.500  0.000  0.649-  57 2.13  63 2.13  55 2.13  40 2.14  56 2.14
  26  0.750  0.750  0.649-  58 2.13  39 2.13  56 2.13  64 2.14  55 2.14
  27  0.500  0.250  0.350-  59 2.14  53 2.14  46 2.14  61 2.14  62 2.14
  28  0.750  0.500  0.350-  60 2.14  54 2.14  45 2.14  61 2.14  62 2.14
  29  0.500  0.500  0.450-  61 2.14  51 2.14  59 2.14  60 2.14  44 2.14  65 2.15
  30  0.750  0.250  0.450-  62 2.14  52 2.14  59 2.14  60 2.14  43 2.14  66 2.14
  31  0.500  0.250  0.550-  65 2.13  50 2.14  66 2.14  57 2.14  59 2.15  63 2.16
  32  0.749  0.500  0.550-  65 2.13  58 2.14  66 2.14  49 2.14  60 2.15  64 2.16
  33  0.500  0.500  0.651-  63 2.14  55 2.14  64 2.14  48 2.14  65 2.16
  34  0.750  0.250  0.649-  66 2.12  56 2.13  47 2.13  64 2.14  63 2.14
  35  0.000  0.750  0.450-   3 2.14   5 2.14   6 2.14  13 2.14  22 2.14   7 2.14
  36  0.250  0.000  0.450-   4 2.14   5 2.14   6 2.14  14 2.14  21 2.14   8 2.14
  37  0.000  0.000  0.350-   5 2.14   4 2.14   3 2.14  11 2.14  20 2.14
  38  0.250  0.750  0.350-   6 2.14   4 2.14   3 2.14  12 2.14  19 2.14
  39  1.000  0.750  0.651-  10 2.13  26 2.13   9 2.14  17 2.14   7 2.16
  40  0.250  1.000  0.651-  10 2.13  18 2.13   9 2.14  25 2.14   8 2.16
  41  1.000  1.000  0.550-   9 2.13   7 2.14  15 2.14  24 2.14   8 2.14   5 2.14
  42  0.250  0.750  0.550-  10 2.12   8 2.14  23 2.14  16 2.14   7 2.14   6 2.14
  43  0.000  0.250  0.450-  11 2.14   5 2.14  13 2.14  14 2.14  30 2.14  15 2.14
  44  0.250  0.500  0.450-  12 2.14   6 2.14  13 2.14  14 2.14  29 2.14  16 2.15
  45  0.000  0.500  0.350-  13 2.14  11 2.14  12 2.14   3 2.14  28 2.14
  46  0.250  0.250  0.350-  14 2.14  11 2.14  12 2.14   4 2.14  27 2.14
  47  1.000  0.250  0.651-  34 2.13  18 2.13   9 2.13  17 2.14  15 2.16
  48  0.249  0.500  0.651-  17 2.13  10 2.14  18 2.14  33 2.14  16 2.16
  49  1.000  0.500  0.550-  17 2.13   7 2.14  15 2.14  13 2.14  32 2.14  16 2.14
  50  0.250  0.250  0.550-  18 2.13   8 2.14  31 2.14  15 2.14  16 2.14  14 2.14
  51  0.500  0.750  0.450-  19 2.14   6 2.14  21 2.14  22 2.14  29 2.14  23 2.15
  52  0.750  0.000  0.450-  20 2.14   5 2.14  21 2.14  22 2.14  30 2.14  24 2.14
  53  0.500  0.000  0.350-  21 2.14  19 2.14  20 2.14   4 2.14  27 2.14
  54  0.750  0.750  0.350-  22 2.14  19 2.14  20 2.14   3 2.14  28 2.14
  55  0.500  0.751  0.651-  25 2.13  10 2.14  26 2.14  33 2.14  23 2.16
  56  0.750  1.000  0.651-  34 2.13  26 2.13   9 2.14  25 2.14  24 2.16
  57  0.500  1.000  0.550-  25 2.13  24 2.14   8 2.14  21 2.14  23 2.14  31 2.14
  58  0.750  0.750  0.550-  26 2.13   7 2.14  32 2.14  24 2.14  23 2.14  22 2.14
  59  0.500  0.250  0.450-  27 2.14  21 2.14  14 2.14  29 2.14  30 2.14  31 2.15
  60  0.750  0.500  0.450-  28 2.14  22 2.14  13 2.14  29 2.14  30 2.14  32 2.15
  61  0.500  0.500  0.350-  29 2.14  19 2.14  27 2.14  28 2.14  12 2.14
  62  0.750  0.250  0.350-  30 2.14  20 2.14  27 2.14  28 2.14  11 2.14
  63  0.500  0.249  0.651-  25 2.13  34 2.14  18 2.14  33 2.14  31 2.16
  64  0.751  0.500  0.651-  17 2.13  34 2.14  26 2.14  33 2.14  32 2.16
  65  0.500  0.500  0.550-  23 2.13  32 2.13  16 2.13  31 2.13  29 2.15  33 2.16
  66  0.750  0.250  0.550-  34 2.12  15 2.14  24 2.14  32 2.14  31 2.14  30 2.14

IMPORTANT INFORMATION: All symmetrisations will be switched off!
NOSYMM: (Re-)initialisation of all symmetry stuff for point group C_1.

                                     Primitive cell

  volume of cell :    1563.6717

  direct lattice vectors                    reciprocal lattice vectors
     8.546113626  0.000000000  0.000000000     0.117012252  0.000000000  0.000000000
     0.000000000  8.546113626  0.000000000     0.000000000  0.117012252  0.000000000
     0.000000000  0.000000000 21.409585219     0.000000000  0.000000000  0.046708051

  length of vectors
     8.546113626  8.546113626 21.409585219     0.117012252  0.117012252  0.046708051

  position of ions in fractional coordinates (direct lattice)
     0.505504930  0.506535341  0.767802462
     0.434629167  0.438792042  0.806358039
     0.000000000  0.750000000  0.350310383
     0.250000000  0.000000000  0.350310383
     0.000000000  0.000000000  0.450103461
     0.250000000  0.750000000  0.450103461
     0.999777631  0.749910594  0.550283253
     0.249971119  0.000015227  0.550274028
     0.999781575  0.999971220  0.649411925
     0.249338808  0.750308740  0.649151796
     0.000000000  0.250000000  0.350310383
     0.250000000  0.500000000  0.350310383
     0.000000000  0.500000000  0.450103461
     0.250000000  0.250000000  0.450103461
     0.999918261  0.250019997  0.550266638
     0.250331750  0.499981938  0.550472612
     0.999874310  0.499904983  0.649357970
     0.249507856  0.249699583  0.649332594
     0.500000000  0.750000000  0.350310383
     0.750000000  0.000000000  0.350310383
     0.500000000  0.000000000  0.450103461
     0.750000000  0.750000000  0.450103461
     0.499865941  0.749506971  0.550408366
     0.749730659  0.999876518  0.550280291
     0.499754707  0.000038043  0.649383043
     0.750089024  0.750175859  0.649481259
     0.500000000  0.250000000  0.350310383
     0.750000000  0.500000000  0.350310383
     0.500000000  0.500000000  0.450103461
     0.750000000  0.250000000  0.450103461
     0.499870241  0.250421669  0.550468042
     0.749438637  0.499963660  0.550419049
     0.499865062  0.499973559  0.651442911
     0.750184658  0.249550051  0.649151018
     0.000000000  0.750000000  0.450103461
     0.250000000  0.000000000  0.450103461
     0.000000000  0.000000000  0.350310383
     0.250000000  0.750000000  0.350310383
     0.999773682  0.750136884  0.651302257
     0.249648559  0.999963139  0.651253398
     0.999842006  0.999954318  0.549997255
     0.249844454  0.750015334  0.550031584
     0.000000000  0.250000000  0.450103461
     0.250000000  0.500000000  0.450103461
     0.000000000  0.500000000  0.350310383
     0.250000000  0.250000000  0.350310383
     0.999826544  0.249729415  0.651288610
     0.248890369  0.500093390  0.651287636
     0.999837750  0.499965699  0.550000320
     0.249905354  0.249977895  0.550069543
     0.500000000  0.750000000  0.450103461
     0.750000000  0.000000000  0.450103461
     0.500000000  0.000000000  0.350310383
     0.750000000  0.750000000  0.350310383
     0.499554904  0.750885787  0.651315072
     0.749945215  0.999913163  0.651288673
     0.499863593  0.999930419  0.550029609
     0.749837440  0.749916541  0.550107237
     0.500000000  0.250000000  0.450103461
     0.750000000  0.500000000  0.450103461
     0.500000000  0.500000000  0.350310383
     0.750000000  0.250000000  0.350310383
     0.499941187  0.249072422  0.651335826
     0.750813191  0.499700454  0.651221304
     0.499893836  0.499992585  0.550403206
     0.749932780  0.249919384  0.550024179

  ion indices of the primitive-cell ions
   primitive index   ion index
                 1           1
                 2           2
[...]

 POSITION                                       TOTAL-FORCE (eV/Angst)
      4.32010      4.32891     16.43833         0.339952      0.324912     -0.451835
      3.71439      3.74997     17.25379        -0.335829     -0.319597      0.453136
      0.00000      6.40959      7.50000         0.000033     -0.000345      0.323508
      2.13653      0.00000      7.50000         0.000111      0.000133      0.323356
      0.00000      0.00000      9.63653        -0.001971     -0.000576      0.016556
      2.13653      6.40959      9.63653        -0.000693     -0.004027      0.017784
      8.54421      6.40882     11.78134         0.000749     -0.001852     -0.003973
      2.13628      0.00013     11.78114        -0.001369      0.000200     -0.004128
      8.54425      8.54587     13.90364         0.001997     -0.000679     -0.002256
      2.13088      6.41222     13.89807         0.004641     -0.001590     -0.000155
      0.00000      2.13653      7.50000         0.000104      0.000281      0.323572
      2.13653      4.27306      7.50000         0.000342     -0.000180      0.324694
      0.00000      4.27306      9.63653        -0.000190     -0.000411      0.025920
      2.13653      2.13653      9.63653         0.002393      0.004273      0.018357
      8.54542      2.13670     11.78098         0.000864      0.001536     -0.004151
      2.13936      4.27290     11.78539        -0.002709     -0.001118     -0.000308
      8.54504      4.27224     13.90248        -0.000239      0.000492      0.000739
      2.13232      2.13396     13.90194         0.002639      0.000557     -0.002658
      4.27306      6.40959      7.50000        -0.000164     -0.000566      0.323702
      6.40959      0.00000      7.50000        -0.000218      0.000063      0.323299
      4.27306      0.00000      9.63653        -0.001963      0.001110      0.024363
      6.40959      6.40959      9.63653        -0.004010     -0.004062      0.017498
      4.27191      6.40537     11.78401         0.001405      0.001707      0.001763
      6.40728      8.54506     11.78127         0.004627      0.000061     -0.002095
      4.27096      0.00033     13.90302         0.002179     -0.001528      0.001659
      6.41035      6.41109     13.90512        -0.001375     -0.000700     -0.001763
      4.27306      2.13653      7.50000        -0.000168      0.000505      0.324411
      6.40959      4.27306      7.50000        -0.000434     -0.000178      0.324182
      4.27306      4.27306      9.63653        -0.002870     -0.002151      0.028670
      6.40959      2.13653      9.63653        -0.004496      0.001565      0.017958
      4.27195      2.14013     11.78529         0.000932     -0.000740      0.000774
      6.40479      4.27275     11.78424         0.003144      0.000133     -0.000787
      4.27190      4.27283     13.94712         0.003077      0.002571     -0.011129
      6.41116      2.13268     13.89805        -0.000991      0.001942      0.000280
      0.00000      6.40959      9.63653        -0.004599      0.001022      0.043583
      2.13653      0.00000      9.63653        -0.002572      0.000414      0.043264
      0.00000      0.00000      7.50000        -0.000189     -0.000134     -0.396195
      2.13653      6.40959      7.50000        -0.000505      0.000808     -0.396504
      8.54418      6.41076     13.94411         0.000704      0.002067      0.006101
      2.13352      8.54580     13.94307        -0.004308      0.002208      0.009624
      8.54476      8.54572     11.77521         0.002203      0.000235      0.005795
      2.13520      6.40972     11.77595        -0.000520      0.000970      0.000571
      0.00000      2.13653      9.63653        -0.000657     -0.002362      0.042257
      2.13653      4.27306      9.63653         0.005185     -0.000224      0.050539
      0.00000      4.27306      7.50000        -0.000351      0.000040     -0.396835
      2.13653      2.13653      7.50000        -0.000674     -0.000852     -0.396892
      8.54463      2.13422     13.94382         0.002734     -0.001501      0.004709
      2.12705      4.27385     13.94380         0.004599     -0.001783      0.008026
      8.54473      4.27276     11.77528         0.003236      0.000354      0.004001
      2.13572      2.13634     11.77676        -0.001252     -0.001296      0.002135
      4.27306      6.40959      9.63653        -0.001140     -0.006772      0.049931
      6.40959      0.00000      9.63653        -0.002516     -0.003536      0.043817
      4.27306      0.00000      7.50000        -0.000038     -0.000374     -0.396463
      6.40959      6.40959      7.50000         0.000260      0.000582     -0.396354
      4.26925      6.41716     13.94439         0.002657     -0.003597      0.001979
      6.40912      8.54537     13.94382         0.003717     -0.000126      0.007428
      4.27189      8.54552     11.77591         0.002012      0.000204      0.000325
      6.40820      6.40887     11.77757        -0.001293      0.002663      0.002433
      4.27306      2.13653      9.63653        -0.001937      0.005321      0.051411
      6.40959      4.27306      9.63653        -0.009549      0.000484      0.048785
      4.27306      4.27306      7.50000         0.000138      0.000251     -0.397616
      6.40959      2.13653      7.50000         0.000546     -0.000748     -0.396570
      4.27255      2.12860     13.94483        -0.000305      0.004281      0.006629
      6.41653      4.27050     13.94238        -0.004461      0.001607      0.006497
      4.27215      4.27299     11.78390         0.000970      0.000224      0.000970
      6.40901      2.13584     11.77579        -0.001594     -0.002172      0.001680
    total drift:                                0.000780      0.001711      0.008255

  FREE ENERGIE OF THE ION-ELECTRON SYSTEM (eV)
  free  energy   TOTEN  =      -235.86185461 eV

  energy  without entropy=     -235.86185461  energy(sigma->0) =     -235.86185461

 d Force =-0.9011227E-04[-0.906E-02, 0.888E-02]  d Energy = 0.2517557E-04-0.115E-03
 d Force =-0.3027142E+02[-0.304E+02,-0.302E+02]  d Ewald  =-0.3027159E+02 0.170E-03

 Finite differences progress:
  Degree of freedom:   6/  6
  Displacement:        2/  2
  Total:              12/ 12

 SECOND DERIVATIVES (NOT SYMMETRIZED)
               1X          1Y          1Z          2X          2Y          2Z
  1X   -24.509256  -22.929595   32.270434   24.249498   23.021555  -32.498354
  1Y   -22.939582  -22.412056   30.815624   22.999298   22.122585  -31.050895
  1Z    32.279958   30.878091  -44.607250  -32.449578  -31.001631   44.296411
  2X    24.229611   23.041125  -32.437501  -24.175137  -23.053509   32.669753
  2Y    23.042640   22.122968  -31.004904  -23.055848  -22.134247   31.176174
  2Z   -32.517335  -31.066141   44.269997   32.636471   31.188035  -44.863045

 Eigenvectors and eigenvalues of the dynamical matrix

   1 f  =   54.363426 THz   341.575479 2PiTHz 1813.368695 cm-1   224.828963 meV
             X         Y         Z           dx          dy          dz
      4.320103  4.328909 16.438332    -0.376865   -0.360034    0.510176
      3.714390  3.749967 17.263791     0.352902    0.337250   -0.479365
      0.000000  6.409585  7.500000            0           0           0
      2.136528  0.000000  7.500000            0           0           0
      0.000000  0.000000  9.636528            0           0           0
      2.136528  6.409585  9.636528            0           0           0
      8.544213  6.408821 11.781336            0           0           0
      2.136282  0.000130 11.781139            0           0           0
      8.544247  8.545868 13.903640            0           0           0
      2.130878  6.412224 13.898071            0           0           0
      0.000000  2.136528  7.500000            0           0           0
      2.136528  4.273057  7.500000            0           0           0
      0.000000  4.273057  9.636528            0           0           0
      2.136528  2.136528  9.636528            0           0           0
      8.545415  2.136699 11.780980            0           0           0
      2.139364  4.272902 11.785390            0           0           0
      8.545039  4.272245 13.902485            0           0           0
      2.132322  2.133961 13.901942            0           0           0
      4.273057  6.409585  7.500000            0           0           0
      6.409585  0.000000  7.500000            0           0           0
      4.273057  0.000000  9.636528            0           0           0
      6.409585  6.409585  9.636528            0           0           0
      4.271911  6.405372 11.784015            0           0           0
      6.407283  8.545058 11.781273            0           0           0
      4.270961  0.000325 13.903022            0           0           0
      6.410346  6.411088 13.905124            0           0           0
      4.273057  2.136528  7.500000            0           0           0
      6.409585  4.273057  7.500000            0           0           0
      4.273057  4.273057  9.636528            0           0           0
      6.409585  2.136528  9.636528            0           0           0
      4.271948  2.140132 11.785292            0           0           0
      6.404788  4.272746 11.784244            0           0           0
      4.271904  4.272831 13.947123            0           0           0
      6.411163  2.132683 13.898054            0           0           0
      0.000000  6.409585  9.636528            0           0           0
      2.136528  0.000000  9.636528            0           0           0
      0.000000  0.000000  7.500000            0           0           0
      2.136528  6.409585  7.500000            0           0           0
      8.544179  6.410755 13.944111            0           0           0
      2.133525  8.545799 13.943065            0           0           0
      8.544763  8.545723 11.775213            0           0           0
      2.135199  6.409716 11.775948            0           0           0
      0.000000  2.136528  9.636528            0           0           0
      2.136528  4.273057  9.636528            0           0           0
      0.000000  4.273057  7.500000            0           0           0
      2.136528  2.136528  7.500000            0           0           0
      8.544631  2.134216 13.943819            0           0           0
      2.127045  4.273855 13.943798            0           0           0
      8.544727  4.272764 11.775279            0           0           0
      2.135720  2.136339 11.776761            0           0           0
      4.273057  6.409585  9.636528            0           0           0
      6.409585  0.000000  9.636528            0           0           0
      4.273057  0.000000  7.500000            0           0           0
      6.409585  6.409585  7.500000            0           0           0
      4.269253  6.417155 13.944386            0           0           0
      6.409117  8.545372 13.943820            0           0           0
      4.271891  8.545519 11.775906            0           0           0
      6.408196  6.408872 11.777568            0           0           0
      4.273057  2.136528  9.636528            0           0           0
      6.409585  4.273057  9.636528            0           0           0
      4.273057  4.273057  7.500000            0           0           0
      6.409585  2.136528  7.500000            0           0           0
      4.272554  2.128601 13.944830            0           0           0
      6.416535  4.270497 13.942378            0           0           0
      4.272150  4.272993 11.783904            0           0           0
      6.409011  2.135839 11.775790            0           0           0

[...]

   6 f  =    0.438794 THz     2.757024 2PiTHz   14.636590 cm-1     1.814705 meV
             X         Y         Z           dx          dy          dz
      4.320103  4.328909 16.438332     0.395024    0.114719   -0.062078
      3.714390  3.749967 17.263791     0.894401   -0.122467    0.109499
      0.000000  6.409585  7.500000            0           0           0
      2.136528  0.000000  7.500000            0           0           0
      0.000000  0.000000  9.636528            0           0           0
      2.136528  6.409585  9.636528            0           0           0
      8.544213  6.408821 11.781336            0           0           0
      2.136282  0.000130 11.781139            0           0           0
      8.544247  8.545868 13.903640            0           0           0
      2.130878  6.412224 13.898071            0           0           0
      0.000000  2.136528  7.500000            0           0           0
      2.136528  4.273057  7.500000            0           0           0
      0.000000  4.273057  9.636528            0           0           0
      2.136528  2.136528  9.636528            0           0           0
      8.545415  2.136699 11.780980            0           0           0
      2.139364  4.272902 11.785390            0           0           0
      8.545039  4.272245 13.902485            0           0           0
      2.132322  2.133961 13.901942            0           0           0
      4.273057  6.409585  7.500000            0           0           0
      6.409585  0.000000  7.500000            0           0           0
      4.273057  0.000000  9.636528            0           0           0
      6.409585  6.409585  9.636528            0           0           0
      4.271911  6.405372 11.784015            0           0           0
      6.407283  8.545058 11.781273            0           0           0
      4.270961  0.000325 13.903022            0           0           0
      6.410346  6.411088 13.905124            0           0           0
      4.273057  2.136528  7.500000            0           0           0
      6.409585  4.273057  7.500000            0           0           0
      4.273057  4.273057  9.636528            0           0           0
      6.409585  2.136528  9.636528            0           0           0
      4.271948  2.140132 11.785292            0           0           0
      6.404788  4.272746 11.784244            0           0           0
      4.271904  4.272831 13.947123            0           0           0
      6.411163  2.132683 13.898054            0           0           0
      0.000000  6.409585  9.636528            0           0           0
      2.136528  0.000000  9.636528            0           0           0
      0.000000  0.000000  7.500000            0           0           0
      2.136528  6.409585  7.500000            0           0           0
      8.544179  6.410755 13.944111            0           0           0
      2.133525  8.545799 13.943065            0           0           0
      8.544763  8.545723 11.775213            0           0           0
      2.135199  6.409716 11.775948            0           0           0
      0.000000  2.136528  9.636528            0           0           0
      2.136528  4.273057  9.636528            0           0           0
      0.000000  4.273057  7.500000            0           0           0
      2.136528  2.136528  7.500000            0           0           0
      8.544631  2.134216 13.943819            0           0           0
      2.127045  4.273855 13.943798            0           0           0
      8.544727  4.272764 11.775279            0           0           0
      2.135720  2.136339 11.776761            0           0           0
      4.273057  6.409585  9.636528            0           0           0
      6.409585  0.000000  9.636528            0           0           0
      4.273057  0.000000  7.500000            0           0           0
      6.409585  6.409585  7.500000            0           0           0
      4.269253  6.417155 13.944386            0           0           0
      6.409117  8.545372 13.943820            0           0           0
      4.271891  8.545519 11.775906            0           0           0
      6.408196  6.408872 11.777568            0           0           0
      4.273057  2.136528  9.636528            0           0           0
      6.409585  4.273057  9.636528            0           0           0
      4.273057  4.273057  7.500000            0           0           0
      6.409585  2.136528  7.500000            0           0           0
      4.272554  2.128601 13.944830            0           0           0
      6.416535  4.270497 13.942378            0           0           0
      4.272150  4.272993 11.783904            0           0           0
      6.409011  2.135839 11.775790            0           0           0

 Finite differences POTIM=   1.0000000000000000E-002