 vasp.6.3.0 20Jan22 (build Apr  1 2022 16:44:48) complex
 executed on        HPECrayEX_GCC date 2023.01.23  21:53:31

 INCAR:
   SYSTEM = MgO-rocksalt
   ISMEAR = 0
   SIGMA = 0.05
   EDIFF = 1E-8
   ALGO = ALL
   ISTART = 0
   IBRION = 5
   POTIM = 0.01
   NFREE = 2
   ISYM = 0
   DIPOL = 0.5 0.5 0.5
   IDIPOL = 3
   LDIPOL = .TRUE.
   GGA = RE
   IVDW = 13
   VDW_S8 = 1.7468
   VDW_A1 = 0.5363
   VDW_A2 = 3.0726
   ENCUT = 600
   PREC = Accurate
   LASPH = .TRUE.
   LREAL = .FALSE.
   ISPIN = 1
   NELM = 200
   NELMIN = 8
   NCORE = 8
   KPAR = 1
   LWAVE = .FALSE.
   LCHARG = .FALSE.

 POTCAR:    PAW_PBE C 08Apr2002
 POTCAR:    PAW_PBE O 08Apr2002
 POTCAR:    PAW_PBE Mg_pv 13Apr2007
 POTCAR:    PAW_PBE O 08Apr2002
 POTCAR:    PAW_PBE C 08Apr2002
   VRHFIN =C: s2p2

   TITEL  = PAW_PBE C 08Apr2002
   POMASS =   12.011; ZVAL   =    4.000    mass and valenz
   ENMAX  =  400.000; ENMIN  =  300.000 eV

[...]

   TITEL  = PAW_PBE Mg_pv 13Apr2007
   POMASS =   24.305; ZVAL   =    8.000    mass and valenz
   ENMAX  =  403.929; ENMIN  =  302.947 eV

   TITEL  = PAW_PBE O 08Apr2002
   POMASS =   16.000; ZVAL   =    6.000    mass and valenz
   ENMAX  =  400.000; ENMIN  =  300.000 eV

  PAW_PBE C 08Apr2002                   :
  PAW_PBE O 08Apr2002                   :
  PAW_PBE Mg_pv 13Apr2007               :
  PAW_PBE O 08Apr2002                   :

 POSCAR:  C  O Mg  O
  positions in direct lattice
|           W    W    AA    RRRRR   N    N  II  N    N   GGGG   !!!           |
|           W    W   A  A   R    R  NN   N  II  NN   N  G    G  !!!           |
|           W    W  A    A  R    R  N N  N  II  N N  N  G       !!!           |
|           W WW W  AAAAAA  RRRRR   N  N N  II  N  N N  G  GGG   !            |
|           WW  WW  A    A  R   R   N   NN  II  N   NN  G    G                |
|           W    W  A    A  R    R  N    N  II  N    N   GGGG   !!!           |
|     Specifying the vdW parameters                                           |
|     VDW_S8 = 1.747                                                          |
|     VDW_A1 = 0.536                                                          |
|     VDW_A2 = 3.073                                                          |
|     in the INCAR file will overwrite the defaults for revpbe. Please        |
|     make sure that is what you intended.                                    |

 ion  position               nearest neighbor table
   1  0.500  0.500  0.765-   2 1.15
   2  0.500  0.500  0.819-   1 1.15
   3  0.000  0.750  0.352-  35 2.11  37 2.11  38 2.11  45 2.11  54 2.11
   4  0.250  0.000  0.352-  36 2.11  37 2.11  38 2.11  46 2.11  53 2.11
   5  0.000  0.000  0.451-  37 2.11  36 2.11  35 2.11  43 2.11  52 2.11  41 2.12
   6  0.250  0.750  0.451-  38 2.11  36 2.11  35 2.11  44 2.11  51 2.11  42 2.12
   7  0.000  0.750  0.550-  49 2.11  42 2.11  58 2.11  41 2.11  35 2.12  39 2.15
   8  0.250  0.000  0.550-  57 2.11  50 2.11  42 2.11  41 2.11  36 2.12  40 2.15
   9  0.000  0.000  0.649-  39 2.11  40 2.11  47 2.11  56 2.11  41 2.11
  10  0.250  0.750  0.649-  42 2.11  40 2.11  39 2.11  48 2.11  55 2.11
  11  0.000  0.250  0.352-  43 2.11  37 2.11  45 2.11  46 2.11  62 2.11
  12  0.250  0.500  0.352-  44 2.11  38 2.11  45 2.11  46 2.11  61 2.11
  13  0.000  0.500  0.451-  45 2.11  43 2.11  44 2.11  35 2.11  60 2.11  49 2.12
  14  0.250  0.250  0.451-  46 2.11  43 2.11  44 2.11  36 2.11  59 2.11  50 2.12
  15  0.000  0.250  0.550-  49 2.11  50 2.11  66 2.11  41 2.11  43 2.12  47 2.15
  16  0.250  0.500  0.550-  65 2.11  50 2.11  42 2.11  49 2.11  44 2.13  48 2.15
  17  0.000  0.500  0.649-  48 2.10  64 2.10  49 2.11  47 2.11  39 2.11
  18  0.250  0.250  0.649-  50 2.11  47 2.11  40 2.11  48 2.11  63 2.11
  19  0.500  0.750  0.352-  51 2.11  38 2.11  53 2.11  54 2.11  61 2.11
  20  0.750  0.000  0.352-  52 2.11  37 2.11  53 2.11  54 2.11  62 2.11
  21  0.500  0.000  0.451-  53 2.11  51 2.11  52 2.11  36 2.11  59 2.11  57 2.12
  22  0.750  0.750  0.451-  54 2.11  51 2.11  52 2.11  35 2.11  60 2.11  58 2.12
  23  0.500  0.750  0.550-  65 2.11  58 2.11  42 2.11  57 2.11  51 2.13  55 2.15
  24  0.750  0.000  0.550-  57 2.11  58 2.11  66 2.11  41 2.11  52 2.12  56 2.15
  25  0.500  0.000  0.649-  55 2.10  63 2.10  57 2.11  40 2.11  56 2.11
  26  0.750  0.750  0.649-  58 2.11  56 2.11  39 2.11  55 2.11  64 2.11
  27  0.500  0.250  0.352-  59 2.11  53 2.11  46 2.11  61 2.11  62 2.11
  28  0.750  0.500  0.352-  60 2.11  54 2.11  45 2.11  61 2.11  62 2.11
  29  0.500  0.500  0.451-  61 2.11  51 2.11  59 2.11  60 2.11  44 2.11  65 2.13
  30  0.750  0.250  0.451-  62 2.11  52 2.11  59 2.11  60 2.11  43 2.11  66 2.12
  31  0.500  0.250  0.550-  65 2.11  50 2.11  66 2.11  57 2.11  59 2.13  63 2.15
  32  0.750  0.500  0.550-  65 2.11  58 2.11  66 2.11  49 2.11  60 2.13  64 2.15
  33  0.500  0.500  0.651-  48 2.12  55 2.12  63 2.12  64 2.12  65 2.14
  34  0.750  0.250  0.649-  66 2.11  56 2.11  47 2.11  64 2.11  63 2.11
  35  0.000  0.750  0.451-   3 2.11   5 2.11   6 2.11  13 2.11  22 2.11   7 2.12
  36  0.250  0.000  0.451-   4 2.11   5 2.11   6 2.11  14 2.11  21 2.11   8 2.12
  37  0.000  0.000  0.352-   5 2.11   4 2.11   3 2.11  11 2.11  20 2.11
  38  0.250  0.750  0.352-   6 2.11   4 2.11   3 2.11  12 2.11  19 2.11
  39  0.000  0.750  0.651-   9 2.11  10 2.11  26 2.11  17 2.11   7 2.15
  40  0.250  0.000  0.651-   9 2.11  10 2.11  18 2.11  25 2.11   8 2.15
  41  0.000  0.000  0.550-   9 2.11   8 2.11   7 2.11  15 2.11  24 2.11   5 2.12
  42  0.250  0.750  0.550-  10 2.11   8 2.11   7 2.11  16 2.11  23 2.11   6 2.12
  43  0.000  0.250  0.451-  11 2.11   5 2.11  13 2.11  14 2.11  30 2.11  15 2.12
  44  0.250  0.500  0.451-  12 2.11   6 2.11  13 2.11  14 2.11  29 2.11  16 2.13
  45  0.000  0.500  0.352-  13 2.11  11 2.11  12 2.11   3 2.11  28 2.11
  46  0.250  0.250  0.352-  14 2.11  11 2.11  12 2.11   4 2.11  27 2.11
  47  0.000  0.250  0.651-   9 2.11  18 2.11  34 2.11  17 2.11  15 2.15
  48  0.249  0.500  0.651-  17 2.10  10 2.11  18 2.11  33 2.12  16 2.15
  49  0.000  0.500  0.550-  17 2.11  15 2.11   7 2.11  16 2.11  32 2.11  13 2.12
  50  0.250  0.250  0.550-  18 2.11  15 2.11   8 2.11  16 2.11  31 2.11  14 2.12
  51  0.500  0.750  0.451-  19 2.11   6 2.11  21 2.11  22 2.11  29 2.11  23 2.13
  52  0.750  0.000  0.451-  20 2.11   5 2.11  21 2.11  22 2.11  30 2.11  24 2.12
  53  0.500  0.000  0.352-  21 2.11  19 2.11  20 2.11   4 2.11  27 2.11
  54  0.750  0.750  0.352-  22 2.11  19 2.11  20 2.11   3 2.11  28 2.11
  55  0.500  0.751  0.651-  25 2.10  10 2.11  26 2.11  33 2.12  23 2.15
  56  0.750  0.000  0.651-   9 2.11  26 2.11  34 2.11  25 2.11  24 2.15
  57  0.500  0.000  0.550-  25 2.11  24 2.11   8 2.11  23 2.11  31 2.11  21 2.12
  58  0.750  0.750  0.550-  26 2.11  24 2.11   7 2.11  32 2.11  23 2.11  22 2.12
  59  0.500  0.250  0.451-  27 2.11  21 2.11  14 2.11  29 2.11  30 2.11  31 2.13
  60  0.750  0.500  0.451-  28 2.11  22 2.11  13 2.11  29 2.11  30 2.11  32 2.13
  61  0.500  0.500  0.352-  29 2.11  19 2.11  27 2.11  28 2.11  12 2.11
  62  0.750  0.250  0.352-  30 2.11  20 2.11  27 2.11  28 2.11  11 2.11
  63  0.500  0.249  0.651-  25 2.10  18 2.11  34 2.11  33 2.12  31 2.15
  64  0.751  0.500  0.651-  17 2.10  26 2.11  34 2.11  33 2.12  32 2.15
  65  0.500  0.500  0.550-  16 2.11  23 2.11  31 2.11  32 2.11  29 2.13  33 2.14
  66  0.750  0.250  0.550-  34 2.11  24 2.11  15 2.11  32 2.11  31 2.11  30 2.12

IMPORTANT INFORMATION: All symmetrisations will be switched off!
NOSYMM: (Re-)initialisation of all symmetry stuff for point group C_1.

                                     Primitive cell

  volume of cell :    1519.8199

  direct lattice vectors                    reciprocal lattice vectors
     8.440984654  0.000000000  0.000000000     0.118469591  0.000000000  0.000000000
     0.000000000  8.440984654  0.000000000     0.000000000  0.118469591  0.000000000
     0.000000000  0.000000000 21.330738491     0.000000000  0.000000000  0.046880702

  length of vectors
     8.440984654  8.440984654 21.330738491     0.118469591  0.118469591  0.046880702

  position of ions in fractional coordinates (direct lattice)
     0.500000000  0.500000000  0.765053803
     0.500000000  0.500000000  0.818817521
     0.000000000  0.750000000  0.351605267
     0.250000000  0.000000000  0.351605267
     0.000000000  0.000000000  0.450535089
     0.250000000  0.750000000  0.450535089
     0.000000000  0.749939268  0.550083239
     0.250060732  0.000000000  0.550083239
     0.000000000  0.000000000  0.648745309
     0.249858327  0.750141673  0.648569547
     0.000000000  0.250000000  0.351605267
     0.250000000  0.500000000  0.351605267
     0.000000000  0.500000000  0.450535089
     0.250000000  0.250000000  0.450535089
     0.000000000  0.250060732  0.550083239
     0.250378379  0.500000000  0.550219524
     0.000000000  0.500000000  0.648615280
     0.249858327  0.249858327  0.648569547
     0.500000000  0.750000000  0.351605267
     0.750000000  0.000000000  0.351605267
     0.500000000  0.000000000  0.450535089
     0.750000000  0.750000000  0.450535089
     0.500000000  0.749621621  0.550219524
     0.749939268  0.000000000  0.550083239
     0.500000000  0.000000000  0.648615280
     0.750141673  0.750141673  0.648569547
     0.500000000  0.250000000  0.351605267
     0.750000000  0.500000000  0.351605267
     0.500000000  0.500000000  0.450535089
     0.750000000  0.250000000  0.450535089
     0.500000000  0.250378379  0.550219524
     0.749621621  0.500000000  0.550219524
     0.500000000  0.500000000  0.650616960
     0.750141673  0.249858327  0.648569547
     0.000000000  0.750000000  0.450535089
     0.250000000  0.000000000  0.450535089
     0.000000000  0.000000000  0.351605267
     0.250000000  0.750000000  0.351605267
     0.000000000  0.750218533  0.650979255
     0.249781467  0.000000000  0.650979255
     0.000000000  0.000000000  0.549809890
     0.249945770  0.750054230  0.549859113
     0.000000000  0.250000000  0.450535089
     0.250000000  0.500000000  0.450535089
     0.000000000  0.500000000  0.351605267
     0.250000000  0.250000000  0.351605267
     0.000000000  0.249781467  0.650979255
     0.248822710  0.500000000  0.650882872
     0.000000000  0.500000000  0.549762666
     0.249945770  0.249945770  0.549859113
     0.500000000  0.750000000  0.450535089
     0.750000000  0.000000000  0.450535089
     0.500000000  0.000000000  0.351605267
     0.750000000  0.750000000  0.351605267
     0.500000000  0.751177290  0.650882872
     0.750218533  0.000000000  0.650979255
     0.500000000  0.000000000  0.549762666
     0.750054230  0.750054230  0.549859113
     0.500000000  0.250000000  0.450535089
     0.750000000  0.500000000  0.450535089
     0.500000000  0.500000000  0.351605267
     0.750000000  0.250000000  0.351605267
     0.500000000  0.248822710  0.650882872
     0.751177290  0.500000000  0.650882872
     0.500000000  0.500000000  0.550231357
     0.750054230  0.249945770  0.549859113

  ion indices of the primitive-cell ions
   primitive index   ion index
                 1           1
                 2           2
                 3           3
                 4           4
                 5           5
[...]
      0.000000  6.332583 13.885868            0           0           0
      2.108402  0.000000 13.885868            0           0           0
      0.000000  0.000000 11.727851            0           0           0
      2.109788  6.331196 11.728901            0           0           0
      0.000000  2.110246  9.610246            0           0           0
      2.110246  4.220492  9.610246            0           0           0
      0.000000  4.220492  7.500000            0           0           0
      2.110246  2.110246  7.500000            0           0           0
      0.000000  2.108402 13.885868            0           0           0
      2.100309  4.220492 13.883812            0           0           0
      0.000000  4.220492 11.726844            0           0           0
      2.109788  2.109788 11.728901            0           0           0
      4.220492  6.330738  9.610246            0           0           0
      6.330738  0.000000  9.610246            0           0           0
      4.220492  0.000000  7.500000            0           0           0
      6.330738  6.330738  7.500000            0           0           0
      4.220492  6.340676 13.883812            0           0           0
      6.332583  0.000000 13.885868            0           0           0
      4.220492  0.000000 11.726844            0           0           0
      6.331196  6.331196 11.728901            0           0           0
      4.220492  2.110246  9.610246            0           0           0
      6.330738  4.220492  9.610246            0           0           0
      4.220492  4.220492  7.500000            0           0           0
      6.330738  2.110246  7.500000            0           0           0
      4.220492  2.100309 13.883812            0           0           0
      6.340676  4.220492 13.883812            0           0           0
      4.220492  4.220492 11.736841            0           0           0
      6.331196  2.109788 11.728901            0           0           0

[...]

   4 f  =    2.932774 THz    18.427165 2PiTHz   97.826824 cm-1    12.128975 meV
             X         Y         Z           dx          dy          dz
      4.220492  4.220492 16.319163    -0.001096   -0.001233    0.654257
      4.220492  4.220492 17.465982    -0.004403   -0.006372    0.756231
      0.000000  6.330738  7.500000            0           0           0
      2.110246  0.000000  7.500000            0           0           0
      0.000000  0.000000  9.610246            0           0           0
      2.110246  6.330738  9.610246            0           0           0
      0.000000  6.330226 11.733682            0           0           0
      2.110759  0.000000 11.733682            0           0           0
      0.000000  0.000000 13.838217            0           0           0
      2.109050  6.331934 13.834467            0           0           0
      0.000000  2.110246  7.500000            0           0           0
      2.110246  4.220492  7.500000            0           0           0
      0.000000  4.220492  9.610246            0           0           0
      2.110246  2.110246  9.610246            0           0           0
      0.000000  2.110759 11.733682            0           0           0
      2.113440  4.220492 11.736589            0           0           0
      0.000000  4.220492 13.835443            0           0           0
      2.109050  2.109050 13.834467            0           0           0
      4.220492  6.330738  7.500000            0           0           0
      6.330738  0.000000  7.500000            0           0           0
      4.220492  0.000000  9.610246            0           0           0
      6.330738  6.330738  9.610246            0           0           0
      4.220492  6.327545 11.736589            0           0           0
      6.330226  0.000000 11.733682            0           0           0
      4.220492  0.000000 13.835443            0           0           0
      6.331934  6.331934 13.834467            0           0           0
      4.220492  2.110246  7.500000            0           0           0
      6.330738  4.220492  7.500000            0           0           0
      4.220492  4.220492  9.610246            0           0           0
      6.330738  2.110246  9.610246            0           0           0
      4.220492  2.113440 11.736589            0           0           0
      6.327545  4.220492 11.736589            0           0           0
      4.220492  4.220492 13.878140            0           0           0
      6.331934  2.109050 13.834467            0           0           0
      0.000000  6.330738  9.610246            0           0           0
      2.110246  0.000000  9.610246            0           0           0
      0.000000  0.000000  7.500000            0           0           0
      2.110246  6.330738  7.500000            0           0           0
      0.000000  6.332583 13.885868            0           0           0
      2.108402  0.000000 13.885868            0           0           0
      0.000000  0.000000 11.727851            0           0           0
      2.109788  6.331196 11.728901            0           0           0
      0.000000  2.110246  9.610246            0           0           0
      2.110246  4.220492  9.610246            0           0           0
      0.000000  4.220492  7.500000            0           0           0
      2.110246  2.110246  7.500000            0           0           0
      0.000000  2.108402 13.885868            0           0           0
      2.100309  4.220492 13.883812            0           0           0
      0.000000  4.220492 11.726844            0           0           0
      2.109788  2.109788 11.728901            0           0           0
      4.220492  6.330738  9.610246            0           0           0
      6.330738  0.000000  9.610246            0           0           0
      4.220492  0.000000  7.500000            0           0           0
      6.330738  6.330738  7.500000            0           0           0
      4.220492  6.340676 13.883812            0           0           0
      6.332583  0.000000 13.885868            0           0           0
      4.220492  0.000000 11.726844            0           0           0
      6.331196  6.331196 11.728901            0           0           0
      4.220492  2.110246  9.610246            0           0           0
      6.330738  4.220492  9.610246            0           0           0
      4.220492  4.220492  7.500000            0           0           0
      6.330738  2.110246  7.500000            0           0           0
      4.220492  2.100309 13.883812            0           0           0
      6.340676  4.220492 13.883812            0           0           0
      4.220492  4.220492 11.736841            0           0           0
      6.331196  2.109788 11.728901            0           0           0

   5 f/i=    0.984897 THz     6.188288 2PiTHz   32.852617 cm-1     4.073204 meV
             X         Y         Z           dx          dy          dz
      4.220492  4.220492 16.319163    -0.235014    0.270412    0.001218
      4.220492  4.220492 17.465982    -0.612666    0.704473    0.001415
      0.000000  6.330738  7.500000            0           0           0
      2.110246  0.000000  7.500000            0           0           0
      0.000000  0.000000  9.610246            0           0           0
      2.110246  6.330738  9.610246            0           0           0
      0.000000  6.330226 11.733682            0           0           0
      2.110759  0.000000 11.733682            0           0           0
      0.000000  0.000000 13.838217            0           0           0
      2.109050  6.331934 13.834467            0           0           0
      0.000000  2.110246  7.500000            0           0           0
      2.110246  4.220492  7.500000            0           0           0
      0.000000  4.220492  9.610246            0           0           0
      2.110246  2.110246  9.610246            0           0           0
      0.000000  2.110759 11.733682            0           0           0
      2.113440  4.220492 11.736589            0           0           0
      0.000000  4.220492 13.835443            0           0           0
      2.109050  2.109050 13.834467            0           0           0
      4.220492  6.330738  7.500000            0           0           0
      6.330738  0.000000  7.500000            0           0           0
      4.220492  0.000000  9.610246            0           0           0
      6.330738  6.330738  9.610246            0           0           0
      4.220492  6.327545 11.736589            0           0           0
      6.330226  0.000000 11.733682            0           0           0
      4.220492  0.000000 13.835443            0           0           0
      6.331934  6.331934 13.834467            0           0           0
      4.220492  2.110246  7.500000            0           0           0
      6.330738  4.220492  7.500000            0           0           0
      4.220492  4.220492  9.610246            0           0           0
      6.330738  2.110246  9.610246            0           0           0
      4.220492  2.113440 11.736589            0           0           0
      6.327545  4.220492 11.736589            0           0           0
      4.220492  4.220492 13.878140            0           0           0
      6.331934  2.109050 13.834467            0           0           0
      0.000000  6.330738  9.610246            0           0           0
      2.110246  0.000000  9.610246            0           0           0
      0.000000  0.000000  7.500000            0           0           0
      2.110246  6.330738  7.500000            0           0           0
      0.000000  6.332583 13.885868            0           0           0
      2.108402  0.000000 13.885868            0           0           0
      0.000000  0.000000 11.727851            0           0           0
      2.109788  6.331196 11.728901            0           0           0
      0.000000  2.110246  9.610246            0           0           0
      2.110246  4.220492  9.610246            0           0           0
      0.000000  4.220492  7.500000            0           0           0
      2.110246  2.110246  7.500000            0           0           0
      0.000000  2.108402 13.885868            0           0           0
      2.100309  4.220492 13.883812            0           0           0
      0.000000  4.220492 11.726844            0           0           0
      2.109788  2.109788 11.728901            0           0           0
      4.220492  6.330738  9.610246            0           0           0
      6.330738  0.000000  9.610246            0           0           0
      4.220492  0.000000  7.500000            0           0           0
      6.330738  6.330738  7.500000            0           0           0
      4.220492  6.340676 13.883812            0           0           0
      6.332583  0.000000 13.885868            0           0           0
      4.220492  0.000000 11.726844            0           0           0
      6.331196  6.331196 11.728901            0           0           0
      4.220492  2.110246  9.610246            0           0           0
      6.330738  4.220492  9.610246            0           0           0
      4.220492  4.220492  7.500000            0           0           0
      6.330738  2.110246  7.500000            0           0           0
      4.220492  2.100309 13.883812            0           0           0
      6.340676  4.220492 13.883812            0           0           0
      4.220492  4.220492 11.736841            0           0           0
      6.331196  2.109788 11.728901            0           0           0

   6 f/i=    1.026167 THz     6.447597 2PiTHz   34.229244 cm-1     4.243884 meV
             X         Y         Z           dx          dy          dz
      4.220492  4.220492 16.319163    -0.270840   -0.236512   -0.004964
      4.220492  4.220492 17.465982    -0.704296   -0.612060   -0.005742
      0.000000  6.330738  7.500000            0           0           0
      2.110246  0.000000  7.500000            0           0           0
      0.000000  0.000000  9.610246            0           0           0
      2.110246  6.330738  9.610246            0           0           0
      0.000000  6.330226 11.733682            0           0           0
      2.110759  0.000000 11.733682            0           0           0
      0.000000  0.000000 13.838217            0           0           0
      2.109050  6.331934 13.834467            0           0           0
      0.000000  2.110246  7.500000            0           0           0
      2.110246  4.220492  7.500000            0           0           0
      0.000000  4.220492  9.610246            0           0           0
      2.110246  2.110246  9.610246            0           0           0
      0.000000  2.110759 11.733682            0           0           0
      2.113440  4.220492 11.736589            0           0           0
      0.000000  4.220492 13.835443            0           0           0
      2.109050  2.109050 13.834467            0           0           0
      4.220492  6.330738  7.500000            0           0           0
      6.330738  0.000000  7.500000            0           0           0
      4.220492  0.000000  9.610246            0           0           0
      6.330738  6.330738  9.610246            0           0           0
      4.220492  6.327545 11.736589            0           0           0
      6.330226  0.000000 11.733682            0           0           0
      4.220492  0.000000 13.835443            0           0           0
      6.331934  6.331934 13.834467            0           0           0
      4.220492  2.110246  7.500000            0           0           0
      6.330738  4.220492  7.500000            0           0           0
      4.220492  4.220492  9.610246            0           0           0
      6.330738  2.110246  9.610246            0           0           0
      4.220492  2.113440 11.736589            0           0           0
      6.327545  4.220492 11.736589            0           0           0
      4.220492  4.220492 13.878140            0           0           0
      6.331934  2.109050 13.834467            0           0           0
      0.000000  6.330738  9.610246            0           0           0
      2.110246  0.000000  9.610246            0           0           0
      0.000000  0.000000  7.500000            0           0           0
      2.110246  6.330738  7.500000            0           0           0
      0.000000  6.332583 13.885868            0           0           0
      2.108402  0.000000 13.885868            0           0           0
      0.000000  0.000000 11.727851            0           0           0
      2.109788  6.331196 11.728901            0           0           0
      0.000000  2.110246  9.610246            0           0           0
      2.110246  4.220492  9.610246            0           0           0
      0.000000  4.220492  7.500000            0           0           0
      2.110246  2.110246  7.500000            0           0           0
      0.000000  2.108402 13.885868            0           0           0
      2.100309  4.220492 13.883812            0           0           0
      0.000000  4.220492 11.726844            0           0           0
      2.109788  2.109788 11.728901            0           0           0
      4.220492  6.330738  9.610246            0           0           0
      6.330738  0.000000  9.610246            0           0           0
      4.220492  0.000000  7.500000            0           0           0
      6.330738  6.330738  7.500000            0           0           0
      4.220492  6.340676 13.883812            0           0           0
      6.332583  0.000000 13.885868            0           0           0
      4.220492  0.000000 11.726844            0           0           0
      6.331196  6.331196 11.728901            0           0           0
      4.220492  2.110246  9.610246            0           0           0
      6.330738  4.220492  9.610246            0           0           0
      4.220492  4.220492  7.500000            0           0           0
      6.330738  2.110246  7.500000            0           0           0
      4.220492  2.100309 13.883812            0           0           0
      6.340676  4.220492 13.883812            0           0           0
      4.220492  4.220492 11.736841            0           0           0
      6.331196  2.109788 11.728901            0           0           0

 Finite differences POTIM=   1.0000000000000000E-002