 vasp.6.3.0 20Jan22 (build Mar 11 2022 13:48:16) complex

 executed on             LinuxIFC date 2024.01.22  08:19:24

 INCAR:
   SYSTEM = TiO2
   ISMEAR = 0
   SIGMA = 0.05
   EDIFF = 1E-5
   ALGO = ALL
   ISTART = 0
   IBRION = -1
   NSW = 0
   ISYM = 0
   ISIF = 2
   EDIFFG = -0.01
   DIPOL = 0.5 0.5 0.5
   IDIPOL = 3
   LDIPOL = .TRUE.
   METAGGA = R2SCAN
   LUSE_VDW = .TRUE.
   BPARAM = 11.95
   CPARAM = 0.0093
   LASPH = .TRUE.
   ENCUT = 600
   PREC = Accurate
   LASPH = .TRUE.
   LREAL = .FALSE.
   ISPIN = 1
   NELM = 200
   NELMIN = 8
   NCORE = 2
   KPAR = 1
   LWAVE = .FALSE.
   LCHARG = .FALSE.

 POTCAR:    PAW_PBE Ti_pv 07Sep2000
 POTCAR:    PAW_PBE O 08Apr2002
|           W    W    AA    RRRRR   N    N  II  N    N   GGGG   !!!           |
|           W    W   A  A   R    R  NN   N  II  NN   N  G    G  !!!           |
|           W    W  A    A  R    R  N N  N  II  N N  N  G       !!!           |
|           W WW W  AAAAAA  RRRRR   N  N N  II  N  N N  G  GGG   !            |
|           WW  WW  A    A  R   R   N   NN  II  N   NN  G    G                |
|           W    W  A    A  R    R  N    N  II  N    N   GGGG   !!!           |
|     For optimal performance we recommend to set                             |
|       NCORE = 2 up to number-of-cores-per-socket                            |
|     This setting can greatly improve the performance of VASP for DFT.       |
|     The default, NCORE=1 might be grossly inefficient on modern             |
|     multi-core architectures or massively parallel machines. Do your        |
|     Unfortunately you need to use the default for GW and RPA                |
|     calculations (for HF NCORE is supported but not extensively tested      |
|     yet).                                                                   |

   TITEL  = PAW_PBE Ti_pv 07Sep2000
   POMASS =   47.880; ZVAL   =   10.000    mass and valenz
   ENMAX  =  222.335; ENMIN  =  166.751 eV

   TITEL  = PAW_PBE O 08Apr2002
   POMASS =   16.000; ZVAL   =    6.000    mass and valenz
   ENMAX  =  400.000; ENMIN  =  300.000 eV

  PAW_PBE Ti_pv 07Sep2000               :
  PAW_PBE O 08Apr2002                   :

 POSCAR: Ti  O
  positions in direct lattice

 METAGGA = R2SCA    LMAXTAU =  6    LMIXTAU =  F

 ion  position               nearest neighbor table
   1  0.809  0.833  0.271-  51 1.93  85 1.93  53 1.93  52 1.97  50 1.97  18 3.04   4 3.04   2 3.04

   2  0.593  0.667  0.306-  49 1.93 116 1.93  54 1.93  52 1.93  55 1.97  53 1.97  33 3.04   3 3.04
                             1 3.04   7 3.06
   3  0.309  0.667  0.271-  55 1.93 121 1.93  57 1.93  56 1.97  49 1.97  36 3.04   2 3.04   4 3.04

   4  0.093  0.833  0.306-  50 1.93  88 1.93  58 1.93  56 1.93  51 1.97  57 1.97  19 3.04   1 3.04
                             3 3.04   5 3.06
   5  0.946  0.833  0.413-  59 1.92  93 1.93  61 1.93  51 1.97  60 1.97  58 1.97   8 2.99   6 3.03
                            22 3.03   4 3.06
   6  0.728  0.666  0.445-  54 1.89 124 1.93  60 1.93  62 1.94  63 1.97  61 1.98   7 3.00   5 3.03
                            37 3.04  11 3.08
   7  0.445  0.666  0.413-  63 1.92 129 1.92  65 1.93  55 1.96  64 1.97  54 1.98   6 3.00   8 3.04
                            40 3.04   2 3.06
   8  0.227  0.833  0.446-  58 1.90  96 1.93  64 1.93  66 1.96  59 1.96  65 1.98   5 2.99  23 3.04
                             7 3.04   9 3.08
   9  0.087  0.834  0.556-  67 1.92 101 1.92  69 1.93  68 1.96  66 1.98  59 1.99  12 2.94  10 3.03
                            26 3.03   8 3.08
  10  0.867  0.666  0.584-  62 1.87 132 1.92  68 1.93  71 1.94  69 1.98  70 1.98  11 2.97   9 3.03
                            41 3.04  15 3.14
  11  0.586  0.666  0.555- 137 1.92  71 1.92  73 1.93  63 1.96  72 1.96  62 1.99  10 2.97  12 3.04
                            44 3.04   6 3.08
  12  0.366  0.833  0.586-  66 1.87 104 1.93  72 1.93  67 1.94  74 1.98  73 1.99   9 2.94  27 3.04
                            11 3.04
  13  0.232  0.833  0.701-  75 1.85  77 1.92 109 1.93  76 1.99  74 2.06  67 2.07  16 2.85  30 3.06
                            14 3.07
  14  0.002  0.666  0.723-  70 1.79  78 1.84 140 1.96  76 1.97  77 2.02  15 2.86  13 3.07  45 3.08

[...]

  17  0.809  0.167  0.271-  83 1.93  85 1.93 117 1.93  84 1.97  82 1.97  18 3.04  20 3.04  34 3.04

[...]

  36  0.093  0.500  0.306- 114 1.93  56 1.93 120 1.93 122 1.93 121 1.97 115 1.97   3 3.04  35 3.04
                            33 3.04  37 3.05
  37  0.947  0.500  0.413- 123 1.92 125 1.93  61 1.93 122 1.96 115 1.96 124 1.97  40 2.99   6 3.04
                            38 3.04  36 3.05
  38  0.728  0.334  0.445- 118 1.89 124 1.93  92 1.93 126 1.94 127 1.97 125 1.98  39 3.00  21 3.03
                            37 3.04  43 3.08
  39  0.445  0.334  0.413- 127 1.92 129 1.92  97 1.93 119 1.96 128 1.97 118 1.98  38 3.00  24 3.04
                            40 3.04  34 3.06
  40  0.227  0.500  0.447- 122 1.92 128 1.93  64 1.93 123 1.95 130 1.96 129 1.99  37 2.99   7 3.04
                            39 3.04  41 3.05
  41  0.090  0.500  0.556- 131 1.92 133 1.93  69 1.93 130 1.96 132 1.98 123 1.99  44 2.96  10 3.04
                            42 3.04  40 3.05
  42  0.867  0.334  0.584- 126 1.87 132 1.92 100 1.93 135 1.94 133 1.98 134 1.98  43 2.97  25 3.03
                            41 3.04  47 3.14
  43  0.586  0.334  0.555- 137 1.92 135 1.92 105 1.93 127 1.96 136 1.96 126 1.99  42 2.97  28 3.04
                            44 3.04  38 3.08
  44  0.367  0.500  0.589- 130 1.91 136 1.93  72 1.93 131 1.93 138 1.97 137 2.00  41 2.96  11 3.04
                            43 3.04  45 3.12
  45  0.235  0.500  0.702- 139 1.85  77 1.93 141 1.93 138 2.01 140 2.02 131 2.07  48 2.87  46 3.08
                            14 3.08  44 3.12
  46  0.002  0.334  0.723- 134 1.79 142 1.84 140 1.96 108 1.97 141 2.02  47 2.86  29 3.07  45 3.08

  47  0.730  0.334  0.697- 142 1.88 144 1.92 112 1.94 143 1.98 135 2.01 134 2.05  46 2.86  32 3.06
                            48 3.07  42 3.14
  48  0.507  0.500  0.730- 139 1.82 138 1.87  79 1.97 143 1.97 144 2.06  45 2.87  47 3.07  15 3.07

  49  0.489  0.667  0.242-   2 1.93   3 1.97
  50  0.989  0.833  0.242-   4 1.93   1 1.97
  51  0.914  0.833  0.335-   1 1.93   5 1.97   4 1.97
  52  0.630  0.833  0.300-  18 1.93   2 1.93   1 1.97
  53  0.772  0.667  0.277-  33 1.93   1 1.93   2 1.97
  54  0.624  0.667  0.383-   6 1.89   2 1.93   7 1.98
  55  0.414  0.667  0.335-   3 1.93   7 1.96   2 1.97
  56  0.130  0.667  0.300-  36 1.93   4 1.93   3 1.97
  57  0.272  0.833  0.277-  19 1.93   3 1.93   4 1.97
  58  0.124  0.833  0.383-   8 1.90   4 1.93   5 1.97
  59  0.051  0.833  0.477-   5 1.92   8 1.96   9 1.99
  60  0.766  0.833  0.441-  22 1.93   6 1.93   5 1.97
  61  0.909  0.667  0.418-   5 1.93  37 1.93   6 1.98
  62  0.763  0.666  0.522-  10 1.87   6 1.94  11 1.99
  63  0.551  0.666  0.477-   7 1.92  11 1.96   6 1.97
  64  0.266  0.667  0.441-  40 1.93   8 1.93   7 1.97
  65  0.408  0.833  0.418-   7 1.93  23 1.93   8 1.98
  66  0.263  0.833  0.523-  12 1.87   8 1.96   9 1.98
  67  0.194  0.833  0.619-   9 1.92  12 1.94  13 2.07
  68  0.905  0.833  0.581-  26 1.93  10 1.93   9 1.96
  69  0.051  0.667  0.560-  41 1.93   9 1.93  10 1.98
  70  0.911  0.668  0.662-  14 1.79  10 1.98  15 2.05
  71  0.695  0.669  0.618-  11 1.92  10 1.94  15 2.01
  72  0.406  0.667  0.583-  44 1.93  12 1.93  11 1.96
  73  0.549  0.833  0.559-  27 1.93  11 1.93  12 1.99
  74  0.410  0.834  0.663-  16 1.79  12 1.98  13 2.06
  75  0.348  0.833  0.759-  16 1.83  13 1.85
  76  0.052  0.833  0.732-  30 1.97  14 1.97  13 1.99
  77  0.193  0.666  0.703-  13 1.92  45 1.93  14 2.02
  78  0.842  0.661  0.757-  14 1.84  15 1.88
  79  0.555  0.668  0.732-  16 1.96  48 1.97  15 1.98
  80  0.694  0.834  0.700-  31 1.92  15 1.94  16 2.02
  81  0.489  0.000  0.242-  18 1.93  19 1.97
  82  0.989  0.167  0.242-  20 1.93  17 1.97
  83  0.914  0.167  0.335-  17 1.93  21 1.97  20 1.97
  84  0.630  0.167  0.300-  18 1.93  34 1.93  17 1.97
  85  0.772  0.000  0.277-   1 1.93  17 1.93  18 1.97
  86  0.624  0.000  0.383-  22 1.89  18 1.93  23 1.98
  87  0.414  0.000  0.335-  19 1.93  23 1.96  18 1.97
  88  0.130  0.000  0.300-   4 1.93  20 1.93  19 1.97
  89  0.272  0.167  0.277-  19 1.93  35 1.93  20 1.97
  90  0.124  0.167  0.383-  24 1.90  20 1.93  21 1.97
  91  0.051  0.167  0.477-  21 1.92  24 1.96  25 1.99
  92  0.766  0.167  0.441-  22 1.93  38 1.93  21 1.97
  93  0.909  1.000  0.418-   5 1.93  21 1.93  22 1.98
  94  0.763  0.000  0.523-  26 1.87  22 1.95  27 1.98
  95  0.551  0.000  0.477-  23 1.92  22 1.97  27 1.98
  96  0.266  1.000  0.441-   8 1.93  24 1.93  23 1.97
  97  0.408  0.167  0.418-  39 1.93  23 1.93  24 1.98
  98  0.263  0.167  0.523-  28 1.87  24 1.96  25 1.98
  99  0.194  0.167  0.619-  25 1.92  28 1.94  29 2.07
 100  0.905  0.167  0.581-  26 1.93  42 1.93  25 1.96
 101  0.051  1.000  0.560-  25 1.92   9 1.92  26 1.99
 102  0.911  1.000  0.662-  30 1.79  26 1.98  31 2.05
 103  0.695  0.000  0.618-  27 1.92  26 1.94  31 2.07
 104  0.405  0.000  0.582-  12 1.93  28 1.93  27 1.97
 105  0.549  0.167  0.559-  27 1.93  43 1.93  28 1.99
 106  0.410  0.166  0.663-  32 1.79  28 1.98  29 2.06
 107  0.348  0.167  0.759-  32 1.83  29 1.85
 108  0.052  0.167  0.732-  30 1.97  46 1.97  29 1.99
[...]
 130  0.265  0.500  0.524-  44 1.91  41 1.96  40 1.96
 131  0.195  0.500  0.620-  41 1.92  44 1.93  45 2.07
 132  0.906  0.500  0.581-  10 1.92  42 1.92  41 1.98
 133  0.051  0.333  0.560-  41 1.93  25 1.93  42 1.98
 134  0.911  0.332  0.662-  46 1.79  42 1.98  47 2.05
 135  0.695  0.331  0.618-  43 1.92  42 1.94  47 2.01
 136  0.406  0.333  0.583-  44 1.93  28 1.93  43 1.96
 137  0.550  0.500  0.560-  43 1.92  11 1.92  44 2.00
 138  0.412  0.500  0.666-  48 1.87  44 1.97  45 2.01
 139  0.345  0.500  0.761-  48 1.82  45 1.85
 140  0.052  0.500  0.732-  46 1.96  14 1.96  45 2.02
 141  0.193  0.334  0.703-  29 1.92  45 1.93  46 2.02
 142  0.842  0.339  0.757-  46 1.84  47 1.88
 143  0.555  0.332  0.732-  32 1.96  48 1.97  47 1.98
 144  0.691  0.500  0.696-  47 1.92  15 1.92  48 2.06

IMPORTANT INFORMATION: All symmetrisations will be switched off!
NOSYMM: (Re-)initialisation of all symmetry stuff for point group C_1.

                                     Primitive cell

  volume of cell :    2875.9226

  direct lattice vectors                    reciprocal lattice vectors
    10.237069764  0.000000000  0.000000000     0.097684203 -0.000000000  0.000000000
     0.000000000 11.308341211  0.000000000     0.000000000  0.088430299  0.000000000
     0.000000000  0.000000000 24.842918924     0.000000000  0.000000000  0.040252919

  length of vectors
    10.237069764 11.308341211 24.842918924     0.097684203  0.088430299  0.040252919

  position of ions in fractional coordinates (direct lattice)
     0.809356535  0.833333333  0.270760136
     0.593252186  0.666666667  0.306027808
     0.309356535  0.666666667  0.270760136
     0.093252186  0.833333333  0.306027808
     0.946172536  0.833423591  0.413280637
     0.728066116  0.666359980  0.445472570
     0.445461893  0.666490868  0.413113906
     0.227143951  0.833296505  0.445984892
     0.087256570  0.833523127  0.555849052
     0.866752970  0.666348524  0.584172103
[...]
   7.90749926  7.53889414  6.87615190
   6.38920825  7.53889414  9.50460760
   4.23882877  7.53889414  8.32909613
   1.33256919  7.53889414  7.45294423
   2.78896437  9.42361768  6.87615190
   1.27067337  9.42361768  9.50460760
   0.52630315  9.42536646 11.85461463
   7.84255786  9.42304377 10.94975560
[...]
   2.71008358  5.65417082 13.02634799
   1.99325099  5.65417021 15.40390071
   9.27424743  5.65416989 14.44090624
   0.52273459  3.77102504 13.90498917
   9.32964388  3.75652572 16.44324332
   7.11820625  3.74279048 15.34340629
   4.15591579  3.77123422 14.47522470
   5.63100135  5.65417035 13.92325664
   4.21580689  5.65416871 16.54547591
   3.53601580  5.65417288 18.90488375
   0.53684423  5.65417103 18.18655531
   1.97785954  3.77305646 17.45894866
   8.62468824  3.83333728 18.81526423
   5.68421811  3.75005212 18.18206504
   7.06940342  5.65416977 17.29872018

--------------------------------------- Iteration      FINAL  ---------------------------------------

--------------------OUTCAR has been truncated-------------------------

[...]

--------------------OUTCAR has been truncated-------------------------

  FORCE on cell =-STRESS in cart. coord.  units (eV):
  Direction    XX          YY          ZZ          XY          YZ          ZX
  Alpha Z  2738.39356  2738.39356  2738.39356
  Ewald  338063.59515331060.46876************    -0.00149     0.00004 -2157.29491
  Hartree359635.82345355482.34976************    -0.00075    -0.00002 -1395.89292
  E(xc)   -5482.52458 -5482.69665 -5481.23415     0.00000    -0.00000    -1.50680
  Local  ************************706907.02723     0.00219    -0.00000  3559.90071
  n-local -3105.75434 -3081.63689 -3127.93513    -0.00003     0.00000     0.14726
  augment  3305.11498  3300.90086  3295.79390     0.00000     0.00000    -2.89090
  Kinetic 17069.74323 17139.15020 17185.53794     0.00011    -0.00005   -16.47064
  Fock        0.00000     0.00000     0.00000     0.00000     0.00000     0.00000
  Total     -18.27908     3.47940     2.74230     0.00004    -0.00004   -14.00820
  in kB     -10.18328     1.93838     1.52774     0.00002    -0.00002    -7.80397

 VOLUME and BASIS-vectors are now :
  energy-cutoff  :      600.00
  volume of cell :     2875.92
      direct lattice vectors                 reciprocal lattice vectors
    10.237069764  0.000000000  0.000000000     0.097684203 -0.000000000  0.000000000
     0.000000000 11.308341211  0.000000000     0.000000000  0.088430299  0.000000000
     0.000000000  0.000000000 24.842918924     0.000000000  0.000000000  0.040252919

  length of vectors
    10.237069764 11.308341211 24.842918924     0.097684203  0.088430299  0.040252919

 FORCES acting on ions:
    Electron-Ion                     Ewald-Force                    Non-Local-Force
   0.548E+01 0.204E-02 0.300E+04   -.263E+00 0.144E-02 -.300E+04   -.111E+01 -.722E-03 -.349E+01
   0.472E+01 -.291E-01 0.245E+04   -.637E+01 0.331E-01 -.246E+04   -.102E+00 -.117E-02 -.750E-01
   0.551E+01 0.243E+00 0.300E+04   -.322E+00 -.246E+00 -.300E+04   -.111E+01 0.689E-03 -.349E+01
   0.338E+01 0.201E+00 0.245E+04   -.508E+01 -.205E+00 -.246E+04   -.938E-01 0.978E-03 -.784E-01
   -.183E+00 0.198E+00 0.111E+04   0.340E-01 -.193E+00 -.111E+04   0.145E+00 -.134E-02 0.899E-02
   0.219E+01 -.999E+00 0.693E+03   -.214E+01 0.982E+00 -.693E+03   -.297E-01 0.198E-01 -.125E+00
   0.151E+01 0.506E+00 0.111E+04   -.163E+01 -.509E+00 -.111E+04   0.131E+00 0.600E-02 -.123E-01
   -.402E+01 0.104E+01 0.685E+03   0.405E+01 -.104E+01 -.685E+03   -.135E-01 -.435E-03 -.117E+00
   -.536E+01 0.522E-01 -.722E+03   0.506E+01 -.422E-01 0.722E+03   0.270E+00 -.752E-03 0.126E+00
   -.489E+01 0.103E+01 -.107E+04   0.500E+01 -.981E+00 0.107E+04   -.551E-01 -.361E-01 -.239E+00
   0.202E+01 0.172E+01 -.701E+03   -.217E+01 -.169E+01 0.701E+03   0.207E+00 -.261E-02 0.890E-01
   0.592E-01 0.226E+01 -.109E+04   0.467E-01 -.221E+01 0.109E+04   -.754E-01 -.186E-01 -.265E+00
   0.233E+02 -.551E+00 -.250E+04   -.242E+02 0.583E+00 0.250E+04   0.918E+00 0.489E-02 -.111E+00
   -.576E+02 -.860E+01 -.286E+04   0.572E+02 0.842E+01 0.285E+04   0.787E-01 0.158E+00 0.892E+00
   0.120E+02 -.606E+01 -.246E+04   -.123E+02 0.619E+01 0.246E+04   0.750E+00 -.254E-01 -.196E-01
   -.645E+02 -.284E+01 -.285E+04   0.644E+02 0.303E+01 0.285E+04   0.686E-01 -.322E-01 0.900E+00
   0.548E+01 -.206E-02 0.300E+04   -.263E+00 -.143E-02 -.300E+04   -.111E+01 0.726E-03 -.349E+01
   0.457E+01 -.305E-04 0.245E+04   -.625E+01 0.172E-04 -.246E+04   -.955E-01 0.275E-05 -.817E-01
   0.539E+01 -.121E-04 0.300E+04   -.180E+00 0.150E-04 -.300E+04   -.111E+01 0.612E-06 -.349E+01
   0.338E+01 -.201E+00 0.245E+04   -.508E+01 0.205E+00 -.246E+04   -.938E-01 -.974E-03 -.784E-01
   -.183E+00 -.198E+00 0.111E+04   0.341E-01 0.193E+00 -.111E+04   0.145E+00 0.134E-02 0.900E-02
   -.241E+00 -.347E-04 0.690E+03   0.262E+00 0.374E-04 -.690E+03   -.163E-02 -.824E-06 -.127E+00
   0.109E+01 0.510E-04 0.111E+04   -.121E+01 -.522E-04 -.111E+04   0.134E+00 0.682E-06 -.635E-02
   -.402E+01 -.104E+01 0.685E+03   0.405E+01 0.104E+01 -.685E+03   -.135E-01 0.434E-03 -.117E+00
   -.536E+01 -.524E-01 -.722E+03   0.506E+01 0.424E-01 0.722E+03   0.270E+00 0.757E-03 0.126E+00
   -.395E+01 -.199E-03 -.108E+04   0.403E+01 0.200E-03 0.108E+04   -.378E-01 -.395E-05 -.241E+00
   -.180E+01 -.104E-03 -.713E+03   0.157E+01 0.102E-03 0.713E+03   0.244E+00 0.158E-05 0.143E+00
   0.586E-01 -.226E+01 -.109E+04   0.473E-01 0.221E+01 0.109E+04   -.754E-01 0.186E-01 -.265E+00
   0.233E+02 0.551E+00 -.250E+04   -.242E+02 -.583E+00 0.250E+04   0.918E+00 -.489E-02 -.111E+00
   -.624E+02 -.138E-03 -.285E+04   0.623E+02 0.144E-03 0.285E+04   0.376E-01 0.237E-05 0.883E+00
   0.156E+02 -.616E-03 -.249E+04   -.163E+02 0.649E-03 0.249E+04   0.823E+00 -.127E-05 -.605E-01
   -.645E+02 0.283E+01 -.285E+04   0.644E+02 -.303E+01 0.285E+04   0.686E-01 0.322E-01 0.900E+00
   0.547E+01 0.213E-04 0.300E+04   -.241E+00 -.140E-04 -.300E+04   -.111E+01 -.288E-05 -.349E+01
   0.472E+01 0.292E-01 0.245E+04   -.637E+01 -.331E-01 -.246E+04   -.102E+00 0.116E-02 -.750E-01
   0.551E+01 -.243E+00 0.300E+04   -.322E+00 0.246E+00 -.300E+04   -.111E+01 -.684E-03 -.349E+01
   0.246E+01 0.206E-04 0.245E+04   -.411E+01 -.988E-05 -.246E+04   -.109E+00 -.227E-05 -.743E-01
   -.278E+00 0.800E-04 0.111E+04   0.116E+00 -.658E-04 -.111E+04   0.139E+00 -.150E-05 0.494E-01
   0.219E+01 0.999E+00 0.693E+03   -.214E+01 -.982E+00 -.693E+03   -.297E-01 -.198E-01 -.125E+00
   0.151E+01 -.506E+00 0.111E+04   -.163E+01 0.509E+00 -.111E+04   0.131E+00 -.600E-02 -.123E-01
   -.639E+01 0.781E-04 0.669E+03   0.644E+01 -.647E-04 -.669E+03   -.361E-01 -.343E-05 -.206E-01
   -.346E+01 0.261E-03 -.728E+03   0.312E+01 -.252E-03 0.728E+03   0.229E+00 -.134E-05 0.152E+00
   -.489E+01 -.103E+01 -.107E+04   0.500E+01 0.981E+00 0.107E+04   -.551E-01 0.361E-01 -.239E+00
   0.202E+01 -.172E+01 -.701E+03   -.217E+01 0.169E+01 0.701E+03   0.207E+00 0.261E-02 0.891E-01
   -.400E+01 0.794E-05 -.114E+04   0.407E+01 -.822E-05 0.114E+04   -.875E-01 0.265E-05 0.176E-01
   0.256E+02 0.252E-03 -.250E+04   -.269E+02 -.253E-03 0.250E+04   0.842E+00 -.133E-05 -.431E-01
   -.576E+02 0.860E+01 -.286E+04   0.572E+02 -.842E+01 0.285E+04   0.787E-01 -.158E+00 0.892E+00
   0.120E+02 0.606E+01 -.246E+04   -.123E+02 -.619E+01 0.246E+04   0.750E+00 0.254E-01 -.196E-01
   -.743E+02 -.332E-03 -.294E+04   0.731E+02 0.284E-03 0.294E+04   0.583E+00 0.211E-04 0.239E+01
   -.344E+02 0.289E-01 0.203E+04   0.396E+02 -.276E-01 -.205E+04   -.704E+01 -.144E-02 0.178E+02
   -.347E+02 0.185E-01 0.203E+04   0.399E+02 -.190E-01 -.205E+04   -.703E+01 0.648E-03 0.178E+02
   0.845E+02 0.925E-01 0.122E+04   -.894E+02 -.984E-01 -.122E+04   0.370E+01 0.514E-02 -.432E+01
   0.771E+02 0.482E-02 0.149E+04   -.843E+02 -.129E-02 -.149E+04   0.739E+01 -.704E-02 -.266E+01
   -.889E+02 -.264E-01 0.172E+04   0.963E+02 0.266E-01 -.173E+04   -.689E+01 -.173E-02 -.379E+00
   -.726E+02 -.537E+00 0.935E+03   0.784E+02 0.579E+00 -.939E+03   -.574E+01 -.400E-01 0.416E+01
   0.851E+02 0.258E+00 0.122E+04   -.900E+02 -.240E+00 -.122E+04   0.366E+01 -.214E-01 -.415E+01
   0.763E+02 0.188E+00 0.149E+04   -.834E+02 -.194E+00 -.149E+04   0.741E+01 0.148E-01 -.267E+01
   -.891E+02 0.994E-01 0.172E+04   0.964E+02 -.969E-01 -.172E+04   -.686E+01 -.704E-02 -.383E+00
   -.769E+02 0.395E+00 0.936E+03   0.829E+02 -.397E+00 -.940E+03   -.591E+01 -.105E-02 0.428E+01
   0.815E+02 -.134E+00 0.125E+03   -.882E+02 0.159E+00 -.120E+03   0.651E+01 -.259E-01 -.489E+01
   0.829E+02 0.194E+00 0.419E+03   -.897E+02 -.228E+00 -.416E+03   0.661E+01 0.298E-01 -.284E+01
[...]
   0.886E+02 0.139E-03 -.985E+03   -.958E+02 -.137E-03 0.992E+03   0.719E+01 0.179E-05 -.699E+01
   0.760E+02 0.285E-03 -.656E+03   -.823E+02 -.282E-03 0.659E+03   0.610E+01 0.409E-05 -.296E+01
   -.857E+02 -.759E+00 -.428E+03   0.924E+02 0.721E+00 0.425E+03   -.646E+01 0.574E-01 0.251E+01
   -.663E+02 0.600E+01 -.116E+04   0.689E+02 -.660E+01 0.115E+04   -.248E+01 0.604E+00 0.906E+01
   0.854E+02 0.791E+01 -.956E+03   -.917E+02 -.862E+01 0.962E+03   0.615E+01 0.718E+00 -.570E+01
   0.812E+02 -.162E+01 -.669E+03   -.878E+02 0.151E+01 0.672E+03   0.643E+01 0.161E+00 -.291E+01
   -.776E+02 0.202E-03 -.434E+03   0.839E+02 -.201E-03 0.431E+03   -.620E+01 0.390E-05 0.222E+01
   -.754E+02 0.882E-03 -.119E+04   0.803E+02 -.937E-03 0.119E+04   -.441E+01 0.522E-04 0.801E+01
   0.578E+02 -.413E-03 -.205E+04   -.646E+02 0.432E-03 0.207E+04   0.721E+01 -.144E-04 -.209E+02
   0.591E+02 -.449E-03 -.180E+04   -.632E+02 0.462E-03 0.181E+04   0.415E+01 0.134E-05 -.757E+01
   -.603E+02 0.479E+00 -.149E+04   0.653E+02 -.401E+00 0.149E+04   -.473E+01 0.144E-01 0.256E+01
   0.503E+02 -.499E+01 -.204E+04   -.566E+02 0.607E+01 0.207E+04   0.648E+01 -.118E+01 -.215E+02
   0.595E+02 0.524E+00 -.180E+04   -.641E+02 -.818E+00 0.180E+04   0.433E+01 0.850E+00 -.641E+01
   -.478E+02 -.654E-03 -.143E+04   0.517E+02 0.705E-03 0.142E+04   -.414E+01 -.196E-04 0.606E+01
   -.104E+02 -.279E-04 0.691E+02   0.568E-13 -.141E-11 0.750E-11   0.104E+02 0.665E-04 -.692E+02

 POSITION                                       TOTAL-FORCE (eV/Angst)
      8.28544      9.42362      6.72647         4.086029      0.002726      1.625090
      6.07316      7.53889      7.60262        -1.739919      0.002756     -2.001426
      3.16690      7.53889      6.72647         4.055568     -0.001477      1.604605
      0.95463      9.42362      7.60262        -1.778551     -0.003447     -2.005446
      9.68603      9.42464     10.26710        -0.000581      0.004079     -0.026999
      7.45326      7.53543     11.06684         0.014340      0.001211      0.024902
      4.56022      7.53691     10.26296         0.008597      0.002335     -0.036556
      2.32529      9.42320     11.07957         0.007912      0.005303      0.018684
      0.89325      9.42576     13.80891        -0.026523      0.009989     -0.010472
      8.87301      7.53530     14.51254         0.031884      0.010776      0.127284
      5.99394      7.53688     13.78131         0.050894      0.033742     -0.018753
      3.74190      9.42385     14.54843         0.013262      0.034565      0.045382
      2.37690      9.41688     17.42086        -0.023419      0.034645      0.098447
      0.01950      7.52872     17.97344        -0.493686     -0.023723      0.269558
      7.47430      7.52844     17.32585         0.484516      0.097667      0.508395
      5.16763      9.43288     17.97718        -0.142593      0.157346      0.106679
      8.28544      1.88472      6.72647         4.086014     -0.002734      1.625088
      6.07316      0.00000      7.60262        -1.760431     -0.000011     -1.996923
      3.16690      0.00000      6.72647         4.077864      0.000003      1.617406
      0.95463      1.88472      7.60262        -1.778550      0.003438     -2.005416
      9.68603      1.88370     10.26710        -0.000567     -0.004088     -0.027011
      7.44719     11.30834     11.07134         0.012020      0.000002      0.025770
      4.56201      0.00000     10.26618         0.012295     -0.000001     -0.028632
      2.32529      1.88514     11.07957         0.007905     -0.005319      0.018663
      0.89325      1.88258     13.80891        -0.026518     -0.009991     -0.010461
      8.86101     11.30834     14.52733         0.024784     -0.000003      0.089280
      5.99975      0.00000     13.79596         0.018515     -0.000000     -0.008196
      3.74190      1.88450     14.54844         0.013256     -0.034571      0.045379
      2.37690      1.89146     17.42086        -0.023445     -0.034640      0.098448
      0.04164     11.30834     17.97262        -0.181218      0.000008      0.127483
      7.50362      0.00000     17.38916         0.107809      0.000030      0.125679
      5.16763      1.87546     17.97718        -0.142542     -0.157290      0.106694
      8.28544      5.65417      6.72647         4.091976      0.000004      1.619058
      6.07316      3.76945      7.60262        -1.739929     -0.002737     -2.001451
      3.16690      3.76945      6.72647         4.055594      0.001484      1.604601
      0.95463      5.65417      7.60262        -1.750398      0.000008     -1.947315
      9.69792      5.65417     10.26287        -0.017412      0.000012     -0.029560
      7.45326      3.77291     11.06684         0.014356     -0.001217      0.024909
      4.56022      3.77143     10.26296         0.008594     -0.002337     -0.036554
      2.32855      5.65417     11.10594         0.011465      0.000010     -0.022677
      0.91872      5.65417     13.81513        -0.103075      0.000008     -0.046571
      8.87301      3.77304     14.51254         0.031878     -0.010781      0.127314
      5.99394      3.77146     13.78131         0.050897     -0.033734     -0.018749
      3.76047      5.65417     14.62731        -0.031288      0.000002     -0.257284
      2.40788      5.65417     17.43410        -0.440139     -0.000002     -0.016015
      0.01950      3.77962     17.97344        -0.493740      0.023718      0.269649
      7.47430      3.77990     17.32585         0.484527     -0.097693      0.508440
      5.18787      5.65417     18.14177        -0.719817     -0.000027     -1.656274
      5.00124      7.53889      6.00000        -1.830510     -0.000196      0.947219
     10.11977      9.42362      6.00000        -1.824101      0.000163      0.941861
      9.35736      9.42362      8.32910        -1.192393     -0.000845     -0.055569
      6.45110      9.42362      7.45294         0.214094     -0.003517      0.002664
      7.90750      7.53889      6.87615         0.444079     -0.001460     -1.179766
      6.38921      7.53889      9.50461         0.045680      0.002530      0.283435
      4.23883      7.53889      8.32910        -1.202603     -0.003481     -0.049616
      1.33257      7.53889      7.45294         0.225283      0.008303     -0.004099
      2.78896      9.42362      6.87615         0.455112     -0.004564     -1.182071
      1.27067      9.42362      9.50461         0.137378     -0.003314      0.354877
      0.52630      9.42537     11.85461        -0.162475     -0.000966      0.079156
      7.84256      9.42304     10.94976        -0.169315     -0.003668      0.072504
[...]
      2.71008      5.65417     13.02635         0.218055      0.000002     -0.000716
      1.99325      5.65417     15.40390        -0.066186      0.000004      0.196811
      9.27425      5.65417     14.44091        -0.139494      0.000007      0.041559
      0.52273      3.77103     13.90499         0.175525      0.019025     -0.076378
      9.32964      3.75653     16.44324         0.142481      0.005800     -0.111373
      7.11821      3.74279     15.34341        -0.217957      0.011345      0.044232
      4.15592      3.77123     14.47522        -0.178937      0.050779      0.091119
      5.63100      5.65417     13.92326         0.122951      0.000005     -0.037832
      4.21581      5.65417     16.54548         0.510677     -0.000003      0.626194
      3.53602      5.65417     18.90488         0.444275      0.000005      0.308788
      0.53684      5.65417     18.18656         0.050068      0.000014     -0.001373
      1.97786      3.77306     17.45895         0.278661      0.092190     -0.108962
      8.62469      3.83334     18.81526         0.188980     -0.113413     -0.389426
      5.68422      3.75005     18.18207        -0.257676      0.556310      0.365883
      7.06940      5.65417     17.29872        -0.228879      0.000032      0.358365
    total drift:                                0.004482      0.000039     -0.097106

  FREE ENERGIE OF THE ION-ELECTRON SYSTEM (eV)
  free  energy   TOTEN  =     -1624.69310988 eV

  energy  without entropy=    -1624.69310988  energy(sigma->0) =    -1624.69310988