 vasp.6.3.0 20Jan22 (build Aug 21 2024 11:13:42) complex
 executed on        HPECrayEX_GCC date 2024.11.27  01:35:25

 INCAR:
   SYSTEM = TiO2
   ISMEAR = 0
   SIGMA = 0.05
   EDIFF = 1E-4
   ALGO = ALL
   ISTART = 0
   IBRION = -1
   NSW = 0
   ISYM = 0
   ISIF = 2
   EDIFFG = -0.01
   DIPOL = 0.5 0.5 0.5
   IDIPOL = 3
   LDIPOL = .TRUE.
   METAGGA = R2SCAN
   LUSE_VDW = .TRUE.
   BPARAM = 11.95
   CPARAM = 0.0093
   LASPH = .TRUE.
   ENCUT = 600
   PREC = Accurate
   LASPH = .TRUE.
   LREAL = .FALSE.
   ISPIN = 1
   NELM = 200
   NELMIN = 8
   NCORE = 16
   KPAR = 1
   LWAVE = .FALSE.
   LCHARG = .FALSE.

 POTCAR:    PAW_PBE Ti_pv 07Sep2000
 POTCAR:    PAW_PBE O 08Apr2002
|               ----> ADVICE to this user running VASP <----                  |
|     You have switched on vdW-DFT.                                           |
|     This routine was written and supplied by Jiri Klimes. We recommend      |
|     that you carefully read and cite the following publications:            |
|       J. Klimes, D.R. Bowler, A. Michelides                                 |
|          J. Phys.: Cond Matt. 22 022201 (2010)                              |
|       J. Klimes, D.R. Bowler, A. Michelides                                 |
|          Phys. Rev. B. 83, 195131 (2011)                                    |
|     and references therein.                                                 |

   TITEL  = PAW_PBE Ti_pv 07Sep2000
   POMASS =   47.880; ZVAL   =   10.000    mass and valenz
   ENMAX  =  222.335; ENMIN  =  166.751 eV

   TITEL  = PAW_PBE O 08Apr2002
   POMASS =   16.000; ZVAL   =    6.000    mass and valenz
   ENMAX  =  400.000; ENMIN  =  300.000 eV

  PAW_PBE Ti_pv 07Sep2000               :
  PAW_PBE O 08Apr2002                   :

 POSCAR: Ti  O
  positions in direct lattice

 METAGGA = R2SCA    LMAXTAU =  6    LMIXTAU =  F

 ion  position               nearest neighbor table
   1  0.815  0.833  0.271-  85 1.92  51 1.92  53 1.92  50 1.97  52 1.97  18 3.03   4 3.03   2 3.03

   2  0.598  0.667  0.306- 116 1.92  49 1.92  52 1.92  54 1.92  53 1.97  55 1.97  33 3.03   3 3.03
                             1 3.03   7 3.06
   3  0.315  0.667  0.271- 121 1.92  55 1.92  57 1.92  49 1.97  56 1.97  36 3.03   2 3.03   4 3.03

   4  0.098  0.833  0.306-  88 1.92  50 1.92  56 1.92  58 1.92  51 1.97  57 1.97  19 3.03   1 3.03
                             3 3.03   5 3.06
   5  0.951  0.833  0.414-  93 1.92  61 1.92  59 1.92  51 1.96  58 1.97  60 1.97   8 2.98   6 3.04
                            22 3.04   4 3.06
   6  0.732  0.666  0.446-  54 1.89 124 1.92  60 1.92  62 1.95  63 1.97  61 1.98   7 3.00   5 3.04
                            37 3.04  11 3.08
   7  0.450  0.666  0.413- 129 1.92  65 1.92  63 1.92  55 1.96  64 1.97  54 1.98   6 3.00   8 3.04
                            40 3.04   2 3.06
   8  0.231  0.833  0.447-  58 1.90  96 1.92  64 1.92  59 1.95  66 1.96  65 1.99   5 2.98  23 3.04
                             7 3.04   9 3.08
   9  0.091  0.834  0.557- 101 1.91  67 1.92  69 1.92  68 1.97  66 1.97  59 1.99  12 2.94  10 3.03
                            26 3.04   8 3.08
  10  0.870  0.666  0.585-  62 1.87 132 1.92  68 1.92  71 1.94  70 1.99  69 1.99  11 2.97   9 3.03
                            41 3.05  15 3.14
  11  0.590  0.667  0.555- 137 1.92  73 1.92  71 1.93  63 1.96  72 1.97  62 1.98  10 2.97  12 3.04
                            44 3.05   6 3.08
  12  0.369  0.833  0.587-  66 1.87 104 1.92  72 1.93  67 1.94  74 1.98  73 1.99   9 2.94  27 3.04
                            11 3.04
  13  0.236  0.833  0.703-  75 1.85  77 1.92 109 1.93  76 2.00  74 2.05  67 2.08  16 2.84  30 3.06
                            14 3.08
  14  0.004  0.666  0.725-  70 1.79  78 1.84 140 1.95  76 1.96  77 2.03  15 2.86  13 3.08  45 3.09

[...]

  17  0.815  0.167  0.271-  85 1.92  83 1.92 117 1.92  82 1.97  84 1.97  18 3.03  20 3.03  34 3.03

[...]

  36  0.098  0.500  0.306-  56 1.92 120 1.92 114 1.92 122 1.92 115 1.97 121 1.97   3 3.03  35 3.03
                            33 3.03  37 3.05
  37  0.952  0.500  0.413- 125 1.92  61 1.92 123 1.93 122 1.96 115 1.96 124 1.98  40 2.99   6 3.04
                            38 3.04  36 3.05
  38  0.732  0.334  0.446- 118 1.89 124 1.92  92 1.92 126 1.95 127 1.97 125 1.98  39 3.00  21 3.04
                            37 3.04  43 3.08
  39  0.450  0.334  0.413- 129 1.92  97 1.92 127 1.92 119 1.96 128 1.97 118 1.98  38 3.00  24 3.04
                            40 3.04  34 3.06
  40  0.231  0.500  0.448-  64 1.92 128 1.92 122 1.92 123 1.94 130 1.96 129 1.99  37 2.99   7 3.04
                            39 3.04  41 3.05
  41  0.094  0.500  0.557- 131 1.92 133 1.92  69 1.92 130 1.95 132 1.99 123 1.99  44 2.95  10 3.05
                            42 3.05  40 3.05
  42  0.870  0.334  0.585- 126 1.87 132 1.92 100 1.92 135 1.94 134 1.99 133 1.99  43 2.97  25 3.03
                            41 3.05  47 3.14
  43  0.590  0.333  0.555- 137 1.92 105 1.92 135 1.93 127 1.96 136 1.97 126 1.98  42 2.97  28 3.04
                            44 3.05  38 3.08
  44  0.371  0.500  0.590- 130 1.92 136 1.92  72 1.92 131 1.93 138 1.97 137 2.01  41 2.95  11 3.05
                            43 3.05  45 3.11
  45  0.239  0.500  0.703- 139 1.85  77 1.92 141 1.92 138 2.01 140 2.03 131 2.07  48 2.87  46 3.09
                            14 3.09  44 3.11
  46  0.004  0.334  0.725- 134 1.79 142 1.84 140 1.95 108 1.96 141 2.03  47 2.86  29 3.08  45 3.09

  47  0.733  0.334  0.699- 142 1.88 144 1.91 112 1.93 143 1.99 135 2.01 134 2.05  46 2.86  32 3.07
                            48 3.07  42 3.14
  48  0.510  0.500  0.732- 139 1.82 138 1.87  79 1.96 143 1.96 144 2.07  45 2.87  47 3.07  15 3.07

  49  0.494  0.667  0.242-   2 1.92   3 1.97
  50  0.994  0.833  0.242-   4 1.92   1 1.97
  51  0.919  0.833  0.336-   1 1.92   5 1.96   4 1.97
  52  0.636  0.833  0.300-  18 1.92   2 1.92   1 1.97
  53  0.778  0.667  0.277-  33 1.92   1 1.92   2 1.97
  54  0.628  0.667  0.383-   6 1.89   2 1.92   7 1.98
  55  0.419  0.667  0.336-   3 1.92   7 1.96   2 1.97
  56  0.136  0.667  0.300-  36 1.92   4 1.92   3 1.97
  57  0.278  0.833  0.277-  19 1.92   3 1.92   4 1.97
  58  0.128  0.833  0.383-   8 1.90   4 1.92   5 1.97
  59  0.055  0.834  0.478-   5 1.92   8 1.95   9 1.99
  60  0.770  0.833  0.441-  22 1.92   6 1.92   5 1.97
  61  0.913  0.667  0.419-   5 1.92  37 1.92   6 1.98
  62  0.767  0.666  0.523-  10 1.87   6 1.95  11 1.98
  63  0.555  0.666  0.478-   7 1.92  11 1.96   6 1.97
  64  0.270  0.667  0.442-  40 1.92   8 1.92   7 1.97
  65  0.412  0.833  0.419-   7 1.92  23 1.92   8 1.99
  66  0.267  0.833  0.524-  12 1.87   8 1.96   9 1.97
  67  0.198  0.833  0.620-   9 1.92  12 1.94  13 2.08
  68  0.909  0.833  0.582-  26 1.92  10 1.92   9 1.97
  69  0.054  0.667  0.561-  41 1.92   9 1.92  10 1.99
  70  0.914  0.668  0.663-  14 1.79  10 1.99  15 2.05
  71  0.699  0.669  0.619-  11 1.93  10 1.94  15 2.01
  72  0.410  0.667  0.584-  44 1.92  12 1.93  11 1.97
  73  0.552  0.833  0.560-  27 1.92  11 1.92  12 1.99
  74  0.413  0.835  0.664-  16 1.79  12 1.98  13 2.05
  75  0.350  0.833  0.760-  16 1.83  13 1.85
  76  0.056  0.833  0.734-  30 1.96  14 1.96  13 2.00
  77  0.196  0.666  0.704-  13 1.92  45 1.92  14 2.03
  78  0.845  0.661  0.759-  14 1.84  15 1.88
  79  0.559  0.669  0.734-  16 1.95  48 1.96  15 1.99
  80  0.696  0.834  0.701-  31 1.92  15 1.93  16 2.03
  81  0.494  0.000  0.242-  18 1.92  19 1.97
  82  0.994  0.167  0.242-  20 1.92  17 1.97
  83  0.919  0.167  0.336-  17 1.92  21 1.96  20 1.97
  84  0.636  0.167  0.300-  18 1.92  34 1.92  17 1.97
  85  0.778  0.000  0.277-   1 1.92  17 1.92  18 1.97
  86  0.628  0.000  0.383-  22 1.89  18 1.92  23 1.98
  87  0.419  0.000  0.336-  19 1.92  23 1.96  18 1.97
  88  0.136  0.000  0.300-   4 1.92  20 1.92  19 1.97
  89  0.278  0.167  0.277-  19 1.92  35 1.92  20 1.97
  90  0.128  0.167  0.383-  24 1.90  20 1.92  21 1.97
  91  0.055  0.166  0.478-  21 1.92  24 1.95  25 1.99
  92  0.770  0.167  0.441-  22 1.92  38 1.92  21 1.97
  93  0.913  0.000  0.419-  21 1.92   5 1.92  22 1.99
  94  0.766  0.000  0.524-  26 1.87  22 1.95  27 1.98
  95  0.555  0.000  0.478-  23 1.92  22 1.96  27 1.98
  96  0.270  0.000  0.442-  24 1.92   8 1.92  23 1.97
  97  0.412  0.167  0.419-  39 1.92  23 1.92  24 1.99
  98  0.267  0.167  0.524-  28 1.87  24 1.96  25 1.97
  99  0.198  0.167  0.620-  25 1.92  28 1.94  29 2.08
 100  0.909  0.167  0.582-  26 1.92  42 1.92  25 1.97
 101  0.054  0.000  0.561-  25 1.91   9 1.91  26 2.00
 102  0.914  1.000  0.664-  30 1.79  26 1.99  31 2.05
 103  0.698  0.000  0.619-  27 1.92  26 1.93  31 2.07
 104  0.409  0.000  0.583-  28 1.92  12 1.92  27 1.97
 105  0.552  0.167  0.560-  27 1.92  43 1.92  28 1.99
 106  0.413  0.165  0.664-  32 1.79  28 1.98  29 2.05
 107  0.350  0.167  0.760-  32 1.83  29 1.85
 108  0.056  0.167  0.734-  30 1.96  46 1.96  29 2.00
[...]
 130  0.268  0.500  0.525-  44 1.92  41 1.95  40 1.96
 131  0.198  0.500  0.621-  41 1.92  44 1.93  45 2.07
 132  0.910  0.500  0.582-  10 1.92  42 1.92  41 1.99
 133  0.054  0.333  0.561-  41 1.92  25 1.92  42 1.99
 134  0.914  0.332  0.663-  46 1.79  42 1.99  47 2.05
 135  0.699  0.331  0.619-  43 1.93  42 1.94  47 2.01
 136  0.410  0.333  0.584-  44 1.92  28 1.93  43 1.97
 137  0.553  0.500  0.561-  43 1.92  11 1.92  44 2.01
 138  0.415  0.500  0.668-  48 1.87  44 1.97  45 2.01
 139  0.348  0.500  0.763-  48 1.82  45 1.85
 140  0.056  0.500  0.734-  46 1.95  14 1.95  45 2.03
 141  0.196  0.334  0.704-  29 1.92  45 1.92  46 2.03
 142  0.845  0.339  0.759-  46 1.84  47 1.88
 143  0.559  0.331  0.734-  32 1.95  48 1.96  47 1.99
 144  0.693  0.500  0.697-  47 1.91  15 1.91  48 2.07

IMPORTANT INFORMATION: All symmetrisations will be switched off!
NOSYMM: (Re-)initialisation of all symmetry stuff for point group C_1.

                                     Primitive cell

  volume of cell :    2859.6974

  direct lattice vectors                    reciprocal lattice vectors
    10.250982430  0.000000000  0.000000000     0.097551626 -0.000000000  0.000000000
     0.000000000 11.253211329  0.000000000     0.000000000  0.088863523  0.000000000
     0.000000000  0.000000000 24.790090512     0.000000000  0.000000000  0.040338699

  length of vectors
    10.250982430 11.253211329 24.790090512     0.097551626  0.088863523  0.040338699

  position of ions in fractional coordinates (direct lattice)
     0.814826118  0.833333333  0.271169148
     0.598301032  0.666666667  0.306373894
     0.314826118  0.666666667  0.271169148
     0.098301032  0.833333333  0.306373894
     0.950547308  0.833443166  0.413564835
     0.731500825  0.666355664  0.446087453
     0.449810573  0.666490549  0.413391386
     0.230515778  0.833311927  0.446642346
     0.091301144  0.833520288  0.556623289
     0.869876973  0.666337609  0.585288855
     0.589521056  0.666531117  0.555441642
     0.368567100  0.833345628  0.586818793
     0.235505535  0.832702219  0.702558592
     0.004417444  0.665741351  0.725178482
     0.733395519  0.665818741  0.698539084
     0.507406751  0.834237422  0.725328165
     0.814826118  0.166666667  0.271169148
     0.598301032  0.000000000  0.306373894
     0.314826118  0.000000000  0.271169148
[...]
   7.97020496  7.50214089  6.87272885
   6.43691162  7.50214089  9.49091541
   4.29614176  7.50214089  8.31734428
   1.39024540  7.50214089  7.44461542
   2.84471375  9.37767611  6.87272885
   1.31142041  9.37767611  9.49091541
   0.56842188  9.38036291 11.84394496
   7.89447875  9.37716606 10.93734776
[...]
   2.75220804  5.62660553 13.02053342
   2.03329200  5.62660546 15.39841410
   9.32724583  5.62660508 14.43727563
   0.55803563  3.75285298 13.89782538
   9.37341874  3.73800389 16.44338749
   7.16476205  3.72381186 15.33465632
   4.20190628  3.75269955 14.47315309
   5.67301139  5.62660528 13.91598121
   4.25364867  5.62660279 16.54817458
   3.57217966  5.62660699 18.90589203
   0.57166257  5.62660567 18.19814208
   2.00594546  3.75549819 17.44870248
   8.66176150  3.81525238 18.81338165
   5.72690665  3.72990691 18.18695852
   7.10386425  5.62660425 17.28553124

--------------------------------------- Iteration      FINAL  ---------------------------------------

--------------------OUTCAR has been truncated-------------------------

[...]

--------------------OUTCAR has been truncated-------------------------

  FORCE on cell =-STRESS in cart. coord.  units (eV):
  Direction    XX          YY          ZZ          XY          YZ          ZX
  Alpha Z  2753.93051  2753.93051  2753.93051
  Ewald  336019.73034329254.50550************     0.00004    -0.00083 -2178.42081
  Hartree357660.45814353618.83731************     0.00012    -0.00044 -1411.61658
  E(xc)   -5484.48988 -5484.37090 -5483.19630    -0.00000     0.00000    -1.49092
  Local  ************************703154.05994    -0.00023     0.00133  3596.57934
  n-local -3107.46968 -3076.88279 -3127.86692    -0.00005     0.00002     0.57279
  augment  3304.39502  3300.97849  3295.21859     0.00001    -0.00005    -2.92750
  Kinetic 17076.94544 17148.89083 17190.92694    -0.00006     0.00004   -16.19177
  Fock        0.00000     0.00000     0.00000     0.00000     0.00000     0.00000
  Total     -13.92773    20.47913     7.01793    -0.00017     0.00007   -13.49545
  in kB      -7.80316    11.47366     3.93188    -0.00010     0.00004    -7.56098

 VOLUME and BASIS-vectors are now :
  energy-cutoff  :      600.00
  volume of cell :     2859.70
      direct lattice vectors                 reciprocal lattice vectors
    10.250982430  0.000000000  0.000000000     0.097551626 -0.000000000  0.000000000
     0.000000000 11.253211329  0.000000000     0.000000000  0.088863523  0.000000000
     0.000000000  0.000000000 24.790090512     0.000000000  0.000000000  0.040338699

  length of vectors
    10.250982430 11.253211329 24.790090512     0.097551626  0.088863523  0.040338699

 FORCES acting on ions:
    Electron-Ion                     Ewald-Force                    Non-Local-Force
   0.473E+01 0.256E-01 0.301E+04   0.488E+00 -.225E-01 -.300E+04   -.109E+01 -.642E-03 -.350E+01
   0.473E+01 -.383E-01 0.246E+04   -.639E+01 0.419E-01 -.246E+04   -.119E+00 -.106E-02 -.770E-01
   0.483E+01 0.247E+00 0.301E+04   0.352E+00 -.249E+00 -.300E+04   -.109E+01 0.640E-03 -.350E+01
   0.333E+01 0.233E+00 0.246E+04   -.504E+01 -.238E+00 -.246E+04   -.111E+00 0.119E-02 -.804E-01
   0.692E+00 0.333E+00 0.110E+04   -.867E+00 -.332E+00 -.110E+04   0.169E+00 -.872E-03 0.227E-01
   0.122E+01 -.104E+01 0.689E+03   -.114E+01 0.102E+01 -.689E+03   -.549E-01 0.195E-01 -.107E+00
   0.270E+01 0.380E+00 0.111E+04   -.285E+01 -.377E+00 -.111E+04   0.151E+00 0.527E-02 0.160E-02
   -.504E+01 0.113E+01 0.681E+03   0.510E+01 -.112E+01 -.681E+03   -.400E-01 -.132E-02 -.932E-01
   -.421E+01 -.664E-01 -.721E+03   0.387E+01 0.770E-01 0.721E+03   0.302E+00 0.665E-03 0.998E-01
   -.640E+01 0.124E+01 -.107E+04   0.653E+01 -.119E+01 0.107E+04   -.857E-01 -.392E-01 -.212E+00
   0.336E+01 0.175E+01 -.699E+03   -.355E+01 -.171E+01 0.698E+03   0.241E+00 -.179E-02 0.637E-01
   -.102E+01 0.245E+01 -.110E+04   0.116E+01 -.239E+01 0.110E+04   -.106E+00 -.203E-01 -.235E+00
   0.243E+02 -.404E+00 -.249E+04   -.252E+02 0.435E+00 0.249E+04   0.913E+00 0.312E-02 -.123E+00
   -.570E+02 -.831E+01 -.285E+04   0.565E+02 0.811E+01 0.285E+04   0.744E-01 0.160E+00 0.876E+00
   0.122E+02 -.575E+01 -.246E+04   -.124E+02 0.587E+01 0.246E+04   0.739E+00 -.295E-01 -.164E-01
   -.638E+02 -.313E+01 -.285E+04   0.637E+02 0.333E+01 0.285E+04   0.613E-01 -.242E-01 0.885E+00
   0.473E+01 -.256E-01 0.301E+04   0.488E+00 0.226E-01 -.300E+04   -.109E+01 0.649E-03 -.350E+01
   0.461E+01 -.495E-04 0.246E+04   -.630E+01 0.301E-04 -.246E+04   -.112E+00 -.839E-05 -.839E-01
   0.469E+01 0.226E-04 0.301E+04   0.515E+00 0.191E-04 -.300E+04   -.109E+01 -.170E-05 -.350E+01
   0.333E+01 -.233E+00 0.246E+04   -.504E+01 0.238E+00 -.246E+04   -.111E+00 -.119E-02 -.804E-01
   0.692E+00 -.333E+00 0.110E+04   -.867E+00 0.332E+00 -.110E+04   0.169E+00 0.878E-03 0.227E-01
   -.131E+01 -.142E-03 0.686E+03   0.136E+01 0.122E-03 -.686E+03   -.252E-01 -.106E-05 -.106E+00
   0.235E+01 -.789E-04 0.111E+04   -.251E+01 0.516E-04 -.111E+04   0.157E+00 -.609E-05 0.809E-02
   -.504E+01 -.113E+01 0.681E+03   0.510E+01 0.112E+01 -.681E+03   -.400E-01 0.132E-02 -.932E-01
   -.420E+01 0.663E-01 -.721E+03   0.387E+01 -.768E-01 0.721E+03   0.302E+00 -.660E-03 0.998E-01
   -.563E+01 -.421E-04 -.109E+04   0.574E+01 0.241E-04 0.109E+04   -.662E-01 -.161E-04 -.213E+00
   -.673E+00 0.433E-04 -.712E+03   0.406E+00 -.771E-04 0.712E+03   0.280E+00 0.112E-04 0.125E+00
   -.102E+01 -.245E+01 -.110E+04   0.116E+01 0.239E+01 0.110E+04   -.106E+00 0.203E-01 -.235E+00
   0.243E+02 0.404E+00 -.249E+04   -.252E+02 -.435E+00 0.249E+04   0.913E+00 -.312E-02 -.123E+00
   -.617E+02 0.477E-04 -.285E+04   0.616E+02 0.184E-05 0.285E+04   0.294E-01 0.233E-04 0.871E+00
   0.160E+02 -.169E-04 -.249E+04   -.167E+02 0.158E-05 0.249E+04   0.811E+00 0.117E-04 -.571E-01
   -.638E+02 0.313E+01 -.285E+04   0.637E+02 -.333E+01 0.285E+04   0.613E-01 0.242E-01 0.885E+00
   0.469E+01 -.825E-04 0.301E+04   0.535E+00 -.209E-04 -.300E+04   -.109E+01 0.115E-04 -.350E+01
   0.473E+01 0.384E-01 0.246E+04   -.639E+01 -.419E-01 -.246E+04   -.119E+00 0.106E-02 -.770E-01
   0.483E+01 -.247E+00 0.301E+04   0.352E+00 0.249E+00 -.300E+04   -.109E+01 -.610E-03 -.350E+01
   0.243E+01 0.263E-04 0.246E+04   -.411E+01 -.173E-04 -.246E+04   -.126E+00 0.347E-05 -.765E-01
   0.613E+00 0.989E-04 0.110E+04   -.806E+00 -.915E-04 -.110E+04   0.166E+00 -.127E-04 0.676E-01
   0.122E+01 0.104E+01 0.689E+03   -.114E+01 -.102E+01 -.689E+03   -.549E-01 -.195E-01 -.107E+00
   0.270E+01 -.380E+00 0.111E+04   -.285E+01 0.377E+00 -.111E+04   0.152E+00 -.526E-02 0.160E-02
   -.743E+01 -.140E-04 0.665E+03   0.752E+01 -.136E-04 -.665E+03   -.640E-01 -.614E-05 -.221E-02
   -.255E+01 0.145E-03 -.728E+03   0.218E+01 -.165E-03 0.728E+03   0.264E+00 0.800E-05 0.126E+00
   -.640E+01 -.124E+01 -.107E+04   0.654E+01 0.119E+01 0.107E+04   -.857E-01 0.392E-01 -.212E+00
   0.336E+01 -.175E+01 -.699E+03   -.355E+01 0.171E+01 0.698E+03   0.241E+00 0.181E-02 0.637E-01
   -.497E+01 -.169E-03 -.114E+04   0.508E+01 0.165E-03 0.114E+04   -.123E+00 -.401E-05 0.475E-01
   0.268E+02 -.179E-03 -.250E+04   -.281E+02 0.167E-03 0.250E+04   0.832E+00 -.392E-05 -.480E-01
   -.570E+02 0.830E+01 -.285E+04   0.565E+02 -.811E+01 0.285E+04   0.744E-01 -.160E+00 0.876E+00
   0.122E+02 0.575E+01 -.246E+04   -.124E+02 -.587E+01 0.246E+04   0.739E+00 0.295E-01 -.163E-01
   -.743E+02 -.297E-03 -.294E+04   0.731E+02 0.339E-03 0.294E+04   0.584E+00 0.990E-05 0.243E+01
   -.330E+02 0.282E-01 0.203E+04   0.381E+02 -.270E-01 -.205E+04   -.697E+01 -.134E-02 0.178E+02
   -.333E+02 0.278E-01 0.203E+04   0.384E+02 -.284E-01 -.205E+04   -.696E+01 0.904E-03 0.177E+02
   0.835E+02 0.167E+00 0.122E+04   -.882E+02 -.174E+00 -.122E+04   0.345E+01 0.535E-02 -.424E+01
   0.753E+02 0.998E-02 0.149E+04   -.823E+02 -.633E-02 -.149E+04   0.722E+01 -.714E-02 -.253E+01
   -.875E+02 -.197E-01 0.172E+04   0.946E+02 0.193E-01 -.173E+04   -.664E+01 -.290E-03 -.513E+00
   -.737E+02 -.580E+00 0.932E+03   0.796E+02 0.620E+00 -.936E+03   -.581E+01 -.358E-01 0.414E+01
   0.843E+02 0.250E+00 0.122E+04   -.889E+02 -.231E+00 -.122E+04   0.341E+01 -.229E-01 -.406E+01
   0.744E+02 0.201E+00 0.149E+04   -.814E+02 -.208E+00 -.149E+04   0.724E+01 0.160E-01 -.255E+01
   -.876E+02 0.101E+00 0.172E+04   0.947E+02 -.981E-01 -.172E+04   -.662E+01 -.808E-02 -.517E+00
   -.782E+02 0.450E+00 0.932E+03   0.844E+02 -.456E+00 -.936E+03   -.599E+01 0.319E-02 0.426E+01
   0.835E+02 -.310E+00 0.123E+03   -.904E+02 0.355E+00 -.118E+03   0.675E+01 -.464E-01 -.493E+01
   0.794E+02 0.222E+00 0.419E+03   -.858E+02 -.255E+00 -.416E+03   0.619E+01 0.275E-01 -.267E+01
[...]
   0.903E+02 -.207E-04 -.985E+03   -.978E+02 0.363E-04 0.992E+03   0.739E+01 -.167E-04 -.707E+01
   0.721E+02 0.192E-03 -.657E+03   -.779E+02 -.204E-03 0.660E+03   0.562E+01 -.138E-04 -.290E+01
   -.822E+02 -.860E+00 -.429E+03   0.884E+02 0.828E+00 0.427E+03   -.603E+01 0.495E-01 0.238E+01
   -.682E+02 0.587E+01 -.116E+04   0.710E+02 -.646E+01 0.115E+04   -.267E+01 0.606E+00 0.915E+01
   0.867E+02 0.791E+01 -.955E+03   -.932E+02 -.863E+01 0.960E+03   0.633E+01 0.727E+00 -.572E+01
   0.775E+02 -.168E+01 -.670E+03   -.836E+02 0.158E+01 0.673E+03   0.596E+01 0.156E+00 -.283E+01
   -.739E+02 0.705E-04 -.435E+03   0.798E+02 -.783E-04 0.433E+03   -.578E+01 0.994E-05 0.207E+01
   -.768E+02 0.605E-03 -.119E+04   0.819E+02 -.647E-03 0.119E+04   -.462E+01 0.534E-04 0.805E+01
   0.594E+02 -.587E-03 -.205E+04   -.663E+02 0.573E-03 0.207E+04   0.734E+01 0.205E-04 -.209E+02
   0.550E+02 -.506E-03 -.180E+04   -.585E+02 0.502E-03 0.181E+04   0.360E+01 -.169E-04 -.769E+01
   -.563E+02 0.302E+00 -.149E+04   0.609E+02 -.221E+00 0.148E+04   -.425E+01 0.797E-02 0.269E+01
   0.516E+02 -.506E+01 -.204E+04   -.580E+02 0.615E+01 0.206E+04   0.661E+01 -.121E+01 -.215E+02
   0.559E+02 0.296E+00 -.180E+04   -.600E+02 -.558E+00 0.180E+04   0.387E+01 0.840E+00 -.637E+01
   -.442E+02 -.462E-03 -.142E+04   0.477E+02 0.507E-03 0.142E+04   -.373E+01 -.187E-04 0.620E+01
   -.968E+01 -.147E-03 0.685E+02   0.000E+00 0.668E-12 -.182E-10   0.969E+01 0.138E-03 -.685E+02

 POSITION                                       TOTAL-FORCE (eV/Angst)
      8.35277      9.37768      6.72231         4.100605      0.002396      1.555495
      6.13317      7.50214      7.59504        -1.770649      0.002471     -2.048635
      3.22728      7.50214      6.72231         4.069465     -0.001203      1.534342
      1.00768      9.37768      7.59504        -1.809686     -0.003802     -2.053089
      9.74404      9.37891     10.25231        -0.001939      0.000729     -0.019295
      7.49860      7.49864     11.05855         0.017798      0.001098      0.025906
      4.61100      7.50016     10.24801         0.003907      0.006638     -0.028282
      2.36301      9.37744     11.07230         0.014797      0.004993      0.023975
      0.93593      9.37978     13.79874        -0.031666      0.012041     -0.013115
      8.91709      7.49844     14.50936         0.031564      0.011752      0.127206
      6.04317      7.50062     13.76945         0.054012      0.029281     -0.017978
      3.77817      9.37781     14.54729         0.012651      0.038724      0.041529
      2.41416      9.37057     17.41649        -0.033677      0.032398      0.083721
      0.04528      7.49173     17.97724        -0.503741     -0.035342      0.271869
      7.51802      7.49260     17.31685         0.498565      0.091094      0.527502
      5.20142      9.38785     17.98095        -0.138689      0.168058      0.090824
      8.35277      1.87554      6.72231         4.100679     -0.002384      1.555614
      6.13317      0.00000      7.59504        -1.794506     -0.000028     -2.045125
      3.22728      0.00000      6.72231         4.094213      0.000041      1.549672
      1.00768      1.87554      7.59504        -1.809748      0.003813     -2.053165
      9.74404      1.87430     10.25231        -0.001947     -0.000724     -0.019231
      7.49206     11.25321     11.06343         0.019768     -0.000021      0.033347
      4.61327      0.00000     10.25163         0.001866     -0.000034     -0.023665
      2.36301      1.87578     11.07231         0.014765     -0.004937      0.024003
      0.93593      1.87343     13.79874        -0.031665     -0.011954     -0.013094
      8.90392     11.25321     14.52581         0.028383     -0.000034      0.082858
      6.04922      0.00000     13.78520         0.016620     -0.000022     -0.002795
      3.77817      1.87540     14.54729         0.012587     -0.038686      0.041554
      2.41416      1.88264     17.41649        -0.033693     -0.032401      0.083686
      0.06895     11.25321     17.97711        -0.185224      0.000073      0.113904
      7.54871     11.25321     17.38509         0.106436     -0.000004      0.127884
      5.20142      1.86536     17.98096        -0.138726     -0.168105      0.090852
      8.35277      5.62661      6.72231         4.108720     -0.000093      1.551807
      6.13317      3.75107      7.59504        -1.770641     -0.002436     -2.048677
      3.22728      3.75107      6.72231         4.069495      0.001191      1.534095
      1.00768      5.62661      7.59504        -1.784796      0.000012     -1.992611
      9.75673      5.62661     10.24849        -0.019825     -0.000005     -0.025590
      7.49860      3.75457     11.05855         0.017818     -0.001048      0.025894
      4.61100      3.75305     10.24801         0.003928     -0.006608     -0.028352
      2.36698      5.62661     11.09929         0.016163     -0.000034     -0.021952
      0.96306      5.62660     13.80542        -0.103109     -0.000011     -0.045473
      8.91709      3.75477     14.50937         0.031627     -0.011810      0.127241
      6.04317      3.75260     13.76945         0.054005     -0.029265     -0.017970
      3.79843      5.62661     14.62785        -0.032760     -0.000008     -0.254979
      2.44790      5.62661     17.43052        -0.445738     -0.000016     -0.016196
      0.04529      3.76148     17.97724        -0.503665      0.035258      0.272009
      7.51803      3.76061     17.31685         0.498656     -0.091077      0.527577
      5.22541      5.62660     18.14861        -0.753155      0.000053     -1.687089
      5.06431      7.50214      6.00000        -1.858218     -0.000154      0.817830
     10.18980      9.37768      6.00000        -1.851205      0.000224      0.812528
      9.42163      9.37768      8.31734        -1.226348     -0.001636      0.023977
      6.51574      9.37768      7.44462         0.224887     -0.003485      0.010692
      7.97020      7.50214      6.87273         0.458356     -0.000673     -1.199894
      6.43691      7.50214      9.49092         0.100910      0.003983      0.462678
      4.29614      7.50214      8.31734        -1.236430     -0.003772      0.027097
      1.39025      7.50214      7.44462         0.236435      0.008977      0.003698
      2.84471      9.37768      6.87273         0.469616     -0.005283     -1.202153
      1.31142      9.37768      9.49092         0.197612     -0.003136      0.543545
      0.56842      9.38036     11.84394        -0.161404     -0.001540      0.077405
      7.89448      9.37717     10.93735        -0.165192     -0.005464      0.069258
[...]
      2.75221      5.62661     13.02053         0.215886     -0.000011     -0.001494
      2.03329      5.62661     15.39841        -0.062909     -0.000001      0.194809
      9.32725      5.62661     14.43728        -0.141293     -0.000026      0.038691
      0.55804      3.75285     13.89783         0.177035      0.017735     -0.078679
      9.37342      3.73800     16.44339         0.133400      0.005816     -0.128271
      7.16476      3.72381     15.33466        -0.217163      0.010883      0.043626
      4.20191      3.75270     14.47315        -0.177218      0.051399      0.089547
      5.67301      5.62661     13.91598         0.121673      0.000002     -0.039413
      4.25365      5.62660     16.54817         0.506822      0.000011      0.621820
      3.57218      5.62661     18.90589         0.438631      0.000006      0.308172
      0.57166      5.62661     18.19814         0.059766     -0.000021      0.005198
      2.00595      3.75550     17.44870         0.278329      0.089356     -0.108099
      8.66176      3.81525     18.81338         0.198713     -0.117791     -0.409370
      5.72691      3.72991     18.18696        -0.252044      0.577003      0.391799
      7.10386      5.62660     17.28553        -0.241635      0.000026      0.364676
    total drift:                                0.017251     -0.000009      0.028973

  FREE ENERGIE OF THE ION-ELECTRON SYSTEM (eV)
  free  energy   TOTEN  =     -1624.66598295 eV

  energy  without entropy=    -1624.66598295  energy(sigma->0) =    -1624.66598295