 vasp.6.3.0 20Jan22 (build Apr  1 2022 16:44:48) complex
 executed on        HPECrayEX_GCC date 2022.11.13  16:23:26

 INCAR:
   SYSTEM = MgO-rocksalt
   ISMEAR = 0
   SIGMA = 0.05
   EDIFF = 1E-6
   ALGO = ALL
   ISTART = 0
   IBRION = -1
   NSW = 0
   ISYM = 0
   DIPOL = 0.5 0.5 0.5
   IDIPOL = 3
   LDIPOL = .TRUE.
   GGA = MK
   LUSE_VDW = .TRUE.
   PARAM1 = 0.1234
   PARAM2 = 0.711357
   ZAB_VDW = -1.8867
   AGGAC = 0.0
   ENCUT = 600
   PREC = Accurate
   LASPH = .TRUE.
   LREAL = .FALSE.
   ISPIN = 2
   MAGMOM = 0.0 0.0 0.0 0.0 0.0 0.0 0.0 0.0 0.0 0.0 0.0 0.0 0.0 0.0 0.0 0.0 0.0 0.0 0.0 0.0 0.0 0.0 0.0 0.0 0.0 0.0 0.0 0.0 0.0 0.0 0.0 0.0 0.0 0.0 0.0 0.0 0.0 0.0 0.0 0.0 0.0 0.0 0.0 0.0 0.0 0.0 0.0 0.0 0.0 0.0 0.0 0.0 0.0 0.0 0.0 0.0 0.0 0.0 0.0 0.0 0.0 0.0 0.0 0.0
   NELM = 200
   NELMIN = 8
   NCORE = 8
   KPAR = 1
   LWAVE = .FALSE.
   LCHARG = .FALSE.

 POTCAR:    PAW_PBE Mg_pv 13Apr2007
 POTCAR:    PAW_PBE O 08Apr2002
|               ----> ADVICE to this user running VASP <----                  |
|     You have switched on vdW-DFT.                                           |
|     This routine was written and supplied by Jiri Klimes. We recommend      |
|     that you carefully read and cite the following publications:            |
|       J. Klimes, D.R. Bowler, A. Michelides                                 |
|          J. Phys.: Cond Matt. 22 022201 (2010)                              |
|       J. Klimes, D.R. Bowler, A. Michelides                                 |
|          Phys. Rev. B. 83, 195131 (2011)                                    |
|     and references therein.                                                 |

   TITEL  = PAW_PBE Mg_pv 13Apr2007
   POMASS =   24.305; ZVAL   =    8.000    mass and valenz
   ENMAX  =  403.929; ENMIN  =  302.947 eV

   TITEL  = PAW_PBE O 08Apr2002
   POMASS =   16.000; ZVAL   =    6.000    mass and valenz
   ENMAX  =  400.000; ENMIN  =  300.000 eV

  PAW_PBE Mg_pv 13Apr2007               :
  PAW_PBE O 08Apr2002                   :

 POSCAR: Mg  O
  positions in direct lattice
 exchange correlation table for  LEXCH =       43
   RHO(1)=    0.500       N(1)  =     2000
   RHO(2)=  100.500       N(2)  =     4000

 ion  position               nearest neighbor table
   1  0.250  0.000  0.353-  35 2.09  36 2.09  43 2.09  52 2.09  33 2.09
   2  0.500  0.250  0.353-  35 2.09  36 2.09  44 2.09  51 2.09  34 2.09
   3  0.250  0.250  0.451-  33 2.09  34 2.09  41 2.09  50 2.09  35 2.09  39 2.10
   4  0.500  0.000  0.451-  33 2.09  34 2.09  42 2.09  49 2.09  36 2.09  40 2.09
   5  0.250  0.000  0.550-  40 2.09  39 2.09  47 2.09  56 2.09  33 2.10  37 2.13
   6  0.500  0.250  0.550-  48 2.09  39 2.09  55 2.09  40 2.09  34 2.11  38 2.11
   7  0.250  0.250  0.648-  39 2.09  38 2.09  37 2.09  54 2.09  45 2.09
   8  0.500  0.000  0.647-  38 2.08  46 2.08  40 2.09  37 2.09  53 2.09
   9  0.250  0.500  0.353-  35 2.09  43 2.09  44 2.09  60 2.09  41 2.09
  10  0.500  0.750  0.353-  36 2.09  43 2.09  44 2.09  59 2.09  42 2.09
  11  0.250  0.750  0.451-  33 2.09  41 2.09  42 2.09  58 2.09  43 2.09  47 2.10
  12  0.500  0.500  0.451-  34 2.09  41 2.09  42 2.09  57 2.09  44 2.09  48 2.10
  13  0.251  0.500  0.550-  48 2.09  39 2.09  47 2.09  64 2.09  41 2.11  45 2.13
  14  0.500  0.750  0.550-  48 2.08  47 2.09  40 2.09  63 2.09  42 2.11  46 2.11
  15  0.250  0.750  0.648-  37 2.08  47 2.09  46 2.09  45 2.09  62 2.09
  16  0.499  0.500  0.649-  45 2.08  38 2.09  46 2.09  61 2.11  48 2.11
  17  0.750  0.000  0.353-  36 2.09  51 2.09  52 2.09  59 2.09  49 2.09
  18  0.000  0.250  0.353-  35 2.09  51 2.09  52 2.09  60 2.09  50 2.09
  19  0.750  0.250  0.451-  34 2.09  49 2.09  50 2.09  57 2.09  51 2.09  55 2.10
  20  0.000  0.000  0.451-  33 2.09  49 2.09  50 2.09  58 2.09  52 2.09  56 2.10
  21  0.750  0.000  0.550-  40 2.09  56 2.09  55 2.09  63 2.09  49 2.10  53 2.12
  22  0.000  0.250  0.550-  39 2.09  55 2.09  64 2.09  56 2.09  50 2.10  54 2.12
  23  0.750  0.249  0.648-  53 2.08  55 2.09  38 2.09  54 2.09  61 2.10
  24  0.000  0.000  0.648-  37 2.08  56 2.08  54 2.09  53 2.09  62 2.09
  25  0.750  0.500  0.353-  44 2.09  51 2.09  59 2.09  60 2.09  57 2.09
  26  0.000  0.750  0.353-  43 2.09  52 2.09  59 2.09  60 2.09  58 2.09
  27  0.750  0.750  0.451-  42 2.09  49 2.09  57 2.09  58 2.09  59 2.09  63 2.10
  28  0.000  0.500  0.451-  41 2.09  50 2.09  57 2.09  58 2.09  60 2.09  64 2.10
  29  0.750  0.500  0.550-  48 2.08  55 2.08  63 2.09  64 2.09  57 2.10  61 2.14
  30  0.000  0.750  0.550-  47 2.09  64 2.09  63 2.09  56 2.09  58 2.10  62 2.12
  31  0.750  0.752  0.647-  53 2.07  63 2.08  62 2.09  46 2.09  61 2.10
  32  0.002  0.500  0.648-  45 2.07  64 2.08  54 2.09  62 2.09  61 2.09
  33  0.250  0.000  0.451-   3 2.09   4 2.09  11 2.09  20 2.09   1 2.09   5 2.10
  34  0.500  0.250  0.451-   3 2.09   4 2.09  12 2.09  19 2.09   2 2.09   6 2.11
  35  0.250  0.250  0.353-   1 2.09   2 2.09   9 2.09  18 2.09   3 2.09
  36  0.500  0.000  0.353-   1 2.09   2 2.09  10 2.09  17 2.09   4 2.09
  37  0.250  0.000  0.650-  24 2.08  15 2.08   7 2.09   8 2.09   5 2.13
  38  0.500  0.249  0.649-   8 2.08   7 2.09  23 2.09  16 2.09   6 2.11
  39  0.250  0.250  0.550-   7 2.09  22 2.09  13 2.09   5 2.09   6 2.09   3 2.10
  40  0.500  1.000  0.549-   8 2.09  21 2.09   5 2.09  14 2.09   6 2.09   4 2.09
  41  0.250  0.500  0.451-   3 2.09  11 2.09  12 2.09  28 2.09   9 2.09  13 2.11
  42  0.500  0.750  0.451-   4 2.09  11 2.09  12 2.09  27 2.09  10 2.09  14 2.11
  43  0.250  0.750  0.353-   1 2.09   9 2.09  10 2.09  26 2.09  11 2.09
  44  0.500  0.500  0.353-   2 2.09   9 2.09  10 2.09  25 2.09  12 2.09
  45  0.250  0.500  0.650-  32 2.07  16 2.08  15 2.09   7 2.09  13 2.13
  46  0.500  0.751  0.649-   8 2.08  31 2.09  15 2.09  16 2.09  14 2.11
  47  0.250  0.750  0.550-  30 2.09  15 2.09  13 2.09  14 2.09   5 2.09  11 2.10
  48  0.500  0.500  0.550-  29 2.08  14 2.08  13 2.09   6 2.09  12 2.10  16 2.11
  49  0.750  0.000  0.451-   4 2.09  19 2.09  20 2.09  27 2.09  17 2.09  21 2.10
  50  0.000  0.250  0.451-   3 2.09  19 2.09  20 2.09  28 2.09  18 2.09  22 2.10
  51  0.750  0.250  0.353-   2 2.09  17 2.09  18 2.09  25 2.09  19 2.09
  52  0.000  0.000  0.353-   1 2.09  17 2.09  18 2.09  26 2.09  20 2.09
  53  0.750  0.000  0.650-  31 2.07  23 2.08  24 2.09   8 2.09  21 2.12
  54  0.000  0.250  0.650-  32 2.09  24 2.09  23 2.09   7 2.09  22 2.12
  55  0.750  0.250  0.550-  29 2.08  23 2.09  22 2.09  21 2.09   6 2.09  19 2.10
  56  0.000  0.000  0.550-  24 2.08  30 2.09  22 2.09  21 2.09   5 2.09  20 2.10
  57  0.750  0.500  0.451-  12 2.09  19 2.09  27 2.09  28 2.09  25 2.09  29 2.10
  58  0.000  0.750  0.451-  11 2.09  20 2.09  27 2.09  28 2.09  26 2.09  30 2.10
  59  0.750  0.750  0.353-  10 2.09  17 2.09  25 2.09  26 2.09  27 2.09
  60  0.000  0.500  0.353-   9 2.09  18 2.09  25 2.09  26 2.09  28 2.09
  61  0.752  0.500  0.650-  32 2.09  23 2.10  31 2.10  16 2.11  29 2.14
  62  0.000  0.750  0.650-  31 2.09  32 2.09  24 2.09  15 2.09  30 2.12
  63  0.750  0.750  0.550-  31 2.08  29 2.09  30 2.09  14 2.09  21 2.09  27 2.10
  64  1.000  0.500  0.550-  32 2.08  30 2.09  22 2.09  29 2.09  13 2.09  28 2.10

IMPORTANT INFORMATION: All symmetrisations will be switched off!
NOSYMM: (Re-)initialisation of all symmetry stuff for point group C_1.

                                     Primitive cell

  volume of cell :    1482.1129

  direct lattice vectors                    reciprocal lattice vectors
     8.349111827  0.000000000  0.000000000     0.119773219  0.000000000  0.000000000
     0.000000000  8.349111827  0.000000000     0.000000000  0.119773219  0.000000000
     0.000000000  0.000000000 21.261833870     0.000000000  0.000000000  0.047032632

  length of vectors
     8.349111827  8.349111827 21.261833870     0.119773219  0.119773219  0.047032632

  position of ions in fractional coordinates (direct lattice)
     0.250000000  0.000000000  0.352744737
     0.500000000  0.250000000  0.352744737
     0.250000000  0.250000000  0.450914912
     0.500000000  0.000000000  0.450914912
     0.250249468  0.000132381  0.549819610
     0.500057327  0.250330044  0.550027455
     0.250377554  0.249818042  0.647612389
     0.500015890  0.000211307  0.647484441
     0.250000000  0.500000000  0.352744737
     0.500000000  0.750000000  0.352744737
     0.250000000  0.750000000  0.450914912
     0.500000000  0.500000000  0.450914912
     0.250561379  0.500077739  0.549963947
     0.500018816  0.749794605  0.549991275
     0.250369682  0.750444718  0.647627358
     0.498944696  0.499954557  0.649301184
     0.750000000  0.000000000  0.352744737
     0.000000000  0.250000000  0.352744737
     0.750000000  0.250000000  0.450914912
     0.000000000  0.000000000  0.450914912
     0.750065609  0.000272567  0.549717056
     0.000150537  0.250150028  0.549887768
     0.749991174  0.248981485  0.647695337
     0.000465504  0.000191114  0.647563526
     0.750000000  0.500000000  0.352744737
     0.000000000  0.750000000  0.352744737
     0.750000000  0.750000000  0.450914912
     0.000000000  0.500000000  0.450914912
     0.749662578  0.499961441  0.549692534
     0.000269337  0.750046070  0.549833944
     0.750306168  0.751916473  0.647158109
     0.001595128  0.500121368  0.647545492
     0.250000000  0.000000000  0.450914912
     0.500000000  0.250000000  0.450914912
     0.250000000  0.250000000  0.352744737
     0.500000000  0.000000000  0.352744737
     0.250049069  0.000078209  0.649787514
     0.500127593  0.249356709  0.649203131
     0.249914554  0.250166713  0.549538549
     0.500169157  0.999992330  0.549390485
     0.250000000  0.500000000  0.450914912
     0.500000000  0.750000000  0.450914912
     0.250000000  0.750000000  0.352744737
     0.500000000  0.500000000  0.352744737
     0.249913240  0.500173934  0.649926083
     0.500473676  0.750766696  0.649459711
     0.250005035  0.750030428  0.549558968
     0.500347780  0.500126233  0.549891970
     0.750000000  0.000000000  0.450914912
     0.000000000  0.250000000  0.450914912
     0.750000000  0.250000000  0.352744737
     0.000000000  0.000000000  0.352744737
     0.750421410  0.000188848  0.649582576
     0.000117772  0.250174635  0.649828321
     0.750285863  0.250350130  0.549614539
     0.000139280  0.000082115  0.549508659
     0.750000000  0.500000000  0.450914912
     0.000000000  0.750000000  0.450914912
     0.750000000  0.750000000  0.352744737
     0.000000000  0.500000000  0.352744737
     0.751593658  0.500390151  0.650209723
     0.000066645  0.750132319  0.649774329
     0.750279318  0.749856470  0.549540846
     0.999896708  0.500112018  0.549631900

  ion indices of the primitive-cell ions
   primitive index   ion index
                 1           1
                 2           2
                 3           3
                 4           4
                 5           5
                 6           6
                 7           7
                 8           8
                 9           9
                10          10
                11          11
                12          12
                13          13
                14          14
                15          15
                16          16
[...]
   0.75000000  0.50000000  0.45091491
   0.00000000  0.75000000  0.45091491
   0.75000000  0.75000000  0.35274474
   0.00000000  0.50000000  0.35274474
   0.75159366  0.50039015  0.65020972
   0.00006664  0.75013232  0.64977433
   0.75027932  0.74985647  0.54954085
   0.99989671  0.50011202  0.54963190

 position of ions in cartesian coordinates  (Angst):
   2.08727796  0.00000000  7.50000000
   4.17455591  2.08727796  7.50000000
   2.08727796  2.08727796  9.58727796
   4.17455591  0.00000000  9.58727796
   2.08936079  0.00110527 11.69017321
   4.17503454  2.09003353 11.69459238
   2.09043019  2.08575877 13.76942702
   4.17468858  0.00176423 13.76670661
   2.08727796  4.17455591  7.50000000
   4.17455591  6.26183387  7.50000000
   2.08727796  6.26183387  9.58727796
   4.17455591  4.17455591  9.58727796
   2.09196497  4.17520496 11.69324208
   4.17471301  6.26011900 11.69382311
   2.09036448  6.26554687 13.76974530
   4.16574506  4.17417650 13.80533391
   6.26183387  0.00000000  7.50000000
   0.00000000  2.08727796  7.50000000
   6.26183387  2.08727796  9.58727796
   0.00000000  0.00000000  9.58727796
   6.26238165  0.00227569 11.68799272
   0.00125685  2.08853056 11.69162237
   6.26176018  2.07877426 13.77119066
   0.00388654  0.00159563 13.76838812
   6.26183387  4.17455591  7.50000000
   0.00000000  6.26183387  7.50000000
   6.26183387  6.26183387  9.58727796
   0.00000000  4.17455591  9.58727796
   6.25901669  4.17423398 11.68747134
   0.00224873  6.26221851 11.69047797
   6.26439010  6.27783472 13.75976819
   0.01331790  4.17556923 13.76800467
   2.08727796  0.00000000  9.58727796
   4.17455591  2.08727796  9.58727796
   2.08727796  2.08727796  7.50000000
   4.17455591  0.00000000  7.50000000
   2.08768764  0.00065298 13.81567418
   4.17562120  2.08190705 13.80324911
   2.08656456  2.08866986 11.68419733
   4.17596822  8.34904779 11.68104922
   2.08727796  4.17455591  9.58727796
   4.17455591  6.26183387  9.58727796
   2.08727796  6.26183387  7.50000000
   4.17455591  4.17455591  7.50000000
   2.08655358  4.17600811 13.81862041
   4.17851068  6.26823510 13.80870447
   2.08732000  6.26208792 11.68463148
   4.17745957  4.17560985 11.69171171
   6.26183387  0.00000000  9.58727796
   0.00000000  2.08727796  9.58727796
   6.26183387  2.08727796  7.50000000
   0.00000000  0.00000000  7.50000000
   6.26535227  0.00157671 13.81131682
   0.00098329  2.08873601 13.81654180
   6.26422057  2.09020123 11.68581303
   0.00116286  0.00068558 11.68356181
   6.26183387  4.17455591  9.58727796
   0.00000000  6.26183387  9.58727796
   6.26183387  6.26183387  7.50000000
   0.00000000  4.17455591  7.50000000
   6.27513950  4.17781333 13.82465111
   0.00055642  6.26293862 13.81539383
   6.26416592  6.26063552 11.68424617
   8.34824943  4.17549116 11.68618214

--------------------------------------- Iteration      FINAL  ---------------------------------------

--------------------OUTCAR has been truncated-------------------------

[...]

--------------------OUTCAR has been truncated-------------------------

  FORCE on cell =-STRESS in cart. coord.  units (eV):
  Direction    XX          YY          ZZ          XY          YZ          ZX
  Alpha Z   897.52708   897.52708   897.52708
  Ewald  165890.78588165890.43015************    -0.03517     0.64513     1.12746
  Hartree175856.56272175856.34524************    -0.02055     0.38693     0.61087
  E(xc)   -2460.12938 -2460.12957 -2460.26286    -0.00000     0.00076     0.00131
  Local  ************************352333.01946     0.05519    -1.04303    -1.72969
  n-local -2829.91902 -2829.92274 -2850.12803    -0.00014     0.02107     0.03316
  augment  1051.17617  1051.17604  1041.44465     0.00010     0.00581     0.00585
  Kinetic  7324.02074  7324.03209  7359.40347    -0.00015    -0.11055    -0.21111
  Fock        0.00000     0.00000     0.00000     0.00000     0.00000     0.00000
  Total     -10.61913   -10.61810    10.76025    -0.00073    -0.09387    -0.16216
  in kB     -11.47938   -11.47826    11.63192    -0.00079    -0.10148    -0.17530

 VOLUME and BASIS-vectors are now :
  energy-cutoff  :      600.00
  volume of cell :     1482.11
      direct lattice vectors                 reciprocal lattice vectors
     8.349111827  0.000000000  0.000000000     0.119773219  0.000000000  0.000000000
     0.000000000  8.349111827  0.000000000     0.000000000  0.119773219  0.000000000
     0.000000000  0.000000000 21.261833870     0.000000000  0.000000000  0.047032632

  length of vectors
     8.349111827  8.349111827 21.261833870     0.119773219  0.119773219  0.047032632

 FORCES acting on ions:
    Electron-Ion                     Ewald-Force                    Non-Local-Force
   -.352E-01 -.888E-02 0.212E+04   0.357E-01 0.918E-02 -.212E+04   -.421E-03 -.267E-03 -.684E+01
   0.152E-01 -.128E+00 0.212E+04   -.161E-01 0.130E+00 -.212E+04   0.601E-03 -.150E-02 -.685E+01
   -.273E+00 -.516E+00 0.702E+03   0.274E+00 0.531E+00 -.702E+03   -.340E-03 -.108E-01 0.508E+00
   0.663E-01 -.559E-01 0.702E+03   -.671E-01 0.547E-01 -.703E+03   0.996E-03 0.101E-02 0.448E+00
   0.165E+00 0.831E-01 -.708E+03   -.187E+00 -.908E-01 0.708E+03   0.677E-02 0.206E-02 -.133E+00
   -.566E+00 -.191E+01 -.708E+03   0.617E+00 0.205E+01 0.709E+03   -.318E-01 -.122E+00 -.397E+00
   0.485E+00 -.803E+00 -.211E+04   -.630E+00 0.618E+00 0.210E+04   0.836E-01 0.168E+00 0.585E+01
   -.303E+00 0.529E+00 -.211E+04   0.225E+00 -.567E+00 0.210E+04   0.785E-01 0.149E-01 0.582E+01
   -.607E-01 0.980E-02 0.212E+04   0.629E-01 -.963E-02 -.212E+04   -.188E-02 -.167E-03 -.684E+01
   0.183E-01 0.128E+00 0.212E+04   -.195E-01 -.130E+00 -.212E+04   0.882E-03 0.129E-02 -.685E+01
   -.272E+00 0.527E+00 0.702E+03   0.283E+00 -.535E+00 -.702E+03   -.710E-02 0.539E-02 0.515E+00
   0.235E+00 0.701E-01 0.700E+03   -.242E+00 -.654E-01 -.701E+03   0.489E-02 -.348E-02 0.571E+00
   -.562E+00 -.735E-01 -.709E+03   0.650E+00 0.733E-01 0.709E+03   -.101E+00 0.177E-02 -.118E+00
   -.384E+00 0.194E+01 -.709E+03   0.411E+00 -.208E+01 0.709E+03   -.795E-02 0.119E+00 -.337E+00
   -.134E+00 0.814E+00 -.211E+04   0.507E-02 -.629E+00 0.210E+04   0.864E-01 -.169E+00 0.584E+01
   -.691E+01 -.504E+00 -.212E+04   0.701E+01 0.584E+00 0.211E+04   0.112E+00 -.458E-01 0.611E+01
   0.366E-01 -.115E-01 0.212E+04   -.363E-01 0.123E-01 -.212E+04   -.247E-03 -.746E-03 -.684E+01
   -.149E-01 -.102E+00 0.212E+04   0.161E-01 0.103E+00 -.212E+04   -.967E-03 -.231E-03 -.685E+01
   0.295E+00 -.355E+00 0.701E+03   -.290E+00 0.365E+00 -.702E+03   -.445E-02 -.719E-02 0.506E+00
   -.447E-01 -.555E-01 0.702E+03   0.585E-01 0.636E-01 -.703E+03   -.948E-02 -.563E-02 0.485E+00
   -.144E+00 -.466E-01 -.706E+03   0.154E+00 0.841E-01 0.706E+03   0.246E-03 -.410E-01 -.136E+00
   0.477E+00 -.767E+00 -.709E+03   -.526E+00 0.833E+00 0.709E+03   0.300E-01 -.521E-01 -.230E+00
   0.285E+00 -.574E+01 -.211E+04   -.790E-01 0.586E+01 0.210E+04   -.140E+00 0.515E-01 0.585E+01
   0.189E+00 -.306E-01 -.211E+04   -.114E+00 0.246E-01 0.210E+04   -.778E-01 0.241E-02 0.579E+01
   0.615E-01 0.126E-01 0.212E+04   -.631E-01 -.128E-01 -.212E+04   0.135E-02 0.230E-03 -.684E+01
   -.175E-01 0.103E+00 0.212E+04   0.193E-01 -.103E+00 -.212E+04   -.146E-02 -.168E-03 -.684E+01
   0.302E+00 0.368E+00 0.702E+03   -.301E+00 -.367E+00 -.702E+03   -.742E-03 0.333E-03 0.482E+00
   -.212E+00 0.749E-01 0.701E+03   0.230E+00 -.755E-01 -.702E+03   -.126E-01 0.636E-03 0.487E+00
   0.869E+00 -.524E-01 -.711E+03   -.926E+00 0.304E-01 0.711E+03   0.825E-01 0.303E-01 -.233E+00
   0.262E+00 0.792E+00 -.708E+03   -.288E+00 -.862E+00 0.708E+03   0.713E-02 0.539E-01 -.232E+00
   0.880E+00 0.654E+01 -.210E+04   -.729E+00 -.667E+01 0.210E+04   -.118E+00 -.846E-01 0.576E+01
   0.401E+01 -.916E-01 -.210E+04   -.438E+01 0.110E+00 0.210E+04   0.180E+00 -.878E-02 0.570E+01
   -.201E-01 -.162E-02 0.526E+03   0.141E-01 -.348E-02 -.526E+03   0.696E-02 0.656E-02 -.792E-01
   0.696E-02 -.473E+00 0.525E+03   -.112E-01 0.451E+00 -.525E+03   0.593E-02 0.301E-01 -.126E+00
   -.391E-01 -.913E-01 0.159E+04   0.391E-01 0.922E-01 -.160E+04   -.396E-04 -.121E-02 0.358E+01
   0.803E-02 -.850E-02 0.159E+04   -.941E-02 0.825E-02 -.160E+04   0.195E-02 0.354E-03 0.358E+01
   -.763E-01 0.755E-01 -.160E+04   0.485E-01 -.847E-01 0.161E+04   0.573E-01 0.173E-01 -.515E+01
   -.135E+01 -.271E+01 -.160E+04   0.146E+01 0.278E+01 0.160E+04   -.130E+00 -.132E-01 -.473E+01
   -.203E+00 -.648E+00 -.524E+03   0.191E+00 0.650E+00 0.524E+03   0.314E-01 -.650E-02 0.380E+00
   0.103E-01 0.434E-01 -.523E+03   0.151E-01 -.516E-01 0.523E+03   -.344E-01 0.160E-01 0.388E+00
   -.161E+00 0.232E-01 0.525E+03   0.132E+00 -.287E-01 -.525E+03   0.381E-01 0.748E-02 -.105E+00
   0.254E-01 0.483E+00 0.525E+03   -.264E-01 -.466E+00 -.525E+03   0.165E-02 -.237E-01 -.128E+00
   -.399E-01 0.907E-01 0.159E+04   0.406E-01 -.919E-01 -.160E+04   -.944E-03 0.169E-02 0.358E+01
   0.223E-01 0.858E-02 0.159E+04   -.239E-01 -.843E-02 -.160E+04   0.227E-02 -.204E-03 0.358E+01
   -.853E+00 -.103E+00 -.160E+04   0.732E+00 0.118E+00 0.161E+04   0.196E+00 -.240E-01 -.492E+01
   -.105E+01 0.278E+01 -.160E+04   0.119E+01 -.289E+01 0.160E+04   -.199E+00 0.691E-01 -.488E+01
   -.339E+00 0.603E+00 -.525E+03   0.330E+00 -.590E+00 0.525E+03   0.237E-01 -.115E-01 0.359E+00
   -.740E+00 -.499E-01 -.533E+03   0.820E+00 0.554E-01 0.533E+03   -.127E+00 -.123E-01 -.112E+00
   0.507E-01 -.596E-02 0.526E+03   -.611E-01 -.736E-02 -.526E+03   0.148E-01 0.173E-01 -.608E-01
   0.908E-02 -.306E+00 0.526E+03   -.139E-01 0.303E+00 -.525E+03   0.612E-02 0.435E-02 -.116E+00
   0.390E-01 -.773E-01 0.159E+04   -.392E-01 0.778E-01 -.160E+04   0.375E-03 -.732E-03 0.358E+01
   -.891E-02 -.933E-02 0.159E+04   0.978E-02 0.975E-02 -.160E+04   -.120E-02 -.583E-03 0.358E+01
   0.128E+00 -.481E+00 -.160E+04   -.922E-01 0.511E+00 0.161E+04   -.672E-01 -.132E-01 -.511E+01
   0.846E+00 -.719E+00 -.160E+04   -.989E+00 0.859E+00 0.161E+04   0.196E+00 -.188E+00 -.517E+01
   0.282E+00 -.134E+01 -.526E+03   -.268E+00 0.142E+01 0.526E+03   -.332E-01 -.121E+00 0.232E+00
   -.672E-01 -.889E-01 -.525E+03   0.584E-01 0.847E-01 0.524E+03   0.128E-01 0.645E-02 0.313E+00
   0.179E+00 0.293E-01 0.526E+03   -.163E+00 -.286E-01 -.526E+03   -.209E-01 -.628E-03 -.737E-01
   -.349E-02 0.322E+00 0.526E+03   -.100E-01 -.328E+00 -.526E+03   0.177E-01 0.830E-02 -.103E+00
   0.395E-01 0.766E-01 0.159E+04   -.406E-01 -.775E-01 -.160E+04   0.158E-02 0.132E-02 0.358E+01
   -.228E-01 0.911E-02 0.159E+04   0.240E-01 -.979E-02 -.160E+04   -.167E-02 0.970E-03 0.358E+01
   0.293E+01 -.375E+00 -.160E+04   -.283E+01 0.490E+00 0.161E+04   -.271E+00 -.143E+00 -.499E+01
   0.444E+00 0.846E+00 -.160E+04   -.569E+00 -.101E+01 0.161E+04   0.192E+00 0.211E+00 -.523E+01
   0.435E+00 0.143E+01 -.524E+03   -.424E+00 -.152E+01 0.524E+03   -.257E-01 0.137E+00 0.358E+00
   0.576E+00 0.669E-01 -.526E+03   -.693E+00 -.587E-01 0.525E+03   0.176E+00 -.118E-01 0.270E+00
   -.227E+00 0.137E+00 0.160E+02   -.773E-13 -.252E-12 -.341E-11   0.229E+00 -.136E+00 -.160E+02

 POSITION                                       TOTAL-FORCE (eV/Angst)
      2.08728      0.00000      7.50000         0.000041      0.000021      0.160751
      4.17456      2.08728      7.50000        -0.000292      0.000235      0.161607
      2.08728      2.08728      9.58728         0.001036      0.004821      0.054832
      4.17456      0.00000      9.58728         0.000169     -0.000115      0.052728
      2.08936      0.00111     11.69017        -0.014897     -0.005509     -0.004647
      4.17503      2.09003     11.69459         0.018597      0.018143     -0.039500
      2.09043      2.08576     13.76943        -0.059537     -0.018279      0.173584
      4.17469      0.00176     13.76671         0.000656     -0.022792      0.181370
      2.08728      4.17456      7.50000         0.000277     -0.000011      0.161312
      4.17456      6.26183      7.50000        -0.000336     -0.000268      0.162107
      2.08728      6.26183      9.58728         0.003643     -0.001999      0.054441
      4.17456      4.17456      9.58728        -0.002607      0.001121      0.069272
      2.09196      4.17520     11.69324        -0.011891      0.001482     -0.020531
      4.17471      6.26012     11.69382         0.018783     -0.017810     -0.016998
      2.09036      6.26555     13.76975        -0.042008      0.016836      0.177339
      4.16575      4.17418     13.80533         0.208054      0.033317     -0.069850
      6.26183      0.00000      7.50000        -0.000019      0.000083      0.159993
      0.00000      2.08728      7.50000         0.000277      0.000004      0.162056
      6.26183      2.08728      9.58728         0.001139      0.002932      0.060193
      0.00000      0.00000      9.58728         0.004164      0.002409      0.053966
      6.26238      0.00228     11.68799         0.010355     -0.003271     -0.004880
      0.00126      2.08853     11.69162        -0.019076      0.013938      0.015513
      6.26176      2.07877     13.77119         0.065137      0.162099      0.167445
      0.00389      0.00160     13.76839        -0.002234     -0.003509      0.195863
      6.26183      4.17456      7.50000        -0.000251     -0.000066      0.160371
      0.00000      6.26183      7.50000         0.000357     -0.000007      0.161487
      6.26183      6.26183      9.58728         0.000112      0.000486      0.060992
      0.00000      4.17456      9.58728         0.005632     -0.000025      0.072408
      6.25902      4.17423     11.68747         0.023911      0.007949      0.154683
      0.00225      6.26222     11.69048        -0.018569     -0.015295      0.019718
      6.26439      6.27783     13.75977         0.032573     -0.206994      0.261002
      0.01332      4.17557     13.76800        -0.191306      0.009417      0.229993
      2.08728      0.00000      9.58728         0.000990      0.001438      0.085936
      4.17456      2.08728      9.58728         0.001638      0.008139      0.095552
      2.08728      2.08728      7.50000        -0.000021     -0.000354     -0.551239
      4.17456      0.00000      7.50000         0.000552      0.000094     -0.550921
      2.08769      0.00065     13.81567         0.029362      0.008076      0.037909
      4.17562      2.08191     13.80325        -0.023676      0.056260      0.181204
      2.08656      2.08867     11.68420         0.019008     -0.005104      0.017358
      4.17597      8.34905     11.68105        -0.009000      0.007779      0.032601
      2.08728      4.17456      9.58728         0.009025      0.001962      0.094977
      4.17456      6.26183      9.58728         0.000580     -0.006634      0.090817
      2.08728      6.26183      7.50000        -0.000280      0.000485     -0.551196
      4.17456      4.17456      7.50000         0.000634     -0.000069     -0.551410
      2.08655      4.17601     13.81862         0.075618     -0.008943      0.083867
      4.17851      6.26824     13.80870        -0.054117     -0.039711      0.126342
      2.08732      6.26209     11.68463         0.014284      0.001584      0.010996
      4.17746      4.17561     11.69171        -0.046927     -0.006891     -0.001733
      6.26183      0.00000      9.58728         0.004350      0.003978      0.080526
      0.00000      2.08728      9.58728         0.001245      0.001128      0.082654
      6.26183      2.08728      7.50000         0.000080     -0.000221     -0.550623
      0.00000      0.00000      7.50000        -0.000361     -0.000175     -0.550788
      6.26535      0.00158     13.81132        -0.031651      0.017044      0.055237
      0.00098      2.08874     13.81654         0.052704     -0.047560      0.032024
      6.26422      2.09020     11.68581        -0.019361     -0.045715     -0.024010
      0.00116      0.00069     11.68356         0.003930      0.002224      0.003615
      6.26183      4.17456      9.58728        -0.004547      0.000108      0.074421
      0.00000      6.26183      9.58728         0.004183      0.001965      0.080598
      6.26183      6.26183      7.50000         0.000431      0.000376     -0.550425
      0.00000      4.17456      7.50000        -0.000493      0.000269     -0.550727
      6.27514      4.17781     13.82465        -0.169995     -0.029041      0.024078
      0.00056      6.26294     13.81539         0.065833      0.051906      0.022492
      6.26417      6.26064     11.68425        -0.015113      0.049876     -0.034861
      8.34825      4.17549     11.68618         0.059202     -0.003617     -0.033892
    total drift:                                0.001339      0.000797      0.009257

  FREE ENERGIE OF THE ION-ELECTRON SYSTEM (eV)
  free  energy   TOTEN  =      -265.10611893 eV

  energy  without entropy=     -265.10611893  energy(sigma->0) =     -265.10611893