 vasp.6.3.0 20Jan22 (build Dec 25 2023 18:06:01) complex
 executed on        HPECrayEX_GCC date 2024.01.24  03:03:17

 INCAR:
   SYSTEM = MgO-rocksalt
   ISMEAR = 0
   SIGMA = 0.05
   EDIFF = 1E-8
   ALGO = ALL
   ISTART = 0
   IBRION = 5
   POTIM = 0.01
   NFREE = 2
   ISYM = 0
   DIPOL = 0.5 0.5 0.5
   IDIPOL = 3
   LDIPOL = .TRUE.
   GGA = PE
   IVDW = 21
   LDAU = .TRUE.
   LDAUTYPE = 2
   LDAUL = -1 -1 2 -1
   LDAUU = 0.0 0.0 4.2 0.0
   LDAUPRINT = 1
   LMAXMIX = 4
   ENCUT = 600
   PREC = Accurate
   LASPH = .TRUE.
   LREAL = .FALSE.
   ISPIN = 1
   NELM = 200
   NELMIN = 8
   NCORE = 8
   KPAR = 1
   LWAVE = .FALSE.
   LCHARG = .FALSE.

 POTCAR:    PAW_PBE C 08Apr2002
 POTCAR:    PAW_PBE H 15Jun2001
 POTCAR:    PAW_PBE Ti_pv 07Sep2000
 POTCAR:    PAW_PBE O 08Apr2002
 POTCAR:    PAW_PBE C 08Apr2002
   VRHFIN =C: s2p2

   TITEL  = PAW_PBE C 08Apr2002
   POMASS =   12.011; ZVAL   =    4.000    mass and valenz
   ENMAX  =  400.000; ENMIN  =  300.000 eV

   TITEL  = PAW_PBE H 15Jun2001
   POMASS =    1.000; ZVAL   =    1.000    mass and valenz
   ENMAX  =  250.000; ENMIN  =  200.000 eV

   TITEL  = PAW_PBE Ti_pv 07Sep2000
   POMASS =   47.880; ZVAL   =   10.000    mass and valenz
   ENMAX  =  222.335; ENMIN  =  166.751 eV

   TITEL  = PAW_PBE O 08Apr2002
   POMASS =   16.000; ZVAL   =    6.000    mass and valenz
   ENMAX  =  400.000; ENMIN  =  300.000 eV

  PAW_PBE C 08Apr2002                   :
  PAW_PBE H 15Jun2001                   :
  PAW_PBE Ti_pv 07Sep2000               :
  PAW_PBE O 08Apr2002                   :

 POSCAR:  C  H Ti  O
  positions in direct lattice
 exchange correlation table for  LEXCH =        8
   RHO(1)=    0.500       N(1)  =     2000
   RHO(2)=  100.500       N(2)  =     4000

 ion  position               nearest neighbor table
   1  0.500  0.500  0.813-   3 1.10   2 1.10   5 1.10   4 1.10
   2  0.496  0.574  0.833-   1 1.10
   3  0.504  0.426  0.833-   1 1.10
   4  0.570  0.504  0.793-   1 1.10
   5  0.430  0.496  0.793-   1 1.10
   6  0.750  0.625  0.286-  86 1.98  87 1.98 146 1.98 147 1.98 168 2.00  89 2.00  16 3.03  36 3.03

   7  0.000  0.750  0.286-  88 1.98  89 1.98 108 1.98 109 1.98  90 2.00  37 3.03  17 3.03
   8  0.000  0.625  0.393-  91 1.98 151 1.98 150 1.98  90 1.98  92 2.00  93 2.00  18 3.03  38 3.03

[...]

  85  0.500  0.500  0.711- 239 1.88 244 1.97 185 1.97 184 1.97 245 1.97  55 3.03  75 3.03
  86  0.750  0.750  0.244-   6 1.98  16 1.98
  87  0.750  0.750  0.328-   6 1.98  16 1.98   9 2.00
  88  0.098  0.625  0.286-   7 1.98  37 1.98  46 2.00
  89  0.902  0.625  0.286-   7 1.98  37 1.98   6 2.00
  90  0.000  0.750  0.351-   8 1.98  18 1.98   7 2.00
  91  0.000  0.750  0.435-   8 1.98  18 1.98  11 2.00
  92  0.848  0.625  0.393-   9 1.98  39 1.98   8 2.00
  93  0.152  0.625  0.393-  49 1.98  79 1.98   8 2.00
  94  0.750  0.750  0.458-  10 1.98  20 1.98   9 2.00
  95  0.750  0.750  0.542-  10 1.98  20 1.98  13 2.09
  96  0.098  0.625  0.500-  11 1.98  41 1.98  50 2.00
  97  0.902  0.625  0.500-  11 1.98  41 1.98  10 2.00
  98  1.000  0.750  0.565-  22 1.94  12 1.94  11 2.01
  99  0.000  0.750  0.649-  15 1.86  22 2.03  12 2.03
 100  0.850  0.625  0.607-  12 1.98  13 2.00  43 2.00
 101  0.150  0.625  0.607-  12 1.98  53 2.00  83 2.00
 102  0.750  0.750  0.672-  13 1.92  14 2.11  24 2.11
 103  0.750  0.750  0.756-  14 1.87  24 1.87
 104  0.093  0.625  0.719-  45 1.97  15 1.97  54 2.06
 105  0.907  0.625  0.719-  45 1.97  15 1.97  14 2.06
 106  0.750  0.000  0.244-  16 1.98  26 1.98
 107  0.750  0.000  0.328-  16 1.98  26 1.98  19 2.00
 108  0.098  0.875  0.286-   7 1.98  17 1.98  56 2.00
 109  0.902  0.875  0.286-   7 1.98  17 1.98  16 2.00
 110  0.000  0.000  0.351-  18 1.98  28 1.98  17 2.00
 111  0.000  0.000  0.435-  18 1.98  28 1.98  21 2.00
 112  0.848  0.875  0.393-   9 1.98  19 1.98  18 2.00
 113  0.152  0.875  0.393-  49 1.98  59 1.98  18 2.00
 114  0.750  0.000  0.458-  20 1.98  30 1.98  19 2.00
 115  0.750  0.000  0.542-  20 1.98  30 1.98  23 2.09
 116  0.098  0.875  0.500-  11 1.98  21 1.98  60 2.00
 117  0.902  0.875  0.500-  11 1.98  21 1.98  20 2.00
 118  0.000  1.000  0.565-  32 1.94  22 1.94  21 2.01
 119  1.000  1.000  0.649-  25 1.86  22 2.03  32 2.03
 120  0.850  0.875  0.607-  22 1.98  23 2.00  13 2.00
 121  0.150  0.875  0.607-  22 1.98  63 2.00  53 2.00
 122  0.750  0.000  0.672-  23 1.92  24 2.11  34 2.11
 123  0.750  0.000  0.756-  24 1.87  34 1.87
 124  0.093  0.875  0.719-  15 1.97  25 1.97  64 2.06
 125  0.907  0.875  0.719-  15 1.97  25 1.97  24 2.06
 126  0.750  0.250  0.244-  26 1.98  36 1.98
 127  0.750  0.250  0.328-  26 1.98  36 1.98  29 2.00
 128  0.098  0.125  0.286-  17 1.98  27 1.98  66 2.00
 129  0.902  0.125  0.286-  17 1.98  27 1.98  26 2.00
 130  0.000  0.250  0.351-  28 1.98  38 1.98  27 2.00
 131  0.000  0.250  0.435-  28 1.98  38 1.98  31 2.00
 132  0.848  0.125  0.393-  19 1.98  29 1.98  28 2.00
 133  0.152  0.125  0.393-  59 1.98  69 1.98  28 2.00
 134  0.750  0.250  0.458-  30 1.98  40 1.98  29 2.00
 135  0.750  0.250  0.542-  30 1.98  40 1.98  33 2.09
 136  0.098  0.125  0.500-  21 1.98  31 1.98  70 2.00
 137  0.902  0.125  0.500-  21 1.98  31 1.98  30 2.00
 138  0.000  0.250  0.565-  32 1.94  42 1.94  31 2.01
 139  1.000  0.250  0.649-  35 1.86  32 2.03  42 2.03
 140  0.850  0.125  0.607-  32 1.98  23 2.00  33 2.00
 141  0.150  0.125  0.607-  32 1.98  63 2.00  73 2.00
 142  0.750  0.250  0.672-  33 1.92  44 2.11  34 2.11
 143  0.750  0.250  0.756-  44 1.87  34 1.88
 144  0.093  0.125  0.719-  35 1.97  25 1.97  74 2.06
[...]
 231  0.500  0.500  0.435-  48 1.98  78 1.98  81 2.00
 232  0.348  0.375  0.393-  69 1.98  79 1.98  78 2.00
 233  0.652  0.375  0.393-  29 1.98  39 1.98  78 2.00
 234  0.250  0.500  0.458-  50 1.98  80 1.98  79 2.00
 235  0.250  0.500  0.542-  50 1.98  80 1.98  83 2.09
 236  0.598  0.375  0.500-  71 1.98  81 1.98  40 2.00
 237  0.402  0.375  0.500-  71 1.98  81 1.98  80 2.00
 238  0.500  0.500  0.566-  82 1.94  52 1.94  81 2.01
 239  0.500  0.500  0.650-  85 1.88  82 2.03  52 2.03
 240  0.349  0.375  0.607-  82 1.98  83 2.00  73 2.00
 241  0.651  0.375  0.607-  82 1.98  43 2.00  33 2.00
 242  0.249  0.500  0.672-  83 1.92  84 2.11  54 2.11
 243  0.251  0.500  0.756-  84 1.88  54 1.88
 244  0.594  0.374  0.719-  75 1.96  85 1.97  44 2.06
 245  0.406  0.374  0.719-  75 1.96  85 1.97  84 2.06

IMPORTANT INFORMATION: All symmetrisations will be switched off!
NOSYMM: (Re-)initialisation of all symmetry stuff for point group C_1.

                                     Primitive cell

  volume of cell :    4886.2662

  direct lattice vectors                    reciprocal lattice vectors
    13.143747607  0.000000000  0.000000000     0.076081802  0.000000000  0.000000000
     0.000000000 12.104894358  0.000000000     0.000000000  0.082611212  0.000000000
     0.000000000  0.000000000 30.711208800     0.000000000  0.000000000  0.032561401

  length of vectors
    13.143747607 12.104894358 30.711208800     0.076081802  0.082611212  0.032561401

  position of ions in fractional coordinates (direct lattice)
     0.500057363  0.499992086  0.812754322
     0.496276112  0.574107901  0.833162082
     0.503850459  0.425902761  0.833163525
     0.570423801  0.504063873  0.793396521
     0.429683276  0.495927863  0.793404084
     0.750000000  0.625000000  0.286010579
     0.000000000  0.750000000  0.286010579
     0.000000000  0.625000000  0.393005289
     0.750000000  0.750000000  0.393005289
     0.750000000  0.625000000  0.500000000
     0.000000000  0.750000000  0.500000000
     0.000000203  0.625006881  0.605092756
     0.750024826  0.750019313  0.609826640
     0.750062765  0.625140804  0.719895291
     0.000013886  0.750030955  0.709704636
     0.750000000  0.875000000  0.286010579
     0.000000000  0.000000000  0.286010579
     0.000000000  0.875000000  0.393005289
     0.750000000  0.000000000  0.393005289
     0.750000000  0.875000000  0.500000000
     0.000000000  0.000000000  0.500000000
     0.999999679  0.875007921  0.605103344
     0.749991269  0.000000917  0.609876534
     0.749944943  0.875038046  0.720104940
     0.999999935  0.999999984  0.709715428
     0.750000000  0.125000000  0.286010579
     0.000000000  0.250000000  0.286010579
     0.000000000  0.125000000  0.393005289
     0.750000000  0.250000000  0.393005289
     0.750000000  0.125000000  0.500000000
     0.000000000  0.250000000  0.500000000
     0.000000367  0.124992070  0.605103342
     0.750022572  0.249983758  0.609833537
     0.749937754  0.124971789  0.720105387
     0.999986559  0.249969019  0.709704638
     0.750000000  0.375000000  0.286010579
     0.000000000  0.500000000  0.286010579
     0.000000000  0.375000000  0.393005289
     0.750000000  0.500000000  0.393005289
     0.750000000  0.375000000  0.500000000
     0.000000000  0.500000000  0.500000000
     0.999999822  0.374993122  0.605092754
     0.750044354  0.499998605  0.609844871
     0.750030300  0.374886759  0.719924131
     0.000000361  0.500000003  0.709683421
     0.250000000  0.625000000  0.286010579
     0.500000000  0.750000000  0.286010579
     0.500000000  0.625000000  0.393005289
     0.250000000  0.750000000  0.393005289
     0.250000000  0.625000000  0.500000000
     0.500000000  0.750000000  0.500000000
     0.500000672  0.624624644  0.605473259
     0.249977520  0.750016138  0.609833652
     0.249970749  0.625112855  0.719924650
     0.500000192  0.750144126  0.709546080
     0.250000000  0.875000000  0.286010579
     0.500000000  0.000000000  0.286010579
     0.500000000  0.875000000  0.393005289
     0.250000000  0.000000000  0.393005289
     0.250000000  0.875000000  0.500000000
[...]
     0.500000000  0.500000000  0.434805357
     0.347668537  0.375000000  0.393005289
     0.652331463  0.375000000  0.393005289
     0.250000000  0.500000000  0.458199933
     0.250000000  0.500000000  0.541800067
     0.597668537  0.375000000  0.500000000
     0.402331463  0.375000000  0.500000000
     0.500000031  0.499999961  0.565528178
     0.499999851  0.500000021  0.649525851
     0.349492242  0.375002418  0.607405238
     0.650507342  0.375005190  0.607403826
     0.249454041  0.500011947  0.672244939
     0.250875413  0.499959271  0.756004028
     0.593611296  0.374260203  0.718727644
     0.406347790  0.374235719  0.718663173

  ion indices of the primitive-cell ions
   primitive index   ion index
                 1           1
                 2           2
                 3           3
                 4           4
                 5           5
                 6           6
                 7           7
                 8           8
                 9           9
                10          10
                11          11
                12          12
                13          13
                14          14
                15          15
                16          16
                17          17
                18          18
                19          19
                20          20
                21          21
                22          22
                23          23
                24          24
                25          25
                26          26
                27          27
[...]

 Eigenvectors and eigenvalues of the dynamical matrix

   1 f  =   92.995109 THz   584.305500 2PiTHz 3101.982925 cm-1   384.596693 meV
             X         Y         Z           dx          dy          dz
      6.572628  6.052351 24.960668    -0.019516    0.303242   -0.007142
      6.522928  6.949515 25.587415     0.029102   -0.531136   -0.384529
      6.622483  5.155508 25.587459     0.030767   -0.558870    0.403181
      7.497506  6.101640 24.366166    -0.001382    0.020071   -0.000389
      5.647649  6.003154 24.366398     0.009311    0.020641    0.006514
      9.857811  7.565559  8.783731            0           0           0
      0.000000  9.078671  8.783731            0           0           0
      0.000000  7.565559 12.069667            0           0           0
      9.857811  9.078671 12.069667            0           0           0
      9.857811  7.565559 15.355604            0           0           0
      0.000000  9.078671 15.355604            0           0           0
      0.000003  7.565642 18.583130            0           0           0
      9.858137  9.078905 18.728513            0           0           0
      9.858636  7.567263 22.108855            0           0           0
      0.000183  9.079045 21.795887            0           0           0
      9.857811 10.591783  8.783731            0           0           0
      0.000000  0.000000  8.783731            0           0           0
      0.000000 10.591783 12.069667            0           0           0
      9.857811  0.000000 12.069667            0           0           0
      9.857811 10.591783 15.355604            0           0           0
      0.000000  0.000000 15.355604            0           0           0
     13.143743 10.591878 18.583455            0           0           0
      9.857696  0.000011 18.730046            0           0           0
      9.857087 10.592243 22.115293            0           0           0
     13.143747 12.104894 21.796219            0           0           0
      9.857811  1.513112  8.783731            0           0           0
      0.000000  3.026224  8.783731            0           0           0
      0.000000  1.513112 12.069667            0           0           0
      9.857811  3.026224 12.069667            0           0           0
      9.857811  1.513112 15.355604            0           0           0
      0.000000  3.026224 15.355604            0           0           0
      0.000005  1.513016 18.583455            0           0           0
      9.858107  3.026027 18.728725            0           0           0
      9.856993  1.512770 22.115307            0           0           0
     13.143571  3.025849 21.795887            0           0           0
      9.857811  4.539335  8.783731            0           0           0
      0.000000  6.052447  8.783731            0           0           0
      0.000000  4.539335 12.069667            0           0           0
      9.857811  6.052447 12.069667            0           0           0
      9.857811  4.539335 15.355604            0           0           0
      0.000000  6.052447 15.355604            0           0           0
     13.143745  4.539252 18.583130            0           0           0
      9.858394  6.052430 18.729073            0           0           0
      9.858209  4.537965 22.109740            0           0           0
      0.000005  6.052447 21.795236            0           0           0
      3.285937  7.565559  8.783731            0           0           0
      6.571874  9.078671  8.783731            0           0           0
      6.571874  7.565559 12.069667            0           0           0
      3.285937  9.078671 12.069667            0           0           0
      3.285937  7.565559 15.355604            0           0           0
      6.571874  9.078671 15.355604            0           0           0
      6.571883  7.561015 18.594816            0           0           0
      3.285641  9.078866 18.728729            0           0           0
      3.285552  7.566925 22.109756            0           0           0
      6.571876  9.080415 21.791018            0           0           0
      3.285937 10.591783  8.783731            0           0           0
      6.571874  0.000000  8.783731            0           0           0
      6.571874 10.591783 12.069667            0           0           0
      3.285937  0.000000 12.069667            0           0           0
      3.285937 10.591783 15.355604            0           0           0
[...]
      6.571874  6.052447 13.353398            0           0           0
      4.569667  4.539335 12.069667            0           0           0
      8.574080  4.539335 12.069667            0           0           0
      3.285937  6.052447 14.071874            0           0           0
      3.285937  6.052447 16.639335            0           0           0
      7.855604  4.539335 15.355604            0           0           0
      5.288143  4.539335 15.355604            0           0           0
      6.571874  6.052447 17.368054            0           0           0
      6.571872  6.052447 19.947724            0           0           0
      4.593638  4.539365 18.654149            0           0           0
      8.550104  4.539398 18.654106            0           0           0
      3.278761  6.052592 20.645455            0           0           0
      3.297443  6.051954 23.217798            0           0           0
      7.802277  4.530380 22.072995            0           0           0
      5.340933  4.530084 22.071015            0           0           0

[...]

  14 f  =    2.054867 THz    12.911112 2PiTHz   68.542994 cm-1     8.498244 meV
             X         Y         Z           dx          dy          dz
      6.572628  6.052351 24.960668     0.866469   -0.017487   -0.010007
      6.522928  6.949515 25.587415     0.268239   -0.000236   -0.008452
      6.622483  5.155508 25.587459     0.270603   -0.000093    0.002574
      7.497506  6.101640 24.366166     0.224229   -0.010405   -0.039807
      5.647649  6.003154 24.366398     0.224173   -0.012790    0.034354
      9.857811  7.565559  8.783731            0           0           0
      0.000000  9.078671  8.783731            0           0           0
      0.000000  7.565559 12.069667            0           0           0
      9.857811  9.078671 12.069667            0           0           0
      9.857811  7.565559 15.355604            0           0           0
      0.000000  9.078671 15.355604            0           0           0
      0.000003  7.565642 18.583130            0           0           0
      9.858137  9.078905 18.728513            0           0           0
      9.858636  7.567263 22.108855            0           0           0
      0.000183  9.079045 21.795887            0           0           0
      9.857811 10.591783  8.783731            0           0           0
      0.000000  0.000000  8.783731            0           0           0
      0.000000 10.591783 12.069667            0           0           0
      9.857811  0.000000 12.069667            0           0           0
      9.857811 10.591783 15.355604            0           0           0
      0.000000  0.000000 15.355604            0           0           0
     13.143743 10.591878 18.583455            0           0           0
      9.857696  0.000011 18.730046            0           0           0
      9.857087 10.592243 22.115293            0           0           0
     13.143747 12.104894 21.796219            0           0           0
      9.857811  1.513112  8.783731            0           0           0
      0.000000  3.026224  8.783731            0           0           0
      0.000000  1.513112 12.069667            0           0           0
      9.857811  3.026224 12.069667            0           0           0
      9.857811  1.513112 15.355604            0           0           0
      0.000000  3.026224 15.355604            0           0           0
      0.000005  1.513016 18.583455            0           0           0
      9.858107  3.026027 18.728725            0           0           0
      9.856993  1.512770 22.115307            0           0           0
     13.143571  3.025849 21.795887            0           0           0
      9.857811  4.539335  8.783731            0           0           0
      0.000000  6.052447  8.783731            0           0           0
      0.000000  4.539335 12.069667            0           0           0
      9.857811  6.052447 12.069667            0           0           0
      9.857811  4.539335 15.355604            0           0           0
      0.000000  6.052447 15.355604            0           0           0
     13.143745  4.539252 18.583130            0           0           0
      9.858394  6.052430 18.729073            0           0           0
      9.858209  4.537965 22.109740            0           0           0
      0.000005  6.052447 21.795236            0           0           0
      3.285937  7.565559  8.783731            0           0           0
      6.571874  9.078671  8.783731            0           0           0
      6.571874  7.565559 12.069667            0           0           0
      3.285937  9.078671 12.069667            0           0           0
      3.285937  7.565559 15.355604            0           0           0
      6.571874  9.078671 15.355604            0           0           0
      6.571883  7.561015 18.594816            0           0           0
      3.285641  9.078866 18.728729            0           0           0
      3.285552  7.566925 22.109756            0           0           0
      6.571876  9.080415 21.791018            0           0           0
      3.285937 10.591783  8.783731            0           0           0
      6.571874  0.000000  8.783731            0           0           0
      6.571874 10.591783 12.069667            0           0           0
      3.285937  0.000000 12.069667            0           0           0
      3.285937 10.591783 15.355604            0           0           0
[...]
      6.571874  6.052447 13.353398            0           0           0
      4.569667  4.539335 12.069667            0           0           0
      8.574080  4.539335 12.069667            0           0           0
      3.285937  6.052447 14.071874            0           0           0
      3.285937  6.052447 16.639335            0           0           0
      7.855604  4.539335 15.355604            0           0           0
      5.288143  4.539335 15.355604            0           0           0
      6.571874  6.052447 17.368054            0           0           0
      6.571872  6.052447 19.947724            0           0           0
      4.593638  4.539365 18.654149            0           0           0
      8.550104  4.539398 18.654106            0           0           0
      3.278761  6.052592 20.645455            0           0           0
      3.297443  6.051954 23.217798            0           0           0
      7.802277  4.530380 22.072995            0           0           0
      5.340933  4.530084 22.071015            0           0           0

  15 f/i=    0.725216 THz     4.556664 2PiTHz   24.190588 cm-1     2.999249 meV
             X         Y         Z           dx          dy          dz
      6.572628  6.052351 24.960668    -0.005766   -0.620731   -0.031792
      6.522928  6.949515 25.587415     0.016653   -0.421910    0.340678
      6.622483  5.155508 25.587459     0.002703   -0.422960   -0.359458
      7.497506  6.101640 24.366166    -0.012249    0.065886   -0.005380
      5.647649  6.003154 24.366398    -0.013662    0.079629   -0.011936
      9.857811  7.565559  8.783731            0           0           0
      0.000000  9.078671  8.783731            0           0           0
      0.000000  7.565559 12.069667            0           0           0
      9.857811  9.078671 12.069667            0           0           0
      9.857811  7.565559 15.355604            0           0           0
      0.000000  9.078671 15.355604            0           0           0
      0.000003  7.565642 18.583130            0           0           0
      9.858137  9.078905 18.728513            0           0           0
      9.858636  7.567263 22.108855            0           0           0
      0.000183  9.079045 21.795887            0           0           0
      9.857811 10.591783  8.783731            0           0           0
      0.000000  0.000000  8.783731            0           0           0
      0.000000 10.591783 12.069667            0           0           0
      9.857811  0.000000 12.069667            0           0           0
      9.857811 10.591783 15.355604            0           0           0
      0.000000  0.000000 15.355604            0           0           0
     13.143743 10.591878 18.583455            0           0           0
      9.857696  0.000011 18.730046            0           0           0
      9.857087 10.592243 22.115293            0           0           0
     13.143747 12.104894 21.796219            0           0           0
      9.857811  1.513112  8.783731            0           0           0
      0.000000  3.026224  8.783731            0           0           0
      0.000000  1.513112 12.069667            0           0           0
      9.857811  3.026224 12.069667            0           0           0
      9.857811  1.513112 15.355604            0           0           0
      0.000000  3.026224 15.355604            0           0           0
      0.000005  1.513016 18.583455            0           0           0
      9.858107  3.026027 18.728725            0           0           0
      9.856993  1.512770 22.115307            0           0           0
     13.143571  3.025849 21.795887            0           0           0
      9.857811  4.539335  8.783731            0           0           0
      0.000000  6.052447  8.783731            0           0           0
      0.000000  4.539335 12.069667            0           0           0
      9.857811  6.052447 12.069667            0           0           0
      9.857811  4.539335 15.355604            0           0           0
      0.000000  6.052447 15.355604            0           0           0
     13.143745  4.539252 18.583130            0           0           0
      9.858394  6.052430 18.729073            0           0           0
      9.858209  4.537965 22.109740            0           0           0
      0.000005  6.052447 21.795236            0           0           0
      3.285937  7.565559  8.783731            0           0           0
      6.571874  9.078671  8.783731            0           0           0
      6.571874  7.565559 12.069667            0           0           0
      3.285937  9.078671 12.069667            0           0           0
      3.285937  7.565559 15.355604            0           0           0
      6.571874  9.078671 15.355604            0           0           0
      6.571883  7.561015 18.594816            0           0           0
      3.285641  9.078866 18.728729            0           0           0
      3.285552  7.566925 22.109756            0           0           0
      6.571876  9.080415 21.791018            0           0           0
      3.285937 10.591783  8.783731            0           0           0
      6.571874  0.000000  8.783731            0           0           0
      6.571874 10.591783 12.069667            0           0           0
      3.285937  0.000000 12.069667            0           0           0
      3.285937 10.591783 15.355604            0           0           0
[...]
      6.571874  6.052447 13.353398            0           0           0
      4.569667  4.539335 12.069667            0           0           0
      8.574080  4.539335 12.069667            0           0           0
      3.285937  6.052447 14.071874            0           0           0
      3.285937  6.052447 16.639335            0           0           0
      7.855604  4.539335 15.355604            0           0           0
      5.288143  4.539335 15.355604            0           0           0
      6.571874  6.052447 17.368054            0           0           0
      6.571872  6.052447 19.947724            0           0           0
      4.593638  4.539365 18.654149            0           0           0
      8.550104  4.539398 18.654106            0           0           0
      3.278761  6.052592 20.645455            0           0           0
      3.297443  6.051954 23.217798            0           0           0
      7.802277  4.530380 22.072995            0           0           0
      5.340933  4.530084 22.071015            0           0           0

 Finite differences POTIM=   1.0000000000000000E-002