 vasp.6.3.0 20Jan22 (build Apr  1 2022 16:44:48) complex
 executed on        HPECrayEX_GCC date 2023.02.23  15:21:49

 INCAR:
   SYSTEM = MgO-rocksalt
   ISMEAR = 0
   SIGMA = 0.05
   EDIFF = 1E-8
   ALGO = ALL
   ISTART = 0
   IBRION = 5
   POTIM = 0.01
   NFREE = 2
   ISYM = 0
   DIPOL = 0.5 0.5 0.5
   IDIPOL = 3
   LDIPOL = .TRUE.
   GGA = MK
   LUSE_VDW = .TRUE.
   PARAM1 = 0.1234
   PARAM2 = 0.711357
   ZAB_VDW = -1.8867
   AGGAC = 0.0
   ENCUT = 600
   PREC = Accurate
   LASPH = .TRUE.
   LREAL = .FALSE.
   ISPIN = 1
   NELM = 200
   NELMIN = 8
   NCORE = 8
   KPAR = 1
   LWAVE = .FALSE.
   LCHARG = .FALSE.

 POTCAR:    PAW_PBE N 08Apr2002
 POTCAR:    PAW_PBE H 15Jun2001
 POTCAR:    PAW_PBE Mg_pv 13Apr2007
 POTCAR:    PAW_PBE O 08Apr2002
|               ----> ADVICE to this user running VASP <----                  |
|     You have switched on vdW-DFT.                                           |
|     This routine was written and supplied by Jiri Klimes. We recommend      |
|     that you carefully read and cite the following publications:            |
|       J. Klimes, D.R. Bowler, A. Michelides                                 |
|          J. Phys.: Cond Matt. 22 022201 (2010)                              |
|       J. Klimes, D.R. Bowler, A. Michelides                                 |
|          Phys. Rev. B. 83, 195131 (2011)                                    |
|     and references therein.                                                 |

   TITEL  = PAW_PBE N 08Apr2002
   POMASS =   14.001; ZVAL   =    5.000    mass and valenz
   ENMAX  =  400.000; ENMIN  =  300.000 eV

   TITEL  = PAW_PBE H 15Jun2001
   POMASS =    1.000; ZVAL   =    1.000    mass and valenz
   ENMAX  =  250.000; ENMIN  =  200.000 eV

   TITEL  = PAW_PBE Mg_pv 13Apr2007
   POMASS =   24.305; ZVAL   =    8.000    mass and valenz
   ENMAX  =  403.929; ENMIN  =  302.947 eV

   TITEL  = PAW_PBE O 08Apr2002
   POMASS =   16.000; ZVAL   =    6.000    mass and valenz
   ENMAX  =  400.000; ENMIN  =  300.000 eV

  PAW_PBE N 08Apr2002                   :
  PAW_PBE H 15Jun2001                   :
  PAW_PBE Mg_pv 13Apr2007               :
  PAW_PBE O 08Apr2002                   :

 POSCAR:  N  H Mg  O
  positions in direct lattice
 exchange correlation table for  LEXCH =       43
   RHO(1)=    0.500       N(1)  =     2000
   RHO(2)=  100.500       N(2)  =     4000

 ion  position               nearest neighbor table
   1  0.500  0.513  0.759-   3 1.02   4 1.02   2 1.02
   2  0.500  0.632  0.768-   1 1.02
   3  0.402  0.464  0.780-   1 1.02
   4  0.598  0.464  0.780-   1 1.02
   5  0.250  0.000  0.352-  37 2.11  39 2.11  40 2.11  47 2.11  56 2.11
   6  0.500  0.250  0.352-  38 2.11  39 2.11  40 2.11  48 2.11  55 2.11
   7  0.250  0.250  0.451-  39 2.11  38 2.11  37 2.11  45 2.11  54 2.11  43 2.11
   8  0.500  0.000  0.451-  44 2.11  40 2.11  37 2.11  38 2.11  46 2.11  53 2.11
   9  0.250  1.000  0.550-  44 2.11  43 2.11  51 2.11  60 2.11  37 2.11  41 2.15
  10  0.500  0.251  0.550-  52 2.10  59 2.11  43 2.11  44 2.12  38 2.13  42 2.13
  11  0.250  0.249  0.648-  43 2.09  41 2.11  58 2.11  42 2.11  49 2.11
  12  0.500  0.000  0.648-  42 2.08  50 2.09  44 2.09  57 2.12  41 2.12
  13  0.250  0.500  0.352-  45 2.11  39 2.11  47 2.11  48 2.11  64 2.11
  14  0.500  0.750  0.352-  46 2.11  40 2.11  47 2.11  48 2.11  63 2.11
  15  0.250  0.750  0.451-  47 2.11  45 2.11  46 2.11  37 2.11  62 2.11  51 2.11
  16  0.500  0.500  0.451-  48 2.11  45 2.11  46 2.11  38 2.11  61 2.11  52 2.13
  17  0.251  0.500  0.550-  52 2.10  43 2.11  51 2.11  68 2.12  45 2.13  49 2.13
  18  0.500  0.749  0.550-  52 2.10  51 2.11  67 2.11  44 2.12  46 2.13  50 2.14
  19  0.250  0.750  0.647-  51 2.09  66 2.11  41 2.11  49 2.11  50 2.11
  20  0.500  0.499  0.655-  42 2.13  49 2.14  65 2.14  50 2.15  52 2.22
  21  0.750  0.000  0.352-  53 2.11  40 2.11  55 2.11  56 2.11  63 2.11
  22  0.000  0.250  0.352-  54 2.11  39 2.11  55 2.11  56 2.11  64 2.11
  23  0.750  0.250  0.451-  55 2.11  53 2.11  54 2.11  38 2.11  61 2.11  59 2.11
  24  0.000  0.000  0.451-  56 2.11  53 2.11  54 2.11  37 2.11  62 2.11  60 2.11
  25  0.750  1.000  0.550-  44 2.11  59 2.11  67 2.11  60 2.11  53 2.11  57 2.15
  26  1.000  0.250  0.550-  68 2.11  59 2.11  43 2.11  60 2.11  54 2.11  58 2.15
  27  0.750  0.249  0.648-  59 2.09  57 2.11  58 2.11  42 2.11  65 2.11
  28  0.000  1.000  0.648-  60 2.10  58 2.11  41 2.11  57 2.11  66 2.11
  29  0.750  0.500  0.352-  61 2.11  55 2.11  48 2.11  63 2.11  64 2.11
  30  0.000  0.750  0.352-  62 2.11  56 2.11  47 2.11  63 2.11  64 2.11
  31  0.750  0.750  0.451-  63 2.11  53 2.11  61 2.11  62 2.11  46 2.11  67 2.11
  32  0.000  0.500  0.451-  68 2.11  64 2.11  61 2.11  62 2.11  45 2.11  54 2.11
  33  0.749  0.500  0.550-  52 2.10  59 2.11  67 2.11  68 2.12  61 2.13  65 2.13
  34  0.000  0.750  0.550-  68 2.11  51 2.11  67 2.11  60 2.11  62 2.11  66 2.14
  35  0.750  0.750  0.647-  67 2.09  66 2.11  57 2.11  65 2.11  50 2.11
  36  0.000  0.500  0.648-  49 2.09  65 2.09  68 2.09  58 2.12  66 2.12
  37  0.250  0.000  0.451-   5 2.11   7 2.11   8 2.11  15 2.11  24 2.11   9 2.11
  38  0.500  0.250  0.451-   6 2.11   7 2.11   8 2.11  16 2.11  23 2.11  10 2.13
  39  0.250  0.250  0.352-   7 2.11   6 2.11   5 2.11  13 2.11  22 2.11
  40  0.500  0.000  0.352-   8 2.11   6 2.11   5 2.11  14 2.11  21 2.11
  41  0.249  1.000  0.650-  28 2.11  11 2.11  19 2.11  12 2.12   9 2.15
  42  0.500  0.247  0.650-  12 2.08  11 2.11  27 2.11  20 2.13  10 2.13
  43  0.250  0.250  0.550-  11 2.09  26 2.11   9 2.11  17 2.11  10 2.11   7 2.11
  44  0.500  1.000  0.549-  12 2.09  25 2.11   9 2.11   8 2.11  18 2.12  10 2.12
  45  0.250  0.500  0.451-  13 2.11   7 2.11  15 2.11  16 2.11  32 2.11  17 2.13
  46  0.500  0.750  0.451-  14 2.11   8 2.11  15 2.11  16 2.11  31 2.11  18 2.13
  47  0.250  0.750  0.352-  15 2.11  13 2.11  14 2.11   5 2.11  30 2.11
  48  0.500  0.500  0.352-  16 2.11  13 2.11  14 2.11   6 2.11  29 2.11
  49  0.247  0.500  0.650-  36 2.09  19 2.11  11 2.11  17 2.13  20 2.14
  50  0.500  0.753  0.651-  12 2.09  19 2.11  35 2.11  18 2.14  20 2.15
  51  0.250  0.750  0.550-  19 2.09   9 2.11  34 2.11  18 2.11  17 2.11  15 2.11
  52  0.500  0.500  0.550-  18 2.10  33 2.10  17 2.10  10 2.10  16 2.13  20 2.22
  53  0.750  0.000  0.451-  21 2.11   8 2.11  23 2.11  24 2.11  31 2.11  25 2.11
  54  0.000  0.250  0.451-  22 2.11   7 2.11  23 2.11  24 2.11  32 2.11  26 2.11
  55  0.750  0.250  0.352-  23 2.11  21 2.11  22 2.11   6 2.11  29 2.11
  56  0.000  0.000  0.352-  24 2.11  21 2.11  22 2.11   5 2.11  30 2.11
  57  0.751  1.000  0.650-  28 2.11  27 2.11  35 2.11  12 2.12  25 2.15
  58  0.000  0.249  0.650-  28 2.11  11 2.11  27 2.11  36 2.12  26 2.15
  59  0.750  0.250  0.550-  27 2.09  26 2.11  25 2.11  33 2.11  10 2.11  23 2.11
  60  1.000  1.000  0.550-  28 2.10  24 2.11  34 2.11  25 2.11   9 2.11  26 2.11
  61  0.750  0.500  0.451-  29 2.11  23 2.11  16 2.11  31 2.11  32 2.11  33 2.13
  62  0.000  0.750  0.451-  30 2.11  24 2.11  15 2.11  31 2.11  32 2.11  34 2.11
  63  0.750  0.750  0.352-  31 2.11  21 2.11  29 2.11  30 2.11  14 2.11
  64  0.000  0.500  0.352-  32 2.11  22 2.11  29 2.11  30 2.11  13 2.11
  65  0.753  0.500  0.650-  36 2.09  35 2.11  27 2.11  33 2.13  20 2.14
  66  0.000  0.750  0.650-  28 2.11  19 2.11  35 2.11  36 2.12  34 2.14
  67  0.750  0.750  0.550-  35 2.09  25 2.11  34 2.11  18 2.11  33 2.11  31 2.11
  68  1.000  0.500  0.549-  36 2.09  34 2.11  26 2.11  32 2.11  33 2.12  17 2.12

IMPORTANT INFORMATION: All symmetrisations will be switched off!
NOSYMM: (Re-)initialisation of all symmetry stuff for point group C_1.

                                     Primitive cell

  volume of cell :    1519.6535

  direct lattice vectors                    reciprocal lattice vectors
     8.440582262  0.000000000  0.000000000     0.118475239  0.000000000  0.000000000
     0.000000000  8.440582262  0.000000000     0.000000000  0.118475239  0.000000000
     0.000000000  0.000000000 21.330436697     0.000000000  0.000000000  0.046881366

  length of vectors
     8.440582262  8.440582262 21.330436697     0.118475239  0.118475239  0.046881366

  position of ions in fractional coordinates (direct lattice)
     0.500000016  0.512727331  0.759489343
     0.500000020  0.631902709  0.768423920
     0.401622346  0.464441377  0.779908865
     0.598377727  0.464441393  0.779908863
     0.250000000  0.000000000  0.351610242
     0.500000000  0.250000000  0.351610242
     0.250000000  0.250000000  0.450536747
     0.500000000  0.000000000  0.450536747
     0.250260182  0.999860251  0.549678190
     0.500000020  0.251123605  0.550301925
     0.249776406  0.249438090  0.647519877
     0.500000006  0.000058106  0.647638248
     0.250000000  0.500000000  0.351610242
     0.500000000  0.750000000  0.351610242
     0.250000000  0.750000000  0.450536747
     0.500000000  0.500000000  0.450536747
     0.251295244  0.499807842  0.550351677
     0.499999991  0.748557874  0.550392014
     0.249569129  0.749979486  0.647466983
     0.499999991  0.498607096  0.654631564
     0.750000000  0.000000000  0.351610242
     0.000000000  0.250000000  0.351610242
     0.750000000  0.250000000  0.450536747
     0.000000000  0.000000000  0.450536747
     0.749739797  0.999860274  0.549678211
     0.999999979  0.250113073  0.549674442
     0.750223602  0.249438070  0.647519885
     0.000000010  0.999791920  0.647897593
     0.750000000  0.500000000  0.351610242
     0.000000000  0.750000000  0.351610242
     0.750000000  0.750000000  0.450536747
     0.000000000  0.500000000  0.450536747
     0.748704749  0.499807810  0.550351729
     0.000000002  0.749575326  0.549673924
     0.750430876  0.749979507  0.647466991
     0.000000021  0.499703594  0.647651095
     0.250000000  0.000000000  0.450536747
     0.500000000  0.250000000  0.450536747
     0.250000000  0.250000000  0.351610242
     0.500000000  0.000000000  0.351610242
     0.249357415  0.999764722  0.650244758
     0.499999989  0.246992516  0.650084017
     0.249841465  0.249714907  0.549611444
     0.500000013  0.999778971  0.549452976
     0.250000000  0.500000000  0.450536747
     0.500000000  0.750000000  0.450536747
     0.250000000  0.750000000  0.351610242
     0.500000000  0.500000000  0.351610242
     0.247174641  0.499732351  0.650286192
     0.499999996  0.752908910  0.650604496
     0.249942590  0.749963878  0.549656397
     0.500000016  0.499937500  0.550497276
     0.750000000  0.000000000  0.450536747
     0.000000000  0.250000000  0.450536747
     0.750000000  0.250000000  0.351610242
     0.000000000  0.000000000  0.351610242
     0.750642585  0.999764715  0.650244794
     0.000000026  0.249147452  0.650263053
     0.750158519  0.249714917  0.549611465
     0.999999989  0.999820762  0.549536835
     0.750000000  0.500000000  0.450536747
     0.000000000  0.750000000  0.450536747
     0.750000000  0.750000000  0.351610242
     0.000000000  0.500000000  0.351610242
     0.752825378  0.499732345  0.650286245
     0.000000017  0.750372505  0.650226287
     0.750057397  0.749963872  0.549656411
     0.999999977  0.499873592  0.549452345

  ion indices of the primitive-cell ions
[...]
      0.00000      2.11015      7.50000         0.000006      0.001943      0.314996
      6.33044      2.11015      9.61015        -0.015334      0.015846      0.017481
      0.00000      0.00000      9.61015         0.000036     -0.000617      0.004792
      6.32824      8.43940     11.72488        -0.002507      0.000880     -0.004012
      8.44058      2.11110     11.72480         0.000172      0.002994     -0.003683
      6.33232      2.10540     13.81188         0.000876     -0.000477     -0.004317
      0.00000      8.43883     13.81994         0.000067      0.000753     -0.001867
      6.33044      4.22029      7.50000        -0.003024      0.000086      0.322219
      0.00000      6.33044      7.50000         0.000006     -0.001869      0.313855
      6.33044      6.33044      9.61015        -0.020612     -0.019884      0.018541
      0.00000      4.22029      9.61015         0.000017     -0.003013      0.042111
      6.31950      4.21867     11.73924        -0.000067      0.001177     -0.007645
      0.00000      6.32685     11.72478         0.000184     -0.001936     -0.004544
      6.33407      6.33026     13.81075        -0.000906      0.002098     -0.004134
      0.00000      4.21779     13.81468         0.001687      0.001355     -0.002267
      2.11015      0.00000      9.61015        -0.011012     -0.003517      0.045441
      4.22029      2.11015      9.61015         0.000044      0.010359      0.066056
      2.11015      2.11015      7.50000        -0.003565     -0.003974     -0.402367
      4.22029      0.00000      7.50000         0.000010      0.000537     -0.402982
      2.10472      8.43860     13.87000        -0.003481      0.001215     -0.000055
      4.22029      2.08476     13.86658         0.001132      0.001918      0.004420
      2.10881      2.10774     11.72345        -0.002257     -0.001799      0.004192
      4.22029      8.43872     11.72007         0.000076      0.001525      0.003216
      2.11015      4.22029      9.61015         0.012623     -0.001739      0.066318
      4.22029      6.33044      9.61015         0.000046     -0.014780      0.066709
      2.11015      6.33044      7.50000        -0.004366      0.003928     -0.402410
      4.22029      4.22029      7.50000         0.000008     -0.000539     -0.409324
      2.08630      4.21803     13.87089        -0.001234      0.000109      0.001061
      4.22029      6.35499     13.87768         0.000875      0.001533      0.000903
      2.10966      6.33013     11.72441        -0.002829      0.003613      0.002759
      4.22029      4.21976     11.74235         0.000433     -0.000438      0.002010
      6.33044      0.00000      9.61015         0.011011     -0.003520      0.045534
      0.00000      2.11015      9.61015        -0.000041     -0.013410      0.043656
      6.33044      2.11015      7.50000         0.003566     -0.003975     -0.402352
      0.00000      0.00000      7.50000        -0.000009     -0.000256     -0.398490
      6.33586      8.43860     13.87001         0.003510      0.001282      0.000019
      0.00000      2.10295     13.87039        -0.000630     -0.002026      0.000453
      6.33177      2.10774     11.72345         0.002311     -0.001393      0.004546
      8.44058      8.43907     11.72186        -0.000085      0.001129      0.004190
      6.33044      4.22029      9.61015        -0.012630     -0.001736      0.066390
      0.00000      6.33044      9.61015        -0.000044      0.008623      0.047708
      6.33044      6.33044      7.50000         0.004367      0.003929     -0.402395
      0.00000      4.22029      7.50000        -0.000008      0.000240     -0.402999
      6.35428      4.21803     13.87089        -0.001487     -0.000236      0.005999
      0.00000      6.33358     13.86961        -0.000562      0.004226     -0.000367
      6.33092      6.33013     11.72441         0.002870      0.003185      0.003159
      8.44058      4.21922     11.72006        -0.000619      0.000315      0.003271
    total drift:                               -0.000017     -0.006521     -0.014096

  FREE ENERGIE OF THE ION-ELECTRON SYSTEM (eV)
  free  energy   TOTEN  =      -283.39026908 eV

  energy  without entropy=     -283.39026908  energy(sigma->0) =     -283.39026908

 d Force =-0.1371141E-03[-0.185E-02, 0.158E-02]  d Energy =-0.1433205E-03 0.621E-05
 d Force =-0.5640180E+01[-0.564E+01,-0.564E+01]  d Ewald  =-0.5640299E+01 0.118E-03

 Finite differences progress:
  Degree of freedom:  12/ 12
  Displacement:        2/  2
  Total:              24/ 24

 SECOND DERIVATIVES (NOT SYMMETRIZED)
               1X          1Y          1Z          2X          2Y          2Z          3X          3Y          3Z          4X          4Y          4Z
  1X   -60.452120    0.000123   -0.000612    5.483465   -0.000005   -0.000064   26.965764   10.120313  -14.449779   26.965860  -10.120360   14.449688
  1Y     0.000426  -58.575327    6.708593    0.000323   37.014545    9.103848   10.720335   10.279861   -7.861214  -10.721285   10.280845   -7.862011
  1Z     0.000089    6.723913  -23.546295    0.000016    4.773017    2.992883  -10.743811   -5.714260    8.678966   10.743775   -5.714236    8.678925
  2X     5.485356   -0.000409    0.003704   -5.411182   -0.000838    0.000610   -0.085451    3.146552    0.740304   -0.088664   -3.144682   -0.740963
  2Y     0.000598   37.016669    4.781075   -0.000843  -39.655637   -6.309938   -0.280709    1.226573    0.650728    0.280072    1.226385    0.650344
  2Z    -0.000051    9.095001    2.992589   -0.000009   -6.303969   -3.239595   -0.115880   -1.741456    0.073163    0.115880   -1.741468    0.073151
  3X    26.968318   10.730480  -10.749087   -0.085937   -0.280039   -0.117606  -29.080526  -11.821407   12.602508    2.155158    1.358701   -1.629271
  3Y    10.108663   10.281646   -5.707100    3.146394    1.226401   -1.742399  -11.811917  -10.928573    6.723523   -1.356030   -0.633405    0.750199
  3Z   -14.438154   -7.861930    8.680665    0.739903    0.649363    0.074069   12.593473    6.724808   -8.583728    1.628041    0.748970   -0.296990
  4X    26.968005  -10.731115   10.750830   -0.086190    0.278979    0.117433    2.155843   -1.358045    1.627641  -29.081286   11.821551  -12.602493
  4Y   -10.111266   10.283135   -5.713941   -3.146619    1.223336   -1.743019    1.357517   -0.632683    0.749381   11.811035  -10.928052    6.724384
  4Z    14.437593   -7.861658    8.680601   -0.739899    0.649437    0.074082   -1.628015    0.748988   -0.297018  -12.593188    6.724783   -8.583636

 Eigenvectors and eigenvalues of the dynamical matrix

   1 f  =  104.815455 THz   658.574924 2PiTHz 3496.267227 cm-1   433.481694 meV
             X         Y         Z           dx          dy          dz
      4.220291  4.327717 16.200239     0.284765   -0.000074    0.000027
      4.220291  5.333627 16.390818     0.021031    0.000160    0.000034
      3.389926  3.920156 16.635797    -0.545623   -0.281008    0.287043
      5.050656  3.920156 16.635797    -0.545820    0.281118   -0.287152
      2.110146  0.000000  7.500000            0           0           0
      4.220291  2.110146  7.500000            0           0           0
      2.110146  2.110146  9.610146            0           0           0
      4.220291  0.000000  9.610146            0           0           0
      2.112342  8.439403 11.724876            0           0           0
      4.220291  2.119629 11.738180            0           0           0
      2.108258  2.105403 13.811882            0           0           0
      4.220291  0.000490 13.814407            0           0           0
      2.110146  4.220291  7.500000            0           0           0
      4.220291  6.330437  7.500000            0           0           0
      2.110146  6.330437  9.610146            0           0           0
      4.220291  4.220291  9.610146            0           0           0
      2.121078  4.218669 11.739242            0           0           0
      4.220291  6.318264 11.740102            0           0           0
      2.106509  6.330264 13.810753            0           0           0
      4.220291  4.208534 13.963577            0           0           0
      6.330437  0.000000  7.500000            0           0           0
      0.000000  2.110146  7.500000            0           0           0
      6.330437  2.110146  9.610146            0           0           0
      0.000000  0.000000  9.610146            0           0           0
      6.328240  8.439403 11.724876            0           0           0
      8.440582  2.111100 11.724796            0           0           0
      6.332324  2.105403 13.811882            0           0           0
      0.000000  8.438826 13.819939            0           0           0
      6.330437  4.220291  7.500000            0           0           0
      0.000000  6.330437  7.500000            0           0           0
      6.330437  6.330437  9.610146            0           0           0
      0.000000  4.220291  9.610146            0           0           0
      6.319504  4.218669 11.739243            0           0           0
      0.000000  6.326852 11.724785            0           0           0
      6.334074  6.330264 13.810754            0           0           0
      0.000000  4.217789 13.814681            0           0           0
      2.110146  0.000000  9.610146            0           0           0
      4.220291  2.110146  9.610146            0           0           0
      2.110146  2.110146  7.500000            0           0           0
      4.220291  0.000000  7.500000            0           0           0
      2.104722  8.438596 13.870005            0           0           0
      4.220291  2.084761 13.866576            0           0           0
      2.108807  2.107739 11.723452            0           0           0
      4.220291  8.438717 11.720072            0           0           0
      2.110146  4.220291  9.610146            0           0           0
      4.220291  6.330437  9.610146            0           0           0
      2.110146  6.330437  7.500000            0           0           0
      4.220291  4.220291  7.500000            0           0           0
      2.086298  4.218032 13.870888            0           0           0
      4.220291  6.354990 13.877678            0           0           0
      2.109661  6.330132 11.724411            0           0           0
      4.220291  4.219764 11.742347            0           0           0
      6.330437  0.000000  9.610146            0           0           0
      0.000000  2.110146  9.610146            0           0           0
      6.330437  2.110146  7.500000            0           0           0
      0.000000  0.000000  7.500000            0           0           0
      6.335860  8.438596 13.870005            0           0           0
      0.000000  2.102950 13.870395            0           0           0
      6.331775  2.107739 11.723453            0           0           0
      8.440582  8.439069 11.721861            0           0           0
      6.330437  4.220291  9.610146            0           0           0
      0.000000  6.330437  9.610146            0           0           0
      6.330437  6.330437  7.500000            0           0           0
      0.000000  4.220291  7.500000            0           0           0
      6.354285  4.218032 13.870890            0           0           0
      0.000000  6.333581 13.869611            0           0           0
      6.330921  6.330132 11.724411            0           0           0
      8.440582  4.219224 11.720058            0           0           0

[...]

  12 f  =    0.701224 THz     4.405921 2PiTHz   23.390317 cm-1     2.900028 meV
             X         Y         Z           dx          dy          dz
      4.220291  4.327717 16.200239     0.556930   -0.005535   -0.001482
      4.220291  5.333627 16.390818    -0.180181   -0.001819    0.001279
      3.389926  3.920156 16.635797     0.421606   -0.325811    0.213904
      5.050656  3.920156 16.635797     0.421561    0.321406   -0.215988
      2.110146  0.000000  7.500000            0           0           0
      4.220291  2.110146  7.500000            0           0           0
      2.110146  2.110146  9.610146            0           0           0
      4.220291  0.000000  9.610146            0           0           0
      2.112342  8.439403 11.724876            0           0           0
      4.220291  2.119629 11.738180            0           0           0
      2.108258  2.105403 13.811882            0           0           0
      4.220291  0.000490 13.814407            0           0           0
      2.110146  4.220291  7.500000            0           0           0
      4.220291  6.330437  7.500000            0           0           0
      2.110146  6.330437  9.610146            0           0           0
      4.220291  4.220291  9.610146            0           0           0
      2.121078  4.218669 11.739242            0           0           0
      4.220291  6.318264 11.740102            0           0           0
      2.106509  6.330264 13.810753            0           0           0
      4.220291  4.208534 13.963577            0           0           0
      6.330437  0.000000  7.500000            0           0           0
      0.000000  2.110146  7.500000            0           0           0
      6.330437  2.110146  9.610146            0           0           0
      0.000000  0.000000  9.610146            0           0           0
      6.328240  8.439403 11.724876            0           0           0
      8.440582  2.111100 11.724796            0           0           0
      6.332324  2.105403 13.811882            0           0           0
      0.000000  8.438826 13.819939            0           0           0
      6.330437  4.220291  7.500000            0           0           0
      0.000000  6.330437  7.500000            0           0           0
      6.330437  6.330437  9.610146            0           0           0
      0.000000  4.220291  9.610146            0           0           0
      6.319504  4.218669 11.739243            0           0           0
      0.000000  6.326852 11.724785            0           0           0
      6.334074  6.330264 13.810754            0           0           0
      0.000000  4.217789 13.814681            0           0           0
      2.110146  0.000000  9.610146            0           0           0
      4.220291  2.110146  9.610146            0           0           0
      2.110146  2.110146  7.500000            0           0           0
      4.220291  0.000000  7.500000            0           0           0
      2.104722  8.438596 13.870005            0           0           0
      4.220291  2.084761 13.866576            0           0           0
      2.108807  2.107739 11.723452            0           0           0
      4.220291  8.438717 11.720072            0           0           0
      2.110146  4.220291  9.610146            0           0           0
      4.220291  6.330437  9.610146            0           0           0
      2.110146  6.330437  7.500000            0           0           0
      4.220291  4.220291  7.500000            0           0           0
      2.086298  4.218032 13.870888            0           0           0
      4.220291  6.354990 13.877678            0           0           0
      2.109661  6.330132 11.724411            0           0           0
      4.220291  4.219764 11.742347            0           0           0
      6.330437  0.000000  9.610146            0           0           0
      0.000000  2.110146  9.610146            0           0           0
      6.330437  2.110146  7.500000            0           0           0
      0.000000  0.000000  7.500000            0           0           0
      6.335860  8.438596 13.870005            0           0           0
      0.000000  2.102950 13.870395            0           0           0
      6.331775  2.107739 11.723453            0           0           0
      8.440582  8.439069 11.721861            0           0           0
      6.330437  4.220291  9.610146            0           0           0
      0.000000  6.330437  9.610146            0           0           0
      6.330437  6.330437  7.500000            0           0           0
      0.000000  4.220291  7.500000            0           0           0
      6.354285  4.218032 13.870890            0           0           0
      0.000000  6.333581 13.869611            0           0           0
      6.330921  6.330132 11.724411            0           0           0
      8.440582  4.219224 11.720058            0           0           0

 Finite differences POTIM=   1.0000000000000000E-002