 vasp.6.3.0 20Jan22 (build Mar 11 2022 13:48:16) complex

 executed on             LinuxIFC date 2024.02.13  19:40:00

 INCAR:
   SYSTEM = Oxide-Surface
   ISMEAR = 0
   SIGMA = 0.05
   EDIFF = 1E-5
   ALGO = ALL
   ISTART = 0
   IBRION = -1
   NSW = 0
   ISYM = 2
   DIPOL = 0.5 0.5 0.5
   IDIPOL = 3
   LDIPOL = .TRUE.
   GGA = PE
   IVDW = 11
   ENCUT = 600
   PREC = Accurate
   LASPH = .TRUE.
   LREAL = .FALSE.
   ISPIN = 1
   NELM = 200
   NELMIN = 8
   NCORE = 19
   KPAR = 1
   LWAVE = .FALSE.
   LCHARG = .FALSE.

 POTCAR:    PAW_PBE Ti_pv 07Sep2000
 POTCAR:    PAW_PBE O 08Apr2002
 POTCAR:    PAW_PBE Ti_pv 07Sep2000
   VRHFIN =Ti: d3 s1

   TITEL  = PAW_PBE Ti_pv 07Sep2000
   POMASS =   47.880; ZVAL   =   10.000    mass and valenz
   ENMAX  =  222.335; ENMIN  =  166.751 eV

   TITEL  = PAW_PBE O 08Apr2002
   POMASS =   16.000; ZVAL   =    6.000    mass and valenz
   ENMAX  =  400.000; ENMIN  =  300.000 eV

  PAW_PBE Ti_pv 07Sep2000               :
  PAW_PBE O 08Apr2002                   :

 POSCAR: Ti  O
  positions in direct lattice
 exchange correlation table for  LEXCH =        8
   RHO(1)=    0.500       N(1)  =     2000
   RHO(2)=  100.500       N(2)  =     4000

 ion  position               nearest neighbor table
   1  0.750  0.625  0.287-  82 1.95 142 1.95 141 1.95  81 1.95  84 1.98 163 1.98  11 2.96  31 2.96

   2  0.000  0.750  0.287-  83 1.95  84 1.95 103 1.95 104 1.95  85 1.98  32 2.96  12 2.96
   3  0.000  0.625  0.394-  85 1.95 145 1.95  86 1.95 146 1.95  87 1.98  88 1.98  13 2.96  33 2.96

[...]

  80  0.500  0.500  0.709- 234 1.82 239 1.95 180 1.95 179 1.95 240 1.95  70 2.96  50 2.96
  81  0.750  0.750  0.245-   1 1.95  11 1.95
  82  0.750  0.750  0.329-   1 1.95  11 1.95   4 1.98
  83  0.098  0.625  0.287-   2 1.95  32 1.95  41 1.98
  84  0.902  0.625  0.287-   2 1.95  32 1.95   1 1.98
  85  0.000  0.750  0.352-   3 1.95  13 1.95   2 1.98
  86  0.000  0.750  0.435-   3 1.95  13 1.95   6 1.98
  87  0.848  0.625  0.394-   4 1.95  34 1.95   3 1.98
  88  0.152  0.625  0.394-  44 1.95  74 1.95   3 1.98
  89  0.750  0.750  0.458-   5 1.95  15 1.95   4 1.98
  90  0.750  0.750  0.542-   5 1.95  15 1.95   8 2.11
  91  0.098  0.625  0.500-   6 1.95  36 1.95  45 1.98
  92  0.902  0.625  0.500-   6 1.95  36 1.95   5 1.98
  93  0.000  0.750  0.565-  17 1.90   7 1.90   6 2.00
  94  0.000  0.750  0.649-  10 1.81   7 2.02  17 2.02
  95  0.850  0.625  0.607-   7 1.95   8 1.97  38 1.97
  96  0.150  0.625  0.607-   7 1.95  48 1.97  78 1.97
  97  0.750  0.750  0.672-   8 1.86   9 2.10  19 2.10
  98  0.750  0.750  0.756-   9 1.83  19 1.83
  99  0.094  0.625  0.719-  40 1.95  10 1.95  49 2.03
 100  0.906  0.625  0.719-  40 1.95  10 1.95   9 2.03
 101  0.750  0.000  0.245-  11 1.95  21 1.95
 102  0.750  0.000  0.329-  11 1.95  21 1.95  14 1.98
 103  0.098  0.875  0.287-   2 1.95  12 1.95  51 1.98
 104  0.902  0.875  0.287-   2 1.95  12 1.95  11 1.98
 105  0.000  0.000  0.352-  13 1.95  23 1.95  12 1.98
 106  0.000  0.000  0.435-  13 1.95  23 1.95  16 1.98
 107  0.848  0.875  0.394-   4 1.95  14 1.95  13 1.98
 108  0.152  0.875  0.394-  44 1.95  54 1.95  13 1.98
 109  0.750  0.000  0.458-  15 1.95  25 1.95  14 1.98
 110  0.750  0.000  0.542-  15 1.95  25 1.95  18 2.11
 111  0.098  0.875  0.500-   6 1.95  16 1.95  55 1.98
 112  0.902  0.875  0.500-   6 1.95  16 1.95  15 1.98
 113  0.000  0.000  0.565-  27 1.89  17 1.89  16 2.00
 114  1.000  0.000  0.649-  20 1.81  27 2.02  17 2.02
 115  0.850  0.875  0.607-  17 1.95   8 1.97  18 1.97
 116  0.150  0.875  0.607-  17 1.95  48 1.97  58 1.97
 117  0.750  0.000  0.672-  18 1.86  19 2.10  29 2.10
 118  0.750  0.000  0.756-  19 1.83  29 1.83
 119  0.094  0.875  0.719-  10 1.95  20 1.95  59 2.03
 120  0.906  0.875  0.719-  10 1.95  20 1.95  19 2.03
 121  0.750  0.250  0.245-  21 1.95  31 1.95
 122  0.750  0.250  0.329-  21 1.95  31 1.95  24 1.98
 123  0.098  0.125  0.287-  12 1.95  22 1.95  61 1.98
 124  0.902  0.125  0.287-  12 1.95  22 1.95  21 1.98
 125  0.000  0.250  0.352-  23 1.95  33 1.95  22 1.98
 126  0.000  0.250  0.435-  23 1.95  33 1.95  26 1.98
 127  0.848  0.125  0.394-  14 1.95  24 1.95  23 1.98
 128  0.152  0.125  0.394-  54 1.95  64 1.95  23 1.98
 129  0.750  0.250  0.458-  25 1.95  35 1.95  24 1.98
 130  0.750  0.250  0.542-  25 1.95  35 1.95  28 2.11
 131  0.098  0.125  0.500-  16 1.95  26 1.95  65 1.98
 132  0.902  0.125  0.500-  16 1.95  26 1.95  25 1.98
 133  0.000  0.250  0.565-  27 1.90  37 1.90  26 2.00
 134  1.000  0.250  0.649-  30 1.81  37 2.02  27 2.02
 135  0.850  0.125  0.607-  27 1.95  28 1.97  18 1.97
 136  0.150  0.125  0.607-  27 1.95  68 1.97  58 1.97
 137  0.750  0.250  0.672-  28 1.86  39 2.10  29 2.10
 138  0.750  0.250  0.756-  39 1.83  29 1.83
 139  0.094  0.125  0.719-  30 1.95  20 1.95  69 2.03
[...]
 226  0.500  0.500  0.435-  43 1.95  73 1.95  76 1.98
 227  0.348  0.375  0.394-  64 1.95  74 1.95  73 1.98
 228  0.652  0.375  0.394-  24 1.95  34 1.95  73 1.98
 229  0.250  0.500  0.458-  45 1.95  75 1.95  74 1.98
 230  0.250  0.500  0.542-  45 1.95  75 1.95  78 2.11
 231  0.598  0.375  0.500-  66 1.95  76 1.95  35 1.98
 232  0.402  0.375  0.500-  66 1.95  76 1.95  75 1.98
 233  0.500  0.500  0.565-  47 1.90  77 1.90  76 2.00
 234  0.500  0.500  0.649-  80 1.82  77 2.02  47 2.02
 235  0.350  0.375  0.607-  77 1.95  78 1.97  68 1.97
 236  0.650  0.375  0.607-  77 1.95  38 1.97  28 1.97
 237  0.249  0.500  0.672-  78 1.86  79 2.10  49 2.10
 238  0.251  0.500  0.756-  49 1.83  79 1.84
 239  0.594  0.374  0.718-  70 1.94  80 1.95  39 2.03
 240  0.406  0.374  0.718-  70 1.94  80 1.95  79 2.03

  LATTYP: Found a simple orthorhombic cell.
 ALAT       =    11.8303781148
 B/A-ratio  =     1.0992024327
 C/A-ratio  =     2.5825673970

  Lattice vectors:

 A1 = (   0.0000000000, -11.8303781148,   0.0000000000)
 A2 = (  13.0039804036,   0.0000000000,   0.0000000000)
 A3 = (   0.0000000000,   0.0000000000,  30.5527488131)

Analysis of symmetry for initial positions (statically):
 Subroutine PRICEL returns:
 Original cell was already a primitive cell.

 Routine SETGRP: Setting up the symmetry group for a
 simple orthorhombic supercell.

 Subroutine GETGRP returns: Found  2 space group operations
 (whereof  2 operations were pure point group operations)
 out of a pool of  8 trial point group operations.

The static configuration has the point symmetry C_2 .

Analysis of symmetry for dynamics (positions and initial velocities):
 Subroutine PRICEL returns:
 Original cell was already a primitive cell.

[...]

The dynamic configuration has the point symmetry C_2 .

Analysis of constrained symmetry for selective dynamics:
 Subroutine PRICEL returns:
 Original cell was already a primitive cell.

 Routine SETGRP: Setting up the symmetry group for a
 simple orthorhombic supercell.

 Subroutine GETGRP returns: Found  2 space group operations
 (whereof  2 operations were pure point group operations)
 out of a pool of  8 trial point group operations.

The constrained configuration has the point symmetry C_2 .

 Subroutine INISYM returns: Found  2 space group operations
 (whereof  2 operations are pure point group operations),
 and found     1 'primitive' translations

                                     Primitive cell

  volume of cell :    4700.2961

  direct lattice vectors                    reciprocal lattice vectors
    13.003980404  0.000000000  0.000000000     0.076899531  0.000000000  0.000000000
     0.000000000 11.830378115  0.000000000     0.000000000  0.084528152  0.000000000
     0.000000000  0.000000000 30.552748813     0.000000000  0.000000000  0.032730279

  length of vectors
    13.003980404 11.830378115 30.552748813     0.076899531  0.084528152  0.032730279

  position of ions in fractional coordinates (direct lattice)
     0.750000000  0.625000000  0.287188045
     0.000000000  0.750000000  0.287188045
     0.000000000  0.625000000  0.393594023
     0.750000000  0.750000000  0.393594023
     0.750000000  0.625000000  0.500000000
     0.000000000  0.750000000  0.500000000
     0.999998721  0.625016579  0.604133070
     0.750021371  0.750038293  0.610722288
     0.750117203  0.625133247  0.720287438
     0.000025088  0.750082327  0.708163002
     0.750000000  0.875000000  0.287188045
     0.000000000  0.000000000  0.287188045
     0.000000000  0.875000000  0.393594023
     0.750000000  0.000000000  0.393594023
     0.750000000  0.875000000  0.500000000
     0.000000000  0.000000000  0.500000000
     0.999995888  0.875019827  0.604149471
     0.749960154  0.000003634  0.610781080
     0.749868681  0.875032810  0.720490641
     0.999999839  0.999999986  0.708171277
     0.750000000  0.125000000  0.287188045
     0.000000000  0.250000000  0.287188045
     0.000000000  0.125000000  0.393594023
     0.750000000  0.250000000  0.393594023
     0.750000000  0.125000000  0.500000000
     0.000000000  0.250000000  0.500000000
     0.000004291  0.124980166  0.604149473
     0.750020909  0.249964332  0.610733868
     0.749849705  0.124984894  0.720495097
     0.999975957  0.249917704  0.708163011
     0.750000000  0.375000000  0.287188045
     0.000000000  0.500000000  0.287188045
     0.000000000  0.375000000  0.393594023
     0.750000000  0.500000000  0.393594023
     0.750000000  0.375000000  0.500000000
     0.000000000  0.500000000  0.500000000
     0.000001188  0.374983462  0.604133074
     0.750045959  0.499996868  0.610724841
     0.750061545  0.374909743  0.720323388
     0.000000688  0.500000006  0.708145396
     0.250000000  0.625000000  0.287188045
     0.500000000  0.750000000  0.287188045
     0.500000000  0.625000000  0.393594023
     0.250000000  0.750000000  0.393594023
     0.250000000  0.625000000  0.500000000
     0.500000000  0.750000000  0.500000000
     0.499999018  0.624688356  0.604436823
     0.249979186  0.750035519  0.610734113
     0.249940081  0.625089722  0.720324203
     0.500006823  0.749974613  0.708033504
     0.250000000  0.875000000  0.287188045
     0.500000000  0.000000000  0.287188045
     0.500000000  0.875000000  0.393594023
     0.250000000  0.000000000  0.393594023
     0.250000000  0.875000000  0.500000000
     0.500000000  0.000000000  0.500000000
     0.499998059  0.874845894  0.603998505
     0.250039832  0.999996492  0.610781100
     0.250150317  0.875015073  0.720495103
     0.500000020  0.999999937  0.708017978
[...]
     0.500000000  0.500000000  0.435304973
     0.347999548  0.375000000  0.393594023
     0.652000452  0.375000000  0.393594023
     0.250000000  0.500000000  0.458289049
     0.250000000  0.500000000  0.541710951
     0.597999548  0.375000000  0.500000000
     0.402000452  0.375000000  0.500000000
     0.500000020  0.499999979  0.565493278
     0.499999656  0.499999897  0.649413088
     0.350129645  0.374998360  0.607239421
     0.649871015  0.375005158  0.607234445
     0.249491373  0.500022887  0.671594039
     0.250837245  0.499953273  0.755807071
     0.594288593  0.374432071  0.718293282
     0.405639334  0.374387977  0.718191698

  ion indices of the primitive-cell ions
   primitive index   ion index
                 1           1
                 2           2
                 3           3
                 4           4
                 5           5
[...]
   3.25099510  5.91518906 16.55075861
   7.77637441  4.43639179 15.27637441
   5.22760600  4.43639179 15.27637441
   6.50199046  5.91518881 17.27737408
   6.50198573  5.91518784 19.84135494
   4.55307904  4.43637240 18.55283349
   8.45090995  4.43645282 18.55268145
   3.24438093  5.91545982 20.51904399
   3.26188261  5.91463626 23.09198361
   7.72811721  4.42967298 21.94583423
   5.27492595  4.42915132 21.94273054

--------------------------------------- Iteration      FINAL  ---------------------------------------

--------------------OUTCAR has been truncated-------------------------

[...]

--------------------OUTCAR has been truncated-------------------------

         DFTD3 V3.0 Rev 1
 IVDW         = 11
 DF pbe
 parameters
 VDW_S6       =    1.0000
 VDW_S8       =    0.7220
 VDW_SR       =    1.2170
 rs18     =    1.0000
 alpha6   =   14.0000
 alpha8   =   16.0000
 k1-k3    =   16.0000    1.3333   -4.0000
 VDW_RADIUS   =   50.2022 A
 VDW_CNRADIUS =   21.1671 A
 Edisp (eV)  -36.12454

 E6    (eV) :   -15.4848
 E8    (eV) :   -20.6397
 % E8        : 57.13

  FORCE on cell =-STRESS in cart. coord.  units (eV):
  Direction    XX          YY          ZZ          XY          YZ          ZX
  Alpha Z  4654.20310  4654.20310  4654.20310
  Ewald  981325.00248999083.48706************    -0.19505    -0.00049     0.00745
  Hartree************************************    -0.07859    -0.00014     0.00253
  E(xc)   -8594.35393 -8576.26813 -8603.91984    -0.00032     0.00000    -0.00001
  Local  ************************************     0.27194     0.00056    -0.00873
  n-local -5400.05867 -5325.05271 -5446.54535    -0.00381     0.00001     0.00013
  augment  5220.28502  5201.97978  5223.58992    -0.00120     0.00000    -0.00011
  Kinetic 28616.51630 28145.35992 28666.81772     0.00290    -0.00003    -0.00020
  Fock        0.00000     0.00000     0.00000     0.00000     0.00000     0.00000
  vdW       -27.69177   -35.99004   -23.95729     0.00006     0.00000     0.00000
  Total      61.34558     1.84641    12.41854    -0.00406     0.00000     0.00000
  in kB      20.91070     0.62938     4.23308    -0.00138     0.00000     0.00000

 VOLUME and BASIS-vectors are now :
  energy-cutoff  :      600.00
  volume of cell :     4700.30
      direct lattice vectors                 reciprocal lattice vectors
    13.003980404  0.000000000  0.000000000     0.076899531  0.000000000  0.000000000
     0.000000000 11.830378115  0.000000000     0.000000000  0.084528152  0.000000000
     0.000000000  0.000000000 30.552748813     0.000000000  0.000000000  0.032730279

  length of vectors
    13.003980404 11.830378115 30.552748813     0.076899531  0.084528152  0.032730279

 FORCES acting on ions:
    Electron-Ion                     Ewald-Force                    Non-Local-Force
   0.158E-01 0.653E-02 0.380E+04   -.156E-01 -.643E-02 -.380E+04   -.699E-04 -.649E-05 0.437E+00
   -.847E-04 0.588E-02 0.398E+04   0.109E-03 -.584E-02 -.397E+04   0.133E-05 -.589E-06 -.389E+01
   -.680E-03 0.132E-01 0.193E+04   0.785E-03 -.131E-01 -.193E+04   -.625E-05 0.141E-04 -.441E-01
   0.648E-01 0.476E-01 0.192E+04   -.644E-01 -.471E-01 -.192E+04   -.692E-04 -.938E-05 0.202E+00
   0.491E+00 0.155E+00 -.216E+02   -.491E+00 -.154E+00 0.224E+02   -.238E-03 -.102E-03 -.137E+00
   -.108E-01 0.272E-01 -.919E+01   0.114E-01 -.244E-01 0.811E+01   -.666E-04 -.889E-03 0.347E+00
   -.268E-01 0.268E-01 -.190E+04   0.286E-01 -.266E-01 0.190E+04   -.588E-04 -.893E-03 0.303E-02
   0.336E+00 0.103E+00 -.196E+04   -.322E+00 -.991E-01 0.196E+04   -.507E-02 -.317E-02 -.502E-01
   -.126E+01 0.133E+01 -.379E+04   0.132E+01 -.136E+01 0.379E+04   -.799E-02 0.488E-02 -.184E+00
   -.406E-01 0.783E+00 -.381E+04   0.398E-01 -.788E+00 0.381E+04   0.662E-03 -.473E-03 0.950E+00
   0.115E-01 0.644E-02 0.380E+04   -.114E-01 -.627E-02 -.380E+04   -.185E-04 -.758E-05 0.437E+00
   -.732E-05 -.371E-06 0.398E+04   0.204E-04 0.919E-06 -.397E+04   0.167E-21 -.131E-22 -.389E+01
   -.712E-03 0.126E-01 0.193E+04   0.801E-03 -.125E-01 -.193E+04   -.326E-05 0.994E-05 -.442E-01
   0.338E-01 -.990E-03 0.192E+04   -.338E-01 0.102E-02 -.192E+04   0.154E-04 0.378E-05 0.202E+00
   0.999E-01 0.111E+00 -.214E+02   -.986E-01 -.102E+00 0.222E+02   -.187E-03 -.485E-03 -.139E+00
   -.107E-03 -.532E-05 -.925E+01   0.299E-03 -.179E-04 0.817E+01   -.231E-20 -.470E-22 0.346E+00
   -.476E-01 0.485E-01 -.190E+04   0.480E-01 -.479E-01 0.190E+04   -.107E-03 -.130E-02 0.216E-02
   0.791E-02 0.131E-02 -.197E+04   0.225E-02 -.152E-02 0.197E+04   -.145E-02 -.110E-03 -.467E-01
   -.301E+00 -.635E-03 -.379E+04   0.311E+00 0.130E-02 0.379E+04   0.563E-02 -.357E-03 -.186E+00
   0.418E-03 -.890E-04 -.381E+04   0.309E-03 0.346E-03 0.381E+04   -.122E-20 0.101E-20 0.957E+00
   0.115E-01 -.653E-02 0.380E+04   -.114E-01 0.641E-02 -.380E+04   -.115E-04 0.133E-04 0.437E+00
   0.687E-04 -.588E-02 0.398E+04   -.648E-04 0.584E-02 -.397E+04   -.133E-05 0.589E-06 -.389E+01
   0.641E-03 -.126E-01 0.193E+04   -.594E-03 0.125E-01 -.193E+04   0.326E-05 -.994E-05 -.442E-01
   0.646E-01 -.475E-01 0.192E+04   -.643E-01 0.470E-01 -.192E+04   -.666E-04 0.114E-04 0.202E+00
   0.947E-01 -.126E+00 -.214E+02   -.934E-01 0.119E+00 0.222E+02   -.139E-03 0.376E-03 -.139E+00
   0.104E-01 -.272E-01 -.919E+01   -.103E-01 0.244E-01 0.811E+01   0.666E-04 0.889E-03 0.347E+00
   0.469E-01 -.486E-01 -.190E+04   -.467E-01 0.483E-01 0.190E+04   0.107E-03 0.130E-02 0.216E-02
   0.300E+00 -.977E-01 -.196E+04   -.286E+00 0.942E-01 0.196E+04   -.497E-02 0.248E-02 -.501E-01
   -.312E+00 -.350E-01 -.379E+04   0.321E+00 0.332E-01 0.379E+04   0.628E-02 0.593E-03 -.187E+00
   0.376E-01 -.782E+00 -.381E+04   -.371E-01 0.788E+00 0.381E+04   -.662E-03 0.473E-03 0.950E+00
   0.158E-01 -.643E-02 0.380E+04   -.156E-01 0.630E-02 -.380E+04   -.620E-04 0.125E-04 0.437E+00
   -.865E-05 0.377E-06 0.398E+04   0.238E-04 -.939E-06 -.397E+04   0.205E-21 0.135E-21 -.389E+01
   0.589E-03 -.132E-01 0.193E+04   -.525E-03 0.131E-01 -.193E+04   0.625E-05 -.141E-04 -.441E-01
   0.957E-01 0.925E-03 0.192E+04   -.950E-01 -.947E-03 -.192E+04   -.192E-03 -.584E-05 0.202E+00
   0.487E+00 -.140E+00 -.216E+02   -.487E+00 0.138E+00 0.224E+02   -.199E-03 0.216E-03 -.137E+00
   -.257E-03 0.966E-05 -.914E+01   0.725E-03 -.568E-05 0.806E+01   0.675E-21 -.398E-23 0.347E+00
   0.261E-01 -.267E-01 -.190E+04   -.245E-01 0.262E-01 0.190E+04   0.588E-04 0.893E-03 0.303E-02
   0.656E+00 -.257E-02 -.196E+04   -.638E+00 0.199E-02 0.196E+04   -.668E-02 0.749E-03 -.520E-01
   -.114E+01 -.120E+01 -.379E+04   0.121E+01 0.123E+01 0.379E+04   -.110E-01 -.414E-02 -.185E+00
   -.190E-02 0.477E-04 -.381E+04   0.120E-02 -.236E-03 0.381E+04   0.244E-20 -.874E-21 0.942E+00
   -.158E-01 0.643E-02 0.380E+04   0.156E-01 -.630E-02 -.380E+04   0.620E-04 -.125E-04 0.437E+00
   0.110E-03 0.126E-01 0.398E+04   -.105E-03 -.124E-01 -.397E+04   0.160E-05 -.309E-04 -.389E+01
   0.588E-03 0.658E-01 0.193E+04   -.685E-03 -.619E-01 -.193E+04   0.537E-05 -.778E-03 -.440E-01
   -.646E-01 0.476E-01 0.192E+04   0.643E-01 -.470E-01 -.192E+04   0.666E-04 -.114E-04 0.202E+00
   -.487E+00 0.141E+00 -.216E+02   0.487E+00 -.138E+00 0.224E+02   0.199E-03 -.216E-03 -.137E+00
   0.724E-02 0.527E+00 -.987E+01   -.773E-02 -.541E+00 0.882E+01   0.359E-04 0.918E-02 0.342E+00
   0.364E-02 0.492E+00 -.190E+04   -.387E-02 -.433E+00 0.190E+04   -.955E-04 -.303E-01 0.245E-01
   -.301E+00 0.979E-01 -.196E+04   0.285E+00 -.944E-01 0.196E+04   0.497E-02 -.248E-02 -.501E-01
   0.113E+01 0.120E+01 -.379E+04   -.121E+01 -.123E+01 0.379E+04   0.110E-01 0.414E-02 -.185E+00
   0.135E+00 -.207E+01 -.381E+04   -.131E+00 0.221E+01 0.381E+04   -.289E-02 -.304E-01 0.992E+00
   -.115E-01 0.653E-02 0.380E+04   0.114E-01 -.641E-02 -.380E+04   0.115E-04 -.133E-04 0.437E+00
   0.727E-05 -.539E-06 0.398E+04   -.201E-04 0.192E-05 -.397E+04   0.443E-22 -.102E-21 -.389E+01
   0.601E-03 0.632E-01 0.193E+04   -.687E-03 -.611E-01 -.193E+04   0.226E-05 -.555E-03 -.441E-01
   -.338E-01 0.986E-03 0.192E+04   0.338E-01 -.100E-02 -.192E+04   -.154E-04 -.378E-05 0.202E+00
   -.947E-01 0.126E+00 -.214E+02   0.933E-01 -.119E+00 0.222E+02   0.139E-03 -.376E-03 -.139E+00
   0.927E-04 -.222E-04 -.863E+01   -.255E-03 0.422E-04 0.754E+01   0.101E-20 -.206E-21 0.342E+00
   -.938E-02 -.984E+00 -.189E+04   0.986E-02 0.100E+01 0.189E+04   0.297E-03 -.588E-02 -.258E-01
   -.767E-02 -.127E-02 -.197E+04   -.363E-02 0.961E-03 0.197E+04   0.145E-02 0.110E-03 -.467E-01
   0.312E+00 0.351E-01 -.379E+04   -.321E+00 -.344E-01 0.379E+04   -.628E-02 -.593E-03 -.187E+00
   -.268E-03 -.924E-04 -.380E+04   0.150E-02 0.352E-03 0.380E+04   0.147E-19 0.141E-20 0.926E+00
[...]
   -.534E+02 -.301E-01 0.115E+04   0.574E+02 0.296E-01 -.115E+04   -.355E+01 0.768E-03 0.157E+00
   0.534E+02 -.295E-01 0.115E+04   -.574E+02 0.290E-01 -.115E+04   0.355E+01 0.821E-03 0.157E+00
   -.171E+00 -.192E-02 0.497E+03   0.171E+00 0.213E-02 -.501E+03   -.309E-03 -.515E-03 0.414E+01
   -.603E+00 -.586E-02 -.539E+03   0.603E+00 0.600E-02 0.546E+03   0.276E-02 -.430E-03 -.718E+01
   -.552E+02 -.279E+00 -.690E+01   0.599E+02 0.277E+00 0.664E+01   -.519E+01 0.981E-02 0.349E+00
   0.552E+02 -.283E+00 -.689E+01   -.599E+02 0.281E+00 0.664E+01   0.519E+01 0.951E-02 0.350E+00
   -.156E-03 0.495E-03 -.643E+03   -.470E-03 -.470E-03 0.637E+03   -.125E-19 -.457E-21 0.653E+01
   0.781E-02 0.130E-02 -.163E+04   -.471E-02 0.411E-03 0.162E+04   0.216E-19 -.500E-20 0.266E+01
   -.276E+02 -.107E+00 -.115E+04   0.306E+02 0.782E-01 0.115E+04   -.296E+01 0.294E-01 0.883E+00
   0.276E+02 -.766E-01 -.115E+04   -.306E+02 0.481E-01 0.115E+04   0.296E+01 0.317E-01 0.889E+00
   0.855E+00 -.114E+00 -.183E+04   -.960E+00 0.122E+00 0.184E+04   0.103E+00 -.628E-02 -.228E+01
   -.223E+01 0.102E+00 -.274E+04   0.236E+01 -.116E+00 0.276E+04   -.152E+00 0.157E-01 -.209E+02
   -.215E+02 -.815E+00 -.236E+04   0.275E+02 0.827E+00 0.236E+04   -.607E+01 0.733E-01 -.331E+01
   0.215E+02 -.972E+00 -.236E+04   -.276E+02 0.988E+00 0.236E+04   0.608E+01 0.613E-01 -.324E+01
   -.262E+00 -.581E-02 0.937E+02   -.221E-11 0.742E-13 0.337E-10   0.888E-15 0.694E-17 -.938E+02

 POSITION                                       TOTAL-FORCE (eV/Angst)
      9.75299      7.39399      8.77438         0.000117      0.000092     -3.521959
      0.00000      8.87278      8.77438         0.000011      0.000036      2.702677
      0.00000      7.39399     12.02538         0.000014      0.000144      0.544017
      9.75299      8.87278     12.02538         0.000249      0.000528     -0.692017
      9.75299      7.39399     15.27637        -0.000124      0.000932      0.703211
      0.00000      8.87278     15.27637         0.000186      0.001938     -0.739325
     13.00396      7.39418     18.45793         0.000024     -0.000398      0.052624
      9.75326      8.87324     18.65924         0.010445      0.001433     -0.048593
      9.75451      7.39556     22.00676         0.056302     -0.026543      0.125083
      0.00033      8.87376     21.63633         0.000009     -0.003311      0.117821
      9.75299     10.35158      8.77438         0.000067      0.000162     -3.521833
      0.00000      0.00000      8.77438        -0.000000     -0.000000      2.702690
      0.00000     10.35158     12.02538         0.000018      0.000104      0.544180
      9.75299      0.00000     12.02538         0.000006      0.000027     -0.691409
      9.75299     10.35158     15.27637         0.001284      0.007972      0.708599
      0.00000      0.00000     15.27637        -0.000000     -0.000000     -0.738902
     13.00393     10.35182     18.45843        -0.000073     -0.000700      0.052221
      9.75247      0.00004     18.66104         0.008828      0.000036     -0.044787
      9.75128     10.35197     22.01297         0.014529      0.000394      0.094173
     13.00398     11.83038     21.63658        -0.000000     -0.000000      0.116132
      9.75299      1.47880      8.77438         0.000088     -0.000112     -3.521834
      0.00000      2.95759      8.77438        -0.000011     -0.000036      2.702677
      0.00000      1.47880     12.02538        -0.000018     -0.000104      0.544180
      9.75299      2.95759     12.02538         0.000256     -0.000533     -0.691812
      9.75299      1.47880     15.27637         0.001289     -0.006497      0.709577
      0.00000      2.95759     15.27637        -0.000186     -0.001938     -0.739325
      0.00006      1.47856     18.45843         0.000073      0.000700      0.052221
      9.75326      2.95717     18.65960         0.010485     -0.001477     -0.048724
      9.75103      1.47862     22.01311         0.014264     -0.001169      0.093836
     13.00367      2.95662     21.63633        -0.000009      0.003311      0.117821
      9.75299      4.43639      8.77438         0.000137     -0.000116     -3.521929
      0.00000      5.91519      8.77438        -0.000000     -0.000000      2.702660
      0.00000      4.43639     12.02538        -0.000014     -0.000144      0.544017
      9.75299      5.91519     12.02538         0.000495     -0.000022     -0.692400
      9.75299      4.43639     15.27637        -0.000117     -0.002407      0.704240
      0.00000      5.91519     15.27637        -0.000000     -0.000000     -0.740012
      0.00002      4.43620     18.45793        -0.000024      0.000398      0.052624
      9.75358      5.91515     18.65932         0.011429      0.000077     -0.047723
      9.75379      4.43532     22.00786         0.060007      0.027194      0.121405
      0.00001      5.91519     21.63579        -0.000000     -0.000000      0.120950
      3.25100      7.39399      8.77438        -0.000137      0.000116     -3.521929
      6.50199      8.87278      8.77438         0.000021      0.000171      2.702479
      6.50199      7.39399     12.02538        -0.000013      0.003174      0.542117
      3.25100      8.87278     12.02538        -0.000256      0.000533     -0.691812
      3.25100      7.39399     15.27637         0.000117      0.002407      0.704240
      6.50199      8.87278     15.27637        -0.000176     -0.003847     -0.723266
      6.50198      7.39030     18.46721         0.000001      0.026582      0.014442
      3.25072      8.87320     18.65961        -0.010485      0.001477     -0.048724
      3.25022      7.39505     22.00788        -0.060007     -0.027194      0.121405
      6.50208      8.87248     21.63237         0.001477      0.104006      0.087757
      3.25100     10.35158      8.77438        -0.000088      0.000112     -3.521834
      6.50199      0.00000      8.77438        -0.000000     -0.000000      2.702743
      6.50199     10.35158     12.02538        -0.000020      0.001605      0.544601
      3.25100      0.00000     12.02538        -0.000006     -0.000027     -0.691409
      3.25100     10.35158     15.27637        -0.001289      0.006497      0.709577
      6.50199      0.00000     15.27637        -0.000000     -0.000000     -0.753134
      6.50196     10.34976     18.45381         0.000092      0.011868      0.040727
      3.25151     11.83034     18.66104        -0.008828     -0.000036     -0.044787
      3.25295     10.35176     22.01311        -0.014264      0.001169      0.093836
      6.50199     11.83038     21.63190        -0.000000     -0.000000      0.119450
[...]
      6.50199      5.91519     13.29976        -0.000000     -0.000000     -0.091252
      4.52538      4.43639     12.02538         0.445305      0.000283      0.051242
      8.47860      4.43639     12.02538        -0.445321      0.000320      0.051234
      3.25100      5.91519     14.00199        -0.000200     -0.000296     -0.124560
      3.25100      5.91519     16.55076         0.002622     -0.000255      0.062707
      7.77637      4.43639     15.27637        -0.479689      0.007790      0.095931
      5.22761      4.43639     15.27637         0.479393      0.007716      0.095987
      6.50199      5.91519     17.27737        -0.000000     -0.000000     -0.027695
      6.50199      5.91519     19.84135        -0.000000     -0.000000      0.067243
      4.55308      4.43637     18.55283        -0.000762      0.001873     -0.005286
      8.45091      4.43645     18.55268         0.000775      0.001800     -0.005363
      3.24438      5.91546     20.51904         0.007452      0.000295      0.049788
      3.26188      5.91464     23.09198        -0.002673      0.002512      0.020992
      7.72812      4.42967     21.94583        -0.077467      0.079613      0.156041
      5.27493      4.42915     21.94273         0.081535      0.082762      0.159923
    total drift:                               -0.262087     -0.005810     -0.091314

  FREE ENERGIE OF THE ION-ELECTRON SYSTEM (eV)
  free  energy   TOTEN  =     -2155.95489545 eV

  energy  without entropy=    -2155.95489545  energy(sigma->0) =    -2155.95489545