 vasp.6.3.0 20Jan22 (build Dec 25 2023 18:06:01) complex
 executed on        HPECrayEX_GCC date 2024.01.26  02:56:30

 INCAR:
   SYSTEM = MgO-rocksalt
   ISMEAR = 0
   SIGMA = 0.05
   EDIFF = 1E-5
   ALGO = ALL
   ISTART = 0
   IBRION = -1
   NSW = 0
   ISYM = 2
   ISIF = 2
   DIPOL = 0.5 0.5 0.5
   IDIPOL = 3
   LDIPOL = .TRUE.
   LHFCALC = .TRUE.
   GGA = B5
   AEXX = 0.2
   AGGAX = 0.72
   AGGAC = 0.81
   ALDAC = 0.19
   IVDW = 1
   VDW_S6 = 1.05
   VDW_C6 = 0.63 0.70
   VDW_R0 = 1.243 1.342
   ENCUT = 600
   PREC = Accurate
   LASPH = .TRUE.
   LREAL = .FALSE.
   ISPIN = 1
   NELM = 200
   NELMIN = 8
   NCORE = 8
   KPAR = 1
   LWAVE = .FALSE.
   LCHARG = .FALSE.

 POTCAR:    PAW_PBE Mg_pv 13Apr2007
 POTCAR:    PAW_PBE O 08Apr2002
|           W    W    AA    RRRRR   N    N  II  N    N   GGGG   !!!           |
|           W    W   A  A   R    R  NN   N  II  NN   N  G    G  !!!           |
|           W    W  A    A  R    R  N N  N  II  N N  N  G       !!!           |
|           W WW W  AAAAAA  RRRRR   N  N N  II  N  N N  G  GGG   !            |
|           WW  WW  A    A  R   R   N   NN  II  N   NN  G    G                |
|           W    W  A    A  R    R  N    N  II  N    N   GGGG   !!!           |
|     You have selected ISYM=2 for a HF type calculation. This will           |
|     symmetrize the charge density but not the exchange potential. I         |
|     suggest to use ISYM=3 instead. This uses symmetry to obtain the         |
|     orbitals at all k-points in the Brillouin zone, but does not apply      |
|     symmetry to the Hartree potential directly. The resultant charge        |
|     might have lower symmetry than the crystal but, at least, Hartree       |
|     and exchange are fully compatible.                                      |

   TITEL  = PAW_PBE Mg_pv 13Apr2007
   POMASS =   24.305; ZVAL   =    8.000    mass and valenz
   ENMAX  =  403.929; ENMIN  =  302.947 eV

   TITEL  = PAW_PBE O 08Apr2002
   POMASS =   16.000; ZVAL   =    6.000    mass and valenz
   ENMAX  =  400.000; ENMIN  =  300.000 eV

  PAW_PBE Mg_pv 13Apr2007               :
  PAW_PBE O 08Apr2002                   :

 POSCAR: Mg  O
  positions in direct lattice
 exchange correlation table for  LEXCH =       12
   RHO(1)=    0.500       N(1)  =     2000
   RHO(2)=  100.500       N(2)  =     4000

 ion  position               nearest neighbor table
   1  0.000  0.750  0.352-  33 2.11  35 2.11  36 2.11  43 2.11  52 2.11
   2  0.250  0.000  0.352-  34 2.11  35 2.11  36 2.11  44 2.11  51 2.11
   3  0.000  0.000  0.451-  35 2.11  34 2.11  33 2.11  41 2.11  50 2.11  39 2.12
   4  0.250  0.750  0.451-  36 2.11  34 2.11  33 2.11  42 2.11  49 2.11  40 2.12
   5  0.000  0.750  0.550-  47 2.11  40 2.11  56 2.11  39 2.11  33 2.12  37 2.15
   6  0.250  0.000  0.550-  55 2.11  48 2.11  40 2.11  39 2.11  34 2.12  38 2.15
   7  0.000  0.000  0.649-  37 2.11  38 2.11  45 2.11  54 2.11  39 2.11
   8  0.250  0.750  0.649-  40 2.11  38 2.11  37 2.11  46 2.11  53 2.11
   9  0.000  0.250  0.352-  41 2.11  35 2.11  43 2.11  44 2.11  60 2.11
  10  0.250  0.500  0.352-  42 2.11  36 2.11  43 2.11  44 2.11  59 2.11
  11  0.000  0.500  0.451-  43 2.11  41 2.11  42 2.11  33 2.11  58 2.11  47 2.12
  12  0.250  0.250  0.451-  44 2.11  41 2.11  42 2.11  34 2.11  57 2.11  48 2.12
  13  0.000  0.250  0.550-  47 2.11  48 2.11  64 2.11  39 2.11  41 2.12  45 2.15
  14  0.250  0.500  0.550-  63 2.11  48 2.11  40 2.11  47 2.11  42 2.13  46 2.15
  15  0.000  0.500  0.649-  46 2.10  62 2.10  47 2.11  45 2.11  37 2.11
  16  0.250  0.250  0.649-  48 2.11  45 2.11  38 2.11  46 2.11  61 2.11
  17  0.500  0.750  0.352-  49 2.11  36 2.11  51 2.11  52 2.11  59 2.11
  18  0.750  0.000  0.352-  50 2.11  35 2.11  51 2.11  52 2.11  60 2.11
  19  0.500  0.000  0.451-  51 2.11  49 2.11  50 2.11  34 2.11  57 2.11  55 2.12
  20  0.750  0.750  0.451-  52 2.11  49 2.11  50 2.11  33 2.11  58 2.11  56 2.12
  21  0.500  0.750  0.550-  63 2.11  56 2.11  40 2.11  55 2.11  49 2.13  53 2.15
  22  0.750  0.000  0.550-  55 2.11  56 2.11  64 2.11  39 2.11  50 2.12  54 2.15
  23  0.500  0.000  0.649-  53 2.10  61 2.10  55 2.11  38 2.11  54 2.11
  24  0.750  0.750  0.649-  56 2.11  54 2.11  37 2.11  53 2.11  62 2.11
  25  0.500  0.250  0.352-  57 2.11  51 2.11  44 2.11  59 2.11  60 2.11
  26  0.750  0.500  0.352-  58 2.11  52 2.11  43 2.11  59 2.11  60 2.11
  27  0.500  0.500  0.451-  59 2.11  49 2.11  57 2.11  58 2.11  42 2.11  63 2.13
  28  0.750  0.250  0.451-  60 2.11  50 2.11  57 2.11  58 2.11  41 2.11  64 2.12
  29  0.500  0.250  0.550-  63 2.11  48 2.11  64 2.11  55 2.11  57 2.13  61 2.15
  30  0.750  0.500  0.550-  63 2.11  56 2.11  64 2.11  47 2.11  58 2.13  62 2.15
  31  0.500  0.500  0.651-  46 2.12  53 2.12  61 2.12  62 2.12  63 2.14
  32  0.750  0.250  0.649-  64 2.11  54 2.11  45 2.11  62 2.11  61 2.11
  33  0.000  0.750  0.451-   1 2.11   3 2.11   4 2.11  11 2.11  20 2.11   5 2.12
  34  0.250  0.000  0.451-   2 2.11   3 2.11   4 2.11  12 2.11  19 2.11   6 2.12
  35  0.000  0.000  0.352-   3 2.11   2 2.11   1 2.11   9 2.11  18 2.11
  36  0.250  0.750  0.352-   4 2.11   2 2.11   1 2.11  10 2.11  17 2.11
  37  0.000  0.750  0.651-   7 2.11   8 2.11  24 2.11  15 2.11   5 2.15
  38  0.250  0.000  0.651-   7 2.11   8 2.11  16 2.11  23 2.11   6 2.15
  39  0.000  0.000  0.550-   7 2.11   6 2.11   5 2.11  13 2.11  22 2.11   3 2.12
  40  0.250  0.750  0.550-   8 2.11   6 2.11   5 2.11  14 2.11  21 2.11   4 2.12
  41  0.000  0.250  0.451-   9 2.11   3 2.11  11 2.11  12 2.11  28 2.11  13 2.12
  42  0.250  0.500  0.451-  10 2.11   4 2.11  11 2.11  12 2.11  27 2.11  14 2.13
  43  0.000  0.500  0.352-  11 2.11   9 2.11  10 2.11   1 2.11  26 2.11
  44  0.250  0.250  0.352-  12 2.11   9 2.11  10 2.11   2 2.11  25 2.11
  45  0.000  0.250  0.651-   7 2.11  16 2.11  32 2.11  15 2.11  13 2.15
  46  0.249  0.500  0.651-  15 2.10   8 2.11  16 2.11  31 2.12  14 2.15
  47  0.000  0.500  0.550-  15 2.11  13 2.11   5 2.11  14 2.11  30 2.11  11 2.12
  48  0.250  0.250  0.550-  16 2.11  13 2.11   6 2.11  14 2.11  29 2.11  12 2.12
  49  0.500  0.750  0.451-  17 2.11   4 2.11  19 2.11  20 2.11  27 2.11  21 2.13
  50  0.750  0.000  0.451-  18 2.11   3 2.11  19 2.11  20 2.11  28 2.11  22 2.12
  51  0.500  0.000  0.352-  19 2.11  17 2.11  18 2.11   2 2.11  25 2.11
  52  0.750  0.750  0.352-  20 2.11  17 2.11  18 2.11   1 2.11  26 2.11
  53  0.500  0.751  0.651-  23 2.10   8 2.11  24 2.11  31 2.12  21 2.15
  54  0.750  0.000  0.651-   7 2.11  24 2.11  32 2.11  23 2.11  22 2.15
  55  0.500  0.000  0.550-  23 2.11  22 2.11   6 2.11  21 2.11  29 2.11  19 2.12
  56  0.750  0.750  0.550-  24 2.11  22 2.11   5 2.11  30 2.11  21 2.11  20 2.12
  57  0.500  0.250  0.451-  25 2.11  19 2.11  12 2.11  27 2.11  28 2.11  29 2.13
  58  0.750  0.500  0.451-  26 2.11  20 2.11  11 2.11  27 2.11  28 2.11  30 2.13
  59  0.500  0.500  0.352-  27 2.11  17 2.11  25 2.11  26 2.11  10 2.11
  60  0.750  0.250  0.352-  28 2.11  18 2.11  25 2.11  26 2.11   9 2.11
  61  0.500  0.249  0.651-  23 2.10  16 2.11  32 2.11  31 2.12  29 2.15
  62  0.751  0.500  0.651-  15 2.10  24 2.11  32 2.11  31 2.12  30 2.15
  63  0.500  0.500  0.550-  14 2.11  21 2.11  29 2.11  30 2.11  27 2.13  31 2.14
  64  0.750  0.250  0.550-  32 2.11  22 2.11  13 2.11  30 2.11  29 2.11  28 2.12

  LATTYP: Found a simple tetragonal cell.
 ALAT       =     8.4409846542
 C/A-ratio  =     2.5270438657

  Lattice vectors:

 A1 = (   8.4409846542,   0.0000000000,   0.0000000000)
 A2 = (   0.0000000000,   8.4409846542,   0.0000000000)
 A3 = (   0.0000000000,   0.0000000000,  21.3307384906)

Analysis of symmetry for initial positions (statically):
 Subroutine PRICEL returns:
 Original cell was already a primitive cell.

 Routine SETGRP: Setting up the symmetry group for a
 simple tetragonal supercell.

 Subroutine GETGRP returns: Found  8 space group operations
 (whereof  8 operations were pure point group operations)
 out of a pool of 16 trial point group operations.

The static configuration has the point symmetry C_4v.

Analysis of symmetry for dynamics (positions and initial velocities):
 Subroutine PRICEL returns:
 Original cell was already a primitive cell.

[...]

The dynamic configuration has the point symmetry C_4v.

Analysis of constrained symmetry for selective dynamics:
 Subroutine PRICEL returns:
 Original cell was already a primitive cell.

 Routine SETGRP: Setting up the symmetry group for a
 simple tetragonal supercell.

 Subroutine GETGRP returns: Found  8 space group operations
 (whereof  8 operations were pure point group operations)
 out of a pool of 16 trial point group operations.

The constrained configuration has the point symmetry C_4v.

 Subroutine INISYM returns: Found  8 space group operations
 (whereof  8 operations are pure point group operations),
 and found     1 'primitive' translations

                                     Primitive cell

  volume of cell :    1519.8199

  direct lattice vectors                    reciprocal lattice vectors
     8.440984654  0.000000000  0.000000000     0.118469591  0.000000000  0.000000000
     0.000000000  8.440984654  0.000000000     0.000000000  0.118469591  0.000000000
     0.000000000  0.000000000 21.330738491     0.000000000  0.000000000  0.046880702

  length of vectors
     8.440984654  8.440984654 21.330738491     0.118469591  0.118469591  0.046880702

  position of ions in fractional coordinates (direct lattice)
     0.000000000  0.750000000  0.351605267
     0.250000000  0.000000000  0.351605267
     0.000000000  0.000000000  0.450535089
     0.250000000  0.750000000  0.450535089
     0.000000000  0.749939268  0.550083239
     0.250060732  0.000000000  0.550083239
     0.000000000  0.000000000  0.648745309
     0.249858327  0.750141673  0.648569547
     0.000000000  0.250000000  0.351605267
     0.250000000  0.500000000  0.351605267
     0.000000000  0.500000000  0.450535089
     0.250000000  0.250000000  0.450535089
     0.000000000  0.250060732  0.550083239
     0.250378379  0.500000000  0.550219524
     0.000000000  0.500000000  0.648615280
     0.249858327  0.249858327  0.648569547
     0.500000000  0.750000000  0.351605267
     0.750000000  0.000000000  0.351605267
     0.500000000  0.000000000  0.450535089
     0.750000000  0.750000000  0.450535089
     0.500000000  0.749621621  0.550219524
     0.749939268  0.000000000  0.550083239
     0.500000000  0.000000000  0.648615280
     0.750141673  0.750141673  0.648569547
     0.500000000  0.250000000  0.351605267
     0.750000000  0.500000000  0.351605267
     0.500000000  0.500000000  0.450535089
     0.750000000  0.250000000  0.450535089
     0.500000000  0.250378379  0.550219524
     0.749621621  0.500000000  0.550219524
     0.500000000  0.500000000  0.650616960
     0.750141673  0.249858327  0.648569547
     0.000000000  0.750000000  0.450535089
     0.250000000  0.000000000  0.450535089
     0.000000000  0.000000000  0.351605267
     0.250000000  0.750000000  0.351605267
     0.000000000  0.750218533  0.650979255
     0.249781467  0.000000000  0.650979255
     0.000000000  0.000000000  0.549809890
     0.249945770  0.750054230  0.549859113
     0.000000000  0.250000000  0.450535089
[...]
   0.00000000  6.33022585 11.73368172
   2.11075880  0.00000000 11.73368172
   0.00000000  0.00000000 13.83821654
   2.10905031  6.33193435 13.83446740
   0.00000000  2.11024616  7.50000000
   2.11024616  4.22049233  7.50000000
   0.00000000  4.22049233  9.61024616
   2.11024616  2.11024616  9.61024616
   0.00000000  2.11075880 11.73368172
   2.11344006  4.22049233 11.73658877
   0.00000000  4.22049233 13.83544293
   2.10905031  2.10905031 13.83446740
   4.22049233  6.33073849  7.50000000
   6.33073849  0.00000000  7.50000000
   4.22049233  0.00000000  9.61024616
   6.33073849  6.33073849  9.61024616
   4.22049233  6.32754460 11.73658877
   6.33022585  0.00000000 11.73368172
   4.22049233  0.00000000 13.83544293
   6.33193435  6.33193435 13.83446740
   4.22049233  2.11024616  7.50000000
   6.33073849  4.22049233  7.50000000
   4.22049233  4.22049233  9.61024616
   6.33073849  2.11024616  9.61024616
   4.22049233  2.11344006 11.73658877
   6.32754460  4.22049233 11.73658877
   4.22049233  4.22049233 13.87814023
   6.33193435  2.10905031 13.83446740
   0.00000000  6.33073849  9.61024616
   2.11024616  0.00000000  9.61024616
   0.00000000  0.00000000  7.50000000
   2.11024616  6.33073849  7.50000000
   0.00000000  6.33258312 13.88586825
   2.10840153  0.00000000 13.88586825
   0.00000000  0.00000000 11.72785099
   2.10978841  6.33119624 11.72890095
   0.00000000  2.11024616  9.61024616
   2.11024616  4.22049233  9.61024616
   0.00000000  4.22049233  7.50000000
   2.11024616  2.11024616  7.50000000
   0.00000000  2.10840153 13.88586825
   2.10030867  4.22049233 13.88381232
   0.00000000  4.22049233 11.72684365
   2.10978841  2.10978841 11.72890095
   4.22049233  6.33073849  9.61024616
   6.33073849  0.00000000  9.61024616
   4.22049233  0.00000000  7.50000000
   6.33073849  6.33073849  7.50000000
   4.22049233  6.34067598 13.88381232
   6.33258312  0.00000000 13.88586825
   4.22049233  0.00000000 11.72684365
   6.33119624  6.33119624 11.72890095
   4.22049233  2.11024616  9.61024616
   6.33073849  4.22049233  9.61024616
   4.22049233  4.22049233  7.50000000
   6.33073849  2.11024616  7.50000000
   4.22049233  2.10030867 13.88381232
   6.34067598  4.22049233 13.88381232
   4.22049233  4.22049233 11.73684118
   6.33119624  2.10978841 11.72890095

--------------------------------------- Iteration      FINAL  ---------------------------------------

--------------------OUTCAR has been truncated-------------------------

[...]

--------------------OUTCAR has been truncated-------------------------

  DFT-D2 method for vdW energy calculation

  Parameters of vdW forcefield:
         C6(Jnm^6/mol)     R0(A)
   Mg       0.630          1.243
   O        0.700          1.342

  vdW correction parametrized for the method   h
      

  IVDW =   1
  VDW_RADIUS =    50.000 A
  VDW_S6 =     1.050
  VDW_SR =     1.000
  VDW_D =    20.000
  LVDW_EWALD = F

  Number of pair interactions contributing to vdW energy:  723312
  Edisp (eV):   -5.06777

  FORCE on cell =-STRESS in cart. coord.  units (eV):
  Direction    XX          YY          ZZ          XY          YZ          ZX
  Alpha Z   875.25928   875.25928   875.25928
  Ewald  161112.87060161112.87060************     0.00000     0.00000    -0.00000
  Hartree171224.05582171224.05582************    -0.00000    -0.00000    -0.00000
  E(xc)   -2000.38253 -2000.38253 -2003.72619    -0.00000    -0.00000    -0.00000
  Local  ************************342584.19927    -0.00000     0.00000     0.00000
  n-local -1170.58671 -1171.07377 -1193.79222     0.00001     0.00001     0.00000
  augment   897.11083   897.11083   886.70904     0.00000    -0.00000     0.00000
  Kinetic  7330.38066  7332.26403  7369.74905     0.00000    -0.00002    -0.00001
  Fock    -1996.00356 -1996.09038 -1992.74598    -0.00000     0.00000    -0.00000
  vdW        -7.40423    -7.40423    -6.01513    -0.00000     0.00000     0.00000
  Total     -39.24374   -39.24374    -9.98553     0.00000    -0.00000     0.00000
  in kB     -41.37032   -41.37032   -10.52664     0.00000    -0.00000     0.00000

 VOLUME and BASIS-vectors are now :
  energy-cutoff  :      600.00
  volume of cell :     1519.82
      direct lattice vectors                 reciprocal lattice vectors
     8.440984654  0.000000000  0.000000000     0.118469591  0.000000000  0.000000000
     0.000000000  8.440984654  0.000000000     0.000000000  0.118469591  0.000000000
     0.000000000  0.000000000 21.330738491     0.000000000  0.000000000  0.046880702

  length of vectors
     8.440984654  8.440984654 21.330738491     0.118469591  0.118469591  0.046880702

 FORCES acting on ions:
    Electron-Ion                     Ewald-Force                    Non-Local-Force
   -.175E-13 0.760E-01 0.207E+04   0.560E-13 -.754E-01 -.206E+04   -.397E-22 -.385E-03 -.639E+01
   -.760E-01 -.418E-12 0.207E+04   0.754E-01 0.671E-13 -.206E+04   0.385E-03 -.662E-22 -.639E+01
   -.499E-13 0.000E+00 0.684E+03   -.150E-10 0.150E-10 -.684E+03   0.000E+00 0.000E+00 0.422E+00
   -.440E+00 0.440E+00 0.683E+03   0.441E+00 -.441E+00 -.684E+03   -.458E-03 0.458E-03 0.456E+00
   -.125E-13 0.274E+00 -.690E+03   0.157E-11 -.271E+00 0.690E+03   -.132E-22 0.233E-02 -.121E+00
   -.274E+00 0.141E-12 -.690E+03   0.271E+00 -.151E-11 0.690E+03   -.233E-02 0.000E+00 -.121E+00
   -.340E-13 0.620E-12 -.205E+04   0.444E-12 -.416E-12 0.204E+04   0.000E+00 0.000E+00 0.527E+01
   -.137E+01 0.137E+01 -.205E+04   0.121E+01 -.121E+01 0.204E+04   0.126E+00 -.126E+00 0.533E+01
   -.207E-13 -.760E-01 0.207E+04   -.277E-12 0.754E-01 -.206E+04   0.000E+00 0.385E-03 -.639E+01
   -.115E+00 0.175E-12 0.207E+04   0.116E+00 0.131E-10 -.206E+04   -.877E-03 -.529E-22 -.639E+01
   -.395E-13 0.761E-12 0.683E+03   -.165E-10 0.000E+00 -.684E+03   0.000E+00 0.000E+00 0.401E+00
   -.440E+00 -.440E+00 0.683E+03   0.441E+00 0.441E+00 -.684E+03   -.458E-03 -.458E-03 0.456E+00
   -.148E-13 -.274E+00 -.690E+03   0.304E-11 0.271E+00 0.690E+03   0.000E+00 -.233E-02 -.121E+00
   -.164E+01 0.943E-12 -.691E+03   0.172E+01 0.178E-14 0.692E+03   -.775E-01 0.000E+00 -.184E+00
   -.209E-13 0.125E-11 -.205E+04   -.355E-13 -.995E-13 0.204E+04   0.000E+00 0.000E+00 0.524E+01
   -.137E+01 -.137E+01 -.205E+04   0.121E+01 0.121E+01 0.204E+04   0.126E+00 0.126E+00 0.533E+01
   0.688E-12 0.115E+00 0.207E+04   -.129E-10 -.116E+00 -.206E+04   0.106E-21 0.877E-03 -.639E+01
   0.760E-01 -.444E-12 0.207E+04   -.754E-01 0.471E-13 -.206E+04   -.385E-03 0.000E+00 -.639E+01
   0.600E-12 0.202E-13 0.683E+03   0.145E-11 0.150E-10 -.684E+03   0.000E+00 -.199E-22 0.401E+00
   0.440E+00 0.440E+00 0.683E+03   -.441E+00 -.441E+00 -.684E+03   0.458E-03 0.458E-03 0.456E+00
   0.601E-12 0.164E+01 -.691E+03   -.141E-11 -.172E+01 0.692E+03   0.397E-22 0.775E-01 -.184E+00
   0.274E+00 0.162E-12 -.690E+03   -.271E+00 -.156E-11 0.690E+03   0.233E-02 0.000E+00 -.121E+00
   0.690E-12 -.458E-12 -.205E+04   0.782E-13 -.355E-14 0.204E+04   0.000E+00 0.265E-22 0.524E+01
   0.137E+01 0.137E+01 -.205E+04   -.121E+01 -.121E+01 0.204E+04   -.126E+00 -.126E+00 0.533E+01
   0.689E-12 -.115E+00 0.207E+04   -.131E-10 0.116E+00 -.206E+04   0.265E-22 -.877E-03 -.639E+01
   0.115E+00 -.199E-11 0.207E+04   -.116E+00 0.131E-10 -.206E+04   0.877E-03 0.529E-22 -.639E+01
   0.595E-12 0.842E-12 0.681E+03   -.782E-13 0.355E-14 -.682E+03   0.000E+00 0.000E+00 0.549E+00
   0.440E+00 -.440E+00 0.683E+03   -.441E+00 0.441E+00 -.684E+03   0.458E-03 -.458E-03 0.456E+00
   0.607E-12 -.164E+01 -.691E+03   -.284E-13 0.172E+01 0.692E+03   0.000E+00 -.775E-01 -.184E+00
   0.164E+01 -.808E-12 -.691E+03   -.172E+01 0.000E+00 0.692E+03   0.775E-01 -.106E-21 -.184E+00
   0.679E-12 0.835E-12 -.207E+04   -.426E-13 -.391E-13 0.206E+04   0.000E+00 0.000E+00 0.566E+01
   0.137E+01 -.137E+01 -.205E+04   -.121E+01 0.121E+01 0.204E+04   -.126E+00 0.126E+00 0.533E+01
   -.174E-13 0.175E+00 0.512E+03   0.409E-13 -.177E+00 -.512E+03   0.000E+00 0.181E-02 -.982E-01
   -.175E+00 0.175E-12 0.512E+03   0.177E+00 0.391E-13 -.512E+03   -.181E-02 -.662E-23 -.982E-01
   -.238E-13 0.512E-12 0.155E+04   0.853E-11 -.844E-11 -.156E+04   0.000E+00 0.132E-22 0.312E+01
   -.725E-01 0.725E-01 0.155E+04   0.725E-01 -.725E-01 -.156E+04   0.787E-04 -.787E-04 0.313E+01
   -.384E-13 0.423E+00 -.156E+04   -.871E-12 -.450E+00 0.156E+04   0.000E+00 0.135E-01 -.468E+01
   -.423E+00 -.215E-12 -.156E+04   0.450E+00 0.881E-12 0.156E+04   -.135E-01 0.000E+00 -.468E+01
   -.207E-13 0.943E-13 -.512E+03   -.853E-13 0.639E-13 0.511E+03   0.662E-23 0.000E+00 0.223E+00
   -.697E+00 0.697E+00 -.512E+03   0.687E+00 -.687E+00 0.511E+03   0.164E-01 -.164E-01 0.316E+00
   -.240E-13 -.175E+00 0.512E+03   0.142E-13 0.177E+00 -.512E+03   0.000E+00 -.181E-02 -.982E-01
   -.416E+00 0.539E-12 0.511E+03   0.385E+00 -.764E-11 -.511E+03   0.382E-01 -.529E-22 -.109E+00
   -.252E-13 0.104E-11 0.155E+04   0.845E-11 -.796E-12 -.156E+04   0.000E+00 0.000E+00 0.313E+01
   -.725E-01 -.725E-01 0.155E+04   0.725E-01 0.725E-01 -.156E+04   0.787E-04 0.787E-04 0.313E+01
   -.538E-13 -.423E+00 -.156E+04   -.774E-12 0.450E+00 0.156E+04   0.000E+00 -.135E-01 -.468E+01
   -.309E+01 0.458E-12 -.156E+04   0.301E+01 0.810E-11 0.156E+04   0.186E+00 0.397E-22 -.439E+01
   -.334E-13 0.202E-12 -.511E+03   -.741E-11 0.711E-14 0.510E+03   0.000E+00 0.265E-22 0.297E+00
   -.697E+00 -.697E+00 -.512E+03   0.687E+00 0.687E+00 0.511E+03   0.164E-01 0.164E-01 0.316E+00
   0.272E-12 0.416E+00 0.511E+03   0.764E-11 -.385E+00 -.511E+03   -.397E-22 -.382E-01 -.109E+00
   0.175E+00 0.182E-12 0.512E+03   -.177E+00 0.142E-13 -.512E+03   0.181E-02 -.662E-23 -.982E-01
   0.341E-12 0.620E-12 0.155E+04   0.845E-12 -.846E-11 -.156E+04   0.106E-21 0.000E+00 0.313E+01
   0.725E-01 0.725E-01 0.155E+04   -.725E-01 -.725E-01 -.156E+04   -.787E-04 -.787E-04 0.313E+01
   0.314E-12 0.309E+01 -.156E+04   -.816E-11 -.301E+01 0.156E+04   0.000E+00 -.186E+00 -.439E+01
   0.423E+00 -.121E-12 -.156E+04   -.450E+00 0.924E-12 0.156E+04   0.135E-01 0.000E+00 -.468E+01
   0.278E-12 -.498E-12 -.511E+03   -.711E-14 0.738E-11 0.510E+03   0.000E+00 -.496E-23 0.297E+00
   0.697E+00 0.697E+00 -.512E+03   -.687E+00 -.687E+00 0.511E+03   -.164E-01 -.164E-01 0.316E+00
   0.287E-12 -.416E+00 0.511E+03   0.763E-11 0.385E+00 -.511E+03   0.000E+00 0.382E-01 -.109E+00
   0.416E+00 -.162E-11 0.511E+03   -.385E+00 -.769E-11 -.511E+03   -.382E-01 0.000E+00 -.109E+00
   0.337E-12 0.956E-12 0.155E+04   0.824E-12 -.838E-12 -.156E+04   0.232E-22 0.000E+00 0.313E+01
   0.725E-01 -.725E-01 0.155E+04   -.725E-01 0.725E-01 -.156E+04   -.787E-04 0.787E-04 0.313E+01
   0.332E-12 -.309E+01 -.156E+04   -.820E-11 0.301E+01 0.156E+04   -.529E-22 0.186E+00 -.439E+01
   0.309E+01 0.176E-11 -.156E+04   -.301E+01 0.819E-11 0.156E+04   -.186E+00 0.662E-23 -.439E+01
   0.279E-12 0.539E-13 -.520E+03   -.497E-13 0.426E-13 0.520E+03   -.265E-22 0.000E+00 -.978E-01
   0.697E+00 -.697E+00 -.512E+03   -.687E+00 0.687E+00 0.511E+03   -.164E-01 0.164E-01 0.316E+00
   0.207E-10 0.226E-10 0.184E+02   0.121E-12 -.744E-13 0.296E-11   -.278E-16 -.555E-16 -.162E+02

 POSITION                                       TOTAL-FORCE (eV/Angst)
      0.00000      6.33074      7.50000         0.000000      0.000176      0.463768
      2.11025      0.00000      7.50000        -0.000176      0.000000      0.463768
      0.00000      0.00000      9.61025         0.000000      0.000000      0.043821
      2.11025      6.33074      9.61025         0.000496     -0.000496      0.042451
      0.00000      6.33023     11.73368         0.000000      0.005480      0.027990
      2.11076      0.00000     11.73368        -0.005480      0.000000      0.027990
      0.00000      0.00000     13.83822         0.000000      0.000000     -0.059375
      2.10905      6.33193     13.83447        -0.026687      0.026687     -0.049807
      0.00000      2.11025      7.50000         0.000000     -0.000176      0.463768
      2.11025      4.22049      7.50000         0.000151      0.000000      0.463455
      0.00000      4.22049      9.61025         0.000000      0.000000      0.049337
      2.11025      2.11025      9.61025         0.000496      0.000496      0.042451
      0.00000      2.11076     11.73368         0.000000     -0.005480      0.027990
      2.11344      4.22049     11.73659        -0.006907      0.000000      0.019739
      0.00000      4.22049     13.83544         0.000000      0.000000     -0.044419
      2.10905      2.10905     13.83447        -0.026687     -0.026687     -0.049807
      4.22049      6.33074      7.50000         0.000000     -0.000151      0.463455
      6.33074      0.00000      7.50000         0.000176      0.000000      0.463768
      4.22049      0.00000      9.61025         0.000000      0.000000      0.049337
      6.33074      6.33074      9.61025        -0.000496     -0.000496      0.042451
      4.22049      6.32754     11.73659         0.000000      0.006907      0.019739
      6.33023      0.00000     11.73368         0.005480      0.000000      0.027990
      4.22049      0.00000     13.83544         0.000000      0.000000     -0.044419
      6.33193      6.33193     13.83447         0.026687      0.026687     -0.049807
      4.22049      2.11025      7.50000         0.000000      0.000151      0.463455
      6.33074      4.22049      7.50000        -0.000151      0.000000      0.463455
      4.22049      4.22049      9.61025         0.000000      0.000000      0.047926
      6.33074      2.11025      9.61025        -0.000496      0.000496      0.042451
      4.22049      2.11344     11.73659         0.000000     -0.006907      0.019739
      6.32754      4.22049     11.73659         0.006907      0.000000      0.019739
      4.22049      4.22049     13.87814         0.000000      0.000000     -0.349467
      6.33193      2.10905     13.83447         0.026687     -0.026687     -0.049807
      0.00000      6.33074      9.61025         0.000000      0.000835      0.056081
      2.11025      0.00000      9.61025        -0.000835      0.000000      0.056081
      0.00000      0.00000      7.50000         0.000000      0.000000     -0.434098
      2.11025      6.33074      7.50000         0.000011     -0.000011     -0.433548
      0.00000      6.33258     13.88587         0.000000     -0.012028     -0.143081
      2.10840      0.00000     13.88587         0.012028      0.000000     -0.143081
      0.00000      0.00000     11.72785         0.000000      0.000000      0.022042
      2.10979      6.33120     11.72890         0.008391     -0.008391      0.023441
      0.00000      2.11025      9.61025         0.000000     -0.000835      0.056081
      2.11025      4.22049      9.61025         0.012103      0.000000      0.067040
      0.00000      4.22049      7.50000         0.000000      0.000000     -0.433728
      2.11025      2.11025      7.50000         0.000011      0.000011     -0.433548
      0.00000      2.10840     13.88587         0.000000      0.012028     -0.143081
      2.10031      4.22049     13.88381         0.143634      0.000000     -0.057338
      0.00000      4.22049     11.72684         0.000000      0.000000      0.036952
      2.10979      2.10979     11.72890         0.008391      0.008391      0.023441
      4.22049      6.33074      9.61025         0.000000     -0.012103      0.067040
      6.33074      0.00000      9.61025         0.000835      0.000000      0.056081
      4.22049      0.00000      7.50000         0.000000      0.000000     -0.433728
      6.33074      6.33074      7.50000        -0.000011     -0.000011     -0.433548
      4.22049      6.34068     13.88381         0.000000     -0.143634     -0.057338
      6.33258      0.00000     13.88587        -0.012028      0.000000     -0.143081
      4.22049      0.00000     11.72684         0.000000      0.000000      0.036952
      6.33120      6.33120     11.72890        -0.008391     -0.008391      0.023441
      4.22049      2.11025      9.61025         0.000000      0.012103      0.067040
      6.33074      4.22049      9.61025        -0.012103      0.000000      0.067040
      4.22049      4.22049      7.50000         0.000000      0.000000     -0.433831
      6.33074      2.11025      7.50000        -0.000011      0.000011     -0.433548
      4.22049      2.10031     13.88381         0.000000      0.143634     -0.057338
      6.34068      4.22049     13.88381        -0.143634      0.000000     -0.057338
      4.22049      4.22049     11.73684         0.000000      0.000000      0.025936
      6.33120      2.10979     11.72890        -0.008391      0.008391      0.023441
    total drift:                                0.000000      0.000000      0.008995

  FREE ENERGIE OF THE ION-ELECTRON SYSTEM (eV)
  free  energy   TOTEN  =      -438.42721618 eV

  energy  without entropy=     -438.42721618  energy(sigma->0) =     -438.42721618