 vasp.6.3.0 20Jan22 (build Mar 11 2022 13:48:16) complex

 executed on             LinuxIFC date 2023.12.29  11:31:28

 INCAR:
   SYSTEM = TiO2
   ISMEAR = 0
   SIGMA = 0.05
   EDIFF = 1E-7
   ALGO = ALL
   ISTART = 0
   IBRION = 2
   NSW = 1000
   ISYM = 0
   ISIF = 2
   EDIFFG = -0.01
   DIPOL = 0.5 0.5 0.5
   IDIPOL = 3
   LDIPOL = .TRUE.
   GGA = RE
   AGGAC = 0.0
   LUSE_VDW = .TRUE.
   LASPH = .TRUE.
   ENCUT = 600
   PREC = Accurate
   LASPH = .TRUE.
   LREAL = .FALSE.
   ISPIN = 1
   NELM = 200
   NELMIN = 8
   NCORE = 19
   KPAR = 1
   LWAVE = .FALSE.
   LCHARG = .FALSE.

 POTCAR:    PAW_PBE C 08Apr2002
 POTCAR:    PAW_PBE O 08Apr2002
 POTCAR:    PAW_PBE H 15Jun2001
 POTCAR:    PAW_PBE Ti_pv 07Sep2000
 POTCAR:    PAW_PBE O 08Apr2002
|               ----> ADVICE to this user running VASP <----                  |
|     You have switched on vdW-DFT.                                           |
|     This routine was written and supplied by Jiri Klimes. We recommend      |
|     that you carefully read and cite the following publications:            |
|       J. Klimes, D.R. Bowler, A. Michelides                                 |
|          J. Phys.: Cond Matt. 22 022201 (2010)                              |
|       J. Klimes, D.R. Bowler, A. Michelides                                 |
|          Phys. Rev. B. 83, 195131 (2011)                                    |
|     and references therein.                                                 |

   TITEL  = PAW_PBE C 08Apr2002
   POMASS =   12.011; ZVAL   =    4.000    mass and valenz
   ENMAX  =  400.000; ENMIN  =  300.000 eV

[...]

   TITEL  = PAW_PBE H 15Jun2001
   POMASS =    1.000; ZVAL   =    1.000    mass and valenz
   ENMAX  =  250.000; ENMIN  =  200.000 eV

   TITEL  = PAW_PBE Ti_pv 07Sep2000
   POMASS =   47.880; ZVAL   =   10.000    mass and valenz
   ENMAX  =  222.335; ENMIN  =  166.751 eV

   TITEL  = PAW_PBE O 08Apr2002
   POMASS =   16.000; ZVAL   =    6.000    mass and valenz
   ENMAX  =  400.000; ENMIN  =  300.000 eV

  PAW_PBE C 08Apr2002                   :
  PAW_PBE O 08Apr2002                   :
  PAW_PBE H 15Jun2001                   :
  PAW_PBE Ti_pv 07Sep2000               :
  PAW_PBE O 08Apr2002                   :

 POSCAR:  C  O  H Ti  O
  positions in direct lattice
  velocities in cartesian coordinates
 exchange correlation table for  LEXCH =       40
   RHO(1)=    0.500       N(1)  =     2000
   RHO(2)=  100.500       N(2)  =     4000

 ion  position               nearest neighbor table
   1  0.499  0.583  0.816-   3 1.09   5 1.09   6 1.10   2 1.47
   2  0.530  0.496  0.785-   4 0.99   1 1.47  86 2.24
   3  0.417  0.591  0.813-   1 1.09
   4  0.604  0.489  0.787-   2 0.99
   5  0.520  0.557  0.849-   1 1.09
   6  0.537  0.663  0.808-   1 1.10
   7  0.750  0.625  0.285-  88 1.98 148 1.98 147 1.98  87 1.98  90 2.02 169 2.02  17 3.00  37 3.00

   8  0.000  0.750  0.285-  89 1.98  90 1.98 109 1.98 110 1.98  91 2.02  38 3.00  18 3.00
   9  0.000  0.625  0.393-  91 1.98 151 1.98  92 1.98 152 1.98  93 2.02  94 2.02  19 3.00  39 3.00

[...]

  87  0.750  0.750  0.243-   7 1.98  17 1.98
  88  0.750  0.750  0.327-   7 1.98  17 1.98  10 2.02
  89  0.098  0.625  0.285-   8 1.98  38 1.98  47 2.02
  90  0.902  0.625  0.285-   8 1.98  38 1.98   7 2.02
  91  0.000  0.750  0.351-   9 1.98  19 1.98   8 2.02
  92  0.000  0.750  0.434-   9 1.98  19 1.98  12 2.02
  93  0.848  0.625  0.393-  10 1.98  40 1.98   9 2.02
  94  0.152  0.625  0.393-  50 1.98  80 1.98   9 2.02
  95  0.750  0.750  0.458-  11 1.98  21 1.98  10 2.02
  96  0.750  0.750  0.542-  11 1.98  21 1.98  14 2.15
  97  0.098  0.625  0.500-  12 1.98  42 1.98  51 2.02
  98  0.902  0.625  0.500-  12 1.98  42 1.98  11 2.02
  99  0.000  0.750  0.566-  23 1.92  13 1.92  12 2.05
 100  1.000  0.750  0.651-  16 1.83  13 2.05  23 2.06
 101  0.850  0.625  0.608-  14 1.93  44 1.93  13 2.12
 102  0.150  0.625  0.608-  13 1.87  54 2.07  84 2.07
 103  0.753  0.751  0.673-  14 1.89  25 2.12  15 2.12
 104  0.749  0.749  0.757-  25 1.85  15 1.86
 105  0.094  0.625  0.721-  46 1.98  16 1.98  55 2.05
 106  0.906  0.624  0.721-  46 1.97  16 1.98  15 2.07
 107  0.750  0.000  0.243-  17 1.98  27 1.98
 108  0.750  0.000  0.327-  17 1.98  27 1.98  20 2.02
 109  0.098  0.875  0.285-   8 1.98  18 1.98  57 2.02
 110  0.902  0.875  0.285-   8 1.98  18 1.98  17 2.02
 111  0.000  0.000  0.351-  19 1.98  29 1.98  18 2.02
 112  0.000  0.000  0.434-  19 1.98  29 1.98  22 2.02
 113  0.848  0.875  0.393-  10 1.98  20 1.98  19 2.02
 114  0.152  0.875  0.393-  50 1.98  60 1.98  19 2.02
 115  0.750  0.000  0.458-  21 1.98  31 1.98  20 2.02
 116  0.750  0.000  0.542-  21 1.98  31 1.98  24 2.16
 117  0.098  0.875  0.500-  12 1.98  22 1.98  61 2.02
 118  0.902  0.875  0.500-  12 1.98  22 1.98  21 2.02
 119  0.000  1.000  0.566-  33 1.92  23 1.92  22 2.05
 120  1.000  1.000  0.651-  26 1.83  23 2.05  33 2.05
 121  0.849  0.875  0.608-  14 1.93  24 1.93  23 2.12
 122  0.150  0.875  0.608-  23 1.87  64 2.07  54 2.07
 123  0.751  0.000  0.673-  24 1.89  35 2.11  25 2.13
 124  0.750  1.000  0.758-  35 1.85  25 1.85
 125  0.094  0.875  0.721-  16 1.97  26 1.97  65 2.09
 126  0.907  0.875  0.721-  16 1.97  26 1.98  25 2.08
 127  0.750  0.250  0.243-  27 1.98  37 1.98
 128  0.750  0.250  0.327-  27 1.98  37 1.98  30 2.02
 129  0.098  0.125  0.285-  18 1.98  28 1.98  67 2.02
 130  0.902  0.125  0.285-  18 1.98  28 1.98  27 2.02
 131  0.000  0.250  0.351-  29 1.98  39 1.98  28 2.02
 132  0.000  0.250  0.434-  29 1.98  39 1.98  32 2.02
 133  0.848  0.125  0.393-  20 1.98  30 1.98  29 2.02
 134  0.152  0.125  0.393-  60 1.98  70 1.98  29 2.02
 135  0.750  0.250  0.458-  31 1.98  41 1.98  30 2.02
 136  0.750  0.250  0.542-  31 1.98  41 1.98  34 2.15
 137  0.098  0.125  0.500-  22 1.98  32 1.98  71 2.02
 138  0.902  0.125  0.500-  22 1.98  32 1.98  31 2.02
 139  0.000  0.250  0.566-  43 1.92  33 1.92  32 2.05
 140  1.000  0.250  0.651-  36 1.83  43 2.05  33 2.06
 141  0.849  0.125  0.608-  34 1.93  24 1.94  33 2.12
 142  0.150  0.125  0.608-  33 1.87  64 2.07  74 2.07
 143  0.752  0.250  0.673-  34 1.90  45 2.10  35 2.14
 144  0.750  0.250  0.757-  45 1.84  35 1.86
 145  0.094  0.125  0.721-  36 1.97  26 1.97  75 2.08
 146  0.907  0.125  0.721-  36 1.97  26 1.98  35 2.08
[...]
 232  0.500  0.500  0.434-  49 1.98  79 1.98  82 2.02
 233  0.348  0.375  0.393-  70 1.98  80 1.98  79 2.02
 234  0.652  0.375  0.393-  30 1.98  40 1.98  79 2.02
 235  0.250  0.500  0.458-  51 1.98  81 1.98  80 2.02
 236  0.250  0.500  0.542-  51 1.98  81 1.98  84 2.16
 237  0.598  0.375  0.500-  72 1.98  82 1.98  41 2.02
 238  0.402  0.375  0.500-  72 1.98  82 1.98  81 2.02
 239  0.501  0.500  0.567-  53 1.92  83 1.92  82 2.05
 240  0.500  0.500  0.651-  86 1.94  53 2.02  83 2.02
 241  0.349  0.375  0.609-  74 1.93  84 1.93  83 2.13
 242  0.651  0.375  0.608-  83 1.87  34 2.06  44 2.06
 243  0.250  0.500  0.673-  84 1.89  55 2.12  85 2.13
 244  0.252  0.500  0.757-  85 1.85  55 1.85
 245  0.596  0.372  0.718-  76 1.94  86 2.00  45 2.06
 246  0.406  0.374  0.720-  86 1.95  76 1.97  85 2.08

IMPORTANT INFORMATION: All symmetrisations will be switched off!
NOSYMM: (Re-)initialisation of all symmetry stuff for point group C_1.

                                     Primitive cell

  volume of cell :    4895.9617

  direct lattice vectors                    reciprocal lattice vectors
    13.251680751  0.000000000  0.000000000     0.075462126  0.000000000  0.000000000
     0.000000000 11.981436613  0.000000000     0.000000000  0.083462445  0.000000000
     0.000000000  0.000000000 30.836008487     0.000000000  0.000000000  0.032429619

  length of vectors
    13.251680751 11.981436613 30.836008487     0.075462126  0.083462445  0.032429619

  position of ions in fractional coordinates (direct lattice)
     0.499088084  0.583406909  0.816041535
     0.530152427  0.496215311  0.785367689
     0.417380677  0.591321905  0.813154543
     0.604205343  0.488685335  0.786602404
     0.519796241  0.557060339  0.848832968
     0.536599917  0.662671554  0.808232828
     0.750000000  0.625000000  0.285126523
     0.000000000  0.750000000  0.285126523
     0.000000000  0.625000000  0.392563261
     0.750000000  0.750000000  0.392563261
     0.750000000  0.625000000  0.500000000
     0.000000000  0.750000000  0.500000000
     0.009313992  0.625069963  0.605187222
     0.757500404  0.750190981  0.611671535
     0.750167707  0.624945081  0.721276369
     0.999822078  0.750450818  0.710070138
     0.750000000  0.875000000  0.285126523
     0.000000000  0.000000000  0.285126523
     0.000000000  0.875000000  0.392563261
     0.750000000  0.000000000  0.392563261
     0.750000000  0.875000000  0.500000000
     0.000000000  0.000000000  0.500000000
     0.009256438  0.875048545  0.605228936
     0.756824607  0.000033696  0.611939033
     0.749601470  0.874407100  0.722159583
     0.000423755  0.999864438  0.710043133
     0.750000000  0.125000000  0.285126523
     0.000000000  0.250000000  0.285126523
     0.000000000  0.125000000  0.392563261
     0.750000000  0.250000000  0.392563261
     0.750000000  0.125000000  0.500000000
     0.000000000  0.250000000  0.500000000
     0.009244630  0.124925163  0.605217530
     0.757246361  0.249832458  0.611566343
     0.749685153  0.123849936  0.722132914
     0.000256863  0.249339363  0.710052026
     0.750000000  0.375000000  0.285126523
     0.000000000  0.500000000  0.285126523
     0.000000000  0.375000000  0.392563261
     0.750000000  0.500000000  0.392563261
     0.750000000  0.375000000  0.500000000
     0.000000000  0.500000000  0.500000000
     0.009290212  0.374940456  0.605156739
     0.757844048  0.499987988  0.611716071
     0.751043996  0.373131597  0.721212771
     0.999774048  0.499963153  0.710009406
     0.250000000  0.625000000  0.285126523
     0.500000000  0.750000000  0.285126523
     0.500000000  0.625000000  0.392563261
     0.250000000  0.750000000  0.392563261
     0.250000000  0.625000000  0.500000000
     0.500000000  0.750000000  0.500000000
     0.509759465  0.622654528  0.606439873
     0.257436458  0.749964605  0.611801602
     0.248878760  0.625236015  0.721877854
     0.501395223  0.750134296  0.708760144
     0.250000000  0.875000000  0.285126523
     0.500000000  0.000000000  0.285126523
     0.500000000  0.875000000  0.392563261
     0.250000000  0.000000000  0.392563261
[...]
     0.500000000  0.500000000  0.434467643
     0.347509432  0.375000000  0.392563261
     0.652490568  0.375000000  0.392563261
     0.250000000  0.500000000  0.458095618
     0.250000000  0.500000000  0.541904382
     0.597509432  0.375000000  0.500000000
     0.402490568  0.375000000  0.500000000
     0.500650169  0.499872264  0.566591156
     0.500113252  0.500269675  0.651140674
     0.348692173  0.375054723  0.608508732
     0.650875318  0.375067546  0.608478130
     0.249552150  0.500348613  0.673106397
     0.251976977  0.500212515  0.757324869
     0.595703231  0.371606508  0.717585906
     0.406290861  0.373837834  0.719577552

  ion indices of the primitive-cell ions
   primitive index   ion index
                 1           1
                 2           2
                 3           3
[...]
   3.29806188  7.49122569 22.25983164
   6.64432943  8.98768652 21.85533382
   3.31292019 10.48375704  8.79216387
   6.62584038  0.00000000  8.79216387
   6.62584038 10.48375704 12.10508406
   3.31292019  0.00000000 12.10508406
[...]
   6.62584038  5.99071831 13.39724792
   4.60508406  4.49303873 12.10508406
   8.64659670  4.49303873 12.10508406
   3.31292019  5.99071831 14.12584038
   3.31292019  5.99071831 16.71016811
   7.91800424  4.49303873 15.41800424
   5.33367651  4.49303873 15.41800424
   6.63445620  5.98918784 17.47140968
   6.62734115  5.99394940 20.07857934
   4.62075735  4.49369439 18.76398041
   8.62519193  4.49384803 18.76303677
   3.30698542  5.99489519 20.75591456
   3.33911846  5.99326455 23.35287609
   7.89406904  4.45237982 22.12748510
   5.38403679  4.47911431 22.18889949

--------------------------------------- Iteration      FINAL  ---------------------------------------

--------------------OUTCAR has been truncated-------------------------

[...]

--------------------OUTCAR has been truncated-------------------------

  FORCE on cell =-STRESS in cart. coord.  units (eV):
  Direction    XX          YY          ZZ          XY          YZ          ZX
  Alpha Z  4523.10538  4523.10538  4523.10538
  Ewald  931299.22999949199.69085************   -76.14342   131.32655   -60.85256
  Hartree972605.45644982447.62931************   -40.33328    78.11421   -41.97689
  E(xc)   -8850.77215 -8824.71416 -8850.96402    -0.05628     0.01663    -0.03647
  Local  ************************************   109.72181  -200.69964   101.55727
  n-local -5481.14059 -5399.74185 -5515.20678    -1.08877     1.94190    -0.82560
  augment  5309.59161  5292.39778  5315.68325     0.48409    -0.74165     0.02998
  Kinetic 28818.47648 28362.08637 28866.61670     7.38655   -10.10472     2.24544
  Fock        0.00000     0.00000     0.00000     0.00000     0.00000     0.00000
  Total      11.76784   -31.86625   -33.19962    -0.02930    -0.14671     0.14117
  in kB       3.85096   -10.42806   -10.86440    -0.00959    -0.04801     0.04620

 VOLUME and BASIS-vectors are now :
  energy-cutoff  :      600.00
  volume of cell :     4895.96
      direct lattice vectors                 reciprocal lattice vectors
    13.251680751  0.000000000  0.000000000     0.075462126  0.000000000  0.000000000
     0.000000000 11.981436613  0.000000000     0.000000000  0.083462445  0.000000000
     0.000000000  0.000000000 30.836008487     0.000000000  0.000000000  0.032429619

  length of vectors
    13.251680751 11.981436613 30.836008487     0.075462126  0.083462445  0.032429619

 FORCES acting on ions:
    Electron-Ion                     Ewald-Force                    Non-Local-Force
   0.359E+02 -.859E+02 -.153E+04   -.385E+02 0.907E+02 0.153E+04   0.268E+01 -.493E+01 -.470E+01
   0.143E+02 0.117E+03 -.238E+04   -.397E+02 -.140E+03 0.237E+04   0.254E+02 0.229E+02 0.138E+02
   0.580E+02 -.145E+02 -.373E+03   -.641E+02 0.151E+02 0.373E+03   0.609E+01 -.559E+00 0.450E+00
   -.777E+02 0.189E+02 -.409E+03   0.858E+02 -.198E+02 0.410E+03   -.812E+01 0.940E+00 -.205E+00
   -.103E+02 0.861E+01 -.367E+03   0.117E+02 -.103E+02 0.373E+03   -.144E+01 0.168E+01 -.554E+01
   -.201E+02 -.613E+02 -.371E+03   0.227E+02 0.664E+02 0.370E+03   -.265E+01 -.508E+01 0.118E+01
   -.213E+00 -.222E-01 0.364E+04   0.209E+00 0.227E-01 -.364E+04   0.109E-02 -.522E-04 0.358E+00
   -.471E-01 -.670E-01 0.381E+04   0.480E-01 0.672E-01 -.380E+04   -.159E-03 -.297E-04 -.365E+01
   -.113E+00 -.448E-01 0.186E+04   0.116E+00 0.449E-01 -.186E+04   -.545E-03 0.775E-04 -.463E-01
   -.472E+00 -.521E-01 0.185E+04   0.463E+00 0.530E-01 -.186E+04   0.260E-02 0.258E-05 0.205E+00
   -.245E+01 -.155E+00 0.146E+02   0.241E+01 0.156E+00 -.138E+02   0.114E-01 -.312E-03 -.116E+00
   0.202E+01 -.834E+00 0.211E+02   -.205E+01 0.839E+00 -.222E+02   0.107E-01 -.203E-02 0.380E+00
   0.274E+02 -.166E+01 -.178E+04   -.273E+02 0.166E+01 0.178E+04   -.144E+00 -.685E-02 0.234E+00
   0.194E+01 -.790E+01 -.182E+04   -.182E+01 0.791E+01 0.182E+04   -.170E+00 -.800E-02 -.264E+00
   -.883E+02 -.191E+02 -.356E+04   0.881E+02 0.190E+02 0.356E+04   0.184E+00 0.483E-01 -.165E+00
   -.313E+01 -.460E+01 -.362E+04   0.316E+01 0.462E+01 0.362E+04   -.289E-01 -.245E-01 0.974E+00
   -.218E+00 -.702E-01 0.364E+04   0.215E+00 0.706E-01 -.364E+04   0.116E-02 0.303E-05 0.358E+00
   -.458E-01 -.301E-01 0.381E+04   0.467E-01 0.302E-01 -.380E+04   -.171E-03 -.881E-05 -.365E+01
   -.883E-01 -.125E+00 0.186E+04   0.913E-01 0.126E+00 -.186E+04   -.456E-03 0.196E-04 -.464E-01
   -.548E+00 -.693E-01 0.185E+04   0.538E+00 0.688E-01 -.186E+04   0.254E-02 -.710E-04 0.205E+00
   -.369E+01 -.770E+00 0.133E+02   0.367E+01 0.790E+00 -.126E+02   0.815E-02 -.484E-03 -.118E+00
   0.222E+01 -.208E+00 0.200E+02   -.225E+01 0.207E+00 -.211E+02   0.109E-01 0.212E-03 0.378E+00
   0.291E+02 -.263E+01 -.178E+04   -.290E+02 0.264E+01 0.178E+04   -.152E+00 -.814E-02 0.230E+00
   0.494E+01 -.143E+01 -.184E+04   -.482E+01 0.143E+01 0.184E+04   -.169E+00 -.218E-02 -.267E+00
   -.287E+02 -.282E+02 -.360E+04   0.286E+02 0.283E+02 0.360E+04   0.634E-01 -.188E-02 -.271E+00
   -.251E+01 -.182E+01 -.363E+04   0.248E+01 0.182E+01 0.363E+04   0.217E-01 -.389E-02 0.101E+01
   -.212E+00 0.221E-01 0.364E+04   0.209E+00 -.227E-01 -.364E+04   0.114E-02 0.691E-04 0.358E+00
   -.485E-01 0.670E-01 0.381E+04   0.495E-01 -.672E-01 -.380E+04   -.189E-03 0.315E-04 -.365E+01
   -.979E-01 0.470E-01 0.186E+04   0.101E+00 -.470E-01 -.186E+04   -.613E-03 -.523E-04 -.464E-01
   -.430E+00 0.522E-01 0.185E+04   0.421E+00 -.532E-01 -.186E+04   0.245E-02 -.427E-04 0.206E+00
   -.345E+01 0.350E+00 0.130E+02   0.343E+01 -.390E+00 -.122E+02   0.884E-02 0.269E-02 -.117E+00
   0.189E+01 0.819E+00 0.208E+02   -.192E+01 -.825E+00 -.219E+02   0.973E-02 0.240E-02 0.380E+00
   0.297E+02 0.155E+01 -.178E+04   -.297E+02 -.156E+01 0.178E+04   -.154E+00 0.462E-02 0.231E+00
   0.288E+01 0.771E+01 -.183E+04   -.277E+01 -.771E+01 0.183E+04   -.163E+00 -.210E-02 -.269E+00
   -.221E+02 0.129E+02 -.361E+04   0.220E+02 -.129E+02 0.361E+04   0.571E-01 -.701E-02 -.280E+00
   -.241E+01 0.446E+01 -.362E+04   0.243E+01 -.447E+01 0.362E+04   -.208E-01 0.207E-01 0.974E+00
   -.207E+00 0.703E-01 0.364E+04   0.204E+00 -.705E-01 -.364E+04   0.107E-02 -.815E-06 0.358E+00
   -.499E-01 0.302E-01 0.381E+04   0.508E-01 -.302E-01 -.380E+04   -.180E-03 0.749E-05 -.365E+01
   -.123E+00 0.123E+00 0.186E+04   0.127E+00 -.123E+00 -.186E+04   -.679E-03 -.537E-04 -.463E-01
   -.358E+00 0.692E-01 0.185E+04   0.349E+00 -.687E-01 -.186E+04   0.230E-02 0.450E-05 0.206E+00
   -.219E+01 0.580E+00 0.143E+02   0.216E+01 -.563E+00 -.135E+02   0.118E-01 -.612E-03 -.115E+00
   0.187E+01 0.212E+00 0.220E+02   -.189E+01 -.211E+00 -.230E+02   0.882E-02 -.420E-03 0.378E+00
   0.276E+02 0.306E+01 -.178E+04   -.276E+02 -.306E+01 0.178E+04   -.147E+00 0.314E-02 0.233E+00
   0.416E+00 0.148E+01 -.182E+04   -.277E+00 -.147E+01 0.182E+04   -.196E+00 -.350E-02 -.282E+00
   -.749E+02 0.228E+02 -.356E+04   0.749E+02 -.226E+02 0.356E+04   0.866E-01 -.928E-01 -.152E+00
   -.579E+01 0.255E+01 -.362E+04   0.577E+01 -.255E+01 0.362E+04   0.236E-01 0.145E-02 0.926E+00
   0.205E+00 -.183E-01 0.364E+04   -.201E+00 0.183E-01 -.364E+04   -.100E-02 0.447E-05 0.357E+00
   0.553E-01 -.585E-01 0.381E+04   -.561E-01 0.590E-01 -.380E+04   0.161E-03 -.669E-04 -.366E+01
   0.301E+00 0.148E+00 0.186E+04   -.305E+00 -.136E+00 -.186E+04   0.504E-03 -.264E-02 -.482E-01
   0.289E+00 -.152E-01 0.185E+04   -.280E+00 0.160E-01 -.186E+04   -.155E-02 -.825E-04 0.203E+00
   -.297E+00 0.186E+00 0.126E+02   0.355E+00 -.204E+00 -.118E+02   -.926E-02 0.124E-02 -.123E+00
   0.394E+01 0.110E+01 0.256E+02   -.398E+01 -.117E+01 -.264E+02   0.111E-01 0.328E-01 0.297E+00
   0.339E+02 -.127E+02 -.176E+04   -.338E+02 0.127E+02 0.176E+04   -.181E+00 -.494E-01 0.149E+00
   0.228E+02 -.681E+01 -.183E+04   -.227E+02 0.681E+01 0.183E+04   -.188E+00 0.584E-02 -.283E+00
   0.622E+02 -.166E+02 -.357E+04   -.624E+02 0.166E+02 0.357E+04   0.121E+00 0.983E-02 -.261E+00
   0.209E+02 -.761E+02 -.353E+04   -.208E+02 0.762E+02 0.353E+04   -.169E+00 -.263E-01 0.111E+01
   0.210E+00 -.679E-01 0.364E+04   -.207E+00 0.685E-01 -.364E+04   -.109E-02 -.259E-04 0.357E+00
   0.540E-01 -.393E-01 0.381E+04   -.548E-01 0.393E-01 -.380E+04   0.165E-03 -.137E-05 -.366E+01
   0.277E+00 -.288E-02 0.186E+04   -.281E+00 0.452E-02 -.186E+04   0.617E-03 -.102E-02 -.492E-01
   0.364E+00 -.854E-01 0.185E+04   -.354E+00 0.855E-01 -.186E+04   -.161E-02 0.915E-04 0.203E+00
[...]
   -.559E+02 0.215E-01 0.111E+04   0.601E+02 -.225E-01 -.111E+04   -.377E+01 0.165E-02 0.157E+00
   0.560E+02 0.280E-01 0.111E+04   -.602E+02 -.288E-01 -.111E+04   0.378E+01 0.116E-02 0.162E+00
   -.227E-01 0.147E+00 0.495E+03   0.480E-01 -.149E+00 -.499E+03   -.364E-01 0.601E-02 0.435E+01
   0.220E+01 0.631E+00 -.495E+03   -.247E+01 -.634E+00 0.503E+03   0.264E+00 0.414E-02 -.742E+01
   -.569E+02 -.200E-02 0.154E+02   0.618E+02 -.256E-02 -.156E+02   -.529E+01 0.228E-01 0.323E+00
   0.582E+02 -.106E+00 0.116E+02   -.630E+02 0.985E-01 -.117E+02   0.531E+01 0.294E-01 0.240E+00
   0.195E+02 0.139E+01 -.578E+03   -.212E+02 -.148E+01 0.571E+03   0.167E+01 0.842E-01 0.716E+01
   0.183E+02 0.231E+01 -.153E+04   -.195E+02 -.224E+01 0.153E+04   0.122E+01 -.728E-01 -.171E+01
   -.647E+02 0.404E+01 -.107E+04   0.725E+02 -.411E+01 0.106E+04   -.779E+01 0.692E-01 0.136E+01
   -.965E+01 0.555E+01 -.107E+04   0.110E+02 -.569E+01 0.107E+04   -.133E+01 0.135E+00 0.634E+00
   0.260E+02 0.321E+01 -.172E+04   -.266E+02 -.332E+01 0.172E+04   0.611E+00 0.107E+00 -.222E+01
   0.574E+02 0.975E+01 -.260E+04   -.570E+02 -.978E+01 0.262E+04   -.446E+00 0.278E-01 -.201E+02
   -.557E+02 0.479E+02 -.214E+04   0.615E+02 -.471E+02 0.214E+04   -.582E+01 -.833E+00 -.138E+01
   0.713E+02 0.521E+02 -.218E+04   -.777E+02 -.528E+02 0.218E+04   0.638E+01 0.621E+00 -.292E+01
   0.217E+02 -.165E+02 0.811E+02   0.252E-11 -.455E-12 -.214E-10   -.217E+02 0.164E+02 -.811E+02

 POSITION                                       TOTAL-FORCE (eV/Angst)
      6.61376      6.99005     25.16346        -0.003931      0.002722      0.004494
      7.02541      5.94537     24.21760         0.000164      0.002776      0.003003
      5.53100      7.08489     25.07444        -0.008136     -0.003964      0.002699
      8.00674      5.85515     24.25568        -0.001534      0.001048      0.002237
      6.88817      6.67438     26.17462        -0.001402     -0.004229      0.005325
      7.11085      7.93976     24.92267        -0.007191     -0.002992      0.005158
      9.93876      7.48840      8.79216        -0.002357      0.000454     -3.342125
      0.00000      8.98608      8.79216         0.000720      0.000206      2.735336
      0.00000      7.48840     12.10508         0.002750      0.000171      0.487695
      9.93876      8.98608     12.10508        -0.006889      0.000978     -0.693403
      9.93876      7.48840     15.41800        -0.023345      0.000966      0.634232
      0.00000      8.98608     15.41800        -0.017427      0.002844     -0.701882
      0.12343      7.48924     18.66156        -0.000438     -0.001106     -0.000390
     10.03815      8.98837     18.86151         0.002231      0.001776      0.001487
      9.94098      7.48774     22.24128         0.000124      0.002758     -0.000892
     13.24932      8.99148     21.89573         0.000215     -0.000294      0.001864
      9.93876     10.48376      8.79216        -0.002483      0.000339     -3.342223
      0.00000      0.00000      8.79216         0.000731      0.000087      2.735175
      0.00000     10.48376     12.10508         0.002549      0.000153      0.487923
      9.93876      0.00000     12.10508        -0.007175     -0.000552     -0.693644
      9.93876     10.48376     15.41800        -0.011874      0.019757      0.647928
      0.00000      0.00000     15.41800        -0.017111     -0.000255     -0.702853
      0.12266     10.48434     18.66284         0.000177     -0.001716      0.003575
     10.02920      0.00040     18.86976         0.002883      0.000858      0.001601
      9.93348     10.47665     22.26852         0.002836      0.001189      0.003021
      0.00562     11.97981     21.89490        -0.001322      0.000373      0.002748
      9.93876      1.49768      8.79216        -0.002450     -0.000528     -3.342544
      0.00000      2.99536      8.79216         0.000779     -0.000194      2.735204
      0.00000      1.49768     12.10508         0.002949     -0.000116      0.487915
      9.93876      2.99536     12.10508        -0.006573     -0.000997     -0.695936
      9.93876      1.49768     15.41800        -0.011745     -0.036877      0.636702
      0.00000      2.99536     15.41800        -0.013116     -0.003457     -0.704596
      0.12251      1.49678     18.66249         0.001448      0.000835      0.004209
     10.03479      2.99335     18.85826         0.004719     -0.000974      0.001455
      9.93459      1.48390     22.26770        -0.000592     -0.002657      0.006570
      0.00340      2.98744     21.89517         0.000980      0.000375      0.002763
      9.93876      4.49304      8.79216        -0.002340     -0.000235     -3.342388
      0.00000      5.99072      8.79216         0.000749     -0.000073      2.735377
      0.00000      4.49304     12.10508         0.003159     -0.000213      0.487656
      9.93876      5.99072     12.10508        -0.006362      0.000544     -0.695681
      9.93876      4.49304     15.41800        -0.023312      0.016025      0.623459
      0.00000      5.99072     15.41800        -0.013884      0.000660     -0.703081
      0.12311      4.49233     18.66062        -0.003508      0.002319      0.002684
     10.04271      5.99057     18.86288         0.000789      0.000601      0.003386
      9.95260      4.47065     22.23932        -0.003023     -0.000199      0.002911
     13.24869      5.99028     21.89386         0.003583      0.000134      0.002221
      3.31292      7.48840      8.79216         0.002415     -0.000011     -3.341025
      6.62584      8.98608      8.79216        -0.000633      0.000429      2.741872
      6.62584      7.48840     12.10508        -0.003182      0.009869      0.509320
      3.31292      8.98608     12.10508         0.007727      0.000791     -0.685924
      3.31292      7.48840     15.41800         0.048491     -0.017051      0.659277
      6.62584      8.98608     15.41800        -0.029039     -0.036937     -0.575632
      6.75517      7.46030     18.70019        -0.003150      0.001979      0.007502
      3.41147      8.98565     18.86552         0.002386      0.001517      0.002433
      3.29806      7.49123     22.25983        -0.001124     -0.000183      0.005319
      6.64433      8.98769     21.85533         0.000755     -0.002458      0.003815
      3.31292     10.48376      8.79216         0.002517      0.000515     -3.341126
      6.62584      0.00000      8.79216        -0.000634      0.000031      2.741889
      6.62584     10.48376     12.10508        -0.003315      0.000630      0.512456
      3.31292      0.00000     12.10508         0.008120      0.000210     -0.684478
[...]
      6.62584      5.99072     13.39725         0.002446     -0.000696     -0.107529
      4.60508      4.49304     12.10508         0.413614      0.000635      0.049649
      8.64660      4.49304     12.10508        -0.410352      0.000395      0.051095
      3.31292      5.99072     14.12584        -0.011132      0.003399     -0.117583
      3.31292      5.99072     16.71017        -0.003802      0.001090     -0.039656
      7.91800      4.49304     15.41800        -0.423242      0.018243      0.083314
      5.33368      4.49304     15.41800         0.447307      0.021898      0.090047
      6.63446      5.98919     17.47141         0.001423      0.000760     -0.004494
      6.62734      5.99395     20.07858         0.000665     -0.000525     -0.000666
      4.62076      4.49369     18.76398         0.003964     -0.002655     -0.002292
      8.62519      4.49385     18.76304         0.000633     -0.000499      0.001082
      3.30699      5.99490     20.75591         0.004529     -0.001869      0.000276
      3.33912      5.99326     23.35288        -0.000434     -0.001254     -0.002180
      7.89407      4.45238     22.12749        -0.000572     -0.001842      0.001645
      5.38404      4.47911     22.18890         0.001979     -0.001622      0.000735
    total drift:                                0.001315     -0.001094      0.003806

  FREE ENERGIE OF THE ION-ELECTRON SYSTEM (eV)
  free  energy   TOTEN  =     -1593.65813517 eV

  energy  without entropy=    -1593.65813517  energy(sigma->0) =    -1593.65813517

 reached required accuracy - stopping structural energy minimisation