 vasp.6.4.1 05Apr23 (build Sep 19 2024 10:44:22) complex

 executed on             LinuxIFC date 2024.10.18  09:07:08

 INCAR:
   SYSTEM = TiO2
   ISMEAR = 0
   SIGMA = 0.05
   EDIFF = 1E-7
   ALGO = ALL
   ISTART = 0
   IBRION = 2
   NSW = 1000
   ISYM = 0
   ISIF = 2
   EDIFFG = -0.01
   DIPOL = 0.5 0.5 0.5
   IDIPOL = 3
   LDIPOL = .TRUE.
   GGA = RE
   AGGAC = 0.0
   LUSE_VDW = .TRUE.
   LASPH = .TRUE.
   ENCUT = 600
   PREC = Accurate
   LASPH = .TRUE.
   LREAL = .FALSE.
   ISPIN = 1
   NELM = 200
   NELMIN = 8
   NCORE = 8
   KPAR = 1
   LWAVE = .FALSE.
   LCHARG = .FALSE.

 POTCAR:    PAW_PBE C 08Apr2002
 POTCAR:    PAW_PBE O 08Apr2002
 POTCAR:    PAW_PBE H 15Jun2001
 POTCAR:    PAW_PBE Ti_pv 07Sep2000
 POTCAR:    PAW_PBE O 08Apr2002
|           W    W    AA    RRRRR   N    N  II  N    N   GGGG   !!!           |
|           W    W   A  A   R    R  NN   N  II  NN   N  G    G  !!!           |
|           W    W  A    A  R    R  N N  N  II  N N  N  G       !!!           |
|           W WW W  AAAAAA  RRRRR   N  N N  II  N  N N  G  GGG   !            |
|           WW  WW  A    A  R   R   N   NN  II  N   NN  G    G                |
|           W    W  A    A  R    R  N    N  II  N    N   GGGG   !!!           |
|     For optimal performance we recommend to set                             |
|       NCORE = 2 up to number-of-cores-per-socket                            |
|     This setting can greatly improve the performance of VASP for DFT.       |
|     The default, NCORE=1 might be grossly inefficient on modern             |
|     multi-core architectures or massively parallel machines. Do your        |
|     Unfortunately you need to use the default for GW and RPA                |
|     calculations (for HF NCORE is supported but not extensively tested      |
|     yet).                                                                   |

   TITEL  = PAW_PBE C 08Apr2002
   POMASS =   12.011; ZVAL   =    4.000    mass and valenz
   ENMAX  =  400.000; ENMIN  =  300.000 eV

[...]

   TITEL  = PAW_PBE H 15Jun2001
   POMASS =    1.000; ZVAL   =    1.000    mass and valenz
   ENMAX  =  250.000; ENMIN  =  200.000 eV

   TITEL  = PAW_PBE Ti_pv 07Sep2000
   POMASS =   47.880; ZVAL   =   10.000    mass and valenz
   ENMAX  =  222.335; ENMIN  =  166.751 eV

   TITEL  = PAW_PBE O 08Apr2002
   POMASS =   16.000; ZVAL   =    6.000    mass and valenz
   ENMAX  =  400.000; ENMIN  =  300.000 eV

  PAW_PBE C 08Apr2002                   :
  PAW_PBE O 08Apr2002                   :
  PAW_PBE H 15Jun2001                   :
  PAW_PBE Ti_pv 07Sep2000               :
  PAW_PBE O 08Apr2002                   :

 POSCAR:  C  O  H Ti  O
  positions in direct lattice
 exchange correlation table for  LEXCH =       40
   RHO(1)=    0.500       N(1)  =     2000
   RHO(2)=  100.500       N(2)  =     4000

 ion  position               nearest neighbor table
   1  0.509  0.587  0.809-   3 1.09   5 1.10   6 1.10   2 1.45
   2  0.537  0.498  0.779-   4 1.00   1 1.45  86 2.18
   3  0.427  0.597  0.807-   1 1.09
   4  0.612  0.494  0.778-   2 1.00
   5  0.532  0.564  0.842-   1 1.10
   6  0.547  0.666  0.800-   1 1.10
   7  0.750  0.625  0.285-  87 1.98 147 1.98  88 1.98 148 1.98 169 2.02  90 2.02  17 3.00  37 3.00

   8  0.000  0.750  0.285-  89 1.98  90 1.98 109 1.98 110 1.98  91 2.02  38 3.00  18 3.00
   9  0.000  0.625  0.393-  91 1.98 151 1.98  92 1.98 152 1.98  93 2.02  94 2.02  19 3.00  39 3.00

[...]

  87  0.750  0.750  0.243-   7 1.98  17 1.98
  88  0.750  0.750  0.327-   7 1.98  17 1.98  10 2.02
  89  0.098  0.625  0.285-   8 1.98  38 1.98  47 2.02
  90  0.902  0.625  0.285-   8 1.98  38 1.98   7 2.02
  91  0.000  0.750  0.351-   9 1.98  19 1.98   8 2.02
  92  0.000  0.750  0.434-   9 1.98  19 1.98  12 2.02
  93  0.848  0.625  0.393-  10 1.98  40 1.98   9 2.02
  94  0.152  0.625  0.393-  50 1.98  80 1.98   9 2.02
  95  0.750  0.750  0.458-  11 1.98  21 1.98  10 2.02
  96  0.750  0.750  0.542-  11 1.98  21 1.98  14 2.17
  97  0.098  0.625  0.500-  12 1.98  42 1.98  51 2.02
  98  0.902  0.625  0.500-  12 1.98  42 1.98  11 2.02
  99  0.000  0.750  0.567-  13 1.92  23 1.92  12 2.05
 100  0.000  0.750  0.651-  16 1.83  23 2.05  13 2.05
 101  0.850  0.625  0.608-  13 1.99  14 2.00  44 2.00
 102  0.150  0.625  0.608-  13 1.99  84 2.00  54 2.00
 103  0.750  0.750  0.673-  14 1.88  15 2.13  25 2.13
 104  0.750  0.750  0.758-  25 1.85  15 1.85
 105  0.094  0.625  0.721-  46 1.97  16 1.97  55 2.07
 106  0.906  0.625  0.721-  16 1.97  46 1.97  15 2.07
 107  0.750  0.000  0.243-  17 1.98  27 1.98
 108  0.750  0.000  0.327-  17 1.98  27 1.98  20 2.02
 109  0.098  0.875  0.285-   8 1.98  18 1.98  57 2.02
 110  0.902  0.875  0.285-   8 1.98  18 1.98  17 2.02
 111  0.000  0.000  0.351-  19 1.98  29 1.98  18 2.02
 112  0.000  0.000  0.434-  19 1.98  29 1.98  22 2.02
 113  0.848  0.875  0.393-  10 1.98  20 1.98  19 2.02
 114  0.152  0.875  0.393-  50 1.98  60 1.98  19 2.02
 115  0.750  0.000  0.458-  21 1.98  31 1.98  20 2.02
 116  0.750  0.000  0.542-  21 1.98  31 1.98  24 2.17
 117  0.098  0.875  0.500-  12 1.98  22 1.98  61 2.02
 118  0.902  0.875  0.500-  12 1.98  22 1.98  21 2.02
 119  0.000  0.000  0.567-  33 1.92  23 1.92  22 2.05
 120  0.000  0.000  0.651-  26 1.83  33 2.05  23 2.05
 121  0.850  0.875  0.608-  23 1.99  14 2.00  24 2.00
 122  0.150  0.875  0.608-  23 1.99  64 2.00  54 2.00
 123  0.750  0.000  0.673-  24 1.88  35 2.13  25 2.13
 124  0.750  1.000  0.758-  25 1.85  35 1.85
 125  0.094  0.875  0.721-  26 1.97  16 1.97  65 2.07
 126  0.906  0.875  0.721-  16 1.97  26 1.97  25 2.07
 127  0.750  0.250  0.243-  27 1.98  37 1.98
 128  0.750  0.250  0.327-  27 1.98  37 1.98  30 2.02
 129  0.098  0.125  0.285-  18 1.98  28 1.98  67 2.02
 130  0.902  0.125  0.285-  18 1.98  28 1.98  27 2.02
 131  0.000  0.250  0.351-  29 1.98  39 1.98  28 2.02
 132  0.000  0.250  0.434-  29 1.98  39 1.98  32 2.02
 133  0.848  0.125  0.393-  20 1.98  30 1.98  29 2.02
 134  0.152  0.125  0.393-  60 1.98  70 1.98  29 2.02
 135  0.750  0.250  0.458-  31 1.98  41 1.98  30 2.02
 136  0.750  0.250  0.542-  31 1.98  41 1.98  34 2.17
 137  0.098  0.125  0.500-  22 1.98  32 1.98  71 2.02
 138  0.902  0.125  0.500-  22 1.98  32 1.98  31 2.02
 139  0.000  0.250  0.567-  33 1.92  43 1.92  32 2.05
 140  0.000  0.250  0.651-  36 1.83  43 2.05  33 2.05
 141  0.850  0.125  0.608-  33 1.99  24 2.00  34 2.00
 142  0.150  0.125  0.608-  33 1.99  74 2.00  64 2.00
 143  0.750  0.250  0.673-  34 1.88  35 2.13  45 2.13
 144  0.750  0.250  0.758-  45 1.85  35 1.85
 145  0.094  0.125  0.721-  26 1.97  36 1.97  75 2.07
 146  0.906  0.125  0.721-  26 1.97  36 1.97  35 2.07
[...]
 232  0.500  0.500  0.434-  49 1.98  79 1.98  82 2.02
 233  0.348  0.375  0.393-  70 1.98  80 1.98  79 2.02
 234  0.652  0.375  0.393-  30 1.98  40 1.98  79 2.02
 235  0.250  0.500  0.458-  51 1.98  81 1.98  80 2.02
 236  0.250  0.500  0.542-  51 1.98  81 1.98  84 2.17
 237  0.598  0.375  0.500-  72 1.98  82 1.98  41 2.02
 238  0.402  0.375  0.500-  72 1.98  82 1.98  81 2.02
 239  0.500  0.500  0.567-  53 1.92  83 1.92  82 2.05
 240  0.500  0.500  0.651-  86 1.83  83 2.05  53 2.05
 241  0.350  0.375  0.608-  83 1.99  84 2.00  74 2.00
 242  0.650  0.375  0.608-  83 1.99  34 2.00  44 2.00
 243  0.250  0.500  0.673-  84 1.88  85 2.13  55 2.13
 244  0.250  0.500  0.758-  55 1.85  85 1.85
 245  0.594  0.375  0.721-  76 1.97  86 1.97  45 2.07
 246  0.406  0.375  0.721-  86 1.97  76 1.97  85 2.07

IMPORTANT INFORMATION: All symmetrisations will be switched off!
NOSYMM: (Re-)initialisation of all symmetry stuff for point group C_1.

                                     Primitive cell

  volume of cell :    4896.0359

  direct lattice vectors                    reciprocal lattice vectors
    13.251808214  0.000000000  0.000000000     0.075461400  0.000000000  0.000000000
     0.000000000 11.981455428  0.000000000     0.000000000  0.083462314  0.000000000
     0.000000000  0.000000000 30.836130416     0.000000000  0.000000000  0.032429491

  length of vectors
    13.251808214 11.981455428 30.836130416     0.075461400  0.083462314  0.032429491

  position of ions in fractional coordinates (direct lattice)
     0.509395126  0.587369396  0.808722855
     0.537205514  0.498264389  0.779174099
     0.427369108  0.596608269  0.807060960
     0.612474461  0.493614302  0.777783257
     0.532356948  0.564119143  0.841732485
     0.547090579  0.665805583  0.799555504
     0.750000000  0.625000000  0.285125305
     0.000000000  0.750000000  0.285125305
     0.000000000  0.625000000  0.392562653
     0.750000000  0.750000000  0.392562653
     0.750000000  0.625000000  0.500000000
     0.000000000  0.750000000  0.500000000
     0.999999783  0.625000001  0.605415143
     0.750000059  0.750000045  0.612299575
     0.749999979  0.624999985  0.722555212
     0.999999987  0.749999999  0.710254076
     0.750000000  0.875000000  0.285125305
     0.000000000  0.000000000  0.285125305
     0.000000000  0.875000000  0.392562653
     0.750000000  0.000000000  0.392562653
     0.750000000  0.875000000  0.500000000
     0.000000000  0.000000000  0.500000000
     0.000000096  0.875000007  0.605415150
     0.749999916  0.999999960  0.612299606
     0.750000032  0.874999978  0.722555251
     0.000000049  0.000000006  0.710254087
     0.750000000  0.125000000  0.285125305
     0.000000000  0.250000000  0.285125305
     0.000000000  0.125000000  0.392562653
     0.750000000  0.250000000  0.392562653
     0.750000000  0.125000000  0.500000000
     0.000000000  0.250000000  0.500000000
     0.999999563  0.124999999  0.605415157
     0.749999603  0.250000064  0.612299578
     0.750000031  0.125000000  0.722555226
     0.000000041  0.250000001  0.710254079
     0.750000000  0.375000000  0.285125305
     0.000000000  0.500000000  0.285125305
     0.000000000  0.375000000  0.392562653
     0.750000000  0.500000000  0.392562653
     0.750000000  0.375000000  0.500000000
     0.000000000  0.500000000  0.500000000
     0.999999638  0.374999995  0.605415153
     0.749999749  0.499999924  0.612299590
     0.750000054  0.374999970  0.722555241
     0.000000014  0.499999998  0.710254077
     0.250000000  0.625000000  0.285125305
     0.500000000  0.750000000  0.285125305
     0.500000000  0.625000000  0.392562653
     0.250000000  0.750000000  0.392562653
     0.250000000  0.625000000  0.500000000
     0.500000000  0.750000000  0.500000000
     0.499999981  0.624999999  0.605415145
     0.250000064  0.749999950  0.612299588
     0.249999988  0.624999978  0.722555237
     0.500000009  0.750000003  0.710254081
     0.250000000  0.875000000  0.285125305
     0.500000000  0.000000000  0.285125305
     0.500000000  0.875000000  0.392562653
     0.250000000  0.000000000  0.392562653
[...]
     0.500000000  0.500000000  0.434466779
     0.347508286  0.375000000  0.392562653
     0.652491714  0.375000000  0.392562653
     0.250000000  0.500000000  0.458095874
     0.250000000  0.500000000  0.541904126
     0.597508286  0.375000000  0.500000000
     0.402491714  0.375000000  0.500000000
     0.500000026  0.499999998  0.566523431
     0.500000050  0.500000001  0.650778877
     0.349910089  0.375000000  0.608432961
[...]
   4.63694139  4.49304579 18.76171815
   8.61487125  4.49304567 18.76171875
   3.31295227  5.99072745 20.76411590
   3.31295223  5.99072748 23.36421690
   7.86747301  4.49304585 22.23209707
   5.38433593  4.49304573 22.23209688

--------------------------------------- Iteration      FINAL  ---------------------------------------

--------------------OUTCAR has been truncated-------------------------

[...]

--------------------OUTCAR has been truncated-------------------------

  FORCE on cell =-STRESS in cart. coord.  units (eV):
  Direction    XX          YY          ZZ          XY          YZ          ZX
  Alpha Z  4523.03689  4523.03689  4523.03689
  Ewald  931092.81673948991.16531************   -76.99940   130.43039   -59.79499
  Hartree972401.69276982242.95481************   -41.13480    77.70617   -41.38553
  E(xc)   -8850.72546 -8824.66202 -8850.92250    -0.05369     0.01552    -0.02974
  Local  ************************************   111.42090  -199.45560    99.94397
  n-local -5481.11577 -5399.81045 -5515.25471    -1.10127     1.92475    -0.85204
  augment  5309.58734  5292.43521  5315.68548     0.48387    -0.73572     0.02983
  Kinetic 28818.10915 28362.18615 28866.21578     7.37119    -9.96592     2.17999
  Fock        0.00000     0.00000     0.00000     0.00000     0.00000     0.00000
  Total      11.56659   -32.02073   -33.56869    -0.01321    -0.08041     0.09149
  in kB       3.78505   -10.47845   -10.98501    -0.00432    -0.02631     0.02994

 VOLUME and BASIS-vectors are now :
  energy-cutoff  :      600.00
  volume of cell :     4896.04
      direct lattice vectors                 reciprocal lattice vectors
    13.251808214  0.000000000  0.000000000     0.075461400  0.000000000  0.000000000
     0.000000000 11.981455428  0.000000000     0.000000000  0.083462314  0.000000000
     0.000000000  0.000000000 30.836130416     0.000000000  0.000000000  0.032429491

  length of vectors
    13.251808214 11.981455428 30.836130416     0.075461400  0.083462314  0.032429491

 FORCES acting on ions:
    Electron-Ion                     Ewald-Force                    Non-Local-Force
   0.365E+02 -.849E+02 -.152E+04   -.392E+02 0.897E+02 0.153E+04   0.276E+01 -.487E+01 -.472E+01
   0.125E+02 0.116E+03 -.238E+04   -.377E+02 -.139E+03 0.237E+04   0.252E+02 0.228E+02 0.142E+02
   0.581E+02 -.140E+02 -.373E+03   -.642E+02 0.145E+02 0.372E+03   0.610E+01 -.513E+00 0.476E+00
   -.782E+02 0.183E+02 -.409E+03   0.863E+02 -.192E+02 0.410E+03   -.814E+01 0.903E+00 -.250E+00
   -.101E+02 0.902E+01 -.366E+03   0.116E+02 -.107E+02 0.372E+03   -.143E+01 0.171E+01 -.553E+01
   -.198E+02 -.616E+02 -.370E+03   0.224E+02 0.667E+02 0.369E+03   -.260E+01 -.511E+01 0.112E+01
   -.210E+00 -.217E-01 0.364E+04   0.206E+00 0.222E-01 -.364E+04   0.107E-02 -.347E-04 0.358E+00
   -.460E-01 -.678E-01 0.381E+04   0.468E-01 0.680E-01 -.380E+04   -.148E-03 -.282E-04 -.365E+01
   -.109E+00 -.399E-01 0.186E+04   0.112E+00 0.400E-01 -.186E+04   -.528E-03 0.509E-04 -.462E-01
   -.453E+00 -.506E-01 0.185E+04   0.444E+00 0.516E-01 -.186E+04   0.255E-02 -.277E-05 0.205E+00
   -.234E+01 -.951E-01 0.144E+02   0.231E+01 0.915E-01 -.136E+02   0.113E-01 0.443E-04 -.117E+00
   0.209E+01 -.866E+00 0.211E+02   -.211E+01 0.871E+00 -.222E+02   0.968E-02 -.223E-02 0.380E+00
   0.273E+02 -.174E+01 -.178E+04   -.273E+02 0.174E+01 0.178E+04   -.146E+00 -.579E-02 0.231E+00
   0.213E+01 -.780E+01 -.182E+04   -.201E+01 0.780E+01 0.182E+04   -.169E+00 -.763E-02 -.263E+00
   -.875E+02 -.188E+02 -.356E+04   0.874E+02 0.188E+02 0.356E+04   0.181E+00 0.536E-01 -.164E+00
   -.304E+01 -.460E+01 -.362E+04   0.307E+01 0.461E+01 0.362E+04   -.289E-01 -.249E-01 0.972E+00
   -.216E+00 -.711E-01 0.364E+04   0.212E+00 0.715E-01 -.364E+04   0.114E-02 -.832E-05 0.357E+00
   -.446E-01 -.313E-01 0.381E+04   0.454E-01 0.314E-01 -.380E+04   -.157E-03 -.663E-05 -.365E+01
   -.869E-01 -.135E+00 0.186E+04   0.898E-01 0.135E+00 -.186E+04   -.467E-03 0.931E-04 -.463E-01
   -.537E+00 -.772E-01 0.185E+04   0.527E+00 0.768E-01 -.186E+04   0.254E-02 -.354E-04 0.205E+00
   -.363E+01 -.803E+00 0.131E+02   0.361E+01 0.827E+00 -.124E+02   0.802E-02 -.786E-03 -.119E+00
   0.233E+01 -.286E+00 0.198E+02   -.235E+01 0.285E+00 -.209E+02   0.989E-02 0.274E-04 0.380E+00
   0.291E+02 -.260E+01 -.178E+04   -.290E+02 0.260E+01 0.178E+04   -.153E+00 -.706E-02 0.229E+00
   0.499E+01 -.153E+01 -.184E+04   -.487E+01 0.153E+01 0.184E+04   -.168E+00 -.348E-02 -.268E+00
   -.283E+02 -.280E+02 -.360E+04   0.282E+02 0.280E+02 0.360E+04   0.595E-01 -.256E-02 -.271E+00
   -.247E+01 -.179E+01 -.363E+04   0.245E+01 0.180E+01 0.363E+04   0.213E-01 -.361E-02 0.101E+01
   -.210E+00 0.217E-01 0.364E+04   0.207E+00 -.222E-01 -.364E+04   0.113E-02 0.589E-04 0.357E+00
   -.468E-01 0.677E-01 0.381E+04   0.477E-01 -.680E-01 -.380E+04   -.169E-03 0.297E-04 -.365E+01
   -.914E-01 0.419E-01 0.186E+04   0.947E-01 -.420E-01 -.186E+04   -.582E-03 -.250E-04 -.463E-01
   -.422E+00 0.506E-01 0.185E+04   0.413E+00 -.515E-01 -.186E+04   0.246E-02 -.355E-04 0.206E+00
   -.348E+01 0.296E+00 0.127E+02   0.346E+01 -.332E+00 -.120E+02   0.910E-02 0.237E-02 -.118E+00
   0.206E+01 0.841E+00 0.205E+02   -.208E+01 -.847E+00 -.216E+02   0.861E-02 0.242E-02 0.382E+00
   0.297E+02 0.150E+01 -.178E+04   -.296E+02 -.150E+01 0.178E+04   -.154E+00 0.456E-02 0.232E+00
   0.302E+01 0.762E+01 -.183E+04   -.291E+01 -.762E+01 0.183E+04   -.164E+00 -.167E-02 -.271E+00
   -.221E+02 0.126E+02 -.361E+04   0.221E+02 -.126E+02 0.361E+04   0.601E-01 -.103E-01 -.279E+00
   -.231E+01 0.461E+01 -.362E+04   0.232E+01 -.462E+01 0.362E+04   -.183E-01 0.195E-01 0.980E+00
   -.205E+00 0.712E-01 0.364E+04   0.201E+00 -.715E-01 -.364E+04   0.105E-02 0.634E-05 0.358E+00
   -.482E-01 0.314E-01 0.381E+04   0.491E-01 -.315E-01 -.380E+04   -.161E-03 0.860E-05 -.365E+01
   -.114E+00 0.133E+00 0.186E+04   0.117E+00 -.133E+00 -.186E+04   -.631E-03 -.148E-03 -.462E-01
   -.341E+00 0.773E-01 0.185E+04   0.333E+00 -.769E-01 -.186E+04   0.226E-02 -.258E-04 0.206E+00
   -.217E+01 0.605E+00 0.140E+02   0.214E+01 -.591E+00 -.132E+02   0.117E-01 -.378E-03 -.116E+00
   0.195E+01 0.276E+00 0.219E+02   -.198E+01 -.277E+00 -.229E+02   0.832E-02 0.667E-03 0.378E+00
   0.275E+02 0.311E+01 -.178E+04   -.275E+02 -.311E+01 0.178E+04   -.147E+00 0.129E-02 0.232E+00
   0.443E+00 0.171E+01 -.182E+04   -.305E+00 -.170E+01 0.182E+04   -.194E+00 -.221E-02 -.281E+00
   -.749E+02 0.227E+02 -.356E+04   0.748E+02 -.226E+02 0.356E+04   0.906E-01 -.891E-01 -.157E+00
   -.537E+01 0.257E+01 -.362E+04   0.534E+01 -.257E+01 0.362E+04   0.212E-01 -.298E-03 0.930E+00
   0.202E+00 -.186E-01 0.364E+04   -.198E+00 0.187E-01 -.364E+04   -.970E-03 0.243E-05 0.357E+00
   0.544E-01 -.589E-01 0.381E+04   -.551E-01 0.595E-01 -.380E+04   0.146E-03 -.690E-04 -.366E+01
   0.301E+00 0.149E+00 0.186E+04   -.304E+00 -.136E+00 -.186E+04   0.425E-03 -.264E-02 -.481E-01
   0.266E+00 -.190E-01 0.185E+04   -.257E+00 0.200E-01 -.186E+04   -.150E-02 -.662E-04 0.203E+00
   -.412E+00 0.146E+00 0.124E+02   0.469E+00 -.160E+00 -.116E+02   -.938E-02 0.871E-03 -.123E+00
   0.406E+01 0.115E+01 0.252E+02   -.410E+01 -.122E+01 -.260E+02   0.966E-02 0.320E-01 0.299E+00
   0.336E+02 -.124E+02 -.176E+04   -.335E+02 0.125E+02 0.176E+04   -.183E+00 -.521E-01 0.149E+00
   0.227E+02 -.687E+01 -.183E+04   -.226E+02 0.686E+01 0.183E+04   -.189E+00 0.653E-02 -.283E+00
   0.621E+02 -.164E+02 -.356E+04   -.622E+02 0.164E+02 0.356E+04   0.123E+00 0.869E-02 -.260E+00
   0.203E+02 -.756E+02 -.353E+04   -.201E+02 0.757E+02 0.353E+04   -.164E+00 -.269E-01 0.111E+01
   0.207E+00 -.688E-01 0.364E+04   -.204E+00 0.694E-01 -.364E+04   -.107E-02 -.285E-04 0.357E+00
   0.531E-01 -.394E-01 0.381E+04   -.538E-01 0.394E-01 -.380E+04   0.148E-03 -.112E-05 -.366E+01
   0.281E+00 -.119E-02 0.186E+04   -.285E+00 0.322E-02 -.186E+04   0.568E-03 -.107E-02 -.491E-01
   0.347E+00 -.862E-01 0.185E+04   -.337E+00 0.862E-01 -.186E+04   -.158E-02 0.928E-04 0.202E+00
[...]
   -.559E+02 0.220E-01 0.111E+04   0.601E+02 -.230E-01 -.111E+04   -.377E+01 0.171E-02 0.157E+00
   0.560E+02 0.284E-01 0.111E+04   -.602E+02 -.292E-01 -.111E+04   0.378E+01 0.137E-02 0.161E+00
   -.568E-01 0.144E+00 0.494E+03   0.814E-01 -.146E+00 -.499E+03   -.354E-01 0.456E-02 0.435E+01
   0.215E+01 0.563E+00 -.495E+03   -.242E+01 -.561E+00 0.503E+03   0.269E+00 -.184E-02 -.742E+01
   -.569E+02 -.364E-01 0.153E+02   0.618E+02 0.309E-01 -.155E+02   -.529E+01 0.252E-01 0.319E+00
   0.581E+02 -.107E+00 0.114E+02   -.630E+02 0.992E-01 -.115E+02   0.531E+01 0.296E-01 0.246E+00
   0.192E+02 0.127E+01 -.578E+03   -.208E+02 -.133E+01 0.571E+03   0.163E+01 0.659E-01 0.718E+01
   0.182E+02 0.225E+01 -.153E+04   -.195E+02 -.216E+01 0.153E+04   0.122E+01 -.849E-01 -.172E+01
   -.647E+02 0.388E+01 -.106E+04   0.724E+02 -.393E+01 0.106E+04   -.777E+01 0.587E-01 0.140E+01
   -.960E+01 0.575E+01 -.107E+04   0.109E+02 -.592E+01 0.107E+04   -.132E+01 0.170E+00 0.621E+00
   0.255E+02 0.297E+01 -.172E+04   -.260E+02 -.306E+01 0.172E+04   0.543E+00 0.849E-01 -.224E+01
   0.581E+02 0.979E+01 -.260E+04   -.577E+02 -.982E+01 0.262E+04   -.414E+00 0.321E-01 -.200E+02
   -.556E+02 0.478E+02 -.214E+04   0.614E+02 -.470E+02 0.214E+04   -.580E+01 -.799E+00 -.140E+01
   0.709E+02 0.519E+02 -.218E+04   -.773E+02 -.525E+02 0.218E+04   0.636E+01 0.602E+00 -.293E+01
   0.218E+02 -.162E+02 0.807E+02   0.102E-11 -.327E-11 -.364E-10   -.218E+02 0.162E+02 -.807E+02

 POSITION                                       TOTAL-FORCE (eV/Angst)
      6.59617      6.97833     25.17521        -0.003279     -0.004242      0.002649
      7.02145      5.94474     24.22282        -0.003852     -0.000347      0.003022
      5.51297      7.06485     25.08163        -0.002824     -0.006868      0.001698
      8.00256      5.85915     24.26668         0.001224      0.001125     -0.000447
      6.86870      6.65701     26.18532        -0.004491     -0.004375     -0.001088
      7.08581      7.93410     24.94458        -0.003579      0.004122     -0.000074
      9.93886      7.48841      8.79216        -0.002287      0.000374     -3.341973
      0.00000      8.98609      8.79216         0.000696      0.000194      2.735376
      0.00000      7.48841     12.10511         0.002582      0.000222      0.487694
      9.93886      8.98609     12.10511        -0.006774      0.000982     -0.692937
      9.93886      7.48841     15.41807        -0.023668     -0.003606      0.635460
      0.00000      8.98609     15.41807        -0.016445      0.003509     -0.703649
      0.12326      7.48895     18.66081         0.002635     -0.002014      0.000693
     10.03853      8.98850     18.86148         0.001635     -0.001295     -0.001574
      9.94384      7.48800     22.24184        -0.001930     -0.006648     -0.000046
     -0.00061      8.99092     21.89525         0.001663     -0.001361      0.000403
      9.93886     10.48377      8.79216        -0.002419      0.000404     -3.342095
      0.00000      0.00000      8.79216         0.000700      0.000070      2.735171
      0.00000     10.48377     12.10511         0.002430     -0.000157      0.487802
      9.93886      0.00000     12.10511        -0.007146     -0.000419     -0.692675
      9.93886     10.48377     15.41807        -0.012717      0.023527      0.648410
      0.00000      0.00000     15.41807        -0.016304     -0.000318     -0.702786
      0.12377     10.48437     18.66302         0.002064     -0.003202      0.001519
     10.03073      0.00035     18.87067         0.002863      0.000996     -0.003521
      9.93620     10.47656     22.26894        -0.000887     -0.000700     -0.000174
      0.00674     -0.00179     21.89562         0.002140      0.001271     -0.001117
      9.93886      1.49768      8.79216        -0.002402     -0.000473     -3.342337
      0.00000      2.99536      8.79216         0.000737     -0.000194      2.735200
      0.00000      1.49768     12.10511         0.002711     -0.000207      0.487558
      9.93886      2.99536     12.10511        -0.006534     -0.001009     -0.694401
      9.93886      1.49768     15.41807        -0.012712     -0.033378      0.642092
      0.00000      2.99536     15.41807        -0.013028     -0.003017     -0.702843
      0.12386      1.49656     18.66315         0.003259      0.002986      0.002029
     10.03674      2.99335     18.85999         0.001764      0.000627     -0.000747
      9.93526      1.48327     22.26976         0.000104      0.005277     -0.002789
      0.00468      2.98727     21.89603        -0.001087      0.001230     -0.004422
      9.93886      4.49305      8.79216        -0.002277     -0.000299     -3.342180
      0.00000      5.99073      8.79216         0.000719     -0.000066      2.735413
      0.00000      4.49305     12.10511         0.002872      0.000115      0.487491
      9.93886      5.99073     12.10511        -0.006238      0.000397     -0.694657
      9.93886      4.49305     15.41807        -0.023909      0.013397      0.629672
      0.00000      5.99073     15.41807        -0.013749     -0.000514     -0.703675
      0.12301      4.49202     18.66161         0.000821      0.003190     -0.002383
     10.04222      5.99094     18.86403         0.001936     -0.000789     -0.000226
      9.95355      4.47058     22.24173         0.000258     -0.000338     -0.002331
     -0.00061      5.98967     21.89353        -0.002293     -0.000894     -0.003190
      3.31295      7.48841      8.79216         0.002389      0.000048     -3.340962
      6.62590      8.98609      8.79216        -0.000573      0.000439      2.741801
      6.62590      7.48841     12.10511        -0.002918      0.009987      0.508642
      3.31295      8.98609     12.10511         0.007579      0.000889     -0.685409
      3.31295      7.48841     15.41807         0.047145     -0.013398      0.660784
      6.62590      8.98609     15.41807        -0.027369     -0.035826     -0.574313
      6.75402      7.46089     18.70145         0.007032     -0.000845      0.001430
      3.41177      8.98526     18.86672        -0.000422     -0.001001     -0.001078
      3.30026      7.49092     22.26095        -0.000215      0.001908     -0.002520
      6.64653      8.98684     21.85695         0.000869     -0.001158     -0.002403
      3.31295     10.48377      8.79216         0.002497      0.000509     -3.341026
      6.62590      0.00000      8.79216        -0.000564      0.000035      2.741859
      6.62590     10.48377     12.10511        -0.003104      0.000965      0.512099
      3.31295      0.00000     12.10511         0.008066      0.000110     -0.684007
[...]
      6.62590      5.99073     13.39727         0.002361     -0.000588     -0.105567
      4.60511      4.49305     12.10511         0.413898      0.000647      0.049721
      8.64670      4.49305     12.10511        -0.410892      0.000497      0.050975
      3.31295      5.99073     14.12590        -0.010838      0.002588     -0.117767
      3.31295      5.99073     16.71023        -0.002665      0.000033     -0.037915
      7.91807      4.49305     15.41807        -0.425235      0.019752      0.081842
      5.33374      4.49305     15.41807         0.447922      0.022010      0.092581
      6.63579      5.98944     17.47223        -0.000653      0.000250     -0.004542
      6.62770      5.99368     20.07992         0.000039     -0.000625      0.007340
      4.62228      4.49259     18.76252        -0.000955      0.003104      0.002364
      8.62628      4.49380     18.76477         0.001488      0.000312     -0.000683
      3.31174      5.99365     20.75571        -0.001962     -0.000353      0.004846
      3.33983      5.99211     23.35300         0.000064      0.000917      0.002302
      7.89559      4.45172     22.13019        -0.002646      0.002704      0.000366
      5.38591      4.47745     22.19067         0.000756      0.003630      0.000384
    total drift:                               -0.003704      0.000558      0.024508

  FREE ENERGIE OF THE ION-ELECTRON SYSTEM (eV)
  free  energy   TOTEN  =     -1593.65909964 eV

  energy  without entropy=    -1593.65909964  energy(sigma->0) =    -1593.65909964

 d Force = 0.5124608E-04[ 0.288E-04, 0.737E-04]  d Energy = 0.5327808E-04-0.203E-05
 d Force = 0.1877837E+02[ 0.188E+02, 0.188E+02]  d Ewald  = 0.1877837E+02-0.168E-06

 Conjugate gradient step on ions:
 trial-energy change:   -0.000053  1 .order   -0.000051   -0.000074   -0.000029
  (g-gl).g = 0.166E-03      g.g   = 0.171E-03  gl.gl    = 0.156E-03
 g(Force)  = 0.171E-03   g(Stress)= 0.000E+00 ortho     =-0.148E-05
 gamma     =   1.06539
 trial     =   0.43424
 opt step  =   0.63389  (harmonic =   0.71309) maximal distance =0.00156453
 next E    = -1593.659106   (d E  =  -0.00006)

 reached required accuracy - stopping structural energy minimisation