 vasp.6.3.0 20Jan22 (build Apr  1 2022 16:44:48) complex
 executed on        HPECrayEX_GCC date 2022.11.14  07:49:43

 INCAR:
   SYSTEM = MgO-rocksalt
   ISMEAR = 0
   SIGMA = 0.05
   EDIFF = 1E-6
   ALGO = ALL
   ISTART = 0
   IBRION = -1
   NSW = 0
   ISYM = 0
   DIPOL = 0.5 0.5 0.5
   IDIPOL = 3
   LDIPOL = .TRUE.
   LHFCALC = .TRUE.
   GGA = B5
   AEXX = 0.2
   AGGAX = 0.72
   AGGAC = 0.81
   ALDAC = 0.19
   IVDW = 1
   VDW_S6 = 1.05
   VDW_C6 = 1.23 0.70 0.63 0.70
   VDW_R0 = 1.397 1.342 1.243 1.342
   ENCUT = 600
   PREC = Accurate
   LASPH = .TRUE.
   LREAL = .FALSE.
   ISPIN = 2
   MAGMOM = 1.0 0.0 0.0 0.0 0.0 0.0 0.0 0.0 0.0 0.0 0.0 0.0 0.0 0.0 0.0 0.0 0.0 0.0 0.0 0.0 0.0 0.0 0.0 0.0 0.0 0.0 0.0 0.0 0.0 0.0 0.0 0.0 0.0 0.0 0.0 0.0 0.0 0.0 0.0 0.0 0.0 0.0 0.0 0.0 0.0 0.0 0.0 0.0 0.0 0.0 0.0 0.0 0.0 0.0 0.0 0.0 0.0 0.0 0.0 0.0 0.0 0.0 0.0 0.0 0.0 0.0
   NELM = 200
   NELMIN = 8
   NCORE = 8
   KPAR = 1
   LWAVE = .FALSE.
   LCHARG = .FALSE.

 POTCAR:    PAW_PBE N 08Apr2002
 POTCAR:    PAW_PBE O 08Apr2002
 POTCAR:    PAW_PBE Mg_pv 13Apr2007
 POTCAR:    PAW_PBE O 08Apr2002
 POTCAR:    PAW_PBE N 08Apr2002
   VRHFIN =N: s2p3

   TITEL  = PAW_PBE N 08Apr2002
   POMASS =   14.001; ZVAL   =    5.000    mass and valenz
   ENMAX  =  400.000; ENMIN  =  300.000 eV

[...]

   TITEL  = PAW_PBE Mg_pv 13Apr2007
   POMASS =   24.305; ZVAL   =    8.000    mass and valenz
   ENMAX  =  403.929; ENMIN  =  302.947 eV

   TITEL  = PAW_PBE O 08Apr2002
   POMASS =   16.000; ZVAL   =    6.000    mass and valenz
   ENMAX  =  400.000; ENMIN  =  300.000 eV

  PAW_PBE N 08Apr2002                   :
  PAW_PBE O 08Apr2002                   :
  PAW_PBE Mg_pv 13Apr2007               :
  PAW_PBE O 08Apr2002                   :

 POSCAR:  N  O Mg  O
  positions in direct lattice
 exchange correlation table for  LEXCH =       12
   RHO(1)=    0.500       N(1)  =     2000
   RHO(2)=  100.500       N(2)  =     4000

 ion  position               nearest neighbor table
   1  0.625  0.493  0.756-   2 1.16
   2  0.687  0.585  0.789-   1 1.16
   3  0.250  0.000  0.353-  37 2.09  38 2.09  45 2.09  54 2.09  35 2.09
   4  0.500  0.250  0.353-  37 2.09  38 2.09  46 2.09  53 2.09  36 2.09
   5  0.250  0.250  0.451-  35 2.09  36 2.09  43 2.09  52 2.09  37 2.09  41 2.10
   6  0.500  0.000  0.451-  35 2.09  36 2.09  44 2.09  51 2.09  38 2.09  42 2.09
   7  0.250  0.000  0.550-  42 2.09  41 2.09  49 2.09  58 2.09  35 2.10  39 2.13
   8  0.500  0.250  0.550-  50 2.09  41 2.09  57 2.09  42 2.09  36 2.11  40 2.11
   9  0.250  0.250  0.648-  41 2.09  40 2.09  39 2.09  56 2.09  47 2.09
  10  0.500  0.000  0.647-  40 2.08  48 2.08  42 2.09  39 2.09  55 2.09
  11  0.250  0.500  0.353-  37 2.09  45 2.09  46 2.09  62 2.09  43 2.09
  12  0.500  0.750  0.353-  38 2.09  45 2.09  46 2.09  61 2.09  44 2.09
  13  0.250  0.750  0.451-  35 2.09  43 2.09  44 2.09  60 2.09  45 2.09  49 2.10
  14  0.500  0.500  0.451-  36 2.09  43 2.09  44 2.09  59 2.09  46 2.09  50 2.10
  15  0.251  0.500  0.550-  50 2.09  41 2.09  49 2.09  66 2.09  43 2.11  47 2.13
  16  0.500  0.750  0.550-  50 2.08  49 2.09  42 2.09  65 2.09  44 2.11  48 2.11
  17  0.250  0.750  0.648-  39 2.08  49 2.09  48 2.09  47 2.09  64 2.09
  18  0.499  0.500  0.649-  47 2.08  40 2.09  48 2.09  63 2.11  50 2.11
  19  0.750  0.000  0.353-  38 2.09  53 2.09  54 2.09  61 2.09  51 2.09
  20  0.000  0.250  0.353-  37 2.09  53 2.09  54 2.09  62 2.09  52 2.09
  21  0.750  0.250  0.451-  36 2.09  51 2.09  52 2.09  59 2.09  53 2.09  57 2.10
  22  0.000  0.000  0.451-  35 2.09  51 2.09  52 2.09  60 2.09  54 2.09  58 2.10
  23  0.750  0.000  0.550-  42 2.09  58 2.09  57 2.09  65 2.09  51 2.10  55 2.12
  24  0.000  0.250  0.550-  41 2.09  57 2.09  66 2.09  58 2.09  52 2.10  56 2.12
  25  0.750  0.249  0.648-  55 2.08  57 2.09  40 2.09  56 2.09  63 2.10
  26  0.000  0.000  0.648-  39 2.08  58 2.08  56 2.09  55 2.09  64 2.09
  27  0.750  0.500  0.353-  46 2.09  53 2.09  61 2.09  62 2.09  59 2.09
  28  0.000  0.750  0.353-  45 2.09  54 2.09  61 2.09  62 2.09  60 2.09
  29  0.750  0.750  0.451-  44 2.09  51 2.09  59 2.09  60 2.09  61 2.09  65 2.10
  30  0.000  0.500  0.451-  43 2.09  52 2.09  59 2.09  60 2.09  62 2.09  66 2.10
  31  0.750  0.500  0.550-  50 2.08  57 2.08  65 2.09  66 2.09  59 2.10  63 2.14
  32  0.000  0.750  0.550-  49 2.09  66 2.09  65 2.09  58 2.09  60 2.10  64 2.12
  33  0.750  0.752  0.647-  55 2.07  65 2.08  64 2.09  48 2.09  63 2.10
  34  0.002  0.500  0.648-  47 2.07  66 2.08  56 2.09  64 2.09  63 2.09
  35  0.250  0.000  0.451-   5 2.09   6 2.09  13 2.09  22 2.09   3 2.09   7 2.10
  36  0.500  0.250  0.451-   5 2.09   6 2.09  14 2.09  21 2.09   4 2.09   8 2.11
  37  0.250  0.250  0.353-   3 2.09   4 2.09  11 2.09  20 2.09   5 2.09
  38  0.500  0.000  0.353-   3 2.09   4 2.09  12 2.09  19 2.09   6 2.09
  39  0.250  0.000  0.650-  26 2.08  17 2.08   9 2.09  10 2.09   7 2.13
  40  0.500  0.249  0.649-  10 2.08   9 2.09  25 2.09  18 2.09   8 2.11
  41  0.250  0.250  0.550-   9 2.09  24 2.09  15 2.09   7 2.09   8 2.09   5 2.10
  42  0.500  1.000  0.549-  10 2.09  23 2.09   7 2.09  16 2.09   8 2.09   6 2.09
  43  0.250  0.500  0.451-   5 2.09  13 2.09  14 2.09  30 2.09  11 2.09  15 2.11
  44  0.500  0.750  0.451-   6 2.09  13 2.09  14 2.09  29 2.09  12 2.09  16 2.11
  45  0.250  0.750  0.353-   3 2.09  11 2.09  12 2.09  28 2.09  13 2.09
  46  0.500  0.500  0.353-   4 2.09  11 2.09  12 2.09  27 2.09  14 2.09
  47  0.250  0.500  0.650-  34 2.07  18 2.08  17 2.09   9 2.09  15 2.13
  48  0.500  0.751  0.649-  10 2.08  33 2.09  17 2.09  18 2.09  16 2.11
  49  0.250  0.750  0.550-  32 2.09  17 2.09  15 2.09  16 2.09   7 2.09  13 2.10
  50  0.500  0.500  0.550-  31 2.08  16 2.08  15 2.09   8 2.09  14 2.10  18 2.11
  51  0.750  0.000  0.451-   6 2.09  21 2.09  22 2.09  29 2.09  19 2.09  23 2.10
  52  0.000  0.250  0.451-   5 2.09  21 2.09  22 2.09  30 2.09  20 2.09  24 2.10
  53  0.750  0.250  0.353-   4 2.09  19 2.09  20 2.09  27 2.09  21 2.09
  54  0.000  0.000  0.353-   3 2.09  19 2.09  20 2.09  28 2.09  22 2.09
  55  0.750  0.000  0.650-  33 2.07  25 2.08  26 2.09  10 2.09  23 2.12
  56  0.000  0.250  0.650-  34 2.09  26 2.09  25 2.09   9 2.09  24 2.12
  57  0.750  0.250  0.550-  31 2.08  25 2.09  24 2.09  23 2.09   8 2.09  21 2.10
  58  0.000  0.000  0.550-  26 2.08  32 2.09  24 2.09  23 2.09   7 2.09  22 2.10
  59  0.750  0.500  0.451-  14 2.09  21 2.09  29 2.09  30 2.09  27 2.09  31 2.10
  60  0.000  0.750  0.451-  13 2.09  22 2.09  29 2.09  30 2.09  28 2.09  32 2.10
  61  0.750  0.750  0.353-  12 2.09  19 2.09  27 2.09  28 2.09  29 2.09
  62  0.000  0.500  0.353-  11 2.09  20 2.09  27 2.09  28 2.09  30 2.09
  63  0.752  0.500  0.650-  34 2.09  25 2.10  33 2.10  18 2.11  31 2.14
  64  0.000  0.750  0.650-  33 2.09  34 2.09  26 2.09  17 2.09  32 2.12
  65  0.750  0.750  0.550-  33 2.08  31 2.09  32 2.09  16 2.09  23 2.09  29 2.10
  66  1.000  0.500  0.550-  34 2.08  32 2.09  24 2.09  31 2.09  15 2.09  30 2.10

IMPORTANT INFORMATION: All symmetrisations will be switched off!
NOSYMM: (Re-)initialisation of all symmetry stuff for point group C_1.

                                     Primitive cell

  volume of cell :    1482.1129

  direct lattice vectors                    reciprocal lattice vectors
     8.349111827  0.000000000  0.000000000     0.119773219  0.000000000  0.000000000
     0.000000000  8.349111827  0.000000000     0.000000000  0.119773219  0.000000000
     0.000000000  0.000000000 21.261833870     0.000000000  0.000000000  0.047032632

  length of vectors
     8.349111827  8.349111827 21.261833870     0.119773219  0.119773219  0.047032632

  position of ions in fractional coordinates (direct lattice)
     0.625084671  0.493000834  0.755865965
     0.686571136  0.584554124  0.788906333
     0.250000000  0.000000000  0.352744737
     0.500000000  0.250000000  0.352744737
     0.250000000  0.250000000  0.450914912
     0.500000000  0.000000000  0.450914912
     0.250249468  0.000132381  0.549819610
     0.500057327  0.250330044  0.550027455
     0.250377554  0.249818042  0.647612389
     0.500015890  0.000211307  0.647484441
     0.250000000  0.500000000  0.352744737
     0.500000000  0.750000000  0.352744737
     0.250000000  0.750000000  0.450914912
     0.500000000  0.500000000  0.450914912
     0.250561379  0.500077739  0.549963947
     0.500018816  0.749794605  0.549991275
     0.250369682  0.750444718  0.647627358
     0.498944696  0.499954557  0.649301184
     0.750000000  0.000000000  0.352744737
     0.000000000  0.250000000  0.352744737
     0.750000000  0.250000000  0.450914912
     0.000000000  0.000000000  0.450914912
     0.750065609  0.000272567  0.549717056
     0.000150537  0.250150028  0.549887768
     0.749991174  0.248981485  0.647695337
     0.000465504  0.000191114  0.647563526
     0.750000000  0.500000000  0.352744737
     0.000000000  0.750000000  0.352744737
     0.750000000  0.750000000  0.450914912
     0.000000000  0.500000000  0.450914912
     0.749662578  0.499961441  0.549692534
     0.000269337  0.750046070  0.549833944
     0.750306168  0.751916473  0.647158109
     0.001595128  0.500121368  0.647545492
     0.250000000  0.000000000  0.450914912
     0.500000000  0.250000000  0.450914912
     0.250000000  0.250000000  0.352744737
     0.500000000  0.000000000  0.352744737
     0.250049069  0.000078209  0.649787514
     0.500127593  0.249356709  0.649203131
     0.249914554  0.250166713  0.549538549
     0.500169157  0.999992330  0.549390485
     0.250000000  0.500000000  0.450914912
     0.500000000  0.750000000  0.450914912
     0.250000000  0.750000000  0.352744737
     0.500000000  0.500000000  0.352744737
     0.249913240  0.500173934  0.649926083
     0.500473676  0.750766696  0.649459711
     0.250005035  0.750030428  0.549558968
     0.500347780  0.500126233  0.549891970
     0.750000000  0.000000000  0.450914912
     0.000000000  0.250000000  0.450914912
     0.750000000  0.250000000  0.352744737
     0.000000000  0.000000000  0.352744737
     0.750421410  0.000188848  0.649582576
     0.000117772  0.250174635  0.649828321
     0.750285863  0.250350130  0.549614539
     0.000139280  0.000082115  0.549508659
     0.750000000  0.500000000  0.450914912
     0.000000000  0.750000000  0.450914912
     0.750000000  0.750000000  0.352744737
     0.000000000  0.500000000  0.352744737
     0.751593658  0.500390151  0.650209723
     0.000066645  0.750132319  0.649774329
     0.750279318  0.749856470  0.549540846
     0.999896708  0.500112018  0.549631900

  ion indices of the primitive-cell ions
   primitive index   ion index
                 1           1
                 2           2
                 3           3
                 4           4
                 5           5
                 6           6
                 7           7
                 8           8
                 9           9
                10          10
                11          11
                12          12
                13          13
                14          14
                15          15
                16          16
                17          17
                18          18
                19          19
                20          20
[...]
   0.75028586  0.25035013  0.54961454
   0.00013928  0.00008211  0.54950866
   0.75000000  0.50000000  0.45091491
   0.00000000  0.75000000  0.45091491
   0.75000000  0.75000000  0.35274474
   0.00000000  0.50000000  0.35274474
   0.75159366  0.50039015  0.65020972
   0.00006664  0.75013232  0.64977433
   0.75027932  0.74985647  0.54954085
   0.99989671  0.50011202  0.54963190

 position of ions in cartesian coordinates  (Angst):
   5.21890182  4.11611909 16.07109657
   5.73225919  4.88050775 16.77359539
   2.08727796  0.00000000  7.50000000
   4.17455591  2.08727796  7.50000000
   2.08727796  2.08727796  9.58727796
   4.17455591  0.00000000  9.58727796
   2.08936079  0.00110527 11.69017321
   4.17503454  2.09003353 11.69459238
   2.09043019  2.08575877 13.76942702
   4.17468858  0.00176423 13.76670661
   2.08727796  4.17455591  7.50000000
   4.17455591  6.26183387  7.50000000
   2.08727796  6.26183387  9.58727796
   4.17455591  4.17455591  9.58727796
   2.09196497  4.17520496 11.69324208
   4.17471301  6.26011900 11.69382311
   2.09036448  6.26554687 13.76974530
   4.16574506  4.17417650 13.80533391
   6.26183387  0.00000000  7.50000000
   0.00000000  2.08727796  7.50000000
   6.26183387  2.08727796  9.58727796
   0.00000000  0.00000000  9.58727796
   6.26238165  0.00227569 11.68799272
   0.00125685  2.08853056 11.69162237
   6.26176018  2.07877426 13.77119066
   0.00388654  0.00159563 13.76838812
   6.26183387  4.17455591  7.50000000
   0.00000000  6.26183387  7.50000000
   6.26183387  6.26183387  9.58727796
   0.00000000  4.17455591  9.58727796
   6.25901669  4.17423398 11.68747134
   0.00224873  6.26221851 11.69047797
   6.26439010  6.27783472 13.75976819
   0.01331790  4.17556923 13.76800467
   2.08727796  0.00000000  9.58727796
   4.17455591  2.08727796  9.58727796
   2.08727796  2.08727796  7.50000000
   4.17455591  0.00000000  7.50000000
   2.08768764  0.00065298 13.81567418
   4.17562120  2.08190705 13.80324911
   2.08656456  2.08866986 11.68419733
   4.17596822  8.34904779 11.68104922
   2.08727796  4.17455591  9.58727796
   4.17455591  6.26183387  9.58727796
   2.08727796  6.26183387  7.50000000
   4.17455591  4.17455591  7.50000000
   2.08655358  4.17600811 13.81862041
   4.17851068  6.26823510 13.80870447
   2.08732000  6.26208792 11.68463148
   4.17745957  4.17560985 11.69171171
   6.26183387  0.00000000  9.58727796
   0.00000000  2.08727796  9.58727796
   6.26183387  2.08727796  7.50000000
   0.00000000  0.00000000  7.50000000
   6.26535227  0.00157671 13.81131682
   0.00098329  2.08873601 13.81654180
   6.26422057  2.09020123 11.68581303
   0.00116286  0.00068558 11.68356181
   6.26183387  4.17455591  9.58727796
   0.00000000  6.26183387  9.58727796
   6.26183387  6.26183387  7.50000000
   0.00000000  4.17455591  7.50000000
   6.27513950  4.17781333 13.82465111
   0.00055642  6.26293862 13.81539383
   6.26416592  6.26063552 11.68424617
   8.34824943  4.17549116 11.68618214

--------------------------------------- Iteration      FINAL  ---------------------------------------

--------------------OUTCAR has been truncated-------------------------

[...]

--------------------OUTCAR has been truncated-------------------------

  DFT-D2 method for vdW energy calculation

  Parameters of vdW forcefield:
         C6(Jnm^6/mol)     R0(A)
   N        1.230          1.397
   O        0.700          1.342
   Mg       0.630          1.243
   O        0.700          1.342

  vdW correction parametrized for the method        üã©

  IVDW =   1
  VDW_RADIUS =    50.000 A
  VDW_S6 =     1.050
  VDW_SR =     1.000
  VDW_D =    20.000
  LVDW_EWALD = F

  Number of pair interactions contributing to vdW energy:  788821
  Edisp (eV):   -5.41899

 VOLUME and BASIS-vectors are now :
  energy-cutoff  :      600.00
  volume of cell :     1482.11
      direct lattice vectors                 reciprocal lattice vectors
     8.349111827  0.000000000  0.000000000     0.119773219  0.000000000  0.000000000
     0.000000000  8.349111827  0.000000000     0.000000000  0.119773219  0.000000000
     0.000000000  0.000000000 21.261833870     0.000000000  0.000000000  0.047032632

  length of vectors
     8.349111827  8.349111827 21.261833870     0.119773219  0.119773219  0.047032632

 FORCES acting on ions:
    Electron-Ion                     Ewald-Force                    Non-Local-Force
   0.118E+03 0.180E+03 -.125E+04   -.138E+03 -.210E+03 0.123E+04   0.188E+02 0.276E+02 0.229E+02
   -.114E+03 -.169E+03 -.164E+04   0.142E+03 0.210E+03 0.167E+04   -.244E+02 -.361E+02 -.335E+02
   0.124E+00 -.632E-01 0.214E+04   -.121E+00 0.640E-01 -.213E+04   -.168E-02 -.563E-03 -.645E+01
   0.251E+00 0.168E+00 0.214E+04   -.255E+00 -.169E+00 -.213E+04   0.239E-02 0.560E-03 -.645E+01
   0.493E+00 0.572E+00 0.741E+03   -.482E+00 -.571E+00 -.741E+03   -.606E-02 -.308E-03 0.442E+00
   0.961E+00 -.313E+00 0.742E+03   -.978E+00 0.314E+00 -.743E+03   0.113E-01 -.380E-03 0.371E+00
   0.274E+01 -.778E+00 -.654E+03   -.271E+01 0.782E+00 0.654E+03   -.262E-01 -.636E-02 -.147E+00
   0.438E+01 0.540E+01 -.643E+03   -.441E+01 -.533E+01 0.644E+03   0.224E-01 -.623E-01 -.568E+00
   0.138E+02 0.145E+02 -.205E+04   -.137E+02 -.146E+02 0.204E+04   -.102E+00 0.116E+00 0.538E+01
   0.120E+02 -.493E+01 -.204E+04   -.120E+02 0.500E+01 0.204E+04   0.802E-01 -.641E-01 0.536E+01
   0.127E+00 0.642E-01 0.214E+04   -.123E+00 -.646E-01 -.213E+04   -.249E-02 0.247E-03 -.644E+01
   0.262E+00 -.168E+00 0.214E+04   -.266E+00 0.169E+00 -.213E+04   0.253E-02 -.688E-03 -.645E+01
   0.518E+00 -.561E+00 0.741E+03   -.496E+00 0.569E+00 -.742E+03   -.131E-01 -.507E-02 0.458E+00
   0.149E+01 0.331E+00 0.743E+03   -.150E+01 -.329E+00 -.743E+03   0.102E-01 -.193E-02 0.537E+00
   0.426E+01 0.818E+00 -.647E+03   -.411E+01 -.831E+00 0.648E+03   -.136E+00 0.102E-01 -.200E+00
   0.523E+01 -.546E+01 -.641E+03   -.529E+01 0.539E+01 0.642E+03   0.452E-01 0.639E-01 -.419E+00
   0.146E+02 -.148E+02 -.204E+04   -.145E+02 0.149E+02 0.204E+04   -.376E-01 -.116E+00 0.537E+01
   0.475E+02 0.712E+01 -.196E+04   -.483E+02 -.710E+01 0.196E+04   0.684E+00 -.201E-01 0.469E+01
   -.123E+00 -.739E-01 0.214E+04   0.121E+00 0.751E-01 -.213E+04   0.115E-02 -.848E-03 -.643E+01
   -.250E+00 0.165E+00 0.214E+04   0.254E+00 -.167E+00 -.213E+04   -.265E-02 0.128E-02 -.644E+01
   -.484E+00 0.108E+01 0.743E+03   0.481E+00 -.108E+01 -.743E+03   0.134E-02 -.214E-02 0.492E+00
   -.930E+00 -.288E+00 0.741E+03   0.962E+00 0.300E+00 -.741E+03   -.198E-01 -.734E-02 0.444E+00
   -.282E+01 -.148E+01 -.646E+03   0.278E+01 0.154E+01 0.646E+03   0.327E-01 -.523E-01 -.163E+00
   -.414E+01 0.407E+01 -.651E+03   0.417E+01 -.407E+01 0.651E+03   -.204E-01 -.383E-02 -.182E+00
   -.184E+02 0.348E+02 -.201E+04   0.183E+02 -.355E+02 0.201E+04   0.330E-01 0.610E+00 0.546E+01
   -.111E+02 -.404E+01 -.205E+04   0.112E+02 0.405E+01 0.205E+04   -.775E-01 -.127E-01 0.534E+01
   -.127E+00 0.751E-01 0.214E+04   0.124E+00 -.758E-01 -.213E+04   0.217E-02 0.475E-03 -.643E+01
   -.261E+00 -.165E+00 0.214E+04   0.265E+00 0.167E+00 -.213E+04   -.300E-02 -.161E-02 -.644E+01
   -.503E+00 -.107E+01 0.743E+03   0.494E+00 0.108E+01 -.744E+03   0.538E-02 -.414E-02 0.482E+00
   -.144E+01 0.311E+00 0.742E+03   0.147E+01 -.314E+00 -.742E+03   -.162E-01 0.248E-02 0.498E+00
   -.461E+01 0.153E+01 -.635E+03   0.446E+01 -.158E+01 0.634E+03   0.132E+00 0.464E-01 0.354E+00
   -.497E+01 -.410E+01 -.648E+03   0.502E+01 0.409E+01 0.648E+03   -.451E-01 0.553E-02 -.167E+00
   -.203E+02 -.375E+02 -.199E+04   0.203E+02 0.383E+02 0.198E+04   -.233E-01 -.702E+00 0.555E+01
   -.271E+02 0.487E+01 -.202E+04   0.276E+02 -.489E+01 0.202E+04   -.438E+00 0.140E-01 0.537E+01
   0.471E+00 -.160E+00 0.555E+03   -.467E+00 0.157E+00 -.555E+03   -.558E-02 0.300E-02 -.113E+00
   0.780E+00 0.567E+00 0.556E+03   -.797E+00 -.602E+00 -.556E+03   0.218E-01 0.431E-01 -.148E+00
   0.907E-01 0.105E+00 0.161E+04   -.886E-01 -.107E+00 -.161E+04   -.259E-02 0.240E-02 0.310E+01
   0.172E+00 -.531E-01 0.161E+04   -.177E+00 0.534E-01 -.161E+04   0.552E-02 -.341E-03 0.310E+01
   0.576E+01 -.211E+01 -.156E+04   -.570E+01 0.213E+01 0.157E+04   -.566E-01 -.144E-01 -.467E+01
   0.164E+02 0.268E+02 -.153E+04   -.164E+02 -.266E+02 0.154E+04   -.254E-01 -.160E+00 -.475E+01
   0.243E+01 0.276E+01 -.482E+03   -.239E+01 -.277E+01 0.481E+03   -.426E-01 0.768E-02 0.285E+00
   0.276E+01 -.880E+00 -.479E+03   -.276E+01 0.894E+00 0.478E+03   -.475E-02 -.135E-01 0.259E+00
   0.523E+00 0.183E+00 0.555E+03   -.542E+00 -.191E+00 -.555E+03   0.210E-01 0.997E-02 -.109E+00
   0.850E+00 -.560E+00 0.556E+03   -.865E+00 0.590E+00 -.556E+03   0.183E-01 -.376E-01 -.144E+00
   0.920E-01 -.105E+00 0.161E+04   -.892E-01 0.107E+00 -.161E+04   -.350E-02 -.201E-02 0.310E+01
   0.216E+00 0.533E-01 0.161E+04   -.220E+00 -.537E-01 -.161E+04   0.524E-02 0.447E-03 0.310E+01
   0.166E+02 0.232E+01 -.155E+04   -.165E+02 -.232E+01 0.155E+04   -.790E-01 0.305E-02 -.462E+01
   0.217E+02 -.284E+02 -.152E+04   -.217E+02 0.282E+02 0.153E+04   0.213E-01 0.157E+00 -.470E+01
   0.244E+01 -.283E+01 -.481E+03   -.240E+01 0.285E+01 0.481E+03   -.313E-01 -.234E-01 0.290E+00
   0.457E+01 0.947E+00 -.476E+03   -.460E+01 -.959E+00 0.477E+03   0.354E-01 0.116E-01 -.994E-01
   -.447E+00 -.215E+00 0.556E+03   0.426E+00 0.204E+00 -.556E+03   0.258E-01 0.118E-01 -.651E-01
   -.753E+00 0.536E+00 0.555E+03   0.761E+00 -.552E+00 -.555E+03   -.108E-01 0.193E-01 -.118E+00
   -.913E-01 0.148E+00 0.161E+04   0.890E-01 -.150E+00 -.161E+04   0.288E-02 0.229E-02 0.311E+01
   -.173E+00 -.518E-01 0.161E+04   0.177E+00 0.528E-01 -.161E+04   -.491E-02 -.126E-02 0.310E+01
   -.648E+01 -.599E+01 -.155E+04   0.643E+01 0.605E+01 0.156E+04   0.455E-01 -.577E-01 -.468E+01
   -.128E+02 0.126E+02 -.156E+04   0.128E+02 -.125E+02 0.156E+04   -.374E-02 -.547E-02 -.465E+01
   -.261E+01 0.432E+01 -.477E+03   0.256E+01 -.435E+01 0.476E+03   0.385E-01 0.327E-01 0.274E+00
   -.274E+01 -.871E+00 -.483E+03   0.275E+01 0.873E+00 0.483E+03   -.150E-01 -.300E-02 0.286E+00
   -.522E+00 0.242E+00 0.558E+03   0.529E+00 -.244E+00 -.558E+03   -.765E-02 0.282E-02 -.512E-01
   -.817E+00 -.523E+00 0.556E+03   0.817E+00 0.529E+00 -.556E+03   -.549E-03 -.787E-02 -.100E+00
   -.929E-01 -.149E+00 0.161E+04   0.897E-01 0.150E+00 -.161E+04   0.401E-02 -.186E-02 0.311E+01
   -.216E+00 0.517E-01 0.161E+04   0.220E+00 -.530E-01 -.161E+04   -.486E-02 0.157E-02 0.311E+01
   -.320E+02 0.836E+01 -.147E+04   0.320E+02 -.831E+01 0.148E+04   0.251E-01 -.426E-01 -.410E+01
   -.171E+02 -.132E+02 -.155E+04   0.172E+02 0.132E+02 0.155E+04   -.336E-01 0.223E-01 -.468E+01
   -.262E+01 -.431E+01 -.472E+03   0.259E+01 0.434E+01 0.472E+03   0.294E-01 -.274E-01 0.424E+00
   -.418E+01 0.896E+00 -.478E+03   0.420E+01 -.893E+00 0.478E+03   -.201E-01 -.279E-02 0.358E+00
   0.719E+01 0.111E+02 0.330E+02   -.146E-12 -.405E-12 -.131E-11   -.560E+01 -.873E+01 -.282E+02

 POSITION                                       TOTAL-FORCE (eV/Angst)
      5.21890      4.11612     16.07110        -0.206299     -0.342049     -0.185021
      5.73226      4.88051     16.77360         0.197292      0.326340      0.319534
      2.08728      0.00000      7.50000         0.000641      0.000167      0.311071
      4.17456      2.08728      7.50000        -0.001040     -0.000405      0.310998
      2.08728      2.08728      9.58728         0.003649      0.000738      0.064599
      4.17456      0.00000      9.58728        -0.004310      0.000465      0.066847
      2.08936      0.00111     11.69017        -0.001024     -0.001934      0.005545
      4.17503      2.09003     11.69459        -0.002972     -0.002027      0.011267
      2.09043      2.08576     13.76943         0.004025     -0.004656      0.099605
      4.17469      0.00176     13.76671        -0.003127      0.002938      0.102973
      2.08728      4.17456      7.50000         0.000850     -0.000154      0.309141
      4.17456      6.26183      7.50000        -0.001069      0.000363      0.310988
      2.08728      6.26183      9.58728         0.006564      0.002217      0.061561
      4.17456      4.17456      9.58728        -0.005778      0.000473      0.069849
      2.09196      4.17520     11.69324         0.004139     -0.002083      0.007902
      4.17471      6.26012     11.69382        -0.003087      0.000526      0.009990
      2.09036      6.26555     13.76975         0.002669      0.002071      0.102515
      4.16575      4.17418     13.80533        -0.041198     -0.000425      0.067736
      6.26183      0.00000      7.50000        -0.000608      0.000203      0.307357
      0.00000      2.08728      7.50000         0.001058     -0.000627      0.309500
      6.26183      2.08728      9.58728        -0.001412      0.000195      0.055627
      0.00000      0.00000      9.58728         0.008848      0.003318      0.057446
      6.26238      0.00228     11.68799        -0.003317      0.002094      0.007936
      0.00126      2.08853     11.69162         0.000749     -0.004204      0.006141
      6.26176      2.07877     13.77119        -0.003984     -0.011955      0.100421
      0.00389      0.00160     13.76839         0.000728      0.001617      0.114144
      6.26183      4.17456      7.50000        -0.000849     -0.000199      0.305756
      0.00000      6.26183      7.50000         0.001094      0.000583      0.308385
      6.26183      6.26183      9.58728        -0.002642      0.003202      0.053034
      0.00000      4.17456      9.58728         0.008368     -0.000881      0.061378
      6.25902      4.17423     11.68747        -0.003522     -0.000610     -0.006446
      0.00225      6.26222     11.69048         0.002648      0.002864      0.006138
      6.26439      6.27783     13.75977         0.000252      0.016952      0.100387
      0.01332      4.17557     13.76800         0.020260     -0.000918      0.101456
      2.08728      0.00000      9.58728        -0.002905      0.000559      0.072164
      4.17456      2.08728      9.58728         0.007326      0.014288      0.084210
      2.08728      2.08728      7.50000        -0.000886      0.000765     -0.593094
      4.17456      0.00000      7.50000         0.001832     -0.000143     -0.593188
      2.08769      0.00065     13.81567        -0.005239     -0.001777      0.006182
      4.17562      2.08191     13.80325         0.005785      0.007934      0.006613
      2.08656      2.08867     11.68420        -0.004304      0.000029      0.008561
      4.17597      8.34905     11.68105        -0.000128     -0.001620      0.011264
      2.08728      4.17456      9.58728         0.005159      0.003195      0.091299
      4.17456      6.26183      9.58728         0.006281     -0.012776      0.081049
      2.08728      6.26183      7.50000        -0.001174     -0.000677     -0.592610
      4.17456      4.17456      7.50000         0.001725      0.000126     -0.591778
      2.08655      4.17601     13.81862         0.000942     -0.000893      0.008853
      4.17851      6.26824     13.80870         0.007952     -0.010156      0.012699
      2.08732      6.26209     11.68463        -0.003109     -0.003775      0.010294
      4.17746      4.17561     11.69171         0.003519      0.000444      0.006499
      6.26183      0.00000      9.58728         0.008823      0.002989      0.078303
      0.00000      2.08728      9.58728        -0.004172      0.006498      0.077939
      6.26183      2.08728      7.50000         0.000907      0.000708     -0.590525
      0.00000      0.00000      7.50000        -0.001674     -0.000454     -0.591588
      6.26535      0.00158     13.81132         0.001356      0.001883      0.013078
      0.00098      2.08874     13.81654        -0.005535      0.004824      0.015312
      6.26422      2.09020     11.68581         0.001716      0.003384      0.010479
      0.00116      0.00069     11.68356        -0.004985     -0.000810      0.014399
      6.26183      4.17456      9.58728        -0.001234      0.001208      0.079622
      0.00000      6.26183      9.58728        -0.001020     -0.003136      0.078111
      6.26183      6.26183      7.50000         0.001291     -0.000605     -0.589964
      0.00000      4.17456      7.50000        -0.001645      0.000492     -0.589963
      6.27514      4.17781     13.82465         0.012703      0.001682     -0.015714
      0.00056      6.26294     13.81539        -0.005268     -0.005075      0.014328
      6.26417      6.26064     11.68425         0.001534     -0.002664      0.013681
      8.34825      4.17549     11.68618        -0.003168     -0.000648      0.017725
    total drift:                                0.002723      0.002408      0.010490

  FREE ENERGIE OF THE ION-ELECTRON SYSTEM (eV)
  free  energy   TOTEN  =      -455.06432414 eV

  energy  without entropy=     -455.06432414  energy(sigma->0) =     -455.06432414