 vasp.6.3.0 20Jan22 (build Dec 25 2023 18:06:01) complex
 executed on        HPECrayEX_GCC date 2024.01.24  03:03:17

 INCAR:
   SYSTEM = MgO-rocksalt
   ISMEAR = 0
   SIGMA = 0.05
   EDIFF = 1E-8
   ALGO = ALL
   ISTART = 0
   IBRION = 5
   POTIM = 0.01
   NFREE = 2
   ISYM = 0
   DIPOL = 0.5 0.5 0.5
   IDIPOL = 3
   LDIPOL = .TRUE.
   GGA = RE
   AGGAC = 0.0
   LUSE_VDW = .TRUE.
   LASPH = .TRUE.
   ENCUT = 600
   PREC = Accurate
   LASPH = .TRUE.
   LREAL = .FALSE.
   ISPIN = 1
   NELM = 200
   NELMIN = 8
   NCORE = 8
   KPAR = 1
   LWAVE = .FALSE.
   LCHARG = .FALSE.

 POTCAR:    PAW_PBE C 08Apr2002
 POTCAR:    PAW_PBE H 15Jun2001
 POTCAR:    PAW_PBE Ti_pv 07Sep2000
 POTCAR:    PAW_PBE O 08Apr2002
|               ----> ADVICE to this user running VASP <----                  |
|     You have switched on vdW-DFT.                                           |
|     This routine was written and supplied by Jiri Klimes. We recommend      |
|     that you carefully read and cite the following publications:            |
|       J. Klimes, D.R. Bowler, A. Michelides                                 |
|          J. Phys.: Cond Matt. 22 022201 (2010)                              |
|       J. Klimes, D.R. Bowler, A. Michelides                                 |
|          Phys. Rev. B. 83, 195131 (2011)                                    |
|     and references therein.                                                 |

   TITEL  = PAW_PBE C 08Apr2002
   POMASS =   12.011; ZVAL   =    4.000    mass and valenz
   ENMAX  =  400.000; ENMIN  =  300.000 eV

   TITEL  = PAW_PBE H 15Jun2001
   POMASS =    1.000; ZVAL   =    1.000    mass and valenz
   ENMAX  =  250.000; ENMIN  =  200.000 eV

   TITEL  = PAW_PBE Ti_pv 07Sep2000
   POMASS =   47.880; ZVAL   =   10.000    mass and valenz
   ENMAX  =  222.335; ENMIN  =  166.751 eV

   TITEL  = PAW_PBE O 08Apr2002
   POMASS =   16.000; ZVAL   =    6.000    mass and valenz
   ENMAX  =  400.000; ENMIN  =  300.000 eV

  PAW_PBE C 08Apr2002                   :
  PAW_PBE H 15Jun2001                   :
  PAW_PBE Ti_pv 07Sep2000               :
  PAW_PBE O 08Apr2002                   :

 POSCAR:  C  H Ti  O
  positions in direct lattice
 exchange correlation table for  LEXCH =       40
   RHO(1)=    0.500       N(1)  =     2000
   RHO(2)=  100.500       N(2)  =     4000

 ion  position               nearest neighbor table
   1  0.500  0.500  0.828-   3 1.09   2 1.09   5 1.10   4 1.10
   2  0.498  0.575  0.848-   1 1.09
   3  0.502  0.425  0.848-   1 1.09
   4  0.569  0.503  0.808-   1 1.10
   5  0.432  0.497  0.808-   1 1.10
   6  0.750  0.625  0.285-  87 1.98 147 1.98 146 1.98  86 1.98  89 2.02 168 2.02  16 3.00  36 3.00

   7  0.000  0.750  0.285-  88 1.98  89 1.98 108 1.98 109 1.98  90 2.02  37 3.00  17 3.00
   8  0.000  0.625  0.393-  90 1.98 150 1.98  91 1.98 151 1.98  92 2.02  93 2.02  18 3.00  38 3.00

[...]

  85  0.501  0.500  0.710- 239 1.84 244 1.97 184 1.97 245 1.98 185 1.98  75 2.99  55 2.99
  86  0.750  0.750  0.243-   6 1.98  16 1.98
  87  0.750  0.750  0.327-   6 1.98  16 1.98   9 2.02
  88  0.098  0.625  0.285-   7 1.98  37 1.98  46 2.02
  89  0.902  0.625  0.285-   7 1.98  37 1.98   6 2.02
  90  0.000  0.750  0.351-   8 1.98  18 1.98   7 2.02
  91  0.000  0.750  0.434-   8 1.98  18 1.98  11 2.02
  92  0.848  0.625  0.393-   9 1.98  39 1.98   8 2.02
  93  0.152  0.625  0.393-  49 1.98  79 1.98   8 2.02
  94  0.750  0.750  0.458-  10 1.98  20 1.98   9 2.02
  95  0.750  0.750  0.542-  10 1.98  20 1.98  13 2.17
  96  0.098  0.625  0.500-  11 1.98  41 1.98  50 2.02
  97  0.902  0.625  0.500-  11 1.98  41 1.98  10 2.02
  98  1.000  0.750  0.566-  22 1.92  12 1.92  11 2.05
  99  0.000  0.750  0.651-  15 1.83  12 2.05  22 2.05
 100  0.850  0.625  0.608-  12 1.87  43 2.07  13 2.07
 101  0.151  0.625  0.608-  53 1.93  83 1.93  12 2.13
 102  0.750  0.750  0.673-  13 1.88  14 2.13  24 2.13
 103  0.750  0.750  0.758-  14 1.85  24 1.85
 104  0.094  0.625  0.721-  15 1.97  45 1.97  54 2.08
 105  0.907  0.625  0.721-  45 1.98  15 1.98  14 2.07
 106  0.750  0.000  0.243-  16 1.98  26 1.98
 107  0.750  0.000  0.327-  16 1.98  26 1.98  19 2.02
 108  0.098  0.875  0.285-   7 1.98  17 1.98  56 2.02
 109  0.902  0.875  0.285-   7 1.98  17 1.98  16 2.02
 110  0.000  0.000  0.351-  18 1.98  28 1.98  17 2.02
 111  0.000  0.000  0.434-  18 1.98  28 1.98  21 2.02
 112  0.848  0.875  0.393-   9 1.98  19 1.98  18 2.02
 113  0.152  0.875  0.393-  49 1.98  59 1.98  18 2.02
 114  0.750  0.000  0.458-  20 1.98  30 1.98  19 2.02
 115  0.750  0.000  0.542-  20 1.98  30 1.98  23 2.17
 116  0.098  0.875  0.500-  11 1.98  21 1.98  60 2.02
 117  0.902  0.875  0.500-  11 1.98  21 1.98  20 2.02
 118  0.000  1.000  0.566-  32 1.92  22 1.92  21 2.05
 119  0.000  0.000  0.651-  25 1.83  32 2.05  22 2.05
 120  0.850  0.875  0.608-  22 1.87  23 2.07  13 2.07
 121  0.151  0.875  0.608-  53 1.93  63 1.93  22 2.13
 122  0.750  0.000  0.673-  23 1.88  34 2.13  24 2.13
 123  0.751  0.000  0.758-  24 1.85  34 1.85
 124  0.094  0.875  0.721-  15 1.97  25 1.97  64 2.08
 125  0.907  0.875  0.721-  15 1.98  25 1.98  24 2.07
 126  0.750  0.250  0.243-  26 1.98  36 1.98
 127  0.750  0.250  0.327-  26 1.98  36 1.98  29 2.02
 128  0.098  0.125  0.285-  17 1.98  27 1.98  66 2.02
 129  0.902  0.125  0.285-  17 1.98  27 1.98  26 2.02
 130  0.000  0.250  0.351-  28 1.98  38 1.98  27 2.02
 131  0.000  0.250  0.434-  28 1.98  38 1.98  31 2.02
 132  0.848  0.125  0.393-  19 1.98  29 1.98  28 2.02
 133  0.152  0.125  0.393-  59 1.98  69 1.98  28 2.02
 134  0.750  0.250  0.458-  30 1.98  40 1.98  29 2.02
 135  0.750  0.250  0.542-  30 1.98  40 1.98  33 2.17
 136  0.098  0.125  0.500-  21 1.98  31 1.98  70 2.02
 137  0.902  0.125  0.500-  21 1.98  31 1.98  30 2.02
 138  0.000  0.250  0.566-  42 1.92  32 1.92  31 2.05
 139  0.000  0.250  0.651-  35 1.83  32 2.05  42 2.05
 140  0.850  0.125  0.608-  32 1.87  33 2.07  23 2.07
 141  0.151  0.125  0.608-  63 1.93  73 1.93  32 2.13
 142  0.750  0.250  0.673-  33 1.88  44 2.13  34 2.13
 143  0.750  0.250  0.758-  44 1.85  34 1.85
 144  0.094  0.125  0.721-  25 1.97  35 1.97  74 2.08
[...]
 231  0.500  0.500  0.434-  48 1.98  78 1.98  81 2.02
 232  0.348  0.375  0.393-  69 1.98  79 1.98  78 2.02
 233  0.652  0.375  0.393-  29 1.98  39 1.98  78 2.02
 234  0.250  0.500  0.458-  50 1.98  80 1.98  79 2.02
 235  0.250  0.500  0.542-  50 1.98  80 1.98  83 2.17
 236  0.598  0.375  0.500-  71 1.98  81 1.98  40 2.02
 237  0.402  0.375  0.500-  71 1.98  81 1.98  80 2.02
 238  0.500  0.500  0.566-  82 1.92  52 1.92  81 2.05
 239  0.500  0.500  0.651-  85 1.84  82 2.05  52 2.05
 240  0.350  0.375  0.608-  82 1.87  83 2.07  73 2.07
 241  0.651  0.375  0.608-  43 1.93  33 1.93  82 2.13
 242  0.250  0.500  0.673-  83 1.88  84 2.13  54 2.13
 243  0.251  0.500  0.757-  54 1.85  84 1.85
 244  0.594  0.375  0.720-  75 1.97  85 1.97  44 2.08
 245  0.407  0.375  0.721-  75 1.97  85 1.98  84 2.07

IMPORTANT INFORMATION: All symmetrisations will be switched off!
NOSYMM: (Re-)initialisation of all symmetry stuff for point group C_1.

                                     Primitive cell

  volume of cell :    4895.9617

  direct lattice vectors                    reciprocal lattice vectors
    13.251680751  0.000000000  0.000000000     0.075462126  0.000000000  0.000000000
     0.000000000 11.981436613  0.000000000     0.000000000  0.083462445  0.000000000
     0.000000000  0.000000000 30.836008487     0.000000000  0.000000000  0.032429619

  length of vectors
    13.251680751 11.981436613 30.836008487     0.075462126  0.083462445  0.032429619

  position of ions in fractional coordinates (direct lattice)
     0.500090092  0.500003046  0.827930835
     0.497794248  0.574594927  0.848423326
     0.502367048  0.425414588  0.848422223
     0.568532760  0.502517379  0.807992223
     0.431685840  0.497499077  0.807973723
     0.750000000  0.625000000  0.285126523
     0.000000000  0.750000000  0.285126523
     0.000000000  0.625000000  0.392563261
     0.750000000  0.750000000  0.392563261
     0.750000000  0.625000000  0.500000000
     0.000000000  0.750000000  0.500000000
     0.990860722  0.625010312  0.605211217
     0.742984532  0.750001809  0.612102535
     0.750989427  0.625054114  0.722285544
     0.000805496  0.750059263  0.709966652
     0.750000000  0.875000000  0.285126523
     0.000000000  0.000000000  0.285126523
     0.000000000  0.875000000  0.392563261
     0.750000000  0.000000000  0.392563261
     0.750000000  0.875000000  0.500000000
     0.000000000  0.000000000  0.500000000
     0.990855767  0.875005284  0.605202357
     0.743033464  0.999998594  0.612136516
     0.750833206  0.875005954  0.722394568
     0.000763672  0.999999268  0.709961820
     0.750000000  0.125000000  0.285126523
     0.000000000  0.250000000  0.285126523
     0.000000000  0.125000000  0.392563261
     0.750000000  0.250000000  0.392563261
     0.750000000  0.125000000  0.500000000
     0.000000000  0.250000000  0.500000000
     0.990914333  0.124988265  0.605199383
     0.743116819  0.250008033  0.612107166
     0.750756218  0.125005460  0.722384311
     0.000722150  0.249936450  0.709950987
     0.750000000  0.375000000  0.285126523
     0.000000000  0.500000000  0.285126523
     0.000000000  0.375000000  0.392563261
     0.750000000  0.500000000  0.392563261
     0.750000000  0.375000000  0.500000000
     0.000000000  0.500000000  0.500000000
     0.990953166  0.374996140  0.605194993
     0.743080127  0.499995664  0.612096310
     0.750910787  0.374944737  0.722288471
     0.000764450  0.500001086  0.709968481
     0.250000000  0.625000000  0.285126523
     0.500000000  0.750000000  0.285126523
     0.500000000  0.625000000  0.392563261
     0.250000000  0.750000000  0.392563261
     0.250000000  0.625000000  0.500000000
     0.500000000  0.750000000  0.500000000
     0.490850053  0.624913445  0.605311704
     0.242944062  0.750022121  0.612106072
     0.250874750  0.625057540  0.722296602
     0.500809930  0.749926844  0.709931604
     0.250000000  0.875000000  0.285126523
     0.500000000  0.000000000  0.285126523
     0.500000000  0.875000000  0.392563261
     0.250000000  0.000000000  0.392563261
     0.250000000  0.875000000  0.500000000
[...]
     0.500000000  0.500000000  0.434467643
     0.347509432  0.375000000  0.392563261
     0.652490568  0.375000000  0.392563261
     0.250000000  0.500000000  0.458095618
     0.250000000  0.500000000  0.541904382
     0.597509432  0.375000000  0.500000000
     0.402490568  0.375000000  0.500000000
     0.500014597  0.499996645  0.566425033
     0.500030242  0.499976497  0.650659698
     0.350018309  0.375018064  0.608079048
     0.651255145  0.374995887  0.608490286
     0.249942581  0.499992468  0.673120098
     0.250827902  0.499976828  0.757445727
     0.594362019  0.374807285  0.720468009
     0.406754022  0.374760634  0.720509426

  ion indices of the primitive-cell ions
   primitive index   ion index
                 1           1
                 2           2
                 3           3
                 4           4
                 5           5
                 6           6
                 7           7
                 8           8
[...]

 Eigenvectors and eigenvalues of the dynamical matrix

   1 f  =   91.598290 THz   575.529027 2PiTHz 3055.390060 cm-1   378.819917 meV
             X         Y         Z           dx          dy          dz
      6.627034  5.990755 25.530082    -0.017544    0.300246   -0.008247
      6.596610  6.884473 26.161989     0.017439   -0.529960   -0.391348
      6.657208  5.097078 26.161955     0.018119   -0.554195    0.407350
      7.534015  6.020880 24.915255     0.002699    0.021775   -0.003126
      5.720563  5.960754 24.914685     0.022773    0.022457    0.015933
      9.938761  7.488398  8.792164            0           0           0
      0.000000  8.986077  8.792164            0           0           0
      0.000000  7.488398 12.105084            0           0           0
      9.938761  8.986077 12.105084            0           0           0
      9.938761  7.488398 15.418004            0           0           0
      0.000000  8.986077 15.418004            0           0           0
     13.130570  7.488521 18.662298            0           0           0
      9.845794  8.986099 18.874799            0           0           0
      9.951872  7.489046 22.272403            0           0           0
      0.010674  8.986788 21.892538            0           0           0
      9.938761 10.483757  8.792164            0           0           0
      0.000000  0.000000  8.792164            0           0           0
      0.000000 10.483757 12.105084            0           0           0
      9.938761  0.000000 12.105084            0           0           0
      9.938761 10.483757 15.418004            0           0           0
      0.000000  0.000000 15.418004            0           0           0
     13.130504 10.483820 18.662025            0           0           0
      9.846442 11.981420 18.875847            0           0           0
      9.949802 10.483828 22.275765            0           0           0
      0.010120 11.981428 21.892389            0           0           0
      9.938761  1.497680  8.792164            0           0           0
      0.000000  2.995359  8.792164            0           0           0
      0.000000  1.497680 12.105084            0           0           0
      9.938761  2.995359 12.105084            0           0           0
      9.938761  1.497680 15.418004            0           0           0
      0.000000  2.995359 15.418004            0           0           0
     13.131280  1.497539 18.661933            0           0           0
      9.847547  2.995455 18.874942            0           0           0
      9.948782  1.497745 22.275449            0           0           0
      0.009570  2.994598 21.892055            0           0           0
      9.938761  4.493039  8.792164            0           0           0
      0.000000  5.990718  8.792164            0           0           0
      0.000000  4.493039 12.105084            0           0           0
      9.938761  5.990718 12.105084            0           0           0
      9.938761  4.493039 15.418004            0           0           0
      0.000000  5.990718 15.418004            0           0           0
     13.131795  4.492992 18.661798            0           0           0
      9.847061  5.990666 18.874607            0           0           0
      9.950830  4.492377 22.272493            0           0           0
      0.010130  5.990731 21.892594            0           0           0
      3.312920  7.488398  8.792164            0           0           0
      6.625840  8.986077  8.792164            0           0           0
      6.625840  7.488398 12.105084            0           0           0
      3.312920  8.986077 12.105084            0           0           0
      3.312920  7.488398 15.418004            0           0           0
      6.625840  8.986077 15.418004            0           0           0
      6.504588  7.487361 18.665397            0           0           0
      3.219417  8.986343 18.874908            0           0           0
      3.324512  7.489087 22.272744            0           0           0
      6.636573  8.985201 21.891457            0           0           0
      3.312920 10.483757  8.792164            0           0           0
      6.625840  0.000000  8.792164            0           0           0
      6.625840 10.483757 12.105084            0           0           0
      3.312920  0.000000 12.105084            0           0           0
      3.312920 10.483757 15.418004            0           0           0
[...]
      6.625840  5.990718 13.397248            0           0           0
      4.605084  4.493039 12.105084            0           0           0
      8.646597  4.493039 12.105084            0           0           0
      3.312920  5.990718 14.125840            0           0           0
      3.312920  5.990718 16.710168            0           0           0
      7.918004  4.493039 15.418004            0           0           0
      5.333677  4.493039 15.418004            0           0           0
      6.626034  5.990678 17.466287            0           0           0
      6.626241  5.990437 20.063748            0           0           0
      4.638331  4.493255 18.750731            0           0           0
      8.630225  4.492989 18.763412            0           0           0
      3.312159  5.990628 20.756337            0           0           0
      3.323891  5.990441 23.356603            0           0           0
      7.876296  4.490730 22.216358            0           0           0
      5.390174  4.490171 22.217635            0           0           0

[...]

  14 f  =    1.500056 THz     9.425127 2PiTHz   50.036470 cm-1     6.203729 meV
             X         Y         Z           dx          dy          dz
      6.627034  5.990755 25.530082    -0.545345    0.536338    0.031626
      6.596610  6.884473 26.161989     0.022601    0.051528    0.163753
      6.657208  5.097078 26.161955    -0.329708    0.039855   -0.145044
      7.534015  6.020880 24.915255    -0.152002    0.090929    0.012098
      5.720563  5.960754 24.914685    -0.163562    0.440815    0.006045
      9.938761  7.488398  8.792164            0           0           0
      0.000000  8.986077  8.792164            0           0           0
      0.000000  7.488398 12.105084            0           0           0
      9.938761  8.986077 12.105084            0           0           0
      9.938761  7.488398 15.418004            0           0           0
      0.000000  8.986077 15.418004            0           0           0
     13.130570  7.488521 18.662298            0           0           0
      9.845794  8.986099 18.874799            0           0           0
      9.951872  7.489046 22.272403            0           0           0
      0.010674  8.986788 21.892538            0           0           0
      9.938761 10.483757  8.792164            0           0           0
      0.000000  0.000000  8.792164            0           0           0
      0.000000 10.483757 12.105084            0           0           0
      9.938761  0.000000 12.105084            0           0           0
      9.938761 10.483757 15.418004            0           0           0
      0.000000  0.000000 15.418004            0           0           0
     13.130504 10.483820 18.662025            0           0           0
      9.846442 11.981420 18.875847            0           0           0
      9.949802 10.483828 22.275765            0           0           0
      0.010120 11.981428 21.892389            0           0           0
      9.938761  1.497680  8.792164            0           0           0
      0.000000  2.995359  8.792164            0           0           0
      0.000000  1.497680 12.105084            0           0           0
      9.938761  2.995359 12.105084            0           0           0
      9.938761  1.497680 15.418004            0           0           0
      0.000000  2.995359 15.418004            0           0           0
     13.131280  1.497539 18.661933            0           0           0
      9.847547  2.995455 18.874942            0           0           0
      9.948782  1.497745 22.275449            0           0           0
      0.009570  2.994598 21.892055            0           0           0
      9.938761  4.493039  8.792164            0           0           0
      0.000000  5.990718  8.792164            0           0           0
      0.000000  4.493039 12.105084            0           0           0
      9.938761  5.990718 12.105084            0           0           0
      9.938761  4.493039 15.418004            0           0           0
      0.000000  5.990718 15.418004            0           0           0
     13.131795  4.492992 18.661798            0           0           0
      9.847061  5.990666 18.874607            0           0           0
      9.950830  4.492377 22.272493            0           0           0
      0.010130  5.990731 21.892594            0           0           0
      3.312920  7.488398  8.792164            0           0           0
      6.625840  8.986077  8.792164            0           0           0
      6.625840  7.488398 12.105084            0           0           0
      3.312920  8.986077 12.105084            0           0           0
      3.312920  7.488398 15.418004            0           0           0
      6.625840  8.986077 15.418004            0           0           0
      6.504588  7.487361 18.665397            0           0           0
      3.219417  8.986343 18.874908            0           0           0
      3.324512  7.489087 22.272744            0           0           0
      6.636573  8.985201 21.891457            0           0           0
      3.312920 10.483757  8.792164            0           0           0
      6.625840  0.000000  8.792164            0           0           0
      6.625840 10.483757 12.105084            0           0           0
      3.312920  0.000000 12.105084            0           0           0
      3.312920 10.483757 15.418004            0           0           0
[...]
      6.625840  5.990718 13.397248            0           0           0
      4.605084  4.493039 12.105084            0           0           0
      8.646597  4.493039 12.105084            0           0           0
      3.312920  5.990718 14.125840            0           0           0
      3.312920  5.990718 16.710168            0           0           0
      7.918004  4.493039 15.418004            0           0           0
      5.333677  4.493039 15.418004            0           0           0
      6.626034  5.990678 17.466287            0           0           0
      6.626241  5.990437 20.063748            0           0           0
      4.638331  4.493255 18.750731            0           0           0
      8.630225  4.492989 18.763412            0           0           0
      3.312159  5.990628 20.756337            0           0           0
      3.323891  5.990441 23.356603            0           0           0
      7.876296  4.490730 22.216358            0           0           0
      5.390174  4.490171 22.217635            0           0           0

  15 f/i=    1.648677 THz    10.358945 2PiTHz   54.993955 cm-1     6.818378 meV
             X         Y         Z           dx          dy          dz
      6.627034  5.990755 25.530082     0.009966   -0.376672   -0.050813
      6.596610  6.884473 26.161989     0.014906   -0.426017    0.433783
      6.657208  5.097078 26.161955     0.014632   -0.426236   -0.463518
      7.534015  6.020880 24.915255    -0.008388    0.209763   -0.015746
      5.720563  5.960754 24.914685    -0.008705    0.210351   -0.013187
      9.938761  7.488398  8.792164            0           0           0
      0.000000  8.986077  8.792164            0           0           0
      0.000000  7.488398 12.105084            0           0           0
      9.938761  8.986077 12.105084            0           0           0
      9.938761  7.488398 15.418004            0           0           0
      0.000000  8.986077 15.418004            0           0           0
     13.130570  7.488521 18.662298            0           0           0
      9.845794  8.986099 18.874799            0           0           0
      9.951872  7.489046 22.272403            0           0           0
      0.010674  8.986788 21.892538            0           0           0
      9.938761 10.483757  8.792164            0           0           0
      0.000000  0.000000  8.792164            0           0           0
      0.000000 10.483757 12.105084            0           0           0
      9.938761  0.000000 12.105084            0           0           0
      9.938761 10.483757 15.418004            0           0           0
      0.000000  0.000000 15.418004            0           0           0
     13.130504 10.483820 18.662025            0           0           0
      9.846442 11.981420 18.875847            0           0           0
      9.949802 10.483828 22.275765            0           0           0
      0.010120 11.981428 21.892389            0           0           0
      9.938761  1.497680  8.792164            0           0           0
      0.000000  2.995359  8.792164            0           0           0
      0.000000  1.497680 12.105084            0           0           0
      9.938761  2.995359 12.105084            0           0           0
      9.938761  1.497680 15.418004            0           0           0
      0.000000  2.995359 15.418004            0           0           0
     13.131280  1.497539 18.661933            0           0           0
      9.847547  2.995455 18.874942            0           0           0
      9.948782  1.497745 22.275449            0           0           0
      0.009570  2.994598 21.892055            0           0           0
      9.938761  4.493039  8.792164            0           0           0
      0.000000  5.990718  8.792164            0           0           0
      0.000000  4.493039 12.105084            0           0           0
      9.938761  5.990718 12.105084            0           0           0
      9.938761  4.493039 15.418004            0           0           0
      0.000000  5.990718 15.418004            0           0           0
     13.131795  4.492992 18.661798            0           0           0
      9.847061  5.990666 18.874607            0           0           0
      9.950830  4.492377 22.272493            0           0           0
      0.010130  5.990731 21.892594            0           0           0
      3.312920  7.488398  8.792164            0           0           0
      6.625840  8.986077  8.792164            0           0           0
      6.625840  7.488398 12.105084            0           0           0
      3.312920  8.986077 12.105084            0           0           0
      3.312920  7.488398 15.418004            0           0           0
      6.625840  8.986077 15.418004            0           0           0
      6.504588  7.487361 18.665397            0           0           0
      3.219417  8.986343 18.874908            0           0           0
      3.324512  7.489087 22.272744            0           0           0
      6.636573  8.985201 21.891457            0           0           0
      3.312920 10.483757  8.792164            0           0           0
      6.625840  0.000000  8.792164            0           0           0
      6.625840 10.483757 12.105084            0           0           0
      3.312920  0.000000 12.105084            0           0           0
      3.312920 10.483757 15.418004            0           0           0
[...]
      6.625840  5.990718 13.397248            0           0           0
      4.605084  4.493039 12.105084            0           0           0
      8.646597  4.493039 12.105084            0           0           0
      3.312920  5.990718 14.125840            0           0           0
      3.312920  5.990718 16.710168            0           0           0
      7.918004  4.493039 15.418004            0           0           0
      5.333677  4.493039 15.418004            0           0           0
      6.626034  5.990678 17.466287            0           0           0
      6.626241  5.990437 20.063748            0           0           0
      4.638331  4.493255 18.750731            0           0           0
      8.630225  4.492989 18.763412            0           0           0
      3.312159  5.990628 20.756337            0           0           0
      3.323891  5.990441 23.356603            0           0           0
      7.876296  4.490730 22.216358            0           0           0
      5.390174  4.490171 22.217635            0           0           0

 Finite differences POTIM=   1.0000000000000000E-002