 vasp.6.3.0 20Jan22 (build Apr  1 2022 16:44:48) complex
 executed on        HPECrayEX_GCC date 2023.02.18  04:59:00

 INCAR:
   SYSTEM = MgO-rocksalt
   ISMEAR = 0
   SIGMA = 0.05
   EDIFF = 1E-7
   ALGO = ALL
   ISTART = 0
   IBRION = 2
   NSW = 1000
   ISYM = 0
   ISIF = 2
   EDIFFG = -0.01
   DIPOL = 0.5 0.5 0.5
   IDIPOL = 3
   LDIPOL = .TRUE.
   GGA = RE
   AGGAC = 0.0
   LUSE_VDW = .TRUE.
   LASPH = .TRUE.
   ENCUT = 520
   PREC = Accurate
   LASPH = .TRUE.
   LREAL = Auto
   ISPIN = 1
   NELM = 200
   NELMIN = 8
   NCORE = 8
   KPAR = 1
   LWAVE = .FALSE.
   LCHARG = .FALSE.

 POTCAR:    PAW_PBE C 08Apr2002
 POTCAR:    PAW_PBE H 15Jun2001
 POTCAR:    PAW_PBE Mg 13Apr2007
 POTCAR:    PAW_PBE O 08Apr2002
|               ----> ADVICE to this user running VASP <----                  |
|     You have switched on vdW-DFT.                                           |
|     This routine was written and supplied by Jiri Klimes. We recommend      |
|     that you carefully read and cite the following publications:            |
|       J. Klimes, D.R. Bowler, A. Michelides                                 |
|          J. Phys.: Cond Matt. 22 022201 (2010)                              |
|       J. Klimes, D.R. Bowler, A. Michelides                                 |
|          Phys. Rev. B. 83, 195131 (2011)                                    |
|     and references therein.                                                 |

   TITEL  = PAW_PBE C 08Apr2002
   POMASS =   12.011; ZVAL   =    4.000    mass and valenz
   ENMAX  =  400.000; ENMIN  =  300.000 eV

   TITEL  = PAW_PBE H 15Jun2001
   POMASS =    1.000; ZVAL   =    1.000    mass and valenz
   ENMAX  =  250.000; ENMIN  =  200.000 eV

[...]

   TITEL  = PAW_PBE O 08Apr2002
   POMASS =   16.000; ZVAL   =    6.000    mass and valenz
   ENMAX  =  400.000; ENMIN  =  300.000 eV

 Optimization of the real space projectors (new method)

 maximal supplied QI-value         = 25.13
 optimisation between [QCUT,QGAM] = [ 11.56, 23.12] = [ 37.43,149.72] Ry
 Optimized for a Real-space Cutoff    1.04 Angstroem

   l    n(q)    QCUT    max X(q) W(low)/X(q) W(high)/X(q)  e(spline)
   0      7    11.561   115.676    0.20E-03    0.60E-03    0.21E-06
   0      7    11.561    87.132    0.20E-03    0.59E-03    0.21E-06
   1      7    11.561     4.429    0.23E-03    0.35E-03    0.15E-06
   1      7    11.561     2.733    0.18E-03    0.25E-03    0.12E-06
 Optimization of the real space projectors (new method)

[...]

   l    n(q)    QCUT    max X(q) W(low)/X(q) W(high)/X(q)  e(spline)
   0      9    11.527    28.265    0.62E-04    0.53E-04    0.73E-07
   0      9    11.527    10.429    0.52E-04    0.40E-04    0.58E-07
   1      8    11.527    13.073    0.98E-04    0.18E-03    0.86E-07
   1      8    11.527     9.625    0.79E-04    0.15E-03    0.74E-07
   2      8    11.527     4.652    0.22E-03    0.72E-04    0.47E-07
 Optimization of the real space projectors (new method)

 maximal supplied QI-value         = 24.76
 optimisation between [QCUT,QGAM] = [ 11.64, 23.27] = [ 37.91,151.63] Ry
 Optimized for a Real-space Cutoff    1.14 Angstroem

   l    n(q)    QCUT    max X(q) W(low)/X(q) W(high)/X(q)  e(spline)
   0      8    11.635    20.381    0.10E-03    0.33E-03    0.24E-06
   0      8    11.635    15.268    0.11E-03    0.35E-03    0.26E-06
   1      7    11.635     5.964    0.24E-03    0.31E-03    0.30E-06
   1      7    11.635     5.382    0.22E-03    0.25E-03    0.26E-06
|               ----> ADVICE to this user running VASP <----                  |
|     You enforced a specific xc type in the INCAR file but a different       |
|     type was found in the POTCAR file.                                      |
|     I HOPE YOU KNOW WHAT YOU ARE DOING!                                     |

  PAW_PBE C 08Apr2002                   :
  PAW_PBE H 15Jun2001                   :
  PAW_PBE Mg 13Apr2007                  :
  PAW_PBE O 08Apr2002                   :

 POSCAR:  C  H Mg  O
  positions in direct lattice
 exchange correlation table for  LEXCH =       40
   RHO(1)=    0.500       N(1)  =     2000
   RHO(2)=  100.500       N(2)  =     4000

 ion  position               nearest neighbor table
   1  0.480  0.471  0.790-   7 1.09   2 1.40   6 1.40
   2  0.561  0.461  0.789-   8 1.09   1 1.40   3 1.40
   3  0.593  0.386  0.790-   9 1.09   4 1.40   2 1.40
   4  0.544  0.320  0.793-  10 1.09   3 1.40   5 1.40
   5  0.463  0.330  0.795-  11 1.09   6 1.40   4 1.40
   6  0.431  0.406  0.793-  12 1.09   5 1.40   1 1.40
   7  0.455  0.530  0.789-   1 1.09
   8  0.600  0.512  0.786-   2 1.09
   9  0.657  0.378  0.789-   3 1.09
  10  0.569  0.262  0.794-   4 1.09
  11  0.424  0.279  0.797-   5 1.09
  12  0.368  0.414  0.794-   6 1.09
  13  0.000  0.375  0.350- 141 2.14 144 2.14 151 2.14 175 2.14 224 2.14  23 3.02  47 3.02  96 3.02
                            16 3.02  46 3.02 102 3.02 126 3.02  22 3.02
  14  0.125  0.000  0.350- 142 2.14 143 2.14 152 2.14 159 2.14 176 2.14  24 3.02  31 3.02  48 3.02
                            15 3.02  45 3.02  21 3.02  61 3.02  37 3.02
  15  0.000  0.000  0.450- 143 2.14 142 2.14 149 2.14 173 2.14 222 2.14 147 2.14  45 3.02  94 3.02
                            14 3.02  21 3.02 104 3.02 128 3.02  48 3.02  24 3.02  25 3.03  49 3.03
  16  0.125  0.375  0.450- 144 2.14 141 2.14 150 2.14 157 2.14 174 2.14 148 2.14  29 3.02  46 3.02
                            13 3.02  22 3.02  47 3.02  63 3.02  39 3.02  23 3.02  50 3.03  26 3.03
  17  0.000  0.375  0.550- 148 2.14 155 2.14 179 2.14 228 2.14 141 2.15 145 2.16  51 3.01 100 3.01
                            20 3.01  27 3.01 106 3.02 130 3.02  26 3.02  50 3.02  16 3.03  23 3.03
  18  0.125  0.000  0.550- 147 2.14 156 2.14 163 2.14 180 2.14 142 2.15 146 2.16  35 3.01  52 3.01
                            19 3.01  28 3.01  25 3.02  65 3.02  41 3.02  49 3.02  15 3.03  24 3.03
  19  0.000  0.000  0.650- 147 2.13 146 2.14 153 2.14 177 2.14 226 2.14  25 3.01  49 3.01  98 3.01
                            18 3.01  28 3.02 108 3.02 132 3.02  52 3.02
  20  0.125  0.375  0.650- 148 2.13 145 2.14 154 2.14 161 2.14 178 2.14  26 3.01  33 3.01  50 3.01
                            17 3.01  27 3.02  51 3.02  67 3.02  43 3.02
  21  0.000  0.125  0.350- 149 2.14 143 2.14 151 2.14 152 2.14 232 2.14  23 3.02  24 3.02 104 3.02
                            15 3.02  94 3.02 102 3.02  14 3.02  22 3.02
  22  0.125  0.250  0.350- 150 2.14 144 2.14 151 2.14 152 2.14 167 2.14  23 3.02  24 3.02  39 3.02
                            16 3.02  29 3.02  37 3.02  13 3.02  21 3.02
  23  0.000  0.250  0.450- 151 2.14 149 2.14 150 2.14 141 2.14 230 2.14 155 2.14  22 3.02 102 3.02
                            13 3.02  21 3.02  16 3.02 104 3.02  24 3.02  96 3.02  26 3.03 106 3.03
  24  0.125  0.125  0.450- 152 2.14 149 2.14 150 2.14 142 2.14 165 2.14 156 2.14  22 3.02  37 3.02
                            14 3.02  21 3.02  15 3.02  39 3.02  23 3.02  31 3.02  26 3.03  41 3.03
  25  0.000  0.125  0.550- 147 2.14 155 2.14 156 2.14 236 2.14 149 2.15 153 2.16  28 3.01 108 3.01
                            19 3.01  27 3.01 106 3.02  18 3.02  26 3.02  98 3.02  23 3.03  24 3.03
  26  0.125  0.250  0.550- 148 2.14 155 2.14 156 2.14 171 2.14 150 2.15 154 2.16  28 3.01  43 3.01
                            20 3.01  27 3.01  41 3.02  17 3.02  25 3.02  33 3.02  23 3.03  24 3.03
  27  0.000  0.250  0.650- 155 2.13 153 2.14 154 2.14 145 2.14 234 2.14  25 3.01  26 3.01 106 3.01
                            17 3.01 100 3.02  20 3.02 108 3.02  28 3.02
  28  0.125  0.125  0.650- 156 2.13 153 2.14 154 2.14 146 2.14 169 2.14  25 3.01  26 3.01  41 3.01
                            18 3.01  35 3.02  19 3.02  43 3.02  27 3.02
  29  0.250  0.375  0.350- 157 2.14 144 2.14 160 2.14 167 2.14 191 2.14  32 3.02  39 3.02  63 3.02
                            16 3.02  46 3.02  62 3.02  38 3.02  22 3.02
  30  0.375  0.000  0.350- 158 2.14 159 2.14 168 2.14 192 2.14 207 2.14  40 3.02  64 3.02  79 3.02
                            31 3.02  61 3.02  85 3.02 109 3.02  37 3.02
  31  0.250  0.000  0.450- 159 2.14 158 2.14 142 2.14 165 2.14 189 2.14 163 2.14  37 3.02  61 3.02
                            14 3.02  30 3.02  24 3.02  64 3.02  40 3.02  48 3.02  41 3.03  65 3.03
  32  0.375  0.375  0.450- 160 2.14 157 2.14 166 2.14 190 2.14 205 2.14 164 2.14  62 3.02  77 3.02
                            29 3.02  38 3.02  87 3.02 111 3.02  63 3.02  39 3.02  42 3.03  66 3.03
  33  0.250  0.375  0.550- 148 2.14 164 2.14 171 2.14 195 2.14 157 2.15 161 2.16  43 3.01  67 3.01
                            20 3.01  36 3.01  66 3.02  42 3.02  26 3.02  50 3.02  32 3.03  16 3.03
  34  0.375  0.000  0.550- 163 2.14 172 2.14 196 2.14 211 2.14 158 2.15 162 2.16  68 3.01  83 3.01
                            35 3.01  44 3.01  89 3.02 113 3.02  41 3.02  65 3.02  31 3.03  40 3.03
  35  0.250  0.000  0.650- 163 2.13 162 2.14 146 2.14 169 2.14 193 2.14  34 3.01  41 3.01  65 3.01
                            18 3.01  52 3.02  28 3.02  68 3.02  44 3.02
  36  0.375  0.375  0.650- 164 2.13 161 2.14 170 2.14 194 2.14 209 2.14  42 3.01  66 3.01  81 3.01
                            33 3.01  43 3.02  91 3.02 115 3.02  67 3.02
  37  0.250  0.125  0.350- 165 2.14 159 2.14 152 2.14 167 2.14 168 2.14  31 3.02  39 3.02  40 3.02
                            24 3.02  38 3.02  14 3.02  30 3.02  22 3.02
  38  0.375  0.250  0.350- 166 2.14 160 2.14 167 2.14 168 2.14 215 2.14  39 3.02  40 3.02  87 3.02
                            32 3.02  77 3.02  85 3.02  29 3.02  37 3.02
  39  0.250  0.250  0.450- 167 2.14 157 2.14 165 2.14 166 2.14 150 2.14 171 2.14  37 3.02  38 3.02
                            22 3.02  29 3.02  16 3.02  40 3.02  32 3.02  24 3.02  41 3.03  42 3.03
  40  0.375  0.125  0.450- 168 2.14 165 2.14 166 2.14 158 2.14 213 2.14 172 2.14  38 3.02  85 3.02
                            30 3.02  37 3.02  31 3.02  87 3.02  39 3.02  79 3.02  42 3.03  89 3.03
  41  0.250  0.125  0.550- 156 2.14 163 2.14 171 2.14 172 2.14 165 2.15 169 2.16  43 3.01  44 3.01
                            28 3.01  35 3.01  18 3.02  34 3.02  26 3.02  42 3.02  31 3.03  39 3.03
  42  0.375  0.250  0.550- 164 2.14 171 2.14 172 2.14 219 2.14 166 2.15 170 2.16  44 3.01  91 3.01
                            36 3.01  43 3.01  89 3.02  33 3.02  41 3.02  81 3.02  39 3.03  40 3.03
  43  0.250  0.250  0.650- 171 2.13 161 2.14 169 2.14 170 2.14 154 2.14  33 3.01  41 3.01  42 3.01
                            26 3.01  28 3.02  20 3.02  44 3.02  36 3.02
  44  0.375  0.125  0.650- 172 2.13 169 2.14 170 2.14 162 2.14 217 2.14  41 3.01  42 3.01  89 3.01
                            34 3.01  83 3.02  35 3.02  91 3.02  43 3.02
  45  0.000  0.875  0.350- 173 2.14 143 2.14 176 2.14 183 2.14 256 2.14  48 3.02  55 3.02 128 3.02
                            15 3.02  94 3.02  54 3.02 134 3.02  14 3.02
  46  0.125  0.500  0.350- 174 2.14 144 2.14 175 2.14 184 2.14 191 2.14  47 3.02  56 3.02  63 3.02
                            16 3.02  29 3.02  13 3.02  69 3.02  53 3.02
  47  0.000  0.500  0.450- 175 2.14 174 2.14 141 2.14 181 2.14 254 2.14 179 2.14  53 3.02 126 3.02
                            13 3.02  46 3.02  16 3.02 136 3.02  56 3.02  96 3.02 130 3.03  57 3.03
[...]
  12.81917044 12.81917044  7.50000000
  14.95569884 10.68264203  7.50000000
  12.81917044 10.68264203 13.94813025
  14.95569884 12.81917044 13.94813025
  12.81917044 12.81917044 11.77868095
  14.95569884 10.68264203 11.77868095

--------------------------------------- Iteration      FINAL  ---------------------------------------

--------------------OUTCAR has been truncated-------------------------

[...]

--------------------OUTCAR has been truncated-------------------------

  FORCE on cell =-STRESS in cart. coord.  units (eV):
  Direction    XX          YY          ZZ          XY          YZ          ZX
  Alpha Z  1008.14363  1008.14363  1008.14363
  Ewald  196082.00077196079.86692************    -1.32369   -58.37431   -34.27917
  Hartree211120.23720211118.97167************    -0.67909   -34.38556   -20.19538
  E(xc)   -4815.52764 -4815.54591 -4820.66088    -0.00871    -0.25804    -0.15222
  Local  ************************409119.35540     1.89467    90.54038    53.19299
  n-local -2458.76820 -2458.77161 -2525.21482     0.00233     0.16552     0.09430
  augment   882.22676   882.22778   890.28879     0.00034     0.00683     0.00553
  Kinetic 18414.81342 18414.99023 18650.36407     0.12351     2.15884     1.28030
  Fock        0.00000     0.00000     0.00000     0.00000     0.00000     0.00000
  Total    -119.72538  -119.70696    -0.40982     0.00937    -0.14634    -0.05364
  in kB     -30.66841   -30.66369    -0.10498     0.00240    -0.03749    -0.01374

 VOLUME and BASIS-vectors are now :
  energy-cutoff  :      520.00
  volume of cell :     6254.69
      direct lattice vectors                 reciprocal lattice vectors
    17.092227251  0.000000000  0.000000000     0.058506126  0.000000000  0.000000000
     0.000000000 17.092227251  0.000000000     0.000000000  0.058506126  0.000000000
     0.000000000  0.000000000 21.409585219     0.000000000  0.000000000  0.046708051

  length of vectors
    17.092227251 17.092227251 21.409585219     0.058506126  0.058506126  0.046708051

 FORCES acting on ions:
    Electron-Ion                     Ewald-Force                    Non-Local-Force
   0.687E+02 -.161E+03 -.482E+03   -.691E+02 0.162E+03 0.482E+03   0.374E+00 -.734E+00 -.619E-01
   -.105E+03 -.140E+03 -.482E+03   0.105E+03 0.140E+03 0.482E+03   -.569E+00 -.708E+00 -.496E-01
   -.174E+03 0.210E+02 -.482E+03   0.175E+03 -.211E+02 0.482E+03   -.744E+00 0.105E+00 -.320E-01
   -.686E+02 0.161E+03 -.483E+03   0.689E+02 -.162E+03 0.483E+03   -.321E+00 0.729E+00 -.687E-01
   0.105E+03 0.140E+03 -.484E+03   -.106E+03 -.141E+03 0.484E+03   0.507E+00 0.656E+00 -.107E+00
   0.174E+03 -.212E+02 -.483E+03   -.175E+03 0.213E+02 0.483E+03   0.726E+00 -.100E+00 -.311E-01
   0.311E+02 -.727E+02 -.121E+03   -.334E+02 0.782E+02 0.120E+03   0.234E+01 -.546E+01 0.163E+00
   -.475E+02 -.633E+02 -.120E+03   0.511E+02 0.680E+02 0.120E+03   -.358E+01 -.475E+01 0.323E+00
   -.784E+02 0.951E+01 -.121E+03   0.843E+02 -.102E+02 0.120E+03   -.588E+01 0.711E+00 0.934E-01
   -.311E+02 0.727E+02 -.121E+03   0.334E+02 -.782E+02 0.121E+03   -.235E+01 0.545E+01 -.158E+00
   0.475E+02 0.632E+02 -.121E+03   -.510E+02 -.680E+02 0.121E+03   0.357E+01 0.474E+01 -.270E+00
   0.785E+02 -.954E+01 -.121E+03   -.844E+02 0.103E+02 0.121E+03   0.588E+01 -.730E+00 -.125E+00
   -.110E+00 0.121E+00 0.294E+03   0.109E+00 -.121E+00 -.292E+03   0.844E-04 -.793E-04 -.203E+01
   0.718E+00 0.682E+00 0.293E+03   -.717E+00 -.682E+00 -.291E+03   -.272E-03 -.264E-03 -.203E+01
   -.100E+00 0.855E+00 0.977E+02   0.100E+00 -.855E+00 -.978E+02   0.386E-05 0.426E-04 0.138E+00
   0.189E+01 0.203E+00 0.996E+02   -.188E+01 -.203E+00 -.998E+02   -.178E-02 -.758E-04 0.143E+00
   -.370E+00 0.285E+00 -.897E+02   0.369E+00 -.285E+00 0.898E+02   0.659E-03 -.629E-03 -.845E-01
   0.164E+01 0.156E+01 -.916E+02   -.164E+01 -.156E+01 0.917E+02   -.314E-02 -.245E-02 -.871E-01
   -.237E+00 0.196E+01 -.286E+03   0.237E+00 -.196E+01 0.284E+03   -.797E-04 0.340E-03 0.205E+01
   0.766E+01 0.589E+00 -.281E+03   -.765E+01 -.589E+00 0.279E+03   -.874E-02 0.235E-03 0.205E+01
   -.841E-01 0.102E+01 0.294E+03   0.839E-01 -.102E+01 -.292E+03   0.538E-04 -.362E-03 -.203E+01
   0.104E+01 0.886E+00 0.294E+03   -.104E+01 -.885E+00 -.292E+03   -.715E-03 -.423E-03 -.203E+01
   -.166E+00 0.113E+01 0.988E+02   0.166E+00 -.113E+01 -.989E+02   0.209E-03 -.863E-04 0.141E+00
   0.130E+01 0.157E+01 0.985E+02   -.130E+01 -.157E+01 -.986E+02   -.443E-03 -.139E-03 0.140E+00
   -.230E+00 0.222E+01 -.912E+02   0.230E+00 -.222E+01 0.912E+02   0.529E-03 -.778E-03 -.881E-01
   0.334E+01 0.223E+01 -.892E+02   -.333E+01 -.223E+01 0.892E+02   -.990E-02 -.510E-02 -.835E-01
   -.559E+00 0.282E+01 -.283E+03   0.559E+00 -.282E+01 0.282E+03   0.265E-03 -.148E-03 0.205E+01
   0.405E+01 0.425E+01 -.284E+03   -.405E+01 -.424E+01 0.282E+03   -.432E-02 -.351E-02 0.205E+01
   0.177E+01 0.163E+00 0.294E+03   -.177E+01 -.162E+00 -.292E+03   -.106E-02 -.958E-04 -.203E+01
   0.841E+00 0.990E+00 0.294E+03   -.840E+00 -.988E+00 -.292E+03   -.377E-03 -.664E-03 -.203E+01
   0.156E+01 0.125E+01 0.985E+02   -.156E+01 -.124E+01 -.986E+02   -.142E-03 -.347E-03 0.140E+00
   0.247E+01 0.364E+00 0.104E+03   -.247E+01 -.363E+00 -.104E+03   0.837E-03 -.105E-04 0.118E+00
   0.715E+01 0.588E+00 -.842E+02   -.711E+01 -.587E+00 0.842E+02   -.494E-01 -.194E-03 -.538E-01
   0.209E+01 0.317E+01 -.892E+02   -.208E+01 -.316E+01 0.893E+02   -.420E-02 -.912E-02 -.841E-01
   0.417E+01 0.391E+01 -.284E+03   -.417E+01 -.391E+01 0.282E+03   -.270E-02 -.482E-02 0.205E+01
   0.192E+02 0.276E+01 -.252E+03   -.191E+02 -.276E+01 0.250E+03   -.996E-01 -.631E-02 0.205E+01
   0.134E+01 0.135E+01 0.294E+03   -.134E+01 -.135E+01 -.292E+03   -.790E-03 -.822E-03 -.203E+01
   0.126E+01 0.132E+01 0.295E+03   -.126E+01 -.132E+01 -.293E+03   -.798E-03 -.856E-03 -.203E+01
   0.271E+01 0.176E+01 0.101E+03   -.271E+01 -.176E+01 -.101E+03   -.124E-02 -.983E-03 0.143E+00
   0.166E+01 0.272E+01 0.101E+03   -.165E+01 -.272E+01 -.101E+03   -.854E-03 -.125E-02 0.142E+00
   0.394E+01 0.401E+01 -.886E+02   -.394E+01 -.400E+01 0.886E+02   -.530E-02 -.573E-02 -.754E-01
   0.524E+01 0.555E+01 -.808E+02   -.522E+01 -.553E+01 0.808E+02   -.199E-01 -.244E-01 -.801E-01
   0.128E+02 0.749E+01 -.275E+03   -.127E+02 -.748E+01 0.274E+03   -.291E-01 -.118E-01 0.205E+01
   0.693E+01 0.128E+02 -.276E+03   -.692E+01 -.127E+02 0.274E+03   -.110E-01 -.300E-01 0.205E+01
   -.656E-01 -.116E+00 0.293E+03   0.655E-01 0.116E+00 -.291E+03   0.223E-04 0.467E-04 -.203E+01
   0.108E+01 -.705E+00 0.294E+03   -.108E+01 0.704E+00 -.292E+03   -.714E-03 0.304E-03 -.203E+01
   -.177E+00 -.893E+00 0.989E+02   0.177E+00 0.892E+00 -.990E+02   0.264E-03 0.908E-04 0.141E+00
   0.913E+00 -.180E+00 0.977E+02   -.913E+00 0.180E+00 -.979E+02   0.276E-05 0.446E-04 0.138E+00
   -.144E+00 -.252E+00 -.923E+02   0.144E+00 0.251E+00 0.923E+02   0.436E-03 0.970E-04 -.864E-01
   0.361E+01 -.178E+01 -.889E+02   -.360E+01 0.177E+01 0.889E+02   -.134E-01 0.381E-02 -.810E-01
   -.602E+00 -.228E+01 -.283E+03   0.602E+00 0.228E+01 0.282E+03   -.666E-04 0.147E-02 0.205E+01
   0.210E+01 -.430E+00 -.286E+03   -.210E+01 0.430E+00 0.284E+03   0.971E-03 0.336E-03 0.205E+01
   -.902E-01 -.103E+01 0.294E+03   0.900E-01 0.102E+01 -.292E+03   0.324E-04 0.380E-03 -.203E+01
   0.754E+00 -.864E+00 0.294E+03   -.753E+00 0.863E+00 -.291E+03   -.332E-03 0.369E-03 -.203E+01
   -.108E+00 -.109E+01 0.978E+02   0.108E+00 0.109E+01 -.979E+02   -.377E-05 0.536E-04 0.137E+00
   0.142E+01 -.159E+01 0.988E+02   -.142E+01 0.159E+01 -.989E+02   -.627E-03 0.286E-03 0.140E+00
   -.257E+00 -.225E+01 -.909E+02   0.257E+00 0.225E+01 0.909E+02   0.217E-03 0.659E-03 -.879E-01
   0.180E+01 -.201E+01 -.914E+02   -.180E+01 0.201E+01 0.914E+02   -.113E-02 0.284E-02 -.889E-01
   -.268E+00 -.250E+01 -.285E+03   0.268E+00 0.250E+01 0.284E+03   0.374E-03 -.213E-02 0.205E+01
   0.469E+01 -.440E+01 -.283E+03   -.468E+01 0.440E+01 0.282E+03   -.631E-02 0.242E-02 0.205E+01
[...]
   -.508E+01 -.270E+01 0.851E+03   0.507E+01 0.270E+01 -.855E+03   0.122E-01 0.759E-02 0.348E+01
   -.230E+01 -.388E+00 0.848E+03   0.230E+01 0.388E+00 -.852E+03   0.223E-02 0.379E-03 0.348E+01
   -.104E+02 -.219E+01 -.831E+03   0.104E+02 0.219E+01 0.836E+03   -.185E-02 -.214E-02 -.492E+01
   -.246E+02 -.103E+02 -.820E+03   0.246E+02 0.103E+02 0.825E+03   0.209E-01 0.195E-02 -.492E+01
   -.195E+02 -.930E+01 -.249E+03   0.194E+02 0.929E+01 0.249E+03   0.687E-01 0.131E-01 0.319E+00
   -.490E+01 -.913E+00 -.273E+03   0.489E+01 0.911E+00 0.273E+03   0.146E-02 0.123E-02 0.277E+00
   -.691E+01 -.678E+01 0.301E+03   0.690E+01 0.676E+01 -.301E+03   0.153E-01 0.154E-01 -.256E-01
   -.371E+01 -.382E+01 0.295E+03   0.371E+01 0.382E+01 -.295E+03   0.136E-02 0.214E-02 -.314E-01
   -.349E+01 -.326E+01 0.849E+03   0.348E+01 0.326E+01 -.853E+03   0.541E-02 0.547E-02 0.348E+01
   -.316E+01 -.343E+01 0.849E+03   0.316E+01 0.343E+01 -.853E+03   0.514E-02 0.557E-02 0.348E+01
   -.281E+02 -.274E+02 -.814E+03   0.281E+02 0.273E+02 0.819E+03   0.212E-01 0.208E-01 -.492E+01
   -.994E+01 -.101E+02 -.832E+03   0.993E+01 0.101E+02 0.837E+03   0.545E-02 0.513E-02 -.492E+01
   -.885E+01 -.942E+01 -.267E+03   0.883E+01 0.941E+01 0.267E+03   0.106E-01 0.235E-02 0.276E+00
   -.919E+01 -.862E+01 -.267E+03   0.919E+01 0.861E+01 0.267E+03   0.171E-02 0.947E-02 0.276E+00
   -.165E-01 -.106E-01 0.372E+02   -.576E-12 0.107E-13 0.909E-12   0.116E-01 0.161E-02 -.373E+02

 POSITION                                       TOTAL-FORCE (eV/Angst)
      8.16274      7.99638     17.29766         0.001886     -0.000500      0.002480
      9.55559      7.82738     17.27191         0.002756     -0.000109      0.004792
     10.10682      6.53635     17.31060         0.002017     -0.006175      0.002096
      9.26516      5.41560     17.37922         0.003759     -0.005464      0.003786
      7.87151      5.58480     17.40735        -0.001890     -0.004689     -0.000345
      7.32077      6.87456     17.36395        -0.000329     -0.008251      0.002543
      7.73441      8.99718     17.26658        -0.001776      0.002411      0.000192
     10.20945      8.69579     17.21584        -0.001576     -0.001589      0.001015
     11.18863      6.40552     17.29050        -0.006544     -0.000292     -0.000302
      9.69476      4.41511     17.40835        -0.005305      0.004211     -0.002030
      7.21779      4.71531     17.45750        -0.000195      0.000952     -0.002331
      6.23967      7.00717     17.38435        -0.002782     -0.000750     -0.002078
      0.00000      6.40959      7.50000        -0.000197      0.000252      0.361702
      2.13653      0.00000      7.50000         0.000670      0.000588      0.362218
      0.00000      0.00000      9.63653        -0.000011      0.000460      0.011687
      2.13653      6.40959      9.63653         0.005801      0.000700      0.012152
      0.00002      6.40970     11.78051         0.000012     -0.000650     -0.000256
      2.13677      0.00034     11.77996        -0.001370     -0.000905      0.000417
      0.00002      0.00020     13.89784         0.000055      0.000443      0.000864
      2.13740      6.40981     13.89881        -0.001312      0.000504     -0.000415
      0.00000      2.13653      7.50000        -0.000116      0.000909      0.361978
      2.13653      4.27306      7.50000         0.001779      0.001259      0.362121
      0.00000      4.27306      9.63653         0.000175      0.001398      0.011124
      2.13653      2.13653      9.63653         0.001562      0.001414      0.011495
     -0.00002      2.13680     11.77990         0.000369     -0.000637      0.000441
      2.13702      4.27352     11.78002        -0.000309     -0.001145      0.000804
     -0.00004      4.27333     13.89797         0.000097      0.000379      0.002177
      2.13679      2.13705     13.89819        -0.000475     -0.000537      0.000432
      4.27306      6.40959      7.50000         0.002968      0.000371      0.364597
      6.40959      0.00000      7.50000         0.001137      0.001677      0.362136
      4.27306      0.00000      9.63653         0.001208      0.001785      0.011320
      6.40959      6.40959      9.63653        -0.000279      0.000838      0.016063
      4.27498      6.40971     11.78019        -0.000598      0.000596     -0.000041
      6.40992      0.00052     11.78006        -0.000837      0.000018      0.000569
      4.27335      0.00042     13.89817        -0.000080     -0.000746      0.000681
      6.41717      6.41094     13.90010         0.000647      0.000350     -0.001222
      4.27306      2.13653      7.50000         0.002008      0.002084      0.362239
      6.40959      4.27306      7.50000         0.002087      0.002293      0.364572
      4.27306      4.27306      9.63653         0.006039      0.004467      0.012983
      6.40959      2.13653      9.63653         0.003959      0.006295      0.013120
      4.27339      2.13697     11.78003         0.000578      0.000553      0.000394
      6.41088      4.27466     11.78036        -0.000761     -0.000937      0.000904
      4.27475      4.27410     13.89753        -0.000784      0.000487     -0.000044
      6.41041      2.13833     13.89734         0.000722     -0.001370     -0.000037
      0.00000     14.95570      7.50000        -0.000015     -0.000005      0.362211
      2.13653      8.54611      7.50000         0.001827     -0.000917      0.362386
      0.00000      8.54611      9.63653         0.000263     -0.000819      0.010033
      2.13653     14.95570      9.63653         0.000269      0.000269      0.011562
      0.00001     14.95585     11.77979         0.000281     -0.000020     -0.000636
      2.13675      8.54588     11.77991         0.000621      0.000657     -0.001451
     -0.00003      8.54617     13.89823         0.000270      0.000165      0.000879
      2.13654     14.95585     13.89782         0.000723      0.000216      0.000549
      0.00000     10.68264      7.50000        -0.000078     -0.001021      0.361930
      2.13653     12.81917      7.50000         0.000764     -0.000756      0.362054
      0.00000     12.81917      9.63653         0.000162     -0.000185      0.011245
      2.13653     10.68264      9.63653         0.001143     -0.001557      0.010663
      0.00002     10.68259     11.77992         0.000316      0.000897     -0.000092
      2.13663     12.81912     11.77986        -0.000394      0.001222     -0.000401
      0.00003     12.81941     13.89774        -0.000168     -0.001170      0.000611
      2.13675     10.68265     13.89807        -0.001191     -0.000122      0.001003
[...]
     14.95570      8.54611      9.63653         0.006461      0.001491      0.036162
     12.81917      8.54611      7.50000         0.003397      0.002143     -0.413225
     14.95570     14.95570      7.50000         0.000626      0.000133     -0.411815
     12.81910     14.95583     13.94043         0.000493     -0.000231      0.002146
     14.95559      8.54640     13.94120        -0.000830     -0.000137      0.000523
     12.82109      8.54670     11.77280        -0.000299     -0.000364     -0.000465
     14.95577     14.95592     11.77378        -0.000576     -0.000574     -0.000802
     12.81917     10.68264      9.63653         0.004479      0.004550      0.035507
     14.95570     12.81917      9.63653         0.000468      0.000713      0.038187
     12.81917     12.81917      7.50000         0.001507      0.001543     -0.411717
     14.95570     10.68264      7.50000         0.001435      0.001567     -0.411773
     12.81973     10.68339     13.94237        -0.001871     -0.001475      0.001594
     14.95584     12.81946     13.94016         0.000032     -0.000124      0.002836
     12.81933     12.81942     11.77398        -0.000018     -0.000452     -0.001497
     14.95585     10.68291     11.77402        -0.000228     -0.000493     -0.001428
    total drift:                               -0.004920     -0.008997     -0.150475

  FREE ENERGIE OF THE ION-ELECTRON SYSTEM (eV)
  free  energy   TOTEN  =     -1110.21668820 eV

  energy  without entropy=    -1110.21668820  energy(sigma->0) =    -1110.21668820

 d Force = 0.1847021E-04[ 0.854E-05, 0.284E-04]  d Energy = 0.1138201E-04 0.709E-05
 d Force = 0.2691000E+01[ 0.269E+01, 0.269E+01]  d Ewald  = 0.2690999E+01 0.190E-06

 Conjugate gradient step on ions:
 trial-energy change:   -0.000011  1 .order   -0.000018   -0.000028   -0.000009
  (g-gl).g = 0.538E-04      g.g   = 0.681E-04  gl.gl    = 0.777E-04
 g(Force)  = 0.681E-04   g(Stress)= 0.000E+00 ortho     = 0.209E-05
 gamma     =   0.69259
 trial     =   0.40812
 opt step  =   0.58359  (harmonic =   0.58359) maximal distance =0.00044106
 next E    = -1110.216697   (d E  =  -0.00002)

 reached required accuracy - stopping structural energy minimisation