 vasp.6.3.0 20Jan22 (build Apr  1 2022 16:44:48) gamma-only
 executed on        HPECrayEX_GCC date 2023.02.21  22:41:59

 INCAR:
   SYSTEM = MgO-rocksalt
   ISMEAR = 0
   SIGMA = 0.05
   EDIFF = 1E-7
   ALGO = ALL
   ISTART = 0
   IBRION = 2
   NSW = 1000
   ISYM = 0
   ISIF = 2
   EDIFFG = -0.015
   DIPOL = 0.5 0.5 0.5
   IDIPOL = 3
   LDIPOL = .TRUE.
   LHFCALC = .TRUE.
   GGA = B5
   AEXX = 0.2
   AGGAX = 0.72
   AGGAC = 0.81
   ALDAC = 0.19
   IVDW = 1
   VDW_S6 = 1.05
   VDW_C6 = 1.75 0.70 0.14 0.63 0.70
   VDW_R0 = 1.452 1.342 1.001 1.243 1.342
   ENCUT = 520
   PREC = Accurate
   LASPH = .TRUE.
   LREAL = Auto
   ISPIN = 1
   NELM = 200
   NELMIN = 8
   NCORE = 8
   KPAR = 1
   LWAVE = .FALSE.
   LCHARG = .FALSE.

 POTCAR:    PAW_PBE C 08Apr2002
 POTCAR:    PAW_PBE O 08Apr2002
 POTCAR:    PAW_PBE H 15Jun2001
 POTCAR:    PAW_PBE Mg 13Apr2007
 POTCAR:    PAW_PBE O 08Apr2002
 POTCAR:    PAW_PBE C 08Apr2002
   VRHFIN =C: s2p2

   TITEL  = PAW_PBE C 08Apr2002
   POMASS =   12.011; ZVAL   =    4.000    mass and valenz
   ENMAX  =  400.000; ENMIN  =  300.000 eV

[...]

   TITEL  = PAW_PBE H 15Jun2001
   POMASS =    1.000; ZVAL   =    1.000    mass and valenz
   ENMAX  =  250.000; ENMIN  =  200.000 eV

[...]

   TITEL  = PAW_PBE O 08Apr2002
   POMASS =   16.000; ZVAL   =    6.000    mass and valenz
   ENMAX  =  400.000; ENMIN  =  300.000 eV

 Optimization of the real space projectors (new method)

 maximal supplied QI-value         = 25.13
 optimisation between [QCUT,QGAM] = [ 11.56, 23.12] = [ 37.43,149.72] Ry
 Optimized for a Real-space Cutoff    1.04 Angstroem

   l    n(q)    QCUT    max X(q) W(low)/X(q) W(high)/X(q)  e(spline)
   0      7    11.561   115.676    0.20E-03    0.60E-03    0.21E-06
   0      7    11.561    87.132    0.20E-03    0.59E-03    0.21E-06
   1      7    11.561     4.429    0.23E-03    0.35E-03    0.15E-06
   1      7    11.561     2.733    0.18E-03    0.25E-03    0.12E-06
 Optimization of the real space projectors (new method)

[...]

   l    n(q)    QCUT    max X(q) W(low)/X(q) W(high)/X(q)  e(spline)
   0      9    11.527    28.265    0.62E-04    0.53E-04    0.73E-07
   0      9    11.527    10.429    0.52E-04    0.40E-04    0.58E-07
   1      8    11.527    13.073    0.98E-04    0.18E-03    0.86E-07
   1      8    11.527     9.625    0.79E-04    0.15E-03    0.74E-07
   2      8    11.527     4.652    0.22E-03    0.72E-04    0.47E-07
 Optimization of the real space projectors (new method)

 maximal supplied QI-value         = 24.76
 optimisation between [QCUT,QGAM] = [ 11.64, 23.27] = [ 37.91,151.63] Ry
 Optimized for a Real-space Cutoff    1.14 Angstroem

   l    n(q)    QCUT    max X(q) W(low)/X(q) W(high)/X(q)  e(spline)
   0      8    11.635    20.381    0.10E-03    0.33E-03    0.24E-06
   0      8    11.635    15.268    0.11E-03    0.35E-03    0.26E-06
   1      7    11.635     5.964    0.24E-03    0.31E-03    0.30E-06
   1      7    11.635     5.382    0.22E-03    0.25E-03    0.26E-06
|               ----> ADVICE to this user running VASP <----                  |
|     You enforced a specific xc type in the INCAR file but a different       |
|     type was found in the POTCAR file.                                      |
|     I HOPE YOU KNOW WHAT YOU ARE DOING!                                     |

  PAW_PBE C 08Apr2002                   :
  PAW_PBE O 08Apr2002                   :
  PAW_PBE H 15Jun2001                   :
  PAW_PBE Mg 13Apr2007                  :
  PAW_PBE O 08Apr2002                   :

 POSCAR:  C  O  H Mg  O
  positions in direct lattice
  velocities in cartesian coordinates
 exchange correlation table for  LEXCH =       12
   RHO(1)=    0.500       N(1)  =     2000
   RHO(2)=  100.500       N(2)  =     4000

 ion  position               nearest neighbor table
   1  0.528  0.556  0.792-  12 1.09  11 1.09   9 1.09   5 1.43
   2  0.319  0.400  0.793-  16 1.09  15 1.09  13 1.09   6 1.43
   3  0.474  0.193  0.793-  20 1.09  19 1.09  17 1.09   7 1.43
   4  0.682  0.346  0.792-  24 1.09  23 1.09  21 1.09   8 1.43
   5  0.508  0.488  0.755-  10 0.99   1 1.43 144 2.23
   6  0.387  0.382  0.755-  14 0.99   2 1.43  55 2.23
   7  0.492  0.261  0.754-  18 0.99   3 1.43 120 2.23
   8  0.614  0.366  0.754-  22 0.99   4 1.43 103 2.23
   9  0.520  0.543  0.842-   1 1.09
  10  0.552  0.449  0.757-   5 0.99
  11  0.590  0.573  0.783-   1 1.09
  12  0.490  0.605  0.777-   1 1.09
  13  0.332  0.391  0.842-   2 1.09
  14  0.425  0.426  0.757-   6 0.99
  15  0.300  0.462  0.785-   2 1.09
  16  0.271  0.361  0.778-   2 1.09
  17  0.483  0.206  0.842-   3 1.09
  18  0.448  0.300  0.757-   7 0.99
  19  0.412  0.175  0.785-   3 1.09
  20  0.513  0.145  0.778-   3 1.09
  21  0.670  0.354  0.841-   4 1.09
  22  0.574  0.323  0.756-   8 0.99
  23  0.699  0.284  0.783-   4 1.09
  24  0.731  0.384  0.777-   4 1.09
  25  0.125  0.000  0.352- 155 2.10 156 2.10 172 2.10 195 2.10 153 2.10  42 2.97  66 2.97  82 2.97
                            26 2.97  28 2.97  67 2.97  27 2.97  44 2.97
  26  0.250  0.125  0.352- 155 2.10 156 2.10 164 2.10 171 2.10 154 2.10  33 2.97  41 2.97  49 2.97
                            25 2.97  28 2.97  43 2.97  27 2.97  36 2.97
  27  0.125  0.125  0.451- 159 2.10 154 2.10 153 2.10 161 2.10 170 2.10 155 2.10  30 2.97  44 2.97
                            52 2.97  28 2.97  36 2.97  26 2.97  33 2.97  25 2.97  42 2.97  37 2.97
  28  0.250  0.000  0.451- 160 2.10 154 2.10 153 2.10 169 2.10 194 2.10 156 2.10  30 2.97  67 2.97
                            83 2.97  27 2.97  43 2.97  26 2.97  41 2.97  25 2.97  66 2.97  45 2.97
  29  0.125  1.000  0.549- 176 2.10 159 2.10 199 2.10 160 2.10 153 2.10 157 2.13  32 2.95  31 2.95
                            48 2.96  71 2.96  86 2.97  46 2.97  70 2.97  30 2.97  67 2.97  44 2.97
  30  0.250  0.125  0.549- 168 2.10 175 2.10 154 2.10 159 2.10 160 2.10 158 2.13  47 2.94  40 2.94
                            32 2.96  31 2.96  27 2.97  28 2.97  29 2.97  37 2.97  36 2.97  45 2.97
  31  0.125  0.125  0.647- 159 2.08 158 2.09 174 2.10 157 2.10 165 2.10  29 2.95  46 2.95  30 2.96
                            37 2.96  48 2.97  40 2.97  32 2.97  56 2.97
  32  0.250  1.000  0.647- 160 2.08 158 2.09 198 2.10 173 2.10 157 2.10  29 2.95  70 2.95  30 2.96
                            45 2.96  47 2.97  71 2.97  31 2.97  87 2.97
  33  0.125  0.250  0.352- 155 2.10 163 2.10 164 2.10 180 2.10 161 2.10  34 2.97  42 2.97  50 2.97
                            26 2.97  27 2.97  35 2.97  52 2.97  36 2.97
  34  0.250  0.375  0.352- 163 2.10 164 2.10 179 2.10 188 2.10 162 2.10  49 2.97  57 2.97  73 2.97
                            33 2.97  36 2.97  60 2.97  35 2.97  51 2.97
  35  0.125  0.375  0.451- 167 2.10 162 2.10 161 2.10 178 2.10 185 2.10 163 2.10  60 2.97  76 2.97
                            36 2.97  52 2.97  33 2.97  50 2.97  34 2.97  57 2.97  61 2.97  37 2.97
  36  0.250  0.250  0.451- 168 2.10 161 2.10 162 2.10 154 2.10 177 2.10 164 2.10  43 2.97  51 2.97
                            27 2.97  35 2.97  49 2.97  34 2.97  26 2.97  33 2.97  30 2.97  37 2.97
  37  0.125  0.250  0.549- 168 2.09 184 2.10 167 2.10 161 2.10 159 2.10 165 2.13  40 2.94  39 2.95
                            56 2.96  31 2.96  54 2.97  52 2.97  46 2.97  30 2.97  27 2.97  35 2.97
  38  0.250  0.375  0.550- 183 2.08 168 2.10 192 2.10 162 2.11 167 2.11 166 2.13  64 2.94  40 2.94
                            39 2.95  53 2.97  77 2.97  51 2.97  36 2.98  37 2.98  60 2.98  61 2.98
  39  0.125  0.375  0.647- 167 2.08 166 2.08 182 2.10 189 2.11 165 2.11  54 2.95  61 2.95  37 2.95
                            38 2.95  80 2.97  56 2.97  64 2.97  40 2.98
  40  0.250  0.250  0.646- 168 2.07 181 2.08 165 2.10 158 2.11 166 2.11  30 2.94  53 2.94  37 2.94
                            38 2.94  31 2.97  47 2.97  55 2.97  39 2.98
  41  0.375  0.000  0.352- 156 2.10 171 2.10 211 2.10 236 2.10 169 2.10  66 2.97 106 2.97 146 2.97
                            26 2.97  43 2.97 108 2.97  28 2.97  83 2.97
  42  0.000  0.125  0.352- 155 2.10 172 2.10 180 2.10 235 2.10 170 2.10  33 2.97 105 2.97 113 2.97
                            25 2.97  27 2.97 107 2.97  44 2.97  52 2.97
  43  0.375  0.125  0.451- 175 2.10 169 2.10 154 2.10 177 2.10 234 2.10 171 2.10 108 2.97 116 2.97
                            28 2.97  36 2.97  26 2.97  41 2.97  49 2.97 106 2.97  30 2.97  45 2.97
  44  0.000  0.000  0.451- 153 2.10 170 2.10 210 2.10 233 2.10 172 2.10 176 2.10 107 2.97 147 2.97
                            27 2.97  67 2.97  42 2.97  25 2.97  82 2.97 105 2.97  46 2.97 109 2.97
  45  0.375  1.000  0.549- 175 2.09 215 2.10 240 2.10 169 2.10 160 2.10 173 2.13  47 2.94 112 2.95
                            87 2.96  32 2.96 150 2.97  83 2.97  70 2.97  28 2.97  30 2.97 108 2.97
  46  0.000  0.125  0.549- 159 2.10 239 2.10 176 2.10 184 2.10 170 2.10 174 2.13 111 2.95  31 2.95
                            56 2.96  48 2.96  29 2.97 109 2.97 117 2.97  37 2.97  44 2.97  27 2.97
  47  0.375  0.125  0.646- 175 2.07 181 2.08 173 2.10 158 2.11 238 2.11  30 2.94  45 2.94  53 2.94
                           110 2.94  32 2.97  40 2.97 120 2.97 112 2.97
  48  0.000  1.000  0.647- 176 2.08 157 2.10 237 2.10 214 2.10 174 2.10  86 2.96  29 2.96 109 2.96
                            46 2.96 111 2.97  31 2.97  71 2.97 151 2.97
  49  0.375  0.250  0.352- 164 2.10 171 2.10 179 2.10 244 2.10 177 2.10  34 2.97 106 2.97 114 2.97
                            26 2.97  36 2.97  43 2.97 116 2.97  51 2.97
  50  0.000  0.375  0.352- 163 2.10 180 2.10 204 2.10 243 2.10 178 2.10  57 2.97 113 2.97 137 2.97
                            33 2.97  52 2.97 115 2.97  35 2.97  76 2.97
  51  0.375  0.375  0.451- 162 2.10 177 2.10 201 2.10 242 2.10 179 2.10 183 2.11 116 2.97 140 2.97
                            36 2.97  60 2.97  49 2.97  34 2.97  73 2.97 114 2.97  38 2.97  53 2.98
  52  0.000  0.250  0.451- 184 2.10 170 2.10 178 2.10 161 2.10 241 2.10 180 2.10 117 2.97 115 2.97
                            27 2.97  35 2.97 107 2.97  42 2.97  50 2.97  33 2.97 113 2.97  37 2.97
  53  0.376  0.251  0.550- 183 2.09 248 2.09 181 2.11 168 2.12 175 2.12 177 2.12  47 2.94  40 2.94
                           118 2.96  38 2.97 110 2.97  51 2.98 116 2.98  30 2.99  55 2.99  36 2.99
  54  0.000  0.375  0.549- 247 2.10 167 2.10 208 2.10 184 2.10 178 2.10 182 2.13 119 2.95  39 2.95
                            56 2.96  80 2.96  61 2.97 117 2.97  37 2.97 141 2.97  35 2.97  76 2.97
  55  0.374  0.375  0.651- 246 2.11 166 2.12 181 2.12 205 2.13 183 2.15   6 2.23  40 2.97  64 2.98
                           144 2.98 120 2.99 118 2.99  53 2.99  38 2.99  77 2.99
  56  0.000  0.250  0.647- 184 2.08 165 2.10 245 2.10 174 2.10 182 2.10  46 2.96  37 2.96 117 2.96
                            54 2.96 111 2.97  31 2.97 119 2.97  39 2.97
  57  0.125  0.500  0.352- 163 2.10 187 2.10 188 2.10 204 2.10 185 2.10  50 2.97  58 2.97  74 2.97
                            34 2.97  60 2.97  35 2.97  76 2.97  59 2.97
  58  0.250  0.625  0.352- 187 2.10 188 2.10 196 2.10 203 2.10 186 2.10  65 2.97  73 2.97  81 2.97
                            57 2.97  60 2.97  75 2.97  59 2.97  68 2.97
  59  0.125  0.625  0.451- 191 2.10 186 2.10 185 2.10 193 2.10 202 2.10 187 2.10  62 2.97  76 2.97
[...]
   8.40493631 12.61107557 11.70011842

--------------------------------------- Iteration      FINAL  ---------------------------------------

--------------------OUTCAR has been truncated-------------------------

[...]

--------------------OUTCAR has been truncated-------------------------

  Number of pair interactions contributing to vdW energy: 3449693
  Edisp (eV):  -22.06389

  FORCE on cell =-STRESS in cart. coord.  units (eV):
  Direction    XX          YY          ZZ          XY          YZ          ZX
  Alpha Z  1086.95849  1086.95849  1086.95849
  Ewald  205850.28548205850.84535************    -1.45344    -5.72425    -3.90322
  Hartree221707.58680221708.42281************    -0.98414    -3.12692    -3.61175
  E(xc)   -3997.69326 -3997.69505 -3994.84915    -0.00043     0.00259     0.00027
  Local  ************************427555.64737     2.35596     8.66645     7.54629
  n-local -2058.83638 -2058.81500 -2136.39907    -0.00290    -0.10415     0.00960
  augment   879.70963   879.72063   890.16002    -0.00332     0.03178    -0.00460
  Kinetic 19037.76591 19037.89597 19249.72696     0.09312     0.52511    -0.08101
  Fock    -1474.03603 -1474.03445 -1466.93525    -0.00189    -0.00824    -0.00038
  vdW       -31.51908   -31.51870   -27.07760    -0.00018     0.00087     0.00262
  Total    -119.39749  -119.38976    -0.27330     0.00278     0.26323    -0.04218
  in kB     -31.77830   -31.77624    -0.07274     0.00074     0.07006    -0.01123

 VOLUME and BASIS-vectors are now :
  energy-cutoff  :      520.00
  volume of cell :     6019.70
      direct lattice vectors                 reciprocal lattice vectors
    16.809723990  0.000000000  0.000000000     0.059489377  0.000000000  0.000000000
     0.000000000 16.809723990  0.000000000     0.000000000  0.059489377  0.000000000
     0.000000000  0.000000000 21.303646496     0.000000000  0.000000000  0.046940321

  length of vectors
    16.809723990 16.809723990 21.303646496     0.059489377  0.059489377  0.046940321

 FORCES acting on ions:
    Electron-Ion                     Ewald-Force                    Non-Local-Force
   -.387E+02 -.193E+03 -.630E+03   0.399E+02 0.199E+03 0.634E+03   -.115E+01 -.565E+01 -.318E+01
   0.193E+03 -.362E+02 -.630E+03   -.199E+03 0.373E+02 0.634E+03   0.563E+01 -.102E+01 -.326E+01
   0.360E+02 0.193E+03 -.631E+03   -.370E+02 -.199E+03 0.634E+03   0.995E+00 0.563E+01 -.326E+01
   -.193E+03 0.391E+02 -.631E+03   0.199E+03 -.403E+02 0.634E+03   -.566E+01 0.115E+01 -.316E+01
   0.435E+02 -.105E+03 -.830E+03   -.749E+02 0.101E+03 0.811E+03   0.279E+02 0.345E+01 0.167E+02
   0.106E+03 0.394E+02 -.827E+03   -.102E+03 -.702E+02 0.808E+03   -.354E+01 0.274E+02 0.174E+02
   -.392E+02 0.105E+03 -.827E+03   0.698E+02 -.101E+03 0.807E+03   -.273E+02 -.357E+01 0.173E+02
   -.105E+03 -.443E+02 -.830E+03   0.101E+03 0.757E+02 0.811E+03   0.343E+01 -.279E+02 0.166E+02
   0.254E+01 -.184E+02 -.181E+03   -.328E+01 0.173E+02 0.187E+03   0.715E+00 0.107E+01 -.557E+01
   -.586E+02 0.233E+02 -.150E+03   0.646E+02 -.288E+02 0.151E+03   -.573E+01 0.530E+01 -.159E+00
   -.657E+02 -.474E+02 -.140E+03   0.713E+02 0.491E+02 0.139E+03   -.547E+01 -.156E+01 0.974E+00
   0.331E+02 -.748E+02 -.137E+03   -.367E+02 0.794E+02 0.135E+03   0.348E+01 -.448E+01 0.179E+01
   0.178E+02 0.374E+01 -.181E+03   -.166E+02 -.457E+01 0.187E+03   -.113E+01 0.804E+00 -.555E+01
   -.229E+02 -.593E+02 -.151E+03   0.283E+02 0.653E+02 0.151E+03   -.527E+01 -.576E+01 -.216E+00
   0.482E+02 -.653E+02 -.141E+03   -.500E+02 0.709E+02 0.140E+03   0.166E+01 -.546E+01 0.857E+00
   0.745E+02 0.338E+02 -.136E+03   -.791E+02 -.375E+02 0.134E+03   0.444E+01 0.351E+01 0.180E+01
   -.402E+01 0.177E+02 -.181E+03   0.487E+01 -.166E+02 0.187E+03   -.826E+00 -.113E+01 -.554E+01
   0.592E+02 -.226E+02 -.151E+03   -.652E+02 0.281E+02 0.151E+03   0.576E+01 -.524E+01 -.196E+00
   0.652E+02 0.484E+02 -.141E+03   -.709E+02 -.501E+02 0.140E+03   0.546E+01 0.167E+01 0.829E+00
   -.338E+02 0.746E+02 -.136E+03   0.374E+02 -.792E+02 0.134E+03   -.351E+01 0.444E+01 0.180E+01
   -.187E+02 -.279E+01 -.182E+03   0.177E+02 0.355E+01 0.187E+03   0.104E+01 -.740E+00 -.558E+01
   0.234E+02 0.582E+02 -.150E+03   -.289E+02 -.641E+02 0.150E+03   0.530E+01 0.571E+01 -.139E+00
   -.472E+02 0.658E+02 -.140E+03   0.488E+02 -.715E+02 0.139E+03   -.153E+01 0.548E+01 0.960E+00
   -.750E+02 -.327E+02 -.137E+03   0.796E+02 0.362E+02 0.135E+03   -.449E+01 -.345E+01 0.181E+01
   0.142E+01 0.143E+01 0.309E+03   -.141E+01 -.143E+01 -.307E+03   0.748E-04 -.861E-03 -.226E+01
   0.242E+01 0.241E+01 0.310E+03   -.241E+01 -.240E+01 -.308E+03   -.256E-02 -.300E-02 -.226E+01
   0.292E+01 0.328E+01 0.109E+03   -.291E+01 -.328E+01 -.109E+03   -.331E-03 0.353E-03 0.117E+00
   0.331E+01 0.295E+01 0.109E+03   -.331E+01 -.294E+01 -.109E+03   -.144E-02 -.235E-02 0.114E+00
   0.388E+01 0.389E+01 -.902E+02   -.387E+01 -.389E+01 0.902E+02   -.107E-02 -.163E-02 -.190E-01
   0.907E+01 0.889E+01 -.819E+02   -.905E+01 -.887E+01 0.819E+02   -.262E-01 -.305E-01 0.137E-01
   0.100E+02 0.960E+01 -.290E+03   -.998E+01 -.960E+01 0.288E+03   -.410E-01 0.591E-04 0.228E+01
   0.101E+02 0.103E+02 -.289E+03   -.101E+02 -.102E+02 0.287E+03   -.436E-02 -.473E-01 0.228E+01
   0.195E+01 0.144E+01 0.310E+03   -.194E+01 -.143E+01 -.308E+03   -.313E-02 -.938E-03 -.226E+01
   0.295E+01 -.212E-01 0.312E+03   -.293E+01 0.212E-01 -.309E+03   -.514E-02 0.428E-03 -.226E+01
   0.390E+01 -.197E-01 0.111E+03   -.387E+01 0.189E-01 -.111E+03   0.123E-02 -.177E-02 0.113E+00
   0.525E+01 0.308E+01 0.114E+03   -.521E+01 -.306E+01 -.114E+03   -.305E-03 -.252E-02 0.944E-01
   0.795E+01 0.457E+01 -.840E+02   -.790E+01 -.456E+01 0.840E+02   -.530E-01 -.141E-01 0.164E-01
   0.147E+02 0.572E-01 -.720E+02   -.145E+02 -.591E-01 0.720E+02   -.196E+00 0.224E-02 -.693E-01
   0.198E+02 0.395E+00 -.281E+03   -.197E+02 -.391E+00 0.279E+03   -.167E+00 -.592E-02 0.229E+01
   0.299E+02 0.170E+02 -.268E+03   -.297E+02 -.170E+02 0.266E+03   -.248E+00 0.949E-02 0.231E+01
   0.146E+01 0.197E+01 0.310E+03   -.145E+01 -.197E+01 -.308E+03   -.186E-02 -.264E-02 -.226E+01
   -.131E-01 0.187E+01 0.309E+03   0.132E-01 -.187E+01 -.307E+03   -.185E-04 0.626E-04 -.226E+01
   0.314E+01 0.523E+01 0.114E+03   -.312E+01 -.519E+01 -.114E+03   -.432E-02 0.142E-02 0.988E-01
   -.174E-01 0.201E+01 0.106E+03   0.175E-01 -.201E+01 -.106E+03   -.199E-04 -.399E-03 0.131E+00
   0.463E+01 0.811E+01 -.837E+02   -.461E+01 -.807E+01 0.837E+02   -.133E-01 -.474E-01 0.127E-01
   -.788E-01 0.480E+01 -.892E+02   0.797E-01 -.480E+01 0.892E+02   -.113E-02 0.273E-02 -.149E-01
   0.179E+02 0.299E+02 -.265E+03   -.180E+02 -.297E+02 0.263E+03   0.220E-01 -.205E+00 0.232E+01
   -.586E-01 0.471E+01 -.294E+03   0.587E-01 -.471E+01 0.292E+03   -.157E-03 0.729E-02 0.228E+01
   0.200E+01 0.197E+01 0.312E+03   -.199E+01 -.196E+01 -.310E+03   -.281E-02 -.334E-02 -.227E+01
   -.125E-01 -.197E-01 0.310E+03   0.126E-01 0.198E-01 -.308E+03   -.276E-04 -.929E-03 -.226E+01
   0.411E+01 -.547E-01 0.119E+03   -.406E+01 0.552E-01 -.119E+03   -.468E-03 -.168E-02 0.189E+00
   -.380E-01 0.209E+01 0.109E+03   0.392E-01 -.209E+01 -.109E+03   -.165E-03 -.454E-03 0.124E+00
   0.105E+02 0.102E+02 -.639E+02   -.103E+02 -.101E+02 0.641E+02   -.157E+00 -.162E+00 -.284E+00
   -.492E-01 -.437E-01 -.859E+02   0.492E-01 0.452E-01 0.859E+02   -.731E-04 -.190E-02 0.322E-02
   0.329E+02 0.129E+01 -.213E+03   -.328E+02 -.131E+01 0.212E+03   -.118E+00 0.141E-01 0.117E+01
   -.310E+00 0.569E+01 -.289E+03   0.311E+00 -.570E+01 0.287E+03   -.190E-02 0.159E-01 0.229E+01
   0.195E+01 -.146E+01 0.310E+03   -.194E+01 0.146E+01 -.308E+03   -.180E-02 0.956E-03 -.226E+01
   0.240E+01 -.241E+01 0.310E+03   -.239E+01 0.240E+01 -.308E+03   -.263E-02 0.214E-02 -.226E+01
   0.290E+01 -.330E+01 0.109E+03   -.290E+01 0.330E+01 -.109E+03   -.415E-03 0.333E-02 0.116E+00
   0.522E+01 -.315E+01 0.114E+03   -.518E+01 0.312E+01 -.114E+03   -.515E-03 0.247E-02 0.101E+00
[...]
   -.506E+01 -.609E+01 0.895E+03   0.505E+01 0.608E+01 -.899E+03   0.147E-01 0.143E-01 0.305E+01
   0.395E-01 -.636E+01 0.905E+03   -.398E-01 0.633E+01 -.909E+03   0.309E-03 0.429E-01 0.296E+01
   -.467E+02 -.264E+02 -.835E+03   0.467E+02 0.263E+02 0.840E+03   0.740E-01 0.789E-01 -.456E+01
   0.526E+01 -.114E+03 -.747E+03   -.524E+01 0.113E+03 0.752E+03   -.170E-01 0.444E+00 -.450E+01
   -.169E+02 -.176E+02 -.259E+03   0.169E+02 0.176E+02 0.259E+03   0.528E-01 0.449E-01 0.303E+00
   0.356E+00 -.333E+02 -.176E+03   -.349E+00 0.329E+02 0.177E+03   -.646E-02 0.317E+00 -.396E+00
   -.684E+01 -.674E+01 0.321E+03   0.682E+01 0.672E+01 -.321E+03   0.235E-01 0.210E-01 -.327E-03
   0.452E-01 0.141E+00 0.329E+03   -.454E-01 -.141E+00 -.329E+03   0.358E-03 0.372E-03 0.551E-02
   -.395E+01 0.584E-01 0.892E+03   0.394E+01 -.584E-01 -.896E+03   0.604E-02 0.528E-05 0.306E+01
   0.354E-01 -.613E+01 0.897E+03   -.359E-01 0.611E+01 -.901E+03   0.569E-03 0.297E-01 0.304E+01
   -.184E+02 -.180E+02 -.858E+03   0.183E+02 0.179E+02 0.863E+03   0.403E-01 0.404E-01 -.456E+01
   0.129E+00 0.416E+00 -.843E+03   -.130E+00 -.421E+00 0.848E+03   0.124E-04 0.391E-02 -.456E+01
   -.969E+01 0.162E+00 -.271E+03   0.967E+01 -.162E+00 0.270E+03   0.180E-01 0.458E-03 0.290E+00
   0.397E+00 -.260E+02 -.243E+03   -.398E+00 0.257E+02 0.243E+03   0.720E-03 0.219E+00 0.390E+00
   -.272E+00 0.449E+00 -.224E+01   0.661E-12 -.220E-12 0.164E-10   0.203E+00 -.373E+00 0.551E+00

 POSITION                                       TOTAL-FORCE (eV/Angst)
      8.88000      9.34976     16.86874        -0.001726      0.001932      0.005315
      5.35494      6.73239     16.88385        -0.001374      0.000827      0.006039
      7.96851      3.24061     16.88432         0.003972      0.004056      0.007625
     11.46406      5.81286     16.86287         0.002116      0.001096      0.003600
      8.54381      8.20173     16.07663         0.003015      0.007275      0.007610
      6.49949      6.42613     16.07527        -0.005010      0.004267      0.008964
      8.27169      4.38444     16.07373        -0.002129     -0.002919      0.008557
     10.31598      6.15416     16.07310         0.005254      0.001679      0.009969
      8.74312      9.13572     17.93190        -0.002841      0.000949      0.001278
      9.27757      7.54471     16.11879        -0.001721      0.003796      0.003988
      9.91716      9.63705     16.68381        -0.003651      0.000386      0.007978
      8.23077     10.16303     16.55548         0.001523      0.001981      0.007585
      5.58153      6.57879     17.94220        -0.002190      0.001597      0.000357
      7.15179      7.16364     16.12554        -0.001837      0.001445      0.003599
      5.04961      7.76794     16.72113         0.000953     -0.000600      0.004732
      4.54815      6.07636     16.56771        -0.000712      0.004457      0.005034
      8.12625      3.46803     17.94202        -0.002771     -0.000991     -0.003111
      7.53251      5.03538     16.12174         0.001276      0.003180      0.004113
      6.93253      2.93415     16.72652        -0.001666      0.004932      0.000789
      8.62347      2.43335     16.56684        -0.004764      0.002434      0.003539
     11.25417      5.95422     17.92615        -0.001217      0.002200      0.004285
      9.65732      5.42133     16.11290         0.000118      0.004070      0.005362
     11.74479      4.77336     16.68018        -0.004135      0.005236      0.007708
     12.28068      6.45599     16.54528        -0.001048     -0.002870      0.009005
      2.10122      0.00000      7.50000         0.003002      0.002105      0.446087
      4.20243      2.10122      7.50000         0.007141      0.006800      0.453672
      2.10122      2.10122      9.60122         0.004012      0.004045     -0.006320
      4.20243      0.00000      9.60122         0.001516      0.001660     -0.006569
      2.10001     16.80832     11.70608         0.001395      0.001570     -0.001301
      4.20124      2.10007     11.70215         0.001414      0.001406     -0.000664
      2.09868      2.09709     13.78366         0.001022      0.000670      0.000238
      4.19861     16.80703     13.78331         0.001189      0.000883      0.000130
      2.10122      4.20243      7.50000         0.006354      0.003120      0.452574
      4.20243      6.30365      7.50000         0.013468      0.000309      0.465837
      2.10122      6.30365      9.60122         0.029401     -0.002480      0.007996
      4.20243      4.20243      9.60122         0.037582      0.017198      0.022994
      2.10015      4.20211     11.70366         0.000411      0.000428     -0.000604
      4.21012      6.30298     11.71109         0.000329     -0.000022     -0.000013
      2.09841      6.30394     13.77748         0.001992     -0.000569      0.001323
      4.19782      4.19563     13.76652         0.003264      0.001583      0.002915
      6.30365      0.00000      7.50000         0.002342      0.006594      0.450769
      0.00000      2.10122      7.50000         0.000164      0.003180      0.446723
      6.30365      2.10122      9.60122         0.016420      0.040950      0.024351
      0.00000      0.00000      9.60122         0.000131     -0.000451     -0.004520
      6.30328     16.80820     11.70325         0.000802      0.000348     -0.000377
      0.00014      2.09955     11.70577        -0.000015      0.001032     -0.000975
      6.29738      2.09616     13.76467         0.001684      0.002925      0.002691
      0.00009     16.80743     13.78705         0.000047      0.000572     -0.004329
      6.30365      4.20243      7.50000         0.009885      0.009660      0.474604
      0.00000      6.30365      7.50000         0.000118     -0.000825      0.448581
      6.30365      6.30365      9.60122         0.047823     -0.001126      0.096118
      0.00000      4.20243      9.60122         0.001080      0.000007     -0.008330
      6.31205      4.21129     11.72053         0.001069      0.000781      0.000028
      0.00012      6.30372     11.70450        -0.000026     -0.000231     -0.000646
      6.29462      6.29999     13.86054         0.003495      0.000774     -0.001802
      0.00009      4.19989     13.78423        -0.000144     -0.000015     -0.001304
      2.10122      8.40486      7.50000         0.007665     -0.003135      0.450712
      4.20243     10.50608      7.50000         0.007423     -0.007547      0.453616
      2.10122     10.50608      9.60122         0.004553     -0.000192     -0.005940
      4.20243      8.40486      9.60122         0.040938     -0.018770      0.025815
[...]
      8.40486     10.50608      9.60122         0.000575      0.022919      0.025637
     14.70851     10.50608      7.50000         0.004885      0.004652     -0.497188
      8.40486      8.40486      7.50000         0.000170      0.014180     -0.530435
     14.71248      8.40907     13.83614         0.001495     -0.000626      0.000189
      8.40463     10.52914     13.83996         0.000051      0.000841     -0.000262
     14.71132     10.50845     11.70091        -0.000514     -0.001557      0.000135
      8.40539      8.41184     11.71456        -0.000150     -0.000541     -0.002466
     14.70851     12.60729      9.60122         0.008357      0.006946      0.034921
      8.40486     14.70851      9.60122         0.000194      0.000935      0.027776
     14.70851     14.70851      7.50000         0.002053     -0.000006     -0.494295
      8.40486     12.60729      7.50000         0.000254      0.009732     -0.502321
     14.71193     12.61035     13.83621        -0.000005     -0.000939     -0.002008
      8.40491     14.70829     13.83637         0.000069     -0.000410     -0.000860
     14.71013     14.70843     11.70201        -0.000563     -0.000026     -0.000536
      8.40495     12.61108     11.70004         0.000039     -0.000437      0.000602
    total drift:                               -0.019165      0.004962     -0.073723

  FREE ENERGIE OF THE ION-ELECTRON SYSTEM (eV)
  free  energy   TOTEN  =     -1900.25393049 eV

  energy  without entropy=    -1900.25393049  energy(sigma->0) =    -1900.25393049

 d Force = 0.8987078E-04[ 0.614E-04, 0.118E-03]  d Energy = 0.7933370E-04 0.105E-04
 d Force = 0.1372832E+01[ 0.137E+01, 0.137E+01]  d Ewald  = 0.1372832E+01 0.333E-06

 Conjugate gradient step on ions:
 trial-energy change:   -0.000079  1 .order   -0.000090   -0.000118   -0.000061
  (g-gl).g = 0.193E-03      g.g   = 0.227E-03  gl.gl    = 0.225E-03
 g(Force)  = 0.227E-03   g(Stress)= 0.000E+00 ortho     = 0.337E-04
 gamma     =   0.85938
 trial     =   0.46211
 opt step  =   0.96105  (harmonic =   0.96105) maximal distance =0.00084348
 next E    = -1900.253974   (d E  =  -0.00012)

 reached required accuracy - stopping structural energy minimisation