 vasp.6.3.0 20Jan22 (build Apr  1 2022 16:44:48) complex
 executed on        HPECrayEX_GCC date 2022.11.13  00:43:19

 INCAR:
   SYSTEM = MgO-rocksalt
   ISMEAR = 0
   SIGMA = 0.05
   EDIFF = 1E-6
   ALGO = ALL
   ISTART = 0
   IBRION = -1
   NSW = 0
   ISYM = 0
   DIPOL = 0.5 0.5 0.5
   IDIPOL = 3
   LDIPOL = .TRUE.
   GGA = PE
   IVDW = 1
   VDW_C6 = 1.23 0.70 0.63 0.70
   VDW_R0 = 1.397 1.342 1.243 1.342
   ENCUT = 600
   PREC = Accurate
   LASPH = .TRUE.
   LREAL = .FALSE.
   ISPIN = 2
   MAGMOM = 1.0 0.0 0.0 0.0 0.0 0.0 0.0 0.0 0.0 0.0 0.0 0.0 0.0 0.0 0.0 0.0 0.0 0.0 0.0 0.0 0.0 0.0 0.0 0.0 0.0 0.0 0.0 0.0 0.0 0.0 0.0 0.0 0.0 0.0 0.0 0.0 0.0 0.0 0.0 0.0 0.0 0.0 0.0 0.0 0.0 0.0 0.0 0.0 0.0 0.0 0.0 0.0 0.0 0.0 0.0 0.0 0.0 0.0 0.0 0.0 0.0 0.0 0.0 0.0 0.0 0.0
   NELM = 200
   NELMIN = 8
   NCORE = 8
   KPAR = 1
   LWAVE = .FALSE.
   LCHARG = .FALSE.

 POTCAR:    PAW_PBE N 08Apr2002
 POTCAR:    PAW_PBE O 08Apr2002
 POTCAR:    PAW_PBE Mg_pv 13Apr2007
 POTCAR:    PAW_PBE O 08Apr2002
 POTCAR:    PAW_PBE N 08Apr2002
   VRHFIN =N: s2p3

   TITEL  = PAW_PBE N 08Apr2002
   POMASS =   14.001; ZVAL   =    5.000    mass and valenz
   ENMAX  =  400.000; ENMIN  =  300.000 eV

[...]

   TITEL  = PAW_PBE Mg_pv 13Apr2007
   POMASS =   24.305; ZVAL   =    8.000    mass and valenz
   ENMAX  =  403.929; ENMIN  =  302.947 eV

   TITEL  = PAW_PBE O 08Apr2002
   POMASS =   16.000; ZVAL   =    6.000    mass and valenz
   ENMAX  =  400.000; ENMIN  =  300.000 eV

  PAW_PBE N 08Apr2002                   :
  PAW_PBE O 08Apr2002                   :
  PAW_PBE Mg_pv 13Apr2007               :
  PAW_PBE O 08Apr2002                   :

 POSCAR:  N  O Mg  O
  positions in direct lattice
 exchange correlation table for  LEXCH =        8
   RHO(1)=    0.500       N(1)  =     2000
   RHO(2)=  100.500       N(2)  =     4000

 ion  position               nearest neighbor table
   1  0.500  0.500  0.766-   2 1.18
   2  0.500  0.500  0.821-   1 1.18
   3  0.000  0.750  0.350-  35 2.14  37 2.14  38 2.14  45 2.14  54 2.14
   4  0.250  0.000  0.350-  36 2.14  37 2.14  38 2.14  46 2.14  53 2.14
   5  0.000  0.000  0.450-  37 2.14  36 2.14  35 2.14  43 2.14  52 2.14  41 2.14
   6  0.250  0.750  0.450-  38 2.14  36 2.14  35 2.14  44 2.14  51 2.14  42 2.14
   7  1.000  0.750  0.550-  58 2.14  49 2.14  42 2.14  41 2.14  35 2.15  39 2.16
   8  0.250  0.000  0.550-  50 2.14  57 2.14  42 2.14  41 2.14  36 2.15  40 2.16
   9  0.000  0.000  0.650-  41 2.13  40 2.14  56 2.14  47 2.14  39 2.14
  10  0.250  0.750  0.649-  42 2.12  40 2.13  39 2.13  55 2.14  48 2.14
  11  0.000  0.250  0.350-  43 2.14  37 2.14  45 2.14  46 2.14  62 2.14
  12  0.250  0.500  0.350-  44 2.14  38 2.14  45 2.14  46 2.14  61 2.14
  13  0.000  0.500  0.450-  45 2.14  43 2.14  44 2.14  35 2.14  60 2.14  49 2.14
  14  0.250  0.250  0.450-  46 2.14  43 2.14  44 2.14  36 2.14  59 2.14  50 2.14
  15  0.000  0.250  0.550-  50 2.14  49 2.14  66 2.14  41 2.14  43 2.15  47 2.16
  16  0.250  0.500  0.550-  65 2.13  50 2.14  42 2.14  49 2.14  44 2.15  48 2.16
  17  0.000  0.500  0.649-  49 2.13  48 2.13  64 2.13  47 2.14  39 2.14
  18  0.250  0.250  0.650-  50 2.13  40 2.13  47 2.13  63 2.14  48 2.14
  19  0.500  0.750  0.350-  51 2.14  38 2.14  53 2.14  54 2.14  61 2.14
  20  0.750  0.000  0.350-  52 2.14  37 2.14  53 2.14  54 2.14  62 2.14
  21  0.500  0.000  0.450-  53 2.14  51 2.14  52 2.14  36 2.14  59 2.14  57 2.14
  22  0.750  0.750  0.450-  54 2.14  51 2.14  52 2.14  35 2.14  60 2.14  58 2.14
  23  0.500  0.750  0.550-  65 2.13  58 2.14  42 2.14  57 2.14  51 2.15  55 2.16
  24  0.750  1.000  0.550-  58 2.14  57 2.14  66 2.14  41 2.14  52 2.15  56 2.16
  25  0.500  0.000  0.649-  57 2.13  63 2.13  55 2.13  40 2.14  56 2.14
  26  0.750  0.750  0.650-  58 2.13  56 2.13  39 2.13  55 2.14  64 2.14
  27  0.500  0.250  0.350-  59 2.14  53 2.14  46 2.14  61 2.14  62 2.14
  28  0.750  0.500  0.350-  60 2.14  54 2.14  45 2.14  61 2.14  62 2.14
  29  0.500  0.500  0.450-  61 2.14  51 2.14  59 2.14  60 2.14  44 2.14  65 2.15
  30  0.750  0.250  0.450-  62 2.14  52 2.14  59 2.14  60 2.14  43 2.14  66 2.14
  31  0.500  0.250  0.550-  65 2.13  50 2.14  66 2.14  57 2.14  59 2.15  63 2.16
  32  0.750  0.500  0.550-  65 2.13  58 2.14  66 2.14  49 2.14  60 2.15  64 2.16
  33  0.500  0.500  0.652-  48 2.14  64 2.14  63 2.14  55 2.14  65 2.17
  34  0.750  0.250  0.649-  66 2.12  56 2.13  47 2.13  63 2.14  64 2.14
  35  0.000  0.750  0.450-   3 2.14   5 2.14   6 2.14  13 2.14  22 2.14   7 2.15
  36  0.250  0.000  0.450-   4 2.14   5 2.14   6 2.14  14 2.14  21 2.14   8 2.15
  37  0.000  0.000  0.350-   5 2.14   4 2.14   3 2.14  11 2.14  20 2.14
  38  0.250  0.750  0.350-   6 2.14   4 2.14   3 2.14  12 2.14  19 2.14
  39  1.000  0.750  0.651-  10 2.13  26 2.13   9 2.14  17 2.14   7 2.16
  40  0.250  0.000  0.651-  10 2.13  18 2.13   9 2.14  25 2.14   8 2.16
  41  1.000  1.000  0.550-   9 2.13  24 2.14   8 2.14   7 2.14  15 2.14   5 2.14
  42  0.250  0.750  0.550-  10 2.12   7 2.14   8 2.14  16 2.14  23 2.14   6 2.14
  43  0.000  0.250  0.450-  11 2.14   5 2.14  13 2.14  14 2.14  30 2.14  15 2.15
  44  0.250  0.500  0.450-  12 2.14   6 2.14  13 2.14  14 2.14  29 2.14  16 2.15
  45  0.000  0.500  0.350-  13 2.14  11 2.14  12 2.14   3 2.14  28 2.14
  46  0.250  0.250  0.350-  14 2.14  11 2.14  12 2.14   4 2.14  27 2.14
  47  0.000  0.250  0.651-  34 2.13  18 2.13   9 2.14  17 2.14  15 2.16
  48  0.249  0.500  0.651-  17 2.13  10 2.14  18 2.14  33 2.14  16 2.16
  49  0.000  0.500  0.550-  17 2.13  15 2.14   7 2.14  13 2.14  16 2.14  32 2.14
  50  0.250  0.250  0.550-  18 2.13  15 2.14   8 2.14  16 2.14  31 2.14  14 2.14
  51  0.500  0.750  0.450-  19 2.14   6 2.14  21 2.14  22 2.14  29 2.14  23 2.15
  52  0.750  0.000  0.450-  20 2.14   5 2.14  21 2.14  22 2.14  30 2.14  24 2.15
  53  0.500  0.000  0.350-  21 2.14  19 2.14  20 2.14   4 2.14  27 2.14
  54  0.750  0.750  0.350-  22 2.14  19 2.14  20 2.14   3 2.14  28 2.14
  55  0.500  0.751  0.651-  25 2.13  10 2.14  26 2.14  33 2.14  23 2.16
  56  0.750  1.000  0.651-  34 2.13  26 2.13   9 2.14  25 2.14  24 2.16
  57  0.500  0.000  0.550-  25 2.13  24 2.14   8 2.14  21 2.14  31 2.14  23 2.14
  58  0.750  0.750  0.550-  26 2.13   7 2.14  24 2.14  32 2.14  23 2.14  22 2.14
  59  0.500  0.250  0.450-  27 2.14  21 2.14  14 2.14  29 2.14  30 2.14  31 2.15
  60  0.750  0.500  0.450-  28 2.14  22 2.14  13 2.14  29 2.14  30 2.14  32 2.15
  61  0.500  0.500  0.350-  29 2.14  19 2.14  27 2.14  28 2.14  12 2.14
  62  0.750  0.250  0.350-  30 2.14  20 2.14  27 2.14  28 2.14  11 2.14
  63  0.500  0.249  0.651-  25 2.13  34 2.14  18 2.14  33 2.14  31 2.16
  64  0.751  0.500  0.651-  17 2.13  34 2.14  26 2.14  33 2.14  32 2.16
  65  0.500  0.500  0.550-  16 2.13  32 2.13  31 2.13  23 2.13  29 2.15  33 2.17
  66  0.750  0.250  0.550-  34 2.12  15 2.14  24 2.14  32 2.14  31 2.14  30 2.14

IMPORTANT INFORMATION: All symmetrisations will be switched off!
NOSYMM: (Re-)initialisation of all symmetry stuff for point group C_1.

                                     Primitive cell

  volume of cell :    1563.6717

  direct lattice vectors                    reciprocal lattice vectors
     8.546113626  0.000000000  0.000000000     0.117012252  0.000000000  0.000000000
     0.000000000  8.546113626  0.000000000     0.000000000  0.117012252  0.000000000
     0.000000000  0.000000000 21.409585219     0.000000000  0.000000000  0.046708051

  length of vectors
     8.546113626  8.546113626 21.409585219     0.117012252  0.117012252  0.046708051

  position of ions in fractional coordinates (direct lattice)
     0.500000046  0.500000039  0.765652354
     0.499999949  0.499999929  0.820641961
     0.000000000  0.750000000  0.350310383
     0.250000000  0.000000000  0.350310383
     0.000000000  0.000000000  0.450103461
     0.250000000  0.750000000  0.450103461
     0.999893820  0.749954275  0.550323455
     0.250045644  0.000106188  0.550323218
     0.000000003  0.000000004  0.649520562
     0.249562891  0.750438804  0.649261804
     0.000000000  0.250000000  0.350310383
     0.250000000  0.500000000  0.350310383
     0.000000000  0.500000000  0.450103461
     0.250000000  0.250000000  0.450103461
     0.000106185  0.250045725  0.550323448
     0.250469081  0.500018785  0.550485322
     0.000000002  0.499999992  0.649484959
     0.249865881  0.249864175  0.649561989
     0.500000000  0.750000000  0.350310383
     0.750000000  0.000000000  0.350310383
     0.500000000  0.000000000  0.450103461
     0.750000000  0.750000000  0.450103461
     0.499981206  0.749531432  0.550485477
     0.749954353  0.999893820  0.550323226
     0.499999992  0.000000002  0.649483998
     0.750134115  0.750135821  0.649561974
     0.500000000  0.250000000  0.350310383
     0.750000000  0.500000000  0.350310383
     0.500000000  0.500000000  0.450103461
     0.750000000  0.250000000  0.450103461
     0.500018779  0.250468567  0.550485457
     0.749530914  0.499981207  0.550485342
     0.499999989  0.499999989  0.651644233
     0.750437103  0.249561192  0.649261805
     0.000000000  0.750000000  0.450103461
     0.250000000  0.000000000  0.450103461
     0.000000000  0.000000000  0.350310383
     0.250000000  0.750000000  0.350310383
     0.999909135  0.750215773  0.651410347
     0.249783456  0.000090865  0.651410081
     0.999999998  0.999999997  0.550061661
     0.249907616  0.750091470  0.550081592
     0.000000000  0.250000000  0.450103461
     0.250000000  0.500000000  0.450103461
     0.000000000  0.500000000  0.350310383
     0.250000000  0.250000000  0.350310383
     0.000090872  0.249784227  0.651410341
     0.249086439  0.500312904  0.651321586
     0.000000004  0.500000000  0.550078461
     0.250032923  0.250033826  0.550159857
     0.500000000  0.750000000  0.450103461
     0.750000000  0.000000000  0.450103461
     0.500000000  0.000000000  0.350310383
     0.750000000  0.750000000  0.350310383
     0.499687120  0.750915546  0.651319077
     0.750216541  0.999909144  0.651410086
     0.500000001  0.000000003  0.550077539
     0.749967080  0.749966179  0.550159864
     0.500000000  0.250000000  0.450103461
     0.750000000  0.500000000  0.450103461
     0.500000000  0.500000000  0.350310383
     0.750000000  0.250000000  0.350310383
     0.500312863  0.249084455  0.651319091
     0.750913555  0.499687079  0.651321572
     0.499999992  0.499999991  0.550476767
     0.750092376  0.249908521  0.550081592

  ion indices of the primitive-cell ions
   primitive index   ion index
                 1           1
                 2           2
                 3           3
                 4           4
                 5           5
                 6           6
                 7           7
                 8           8
                 9           9
                10          10
                11          11
                12          12
                13          13
                14          14
                15          15
                16          16
                17          17
                18          18
                19          19
                20          20
                21          21
                22          22
                23          23
[...]
   2.13538221  2.13536763 13.90685276
   4.27305681  6.40958522  7.50000000
   6.40958522  0.00000000  7.50000000
   4.27305681  0.00000000  9.63652841
   6.40958522  6.40958522  9.63652841
   4.27289620  6.40558079 11.78566574
   6.40919511  8.54520620 11.78219200
   4.27305675  0.00000002 13.90518299
   6.41073138  6.41074596 13.90685244
   4.27305681  2.13652841  7.50000000
   6.40958522  4.27305681  7.50000000
   4.27305681  4.27305681  9.63652841
   6.40958522  2.13652841  9.63652841
   4.27321730  2.14053283 11.78566531
   6.40557636  4.27289620 11.78566284
   4.27305672  4.27305672 13.95143274
   6.41332075  2.13277830 13.90042594
   0.00000000  6.40958522  9.63652841
   2.13652841  0.00000000  9.63652841
   0.00000000  0.00000000  7.50000000
   2.13652841  6.40958522  7.50000000
   8.54533708  6.41142924 13.94642533
   2.13467779  0.00077654 13.94641963
   8.54611361  8.54611360 11.77659201
   2.13573888  6.41036694 11.77701872
   0.00000000  2.13652841  9.63652841
   2.13652841  4.27305681  9.63652841
   0.00000000  4.27305681  7.50000000
   2.13652841  2.13652841  7.50000000
   0.00077660  2.13468439 13.94642520
   2.12872101  4.27573093 13.94452500
   0.00000003  4.27305681 11.77695168
   2.13680977  2.13681749 11.77869435
   4.27305681  6.40958522  9.63652841
   6.40958522  0.00000000  9.63652841
   4.27305681  0.00000000  7.50000000
   6.40958522  6.40958522  7.50000000
   4.27038291  6.41740958 13.94447128
   6.41143580  8.54533716 13.94641975
   4.27305682  0.00000002 11.77693195
   6.40930388  6.40929618 11.77869450
   4.27305681  2.13652841  9.63652841
   6.40958522  4.27305681  9.63652841
   4.27305681  4.27305681  7.50000000
   6.40958522  2.13652841  7.50000000
   4.27573057  2.12870405 13.94447158
   6.41739257  4.27038256 13.94452470
   4.27305675  4.27305674 11.78547925
   6.41037467  2.13574662 11.77701872

--------------------------------------- Iteration      FINAL  ---------------------------------------

--------------------OUTCAR has been truncated-------------------------

[...]

--------------------OUTCAR has been truncated-------------------------

  DFT-D2 method for vdW energy calculation

  Parameters of vdW forcefield:
         C6(Jnm^6/mol)     R0(A)
   N        1.230          1.397
   O        0.700          1.342
   Mg       0.630          1.243
   O        0.700          1.342

  vdW correction parametrized for the method pbe

  IVDW =   1
  VDW_RADIUS =    50.000 A
  VDW_S6 =     0.750
  VDW_SR =     1.000
  VDW_D =    20.000
  LVDW_EWALD = F

  Number of pair interactions contributing to vdW energy:  749058
  Edisp (eV):   -3.51328

  FORCE on cell =-STRESS in cart. coord.  units (eV):
  Direction    XX          YY          ZZ          XY          YZ          ZX
  Alpha Z   884.72509   884.72509   884.72509
  Ewald  152620.15741152620.15157************     0.24409    -0.00025    -0.00022
  Hartree163129.37832163129.65315************     6.08901    -0.00008    -0.00007
  E(xc)   -2502.96062 -2502.95802 -2506.57666     0.06119    -0.00000    -0.00000
  Local  ************************324831.62857   -17.46477     0.00030     0.00026
  n-local -2844.28835 -2844.46235 -2871.74180    -4.00537     0.00000     0.00000
  augment  1055.42538  1055.47248  1045.64133     1.07044     0.00000     0.00000
  Kinetic  7515.36781  7515.98434  7529.66608    13.83265     0.00004     0.00004
  Fock        0.00000     0.00000     0.00000     0.00000     0.00000     0.00000
  vdW        -5.04306    -5.04305    -4.18203    -0.00011     0.00000     0.00000
  Total     -44.83120   -44.81957   -15.14665    -0.17287     0.00000     0.00001
  in kB     -45.93518   -45.92326   -15.51963    -0.17713     0.00000     0.00001

 VOLUME and BASIS-vectors are now :
  energy-cutoff  :      600.00
  volume of cell :     1563.67
      direct lattice vectors                 reciprocal lattice vectors
     8.546113626  0.000000000  0.000000000     0.117012252  0.000000000  0.000000000
     0.000000000  8.546113626  0.000000000     0.000000000  0.117012252  0.000000000
     0.000000000  0.000000000 21.409585219     0.000000000  0.000000000  0.046708051

  length of vectors
     8.546113626  8.546113626 21.409585219     0.117012252  0.117012252  0.046708051

 FORCES acting on ions:
    Electron-Ion                     Ewald-Force                    Non-Local-Force
   -.203E-03 -.225E-03 -.103E+04   0.233E-03 0.261E-03 0.994E+03   -.287E-04 -.336E-04 0.410E+02
   0.170E-03 0.194E-03 -.145E+04   -.213E-03 -.241E-03 0.151E+04   0.413E-04 0.469E-04 -.592E+02
   0.549E-02 -.145E+00 0.202E+04   -.584E-02 0.145E+00 -.201E+04   0.280E-03 0.364E-03 -.698E+01
   0.146E+00 -.548E-02 0.202E+04   -.145E+00 0.583E-02 -.201E+04   -.414E-03 -.276E-03 -.698E+01
   0.132E-04 0.104E-04 0.697E+03   -.139E-04 -.122E-04 -.697E+03   -.186E-06 0.120E-05 0.462E+00
   0.609E+00 -.608E+00 0.698E+03   -.604E+00 0.603E+00 -.699E+03   -.398E-02 0.374E-02 0.481E+00
   0.166E+00 -.293E+01 -.617E+03   -.174E+00 0.292E+01 0.617E+03   0.822E-02 0.825E-02 -.291E+00
   0.294E+01 -.166E+00 -.617E+03   -.293E+01 0.174E+00 0.617E+03   -.982E-02 -.823E-02 -.292E+00
   0.169E-04 0.163E-04 -.195E+04   -.170E-04 -.155E-04 0.194E+04   -.197E-05 -.142E-05 0.618E+01
   0.205E+02 -.205E+02 -.192E+04   -.206E+02 0.206E+02 0.191E+04   0.100E+00 -.107E+00 0.624E+01
   -.548E-02 0.145E+00 0.202E+04   0.583E-02 -.145E+00 -.201E+04   -.278E-03 -.363E-03 -.698E+01
   0.175E+00 0.618E-02 0.202E+04   -.173E+00 -.622E-02 -.201E+04   -.169E-02 0.400E-04 -.698E+01
   0.295E-04 -.107E-04 0.698E+03   -.306E-04 0.135E-04 -.698E+03   0.227E-05 0.316E-06 0.459E+00
   0.614E+00 0.613E+00 0.698E+03   -.603E+00 -.602E+00 -.698E+03   -.767E-02 -.742E-02 0.503E+00
   -.166E+00 0.293E+01 -.617E+03   0.174E+00 -.292E+01 0.617E+03   -.822E-02 -.825E-02 -.291E+00
   0.547E+01 0.185E+00 -.609E+03   -.536E+01 -.193E+00 0.610E+03   -.118E+00 0.814E-02 -.357E+00
   0.130E-04 -.290E-04 -.193E+04   -.115E-04 0.278E-04 0.192E+04   -.670E-05 0.356E-05 0.620E+01
   0.203E+02 0.203E+02 -.192E+04   -.205E+02 -.205E+02 0.192E+04   0.140E+00 0.147E+00 0.624E+01
   -.619E-02 -.174E+00 0.202E+04   0.623E-02 0.172E+00 -.201E+04   -.406E-04 0.165E-02 -.698E+01
   -.146E+00 0.549E-02 0.202E+04   0.145E+00 -.584E-02 -.201E+04   0.416E-03 0.278E-03 -.698E+01
   -.125E-04 0.261E-04 0.698E+03   0.136E-04 -.289E-04 -.698E+03   0.119E-05 -.154E-06 0.457E+00
   -.614E+00 -.613E+00 0.698E+03   0.603E+00 0.602E+00 -.698E+03   0.767E-02 0.743E-02 0.503E+00
   -.185E+00 -.546E+01 -.609E+03   0.193E+00 0.535E+01 0.610E+03   -.811E-02 0.116E+00 -.365E+00
   -.294E+01 0.166E+00 -.617E+03   0.293E+01 -.174E+00 0.617E+03   0.982E-02 0.822E-02 -.292E+00
   -.195E-04 0.847E-05 -.193E+04   0.190E-04 -.555E-05 0.192E+04   0.147E-05 -.217E-05 0.620E+01
   -.203E+02 -.203E+02 -.192E+04   0.205E+02 0.205E+02 0.192E+04   -.140E+00 -.147E+00 0.624E+01
   0.618E-02 0.174E+00 0.202E+04   -.622E-02 -.172E+00 -.201E+04   0.405E-04 -.165E-02 -.698E+01
   -.175E+00 -.618E-02 0.202E+04   0.173E+00 0.623E-02 -.201E+04   0.169E-02 -.432E-04 -.698E+01
   -.305E-04 -.280E-04 0.699E+03   0.311E-04 0.309E-04 -.699E+03   -.312E-05 -.122E-05 0.549E+00
   -.609E+00 0.608E+00 0.698E+03   0.604E+00 -.603E+00 -.699E+03   0.398E-02 -.374E-02 0.481E+00
   0.185E+00 0.546E+01 -.609E+03   -.193E+00 -.535E+01 0.610E+03   0.811E-02 -.116E+00 -.365E+00
   -.547E+01 -.185E+00 -.609E+03   0.536E+01 0.193E+00 0.610E+03   0.118E+00 -.814E-02 -.357E+00
   -.150E-04 -.267E-04 -.184E+04   0.923E-05 0.232E-04 0.184E+04   0.266E-05 0.535E-05 0.522E+01
   -.205E+02 0.205E+02 -.192E+04   0.206E+02 -.206E+02 0.191E+04   -.100E+00 0.107E+00 0.624E+01
   0.289E-01 -.399E+00 0.523E+03   -.212E-01 0.396E+00 -.523E+03   -.104E-01 0.287E-02 -.787E-01
   0.400E+00 -.289E-01 0.523E+03   -.397E+00 0.212E-01 -.523E+03   -.357E-02 0.104E-01 -.790E-01
   0.151E-05 0.278E-06 0.152E+04   -.270E-05 -.256E-05 -.152E+04   0.569E-06 0.114E-05 0.351E+01
   0.120E+00 -.119E+00 0.152E+04   -.118E+00 0.118E+00 -.152E+04   -.214E-02 0.200E-02 0.351E+01
   0.189E+00 -.794E+01 -.147E+04   -.208E+00 0.789E+01 0.148E+04   0.197E-01 0.405E-01 -.485E+01
   0.794E+01 -.189E+00 -.147E+04   -.789E+01 0.208E+00 0.148E+04   -.452E-01 -.197E-01 -.485E+01
   0.770E-05 0.221E-05 -.460E+03   -.834E-05 -.218E-05 0.460E+03   0.147E-06 0.450E-06 0.251E+00
   0.305E+01 -.305E+01 -.454E+03   -.305E+01 0.305E+01 0.454E+03   -.777E-03 -.216E-02 0.361E+00
   -.289E-01 0.399E+00 0.523E+03   0.212E-01 -.396E+00 -.523E+03   0.104E-01 -.287E-02 -.787E-01
   0.617E+00 0.412E-01 0.523E+03   -.638E+00 -.407E-01 -.523E+03   0.277E-01 -.684E-03 -.108E+00
   0.273E-05 -.111E-05 0.152E+04   -.417E-05 0.258E-05 -.152E+04   0.113E-05 -.113E-05 0.351E+01
   0.119E+00 0.119E+00 0.152E+04   -.118E+00 -.118E+00 -.152E+04   -.180E-02 -.166E-02 0.351E+01
   -.189E+00 0.794E+01 -.147E+04   0.208E+00 -.789E+01 0.148E+04   -.197E-01 -.405E-01 -.485E+01
   0.280E+02 0.246E+00 -.144E+04   -.278E+02 -.263E+00 0.144E+04   -.212E+00 0.183E-01 -.483E+01
   0.180E-04 -.109E-04 -.456E+03   -.199E-04 0.106E-04 0.455E+03   0.121E-05 0.346E-07 0.290E+00
   0.303E+01 0.302E+01 -.455E+03   -.301E+01 -.301E+01 0.455E+03   -.114E-01 -.850E-02 0.281E+00
   -.412E-01 -.615E+00 0.523E+03   0.407E-01 0.637E+00 -.523E+03   0.684E-03 -.284E-01 -.109E+00
   -.400E+00 0.289E-01 0.523E+03   0.397E+00 -.212E-01 -.523E+03   0.357E-02 -.104E-01 -.790E-01
   -.307E-05 0.329E-05 0.152E+04   0.270E-05 -.403E-05 -.152E+04   0.654E-06 0.624E-06 0.351E+01
   -.119E+00 -.119E+00 0.152E+04   0.118E+00 0.118E+00 -.152E+04   0.180E-02 0.167E-02 0.351E+01
   -.246E+00 -.280E+02 -.144E+04   0.263E+00 0.277E+02 0.144E+04   -.184E-01 0.213E+00 -.484E+01
   -.794E+01 0.189E+00 -.147E+04   0.789E+01 -.208E+00 0.148E+04   0.452E-01 0.197E-01 -.485E+01
   -.532E-05 0.128E-04 -.456E+03   0.562E-05 -.132E-04 0.455E+03   -.141E-05 0.403E-06 0.286E+00
   -.303E+01 -.302E+01 -.455E+03   0.301E+01 0.301E+01 0.455E+03   0.114E-01 0.850E-02 0.281E+00
   0.412E-01 0.615E+00 0.523E+03   -.407E-01 -.637E+00 -.523E+03   -.685E-03 0.284E-01 -.109E+00
   -.617E+00 -.412E-01 0.523E+03   0.638E+00 0.407E-01 -.523E+03   -.277E-01 0.685E-03 -.108E+00
   -.472E-05 -.298E-05 0.152E+04   0.419E-05 0.406E-05 -.152E+04   0.576E-06 -.483E-07 0.350E+01
   -.120E+00 0.119E+00 0.152E+04   0.118E+00 -.118E+00 -.152E+04   0.214E-02 -.200E-02 0.351E+01
   0.246E+00 0.280E+02 -.144E+04   -.263E+00 -.277E+02 0.144E+04   0.184E-01 -.213E+00 -.484E+01
   -.280E+02 -.246E+00 -.144E+04   0.278E+02 0.263E+00 0.144E+04   0.212E+00 -.183E-01 -.483E+01
   -.180E-04 -.243E-04 -.453E+03   0.203E-04 0.250E-04 0.454E+03   -.805E-06 -.251E-06 -.234E+00
   -.305E+01 0.305E+01 -.454E+03   0.305E+01 -.305E+01 0.454E+03   0.778E-03 0.216E-02 0.361E+00
   -.228E-04 -.152E-04 0.336E+02   0.120E-12 0.586E-13 -.335E-11   0.242E-04 0.247E-04 -.336E+02

 POSITION                                       TOTAL-FORCE (eV/Angst)
      4.27306      4.27306     16.39230         0.000001      0.000003      0.443090
      4.27306      4.27306     17.56960        -0.000002     -0.000001     -0.534674
      0.00000      6.40959      7.50000        -0.000066     -0.000157      0.513739
      2.13653      0.00000      7.50000         0.000178      0.000068      0.513741
      0.00000      0.00000      9.63653        -0.000001     -0.000001      0.013874
      2.13653      6.40959      9.63653         0.001496     -0.001404      0.015397
      8.54521      6.40919     11.78220         0.000440     -0.000688      0.009411
      2.13692      0.00091     11.78219         0.001222     -0.000440      0.009720
      0.00000      0.00000     13.90597        -0.000002     -0.000001     -0.200255
      2.13279      6.41334     13.90043         0.001937     -0.000197     -0.189510
      0.00000      2.13653      7.50000         0.000068      0.000158      0.513726
      2.13653      4.27306      7.50000         0.000472      0.000002      0.514397
      0.00000      4.27306      9.63653         0.000001      0.000003      0.022000
      2.13653      2.13653      9.63653         0.003646      0.003555      0.015353
      0.00091      2.13692     11.78220        -0.000441      0.000687      0.009409
      2.14054      4.27322     11.78566        -0.000224      0.000143      0.000338
      0.00000      4.27306     13.90520        -0.000005      0.000002     -0.199961
      2.13538      2.13537     13.90685         0.002434      0.000703     -0.190639
      4.27306      6.40959      7.50000        -0.000001     -0.000452      0.514443
      6.40959      0.00000      7.50000        -0.000176     -0.000069      0.513753
      4.27306      0.00000      9.63653         0.000002     -0.000003      0.022446
      6.40959      6.40959      9.63653        -0.003650     -0.003553      0.015353
      4.27290      6.40558     11.78567        -0.000151      0.000920      0.001741
      6.40920      8.54521     11.78219        -0.001222      0.000439      0.009721
      4.27306      0.00000     13.90518         0.000001      0.000001     -0.199795
      6.41073      6.41075     13.90685        -0.002423     -0.000702     -0.190637
      4.27306      2.13653      7.50000        -0.000000      0.000454      0.514436
      6.40959      4.27306      7.50000        -0.000471     -0.000002      0.514391
      4.27306      4.27306      9.63653        -0.000003      0.000002      0.025335
      6.40959      2.13653      9.63653        -0.001496      0.001402      0.015400
      4.27322      2.14053     11.78567         0.000151     -0.000920      0.001738
      6.40558      4.27290     11.78566         0.000226     -0.000143      0.000339
      4.27306      4.27306     13.95143        -0.000003      0.000002     -0.158499
      6.41332      2.13278     13.90043        -0.001933      0.000199     -0.189509
      0.00000      6.40959      9.63653        -0.002738      0.000652      0.039990
      2.13653      0.00000      9.63653        -0.000861      0.002733      0.039887
      0.00000      0.00000      7.50000        -0.000001     -0.000001     -0.359122
      2.13653      6.40959      7.50000        -0.000601      0.000562     -0.359299
      8.54534      6.41143     13.94643         0.001029     -0.005805     -0.026959
      2.13468      0.00078     13.94642         0.004451     -0.001023     -0.027193
      8.54611      8.54611     11.77659        -0.000001      0.000000      0.000890
      2.13574      6.41037     11.77702         0.001838     -0.002713      0.001313
      0.00000      2.13653      9.63653         0.002736     -0.000653      0.039990
      2.13653      4.27306      9.63653         0.006295     -0.000231      0.047156
      0.00000      4.27306      7.50000        -0.000000      0.000000     -0.359332
      2.13653      2.13653      7.50000        -0.000496     -0.000458     -0.359390
      0.00078      2.13468     13.94643        -0.001028      0.005804     -0.026958
      2.12872      4.27573     13.94453         0.001735      0.000680     -0.014259
      0.00000      4.27306     11.77695        -0.000001     -0.000000      0.004904
      2.13681      2.13682     11.77869         0.001533      0.002394      0.000947
      4.27306      6.40959      9.63653         0.000231     -0.006517      0.046932
      6.40959      0.00000      9.63653         0.000861     -0.002736      0.039888
      4.27306      0.00000      7.50000         0.000000     -0.000000     -0.359390
      6.40959      6.40959      7.50000         0.000496      0.000456     -0.359388
      4.27038      6.41741     13.94447        -0.000730     -0.001428     -0.017731
      6.41144      8.54534     13.94642        -0.004453      0.001023     -0.027194
      4.27306      0.00000     11.77693        -0.000001     -0.000000      0.003571
      6.40930      6.40930     11.77869        -0.001532     -0.002395      0.000946
      4.27306      2.13653      9.63653        -0.000231      0.006515      0.046933
      6.40959      4.27306      9.63653        -0.006295      0.000233      0.047158
      4.27306      4.27306      7.50000         0.000000      0.000001     -0.360100
      6.40959      2.13653      7.50000         0.000601     -0.000563     -0.359301
      4.27573      2.12870     13.94447         0.000731      0.001426     -0.017732
      6.41739      4.27038     13.94452        -0.001737     -0.000678     -0.014261
      4.27306      4.27306     11.78548         0.000001      0.000000     -0.004025
      6.41037      2.13575     11.77702        -0.001838      0.002714      0.001315
    total drift:                                0.000001      0.000010     -0.006959

  FREE ENERGIE OF THE ION-ELECTRON SYSTEM (eV)
  free  energy   TOTEN  =      -387.48056213 eV

  energy  without entropy=     -387.48054176  energy(sigma->0) =     -387.48055195