 vasp.6.3.0 20Jan22 (build Mar 11 2022 13:48:16) complex

 executed on             LinuxIFC date 2023.12.26  17:45:34

 INCAR:
   SYSTEM = MgO-rocksalt
   ISMEAR = 0
   SIGMA = 0.05
   EDIFF = 1E-6
   ALGO = ALL
   ISTART = 0
   IBRION = -1
   NSW = 0
   ISYM = 0
   DIPOL = 0.5 0.5 0.5
   IDIPOL = 3
   LDIPOL = .TRUE.
   GGA = PE
   IVDW = 1
   VDW_C6 = 0.63 0.70
   VDW_R0 = 1.243 1.342
   ENCUT = 520
   PREC = Accurate
   LASPH = .TRUE.
   LREAL = Auto
   ISPIN = 1
   NELM = 200
   NELMIN = 8
   NCORE = 2
   KPAR = 1
   LWAVE = .FALSE.
   LCHARG = .FALSE.

 POTCAR:    PAW_PBE Mg_pv 13Apr2007
 POTCAR:    PAW_PBE O 08Apr2002
|           W    W    AA    RRRRR   N    N  II  N    N   GGGG   !!!           |
|           W    W   A  A   R    R  NN   N  II  NN   N  G    G  !!!           |
|           W    W  A    A  R    R  N N  N  II  N N  N  G       !!!           |
|           W WW W  AAAAAA  RRRRR   N  N N  II  N  N N  G  GGG   !            |
|           WW  WW  A    A  R   R   N   NN  II  N   NN  G    G                |
|           W    W  A    A  R    R  N    N  II  N    N   GGGG   !!!           |
|     For optimal performance we recommend to set                             |
|       NCORE = 2 up to number-of-cores-per-socket                            |
|     This setting can greatly improve the performance of VASP for DFT.       |
|     The default, NCORE=1 might be grossly inefficient on modern             |
|     multi-core architectures or massively parallel machines. Do your        |
|     Unfortunately you need to use the default for GW and RPA                |
|     calculations (for HF NCORE is supported but not extensively tested      |
|     yet).                                                                   |

   TITEL  = PAW_PBE Mg_pv 13Apr2007
   POMASS =   24.305; ZVAL   =    8.000    mass and valenz
   ENMAX  =  403.929; ENMIN  =  302.947 eV

   TITEL  = PAW_PBE O 08Apr2002
   POMASS =   16.000; ZVAL   =    6.000    mass and valenz
   ENMAX  =  400.000; ENMIN  =  300.000 eV

 Optimization of the real space projectors (new method)

 maximal supplied QI-value         = 18.90
 optimisation between [QCUT,QGAM] = [ 11.53, 23.24] = [ 37.21,151.29] Ry
 Optimized for a Real-space Cutoff    1.28 Angstroem

   l    n(q)    QCUT    max X(q) W(low)/X(q) W(high)/X(q)  e(spline)
   1      8    11.527     2.974    0.44E-04    0.56E-04    0.12E-06
   1      8    11.527     4.279    0.12E-03    0.12E-03    0.26E-06
   0      9    11.527    16.381    0.46E-04    0.64E-04    0.78E-07
   0      9    11.527     5.611    0.26E-04    0.43E-04    0.55E-07
   2      8    11.527     4.652    0.22E-03    0.72E-04    0.47E-07
 Optimization of the real space projectors (new method)

 maximal supplied QI-value         = 24.76
 optimisation between [QCUT,QGAM] = [ 11.64, 23.27] = [ 37.91,151.63] Ry
 Optimized for a Real-space Cutoff    1.14 Angstroem

   l    n(q)    QCUT    max X(q) W(low)/X(q) W(high)/X(q)  e(spline)
   0      8    11.635    20.381    0.10E-03    0.33E-03    0.24E-06
   0      8    11.635    15.268    0.11E-03    0.35E-03    0.26E-06
   1      7    11.635     5.964    0.24E-03    0.31E-03    0.30E-06
   1      7    11.635     5.382    0.22E-03    0.25E-03    0.26E-06
  PAW_PBE Mg_pv 13Apr2007               :
  PAW_PBE O 08Apr2002                   :

 POSCAR: Mg  O
  positions in direct lattice
 exchange correlation table for  LEXCH =        8
   RHO(1)=    0.500       N(1)  =     2000
   RHO(2)=  100.500       N(2)  =     4000

 ion  position               nearest neighbor table
   1  0.000  0.375  0.352- 129 2.11 132 2.11 139 2.11 163 2.11 212 2.11
   2  0.125  0.000  0.352- 130 2.11 131 2.11 140 2.11 147 2.11 164 2.11
   3  0.000  0.000  0.451- 131 2.11 130 2.11 137 2.11 161 2.11 210 2.11 135 2.11
   4  0.125  0.375  0.451- 132 2.11 129 2.11 138 2.11 145 2.11 162 2.11 136 2.11
   5  0.000  0.375  0.550- 143 2.11 167 2.11 136 2.11 216 2.11 129 2.12 133 2.14
   6  0.125  0.000  0.550- 144 2.11 151 2.11 168 2.11 135 2.11 130 2.12 134 2.14
   7  0.000  0.000  0.648- 135 2.10 141 2.11 214 2.11 134 2.11 165 2.11
   8  0.125  0.375  0.648- 136 2.10 166 2.11 142 2.11 133 2.11 149 2.11
   9  0.000  0.125  0.352- 137 2.11 131 2.11 139 2.11 140 2.11 220 2.11
  10  0.125  0.250  0.352- 138 2.11 132 2.11 139 2.11 140 2.11 155 2.11
  11  0.000  0.250  0.451- 139 2.11 137 2.11 138 2.11 129 2.11 218 2.11 143 2.11
  12  0.125  0.125  0.451- 144 2.11 140 2.11 138 2.11 130 2.11 137 2.11 153 2.11
  13  0.000  0.125  0.550- 143 2.11 135 2.11 224 2.11 144 2.11 137 2.12 141 2.14
  14  0.125  0.250  0.550- 159 2.11 136 2.11 144 2.11 143 2.11 138 2.12 142 2.14
  15  0.000  0.250  0.648- 143 2.10 133 2.11 141 2.11 142 2.11 222 2.11
  16  0.125  0.125  0.648- 144 2.10 142 2.11 157 2.11 134 2.11 141 2.11
  17  0.250  0.375  0.352- 145 2.11 132 2.11 148 2.11 155 2.11 179 2.11
  18  0.375  0.000  0.352- 146 2.11 147 2.11 156 2.11 180 2.11 195 2.11
  19  0.250  0.000  0.451- 147 2.11 146 2.11 130 2.11 153 2.11 177 2.11 151 2.11
  20  0.375  0.375  0.451- 152 2.11 148 2.11 145 2.11 154 2.11 178 2.11 193 2.11
  21  0.250  0.375  0.550- 152 2.10 183 2.11 159 2.11 136 2.11 145 2.12 149 2.15
  22  0.375  0.000  0.550- 160 2.11 199 2.11 151 2.11 184 2.11 146 2.12 150 2.14
  23  0.250  0.000  0.648- 151 2.10 150 2.11 157 2.11 134 2.11 181 2.11
  24  0.376  0.375  0.648- 197 2.10 152 2.11 182 2.11 158 2.11 149 2.12
  25  0.250  0.125  0.352- 153 2.11 147 2.11 140 2.11 155 2.11 156 2.11
  26  0.375  0.250  0.352- 154 2.11 148 2.11 155 2.11 156 2.11 203 2.11
  27  0.250  0.250  0.451- 155 2.11 145 2.11 153 2.11 154 2.11 138 2.11 159 2.11
  28  0.375  0.125  0.451- 156 2.11 153 2.11 154 2.11 146 2.11 201 2.11 160 2.11
  29  0.250  0.125  0.550- 159 2.11 160 2.11 151 2.11 144 2.11 153 2.12 157 2.14
  30  0.375  0.250  0.550- 152 2.11 207 2.11 159 2.11 160 2.11 154 2.12 158 2.15
  31  0.250  0.250  0.648- 159 2.10 158 2.11 149 2.11 157 2.11 142 2.11
  32  0.375  0.125  0.648- 160 2.10 158 2.11 205 2.11 157 2.11 150 2.11
  33  0.000  0.875  0.352- 161 2.11 131 2.11 164 2.11 171 2.11 244 2.11
  34  0.125  0.500  0.352- 162 2.11 132 2.11 163 2.11 172 2.11 179 2.11
  35  0.000  0.500  0.451- 163 2.11 162 2.11 129 2.11 169 2.11 242 2.11 167 2.11
  36  0.125  0.875  0.451- 168 2.11 164 2.11 130 2.11 161 2.11 170 2.11 177 2.11
  37  0.000  0.875  0.550- 168 2.11 135 2.11 248 2.11 175 2.11 161 2.12 165 2.14
  38  0.125  0.500  0.550- 183 2.11 136 2.11 167 2.11 176 2.11 162 2.12 166 2.14
  39  0.000  0.500  0.648- 167 2.10 133 2.11 173 2.11 166 2.11 246 2.11
  40  0.125  0.875  0.648- 168 2.10 181 2.11 174 2.11 134 2.11 165 2.11
  41  0.000  0.625  0.352- 169 2.11 163 2.11 171 2.11 172 2.11 252 2.11
  42  0.125  0.750  0.352- 170 2.11 164 2.11 171 2.11 172 2.11 187 2.11
  43  0.000  0.750  0.451- 175 2.11 171 2.11 170 2.11 161 2.11 169 2.11 250 2.11
  44  0.125  0.625  0.451- 176 2.11 172 2.11 170 2.11 162 2.11 169 2.11 185 2.11
  45  0.000  0.625  0.550- 256 2.11 176 2.11 167 2.11 175 2.11 169 2.12 173 2.14
  46  0.125  0.750  0.550- 191 2.11 176 2.11 175 2.11 168 2.11 170 2.12 174 2.14
  47  0.000  0.750  0.648- 175 2.10 174 2.11 254 2.11 173 2.11 165 2.11
  48  0.125  0.625  0.648- 176 2.10 189 2.11 166 2.11 173 2.11 174 2.11
  49  0.250  0.875  0.352- 177 2.11 164 2.11 147 2.11 180 2.11 187 2.11
  50  0.375  0.500  0.352- 178 2.11 148 2.11 179 2.11 188 2.11 227 2.11
  51  0.250  0.500  0.451- 183 2.11 179 2.11 178 2.11 145 2.11 162 2.11 185 2.11
  52  0.375  0.875  0.451- 184 2.11 180 2.11 146 2.11 177 2.11 186 2.11 225 2.11
  53  0.250  0.875  0.550- 191 2.11 184 2.11 168 2.11 151 2.11 177 2.12 181 2.14
  54  0.375  0.500  0.550- 231 2.11 152 2.11 192 2.11 183 2.11 178 2.12 182 2.14
  55  0.250  0.500  0.648- 183 2.10 182 2.10 149 2.11 189 2.11 166 2.11
  56  0.375  0.875  0.648- 184 2.10 229 2.11 181 2.11 190 2.11 150 2.11
  57  0.250  0.625  0.352- 185 2.11 179 2.11 172 2.11 187 2.11 188 2.11
  58  0.375  0.750  0.352- 186 2.11 180 2.11 187 2.11 188 2.11 235 2.11
  59  0.250  0.750  0.451- 191 2.11 187 2.11 185 2.11 186 2.11 170 2.11 177 2.11
  60  0.375  0.625  0.451- 192 2.11 188 2.11 186 2.11 178 2.11 185 2.11 233 2.11
[...]
 242  0.875  0.500  0.451- 114 2.11  84 2.11  35 2.11 115 2.11 124 2.11 118 2.11
 243  0.750  0.500  0.352- 115 2.11  98 2.11 114 2.11  81 2.11 121 2.11
 244  0.875  0.875  0.352- 116 2.11  82 2.11 113 2.11  33 2.11 122 2.11
 245  0.750  0.875  0.650- 104 2.11 120 2.11  87 2.11 127 2.11 117 2.14
 246  0.875  0.500  0.650-  88 2.11 128 2.11  39 2.11 119 2.11 118 2.14
 247  0.750  0.500  0.549- 119 2.09 115 2.11 118 2.11 125 2.11  85 2.11 102 2.12
 248  0.875  0.875  0.549- 120 2.10 116 2.11  37 2.11  86 2.11 117 2.11 126 2.11
 249  0.750  0.625  0.451- 121 2.11 115 2.11 108 2.11 123 2.11 124 2.11 125 2.11
 250  0.875  0.750  0.451- 122 2.11 116 2.11  43 2.11 123 2.11 124 2.11 126 2.12
 251  0.750  0.750  0.352- 123 2.11 113 2.11 121 2.11 122 2.11 106 2.11
 252  0.875  0.625  0.352- 124 2.11 114 2.11 121 2.11 122 2.11  41 2.11
 253  0.750  0.625  0.650- 127 2.11 128 2.11 119 2.11 112 2.11 125 2.15
 254  0.875  0.750  0.650-  47 2.11 120 2.11 127 2.11 128 2.11 126 2.14
 255  0.750  0.750  0.549- 127 2.10 123 2.11 126 2.11 117 2.11 125 2.11 110 2.11
 256  0.875  0.625  0.549- 128 2.10 124 2.11  45 2.11 126 2.11 125 2.11 118 2.11

IMPORTANT INFORMATION: All symmetrisations will be switched off!
NOSYMM: (Re-)initialisation of all symmetry stuff for point group C_1.

                                     Primitive cell

  volume of cell :    6079.2794

  direct lattice vectors                    reciprocal lattice vectors
    16.881969308  0.000000000  0.000000000     0.059234796  0.000000000  0.000000000
     0.000000000 16.881969308  0.000000000     0.000000000  0.059234796  0.000000000
     0.000000000  0.000000000 21.330738491     0.000000000  0.000000000  0.046880702

  length of vectors
    16.881969308 16.881969308 21.330738491     0.059234796  0.059234796  0.046880702

  position of ions in fractional coordinates (direct lattice)
     0.000000000  0.375000000  0.351605267
     0.125000000  0.000000000  0.351605267
     0.000000000  0.000000000  0.450535089
     0.125000000  0.375000000  0.450535089
     0.000021303  0.375006277  0.549743315
     0.125022666  0.000028567  0.549734060
     0.000025841  0.000057001  0.647911681
     0.125099153  0.375031247  0.647929647
     0.000000000  0.125000000  0.351605267
     0.125000000  0.250000000  0.351605267
     0.000000000  0.250000000  0.450535089
     0.125000000  0.125000000  0.450535089
     0.000016865  0.125024360  0.549732431
     0.125055348  0.250032711  0.549737631
     0.000025904  0.250046822  0.647911662
     0.125074038  0.125080973  0.647912606
     0.250000000  0.375000000  0.351605267
     0.375000000  0.000000000  0.351605267
     0.250000000  0.000000000  0.450535089
     0.375000000  0.375000000  0.450535089
     0.250187662  0.375029646  0.549734865
     0.375038792  0.000056013  0.549733804
     0.250075494  0.000077359  0.647909092
     0.375801259  0.375181760  0.648072846
     0.250000000  0.125000000  0.351605267
     0.375000000  0.250000000  0.351605267
     0.250000000  0.250000000  0.450535089
[...]
  12.66464345  8.44184479 11.71753089
  14.77197439 14.77211418 11.72009913
  12.66147698 10.55123082  9.61024616
  14.77172314 12.66147698  9.61024616
  12.66147698 12.66147698  7.50000000
  14.77172314 10.55123082  7.50000000
  12.66198443 10.55179790 13.87009544
  14.77210175 12.66194361 13.86906818
  12.66193193 12.66202689 11.71995390
  14.77231780 10.55172724 11.71991500

--------------------------------------- Iteration      FINAL  ---------------------------------------

--------------------OUTCAR has been truncated-------------------------

[...]

--------------------OUTCAR has been truncated-------------------------

  DFT-D2 method for vdW energy calculation

  Parameters of vdW forcefield:
         C6(Jnm^6/mol)     R0(A)
   Mg       0.630          1.243
   O        0.700          1.342

  vdW correction parametrized for the method pbe

  IVDW =   1
  VDW_RADIUS =    50.000 A
  VDW_S6 =     0.750
  VDW_SR =     1.000
  VDW_D =    20.000
  LVDW_EWALD = F

  Number of pair interactions contributing to vdW energy: 2859883
  Edisp (eV):  -14.53149

  FORCE on cell =-STRESS in cart. coord.  units (eV):
  Direction    XX          YY          ZZ          XY          YZ          ZX
  Alpha Z  3501.03714  3501.03714  3501.03714
  Ewald  646970.07889646970.08804************    -0.01240     1.14455     0.96327
  Hartree687201.37176687201.37937************    -0.00169     0.63897     0.53730
  E(xc)   -9827.41375 -9827.41397 -9848.17268    -0.00001     0.00268     0.00224
  Local  ************************************     0.01329    -1.78584    -1.50183
  n-local-11239.19695-11239.19415-11319.57532     0.00119     0.03948     0.03235
  augment  4189.27836  4189.27533  4153.03424     0.00005     0.00623     0.00595
  Kinetic 29208.77601 29208.77641 29377.25551     0.00077    -0.23115    -0.19402
  Fock        0.00000     0.00000     0.00000     0.00000     0.00000     0.00000
  vdW       -21.22331   -21.22332   -17.29388     0.00002     0.00030     0.00025
  Total     -83.56463   -83.56571    20.21695     0.00123    -0.18478    -0.15448
  in kB     -22.02323   -22.02351     5.32812     0.00032    -0.04870    -0.04071

 VOLUME and BASIS-vectors are now :
  energy-cutoff  :      520.00
  volume of cell :     6079.28
      direct lattice vectors                 reciprocal lattice vectors
    16.881969308  0.000000000  0.000000000     0.059234796  0.000000000  0.000000000
     0.000000000 16.881969308  0.000000000     0.000000000  0.059234796  0.000000000
     0.000000000  0.000000000 21.330738491     0.000000000  0.000000000  0.046880702

  length of vectors
    16.881969308 16.881969308 21.330738491     0.059234796  0.059234796  0.046880702

 FORCES acting on ions:
    Electron-Ion                     Ewald-Force                    Non-Local-Force
   -.453E-01 0.795E-01 0.207E+04   0.448E-01 -.793E-01 -.206E+04   0.387E-03 -.230E-03 -.704E+01
   0.272E-01 0.118E-01 0.207E+04   -.295E-01 -.137E-01 -.206E+04   0.178E-02 0.153E-02 -.704E+01
   -.533E-01 -.113E-01 0.686E+03   0.542E-01 0.103E-01 -.686E+03   -.552E-03 0.917E-03 0.411E+00
   0.300E+00 0.192E+00 0.686E+03   -.287E+00 -.194E+00 -.686E+03   -.944E-02 0.102E-02 0.413E+00
   -.994E-01 0.163E+00 -.692E+03   0.992E-01 -.170E+00 0.692E+03   0.552E-04 0.544E-02 -.254E+00
   -.681E-02 -.123E-01 -.692E+03   0.950E-02 0.119E-01 0.692E+03   -.191E-02 -.247E-03 -.250E+00
   -.718E-01 0.368E-01 -.206E+04   0.697E-01 -.373E-01 0.205E+04   0.204E-02 -.175E-02 0.606E+01
   0.259E-01 0.945E-01 -.205E+04   -.596E-01 -.882E-01 0.205E+04   0.271E-01 -.579E-02 0.603E+01
   -.359E-01 0.547E-01 0.207E+04   0.356E-01 -.572E-01 -.206E+04   0.194E-03 0.201E-02 -.704E+01
   0.117E+00 0.101E+00 0.207E+04   -.119E+00 -.102E+00 -.206E+04   0.157E-02 0.890E-03 -.704E+01
   -.689E-01 0.814E-01 0.686E+03   0.698E-01 -.844E-01 -.686E+03   -.443E-03 0.235E-02 0.403E+00
   0.955E-01 0.103E+00 0.686E+03   -.974E-01 -.105E+00 -.686E+03   0.182E-02 0.174E-02 0.397E+00
   -.894E-01 0.201E-01 -.692E+03   0.872E-01 -.178E-01 0.692E+03   0.202E-02 -.122E-02 -.252E+00
   0.364E+00 0.863E-01 -.692E+03   -.370E+00 -.825E-01 0.692E+03   -.209E-02 -.536E-02 -.243E+00
   -.239E-01 0.112E+00 -.205E+04   0.208E-01 -.103E+00 0.205E+04   0.163E-02 -.751E-02 0.604E+01
   0.138E+00 0.210E+00 -.205E+04   -.131E+00 -.192E+00 0.205E+04   -.899E-02 -.177E-01 0.604E+01
   0.306E+00 0.838E-01 0.207E+04   -.313E+00 -.842E-01 -.206E+04   0.528E-02 0.172E-03 -.705E+01
   0.760E-01 0.992E-01 0.207E+04   -.772E-01 -.101E+00 -.206E+04   0.895E-03 0.145E-02 -.704E+01
   0.884E-01 0.760E-01 0.686E+03   -.921E-01 -.790E-01 -.686E+03   0.292E-02 0.253E-02 0.401E+00
   0.561E+00 0.135E+00 0.688E+03   -.616E+00 -.135E+00 -.688E+03   0.413E-01 0.550E-03 0.368E+00
   0.235E+01 0.408E+00 -.693E+03   -.227E+01 -.414E+00 0.694E+03   -.111E+00 0.338E-02 -.131E+00
   0.707E-01 0.357E+00 -.692E+03   -.690E-01 -.364E+00 0.692E+03   -.477E-02 -.168E-02 -.247E+00
   0.148E+00 0.152E+00 -.205E+04   -.132E+00 -.146E+00 0.205E+04   -.165E-01 -.955E-02 0.604E+01
   0.438E+01 0.492E+00 -.206E+04   -.481E+01 -.547E+00 0.205E+04   0.194E+00 0.270E-01 0.630E+01
   0.142E+00 0.150E+00 0.207E+04   -.145E+00 -.152E+00 -.206E+04   0.200E-02 0.171E-02 -.704E+01
   0.251E+00 0.276E+00 0.207E+04   -.256E+00 -.280E+00 -.206E+04   0.330E-02 0.317E-02 -.704E+01
   0.515E+00 0.399E+00 0.686E+03   -.515E+00 -.393E+00 -.686E+03   0.963E-03 -.407E-02 0.428E+00
   0.360E+00 0.529E+00 0.686E+03   -.356E+00 -.526E+00 -.686E+03   -.269E-02 -.726E-03 0.420E+00
   0.382E+00 0.397E+00 -.692E+03   -.390E+00 -.403E+00 0.692E+03   -.158E-02 -.186E-02 -.230E+00
   0.173E+01 0.183E+01 -.693E+03   -.174E+01 -.183E+01 0.693E+03   -.183E-01 -.341E-01 -.958E-01
   0.721E+00 0.317E+00 -.205E+04   -.801E+00 -.281E+00 0.205E+04   0.447E-01 -.424E-01 0.602E+01
   0.287E+00 0.799E+00 -.205E+04   -.242E+00 -.876E+00 0.205E+04   -.480E-01 0.426E-01 0.601E+01
   -.373E-01 -.655E-01 0.207E+04   0.371E-01 0.655E-01 -.206E+04   0.900E-04 -.877E-04 -.704E+01
   0.129E+00 -.152E-02 0.207E+04   -.132E+00 0.267E-02 -.206E+04   0.222E-02 -.910E-03 -.704E+01
   -.125E+00 0.102E+00 0.686E+03   0.126E+00 -.969E-01 -.686E+03   -.377E-03 -.351E-02 0.414E+00
   0.141E-01 -.109E+00 0.686E+03   -.143E-01 0.110E+00 -.686E+03   0.443E-03 -.564E-03 0.394E+00
   -.518E-01 -.108E+00 -.692E+03   0.515E-01 0.104E+00 0.692E+03   -.522E-03 0.236E-02 -.248E+00
   0.683E+00 0.157E+00 -.692E+03   -.681E+00 -.160E+00 0.692E+03   -.109E-01 0.367E-02 -.237E+00
   -.314E-02 -.672E-01 -.206E+04   -.145E-02 0.554E-01 0.205E+04   0.257E-02 0.110E-01 0.606E+01
   0.433E-01 -.104E+00 -.205E+04   -.426E-01 0.101E+00 0.205E+04   -.288E-02 0.244E-02 0.605E+01
   -.561E-01 -.684E-01 0.207E+04   0.560E-01 0.709E-01 -.206E+04   0.120E-03 -.191E-02 -.704E+01
   0.359E-01 -.111E+00 0.207E+04   -.380E-01 0.113E+00 -.206E+04   0.177E-02 -.175E-02 -.704E+01
   -.821E-01 -.160E+00 0.686E+03   0.826E-01 0.164E+00 -.686E+03   -.242E-03 -.287E-02 0.397E+00
   0.179E+00 -.176E+00 0.686E+03   -.185E+00 0.184E+00 -.686E+03   0.507E-02 -.568E-02 0.396E+00
   -.130E+00 -.703E-01 -.692E+03   0.128E+00 0.801E-01 0.692E+03   0.248E-02 -.738E-02 -.244E+00
   0.712E-01 -.232E+00 -.692E+03   -.767E-01 0.232E+00 0.692E+03   0.226E-02 0.169E-02 -.245E+00
   -.254E-01 -.119E+00 -.205E+04   0.255E-01 0.119E+00 0.205E+04   -.197E-03 0.128E-02 0.605E+01
   0.225E+00 -.125E+00 -.205E+04   -.219E+00 0.110E+00 0.205E+04   -.879E-02 0.137E-01 0.604E+01
   0.504E-01 -.713E-01 0.207E+04   -.532E-01 0.712E-01 -.206E+04   0.217E-02 -.567E-04 -.704E+01
   0.243E+00 -.165E+00 0.207E+04   -.247E+00 0.170E+00 -.206E+04   0.305E-02 -.343E-02 -.704E+01
   0.427E+00 -.143E+00 0.686E+03   -.429E+00 0.139E+00 -.687E+03   0.322E-02 0.324E-02 0.397E+00
   0.413E-01 -.157E+00 0.686E+03   -.461E-01 0.158E+00 -.686E+03   0.353E-02 -.319E-03 0.400E+00
   0.295E-01 -.225E+00 -.692E+03   -.309E-01 0.224E+00 0.692E+03   0.775E-05 0.367E-02 -.247E+00
   0.154E+01 -.135E+01 -.692E+03   -.150E+01 0.135E+01 0.692E+03   -.698E-01 0.235E-01 -.180E+00
   0.145E+01 -.107E+00 -.205E+04   -.154E+01 0.741E-01 0.205E+04   0.363E-01 0.374E-01 0.601E+01
   0.109E+00 -.529E-01 -.205E+04   -.952E-01 0.500E-01 0.205E+04   -.123E-01 0.220E-02 0.604E+01
   0.152E+00 -.162E+00 0.207E+04   -.155E+00 0.165E+00 -.206E+04   0.190E-02 -.213E-02 -.704E+01
   0.795E-01 -.209E+00 0.207E+04   -.807E-01 0.211E+00 -.206E+04   0.819E-03 -.166E-02 -.704E+01
   0.136E+00 -.305E+00 0.686E+03   -.140E+00 0.314E+00 -.686E+03   0.358E-02 -.626E-02 0.401E+00
   0.280E+00 -.484E+00 0.686E+03   -.272E+00 0.491E+00 -.687E+03   -.638E-02 -.612E-02 0.409E+00
[...]
   -.189E+00 -.332E-01 0.155E+04   0.192E+00 0.329E-01 -.156E+04   -.420E-02 0.371E-03 0.349E+01
   -.587E-01 -.585E-01 0.155E+04   0.598E-01 0.582E-01 -.156E+04   0.176E-02 0.362E-02 0.349E+01
   -.258E-01 -.190E-01 -.156E+04   0.281E-01 0.201E-01 0.157E+04   -.232E-02 -.406E-03 -.517E+01
   -.142E+00 -.568E-01 -.156E+04   0.133E+00 0.643E-01 0.157E+04   0.792E-02 -.874E-02 -.521E+01
   -.202E+00 0.200E+00 -.511E+03   0.186E+00 -.193E+00 0.511E+03   -.193E-01 -.160E-01 0.356E+00
   -.100E+00 -.118E+00 -.513E+03   0.104E+00 0.119E+00 0.513E+03   -.417E-02 -.907E-03 0.250E+00
   -.274E+00 -.291E+00 0.515E+03   0.274E+00 0.292E+00 -.515E+03   0.169E-04 -.231E-02 -.503E-01
   -.173E+00 -.187E+00 0.514E+03   0.174E+00 0.188E+00 -.514E+03   0.191E-02 -.119E-03 -.739E-01
   -.745E-01 -.143E+00 0.155E+04   0.766E-01 0.145E+00 -.156E+04   -.286E-02 -.260E-02 0.349E+01
   -.128E+00 -.772E-01 0.155E+04   0.130E+00 0.792E-01 -.156E+04   0.764E-03 -.596E-02 0.349E+01
   -.157E+00 -.228E+00 -.156E+04   0.163E+00 0.234E+00 0.157E+04   -.187E-01 -.204E-01 -.526E+01
   -.499E-02 -.439E-01 -.156E+04   0.232E-02 0.402E-01 0.157E+04   0.213E-02 0.172E-02 -.517E+01
   -.117E+00 -.334E+00 -.513E+03   0.112E+00 0.334E+00 0.513E+03   0.175E-02 -.443E-02 0.241E+00
   -.313E+00 -.160E+00 -.513E+03   0.316E+00 0.157E+00 0.513E+03   -.658E-02 -.899E-04 0.239E+00
   -.725E-01 -.859E-01 0.714E+02   -.169E-11 0.934E-13 0.197E-10   0.707E-01 0.828E-01 -.714E+02

 POSITION                                       TOTAL-FORCE (eV/Angst)
      0.00000      6.33074      7.50000        -0.000102      0.000014      0.349331
      2.11025      0.00000      7.50000        -0.000446     -0.000448      0.350348
      0.00000      0.00000      9.61025         0.000340     -0.000056      0.007361
      2.11025      6.33074      9.61025         0.003713     -0.000467      0.008002
      0.00036      6.33084     11.72643        -0.000126     -0.001317      0.056607
      2.11063      0.00048     11.72623         0.000757     -0.000553      0.052424
      0.00044      0.00096     13.82043        -0.000012     -0.002141      0.056986
      2.11192      6.33127     13.82082        -0.006552      0.000519      0.065269
      0.00000      2.11025      7.50000        -0.000052     -0.000510      0.350237
      2.11025      4.22049      7.50000        -0.000256     -0.000223      0.350120
      0.00000      4.22049      9.61025         0.000456     -0.000666      0.007705
      2.11025      2.11025      9.61025        -0.000047     -0.000193      0.007019
      0.00028      2.11066     11.72620        -0.000139      0.001111      0.053278
      2.11118      4.22104     11.72631        -0.008147     -0.001428      0.054164
      0.00044      4.22128     13.82043        -0.001472      0.001028      0.059974
      2.11150      2.11161     13.82045        -0.002007     -0.000361      0.058778
      4.22049      6.33074      7.50000        -0.001387     -0.000195      0.351378
      6.33074      0.00000      7.50000        -0.000301     -0.000386      0.349646
      4.22049      0.00000      9.61025        -0.000725     -0.000492      0.007639
      6.33074      6.33074      9.61025        -0.012831     -0.000008     -0.015146
      4.22366      6.33124     11.72625        -0.033109     -0.002990      0.052781
      6.33139      0.00095     11.72623        -0.002999     -0.008028      0.055666
      4.22177      0.00131     13.82038        -0.000502     -0.002782      0.059604
      6.34427      6.33381     13.82387        -0.229182     -0.026881     -0.065326
      4.22049      2.11025      7.50000        -0.000628     -0.000369      0.349869
      6.33074      4.22049      7.50000        -0.001276     -0.001060      0.349773
      4.22049      4.22049      9.61025         0.000624      0.001654      0.005276
      6.33074      2.11025      9.61025         0.001119      0.001547      0.004362
      4.22147      2.11124     11.72625        -0.008823     -0.008450      0.052192
      6.33328      4.22349     11.72640        -0.025931     -0.028738      0.022884
      4.22371      4.22318     13.81920        -0.034323     -0.006052      0.077817
      6.33322      2.11343     13.81874        -0.003579     -0.033751      0.080197
      0.00000     14.77172      7.50000        -0.000028     -0.000043      0.350517
      2.11025      8.44098      7.50000        -0.000519      0.000243      0.349812
      0.00000      8.44098      9.61025         0.000831      0.001204      0.005194
      2.11025     14.77172      9.61025         0.000269      0.000215      0.006922
      0.00033     14.77214     11.72620        -0.000750     -0.001648      0.052520
      2.11073      8.44096     11.72554        -0.008803      0.000430      0.057397
      0.00045      8.44099     13.82025        -0.001953     -0.000839      0.059795
      2.11112     14.77222     13.82024        -0.002114     -0.000323      0.057422
      0.00000     10.55123      7.50000        -0.000040      0.000636      0.350347
      2.11025     12.66148      7.50000        -0.000356      0.000530      0.350735
      0.00000     12.66148      9.61025         0.000243      0.001041      0.007457
      2.11025     10.55123      9.61025        -0.001394      0.002175      0.005322
      0.00026     10.55131     11.72608        -0.000123      0.002420      0.053303
      2.11066     12.66160     11.72622        -0.003168      0.001519      0.050944
      0.00034     12.66162     13.82023        -0.000093      0.001166      0.057303
      2.11113     10.55103     13.82018        -0.002782     -0.000960      0.059696
      4.22049     14.77172      7.50000        -0.000639     -0.000150      0.350648
      6.33074      8.44098      7.50000        -0.001073      0.001153      0.349391
      4.22049      8.44098      9.61025         0.000486     -0.001393      0.000700
      6.33074     14.77172      9.61025        -0.001222      0.000518      0.006709
      4.22095     14.77186     11.72630        -0.001286      0.002878      0.050988
      6.33410      8.43924     11.72654        -0.027907      0.024933      0.004924
      4.22324      8.44035     13.81591        -0.054469      0.004005      0.088576
      6.33136     14.77199     13.82036         0.001286     -0.000691      0.060221
      4.22049     10.55123      7.50000        -0.000603      0.000835      0.349683
      6.33074     12.66148      7.50000        -0.000359      0.000463      0.350181
      4.22049     12.66148      9.61025        -0.001019      0.002331      0.006398
      6.33074     10.55123      9.61025         0.002333      0.001318      0.000053
[...]
     14.77172      8.44098      9.61025         0.003364     -0.000884      0.024526
     12.66148      8.44098      7.50000        -0.001155      0.000134     -0.518922
     14.77172     14.77172      7.50000         0.002849      0.003368     -0.517853
     12.66138     14.77210     13.86920        -0.000032      0.000725      0.023467
     14.77120      8.44118     13.86902        -0.001698     -0.001210      0.011344
     12.66464      8.44184     11.71753        -0.034806     -0.009192      0.012706
     14.77197     14.77211     11.72010        -0.000942     -0.000279      0.001172
     12.66148     10.55123      9.61025         0.000251     -0.002007      0.023916
     14.77172     12.66148      9.61025         0.002418     -0.000007      0.026881
     12.66148     12.66148      7.50000        -0.000789     -0.000714     -0.519492
     14.77172     10.55123      7.50000         0.002568     -0.003995     -0.517357
     12.66198     10.55180     13.87010        -0.012580     -0.013668     -0.001978
     14.77210     12.66194     13.86907        -0.000506     -0.002007      0.024214
     12.66193     12.66203     11.71995        -0.002918     -0.003663     -0.000735
     14.77232     10.55173     11.71992        -0.004031     -0.002903     -0.000515
    total drift:                               -0.001767     -0.003046      0.028797

  FREE ENERGIE OF THE ION-ELECTRON SYSTEM (eV)
  free  energy   TOTEN  =     -1502.68724288 eV

  energy  without entropy=    -1502.68724288  energy(sigma->0) =    -1502.68724288