 vasp.6.3.0 20Jan22 (build Dec 25 2023 18:06:01) complex
 executed on        HPECrayEX_GCC date 2024.01.26  06:22:29

 INCAR:
   SYSTEM = TiO2
   ISMEAR = 0
   SIGMA = 0.05
   EDIFF = 1E-5
   ALGO = ALL
   ISTART = 0
   IBRION = -1
   NSW = 0
   ISYM = 0
   ISIF = 2
   EDIFFG = -0.01
   DIPOL = 0.5 0.5 0.5
   IDIPOL = 3
   LDIPOL = .TRUE.
   LHFCALC = .TRUE.
   HFSCREEN = 0.2
   GGA = PE
   IVDW = 13
   VDW_S8 = 1.19528249
   VDW_A1 = 0.38663183
   VDW_A2 = 5.19133469
   ENCUT = 520
   PREC = Normal
   PRECFOCK = Fast
   LASPH = .TRUE.
   LREAL = .FALSE.
   ISPIN = 1
   NKREDX = 3
   NKREDY = 3
   NELM = 200
   NELMIN = 8
   NCORE = 2
   KPAR = 1
   LWAVE = .FALSE.
   LCHARG = .FALSE.

 POTCAR:    PAW_PBE H 15Jun2001
 POTCAR:    PAW_PBE O 08Apr2002
 POTCAR:    PAW_PBE Ti 08Apr2002
 POTCAR:    PAW_PBE O 08Apr2002
 POTCAR:    PAW_PBE H 15Jun2001
   VRHFIN =H: ultrasoft test

   TITEL  = PAW_PBE H 15Jun2001
   POMASS =    1.000; ZVAL   =    1.000    mass and valenz
   ENMAX  =  250.000; ENMIN  =  200.000 eV

   TITEL  = PAW_PBE O 08Apr2002
   POMASS =   16.000; ZVAL   =    6.000    mass and valenz
   ENMAX  =  400.000; ENMIN  =  300.000 eV

[...]

   TITEL  = PAW_PBE O 08Apr2002
   POMASS =   16.000; ZVAL   =    6.000    mass and valenz
   ENMAX  =  400.000; ENMIN  =  300.000 eV

  PAW_PBE H 15Jun2001                   :
  PAW_PBE O 08Apr2002                   :
  PAW_PBE Ti 08Apr2002                  :
  PAW_PBE O 08Apr2002                   :

 POSCAR:  H  O Ti  O
  positions in direct lattice
|           W    W    AA    RRRRR   N    N  II  N    N   GGGG   !!!           |
|           W    W   A  A   R    R  NN   N  II  NN   N  G    G  !!!           |
|           W    W  A    A  R    R  N N  N  II  N N  N  G       !!!           |
|           W WW W  AAAAAA  RRRRR   N  N N  II  N  N N  G  GGG   !            |
|           WW  WW  A    A  R   R   N   NN  II  N   NN  G    G                |
|           W    W  A    A  R    R  N    N  II  N    N   GGGG   !!!           |
|     Specifying the vdW parameters                                           |
|     VDW_S8 = 1.195                                                          |
|     VDW_A1 = 0.387                                                          |
|     VDW_A2 = 5.191                                                          |
|     in the INCAR file will overwrite the defaults for hse06. Please         |
|     make sure that is what you intended.                                    |

 ion  position               nearest neighbor table
   1  0.694  0.433  0.772-   3 0.98
   2  0.689  0.569  0.774-   3 0.98
   3  0.632  0.499  0.774-   2 0.98   1 0.98  51 2.30
   4  0.808  0.833  0.295-  88 1.94  54 1.94  56 1.94  53 1.99  55 1.99  21 3.05   7 3.05   5 3.05

   5  0.592  0.667  0.327-  52 1.94 119 1.94  55 1.94  57 1.94  56 1.99  58 1.99  36 3.05   6 3.05
                             4 3.05  10 3.08
   6  0.308  0.667  0.295- 124 1.94  58 1.94  60 1.94  52 1.99  59 1.99  39 3.05   5 3.05   7 3.05

   7  0.092  0.833  0.327-  53 1.94  91 1.94  59 1.94  61 1.94  60 1.99  54 1.99  22 3.05   4 3.05
                             6 3.05   8 3.08
   8  0.945  0.834  0.423-  62 1.92  96 1.93  64 1.94  54 1.98  63 1.98  61 2.00  11 2.99   9 3.04
                            25 3.05   7 3.08
   9  0.727  0.666  0.451-  57 1.89 127 1.93  63 1.94  65 1.96  66 1.99  64 2.00  10 3.01   8 3.04
                            40 3.05  14 3.10
  10  0.444  0.667  0.422-  66 1.93 132 1.93  68 1.93  58 1.97  67 1.99  57 2.00   9 3.01  11 3.05
                            43 3.05   5 3.08
  11  0.226  0.833  0.452-  61 1.90  99 1.94  67 1.94  62 1.97  69 1.97  68 2.01   8 2.99  26 3.05
                            10 3.05  12 3.11
  12  0.086  0.834  0.550-  70 1.92 104 1.93  72 1.94  71 1.97  69 2.01  62 2.01  15 2.95  13 3.04
                            29 3.05  11 3.11
  13  0.865  0.666  0.575-  65 1.86 135 1.93  71 1.94  74 1.95  72 2.01  73 2.01  14 2.98  12 3.04
                            44 3.05  18 3.17
  14  0.584  0.667  0.549- 140 1.93  74 1.93  76 1.93  66 1.97  75 1.98  65 2.02  13 2.98  15 3.05
                            47 3.06   9 3.10
  15  0.364  0.834  0.577-  69 1.86 107 1.94  75 1.94  70 1.95  77 2.00  76 2.02  12 2.95  30 3.05
                            14 3.05
  16  0.231  0.833  0.681-  78 1.86  80 1.93 112 1.94  79 2.00  77 2.10  70 2.10  19 2.85  33 3.07
                            17 3.09
  17  0.000  0.666  0.700-  73 1.78  81 1.84 143 1.97  79 1.98  80 2.07  18 2.86  16 3.09  48 3.10

[...]

  20  0.808  0.167  0.295-  88 1.94  86 1.94 120 1.94  85 1.99  87 1.99  21 3.05  23 3.05  37 3.05

[...]

  36  0.808  0.500  0.295-  56 1.94 120 1.94 118 1.94 119 1.99 117 1.99   5 3.05  37 3.05  39 3.05

  37  0.592  0.333  0.327- 116 1.94 119 1.94  87 1.94 121 1.94 120 1.99 122 1.99  36 3.05  38 3.05
                            20 3.05  42 3.08
  38  0.308  0.333  0.295- 124 1.94 122 1.94  92 1.94 123 1.99 116 1.99  39 3.05  37 3.05  23 3.05

  39  0.092  0.500  0.327- 117 1.94  59 1.94 123 1.94 125 1.94 124 1.99 118 1.99  38 3.05   6 3.05
                            36 3.05  40 3.07
  40  0.946  0.500  0.422- 126 1.93  64 1.93 128 1.94 118 1.97 125 1.98 127 2.00  43 2.99  41 3.05
                             9 3.05  39 3.07
  41  0.727  0.334  0.451- 121 1.89 127 1.93  95 1.94 129 1.96 130 1.99 128 2.00  42 3.01  24 3.04
                            40 3.05  46 3.10
  42  0.444  0.334  0.422- 130 1.93 132 1.93 100 1.93 122 1.97 131 1.99 121 2.01  41 3.01  27 3.05
                            43 3.05  37 3.08
  43  0.226  0.500  0.453- 125 1.92 131 1.94  67 1.94 126 1.96 133 1.97 132 2.01  40 2.99  42 3.05
                            10 3.05  44 3.07
  44  0.089  0.500  0.551- 134 1.92  72 1.93 136 1.93 133 1.98 135 2.00 126 2.01  47 2.96  45 3.05
                            13 3.05  43 3.07
  45  0.865  0.334  0.575- 129 1.86 135 1.93 103 1.94 138 1.95 136 2.01 137 2.01  46 2.98  28 3.04
                            44 3.05  50 3.16
  46  0.584  0.334  0.549- 140 1.93 138 1.93 108 1.93 130 1.97 139 1.98 129 2.02  45 2.98  31 3.05
                            47 3.06  41 3.10
  47  0.366  0.500  0.580- 133 1.92  75 1.94 139 1.94 134 1.94 141 2.00 140 2.03  44 2.96  46 3.06
                            14 3.06  48 3.14
  48  0.234  0.500  0.681- 142 1.86 144 1.93  80 1.93 143 2.03 141 2.05 134 2.10  51 2.87  17 3.10
                            49 3.10  47 3.14
  49  1.000  0.335  0.700- 137 1.78 145 1.84 143 1.97 111 1.98 144 2.07  50 2.86  32 3.09  48 3.10

  50  0.729  0.335  0.677- 145 1.90 147 1.92 115 1.94 146 1.99 138 2.03 137 2.10  49 2.86  35 3.08
                            51 3.08  45 3.16
  51  0.505  0.500  0.706- 142 1.82 141 1.86 146 1.98  82 1.98 147 2.11   3 2.30  48 2.87  50 3.08
                            18 3.08
  52  0.488  0.667  0.269-   5 1.94   6 1.99
  53  0.988  0.833  0.269-   7 1.94   4 1.99
  54  0.911  0.833  0.353-   4 1.94   8 1.98   7 1.99
  55  0.627  0.833  0.321-  21 1.94   5 1.94   4 1.99
  56  0.772  0.667  0.300-  36 1.94   4 1.94   5 1.99
  57  0.624  0.667  0.395-   9 1.89   5 1.94  10 2.00
  58  0.411  0.667  0.353-   6 1.94  10 1.97   5 1.99
  59  0.127  0.667  0.321-  39 1.94   7 1.94   6 1.99
  60  0.272  0.833  0.300-  22 1.94   6 1.94   7 1.99
  61  0.124  0.833  0.395-  11 1.90   7 1.94   8 2.00
  62  0.049  0.834  0.480-   8 1.92  11 1.97  12 2.01
  63  0.764  0.833  0.447-  25 1.94   9 1.94   8 1.98
  64  0.910  0.667  0.427-  40 1.93   8 1.94   9 2.00
  65  0.764  0.666  0.520-  13 1.86   9 1.96  14 2.02
  66  0.549  0.666  0.480-  10 1.93  14 1.97   9 1.99
  67  0.264  0.667  0.448-  43 1.94  11 1.94  10 1.99
  68  0.409  0.833  0.427-  10 1.93  26 1.93  11 2.01
  69  0.264  0.833  0.521-  15 1.86  11 1.97  12 2.01
  70  0.193  0.833  0.607-  12 1.92  15 1.95  16 2.10
  71  0.904  0.834  0.573-  29 1.94  13 1.94  12 1.97
  72  0.052  0.667  0.553-  44 1.93  12 1.94  13 2.01
  73  0.914  0.668  0.645-  17 1.78  13 2.01  18 2.10
  74  0.694  0.669  0.605-  14 1.93  13 1.95  18 2.03
  75  0.405  0.667  0.575-  47 1.94  15 1.94  14 1.98
  76  0.549  0.834  0.553-  30 1.93  14 1.93  15 2.02
  77  0.412  0.835  0.646-  19 1.78  15 2.00  16 2.10
  78  0.347  0.833  0.732-  19 1.84  16 1.86
  79  0.052  0.833  0.709-  33 1.98  17 1.98  16 2.00
  80  0.195  0.666  0.681-  16 1.93  48 1.93  17 2.07
  81  0.841  0.661  0.731-  17 1.84  18 1.89
  82  0.554  0.668  0.708-  19 1.97  51 1.98  18 1.99
  83  0.695  0.834  0.679-  34 1.93  18 1.94  19 2.06
  84  0.488  0.000  0.269-  21 1.94  22 1.99
  85  0.988  0.167  0.269-  23 1.94  20 1.99
  86  0.911  0.167  0.353-  20 1.94  24 1.98  23 1.99
  87  0.627  0.167  0.321-  21 1.94  37 1.94  20 1.99
  88  0.772  0.000  0.300-   4 1.94  20 1.94  21 1.99
  89  0.624  0.000  0.395-  25 1.89  21 1.94  26 2.00
  90  0.411  0.000  0.353-  22 1.94  26 1.98  21 1.99
  91  0.127  0.000  0.321-   7 1.94  23 1.94  22 1.99
  92  0.272  0.167  0.300-  22 1.94  38 1.94  23 1.99
  93  0.124  0.167  0.395-  27 1.90  23 1.94  24 2.00
  94  0.049  0.167  0.480-  24 1.92  27 1.97  28 2.01
  95  0.764  0.167  0.447-  25 1.94  41 1.94  24 1.98
  96  0.909  0.000  0.427-   8 1.93  24 1.93  25 2.00
  97  0.764  0.000  0.520-  29 1.86  25 1.97  30 2.01
  98  0.549  0.000  0.480-  26 1.92  25 1.98  30 2.00
  99  0.264  0.000  0.448-  27 1.94  11 1.94  26 1.99
 100  0.409  0.167  0.427-  42 1.93  26 1.93  27 2.01
 101  0.264  0.167  0.521-  31 1.86  27 1.97  28 2.01
 102  0.193  0.167  0.607-  28 1.92  31 1.95  32 2.10
 103  0.904  0.167  0.573-  29 1.94  45 1.94  28 1.97
 104  0.051  0.000  0.553-  12 1.93  28 1.93  29 2.03
 105  0.913  0.000  0.646-  33 1.78  29 2.01  34 2.09
 106  0.693  0.000  0.606-  30 1.92  29 1.94  34 2.09
 107  0.404  0.000  0.574-  15 1.94  31 1.94  30 1.98
 108  0.549  0.167  0.553-  30 1.93  46 1.93  31 2.02
 109  0.412  0.165  0.646-  35 1.78  31 2.00  32 2.10
 110  0.347  0.167  0.732-  35 1.84  32 1.86
 111  0.052  0.168  0.709-  33 1.98  49 1.98  32 2.00
[...]
 133  0.266  0.500  0.522-  47 1.92  43 1.97  44 1.98
 134  0.193  0.500  0.608-  44 1.92  47 1.94  48 2.10
 135  0.904  0.500  0.573-  45 1.93  13 1.93  44 2.00
 136  0.051  0.334  0.553-  44 1.93  28 1.94  45 2.01
 137  0.914  0.332  0.645-  49 1.78  45 2.01  50 2.10
 138  0.694  0.331  0.605-  46 1.93  45 1.95  50 2.03
 139  0.405  0.334  0.575-  47 1.94  31 1.94  46 1.98
 140  0.551  0.500  0.554-  46 1.93  14 1.93  47 2.03
 141  0.413  0.500  0.649-  51 1.86  47 2.00  48 2.05
 142  0.345  0.500  0.734-  51 1.82  48 1.86
 143  0.051  0.500  0.708-  49 1.97  17 1.97  48 2.03
 144  0.195  0.334  0.681-  32 1.93  48 1.93  49 2.07
 145  0.841  0.340  0.731-  49 1.84  50 1.90
 146  0.554  0.332  0.708-  35 1.97  51 1.98  50 1.99
 147  0.693  0.500  0.675-  18 1.92  50 1.92  51 2.11

IMPORTANT INFORMATION: All symmetrisations will be switched off!
NOSYMM: (Re-)initialisation of all symmetry stuff for point group C_1.

                                     Primitive cell

  volume of cell :    3260.9117

  direct lattice vectors                    reciprocal lattice vectors
    10.273755933  0.000000000  0.000000000     0.097335386 -0.000000000  0.000000000
[...]
   6.44590546  9.47400868  8.97095207
   7.93352867  7.57920695  8.38059392
   6.41347169  7.57920695 11.02237567
   4.22692715  7.57920695  9.85154599
   1.30902750  7.57920695  8.97095207
   2.79665070  9.47400868  8.38059392
[...]
   2.72798632  5.68568333 14.57069407
   1.98508780  5.68729208 16.96419565
   9.29013907  5.68672881 16.00732357
   0.52906972  3.79466043 15.44052830
   9.38592437  3.77762681 18.00928746
   7.13023226  3.76181742 16.89922261
   4.15794954  3.79366009 16.04769985
   5.65779448  5.68617809 15.46271414
   4.24704808  5.68812075 18.11858062
   3.54204057  5.68646205 20.49770437
   0.52904171  5.68716842 19.77764012
   1.99939348  3.79770463 19.01108495
   8.63878983  3.86148030 20.39753654
   5.69333686  3.77384739 19.75784900
   7.11528600  5.68719850 18.85003606

--------------------------------------- Iteration      FINAL  ---------------------------------------

--------------------OUTCAR has been truncated-------------------------

[...]

--------------------OUTCAR has been truncated-------------------------

  FORCE on cell =-STRESS in cart. coord.  units (eV):
  Direction    XX          YY          ZZ          XY          YZ          ZX
  Alpha Z  1542.14275  1542.14275  1542.14275
  Ewald  253441.33631251702.20466************    -2.95568     5.08402  -574.69610
  Hartree264717.89277264098.13060************    -1.06803     0.66546  -279.67282
  E(xc)   -2823.21215 -2817.70765 -2809.49675    -0.00285    -0.01416    -2.80174
  Local  ************************520762.30071     3.65054    -4.64320   870.68335
  n-local -1773.95879 -1751.27672 -1798.74254    -0.03248     0.04645    -4.27521
  augment   810.03666   805.42730   809.06732     0.02360    -0.06930    -0.87087
  Kinetic 13967.14791 14038.81130 14133.03004     0.40354    -1.18671   -10.30592
  Fock    -1302.20633 -1290.40164 -1288.73301     0.00206    -0.01247    -0.18761
  vdW       -26.68814   -28.30351   -23.50734     0.00003    -0.00205    -0.28816
  Total    -106.25331   -56.90130   -48.88797     0.02073    -0.13196    -2.41508
  in kB     -52.20523   -27.95720   -24.02003     0.01018    -0.06483    -1.18660

 VOLUME and BASIS-vectors are now :
  energy-cutoff  :      520.00
  volume of cell :     3260.91
      direct lattice vectors                 reciprocal lattice vectors
    10.273755933  0.000000000  0.000000000     0.097335386 -0.000000000  0.000000000
     0.000000000 11.368810418  0.000000000     0.000000000  0.087959950  0.000000000
     0.000000000  0.000000000 27.918672987     0.000000000  0.000000000  0.035818321

  length of vectors
    10.273755933 11.368810418 27.918672987     0.097335386  0.087959950  0.035818321

 FORCES acting on ions:
    Electron-Ion                     Ewald-Force                    Non-Local-Force
   -.499E+02 0.635E+02 -.258E+03   0.549E+02 -.697E+02 0.257E+03   -.505E+01 0.621E+01 0.434E+00
   -.463E+02 -.674E+02 -.260E+03   0.509E+02 0.739E+02 0.260E+03   -.468E+01 -.655E+01 0.835E-01
   0.466E+02 0.208E+01 -.156E+04   -.882E+02 -.381E+01 0.157E+04   0.368E+02 0.154E+01 -.920E+01
   0.102E+02 -.400E-01 0.992E+03   -.719E+01 0.428E-01 -.989E+03   0.872E+00 0.104E-02 -.191E+01
   -.153E+01 -.835E-01 0.805E+03   0.471E+00 0.863E-01 -.806E+03   -.686E+00 0.263E-03 -.865E+00
   0.102E+02 -.245E-03 0.992E+03   -.722E+01 -.651E-03 -.989E+03   0.861E+00 -.386E-04 -.191E+01
   -.205E+01 -.108E-01 0.805E+03   0.959E+00 0.723E-02 -.806E+03   -.696E+00 -.334E-03 -.868E+00
   -.615E+00 -.466E-01 0.369E+03   0.461E+00 0.298E-01 -.369E+03   0.123E+00 0.242E-02 0.233E-01
   0.335E+00 -.937E+00 0.236E+03   -.173E+00 0.956E+00 -.236E+03   -.438E-01 0.137E-01 -.131E+00
   0.229E+00 -.276E+00 0.370E+03   -.345E+00 0.284E+00 -.370E+03   0.111E+00 0.489E-02 0.406E-03
   -.197E+01 -.152E-01 0.233E+03   0.223E+01 0.112E-01 -.232E+03   -.335E-01 0.218E-02 -.123E+00
   -.297E+01 -.859E+00 -.225E+03   0.275E+01 0.820E+00 0.224E+03   0.219E+00 0.672E-02 0.138E+00
   -.549E+01 -.201E+01 -.335E+03   0.604E+01 0.208E+01 0.335E+03   -.107E+00 -.311E-01 -.193E+00
   0.276E+00 -.111E+01 -.214E+03   -.389E+00 0.111E+01 0.213E+03   0.168E+00 -.300E-02 0.819E-01
   -.258E+00 -.937E+00 -.346E+03   0.813E+00 0.925E+00 0.346E+03   -.125E+00 -.875E-02 -.213E+00
   0.889E+01 -.521E+01 -.804E+03   -.979E+01 0.525E+01 0.804E+03   0.614E+00 0.909E-02 -.427E-01
   -.360E+02 -.112E+02 -.922E+03   0.377E+02 0.111E+02 0.922E+03   0.567E-01 0.129E+00 0.716E+00
   -.607E+01 -.214E+02 -.768E+03   0.551E+01 0.215E+02 0.768E+03   0.505E+00 -.230E-01 0.604E-01
   -.219E+02 -.138E+02 -.922E+03   0.236E+02 0.138E+02 0.922E+03   0.859E-01 0.121E-01 0.741E+00
   0.102E+02 0.412E-01 0.992E+03   -.719E+01 -.440E-01 -.989E+03   0.872E+00 -.853E-03 -.191E+01
   -.158E+01 0.323E-02 0.805E+03   0.497E+00 -.371E-02 -.806E+03   -.691E+00 -.109E-04 -.869E+00
   0.102E+02 0.215E-02 0.992E+03   -.718E+01 -.240E-02 -.989E+03   0.869E+00 -.192E-04 -.191E+01
   -.205E+01 0.137E-01 0.805E+03   0.957E+00 -.115E-01 -.806E+03   -.696E+00 0.513E-03 -.869E+00
   -.643E+00 -.149E-02 0.369E+03   0.494E+00 0.104E-01 -.369E+03   0.124E+00 0.519E-03 0.231E-01
   -.918E+00 -.293E-02 0.235E+03   0.112E+01 0.704E-03 -.234E+03   -.210E-01 -.212E-03 -.131E+00
   0.300E+00 -.178E-01 0.369E+03   -.441E+00 0.163E-01 -.370E+03   0.115E+00 0.892E-03 0.910E-02
   -.195E+01 0.567E-01 0.233E+03   0.221E+01 -.518E-01 -.232E+03   -.338E-01 -.395E-02 -.123E+00
   -.303E+01 0.834E+00 -.225E+03   0.282E+01 -.802E+00 0.224E+03   0.220E+00 -.448E-02 0.138E+00
   -.453E+01 0.168E-01 -.343E+03   0.513E+01 -.168E-01 0.344E+03   -.981E-01 -.247E-03 -.191E+00
   -.109E+01 0.237E-02 -.221E+03   0.880E+00 -.310E-02 0.221E+03   0.203E+00 0.833E-04 0.148E+00
   -.227E+00 0.907E+00 -.345E+03   0.781E+00 -.896E+00 0.346E+03   -.126E+00 0.960E-02 -.214E+00
   0.899E+01 0.510E+01 -.804E+03   -.990E+01 -.513E+01 0.804E+03   0.612E+00 -.614E-02 -.423E-01
   -.295E+02 -.518E-01 -.926E+03   0.312E+02 0.511E-01 0.927E+03   0.482E-01 0.702E-03 0.702E+00
   0.262E+01 0.326E-01 -.800E+03   -.346E+01 -.303E-01 0.800E+03   0.562E+00 -.113E-02 -.563E-02
   -.220E+02 0.139E+02 -.922E+03   0.237E+02 -.139E+02 0.922E+03   0.873E-01 -.139E-01 0.744E+00
   0.102E+02 -.833E-03 0.992E+03   -.718E+01 0.119E-02 -.990E+03   0.875E+00 0.192E-03 -.191E+01
   -.154E+01 0.822E-01 0.805E+03   0.474E+00 -.853E-01 -.806E+03   -.686E+00 -.106E-03 -.865E+00
   0.102E+02 -.196E-02 0.992E+03   -.722E+01 0.329E-02 -.989E+03   0.860E+00 0.272E-03 -.191E+01
   -.222E+01 0.371E-03 0.805E+03   0.115E+01 -.738E-03 -.806E+03   -.695E+00 0.213E-03 -.839E+00
   -.369E+00 -.158E-01 0.369E+03   0.151E+00 0.123E-01 -.369E+03   0.119E+00 0.146E-02 0.460E-01
   0.404E+00 0.933E+00 0.236E+03   -.246E+00 -.952E+00 -.236E+03   -.449E-01 -.139E-01 -.130E+00
   0.198E+00 0.239E+00 0.370E+03   -.310E+00 -.250E+00 -.370E+03   0.111E+00 -.289E-02 -.108E-03
   -.255E+01 0.232E-01 0.228E+03   0.281E+01 -.221E-01 -.227E+03   -.422E-01 -.769E-03 -.397E-01
   -.181E+01 -.421E-02 -.225E+03   0.147E+01 -.102E-02 0.225E+03   0.180E+00 0.107E-02 0.154E+00
   -.543E+01 0.196E+01 -.334E+03   0.597E+01 -.203E+01 0.335E+03   -.107E+00 0.322E-01 -.190E+00
   0.285E+00 0.112E+01 -.213E+03   -.389E+00 -.112E+01 0.213E+03   0.165E+00 0.320E-02 0.795E-01
   0.161E+00 0.697E-01 -.356E+03   0.318E+00 -.690E-01 0.357E+03   -.113E+00 -.164E-02 -.780E-01
   0.143E+02 0.361E-02 -.802E+03   -.152E+02 -.119E-02 0.802E+03   0.486E+00 -.646E-03 0.393E-01
   -.360E+02 0.113E+02 -.922E+03   0.377E+02 -.113E+02 0.922E+03   0.567E-01 -.136E+00 0.719E+00
   -.630E+01 0.215E+02 -.768E+03   0.576E+01 -.217E+02 0.767E+03   0.502E+00 0.244E-01 0.653E-01
   0.127E+02 -.233E+00 -.898E+03   -.108E+02 0.230E+00 0.899E+03   -.274E+00 0.437E-02 0.409E+00
   -.654E+01 -.521E-01 0.160E+04   0.117E+02 0.530E-01 -.162E+04   -.628E+01 -.189E-02 0.166E+02
   -.682E+01 -.470E-01 0.160E+04   0.120E+02 0.468E-01 -.162E+04   -.628E+01 0.112E-02 0.166E+02
   0.434E+02 -.329E-01 0.102E+04   -.483E+02 0.925E-02 -.101E+04   0.356E+01 0.222E-01 -.420E+01
   0.313E+02 -.812E-01 0.123E+04   -.387E+02 0.859E-01 -.123E+04   0.702E+01 -.655E-02 -.254E+01
   -.425E+02 -.104E+00 0.141E+04   0.500E+02 0.104E+00 -.141E+04   -.651E+01 -.358E-02 -.246E+00
   -.356E+02 -.612E+00 0.761E+03   0.413E+02 0.645E+00 -.765E+03   -.523E+01 -.239E-01 0.412E+01
   0.442E+02 -.516E-02 0.102E+04   -.490E+02 0.142E-01 -.101E+04   0.353E+01 -.971E-02 -.402E+01
   0.306E+02 -.462E-02 0.123E+04   -.380E+02 -.242E-02 -.123E+04   0.704E+01 0.134E-01 -.255E+01
   -.426E+02 -.141E-01 0.141E+04   0.501E+02 0.178E-01 -.141E+04   -.649E+01 -.794E-02 -.251E+00
[...]
   0.445E+02 -.143E-01 -.755E+03   -.518E+02 0.238E-01 0.764E+03   0.655E+01 -.940E-02 -.724E+01
   0.319E+02 -.696E-01 -.504E+03   -.381E+02 0.871E-01 0.507E+03   0.558E+01 -.131E-01 -.301E+01
   -.434E+02 0.133E+01 -.337E+03   0.500E+02 -.141E+01 0.334E+03   -.600E+01 0.730E-01 0.263E+01
   -.490E+02 0.118E+02 -.952E+03   0.513E+02 -.125E+02 0.942E+03   -.229E+01 0.599E+00 0.938E+01
   0.412E+02 0.114E+02 -.727E+03   -.478E+02 -.121E+02 0.733E+03   0.591E+01 0.694E+00 -.537E+01
   0.418E+02 0.166E+01 -.517E+03   -.485E+02 -.179E+01 0.520E+03   0.598E+01 0.122E+00 -.321E+01
   -.354E+02 -.232E-01 -.336E+03   0.417E+02 0.291E-01 0.334E+03   -.571E+01 -.578E-02 0.211E+01
   -.211E+02 -.233E+00 -.962E+03   0.263E+02 0.274E+00 0.955E+03   -.483E+01 -.368E-01 0.681E+01
   0.694E+02 -.147E-01 -.157E+04   -.761E+02 0.491E-02 0.160E+04   0.592E+01 0.832E-02 -.202E+02
   0.140E+02 -.213E-01 -.142E+04   -.177E+02 0.298E-01 0.143E+04   0.342E+01 -.791E-02 -.705E+01
   -.200E+02 0.856E+01 -.121E+04   0.247E+02 -.845E+01 0.120E+04   -.435E+01 -.984E-01 0.295E+01
   -.312E+02 0.442E+02 -.156E+04   0.258E+02 -.439E+02 0.158E+04   0.484E+01 -.238E+00 -.183E+02
   0.551E+02 0.533E+02 -.138E+04   -.600E+02 -.533E+02 0.139E+04   0.448E+01 0.336E-01 -.651E+01
   -.331E+02 -.361E+00 -.110E+04   0.365E+02 0.355E+00 0.109E+04   -.310E+01 0.331E-02 0.503E+01
   -.471E+02 -.154E+01 0.745E+02   -.441E-12 -.512E-12 -.659E-11   0.446E+02 0.131E+01 -.670E+02

 POSITION                                       TOTAL-FORCE (eV/Angst)
      7.12601      4.92762     21.55423        -0.317124      0.317918      0.026084
      7.07816      6.46372     21.59719        -0.296952     -0.341995      0.010380
      6.49485      5.67657     21.61376         0.460189      0.023841     -0.250127
      8.29921      9.47401      8.23548         4.284479      0.004106      2.083317
      6.08023      7.57921      9.11607        -1.886065      0.003111     -2.124313
      3.16233      7.57921      8.23548         4.246597     -0.000805      2.058049
      0.94335      9.47401      9.11607        -1.931013     -0.003897     -2.127087
      9.70804      9.47696     11.79939        -0.018760     -0.000738     -0.034552
      7.46680      7.57573     12.59376         0.011751      0.002449      0.028941
      4.56313      7.57772     11.79452        -0.014866     -0.000283     -0.021062
      2.31691      9.47426     12.60946         0.023307      0.000702      0.020792
      0.88581      9.47973     15.36543        -0.004430     -0.004748     -0.025082
      8.89061      7.57665     16.05893         0.064409      0.009351      0.086127
      6.00361      7.58012     15.33207        -0.003064     -0.001727     -0.008305
      3.73970      9.47663     16.10029         0.053041      0.000615      0.064329
      2.37420      9.46848     19.00448        -0.030230      0.007343      0.002633
      0.00061      7.57079     19.54914         0.226258     -0.009055      0.083881
      7.48719      7.56984     18.89699         0.012071      0.014765      0.040939
      5.17131      9.48586     19.55488         0.221646      0.003342      0.056596
      8.29921      1.89480      8.23548         4.283905     -0.003819      2.082635
      6.08023      0.00000      9.11607        -1.913856     -0.000407     -2.121569
      3.16233      0.00000      8.23548         4.274446     -0.000220      2.076024
      0.94335      1.89480      9.11607        -1.930409      0.002927     -2.126944
      9.70775      1.89443     11.79934        -0.014803     -0.002601     -0.034086
      7.45840      0.00121     12.59926         0.017299     -0.002334      0.021770
      4.56506      0.00071     11.79888        -0.015538     -0.000892     -0.030463
      2.31702      1.89600     12.60912         0.021693     -0.001446      0.023348
      0.88555      1.89426     15.36503        -0.001894      0.002240     -0.025034
      8.87554      0.00249     16.07756         0.062067     -0.000279      0.069635
      6.01053      0.00188     15.34967        -0.009521     -0.000789     -0.022072
      3.73944      1.89581     16.10016         0.050908     -0.001328      0.062289
      2.37400      1.90629     19.00429        -0.033606     -0.007124      0.001935
      0.02796      0.00320     19.54922         0.234398     -0.000789      0.071040
      7.52089      0.00202     18.97289        -0.029142      0.001717     -0.001675
      5.17094      1.88638     19.55435         0.226223     -0.002040      0.057331
      8.29921      5.68441      8.23548         4.290800      0.000636      2.072627
      6.08023      3.78960      9.11607        -1.884390     -0.003114     -2.124111
      3.16233      3.78960      8.23548         4.245453      0.001616      2.056723
      0.94335      5.68441      9.11607        -1.894953     -0.000021     -2.059366
      9.72335      5.68586     11.79347        -0.022242     -0.000105     -0.036959
      7.46718      3.79564     12.59351         0.009455     -0.002473      0.030472
      4.56290      3.79264     11.79430        -0.012931      0.000017     -0.021041
      2.32113      5.68515     12.63847         0.017797      0.000827     -0.003213
      0.91611      5.68740     15.37096        -0.020216     -0.001155     -0.035504
      8.89151      3.79737     16.05804         0.061922     -0.011410      0.086481
      6.00291      3.79240     15.33113        -0.000530      0.002568     -0.008761
      3.76101      5.68639     16.18358         0.033384      0.000709     -0.000062
      2.40874      5.68700     19.01769        -0.038271      0.001129     -0.031099
     10.27277      3.80414     19.54998         0.221618      0.010122      0.079797
      7.48558      3.80345     18.89296         0.011495     -0.015343      0.042462
      5.18998      5.68612     19.72347         0.232189     -0.001752     -0.000889
      5.01563      7.57921      7.50000        -2.126517     -0.001420      1.521097
     10.15251      9.47401      7.50000        -2.119320      0.001312      1.514513
      9.36381      9.47401      9.85155        -0.812819      0.002032     -0.335221
      6.44591      9.47401      8.97095         0.686912     -0.002940     -0.191649
      7.93353      7.57921      8.38059         0.046912     -0.003702     -1.071890
      6.41347      7.57921     11.02238        -0.335652      0.005389      0.583682
      4.22693      7.57921      9.85155        -0.823038     -0.002279     -0.321336
      1.30903      7.57921      8.97095         0.700648      0.008751     -0.200023
      2.79665      9.47401      8.38059         0.059524     -0.005487     -1.075182
[...]
      2.72799      5.68568     14.57069        -0.275649      0.000008      0.110263
      1.98509      5.68729     16.96420         0.277196     -0.001415     -0.129725
      9.29014      5.68673     16.00732         0.262625      0.002596     -0.096411
      0.52907      3.79466     15.44053        -0.269454      0.000475      0.104172
      9.38592      3.77763     18.00929        -0.371783      0.006164     -0.093231
      7.13023      3.76182     16.89922         0.246207      0.018578     -0.122426
      4.15795      3.79366     16.04770         0.251725      0.004350     -0.112040
      5.65779      5.68618     15.46271        -0.274893     -0.000814      0.107017
      4.24705      5.68812     18.11858        -0.303912     -0.001855      0.092208
      3.54204      5.68646     20.49770         0.079713     -0.000192     -0.319552
      0.52904      5.68717     19.77764         0.205424     -0.000763     -0.174706
      1.99939      3.79770     19.01108        -0.254246      0.000522      0.143921
      8.63879      3.86148     20.39754         0.058519     -0.021420     -0.350605
      5.69334      3.77385     19.75785         0.199963     -0.000274     -0.165209
      7.11529      5.68720     18.85004        -0.223846     -0.001858      0.175215
    total drift:                                0.055295     -0.006506      0.010477

  FREE ENERGIE OF THE ION-ELECTRON SYSTEM (eV)
  free  energy   TOTEN  =     -1589.00639010 eV

  energy  without entropy=    -1589.00639010  energy(sigma->0) =    -1589.00639010