 vasp.6.3.0 20Jan22 (build Apr  1 2022 16:44:48) complex
 executed on        HPECrayEX_GCC date 2023.01.26  19:25:59

 INCAR:
   SYSTEM = MgO-rocksalt
   ISMEAR = 0
   SIGMA = 0.05
   EDIFF = 1E-6
   ALGO = ALL
   ISTART = 0
   IBRION = -1
   NSW = 0
   ISYM = 0
   DIPOL = 0.5 0.5 0.5
   IDIPOL = 3
   LDIPOL = .TRUE.
   LHFCALC = .TRUE.
   GGA = B5
   AEXX = 0.2
   AGGAX = 0.72
   AGGAC = 0.81
   ALDAC = 0.19
   IVDW = 1
   VDW_S6 = 1.05
   VDW_C6 = 1.23 0.70 0.63 0.70
   VDW_R0 = 1.397 1.342 1.243 1.342
   ENCUT = 600
   PREC = Accurate
   LASPH = .TRUE.
   LREAL = .FALSE.
   ISPIN = 1
   NELM = 200
   NELMIN = 8
   NCORE = 8
   KPAR = 1
   LWAVE = .FALSE.
   LCHARG = .FALSE.

 POTCAR:    PAW_PBE N 08Apr2002
 POTCAR:    PAW_PBE O 08Apr2002
 POTCAR:    PAW_PBE Mg_pv 13Apr2007
 POTCAR:    PAW_PBE O 08Apr2002
 POTCAR:    PAW_PBE N 08Apr2002
   VRHFIN =N: s2p3

   TITEL  = PAW_PBE N 08Apr2002
   POMASS =   14.001; ZVAL   =    5.000    mass and valenz
   ENMAX  =  400.000; ENMIN  =  300.000 eV

[...]

   TITEL  = PAW_PBE Mg_pv 13Apr2007
   POMASS =   24.305; ZVAL   =    8.000    mass and valenz
   ENMAX  =  403.929; ENMIN  =  302.947 eV

   TITEL  = PAW_PBE O 08Apr2002
   POMASS =   16.000; ZVAL   =    6.000    mass and valenz
   ENMAX  =  400.000; ENMIN  =  300.000 eV

  PAW_PBE N 08Apr2002                   :
  PAW_PBE O 08Apr2002                   :
  PAW_PBE Mg_pv 13Apr2007               :
  PAW_PBE O 08Apr2002                   :

 POSCAR:  N  O Mg  O
  positions in direct lattice
 exchange correlation table for  LEXCH =       12
   RHO(1)=    0.500       N(1)  =     2000
   RHO(2)=  100.500       N(2)  =     4000

 ion  position               nearest neighbor table
   1  0.550  0.550  0.754-   3 1.16
   2  0.702  0.702  0.754-   4 1.16
   3  0.523  0.523  0.806-   1 1.16
   4  0.730  0.730  0.806-   2 1.16
   5  0.250  0.000  0.353-  39 2.09  40 2.09  47 2.09  56 2.09  37 2.09
   6  0.500  0.250  0.353-  39 2.09  40 2.09  48 2.09  55 2.09  38 2.09
   7  0.250  0.250  0.451-  37 2.09  38 2.09  45 2.09  54 2.09  39 2.09  43 2.09
   8  0.500  0.000  0.451-  37 2.09  38 2.09  46 2.09  53 2.09  40 2.09  44 2.09
   9  0.250  0.000  0.550-  60 2.09  44 2.09  43 2.09  51 2.09  37 2.10  41 2.12
  10  0.500  0.250  0.550-  52 2.09  43 2.09  59 2.09  44 2.09  38 2.10  42 2.12
  11  0.250  0.250  0.647-  43 2.08  41 2.08  58 2.08  49 2.09  42 2.09
  12  0.500  0.001  0.647-  42 2.07  44 2.08  50 2.08  41 2.09  57 2.09
  13  0.250  0.500  0.353-  39 2.09  47 2.09  48 2.09  64 2.09  45 2.09
  14  0.500  0.750  0.353-  40 2.09  47 2.09  48 2.09  63 2.09  46 2.09
  15  0.250  0.750  0.451-  37 2.09  45 2.09  46 2.09  62 2.09  47 2.09  51 2.09
  16  0.500  0.500  0.451-  38 2.09  45 2.09  46 2.09  61 2.09  48 2.09  52 2.10
  17  0.250  0.500  0.550-  52 2.09  43 2.09  51 2.09  68 2.09  45 2.10  49 2.12
  18  0.500  0.750  0.550-  52 2.08  67 2.08  51 2.09  44 2.09  46 2.10  50 2.13
  19  0.249  0.750  0.647-  66 2.07  51 2.08  50 2.08  41 2.09  49 2.09
  20  0.498  0.498  0.649-  49 2.08  42 2.08  52 2.11  65 2.12  50 2.12
  21  0.750  0.000  0.353-  40 2.09  55 2.09  56 2.09  63 2.09  53 2.09
  22  0.000  0.250  0.353-  39 2.09  55 2.09  56 2.09  64 2.09  54 2.09
  23  0.750  0.250  0.451-  38 2.09  53 2.09  54 2.09  61 2.09  55 2.09  59 2.09
  24  0.000  0.000  0.451-  37 2.09  53 2.09  54 2.09  62 2.09  56 2.09  60 2.09
  25  0.750  1.000  0.550-  67 2.09  60 2.09  44 2.09  59 2.09  53 2.10  57 2.12
  26  0.000  0.250  0.550-  60 2.09  68 2.09  43 2.09  59 2.09  54 2.10  58 2.12
  27  0.750  0.249  0.647-  57 2.07  59 2.08  65 2.08  58 2.09  42 2.09
  28  0.000  0.000  0.647-  60 2.08  58 2.08  41 2.08  66 2.09  57 2.09
  29  0.750  0.500  0.353-  48 2.09  55 2.09  63 2.09  64 2.09  61 2.09
  30  0.000  0.750  0.353-  47 2.09  56 2.09  63 2.09  64 2.09  62 2.09
  31  0.750  0.750  0.451-  46 2.09  53 2.09  61 2.09  62 2.09  63 2.09  67 2.10
  32  0.000  0.500  0.451-  45 2.09  54 2.09  61 2.09  62 2.09  64 2.09  68 2.09
  33  0.750  0.500  0.550-  52 2.08  67 2.08  59 2.09  68 2.09  61 2.10  65 2.13
  34  1.000  0.750  0.550-  67 2.09  60 2.09  68 2.09  51 2.09  62 2.10  66 2.12
  35  0.752  0.752  0.649-  57 2.08  66 2.08  67 2.11  65 2.12  50 2.12
  36  0.001  0.500  0.647-  49 2.07  68 2.08  65 2.08  58 2.09  66 2.09
  37  0.250  0.000  0.451-   7 2.09   8 2.09  15 2.09  24 2.09   5 2.09   9 2.10
  38  0.500  0.250  0.451-   7 2.09   8 2.09  16 2.09  23 2.09   6 2.09  10 2.10
  39  0.250  0.250  0.353-   5 2.09   6 2.09  13 2.09  22 2.09   7 2.09
  40  0.500  0.000  0.353-   5 2.09   6 2.09  14 2.09  21 2.09   8 2.09
  41  0.250  0.000  0.649-  28 2.08  11 2.08  12 2.09  19 2.09   9 2.12
  42  0.500  0.249  0.649-  12 2.07  20 2.08  11 2.09  27 2.09  10 2.12
  43  0.250  0.250  0.549-  11 2.08  26 2.09   9 2.09  10 2.09  17 2.09   7 2.09
  44  0.500  1.000  0.549-  12 2.08   9 2.09  25 2.09  18 2.09  10 2.09   8 2.09
  45  0.250  0.500  0.451-   7 2.09  15 2.09  16 2.09  32 2.09  13 2.09  17 2.10
  46  0.500  0.750  0.451-   8 2.09  15 2.09  16 2.09  31 2.09  14 2.09  18 2.10
  47  0.250  0.750  0.353-   5 2.09  13 2.09  14 2.09  30 2.09  15 2.09
  48  0.500  0.500  0.353-   6 2.09  13 2.09  14 2.09  29 2.09  16 2.09
  49  0.249  0.500  0.649-  36 2.07  20 2.08  11 2.09  19 2.09  17 2.12
  50  0.498  0.752  0.650-  12 2.08  19 2.08  20 2.12  35 2.12  18 2.13
  51  0.250  0.750  0.549-  19 2.08   9 2.09  17 2.09  18 2.09  34 2.09  15 2.09
  52  0.500  0.500  0.550-  18 2.08  33 2.08  17 2.09  10 2.09  16 2.10  20 2.11
  53  0.750  0.000  0.451-   8 2.09  23 2.09  24 2.09  31 2.09  21 2.09  25 2.10
  54  0.000  0.250  0.451-   7 2.09  23 2.09  24 2.09  32 2.09  22 2.09  26 2.10
  55  0.750  0.250  0.353-   6 2.09  21 2.09  22 2.09  29 2.09  23 2.09
  56  0.000  0.000  0.353-   5 2.09  21 2.09  22 2.09  30 2.09  24 2.09
  57  0.750  0.001  0.649-  27 2.07  35 2.08  28 2.09  12 2.09  25 2.12
  58  0.000  0.250  0.649-  28 2.08  11 2.08  36 2.09  27 2.09  26 2.12
  59  0.750  0.250  0.549-  27 2.08  26 2.09  10 2.09  33 2.09  25 2.09  23 2.09
  60  0.000  0.000  0.549-  28 2.08  26 2.09   9 2.09  34 2.09  25 2.09  24 2.09
  61  0.750  0.500  0.451-  16 2.09  23 2.09  31 2.09  32 2.09  29 2.09  33 2.10
  62  0.000  0.750  0.451-  15 2.09  24 2.09  31 2.09  32 2.09  30 2.09  34 2.10
  63  0.750  0.750  0.353-  14 2.09  21 2.09  29 2.09  30 2.09  31 2.09
  64  0.000  0.500  0.353-  13 2.09  22 2.09  29 2.09  30 2.09  32 2.09
  65  0.752  0.498  0.650-  36 2.08  27 2.08  20 2.12  35 2.12  33 2.13
  66  0.001  0.750  0.649-  19 2.07  35 2.08  28 2.09  36 2.09  34 2.12
  67  0.750  0.750  0.550-  18 2.08  33 2.08  34 2.09  25 2.09  31 2.10  35 2.11
  68  1.000  0.500  0.549-  36 2.08  26 2.09  34 2.09  33 2.09  17 2.09  32 2.09

IMPORTANT INFORMATION: All symmetrisations will be switched off!
NOSYMM: (Re-)initialisation of all symmetry stuff for point group C_1.

                                     Primitive cell

  volume of cell :    1482.1129

  direct lattice vectors                    reciprocal lattice vectors
     8.349111827  0.000000000  0.000000000     0.119773219  0.000000000  0.000000000
     0.000000000  8.349111827  0.000000000     0.000000000  0.119773219  0.000000000
     0.000000000  0.000000000 21.261833870     0.000000000  0.000000000  0.047032632

  length of vectors
     8.349111827  8.349111827 21.261833870     0.119773219  0.119773219  0.047032632

  position of ions in fractional coordinates (direct lattice)
     0.549944717  0.549944781  0.753876102
     0.701699913  0.701699949  0.753648887
     0.522658297  0.522658508  0.806357877
     0.729680267  0.729680352  0.806017713
     0.250000000  0.000000000  0.352744737
     0.500000000  0.250000000  0.352744737
     0.250000000  0.250000000  0.450914912
     0.500000000  0.000000000  0.450914912
     0.250014876  0.000025136  0.549620265
     0.499989198  0.250259504  0.549770430
     0.249758639  0.249758619  0.647266642
     0.499748175  0.001023389  0.647054146
     0.250000000  0.500000000  0.352744737
     0.500000000  0.750000000  0.352744737
     0.250000000  0.750000000  0.450914912
     0.500000000  0.500000000  0.450914912
     0.250259481  0.499989292  0.549770403
     0.500324996  0.749699633  0.549829517
     0.249046953  0.750317288  0.647055375
     0.498356583  0.498356570  0.648995922
     0.750000000  0.000000000  0.352744737
     0.000000000  0.250000000  0.352744737
     0.750000000  0.250000000  0.450914912
     0.000000000  0.000000000  0.450914912
     0.750037691  0.999802294  0.549756240
     0.000025163  0.250014856  0.549620259
     0.750317271  0.249046986  0.647055399
     0.000313378  0.000313367  0.647256968
     0.750000000  0.500000000  0.352744737
     0.000000000  0.750000000  0.352744737
     0.750000000  0.750000000  0.450914912
     0.000000000  0.500000000  0.450914912
     0.749699611  0.500324946  0.549829507
     0.999802202  0.750037702  0.549756191
     0.751781551  0.751781575  0.648898556
     0.001023446  0.499748174  0.647054129
     0.250000000  0.000000000  0.450914912
     0.500000000  0.250000000  0.450914912
     0.250000000  0.250000000  0.352744737
     0.500000000  0.000000000  0.352744737
     0.249806604  0.000263612  0.649470177
     0.499861646  0.249006867  0.649310360
     0.250005538  0.250005594  0.549318529
     0.499991448  0.999813535  0.549351126
     0.250000000  0.500000000  0.450914912
     0.500000000  0.750000000  0.450914912
     0.250000000  0.750000000  0.352744737
     0.500000000  0.500000000  0.352744737
     0.249006934  0.499861603  0.649310377
     0.498415428  0.751709167  0.650041385
     0.250251023  0.750024336  0.549354645
     0.500215285  0.500215314  0.549907598
     0.750000000  0.000000000  0.450914912
     0.000000000  0.250000000  0.450914912
     0.750000000  0.250000000  0.352744737
     0.000000000  0.000000000  0.352744737
     0.750210189  0.001113803  0.649267392
     0.000263617  0.249806570  0.649470160
     0.750024346  0.250251069  0.549354642
     0.000046170  0.000046151  0.549310103
     0.750000000  0.500000000  0.450914912
     0.000000000  0.750000000  0.450914912
     0.750000000  0.750000000  0.352744737
     0.000000000  0.500000000  0.352744737
     0.751709176  0.498415453  0.650041369
     0.001113822  0.750210210  0.649267393
     0.749828331  0.749828369  0.549884890
     0.999813545  0.499991517  0.549351106

  ion indices of the primitive-cell ions
   primitive index   ion index
                 1           1
                 2           2
                 3           3
                 4           4
                 5           5
                 6           6
                 7           7
                 8           8
                 9           9
                10          10
                11          11
                12          12
                13          13
                14          14
                15          15
                16          16
                17          17
                18          18
                19          19
                20          20
                21          21
                22          22
                23          23
                24          24
[...]
   4.59154994  4.59155047 16.02878843
   5.85857105  5.85857134 16.02395743
   4.36373257  4.36373433 17.14464722
   6.09218215  6.09218286 17.13741472
   2.08727796  0.00000000  7.50000000
   4.17455591  2.08727796  7.50000000
   2.08727796  2.08727796  9.58727796
   4.17455591  0.00000000  9.58727796
   2.08740215  0.00020987 11.68593477
   4.17446573  2.08944458 11.68912754
   2.08526281  2.08526264 13.76207581
   4.17245340  0.00854439 13.75755777
   2.08727796  4.17455591  7.50000000
   4.17455591  6.26183387  7.50000000
   2.08727796  6.26183387  9.58727796
   4.17455591  4.17455591  9.58727796
   2.08944439  4.17446651 11.68912698
   4.17726934  6.25932607 11.69038384
   2.07932086  6.26448294 13.75758388
   4.16083484  4.16083473 13.79884347
   6.26183387  0.00000000  7.50000000
   0.00000000  2.08727796  7.50000000
   6.26183387  2.08727796  9.58727796
   0.00000000  0.00000000  9.58727796
   6.26214856  8.34746116 11.68882585
   0.00021009  2.08740199 11.68593465
   6.26448280  2.07932113 13.75758439
   0.00261643  0.00261634 13.76187013
   6.26183387  4.17455591  7.50000000
   0.00000000  6.26183387  7.50000000
   6.26183387  6.26183387  9.58727796
   0.00000000  4.17455591  9.58727796
   6.25932589  4.17726893 11.69038363
   8.34746039  6.26214865 11.68882480
   6.27670824  6.27670844 13.79677330
   0.00854487  4.17245339 13.75755739
   2.08727796  0.00000000  9.58727796
   4.17455591  2.08727796  9.58727796
   2.08727796  2.08727796  7.50000000
   4.17455591  0.00000000  7.50000000
   2.08566327  0.00220093 13.80892700
   4.17340078  2.07898618 13.80552900
   2.08732419  2.08732466 11.67951930
   4.17448451  8.34755501 11.68021237
   2.08727796  4.17455591  9.58727796
   4.17455591  6.26183387  9.58727796
   2.08727796  6.26183387  7.50000000
   4.17455591  4.17455591  7.50000000
   2.07898673  4.17340042 13.80552936
   4.16132615  6.27610389 13.82107194
   2.08937378  6.26203706 11.68028719
   4.17635336  4.17635359 11.69204400
   6.26183387  0.00000000  9.58727796
   0.00000000  2.08727796  9.58727796
   6.26183387  2.08727796  7.50000000
   0.00000000  0.00000000  7.50000000
   6.26358876  0.00929927 13.80461542
   0.00220097  2.08566299 13.80892664
   6.26203714  2.08937416 11.68028714
   0.00038548  0.00038532 11.67934016
   6.26183387  4.17455591  9.58727796
   0.00000000  6.26183387  9.58727796
   6.26183387  6.26183387  7.50000000
   0.00000000  4.17455591  7.50000000
   6.27610397  4.16132636 13.82107159
   0.00929943  6.26358894 13.80461544
   6.26040058  6.26040091 11.69156119
   8.34755509  4.17448509 11.68021196

--------------------------------------- Iteration      FINAL  ---------------------------------------

--------------------OUTCAR has been truncated-------------------------

[...]

--------------------OUTCAR has been truncated-------------------------

  DFT-D2 method for vdW energy calculation

  Parameters of vdW forcefield:
         C6(Jnm^6/mol)     R0(A)
   N        1.230          1.397
   O        0.700          1.342
   Mg       0.630          1.243
   O        0.700          1.342

  vdW correction parametrized for the method 6ý      

  IVDW =   1
  VDW_RADIUS =    50.000 A
  VDW_S6 =     1.050
  VDW_SR =     1.000
  VDW_D =    20.000
  LVDW_EWALD = F

  Number of pair interactions contributing to vdW energy:  836350
  Edisp (eV):   -5.54013

 VOLUME and BASIS-vectors are now :
  energy-cutoff  :      600.00
  volume of cell :     1482.11
      direct lattice vectors                 reciprocal lattice vectors
     8.349111827  0.000000000  0.000000000     0.119773219  0.000000000  0.000000000
     0.000000000  8.349111827  0.000000000     0.000000000  0.119773219  0.000000000
     0.000000000  0.000000000 21.261833870     0.000000000  0.000000000  0.047032632

  length of vectors
     8.349111827  8.349111827 21.261833870     0.119773219  0.119773219  0.047032632

 FORCES acting on ions:
    Electron-Ion                     Ewald-Force                    Non-Local-Force
   0.538E+02 0.538E+02 -.113E+04   -.532E+02 -.532E+02 0.109E+04   -.738E+00 -.738E+00 0.399E+02
   -.525E+02 -.525E+02 -.113E+04   0.516E+02 0.516E+02 0.109E+04   0.945E+00 0.945E+00 0.399E+02
   0.145E+03 0.145E+03 -.164E+04   -.160E+03 -.160E+03 0.171E+04   0.124E+02 0.124E+02 -.541E+02
   -.147E+03 -.147E+03 -.164E+04   0.161E+03 0.161E+03 0.171E+04   -.127E+02 -.127E+02 -.540E+02
   0.198E+00 -.208E+00 0.216E+04   -.199E+00 0.209E+00 -.215E+04   0.731E-03 -.906E-03 -.644E+01
   0.208E+00 0.198E+00 0.216E+04   -.209E+00 -.198E+00 -.215E+04   0.872E-03 -.193E-03 -.644E+01
   0.749E+00 0.749E+00 0.778E+03   -.753E+00 -.753E+00 -.778E+03   0.344E-02 0.344E-02 0.379E+00
   0.793E+00 -.109E+01 0.779E+03   -.800E+00 0.108E+01 -.780E+03   0.491E-02 0.789E-02 0.394E+00
   0.433E+01 -.442E+01 -.597E+03   -.434E+01 0.443E+01 0.597E+03   0.911E-02 -.114E-01 -.141E+00
   0.448E+01 0.646E+01 -.587E+03   -.450E+01 -.640E+01 0.587E+03   0.118E-01 -.574E-01 -.335E+00
   0.219E+02 0.219E+02 -.199E+04   -.220E+02 -.220E+02 0.198E+04   0.105E+00 0.105E+00 0.537E+01
   0.242E+02 -.304E+02 -.196E+04   -.243E+02 0.308E+02 0.196E+04   0.996E-01 -.345E+00 0.541E+01
   0.198E+00 0.208E+00 0.216E+04   -.198E+00 -.209E+00 -.215E+04   -.191E-03 0.867E-03 -.644E+01
   0.211E+00 -.199E+00 0.216E+04   -.211E+00 0.199E+00 -.215E+04   -.222E-03 0.292E-03 -.644E+01
   0.105E+01 -.747E+00 0.779E+03   -.104E+01 0.753E+00 -.780E+03   -.106E-01 -.436E-02 0.395E+00
   0.112E+01 0.112E+01 0.780E+03   -.111E+01 -.111E+01 -.781E+03   -.667E-02 -.667E-02 0.568E+00
   0.646E+01 0.448E+01 -.587E+03   -.640E+01 -.450E+01 0.587E+03   -.573E-01 0.118E-01 -.335E+00
   0.678E+01 -.663E+01 -.576E+03   -.672E+01 0.656E+01 0.576E+03   -.583E-01 0.678E-01 0.152E+00
   0.299E+02 -.238E+02 -.196E+04   -.303E+02 0.239E+02 0.196E+04   0.361E+00 -.982E-01 0.541E+01
   0.448E+02 0.448E+02 -.184E+04   -.456E+02 -.456E+02 0.184E+04   0.630E+00 0.630E+00 0.348E+01
   -.198E+00 -.210E+00 0.216E+04   0.199E+00 0.210E+00 -.215E+04   -.815E-03 -.368E-04 -.644E+01
   -.208E+00 0.198E+00 0.216E+04   0.209E+00 -.199E+00 -.215E+04   -.897E-03 0.734E-03 -.644E+01
   -.747E+00 0.105E+01 0.779E+03   0.753E+00 -.104E+01 -.780E+03   -.436E-02 -.106E-01 0.395E+00
   -.789E+00 -.789E+00 0.778E+03   0.797E+00 0.797E+00 -.778E+03   -.574E-02 -.576E-02 0.376E+00
   -.439E+01 -.665E+01 -.586E+03   0.440E+01 0.659E+01 0.587E+03   -.104E-01 0.515E-01 -.342E+00
   -.442E+01 0.433E+01 -.597E+03   0.443E+01 -.434E+01 0.597E+03   -.114E-01 0.911E-02 -.141E+00
   -.238E+02 0.299E+02 -.196E+04   0.239E+02 -.303E+02 0.196E+04   -.982E-01 0.361E+00 0.541E+01
   -.223E+02 -.223E+02 -.199E+04   0.225E+02 0.225E+02 0.198E+04   -.106E+00 -.106E+00 0.538E+01
   -.199E+00 0.211E+00 0.216E+04   0.199E+00 -.211E+00 -.215E+04   0.300E-03 -.219E-03 -.644E+01
   -.210E+00 -.198E+00 0.216E+04   0.210E+00 0.199E+00 -.215E+04   -.425E-04 -.823E-03 -.644E+01
   -.107E+01 -.107E+01 0.780E+03   0.106E+01 0.106E+01 -.781E+03   0.651E-02 0.651E-02 0.563E+00
   -.109E+01 0.793E+00 0.779E+03   0.108E+01 -.800E+00 -.780E+03   0.789E-02 0.492E-02 0.394E+00
   -.663E+01 0.678E+01 -.576E+03   0.656E+01 -.672E+01 0.576E+03   0.678E-01 -.582E-01 0.152E+00
   -.665E+01 -.439E+01 -.586E+03   0.659E+01 0.440E+01 0.587E+03   0.515E-01 -.104E-01 -.342E+00
   -.443E+02 -.443E+02 -.184E+04   0.450E+02 0.450E+02 0.184E+04   -.634E+00 -.634E+00 0.343E+01
   -.304E+02 0.242E+02 -.196E+04   0.308E+02 -.243E+02 0.196E+04   -.345E+00 0.996E-01 0.541E+01
   0.622E+00 -.646E+00 0.583E+03   -.625E+00 0.647E+00 -.583E+03   0.393E-02 -.210E-02 -.985E-01
   0.649E+00 0.634E+00 0.584E+03   -.651E+00 -.664E+00 -.584E+03   0.318E-02 0.379E-01 -.952E-01
   0.137E+00 0.137E+00 0.162E+04   -.139E+00 -.139E+00 -.162E+04   0.160E-02 0.158E-02 0.310E+01
   0.145E+00 -.170E+00 0.162E+04   -.147E+00 0.170E+00 -.162E+04   0.192E-02 0.153E-03 0.310E+01
   0.117E+02 -.119E+02 -.152E+04   -.117E+02 0.118E+02 0.152E+04   -.607E-01 0.608E-01 -.471E+01
   0.135E+02 0.326E+02 -.149E+04   -.134E+02 -.324E+02 0.149E+04   -.683E-01 -.181E+00 -.474E+01
   0.378E+01 0.378E+01 -.441E+03   -.378E+01 -.378E+01 0.441E+03   -.203E-02 -.203E-02 0.248E+00
   0.390E+01 -.438E+01 -.434E+03   -.389E+01 0.440E+01 0.434E+03   -.889E-02 -.249E-01 0.337E+00
   0.634E+00 0.649E+00 0.584E+03   -.664E+00 -.651E+00 -.584E+03   0.379E-01 0.318E-02 -.952E-01
   0.700E+00 -.658E+00 0.585E+03   -.735E+00 0.691E+00 -.585E+03   0.430E-01 -.409E-01 -.107E+00
   0.162E+00 -.138E+00 0.162E+04   -.162E+00 0.139E+00 -.162E+04   -.362E-03 -.155E-02 0.310E+01
   0.171E+00 0.171E+00 0.162E+04   -.171E+00 -.171E+00 -.162E+04   -.307E-03 -.321E-03 0.311E+01
   0.326E+02 0.135E+02 -.149E+04   -.324E+02 -.134E+02 0.149E+04   -.181E+00 -.683E-01 -.474E+01
   0.426E+02 -.420E+02 -.142E+04   -.423E+02 0.417E+02 0.143E+04   -.307E+00 0.305E+00 -.433E+01
   0.430E+01 -.382E+01 -.434E+03   -.432E+01 0.381E+01 0.434E+03   0.259E-01 0.886E-02 0.335E+00
   0.459E+01 0.459E+01 -.430E+03   -.462E+01 -.462E+01 0.430E+03   0.253E-01 0.253E-01 -.453E-01
   -.618E+00 -.673E+00 0.584E+03   0.619E+00 0.700E+00 -.584E+03   -.109E-02 -.338E-01 -.916E-01
   -.646E+00 0.622E+00 0.583E+03   0.647E+00 -.625E+00 -.583E+03   -.210E-02 0.393E-02 -.985E-01
   -.138E+00 0.162E+00 0.162E+04   0.139E+00 -.162E+00 -.162E+04   -.158E-02 -.349E-03 0.310E+01
   -.145E+00 -.145E+00 0.162E+04   0.147E+00 0.147E+00 -.162E+04   -.183E-02 -.185E-02 0.310E+01
   -.133E+02 -.331E+02 -.148E+04   0.132E+02 0.329E+02 0.149E+04   0.711E-01 0.182E+00 -.475E+01
   -.119E+02 0.117E+02 -.152E+04   0.118E+02 -.117E+02 0.152E+04   0.608E-01 -.607E-01 -.471E+01
   -.382E+01 0.430E+01 -.434E+03   0.381E+01 -.432E+01 0.434E+03   0.886E-02 0.259E-01 0.335E+00
   -.386E+01 -.386E+01 -.441E+03   0.386E+01 0.386E+01 0.440E+03   0.407E-02 0.407E-02 0.245E+00
   -.658E+00 0.700E+00 0.585E+03   0.691E+00 -.735E+00 -.585E+03   -.409E-01 0.430E-01 -.107E+00
   -.673E+00 -.618E+00 0.584E+03   0.700E+00 0.619E+00 -.584E+03   -.337E-01 -.108E-02 -.916E-01
   -.163E+00 -.163E+00 0.162E+04   0.163E+00 0.163E+00 -.162E+04   0.711E-03 0.703E-03 0.311E+01
   -.170E+00 0.145E+00 0.162E+04   0.170E+00 -.147E+00 -.162E+04   0.146E-03 0.193E-02 0.310E+01
   -.420E+02 0.426E+02 -.142E+04   0.417E+02 -.423E+02 0.143E+04   0.305E+00 -.307E+00 -.433E+01
   -.331E+02 -.133E+02 -.148E+04   0.329E+02 0.132E+02 0.149E+04   0.182E+00 0.711E-01 -.475E+01
   -.447E+01 -.447E+01 -.429E+03   0.449E+01 0.449E+01 0.429E+03   -.242E-01 -.242E-01 -.254E-01
   -.438E+01 0.390E+01 -.434E+03   0.440E+01 -.389E+01 0.434E+03   -.249E-01 -.889E-02 0.337E+00
   0.809E-01 0.809E-01 0.596E+02   0.142E-12 -.369E-12 -.227E-11   -.628E-01 -.629E-01 -.497E+02

 POSITION                                       TOTAL-FORCE (eV/Angst)
      4.59155      4.59155     16.02879        -0.150675     -0.150685     -0.361309
      5.85857      5.85857     16.02396         0.155377      0.155360     -0.376093
      4.36373      4.36373     17.14465        -0.183500     -0.183517      0.445464
      6.09218      6.09218     17.13741         0.170933      0.170915      0.438293
      2.08728      0.00000      7.50000        -0.000301      0.000343      0.311395
      4.17456      2.08728      7.50000        -0.000373     -0.000023      0.309264
      2.08728      2.08728      9.58728        -0.000697     -0.000695      0.046247
      4.17456      0.00000      9.58728        -0.001249     -0.002876      0.051794
      2.08740      0.00021     11.68593        -0.001488      0.001607      0.015318
      4.17447      2.08944     11.68913         0.000730      0.001634      0.020521
      2.08526      2.08526     13.76208         0.000453      0.000440      0.119225
      4.17245      0.00854     13.75756         0.000357      0.017869      0.114028
      2.08728      4.17456      7.50000        -0.000037     -0.000379      0.309351
      4.17456      6.26183      7.50000        -0.000049      0.000011      0.309654
      2.08728      6.26183      9.58728         0.004078      0.001135      0.051628
      4.17456      4.17456      9.58728         0.001734      0.001727      0.060137
      2.08944      4.17447     11.68913         0.001630      0.000737      0.020531
      4.17727      6.25933     11.69038         0.001119     -0.001040      0.003027
      2.07932      6.26448     13.75758        -0.016631      0.000077      0.114006
      4.16083      4.16083     13.79884        -0.017976     -0.017976      0.138935
      6.26183      0.00000      7.50000         0.000333      0.000113      0.309074
      0.00000      2.08728      7.50000         0.000374     -0.000278      0.311487
      6.26183      2.08728      9.58728         0.001130      0.004095      0.051659
      0.00000      0.00000      9.58728         0.001678      0.001661      0.045859
      6.26215      8.34746     11.68883        -0.000311     -0.000027      0.020561
      0.00021      2.08740     11.68593         0.001598     -0.001480      0.015315
      6.26448      2.07932     13.75758         0.000079     -0.016616      0.114009
      0.00262      0.00262     13.76187        -0.000178     -0.000184      0.118354
      6.26183      4.17456      7.50000         0.000018     -0.000043      0.309659
      0.00000      6.26183      7.50000         0.000125      0.000333      0.309120
      6.26183      6.26183      9.58728        -0.001518     -0.001521      0.058965
      0.00000      4.17456      9.58728        -0.002880     -0.001244      0.051758
      6.25933      4.17727     11.69038        -0.001030      0.001124      0.003030
      8.34746      6.26215     11.68882        -0.000018     -0.000311      0.020576
      6.27671      6.27671     13.79677         0.018836      0.018829      0.140690
      0.00854      4.17245     13.75756         0.017863      0.000365      0.114004
      2.08728      0.00000      9.58728         0.001637     -0.001126      0.052712
      4.17456      2.08728      9.58728         0.001668      0.012963      0.073195
      2.08728      2.08728      7.50000         0.000570      0.000502     -0.593173
      4.17456      0.00000      7.50000         0.000600      0.000125     -0.592044
      2.08566      0.00220     13.80893         0.004496     -0.004574      0.015171
      4.17340      2.07899     13.80553         0.003625      0.004414      0.005704
      2.08732      2.08732     11.67952         0.001117      0.001117      0.007716
      4.17448      8.34756     11.68021         0.001716     -0.007561      0.007004
      2.08728      4.17456      9.58728         0.012944      0.001678      0.073222
      4.17456      6.26183      9.58728         0.014401     -0.013719      0.074863
      2.08728      6.26183      7.50000        -0.000133     -0.000452     -0.591989
      4.17456      4.17456      7.50000        -0.000117     -0.000188     -0.591398
      2.07899      4.17340     13.80553         0.004397      0.003631      0.005714
      4.16133      6.27610     13.82107        -0.015159      0.013079     -0.031809
      2.08937      6.26204     11.68029         0.006461     -0.000353      0.005892
      4.17635      4.17635     11.69204         0.005721      0.005723      0.010878
      6.26183      0.00000      9.58728        -0.001014     -0.011660      0.072918
      0.00000      2.08728      9.58728        -0.001115      0.001666      0.052722
      6.26183      2.08728      7.50000        -0.000556     -0.000100     -0.592012
      0.00000      0.00000      7.50000        -0.000559     -0.000606     -0.592989
      6.26359      0.00930     13.80462        -0.003052     -0.005428      0.006123
      0.00220      2.08566     13.80893        -0.004564      0.004516      0.015173
      6.26204      2.08937     11.68029        -0.000353      0.006471      0.005894
      0.00039      0.00039     11.67934        -0.001855     -0.001870      0.007447
      6.26183      4.17456      9.58728        -0.013700      0.014411      0.074866
      0.00000      6.26183      9.58728        -0.011651     -0.001021      0.072903
      6.26183      6.26183      7.50000         0.000279      0.000267     -0.591193
      0.00000      4.17456      7.50000         0.000062      0.000623     -0.591957
      6.27610      4.16133     13.82107         0.013086     -0.015150     -0.031812
      0.00930      6.26359     13.80462        -0.005419     -0.003053      0.006132
      6.26040      6.26040     11.69156        -0.005502     -0.005517      0.011579
      8.34756      4.17449     11.68021        -0.007565      0.001715      0.007011
    total drift:                               -0.000199     -0.000290      0.015659

  FREE ENERGIE OF THE ION-ELECTRON SYSTEM (eV)
  free  energy   TOTEN  =      -471.15107925 eV

  energy  without entropy=     -471.15107925  energy(sigma->0) =     -471.15107925