 vasp.6.3.0 20Jan22 (build Mar 11 2022 13:48:16) complex

 executed on             LinuxIFC date 2024.02.16  01:32:34

 INCAR:
   SYSTEM = Oxide-Surface
   ISMEAR = 0
   SIGMA = 0.05
   EDIFF = 1E-5
   ALGO = ALL
   ISTART = 0
   IBRION = -1
   NSW = 0
   ISYM = 2
   DIPOL = 0.5 0.5 0.5
   IDIPOL = 3
   LDIPOL = .TRUE.
   GGA = MK
   LUSE_VDW = .TRUE.
   PARAM1 = 0.1234
   PARAM2 = 0.711357
   ZAB_VDW = -1.8867
   AGGAC = 0.0
   ENCUT = 600
   PREC = Accurate
   LASPH = .TRUE.
   LREAL = .FALSE.
   ISPIN = 1
   NELM = 200
   NELMIN = 8
   NCORE = 19
   KPAR = 1
   LWAVE = .FALSE.
   LCHARG = .FALSE.

 POTCAR:    PAW_PBE H 15Jun2001
 POTCAR:    PAW_PBE O 08Apr2002
 POTCAR:    PAW_PBE Ti_pv 07Sep2000
 POTCAR:    PAW_PBE O 08Apr2002
|               ----> ADVICE to this user running VASP <----                  |
|     You have switched on vdW-DFT.                                           |
|     This routine was written and supplied by Jiri Klimes. We recommend      |
|     that you carefully read and cite the following publications:            |
|       J. Klimes, D.R. Bowler, A. Michelides                                 |
|          J. Phys.: Cond Matt. 22 022201 (2010)                              |
|       J. Klimes, D.R. Bowler, A. Michelides                                 |
|          Phys. Rev. B. 83, 195131 (2011)                                    |
|     and references therein.                                                 |

   TITEL  = PAW_PBE H 15Jun2001
   POMASS =    1.000; ZVAL   =    1.000    mass and valenz
   ENMAX  =  250.000; ENMIN  =  200.000 eV

   TITEL  = PAW_PBE O 08Apr2002
   POMASS =   16.000; ZVAL   =    6.000    mass and valenz
   ENMAX  =  400.000; ENMIN  =  300.000 eV

   TITEL  = PAW_PBE Ti_pv 07Sep2000
   POMASS =   47.880; ZVAL   =   10.000    mass and valenz
   ENMAX  =  222.335; ENMIN  =  166.751 eV

   TITEL  = PAW_PBE O 08Apr2002
   POMASS =   16.000; ZVAL   =    6.000    mass and valenz
   ENMAX  =  400.000; ENMIN  =  300.000 eV

  PAW_PBE H 15Jun2001                   :
  PAW_PBE O 08Apr2002                   :
  PAW_PBE Ti_pv 07Sep2000               :
  PAW_PBE O 08Apr2002                   :

 POSCAR:  H  O Ti  O
  positions in direct lattice
 exchange correlation table for  LEXCH =       43
   RHO(1)=    0.500       N(1)  =     2000
   RHO(2)=  100.500       N(2)  =     4000

 ion  position               nearest neighbor table
   1  0.511  0.550  0.802-   3 0.97
   2  0.614  0.496  0.783-   3 1.00
   3  0.537  0.491  0.783-   1 0.97   2 1.00  83 2.23
   4  0.750  0.625  0.287-  85 1.95 145 1.95 144 1.95  84 1.95  87 1.98 166 1.98  14 2.96  34 2.96

   5  0.000  0.750  0.287-  86 1.95  87 1.95 106 1.95 107 1.95  88 1.98  35 2.96  15 2.96
   6  0.000  0.625  0.394-  88 1.95 148 1.95  89 1.95 149 1.95  90 1.98  91 1.98  16 2.96  36 2.96

[...]

  84  0.750  0.750  0.245-   4 1.95  14 1.95
  85  0.750  0.750  0.329-   4 1.95  14 1.95   7 1.98
  86  0.098  0.625  0.287-   5 1.95  35 1.95  44 1.98
  87  0.902  0.625  0.287-   5 1.95  35 1.95   4 1.98
  88  0.000  0.750  0.352-   6 1.95  16 1.95   5 1.98
  89  0.000  0.750  0.435-   6 1.95  16 1.95   9 1.98
  90  0.848  0.625  0.394-   7 1.95  37 1.95   6 1.98
  91  0.152  0.625  0.394-  47 1.95  77 1.95   6 1.98
  92  0.750  0.750  0.458-   8 1.95  18 1.95   7 1.98
  93  0.750  0.750  0.542-   8 1.95  18 1.95  11 2.10
  94  0.098  0.625  0.500-   9 1.95  39 1.95  48 1.98
  95  0.902  0.625  0.500-   9 1.95  39 1.95   8 1.98
  96  0.001  0.750  0.565-  20 1.90  10 1.90   9 2.00
  97  0.000  0.750  0.649-  13 1.81  10 2.02  20 2.02
  98  0.851  0.625  0.607-  11 1.93  41 1.93  10 2.03
  99  0.151  0.625  0.607-  10 1.87  51 2.02  81 2.02
 100  0.754  0.751  0.671-  11 1.87  12 2.08  22 2.09
 101  0.750  0.749  0.756-  12 1.83  22 1.84
 102  0.095  0.625  0.719-  43 1.94  13 1.95  52 2.03
 103  0.907  0.624  0.720-  43 1.95  13 1.96  12 2.02
 104  0.750  0.000  0.245-  14 1.95  24 1.95
 105  0.750  0.000  0.329-  14 1.95  24 1.95  17 1.98
 106  0.098  0.875  0.287-   5 1.95  15 1.95  54 1.98
 107  0.902  0.875  0.287-   5 1.95  15 1.95  14 1.98
 108  0.000  0.000  0.352-  16 1.95  26 1.95  15 1.98
 109  0.000  0.000  0.435-  16 1.95  26 1.95  19 1.98
 110  0.848  0.875  0.394-   7 1.95  17 1.95  16 1.98
 111  0.152  0.875  0.394-  47 1.95  57 1.95  16 1.98
 112  0.750  0.000  0.458-  18 1.95  28 1.95  17 1.98
 113  0.750  0.000  0.542-  18 1.95  28 1.95  21 2.10
 114  0.098  0.875  0.500-   9 1.95  19 1.95  58 1.98
 115  0.902  0.875  0.500-   9 1.95  19 1.95  18 1.98
 116  0.001  1.000  0.565-  30 1.90  20 1.90  19 2.00
 117  0.000  1.000  0.649-  23 1.81  20 2.02  30 2.02
 118  0.851  0.875  0.607-  21 1.93  11 1.93  20 2.04
 119  0.151  0.875  0.607-  20 1.87  51 2.02  61 2.02
 120  0.752  1.000  0.672-  21 1.87  32 2.09  22 2.10
 121  0.751  1.000  0.756-  32 1.83  22 1.84
 122  0.095  0.875  0.718-  13 1.94  23 1.95  62 2.04
 123  0.907  0.875  0.719-  13 1.94  23 1.95  22 2.04
 124  0.750  0.250  0.245-  24 1.95  34 1.95
 125  0.750  0.250  0.329-  24 1.95  34 1.95  27 1.98
 126  0.098  0.125  0.287-  15 1.95  25 1.95  64 1.98
 127  0.902  0.125  0.287-  15 1.95  25 1.95  24 1.98
 128  0.000  0.250  0.352-  26 1.95  36 1.95  25 1.98
 129  0.000  0.250  0.435-  26 1.95  36 1.95  29 1.98
 130  0.848  0.125  0.394-  17 1.95  27 1.95  26 1.98
 131  0.152  0.125  0.394-  57 1.95  67 1.95  26 1.98
 132  0.750  0.250  0.458-  28 1.95  38 1.95  27 1.98
 133  0.750  0.250  0.542-  28 1.95  38 1.95  31 2.10
 134  0.098  0.125  0.500-  19 1.95  29 1.95  68 1.98
 135  0.902  0.125  0.500-  19 1.95  29 1.95  28 1.98
 136  0.001  0.250  0.565-  40 1.90  30 1.90  29 2.00
 137  0.000  0.250  0.649-  33 1.81  40 2.02  30 2.02
 138  0.851  0.125  0.607-  21 1.93  31 1.93  30 2.04
 139  0.151  0.125  0.607-  30 1.87  61 2.02  71 2.02
 140  0.754  0.250  0.671-  31 1.87  42 2.07  32 2.10
 141  0.750  0.251  0.756-  42 1.83  32 1.84
 142  0.095  0.125  0.719-  33 1.94  23 1.95  72 2.04
 143  0.907  0.125  0.719-  33 1.94  23 1.95  32 2.04
[...]
 229  0.500  0.500  0.435-  46 1.95  76 1.95  79 1.98
 230  0.348  0.375  0.394-  67 1.95  77 1.95  76 1.98
 231  0.652  0.375  0.394-  27 1.95  37 1.95  76 1.98
 232  0.250  0.500  0.458-  48 1.95  78 1.95  77 1.98
 233  0.250  0.500  0.542-  48 1.95  78 1.95  81 2.11
 234  0.598  0.375  0.500-  69 1.95  79 1.95  38 1.98
 235  0.402  0.375  0.500-  69 1.95  79 1.95  78 1.98
 236  0.501  0.500  0.566-  50 1.90  80 1.90  79 2.00
 237  0.500  0.500  0.650-  83 1.89  50 1.99  80 1.99
 238  0.350  0.375  0.607-  71 1.92  81 1.93  80 2.04
 239  0.651  0.375  0.608-  80 1.87  31 2.02  41 2.02
 240  0.251  0.500  0.672-  81 1.86  52 2.09  82 2.10
 241  0.252  0.500  0.756-  82 1.84  52 1.84
 242  0.598  0.371  0.714-  73 1.92  83 1.96  42 2.02
 243  0.407  0.374  0.718-  83 1.93  73 1.94  82 2.03

  LATTYP: Found a simple orthorhombic cell.
 ALAT       =    11.8303781148
 B/A-ratio  =     1.0992024327
 C/A-ratio  =     2.5825673970

  Lattice vectors:

 A1 = (   0.0000000000, -11.8303781148,   0.0000000000)
 A2 = (  13.0039804036,   0.0000000000,   0.0000000000)
 A3 = (   0.0000000000,   0.0000000000,  30.5527488131)

Analysis of symmetry for initial positions (statically):
 Subroutine PRICEL returns:
 Original cell was already a primitive cell.

 Routine SETGRP: Setting up the symmetry group for a
 simple orthorhombic supercell.

 Subroutine GETGRP returns: Found  1 space group operations
 (whereof  1 operations were pure point group operations)
 out of a pool of  8 trial point group operations.

The static configuration has the point symmetry C_1 .

Analysis of symmetry for dynamics (positions and initial velocities):
 Subroutine PRICEL returns:
 Original cell was already a primitive cell.

[...]

The dynamic configuration has the point symmetry C_1 .

Analysis of constrained symmetry for selective dynamics:
 Subroutine PRICEL returns:
 Original cell was already a primitive cell.

 Routine SETGRP: Setting up the symmetry group for a
 simple orthorhombic supercell.

 Subroutine GETGRP returns: Found  1 space group operations
 (whereof  1 operations were pure point group operations)
 out of a pool of  8 trial point group operations.

The constrained configuration has the point symmetry C_1 .

 Subroutine INISYM returns: Found  1 space group operations
 (whereof  1 operations are pure point group operations),
 and found     1 'primitive' translations

                                     Primitive cell

  volume of cell :    4700.2961

  direct lattice vectors                    reciprocal lattice vectors
    13.003980404  0.000000000  0.000000000     0.076899531  0.000000000  0.000000000
     0.000000000 11.830378115  0.000000000     0.000000000  0.084528152  0.000000000
     0.000000000  0.000000000 30.552748813     0.000000000  0.000000000  0.032730279

  length of vectors
    13.003980404 11.830378115 30.552748813     0.076899531  0.084528152  0.032730279

  position of ions in fractional coordinates (direct lattice)
     0.510874486  0.549744949  0.802031162
     0.613779755  0.496082292  0.783151407
     0.537360385  0.491119463  0.782809003
     0.750000000  0.625000000  0.287188045
     0.000000000  0.750000000  0.287188045
     0.000000000  0.625000000  0.393594023
     0.750000000  0.750000000  0.393594023
     0.750000000  0.625000000  0.500000000
     0.000000000  0.750000000  0.500000000
     0.007153851  0.625014308  0.604051248
     0.756304002  0.750075782  0.610262489
     0.751644692  0.625562917  0.719252858
     0.000794862  0.750172552  0.708180947
     0.750000000  0.875000000  0.287188045
     0.000000000  0.000000000  0.287188045
     0.000000000  0.875000000  0.393594023
     0.750000000  0.000000000  0.393594023
     0.750000000  0.875000000  0.500000000
     0.000000000  0.000000000  0.500000000
     0.007277969  0.874988203  0.604120477
     0.755823970  0.999936719  0.610540702
     0.750558456  0.874801778  0.720210742
     0.000972366  0.999860664  0.708137749
     0.750000000  0.125000000  0.287188045
     0.000000000  0.250000000  0.287188045
     0.000000000  0.125000000  0.393594023
     0.750000000  0.250000000  0.393594023
     0.750000000  0.125000000  0.500000000
     0.000000000  0.250000000  0.500000000
     0.007298258  0.124917644  0.604100230
     0.756284959  0.249808457  0.610237489
     0.750454270  0.124164987  0.720199614
     0.000891816  0.249547152  0.708163781
     0.750000000  0.375000000  0.287188045
     0.000000000  0.500000000  0.287188045
     0.000000000  0.375000000  0.393594023
     0.750000000  0.500000000  0.393594023
     0.750000000  0.375000000  0.500000000
     0.000000000  0.500000000  0.500000000
     0.007178713  0.374943068  0.604052437
     0.756563247  0.499958319  0.610421053
     0.752182607  0.373375021  0.719287257
     0.001629605  0.499997807  0.708113155
     0.250000000  0.625000000  0.287188045
     0.500000000  0.750000000  0.287188045
     0.500000000  0.625000000  0.393594023
     0.250000000  0.750000000  0.393594023
     0.250000000  0.625000000  0.500000000
     0.500000000  0.750000000  0.500000000
     0.507320083  0.622908111  0.605197857
     0.256313719  0.749863999  0.610535728
[...]
   6.52183823  8.87333355 21.60077441
   3.25099510 10.35158085  8.77438420
   6.50199020  0.00000000  8.77438420
   6.50199020 10.35158085 12.02537931
   3.25099510  0.00000000 12.02537931
   3.25099510 10.35158085 15.27637441
   6.50199020  0.00000000 15.27637441
   6.59416132 10.34079094 18.42793685
[...]
   6.50199020  5.91518906 13.29976351
   4.52537931  4.43639179 12.02537931
   8.47860110  4.43639179 12.02537931
   3.25099510  5.91518906 14.00199020
   3.25099510  5.91518906 16.55075861
   7.77637441  4.43639179 15.27637441
   5.22760600  4.43639179 15.27637441
   6.51652066  5.91257270 17.27858557
   6.49826037  5.91976437 19.84679497
   4.55648910  4.43632980 18.54880961
   8.46982977  4.43628671 18.56617343
   3.26636971  5.91968500 20.51973890
   3.28156347  5.91325178 23.09082935
   7.77014049  4.39492022 21.81607944
   5.29698819  4.42315432 21.93299817

--------------------------------------- Iteration      FINAL  ---------------------------------------

--------------------OUTCAR has been truncated-------------------------

[...]

--------------------OUTCAR has been truncated-------------------------

  FORCE on cell =-STRESS in cart. coord.  units (eV):
  Direction    XX          YY          ZZ          XY          YZ          ZX
  Alpha Z  4685.90249  4685.90249  4685.90249
  Ewald  979554.02592996997.29157************   -25.82525    39.48440   -37.36920
  Hartree************************************    -6.69033     7.21446   -21.41161
  E(xc)   -8644.13413 -8639.07976 -8641.11535    -0.07638     0.15446    -0.13126
  Local  ************************************    26.51786   -35.08190    54.73368
  n-local -5496.03860 -5421.83342 -5538.90884    -0.32001     0.07696    -0.06525
  augment  5256.02215  5232.50497  5262.15263     0.38115    -0.78921     0.05731
  Kinetic 28739.99541 28286.70786 28796.17724     5.95161   -10.90209     4.07813
  Fock        0.00000     0.00000     0.00000     0.00000     0.00000     0.00000
  Total      43.35144    -8.64192    -6.49213    -0.06134     0.15707    -0.10820
  in kB      14.77709    -2.94575    -2.21295    -0.02091     0.05354    -0.03688

 VOLUME and BASIS-vectors are now :
  energy-cutoff  :      600.00
  volume of cell :     4700.30
      direct lattice vectors                 reciprocal lattice vectors
    13.003980404  0.000000000  0.000000000     0.076899531  0.000000000  0.000000000
     0.000000000 11.830378115  0.000000000     0.000000000  0.084528152  0.000000000
     0.000000000  0.000000000 30.552748813     0.000000000  0.000000000  0.032730279

  length of vectors
    13.003980404 11.830378115 30.552748813     0.076899531  0.084528152  0.032730279

 FORCES acting on ions:
    Electron-Ion                     Ewald-Force                    Non-Local-Force
   0.343E+02 -.616E+02 -.453E+03   -.376E+02 0.676E+02 0.458E+03   0.319E+01 -.590E+01 -.514E+01
   -.635E+02 -.243E+01 -.436E+03   0.714E+02 0.265E+01 0.436E+03   -.771E+01 -.243E+00 -.980E-02
   0.530E+02 0.401E+02 -.258E+04   -.720E+02 -.722E+02 0.256E+04   0.188E+02 0.320E+02 0.145E+02
   -.107E+00 -.153E-01 0.380E+04   0.103E+00 0.155E-01 -.380E+04   0.956E-03 -.159E-05 0.371E+00
   -.500E-01 -.301E-01 0.398E+04   0.513E-01 0.302E-01 -.397E+04   -.239E-03 -.143E-04 -.370E+01
   -.142E+00 -.483E-01 0.194E+04   0.148E+00 0.484E-01 -.194E+04   -.932E-03 0.701E-04 -.411E-01
   -.339E+00 -.991E-02 0.193E+04   0.330E+00 0.102E-01 -.193E+04   0.249E-02 0.520E-04 0.199E+00
   -.130E+01 -.119E+00 0.212E+01   0.126E+01 0.104E+00 -.136E+01   0.106E-01 0.659E-03 -.124E+00
   0.153E+01 -.657E+00 0.109E+02   -.153E+01 0.660E+00 -.119E+02   0.528E-03 -.215E-02 0.332E+00
   0.135E+02 -.183E+01 -.187E+04   -.137E+02 0.184E+01 0.187E+04   0.572E-01 -.748E-02 0.820E-01
   0.370E+01 -.713E+01 -.193E+04   -.376E+01 0.714E+01 0.193E+04   -.356E-01 -.805E-02 -.548E-01
   -.685E+02 -.172E+02 -.375E+04   0.684E+02 0.171E+02 0.374E+04   0.153E+00 0.132E+00 0.389E-01
   -.519E+01 -.233E+01 -.379E+04   0.523E+01 0.232E+01 0.379E+04   -.405E-01 -.110E-01 0.841E+00
   -.117E+00 -.200E-01 0.380E+04   0.114E+00 0.202E-01 -.380E+04   0.101E-02 0.417E-05 0.371E+00
   -.476E-01 -.232E-02 0.398E+04   0.488E-01 0.238E-02 -.397E+04   -.237E-03 -.698E-05 -.370E+01
   -.111E+00 -.611E-01 0.194E+04   0.116E+00 0.609E-01 -.194E+04   -.911E-03 0.456E-04 -.410E-01
   -.429E+00 -.154E-01 0.193E+04   0.420E+00 0.151E-01 -.193E+04   0.238E-02 -.994E-05 0.199E+00
   -.264E+01 -.462E+00 0.115E+01   0.262E+01 0.485E+00 -.382E+00   0.831E-02 -.797E-03 -.126E+00
   0.193E+01 -.325E-01 0.100E+02   -.193E+01 0.296E-01 -.111E+02   0.666E-03 0.130E-02 0.329E+00
   0.163E+02 -.146E+01 -.188E+04   -.166E+02 0.147E+01 0.188E+04   0.585E-01 -.649E-02 0.891E-01
   0.544E+01 0.307E-01 -.194E+04   -.549E+01 -.277E-01 0.194E+04   -.445E-01 -.215E-02 -.618E-01
   -.153E+02 -.164E+02 -.378E+04   0.153E+02 0.164E+02 0.378E+04   0.536E-01 0.964E-02 -.791E-01
   -.461E+01 0.305E+00 -.380E+04   0.459E+01 -.303E+00 0.380E+04   0.221E-01 -.127E-02 0.878E+00
   -.116E+00 0.153E-01 0.380E+04   0.112E+00 -.156E-01 -.380E+04   0.983E-03 0.192E-04 0.371E+00
   -.502E-01 0.301E-01 0.398E+04   0.515E-01 -.302E-01 -.397E+04   -.247E-03 0.164E-04 -.370E+01
   -.111E+00 0.509E-01 0.194E+04   0.116E+00 -.509E-01 -.194E+04   -.958E-03 -.599E-04 -.410E-01
   -.320E+00 0.931E-02 0.193E+04   0.311E+00 -.954E-02 -.193E+04   0.241E-02 -.600E-04 0.200E+00
   -.258E+01 0.383E+00 0.115E+01   0.255E+01 -.412E+00 -.387E+00   0.896E-02 0.148E-02 -.125E+00
   0.156E+01 0.633E+00 0.109E+02   -.156E+01 -.635E+00 -.120E+02   0.159E-03 0.210E-02 0.333E+00
   0.170E+02 0.154E+01 -.188E+04   -.173E+02 -.154E+01 0.188E+04   0.617E-01 0.734E-02 0.878E-01
   0.349E+01 0.682E+01 -.193E+04   -.355E+01 -.682E+01 0.193E+04   -.365E-01 0.283E-02 -.615E-01
   -.154E+02 0.143E+02 -.378E+04   0.154E+02 -.142E+02 0.378E+04   0.562E-01 -.202E-01 -.829E-01
   -.468E+01 0.221E+01 -.379E+04   0.470E+01 -.220E+01 0.379E+04   -.346E-01 0.659E-02 0.839E+00
   -.105E+00 0.201E-01 0.380E+04   0.102E+00 -.202E-01 -.380E+04   0.953E-03 -.101E-04 0.371E+00
   -.526E-01 0.237E-02 0.398E+04   0.539E-01 -.241E-02 -.397E+04   -.258E-03 0.125E-04 -.370E+01
   -.143E+00 0.587E-01 0.194E+04   0.149E+00 -.585E-01 -.194E+04   -.968E-03 -.115E-03 -.410E-01
   -.232E+00 0.160E-01 0.193E+04   0.224E+00 -.157E-01 -.193E+04   0.225E-02 -.194E-04 0.199E+00
   -.121E+01 0.206E+00 0.203E+01   0.116E+01 -.184E+00 -.127E+01   0.109E-01 -.954E-03 -.123E+00
   0.137E+01 -.834E-02 0.118E+02   -.137E+01 0.831E-02 -.128E+02   -.377E-03 0.365E-03 0.331E+00
   0.139E+02 0.191E+01 -.187E+04   -.141E+02 -.191E+01 0.187E+04   0.560E-01 0.435E-02 0.863E-01
   0.242E+01 -.173E-01 -.192E+04   -.244E+01 0.180E-01 0.192E+04   -.773E-01 -.151E-02 -.505E-01
   -.685E+02 0.140E+02 -.374E+04   0.684E+02 -.137E+02 0.374E+04   0.108E+00 -.168E+00 0.409E-01
   -.729E+01 0.247E+00 -.379E+04   0.726E+01 -.251E+00 0.379E+04   0.351E-01 0.213E-02 0.796E+00
   0.101E+00 -.115E-01 0.380E+04   -.976E-01 0.114E-01 -.380E+04   -.875E-03 0.782E-05 0.371E+00
   0.558E-01 -.135E-01 0.398E+04   -.570E-01 0.138E-01 -.397E+04   0.245E-03 -.437E-04 -.370E+01
   0.276E+00 0.129E+00 0.194E+04   -.280E+00 -.118E+00 -.194E+04   0.490E-03 -.239E-02 -.426E-01
   0.210E+00 0.350E-01 0.193E+04   -.202E+00 -.347E-01 -.193E+04   -.136E-02 -.359E-04 0.196E+00
   -.109E+00 0.113E+00 -.935E-01   0.156E+00 -.125E+00 0.906E+00   -.676E-02 0.693E-03 -.134E+00
   0.349E+01 0.108E+01 0.142E+02   -.351E+01 -.116E+01 -.151E+02   0.370E-02 0.372E-01 0.265E+00
   0.208E+02 -.115E+02 -.187E+04   -.210E+02 0.116E+02 0.187E+04   0.433E-01 -.853E-01 0.537E-01
   0.181E+02 -.491E+01 -.194E+04   -.182E+02 0.491E+01 0.194E+04   -.460E-01 0.603E-02 -.570E-01
   0.368E+02 -.141E+02 -.376E+04   -.369E+02 0.141E+02 0.376E+04   0.638E-01 0.569E-02 -.104E+00
   0.197E+02 -.546E+02 -.375E+04   -.196E+02 0.547E+02 0.375E+04   -.128E+00 -.431E-01 0.949E+00
   0.111E+00 -.163E-01 0.380E+04   -.108E+00 0.165E-01 -.380E+04   -.917E-03 0.456E-05 0.371E+00
   0.535E-01 -.460E-02 0.398E+04   -.547E-01 0.463E-02 -.397E+04   0.242E-03 0.303E-06 -.370E+01
   0.248E+00 0.806E-01 0.194E+04   -.253E+00 -.799E-01 -.194E+04   0.582E-03 -.114E-02 -.431E-01
   0.295E+00 -.175E-01 0.193E+04   -.287E+00 0.173E-01 -.193E+04   -.143E-02 0.547E-04 0.196E+00
   0.963E+00 -.142E-01 -.364E+00   -.929E+00 0.186E-01 0.117E+01   -.236E-02 -.635E-03 -.132E+00
   0.305E+01 -.240E+00 0.173E+02   -.309E+01 0.237E+00 -.183E+02   0.106E-01 0.474E-03 0.294E+00
   0.173E+02 -.103E+02 -.185E+04   -.175E+02 0.104E+02 0.185E+04   0.409E-01 -.228E-01 -.462E-01
[...]
   -.532E+02 -.308E-01 0.116E+04   0.572E+02 0.301E-01 -.116E+04   -.352E+01 0.844E-03 0.153E+00
   0.533E+02 -.184E-01 0.116E+04   -.573E+02 0.178E-01 -.116E+04   0.353E+01 0.762E-03 0.159E+00
   -.428E-01 0.341E-01 0.508E+03   0.639E-01 -.344E-01 -.512E+03   -.308E-01 0.559E-03 0.412E+01
   0.251E+01 0.197E+00 -.524E+03   -.277E+01 -.193E+00 0.531E+03   0.250E+00 -.658E-02 -.703E+01
   -.548E+02 -.337E+00 0.795E+01   0.594E+02 0.336E+00 -.816E+01   -.502E+01 0.200E-01 0.269E+00
   0.557E+02 -.423E+00 0.501E+01   -.603E+02 0.420E+00 -.516E+01   0.505E+01 0.232E-01 0.238E+00
   0.122E+02 0.603E+00 -.621E+03   -.133E+02 -.692E+00 0.614E+03   0.108E+01 0.875E-01 0.671E+01
   0.197E+02 -.189E+01 -.161E+04   -.210E+02 0.196E+01 0.161E+04   0.135E+01 -.677E-01 -.123E+01
   -.495E+02 0.198E+01 -.113E+04   0.558E+02 -.202E+01 0.113E+04   -.615E+01 0.454E-01 0.130E+01
   0.937E+00 0.407E+01 -.114E+04   -.875E+00 -.422E+01 0.114E+04   0.172E-01 0.139E+00 0.416E+00
   0.184E+02 -.533E+00 -.181E+04   -.188E+02 0.514E+00 0.182E+04   0.372E+00 0.189E-01 -.209E+01
   0.368E+02 0.610E+00 -.273E+04   -.367E+02 -.670E+00 0.275E+04   -.160E+00 0.609E-01 -.206E+02
   -.475E+02 0.418E+02 -.223E+04   0.535E+02 -.415E+02 0.223E+04   -.591E+01 -.262E+00 -.540E+00
   0.635E+02 0.337E+02 -.231E+04   -.696E+02 -.338E+02 0.231E+04   0.608E+01 0.595E-01 -.321E+01
   0.127E+02 -.267E+02 0.762E+02   -.273E-11 -.207E-11 0.423E-10   -.127E+02 0.267E+02 -.763E+02

 POSITION                                       TOTAL-FORCE (eV/Angst)
      6.64340      6.50369     24.50426        -0.104473      0.117091      0.108952
      7.98158      5.86884     23.92743         0.181171     -0.022088     -0.006797
      6.98782      5.81013     23.91697        -0.088557     -0.087214     -0.211722
      9.75299      7.39399      8.77438        -0.002253      0.000121     -3.542977
      0.00000      8.87278      8.77438         0.001063      0.000107      2.690244
      0.00000      7.39399     12.02538         0.004545      0.000185      0.520485
      9.75299      8.87278     12.02538        -0.006430      0.000336     -0.726681
      9.75299      7.39399     15.27637        -0.029329     -0.014662      0.632881
      0.00000      8.87278     15.27637        -0.000085      0.001835     -0.719224
      0.09303      7.39416     18.45543        -0.075954      0.001051      0.088375
      9.83496      8.87368     18.64520        -0.046410      0.000396     -0.072612
      9.77437      7.40065     21.97515         0.021272      0.003567      0.061615
      0.01034      8.87482     21.63687        -0.000738     -0.007518      0.168565
      9.75299     10.35158      8.77438        -0.002291      0.000223     -3.543138
      0.00000      0.00000      8.77438         0.001071      0.000072      2.690099
      0.00000     10.35158     12.02538         0.004383     -0.000165      0.520619
      9.75299      0.00000     12.02538        -0.006624     -0.000343     -0.727470
      9.75299     10.35158     15.27637        -0.015736      0.022051      0.639315
      0.00000      0.00000     15.27637        -0.000708     -0.001634     -0.717073
      0.09464     10.35144     18.45754        -0.083032     -0.000146      0.088400
      9.82872     11.82963     18.65370        -0.047316      0.000597     -0.073301
      9.76025     10.34924     22.00442         0.008001      0.006379      0.061181
      0.01264     11.82873     21.63555         0.001587      0.000197      0.168456
      9.75299      1.47880      8.77438        -0.002282     -0.000185     -3.543319
      0.00000      2.95759      8.77438         0.001092     -0.000100      2.690075
      0.00000      1.47880     12.02538         0.004494     -0.000085      0.520365
      9.75299      2.95759     12.02538        -0.006253     -0.000284     -0.727727
      9.75299      1.47880     15.27637        -0.014552     -0.028294      0.635197
      0.00000      2.95759     15.27637         0.001327     -0.000584     -0.719910
      0.09491      1.47782     18.45692        -0.082852     -0.000501      0.087677
      9.83471      2.95533     18.64443        -0.049790      0.001174     -0.071129
      9.75889      1.46892     22.00408         0.007739      0.002713      0.060651
      0.01160      2.95224     21.63635        -0.001415      0.008054      0.169930
      9.75299      4.43639      8.77438        -0.002206     -0.000056     -3.543164
      0.00000      5.91519      8.77438         0.001077     -0.000014      2.690273
      0.00000      4.43639     12.02538         0.004662      0.000127      0.520298
      9.75299      5.91519     12.02538        -0.006183      0.000333     -0.726826
      9.75299      4.43639     15.27637        -0.030552      0.020923      0.629547
      0.00000      5.91519     15.27637         0.000950      0.000335     -0.722501
      0.09335      4.43572     18.45546        -0.077939     -0.000574      0.088731
      9.83833      5.91470     18.65004        -0.049104     -0.001142     -0.081801
      9.78137      4.41717     21.97620         0.010829      0.002406      0.061971
      0.02119      5.91516     21.63480        -0.002093     -0.001175      0.172835
      3.25100      7.39399      8.77438         0.002312     -0.000037     -3.541126
      6.50199      8.87278      8.77438        -0.000915      0.000265      2.695872
      6.50199      7.39399     12.02538        -0.004320      0.008257      0.540969
      3.25100      8.87278     12.02538         0.006953      0.000270     -0.713022
      3.25100      7.39399     15.27637         0.039966     -0.011572      0.678255
      6.50199      8.87278     15.27637        -0.022206     -0.038707     -0.610853
      6.59718      7.36924     18.49046        -0.080335      0.006003      0.071327
      3.33310      8.87117     18.65354        -0.048577     -0.000085     -0.074817
      3.26822      7.39486     22.00593        -0.003289      0.002142      0.061750
      6.52184      8.87333     21.60077        -0.016290      0.029042      0.170158
      3.25100     10.35158      8.77438         0.002447      0.000176     -3.541329
      6.50199      0.00000      8.77438        -0.000905      0.000051      2.695823
      6.50199     10.35158     12.02538        -0.004544     -0.000402      0.542682
      3.25100      0.00000     12.02538         0.007242     -0.000107     -0.713567
      3.25100     10.35158     15.27637         0.032131      0.003803      0.672809
      6.50199      0.00000     15.27637        -0.026470     -0.002741     -0.786306
      6.59416     10.34079     18.42794        -0.075689      0.007701      0.092968
[...]
      6.50199      5.91519     13.29976         0.003104     -0.000745     -0.106202
      4.52538      4.43639     12.02538         0.445181      0.000202      0.048855
      8.47860      4.43639     12.02538        -0.440152      0.000218      0.050499
      3.25100      5.91519     14.00199        -0.009749      0.000334     -0.124600
      3.25100      5.91519     16.55076        -0.006278     -0.002396      0.097601
      7.77637      4.43639     15.27637        -0.404750      0.018568      0.061733
      5.22761      4.43639     15.27637         0.437472      0.020082      0.084482
      6.51652      5.91257     17.27859        -0.006625     -0.001116     -0.071419
      6.49826      5.91976     19.84679         0.001121     -0.000357     -0.040363
      4.55649      4.43633     18.54881         0.056515     -0.001469     -0.009093
      8.46983      4.43629     18.56617         0.079608     -0.004148     -0.003218
      3.26637      5.91968     20.51974        -0.000453     -0.000501      0.108888
      3.28156      5.91325     23.09083        -0.001905      0.001279     -0.028626
      7.77014      4.39492     21.81608         0.020352      0.008451      0.033722
      5.29699      4.42315     21.93300        -0.028814     -0.009947      0.020626
    total drift:                               -0.009932     -0.003510     -0.043743

  FREE ENERGIE OF THE ION-ELECTRON SYSTEM (eV)
  free  energy   TOTEN  =     -1753.66948276 eV

  energy  without entropy=    -1753.66948276  energy(sigma->0) =    -1753.66948276