 vasp.6.4.2 20Jul23 (build Feb 22 2024 13:53:45) complex
 executed on              LinuxNV date 2024.08.29  10:54:07
 OpenACC runtime initialized ...    4 GPUs detected

 INCAR:
   SYSTEM = Oxide-Surface
   ISMEAR = 0
   SIGMA = 0.05
   EDIFF = 1E-5
   ALGO = Normal
   IBRION = -1
   NSW = 0
   ISYM = 0
   DIPOL = 0.5 0.5 0.5
   IDIPOL = 3
   LDIPOL = .TRUE.
   ISTART = 1
   GGA = MK
   LUSE_VDW = .TRUE.
   PARAM1 = 0.1234
   PARAM2 = 0.711357
   ZAB_VDW = -1.8867
   AGGAC = 0.0
   ENCUT = 1000
   PREC = Normal
   PRECFOCK = Normal
   LASPH = .TRUE.
   LREAL = Auto
   ISPIN = 1
   NELM = 200
   NELMIN = 8
   NCORE = 1
   KPAR = 1
   LWAVE = .FALSE.
   LCHARG = .FALSE.

 POTCAR:    PAW_PBE H_h 06Feb2004
 POTCAR:    PAW_PBE O_h 06Feb2004
 POTCAR:    PAW_PBE Ti_sv 26Sep2005
 POTCAR:    PAW_PBE O_h 06Feb2004
|               ----> ADVICE to this user running VASP <----                  |
|     You have switched on vdW-DFT.                                           |
|     This routine was written and supplied by Jiri Klimes. We recommend      |
|     that you carefully read and cite the following publications:            |
|       J. Klimes, D.R. Bowler, A. Michelides                                 |
|          J. Phys.: Cond Matt. 22 022201 (2010)                              |
|       J. Klimes, D.R. Bowler, A. Michelides                                 |
|          Phys. Rev. B. 83, 195131 (2011)                                    |
|     and references therein.                                                 |

   TITEL  = PAW_PBE H_h 06Feb2004
   POMASS =    1.000; ZVAL   =    1.000    mass and valenz
   ENMAX  =  700.000; ENMIN  =  350.000 eV

[...]

   TITEL  = PAW_PBE Ti_sv 26Sep2005
   POMASS =   47.880; ZVAL   =   12.000    mass and valenz
   ENMAX  =  274.610; ENMIN  =  205.957 eV

   TITEL  = PAW_PBE O_h 06Feb2004
   POMASS =   16.000; ZVAL   =    6.000    mass and valenz
   ENMAX  =  700.000; ENMIN  =  500.000 eV

 Optimization of the real space projectors (new method)

 maximal supplied QI-value         = 47.24
 optimisation between [QCUT,QGAM] = [ 16.06, 32.13] = [ 72.25,289.00] Ry
 Optimized for a Real-space Cutoff    0.82 Angstroem

   l    n(q)    QCUT    max X(q) W(low)/X(q) W(high)/X(q)  e(spline)
   0      8    16.063    34.671    0.37E-03    0.85E-03    0.24E-06
   0      8    16.063    17.046    0.36E-03    0.82E-03    0.23E-06
   1      7    16.063     1.978    0.22E-03    0.92E-04    0.15E-06
 Optimization of the real space projectors (new method)

[...]

   l    n(q)    QCUT    max X(q) W(low)/X(q) W(high)/X(q)  e(spline)
   0     12    16.089    12.277    0.23E-04    0.54E-05    0.15E-06
   0     12    16.089    11.419    0.26E-04    0.82E-06    0.19E-06
   1     12    16.089     4.010    0.40E-04    0.12E-04    0.58E-06
   1     12    16.089     6.182    0.55E-05    0.28E-04    0.27E-06
   2     11    16.089    47.177    0.17E-03    0.26E-03    0.90E-06
   2     11    16.089    42.437    0.17E-03    0.25E-03    0.88E-06
 Optimization of the real space projectors (new method)

 maximal supplied QI-value         = 34.20
 optimisation between [QCUT,QGAM] = [ 16.08, 32.15] = [ 72.37,289.48] Ry
 Optimized for a Real-space Cutoff    0.71 Angstroem

   l    n(q)    QCUT    max X(q) W(low)/X(q) W(high)/X(q)  e(spline)
   0      7    16.076   280.207    0.42E-03    0.69E-03    0.60E-07
   0      7    16.076   228.978    0.42E-03    0.69E-03    0.61E-07
   1      6    16.076    86.127    0.11E-03    0.66E-03    0.10E-06
   1      6    16.076    65.368    0.11E-03    0.65E-03    0.10E-06
|               ----> ADVICE to this user running VASP <----                  |
|     You enforced a specific xc type in the INCAR file but a different       |
|     type was found in the POTCAR file.                                      |
|     I HOPE YOU KNOW WHAT YOU ARE DOING!                                     |

  PAW_PBE H_h 06Feb2004                 :
  PAW_PBE O_h 06Feb2004                 :
  PAW_PBE Ti_sv 26Sep2005               :
  PAW_PBE O_h 06Feb2004                 :

 POSCAR:  H  O Ti  O
  positions in direct lattice
 exchange correlation table for  LEXCH =       43
   RHO(1)=    0.500       N(1)  =     2000
   RHO(2)=  100.500       N(2)  =     4000

 ion  position               nearest neighbor table
   1  0.557  0.550  0.840-   3 0.97
   2  0.660  0.496  0.817-   3 1.00
   3  0.584  0.491  0.817-   1 0.97   2 1.00  83 2.23
   4  0.796  0.625  0.211-  85 1.95 145 1.95 144 1.95  84 1.95  87 1.98 166 1.98
   5  0.046  0.750  0.211-  86 1.95  87 1.95 106 1.95 107 1.95  88 1.98
   6  0.046  0.625  0.341-  88 1.95 148 1.95  89 1.95 149 1.95  90 1.98  91 1.98
   7  0.796  0.750  0.341-  90 1.95 110 1.95 171 1.95 191 1.95  92 1.98  85 1.98
   8  0.796  0.625  0.471-  92 1.95  93 1.95 152 1.95 153 1.95  95 1.98 174 1.98
   9  0.046  0.750  0.471-  94 1.95  95 1.95 114 1.95 115 1.95  89 1.98  96 2.00
  10  0.054  0.625  0.598-  99 1.87 156 1.90  96 1.90  97 2.02 157 2.02  98 2.03
  11  0.803  0.750  0.606- 100 1.87  98 1.93 118 1.93 179 2.01 199 2.01  93 2.10
  12  0.798  0.626  0.739- 101 1.83 161 1.86 182 2.01 103 2.02 100 2.08 160 2.09
  13  0.047  0.750  0.725-  97 1.81 122 1.94 123 1.94 102 1.95 103 1.96
  14  0.796  0.875  0.211-  85 1.95 105 1.95 104 1.95  84 1.95 107 1.98 186 1.98
  15  0.046  0.000  0.211- 106 1.95 107 1.95 126 1.95 127 1.95 108 1.98
  16  0.046  0.875  0.341-  88 1.95 108 1.95  89 1.95 109 1.95 110 1.98 111 1.98
  17  0.796  0.000  0.341- 110 1.95 130 1.95 191 1.95 211 1.95 112 1.98 105 1.98
  18  0.796  0.875  0.471-  92 1.95  93 1.95 112 1.95 113 1.95 115 1.98 194 1.98
  19  0.046  0.000  0.471- 114 1.95 115 1.95 134 1.95 135 1.95 109 1.98 116 2.00
  20  0.054  0.875  0.598- 119 1.87  96 1.90 116 1.90 117 2.02  97 2.02 118 2.04
  21  0.802  1.000  0.606- 120 1.87 118 1.93 138 1.93 219 2.01 199 2.01 113 2.10
  22  0.797  0.875  0.740- 121 1.84 101 1.84 202 2.02 123 2.04 100 2.09 120 2.10
  23  0.047  1.000  0.725- 117 1.81 123 1.95 143 1.95 142 1.95 122 1.95
  24  0.796  0.125  0.211- 105 1.95 125 1.95 124 1.95 104 1.95 127 1.98 206 1.98
  25  0.046  0.250  0.211- 126 1.95 127 1.95 146 1.95 147 1.95 128 1.98
  26  0.046  0.125  0.341- 108 1.95 128 1.95 109 1.95 129 1.95 130 1.98 131 1.98
  27  0.796  0.250  0.341- 130 1.95 150 1.95 211 1.95 231 1.95 132 1.98 125 1.98
  28  0.796  0.125  0.471- 112 1.95 113 1.95 132 1.95 133 1.95 135 1.98 214 1.98
  29  0.046  0.250  0.471- 134 1.95 135 1.95 154 1.95 155 1.95 129 1.98 136 2.00
  30  0.054  0.125  0.598- 139 1.87 136 1.90 116 1.90 117 2.02 137 2.02 138 2.04
  31  0.803  0.250  0.606- 140 1.87 158 1.93 138 1.93 219 2.01 239 2.02 133 2.10
  32  0.797  0.124  0.740- 121 1.83 141 1.84 222 2.02 143 2.04 120 2.09 140 2.10
  33  0.047  0.250  0.725- 137 1.81 142 1.94 143 1.94 162 1.95 163 1.96
  34  0.796  0.375  0.211- 125 1.95 145 1.95 144 1.95 124 1.95 147 1.98 226 1.98
  35  0.046  0.500  0.211-  86 1.95  87 1.95 146 1.95 147 1.95 148 1.98
  36  0.046  0.375  0.341- 128 1.95 148 1.95 129 1.95 149 1.95 150 1.98 151 1.98
  37  0.796  0.500  0.341-  90 1.95 150 1.95 171 1.95 231 1.95 145 1.98 152 1.98
  38  0.796  0.375  0.471- 132 1.95 133 1.95 152 1.95 153 1.95 155 1.98 234 1.98
  39  0.046  0.500  0.471-  94 1.95  95 1.95 154 1.95 155 1.95 149 1.98 156 2.00
  40  0.054  0.375  0.598- 159 1.87 156 1.90 136 1.90 137 2.02 157 2.02 158 2.03
  41  0.803  0.500  0.606- 160 1.86 158 1.93  98 1.93 239 2.02 179 2.02 153 2.10
  42  0.799  0.373  0.739- 141 1.83 161 1.87 163 2.01 242 2.02 140 2.07 160 2.10
  43  0.048  0.500  0.725- 157 1.81 102 1.94 162 1.94 103 1.95 163 1.95
  44  0.296  0.625  0.211- 165 1.95 225 1.95 224 1.95 164 1.95  86 1.98 167 1.98
  45  0.546  0.750  0.211- 166 1.95 167 1.95 186 1.95 187 1.95 168 1.98
  46  0.546  0.625  0.341- 168 1.95 228 1.95 169 1.95 229 1.95 170 1.98 171 1.98
  47  0.296  0.750  0.341-  91 1.95 111 1.95 170 1.95 190 1.95 172 1.98 165 1.98
  48  0.296  0.625  0.471- 172 1.95 173 1.95 232 1.95 233 1.95  94 1.98 175 1.98
  49  0.546  0.750  0.471- 174 1.95 175 1.95 194 1.95 195 1.95 169 1.98 176 1.99
  50  0.554  0.623  0.600- 179 1.87 236 1.90 176 1.93 237 1.99 177 2.01 178 2.04  80 2.91
  51  0.303  0.750  0.606- 180 1.87 178 1.92 198 1.93  99 2.02 119 2.02 173 2.10
  52  0.298  0.625  0.740- 181 1.83 241 1.84 102 2.03 183 2.04 180 2.09 240 2.09
  53  0.548  0.750  0.724- 177 1.80 182 1.91 202 1.94 183 1.95 203 1.96
  54  0.296  0.875  0.211- 165 1.95 185 1.95 184 1.95 164 1.95 106 1.98 187 1.98
  55  0.546  0.000  0.211- 186 1.95 187 1.95 206 1.95 207 1.95 188 1.98
  56  0.546  0.875  0.341- 168 1.95 188 1.95 169 1.95 189 1.95 190 1.98 191 1.98
  57  0.296  0.000  0.341- 111 1.95 131 1.95 190 1.95 210 1.95 192 1.98 185 1.98
  58  0.296  0.875  0.471- 172 1.95 173 1.95 192 1.95 193 1.95 114 1.98 195 1.98
  59  0.546  0.000  0.471- 194 1.95 195 1.95 214 1.95 215 1.95 189 1.98 196 1.98
  60  0.554  0.874  0.597- 199 1.88 176 1.88 196 1.90 177 2.00 197 2.03 198 2.04
[...]
 229  0.546  0.500  0.392-  46 1.95  76 1.95  79 1.98
 230  0.394  0.375  0.341-  67 1.95  77 1.95  76 1.98
 231  0.698  0.375  0.341-  27 1.95  37 1.95  76 1.98
 232  0.296  0.500  0.420-  48 1.95  78 1.95  77 1.98
 233  0.296  0.500  0.522-  48 1.95  78 1.95  81 2.11
 234  0.644  0.375  0.471-  69 1.95  79 1.95  38 1.98
 235  0.448  0.375  0.471-  69 1.95  79 1.95  78 1.98
 236  0.548  0.500  0.551-  50 1.90  80 1.90  79 2.00
 237  0.546  0.500  0.654-  83 1.89  50 1.99  80 1.99
 238  0.397  0.375  0.602-  71 1.92  81 1.93  80 2.04
 239  0.698  0.375  0.603-  80 1.87  31 2.02  41 2.02
 240  0.298  0.500  0.681-  81 1.86  52 2.09  82 2.10
 241  0.299  0.500  0.784-  82 1.84  52 1.84
 242  0.644  0.372  0.733-  73 1.92  83 1.96  42 2.02
 243  0.454  0.374  0.737-  83 1.93  73 1.94  82 2.03

IMPORTANT INFORMATION: All symmetrisations will be switched off!
NOSYMM: (Re-)initialisation of all symmetry stuff for point group C_1.

                                     Primitive cell

  volume of cell :    3846.0501

  direct lattice vectors                    reciprocal lattice vectors
    13.003980404  0.000000000  0.000000000     0.076899531  0.000000000  0.000000000
     0.000000000 11.830378115  0.000000000     0.000000000  0.084528152  0.000000000
     0.000000000  0.000000000 25.000000000     0.000000000  0.000000000  0.040000000

  length of vectors
    13.003980404 11.830378115 25.000000000     0.076899531  0.084528152  0.040000000

  position of ions in fractional coordinates (direct lattice)
     0.557344291  0.549757631  0.840085132
     0.660249560  0.496094975  0.817011996
     0.583830190  0.491132145  0.816593541
     0.796469805  0.625012682  0.210890236
     0.046469805  0.750012682  0.210890236
     0.046469805  0.625012682  0.340930040
     0.796469805  0.750012682  0.340930040
     0.796469805  0.625012682  0.470969844
     0.046469805  0.750012682  0.470969844
     0.053623656  0.625026990  0.598131909
     0.802773807  0.750088464  0.605722728
     0.798114496  0.625575600  0.738920944
     0.047264667  0.750185234  0.725389851
     0.796469805  0.875012682  0.210890236
     0.046469805  0.000012682  0.210890236
     0.046469805  0.875012682  0.340930040
[...]
     0.000000000  0.000000000 25.000000000     0.000000000  0.000000000  0.040000000

  length of vectors
    13.003980404 11.830378115 25.000000000     0.076899531  0.084528152  0.040000000

 FORCES acting on ions
    electron-ion (+dipol)            ewald-force                    non-local-force                 convergence-correction
   0.343E+02 -.618E+02 -.339E+03   -.375E+02 0.678E+02 0.344E+03   0.318E+01 -.588E+01 -.512E+01   0.291E-05 0.225E-05 0.637E-04
   -.634E+02 -.241E+01 -.334E+03   0.712E+02 0.265E+01 0.334E+03   -.767E+01 -.243E+00 -.110E-01   -.855E-05 0.666E-05 0.124E-03
   0.504E+02 0.391E+02 -.197E+04   -.696E+02 -.727E+02 0.196E+04   0.191E+02 0.335E+02 0.149E+02   -.647E-04 0.112E-03 0.944E-03
   -.110E+01 -.450E+00 0.368E+04   0.110E+01 0.451E+00 -.369E+04   -.165E-01 -.165E-02 0.110E+01   -.328E-04 -.364E-04 0.810E-04
   -.270E+00 -.477E+00 0.390E+04   0.273E+00 0.479E+00 -.389E+04   -.174E-01 -.191E-02 -.549E+01   -.298E-05 -.348E-04 0.906E-04
   -.227E+00 -.113E+00 0.188E+04   0.233E+00 0.113E+00 -.188E+04   0.430E-03 0.264E-02 -.171E+00   -.217E-05 0.438E-05 -.146E-03
   -.588E+00 -.901E-01 0.187E+04   0.578E+00 0.907E-01 -.187E+04   0.264E-02 0.254E-02 0.332E+00   0.337E-05 -.331E-05 -.885E-04
   -.155E+01 -.612E-01 -.109E+02   0.151E+01 0.437E-01 0.118E+02   0.110E-01 0.207E-02 -.237E+00   0.890E-05 0.483E-05 -.279E-03
   0.212E+01 -.819E+00 0.325E+01   -.212E+01 0.823E+00 -.454E+01   -.497E-02 -.328E-02 0.576E+00   -.121E-05 0.543E-05 -.190E-03
   0.170E+02 -.226E+01 -.184E+04   -.163E+02 0.227E+01 0.184E+04   -.695E+00 -.148E-01 0.830E+00   0.720E-05 0.928E-05 -.280E-03
   0.445E+01 -.867E+01 -.188E+04   -.391E+01 0.867E+01 0.188E+04   -.583E+00 -.775E-03 -.987E+00   -.718E-06 0.112E-04 -.245E-03
   -.824E+02 -.196E+02 -.361E+04   0.821E+02 0.196E+02 0.361E+04   0.284E+00 -.146E-01 -.131E+01   0.434E-04 0.112E-04 0.111E-02
   -.637E+01 -.266E+01 -.372E+04   0.644E+01 0.275E+01 0.372E+04   -.630E-01 -.886E-01 0.269E+01   0.626E-05 -.718E-05 0.117E-02
   -.931E+00 -.455E+00 0.368E+04   0.930E+00 0.459E+00 -.369E+04   -.161E-01 -.197E-02 0.110E+01   -.254E-04 0.380E-05 0.117E-03
   -.240E+00 -.761E-02 0.390E+04   0.242E+00 0.882E-02 -.389E+04   -.173E-01 -.177E-02 -.549E+01   -.848E-05 -.428E-05 0.110E-03
   -.182E+00 -.131E+00 0.188E+04   0.188E+00 0.131E+00 -.188E+04   0.492E-03 0.264E-02 -.171E+00   -.145E-05 -.990E-06 -.139E-03
   -.704E+00 -.214E-01 0.187E+04   0.694E+00 0.211E-01 -.188E+04   0.266E-02 0.268E-02 0.332E+00   0.475E-06 0.939E-07 -.850E-04
   -.344E+01 -.537E+00 -.120E+02   0.342E+01 0.564E+00 0.129E+02   0.552E-02 -.539E-02 -.241E+00   0.654E-05 0.303E-05 -.275E-03
   0.265E+01 -.336E-01 0.219E+01   -.265E+01 0.303E-01 -.348E+01   -.503E-02 0.815E-03 0.574E+00   -.189E-05 0.844E-06 -.192E-03
   0.206E+02 -.179E+01 -.184E+04   -.199E+02 0.180E+01 0.184E+04   -.716E+00 -.135E-01 0.848E+00   0.650E-05 0.286E-05 -.284E-03
   0.641E+01 0.291E-01 -.189E+04   -.587E+01 -.296E-01 0.189E+04   -.600E+00 -.177E-02 -.101E+01   0.284E-05 0.741E-06 -.225E-03
   -.182E+02 -.198E+02 -.364E+04   0.181E+02 0.198E+02 0.365E+04   0.131E+00 -.568E-02 -.148E+01   -.810E-05 -.983E-05 0.114E-02
   -.556E+01 0.388E+00 -.372E+04   0.553E+01 -.385E+00 0.372E+04   0.311E-01 -.231E-02 0.273E+01   0.364E-05 -.252E-05 0.114E-02
   -.926E+00 0.442E+00 0.368E+04   0.925E+00 -.444E+00 -.369E+04   -.159E-01 -.139E-02 0.110E+01   -.274E-04 -.745E-05 0.117E-03
   -.273E+00 0.477E+00 0.390E+04   0.276E+00 -.479E+00 -.389E+04   -.174E-01 -.116E-02 -.549E+01   -.387E-05 0.345E-04 0.920E-04
   -.182E+00 0.116E+00 0.188E+04   0.189E+00 -.117E+00 -.188E+04   0.425E-03 0.264E-02 -.171E+00   -.279E-05 -.350E-06 -.136E-03
   -.562E+00 0.890E-01 0.187E+04   0.553E+00 -.896E-01 -.187E+04   0.256E-02 0.272E-02 0.333E+00   0.296E-05 0.527E-06 -.831E-04
   -.335E+01 0.435E+00 -.120E+02   0.333E+01 -.470E+00 0.129E+02   0.570E-02 0.556E-02 -.240E+00   0.870E-05 -.413E-05 -.274E-03
   0.217E+01 0.785E+00 0.327E+01   -.216E+01 -.788E+00 -.456E+01   -.553E-02 0.155E-02 0.578E+00   -.245E-05 -.389E-05 -.192E-03
   0.215E+02 0.189E+01 -.184E+04   -.209E+02 -.190E+01 0.184E+04   -.721E+00 0.111E-01 0.850E+00   0.491E-05 -.501E-05 -.283E-03
   0.421E+01 0.827E+01 -.187E+04   -.367E+01 -.828E+01 0.188E+04   -.588E+00 0.146E-01 -.989E+00   0.662E-06 -.947E-05 -.240E-03
   -.184E+02 0.171E+02 -.364E+04   0.183E+02 -.172E+02 0.365E+04   0.139E+00 0.709E-01 -.149E+01   -.235E-04 0.192E-04 0.114E-02
   -.570E+01 0.249E+01 -.372E+04   0.577E+01 -.258E+01 0.372E+04   -.522E-01 0.684E-01 0.270E+01   0.919E-05 0.127E-04 0.117E-02
   -.110E+01 0.463E+00 0.368E+04   0.110E+01 -.467E+00 -.369E+04   -.162E-01 -.115E-02 0.110E+01   -.365E-04 0.385E-04 0.744E-04
   -.304E+00 0.771E-02 0.390E+04   0.307E+00 -.894E-02 -.389E+04   -.174E-01 -.129E-02 -.549E+01   -.118E-04 0.412E-05 0.358E-04
   -.228E+00 0.128E+00 0.188E+04   0.235E+00 -.128E+00 -.188E+04   0.376E-03 0.262E-02 -.171E+00   -.428E-06 -.324E-05 -.144E-03
   -.450E+00 0.224E-01 0.187E+04   0.441E+00 -.222E-01 -.187E+04   0.236E-02 0.257E-02 0.331E+00   0.607E-06 0.349E-05 -.102E-03
   -.141E+01 0.174E+00 -.111E+02   0.137E+01 -.149E+00 0.119E+02   0.114E-01 -.517E-02 -.236E+00   0.108E-04 -.341E-05 -.282E-03
   0.192E+01 -.887E-02 0.431E+01   -.192E+01 0.884E-02 -.559E+01   -.637E-02 -.478E-03 0.574E+00   -.283E-05 -.239E-05 -.193E-03
   0.175E+02 0.234E+01 -.184E+04   -.169E+02 -.235E+01 0.184E+04   -.702E+00 0.513E-02 0.837E+00   0.522E-05 -.770E-05 -.279E-03
   0.296E+01 -.202E-03 -.187E+04   -.237E+01 -.415E-02 0.187E+04   -.650E+00 0.476E-02 -.105E+01   0.115E-05 -.154E-05 -.244E-03
   -.823E+02 0.155E+02 -.360E+04   0.822E+02 -.156E+02 0.361E+04   0.171E+00 0.897E-01 -.130E+01   0.418E-04 -.164E-04 0.113E-02
   -.862E+01 0.329E+00 -.371E+04   0.861E+01 -.324E+00 0.371E+04   0.463E-01 -.658E-02 0.263E+01   0.156E-04 -.430E-05 0.121E-02
   0.108E+01 -.394E+00 0.368E+04   -.108E+01 0.395E+00 -.369E+04   -.167E-01 -.156E-02 0.110E+01   0.372E-04 0.453E-05 0.116E-03
   0.286E+00 -.736E+00 0.390E+04   -.288E+00 0.740E+00 -.389E+04   -.160E-01 -.237E-02 -.549E+01   0.237E-05 -.472E-04 -.356E-04
   0.410E+00 0.113E+00 0.188E+04   -.416E+00 -.101E+00 -.188E+04   0.384E-02 -.802E-03 -.178E+00   0.794E-08 -.242E-05 -.163E-03
   0.411E+00 -.264E-01 0.187E+04   -.401E+00 0.269E-01 -.187E+04   -.343E-02 0.250E-02 0.326E+00   -.273E-05 -.437E-05 -.963E-04
   -.415E+00 0.227E+00 -.138E+02   0.473E+00 -.241E+00 0.148E+02   -.208E-01 0.190E-02 -.257E+00   -.109E-04 0.915E-05 -.287E-03
   0.468E+01 0.193E+01 0.703E+01   -.471E+01 -.201E+01 -.809E+01   0.204E-02 0.415E-01 0.461E+00   0.598E-05 0.834E-05 -.196E-03
   0.263E+02 -.148E+02 -.182E+04   -.256E+02 0.146E+02 0.182E+04   -.728E+00 0.145E+00 0.584E+00   0.160E-04 0.189E-04 -.300E-03
   0.218E+02 -.587E+01 -.189E+04   -.212E+02 0.584E+01 0.189E+04   -.637E+00 0.213E-01 -.102E+01   -.175E-04 0.976E-05 -.212E-03
   0.444E+02 -.170E+02 -.362E+04   -.445E+02 0.170E+02 0.362E+04   0.111E+00 -.913E-02 -.155E+01   -.317E-04 0.147E-04 0.115E-02
   0.240E+02 -.659E+02 -.367E+04   -.237E+02 0.658E+02 0.367E+04   -.242E+00 0.112E+00 0.286E+01   -.165E-04 0.327E-04 0.112E-02
   0.918E+00 -.406E+00 0.368E+04   -.917E+00 0.410E+00 -.369E+04   -.171E-01 -.191E-02 0.110E+01   0.274E-04 -.366E-04 0.157E-03
   0.252E+00 -.144E-01 0.390E+04   -.254E+00 0.168E-01 -.389E+04   -.161E-01 -.206E-02 -.549E+01   0.637E-05 -.754E-05 0.626E-04
   0.371E+00 0.512E-01 0.188E+04   -.378E+00 -.499E-01 -.188E+04   0.393E-02 0.147E-02 -.178E+00   0.144E-06 0.104E-04 -.148E-03
   0.520E+00 -.243E-01 0.187E+04   -.510E+00 0.243E-01 -.187E+04   -.358E-02 0.266E-02 0.326E+00   0.124E-05 0.135E-05 -.893E-04
   0.112E+01 0.574E-01 -.140E+02   -.107E+01 -.524E-01 0.149E+02   -.152E-01 -.193E-02 -.254E+00   -.979E-05 0.243E-05 -.287E-03
   0.417E+01 -.313E+00 0.114E+02   -.421E+01 0.310E+00 -.126E+02   0.978E-02 0.186E-03 0.485E+00   0.625E-05 -.125E-05 -.205E-03
   0.219E+02 -.127E+02 -.181E+04   -.213E+02 0.126E+02 0.181E+04   -.691E+00 0.103E+00 0.702E+00   0.107E-04 -.678E-05 -.274E-03
[...]
   -.632E+02 -.666E-02 0.938E+03   0.665E+02 0.570E-02 -.938E+03   -.294E+01 0.239E-02 0.176E+00   0.905E-05 0.180E-05 -.519E-04
   0.633E+02 0.819E-02 0.939E+03   -.667E+02 -.902E-02 -.939E+03   0.295E+01 0.964E-03 0.182E+00   -.117E-04 0.223E-05 -.511E-04
   -.884E-01 0.375E-01 0.427E+03   0.116E+00 -.379E-01 -.430E+03   -.366E-01 0.570E-03 0.365E+01   -.437E-05 -.392E-06 -.743E-04
   0.284E+01 0.208E+00 -.461E+03   -.307E+01 -.202E+00 0.467E+03   0.220E+00 -.838E-02 -.611E+01   -.686E-05 -.408E-06 -.139E-03
   -.654E+02 -.417E+00 0.238E+01   0.696E+02 0.413E+00 -.262E+01   -.467E+01 0.224E-01 0.303E+00   -.289E-04 -.373E-05 -.120E-03
   0.663E+02 -.506E+00 -.990E+00   -.706E+02 0.499E+00 0.788E+00   0.470E+01 0.263E-01 0.282E+00   0.313E-04 -.431E-05 -.123E-03
   0.148E+02 0.782E+00 -.478E+03   -.158E+02 -.859E+00 0.472E+03   0.957E+00 0.758E-01 0.575E+01   0.446E-05 0.322E-05 -.147E-03
   0.225E+02 -.210E+01 -.132E+04   -.238E+02 0.216E+01 0.132E+04   0.129E+01 -.715E-01 -.139E+01   -.571E-06 0.172E-05 0.413E-04
   -.621E+02 0.205E+01 -.911E+03   0.674E+02 -.210E+01 0.910E+03   -.532E+01 0.524E-01 0.119E+01   0.969E-05 -.812E-05 -.132E-03
   0.427E+00 0.438E+01 -.922E+03   -.101E+01 -.451E+01 0.922E+03   0.655E+00 0.126E+00 0.434E+00   -.209E-04 -.828E-05 -.139E-03
   0.194E+02 -.521E+00 -.147E+04   -.197E+02 0.512E+00 0.147E+04   0.288E+00 0.107E-01 -.106E+01   -.153E-04 -.840E-05 0.202E-03
   0.367E+02 0.587E+00 -.223E+04   -.366E+02 -.651E+00 0.225E+04   -.119E+00 0.605E-01 -.188E+02   -.459E-04 -.167E-04 0.907E-03
   -.591E+02 0.408E+02 -.180E+04   0.643E+02 -.407E+02 0.180E+04   -.524E+01 -.116E+00 -.290E+00   -.571E-04 -.301E-04 0.622E-03
   0.749E+02 0.345E+02 -.187E+04   -.802E+02 -.345E+02 0.188E+04   0.538E+01 -.463E-01 -.285E+01   0.496E-04 -.310E-04 0.670E-03
   0.131E+02 -.282E+02 0.733E+02   -.134E-11 -.412E-12 0.609E-10   -.136E+02 0.282E+02 -.729E+02   -.914E-04 0.125E-03 0.238E-01

 POSITION                                       TOTAL-FORCE (eV/Angst)
      7.24769      6.50384     21.00213        -0.040736      0.065180      0.047365
      8.58587      5.86899     20.42530         0.108267      0.003570      0.003308
      7.59212      5.81028     20.41484        -0.082937     -0.067425     -0.160326
     10.35728      7.39414      5.27226        -0.014487     -0.000461     -3.534286
      0.60429      8.87293      5.27226        -0.012848      0.000136      2.716831
      0.60429      7.39414      8.52325         0.008961      0.002987      0.504725
     10.35728      8.87293      8.52325        -0.004968      0.003269     -0.740274
     10.35728      7.39414     11.77425        -0.030536     -0.015364      0.645432
      0.60429      8.87293     11.77425         0.001905      0.001158     -0.711788
      0.69732      7.39431     14.95330        -0.076975     -0.001463      0.084295
     10.43925      8.87383     15.14307        -0.045740      0.002616     -0.042652
     10.37867      7.40080     18.47302         0.026001      0.026120      0.099625
      0.61463      8.87497     18.13475         0.004135      0.004516      0.118227
     10.35728     10.35173      5.27226        -0.015156      0.002236     -3.537054
      0.60429      0.00015      5.27226        -0.012977     -0.000459      2.714989
      0.60429     10.35173      8.52325         0.008805      0.002833      0.504691
     10.35728      0.00015      8.52325        -0.005174      0.002528     -0.741599
     10.35728     10.35173     11.77425        -0.016633      0.021639      0.651919
      0.60429      0.00015     11.77425         0.001267     -0.002368     -0.709636
      0.69894     10.35159     14.95541        -0.080434      0.000154      0.092220
     10.43301     11.82978     15.15157        -0.055339     -0.002154     -0.051689
     10.36454     10.34939     18.50229         0.014673      0.010195      0.107922
      0.61694     11.82888     18.13343         0.005632      0.001146      0.116793
     10.35728      1.47895      5.27226        -0.015588     -0.002446     -3.538841
      0.60429      2.95774      5.27226        -0.012848     -0.002971      2.715336
      0.60429      1.47895      8.52325         0.008907      0.002584      0.504317
     10.35728      2.95774      8.52325        -0.004818      0.002228     -0.741784
     10.35728      1.47895     11.77425        -0.015449     -0.029237      0.647765
      0.60429      2.95774     11.77425         0.003313     -0.001375     -0.712524
      0.69920      1.47797     14.95479        -0.080123     -0.003652      0.093663
     10.43901      2.95548     15.14230        -0.048088      0.004796     -0.042995
     10.36319      1.46907     18.50195         0.013809     -0.008485      0.103623
      0.61589      2.95239     18.13422         0.016843     -0.019931      0.131853
     10.35728      4.43654      5.27226        -0.014949     -0.005059     -3.536130
      0.60429      5.91534      5.27226        -0.012710     -0.002404      2.717390
      0.60429      4.43654      8.52325         0.009078      0.002597      0.504423
     10.35728      5.91534      8.52325        -0.004732      0.002908     -0.740256
     10.35728      4.43654     11.77425        -0.031808      0.020210      0.642052
      0.60429      5.91534     11.77425         0.002925     -0.000400     -0.715045
      0.69764      4.43587     14.95333        -0.082810     -0.000782      0.083743
     10.44263      5.91485     15.14791        -0.061416      0.000515     -0.057645
     10.38566      4.41732     18.47407         0.017096     -0.017649      0.114559
      0.62548      5.91531     18.13268         0.035478     -0.001454      0.134190
      3.85529      7.39414      5.27226        -0.014599     -0.001079     -3.534746
      7.10628      8.87293      5.27226        -0.016493      0.001526      2.728590
      7.10628      7.39414      8.52325        -0.000541      0.010942      0.526173
      3.85529      8.87293      8.52325         0.007690      0.003169     -0.727457
      3.85529      7.39414     11.77425         0.038899     -0.012325      0.690785
      7.10628      8.87293     11.77425        -0.020529     -0.038974     -0.602884
      7.20147      7.36939     14.98833        -0.091942      0.010195      0.072183
      3.93739      8.87132     15.15142        -0.050882     -0.006796     -0.047362
      3.87252      7.39501     18.50380        -0.002100      0.004180      0.095468
      7.12613      8.87348     18.09865         0.007376      0.029683      0.133172
      3.85529     10.35173      5.27226        -0.013942      0.001693     -3.536933
      7.10628      0.00015      5.27226        -0.016348      0.000465      2.723909
      7.10628     10.35173      8.52325        -0.000730      0.002853      0.527351
      3.85529      0.00015      8.52325         0.007995      0.002751     -0.728541
      3.85529     10.35173     11.77425         0.030748      0.003176      0.685315
      7.10628      0.00015     11.77425        -0.024769     -0.003508     -0.777608
      7.19845     10.34094     14.92581        -0.071648      0.001251      0.080989
[...]
      7.10628      5.91534      9.79764         0.002426     -0.000742     -0.127946
      5.12967      4.43654      8.52325         0.414827      0.001543      0.044724
      9.08289      4.43654      8.52325        -0.405661      0.000244      0.045859
      3.85529      5.91534     10.49986        -0.007252      0.000279     -0.102076
      3.85529      5.91534     13.04863        -0.004327     -0.002494      0.061610
      8.38067      4.43654     11.77425        -0.428326      0.018263      0.059352
      5.83190      4.43654     11.77425         0.463656      0.019883      0.078968
      7.12081      5.91272     13.77646        -0.002942     -0.001416     -0.034178
      7.10255      5.91991     16.34467         0.005575     -0.002354     -0.057118
      5.16078      4.43648     15.04668         0.038273     -0.001519     -0.004701
      9.07412      4.43644     15.06405         0.074496     -0.003631     -0.002768
      3.87066      5.91984     17.01761        -0.001361      0.002637      0.096134
      3.88586      5.91340     19.58870         0.006601     -0.003379     -0.112355
      8.37443      4.39507     18.31395        -0.020786      0.003630      0.036643
      5.90128      4.42330     18.43087         0.017728     -0.007597      0.014942
    total drift:                               -0.470824     -0.027258      0.376004

  FREE ENERGIE OF THE ION-ELECTRON SYSTEM (eV)
  free  energy   TOTEN  =     -1736.29236679 eV

  energy  without entropy=    -1736.29236679  energy(sigma->0) =    -1736.29236679