 vasp.6.3.0 20Jan22 (build Apr  1 2022 16:44:48) complex
 executed on        HPECrayEX_GCC date 2022.11.14  01:59:15

 INCAR:
   SYSTEM = MgO-rocksalt
   ISMEAR = 0
   SIGMA = 0.05
   EDIFF = 1E-6
   ALGO = ALL
   ISTART = 0
   IBRION = -1
   NSW = 0
   ISYM = 0
   DIPOL = 0.5 0.5 0.5
   IDIPOL = 3
   LDIPOL = .TRUE.
   LHFCALC = .TRUE.
   GGA = B5
   AEXX = 0.2
   AGGAX = 0.72
   AGGAC = 0.81
   ALDAC = 0.19
   IVDW = 1
   VDW_S6 = 1.05
   VDW_C6 = 0.63 0.70
   VDW_R0 = 1.243 1.342
   ENCUT = 600
   PREC = Accurate
   LASPH = .TRUE.
   LREAL = .FALSE.
   ISPIN = 2
   MAGMOM = 0.0 0.0 0.0 0.0 0.0 0.0 0.0 0.0 0.0 0.0 0.0 0.0 0.0 0.0 0.0 0.0 0.0 0.0 0.0 0.0 0.0 0.0 0.0 0.0 0.0 0.0 0.0 0.0 0.0 0.0 0.0 0.0 0.0 0.0 0.0 0.0 0.0 0.0 0.0 0.0 0.0 0.0 0.0 0.0 0.0 0.0 0.0 0.0 0.0 0.0 0.0 0.0 0.0 0.0 0.0 0.0 0.0 0.0 0.0 0.0 0.0 0.0 0.0 0.0
   NELM = 200
   NELMIN = 8
   NCORE = 8
   KPAR = 1
   LWAVE = .FALSE.
   LCHARG = .FALSE.

 POTCAR:    PAW_PBE Mg_pv 13Apr2007
 POTCAR:    PAW_PBE O 08Apr2002
 POTCAR:    PAW_PBE Mg_pv 13Apr2007
   VRHFIN =Mg: p6s2

   TITEL  = PAW_PBE Mg_pv 13Apr2007
   POMASS =   24.305; ZVAL   =    8.000    mass and valenz
   ENMAX  =  403.929; ENMIN  =  302.947 eV

   TITEL  = PAW_PBE O 08Apr2002
   POMASS =   16.000; ZVAL   =    6.000    mass and valenz
   ENMAX  =  400.000; ENMIN  =  300.000 eV

  PAW_PBE Mg_pv 13Apr2007               :
  PAW_PBE O 08Apr2002                   :

 POSCAR: Mg  O
  positions in direct lattice
 exchange correlation table for  LEXCH =       12
   RHO(1)=    0.500       N(1)  =     2000
   RHO(2)=  100.500       N(2)  =     4000

 ion  position               nearest neighbor table
   1  0.000  0.750  0.350-  33 2.14  35 2.14  36 2.14  43 2.14  52 2.14
   2  0.250  0.000  0.350-  34 2.14  35 2.14  36 2.14  44 2.14  51 2.14
   3  0.000  0.000  0.450-  35 2.14  34 2.14  33 2.14  41 2.14  50 2.14  39 2.14
   4  0.250  0.750  0.450-  36 2.14  34 2.14  33 2.14  42 2.14  49 2.14  40 2.14
   5  0.000  0.750  0.550-  40 2.13  56 2.14  47 2.14  39 2.14  33 2.15  37 2.16
   6  0.250  0.000  0.550-  55 2.14  48 2.14  40 2.14  39 2.14  34 2.14  38 2.16
   7  0.001  0.000  0.650-  38 2.13  39 2.13  45 2.14  54 2.14  37 2.14
   8  0.250  0.751  0.650-  40 2.13  38 2.13  53 2.14  37 2.14  46 2.14
   9  0.000  0.250  0.350-  41 2.14  35 2.14  43 2.14  44 2.14  60 2.14
  10  0.250  0.500  0.350-  42 2.14  36 2.14  43 2.14  44 2.14  59 2.14
  11  0.000  0.500  0.450-  43 2.14  41 2.14  42 2.14  33 2.14  58 2.14  47 2.14
  12  0.250  0.250  0.450-  44 2.14  41 2.14  42 2.14  34 2.14  57 2.14  48 2.14
  13  0.000  0.250  0.550-  48 2.13  64 2.13  47 2.14  39 2.14  41 2.15  45 2.16
  14  0.251  0.500  0.551-  63 2.13  48 2.13  40 2.14  47 2.15  42 2.15  46 2.16
  15  0.002  0.500  0.650-  46 2.12  47 2.13  45 2.14  37 2.14  62 2.14
  16  0.250  0.250  0.649-  48 2.13  61 2.13  38 2.13  45 2.14  46 2.14
  17  0.500  0.750  0.350-  49 2.14  36 2.14  51 2.14  52 2.14  59 2.14
  18  0.750  0.000  0.350-  50 2.14  35 2.14  51 2.14  52 2.14  60 2.14
  19  0.500  0.000  0.450-  55 2.14  51 2.14  50 2.14  34 2.14  49 2.14  57 2.14
  20  0.750  0.750  0.450-  52 2.14  49 2.14  50 2.14  33 2.14  58 2.14  56 2.14
  21  0.500  0.750  0.551-  63 2.13  40 2.14  55 2.14  56 2.14  53 2.15  49 2.15
  22  0.750  0.000  0.550-  55 2.13  39 2.14  64 2.14  56 2.14  50 2.14  54 2.16
  23  0.500  0.000  0.649-  61 2.13  55 2.13  53 2.13  38 2.14  54 2.14
  24  0.750  0.753  0.649-  54 2.12  56 2.12  53 2.13  37 2.13  62 2.16
  25  0.500  0.250  0.350-  57 2.14  51 2.14  44 2.14  59 2.14  60 2.14
  26  0.750  0.500  0.350-  58 2.14  52 2.14  43 2.14  59 2.14  60 2.14
  27  0.500  0.500  0.450-  59 2.14  49 2.14  57 2.14  58 2.14  42 2.14  63 2.15
  28  0.750  0.250  0.450-  60 2.14  50 2.14  57 2.14  58 2.14  41 2.14  64 2.14
  29  0.500  0.250  0.551-  63 2.13  48 2.14  61 2.14  64 2.14  55 2.14  57 2.15
  30  0.749  0.500  0.550-  63 2.13  64 2.13  56 2.13  58 2.14  47 2.14  62 2.19
  31  0.498  0.500  0.652-  46 2.12  61 2.14  53 2.15  62 2.17  63 2.17
  32  0.750  0.248  0.650-  54 2.12  64 2.13  61 2.14  45 2.14  62 2.16
  33  0.000  0.750  0.450-   1 2.14   3 2.14   4 2.14  11 2.14  20 2.14   5 2.15
  34  0.250  0.000  0.450-   2 2.14   3 2.14   4 2.14  12 2.14  19 2.14   6 2.14
  35  0.000  0.000  0.350-   3 2.14   2 2.14   1 2.14   9 2.14  18 2.14
  36  0.250  0.750  0.350-   4 2.14   2 2.14   1 2.14  10 2.14  17 2.14
  37  1.000  0.750  0.651-  24 2.13  15 2.14   7 2.14   8 2.14   5 2.16
  38  0.250  0.000  0.651-   7 2.13   8 2.13  16 2.13  23 2.14   6 2.16
  39  1.000  0.000  0.550-   7 2.13  22 2.14   5 2.14  13 2.14   6 2.14   3 2.14
  40  0.250  0.750  0.550-   8 2.13   5 2.13  14 2.14  21 2.14   6 2.14   4 2.14
  41  0.000  0.250  0.450-   9 2.14   3 2.14  11 2.14  12 2.14  28 2.14  13 2.15
  42  0.250  0.500  0.450-  10 2.14   4 2.14  11 2.14  12 2.14  27 2.14  14 2.15
  43  0.000  0.500  0.350-  11 2.14   9 2.14  10 2.14   1 2.14  26 2.14
  44  0.250  0.250  0.350-  12 2.14   9 2.14  10 2.14   2 2.14  25 2.14
  45  0.000  0.250  0.651-  15 2.14   7 2.14  32 2.14  16 2.14  13 2.16
  46  0.250  0.500  0.651-  15 2.12  31 2.12   8 2.14  16 2.14  14 2.16
  47  1.000  0.500  0.550-  15 2.13   5 2.14  13 2.14  30 2.14  11 2.14  14 2.15
  48  0.250  0.250  0.550-  16 2.13  13 2.13  14 2.13   6 2.14  29 2.14  12 2.14
  49  0.500  0.750  0.450-  17 2.14   4 2.14  19 2.14  20 2.14  27 2.14  21 2.15
  50  0.750  0.000  0.450-  18 2.14   3 2.14  19 2.14  20 2.14  28 2.14  22 2.14
  51  0.500  0.000  0.350-  19 2.14  17 2.14  18 2.14   2 2.14  25 2.14
  52  0.750  0.750  0.350-  20 2.14  17 2.14  18 2.14   1 2.14  26 2.14
  53  0.500  0.751  0.651-  23 2.13  24 2.13   8 2.14  31 2.15  21 2.15
  54  0.750  0.000  0.651-  24 2.12  32 2.12   7 2.14  23 2.14  22 2.16
  55  0.500  1.000  0.550-  23 2.13  22 2.13  19 2.14   6 2.14  21 2.14  29 2.14
  56  0.750  0.750  0.550-  24 2.12  30 2.13   5 2.14  21 2.14  20 2.14  22 2.14
  57  0.500  0.250  0.450-  25 2.14  19 2.14  12 2.14  27 2.14  28 2.14  29 2.15
  58  0.750  0.500  0.450-  26 2.14  20 2.14  11 2.14  27 2.14  28 2.14  30 2.14
  59  0.500  0.500  0.350-  27 2.14  17 2.14  25 2.14  26 2.14  10 2.14
  60  0.750  0.250  0.350-  28 2.14  18 2.14  25 2.14  26 2.14   9 2.14
  61  0.500  0.249  0.651-  23 2.13  16 2.13  32 2.14  29 2.14  31 2.14
  62  0.752  0.500  0.652-  15 2.14  32 2.16  24 2.16  31 2.17  30 2.19
  63  0.500  0.500  0.550-  30 2.13  21 2.13  14 2.13  29 2.13  27 2.15  31 2.17
  64  0.750  0.251  0.550-  30 2.13  32 2.13  13 2.13  22 2.14  29 2.14  28 2.14

IMPORTANT INFORMATION: All symmetrisations will be switched off!
NOSYMM: (Re-)initialisation of all symmetry stuff for point group C_1.

                                     Primitive cell

  volume of cell :    1563.6717

  direct lattice vectors                    reciprocal lattice vectors
     8.546113626  0.000000000  0.000000000     0.117012252  0.000000000  0.000000000
     0.000000000  8.546113626  0.000000000     0.000000000  0.117012252  0.000000000
     0.000000000  0.000000000 21.409585219     0.000000000  0.000000000  0.046708051

  length of vectors
     8.546113626  8.546113626 21.409585219     0.117012252  0.117012252  0.046708051

  position of ions in fractional coordinates (direct lattice)
     0.000000000  0.750000000  0.350310383
     0.250000000  0.000000000  0.350310383
     0.000000000  0.000000000  0.450103461
     0.250000000  0.750000000  0.450103461
     0.000221180  0.750057450  0.550425678
     0.250133625  0.000065705  0.550287015
     0.000532122  0.000222155  0.649632208
     0.250437619  0.750588978  0.649545490
     0.000000000  0.250000000  0.350310383
     0.250000000  0.500000000  0.350310383
     0.000000000  0.500000000  0.450103461
     0.250000000  0.250000000  0.450103461
     0.000020179  0.250066249  0.550465832
     0.250724798  0.499991691  0.550505342
     0.002495397  0.500059755  0.649618877
     0.250442042  0.249506551  0.649451509
     0.500000000  0.750000000  0.350310383
     0.750000000  0.000000000  0.350310383
     0.500000000  0.000000000  0.450103461
     0.750000000  0.750000000  0.450103461
     0.499916323  0.749634379  0.550593820
     0.749955627  0.000330799  0.550234103
     0.499729501  0.000229380  0.649362692
     0.750221212  0.752790764  0.649150322
     0.500000000  0.250000000  0.350310383
     0.750000000  0.500000000  0.350310383
     0.500000000  0.500000000  0.450103461
     0.750000000  0.250000000  0.450103461
     0.499975765  0.250355519  0.550610844
     0.749330006  0.499888069  0.549906571
     0.498322662  0.499812574  0.651867535
     0.749837597  0.248295057  0.649797756
     0.000000000  0.750000000  0.450103461
     0.250000000  0.000000000  0.450103461
     0.000000000  0.000000000  0.350310383
     0.250000000  0.750000000  0.350310383
     0.999959225  0.750052669  0.651403341
     0.249845666  0.000000394  0.651245428
     0.999941412  0.000046888  0.550066949
     0.249863842  0.749881530  0.550077074
     0.000000000  0.250000000  0.450103461
     0.250000000  0.500000000  0.450103461
     0.000000000  0.500000000  0.350310383
     0.250000000  0.250000000  0.350310383
     0.000024999  0.250224872  0.651448271
     0.249951550  0.500095039  0.651489114
     0.999535835  0.500084843  0.550289913
     0.249706233  0.250181272  0.550013632
     0.500000000  0.750000000  0.450103461
     0.750000000  0.000000000  0.450103461
     0.500000000  0.000000000  0.350310383
     0.750000000  0.750000000  0.350310383
     0.500481283  0.750827557  0.651000667
     0.750417463  0.000239542  0.651166844
     0.500153351  0.999868815  0.549866812
     0.750267938  0.749632213  0.550145657
     0.500000000  0.250000000  0.450103461
     0.750000000  0.500000000  0.450103461
     0.500000000  0.500000000  0.350310383
     0.750000000  0.250000000  0.350310383
     0.499968348  0.249010963  0.650515507
     0.751854877  0.500496893  0.651970564
     0.500466152  0.500110542  0.550449885
     0.750280061  0.250530108  0.550188714

  ion indices of the primitive-cell ions
   primitive index   ion index
                 1           1
                 2           2
                 3           3
                 4           4
                 5           5
                 6           6
                 7           7
                 8           8
                 9           9
                10          10
                11          11
                12          12
                13          13
                14          14
                15          15
                16          16
                17          17
                18          18
                19          19
                20          20
                21          21
                22          22
                23          23
                24          24
                25          25
                26          26
                27          27
                28          28
                29          29
                30          30
                31          31
                32          32
                33          33
                34          34
                35          35
[...]
   0.25000000  0.50000000  0.45010346
   0.00000000  0.50000000  0.35031038
   0.25000000  0.25000000  0.35031038
   0.00002500  0.25022487  0.65144827
   0.24995155  0.50009504  0.65148911
   0.99953584  0.50008484  0.55028991
   0.24970623  0.25018127  0.55001363
   0.50000000  0.75000000  0.45010346
   0.75000000  0.00000000  0.45010346
   0.50000000  0.00000000  0.35031038
   0.75000000  0.75000000  0.35031038
   0.50048128  0.75082756  0.65100067
   0.75041746  0.00023954  0.65116684
   0.50015335  0.99986881  0.54986681
   0.75026794  0.74963221  0.55014566
   0.50000000  0.25000000  0.45010346
   0.75000000  0.50000000  0.45010346
   0.50000000  0.50000000  0.35031038
   0.75000000  0.25000000  0.35031038
   0.49996835  0.24901096  0.65051551
   0.75185488  0.50049689  0.65197056
   0.50046615  0.50011054  0.55044988
   0.75028006  0.25053011  0.55018871

 position of ions in cartesian coordinates  (Angst):
   0.00000000  6.40958522  7.50000000
   2.13652841  0.00000000  7.50000000
   0.00000000  0.00000000  9.63652841
   2.13652841  6.40958522  9.63652841
   0.00189023  6.41007620 11.78438545
   2.13767038  0.00056152 11.78141675
   0.00454758  0.00189856 13.90835613
   2.14026834  6.41461869 13.90649953
   0.00000000  2.13652841  7.50000000
   2.13652841  4.27305681  7.50000000
   0.00000000  4.27305681  9.63652841
   2.13652841  2.13652841  9.63652841
   0.00017245  2.13709457 11.78524514
   2.14272261  4.27298580 11.78609103
   0.02132594  4.27356749 13.90807070
   2.14030614  2.13231133 13.90448743
   4.27305681  6.40958522  7.50000000
   6.40958522  0.00000000  7.50000000
   4.27305681  0.00000000  9.63652841
   6.40958522  6.40958522  9.63652841
   4.27234170  6.40646058 11.78798532
   6.40920600  0.00282705 11.78028391
   4.27074510  0.00196031 13.90258589
   6.41147572  6.43343541 13.89803914
   4.27305681  2.13652841  7.50000000
   6.40958522  4.27305681  7.50000000
   4.27305681  4.27305681  9.63652841
   6.40958522  2.13652841  9.63652841
   4.27284969  2.13956671 11.78834979
   6.40385938  4.27210024 11.77327160
   4.25872209  4.27145505 13.95621354
   6.40819731  2.12195777 13.91190044
   0.00000000  6.40958522  9.63652841
   2.13652841  0.00000000  9.63652841
   0.00000000  0.00000000  7.50000000
   2.13652841  6.40958522  7.50000000
   8.54576516  6.41003533 13.94627534
   2.13520945  0.00000337 13.94289449
   8.54561292  0.00040071 11.77670522
   2.13536478  6.40857276 11.77692199
   0.00000000  2.13652841  9.63652841
   2.13652841  4.27305681  9.63652841
   0.00000000  4.27305681  7.50000000
   2.13652841  2.13652841  7.50000000
   0.00021364  2.13845019 13.94723726
   2.13611435  4.27386903 13.94811171
   8.54214682  4.27378189 11.78147879
   2.13401784  2.13807757 11.77556373
   4.27305681  6.40958522  9.63652841
   6.40958522  0.00000000  9.63652841
   4.27305681  0.00000000  7.50000000
   6.40958522  6.40958522  7.50000000
   4.27716992  6.41665762 13.93765426
   6.41315291  0.00204715 13.94121204
   4.27436737  8.54499250 11.77242038
   6.41187505  6.40644207 11.77839033
   4.27305681  2.13652841  9.63652841
   6.40958522  4.27305681  9.63652841
   4.27305681  4.27305681  7.50000000
   6.40958522  2.13652841  7.50000000
   4.27278631  2.12807599 13.92726719
   6.42543721  4.27730331 13.95841935
   4.27704060  4.27400152 11.78490372
   6.41197866  2.14105877 11.77931215

--------------------------------------- Iteration      FINAL  ---------------------------------------

--------------------OUTCAR has been truncated-------------------------

[...]

--------------------OUTCAR has been truncated-------------------------

  DFT-D2 method for vdW energy calculation

  Parameters of vdW forcefield:
         C6(Jnm^6/mol)     R0(A)
   Mg       0.630          1.243
   O        0.700          1.342

  vdW correction parametrized for the method Cþ      

  IVDW =   1
  VDW_RADIUS =    50.000 A
  VDW_S6 =     1.050
  VDW_SR =     1.000
  VDW_D =    20.000
  LVDW_EWALD = F

  Number of pair interactions contributing to vdW energy:  705307
  Edisp (eV):   -4.82989

 VOLUME and BASIS-vectors are now :
  energy-cutoff  :      600.00
  volume of cell :     1563.67
      direct lattice vectors                 reciprocal lattice vectors
     8.546113626  0.000000000  0.000000000     0.117012252  0.000000000  0.000000000
     0.000000000  8.546113626  0.000000000     0.000000000  0.117012252  0.000000000
     0.000000000  0.000000000 21.409585219     0.000000000  0.000000000  0.046708051

  length of vectors
     8.546113626  8.546113626 21.409585219     0.117012252  0.117012252  0.046708051

 FORCES acting on ions:
    Electron-Ion                     Ewald-Force                    Non-Local-Force
   -.184E-01 0.116E+00 0.201E+04   0.210E-01 -.115E+00 -.200E+04   -.174E-02 -.362E-03 -.634E+01
   -.171E-01 0.724E-02 0.201E+04   0.172E-01 -.739E-02 -.200E+04   -.386E-04 0.938E-04 -.633E+01
   0.398E-01 0.243E-01 0.665E+03   -.428E-01 -.180E-01 -.665E+03   0.219E-02 -.405E-02 0.406E+00
   -.187E+00 0.653E+00 0.664E+03   0.193E+00 -.678E+00 -.665E+03   -.334E-02 0.163E-01 0.428E+00
   0.569E+00 0.131E+01 -.669E+03   -.652E+00 -.145E+01 0.669E+03   0.412E-01 0.897E-01 -.268E+00
   0.252E+00 0.230E+00 -.667E+03   -.291E+00 -.241E+00 0.667E+03   0.182E-01 0.359E-02 -.124E+00
   0.370E+00 0.865E-01 -.200E+04   -.240E+00 -.939E-01 0.199E+04   -.119E+00 -.746E-03 0.560E+01
   0.411E-01 0.128E+01 -.199E+04   -.197E+00 -.101E+01 0.199E+04   0.854E-01 -.223E+00 0.566E+01
   -.194E-01 -.116E+00 0.201E+04   0.213E-01 0.115E+00 -.200E+04   -.125E-02 0.187E-03 -.634E+01
   -.225E-01 -.700E-02 0.201E+04   0.245E-01 0.728E-02 -.200E+04   -.134E-02 -.192E-03 -.634E+01
   -.504E+00 -.698E-02 0.663E+03   0.538E+00 0.610E-02 -.664E+03   -.204E-01 0.783E-03 0.405E+00
   -.209E+00 -.646E+00 0.665E+03   0.198E+00 0.674E+00 -.665E+03   0.727E-02 -.178E-01 0.410E+00
   0.748E+00 -.130E+01 -.670E+03   -.854E+00 0.144E+01 0.670E+03   0.650E-01 -.872E-01 -.254E+00
   -.278E-01 -.232E+00 -.669E+03   0.152E+00 0.239E+00 0.670E+03   -.133E+00 -.180E-02 -.994E-01
   0.664E+01 -.211E+00 -.199E+04   -.718E+01 0.231E+00 0.199E+04   0.197E+00 -.533E-02 0.554E+01
   0.856E+00 -.134E+01 -.199E+04   -.102E+01 0.108E+01 0.199E+04   0.763E-01 0.221E+00 0.567E+01
   0.186E-01 0.122E+00 0.201E+04   -.209E-01 -.123E+00 -.200E+04   0.153E-02 0.895E-03 -.634E+01
   0.175E-01 0.865E-02 0.201E+04   -.174E-01 -.802E-02 -.200E+04   -.822E-04 -.423E-03 -.633E+01
   -.324E-01 -.416E-02 0.665E+03   0.398E-01 -.648E-02 -.666E+03   -.478E-02 0.694E-02 0.349E+00
   0.204E+00 0.130E+00 0.664E+03   -.203E+00 -.112E+00 -.665E+03   -.715E-03 -.100E-01 0.400E+00
   -.717E+00 0.234E+01 -.670E+03   0.804E+00 -.255E+01 0.670E+03   -.444E-01 0.158E+00 -.372E+00
   -.211E+00 0.184E+00 -.666E+03   0.246E+00 -.140E+00 0.666E+03   -.161E-01 -.466E-01 -.104E+00
   -.587E+00 0.961E+00 -.199E+04   0.464E+00 -.985E+00 0.199E+04   0.115E+00 -.849E-02 0.564E+01
   0.905E+00 0.943E+01 -.199E+04   -.701E+00 -.965E+01 0.198E+04   -.137E+00 -.814E-01 0.558E+01
   0.188E-01 -.122E+00 0.201E+04   -.208E-01 0.123E+00 -.200E+04   0.127E-02 -.831E-03 -.634E+01
   0.233E-01 -.717E-02 0.201E+04   -.251E-01 0.703E-02 -.200E+04   0.125E-02 0.986E-04 -.632E+01
   0.487E+00 0.786E-02 0.663E+03   -.518E+00 0.211E-03 -.663E+03   0.182E-01 -.557E-02 0.471E+00
   0.216E+00 -.134E+00 0.664E+03   -.207E+00 0.127E+00 -.665E+03   -.666E-02 0.374E-02 0.418E+00
   -.888E+00 -.235E+01 -.668E+03   0.100E+01 0.257E+01 0.669E+03   -.717E-01 -.163E+00 -.479E+00
   0.524E+00 -.217E+00 -.671E+03   -.565E+00 0.200E+00 0.671E+03   0.807E-01 0.280E-01 -.200E+00
   -.968E+01 -.441E+00 -.201E+04   0.983E+01 0.571E+00 0.201E+04   0.122E+00 -.754E-01 0.593E+01
   0.366E+00 -.870E+01 -.200E+04   -.751E-01 0.889E+01 0.199E+04   -.179E+00 0.626E-01 0.568E+01
   0.218E-01 0.419E+00 0.498E+03   -.334E-01 -.428E+00 -.498E+03   0.134E-01 0.999E-02 -.117E+00
   0.203E-01 0.467E-01 0.499E+03   -.184E-01 -.474E-01 -.498E+03   -.320E-02 0.519E-03 -.486E-01
   0.280E-02 0.466E-02 0.151E+04   -.250E-02 -.425E-02 -.151E+04   -.305E-03 -.505E-03 0.315E+01
   -.195E-01 0.107E+00 0.151E+04   0.204E-01 -.109E+00 -.151E+04   -.103E-02 0.304E-02 0.315E+01
   0.754E+00 0.135E+01 -.151E+04   -.971E+00 -.160E+01 0.152E+04   0.279E+00 0.301E+00 -.439E+01
   -.141E+00 0.183E+00 -.151E+04   0.899E-01 -.208E+00 0.152E+04   0.812E-01 0.314E-01 -.430E+01
   0.237E-01 0.226E-01 -.496E+03   -.480E-01 -.336E-01 0.496E+03   0.347E-01 0.131E-01 0.289E+00
   -.269E+00 0.821E+00 -.496E+03   0.243E+00 -.823E+00 0.495E+03   0.425E-01 0.995E-02 0.385E+00
   0.691E-02 -.413E+00 0.498E+03   -.441E-02 0.415E+00 -.498E+03   -.325E-02 -.224E-02 -.128E+00
   0.403E-01 -.427E-01 0.497E+03   -.730E-01 0.403E-01 -.497E+03   0.370E-01 0.311E-02 -.102E+00
   -.435E-01 -.466E-02 0.151E+04   0.474E-01 0.408E-02 -.151E+04   -.478E-02 0.733E-03 0.315E+01
   -.201E-01 -.107E+00 0.151E+04   0.198E-01 0.109E+00 -.151E+04   0.404E-03 -.292E-02 0.315E+01
   0.125E+01 -.122E+01 -.151E+04   -.148E+01 0.145E+01 0.152E+04   0.277E+00 -.277E+00 -.433E+01
   -.110E+01 -.135E+00 -.151E+04   0.952E+00 0.155E+00 0.152E+04   0.212E+00 -.272E-01 -.403E+01
   0.700E+00 -.158E-01 -.498E+03   -.903E+00 0.273E-01 0.498E+03   0.273E+00 -.144E-01 0.182E+00
   -.100E+00 -.825E+00 -.495E+03   0.689E-01 0.828E+00 0.494E+03   0.525E-01 -.120E-01 0.418E+00
   -.161E-01 0.450E+00 0.497E+03   0.197E-01 -.425E+00 -.497E+03   -.391E-02 -.297E-01 -.141E+00
   -.125E-01 0.796E-01 0.499E+03   0.537E-02 -.959E-01 -.498E+03   0.941E-02 0.186E-01 -.533E-01
   -.311E-02 0.404E-02 0.151E+04   0.266E-02 -.481E-02 -.151E+04   0.496E-03 0.949E-03 0.315E+01
   0.194E-01 0.603E-01 0.151E+04   -.205E-01 -.593E-01 -.151E+04   0.134E-02 -.127E-02 0.315E+01
   -.151E+01 0.358E+01 -.151E+04   0.174E+01 -.377E+01 0.151E+04   -.282E+00 0.152E+00 -.403E+01
   0.298E+00 -.535E+00 -.151E+04   -.256E+00 0.567E+00 0.152E+04   -.715E-01 -.149E-01 -.426E+01
   -.481E-01 0.168E+00 -.493E+03   0.731E-01 -.182E+00 0.493E+03   -.361E-01 0.228E-01 0.414E+00
   0.409E+00 0.172E+01 -.497E+03   -.385E+00 -.188E+01 0.496E+03   -.401E-01 0.215E+00 0.294E+00
   -.123E-01 -.452E+00 0.497E+03   0.113E-01 0.430E+00 -.497E+03   0.140E-02 0.263E-01 -.130E+00
   -.242E-01 -.512E-01 0.499E+03   0.541E-01 0.549E-01 -.499E+03   -.334E-01 -.378E-02 -.220E-01
   0.429E-01 -.358E-02 0.151E+04   -.469E-01 0.446E-02 -.151E+04   0.493E-02 -.111E-02 0.315E+01
   0.205E-01 -.614E-01 0.151E+04   -.202E-01 0.600E-01 -.151E+04   -.480E-03 0.176E-02 0.315E+01
   -.207E+01 -.385E+01 -.151E+04   0.225E+01 0.398E+01 0.151E+04   -.201E+00 -.797E-01 -.383E+01
   0.309E+01 -.350E+00 -.151E+04   -.287E+01 0.517E+00 0.152E+04   -.364E+00 -.193E+00 -.400E+01
   -.917E+00 -.113E+00 -.506E+03   0.104E+01 0.116E+00 0.506E+03   -.178E+00 -.110E-01 -.250E+00
   0.260E+00 -.167E+01 -.499E+03   -.239E+00 0.181E+01 0.498E+03   -.419E-01 -.194E+00 0.154E+00
   -.159E+00 0.212E+00 0.123E+02   0.443E-12 0.201E-12 0.273E-11   0.146E+00 -.194E+00 -.108E+02

 POSITION                                       TOTAL-FORCE (eV/Angst)
      0.00000      6.40959      7.50000         0.000669      0.000130      0.631623
      2.13653      0.00000      7.50000         0.000034     -0.000040      0.628214
      0.00000      0.00000      9.63653        -0.000599      0.001759      0.018047
      2.13653      6.40959      9.63653         0.002055     -0.006795      0.015470
      0.00189      6.41008     11.78439        -0.035299     -0.038634     -0.008707
      2.13767      0.00056     11.78142        -0.017116     -0.005714     -0.045124
      0.00455      0.00190     13.90836         0.000640     -0.007595     -0.318029
      2.14027      6.41462     13.90650        -0.057808      0.023452     -0.324087
      0.00000      2.13653      7.50000         0.000485     -0.000069      0.632356
      2.13653      4.27306      7.50000         0.000430      0.000059      0.630969
      0.00000      4.27306      9.63653         0.010430     -0.000039      0.046918
      2.13653      2.13653      9.63653        -0.002477      0.007595      0.015165
      0.00017      2.13709     11.78525        -0.031836      0.037966     -0.013948
      2.14272      4.27299     11.78609        -0.019512      0.005333     -0.065844
      0.02133      4.27357     13.90807        -0.292775      0.013570     -0.283167
      2.14031      2.13231     13.90449        -0.078348     -0.022272     -0.324942
      4.27306      6.40959      7.50000        -0.000613     -0.000268      0.632400
      6.40959      0.00000      7.50000        -0.000003      0.000154      0.628946
      4.27306      0.00000      9.63653         0.001994     -0.002845      0.017899
      6.40959      6.40959      9.63653         0.000235      0.006244      0.030960
      4.27234      6.40646     11.78799         0.035785     -0.032260     -0.047841
      6.40921      0.00283     11.78028         0.016421     -0.006339     -0.050452
      4.27075      0.00196     13.90259         0.001770     -0.030944     -0.320354
      6.41148      6.43344     13.89804         0.050340     -0.283664     -0.250311
      4.27306      2.13653      7.50000        -0.000546      0.000229      0.631083
      6.40959      4.27306      7.50000        -0.000433     -0.000026      0.626964
      4.27306      4.27306      9.63653        -0.009437      0.001842      0.026455
      6.40959      2.13653      9.63653         0.001953     -0.002644      0.024066
      4.27285      2.13957     11.78835         0.033899      0.034478     -0.071566
      6.40386      4.27210     11.77327         0.043131      0.012219      0.221996
      4.25872      4.27146     13.95621         0.264037      0.044312     -0.639704
      6.40820      2.12196     13.91190         0.087824      0.229949     -0.360166
      0.00000      6.40959      9.63653         0.003475      0.002536      0.031768
      2.13653      0.00000      9.63653        -0.001861     -0.000154      0.041508
      0.00000      0.00000      7.50000        -0.000067     -0.000170     -0.273682
      2.13653      6.40959      7.50000        -0.000330      0.001068     -0.274266
      8.54577      6.41004     13.94628         0.102040      0.089819     -0.138194
      2.13521      0.00000     13.94289         0.042278      0.011559     -0.114870
      8.54561      0.00040     11.77671         0.015237      0.003753      0.034685
      2.13536      6.40857     11.77692         0.022090      0.009960      0.052782
      0.00000      2.13653      9.63653        -0.001368     -0.000254      0.031282
      2.13653      4.27306      9.63653         0.009276      0.001229      0.045182
      0.00000      4.27306      7.50000        -0.001557      0.000255     -0.273327
      2.13653      2.13653      7.50000         0.000151     -0.001031     -0.274178
      0.00021      2.13845     13.94724         0.086503     -0.084242     -0.125706
      2.13611      4.27387     13.94811         0.094067     -0.010708     -0.052965
      8.54215      4.27378     11.78148         0.108605     -0.004807     -0.033660
      2.13402      2.13808     11.77556         0.028806     -0.010893      0.063230
      4.27306      6.40959      9.63653        -0.000752     -0.009260      0.038961
      6.40959      0.00000      9.63653         0.003697      0.004842      0.035768
      4.27306      0.00000      7.50000         0.000104      0.000315     -0.273874
      6.40959      6.40959      7.50000         0.000421     -0.000371     -0.272926
      4.27717      6.41666     13.93765        -0.086151     -0.013928     -0.016407
      6.41315      0.00205     13.94121        -0.040352      0.016503     -0.101139
      4.27437      8.54499     11.77242        -0.016187      0.011800      0.075627
      6.41188      6.40644     11.77839        -0.021879      0.088371     -0.017913
      4.27306      2.13653      9.63653         0.000724      0.008163      0.044740
      6.40959      4.27306      9.63653        -0.008084     -0.000590      0.015334
      4.27306      4.27306      7.50000         0.001591     -0.000384     -0.274025
      6.40959      2.13653      7.50000        -0.000211      0.000546     -0.273011
      4.27279      2.12808     13.92727        -0.042371      0.049111      0.069325
      6.42544      4.27730     13.95842        -0.199536     -0.052321     -0.116105
      4.27704      4.27400     11.78490        -0.077409     -0.008922     -0.000451
      6.41198      2.14106     11.77931        -0.026279     -0.080939     -0.008788
    total drift:                                0.000989      0.000144      0.012188

  FREE ENERGIE OF THE ION-ELECTRON SYSTEM (eV)
  free  energy   TOTEN  =      -437.12443596 eV

  energy  without entropy=     -437.12443596  energy(sigma->0) =     -437.12443596