 vasp.6.3.0 20Jan22 (build Apr  1 2022 16:44:48) complex
 executed on        HPECrayEX_GCC date 2023.01.26  19:12:03

 INCAR:
   SYSTEM = MgO-rocksalt
   ISMEAR = 0
   SIGMA = 0.05
   EDIFF = 1E-6
   ALGO = ALL
   ISTART = 0
   IBRION = -1
   NSW = 0
   ISYM = 0
   DIPOL = 0.5 0.5 0.5
   IDIPOL = 3
   LDIPOL = .TRUE.
   LHFCALC = .TRUE.
   GGA = B5
   AEXX = 0.2
   AGGAX = 0.72
   AGGAC = 0.81
   ALDAC = 0.19
   IVDW = 1
   VDW_S6 = 1.05
   VDW_C6 = 0.63 0.70
   VDW_R0 = 1.243 1.342
   ENCUT = 600
   PREC = Accurate
   LASPH = .TRUE.
   LREAL = .FALSE.
   ISPIN = 1
   NELM = 200
   NELMIN = 8
   NCORE = 8
   KPAR = 1
   LWAVE = .FALSE.
   LCHARG = .FALSE.

 POTCAR:    PAW_PBE Mg_pv 13Apr2007
 POTCAR:    PAW_PBE O 08Apr2002
 POTCAR:    PAW_PBE Mg_pv 13Apr2007
   VRHFIN =Mg: p6s2

   TITEL  = PAW_PBE Mg_pv 13Apr2007
   POMASS =   24.305; ZVAL   =    8.000    mass and valenz
   ENMAX  =  403.929; ENMIN  =  302.947 eV

   TITEL  = PAW_PBE O 08Apr2002
   POMASS =   16.000; ZVAL   =    6.000    mass and valenz
   ENMAX  =  400.000; ENMIN  =  300.000 eV

  PAW_PBE Mg_pv 13Apr2007               :
  PAW_PBE O 08Apr2002                   :

 POSCAR: Mg  O
  positions in direct lattice
 exchange correlation table for  LEXCH =       12
   RHO(1)=    0.500       N(1)  =     2000
   RHO(2)=  100.500       N(2)  =     4000

 ion  position               nearest neighbor table
   1  0.250  0.000  0.351-  33 2.12  35 2.12  36 2.12  43 2.12  52 2.12
   2  0.500  0.250  0.351-  34 2.12  35 2.12  36 2.12  44 2.12  51 2.12
   3  0.250  0.250  0.450-  35 2.12  34 2.12  33 2.12  41 2.12  50 2.12  39 2.12
   4  0.500  0.000  0.450-  36 2.12  34 2.12  33 2.12  42 2.12  49 2.12  40 2.12
   5  0.250  0.000  0.550-  40 2.12  47 2.12  39 2.12  56 2.12  33 2.13  37 2.14
   6  0.500  0.250  0.550-  48 2.12  55 2.12  39 2.12  40 2.12  34 2.13  38 2.13
   7  0.250  0.250  0.648-  39 2.11  54 2.11  37 2.11  38 2.12  45 2.12
   8  0.500  0.002  0.648-  38 2.09  40 2.10  46 2.11  37 2.12  53 2.12
   9  0.250  0.500  0.351-  41 2.12  35 2.12  43 2.12  44 2.12  60 2.12
  10  0.500  0.750  0.351-  42 2.12  36 2.12  43 2.12  44 2.12  59 2.12
  11  0.250  0.750  0.450-  43 2.12  41 2.12  42 2.12  33 2.12  58 2.12  47 2.12
  12  0.500  0.500  0.450-  44 2.12  41 2.12  42 2.12  34 2.12  57 2.12  48 2.13
  13  0.250  0.500  0.550-  48 2.12  47 2.12  39 2.12  64 2.12  41 2.13  45 2.13
  14  0.501  0.749  0.550-  48 2.11  63 2.11  47 2.12  40 2.12  42 2.13  46 2.16
  15  0.248  0.750  0.648-  62 2.09  47 2.10  46 2.11  37 2.12  45 2.12
  16  0.498  0.498  0.651-  45 2.11  38 2.11  48 2.15  61 2.16  46 2.16
  17  0.750  0.000  0.351-  49 2.12  36 2.12  51 2.12  52 2.12  59 2.12
  18  0.000  0.250  0.351-  50 2.12  35 2.12  51 2.12  52 2.12  60 2.12
  19  0.750  0.250  0.450-  51 2.12  49 2.12  50 2.12  34 2.12  57 2.12  55 2.12
  20  0.000  0.000  0.450-  52 2.12  49 2.12  50 2.12  33 2.12  58 2.12  56 2.12
  21  0.750  1.000  0.550-  63 2.12  40 2.12  56 2.12  55 2.12  49 2.13  53 2.13
  22  0.000  0.250  0.550-  64 2.12  55 2.12  39 2.12  56 2.12  50 2.13  54 2.14
  23  0.750  0.248  0.648-  53 2.09  55 2.10  61 2.11  54 2.12  38 2.12
  24  0.001  0.001  0.648-  56 2.11  37 2.11  54 2.11  62 2.12  53 2.12
  25  0.750  0.500  0.351-  57 2.12  51 2.12  44 2.12  59 2.12  60 2.12
  26  0.000  0.750  0.351-  58 2.12  52 2.12  43 2.12  59 2.12  60 2.12
  27  0.750  0.750  0.450-  59 2.12  49 2.12  57 2.12  58 2.12  42 2.12  63 2.13
  28  0.000  0.500  0.450-  60 2.12  50 2.12  57 2.12  58 2.12  41 2.12  64 2.12
  29  0.749  0.501  0.550-  48 2.11  63 2.11  55 2.12  64 2.12  57 2.13  61 2.16
  30  1.000  0.750  0.550-  63 2.12  64 2.12  56 2.12  47 2.12  58 2.13  62 2.13
  31  0.753  0.753  0.651-  53 2.11  62 2.11  63 2.14  46 2.16  61 2.16
  32  0.002  0.500  0.648-  45 2.09  64 2.10  61 2.11  54 2.12  62 2.12
  33  0.250  0.000  0.450-   1 2.12   3 2.12   4 2.12  11 2.12  20 2.12   5 2.13
  34  0.500  0.250  0.450-   2 2.12   3 2.12   4 2.12  12 2.12  19 2.12   6 2.13
  35  0.250  0.250  0.351-   3 2.12   2 2.12   1 2.12   9 2.12  18 2.12
  36  0.500  0.000  0.351-   4 2.12   2 2.12   1 2.12  10 2.12  17 2.12
  37  0.250  0.000  0.651-  24 2.11   7 2.11   8 2.12  15 2.12   5 2.14
  38  0.500  0.249  0.650-   8 2.09  16 2.11   7 2.12  23 2.12   6 2.13
  39  0.250  0.250  0.550-   7 2.11   6 2.12  13 2.12  22 2.12   5 2.12   3 2.12
  40  0.500  1.000  0.550-   8 2.10  21 2.12   5 2.12  14 2.12   4 2.12   6 2.12
  41  0.250  0.500  0.450-   9 2.12   3 2.12  11 2.12  12 2.12  28 2.12  13 2.13
  42  0.500  0.750  0.450-  10 2.12   4 2.12  11 2.12  12 2.12  27 2.12  14 2.13
  43  0.250  0.750  0.351-  11 2.12   9 2.12  10 2.12   1 2.12  26 2.12
  44  0.500  0.500  0.351-  12 2.12   9 2.12  10 2.12   2 2.12  25 2.12
  45  0.249  0.500  0.650-  32 2.09  16 2.11   7 2.12  15 2.12  13 2.13
  46  0.498  0.752  0.651-   8 2.11  15 2.11  16 2.16  31 2.16  14 2.16
  47  0.251  0.750  0.550-  15 2.10  13 2.12   5 2.12  14 2.12  11 2.12  30 2.12
  48  0.500  0.500  0.550-  14 2.11  29 2.11  13 2.12   6 2.12  12 2.13  16 2.15
  49  0.750  0.000  0.450-  17 2.12   4 2.12  19 2.12  20 2.12  27 2.12  21 2.13
  50  0.000  0.250  0.450-  18 2.12   3 2.12  19 2.12  20 2.12  28 2.12  22 2.13
  51  0.750  0.250  0.351-  19 2.12  17 2.12  18 2.12   2 2.12  25 2.12
  52  0.000  0.000  0.351-  20 2.12  17 2.12  18 2.12   1 2.12  26 2.12
  53  0.750  0.001  0.650-  23 2.09  31 2.11  24 2.12   8 2.12  21 2.13
  54  0.000  0.250  0.651-  24 2.11   7 2.11  32 2.12  23 2.12  22 2.14
  55  0.750  0.251  0.550-  23 2.10   6 2.12  22 2.12  29 2.12  19 2.12  21 2.12
  56  0.000  0.000  0.550-  24 2.11  30 2.12  21 2.12   5 2.12  22 2.12  20 2.12
  57  0.750  0.500  0.450-  25 2.12  19 2.12  12 2.12  27 2.12  28 2.12  29 2.13
  58  0.000  0.750  0.450-  26 2.12  20 2.12  11 2.12  27 2.12  28 2.12  30 2.13
  59  0.750  0.750  0.351-  27 2.12  17 2.12  25 2.12  26 2.12  10 2.12
  60  0.000  0.500  0.351-  28 2.12  18 2.12  25 2.12  26 2.12   9 2.12
  61  0.752  0.498  0.651-  32 2.11  23 2.11  16 2.16  31 2.16  29 2.16
  62  0.001  0.750  0.650-  15 2.09  31 2.11  24 2.12  32 2.12  30 2.13
  63  0.750  0.750  0.550-  29 2.11  14 2.11  30 2.12  21 2.12  27 2.13  31 2.14
  64  1.000  0.500  0.550-  32 2.10  30 2.12  22 2.12  29 2.12  28 2.12  13 2.12

IMPORTANT INFORMATION: All symmetrisations will be switched off!
NOSYMM: (Re-)initialisation of all symmetry stuff for point group C_1.

                                     Primitive cell

  volume of cell :    1530.6606

  direct lattice vectors                    reciprocal lattice vectors
     8.467142631  0.000000000  0.000000000     0.118103597  0.000000000  0.000000000
     0.000000000  8.467142631  0.000000000     0.000000000  0.118103597  0.000000000
     0.000000000  0.000000000 21.350356973     0.000000000  0.000000000  0.046837624

  length of vectors
     8.467142631  8.467142631 21.350356973     0.118103597  0.118103597  0.046837624

  position of ions in fractional coordinates (direct lattice)
     0.250000000  0.000000000  0.351282183
     0.500000000  0.250000000  0.351282183
     0.250000000  0.250000000  0.450427394
     0.500000000  0.000000000  0.450427394
     0.250077680  0.000008961  0.550056497
     0.500031447  0.250465667  0.550269438
     0.249634973  0.249634968  0.648389504
     0.499684473  0.001668243  0.648310805
     0.250000000  0.500000000  0.351282183
     0.500000000  0.750000000  0.351282183
     0.250000000  0.750000000  0.450427394
     0.500000000  0.500000000  0.450427394
     0.250465665  0.500031447  0.550269442
     0.500598467  0.749470231  0.550093778
     0.248471357  0.750444499  0.648310874
     0.497704184  0.497704190  0.650940502
     0.750000000  0.000000000  0.351282183
     0.000000000  0.250000000  0.351282183
     0.750000000  0.250000000  0.450427394
     0.000000000  0.000000000  0.450427394
     0.750037726  0.999649832  0.550254008
     0.000008973  0.250077685  0.550056497
     0.750444492  0.248471358  0.648310869
     0.000511658  0.000511657  0.648375765
     0.750000000  0.500000000  0.351282183
     0.000000000  0.750000000  0.351282183
     0.750000000  0.750000000  0.450427394
     0.000000000  0.500000000  0.450427394
     0.749470246  0.500598467  0.550093776
     0.999649825  0.750037741  0.550254013
     0.752505500  0.752505520  0.650833694
     0.001668232  0.499684474  0.648310814
     0.250000000  0.000000000  0.450427394
     0.500000000  0.250000000  0.450427394
     0.250000000  0.250000000  0.351282183
     0.500000000  0.000000000  0.351282183
     0.249806872  0.000323331  0.650513307
     0.499824062  0.248754385  0.650261677
     0.250047117  0.250047113  0.549647183
     0.500068608  0.999551798  0.549750410
     0.250000000  0.500000000  0.450427394
     0.500000000  0.750000000  0.450427394
     0.250000000  0.750000000  0.351282183
     0.500000000  0.500000000  0.351282183
     0.248754383  0.499824058  0.650261689
     0.497920970  0.752231115  0.651110075
     0.250538065  0.749999301  0.549748806
     0.500381534  0.500381536  0.550425057
     0.750000000  0.000000000  0.450427394
     0.000000000  0.250000000  0.450427394
     0.750000000  0.250000000  0.351282183
     0.000000000  0.000000000  0.351282183
     0.750312327  0.001415846  0.650223025
     0.000323338  0.249806878  0.650513311
     0.749999306  0.250538075  0.549748802
     0.000036614  0.000036612  0.549638027
     0.750000000  0.500000000  0.450427394
     0.000000000  0.750000000  0.450427394
     0.750000000  0.750000000  0.351282183
     0.000000000  0.500000000  0.351282183
     0.752231108  0.497920959  0.651110074
     0.001415838  0.750312341  0.650223030
     0.749702416  0.749702412  0.550407763
     0.999551801  0.500068607  0.549750413

  ion indices of the primitive-cell ions
   primitive index   ion index
                 1           1
                 2           2
                 3           3
                 4           4
                 5           5
                 6           6
                 7           7
                 8           8
                 9           9
                10          10
                11          11
                12          12
                13          13
                14          14
                15          15
                16          16
                17          17
                18          18
                19          19
                20          20
                21          21
                22          22
                23          23
                24          24
                25          25
                26          26
                27          27
                28          28
                29          29
                30          30
                31          31
                32          32
                33          33
                34          34
                35          35
                36          36
                37          37
                38          38
                39          39
                40          40
                41          41
                42          42
                43          43
                44          44
[...]
   0.50000000  0.75000000  0.45042739
   0.25000000  0.75000000  0.35128218
   0.50000000  0.50000000  0.35128218
   0.24875438  0.49982406  0.65026169
   0.49792097  0.75223112  0.65111008
   0.25053807  0.74999930  0.54974881
   0.50038153  0.50038154  0.55042506
   0.75000000  0.00000000  0.45042739
   0.00000000  0.25000000  0.45042739
   0.75000000  0.25000000  0.35128218
   0.00000000  0.00000000  0.35128218
   0.75031233  0.00141585  0.65022302
   0.00032334  0.24980688  0.65051331
   0.74999931  0.25053808  0.54974880
   0.00003661  0.00003661  0.54963803
   0.75000000  0.50000000  0.45042739
   0.00000000  0.75000000  0.45042739
   0.75000000  0.75000000  0.35128218
   0.00000000  0.50000000  0.35128218
   0.75223111  0.49792096  0.65111007
   0.00141584  0.75031234  0.65022303
   0.74970242  0.74970241  0.55040776
   0.99955180  0.50006861  0.54975041

 position of ions in cartesian coordinates  (Angst):
   2.11678566  0.00000000  7.50000000
   4.23357132  2.11678566  7.50000000
   2.11678566  2.11678566  9.61678566
   4.23357132  0.00000000  9.61678566
   2.11744338  0.00007587 11.74390258
   4.23383758  2.12072853 11.74844893
   2.11369492  2.11369488 13.84334736
   4.23089971  0.01412525 13.84166712
   2.11678566  4.23357132  7.50000000
   4.23357132  6.35035697  7.50000000
   2.11678566  6.35035697  9.61678566
   4.23357132  4.23357132  9.61678566
   2.12072851  4.23383758 11.74844901
   4.23863862  6.34587134 11.74469853
   2.10384242  6.35412061 13.84166859
   4.21413231  4.21413236 13.89781209
   6.35035697  0.00000000  7.50000000
   0.00000000  2.11678566  7.50000000
   6.35035697  2.11678566  9.61678566
   0.00000000  0.00000000  9.61678566
   6.35067640  8.46417771 11.74811949
   0.00007598  2.11744343 11.74390257
   6.35412055  2.10384243 13.84166849
   0.00433228  0.00433227 13.84305403
   6.35035697  4.23357132  7.50000000
   0.00000000  6.35035697  7.50000000
   6.35035697  6.35035697  9.61678566
   0.00000000  4.23357132  9.61678566
   6.34587147  4.23863862 11.74469848
   8.46417764  6.35067653 11.74811961
   6.37157140  6.37157157 13.89553170
   0.01412516  4.23089971 13.84166732
   2.11678566  0.00000000  9.61678566
   4.23357132  2.11678566  9.61678566
   2.11678566  2.11678566  7.50000000
   4.23357132  0.00000000  7.50000000
   2.11515042  0.00273769 13.88869133
   4.23208162  2.10623886 13.88331894
   2.11718460  2.11718457 11.73516356
   4.23415223  8.46334764 11.73736749
   2.11678566  4.23357132  9.61678566
   4.23357132  6.35035697  9.61678566
   2.11678566  6.35035697  7.50000000
   4.23357132  4.23357132  7.50000000
   2.10623884  4.23208159 13.88331918
   4.21596787  6.36924814 13.90143254
   2.12134153  6.35035105 11.73733325
   4.23680182  4.23680184 11.75177146
   6.35035697  0.00000000  9.61678566
   0.00000000  2.11678566  9.61678566
   6.35035697  2.11678566  7.50000000
   0.00000000  0.00000000  7.50000000
   6.35300149  0.01198817 13.88249369
   0.00273775  2.11515047 13.88869140
   6.35035109  2.12134162 11.73733318
   0.00031001  0.00031000 11.73496808
   6.35035697  4.23357132  9.61678566
   0.00000000  6.35035697  9.61678566
   6.35035697  6.35035697  7.50000000
   0.00000000  4.23357132  7.50000000
   6.36924808  4.21596778 13.90143251
   0.01198811  6.35300161 13.88249381
   6.34783728  6.34783725 11.75140222
   8.46334767  4.23415222 11.73736757

--------------------------------------- Iteration      FINAL  ---------------------------------------

--------------------OUTCAR has been truncated-------------------------

[...]

--------------------OUTCAR has been truncated-------------------------

  DFT-D2 method for vdW energy calculation

  Parameters of vdW forcefield:
         C6(Jnm^6/mol)     R0(A)
   Mg       0.630          1.243
   O        0.700          1.342

  vdW correction parametrized for the method 4þ      

  IVDW =   1
  VDW_RADIUS =    50.000 A
  VDW_S6 =     1.050
  VDW_SR =     1.000
  VDW_D =    20.000
  LVDW_EWALD = F

  Number of pair interactions contributing to vdW energy:  719220
  Edisp (eV):   -5.01276

 VOLUME and BASIS-vectors are now :
  energy-cutoff  :      600.00
  volume of cell :     1530.66
      direct lattice vectors                 reciprocal lattice vectors
     8.467142631  0.000000000  0.000000000     0.118103597  0.000000000  0.000000000
     0.000000000  8.467142631  0.000000000     0.000000000  0.118103597  0.000000000
     0.000000000  0.000000000 21.350356973     0.000000000  0.000000000  0.046837624

  length of vectors
     8.467142631  8.467142631 21.350356973     0.118103597  0.118103597  0.046837624

 FORCES acting on ions:
    Electron-Ion                     Ewald-Force                    Non-Local-Force
   -.120E+00 0.114E+00 0.205E+04   0.119E+00 -.112E+00 -.205E+04   0.737E-03 -.998E-03 -.638E+01
   -.114E+00 -.154E+00 0.205E+04   0.113E+00 0.155E+00 -.205E+04   0.932E-03 -.830E-03 -.638E+01
   -.724E+00 -.724E+00 0.681E+03   0.733E+00 0.733E+00 -.681E+03   -.542E-02 -.541E-02 0.394E+00
   -.707E+00 0.252E+00 0.680E+03   0.715E+00 -.252E+00 -.680E+03   -.496E-02 0.266E-03 0.374E+00
   -.111E+01 0.109E+01 -.682E+03   0.120E+01 -.117E+01 0.682E+03   -.584E-01 0.565E-01 -.151E+00
   -.123E+01 -.252E+01 -.683E+03   0.132E+01 0.268E+01 0.683E+03   -.569E-01 -.141E+00 -.228E+00
   -.166E+01 -.166E+01 -.204E+04   0.126E+01 0.126E+01 0.203E+04   0.301E+00 0.301E+00 0.557E+01
   -.219E+01 0.662E+01 -.204E+04   0.181E+01 -.688E+01 0.203E+04   0.289E+00 0.558E-01 0.550E+01
   -.154E+00 -.114E+00 0.205E+04   0.155E+00 0.113E+00 -.205E+04   -.831E-03 0.931E-03 -.638E+01
   -.148E+00 0.154E+00 0.205E+04   0.149E+00 -.155E+00 -.205E+04   -.972E-03 0.993E-03 -.638E+01
   -.272E+00 0.740E+00 0.680E+03   0.277E+00 -.747E+00 -.680E+03   -.358E-02 0.417E-02 0.374E+00
   -.274E+00 -.274E+00 0.677E+03   0.269E+00 0.269E+00 -.677E+03   0.179E-02 0.179E-02 0.575E+00
   -.252E+01 -.123E+01 -.683E+03   0.268E+01 0.132E+01 0.683E+03   -.141E+00 -.569E-01 -.228E+00
   -.318E+01 0.320E+01 -.690E+03   0.329E+01 -.332E+01 0.690E+03   -.105E+00 0.113E+00 -.263E+00
   -.665E+01 0.216E+01 -.204E+04   0.690E+01 -.179E+01 0.203E+04   -.489E-01 -.286E+00 0.550E+01
   -.114E+02 -.114E+02 -.206E+04   0.113E+02 0.113E+02 0.205E+04   0.325E+00 0.325E+00 0.596E+01
   0.121E+00 0.148E+00 0.205E+04   -.119E+00 -.149E+00 -.205E+04   -.916E-03 0.548E-03 -.638E+01
   0.114E+00 -.120E+00 0.205E+04   -.112E+00 0.119E+00 -.205E+04   -.983E-03 0.736E-03 -.638E+01
   0.740E+00 -.272E+00 0.680E+03   -.747E+00 0.277E+00 -.680E+03   0.416E-02 -.359E-02 0.374E+00
   0.706E+00 0.706E+00 0.681E+03   -.710E+00 -.710E+00 -.681E+03   0.235E-02 0.234E-02 0.391E+00
   0.126E+01 0.250E+01 -.683E+03   -.135E+01 -.266E+01 0.683E+03   0.582E-01 0.132E+00 -.232E+00
   0.109E+01 -.111E+01 -.682E+03   -.117E+01 0.120E+01 0.682E+03   0.565E-01 -.584E-01 -.151E+00
   0.216E+01 -.665E+01 -.204E+04   -.179E+01 0.690E+01 0.203E+04   -.286E+00 -.489E-01 0.550E+01
   0.169E+01 0.169E+01 -.204E+04   -.129E+01 -.129E+01 0.203E+04   -.304E+00 -.304E+00 0.557E+01
   0.154E+00 -.148E+00 0.205E+04   -.155E+00 0.149E+00 -.205E+04   0.975E-03 -.970E-03 -.638E+01
   0.148E+00 0.121E+00 0.205E+04   -.149E+00 -.119E+00 -.205E+04   0.548E-03 -.912E-03 -.638E+01
   0.307E+00 0.307E+00 0.677E+03   -.300E+00 -.300E+00 -.677E+03   -.306E-02 -.305E-02 0.573E+00
   0.252E+00 -.707E+00 0.680E+03   -.252E+00 0.715E+00 -.680E+03   0.270E-03 -.497E-02 0.374E+00
   0.320E+01 -.318E+01 -.690E+03   -.332E+01 0.329E+01 0.690E+03   0.113E+00 -.105E+00 -.263E+00
   0.250E+01 0.126E+01 -.683E+03   -.266E+01 -.135E+01 0.683E+03   0.133E+00 0.582E-01 -.232E+00
   0.115E+02 0.115E+02 -.206E+04   -.113E+02 -.113E+02 0.205E+04   -.331E+00 -.331E+00 0.595E+01
   0.662E+01 -.219E+01 -.204E+04   -.688E+01 0.181E+01 0.203E+04   0.558E-01 0.289E+00 0.550E+01
   -.364E+00 0.351E+00 0.510E+03   0.366E+00 -.357E+00 -.510E+03   -.221E-02 0.721E-02 -.841E-01
   -.357E+00 -.568E+00 0.509E+03   0.361E+00 0.529E+00 -.508E+03   -.451E-02 0.471E-01 -.106E+00
   -.118E+00 -.118E+00 0.154E+04   0.118E+00 0.118E+00 -.155E+04   -.146E-03 -.109E-03 0.313E+01
   -.114E+00 0.761E-01 0.154E+04   0.114E+00 -.754E-01 -.155E+04   0.180E-03 -.915E-03 0.313E+01
   -.149E+01 0.147E+01 -.155E+04   0.172E+01 -.170E+01 0.155E+04   -.248E+00 0.246E+00 -.458E+01
   -.186E+01 -.402E+01 -.155E+04   0.207E+01 0.399E+01 0.155E+04   -.231E+00 0.121E+00 -.414E+01
   -.911E+00 -.911E+00 -.504E+03   0.895E+00 0.895E+00 0.504E+03   0.176E-01 0.177E-01 0.437E+00
   -.100E+01 0.151E+01 -.505E+03   0.988E+00 -.163E+01 0.505E+03   0.170E-01 0.174E+00 0.391E+00
   -.568E+00 -.357E+00 0.509E+03   0.529E+00 0.361E+00 -.508E+03   0.471E-01 -.451E-02 -.106E+00
   -.555E+00 0.578E+00 0.508E+03   0.507E+00 -.534E+00 -.508E+03   0.584E-01 -.534E-01 -.979E-01
   -.809E-01 0.118E+00 0.154E+04   0.802E-01 -.119E+00 -.155E+04   0.793E-03 0.217E-03 0.313E+01
   -.762E-01 -.763E-01 0.154E+04   0.757E-01 0.757E-01 -.155E+04   0.654E-03 0.679E-03 0.313E+01
   -.402E+01 -.186E+01 -.155E+04   0.399E+01 0.207E+01 0.155E+04   0.121E+00 -.231E+00 -.414E+01
   -.785E+01 0.777E+01 -.155E+04   0.801E+01 -.792E+01 0.155E+04   0.103E-01 -.174E-01 -.394E+01
   -.155E+01 0.102E+01 -.505E+03   0.168E+01 -.101E+01 0.505E+03   -.176E+00 -.191E-01 0.390E+00
   -.195E+01 -.195E+01 -.520E+03   0.203E+01 0.203E+01 0.520E+03   -.118E+00 -.118E+00 -.177E+00
   0.382E+00 0.562E+00 0.509E+03   -.390E+00 -.529E+00 -.508E+03   0.869E-02 -.411E-01 -.102E+00
   0.351E+00 -.364E+00 0.510E+03   -.357E+00 0.366E+00 -.510E+03   0.722E-02 -.220E-02 -.841E-01
   0.118E+00 -.809E-01 0.154E+04   -.119E+00 0.802E-01 -.155E+04   0.257E-03 0.799E-03 0.313E+01
   0.113E+00 0.113E+00 0.154E+04   -.113E+00 -.113E+00 -.155E+04   -.329E-04 -.459E-05 0.313E+01
   0.186E+01 0.404E+01 -.155E+04   -.207E+01 -.400E+01 0.155E+04   0.232E+00 -.132E+00 -.414E+01
   0.147E+01 -.149E+01 -.155E+04   -.170E+01 0.172E+01 0.155E+04   0.246E+00 -.248E+00 -.458E+01
   0.102E+01 -.155E+01 -.505E+03   -.101E+01 0.168E+01 0.505E+03   -.191E-01 -.176E+00 0.390E+00
   0.887E+00 0.887E+00 -.504E+03   -.873E+00 -.873E+00 0.504E+03   -.164E-01 -.164E-01 0.436E+00
   0.578E+00 -.555E+00 0.508E+03   -.534E+00 0.507E+00 -.508E+03   -.534E-01 0.584E-01 -.979E-01
   0.562E+00 0.382E+00 0.509E+03   -.529E+00 -.390E+00 -.508E+03   -.411E-01 0.869E-02 -.102E+00
   0.806E-01 0.806E-01 0.154E+04   -.804E-01 -.804E-01 -.155E+04   -.234E-03 -.233E-03 0.313E+01
   0.761E-01 -.114E+00 0.154E+04   -.754E-01 0.114E+00 -.155E+04   -.886E-03 0.159E-03 0.313E+01
   0.777E+01 -.785E+01 -.155E+04   -.792E+01 0.801E+01 0.155E+04   -.174E-01 0.103E-01 -.394E+01
   0.404E+01 0.186E+01 -.155E+04   -.400E+01 -.207E+01 0.155E+04   -.132E+00 0.232E+00 -.414E+01
   0.198E+01 0.198E+01 -.519E+03   -.206E+01 -.206E+01 0.519E+03   0.117E+00 0.117E+00 -.153E+00
   0.151E+01 -.100E+01 -.505E+03   -.163E+01 0.988E+00 0.505E+03   0.174E+00 0.170E-01 0.391E+00
   0.160E-01 0.160E-01 0.131E+02   0.485E-12 -.169E-12 -.227E-11   -.138E-01 -.138E-01 -.115E+02

 POSITION                                       TOTAL-FORCE (eV/Angst)
      2.11679      0.00000      7.50000        -0.000285      0.000342      0.511894
      4.23357      2.11679      7.50000        -0.000357      0.000104      0.511653
      2.11679      2.11679      9.61679         0.002679      0.002685      0.018238
      4.23357      0.00000      9.61679         0.002639      0.000879      0.041464
      2.11744      0.00008     11.74390         0.023819     -0.024193     -0.038974
      4.23384      2.12073     11.74845         0.024849      0.010166     -0.083486
      2.11369      2.11369     13.84335        -0.060655     -0.060660     -0.153852
      4.23090      0.01413     13.84167        -0.060504     -0.189087     -0.120110
      2.11679      4.23357      7.50000         0.000100     -0.000358      0.511585
      4.23357      6.35036      7.50000         0.000143     -0.000179      0.511006
      2.11679      6.35036      9.61679         0.000755     -0.002131      0.041236
      4.23357      4.23357      9.61679        -0.002773     -0.002756      0.040147
      2.12073      4.23384     11.74845         0.010159      0.024852     -0.083500
      4.23864      6.34587     11.74470        -0.004324      0.003222      0.139289
      2.10384      6.35412     13.84167         0.188642      0.060302     -0.120705
      4.21413      4.21413     13.89781         0.230924      0.230906     -0.493101
      6.35036      0.00000      7.50000         0.000314     -0.000033      0.511407
      0.00000      2.11679      7.50000         0.000346     -0.000291      0.511894
      6.35036      2.11679      9.61679        -0.002129      0.000757      0.041270
      0.00000      0.00000      9.61679        -0.001256     -0.001261      0.018013
      6.35068      8.46418     11.74812        -0.024523     -0.009635     -0.083537
      0.00008      2.11744     11.74390        -0.024183      0.023832     -0.038962
      6.35412      2.10384     13.84167         0.060285      0.188634     -0.120774
      0.00433      0.00433     13.84305         0.060277      0.060268     -0.154161
      6.35036      4.23357      7.50000        -0.000187      0.000137      0.510955
      0.00000      6.35036      7.50000        -0.000026      0.000307      0.511391
      6.35036      6.35036      9.61679         0.003595      0.003589      0.039329
      0.00000      4.23357      9.61679         0.000879      0.002647      0.041453
      6.34587      4.23864     11.74470         0.003218     -0.004319      0.139289
      8.46418      6.35068     11.74812        -0.009624     -0.024522     -0.083577
      6.37157      6.37157     13.89553        -0.234722     -0.234724     -0.481291
      0.01413      4.23090     13.84167        -0.189105     -0.060512     -0.120061
      2.11679      0.00000      9.61679        -0.000546      0.001965      0.042720
      4.23357      2.11679      9.61679        -0.001214      0.014898      0.058517
      2.11679      2.11679      7.50000        -0.000076     -0.000090     -0.394140
      4.23357      0.00000      7.50000         0.000007     -0.000311     -0.393390
      2.11515      0.00274     13.88869        -0.052586      0.052229     -0.090945
      4.23208      2.10624     13.88332        -0.048038      0.112929      0.049293
      2.11718      2.11718     11.73516         0.004540      0.004549      0.062727
      4.23415      8.46335     11.73737         0.005348      0.077948      0.021784
      2.11679      4.23357      9.61679         0.014879     -0.001196      0.058525
      4.23357      6.35036      9.61679         0.018248     -0.016780      0.043519
      2.11679      6.35036      7.50000         0.000242      0.000106     -0.393298
      4.23357      4.23357      7.50000         0.000210      0.000204     -0.393299
      2.10624      4.23208     13.88332         0.112925     -0.048016      0.049280
      4.21597      6.36925     13.90143         0.186351     -0.187080      0.024879
      2.12134      6.35035     11.73733        -0.078115     -0.005350      0.021728
      4.23680      4.23680     11.75177        -0.058368     -0.058343     -0.007491
      6.35036      0.00000      9.61679         0.002408     -0.013223      0.058159
      0.00000      2.11679      9.61679         0.001978     -0.000528      0.042723
      6.35036      2.11679      7.50000         0.000109      0.000255     -0.393362
      0.00000      0.00000      7.50000        -0.000003      0.000002     -0.394040
      6.35300      0.01199     13.88249         0.048018     -0.116288      0.050730
      0.00274      2.11515     13.88869         0.052263     -0.052566     -0.090994
      6.35035      2.12134     11.73733        -0.005331     -0.078106      0.021729
      0.00031      0.00031     11.73497        -0.004620     -0.004641      0.062736
      6.35036      4.23357      9.61679        -0.016748      0.018278      0.043508
      0.00000      6.35036      9.61679        -0.013213      0.002382      0.058171
      6.35036      6.35036      7.50000        -0.000079     -0.000082     -0.393200
      0.00000      4.23357      7.50000        -0.000323      0.000009     -0.393334
      6.36925      4.21597     13.90143        -0.187071      0.186377      0.024862
      0.01199      6.35300     13.88249        -0.116269      0.048008      0.050911
      6.34784      6.34784     11.75140         0.058149      0.058117     -0.006208
      8.46335      4.23415     11.73737         0.077953      0.005375      0.021776
    total drift:                                0.000934      0.000911      0.005381

  FREE ENERGIE OF THE ION-ELECTRON SYSTEM (eV)
  free  energy   TOTEN  =      -438.14355780 eV

  energy  without entropy=     -438.14355780  energy(sigma->0) =     -438.14355780