 vasp.6.4.2 20Jul23 (build Feb 22 2024 13:53:45) complex
 executed on              LinuxNV date 2024.08.27  13:44:25
 OpenACC runtime initialized ...    4 GPUs detected

 INCAR:
   SYSTEM = Oxide-Surface
   ISMEAR = 0
   SIGMA = 0.05
   EDIFF = 1E-5
   ALGO = Normal
   IBRION = -1
   NSW = 0
   ISYM = 0
   DIPOL = 0.5 0.5 0.5
   IDIPOL = 3
   LDIPOL = .TRUE.
   ISTART = 1
   GGA = MK
   LUSE_VDW = .TRUE.
   PARAM1 = 0.1234
   PARAM2 = 0.711357
   ZAB_VDW = -1.8867
   AGGAC = 0.0
   ENCUT = 1000
   PREC = Normal
   PRECFOCK = Normal
   LASPH = .TRUE.
   LREAL = Auto
   ISPIN = 1
   NELM = 200
   NELMIN = 8
   NCORE = 1
   KPAR = 1
   LWAVE = .FALSE.
   LCHARG = .FALSE.

 POTCAR:    PAW_PBE C_h 06Feb2004
 POTCAR:    PAW_PBE O_h 06Feb2004
 POTCAR:    PAW_PBE H_h 06Feb2004
 POTCAR:    PAW_PBE Ti_sv 26Sep2005
 POTCAR:    PAW_PBE O_h 06Feb2004
|               ----> ADVICE to this user running VASP <----                  |
|     You have switched on vdW-DFT.                                           |
|     This routine was written and supplied by Jiri Klimes. We recommend      |
|     that you carefully read and cite the following publications:            |
|       J. Klimes, D.R. Bowler, A. Michelides                                 |
|          J. Phys.: Cond Matt. 22 022201 (2010)                              |
|       J. Klimes, D.R. Bowler, A. Michelides                                 |
|          Phys. Rev. B. 83, 195131 (2011)                                    |
|     and references therein.                                                 |

   TITEL  = PAW_PBE C_h 06Feb2004
   POMASS =   12.011; ZVAL   =    4.000    mass and valenz
   ENMAX  =  700.000; ENMIN  =  500.000 eV

[...]

   TITEL  = PAW_PBE Ti_sv 26Sep2005
   POMASS =   47.880; ZVAL   =   12.000    mass and valenz
   ENMAX  =  274.610; ENMIN  =  205.957 eV

   TITEL  = PAW_PBE O_h 06Feb2004
   POMASS =   16.000; ZVAL   =    6.000    mass and valenz
   ENMAX  =  700.000; ENMIN  =  500.000 eV

 Optimization of the real space projectors (new method)

 maximal supplied QI-value         = 34.20
 optimisation between [QCUT,QGAM] = [ 16.08, 32.15] = [ 72.37,289.48] Ry
 Optimized for a Real-space Cutoff    0.71 Angstroem

   l    n(q)    QCUT    max X(q) W(low)/X(q) W(high)/X(q)  e(spline)
   0      7    16.076   134.812    0.49E-03    0.92E-03    0.59E-07
   0      7    16.076    80.524    0.48E-03    0.91E-03    0.58E-07
   1      6    16.076    79.026    0.37E-03    0.58E-03    0.12E-06
   1      6    16.076    45.188    0.36E-03    0.56E-03    0.12E-06
 Optimization of the real space projectors (new method)

[...]

   l    n(q)    QCUT    max X(q) W(low)/X(q) W(high)/X(q)  e(spline)
   0     12    16.089    12.277    0.23E-04    0.54E-05    0.15E-06
   0     12    16.089    11.419    0.26E-04    0.82E-06    0.19E-06
   1     12    16.089     4.010    0.40E-04    0.12E-04    0.58E-06
   1     12    16.089     6.182    0.55E-05    0.28E-04    0.27E-06
   2     11    16.089    47.177    0.17E-03    0.26E-03    0.90E-06
   2     11    16.089    42.437    0.17E-03    0.25E-03    0.88E-06
 Optimization of the real space projectors (new method)

 maximal supplied QI-value         = 34.20
 optimisation between [QCUT,QGAM] = [ 16.08, 32.15] = [ 72.37,289.48] Ry
 Optimized for a Real-space Cutoff    0.71 Angstroem

   l    n(q)    QCUT    max X(q) W(low)/X(q) W(high)/X(q)  e(spline)
   0      7    16.076   280.207    0.42E-03    0.69E-03    0.60E-07
   0      7    16.076   228.978    0.42E-03    0.69E-03    0.61E-07
   1      6    16.076    86.127    0.11E-03    0.66E-03    0.10E-06
   1      6    16.076    65.368    0.11E-03    0.65E-03    0.10E-06
|               ----> ADVICE to this user running VASP <----                  |
|     You enforced a specific xc type in the INCAR file but a different       |
|     type was found in the POTCAR file.                                      |
|     I HOPE YOU KNOW WHAT YOU ARE DOING!                                     |

  PAW_PBE C_h 06Feb2004                 :
  PAW_PBE O_h 06Feb2004                 :
  PAW_PBE H_h 06Feb2004                 :
  PAW_PBE Ti_sv 26Sep2005               :
  PAW_PBE O_h 06Feb2004                 :

 POSCAR:  C  O  H Ti  O
  positions in direct lattice
 exchange correlation table for  LEXCH =       43
   RHO(1)=    0.500       N(1)  =     2000
   RHO(2)=  100.500       N(2)  =     4000

 ion  position               nearest neighbor table
   1  0.510  0.588  0.825-   3 1.09   5 1.10   6 1.10   2 1.45
   2  0.539  0.498  0.789-   4 1.00   1 1.45  86 2.18
   3  0.427  0.597  0.823-   1 1.09
   4  0.615  0.493  0.787-   2 1.00
   5  0.534  0.564  0.866-   1 1.10
   6  0.549  0.667  0.814-   1 1.10
   7  0.750  0.625  0.185-  88 1.95 148 1.95 147 1.95  87 1.95  90 1.98 169 1.98
   8  0.000  0.750  0.185-  89 1.95  90 1.95 109 1.95 110 1.95  91 1.98
   9  0.000  0.625  0.315-  91 1.95 151 1.95  92 1.95 152 1.95  94 1.98  93 1.98
  10  0.750  0.750  0.315-  93 1.95 113 1.95 174 1.95 194 1.95  95 1.98  88 1.98
  11  0.750  0.625  0.445-  95 1.95  96 1.95 155 1.95 156 1.95  98 1.98 177 1.98
  12  0.000  0.750  0.445-  97 1.95  98 1.95 117 1.95 118 1.95  92 1.98  99 2.00
  13  0.007  0.625  0.572- 102 1.87 159 1.90  99 1.90 100 2.02 160 2.02 101 2.03
  14  0.756  0.750  0.580- 103 1.87 101 1.93 121 1.93 182 2.01 202 2.01  96 2.09
  15  0.751  0.626  0.713- 104 1.83 164 1.87 185 2.00 106 2.02 103 2.08 163 2.09
  16  1.000  0.750  0.699- 100 1.81 125 1.94 126 1.94 105 1.95 106 1.96
  17  0.750  0.875  0.185-  88 1.95 108 1.95 107 1.95  87 1.95 110 1.98 189 1.98
  18  0.000  0.000  0.185- 109 1.95 110 1.95 129 1.95 130 1.95 111 1.98
  19  0.000  0.875  0.315-  91 1.95 111 1.95  92 1.95 112 1.95 114 1.98 113 1.98
  20  0.750  0.000  0.315- 113 1.95 133 1.95 194 1.95 214 1.95 115 1.98 108 1.98
  21  0.750  0.875  0.445-  95 1.95  96 1.95 115 1.95 116 1.95 118 1.98 197 1.98
  22  0.000  0.000  0.445- 117 1.95 118 1.95 137 1.95 138 1.95 112 1.98 119 2.00
  23  0.007  0.875  0.572- 122 1.87  99 1.90 119 1.90 120 2.02 100 2.02 121 2.04
  24  0.756  0.000  0.580- 123 1.87 121 1.93 141 1.93 222 2.01 202 2.02 116 2.10
  25  0.750  0.875  0.714- 124 1.84 104 1.84 205 2.02 126 2.04 103 2.09 123 2.09
  26  0.000  1.000  0.699- 120 1.81 126 1.95 146 1.95 145 1.95 125 1.95
  27  0.750  0.125  0.185- 108 1.95 128 1.95 127 1.95 107 1.95 130 1.98 209 1.98
  28  0.000  0.250  0.185- 129 1.95 130 1.95 149 1.95 150 1.95 131 1.98
  29  0.000  0.125  0.315- 111 1.95 131 1.95 112 1.95 132 1.95 134 1.98 133 1.98
  30  0.750  0.250  0.315- 133 1.95 153 1.95 214 1.95 234 1.95 135 1.98 128 1.98
  31  0.750  0.125  0.445- 115 1.95 116 1.95 135 1.95 136 1.95 138 1.98 217 1.98
  32  0.000  0.250  0.445- 137 1.95 138 1.95 157 1.95 158 1.95 132 1.98 139 2.00
  33  0.007  0.125  0.572- 142 1.86 139 1.90 119 1.90 120 2.02 140 2.02 141 2.04
  34  0.756  0.250  0.579- 143 1.87 141 1.93 161 1.93 222 2.01 242 2.01 136 2.09
  35  0.750  0.124  0.714- 124 1.83 144 1.84 225 2.02 146 2.04 123 2.09 143 2.10
  36  0.000  0.250  0.699- 140 1.81 145 1.94 146 1.94 165 1.95 166 1.96
  37  0.750  0.375  0.185- 128 1.95 148 1.95 147 1.95 127 1.95 150 1.98 229 1.98
  38  0.000  0.500  0.185-  89 1.95  90 1.95 149 1.95 150 1.95 151 1.98
  39  0.000  0.375  0.315- 131 1.95 151 1.95 132 1.95 152 1.95 154 1.98 153 1.98
  40  0.750  0.500  0.315-  93 1.95 153 1.95 174 1.95 234 1.95 155 1.98 148 1.98
  41  0.750  0.375  0.445- 135 1.95 136 1.95 155 1.95 156 1.95 158 1.98 237 1.98
  42  0.000  0.500  0.445-  97 1.95  98 1.95 157 1.95 158 1.95 152 1.98 159 2.00
  43  0.007  0.375  0.572- 162 1.87 159 1.90 139 1.90 140 2.02 160 2.02 161 2.03
  44  0.756  0.500  0.580- 163 1.86 161 1.93 101 1.93 242 2.02 182 2.02 156 2.10
  45  0.751  0.373  0.713- 144 1.83 164 1.87 166 2.01 245 2.02 143 2.06 163 2.10
  46  0.001  0.500  0.699- 160 1.81 165 1.94 105 1.94 106 1.95 166 1.95
  47  0.250  0.625  0.185- 168 1.95 228 1.95 227 1.95 167 1.95  89 1.98 170 1.98
  48  0.500  0.750  0.185- 169 1.95 170 1.95 189 1.95 190 1.95 171 1.98
  49  0.500  0.625  0.315- 171 1.95 231 1.95 172 1.95 232 1.95 174 1.98 173 1.98
  50  0.250  0.750  0.315- 173 1.95 193 1.95  94 1.95 114 1.95 175 1.98 168 1.98
  51  0.250  0.625  0.445- 175 1.95 176 1.95 235 1.95 236 1.95  97 1.98 178 1.98
  52  0.500  0.750  0.445- 177 1.95 178 1.95 197 1.95 198 1.95 172 1.98 179 1.99
  53  0.507  0.623  0.574- 182 1.88 239 1.90 179 1.93 240 1.98 180 2.01 181 2.04  83 2.90
  54  0.256  0.750  0.580- 183 1.87 181 1.92 201 1.92 102 2.02 122 2.02 176 2.10
  55  0.250  0.625  0.714- 184 1.83 244 1.84 105 2.03 186 2.04 183 2.09 243 2.09
  56  0.501  0.750  0.698- 180 1.80 185 1.91 186 1.94 205 1.95 206 1.96
  57  0.250  0.875  0.185- 168 1.95 188 1.95 187 1.95 167 1.95 109 1.98 190 1.98
  58  0.500  0.000  0.185- 189 1.95 190 1.95 209 1.95 210 1.95 191 1.98
  59  0.500  0.875  0.315- 171 1.95 191 1.95 172 1.95 192 1.95 194 1.98 193 1.98
  60  0.250  0.000  0.315- 193 1.95 213 1.95 114 1.95 134 1.95 195 1.98 188 1.98
[...]
 232  0.500  0.500  0.366-  49 1.95  79 1.95  82 1.98
 233  0.348  0.375  0.315-  70 1.95  80 1.95  79 1.98
 234  0.652  0.375  0.315-  30 1.95  40 1.95  79 1.98
 235  0.250  0.500  0.394-  51 1.95  81 1.95  80 1.98
 236  0.250  0.500  0.496-  51 1.95  81 1.95  84 2.11
 237  0.598  0.375  0.445-  72 1.95  82 1.95  41 1.98
 238  0.402  0.375  0.445-  72 1.95  82 1.95  81 1.98
 239  0.501  0.500  0.525-  53 1.90  83 1.90  82 2.00
 240  0.500  0.500  0.628-  86 1.91  53 1.98  83 1.98
 241  0.350  0.375  0.576-  74 1.92  84 1.93  83 2.04
 242  0.651  0.375  0.576-  83 1.88  34 2.01  44 2.02
 243  0.250  0.500  0.655-  84 1.86  55 2.09  85 2.10
 244  0.252  0.500  0.757-  85 1.84  55 1.84
 245  0.597  0.371  0.707-  76 1.92  86 1.96  45 2.02
 246  0.407  0.374  0.711-  86 1.93  76 1.94  85 2.03

IMPORTANT INFORMATION: All symmetrisations will be switched off!
NOSYMM: (Re-)initialisation of all symmetry stuff for point group C_1.

                                     Primitive cell

  volume of cell :    3846.0501

  direct lattice vectors                    reciprocal lattice vectors
    13.003980404  0.000000000  0.000000000     0.076899531  0.000000000  0.000000000
     0.000000000 11.830378115  0.000000000     0.000000000  0.084528152  0.000000000
     0.000000000  0.000000000 25.000000000     0.000000000  0.000000000  0.040000000

  length of vectors
    13.003980404 11.830378115 25.000000000     0.076899531  0.084528152  0.040000000

  position of ions in fractional coordinates (direct lattice)
     0.510341709  0.587960969  0.825486788
     0.538682103  0.497718066  0.789040016
     0.426752452  0.597317826  0.823436931
     0.615385514  0.493008596  0.787324489
     0.533741134  0.564413803  0.866202358
     0.548755556  0.667398809  0.814179363
     0.750010663  0.625004961  0.184773010
     0.000010663  0.750004961  0.184773010
     0.000010663  0.625004961  0.314812814
     0.750010663  0.750004961  0.314812814
     0.750010663  0.625004961  0.444852618
     0.000010663  0.750004961  0.444852618
     0.007004437  0.625078947  0.572008516
     0.756144220  0.750119383  0.579538884
     0.750770416  0.625802808  0.712619678
[...]
     0.000000000  0.000000000 25.000000000     0.000000000  0.000000000  0.040000000

  length of vectors
    13.003980404 11.830378115 25.000000000     0.076899531  0.084528152  0.040000000

 FORCES acting on ions
    electron-ion (+dipol)            ewald-force                    non-local-force                 convergence-correction
   0.358E+02 -.884E+02 -.112E+04   -.396E+02 0.965E+02 0.113E+04   0.387E+01 -.828E+01 -.763E+01   -.109E-04 0.455E-04 0.616E-03
   0.223E+02 0.123E+03 -.191E+04   -.454E+02 -.151E+03 0.190E+04   0.230E+02 0.286E+02 0.116E+02   -.167E-04 -.672E-04 0.111E-02
   0.577E+02 -.157E+02 -.274E+03   -.636E+02 0.163E+02 0.274E+03   0.591E+01 -.630E+00 0.229E+00   0.155E-04 0.951E-06 0.120E-03
   -.693E+02 0.160E+02 -.328E+03   0.769E+02 -.166E+02 0.328E+03   -.748E+01 0.597E+00 0.359E+00   0.371E-06 -.217E-05 0.168E-03
   -.116E+02 0.624E+01 -.242E+03   0.132E+02 -.768E+01 0.247E+03   -.155E+01 0.143E+01 -.538E+01   -.135E-04 0.834E-05 0.152E-04
   -.188E+02 -.611E+02 -.278E+03   0.215E+02 0.660E+02 0.276E+03   -.260E+01 -.487E+01 0.134E+01   -.709E-05 0.383E-06 0.139E-03
   -.250E+01 -.565E+00 0.367E+04   0.250E+01 0.567E+00 -.368E+04   -.156E-02 -.784E-03 0.110E+01   -.974E-04 -.388E-04 0.220E-03
   -.350E+00 -.947E+00 0.389E+04   0.353E+00 0.949E+00 -.388E+04   -.225E-02 -.109E-02 -.548E+01   -.822E-05 -.461E-04 0.353E-03
   -.284E+00 -.128E+00 0.188E+04   0.291E+00 0.129E+00 -.188E+04   0.411E-02 -.552E-03 -.190E+00   0.438E-05 0.163E-05 -.358E-03
   -.989E+00 -.273E+00 0.187E+04   0.978E+00 0.274E+00 -.187E+04   0.709E-02 -.670E-03 0.320E+00   0.545E-05 -.513E-06 -.357E-03
   -.232E+01 -.535E-01 -.191E+00   0.227E+01 0.363E-01 0.107E+01   0.151E-01 0.230E-02 -.237E+00   0.204E-04 0.142E-04 -.515E-03
   0.168E+01 -.118E+01 0.128E+02   -.168E+01 0.119E+01 -.141E+02   -.158E-02 -.370E-02 0.582E+00   -.324E-05 0.129E-04 -.455E-03
   0.170E+02 -.238E+01 -.182E+04   -.164E+02 0.239E+01 0.182E+04   -.704E+00 -.102E-01 0.835E+00   -.327E-04 0.216E-05 -.490E-03
   -.146E+01 -.119E+02 -.185E+04   0.198E+01 0.119E+02 0.185E+04   -.543E+00 -.199E-03 -.995E+00   0.211E-04 0.244E-04 -.436E-03
   -.120E+03 -.196E+02 -.356E+04   0.120E+03 0.197E+02 0.356E+04   0.288E+00 -.319E-01 -.128E+01   -.412E-05 0.703E-04 0.117E-02
   -.645E+01 -.647E+01 -.370E+04   0.653E+01 0.656E+01 0.370E+04   -.816E-01 -.977E-01 0.269E+01   0.177E-04 -.116E-04 0.111E-02
   -.210E+01 -.126E+01 0.367E+04   0.209E+01 0.126E+01 -.368E+04   -.104E-02 -.112E-02 0.110E+01   -.748E-04 -.761E-04 0.354E-03
   -.304E+00 -.362E+00 0.389E+04   0.306E+00 0.364E+00 -.388E+04   -.219E-02 -.890E-03 -.548E+01   -.731E-05 -.397E-04 0.475E-03
   -.237E+00 -.352E+00 0.188E+04   0.243E+00 0.352E+00 -.188E+04   0.416E-02 -.563E-03 -.190E+00   0.244E-05 0.927E-06 -.347E-03
   -.107E+01 -.187E+00 0.187E+04   0.106E+01 0.186E+00 -.187E+04   0.703E-02 -.511E-03 0.320E+00   0.553E-05 -.207E-05 -.335E-03
   -.426E+01 -.121E+01 -.188E+01   0.423E+01 0.124E+01 0.276E+01   0.823E-02 -.493E-02 -.242E+00   0.153E-04 0.117E-04 -.508E-03
   0.222E+01 -.367E+00 0.111E+02   -.222E+01 0.367E+00 -.123E+02   -.226E-02 -.759E-03 0.580E+00   -.253E-05 0.104E-04 -.455E-03
   0.205E+02 -.370E+01 -.182E+04   -.199E+02 0.372E+01 0.182E+04   -.733E+00 -.150E-01 0.833E+00   -.363E-04 0.174E-04 -.499E-03
   0.272E+01 -.214E+01 -.187E+04   -.219E+01 0.213E+01 0.187E+04   -.579E+00 0.250E-02 -.984E+00   0.235E-04 0.818E-05 -.440E-03
   -.364E+02 -.357E+02 -.362E+04   0.362E+02 0.357E+02 0.362E+04   0.133E+00 -.186E-01 -.145E+01   -.279E-04 0.167E-04 0.124E-02
   -.557E+01 -.273E+01 -.371E+04   0.555E+01 0.274E+01 0.371E+04   0.265E-01 -.290E-02 0.274E+01   0.973E-05 -.180E-04 0.105E-02
   -.193E+01 0.551E+00 0.367E+04   0.192E+01 -.553E+00 -.368E+04   -.778E-03 -.360E-03 0.110E+01   -.660E-04 0.971E-05 0.421E-03
   -.338E+00 0.942E+00 0.389E+04   0.341E+00 -.944E+00 -.388E+04   -.227E-02 -.131E-03 -.548E+01   -.640E-05 0.461E-04 0.435E-03
   -.242E+00 0.133E+00 0.188E+04   0.249E+00 -.133E+00 -.188E+04   0.399E-02 -.563E-03 -.190E+00   0.444E-05 -.194E-05 -.332E-03
   -.917E+00 0.273E+00 0.187E+04   0.906E+00 -.274E+00 -.187E+04   0.695E-02 -.462E-03 0.321E+00   0.488E-05 0.932E-06 -.332E-03
   -.404E+01 0.504E+00 -.243E+01   0.402E+01 -.550E+00 0.331E+01   0.888E-02 0.823E-02 -.239E+00   0.177E-04 -.155E-05 -.508E-03
   0.166E+01 0.122E+01 0.122E+02   -.166E+01 -.122E+01 -.135E+02   -.303E-02 0.268E-02 0.583E+00   -.408E-05 -.146E-04 -.450E-03
   0.221E+02 0.191E+01 -.182E+04   -.215E+02 -.193E+01 0.182E+04   -.746E+00 0.141E-01 0.831E+00   -.365E-04 -.804E-05 -.506E-03
   -.128E+00 0.111E+02 -.186E+04   0.639E+00 -.111E+02 0.186E+04   -.535E+00 0.641E-02 -.978E+00   0.175E-04 -.218E-04 -.435E-03
   -.267E+02 0.179E+02 -.363E+04   0.266E+02 -.180E+02 0.363E+04   0.137E+00 0.767E-01 -.148E+01   -.444E-04 0.341E-05 0.123E-02
   -.535E+01 0.572E+01 -.371E+04   0.543E+01 -.582E+01 0.370E+04   -.836E-01 0.957E-01 0.270E+01   0.149E-04 0.176E-04 0.106E-02
   -.232E+01 0.127E+01 0.367E+04   0.232E+01 -.128E+01 -.368E+04   -.125E-02 -.120E-03 0.110E+01   -.913E-04 0.104E-03 0.279E-03
   -.385E+00 0.367E+00 0.389E+04   0.388E+00 -.368E+00 -.388E+04   -.234E-02 -.321E-03 -.548E+01   -.950E-05 0.396E-04 0.318E-03
   -.291E+00 0.348E+00 0.188E+04   0.298E+00 -.348E+00 -.188E+04   0.395E-02 -.513E-03 -.190E+00   0.576E-05 0.304E-06 -.343E-03
   -.839E+00 0.187E+00 0.187E+04   0.829E+00 -.187E+00 -.187E+04   0.679E-02 -.658E-03 0.320E+00   0.353E-06 0.153E-05 -.368E-03
   -.205E+01 0.764E+00 -.750E+00   0.200E+01 -.730E+00 0.161E+01   0.157E-01 -.628E-02 -.235E+00   0.188E-04 -.243E-04 -.513E-03
   0.147E+01 0.379E+00 0.139E+02   -.147E+01 -.378E+00 -.152E+02   -.374E-02 -.101E-02 0.580E+00   -.284E-05 -.781E-05 -.454E-03
   0.175E+02 0.419E+01 -.182E+04   -.169E+02 -.420E+01 0.182E+04   -.700E+00 0.792E-02 0.841E+00   -.325E-04 -.126E-04 -.497E-03
   -.289E+01 0.223E+01 -.184E+04   0.346E+01 -.225E+01 0.184E+04   -.629E+00 0.130E-01 -.106E+01   0.184E-04 -.952E-05 -.460E-03
   -.101E+03 0.298E+02 -.358E+04   0.101E+03 -.299E+02 0.358E+04   0.161E+00 0.110E+00 -.127E+01   -.366E-04 -.863E-04 0.119E-02
   -.852E+01 0.354E+01 -.370E+04   0.852E+01 -.354E+01 0.369E+04   0.166E-01 -.207E-02 0.261E+01   0.238E-04 0.143E-04 0.113E-02
   0.248E+01 -.507E+00 0.367E+04   -.248E+01 0.508E+00 -.368E+04   -.131E-02 -.633E-03 0.110E+01   0.101E-03 -.313E-04 0.261E-03
   0.372E+00 -.158E+01 0.389E+04   -.375E+00 0.158E+01 -.388E+04   -.747E-03 -.169E-02 -.549E+01   0.633E-05 -.870E-04 0.745E-04
   0.460E+00 0.117E+00 0.188E+04   -.466E+00 -.105E+00 -.188E+04   0.762E-02 -.419E-02 -.198E+00   -.161E-05 -.592E-06 -.396E-03
   0.819E+00 -.205E+00 0.187E+04   -.808E+00 0.206E+00 -.187E+04   -.291E-04 -.723E-03 0.314E+00   -.870E-05 -.328E-05 -.355E-03
   0.364E+00 0.293E+00 -.336E+01   -.295E+00 -.311E+00 0.429E+01   -.225E-01 0.306E-02 -.255E+00   -.154E-04 0.825E-05 -.525E-03
   0.462E+01 0.174E+01 0.183E+02   -.465E+01 -.183E+01 -.193E+02   0.441E-02 0.456E-01 0.448E+00   -.944E-06 0.168E-04 -.469E-03
   0.273E+02 -.171E+02 -.180E+04   -.266E+02 0.170E+02 0.180E+04   -.719E+00 0.170E+00 0.541E+00   -.882E-05 -.643E-05 -.473E-03
   0.260E+02 -.812E+01 -.186E+04   -.255E+02 0.809E+01 0.186E+04   -.624E+00 0.220E-01 -.102E+01   -.782E-05 0.192E-04 -.460E-03
   0.786E+02 -.186E+02 -.358E+04   -.788E+02 0.186E+02 0.358E+04   0.135E+00 -.123E-01 -.150E+01   0.729E-05 0.146E-04 0.127E-02
   0.301E+02 -.987E+02 -.360E+04   -.298E+02 0.986E+02 0.359E+04   -.315E+00 0.127E+00 0.286E+01   0.272E-05 0.779E-06 0.109E-02
   0.208E+01 -.118E+01 0.367E+04   -.208E+01 0.119E+01 -.368E+04   -.181E-02 -.111E-02 0.110E+01   0.778E-04 -.668E-04 0.376E-03
   0.319E+00 -.621E+00 0.389E+04   -.321E+00 0.624E+00 -.388E+04   -.824E-03 -.122E-02 -.549E+01   0.714E-05 -.475E-04 0.248E-03
   0.418E+00 -.223E+00 0.188E+04   -.425E+00 0.223E+00 -.188E+04   0.777E-02 -.153E-02 -.198E+00   -.620E-06 -.318E-05 -.367E-03
   0.895E+00 -.199E+00 0.187E+04   -.883E+00 0.199E+00 -.187E+04   -.119E-03 -.572E-03 0.314E+00   -.801E-05 -.504E-06 -.326E-03
[...]
   -.630E+02 0.126E+00 0.938E+03   0.664E+02 -.127E+00 -.938E+03   -.294E+01 0.163E-02 0.178E+00   -.422E-05 0.856E-05 -.174E-03
   0.632E+02 0.139E+00 0.938E+03   -.666E+02 -.140E+00 -.938E+03   0.295E+01 0.102E-02 0.186E+00   0.389E-05 0.584E-05 -.175E-03
   0.142E+00 0.182E+00 0.430E+03   -.111E+00 -.185E+00 -.433E+03   -.430E-01 0.506E-02 0.365E+01   -.815E-05 -.238E-05 -.250E-03
   0.330E+01 0.709E+00 -.453E+03   -.350E+01 -.712E+00 0.459E+03   0.194E+00 0.268E-02 -.608E+01   -.512E-05 -.487E-05 -.237E-03
   -.653E+02 -.626E-01 0.747E+01   0.695E+02 0.583E-01 -.770E+01   -.465E+01 0.236E-01 0.299E+00   0.584E-05 -.120E-04 -.242E-03
   0.665E+02 -.129E+00 0.403E+01   -.708E+02 0.119E+00 -.421E+01   0.469E+01 0.313E-01 0.267E+00   -.753E-05 -.111E-04 -.242E-03
   0.155E+02 0.168E+01 -.467E+03   -.165E+02 -.175E+01 0.461E+03   0.988E+00 0.650E-01 0.580E+01   -.522E-05 -.628E-05 -.268E-03
   0.217E+02 0.281E+01 -.130E+04   -.228E+02 -.274E+01 0.130E+04   0.114E+01 -.760E-01 -.203E+01   -.704E-05 -.121E-04 -.119E-03
   -.615E+02 0.403E+01 -.901E+03   0.669E+02 -.407E+01 0.900E+03   -.537E+01 0.440E-01 0.115E+01   0.104E-04 -.535E-05 -.236E-03
   -.149E+00 0.671E+01 -.909E+03   -.452E+00 -.686E+01 0.908E+03   0.663E+00 0.148E+00 0.533E+00   0.600E-05 -.113E-04 -.232E-03
   0.267E+02 0.297E+01 -.145E+04   -.270E+02 -.301E+01 0.146E+04   0.353E+00 0.335E-01 -.103E+01   -.541E-05 -.500E-05 0.154E-03
   0.590E+02 0.101E+02 -.222E+04   -.588E+02 -.102E+02 0.224E+04   -.190E+00 0.594E-01 -.187E+02   -.184E-04 -.343E-05 0.989E-03
   -.632E+02 0.563E+02 -.178E+04   0.683E+02 -.561E+02 0.178E+04   -.513E+01 -.183E+00 -.425E+00   0.210E-04 -.108E-03 0.633E-03
   0.816E+02 0.504E+02 -.185E+04   -.870E+02 -.504E+02 0.185E+04   0.537E+01 -.437E-01 -.275E+01   -.481E-04 -.119E-03 0.700E-03
   0.729E+01 -.177E+02 0.821E+02   -.297E-11 0.121E-12 0.523E-11   -.750E+01 0.177E+02 -.818E+02   -.127E-03 -.187E-04 0.990E-02

 POSITION                                       TOTAL-FORCE (eV/Angst)
      6.63647      6.95580     20.63717         0.010522     -0.173006     -0.104679
      7.00501      5.88819     19.72600        -0.154362      0.145168      0.006024
      5.54948      7.06650     20.58592        -0.060849     -0.002662     -0.005305
      8.00246      5.83248     19.68311         0.094208     -0.019359      0.005819
      6.94076      6.67723     21.65506         0.004804     -0.010765     -0.002682
      7.13601      7.89558     20.35448         0.039383      0.058774     -0.032167
      9.75312      7.39405      4.61933        -0.000014      0.001114     -3.537834
      0.00014      8.87284      4.61933         0.001445      0.001527      2.719973
      0.00014      7.39405      7.87032         0.011714     -0.000087      0.485418
      9.75312      8.87284      7.87032        -0.002963      0.000216     -0.754037
      9.75312      7.39405     11.12132        -0.034730     -0.014674      0.635487
      0.00014      8.87284     11.12132        -0.002686      0.001887     -0.706104
      0.09109      7.39492     14.30021        -0.089385      0.001067      0.083416
      9.83288      8.87420     14.48847        -0.025305     -0.004649     -0.056304
      9.76300      7.40348     17.81549         0.003843      0.029598      0.093453
     13.00384      8.87689     17.48171         0.000546     -0.000748      0.131421
      9.75312     10.35164      4.61933        -0.000925      0.004116     -3.540868
      0.00014      0.00006      4.61933         0.001301      0.000728      2.717618
      0.00014     10.35164      7.87032         0.011588     -0.000170      0.485351
      9.75312      0.00006      7.87032        -0.003094     -0.000747     -0.755838
      9.75312     10.35164     11.12132        -0.018238      0.023264      0.643352
      0.00014      0.00006     11.12132        -0.002193     -0.000399     -0.701890
      0.09253     10.35222     14.30190        -0.100479      0.000095      0.075019
      9.82725      0.00065     14.49801        -0.048364      0.001251     -0.023467
      9.74830     10.35093     17.84806        -0.002366      0.004506      0.119146
      0.00337     11.82979     17.48071         0.003251      0.003061      0.128662
      9.75312      1.47886      4.61933        -0.001420     -0.001946     -3.543040
      0.00014      2.95765      4.61933         0.001491     -0.002364      2.718240
      0.00014      1.47886      7.87032         0.011900     -0.000520      0.485121
      9.75312      2.95765      7.87032        -0.002712     -0.001001     -0.756624
      9.75312      1.47886     11.12132        -0.017776     -0.037127      0.634057
      0.00014      2.95765     11.12132         0.000941     -0.002774     -0.705628
      0.09471      1.47848     14.30219        -0.099670     -0.001849      0.066871
      9.83142      2.95611     14.48640        -0.023125      0.001829     -0.044174
      9.74780      1.46959     17.84824         0.008901     -0.014275      0.116397
      0.00264      2.95329     17.48144        -0.002671     -0.003067      0.133626
      9.75312      4.43645      4.61933        -0.000559     -0.004962     -3.539969
      0.00014      5.91525      4.61933         0.001627     -0.001606      2.720570
      0.00014      4.43645      7.87032         0.012062     -0.000748      0.485118
      9.75312      5.91525      7.87032        -0.002734     -0.000058     -0.754571
      9.75312      4.43645     11.12132        -0.035189      0.027511      0.627438
      0.00014      5.91525     11.12132        -0.000651      0.000330     -0.709169
      0.09097      4.43624     14.29967        -0.085949     -0.001021      0.084448
      9.83583      5.91535     14.49346        -0.051279      0.002841     -0.074992
      9.77188      4.41543     17.81655         0.019490     -0.030071      0.101015
      0.01083      5.91673     17.47964         0.014032     -0.006155      0.113354
      3.25113      7.39405      4.61933        -0.001000      0.000097     -3.538338
      6.50213      8.87284      4.61933        -0.002733      0.003430      2.734238
      6.50213      7.39405      7.87032         0.001778      0.008398      0.511713
      3.25113      8.87284      7.87032         0.011827      0.000198     -0.741883
      3.25113      7.39405     11.12132         0.047550     -0.014603      0.676323
      6.50213      8.87284     11.12132        -0.024265     -0.045014     -0.574570
      6.59527      7.36654     14.34066        -0.072198      0.003169      0.063194
      3.33106      8.87275     14.49619        -0.044797     -0.003398     -0.049715
      3.25551      7.39786     17.84504         0.007093      0.008037      0.112784
      6.51199      8.87436     17.44202        -0.013260      0.040503      0.095223
      3.25113     10.35164      4.61933        -0.000136      0.003605     -3.541019
      6.50213      0.00006      4.61933        -0.002519      0.001792      2.728400
      6.50213     10.35164      7.87032         0.001507     -0.001038      0.511860
      3.25113      0.00006      7.87032         0.012073     -0.000121     -0.741728
[...]
      6.50213      5.91525      9.14470         0.003669     -0.000414     -0.132740
      4.52552      4.43645      7.87032         0.420476      0.000644      0.047877
      8.47874      4.43645      7.87032        -0.410431      0.000423      0.050130
      3.25113      5.91525      9.84693        -0.010286      0.002415     -0.096748
      3.25113      5.91525     12.39570        -0.007109      0.000284      0.061480
      7.77651      4.43645     11.12132        -0.425702      0.019469      0.062895
      5.22774      4.43645     11.12132         0.460032      0.022301      0.079445
      6.51393      5.91403     13.12315        -0.000797      0.000069     -0.025997
      6.50143      5.91940     15.68974         0.003205      0.000306     -0.053034
      4.55324      4.43713     14.39628         0.033650      0.000170     -0.002926
      8.46916      4.43633     14.40655         0.062848     -0.001776     -0.003134
      3.25396      5.91930     16.36339         0.002446      0.001284      0.090997
      3.27802      5.91816     18.93489         0.002309      0.008405     -0.107685
      7.75947      4.39476     17.67510        -0.016328      0.000209      0.030813
      5.28662      4.42576     17.77770         0.008267     -0.023340      0.013248
    total drift:                               -0.213536     -0.044478      0.327307

  FREE ENERGIE OF THE ION-ELECTRON SYSTEM (eV)
  free  energy   TOTEN  =     -1751.39100840 eV

  energy  without entropy=    -1751.39100840  energy(sigma->0) =    -1751.39100840