 vasp.6.3.0 20Jan22 (build Mar 11 2022 13:48:16) complex

 executed on             LinuxIFC date 2023.12.29  10:49:27

 INCAR:
   SYSTEM = TiO2
   ISMEAR = 0
   SIGMA = 0.05
   EDIFF = 1E-7
   ALGO = ALL
   ISTART = 0
   IBRION = 2
   NSW = 1000
   ISYM = 0
   ISIF = 2
   EDIFFG = -0.01
   DIPOL = 0.5 0.5 0.5
   IDIPOL = 3
   LDIPOL = .TRUE.
   GGA = PE
   IVDW = 21
   LDAU = .TRUE.
   LDAUTYPE = 2
   LDAUL = -1 -1 2 -1
   LDAUU = 0.0 0.0 4.2 0.0
   LDAUPRINT = 1
   LMAXMIX = 4
   ENCUT = 600
   PREC = Accurate
   LASPH = .TRUE.
   LREAL = .FALSE.
   ISPIN = 1
   NELM = 200
   NELMIN = 8
   NCORE = 19
   KPAR = 1
   LWAVE = .FALSE.
   LCHARG = .FALSE.

 POTCAR:    PAW_PBE C 08Apr2002
 POTCAR:    PAW_PBE O 08Apr2002
 POTCAR:    PAW_PBE Ti_pv 07Sep2000
 POTCAR:    PAW_PBE O 08Apr2002
 POTCAR:    PAW_PBE C 08Apr2002
   VRHFIN =C: s2p2

   TITEL  = PAW_PBE C 08Apr2002
   POMASS =   12.011; ZVAL   =    4.000    mass and valenz
   ENMAX  =  400.000; ENMIN  =  300.000 eV

[...]

   TITEL  = PAW_PBE Ti_pv 07Sep2000
   POMASS =   47.880; ZVAL   =   10.000    mass and valenz
   ENMAX  =  222.335; ENMIN  =  166.751 eV

   TITEL  = PAW_PBE O 08Apr2002
   POMASS =   16.000; ZVAL   =    6.000    mass and valenz
   ENMAX  =  400.000; ENMIN  =  300.000 eV

  PAW_PBE C 08Apr2002                   :
  PAW_PBE O 08Apr2002                   :
  PAW_PBE Ti_pv 07Sep2000               :
  PAW_PBE O 08Apr2002                   :

 POSCAR:  C  O Ti  O
  positions in direct lattice
  velocities in cartesian coordinates
 exchange correlation table for  LEXCH =        8
   RHO(1)=    0.500       N(1)  =     2000
   RHO(2)=  100.500       N(2)  =     4000

 ion  position               nearest neighbor table
   1  0.500  0.573  0.814-   2 1.17   3 1.18
   2  0.500  0.649  0.837-   1 1.17
   3  0.500  0.495  0.790-   1 1.18  83 2.43
   4  0.750  0.625  0.286-  84 1.98  85 1.98 144 1.98 145 1.98 166 2.00  87 2.00  14 3.03  34 3.03

   5  0.000  0.750  0.286-  86 1.98  87 1.98 106 1.98 107 1.98  88 2.00  35 3.03  15 3.03
   6  0.000  0.625  0.393-  89 1.98 149 1.98 148 1.98  88 1.98  90 2.00  91 2.00  16 3.03  36 3.03

[...]

  84  0.750  0.750  0.244-   4 1.98  14 1.98
  85  0.750  0.750  0.328-   4 1.98  14 1.98   7 2.00
  86  0.098  0.625  0.286-   5 1.98  35 1.98  44 2.00
  87  0.902  0.625  0.286-   5 1.98  35 1.98   4 2.00
  88  0.000  0.750  0.351-   6 1.98  16 1.98   5 2.00
  89  0.000  0.750  0.435-   6 1.98  16 1.98   9 2.00
  90  0.848  0.625  0.393-   7 1.98  37 1.98   6 2.00
  91  0.152  0.625  0.393-  47 1.98  77 1.98   6 2.00
  92  0.750  0.750  0.458-   8 1.98  18 1.98   7 2.00
  93  0.750  0.750  0.542-   8 1.98  18 1.98  11 2.09
  94  0.098  0.625  0.500-   9 1.98  39 1.98  48 2.00
  95  0.902  0.625  0.500-   9 1.98  39 1.98   8 2.00
  96  0.000  0.750  0.565-  10 1.94  20 1.94   9 2.01
  97  0.000  0.750  0.649-  13 1.86  20 2.03  10 2.03
  98  0.850  0.625  0.607-  10 1.98  11 2.00  41 2.00
  99  0.150  0.625  0.607-  10 1.98  51 2.00  81 2.00
 100  0.750  0.751  0.672-  11 1.92  12 2.10  22 2.11
 101  0.750  0.750  0.756-  12 1.88  22 1.88
 102  0.093  0.626  0.720-  43 1.97  13 1.97  52 2.06
 103  0.907  0.626  0.720-  43 1.97  13 1.97  12 2.06
 104  0.750  0.000  0.244-  14 1.98  24 1.98
 105  0.750  0.000  0.328-  14 1.98  24 1.98  17 2.00
 106  0.098  0.875  0.286-   5 1.98  15 1.98  54 2.00
 107  0.902  0.875  0.286-   5 1.98  15 1.98  14 2.00
 108  0.000  0.000  0.351-  16 1.98  26 1.98  15 2.00
 109  0.000  0.000  0.435-  16 1.98  26 1.98  19 2.00
 110  0.848  0.875  0.393-   7 1.98  17 1.98  16 2.00
 111  0.152  0.875  0.393-  47 1.98  57 1.98  16 2.00
 112  0.750  0.000  0.458-  18 1.98  28 1.98  17 2.00
 113  0.750  0.000  0.542-  18 1.98  28 1.98  21 2.09
 114  0.098  0.875  0.500-   9 1.98  19 1.98  58 2.00
 115  0.902  0.875  0.500-   9 1.98  19 1.98  18 2.00
 116  1.000  0.000  0.565-  20 1.94  30 1.94  19 2.01
 117  1.000  0.000  0.649-  23 1.86  30 2.03  20 2.03
 118  0.850  0.875  0.607-  20 1.98  11 2.00  21 2.00
 119  0.150  0.875  0.607-  20 1.98  51 2.00  61 2.00
 120  0.750  0.000  0.672-  21 1.92  22 2.11  32 2.11
 121  0.750  0.001  0.756-  22 1.87  32 1.88
 122  0.093  0.876  0.719-  13 1.97  23 1.97  62 2.06
 123  0.907  0.876  0.719-  13 1.97  23 1.97  22 2.06
 124  0.750  0.250  0.244-  24 1.98  34 1.98
 125  0.750  0.250  0.328-  24 1.98  34 1.98  27 2.00
 126  0.098  0.125  0.286-  15 1.98  25 1.98  64 2.00
 127  0.902  0.125  0.286-  15 1.98  25 1.98  24 2.00
 128  0.000  0.250  0.351-  26 1.98  36 1.98  25 2.00
 129  0.000  0.250  0.435-  26 1.98  36 1.98  29 2.00
 130  0.848  0.125  0.393-  17 1.98  27 1.98  26 2.00
 131  0.152  0.125  0.393-  57 1.98  67 1.98  26 2.00
 132  0.750  0.250  0.458-  28 1.98  38 1.98  27 2.00
 133  0.750  0.250  0.542-  28 1.98  38 1.98  31 2.09
 134  0.098  0.125  0.500-  19 1.98  29 1.98  68 2.00
 135  0.902  0.125  0.500-  19 1.98  29 1.98  28 2.00
 136  0.000  0.250  0.565-  30 1.94  40 1.94  29 2.01
 137  1.000  0.250  0.649-  33 1.86  40 2.03  30 2.03
 138  0.850  0.125  0.607-  30 1.98  21 2.00  31 2.00
 139  0.150  0.125  0.607-  30 1.98  61 2.00  71 2.00
 140  0.751  0.250  0.672-  31 1.92  32 2.11  42 2.11
 141  0.750  0.251  0.756-  42 1.87  32 1.88
 142  0.093  0.126  0.720-  33 1.97  23 1.97  72 2.06
 143  0.907  0.126  0.720-  33 1.97  23 1.97  32 2.06
[...]
 229  0.500  0.500  0.435-  46 1.98  76 1.98  79 2.00
 230  0.348  0.375  0.393-  67 1.98  77 1.98  76 2.00
 231  0.652  0.375  0.393-  27 1.98  37 1.98  76 2.00
 232  0.250  0.500  0.458-  48 1.98  78 1.98  77 2.00
 233  0.250  0.500  0.542-  48 1.98  78 1.98  81 2.09
 234  0.598  0.375  0.500-  69 1.98  79 1.98  38 2.00
 235  0.402  0.375  0.500-  69 1.98  79 1.98  78 2.00
 236  0.500  0.500  0.566-  50 1.94  80 1.94  79 2.01
 237  0.500  0.501  0.650-  83 1.90  50 2.02  80 2.03
 238  0.349  0.375  0.607-  80 1.98  81 2.00  71 2.00
 239  0.651  0.375  0.607-  80 1.98  41 2.00  31 2.00
 240  0.249  0.501  0.672-  81 1.92  52 2.10  82 2.11
 241  0.252  0.501  0.756-  82 1.88  52 1.88
 242  0.594  0.374  0.718-  73 1.96  83 1.97  42 2.05
 243  0.406  0.374  0.718-  73 1.96  83 1.97  82 2.05

IMPORTANT INFORMATION: All symmetrisations will be switched off!
NOSYMM: (Re-)initialisation of all symmetry stuff for point group C_1.

                                     Primitive cell

  volume of cell :    4886.2662

  direct lattice vectors                    reciprocal lattice vectors
    13.143747607  0.000000000  0.000000000     0.076081802  0.000000000  0.000000000
     0.000000000 12.104894358  0.000000000     0.000000000  0.082611212  0.000000000
     0.000000000  0.000000000 30.711208800     0.000000000  0.000000000  0.032561401

  length of vectors
    13.143747607 12.104894358 30.711208800     0.076081802  0.082611212  0.032561401

  position of ions in fractional coordinates (direct lattice)
     0.499999996  0.572751722  0.813839912
     0.500000004  0.649320935  0.836916620
     0.499999999  0.494997216  0.790472043
     0.750000000  0.625000000  0.286010579
     0.000000000  0.750000000  0.286010579
     0.000000000  0.625000000  0.393005289
     0.750000000  0.750000000  0.393005289
     0.750000000  0.625000000  0.500000000
     0.000000000  0.750000000  0.500000000
     0.000000018  0.625339459  0.605106191
     0.750018650  0.750341409  0.609799553
     0.750054486  0.625771329  0.719851412
     1.000000000  0.750593440  0.709765755
     0.750000000  0.875000000  0.286010579
     0.000000000  0.000000000  0.286010579
     0.000000000  0.875000000  0.393005289
     0.750000000  0.000000000  0.393005289
     0.750000000  0.875000000  0.500000000
     0.000000000  0.000000000  0.500000000
     0.999999989  0.875332254  0.605143643
     0.749987150  0.000327612  0.609847991
     0.749925461  0.875653835  0.720113887
     0.999999974  0.000561741  0.709779807
     0.750000000  0.125000000  0.286010579
     0.000000000  0.250000000  0.286010579
     0.000000000  0.125000000  0.393005289
     0.750000000  0.250000000  0.393005289
     0.750000000  0.125000000  0.500000000
     0.000000000  0.250000000  0.500000000
     0.999999981  0.125313171  0.605137998
     0.750055941  0.250304101  0.609823637
     0.749966994  0.125556464  0.720059710
     0.000000031  0.250558701  0.709776791
     0.750000000  0.375000000  0.286010579
     0.000000000  0.500000000  0.286010579
     0.000000000  0.375000000  0.393005289
     0.750000000  0.500000000  0.393005289
     0.750000000  0.375000000  0.500000000
     0.000000000  0.500000000  0.500000000
     0.999999964  0.375319159  0.605113098
     0.750076714  0.500335889  0.609840542
     0.750030432  0.375540047  0.719937481
     0.999999982  0.500579983  0.709739046
     0.250000000  0.625000000  0.286010579
     0.500000000  0.750000000  0.286010579
     0.500000000  0.625000000  0.393005289
     0.250000000  0.750000000  0.393005289
     0.250000000  0.625000000  0.500000000
     0.500000000  0.750000000  0.500000000
     0.500000012  0.624498246  0.605510845
     0.249981403  0.750341435  0.609799550
     0.249945510  0.625771323  0.719851427
     0.499999997  0.751050603  0.709047253
     0.250000000  0.875000000  0.286010579
     0.500000000  0.000000000  0.286010579
     0.500000000  0.875000000  0.393005289
     0.250000000  0.000000000  0.393005289
     0.250000000  0.875000000  0.500000000
     0.500000000  0.000000000  0.500000000
     0.500000030  0.875101529  0.604693044
[...]
     0.500000000  0.500000000  0.434805357
     0.347668537  0.375000000  0.393005289
     0.652331463  0.375000000  0.393005289
     0.250000000  0.500000000  0.458199933
     0.250000000  0.500000000  0.541800067
     0.597668537  0.375000000  0.500000000
     0.402331463  0.375000000  0.500000000
     0.500000023  0.500098873  0.565548382
     0.500000070  0.500664803  0.649715491
     0.349423803  0.375354066  0.607490614
     0.650576191  0.375354049  0.607490595
     0.249047677  0.500652264  0.672271688
     0.251592132  0.500709915  0.756041998
     0.593884825  0.374141753  0.717926693
     0.406115181  0.374141734  0.717926675

  ion indices of the primitive-cell ions
   primitive index   ion index
                 1           1
                 2           2
                 3           3
                 4           4
                 5           5
                 6           6
                 7           7
                 8           8
                 9           9
                10          10
                11          11
                12          12
                13          13
                14          14
                15          15
                16          16
                17          17
                18          18
                19          19
                20          20
                21          21
                22          22
                23          23
                24          24
                25          25
                26          26
                27          27
                28          28
                29          29
                30          30
                31          31
                32          32
                33          33
[...]
   O          58.343          3.979         10.443          1.93389139
   O          58.343          3.979         10.443          1.93389134
   O          58.269          3.978         10.436          1.93266220
   O          58.602          3.982         10.466          1.93816601
   O          58.515          3.981         10.458          1.93673583
   O          58.515          3.981         10.458          1.93673531
   O          59.557          3.993         10.551          1.95390795
   O          40.382          3.742          8.688          1.60890585
   O          57.485          3.969         10.366          1.91961214
   O          57.485          3.969         10.366          1.91961272

  Number of pair interactions contributing to vdW energy: 3214584
  Edisp (eV):  -33.38073

  FORCE on cell =-STRESS in cart. coord.  units (eV):
  Direction    XX          YY          ZZ          XY          YZ          ZX
  Alpha Z  4542.06545  4542.06545  4542.06545
  Ewald  933118.88724950777.64577************    -0.00024   384.32039     0.00015
  Hartree974146.94535983599.07447************    -0.00030   179.33156    -0.00015
  E(xc)   -8631.55343 -8613.21412 -8639.70080     0.00000     1.00326     0.00000
  Local  ************************************     0.00055  -528.61294     0.00001
  n-local -5270.14322 -5151.39714 -5312.09091    -0.00000    -2.79754     0.00001
  augment  5282.48682  5273.77356  5283.59460     0.00000    -1.35579     0.00000
  Kinetic 28816.50603 28215.35697 28831.76177    -0.00001   -32.44272    -0.00006
  Fock        0.00000     0.00000     0.00000     0.00000     0.00000     0.00000
  vdW       -48.50734   -38.47125   -41.27551     0.00000    -0.02939    -0.00000
  Total      11.45276   -41.08000   -28.04276     0.00000    -0.58316    -0.00004
  in kB       3.75529   -13.46988    -9.19505     0.00000    -0.19121    -0.00001

 VOLUME and BASIS-vectors are now :
  energy-cutoff  :      600.00
  volume of cell :     4886.27
      direct lattice vectors                 reciprocal lattice vectors
    13.143747607  0.000000000  0.000000000     0.076081802  0.000000000  0.000000000
     0.000000000 12.104894358  0.000000000     0.000000000  0.082611212  0.000000000
     0.000000000  0.000000000 30.711208800     0.000000000  0.000000000  0.032561401

  length of vectors
    13.143747607 12.104894358 30.711208800     0.076081802  0.082611212  0.032561401

 FORCES acting on ions:
    Electron-Ion                     Ewald-Force                    Non-Local-Force
   0.294E-04 0.576E+01 -.146E+04   -.297E-04 -.535E+01 0.146E+04   0.947E-06 -.421E+00 0.102E+00
   -.736E-04 -.221E+03 -.211E+04   0.904E-04 0.273E+03 0.215E+04   -.172E-04 -.522E+02 -.401E+02
   0.100E-03 0.218E+03 -.227E+04   -.108E-03 -.268E+03 0.224E+04   0.548E-05 0.504E+02 0.317E+02
   -.267E+00 -.187E-01 0.365E+04   0.266E+00 0.190E-01 -.365E+04   0.235E-03 -.258E-04 0.820E+00
   0.111E-06 -.904E-01 0.382E+04   -.132E-06 0.907E-01 -.382E+04   0.850E-08 -.392E-04 -.474E+01
   -.499E-05 -.401E-01 0.187E+04   0.515E-05 0.401E-01 -.187E+04   -.689E-07 0.771E-04 -.131E+00
   -.412E+00 -.110E+00 0.186E+04   0.409E+00 0.110E+00 -.186E+04   0.663E-03 -.130E-03 0.280E+00
   -.164E+01 -.141E+00 0.199E+02   0.162E+01 0.138E+00 -.194E+02   0.324E-02 0.988E-03 -.130E+00
   -.751E-04 -.595E+00 0.284E+02   0.734E-04 0.604E+00 -.292E+02   0.101E-05 -.530E-02 0.257E+00
   -.560E-04 -.143E+01 -.179E+04   0.555E-04 0.144E+01 0.179E+04   0.117E-05 -.238E-02 0.423E+00
   -.990E+01 -.606E+01 -.183E+04   0.990E+01 0.606E+01 0.183E+04   -.158E-02 -.308E-04 -.668E+00
   -.705E+02 -.150E+02 -.356E+04   0.705E+02 0.150E+02 0.356E+04   0.318E-01 -.177E-01 -.112E+01
   -.104E-03 -.895E+01 -.364E+04   0.120E-03 0.895E+01 0.364E+04   -.741E-05 -.724E-02 0.219E+01
   -.261E+00 -.115E+00 0.365E+04   0.261E+00 0.116E+00 -.365E+04   0.304E-03 -.486E-04 0.820E+00
   0.839E-06 -.611E-01 0.382E+04   -.916E-06 0.611E-01 -.382E+04   0.176E-07 0.237E-05 -.474E+01
   0.363E-05 -.152E+00 0.187E+04   -.405E-05 0.152E+00 -.187E+04   0.107E-06 0.454E-04 -.131E+00
   -.429E+00 -.945E-01 0.186E+04   0.426E+00 0.945E-01 -.186E+04   0.750E-03 -.257E-04 0.280E+00
   -.197E+01 -.803E+00 0.188E+02   0.196E+01 0.812E+00 -.183E+02   0.196E-02 -.123E-02 -.131E+00
   0.483E-04 -.204E+00 0.274E+02   -.528E-04 0.208E+00 -.282E+02   0.117E-05 -.347E-02 0.256E+00
   -.147E-03 -.304E+01 -.179E+04   0.148E-03 0.304E+01 0.179E+04   -.119E-05 -.234E-02 0.427E+00
   -.686E+01 -.186E+01 -.184E+04   0.686E+01 0.186E+01 0.184E+04   0.306E-02 -.451E-03 -.667E+00
   -.304E+02 -.242E+02 -.359E+04   0.304E+02 0.242E+02 0.360E+04   0.267E-01 -.993E-02 -.114E+01
   -.315E-03 -.364E+01 -.364E+04   0.333E-03 0.364E+01 0.364E+04   -.452E-05 0.118E-02 0.220E+01
   -.252E+00 0.187E-01 0.365E+04   0.251E+00 -.189E-01 -.365E+04   0.294E-03 0.267E-04 0.820E+00
   0.350E-06 0.904E-01 0.382E+04   -.381E-06 -.906E-01 -.382E+04   0.516E-08 0.421E-04 -.474E+01
   0.538E-05 0.398E-01 0.187E+04   -.584E-05 -.400E-01 -.187E+04   0.114E-06 0.101E-03 -.131E+00
   -.382E+00 0.110E+00 0.186E+04   0.380E+00 -.110E+00 -.186E+04   0.633E-03 0.587E-04 0.280E+00
   -.178E+01 0.139E+00 0.182E+02   0.177E+01 -.144E+00 -.177E+02   0.206E-02 0.110E-02 -.132E+00
   -.441E-04 0.842E+00 0.279E+02   0.420E-04 -.838E+00 -.287E+02   0.115E-05 -.334E-02 0.257E+00
   -.136E-04 0.132E+01 -.179E+04   0.151E-04 -.133E+01 0.179E+04   -.144E-05 0.572E-02 0.427E+00
   -.823E+01 0.579E+01 -.183E+04   0.824E+01 -.579E+01 0.183E+04   -.491E-02 0.502E-02 -.677E+00
   -.214E+02 0.105E+02 -.360E+04   0.214E+02 -.105E+02 0.361E+04   0.227E-01 -.629E-02 -.114E+01
   0.139E-03 0.809E+01 -.364E+04   -.143E-03 -.811E+01 0.364E+04   0.214E-06 0.181E-01 0.219E+01
   -.257E+00 0.115E+00 0.365E+04   0.257E+00 -.116E+00 -.365E+04   0.229E-03 0.370E-04 0.820E+00
   -.370E-06 0.612E-01 0.382E+04   0.388E-06 -.612E-01 -.382E+04   -.166E-08 0.684E-06 -.474E+01
   -.313E-05 0.152E+00 0.187E+04   0.334E-05 -.152E+00 -.187E+04   -.179E-07 0.105E-03 -.131E+00
   -.366E+00 0.949E-01 0.186E+04   0.364E+00 -.950E-01 -.186E+04   0.456E-03 -.439E-04 0.280E+00
   -.143E+01 0.782E+00 0.193E+02   0.142E+01 -.787E+00 -.187E+02   0.339E-02 0.129E-02 -.130E+00
   -.671E-04 0.450E+00 0.289E+02   0.692E-04 -.447E+00 -.297E+02   -.284E-06 -.369E-02 0.257E+00
   0.215E-03 0.309E+01 -.179E+04   -.215E-03 -.310E+01 0.179E+04   -.463E-05 0.341E-02 0.425E+00
   -.115E+02 0.213E+01 -.182E+04   0.115E+02 -.213E+01 0.182E+04   0.468E-03 -.681E-03 -.686E+00
   -.574E+02 0.296E+02 -.358E+04   0.574E+02 -.296E+02 0.358E+04   0.552E-01 0.104E-01 -.112E+01
   -.776E-04 0.369E+01 -.364E+04   0.592E-04 -.370E+01 0.363E+04   0.769E-05 0.731E-02 0.218E+01
   0.267E+00 -.187E-01 0.365E+04   -.266E+00 0.190E-01 -.365E+04   -.235E-03 -.258E-04 0.820E+00
   -.198E-06 -.991E-01 0.382E+04   0.210E-06 0.996E-01 -.382E+04   -.386E-08 -.107E-03 -.474E+01
   0.298E-05 0.389E-01 0.187E+04   -.326E-05 -.317E-01 -.187E+04   0.804E-07 -.178E-02 -.132E+00
   0.412E+00 -.110E+00 0.186E+04   -.409E+00 0.110E+00 -.186E+04   -.663E-03 -.130E-03 0.280E+00
   0.164E+01 -.141E+00 0.199E+02   -.162E+01 0.138E+00 -.194E+02   -.324E-02 0.991E-03 -.130E+00
   -.414E-04 -.222E+00 0.325E+02   0.397E-04 0.195E+00 -.332E+02   0.898E-06 0.124E-01 0.224E+00
   -.915E-04 -.389E+01 -.177E+04   0.871E-04 0.387E+01 0.177E+04   -.750E-06 0.837E-02 0.371E+00
   0.990E+01 -.607E+01 -.183E+04   -.990E+01 0.606E+01 0.183E+04   0.158E-02 -.278E-04 -.668E+00
   0.705E+02 -.150E+02 -.356E+04   -.705E+02 0.150E+02 0.356E+04   -.318E-01 -.177E-01 -.112E+01
   -.276E-03 -.670E+02 -.354E+04   0.279E-03 0.670E+02 0.354E+04   0.212E-06 0.358E-01 0.220E+01
   0.261E+00 -.115E+00 0.365E+04   -.261E+00 0.116E+00 -.365E+04   -.304E-03 -.486E-04 0.820E+00
   -.930E-06 -.758E-01 0.382E+04   0.988E-06 0.758E-01 -.382E+04   -.946E-08 0.116E-04 -.474E+01
   -.539E-05 -.123E+00 0.187E+04   0.572E-05 0.125E+00 -.187E+04   -.974E-07 -.481E-03 -.133E+00
   0.429E+00 -.945E-01 0.186E+04   -.426E+00 0.945E-01 -.186E+04   -.750E-03 -.257E-04 0.280E+00
   0.197E+01 -.803E+00 0.188E+02   -.196E+01 0.812E+00 -.183E+02   -.196E-02 -.123E-02 -.131E+00
   -.839E-04 -.502E+00 0.327E+02   0.865E-04 0.508E+00 -.335E+02   -.520E-06 -.463E-02 0.224E+00
   0.608E-04 -.902E+01 -.177E+04   -.627E-04 0.899E+01 0.177E+04   -.695E-06 0.324E-01 0.362E+00
[...]
   -.494E+02 0.808E-01 0.112E+04   0.532E+02 -.816E-01 -.112E+04   -.336E+01 0.126E-02 0.180E+00
   0.494E+02 0.808E-01 0.112E+04   -.532E+02 -.816E-01 -.112E+04   0.336E+01 0.126E-02 0.180E+00
   0.499E+00 0.145E+00 0.493E+03   -.493E+00 -.147E+00 -.497E+03   -.723E-02 0.348E-02 0.415E+01
   0.170E+01 0.584E+00 -.480E+03   -.169E+01 -.608E+00 0.487E+03   -.649E-02 0.316E-01 -.611E+01
   -.513E+02 0.282E+00 0.171E+02   0.558E+02 -.290E+00 -.172E+02   -.477E+01 0.232E-01 0.214E+00
   0.513E+02 0.282E+00 0.171E+02   -.558E+02 -.290E+00 -.172E+02   0.477E+01 0.232E-01 0.214E+00
   0.113E-03 0.128E+01 -.593E+03   -.129E-03 -.134E+01 0.587E+03   0.159E-04 0.568E-01 0.578E+01
   -.152E-03 0.268E+01 -.152E+04   0.150E-03 -.265E+01 0.152E+04   0.946E-06 -.369E-01 0.475E+00
   -.237E+02 0.425E+01 -.108E+04   0.266E+02 -.430E+01 0.108E+04   -.288E+01 0.542E-01 0.563E+00
   0.237E+02 0.425E+01 -.108E+04   -.266E+02 -.430E+01 0.108E+04   0.288E+01 0.542E-01 0.563E+00
   0.221E+02 0.324E+01 -.171E+04   -.223E+02 -.324E+01 0.171E+04   0.131E+00 0.584E-03 -.153E+01
   0.677E+02 0.128E+02 -.259E+04   -.675E+02 -.128E+02 0.261E+04   -.187E+00 0.445E-01 -.207E+02
   -.591E+02 0.470E+02 -.218E+04   0.654E+02 -.470E+02 0.218E+04   -.627E+01 0.235E-01 -.303E+01
   0.591E+02 0.470E+02 -.218E+04   -.654E+02 -.470E+02 0.218E+04   0.627E+01 0.235E-01 -.303E+01
   0.372E-03 0.217E+01 0.108E+03   0.102E-11 -.119E-11 -.218E-10   -.373E-03 -.217E+01 -.108E+03

 POSITION                                       TOTAL-FORCE (eV/Angst)
      6.57187      6.93196     24.99573         0.000001     -0.007818     -0.003119
      6.57187      7.85906     25.70417        -0.000000      0.003215      0.006483
      6.57187      5.99066     24.27805        -0.000002      0.000240      0.003228
      9.85781      7.56556      8.78373        -0.000459      0.000189     -3.245945
      0.00000      9.07867      8.78373        -0.000000      0.000160      2.637787
      0.00000      7.56556     12.06967         0.000000      0.000056      0.485260
      9.85781      9.07867     12.06967        -0.001770      0.000528     -0.731228
      9.85781      7.56556     15.35560        -0.009370     -0.002161      0.405065
      0.00000      9.07867     15.35560        -0.000001      0.003413     -0.524187
     -0.00000      7.56903     18.58356         0.000001      0.000114     -0.002980
      9.85799      9.08219     18.72747         0.002317     -0.001608     -0.000032
      9.85859      7.57374     22.10680         0.000043     -0.000059      0.000697
      0.00000      9.08464     21.79747         0.000009     -0.000156      0.001386
      9.85781     10.59178      8.78373        -0.000580      0.000253     -3.245993
      0.00000      0.00000      8.78373        -0.000000     -0.000023      2.637688
      0.00000     10.59178     12.06967        -0.000000      0.000168      0.485442
      9.85781      0.00000     12.06967        -0.002042      0.000040     -0.730476
      9.85781     10.59178     15.35560        -0.005896      0.007892      0.409348
      0.00000      0.00000     15.35560        -0.000003      0.001011     -0.523598
      0.00000     10.59521     18.58450         0.000000     -0.002064     -0.003223
      9.85787      0.00329     18.72953         0.000917     -0.001496     -0.002245
      9.85688     10.59867     22.11509         0.000368     -0.002544      0.002545
     -0.00000      0.00556     21.79783         0.000013     -0.003646     -0.001155
      9.85781      1.51311      8.78373        -0.000571     -0.000257     -3.245928
      0.00000      3.02622      8.78373        -0.000000     -0.000181      2.637830
      0.00000      1.51311     12.06967        -0.000000     -0.000161      0.485433
      9.85781      3.02622     12.06967        -0.001706     -0.000565     -0.730306
      9.85781      1.51311     15.35560        -0.005800     -0.003092      0.412904
      0.00000      3.02622     15.35560        -0.000001      0.000113     -0.524722
      0.00000      1.51621     18.58390         0.000000     -0.002101      0.000522
      9.85843      3.02913     18.72882         0.002215      0.000662     -0.002278
      9.85727      1.51911     22.11438         0.001061     -0.003914     -0.001621
      0.00000      3.03162     21.79746        -0.000004     -0.001706      0.000254
      9.85781      4.53934      8.78373        -0.000440     -0.000287     -3.245862
      0.00000      6.05245      8.78373         0.000000     -0.000012      2.637908
      0.00000      4.53934     12.06967         0.000000     -0.000185      0.485329
      9.85781      6.05245     12.06967        -0.001413     -0.000118     -0.730772
      9.85781      4.53934     15.35560        -0.010737     -0.004003      0.408744
      0.00000      6.05245     15.35560         0.000002     -0.000159     -0.525123
      0.00000      4.54257     18.58394        -0.000004     -0.000549     -0.005233
      9.85861      6.05572     18.72851         0.001735      0.000855      0.001555
      9.85818      4.54482     22.10933         0.000620      0.001252      0.003054
      0.00000      6.05817     21.79692        -0.000011      0.000071     -0.000245
      3.28594      7.56556      8.78373         0.000459      0.000189     -3.245945
      6.57187      9.07867      8.78373         0.000000      0.000361      2.639400
      6.57187      7.56556     12.06967        -0.000000      0.005437      0.489305
      3.28594      9.07867     12.06967         0.001770      0.000527     -0.731228
      3.28594      7.56556     15.35560         0.009370     -0.002171      0.405075
      6.57187      9.07867     15.35560        -0.000001     -0.014097     -0.487671
      6.57187      7.55905     18.59628        -0.000005     -0.001567      0.004670
      3.28576      9.08219     18.72747        -0.002325     -0.001598     -0.000027
      3.28516      7.57375     22.10680        -0.000043      0.000002      0.000687
      6.57187      9.09078     21.77622         0.000003     -0.000715     -0.002339
      3.28594     10.59178      8.78373         0.000580      0.000253     -3.245993
      6.57187      0.00000      8.78373         0.000000     -0.000049      2.639543
      6.57187     10.59178     12.06967         0.000000      0.000964      0.491837
      3.28594      0.00000     12.06967         0.002042      0.000040     -0.730479
      3.28594     10.59178     15.35560         0.005896      0.007873      0.409338
      6.57187      0.00000     15.35560         0.000002      0.001803     -0.571676
      6.57187     10.59275     18.57146        -0.000002     -0.001142      0.000361
[...]
      6.57187      6.05245     13.35340         0.000000      0.000320     -0.154377
      4.56967      4.53934     12.06967         0.399343      0.000449      0.059597
      8.57408      4.53934     12.06967        -0.399343      0.000449      0.059596
      3.28594      6.05245     14.07187        -0.001987      0.001682     -0.005574
      3.28594      6.05245     16.63933         0.001379      0.007573      0.149102
      7.85560      4.53934     15.35560        -0.325051      0.015428      0.050046
      5.28814      4.53934     15.35560         0.325053      0.015428      0.050044
      6.57187      6.05337     17.36894         0.000000     -0.000497     -0.001850
      6.57187      6.05977     19.95386        -0.000001     -0.002200      0.003109
      4.59277      4.54275     18.65749         0.001041     -0.000083     -0.003080
      8.55098      4.54275     18.65749        -0.001043     -0.000092     -0.003079
      3.27411      6.05910     20.64587        -0.000029     -0.001352      0.001039
      3.30654      6.06013     23.21813        -0.001665     -0.001251      0.000337
      7.80565      4.52793     22.05044        -0.000078     -0.000407     -0.001508
      5.33810      4.52793     22.05044         0.000057     -0.000399     -0.001503
    total drift:                               -0.000000      0.004872     -0.010437

  FREE ENERGIE OF THE ION-ELECTRON SYSTEM (eV)
  free  energy   TOTEN  =     -1936.51183909 eV

  energy  without entropy=    -1936.51183909  energy(sigma->0) =    -1936.51183909

 d Force = 0.1035216E-04[ 0.931E-05, 0.114E-04]  d Energy = 0.6694130E-05 0.366E-05
 d Force = 0.1072190E+00[ 0.107E+00, 0.107E+00]  d Ewald  = 0.1072202E+00-0.116E-05

 reached required accuracy - stopping structural energy minimisation