 vasp.6.3.0 20Jan22 (build Apr  1 2022 16:44:48) complex
 executed on        HPECrayEX_GCC date 2022.11.13  09:38:59

 INCAR:
   SYSTEM = MgO-rocksalt
   ISMEAR = 0
   SIGMA = 0.05
   EDIFF = 1E-6
   ALGO = ALL
   ISTART = 0
   IBRION = -1
   NSW = 0
   ISYM = 0
   DIPOL = 0.5 0.5 0.5
   IDIPOL = 3
   LDIPOL = .TRUE.
   LHFCALC = .TRUE.
   GGA = B5
   AEXX = 0.2
   AGGAX = 0.72
   AGGAC = 0.81
   ALDAC = 0.19
   IVDW = 1
   VDW_S6 = 1.05
   VDW_C6 = 1.75 0.70 0.63 0.70
   VDW_R0 = 1.452 1.342 1.243 1.342
   ENCUT = 600
   PREC = Accurate
   LASPH = .TRUE.
   LREAL = .FALSE.
   ISPIN = 1
   NELM = 200
   NELMIN = 8
   NCORE = 8
   KPAR = 1
   LWAVE = .FALSE.
   LCHARG = .FALSE.

 POTCAR:    PAW_PBE C 08Apr2002
 POTCAR:    PAW_PBE O 08Apr2002
 POTCAR:    PAW_PBE Mg_pv 13Apr2007
 POTCAR:    PAW_PBE O 08Apr2002
 POTCAR:    PAW_PBE C 08Apr2002
   VRHFIN =C: s2p2

   TITEL  = PAW_PBE C 08Apr2002
   POMASS =   12.011; ZVAL   =    4.000    mass and valenz
   ENMAX  =  400.000; ENMIN  =  300.000 eV

[...]

   TITEL  = PAW_PBE Mg_pv 13Apr2007
   POMASS =   24.305; ZVAL   =    8.000    mass and valenz
   ENMAX  =  403.929; ENMIN  =  302.947 eV

   TITEL  = PAW_PBE O 08Apr2002
   POMASS =   16.000; ZVAL   =    6.000    mass and valenz
   ENMAX  =  400.000; ENMIN  =  300.000 eV

  PAW_PBE C 08Apr2002                   :
  PAW_PBE O 08Apr2002                   :
  PAW_PBE Mg_pv 13Apr2007               :
  PAW_PBE O 08Apr2002                   :

 POSCAR:  C  O Mg  O
  positions in direct lattice
 exchange correlation table for  LEXCH =       12
   RHO(1)=    0.500       N(1)  =     2000
   RHO(2)=  100.500       N(2)  =     4000

 ion  position               nearest neighbor table
   1  0.625  0.625  0.768-   2 1.16   3 1.16
   2  0.526  0.526  0.769-   1 1.16
   3  0.724  0.724  0.769-   1 1.16
   4  0.250  0.000  0.353-  38 2.09  39 2.09  46 2.09  55 2.09  36 2.09
   5  0.500  0.250  0.353-  38 2.09  39 2.09  47 2.09  54 2.09  37 2.09
   6  0.250  0.250  0.451-  36 2.09  37 2.09  44 2.09  53 2.09  38 2.09  42 2.09
   7  0.500  0.000  0.451-  36 2.09  37 2.09  45 2.09  52 2.09  39 2.09  43 2.09
   8  0.250  1.000  0.550-  59 2.09  42 2.09  43 2.09  50 2.09  36 2.10  40 2.12
   9  0.500  0.250  0.550-  42 2.09  58 2.09  51 2.09  43 2.09  37 2.10  41 2.11
  10  0.250  0.250  0.647-  42 2.08  57 2.09  40 2.09  48 2.09  41 2.09
  11  0.500  0.000  0.647-  41 2.08  43 2.08  40 2.09  56 2.09  49 2.09
  12  0.250  0.500  0.353-  38 2.09  46 2.09  47 2.09  63 2.09  44 2.09
  13  0.500  0.750  0.353-  39 2.09  46 2.09  47 2.09  62 2.09  45 2.09
  14  0.250  0.750  0.451-  36 2.09  44 2.09  45 2.09  61 2.09  46 2.09  50 2.09
  15  0.500  0.500  0.451-  37 2.09  44 2.09  45 2.09  60 2.09  47 2.09  51 2.10
  16  0.250  0.500  0.550-  42 2.09  50 2.09  51 2.09  67 2.09  44 2.10  48 2.11
  17  0.500  0.750  0.550-  66 2.08  51 2.08  43 2.09  50 2.09  45 2.11  49 2.14
  18  0.250  0.750  0.647-  65 2.08  50 2.08  40 2.09  48 2.09  49 2.09
  19  0.498  0.498  0.648-  41 2.08  48 2.08  51 2.09  64 2.10  49 2.10
  20  0.750  0.000  0.353-  39 2.09  54 2.09  55 2.09  62 2.09  52 2.09
  21  0.000  0.250  0.353-  38 2.09  54 2.09  55 2.09  63 2.09  53 2.09
  22  0.750  0.250  0.451-  37 2.09  52 2.09  53 2.09  60 2.09  54 2.09  58 2.09
  23  0.000  0.000  0.451-  36 2.09  52 2.09  53 2.09  61 2.09  55 2.09  59 2.09
  24  0.750  0.000  0.550-  59 2.09  43 2.09  66 2.09  58 2.09  52 2.10  56 2.11
  25  1.000  0.250  0.550-  59 2.09  42 2.09  67 2.09  58 2.09  53 2.10  57 2.12
  26  0.750  0.250  0.647-  56 2.08  58 2.08  57 2.09  41 2.09  64 2.09
  27  0.000  0.000  0.647-  59 2.08  57 2.09  40 2.09  65 2.09  56 2.09
  28  0.750  0.500  0.353-  47 2.09  54 2.09  62 2.09  63 2.09  60 2.09
  29  0.000  0.750  0.353-  46 2.09  55 2.09  62 2.09  63 2.09  61 2.09
  30  0.750  0.750  0.451-  45 2.09  52 2.09  60 2.09  61 2.09  62 2.09  66 2.10
  31  0.000  0.500  0.451-  44 2.09  53 2.09  60 2.09  61 2.09  63 2.09  67 2.09
  32  0.750  0.500  0.550-  66 2.08  51 2.08  67 2.09  58 2.09  60 2.11  64 2.14
  33  0.000  0.750  0.550-  59 2.09  67 2.09  66 2.09  50 2.09  61 2.10  65 2.11
  34  0.752  0.752  0.648-  56 2.08  65 2.08  66 2.09  49 2.10  64 2.10
  35  0.000  0.500  0.647-  48 2.08  67 2.08  57 2.09  65 2.09  64 2.09
  36  0.250  0.000  0.451-   6 2.09   7 2.09  14 2.09  23 2.09   4 2.09   8 2.10
  37  0.500  0.250  0.451-   6 2.09   7 2.09  15 2.09  22 2.09   5 2.09   9 2.10
  38  0.250  0.250  0.353-   4 2.09   5 2.09  12 2.09  21 2.09   6 2.09
  39  0.500  0.000  0.353-   4 2.09   5 2.09  13 2.09  20 2.09   7 2.09
  40  0.250  1.000  0.650-  10 2.09  27 2.09  11 2.09  18 2.09   8 2.12
  41  0.500  0.249  0.649-  19 2.08  11 2.08  10 2.09  26 2.09   9 2.11
  42  0.250  0.250  0.549-  10 2.08  25 2.09   8 2.09  16 2.09   9 2.09   6 2.09
  43  0.500  1.000  0.549-  11 2.08  17 2.09   8 2.09  24 2.09   9 2.09   7 2.09
  44  0.250  0.500  0.451-   6 2.09  14 2.09  15 2.09  31 2.09  12 2.09  16 2.10
  45  0.500  0.750  0.451-   7 2.09  14 2.09  15 2.09  30 2.09  13 2.09  17 2.11
  46  0.250  0.750  0.353-   4 2.09  12 2.09  13 2.09  29 2.09  14 2.09
  47  0.500  0.500  0.353-   5 2.09  12 2.09  13 2.09  28 2.09  15 2.09
  48  0.249  0.500  0.649-  19 2.08  35 2.08  10 2.09  18 2.09  16 2.11
  49  0.500  0.750  0.650-  11 2.09  18 2.09  19 2.10  34 2.10  17 2.14
  50  0.250  0.750  0.549-  18 2.08  17 2.09   8 2.09  16 2.09  33 2.09  14 2.09
  51  0.500  0.500  0.550-  32 2.08  17 2.08  19 2.09   9 2.09  16 2.09  15 2.10
  52  0.750  0.000  0.451-   7 2.09  22 2.09  23 2.09  30 2.09  20 2.09  24 2.10
  53  0.000  0.250  0.451-   6 2.09  22 2.09  23 2.09  31 2.09  21 2.09  25 2.10
  54  0.750  0.250  0.353-   5 2.09  20 2.09  21 2.09  28 2.09  22 2.09
  55  0.000  0.000  0.353-   4 2.09  20 2.09  21 2.09  29 2.09  23 2.09
  56  0.750  0.001  0.649-  34 2.08  26 2.08  27 2.09  11 2.09  24 2.11
  57  1.000  0.250  0.650-  10 2.09  27 2.09  35 2.09  26 2.09  25 2.12
  58  0.750  0.250  0.549-  26 2.08  32 2.09  25 2.09   9 2.09  24 2.09  22 2.09
  59  0.000  0.000  0.549-  27 2.08   8 2.09  25 2.09  33 2.09  24 2.09  23 2.09
  60  0.750  0.500  0.451-  15 2.09  22 2.09  30 2.09  31 2.09  28 2.09  32 2.11
  61  0.000  0.750  0.451-  14 2.09  23 2.09  30 2.09  31 2.09  29 2.09  33 2.10
  62  0.750  0.750  0.353-  13 2.09  20 2.09  28 2.09  29 2.09  30 2.09
  63  0.000  0.500  0.353-  12 2.09  21 2.09  28 2.09  29 2.09  31 2.09
  64  0.750  0.500  0.650-  35 2.09  26 2.09  19 2.10  34 2.10  32 2.14
  65  0.001  0.750  0.649-  34 2.08  18 2.08  27 2.09  35 2.09  33 2.11
  66  0.750  0.750  0.550-  17 2.08  32 2.08  34 2.09  24 2.09  33 2.09  30 2.10
  67  1.000  0.500  0.549-  35 2.08  32 2.09  25 2.09  33 2.09  16 2.09  31 2.09

IMPORTANT INFORMATION: All symmetrisations will be switched off!
NOSYMM: (Re-)initialisation of all symmetry stuff for point group C_1.

                                     Primitive cell

  volume of cell :    1482.1129

  direct lattice vectors                    reciprocal lattice vectors
     8.349111827  0.000000000  0.000000000     0.119773219  0.000000000  0.000000000
     0.000000000  8.349111827  0.000000000     0.000000000  0.119773219  0.000000000
     0.000000000  0.000000000 21.261833870     0.000000000  0.000000000  0.047032632

  length of vectors
     8.349111827  8.349111827 21.261833870     0.119773219  0.119773219  0.047032632

  position of ions in fractional coordinates (direct lattice)
     0.625004284  0.625004241  0.768138368
     0.526446197  0.526446195  0.769203716
     0.723566535  0.723566461  0.769201438
     0.250000000  0.000000000  0.352744737
     0.500000000  0.250000000  0.352744737
     0.250000000  0.250000000  0.450914912
     0.500000000  0.000000000  0.450914912
     0.250062449  0.999936690  0.549666215
     0.499921587  0.249849112  0.549667335
     0.249756302  0.249756302  0.647318159
     0.500157064  0.000281170  0.647218062
     0.250000000  0.500000000  0.352744737
     0.500000000  0.750000000  0.352744737
     0.250000000  0.750000000  0.450914912
     0.500000000  0.500000000  0.450914912
     0.249849094  0.499921568  0.549667335
     0.500301750  0.749697801  0.549921991
     0.249715158  0.749840134  0.647217613
     0.497810754  0.497810749  0.647717265
     0.750000000  0.000000000  0.352744737
     0.000000000  0.250000000  0.352744737
     0.750000000  0.250000000  0.450914912
     0.000000000  0.000000000  0.450914912
     0.750077631  0.000149648  0.549667152
     0.999936686  0.250062443  0.549666214
     0.749840143  0.249715168  0.647217606
     0.000241465  0.000241468  0.647318174
     0.750000000  0.500000000  0.352744737
     0.000000000  0.750000000  0.352744737
     0.750000000  0.750000000  0.450914912
     0.000000000  0.500000000  0.450914912
     0.749697800  0.500301746  0.549921990
     0.000149665  0.750077649  0.549667150
     0.752188562  0.752188567  0.647717173
     0.000281175  0.500157070  0.647218071
     0.250000000  0.000000000  0.450914912
     0.500000000  0.250000000  0.450914912
     0.250000000  0.250000000  0.352744737
     0.500000000  0.000000000  0.352744737
     0.250115311  0.999882549  0.649592991
     0.499767654  0.249204261  0.649067907
     0.249868479  0.249868491  0.549340716
     0.500009833  0.999602795  0.549396571
     0.250000000  0.500000000  0.450914912
     0.500000000  0.750000000  0.450914912
     0.250000000  0.750000000  0.352744737
     0.500000000  0.500000000  0.352744737
     0.249204265  0.499767648  0.649067910
     0.500239080  0.749759557  0.650388467
     0.250395400  0.749989153  0.549396665
     0.500014827  0.500014828  0.549614152
     0.750000000  0.000000000  0.450914912
     0.000000000  0.250000000  0.450914912
     0.750000000  0.250000000  0.352744737
     0.000000000  0.000000000  0.352744737
     0.750230666  0.000793426  0.649067803
     0.999882553  0.250115312  0.649592991
     0.749989152  0.250395412  0.549396662
     0.000130749  0.000130739  0.549340477
     0.750000000  0.500000000  0.450914912
     0.000000000  0.750000000  0.450914912
     0.750000000  0.750000000  0.352744737
     0.000000000  0.500000000  0.352744737
     0.749759554  0.500239078  0.650388467
     0.000793422  0.750230677  0.649067806
     0.749984512  0.749984516  0.549613904
     0.999602809  0.500009832  0.549396572

  ion indices of the primitive-cell ions
   primitive index   ion index
                 1           1
                 2           2
                 3           3
                 4           4
                 5           5
                 6           6
                 7           7
                 8           8
                 9           9
                10          10
                11          11
                12          12
                13          13
                14          14
                15          15
                16          16
                17          17
                18          18
                19          19
                20          20
                21          21
                22          22
                23          23
                24          24
                25          25
                26          26
[...]
   0.74975955  0.50023908  0.65038847
   0.00079342  0.75023068  0.64906781
   0.74998451  0.74998452  0.54961390
   0.99960281  0.50000983  0.54939657

 position of ions in cartesian coordinates  (Angst):
   5.21823066  5.21823030 16.33203038
   4.39535817  4.39535815 16.35468163
   6.04113792  6.04113729 16.35463319
   2.08727796  0.00000000  7.50000000
   4.17455591  2.08727796  7.50000000
   2.08727796  2.08727796  9.58727796
   4.17455591  0.00000000  9.58727796
   2.08779935  8.34858324 11.68691174
   4.17390124  2.08601817 11.68693557
   2.08524329  2.08524330 13.76317116
   4.17586726  0.00234752 13.76104292
   2.08727796  4.17455591  7.50000000
   4.17455591  6.26183387  7.50000000
   2.08727796  6.26183387  9.58727796
   4.17455591  4.17455591  9.58727796
   2.08601802  4.17390107 11.68693556
   4.17707526  6.25931077 11.69235001
   2.08489978  6.26049913 13.76103335
   4.15627765  4.15627761 13.77165689
   6.26183387  0.00000000  7.50000000
   0.00000000  2.08727796  7.50000000
   6.26183387  2.08727796  9.58727796
   0.00000000  0.00000000  9.58727796
   6.26248202  0.00124943 11.68693166
   8.34858321  2.08779930 11.68691173
   6.26049920  2.08489987 13.76103321
   0.00201602  0.00201604 13.76317148
   6.26183387  4.17455591  7.50000000
   0.00000000  6.26183387  7.50000000
   6.26183387  6.26183387  9.58727796
   0.00000000  4.17455591  9.58727796
   6.25931077  4.17707522 11.69234999
   0.00124957  6.26248217 11.68693164
   6.28010642  6.28010646 13.77165492
   0.00234756  4.17586731 13.76104310
   2.08727796  0.00000000  9.58727796
   4.17455591  2.08727796  9.58727796
   2.08727796  2.08727796  7.50000000
   4.17455591  0.00000000  7.50000000
   2.08824070  8.34813121 13.81153825
   4.17261603  2.08063424 13.80037401
   2.08617987  2.08617998 11.67999104
   4.17463801  8.34579552 11.68117862
   2.08727796  4.17455591  9.58727796
   4.17455591  6.26183387  9.58727796
   2.08727796  6.26183387  7.50000000
   4.17455591  4.17455591  7.50000000
   2.08063427  4.17261598 13.80037406
   4.17655202  6.25982638 13.82845154
   2.09057920  6.26174331 11.68118062
   4.17467971  4.17467971 11.68580479
   6.26183387  0.00000000  9.58727796
   0.00000000  2.08727796  9.58727796
   6.26183387  2.08727796  7.50000000
   0.00000000  0.00000000  7.50000000
   6.26375973  0.00662441 13.80037180
   8.34813125  2.08824071 13.81153825
   6.26174330  2.09057929 11.68118056
   0.00109164  0.00109156 11.67998595
   6.26183387  4.17455591  9.58727796
   0.00000000  6.26183387  9.58727796
   6.26183387  6.26183387  7.50000000
   0.00000000  4.17455591  7.50000000
   6.25982636  4.17655200 13.82845153
   0.00662437  6.26375981 13.80037186
   6.26170456  6.26170460 11.68579952
   8.34579563  4.17463800 11.68117865

--------------------------------------- Iteration      FINAL  ---------------------------------------

--------------------OUTCAR has been truncated-------------------------

[...]

--------------------OUTCAR has been truncated-------------------------

  DFT-D2 method for vdW energy calculation

  Parameters of vdW forcefield:
         C6(Jnm^6/mol)     R0(A)
   C        1.750          1.452
   O        0.700          1.342
   Mg       0.630          1.243
   O        0.700          1.342

  vdW correction parametrized for the method        ÕV

  IVDW =   1
  VDW_RADIUS =    50.000 A
  VDW_S6 =     1.050
  VDW_SR =     1.000
  VDW_D =    20.000
  LVDW_EWALD = F

  Number of pair interactions contributing to vdW energy:  812491
  Edisp (eV):   -5.52384

 VOLUME and BASIS-vectors are now :
  energy-cutoff  :      600.00
  volume of cell :     1482.11
      direct lattice vectors                 reciprocal lattice vectors
     8.349111827  0.000000000  0.000000000     0.119773219  0.000000000  0.000000000
     0.000000000  8.349111827  0.000000000     0.000000000  0.119773219  0.000000000
     0.000000000  0.000000000 21.261833870     0.000000000  0.000000000  0.047032632

  length of vectors
     8.349111827  8.349111827 21.261833870     0.119773219  0.119773219  0.047032632

 FORCES acting on ions:
    Electron-Ion                     Ewald-Force                    Non-Local-Force
   -.113E-01 -.113E-01 -.107E+04   0.146E-01 0.146E-01 0.107E+04   -.188E-03 -.180E-03 0.308E+00
   0.192E+03 0.192E+03 -.162E+04   -.239E+03 -.239E+03 0.162E+04   0.416E+02 0.416E+02 -.230E+01
   -.192E+03 -.192E+03 -.162E+04   0.239E+03 0.239E+03 0.162E+04   -.416E+02 -.416E+02 -.229E+01
   0.177E+00 -.177E+00 0.215E+04   -.176E+00 0.177E+00 -.214E+04   -.458E-03 0.462E-03 -.644E+01
   0.178E+00 0.201E+00 0.215E+04   -.177E+00 -.200E+00 -.214E+04   -.210E-03 -.223E-03 -.643E+01
   0.888E+00 0.888E+00 0.762E+03   -.911E+00 -.911E+00 -.762E+03   0.153E-01 0.153E-01 0.393E+00
   0.914E+00 -.838E+00 0.763E+03   -.931E+00 0.782E+00 -.763E+03   0.113E-01 0.355E-01 0.414E+00
   0.372E+01 -.372E+01 -.626E+03   -.372E+01 0.372E+01 0.626E+03   0.401E-02 -.398E-02 -.113E+00
   0.382E+01 0.659E+01 -.614E+03   -.382E+01 -.659E+01 0.614E+03   0.251E-02 -.606E-02 -.351E+00
   0.199E+02 0.199E+02 -.202E+04   -.199E+02 -.199E+02 0.202E+04   0.223E-01 0.223E-01 0.541E+01
   0.215E+02 -.256E+02 -.200E+04   -.215E+02 0.259E+02 0.200E+04   0.168E-01 -.293E+00 0.542E+01
   0.201E+00 0.178E+00 0.215E+04   -.200E+00 -.177E+00 -.214E+04   -.228E-03 -.213E-03 -.643E+01
   0.205E+00 -.205E+00 0.215E+04   -.204E+00 0.203E+00 -.214E+04   -.115E-02 0.116E-02 -.645E+01
   0.837E+00 -.913E+00 0.763E+03   -.781E+00 0.930E+00 -.763E+03   -.355E-01 -.113E-01 0.414E+00
   0.854E+00 0.854E+00 0.765E+03   -.825E+00 -.825E+00 -.765E+03   -.200E-01 -.200E-01 0.492E+00
   0.659E+01 0.382E+01 -.614E+03   -.659E+01 -.382E+01 0.614E+03   -.605E-02 0.251E-02 -.351E+00
   0.675E+01 -.674E+01 -.609E+03   -.673E+01 0.673E+01 0.609E+03   -.170E-01 0.168E-01 0.560E-01
   0.255E+02 -.215E+02 -.200E+04   -.259E+02 0.215E+02 0.200E+04   0.293E+00 -.167E-01 0.542E+01
   0.355E+02 0.355E+02 -.190E+04   -.361E+02 -.361E+02 0.189E+04   0.529E+00 0.529E+00 0.524E+01
   -.178E+00 -.201E+00 0.215E+04   0.177E+00 0.201E+00 -.214E+04   0.206E-03 0.227E-03 -.643E+01
   -.177E+00 0.177E+00 0.215E+04   0.177E+00 -.176E+00 -.214E+04   0.460E-03 -.465E-03 -.644E+01
   -.913E+00 0.837E+00 0.763E+03   0.930E+00 -.781E+00 -.763E+03   -.113E-01 -.355E-01 0.414E+00
   -.889E+00 -.889E+00 0.762E+03   0.912E+00 0.912E+00 -.762E+03   -.153E-01 -.153E-01 0.393E+00
   -.381E+01 -.659E+01 -.614E+03   0.382E+01 0.659E+01 0.614E+03   -.253E-02 0.605E-02 -.351E+00
   -.372E+01 0.372E+01 -.626E+03   0.372E+01 -.372E+01 0.626E+03   -.398E-02 0.401E-02 -.113E+00
   -.215E+02 0.255E+02 -.200E+04   0.215E+02 -.259E+02 0.200E+04   -.167E-01 0.293E+00 0.542E+01
   -.199E+02 -.199E+02 -.202E+04   0.199E+02 0.199E+02 0.202E+04   -.223E-01 -.223E-01 0.541E+01
   -.205E+00 0.205E+00 0.215E+04   0.203E+00 -.204E+00 -.214E+04   0.115E-02 -.115E-02 -.645E+01
   -.201E+00 -.178E+00 0.215E+04   0.201E+00 0.177E+00 -.214E+04   0.226E-03 0.216E-03 -.643E+01
   -.853E+00 -.853E+00 0.765E+03   0.824E+00 0.824E+00 -.765E+03   0.200E-01 0.200E-01 0.492E+00
   -.838E+00 0.914E+00 0.763E+03   0.782E+00 -.931E+00 -.763E+03   0.355E-01 0.113E-01 0.414E+00
   -.674E+01 0.675E+01 -.609E+03   0.673E+01 -.673E+01 0.609E+03   0.168E-01 -.170E-01 0.560E-01
   -.659E+01 -.381E+01 -.614E+03   0.659E+01 0.382E+01 0.614E+03   0.604E-02 -.253E-02 -.351E+00
   -.354E+02 -.354E+02 -.190E+04   0.360E+02 0.360E+02 0.189E+04   -.529E+00 -.529E+00 0.524E+01
   -.256E+02 0.215E+02 -.200E+04   0.259E+02 -.215E+02 0.200E+04   -.293E+00 0.168E-01 0.542E+01
   0.560E+00 -.560E+00 0.571E+03   -.564E+00 0.564E+00 -.570E+03   0.512E-02 -.516E-02 -.103E+00
   0.557E+00 0.704E+00 0.572E+03   -.553E+00 -.700E+00 -.572E+03   -.407E-02 -.437E-02 -.672E-01
   0.147E+00 0.147E+00 0.162E+04   -.149E+00 -.149E+00 -.162E+04   0.245E-02 0.245E-02 0.310E+01
   0.147E+00 -.137E+00 0.162E+04   -.149E+00 0.133E+00 -.162E+04   0.268E-02 0.443E-02 0.310E+01
   0.996E+01 -.996E+01 -.154E+04   -.992E+01 0.992E+01 0.155E+04   -.381E-01 0.382E-01 -.466E+01
   0.112E+02 0.299E+02 -.151E+04   -.112E+02 -.299E+02 0.152E+04   -.301E-01 0.619E-01 -.475E+01
   0.376E+01 0.376E+01 -.462E+03   -.375E+01 -.375E+01 0.462E+03   -.108E-01 -.108E-01 0.244E+00
   0.386E+01 -.355E+01 -.457E+03   -.385E+01 0.356E+01 0.456E+03   -.107E-01 -.798E-02 0.312E+00
   0.704E+00 0.557E+00 0.572E+03   -.700E+00 -.553E+00 -.572E+03   -.438E-02 -.407E-02 -.672E-01
   0.770E+00 -.769E+00 0.573E+03   -.796E+00 0.795E+00 -.573E+03   0.317E-01 -.318E-01 -.143E+00
   0.137E+00 -.147E+00 0.162E+04   -.133E+00 0.149E+00 -.162E+04   -.443E-02 -.267E-02 0.310E+01
   0.140E+00 0.140E+00 0.162E+04   -.136E+00 -.136E+00 -.162E+04   -.569E-02 -.569E-02 0.310E+01
   0.299E+02 0.112E+02 -.151E+04   -.299E+02 -.112E+02 0.152E+04   0.619E-01 -.301E-01 -.475E+01
   0.372E+02 -.372E+02 -.147E+04   -.371E+02 0.371E+02 0.147E+04   -.752E-01 0.752E-01 -.425E+01
   0.355E+01 -.386E+01 -.457E+03   -.356E+01 0.385E+01 0.456E+03   0.794E-02 0.106E-01 0.312E+00
   0.374E+01 0.374E+01 -.448E+03   -.377E+01 -.377E+01 0.447E+03   0.237E-01 0.237E-01 0.255E+00
   -.556E+00 -.705E+00 0.572E+03   0.553E+00 0.701E+00 -.572E+03   0.400E-02 0.432E-02 -.672E-01
   -.560E+00 0.560E+00 0.571E+03   0.564E+00 -.564E+00 -.570E+03   -.516E-02 0.512E-02 -.103E+00
   -.147E+00 0.137E+00 0.162E+04   0.149E+00 -.133E+00 -.162E+04   -.268E-02 -.443E-02 0.310E+01
   -.147E+00 -.147E+00 0.162E+04   0.149E+00 0.149E+00 -.162E+04   -.245E-02 -.245E-02 0.310E+01
   -.112E+02 -.299E+02 -.151E+04   0.112E+02 0.299E+02 0.152E+04   0.303E-01 -.618E-01 -.475E+01
   -.996E+01 0.996E+01 -.154E+04   0.992E+01 -.992E+01 0.155E+04   0.382E-01 -.381E-01 -.466E+01
   -.386E+01 0.355E+01 -.457E+03   0.385E+01 -.356E+01 0.456E+03   0.106E-01 0.794E-02 0.312E+00
   -.377E+01 -.377E+01 -.462E+03   0.375E+01 0.375E+01 0.462E+03   0.108E-01 0.108E-01 0.244E+00
   -.769E+00 0.770E+00 0.573E+03   0.795E+00 -.796E+00 -.573E+03   -.318E-01 0.317E-01 -.143E+00
   -.705E+00 -.556E+00 0.572E+03   0.701E+00 0.553E+00 -.572E+03   0.432E-02 0.400E-02 -.672E-01
   -.140E+00 -.140E+00 0.162E+04   0.135E+00 0.135E+00 -.162E+04   0.568E-02 0.569E-02 0.310E+01
   -.137E+00 0.147E+00 0.162E+04   0.133E+00 -.149E+00 -.162E+04   0.443E-02 0.268E-02 0.310E+01
   -.372E+02 0.372E+02 -.147E+04   0.371E+02 -.371E+02 0.147E+04   0.752E-01 -.752E-01 -.425E+01
   -.299E+02 -.112E+02 -.151E+04   0.299E+02 0.112E+02 0.152E+04   -.618E-01 0.303E-01 -.475E+01
   -.374E+01 -.374E+01 -.448E+03   0.377E+01 0.377E+01 0.447E+03   -.237E-01 -.237E-01 0.255E+00
   -.355E+01 0.386E+01 -.457E+03   0.356E+01 -.385E+01 0.456E+03   -.798E-02 -.107E-01 0.312E+00
   -.247E-02 -.251E-02 0.243E+02   0.767E-12 -.114E-12 -.313E-11   0.225E-02 0.227E-02 -.214E+02

 POSITION                                       TOTAL-FORCE (eV/Angst)
      5.21823      5.21823     16.33203         0.003075      0.003080      0.073362
      4.39536      4.39536     16.35468        -0.129526     -0.129525      0.040835
      6.04114      6.04114     16.35463         0.126446      0.126447      0.040670
      2.08728      0.00000      7.50000         0.000184     -0.000179      0.312613
      4.17456      2.08728      7.50000         0.000148      0.000182      0.308955
      2.08728      2.08728      9.58728        -0.005962     -0.005958      0.043734
      4.17456      0.00000      9.58728        -0.003942     -0.016066      0.049405
      2.08780      8.34858     11.68691         0.000244     -0.000247      0.014040
      4.17390      2.08602     11.68694         0.000567     -0.001842      0.014666
      2.08524      2.08524     13.76317        -0.002904     -0.002901      0.110250
      4.17587      0.00235     13.76104        -0.004028      0.004576      0.103697
      2.08728      4.17456      7.50000         0.000174      0.000147      0.308930
      4.17456      6.26183      7.50000         0.000410     -0.000403      0.314191
      2.08728      6.26183      9.58728         0.016056      0.003927      0.049333
      4.17456      4.17456      9.58728         0.006526      0.006520      0.053430
      2.08602      4.17390     11.68694        -0.001839      0.000570      0.014671
      4.17708      6.25931     11.69235        -0.002333      0.002337      0.015152
      2.08490      6.26050     13.76103        -0.004566      0.004050      0.103707
      4.15628      4.15628     13.77166        -0.011715     -0.011711      0.085354
      6.26183      0.00000      7.50000        -0.000149     -0.000171      0.308923
      0.00000      2.08728      7.50000        -0.000180      0.000185      0.312620
      6.26183      2.08728      9.58728         0.003926      0.016065      0.049328
      0.00000      0.00000      9.58728         0.005958      0.005958      0.043821
      6.26248      0.00125     11.68693        -0.000571      0.001833      0.014680
      8.34858      2.08780     11.68691        -0.000246      0.000247      0.014046
      6.26050      2.08490     13.76103         0.004056     -0.004559      0.103713
      0.00202      0.00202     13.76317         0.002903      0.002902      0.110251
      6.26183      4.17456      7.50000        -0.000401      0.000406      0.314186
      0.00000      6.26183      7.50000        -0.000175     -0.000144      0.308960
      6.26183      6.26183      9.58728        -0.006529     -0.006534      0.053334
      0.00000      4.17456      9.58728        -0.016066     -0.003938      0.049397
      6.25931      4.17708     11.69235         0.002344     -0.002332      0.015154
      0.00125      6.26248     11.68693         0.001833     -0.000572      0.014688
      6.28011      6.28011     13.77165         0.011718      0.011708      0.085423
      0.00235      4.17587     13.76104         0.004577     -0.004024      0.103689
      2.08728      0.00000      9.58728         0.001943     -0.001951      0.056313
      4.17456      2.08728      9.58728        -0.000819     -0.000430      0.070620
      2.08728      2.08728      7.50000         0.000814      0.000808     -0.590737
      4.17456      0.00000      7.50000         0.000894      0.001494     -0.591065
      2.08824      8.34813     13.81154        -0.000097      0.000118      0.021545
      4.17262      2.08063     13.80037         0.001260      0.004946      0.020777
      2.08618      2.08618     11.67999         0.000664      0.000664      0.008566
      4.17464      8.34580     11.68118         0.000060      0.000246      0.007890
      2.08728      4.17456      9.58728        -0.000434     -0.000828      0.070613
      4.17456      6.26183      9.58728         0.010339     -0.010367      0.071346
      2.08728      6.26183      7.50000        -0.001484     -0.000885     -0.591043
      4.17456      4.17456      7.50000        -0.001955     -0.001951     -0.591461
      2.08063      4.17262     13.80037         0.004948      0.001260      0.020773
      4.17655      6.25983     13.82845         0.001741     -0.001796      0.020388
      2.09058      6.26174     11.68118        -0.000216     -0.000066      0.007879
      4.17468      4.17468     11.68580         0.001021      0.001020      0.008069
      6.26183      0.00000      9.58728         0.000809      0.000431      0.070595
      0.00000      2.08728      9.58728        -0.001955      0.001947      0.056307
      6.26183      2.08728      7.50000        -0.000895     -0.001485     -0.591048
      0.00000      0.00000      7.50000        -0.000804     -0.000807     -0.590758
      6.26376      0.00662     13.80037        -0.001278     -0.004896      0.020729
      8.34813      2.08824     13.81154         0.000115     -0.000103      0.021542
      6.26174      2.09058     11.68118        -0.000065     -0.000218      0.007877
      0.00109      0.00109     11.67999        -0.000658     -0.000660      0.008567
      6.26183      4.17456      9.58728        -0.010362      0.010335      0.071338
      0.00000      6.26183      9.58728         0.000424      0.000807      0.070587
      6.26183      6.26183      7.50000         0.001957      0.001958     -0.591465
      0.00000      4.17456      7.50000         0.001486      0.000891     -0.591038
      6.25983      4.17655     13.82845        -0.001789      0.001739      0.020383
      0.00662      6.26376     13.80037        -0.004898     -0.001280      0.020727
      6.26170      6.26170     11.68580        -0.001024     -0.001031      0.008081
      8.34580      4.17464     11.68118         0.000245      0.000059      0.007896
    total drift:                               -0.000151     -0.000161      0.013684

  FREE ENERGIE OF THE ION-ELECTRON SYSTEM (eV)
  free  energy   TOTEN  =      -467.06454427 eV

  energy  without entropy=     -467.06454427  energy(sigma->0) =     -467.06454427