 vasp.6.3.0 20Jan22 (build Mar 11 2022 13:48:16) complex

 executed on             LinuxIFC date 2024.01.22  05:35:42

 INCAR:
   SYSTEM = TiO2
   ISMEAR = 0
   SIGMA = 0.05
   EDIFF = 1E-5
   ALGO = ALL
   ISTART = 0
   IBRION = -1
   NSW = 0
   ISYM = 0
   ISIF = 2
   EDIFFG = -0.01
   DIPOL = 0.5 0.5 0.5
   IDIPOL = 3
   LDIPOL = .TRUE.
   GGA = MK
   LUSE_VDW = .TRUE.
   PARAM1 = 0.1234
   PARAM2 = 0.711357
   ZAB_VDW = -1.8867
   AGGAC = 0.0
   ENCUT = 600
   PREC = Accurate
   LASPH = .TRUE.
   LREAL = .FALSE.
   ISPIN = 1
   NELM = 200
   NELMIN = 8
   NCORE = 2
   KPAR = 1
   LWAVE = .FALSE.
   LCHARG = .FALSE.

 POTCAR:    PAW_PBE H 15Jun2001
 POTCAR:    PAW_PBE O 08Apr2002
 POTCAR:    PAW_PBE Ti_pv 07Sep2000
 POTCAR:    PAW_PBE O 08Apr2002
|           W    W    AA    RRRRR   N    N  II  N    N   GGGG   !!!           |
|           W    W   A  A   R    R  NN   N  II  NN   N  G    G  !!!           |
|           W    W  A    A  R    R  N N  N  II  N N  N  G       !!!           |
|           W WW W  AAAAAA  RRRRR   N  N N  II  N  N N  G  GGG   !            |
|           WW  WW  A    A  R   R   N   NN  II  N   NN  G    G                |
|           W    W  A    A  R    R  N    N  II  N    N   GGGG   !!!           |
|     For optimal performance we recommend to set                             |
|       NCORE = 2 up to number-of-cores-per-socket                            |
|     This setting can greatly improve the performance of VASP for DFT.       |
|     The default, NCORE=1 might be grossly inefficient on modern             |
|     multi-core architectures or massively parallel machines. Do your        |
|     Unfortunately you need to use the default for GW and RPA                |
|     calculations (for HF NCORE is supported but not extensively tested      |
|     yet).                                                                   |

   TITEL  = PAW_PBE H 15Jun2001
   POMASS =    1.000; ZVAL   =    1.000    mass and valenz
   ENMAX  =  250.000; ENMIN  =  200.000 eV

   TITEL  = PAW_PBE O 08Apr2002
   POMASS =   16.000; ZVAL   =    6.000    mass and valenz
   ENMAX  =  400.000; ENMIN  =  300.000 eV

   TITEL  = PAW_PBE Ti_pv 07Sep2000
   POMASS =   47.880; ZVAL   =   10.000    mass and valenz
   ENMAX  =  222.335; ENMIN  =  166.751 eV

   TITEL  = PAW_PBE O 08Apr2002
   POMASS =   16.000; ZVAL   =    6.000    mass and valenz
   ENMAX  =  400.000; ENMIN  =  300.000 eV

  PAW_PBE H 15Jun2001                   :
  PAW_PBE O 08Apr2002                   :
  PAW_PBE Ti_pv 07Sep2000               :
  PAW_PBE O 08Apr2002                   :

 POSCAR:  H  O Ti  O
  positions in direct lattice
 exchange correlation table for  LEXCH =       43
   RHO(1)=    0.500       N(1)  =     2000
   RHO(2)=  100.500       N(2)  =     4000

 ion  position               nearest neighbor table
   1  0.688  0.567  0.772-   3 0.98
   2  0.688  0.433  0.772-   3 0.98
   3  0.630  0.500  0.774-   1 0.98   2 0.98  51 2.26
   4  0.804  0.833  0.293-  88 1.97  54 1.97  56 1.97  53 2.01  55 2.01  21 3.09   7 3.09   5 3.09

   5  0.588  0.667  0.325-  52 1.97 119 1.97  55 1.97  57 1.97  56 2.01  58 2.01  36 3.09   6 3.09
                             4 3.09  10 3.11
   6  0.304  0.667  0.293- 124 1.97  58 1.97  60 1.97  52 2.01  59 2.01  39 3.09   5 3.09   7 3.09

   7  0.088  0.833  0.325-  53 1.97  91 1.97  59 1.97  61 1.97  60 2.01  54 2.01  22 3.09   4 3.09
                             6 3.09   8 3.11
   8  0.942  0.833  0.421-  62 1.97  96 1.97  64 1.97  54 2.00  63 2.01  61 2.01  11 3.06   9 3.09
                            25 3.09   7 3.11
   9  0.725  0.666  0.451-  57 1.95 127 1.97  63 1.97  65 1.98  64 2.01  66 2.01  10 3.07   8 3.09
                            40 3.10  14 3.12
  10  0.442  0.667  0.421-  66 1.97 132 1.97  68 1.97  58 1.99  67 2.01  57 2.02   9 3.07  11 3.10
                            43 3.10   5 3.11
  11  0.225  0.833  0.452-  61 1.95  99 1.97  67 1.97  69 1.99  62 2.00  68 2.02   8 3.06  10 3.10
                            26 3.10  12 3.12
  12  0.083  0.834  0.549- 104 1.97  72 1.97  70 1.98  71 2.00  62 2.01  69 2.01  15 3.03  13 3.09
                            29 3.09  11 3.12
  13  0.864  0.666  0.577-  65 1.93 135 1.97  71 1.97  74 1.99  73 2.01  72 2.02  14 3.05  12 3.09
                            44 3.10
  14  0.581  0.667  0.549- 140 1.97  76 1.97  74 1.97  66 1.99  75 2.01  65 2.02  13 3.05  15 3.10
                            47 3.10   9 3.12
  15  0.363  0.833  0.578-  69 1.93 107 1.97  75 1.97  70 1.99  77 1.99  76 2.02  12 3.03  30 3.09
                            14 3.10
  16  0.226  0.833  0.680-  78 1.91  80 1.97 112 1.98  79 2.04  70 2.09  77 2.09  19 2.92  33 3.12
                            17 3.13
  17  0.998  0.666  0.703-  73 1.84  81 1.88 143 2.00  79 2.01  80 2.05  18 2.94  16 3.13  48 3.15

[...]

  20  0.804  0.167  0.293-  88 1.97  86 1.97 120 1.97  85 2.01  87 2.01  21 3.09  23 3.09  37 3.09

[...]

  36  0.804  0.500  0.293-  56 1.97 120 1.97 118 1.97 117 2.01 119 2.01  37 3.09   5 3.09  39 3.09

  37  0.588  0.333  0.325- 116 1.97 119 1.97  87 1.97 121 1.97 120 2.01 122 2.01  36 3.09  38 3.09
                            20 3.09  42 3.11
  38  0.304  0.333  0.293- 124 1.97 122 1.97  92 1.97 116 2.01 123 2.01  39 3.09  37 3.09  23 3.09

  39  0.088  0.500  0.325- 117 1.97  59 1.97 123 1.97 125 1.97 124 2.01 118 2.01   6 3.09  38 3.09
                            36 3.09  40 3.10
  40  0.943  0.500  0.421-  64 1.97 128 1.97 126 1.97 118 2.00 125 2.00 127 2.01  43 3.07   9 3.10
                            41 3.10  39 3.10
  41  0.725  0.334  0.451- 121 1.95 127 1.97  95 1.97 129 1.98 128 2.01 130 2.01  42 3.07  24 3.09
                            40 3.10  46 3.12
  42  0.442  0.333  0.421- 130 1.97 132 1.97 100 1.97 122 1.99 131 2.01 121 2.02  41 3.07  27 3.10
                            43 3.10  37 3.11
  43  0.225  0.500  0.453-  67 1.97 131 1.97 125 1.98 133 1.99 126 1.99 132 2.02  40 3.07  42 3.10
                            10 3.10  44 3.10
  44  0.085  0.500  0.550-  72 1.97 136 1.97 134 1.97 133 2.00 126 2.02 135 2.02  47 3.04  13 3.10
                            45 3.10  43 3.10
  45  0.864  0.334  0.577- 129 1.93 135 1.97 103 1.97 138 1.99 137 2.01 136 2.02  46 3.05  28 3.09
                            44 3.10
  46  0.581  0.333  0.549- 140 1.97 108 1.97 138 1.97 130 1.99 139 2.01 129 2.02  45 3.05  31 3.10
                            47 3.10  41 3.12
  47  0.365  0.500  0.581-  75 1.98 139 1.98 133 1.98 134 1.98 141 1.99 140 2.03  44 3.04  14 3.10
                            46 3.10  48 3.15
  48  0.230  0.500  0.681- 142 1.90  80 1.98 144 1.98 141 2.05 143 2.07 134 2.09  51 2.96  17 3.15
                            49 3.15  47 3.15
  49  0.998  0.334  0.703- 137 1.84 145 1.88 143 2.00 111 2.01 144 2.05  50 2.94  32 3.13  48 3.15

  50  0.724  0.334  0.677- 145 1.94 147 1.97 115 1.98 146 2.03 138 2.03 137 2.08  49 2.94  51 3.12
                            35 3.12
  51  0.504  0.500  0.709- 142 1.86 141 1.94  82 2.01 146 2.01 147 2.08   3 2.26  48 2.96  18 3.12
                            50 3.12
  52  0.483  0.667  0.267-   5 1.97   6 2.01
  53  0.983  0.833  0.267-   7 1.97   4 2.01
  54  0.909  0.833  0.351-   4 1.97   8 2.00   7 2.01
  55  0.625  0.833  0.319-  21 1.97   5 1.97   4 2.01
  56  0.768  0.667  0.298-  36 1.97   4 1.97   5 2.01
  57  0.621  0.667  0.394-   9 1.95   5 1.97  10 2.02
  58  0.409  0.667  0.351-   6 1.97  10 1.99   5 2.01
  59  0.125  0.667  0.319-  39 1.97   7 1.97   6 2.01
  60  0.268  0.833  0.298-  22 1.97   6 1.97   7 2.01
  61  0.121  0.833  0.394-  11 1.95   7 1.97   8 2.01
  62  0.047  0.834  0.479-   8 1.97  11 2.00  12 2.01
  63  0.762  0.833  0.447-  25 1.97   9 1.97   8 2.01
  64  0.906  0.667  0.426-   8 1.97  40 1.97   9 2.01
  65  0.760  0.666  0.520-  13 1.93   9 1.98  14 2.02
  66  0.547  0.666  0.479-  10 1.97  14 1.99   9 2.01
  67  0.262  0.667  0.447-  43 1.97  11 1.97  10 2.01
  68  0.405  0.833  0.426-  10 1.97  26 1.97  11 2.02
  69  0.260  0.833  0.521-  15 1.93  11 1.99  12 2.01
  70  0.189  0.833  0.608-  12 1.98  15 1.99  16 2.09
  71  0.901  0.833  0.573-  13 1.97  29 1.97  12 2.00
  72  0.047  0.667  0.553-  12 1.97  44 1.97  13 2.02
  73  0.906  0.668  0.646-  17 1.84  13 2.01  18 2.08
  74  0.690  0.669  0.606-  14 1.97  13 1.99  18 2.03
  75  0.402  0.667  0.575-  15 1.97  47 1.98  14 2.01
  76  0.545  0.833  0.553-  30 1.97  14 1.97  15 2.02
  77  0.406  0.834  0.647-  19 1.84  15 1.99  16 2.09
  78  0.342  0.833  0.733-  19 1.86  16 1.91
  79  0.047  0.833  0.710-  33 2.01  17 2.01  16 2.04
  80  0.187  0.666  0.682-  16 1.97  48 1.98  17 2.05
  81  0.836  0.660  0.732-  17 1.88  18 1.94
  82  0.550  0.669  0.709-  19 1.99  51 2.01  18 2.03
  83  0.688  0.834  0.681-  34 1.97  18 1.98  19 2.05
  84  0.483  0.000  0.267-  21 1.97  22 2.01
  85  0.983  0.167  0.267-  23 1.97  20 2.01
  86  0.909  0.167  0.351-  20 1.97  24 2.00  23 2.01
  87  0.625  0.167  0.319-  21 1.97  37 1.97  20 2.01
  88  0.768  0.000  0.298-   4 1.97  20 1.97  21 2.01
  89  0.621  0.000  0.394-  25 1.95  21 1.97  26 2.01
  90  0.409  0.000  0.351-  22 1.97  26 1.99  21 2.01
  91  0.125  0.000  0.319-   7 1.97  23 1.97  22 2.01
  92  0.268  0.167  0.298-  22 1.97  38 1.97  23 2.01
  93  0.121  0.167  0.394-  27 1.95  23 1.97  24 2.01
  94  0.047  0.166  0.479-  24 1.97  27 2.00  28 2.01
  95  0.762  0.167  0.447-  25 1.97  41 1.97  24 2.01
  96  0.906  0.000  0.426-  24 1.97   8 1.97  25 2.02
  97  0.759  1.000  0.521-  29 1.93  25 1.98  30 2.02
  98  0.547  0.000  0.479-  26 1.97  30 2.00  25 2.01
  99  0.262  0.000  0.447-  27 1.97  11 1.97  26 2.01
 100  0.405  0.167  0.426-  42 1.97  26 1.97  27 2.02
 101  0.260  0.167  0.521-  31 1.93  27 1.99  28 2.01
 102  0.189  0.167  0.608-  28 1.98  31 1.99  32 2.09
 103  0.901  0.167  0.573-  45 1.97  29 1.97  28 2.00
 104  0.046  1.000  0.554-  12 1.97  28 1.97  29 2.03
 105  0.907  0.000  0.647-  33 1.85  29 2.00  34 2.08
 106  0.690  0.000  0.607-  30 1.98  29 1.99  34 2.08
 107  0.401  0.000  0.574-  31 1.97  15 1.97  30 2.01
 108  0.545  0.167  0.553-  30 1.97  46 1.97  31 2.02
 109  0.406  0.166  0.647-  35 1.84  31 1.99  32 2.09
 110  0.342  0.167  0.733-  35 1.86  32 1.91
 111  0.047  0.167  0.710-  33 2.01  49 2.01  32 2.04
[...]
 133  0.261  0.500  0.522-  47 1.98  43 1.99  44 2.00
 134  0.190  0.500  0.608-  44 1.97  47 1.98  48 2.09
 135  0.902  0.500  0.574-  45 1.97  13 1.97  44 2.02
 136  0.047  0.333  0.553-  28 1.97  44 1.97  45 2.02
 137  0.906  0.332  0.646-  49 1.84  45 2.01  50 2.08
 138  0.690  0.331  0.606-  46 1.97  45 1.99  50 2.03
 139  0.402  0.333  0.575-  31 1.97  47 1.98  46 2.01
 140  0.546  0.500  0.554-  14 1.97  46 1.97  47 2.03
 141  0.407  0.500  0.650-  51 1.94  47 1.99  48 2.05
 142  0.341  0.500  0.735-  51 1.86  48 1.90
 143  0.048  0.500  0.710-  17 2.00  49 2.00  48 2.07
 144  0.187  0.334  0.682-  32 1.97  48 1.98  49 2.05
 145  0.836  0.340  0.732-  49 1.88  50 1.94
 146  0.550  0.331  0.709-  35 1.99  51 2.01  50 2.03
 147  0.684  0.500  0.676-  50 1.97  18 1.97  51 2.08

IMPORTANT INFORMATION: All symmetrisations will be switched off!
NOSYMM: (Re-)initialisation of all symmetry stuff for point group C_1.

[...]
  10.24387556  9.64746821  7.50000000
   9.46819558  9.64746821  9.88664838
   6.50654796  9.64746821  8.99054093
   7.99700864  7.71797456  8.39610745
   6.46492243  7.71797456 11.08442980
   4.25968104  7.71797456  9.88664838
   1.29803342  7.71797456  8.99054093
   2.78849410  9.64746821  8.39610745
[...]
   2.72221632  5.78848083 14.69022210
   1.98015222  5.78848048 17.11826894
   9.39750275  5.78848013 16.15124055
   0.48689764  3.85987583 15.57313572
   9.44141874  3.84671678 18.19237919
   7.18961592  3.82761580 17.05539463
   4.18841137  3.85912241 16.17838348
   5.68880985  5.78848123 15.59452129
   4.24415889  5.78848069 18.28831140
   3.54859558  5.78847923 20.68342803
   0.49539282  5.78848168 19.97920930
   1.94540542  3.86315086 19.20494694
   8.71056542  3.93495293 20.60199216
   5.72991201  3.83636052 19.96144963
   7.12728591  5.78848018 19.03287377

--------------------------------------- Iteration      FINAL  ---------------------------------------

--------------------OUTCAR has been truncated-------------------------

[...]

--------------------OUTCAR has been truncated-------------------------

  FORCE on cell =-STRESS in cart. coord.  units (eV):
  Direction    XX          YY          ZZ          XY          YZ          ZX
  Alpha Z  2347.02906  2347.02906  2347.02906
  Ewald  467478.64737460683.86187************     0.00510     0.00116 -2288.17301
  Hartree488766.26161484615.37487************     0.00077     0.00040 -1470.21744
  E(xc)   -5176.62846 -5177.55918 -5176.37248     0.00001     0.00001    -0.63436
  Local  ************************964169.80467    -0.00369    -0.00156  3765.01322
  n-local -3339.49209 -3317.45336 -3352.25365    -0.00039     0.00005    -1.18874
  augment  3161.92768  3154.69931  3149.86507    -0.00005    -0.00001    -2.55046
  Kinetic 17081.38185 17119.05984 17196.27297    -0.00001    -0.00033   -17.93909
  Fock        0.00000     0.00000     0.00000     0.00000     0.00000     0.00000
  Total    -130.89363  -108.19857   -90.69832     0.00172    -0.00027   -15.68989
  in kB     -61.79701   -51.08231   -42.82015     0.00081    -0.00013    -7.40745

 VOLUME and BASIS-vectors are now :
  energy-cutoff  :      600.00
  volume of cell :     3393.61
      direct lattice vectors                 reciprocal lattice vectors
    10.417029087  0.000000000  0.000000000     0.095996660 -0.000000000  0.000000000
     0.000000000 11.576961846  0.000000000     0.000000000  0.086378448  0.000000000
     0.000000000  0.000000000 28.139937787     0.000000000  0.000000000  0.035536681

  length of vectors
    10.417029087 11.576961846 28.139937787     0.095996660  0.086378448  0.035536681

 FORCES acting on ions:
    Electron-Ion                     Ewald-Force                    Non-Local-Force
   -.509E+02 -.646E+02 -.346E+03   0.558E+02 0.711E+02 0.345E+03   -.492E+01 -.646E+01 0.417E+00
   -.509E+02 0.646E+02 -.346E+03   0.558E+02 -.711E+02 0.345E+03   -.492E+01 0.645E+01 0.417E+00
   0.111E+02 0.565E-02 -.211E+04   -.511E+02 -.104E-01 0.212E+04   0.399E+02 0.185E-02 -.123E+02
   0.599E+01 -.197E-01 0.324E+04   -.131E+01 0.170E-01 -.323E+04   -.103E+01 0.448E-03 -.318E+01
   0.353E+01 -.692E-01 0.266E+04   -.488E+01 0.673E-01 -.266E+04   -.112E+00 0.933E-04 -.766E-01
   0.627E+01 0.177E+00 0.324E+04   -.162E+01 -.184E+00 -.323E+04   -.102E+01 0.159E-02 -.318E+01
   0.246E+01 0.169E+00 0.266E+04   -.384E+01 -.178E+00 -.266E+04   -.107E+00 0.179E-02 -.792E-01
   -.690E+00 -.174E+00 0.122E+04   0.649E+00 0.175E+00 -.122E+04   0.913E-01 0.564E-03 -.215E-01
   0.178E+01 -.157E+01 0.766E+03   -.179E+01 0.155E+01 -.766E+03   -.275E-01 0.185E-01 -.804E-01
   0.217E+01 0.115E+00 0.122E+04   -.222E+01 -.127E+00 -.122E+04   0.848E-01 0.627E-02 -.355E-01
   -.148E+01 0.470E+00 0.757E+03   0.141E+01 -.472E+00 -.757E+03   -.141E-01 0.590E-03 -.671E-01
   -.699E+01 -.244E+01 -.736E+03   0.685E+01 0.245E+01 0.736E+03   0.181E+00 0.104E-02 0.106E+00
   -.834E+01 -.353E+01 -.113E+04   0.820E+01 0.356E+01 0.113E+04   -.270E-01 -.424E-01 -.121E+00
   0.309E+01 -.222E+01 -.707E+03   -.324E+01 0.222E+01 0.707E+03   0.153E+00 0.534E-02 0.622E-01
   0.747E+01 -.279E+01 -.116E+04   -.762E+01 0.280E+01 0.116E+04   -.393E-01 -.492E-02 -.176E+00
   0.282E+02 -.114E+02 -.267E+04   -.289E+02 0.113E+02 0.267E+04   0.740E+00 0.136E-01 -.478E-01
   -.768E+02 -.288E+02 -.307E+04   0.760E+02 0.286E+02 0.307E+04   0.552E-01 0.176E+00 0.107E+01
   -.103E+02 -.536E+02 -.257E+04   0.972E+01 0.536E+02 0.257E+04   0.606E+00 -.453E-01 0.653E-01
   -.442E+02 -.361E+02 -.307E+04   0.434E+02 0.361E+02 0.307E+04   0.106E+00 0.233E-01 0.109E+01
   0.599E+01 0.197E-01 0.324E+04   -.131E+01 -.170E-01 -.323E+04   -.103E+01 -.453E-03 -.318E+01
   0.337E+01 -.262E-04 0.266E+04   -.474E+01 0.459E-04 -.266E+04   -.108E+00 -.492E-05 -.796E-01
   0.615E+01 -.297E-04 0.324E+04   -.148E+01 0.378E-04 -.323E+04   -.103E+01 0.350E-05 -.318E+01
   0.246E+01 -.169E+00 0.266E+04   -.384E+01 0.178E+00 -.266E+04   -.107E+00 -.179E-02 -.792E-01
   -.690E+00 0.173E+00 0.122E+04   0.649E+00 -.175E+00 -.122E+04   0.913E-01 -.567E-03 -.215E-01
   -.909E-01 0.642E-04 0.762E+03   0.381E-01 -.499E-04 -.762E+03   -.818E-02 -.302E-05 -.755E-01
   0.158E+01 -.292E-03 0.122E+04   -.162E+01 0.324E-03 -.122E+04   0.865E-01 -.520E-05 -.312E-01
   -.148E+01 -.470E+00 0.757E+03   0.141E+01 0.472E+00 -.757E+03   -.141E-01 -.592E-03 -.671E-01
   -.699E+01 0.244E+01 -.736E+03   0.685E+01 -.245E+01 0.736E+03   0.181E+00 -.104E-02 0.106E+00
   -.347E+01 0.256E-03 -.115E+04   0.329E+01 -.260E-03 0.115E+04   -.155E-01 -.391E-05 -.150E+00
   -.241E+01 0.283E-03 -.727E+03   0.227E+01 -.270E-03 0.727E+03   0.176E+00 -.204E-05 0.117E+00
   0.747E+01 0.279E+01 -.116E+04   -.762E+01 -.280E+01 0.116E+04   -.393E-01 0.492E-02 -.176E+00
   0.282E+02 0.114E+02 -.267E+04   -.289E+02 -.113E+02 0.267E+04   0.740E+00 -.136E-01 -.478E-01
   -.649E+02 0.114E-04 -.308E+04   0.641E+02 -.155E-04 0.308E+04   0.539E-01 0.287E-06 0.108E+01
   0.112E+02 0.298E-03 -.266E+04   -.118E+02 -.315E-03 0.266E+04   0.692E+00 -.128E-05 -.188E-01
   -.442E+02 0.361E+02 -.307E+04   0.434E+02 -.361E+02 0.307E+04   0.106E+00 -.233E-01 0.109E+01
   0.591E+01 0.370E-04 0.324E+04   -.121E+01 -.353E-04 -.323E+04   -.103E+01 0.961E-06 -.318E+01
   0.353E+01 0.692E-01 0.266E+04   -.488E+01 -.674E-01 -.266E+04   -.112E+00 -.849E-04 -.766E-01
   0.627E+01 -.177E+00 0.324E+04   -.162E+01 0.184E+00 -.323E+04   -.102E+01 -.158E-02 -.318E+01
   0.185E+01 0.675E-04 0.266E+04   -.321E+01 -.572E-04 -.266E+04   -.113E+00 0.258E-05 -.832E-01
   -.170E+01 0.391E-03 0.122E+04   0.171E+01 -.417E-03 -.122E+04   0.864E-01 0.598E-05 0.151E-01
   0.177E+01 0.157E+01 0.766E+03   -.179E+01 -.155E+01 -.766E+03   -.275E-01 -.185E-01 -.804E-01
   0.217E+01 -.115E+00 0.122E+04   -.222E+01 0.127E+00 -.122E+04   0.848E-01 -.627E-02 -.355E-01
   -.303E+01 0.149E-04 0.742E+03   0.296E+01 -.370E-04 -.742E+03   -.266E-01 0.207E-06 -.164E-01
   -.660E+01 0.667E-04 -.742E+03   0.659E+01 -.760E-04 0.742E+03   0.123E+00 0.639E-05 0.120E+00
   -.835E+01 0.353E+01 -.113E+04   0.820E+01 -.356E+01 0.113E+04   -.271E-01 0.424E-01 -.121E+00
   0.309E+01 0.222E+01 -.707E+03   -.324E+01 -.222E+01 0.707E+03   0.153E+00 -.534E-02 0.622E-01
   0.718E+01 0.125E-03 -.119E+04   -.729E+01 -.129E-03 0.119E+04   -.539E-01 0.243E-05 -.996E-01
   0.411E+02 -.230E-03 -.267E+04   -.415E+02 0.240E-03 0.267E+04   0.509E+00 -.494E-05 0.705E-02
   -.768E+02 0.288E+02 -.307E+04   0.760E+02 -.286E+02 0.307E+04   0.552E-01 -.176E+00 0.107E+01
   -.103E+02 0.536E+02 -.257E+04   0.972E+01 -.536E+02 0.257E+04   0.606E+00 0.453E-01 0.653E-01
   0.542E+02 0.131E-02 -.302E+04   -.545E+02 -.126E-02 0.302E+04   -.325E+00 -.210E-04 0.578E+00
   -.343E+02 -.602E-02 0.219E+04   0.391E+02 0.491E-02 -.220E+04   -.657E+01 0.157E-02 0.169E+02
   -.346E+02 -.215E-02 0.219E+04   0.394E+02 -.527E-03 -.220E+04   -.657E+01 0.344E-02 0.169E+02
   0.831E+02 0.802E-01 0.133E+04   -.878E+02 -.844E-01 -.133E+04   0.395E+01 0.377E-02 -.402E+01
   0.754E+02 -.168E-01 0.162E+04   -.821E+02 0.173E-01 -.162E+04   0.713E+01 -.807E-03 -.274E+01
   -.868E+02 -.230E-01 0.187E+04   0.938E+02 0.196E-01 -.187E+04   -.683E+01 0.881E-02 -.369E-01
   -.749E+02 -.591E+00 0.101E+04   0.808E+02 0.621E+00 -.102E+04   -.612E+01 -.282E-01 0.365E+01
   0.839E+02 0.192E+00 0.133E+04   -.886E+02 -.181E+00 -.133E+04   0.393E+01 -.129E-01 -.391E+01
   0.748E+02 0.185E+00 0.162E+04   -.815E+02 -.194E+00 -.161E+04   0.715E+01 0.216E-01 -.276E+01
   -.867E+02 0.704E-01 0.186E+04   0.937E+02 -.706E-01 -.187E+04   -.681E+01 -.318E-03 -.395E-01
[...]
   0.897E+02 0.649E-04 -.102E+04   -.966E+02 -.740E-04 0.103E+04   0.703E+01 0.939E-05 -.592E+01
   0.705E+02 -.108E-03 -.686E+03   -.764E+02 0.117E-03 0.689E+03   0.606E+01 0.150E-05 -.287E+01
   -.856E+02 0.264E+00 -.439E+03   0.920E+02 -.256E+00 0.436E+03   -.647E+01 -.902E-02 0.269E+01
   -.793E+02 0.144E+02 -.124E+04   0.824E+02 -.149E+02 0.124E+04   -.287E+01 0.547E+00 0.790E+01
   0.817E+02 0.157E+02 -.986E+03   -.880E+02 -.163E+02 0.990E+03   0.640E+01 0.658E+00 -.445E+01
   0.836E+02 0.428E+00 -.697E+03   -.899E+02 -.392E+00 0.700E+03   0.642E+01 -.253E-01 -.285E+01
   -.747E+02 0.377E-03 -.440E+03   0.807E+02 -.399E-03 0.438E+03   -.612E+01 -.204E-05 0.226E+01
   -.598E+02 -.254E-04 -.127E+04   0.655E+02 0.331E-04 0.126E+04   -.575E+01 -.447E-06 0.501E+01
   0.109E+03 0.243E-03 -.218E+04   -.115E+03 -.263E-03 0.220E+04   0.629E+01 0.211E-04 -.199E+02
   0.392E+02 0.212E-03 -.193E+04   -.426E+02 -.220E-03 0.193E+04   0.341E+01 -.205E-04 -.694E+01
   -.580E+02 0.701E+01 -.159E+04   0.630E+02 -.690E+01 0.159E+04   -.499E+01 -.101E+00 0.267E+01
   0.384E+01 0.389E+02 -.216E+04   -.868E+01 -.388E+02 0.218E+04   0.511E+01 -.195E+00 -.180E+02
   0.862E+02 0.543E+02 -.188E+04   -.908E+02 -.542E+02 0.189E+04   0.475E+01 -.850E-01 -.633E+01
   -.612E+02 0.162E-04 -.145E+04   0.649E+02 0.213E-04 0.144E+04   -.357E+01 -.515E-04 0.552E+01
   -.319E+02 -.125E-03 0.700E+02   -.455E-12 0.938E-12 -.171E-10   0.319E+02 0.124E-03 -.700E+02

 POSITION                                       TOTAL-FORCE (eV/Angst)
      7.17160      6.55992     21.72994         0.032785      0.090886      0.016086
      7.17164      5.01701     21.72993         0.030620     -0.088046      0.016284
      6.56236      5.78850     21.78956        -0.135028     -0.002901     -0.178019
      8.37521      9.64747      8.24527         3.673163     -0.002223      2.027862
      6.12834      7.71797      9.14138        -1.461957     -0.001766     -1.687844
      3.16670      7.71797      8.24527         3.646893     -0.004564      2.015597
      0.91983      9.64747      9.14138        -1.487714     -0.006631     -1.680637
      9.81418      9.64809     11.85255         0.051277      0.002421      0.106162
      7.55357      7.71468     12.70010        -0.051346     -0.005287     -0.119392
      4.59953      7.71636     11.84963         0.033814     -0.007309      0.092185
      2.33910      9.64731     12.71216        -0.096564     -0.001525     -0.112555
      0.86051      9.64953     15.46228         0.041662      0.010567      0.141179
      9.00067      7.71536     16.23498        -0.190606     -0.009878     -0.245957
      6.05364      7.71641     15.44109         0.000407     -0.001626      0.093177
      3.78024      9.64727     16.26921        -0.206937      0.006107     -0.231424
      2.35678      9.64081     19.14599         0.133369     -0.003533      0.435705
     10.39317      7.70476     19.77109        -0.890808     -0.004995     -0.634445
      7.54525      7.70996     19.05713         0.062774     -0.037222      0.303674
      5.21260      9.65633     19.77172        -0.897209      0.015927     -0.604969
      8.37521      1.92949      8.24527         3.673141      0.002210      2.027822
      6.12834      0.00000      9.14138        -1.475214      0.000015     -1.684881
      3.16670      0.00000      8.24527         3.662929      0.000012      2.022487
      0.91983      1.92949      9.14138        -1.487714      0.006634     -1.680587
      9.81418      1.92888     11.85255         0.051262     -0.002394      0.106121
      7.54920     11.57696     12.70469        -0.070008      0.000011     -0.112996
      4.60179     11.57696     11.85159         0.045110      0.000026      0.108108
      2.33909      1.92966     12.71216        -0.096559      0.001537     -0.112588
      0.86051      1.92743     15.46228         0.041647     -0.010566      0.141181
      8.98858     11.57696     16.25044        -0.222800     -0.000007     -0.233859
      6.05744      0.00000     15.45169         0.035395      0.000012      0.129937
      3.78024      1.92970     16.26921        -0.206908     -0.006115     -0.231456
      2.35678      1.93615     19.14599         0.133403      0.003527      0.435745
     10.41301     11.57696     19.77002        -0.908739     -0.000004     -0.620473
      7.57437     11.57696     19.11726         0.139888     -0.000019      0.435016
      5.21260      1.92063     19.77172        -0.897197     -0.015943     -0.604881
      8.37521      5.78848      8.24527         3.691288      0.000003      2.034631
      6.12834      3.85899      9.14138        -1.461972      0.001753     -1.687853
      3.16670      3.85899      8.24527         3.646885      0.004565      2.015590
      0.91983      5.78848      9.14138        -1.481416      0.000013     -1.618032
      9.82492      5.78848     11.85204         0.098900     -0.000019      0.079573
      7.55357      3.86228     12.70010        -0.051332      0.005270     -0.119391
      4.59953      3.86060     11.84963         0.033805      0.007286      0.092170
      2.34323      5.78848     12.73593        -0.105955     -0.000022     -0.025750
      0.88647      5.78848     15.47433         0.129900     -0.000003      0.101263
      9.00067      3.86160     16.23498        -0.190580      0.009886     -0.246019
      6.05364      3.86055     15.44109         0.000368      0.001613      0.093136
      3.80106      5.78848     16.34665        -0.182640     -0.000001     -0.040544
      2.39753      5.78848     19.16866         0.208216      0.000004      0.360585
     10.39317      3.87220     19.77109        -0.890829      0.004990     -0.634517
      7.54525      3.86700     19.05713         0.062730      0.037248      0.303691
      5.25210      5.78848     19.94300        -0.767917      0.000032     -0.275939
      5.03536      7.71797      7.50000        -1.779064      0.000457      1.551140
     10.24388      9.64747      7.50000        -1.777684      0.000759      1.546429
      9.46820      9.64747      9.88665        -0.800627     -0.000480     -0.262322
      6.50655      9.64747      8.99054         0.449434     -0.000292     -0.136739
      7.99701      7.71797      8.39611         0.135003      0.005436     -0.938642
      6.46492      7.71797     11.08443        -0.176868      0.001897      0.422203
      4.25968      7.71797      9.88665        -0.804921     -0.002105     -0.253443
      1.29803      7.71797      8.99054         0.460913      0.012272     -0.145395
      2.78849      9.64747      8.39611         0.145988     -0.000588     -0.940753
[...]
      2.72222      5.78848     14.69022        -0.137069     -0.000002      0.079450
      1.98015      5.78848     17.11827         0.149462      0.000000     -0.311336
      9.39750      5.78848     16.15124         0.092134      0.000010     -0.057507
      0.48690      3.85988     15.57314        -0.107631     -0.000622      0.062025
      9.44142      3.84672     18.19238         0.271191      0.011028      0.493682
      7.18962      3.82762     17.05539         0.157204      0.012231     -0.191097
      4.18841      3.85912     16.17838         0.134679      0.011089     -0.063615
      5.68881      5.78848     15.59452        -0.080147     -0.000023      0.032244
      4.24416      5.78848     18.28831         0.038373      0.000007      0.176574
      3.54860      5.78848     20.68343         0.306507      0.000001     -0.779991
      0.49539      5.78848     19.97921         0.061788     -0.000028     -0.190962
      1.94541      3.86315     19.20495         0.029080      0.007563      0.031115
      8.71057      3.93495     20.60199         0.278501     -0.015672     -0.704839
      5.72991      3.83636     19.96145         0.115890      0.039100     -0.158185
      7.12729      5.78848     19.03287         0.070929     -0.000014      0.077428
    total drift:                               -0.005168     -0.000001      0.036872

  FREE ENERGIE OF THE ION-ELECTRON SYSTEM (eV)
  free  energy   TOTEN  =     -1054.74582284 eV

  energy  without entropy=    -1054.74582284  energy(sigma->0) =    -1054.74582284