 vasp.6.3.0 20Jan22 (build Apr  1 2022 16:44:48) complex
 executed on        HPECrayEX_GCC date 2023.02.23  07:17:24

 INCAR:
   SYSTEM = MgO-rocksalt
   ISMEAR = 0
   SIGMA = 0.05
   EDIFF = 1E-6
   ALGO = ALL
   ISTART = 0
   IBRION = -1
   NSW = 0
   ISYM = 0
   DIPOL = 0.5 0.5 0.5
   IDIPOL = 3
   LDIPOL = .TRUE.
   LHFCALC = .TRUE.
   GGA = B5
   AEXX = 0.2
   AGGAX = 0.72
   AGGAC = 0.81
   ALDAC = 0.19
   IVDW = 1
   VDW_S6 = 1.05
   VDW_C6 = 1.23 0.14 0.63 0.70
   VDW_R0 = 1.397 1.001 1.243 1.342
   ENCUT = 600
   PREC = Accurate
   LASPH = .TRUE.
   LREAL = .FALSE.
   ISPIN = 1
   NELM = 200
   NELMIN = 8
   NCORE = 8
   KPAR = 1
   LWAVE = .FALSE.
   LCHARG = .FALSE.

 POTCAR:    PAW_PBE N 08Apr2002
 POTCAR:    PAW_PBE H 15Jun2001
 POTCAR:    PAW_PBE Mg_pv 13Apr2007
 POTCAR:    PAW_PBE O 08Apr2002
 POTCAR:    PAW_PBE N 08Apr2002
   VRHFIN =N: s2p3

   TITEL  = PAW_PBE N 08Apr2002
   POMASS =   14.001; ZVAL   =    5.000    mass and valenz
   ENMAX  =  400.000; ENMIN  =  300.000 eV

   TITEL  = PAW_PBE H 15Jun2001
   POMASS =    1.000; ZVAL   =    1.000    mass and valenz
   ENMAX  =  250.000; ENMIN  =  200.000 eV

   TITEL  = PAW_PBE Mg_pv 13Apr2007
   POMASS =   24.305; ZVAL   =    8.000    mass and valenz
   ENMAX  =  403.929; ENMIN  =  302.947 eV

   TITEL  = PAW_PBE O 08Apr2002
   POMASS =   16.000; ZVAL   =    6.000    mass and valenz
   ENMAX  =  400.000; ENMIN  =  300.000 eV

  PAW_PBE N 08Apr2002                   :
  PAW_PBE H 15Jun2001                   :
  PAW_PBE Mg_pv 13Apr2007               :
  PAW_PBE O 08Apr2002                   :

 POSCAR:  N  H Mg  O
  positions in direct lattice
 exchange correlation table for  LEXCH =       12
   RHO(1)=    0.500       N(1)  =     2000
   RHO(2)=  100.500       N(2)  =     4000

 ion  position               nearest neighbor table
   1  0.500  0.522  0.760-   3 1.02   4 1.02   2 1.02
   2  0.500  0.643  0.762-   1 1.02
   3  0.402  0.481  0.782-   1 1.02
   4  0.598  0.481  0.782-   1 1.02
   5  0.250  0.000  0.351-  37 2.12  39 2.12  40 2.12  47 2.12  56 2.12
   6  0.500  0.250  0.351-  38 2.12  39 2.12  40 2.12  48 2.12  55 2.12
   7  0.250  0.250  0.450-  39 2.12  38 2.12  37 2.12  45 2.12  54 2.12  43 2.12
   8  0.500  0.000  0.450-  40 2.12  38 2.12  37 2.12  46 2.12  53 2.12  44 2.12
   9  0.250  0.000  0.550-  44 2.11  43 2.12  51 2.12  60 2.12  37 2.12  41 2.16
  10  0.500  0.251  0.551-  52 2.11  59 2.12  43 2.12  44 2.13  38 2.14  42 2.14
  11  0.250  0.250  0.648-  43 2.09  41 2.12  58 2.12  42 2.12  49 2.12
  12  0.500  0.000  0.648-  42 2.09  50 2.09  44 2.10  57 2.12  41 2.12
  13  0.250  0.500  0.351-  45 2.12  39 2.12  47 2.12  48 2.12  64 2.12
  14  0.500  0.750  0.351-  46 2.12  40 2.12  47 2.12  48 2.12  63 2.12
  15  0.250  0.750  0.450-  47 2.12  45 2.12  46 2.12  37 2.12  62 2.12  51 2.12
  16  0.500  0.500  0.450-  48 2.12  45 2.12  46 2.12  38 2.12  61 2.12  52 2.14
  17  0.251  0.500  0.551-  52 2.11  43 2.12  51 2.12  68 2.13  45 2.14  49 2.14
  18  0.500  0.749  0.551-  52 2.10  67 2.12  51 2.12  44 2.13  46 2.14  50 2.15
  19  0.249  0.750  0.648-  51 2.09  66 2.11  41 2.12  49 2.12  50 2.12
  20  0.500  0.498  0.655-  42 2.13  49 2.14  65 2.14  50 2.17  52 2.23
  21  0.750  0.000  0.351-  53 2.12  40 2.12  55 2.12  56 2.12  63 2.12
  22  0.000  0.250  0.351-  54 2.12  39 2.12  55 2.12  56 2.12  64 2.12
  23  0.750  0.250  0.450-  55 2.12  53 2.12  54 2.12  38 2.12  61 2.12  59 2.12
  24  0.000  0.000  0.450-  56 2.12  53 2.12  54 2.12  37 2.12  62 2.12  60 2.12
  25  0.750  0.000  0.550-  44 2.11  59 2.12  67 2.12  60 2.12  53 2.12  57 2.16
  26  0.000  0.250  0.550-  68 2.11  59 2.12  43 2.12  60 2.12  54 2.12  58 2.16
  27  0.750  0.250  0.648-  59 2.09  57 2.12  58 2.12  42 2.12  65 2.12
  28  0.000  0.000  0.648-  60 2.10  41 2.11  57 2.11  58 2.11  66 2.11
  29  0.750  0.500  0.351-  61 2.12  55 2.12  48 2.12  63 2.12  64 2.12
  30  0.000  0.750  0.351-  62 2.12  56 2.12  47 2.12  63 2.12  64 2.12
  31  0.750  0.750  0.450-  63 2.12  53 2.12  61 2.12  62 2.12  46 2.12  67 2.12
  32  0.000  0.500  0.450-  64 2.12  54 2.12  61 2.12  62 2.12  45 2.12  68 2.12
  33  0.749  0.500  0.551-  52 2.11  59 2.12  67 2.12  68 2.13  61 2.14  65 2.14
  34  0.000  0.750  0.550-  68 2.11  67 2.12  51 2.12  60 2.12  62 2.12  66 2.16
  35  0.751  0.750  0.648-  67 2.09  66 2.11  57 2.12  65 2.12  50 2.12
  36  0.000  0.500  0.648-  49 2.09  65 2.09  68 2.10  58 2.12  66 2.12
  37  0.250  0.000  0.450-   5 2.12   7 2.12   8 2.12  15 2.12  24 2.12   9 2.12
  38  0.500  0.250  0.450-   6 2.12   7 2.12   8 2.12  16 2.12  23 2.12  10 2.14
  39  0.250  0.250  0.351-   7 2.12   6 2.12   5 2.12  13 2.12  22 2.12
  40  0.500  0.000  0.351-   8 2.12   6 2.12   5 2.12  14 2.12  21 2.12
  41  0.249  1.000  0.651-  28 2.11  11 2.12  19 2.12  12 2.12   9 2.16
  42  0.500  0.247  0.651-  12 2.09  11 2.12  27 2.12  20 2.13  10 2.14
  43  0.250  0.250  0.550-  11 2.09   9 2.12  26 2.12  17 2.12  10 2.12   7 2.12
  44  0.500  1.000  0.550-  12 2.10  25 2.11   9 2.11   8 2.12  18 2.13  10 2.13
  45  0.250  0.500  0.450-  13 2.12   7 2.12  15 2.12  16 2.12  32 2.12  17 2.14
  46  0.500  0.750  0.450-  14 2.12   8 2.12  15 2.12  16 2.12  31 2.12  18 2.14
  47  0.250  0.750  0.351-  15 2.12  13 2.12  14 2.12   5 2.12  30 2.12
  48  0.500  0.500  0.351-  16 2.12  13 2.12  14 2.12   6 2.12  29 2.12
  49  0.247  0.500  0.651-  36 2.09  19 2.12  11 2.12  17 2.14  20 2.14
  50  0.500  0.753  0.652-  12 2.09  35 2.12  19 2.12  18 2.15  20 2.17
  51  0.250  0.750  0.550-  19 2.09   9 2.12  18 2.12  34 2.12  17 2.12  15 2.12
  52  0.500  0.500  0.551-  18 2.10  17 2.11  33 2.11  10 2.11  16 2.14  20 2.23
  53  0.750  0.000  0.450-  21 2.12   8 2.12  23 2.12  24 2.12  31 2.12  25 2.12
  54  0.000  0.250  0.450-  22 2.12   7 2.12  23 2.12  24 2.12  32 2.12  26 2.12
  55  0.750  0.250  0.351-  23 2.12  21 2.12  22 2.12   6 2.12  29 2.12
  56  0.000  0.000  0.351-  24 2.12  21 2.12  22 2.12   5 2.12  30 2.12
  57  0.751  1.000  0.651-  28 2.11  27 2.12  35 2.12  12 2.12  25 2.16
  58  0.000  0.249  0.651-  28 2.11  27 2.12  11 2.12  36 2.12  26 2.16
  59  0.750  0.250  0.550-  27 2.09  25 2.12  26 2.12  33 2.12  10 2.12  23 2.12
  60  0.000  1.000  0.550-  28 2.10  34 2.12  24 2.12  25 2.12   9 2.12  26 2.12
  61  0.750  0.500  0.450-  29 2.12  23 2.12  16 2.12  31 2.12  32 2.12  33 2.14
  62  0.000  0.750  0.450-  30 2.12  24 2.12  15 2.12  31 2.12  32 2.12  34 2.12
  63  0.750  0.750  0.351-  31 2.12  21 2.12  29 2.12  30 2.12  14 2.12
  64  0.000  0.500  0.351-  32 2.12  22 2.12  29 2.12  30 2.12  13 2.12
  65  0.753  0.500  0.651-  36 2.09  35 2.12  27 2.12  33 2.14  20 2.14
  66  0.000  0.751  0.651-  28 2.11  19 2.11  35 2.11  36 2.12  34 2.16
  67  0.750  0.750  0.550-  35 2.09  25 2.12  18 2.12  34 2.12  33 2.12  31 2.12
  68  0.000  0.500  0.550-  36 2.10  34 2.11  26 2.11  32 2.12  17 2.13  33 2.13

IMPORTANT INFORMATION: All symmetrisations will be switched off!
NOSYMM: (Re-)initialisation of all symmetry stuff for point group C_1.

                                     Primitive cell

  volume of cell :    1530.6606

  direct lattice vectors                    reciprocal lattice vectors
     8.467142631  0.000000000  0.000000000     0.118103597  0.000000000  0.000000000
     0.000000000  8.467142631  0.000000000     0.000000000  0.118103597  0.000000000
     0.000000000  0.000000000 21.350356973     0.000000000  0.000000000  0.046837624

  length of vectors
     8.467142631  8.467142631 21.350356973     0.118103597  0.118103597  0.046837624

  position of ions in fractional coordinates (direct lattice)
     0.499996541  0.522076480  0.759506803
     0.500003240  0.642756386  0.761736241
     0.401916515  0.480993867  0.781943253
     0.598091686  0.480988909  0.781942810
     0.250000000  0.000000000  0.351282183
     0.500000000  0.250000000  0.351282183
     0.250000000  0.250000000  0.450427394
     0.500000000  0.000000000  0.450427394
     0.250268217  0.000041151  0.549894757
     0.500000260  0.251202403  0.550507467
     0.249728290  0.249620539  0.647823269
     0.500000335  0.000423602  0.647863994
     0.250000000  0.500000000  0.351282183
     0.500000000  0.750000000  0.351282183
     0.250000000  0.750000000  0.450427394
     0.500000000  0.500000000  0.450427394
     0.251309792  0.499895591  0.550580922
     0.500000253  0.748649587  0.550631205
     0.249426297  0.750199092  0.647640585
     0.500000093  0.497808846  0.654967657
     0.750000000  0.000000000  0.351282183
     0.000000000  0.250000000  0.351282183
     0.750000000  0.250000000  0.450427394
     0.000000000  0.000000000  0.450427394
     0.749732268  0.000041185  0.549894780
     0.000000154  0.250245864  0.549893189
     0.750272478  0.249620509  0.647823235
     0.000000368  0.000020197  0.648085502
     0.750000000  0.500000000  0.351282183
     0.000000000  0.750000000  0.351282183
     0.750000000  0.750000000  0.450427394
     0.000000000  0.500000000  0.450427394
     0.748690697  0.499895573  0.550580955
     0.000000189  0.749678922  0.549868733
     0.750574450  0.750199078  0.647640546
     0.000000440  0.499867018  0.647860306
     0.250000000  0.000000000  0.450427394
     0.500000000  0.250000000  0.450427394
     0.250000000  0.250000000  0.351282183
     0.500000000  0.000000000  0.351282183
     0.249275292  0.999941342  0.650861636
     0.500000367  0.247056483  0.650592119
     0.249822450  0.249838212  0.549751138
     0.500000279  0.999791552  0.549624400
     0.250000000  0.500000000  0.450427394
     0.500000000  0.750000000  0.450427394
     0.250000000  0.750000000  0.351282183
     0.500000000  0.500000000  0.351282183
     0.247155942  0.499955757  0.650910805
     0.500000388  0.753373945  0.651544723
     0.250008885  0.750103074  0.549805649
     0.500000145  0.500092976  0.550664529
     0.750000000  0.000000000  0.450427394
     0.000000000  0.250000000  0.450427394
     0.750000000  0.250000000  0.351282183
     0.000000000  0.000000000  0.351282183
     0.750725349  0.999941393  0.650861754
     0.000000382  0.249320848  0.650888441
     0.750177990  0.249838083  0.549751195
     0.000000149  0.999914128  0.549669166
     0.750000000  0.500000000  0.450427394
     0.000000000  0.750000000  0.450427394
     0.750000000  0.750000000  0.351282183
     0.000000000  0.500000000  0.351282183
     0.752844602  0.499955710  0.650911020
     0.000000437  0.750604221  0.650833045
     0.749991545  0.750103197  0.549805674
     0.000000289  0.500019120  0.549609315

  ion indices of the primitive-cell ions
   primitive index   ion index
                 1           1
                 2           2
                 3           3
                 4           4
                 5           5
                 6           6
                 7           7
                 8           8
                 9           9
                10          10
                11          11
                12          12
                13          13
                14          14
                15          15
                16          16
                17          17
                18          18
                19          19
[...]
   4.23354203  4.42049602 16.21574136
   4.23359875  5.44231000 16.26334066
   3.40308446  4.07264367 16.69476759
   5.06412761  4.07260169 16.69475813
   2.11678566  0.00000000  7.50000000
   4.23357132  2.11678566  7.50000000
   2.11678566  2.11678566  9.61678566
   4.23357132  0.00000000  9.61678566
   2.11905669  0.00034843 11.74044935
   4.23357352  2.12696657 11.75353093
   2.11448505  2.11357271 13.83125804
   4.23357416  0.00358670 13.83212753
   2.11678566  4.23357132  7.50000000
   4.23357132  6.35035697  7.50000000
   2.11678566  6.35035697  9.61678566
   4.23357132  4.23357132  9.61678566
   2.12787586  4.23268727 11.75509924
   4.23357345  6.33892283 11.75617278
   2.11192803  6.35204271 13.82735769
   4.23357210  4.21501850 13.98379328
   6.35035697  0.00000000  7.50000000
   0.00000000  2.11678566  7.50000000
   6.35035697  2.11678566  9.61678566
   0.00000000  0.00000000  9.61678566
   6.34809005  0.00034872 11.74044985
   0.00000130  2.11886743 11.74041589
   6.35266408  2.11357245 13.83125732
   0.00000311  0.00017101 13.83685681
   6.35035697  4.23357132  7.50000000
   0.00000000  6.35035697  7.50000000
   6.35035697  6.35035697  9.61678566
   0.00000000  4.23357132  9.61678566
   6.33927092  4.23268712 11.75509994
   0.00000160  6.34763836 11.73989373
   6.35522092  6.35204260 13.82735685
   0.00000372  4.23244534 13.83204879
   2.11678566  0.00000000  9.61678566
   4.23357132  2.11678566  9.61678566
   2.11678566  2.11678566  7.50000000
   4.23357132  0.00000000  7.50000000
   2.11064945  8.46664597 13.89612827
   4.23357442  2.09186248 13.89037399
   2.11528232  2.11541578 11.73738305
   4.23357368  8.46537767 11.73467715
   2.11678566  4.23357132  9.61678566
   4.23357132  6.35035697  9.61678566
   2.11678566  6.35035697  7.50000000
   4.23357132  4.23357132  7.50000000
   2.09270461  4.23319670 13.89717804
   4.23357460  6.37892464 13.91071242
   2.11686089  6.35122972 11.73854687
   4.23357254  4.23435855 11.75688426
   6.35035697  0.00000000  9.61678566
   0.00000000  2.11678566  9.61678566
   6.35035697  2.11678566  7.50000000
   0.00000000  0.00000000  7.50000000
   6.35649860  8.46664639 13.89613078
   0.00000324  2.11103518 13.89670056
   6.35186404  2.11541468 11.73738425
   0.00000126  8.46641554 11.73563290
   6.35035697  4.23357132  9.61678566
   0.00000000  6.35035697  9.61678566
   6.35035697  6.35035697  7.50000000
   0.00000000  4.23357132  7.50000000
   6.37444262  4.23319630 13.89718265
   0.00000370  6.35547300 13.89551784
   6.35028538  6.35123076 11.73854741
   0.00000245  4.23373320 11.73435508

--------------------------------------- Iteration      FINAL  ---------------------------------------

--------------------OUTCAR has been truncated-------------------------

[...]

--------------------OUTCAR has been truncated-------------------------

  DFT-D2 method for vdW energy calculation

  Parameters of vdW forcefield:
         C6(Jnm^6/mol)     R0(A)
   N        1.230          1.397
   H        0.140          1.001
   Mg       0.630          1.243
   O        0.700          1.342

  vdW correction parametrized for the method )Ïý      

  IVDW =   1
  VDW_RADIUS =    50.000 A
  VDW_S6 =     1.050
  VDW_SR =     1.000
  VDW_D =    20.000
  LVDW_EWALD = F

  Number of pair interactions contributing to vdW energy:  809967
  Edisp (eV):   -5.17899

 VOLUME and BASIS-vectors are now :
  energy-cutoff  :      600.00
  volume of cell :     1530.66
      direct lattice vectors                 reciprocal lattice vectors
     8.467142631  0.000000000  0.000000000     0.118103597  0.000000000  0.000000000
     0.000000000  8.467142631  0.000000000     0.000000000  0.118103597  0.000000000
     0.000000000  0.000000000 21.350356973     0.000000000  0.000000000  0.046837624

  length of vectors
     8.467142631  8.467142631 21.350356973     0.118103597  0.118103597  0.046837624

 FORCES acting on ions:
    Electron-Ion                     Ewald-Force                    Non-Local-Force
   -.343E-02 0.111E+02 -.133E+04   0.609E-02 -.181E+02 0.131E+04   0.131E-02 0.658E+01 0.221E+02
   -.373E-02 -.705E+02 -.271E+03   0.397E-02 0.775E+02 0.271E+03   -.447E-03 -.715E+01 -.571E-01
   0.582E+02 0.252E+02 -.279E+03   -.641E+02 -.277E+02 0.282E+03   0.590E+01 0.251E+01 -.317E+01
   -.582E+02 0.252E+02 -.279E+03   0.641E+02 -.277E+02 0.282E+03   -.590E+01 0.251E+01 -.317E+01
   -.587E-01 0.671E-02 0.207E+04   0.670E-01 -.688E-02 -.206E+04   -.534E-02 0.115E-03 -.636E+01
   -.259E-04 -.944E-01 0.207E+04   0.156E-04 0.106E+00 -.206E+04   -.256E-05 -.805E-02 -.639E+01
   -.391E+00 -.448E+00 0.709E+03   0.439E+00 0.510E+00 -.710E+03   -.295E-01 -.391E-01 0.443E+00
   0.157E-04 0.359E-01 0.709E+03   -.896E-05 -.613E-01 -.710E+03   -.104E-04 0.164E-01 0.328E+00
   0.264E+01 -.278E+00 -.640E+03   -.256E+01 0.299E+00 0.640E+03   -.734E-01 -.202E-01 0.232E-01
   -.565E-04 0.227E+01 -.638E+03   0.364E-04 -.190E+01 0.638E+03   0.968E-05 -.329E+00 -.484E+00
   0.178E+02 0.184E+02 -.198E+04   -.179E+02 -.186E+02 0.197E+04   0.104E+00 0.113E+00 0.551E+01
   -.195E-04 -.348E+01 -.198E+04   0.381E-07 0.352E+01 0.198E+04   0.123E-04 -.443E-01 0.534E+01
   -.916E-01 -.687E-02 0.207E+04   0.104E+00 0.692E-02 -.206E+04   -.824E-02 -.308E-04 -.640E+01
   -.196E-04 0.940E-01 0.207E+04   0.162E-04 -.106E+00 -.206E+04   -.924E-05 0.828E-02 -.640E+01
   -.445E+00 0.442E+00 0.709E+03   0.528E+00 -.507E+00 -.710E+03   -.528E-01 0.405E-01 0.474E+00
   -.166E-03 -.511E-01 0.707E+03   0.161E-03 0.703E-01 -.708E+03   -.705E-05 -.129E-01 0.542E+00
   0.227E+01 0.233E+00 -.639E+03   -.189E+01 -.255E+00 0.639E+03   -.345E+00 0.210E-01 -.405E+00
   -.130E-03 -.188E+01 -.641E+03   0.116E-03 0.151E+01 0.641E+03   0.497E-05 0.335E+00 -.166E+00
   0.205E+02 -.192E+02 -.197E+04   -.207E+02 0.193E+02 0.196E+04   0.199E+00 -.103E+00 0.554E+01
   -.183E-02 0.821E+01 -.191E+04   0.162E-02 -.874E+01 0.191E+04   0.154E-03 0.476E+00 0.617E+00
   0.588E-01 0.673E-02 0.207E+04   -.670E-01 -.688E-02 -.206E+04   0.535E-02 0.817E-04 -.636E+01
   0.112E-04 -.613E-01 0.207E+04   -.149E-04 0.694E-01 -.206E+04   0.370E-05 -.526E-02 -.637E+01
   0.391E+00 -.448E+00 0.709E+03   -.439E+00 0.510E+00 -.710E+03   0.295E-01 -.391E-01 0.443E+00
   -.193E-05 -.364E-01 0.709E+03   0.133E-04 0.445E-01 -.710E+03   -.903E-05 -.529E-02 0.411E+00
   -.264E+01 -.277E+00 -.640E+03   0.256E+01 0.299E+00 0.640E+03   0.734E-01 -.202E-01 0.233E-01
   -.101E-03 0.259E+01 -.641E+03   0.115E-03 -.251E+01 0.641E+03   0.233E-05 -.775E-01 0.384E-01
   -.178E+02 0.184E+02 -.198E+04   0.179E+02 -.186E+02 0.197E+04   -.104E+00 0.113E+00 0.551E+01
   0.158E-03 -.132E+01 -.200E+04   -.133E-03 0.134E+01 0.199E+04   -.133E-04 -.224E-01 0.537E+01
   0.916E-01 -.686E-02 0.207E+04   -.104E+00 0.692E-02 -.206E+04   0.823E-02 -.336E-04 -.640E+01
   0.195E-04 0.610E-01 0.207E+04   -.159E-04 -.693E-01 -.206E+04   -.465E-05 0.539E-02 -.636E+01
   0.445E+00 0.443E+00 0.709E+03   -.528E+00 -.507E+00 -.710E+03   0.528E-01 0.405E-01 0.474E+00
   0.170E-03 0.339E-01 0.709E+03   -.158E-03 -.450E-01 -.710E+03   -.276E-05 0.708E-02 0.321E+00
   -.227E+01 0.232E+00 -.639E+03   0.189E+01 -.255E+00 0.639E+03   0.345E+00 0.210E-01 -.405E+00
   0.115E-03 -.261E+01 -.640E+03   -.947E-04 0.253E+01 0.640E+03   -.181E-04 0.775E-01 0.290E-01
   -.205E+02 -.192E+02 -.197E+04   0.207E+02 0.193E+02 0.196E+04   -.199E+00 -.103E+00 0.554E+01
   0.101E-02 0.143E+01 -.198E+04   -.924E-03 -.147E+01 0.198E+04   -.701E-04 0.314E-01 0.535E+01
   -.177E-01 0.359E-01 0.532E+03   0.420E-01 -.331E-01 -.532E+03   -.305E-01 -.400E-02 -.233E-01
   -.451E-04 -.175E+00 0.531E+03   0.182E-04 0.133E+00 -.530E+03   0.180E-04 0.486E-01 -.156E+00
   -.570E-01 -.627E-01 0.155E+04   0.657E-01 0.732E-01 -.156E+04   -.108E-01 -.129E-01 0.313E+01
   -.728E-04 0.832E-02 0.155E+04   0.611E-05 -.103E-01 -.156E+04   0.561E-04 0.240E-02 0.313E+01
   0.726E+01 -.181E+01 -.152E+04   -.707E+01 0.179E+01 0.153E+04   -.176E+00 0.235E-01 -.468E+01
   -.314E-03 0.241E+02 -.149E+04   0.315E-03 -.236E+02 0.149E+04   -.155E-04 -.497E+00 -.463E+01
   0.178E+01 0.165E+01 -.471E+03   -.174E+01 -.162E+01 0.470E+03   -.343E-01 -.321E-01 0.555E+00
   0.825E-04 -.779E-01 -.470E+03   -.757E-04 0.827E-01 0.469E+03   -.144E-05 -.203E-02 0.475E+00
   -.157E+00 -.421E-01 0.530E+03   0.110E+00 0.420E-01 -.530E+03   0.546E-01 0.760E-03 -.179E+00
   -.421E-04 0.169E+00 0.530E+03   0.215E-04 -.119E+00 -.530E+03   0.124E-04 -.575E-01 -.194E+00
   -.644E-01 0.628E-01 0.155E+04   0.766E-01 -.732E-01 -.156E+04   -.151E-01 0.128E-01 0.313E+01
   -.115E-04 -.812E-02 0.155E+04   0.188E-04 0.103E-01 -.156E+04   -.461E-05 -.266E-02 0.311E+01
   0.250E+02 0.249E+01 -.149E+04   -.243E+02 -.248E+01 0.149E+04   -.653E+00 -.170E-01 -.457E+01
   -.435E-03 -.254E+02 -.148E+04   0.402E-03 0.245E+02 0.149E+04   0.248E-04 0.853E+00 -.435E+01
   0.161E+01 -.163E+01 -.470E+03   -.160E+01 0.161E+01 0.469E+03   -.123E-01 0.253E-01 0.647E+00
   -.594E-03 -.212E+00 -.485E+03   0.571E-03 0.205E+00 0.486E+03   0.224E-04 0.628E-02 -.101E+01
   0.177E-01 0.359E-01 0.532E+03   -.421E-01 -.331E-01 -.532E+03   0.306E-01 -.400E-02 -.233E-01
   0.554E-04 -.269E-01 0.532E+03   -.559E-04 0.533E-01 -.532E+03   -.124E-05 -.332E-01 -.302E-01
   0.570E-01 -.627E-01 0.155E+04   -.657E-01 0.732E-01 -.156E+04   0.108E-01 -.129E-01 0.313E+01
   0.696E-04 0.781E-03 0.155E+04   -.512E-05 0.652E-03 -.156E+04   -.619E-04 -.178E-02 0.315E+01
   -.726E+01 -.181E+01 -.152E+04   0.707E+01 0.179E+01 0.153E+04   0.176E+00 0.235E-01 -.468E+01
   0.122E-03 0.702E+01 -.152E+04   -.923E-04 -.685E+01 0.153E+04   -.226E-04 -.153E+00 -.467E+01
   -.178E+01 0.165E+01 -.471E+03   0.174E+01 -.162E+01 0.470E+03   0.343E-01 -.321E-01 0.555E+00
   -.217E-03 -.323E+00 -.477E+03   0.230E-03 0.329E+00 0.476E+03   -.212E-04 -.446E-02 0.365E+00
   0.157E+00 -.421E-01 0.530E+03   -.110E+00 0.420E-01 -.530E+03   -.545E-01 0.749E-03 -.179E+00
   0.812E-04 0.180E-01 0.532E+03   -.731E-04 -.407E-01 -.532E+03   0.736E-05 0.288E-01 -.575E-02
   0.644E-01 0.628E-01 0.155E+04   -.766E-01 -.732E-01 -.156E+04   0.152E-01 0.129E-01 0.313E+01
   0.157E-04 -.570E-03 0.155E+04   -.179E-04 -.772E-03 -.156E+04   0.642E-06 0.164E-02 0.313E+01
   -.250E+02 0.249E+01 -.149E+04   0.243E+02 -.248E+01 0.149E+04   0.653E+00 -.170E-01 -.457E+01
   0.407E-03 -.712E+01 -.152E+04   -.381E-03 0.695E+01 0.153E+04   -.341E-04 0.150E+00 -.469E+01
   -.161E+01 -.163E+01 -.470E+03   0.160E+01 0.161E+01 0.469E+03   0.123E-01 0.252E-01 0.647E+00
   0.390E-03 0.348E+00 -.470E+03   -.359E-03 -.359E+00 0.469E+03   -.492E-04 0.966E-02 0.471E+00
   -.300E-02 -.582E+01 0.542E+01   -.711E-13 -.220E-12 0.477E-11   0.272E-02 0.528E+01 -.435E+01

 POSITION                                       TOTAL-FORCE (eV/Angst)
      4.23354      4.42050     16.21574         0.004064      0.128246      0.321855
      4.23360      5.44231     16.26334        -0.000223     -0.330694     -0.030004
      3.40308      4.07264     16.69477         0.255607      0.101815     -0.160060
      5.06413      4.07260     16.69476        -0.259496      0.103222     -0.162252
      2.11679      0.00000      7.50000         0.002258     -0.000019      0.506345
      4.23357      2.11679      7.50000        -0.000015      0.003066      0.513219
      2.11679      2.11679      9.61679         0.014111      0.018056      0.019318
      4.23357      0.00000      9.61679        -0.000005     -0.006911      0.044975
      2.11906      0.00035     11.74045         0.001618     -0.000550     -0.020453
      4.23357      2.12697     11.75353        -0.000007      0.009360     -0.012307
      2.11449      2.11357     13.83126        -0.003463     -0.002227     -0.082673
      4.23357      0.00359     13.83213        -0.000008     -0.002996     -0.078540
      2.11679      4.23357      7.50000         0.003086      0.000045      0.514865
      4.23357      6.35036      7.50000        -0.000014     -0.003066      0.516060
      2.11679      6.35036      9.61679         0.023316     -0.018620      0.019669
      4.23357      4.23357      9.61679        -0.000011      0.004779      0.061605
      2.12788      4.23269     11.75510         0.010065      0.000103     -0.012078
      4.23357      6.33892     11.75617        -0.000009     -0.009185     -0.013092
      2.11193      6.35204     13.82736        -0.001430      0.002889     -0.086423
      4.23357      4.21502     13.98379        -0.000042     -0.004071     -0.005761
      6.35036      0.00000      7.50000        -0.002239     -0.000036      0.506109
      0.00000      2.11679      7.50000         0.000004      0.002242      0.507296
      6.35036      2.11679      9.61679        -0.014085      0.018039      0.019308
      0.00000      0.00000      9.61679         0.000005      0.002139      0.008091
      6.34809      0.00035     11.74045        -0.001614     -0.000561     -0.020441
      0.00000      2.11887     11.74042         0.000016      0.002002     -0.020513
      6.35266      2.11357     13.83126         0.003454     -0.002229     -0.082562
      0.00000      0.00017     13.83686         0.000013      0.001173     -0.075521
      6.35036      4.23357      7.50000        -0.003088      0.000058      0.514861
      0.00000      6.35036      7.50000         0.000004     -0.002180      0.504984
      6.35036      6.35036      9.61679        -0.023306     -0.018616      0.019695
      0.00000      4.23357      9.61679         0.000010     -0.003087      0.045130
      6.33927      4.23269     11.75510        -0.010066      0.000112     -0.012067
      0.00000      6.34764     11.73989         0.000001     -0.000527     -0.021104
      6.35522      6.35204     13.82736         0.001435      0.002906     -0.086433
      0.00000      4.23245     13.83205         0.000019     -0.001180     -0.077961
      2.11679      0.00000      9.61679        -0.010759     -0.001771      0.046972
      4.23357      2.11679      9.61679        -0.000005      0.012998      0.064790
      2.11679      2.11679      7.50000        -0.003578     -0.004230     -0.392736
      4.23357      0.00000      7.50000        -0.000009      0.000798     -0.393414
      2.11065      8.46665     13.89613        -0.004653      0.001829     -0.132426
      4.23357      2.09186     13.89037        -0.000015     -0.004705     -0.127519
      2.11528      2.11542     11.73738        -0.002313     -0.003293      0.027504
      4.23357      8.46538     11.73468         0.000006      0.002647      0.020467
      2.11679      4.23357      9.61679         0.014714      0.000863      0.063617
      4.23357      6.35036      9.61679        -0.000005     -0.015568      0.062832
      2.11679      6.35036      7.50000        -0.005012      0.004274     -0.392635
      4.23357      4.23357      7.50000         0.000004     -0.000861     -0.399863
      2.09270      4.23320     13.89718        -0.008171      0.000620     -0.126107
      4.23357      6.37892     13.91071        -0.000004      0.014772     -0.125938
      2.11686      6.35123     11.73855        -0.003174      0.001444      0.028707
      4.23357      4.23436     11.75688         0.000005     -0.000473     -0.017079
      6.35036      0.00000      9.61679         0.010765     -0.001766      0.046958
      0.00000      2.11679      9.61679        -0.000000     -0.011596      0.044242
      6.35036      2.11679      7.50000         0.003591     -0.004254     -0.392717
      0.00000      0.00000      7.50000         0.000003     -0.000558     -0.388311
      6.35650      8.46665     13.89613         0.004663      0.001816     -0.132458
      0.00000      2.11104     13.89670         0.000004     -0.004524     -0.133066
      6.35186      2.11541     11.73738         0.002328     -0.003296      0.027498
      0.00000      8.46642     11.73563        -0.000011      0.000616      0.018369
      6.35036      4.23357      9.61679        -0.014684      0.000853      0.063629
      0.00000      6.35036      9.61679         0.000018      0.010438      0.050688
      6.35036      6.35036      7.50000         0.005024      0.004273     -0.392662
      0.00000      4.23357      7.50000        -0.000000      0.000551     -0.393490
      6.37444      4.23320     13.89718         0.008170      0.000638     -0.126142
      0.00000      6.35547     13.89552        -0.000012      0.002202     -0.132527
      6.35029      6.35123     11.73855         0.003170      0.001431      0.028714
      0.00000      4.23373     11.73436        -0.000024      0.000336      0.020963
    total drift:                               -0.000093     -0.001943      0.016154

  FREE ENERGIE OF THE ION-ELECTRON SYSTEM (eV)
  free  energy   TOTEN  =      -461.68256849 eV

  energy  without entropy=     -461.68256849  energy(sigma->0) =     -461.68256849