 vasp.6.3.0 20Jan22 (build Mar 11 2022 13:48:16) complex

 executed on             LinuxIFC date 2024.08.21  21:35:48

 INCAR:
   SYSTEM = MgO-rocksalt
   ISMEAR = 0
   SIGMA = 0.05
   EDIFF = 1E-7
   ALGO = Normal
   ISTART = 0
   IBRION = 2
   NSW = 1000
   ISYM = 2
   ISIF = 3
   EDIFFG = -0.005
   METAGGA = R2SCAN
   LUSE_VDW = .TRUE.
   BPARAM = 11.95
   CPARAM = 0.0093
   LASPH = .TRUE.
   ENCUT = 600
   PREC = Accurate
   LASPH = .TRUE.
   LREAL = .FALSE.
   ISPIN = 1
   NELM = 200
   NELMIN = 8
   NCORE = 8
   KPAR = 1
   LWAVE = .FALSE.
   LCHARG = .FALSE.

 POTCAR:    PAW_PBE Ti_pv 07Sep2000
 POTCAR:    PAW_PBE O 08Apr2002
|           W    W    AA    RRRRR   N    N  II  N    N   GGGG   !!!           |
|           W    W   A  A   R    R  NN   N  II  NN   N  G    G  !!!           |
|           W    W  A    A  R    R  N N  N  II  N N  N  G       !!!           |
|           W WW W  AAAAAA  RRRRR   N  N N  II  N  N N  G  GGG   !            |
|           WW  WW  A    A  R   R   N   NN  II  N   NN  G    G                |
|           W    W  A    A  R    R  N    N  II  N    N   GGGG   !!!           |
|     For optimal performance we recommend to set                             |
|       NCORE = 2 up to number-of-cores-per-socket                            |
|     This setting can greatly improve the performance of VASP for DFT.       |
|     The default, NCORE=1 might be grossly inefficient on modern             |
|     multi-core architectures or massively parallel machines. Do your        |
|     Unfortunately you need to use the default for GW and RPA                |
|     calculations (for HF NCORE is supported but not extensively tested      |
|     yet).                                                                   |

   TITEL  = PAW_PBE Ti_pv 07Sep2000
   POMASS =   47.880; ZVAL   =   10.000    mass and valenz
   ENMAX  =  222.335; ENMIN  =  166.751 eV

   TITEL  = PAW_PBE O 08Apr2002
   POMASS =   16.000; ZVAL   =    6.000    mass and valenz
   ENMAX  =  400.000; ENMIN  =  300.000 eV

  PAW_PBE Ti_pv 07Sep2000               :
  PAW_PBE O 08Apr2002                   :

 POSCAR: Ti2 O4
  positions in direct lattice
  velocities in cartesian coordinates

 METAGGA = R2SCA    LMAXTAU =  6    LMIXTAU =  F

 ion  position               nearest neighbor table
   1  0.500  0.500  0.000-   6 1.95   3 1.95   3 1.95   6 1.95   5 1.97   4 1.97
   2  0.000  0.000  0.500-   4 1.95   5 1.95   4 1.95   5 1.95   3 1.97   6 1.97
   3  0.696  0.696  0.500-   1 1.95   1 1.95   2 1.97
   4  0.196  0.804  0.000-   2 1.95   2 1.95   1 1.97
   5  0.804  0.196  0.000-   2 1.95   2 1.95   1 1.97
   6  0.304  0.304  0.500-   1 1.95   1 1.95   2 1.97

  LATTYP: Found a simple tetragonal cell.
 ALAT       =     4.5897471918
 C/A-ratio  =     0.6443665639

  Lattice vectors:

 A1 = (   4.5897471918,   0.0000000000,   0.0000000000)
 A2 = (   0.0000000000,   4.5897471918,   0.0000000000)
 A3 = (   0.0000000000,   0.0000000000,   2.9574796271)

Analysis of symmetry for initial positions (statically):
 Subroutine PRICEL returns:
 Original cell was already a primitive cell.

 Routine SETGRP: Setting up the symmetry group for a
 simple tetragonal supercell.

 Subroutine GETGRP returns: Found 16 space group operations
 (whereof  8 operations were pure point group operations)
 out of a pool of 16 trial point group operations.

The static configuration has the point symmetry D_2h.
 The point group associated with its full space group is D_4h.

Analysis of symmetry for dynamics (positions and initial velocities):
 Subroutine PRICEL returns:
 Original cell was already a primitive cell.

 Routine SETGRP: Setting up the symmetry group for a
 simple tetragonal supercell.

 Subroutine GETGRP returns: Found 16 space group operations
 (whereof  8 operations were pure point group operations)
 out of a pool of 16 trial point group operations.

The dynamic configuration has the point symmetry D_2h.
 The point group associated with its full space group is D_4h.

 Subroutine INISYM returns: Found 16 space group operations
 (whereof  8 operations are pure point group operations),
 and found     1 'primitive' translations

                                     Primitive cell

  volume of cell :      62.3016

  direct lattice vectors                    reciprocal lattice vectors
     4.589747192  0.000000000  0.000000000     0.217876924 -0.000000000  0.000000000
     0.000000000  4.589747192  0.000000000     0.000000000  0.217876924  0.000000000
     0.000000000  0.000000000  2.957479627    -0.000000000 -0.000000000  0.338125744

  length of vectors
     4.589747192  4.589747192  2.957479627     0.217876924  0.217876924  0.338125744

  position of ions in fractional coordinates (direct lattice)
     0.500000000  0.500000000  1.000000000
     0.000000000  0.000000000  0.500000000
     0.695893382  0.695893382  0.500000000
     0.195893382  0.804106618  1.000000000
     0.804106618  0.195893382  1.000000000
     0.304106618  0.304106618  0.500000000

  ion indices of the primitive-cell ions
   primitive index   ion index
                 1           1
                 2           2
                 3           3
                 4           4
                 5           5
                 6           6

 KPOINTS: pymatgen v2020.8.13 with grid density =

Automatic generation of k-mesh.
 Grid dimensions read from file:
 generate k-points for:    5    5    8

 Generating k-lattice:

  Cartesian coordinates                     Fractional coordinates (reciprocal lattice)
     0.043575385 -0.000000000  0.000000000     0.200000000  0.000000000  0.000000000
     0.000000000  0.043575385  0.000000000     0.000000000  0.200000000  0.000000000
    -0.000000000 -0.000000000  0.042265718    -0.000000000 -0.000000000  0.125000000

  Length of vectors
     0.043575385  0.043575385  0.042265718

  Shift w.r.t. Gamma in fractional coordinates (k-lattice)
     0.000000000  0.000000000  0.000000000

 Subroutine IBZKPT returns following result:

 Found     30 irreducible k-points:

 Following reciprocal coordinates:
            Coordinates               Weight
  0.000000  0.000000  0.000000      1.000000
  0.200000  0.000000  0.000000      4.000000
  0.400000  0.000000  0.000000      4.000000
  0.200000  0.200000  0.000000      4.000000
  0.400000  0.200000  0.000000      8.000000
  0.400000  0.400000  0.000000      4.000000
 -0.000000 -0.000000  0.125000      2.000000
  0.200000 -0.000000  0.125000      8.000000
  0.400000  0.000000  0.125000      8.000000
  0.200000  0.200000  0.125000      8.000000
  0.400000  0.200000  0.125000     16.000000
  0.400000  0.400000  0.125000      8.000000
 -0.000000 -0.000000  0.250000      2.000000
  0.200000 -0.000000  0.250000      8.000000
  0.400000  0.000000  0.250000      8.000000
  0.200000  0.200000  0.250000      8.000000
  0.400000  0.200000  0.250000     16.000000
  0.400000  0.400000  0.250000      8.000000
  0.000000 -0.000000  0.375000      2.000000
  0.200000 -0.000000  0.375000      8.000000
  0.400000  0.000000  0.375000      8.000000
  0.200000  0.200000  0.375000      8.000000
  0.400000  0.200000  0.375000     16.000000
  0.400000  0.400000  0.375000      8.000000
 -0.000000 -0.000000  0.500000      1.000000
  0.200000 -0.000000  0.500000      4.000000
  0.400000  0.000000  0.500000      4.000000
  0.200000  0.200000  0.500000      4.000000
  0.400000  0.200000  0.500000      8.000000
  0.400000  0.400000  0.500000      4.000000

 Following cartesian coordinates:
            Coordinates               Weight
  0.000000  0.000000  0.000000      1.000000
  0.043575 -0.000000  0.000000      4.000000
  0.087151 -0.000000  0.000000      4.000000
  0.043575  0.043575  0.000000      4.000000
  0.087151  0.043575  0.000000      8.000000
  0.087151  0.087151  0.000000      4.000000
 -0.000000 -0.000000  0.042266      2.000000
  0.043575 -0.000000  0.042266      8.000000
  0.087151 -0.000000  0.042266      8.000000
  0.043575  0.043575  0.042266      8.000000
  0.087151  0.043575  0.042266     16.000000
  0.087151  0.087151  0.042266      8.000000
 -0.000000 -0.000000  0.084531      2.000000
  0.043575 -0.000000  0.084531      8.000000
  0.087151 -0.000000  0.084531      8.000000
  0.043575  0.043575  0.084531      8.000000
  0.087151  0.043575  0.084531     16.000000
  0.087151  0.087151  0.084531      8.000000
 -0.000000 -0.000000  0.126797      2.000000
  0.043575 -0.000000  0.126797      8.000000
  0.087151 -0.000000  0.126797      8.000000
  0.043575  0.043575  0.126797      8.000000
  0.087151  0.043575  0.126797     16.000000
  0.087151  0.087151  0.126797      8.000000
 -0.000000 -0.000000  0.169063      1.000000
  0.043575 -0.000000  0.169063      4.000000
  0.087151 -0.000000  0.169063      4.000000
  0.043575  0.043575  0.169063      4.000000
  0.087151  0.043575  0.169063      8.000000
  0.087151  0.087151  0.169063      4.000000

 SYSTEM =  MgO-rocksalt
 POSCAR =  Ti2 O4

  energy-cutoff  :      600.00
  volume of cell :       62.30
      direct lattice vectors                 reciprocal lattice vectors
     4.589747192  0.000000000  0.000000000     0.217876924 -0.000000000  0.000000000
     0.000000000  4.589747192  0.000000000     0.000000000  0.217876924  0.000000000
     0.000000000  0.000000000  2.957479627    -0.000000000 -0.000000000  0.338125744

[...]

 k-points in units of 2pi/SCALE and weight: pymatgen v2020.8.13 with grid density =
   0.00000000  0.00000000  0.00000000       0.005
   0.04357538 -0.00000000  0.00000000       0.020
   0.08715077 -0.00000000  0.00000000       0.020
   0.04357538  0.04357538  0.00000000       0.020
   0.08715077  0.04357538  0.00000000       0.040
   0.08715077  0.08715077  0.00000000       0.020
  -0.00000000 -0.00000000  0.04226572       0.010
   0.04357538 -0.00000000  0.04226572       0.040
   0.08715077 -0.00000000  0.04226572       0.040
   0.04357538  0.04357538  0.04226572       0.040
   0.08715077  0.04357538  0.04226572       0.080
   0.08715077  0.08715077  0.04226572       0.040
  -0.00000000 -0.00000000  0.08453144       0.010
   0.04357538 -0.00000000  0.08453144       0.040
   0.08715077 -0.00000000  0.08453144       0.040
   0.04357538  0.04357538  0.08453144       0.040
   0.08715077  0.04357538  0.08453144       0.080
   0.08715077  0.08715077  0.08453144       0.040
  -0.00000000 -0.00000000  0.12679715       0.010
   0.04357538 -0.00000000  0.12679715       0.040
   0.08715077 -0.00000000  0.12679715       0.040
   0.04357538  0.04357538  0.12679715       0.040
   0.08715077  0.04357538  0.12679715       0.080
   0.08715077  0.08715077  0.12679715       0.040
  -0.00000000 -0.00000000  0.16906287       0.005
   0.04357538 -0.00000000  0.16906287       0.020
   0.08715077 -0.00000000  0.16906287       0.020
   0.04357538  0.04357538  0.16906287       0.020
   0.08715077  0.04357538  0.16906287       0.040
   0.08715077  0.08715077  0.16906287       0.020

 k-points in reciprocal lattice and weights: pymatgen v2020.8.13 with grid density =
   0.00000000  0.00000000  0.00000000       0.005
   0.20000000  0.00000000  0.00000000       0.020
   0.40000000  0.00000000  0.00000000       0.020
   0.20000000  0.20000000  0.00000000       0.020
   0.40000000  0.20000000  0.00000000       0.040
   0.40000000  0.40000000  0.00000000       0.020
  -0.00000000 -0.00000000  0.12500000       0.010
   0.20000000 -0.00000000  0.12500000       0.040
   0.40000000  0.00000000  0.12500000       0.040
   0.20000000  0.20000000  0.12500000       0.040
   0.40000000  0.20000000  0.12500000       0.080
   0.40000000  0.40000000  0.12500000       0.040
  -0.00000000 -0.00000000  0.25000000       0.010
   0.20000000 -0.00000000  0.25000000       0.040
   0.40000000  0.00000000  0.25000000       0.040
   0.20000000  0.20000000  0.25000000       0.040
   0.40000000  0.20000000  0.25000000       0.080
   0.40000000  0.40000000  0.25000000       0.040
   0.00000000 -0.00000000  0.37500000       0.010
   0.20000000 -0.00000000  0.37500000       0.040
   0.40000000  0.00000000  0.37500000       0.040
   0.20000000  0.20000000  0.37500000       0.040
   0.40000000  0.20000000  0.37500000       0.080
   0.40000000  0.40000000  0.37500000       0.040
  -0.00000000 -0.00000000  0.50000000       0.005
   0.20000000 -0.00000000  0.50000000       0.020
   0.40000000  0.00000000  0.50000000       0.020
   0.20000000  0.20000000  0.50000000       0.020
   0.40000000  0.20000000  0.50000000       0.040
   0.40000000  0.40000000  0.50000000       0.020

 position of ions in fractional coordinates (direct lattice)
   0.50000000  0.50000000  0.00000000
   0.00000000  0.00000000  0.50000000
   0.69589338  0.69589338  0.50000000
   0.19589338  0.80410662  0.00000000
   0.80410662  0.19589338  0.00000000
   0.30410662  0.30410662  0.50000000

 position of ions in cartesian coordinates  (Angst):
   2.29487360  2.29487360  0.00000000
   0.00000000  0.00000000  1.47873981
   3.19397470  3.19397470  1.47873981
   0.89910110  3.69064609  0.00000000
   3.69064609  0.89910110  0.00000000
   1.39577250  1.39577250  1.47873981

--------------------------------------- Iteration      FINAL  ---------------------------------------

--------------------OUTCAR has been truncated-------------------------

[...]

--------------------OUTCAR has been truncated-------------------------

  FORCE on cell =-STRESS in cart. coord.  units (eV):
  Direction    XX          YY          ZZ          XY          YZ          ZX
  Alpha Z   219.45793   219.45793   219.45793
  Ewald   -1120.58893 -1120.58893  -697.80840    -0.00000    -0.00000    -0.00000
  Hartree   215.15177   215.15177   432.99641    -0.00000    -0.00000    -0.00000
  E(xc)    -228.43291  -228.46747  -228.71615    -0.03611    -0.02085    -0.04628
  Local     186.85934   186.85934  -441.88204     0.00000    -0.00000     0.00000
  n-local  -128.53889  -129.54493  -126.63230     0.02307     0.11790    -0.00033
  augment   138.42748   138.42748   137.04650     0.00000     0.00000     0.00000
  Kinetic   718.64206   717.72408   705.56369    -1.10738    -0.70732    -1.46262
  Fock        0.00000     0.00000     0.00000     0.00000     0.00000     0.00000
  Total      -0.00144    -0.00144     0.02563    -0.00000     0.00000     0.00000
  in kB      -0.03691    -0.03691     0.65910    -0.00000     0.00000     0.00000

 VOLUME and BASIS-vectors are now :
  energy-cutoff  :      600.00
  volume of cell :       62.30
      direct lattice vectors                 reciprocal lattice vectors
     4.589747192  0.000000000  0.000000000     0.217876924 -0.000000000  0.000000000
     0.000000000  4.589747192  0.000000000     0.000000000  0.217876924  0.000000000
     0.000000000  0.000000000  2.957479627    -0.000000000 -0.000000000  0.338125744

  length of vectors
     4.589747192  4.589747192  2.957479627     0.217876924  0.217876924  0.338125744

 FORCES acting on ions
    electron-ion (+dipol)            ewald-force                    non-local-force                 convergence-correction
   -.833E-12 -.109E-11 -.181E-11   -.568E-13 -.284E-13 -.769E-14   0.198E-23 0.231E-22 -.189E-24   -.103E-12 -.103E-12 0.521E-13
   0.121E-13 -.454E-14 0.128E-12   -.142E-13 -.568E-13 0.146E-13   -.342E-22 -.128E-23 -.218E-24   -.179E-12 -.573E-13 0.593E-13
   -.362E+02 -.362E+02 0.330E-06   0.393E+02 0.393E+02 -.502E-13   -.313E+01 -.313E+01 -.416E-15   0.347E-04 0.347E-04 0.673E-13
   -.362E+02 0.362E+02 0.278E-11   0.393E+02 -.393E+02 0.117E-13   -.313E+01 0.313E+01 0.268E-17   0.347E-04 -.347E-04 0.281E-13
   0.362E+02 -.362E+02 0.871E-11   -.393E+02 0.393E+02 -.201E-13   0.313E+01 -.313E+01 -.244E-17   -.347E-04 0.347E-04 0.987E-13
   0.362E+02 0.362E+02 -.330E-06   -.393E+02 -.393E+02 0.628E-13   0.313E+01 0.313E+01 0.416E-15   -.347E-04 -.347E-04 0.548E-13
   -.296E-11 -.414E-12 0.282E-11   0.000E+00 0.711E-14 0.111E-13   -.444E-15 0.444E-15 0.556E-18   -.398E-12 -.305E-12 0.360E-12

 POSITION                                       TOTAL-FORCE (eV/Angst)
      2.29487      2.29487      0.00000        -0.000000      0.000000     -0.000000
      0.00000      0.00000      1.47874        -0.000000      0.000000     -0.000000
      3.19397      3.19397      1.47874         0.000634      0.000634      0.000000
      0.89910      3.69065      0.00000         0.000634     -0.000634      0.000000
      3.69065      0.89910      0.00000        -0.000634      0.000634      0.000000
      1.39577      1.39577      1.47874        -0.000634     -0.000634     -0.000000
    total drift:                               -0.000000     -0.000000      0.000000

  FREE ENERGIE OF THE ION-ELECTRON SYSTEM (eV)
  free  energy   TOTEN  =       -68.46213357 eV

  energy  without entropy=      -68.46213357  energy(sigma->0) =      -68.46213357

 reached required accuracy - stopping structural energy minimisation