 vasp.6.3.0 20Jan22 (build Apr  1 2022 16:44:48) complex
 executed on        HPECrayEX_GCC date 2022.10.08  14:40:12

 INCAR:
   SYSTEM = MgO-rocksalt
   ISMEAR = 0
   SIGMA = 0.05
   EDIFF = 1E-7
   ALGO = ALL
   ISTART = 0
   IBRION = 2
   NSW = 1000
   ISYM = 0
   ISIF = 2
   EDIFFG = -0.01
   DIPOL = 0.5 0.5 0.5
   IDIPOL = 3
   LDIPOL = .TRUE.
   GGA = PE
   IVDW = 1
   VDW_C6 = 0.14 0.70 0.63 0.70
   VDW_R0 = 1.001 1.342 1.243 1.342
   ENCUT = 600
   PREC = Accurate
   LASPH = .TRUE.
   LREAL = .FALSE.
   ISPIN = 1
   NELM = 200
   NELMIN = 8
   NCORE = 8
   KPAR = 1
   LWAVE = .FALSE.
   LCHARG = .FALSE.

 POTCAR:    PAW_PBE H 15Jun2001
 POTCAR:    PAW_PBE O 08Apr2002
 POTCAR:    PAW_PBE Mg_pv 13Apr2007
 POTCAR:    PAW_PBE O 08Apr2002
 POTCAR:    PAW_PBE H 15Jun2001
   VRHFIN =H: ultrasoft test

   TITEL  = PAW_PBE H 15Jun2001
   POMASS =    1.000; ZVAL   =    1.000    mass and valenz
   ENMAX  =  250.000; ENMIN  =  200.000 eV

   TITEL  = PAW_PBE O 08Apr2002
   POMASS =   16.000; ZVAL   =    6.000    mass and valenz
   ENMAX  =  400.000; ENMIN  =  300.000 eV

   TITEL  = PAW_PBE Mg_pv 13Apr2007
   POMASS =   24.305; ZVAL   =    8.000    mass and valenz
   ENMAX  =  403.929; ENMIN  =  302.947 eV

   TITEL  = PAW_PBE O 08Apr2002
   POMASS =   16.000; ZVAL   =    6.000    mass and valenz
   ENMAX  =  400.000; ENMIN  =  300.000 eV

  PAW_PBE H 15Jun2001                   :
  PAW_PBE O 08Apr2002                   :
  PAW_PBE Mg_pv 13Apr2007               :
  PAW_PBE O 08Apr2002                   :

 POSCAR:  H  O Mg  O
  positions in direct lattice
 exchange correlation table for  LEXCH =        8
   RHO(1)=    0.500       N(1)  =     2000
   RHO(2)=  100.500       N(2)  =     4000

 ion  position               nearest neighbor table
   1  0.613  0.553  0.763-   3 0.97
   2  0.510  0.671  0.726-   3 0.97
   3  0.506  0.571  0.748-   1 0.97   2 0.97  19 2.21
   4  0.250  0.000  0.351-  36 2.12  38 2.12  39 2.12  46 2.12  55 2.12
   5  0.500  0.250  0.351-  37 2.12  38 2.12  39 2.12  47 2.12  54 2.12
   6  0.250  0.250  0.450-  38 2.12  37 2.12  36 2.12  44 2.12  53 2.12  42 2.12
   7  0.500  0.000  0.450-  39 2.12  37 2.12  36 2.12  45 2.12  52 2.12  43 2.12
   8  0.250  0.000  0.550-  42 2.12  43 2.12  50 2.12  59 2.12  36 2.13  40 2.15
   9  0.500  0.250  0.550-  42 2.12  43 2.12  51 2.12  58 2.12  37 2.13  41 2.15
  10  0.250  0.250  0.649-  42 2.11  41 2.12  40 2.12  48 2.12  57 2.12
  11  0.500  0.000  0.649-  43 2.11  41 2.12  40 2.12  49 2.12  56 2.12
  12  0.250  0.500  0.351-  44 2.12  38 2.12  46 2.12  47 2.12  63 2.12
  13  0.500  0.750  0.351-  45 2.12  39 2.12  46 2.12  47 2.12  62 2.12
  14  0.250  0.750  0.450-  46 2.12  44 2.12  45 2.12  36 2.12  61 2.12  50 2.12
  15  0.500  0.500  0.450-  47 2.12  44 2.12  45 2.12  37 2.12  60 2.12  51 2.12
  16  0.250  0.500  0.550-  42 2.12  50 2.12  51 2.12  67 2.12  44 2.13  48 2.15
  17  0.500  0.750  0.550-  43 2.12  50 2.12  51 2.12  66 2.12  45 2.13  49 2.15
  18  0.250  0.750  0.649-  50 2.11  48 2.12  49 2.12  40 2.12  65 2.12
  19  0.500  0.500  0.649-  51 2.11  48 2.12  49 2.12  41 2.12  64 2.12   3 2.21
  20  0.750  0.000  0.351-  52 2.12  39 2.12  54 2.12  55 2.12  62 2.12
  21  0.000  0.250  0.351-  53 2.12  38 2.12  54 2.12  55 2.12  63 2.12
  22  0.750  0.250  0.450-  54 2.12  52 2.12  53 2.12  37 2.12  60 2.12  58 2.12
  23  0.000  0.000  0.450-  55 2.12  52 2.12  53 2.12  36 2.12  61 2.12  59 2.12
  24  0.750  0.000  0.550-  43 2.12  58 2.12  59 2.12  66 2.12  52 2.13  56 2.15
  25  0.000  0.250  0.550-  42 2.12  58 2.12  59 2.12  67 2.12  53 2.13  57 2.15
  26  0.750  0.250  0.649-  58 2.11  56 2.12  57 2.12  41 2.12  64 2.12
  27  0.000  0.000  0.649-  59 2.11  56 2.12  57 2.12  40 2.12  65 2.12
  28  0.750  0.500  0.351-  60 2.12  54 2.12  47 2.12  62 2.12  63 2.12
  29  0.000  0.750  0.351-  61 2.12  55 2.12  46 2.12  62 2.12  63 2.12
  30  0.750  0.750  0.450-  62 2.12  52 2.12  60 2.12  61 2.12  45 2.12  66 2.12
  31  0.000  0.500  0.450-  63 2.12  53 2.12  60 2.12  61 2.12  44 2.12  67 2.12
  32  0.750  0.500  0.550-  51 2.12  58 2.12  66 2.12  67 2.12  60 2.13  64 2.15
  33  0.000  0.750  0.550-  50 2.12  59 2.12  66 2.12  67 2.12  61 2.13  65 2.15
  34  0.750  0.750  0.649-  66 2.11  56 2.12  64 2.12  65 2.12  49 2.12
  35  0.000  0.500  0.649-  67 2.11  57 2.12  64 2.12  65 2.12  48 2.12
  36  0.250  0.000  0.450-   4 2.12   6 2.12   7 2.12  14 2.12  23 2.12   8 2.13
  37  0.500  0.250  0.450-   5 2.12   6 2.12   7 2.12  15 2.12  22 2.12   9 2.13
  38  0.250  0.250  0.351-   6 2.12   5 2.12   4 2.12  12 2.12  21 2.12
  39  0.500  0.000  0.351-   7 2.12   5 2.12   4 2.12  13 2.12  20 2.12
  40  0.250  0.000  0.651-  10 2.12  11 2.12  18 2.12  27 2.12   8 2.15
  41  0.500  0.250  0.651-  10 2.12  11 2.12  19 2.12  26 2.12   9 2.15
  42  0.250  0.250  0.550-  10 2.11   9 2.12   8 2.12  16 2.12  25 2.12   6 2.12
  43  0.500  0.000  0.550-  11 2.11   9 2.12   8 2.12  17 2.12  24 2.12   7 2.12
  44  0.250  0.500  0.450-  12 2.12   6 2.12  14 2.12  15 2.12  31 2.12  16 2.13
  45  0.500  0.750  0.450-  13 2.12   7 2.12  14 2.12  15 2.12  30 2.12  17 2.13
  46  0.250  0.750  0.351-  14 2.12  12 2.12  13 2.12   4 2.12  29 2.12
  47  0.500  0.500  0.351-  15 2.12  12 2.12  13 2.12   5 2.12  28 2.12
  48  0.250  0.500  0.651-  10 2.12  18 2.12  19 2.12  35 2.12  16 2.15
  49  0.500  0.750  0.651-  11 2.12  18 2.12  19 2.12  34 2.12  17 2.15
  50  0.250  0.750  0.550-  18 2.11  16 2.12  17 2.12   8 2.12  33 2.12  14 2.12
  51  0.500  0.500  0.550-  19 2.11  16 2.12  17 2.12   9 2.12  32 2.12  15 2.12
  52  0.750  0.000  0.450-  20 2.12   7 2.12  22 2.12  23 2.12  30 2.12  24 2.13
  53  0.000  0.250  0.450-  21 2.12   6 2.12  22 2.12  23 2.12  31 2.12  25 2.13
  54  0.750  0.250  0.351-  22 2.12  20 2.12  21 2.12   5 2.12  28 2.12
  55  0.000  0.000  0.351-  23 2.12  20 2.12  21 2.12   4 2.12  29 2.12
  56  0.750  0.000  0.651-  11 2.12  26 2.12  27 2.12  34 2.12  24 2.15
  57  0.000  0.250  0.651-  10 2.12  26 2.12  27 2.12  35 2.12  25 2.15
  58  0.750  0.250  0.550-  26 2.11  24 2.12  25 2.12   9 2.12  32 2.12  22 2.12
  59  0.000  0.000  0.550-  27 2.11  24 2.12  25 2.12   8 2.12  33 2.12  23 2.12
  60  0.750  0.500  0.450-  28 2.12  22 2.12  15 2.12  30 2.12  31 2.12  32 2.13
  61  0.000  0.750  0.450-  29 2.12  23 2.12  14 2.12  30 2.12  31 2.12  33 2.13
  62  0.750  0.750  0.351-  30 2.12  20 2.12  28 2.12  29 2.12  13 2.12
  63  0.000  0.500  0.351-  31 2.12  21 2.12  28 2.12  29 2.12  12 2.12
  64  0.750  0.500  0.651-  19 2.12  26 2.12  34 2.12  35 2.12  32 2.15
  65  0.000  0.750  0.651-  18 2.12  27 2.12  34 2.12  35 2.12  33 2.15
  66  0.750  0.750  0.550-  34 2.11  24 2.12  32 2.12  33 2.12  17 2.12  30 2.12
  67  0.000  0.500  0.550-  35 2.11  25 2.12  32 2.12  33 2.12  16 2.12  31 2.12

IMPORTANT INFORMATION: All symmetrisations will be switched off!
NOSYMM: (Re-)initialisation of all symmetry stuff for point group C_1.

                                     Primitive cell

  volume of cell :    1530.6606

  direct lattice vectors                    reciprocal lattice vectors
     8.467142631  0.000000000  0.000000000     0.118103597  0.000000000  0.000000000
     0.000000000  8.467142631  0.000000000     0.000000000  0.118103597  0.000000000
     0.000000000  0.000000000 21.350356973     0.000000000  0.000000000  0.046837624

  length of vectors
     8.467142631  8.467142631 21.350356973     0.118103597  0.118103597  0.046837624

  position of ions in fractional coordinates (direct lattice)
     0.612619217  0.552527054  0.762663073
     0.509822954  0.671114771  0.725808306
     0.505582530  0.570944090  0.747956689
     0.250000000  0.000000000  0.351282183
     0.500000000  0.250000000  0.351282183
     0.250000000  0.250000000  0.450427394
     0.500000000  0.000000000  0.450427394
     0.250000000  0.000000000  0.550191116
     0.500000000  0.250000000  0.550191116
     0.250000000  0.250000000  0.648532086
     0.500000000  0.000000000  0.648532086
     0.250000000  0.500000000  0.351282183
     0.500000000  0.750000000  0.351282183
     0.250000000  0.750000000  0.450427394
     0.500000000  0.500000000  0.450427394
     0.250000000  0.500000000  0.550191116
     0.500000000  0.750000000  0.550191116
     0.250000000  0.750000000  0.648532086
     0.500000000  0.500000000  0.648532086
     0.750000000  0.000000000  0.351282183
     0.000000000  0.250000000  0.351282183
     0.750000000  0.250000000  0.450427394
     0.000000000  0.000000000  0.450427394
     0.750000000  0.000000000  0.550191116
     0.000000000  0.250000000  0.550191116
     0.750000000  0.250000000  0.648532086
     0.000000000  0.000000000  0.648532086
     0.750000000  0.500000000  0.351282183
     0.000000000  0.750000000  0.351282183
     0.750000000  0.750000000  0.450427394
     0.000000000  0.500000000  0.450427394
     0.750000000  0.500000000  0.550191116
     0.000000000  0.750000000  0.550191116
     0.750000000  0.750000000  0.648532086
     0.000000000  0.500000000  0.648532086
     0.250000000  0.000000000  0.450427394
     0.500000000  0.250000000  0.450427394
     0.250000000  0.250000000  0.351282183
     0.500000000  0.000000000  0.351282183
     0.250000000  0.000000000  0.650785562
     0.500000000  0.250000000  0.650785562
     0.250000000  0.250000000  0.549814593
     0.500000000  0.000000000  0.549814593
     0.250000000  0.500000000  0.450427394
     0.500000000  0.750000000  0.450427394
     0.250000000  0.750000000  0.351282183
     0.500000000  0.500000000  0.351282183
     0.250000000  0.500000000  0.650785562
     0.500000000  0.750000000  0.650785562
     0.250000000  0.750000000  0.549814593
     0.500000000  0.500000000  0.549814593
     0.750000000  0.000000000  0.450427394
     0.000000000  0.250000000  0.450427394
     0.750000000  0.250000000  0.351282183
     0.000000000  0.000000000  0.351282183
     0.750000000  0.000000000  0.650785562
     0.000000000  0.250000000  0.650785562
     0.750000000  0.250000000  0.549814593
     0.000000000  0.000000000  0.549814593
     0.750000000  0.500000000  0.450427394
     0.000000000  0.750000000  0.450427394
     0.750000000  0.750000000  0.351282183
     0.000000000  0.500000000  0.351282183
     0.750000000  0.500000000  0.650785562
     0.000000000  0.750000000  0.650785562
     0.750000000  0.750000000  0.549814593
     0.000000000  0.500000000  0.549814593

  ion indices of the primitive-cell ions
   primitive index   ion index
                 1           1
                 2           2
                 3           3
                 4           4
                 5           5
                 6           6
                 7           7
                 8           8
                 9           9
                10          10
                11          11
                12          12
                13          13
                14          14
                15          15
                16          16
                17          17
                18          18
                19          19
                20          20
                21          21
                22          22
                23          23
[...]
   6.35035697  6.35035697  9.61678566
   0.00000000  4.23357132  9.61678566
   6.35035697  4.23357132 11.74677673
   0.00000000  6.35035697 11.74677673
   6.35035697  6.35035697 13.84639155
   0.00000000  4.23357132 13.84639155
   2.11678566  0.00000000  9.61678566
   4.23357132  2.11678566  9.61678566
   2.11678566  2.11678566  7.50000000
   4.23357132  0.00000000  7.50000000
   2.11678566  0.00000000 13.89450407
   4.23357132  2.11678566 13.89450407
   2.11678566  2.11678566 11.73873783
   4.23357132  0.00000000 11.73873783
   2.11678566  4.23357132  9.61678566
   4.23357132  6.35035697  9.61678566
   2.11678566  6.35035697  7.50000000
   4.23357132  4.23357132  7.50000000
   2.11678566  4.23357132 13.89450407
   4.23357132  6.35035697 13.89450407
   2.11678566  6.35035697 11.73873783
   4.23357132  4.23357132 11.73873783
   6.35035697  0.00000000  9.61678566
   0.00000000  2.11678566  9.61678566
   6.35035697  2.11678566  7.50000000
   0.00000000  0.00000000  7.50000000
   6.35035697  0.00000000 13.89450407
   0.00000000  2.11678566 13.89450407
   6.35035697  2.11678566 11.73873783
   0.00000000  0.00000000 11.73873783
   6.35035697  4.23357132  9.61678566
   0.00000000  6.35035697  9.61678566
   6.35035697  6.35035697  7.50000000
   0.00000000  4.23357132  7.50000000
   6.35035697  4.23357132 13.89450407
   0.00000000  6.35035697 13.89450407
   6.35035697  6.35035697 11.73873783
   0.00000000  4.23357132 11.73873783

--------------------------------------- Iteration      FINAL  ---------------------------------------

--------------------OUTCAR has been truncated-------------------------

[...]

--------------------OUTCAR has been truncated-------------------------

  Number of pair interactions contributing to vdW energy:  786942
  Edisp (eV):   -3.68888

  FORCE on cell =-STRESS in cart. coord.  units (eV):
  Direction    XX          YY          ZZ          XY          YZ          ZX
  Alpha Z   892.93016   892.93016   892.93016
  Ewald  159352.62392159367.40046************   -15.46497   -23.73446    29.68780
  Hartree169604.42737169622.04300************    -3.32149     0.61742     6.67137
  E(xc)   -2492.22670 -2492.23377 -2497.13949    -0.06897    -0.26358     0.08628
  Local  ************************338733.21082    14.60897    12.96142   -28.87939
  n-local -2843.52629 -2843.24963 -2863.03156    -0.21659     0.29202     0.37702
  augment  1054.22645  1054.62215  1046.38415     0.26676     0.64745    -0.51474
  Kinetic  7444.15879  7449.59828  7498.13012     4.25765     9.52880    -7.31540
  Fock        0.00000     0.00000     0.00000     0.00000     0.00000     0.00000
  vdW        -5.37065    -5.28298    -4.40542    -0.00204     0.00108     0.00923
  Total     -28.19867   -27.93850    -2.71270     0.05931     0.05016     0.12217
  in kB     -29.51619   -29.24386    -2.83945     0.06208     0.05250     0.12788

 VOLUME and BASIS-vectors are now :
  energy-cutoff  :      600.00
  volume of cell :     1530.66
      direct lattice vectors                 reciprocal lattice vectors
     8.467142631  0.000000000  0.000000000     0.118103597  0.000000000  0.000000000
     0.000000000  8.467142631  0.000000000     0.000000000  0.118103597  0.000000000
     0.000000000  0.000000000 21.350356973     0.000000000  0.000000000  0.046837624

  length of vectors
     8.467142631  8.467142631 21.350356973     0.118103597  0.118103597  0.046837624

 FORCES acting on ions:
    Electron-Ion                     Ewald-Force                    Non-Local-Force
   -.823E+02 0.166E+02 -.291E+03   0.901E+02 -.182E+02 0.293E+03   -.781E+01 0.159E+01 -.221E+01
   0.109E+01 -.668E+02 -.264E+03   -.123E+01 0.727E+02 0.260E+03   0.145E+00 -.590E+01 0.369E+01
   0.484E+02 0.255E+02 -.170E+04   -.854E+02 -.446E+02 0.171E+04   0.370E+02 0.192E+02 -.121E+02
   -.582E-01 0.682E-03 0.207E+04   0.598E-01 0.997E-03 -.206E+04   -.113E-02 -.115E-02 -.703E+01
   -.793E-02 -.610E-01 0.207E+04   0.717E-02 0.691E-01 -.206E+04   0.551E-03 -.616E-02 -.702E+01
   -.254E+00 -.209E+00 0.712E+03   0.251E+00 0.217E+00 -.712E+03   0.321E-02 -.333E-02 0.420E+00
   0.800E-01 -.127E+00 0.711E+03   -.103E+00 0.794E-01 -.712E+03   0.160E-01 0.351E-01 0.458E+00
   0.237E+01 -.739E+00 -.640E+03   -.233E+01 0.810E+00 0.640E+03   -.378E-01 -.709E-01 -.322E+00
   -.916E-01 0.319E+01 -.633E+03   0.559E-01 -.303E+01 0.634E+03   0.359E-01 -.166E+00 -.536E+00
   0.160E+02 0.174E+02 -.199E+04   -.164E+02 -.175E+02 0.199E+04   0.385E+00 0.112E+00 0.616E+01
   0.109E+01 -.111E+02 -.199E+04   -.116E+01 0.115E+02 0.198E+04   0.733E-01 -.378E+00 0.595E+01
   -.975E-01 0.115E-03 0.207E+04   0.104E+00 -.205E-02 -.206E+04   -.518E-02 0.136E-02 -.703E+01
   0.792E-03 0.576E-01 0.207E+04   -.210E-02 -.666E-01 -.206E+04   0.989E-03 0.685E-02 -.704E+01
   -.192E+00 0.175E+00 0.711E+03   0.277E+00 -.187E+00 -.712E+03   -.618E-01 0.646E-02 0.568E+00
   -.983E-02 0.154E+00 0.709E+03   0.324E-01 -.122E+00 -.710E+03   -.177E-01 -.258E-01 0.714E+00
   0.325E+01 0.732E+00 -.631E+03   -.304E+01 -.789E+00 0.632E+03   -.214E+00 0.575E-01 -.105E+01
   0.252E+00 -.216E+01 -.641E+03   -.320E+00 0.194E+01 0.640E+03   0.680E-01 0.214E+00 0.835E+00
   0.243E+02 -.202E+02 -.197E+04   -.252E+02 0.203E+02 0.196E+04   0.971E+00 -.835E-01 0.623E+01
   0.485E+01 0.290E+02 -.189E+04   -.530E+01 -.309E+02 0.189E+04   0.452E+00 0.195E+01 0.241E+01
   0.569E-01 -.707E-02 0.207E+04   -.591E-01 0.959E-02 -.206E+04   0.155E-02 -.181E-02 -.701E+01
   0.746E-02 -.204E-01 0.207E+04   -.723E-02 0.237E-01 -.206E+04   -.130E-03 -.229E-02 -.703E+01
   0.227E+00 -.280E+00 0.712E+03   -.233E+00 0.341E+00 -.712E+03   0.280E-02 -.429E-01 0.485E+00
   -.904E-01 -.145E+00 0.712E+03   0.104E+00 0.177E+00 -.712E+03   -.101E-01 -.235E-01 0.397E+00
   -.238E+01 -.110E+01 -.638E+03   0.234E+01 0.120E+01 0.638E+03   0.375E-01 -.103E+00 -.267E+00
   0.717E-01 0.252E+01 -.640E+03   -.323E-01 -.246E+01 0.640E+03   -.392E-01 -.589E-01 -.208E+00
   -.162E+02 0.174E+02 -.199E+04   0.166E+02 -.177E+02 0.198E+04   -.359E+00 0.255E+00 0.615E+01
   -.882E+00 -.399E+01 -.200E+04   0.956E+00 0.415E+01 0.200E+04   -.738E-01 -.161E+00 0.606E+01
   0.956E-01 0.877E-02 0.207E+04   -.103E+00 -.113E-01 -.206E+04   0.596E-02 0.179E-02 -.705E+01
   -.166E-03 0.193E-01 0.207E+04   0.126E-02 -.228E-01 -.206E+04   -.803E-03 0.245E-02 -.700E+01
   0.154E+00 0.241E+00 0.711E+03   -.242E+00 -.301E+00 -.712E+03   0.644E-01 0.427E-01 0.592E+00
   -.186E-01 0.148E+00 0.712E+03   -.210E-01 -.184E+00 -.713E+03   0.288E-01 0.257E-01 0.322E+00
   -.302E+01 0.113E+01 -.637E+03   0.280E+01 -.122E+01 0.637E+03   0.224E+00 0.849E-01 -.385E+00
   -.252E+00 -.258E+01 -.635E+03   0.328E+00 0.252E+01 0.635E+03   -.758E-01 0.586E-01 -.205E+00
   -.252E+02 -.211E+02 -.195E+04   0.263E+02 0.214E+02 0.195E+04   -.107E+01 -.307E+00 0.629E+01
   -.103E+01 0.474E+01 -.199E+04   0.121E+01 -.489E+01 0.199E+04   -.186E+00 0.158E+00 0.608E+01
   -.962E-01 0.859E-01 0.533E+03   0.100E+00 -.669E-01 -.533E+03   -.478E-02 -.284E-01 -.949E-01
   -.856E-01 -.176E+00 0.533E+03   0.864E-01 0.143E+00 -.533E+03   0.390E-03 0.456E-01 -.842E-01
   -.554E-01 -.282E-01 0.155E+04   0.561E-01 0.316E-01 -.156E+04   -.881E-03 -.472E-02 0.349E+01
   0.404E-02 -.350E-02 0.155E+04   -.683E-02 0.165E-02 -.156E+04   0.387E-02 0.261E-02 0.350E+01
   0.797E+01 -.535E+01 -.152E+04   -.772E+01 0.527E+01 0.153E+04   -.249E+00 0.890E-01 -.518E+01
   0.994E+00 0.266E+02 -.150E+04   -.992E+00 -.267E+02 0.150E+04   -.197E-02 0.877E-01 -.505E+01
   0.220E+01 0.214E+01 -.471E+03   -.219E+01 -.207E+01 0.471E+03   -.397E-02 -.591E-01 0.293E+00
   0.354E+00 -.295E+00 -.471E+03   -.373E+00 0.322E+00 0.471E+03   0.205E-01 -.278E-01 0.400E+00
   -.304E+00 -.821E-01 0.533E+03   0.251E+00 0.687E-01 -.532E+03   0.723E-01 0.208E-01 -.151E+00
   -.286E-01 0.109E+00 0.533E+03   0.344E-01 -.549E-01 -.533E+03   -.640E-02 -.718E-01 -.144E+00
   -.579E-01 0.275E-01 0.155E+04   0.667E-01 -.307E-01 -.156E+04   -.124E-01 0.449E-02 0.350E+01
   -.500E-02 0.595E-02 0.155E+04   0.763E-02 -.347E-02 -.156E+04   -.373E-02 -.353E-02 0.348E+01
   0.293E+02 0.747E+01 -.148E+04   -.289E+02 -.737E+01 0.149E+04   -.367E+00 -.101E+00 -.531E+01
   0.388E+01 -.359E+02 -.146E+04   -.398E+01 0.356E+02 0.146E+04   0.980E-01 0.280E+00 -.205E+01
   0.173E+01 -.216E+01 -.470E+03   -.181E+01 0.210E+01 0.470E+03   0.867E-01 0.547E-01 0.528E+00
   -.328E+00 -.459E+00 -.480E+03   0.282E+00 0.413E+00 0.481E+03   0.468E-01 0.446E-01 -.693E+00
   0.700E-01 0.470E-01 0.534E+03   -.623E-01 -.395E-01 -.533E+03   -.108E-01 -.130E-01 -.406E-01
   0.669E-01 0.854E-01 0.534E+03   -.562E-01 -.684E-01 -.533E+03   -.157E-01 -.241E-01 -.661E-01
   0.557E-01 -.377E-01 0.155E+04   -.560E-01 0.462E-01 -.156E+04   0.411E-03 -.119E-01 0.349E+01
   -.316E-02 -.683E-02 0.155E+04   0.633E-02 0.129E-01 -.156E+04   -.443E-02 -.850E-02 0.350E+01
   -.806E+01 -.681E+01 -.152E+04   0.780E+01 0.679E+01 0.152E+04   0.262E+00 0.210E-01 -.520E+01
   -.851E+00 0.627E+01 -.152E+04   0.842E+00 -.615E+01 0.153E+04   0.106E-01 -.112E+00 -.516E+01
   -.219E+01 0.167E+01 -.471E+03   0.219E+01 -.165E+01 0.471E+03   0.456E-02 -.199E-01 0.435E+00
   -.313E+00 -.105E+01 -.475E+03   0.325E+00 0.107E+01 0.474E+03   -.113E-01 -.268E-01 0.264E+00
   0.272E+00 -.255E-01 0.532E+03   -.198E+00 0.171E-01 -.532E+03   -.101E+00 0.141E-01 -.201E+00
   0.325E-01 -.102E+00 0.534E+03   -.336E-01 0.896E-01 -.534E+03   0.111E-03 0.182E-01 0.316E-01
   0.572E-01 0.363E-01 0.155E+04   -.661E-01 -.449E-01 -.156E+04   0.123E-01 0.120E-01 0.350E+01
   0.634E-02 0.759E-02 0.155E+04   -.821E-02 -.136E-01 -.156E+04   0.262E-02 0.829E-02 0.349E+01
   -.308E+02 0.102E+02 -.148E+04   0.302E+02 -.101E+02 0.149E+04   0.664E+00 -.801E-01 -.493E+01
   -.221E+01 -.680E+01 -.152E+04   0.226E+01 0.667E+01 0.152E+04   -.470E-01 0.127E+00 -.520E+01
   -.172E+01 -.170E+01 -.467E+03   0.181E+01 0.169E+01 0.466E+03   -.857E-01 0.154E-01 0.842E+00
   0.164E+00 0.112E+01 -.469E+03   -.128E+00 -.115E+01 0.468E+03   -.352E-01 0.320E-01 0.333E+00
   -.299E+02 -.167E+02 0.282E+02   0.373E-12 -.320E-12 0.239E-11   0.299E+02 0.167E+02 -.282E+02

 POSITION                                       TOTAL-FORCE (eV/Angst)
      5.23049      4.68029     16.31935         0.007887     -0.000735      0.003000
      4.31813      5.69823     15.52494         0.004019     -0.000937     -0.004621
      4.30327      4.84525     16.07192        -0.004074     -0.001162     -0.001632
      2.11679      0.00000      7.50000         0.000517      0.000533      0.394337
      4.23357      2.11679      7.50000        -0.000164      0.001995      0.391764
      2.11679      2.11679      9.61679        -0.000148      0.003715      0.019500
      4.23357      0.00000      9.61679        -0.006693     -0.012689      0.035243
      2.11706      0.00113     11.74337         0.001851      0.000469      0.002094
      4.23147      2.12161     11.74875        -0.000114      0.000536      0.000092
      2.10555      2.11382     13.84332         0.001575     -0.000280      0.001966
      4.23012      0.01872     13.84224         0.001061      0.001912      0.000608
      2.11679      4.23357      7.50000         0.001544     -0.000557      0.394543
      4.23357      6.35036      7.50000        -0.000277     -0.002146      0.395830
      2.11679      6.35036      9.61679         0.021868     -0.004777      0.016344
      4.23357      4.23357      9.61679         0.004800      0.006874      0.053216
      2.12269      4.23144     11.75212         0.001176      0.000365      0.001404
      4.23097      6.34168     11.75196         0.000234      0.000959     -0.001250
      2.09511      6.35114     13.83788         0.000168      0.000631      0.001437
      4.21398      4.17077     13.94873         0.000824     -0.002489     -0.001264
      6.35036      0.00000      7.50000        -0.000565      0.000711      0.390612
      0.00000      2.11679      7.50000         0.000136      0.000975      0.395054
      6.35036      2.11679      9.61679        -0.002566      0.017846      0.016375
      0.00000      0.00000      9.61679         0.003659      0.008917      0.007794
      6.34812      0.00254     11.74146        -0.000338      0.000719      0.001112
      0.00003      2.11815     11.74020         0.000581      0.001560      0.001106
      6.35753      2.11122     13.83803        -0.000621      0.000161      0.000835
      0.00040      0.00372     13.83998         0.000405     -0.000091     -0.002456
      6.35036      4.23357      7.50000        -0.001701     -0.000665      0.398149
      0.00000      6.35036      7.50000         0.000318     -0.001031      0.387448
      6.35036      6.35036      9.61679        -0.022622     -0.017030      0.014243
      0.00000      4.23357      9.61679        -0.010495     -0.010112      0.034362
      6.34113      4.23098     11.75448         0.000002      0.000401     -0.000320
      0.00156      6.34822     11.73833         0.000939     -0.000828     -0.002178
      6.37247      6.35812     13.81969         0.000920      0.000605     -0.000478
      0.00359      4.22918     13.83645         0.000065      0.001640      0.000355
      2.11679      0.00000      9.61679        -0.000656     -0.009512      0.041525
      4.23357      2.11679      9.61679         0.001240      0.012251      0.073212
      2.11679      2.11679      7.50000        -0.000231     -0.001319     -0.476802
      4.23357      0.00000      7.50000         0.001111      0.000773     -0.475251
      2.10844      0.00009     13.88783         0.000581      0.000858      0.000858
      4.23298      2.09558     13.88511         0.000787     -0.001007      0.001656
      2.11594      2.11370     11.73506         0.000294      0.001583      0.000019
      4.23349     -0.00563     11.73842         0.001226     -0.000651      0.000437
      2.11679      4.23357      9.61679         0.019787      0.007502      0.069005
      4.23357      6.35036      9.61679        -0.000586     -0.018050      0.067616
      2.11679      6.35036      7.50000        -0.003541      0.001261     -0.475128
      4.23357      4.23357      7.50000        -0.001066     -0.001049     -0.479080
      2.09895      4.23345     13.86774        -0.001327      0.001146     -0.000066
      4.23358      6.39488     13.94543         0.001372     -0.000037      0.002161
      2.12158      6.35221     11.74089         0.000549      0.001105     -0.000322
      4.23478      4.23736     11.75980         0.000464      0.000361      0.000076
      6.35036      0.00000      9.61679        -0.003045     -0.005637      0.048866
      0.00000      2.11679      9.61679        -0.004926     -0.007315      0.034790
      6.35036      2.11679      7.50000         0.000146     -0.003378     -0.476519
      0.00000      0.00000      7.50000        -0.001224     -0.002383     -0.474673
      6.35585     -0.00015     13.88779         0.001282      0.000825      0.001766
     -0.00249      2.11287     13.88723         0.001346      0.003744     -0.000578
      6.34911      2.11634     11.73721         0.000585      0.001439     -0.000566
     -0.00179     -0.00192     11.73296         0.000013     -0.000847      0.002397
      6.35036      4.23357      9.61679        -0.026851      0.005709      0.063530
      0.00000      6.35036      9.61679        -0.001031      0.005934      0.056085
      6.35036      6.35036      7.50000         0.003560      0.003425     -0.474589
      0.00000      4.23357      7.50000         0.000785      0.002329     -0.476824
      6.36575      4.23556     13.90119         0.002575      0.001273     -0.000521
     -0.00208      6.35377     13.88488         0.001320      0.000557      0.002444
      6.34410      6.35026     11.74013         0.000563      0.001635      0.000274
     -0.00429      4.23472     11.73182         0.000726      0.001479     -0.000427
    total drift:                               -0.002137     -0.000480      0.015636

  FREE ENERGIE OF THE ION-ELECTRON SYSTEM (eV)
  free  energy   TOTEN  =      -390.45033332 eV

  energy  without entropy=     -390.45033332  energy(sigma->0) =     -390.45033332

 d Force = 0.1583767E-04[ 0.808E-05, 0.236E-04]  d Energy = 0.1593913E-04-0.101E-06
 d Force = 0.3619221E+01[ 0.362E+01, 0.362E+01]  d Ewald  = 0.3619220E+01 0.411E-06

 Conjugate gradient step on ions:
 trial-energy change:   -0.000016  1 .order   -0.000016   -0.000024   -0.000008
  (g-gl).g = 0.312E-04      g.g   = 0.368E-04  gl.gl    = 0.702E-04
 g(Force)  = 0.368E-04   g(Stress)= 0.000E+00 ortho     = 0.373E-06
 gamma     =   0.44509
 trial     =   0.63896
 opt step  =   0.97204  (harmonic =   0.97204) maximal distance =0.00063103
 next E    =  -390.450335   (d E  =  -0.00002)

 reached required accuracy - stopping structural energy minimisation