 vasp.6.3.0 20Jan22 (build Mar 11 2022 13:48:16) complex

 executed on             LinuxIFC date 2024.08.21  21:25:32

 INCAR:
   SYSTEM = MgO-rocksalt
   ISMEAR = 0
   SIGMA = 0.05
   EDIFF = 1E-7
   ALGO = Normal
   ISTART = 0
   IBRION = 2
   NSW = 1000
   ISYM = 2
   ISIF = 3
   EDIFFG = -0.005
   GGA = PE
   IVDW = 21
   ENCUT = 600
   PREC = Accurate
   LASPH = .TRUE.
   LREAL = .FALSE.
   ISPIN = 1
   NELM = 200
   NELMIN = 8
   NCORE = 8
   KPAR = 1
   LWAVE = .FALSE.
   LCHARG = .FALSE.

 POTCAR:    PAW_PBE Ti_pv 07Sep2000
 POTCAR:    PAW_PBE O 08Apr2002
|           W    W    AA    RRRRR   N    N  II  N    N   GGGG   !!!           |
|           W    W   A  A   R    R  NN   N  II  NN   N  G    G  !!!           |
|           W    W  A    A  R    R  N N  N  II  N N  N  G       !!!           |
|           W WW W  AAAAAA  RRRRR   N  N N  II  N  N N  G  GGG   !            |
|           WW  WW  A    A  R   R   N   NN  II  N   NN  G    G                |
|           W    W  A    A  R    R  N    N  II  N    N   GGGG   !!!           |
|     For optimal performance we recommend to set                             |
|       NCORE = 2 up to number-of-cores-per-socket                            |
|     This setting can greatly improve the performance of VASP for DFT.       |
|     The default, NCORE=1 might be grossly inefficient on modern             |
|     multi-core architectures or massively parallel machines. Do your        |
|     Unfortunately you need to use the default for GW and RPA                |
|     calculations (for HF NCORE is supported but not extensively tested      |
|     yet).                                                                   |

   TITEL  = PAW_PBE Ti_pv 07Sep2000
   POMASS =   47.880; ZVAL   =   10.000    mass and valenz
   ENMAX  =  222.335; ENMIN  =  166.751 eV

   TITEL  = PAW_PBE O 08Apr2002
   POMASS =   16.000; ZVAL   =    6.000    mass and valenz
   ENMAX  =  400.000; ENMIN  =  300.000 eV

  PAW_PBE Ti_pv 07Sep2000               :
  PAW_PBE O 08Apr2002                   :

 POSCAR: Ti2 O4
  positions in direct lattice
  velocities in cartesian coordinates
 exchange correlation table for  LEXCH =        8
   RHO(1)=    0.500       N(1)  =     2000
   RHO(2)=  100.500       N(2)  =     4000

 ion  position               nearest neighbor table
   1  0.500  0.500  0.000-   6 1.96   3 1.96   3 1.96   6 1.96   5 1.98   4 1.98
   2  0.000  0.000  0.500-   4 1.96   5 1.96   4 1.96   5 1.96   3 1.98   6 1.98
   3  0.696  0.696  0.500-   1 1.96   1 1.96   2 1.98
   4  0.196  0.804  0.000-   2 1.96   2 1.96   1 1.98
   5  0.804  0.196  0.000-   2 1.96   2 1.96   1 1.98
   6  0.304  0.304  0.500-   1 1.96   1 1.96   2 1.98

  LATTYP: Found a simple tetragonal cell.
 ALAT       =     4.6113734787
 C/A-ratio  =     0.6439630616

  Lattice vectors:

 A1 = (   4.6113734787,   0.0000000000,   0.0000000000)
 A2 = (   0.0000000000,   4.6113734787,   0.0000000000)
 A3 = (   0.0000000000,   0.0000000000,   2.9695541834)

Analysis of symmetry for initial positions (statically):
 Subroutine PRICEL returns:
 Original cell was already a primitive cell.

 Routine SETGRP: Setting up the symmetry group for a
 simple tetragonal supercell.

 Subroutine GETGRP returns: Found 16 space group operations
 (whereof  8 operations were pure point group operations)
 out of a pool of 16 trial point group operations.

The static configuration has the point symmetry D_2h.
 The point group associated with its full space group is D_4h.

Analysis of symmetry for dynamics (positions and initial velocities):
 Subroutine PRICEL returns:
 Original cell was already a primitive cell.

 Routine SETGRP: Setting up the symmetry group for a
 simple tetragonal supercell.

 Subroutine GETGRP returns: Found 16 space group operations
 (whereof  8 operations were pure point group operations)
 out of a pool of 16 trial point group operations.

The dynamic configuration has the point symmetry D_2h.
 The point group associated with its full space group is D_4h.

 Subroutine INISYM returns: Found 16 space group operations
 (whereof  8 operations are pure point group operations),
 and found     1 'primitive' translations

                                     Primitive cell

  volume of cell :      63.1469

  direct lattice vectors                    reciprocal lattice vectors
     4.611373479  0.000000000  0.000000000     0.216855131 -0.000000000  0.000000000
     0.000000000  4.611373479  0.000000000     0.000000000  0.216855131  0.000000000
     0.000000000  0.000000000  2.969554183    -0.000000000 -0.000000000  0.336750885

  length of vectors
     4.611373479  4.611373479  2.969554183     0.216855131  0.216855131  0.336750885

  position of ions in fractional coordinates (direct lattice)
     0.500000000  0.500000000  0.000000000
     0.000000000  0.000000000  0.500000000
     0.695755445  0.695755445  0.500000000
     0.195755445  0.804244555  0.000000000
     0.804244555  0.195755445  0.000000000
     0.304244555  0.304244555  0.500000000

  ion indices of the primitive-cell ions
   primitive index   ion index
                 1           1
                 2           2
                 3           3
                 4           4
                 5           5
                 6           6

 KPOINTS: pymatgen v2020.8.13 with grid density =

Automatic generation of k-mesh.
 Grid dimensions read from file:
 generate k-points for:    5    5    8

 Generating k-lattice:

  Cartesian coordinates                     Fractional coordinates (reciprocal lattice)
     0.043371026 -0.000000000  0.000000000     0.200000000 -0.000000000  0.000000000
     0.000000000  0.043371026  0.000000000     0.000000000  0.200000000  0.000000000
    -0.000000000 -0.000000000  0.042093861     0.000000000  0.000000000  0.125000000

  Length of vectors
     0.043371026  0.043371026  0.042093861

  Shift w.r.t. Gamma in fractional coordinates (k-lattice)
     0.000000000  0.000000000  0.000000000

 Subroutine IBZKPT returns following result:

 Found     30 irreducible k-points:

 Following reciprocal coordinates:
            Coordinates               Weight
  0.000000  0.000000  0.000000      1.000000
  0.200000  0.000000  0.000000      4.000000
  0.400000 -0.000000  0.000000      4.000000
  0.200000  0.200000  0.000000      4.000000
  0.400000  0.200000  0.000000      8.000000
  0.400000  0.400000  0.000000      4.000000
  0.000000  0.000000  0.125000      2.000000
  0.200000  0.000000  0.125000      8.000000
  0.400000  0.000000  0.125000      8.000000
  0.200000  0.200000  0.125000      8.000000
  0.400000  0.200000  0.125000     16.000000
  0.400000  0.400000  0.125000      8.000000
  0.000000  0.000000  0.250000      2.000000
  0.200000 -0.000000  0.250000      8.000000
  0.400000  0.000000  0.250000      8.000000
  0.200000  0.200000  0.250000      8.000000
  0.400000  0.200000  0.250000     16.000000
  0.400000  0.400000  0.250000      8.000000
  0.000000  0.000000  0.375000      2.000000
  0.200000  0.000000  0.375000      8.000000
  0.400000 -0.000000  0.375000      8.000000
  0.200000  0.200000  0.375000      8.000000
  0.400000  0.200000  0.375000     16.000000
  0.400000  0.400000  0.375000      8.000000
  0.000000  0.000000  0.500000      1.000000
  0.200000 -0.000000  0.500000      4.000000
  0.400000 -0.000000  0.500000      4.000000
  0.200000  0.200000  0.500000      4.000000
  0.400000  0.200000  0.500000      8.000000
  0.400000  0.400000  0.500000      4.000000

 Following cartesian coordinates:
            Coordinates               Weight
  0.000000  0.000000  0.000000      1.000000
  0.043371 -0.000000  0.000000      4.000000
  0.086742 -0.000000  0.000000      4.000000
  0.043371  0.043371  0.000000      4.000000
  0.086742  0.043371  0.000000      8.000000
  0.086742  0.086742  0.000000      4.000000
 -0.000000 -0.000000  0.042094      2.000000
  0.043371 -0.000000  0.042094      8.000000
  0.086742 -0.000000  0.042094      8.000000
  0.043371  0.043371  0.042094      8.000000
  0.086742  0.043371  0.042094     16.000000
  0.086742  0.086742  0.042094      8.000000
 -0.000000 -0.000000  0.084188      2.000000
  0.043371 -0.000000  0.084188      8.000000
  0.086742 -0.000000  0.084188      8.000000
  0.043371  0.043371  0.084188      8.000000
  0.086742  0.043371  0.084188     16.000000
  0.086742  0.086742  0.084188      8.000000
 -0.000000 -0.000000  0.126282      2.000000
  0.043371 -0.000000  0.126282      8.000000
  0.086742 -0.000000  0.126282      8.000000
  0.043371  0.043371  0.126282      8.000000
  0.086742  0.043371  0.126282     16.000000
  0.086742  0.086742  0.126282      8.000000
 -0.000000 -0.000000  0.168375      1.000000
  0.043371 -0.000000  0.168375      4.000000
  0.086742 -0.000000  0.168375      4.000000
  0.043371  0.043371  0.168375      4.000000
  0.086742  0.043371  0.168375      8.000000
  0.086742  0.086742  0.168375      4.000000

 SYSTEM =  MgO-rocksalt
 POSCAR =  Ti2 O4

  energy-cutoff  :      600.00
  volume of cell :       63.15
      direct lattice vectors                 reciprocal lattice vectors
     4.611373479  0.000000000  0.000000000     0.216855131 -0.000000000  0.000000000
     0.000000000  4.611373479  0.000000000     0.000000000  0.216855131  0.000000000
     0.000000000  0.000000000  2.969554183    -0.000000000 -0.000000000  0.336750885

[...]

 k-points in units of 2pi/SCALE and weight: pymatgen v2020.8.13 with grid density =
   0.00000000  0.00000000  0.00000000       0.005
   0.04337103 -0.00000000  0.00000000       0.020
   0.08674205 -0.00000000  0.00000000       0.020
   0.04337103  0.04337103  0.00000000       0.020
   0.08674205  0.04337103  0.00000000       0.040
   0.08674205  0.08674205  0.00000000       0.020
  -0.00000000 -0.00000000  0.04209386       0.010
   0.04337103 -0.00000000  0.04209386       0.040
   0.08674205 -0.00000000  0.04209386       0.040
   0.04337103  0.04337103  0.04209386       0.040
   0.08674205  0.04337103  0.04209386       0.080
   0.08674205  0.08674205  0.04209386       0.040
  -0.00000000 -0.00000000  0.08418772       0.010
   0.04337103 -0.00000000  0.08418772       0.040
   0.08674205 -0.00000000  0.08418772       0.040
   0.04337103  0.04337103  0.08418772       0.040
   0.08674205  0.04337103  0.08418772       0.080
   0.08674205  0.08674205  0.08418772       0.040
  -0.00000000 -0.00000000  0.12628158       0.010
   0.04337103 -0.00000000  0.12628158       0.040
   0.08674205 -0.00000000  0.12628158       0.040
   0.04337103  0.04337103  0.12628158       0.040
   0.08674205  0.04337103  0.12628158       0.080
   0.08674205  0.08674205  0.12628158       0.040
  -0.00000000 -0.00000000  0.16837544       0.005
   0.04337103 -0.00000000  0.16837544       0.020
   0.08674205 -0.00000000  0.16837544       0.020
   0.04337103  0.04337103  0.16837544       0.020
   0.08674205  0.04337103  0.16837544       0.040
   0.08674205  0.08674205  0.16837544       0.020

 k-points in reciprocal lattice and weights: pymatgen v2020.8.13 with grid density =
   0.00000000  0.00000000  0.00000000       0.005
   0.20000000  0.00000000  0.00000000       0.020
   0.40000000 -0.00000000  0.00000000       0.020
   0.20000000  0.20000000  0.00000000       0.020
   0.40000000  0.20000000  0.00000000       0.040
   0.40000000  0.40000000  0.00000000       0.020
   0.00000000  0.00000000  0.12500000       0.010
   0.20000000  0.00000000  0.12500000       0.040
   0.40000000  0.00000000  0.12500000       0.040
   0.20000000  0.20000000  0.12500000       0.040
   0.40000000  0.20000000  0.12500000       0.080
   0.40000000  0.40000000  0.12500000       0.040
   0.00000000  0.00000000  0.25000000       0.010
   0.20000000 -0.00000000  0.25000000       0.040
   0.40000000  0.00000000  0.25000000       0.040
   0.20000000  0.20000000  0.25000000       0.040
   0.40000000  0.20000000  0.25000000       0.080
   0.40000000  0.40000000  0.25000000       0.040
   0.00000000  0.00000000  0.37500000       0.010
   0.20000000  0.00000000  0.37500000       0.040
   0.40000000 -0.00000000  0.37500000       0.040
   0.20000000  0.20000000  0.37500000       0.040
   0.40000000  0.20000000  0.37500000       0.080
   0.40000000  0.40000000  0.37500000       0.040
   0.00000000  0.00000000  0.50000000       0.005
   0.20000000 -0.00000000  0.50000000       0.020
   0.40000000 -0.00000000  0.50000000       0.020
   0.20000000  0.20000000  0.50000000       0.020
   0.40000000  0.20000000  0.50000000       0.040
   0.40000000  0.40000000  0.50000000       0.020

 position of ions in fractional coordinates (direct lattice)
   0.50000000  0.50000000  0.00000000
   0.00000000  0.00000000  0.50000000
   0.69575544  0.69575544  0.50000000
   0.19575544  0.80424456  0.00000000
   0.80424456  0.19575544  0.00000000
   0.30424456  0.30424456  0.50000000

 position of ions in cartesian coordinates  (Angst):
   2.30568674  2.30568674  0.00000000
   0.00000000  0.00000000  1.48477709
   3.20838820  3.20838820  1.48477709
   0.90270147  3.70867201  0.00000000
   3.70867201  0.90270147  0.00000000
   1.40298527  1.40298527  1.48477709

--------------------------------------- Iteration      FINAL  ---------------------------------------

--------------------OUTCAR has been truncated-------------------------

[...]

--------------------OUTCAR has been truncated-------------------------

  Hirshfeld charges:
            ion         q(e)
      1     Ti          0.731
      2     Ti          0.731
      3     O          -0.365
      4     O          -0.365
      5     O          -0.365
      6     O          -0.365

  Hirshfeld-I charges:
            ion         q(e)        dq(e)
      1     Ti          2.138     -0.255E-04
      2     Ti          2.138     -0.255E-04
      3     O          -1.069      0.127E-04
      4     O          -1.069      0.127E-04
      5     O          -1.069      0.127E-04
      6     O          -1.069      0.127E-04

   Hirshfeld-I converged in  11 cycles. Convergence criterion |dq|< 0.500E-04 e

  Atomic reference data used in the T-S method for vdW correction:
            C6at              R0at           ALPHAat      REFSTATE
            (au)              (au)            (au)
   Ti       1044.000          4.516         98.000         0
   O          15.600          3.194          5.400         0

  Tkatchenko/Scheffler method for vdW energy calculation

  Parameters of vdW forcefield:
            C6ts              R0ts           ALPHAts        RELVOL
            (au)              (au)            (au)
   Ti         75.963          2.918         26.435          0.26974271
   Ti         75.963          2.918         26.435          0.26974271
   O          53.300          3.919          9.981          1.84842133
   O          53.300          3.919          9.981          1.84842133
   O          53.300          3.919          9.981          1.84842133
   O          53.300          3.919          9.981          1.84842133

  vdW correction parametrized for the method pbe

  IVDW =  21
  VDW_RADIUS =    50.000 A
  VDW_IDAMPF =  0
  VDW_S6 =     1.000
  VDW_SR =     0.950
  VDW_D =    20.000
  LVDW_ONECELL = F F F
  LVDW_SAMETYPE T T
  LVDW_EWALD = F

  Number of pair interactions contributing to vdW energy:  174068
  Edisp (eV):   -1.01987

  FORCE on cell =-STRESS in cart. coord.  units (eV):
  Direction    XX          YY          ZZ          XY          YZ          ZX
  Alpha Z   216.52035   216.52035   216.52035
  Ewald   -1116.29371 -1116.29371  -692.85079    -0.00000    -0.00000    -0.00000
  Hartree   216.94153   216.94153   438.65172    -0.00000    -0.00000    -0.00000
  E(xc)    -214.94554  -214.94554  -214.49959     0.00000     0.00000     0.00000
  Local     186.93509   186.93509  -447.62889     0.00000    -0.00000    -0.00000
  n-local  -134.45042  -135.50715  -133.00934     0.07702     0.13307    -0.00368
  augment   131.07182   131.07182   130.03953     0.00000     0.00000    -0.00000
  Kinetic   716.61995   715.72629   703.70540    -1.15969    -0.72620    -1.46947
  Fock        0.00000     0.00000     0.00000     0.00000     0.00000     0.00000
  vdW        -1.42399    -1.42399    -0.93551    -0.00000    -0.00000    -0.00000
  Total      -0.00011    -0.00011    -0.00711    -0.00000     0.00000     0.00000
  in kB      -0.00291    -0.00291    -0.18038    -0.00000     0.00000     0.00000

 VOLUME and BASIS-vectors are now :
  energy-cutoff  :      600.00
  volume of cell :       63.15
      direct lattice vectors                 reciprocal lattice vectors
     4.611373479  0.000000000  0.000000000     0.216855131 -0.000000000  0.000000000
     0.000000000  4.611373479  0.000000000     0.000000000  0.216855131  0.000000000
     0.000000000  0.000000000  2.969554183    -0.000000000 -0.000000000  0.336750885

  length of vectors
     4.611373479  4.611373479  2.969554183     0.216855131  0.216855131  0.336750885

 FORCES acting on ions
    electron-ion (+dipol)            ewald-force                    non-local-force                 convergence-correction
   -.822E-12 -.110E-11 -.184E-11   0.000E+00 0.000E+00 0.359E-14   -.148E-25 -.288E-26 0.392E-25   -.911E-13 -.491E-13 0.183E-13
   -.583E-15 0.405E-14 0.146E-12   -.156E-12 -.426E-13 0.513E-15   -.239E-25 0.178E-27 0.951E-26   -.748E-13 -.307E-13 0.140E-13
   -.364E+02 -.364E+02 0.272E-06   0.394E+02 0.394E+02 -.668E-13   -.302E+01 -.302E+01 -.401E-15   0.184E-04 0.184E-04 0.132E-13
   -.364E+02 0.364E+02 -.826E-12   0.394E+02 -.394E+02 0.279E-14   -.302E+01 0.302E+01 -.226E-17   0.184E-04 -.184E-04 0.107E-13
   0.364E+02 -.364E+02 -.674E-11   -.394E+02 0.394E+02 0.226E-14   0.302E+01 -.302E+01 -.344E-17   -.184E-04 0.184E-04 0.325E-13
   0.364E+02 0.364E+02 -.272E-06   -.394E+02 -.394E+02 0.655E-13   0.302E+01 0.302E+01 0.404E-15   -.184E-04 -.184E-04 0.240E-13
   0.200E-12 0.168E-11 -.201E-11   -.284E-13 -.142E-13 0.778E-14   0.000E+00 0.000E+00 -.311E-17   -.190E-12 -.115E-12 0.113E-12

 POSITION                                       TOTAL-FORCE (eV/Angst)
      2.30569      2.30569      0.00000         0.000000      0.000000     -0.000000
      0.00000      0.00000      1.48478         0.000000      0.000000     -0.000000
      3.20839      3.20839      1.48478        -0.001756     -0.001756     -0.000000
      0.90270      3.70867      0.00000        -0.001756      0.001756     -0.000000
      3.70867      0.90270      0.00000         0.001756     -0.001756     -0.000000
      1.40299      1.40299      1.48478         0.001756      0.001756      0.000000
    total drift:                               -0.000000      0.000000     -0.000000

  FREE ENERGIE OF THE ION-ELECTRON SYSTEM (eV)
  free  energy   TOTEN  =       -54.47446080 eV

  energy  without entropy=      -54.47446080  energy(sigma->0) =      -54.47446080

 reached required accuracy - stopping structural energy minimisation