 vasp.6.4.1 05Apr23 (build Sep 19 2024 10:44:22) complex

 executed on             LinuxIFC date 2024.10.20  09:39:13

 INCAR:
   SYSTEM = TiO2
   ISMEAR = 0
   SIGMA = 0.05
   EDIFF = 1E-7
   ALGO = ALL
   ISTART = 0
   IBRION = 2
   NSW = 1000
   ISYM = 0
   ISIF = 2
   EDIFFG = -0.01
   DIPOL = 0.5 0.5 0.5
   IDIPOL = 3
   LDIPOL = .TRUE.
   GGA = MK
   LUSE_VDW = .TRUE.
   PARAM1 = 0.1234
   PARAM2 = 0.711357
   ZAB_VDW = -1.8867
   AGGAC = 0.0
   ENCUT = 600
   PREC = Accurate
   LASPH = .TRUE.
   LREAL = .FALSE.
   ISPIN = 1
   NELM = 200
   NELMIN = 8
   NCORE = 8
   KPAR = 1
   LWAVE = .FALSE.
   LCHARG = .FALSE.

 POTCAR:    PAW_PBE H 15Jun2001
 POTCAR:    PAW_PBE O 08Apr2002
 POTCAR:    PAW_PBE Ti_pv 07Sep2000
 POTCAR:    PAW_PBE O 08Apr2002
|           W    W    AA    RRRRR   N    N  II  N    N   GGGG   !!!           |
|           W    W   A  A   R    R  NN   N  II  NN   N  G    G  !!!           |
|           W    W  A    A  R    R  N N  N  II  N N  N  G       !!!           |
|           W WW W  AAAAAA  RRRRR   N  N N  II  N  N N  G  GGG   !            |
|           WW  WW  A    A  R   R   N   NN  II  N   NN  G    G                |
|           W    W  A    A  R    R  N    N  II  N    N   GGGG   !!!           |
|     For optimal performance we recommend to set                             |
|       NCORE = 2 up to number-of-cores-per-socket                            |
|     This setting can greatly improve the performance of VASP for DFT.       |
|     The default, NCORE=1 might be grossly inefficient on modern             |
|     multi-core architectures or massively parallel machines. Do your        |
|     Unfortunately you need to use the default for GW and RPA                |
|     calculations (for HF NCORE is supported but not extensively tested      |
|     yet).                                                                   |

   TITEL  = PAW_PBE H 15Jun2001
   POMASS =    1.000; ZVAL   =    1.000    mass and valenz
   ENMAX  =  250.000; ENMIN  =  200.000 eV

   TITEL  = PAW_PBE O 08Apr2002
   POMASS =   16.000; ZVAL   =    6.000    mass and valenz
   ENMAX  =  400.000; ENMIN  =  300.000 eV

   TITEL  = PAW_PBE Ti_pv 07Sep2000
   POMASS =   47.880; ZVAL   =   10.000    mass and valenz
   ENMAX  =  222.335; ENMIN  =  166.751 eV

   TITEL  = PAW_PBE O 08Apr2002
   POMASS =   16.000; ZVAL   =    6.000    mass and valenz
   ENMAX  =  400.000; ENMIN  =  300.000 eV

  PAW_PBE H 15Jun2001                   :
  PAW_PBE O 08Apr2002                   :
  PAW_PBE Ti_pv 07Sep2000               :
  PAW_PBE O 08Apr2002                   :

 POSCAR:  H  O Ti  O
  positions in direct lattice
 exchange correlation table for  LEXCH =       43
   RHO(1)=    0.500       N(1)  =     2000
   RHO(2)=  100.500       N(2)  =     4000

 ion  position               nearest neighbor table
   1  0.688  0.567  0.767-   3 0.98
   2  0.688  0.433  0.767-   3 0.98
   3  0.629  0.500  0.768-   2 0.98   1 0.98  51 2.30
   4  0.809  0.833  0.295-  88 1.94  54 1.94  56 1.94  55 2.00  53 2.00  21 3.06   5 3.06   7 3.06

   5  0.593  0.667  0.326-  52 1.94 119 1.94  57 1.94  55 1.94  56 2.00  58 2.00  36 3.06   4 3.06
                             6 3.06  10 3.09
   6  0.309  0.667  0.295- 124 1.94  58 1.94  60 1.94  59 2.00  52 2.00  39 3.06   7 3.06   5 3.06

   7  0.093  0.833  0.326-  91 1.94  53 1.94  61 1.94  59 1.94  60 2.00  54 2.00  22 3.06   6 3.06
                             4 3.06   8 3.09
   8  0.946  0.833  0.422-  62 1.93  64 1.94  96 1.94  54 1.98  63 1.99  61 2.00  11 3.01   9 3.06
                            25 3.06   7 3.09
   9  0.727  0.667  0.451-  57 1.90 127 1.94  63 1.94  65 1.97  66 1.98  64 2.01  10 3.01  40 3.06
                             8 3.06  14 3.11
  10  0.446  0.667  0.422-  66 1.93  68 1.94 132 1.94  58 1.98  67 1.99  57 2.00   9 3.01  11 3.06
                            43 3.06   5 3.09
  11  0.227  0.833  0.451-  61 1.90  67 1.94  99 1.94  69 1.97  62 1.98  68 2.01   8 3.01  10 3.06
                            26 3.06  12 3.11
  12  0.086  0.833  0.550-  70 1.93  72 1.94 104 1.94  71 1.98  62 2.00  69 2.01  15 2.96  29 3.06
                            13 3.06  11 3.11
  13  0.865  0.667  0.576-  65 1.87 135 1.94  71 1.94  74 1.95  73 2.00  72 2.02  14 2.96  44 3.06
                            12 3.06
  14  0.586  0.667  0.550-  74 1.93  76 1.94 140 1.94  75 1.98  66 2.00  65 2.01  13 2.96  47 3.06
                            15 3.06   9 3.11
  15  0.365  0.833  0.576-  69 1.87 107 1.94  75 1.94  70 1.95  77 2.00  76 2.02  12 2.96  30 3.06
                            14 3.06
  16  0.233  0.833  0.680-  78 1.86 112 1.94  80 1.94  79 2.00  77 2.09  70 2.09  19 2.85  33 3.08
                            17 3.08
  17  0.004  0.667  0.700-  73 1.79  81 1.83  79 1.98 143 1.98  80 2.05  18 2.85  48 3.08  16 3.08

[...]

  20  0.809  0.167  0.295-  88 1.94  86 1.94 120 1.94  87 2.00  85 2.00  21 3.06  37 3.06  23 3.06

[...]

  36  0.809  0.500  0.295-  56 1.94 120 1.94 118 1.94 119 2.00 117 2.00  37 3.06   5 3.06  39 3.06

  37  0.593  0.333  0.326- 116 1.94 119 1.94 121 1.94  87 1.94 120 2.00 122 2.00  36 3.06  20 3.06
                            38 3.06  42 3.09
  38  0.309  0.333  0.295- 124 1.94 122 1.94  92 1.94 123 2.00 116 2.00  39 3.06  23 3.06  37 3.06

  39  0.093  0.500  0.326-  59 1.94 123 1.94 117 1.94 125 1.94 124 2.00 118 2.00   6 3.06  38 3.06
                            36 3.06  40 3.09
  40  0.946  0.500  0.422- 126 1.93 128 1.94  64 1.94 118 1.98 127 1.99 125 2.00  43 3.01  41 3.06
                             9 3.06  39 3.09
  41  0.727  0.333  0.451- 121 1.90  95 1.94 127 1.94 129 1.97 130 1.98 128 2.01  42 3.01  24 3.06
                            40 3.06  46 3.11
  42  0.446  0.333  0.422- 130 1.93 100 1.94 132 1.94 122 1.98 131 1.99 121 2.00  41 3.01  27 3.06
                            43 3.06  37 3.09
  43  0.227  0.500  0.451- 125 1.90  67 1.94 131 1.94 133 1.97 126 1.98 132 2.01  40 3.01  10 3.06
                            42 3.06  44 3.11
  44  0.086  0.500  0.550- 134 1.93 136 1.94  72 1.94 135 1.98 126 2.00 133 2.01  47 2.96  45 3.06
                            13 3.06  43 3.11
  45  0.865  0.333  0.576- 129 1.87 135 1.94 103 1.94 138 1.95 137 2.00 136 2.02  46 2.96  44 3.06
                            28 3.06
  46  0.586  0.333  0.550- 138 1.93 108 1.94 140 1.94 139 1.98 130 2.00 129 2.01  45 2.96  47 3.06
                            31 3.06  41 3.11
  47  0.365  0.500  0.576- 133 1.87  75 1.94 139 1.94 134 1.95 141 2.00 140 2.02  44 2.96  14 3.06
                            46 3.06
  48  0.233  0.500  0.680- 142 1.86  80 1.94 144 1.94 143 2.00 141 2.09 134 2.09  51 2.85  17 3.08
                            49 3.08
  49  0.004  0.333  0.700- 137 1.79 145 1.83 111 1.98 143 1.98 144 2.05  50 2.85  48 3.08  32 3.08

  50  0.733  0.333  0.680- 145 1.86 147 1.94 115 1.94 146 2.00 137 2.09 138 2.09  49 2.85  51 3.08
                            35 3.08
  51  0.504  0.500  0.700- 141 1.79 142 1.83 146 1.98  82 1.98 147 2.05   3 2.30  48 2.85  18 3.08
                            50 3.08
  52  0.489  0.667  0.268-   5 1.94   6 2.00
  53  0.989  0.833  0.268-   7 1.94   4 2.00
  54  0.913  0.833  0.353-   4 1.94   8 1.98   7 2.00
  55  0.630  0.833  0.321-  21 1.94   5 1.94   4 2.00
  56  0.773  0.667  0.300-  36 1.94   4 1.94   5 2.00
  57  0.625  0.667  0.395-   9 1.90   5 1.94  10 2.00
  58  0.413  0.667  0.353-   6 1.94  10 1.98   5 2.00
  59  0.130  0.667  0.321-  39 1.94   7 1.94   6 2.00
  60  0.273  0.833  0.300-  22 1.94   6 1.94   7 2.00
  61  0.125  0.833  0.395-  11 1.90   7 1.94   8 2.00
  62  0.051  0.833  0.480-   8 1.93  11 1.98  12 2.00
  63  0.765  0.833  0.447-   9 1.94  25 1.94   8 1.99
  64  0.909  0.667  0.427-   8 1.94  40 1.94   9 2.01
  65  0.764  0.667  0.521-  13 1.87   9 1.97  14 2.01
  66  0.551  0.667  0.480-  10 1.93   9 1.98  14 2.00
  67  0.265  0.667  0.447-  11 1.94  43 1.94  10 1.99
  68  0.409  0.833  0.427-  10 1.94  26 1.94  11 2.01
  69  0.264  0.833  0.521-  15 1.87  11 1.97  12 2.01
  70  0.194  0.833  0.607-  12 1.93  15 1.95  16 2.09
  71  0.905  0.833  0.573-  29 1.94  13 1.94  12 1.98
  72  0.050  0.667  0.553-  12 1.94  44 1.94  13 2.02
  73  0.913  0.667  0.646-  17 1.79  13 2.00  18 2.09
  74  0.694  0.667  0.607-  14 1.93  13 1.95  18 2.09
  75  0.405  0.667  0.573-  47 1.94  15 1.94  14 1.98
  76  0.550  0.833  0.553-  30 1.94  14 1.94  15 2.02
  77  0.413  0.833  0.646-  19 1.79  15 2.00  16 2.09
  78  0.348  0.833  0.731-  19 1.83  16 1.86
  79  0.054  0.833  0.708-  33 1.98  17 1.98  16 2.00
  80  0.196  0.667  0.680-  48 1.94  16 1.94  17 2.05
  81  0.848  0.667  0.731-  17 1.83  18 1.86
  82  0.554  0.667  0.708-  51 1.98  19 1.98  18 2.00
  83  0.696  0.833  0.680-  34 1.94  18 1.94  19 2.05
  84  0.489  0.000  0.268-  21 1.94  22 2.00
  85  0.989  0.167  0.268-  23 1.94  20 2.00
  86  0.913  0.167  0.353-  20 1.94  24 1.98  23 2.00
  87  0.630  0.167  0.321-  21 1.94  37 1.94  20 2.00
  88  0.773  0.000  0.300-   4 1.94  20 1.94  21 2.00
  89  0.625  0.000  0.395-  25 1.90  21 1.94  26 2.00
  90  0.413  0.000  0.353-  22 1.94  26 1.98  21 2.00
  91  0.130  0.000  0.321-   7 1.94  23 1.94  22 2.00
  92  0.273  0.167  0.300-  22 1.94  38 1.94  23 2.00
  93  0.125  0.167  0.395-  27 1.90  23 1.94  24 2.00
  94  0.051  0.167  0.480-  24 1.93  27 1.98  28 2.00
  95  0.765  0.167  0.447-  41 1.94  25 1.94  24 1.99
  96  0.909  1.000  0.427-   8 1.94  24 1.94  25 2.01
  97  0.764  1.000  0.521-  29 1.87  25 1.97  30 2.01
  98  0.551  1.000  0.480-  26 1.93  25 1.98  30 2.00
  99  0.265  0.000  0.447-  27 1.94  11 1.94  26 1.99
 100  0.409  0.167  0.427-  42 1.94  26 1.94  27 2.01
 101  0.264  0.167  0.521-  31 1.87  27 1.97  28 2.01
 102  0.194  0.167  0.607-  28 1.93  31 1.95  32 2.09
 103  0.905  0.167  0.573-  29 1.94  45 1.94  28 1.98
 104  0.050  1.000  0.553-  12 1.94  28 1.94  29 2.02
 105  0.913  1.000  0.646-  33 1.79  29 2.00  34 2.09
 106  0.694  1.000  0.607-  30 1.93  29 1.95  34 2.09
 107  0.405  0.000  0.573-  31 1.94  15 1.94  30 1.98
 108  0.550  0.167  0.553-  46 1.94  30 1.94  31 2.02
 109  0.413  0.167  0.646-  35 1.79  31 2.00  32 2.09
 110  0.348  0.167  0.731-  35 1.83  32 1.86
 111  0.054  0.167  0.708-  33 1.98  49 1.98  32 2.00
[...]
 133  0.264  0.500  0.521-  47 1.87  43 1.97  44 2.01
 134  0.194  0.500  0.607-  44 1.93  47 1.95  48 2.09
 135  0.905  0.500  0.573-  13 1.94  45 1.94  44 1.98
 136  0.050  0.333  0.553-  44 1.94  28 1.94  45 2.02
 137  0.913  0.333  0.646-  49 1.79  45 2.00  50 2.09
 138  0.694  0.333  0.607-  46 1.93  45 1.95  50 2.09
 139  0.405  0.333  0.573-  47 1.94  31 1.94  46 1.98
 140  0.550  0.500  0.553-  46 1.94  14 1.94  47 2.02
 141  0.413  0.500  0.646-  51 1.79  47 2.00  48 2.09
 142  0.348  0.500  0.731-  51 1.83  48 1.86
 143  0.054  0.500  0.708-  17 1.98  49 1.98  48 2.00
 144  0.196  0.333  0.680-  48 1.94  32 1.94  49 2.05
 145  0.848  0.333  0.731-  49 1.83  50 1.86
 146  0.554  0.333  0.708-  51 1.98  35 1.98  50 2.00
 147  0.696  0.500  0.680-  18 1.94  50 1.94  51 2.05

IMPORTANT INFORMATION: All symmetrisations will be switched off!
NOSYMM: (Re-)initialisation of all symmetry stuff for point group C_1.

[...]
   3.58931857  5.69657559 20.43884688
   0.56065425  5.69657531 19.78108917
   2.02032520  3.79771762 19.01457388
   8.74662823  3.79771687 20.43884267
   5.71794603  3.79771684 19.78108842
   7.17761928  5.69657661 19.01457383

--------------------------------------- Iteration      FINAL  ---------------------------------------

--------------------OUTCAR has been truncated-------------------------

[...]

--------------------OUTCAR has been truncated-------------------------

  FORCE on cell =-STRESS in cart. coord.  units (eV):
  Direction    XX          YY          ZZ          XY          YZ          ZX
  Alpha Z  2425.36785  2425.36785  2425.36785
  Ewald  484506.28866477784.50635************     0.01091    -0.00184 -1863.88140
  Hartree505610.77475501516.55365************     0.00296    -0.00112 -1252.12195
  E(xc)   -5193.81163 -5194.40827 -5193.33987     0.00002     0.00000    -0.31990
  Local  ************************999088.66614    -0.01060     0.00264  3125.34028
  n-local -3330.15462 -3299.83058 -3341.27416    -0.00054     0.00004     2.39803
  augment  3155.77101  3151.97604  3146.41137    -0.00008     0.00002    -1.09874
  Kinetic 17145.82176 17194.09246 17271.66411    -0.00021     0.00004   -20.07773
  Fock        0.00000     0.00000     0.00000     0.00000     0.00000     0.00000
  Total     -48.02236   -19.47010   -14.19534     0.00245    -0.00023    -9.76141
  in kB     -23.42889    -9.49897    -6.92555     0.00119    -0.00011    -4.76234

 VOLUME and BASIS-vectors are now :
  energy-cutoff  :      600.00
  volume of cell :     3283.99
      direct lattice vectors                 reciprocal lattice vectors
    10.314592520  0.000000000  0.000000000     0.096950025 -0.000000000  0.000000000
     0.000000000 11.393151181  0.000000000     0.000000000  0.087772029  0.000000000
     0.000000000  0.000000000 27.945155206     0.000000000  0.000000000  0.035784378

  length of vectors
    10.314592520 11.393151181 27.945155206     0.096950025  0.087772029  0.035784378

 FORCES acting on ions:
    Electron-Ion                     Ewald-Force                    Non-Local-Force
   -.509E+02 -.655E+02 -.359E+03   0.558E+02 0.720E+02 0.359E+03   -.489E+01 -.650E+01 0.411E-01
   -.509E+02 0.655E+02 -.359E+03   0.558E+02 -.720E+02 0.359E+03   -.489E+01 0.650E+01 0.410E-01
   0.106E+02 0.723E-02 -.217E+04   -.512E+02 -.130E-01 0.218E+04   0.407E+02 0.160E-02 -.844E+01
   0.574E+01 -.147E+00 0.335E+04   -.941E+00 0.150E+00 -.335E+04   -.102E+01 -.708E-03 -.314E+01
   0.495E+01 -.310E+00 0.275E+04   -.644E+01 0.314E+00 -.276E+04   -.123E+00 -.141E-02 -.982E-01
   0.575E+01 0.704E-01 0.335E+04   -.984E+00 -.727E-01 -.334E+04   -.101E+01 0.848E-03 -.313E+01
   0.327E+01 -.125E-01 0.275E+04   -.481E+01 0.740E-02 -.276E+04   -.114E+00 0.127E-02 -.103E+00
   -.137E+00 -.348E+00 0.126E+04   -.304E-01 0.350E+00 -.126E+04   0.162E+00 -.121E-02 0.242E-01
   0.190E+01 -.245E+01 0.801E+03   -.185E+01 0.244E+01 -.800E+03   -.434E-01 0.228E-01 -.152E+00
   0.206E+01 -.428E+00 0.126E+04   -.221E+01 0.422E+00 -.126E+04   0.148E+00 0.763E-02 -.746E-03
   -.510E+01 0.567E-01 0.790E+03   0.515E+01 -.563E-01 -.789E+03   -.318E-01 0.182E-02 -.150E+00
   -.700E+01 -.244E+01 -.777E+03   0.671E+01 0.243E+01 0.777E+03   0.298E+00 0.113E-02 0.136E+00
   -.118E+02 -.450E+01 -.116E+04   0.120E+02 0.454E+01 0.116E+04   -.946E-01 -.411E-01 -.239E+00
   0.268E+01 -.219E+01 -.743E+03   -.293E+01 0.219E+01 0.743E+03   0.250E+00 0.376E-02 0.899E-01
   0.123E+01 -.238E+01 -.119E+04   -.106E+01 0.238E+01 0.119E+04   -.111E+00 -.669E-02 -.293E+00
   0.285E+02 -.124E+02 -.278E+04   -.295E+02 0.124E+02 0.278E+04   0.988E+00 0.168E-01 -.507E-01
   -.894E+02 -.280E+02 -.316E+04   0.898E+02 0.278E+02 0.316E+04   -.120E+00 0.173E+00 0.674E+00
   -.116E+02 -.547E+02 -.267E+04   0.108E+02 0.547E+02 0.267E+04   0.820E+00 -.430E-01 0.789E-01
   -.569E+02 -.346E+02 -.316E+04   0.572E+02 0.346E+02 0.315E+04   -.909E-01 0.462E-02 0.700E+00
   0.574E+01 0.147E+00 0.335E+04   -.941E+00 -.150E+00 -.335E+04   -.102E+01 0.707E-03 -.314E+01
   0.484E+01 -.283E-04 0.275E+04   -.636E+01 0.296E-04 -.276E+04   -.115E+00 -.330E-06 -.106E+00
   0.561E+01 -.671E-05 0.335E+04   -.817E+00 0.792E-05 -.335E+04   -.102E+01 -.305E-06 -.314E+01
   0.327E+01 0.125E-01 0.275E+04   -.481E+01 -.739E-02 -.276E+04   -.114E+00 -.127E-02 -.103E+00
   -.137E+00 0.348E+00 0.126E+04   -.306E-01 -.350E+00 -.126E+04   0.162E+00 0.121E-02 0.242E-01
   -.134E+01 -.317E-03 0.795E+03   0.137E+01 0.333E-03 -.795E+03   -.161E-01 -.223E-05 -.151E+00
   0.212E+01 -.643E-04 0.126E+04   -.227E+01 0.711E-04 -.126E+04   0.153E+00 -.143E-05 0.763E-02
   -.509E+01 -.566E-01 0.790E+03   0.515E+01 0.563E-01 -.789E+03   -.318E-01 -.182E-02 -.150E+00
   -.700E+01 0.244E+01 -.777E+03   0.670E+01 -.243E+01 0.777E+03   0.298E+00 -.113E-02 0.136E+00
   -.929E+01 -.170E-03 -.118E+04   0.942E+01 0.170E-03 0.118E+04   -.764E-01 0.319E-06 -.260E+00
   -.167E+01 -.207E-03 -.766E+03   0.139E+01 0.199E-03 0.766E+03   0.288E+00 0.142E-05 0.154E+00
   0.123E+01 0.238E+01 -.119E+04   -.106E+01 -.238E+01 0.119E+04   -.111E+00 0.670E-02 -.293E+00
   0.285E+02 0.124E+02 -.278E+04   -.295E+02 -.124E+02 0.278E+04   0.988E+00 -.168E-01 -.507E-01
   -.752E+02 -.247E-03 -.317E+04   0.756E+02 0.212E-03 0.317E+04   -.146E+00 0.962E-05 0.685E+00
   0.107E+02 -.404E-03 -.276E+04   -.117E+02 0.331E-03 0.276E+04   0.919E+00 0.129E-04 0.637E-02
   -.569E+02 0.346E+02 -.316E+04   0.572E+02 -.346E+02 0.315E+04   -.908E-01 -.460E-02 0.700E+00
   0.573E+01 0.123E-04 0.335E+04   -.922E+00 -.130E-04 -.335E+04   -.102E+01 0.187E-06 -.313E+01
   0.495E+01 0.310E+00 0.275E+04   -.644E+01 -.314E+00 -.276E+04   -.123E+00 0.141E-02 -.982E-01
   0.575E+01 -.704E-01 0.335E+04   -.984E+00 0.727E-01 -.334E+04   -.101E+01 -.848E-03 -.313E+01
   0.227E+01 0.967E-05 0.275E+04   -.376E+01 -.106E-04 -.276E+04   -.133E+00 0.299E-06 -.971E-01
   0.344E+00 0.292E-04 0.126E+04   -.510E+00 -.372E-04 -.126E+04   0.155E+00 0.180E-05 0.559E-01
   0.190E+01 0.245E+01 0.801E+03   -.185E+01 -.244E+01 -.800E+03   -.434E-01 -.228E-01 -.152E+00
   0.206E+01 0.428E+00 0.126E+04   -.221E+01 -.422E+00 -.126E+04   0.148E+00 -.763E-02 -.744E-03
   -.805E+01 -.321E-04 0.772E+03   0.813E+01 0.303E-04 -.772E+03   -.505E-01 0.430E-06 -.564E-01
   -.414E+01 0.103E-03 -.779E+03   0.390E+01 -.938E-04 0.779E+03   0.226E+00 -.253E-05 0.143E+00
   -.118E+02 0.450E+01 -.116E+04   0.120E+02 -.454E+01 0.116E+04   -.946E-01 0.411E-01 -.239E+00
   0.268E+01 0.219E+01 -.743E+03   -.293E+01 -.219E+01 0.743E+03   0.250E+00 -.376E-02 0.899E-01
   0.107E+01 -.126E-03 -.123E+04   -.903E+00 0.146E-03 0.123E+04   -.118E+00 -.333E-05 -.166E+00
   0.439E+02 0.520E-03 -.277E+04   -.447E+02 -.518E-03 0.277E+04   0.792E+00 0.925E-06 0.420E-01
   -.894E+02 0.280E+02 -.316E+04   0.898E+02 -.278E+02 0.316E+04   -.120E+00 -.173E+00 0.674E+00
   -.116E+02 0.547E+02 -.267E+04   0.108E+02 -.547E+02 0.267E+04   0.820E+00 0.430E-01 0.789E-01
   0.336E+02 0.357E-02 -.311E+04   -.329E+02 -.346E-02 0.311E+04   -.457E+00 -.452E-04 0.341E+00
   -.326E+02 -.567E-01 0.226E+04   0.374E+02 0.576E-01 -.228E+04   -.650E+01 -.106E-02 0.170E+02
   -.330E+02 -.559E-01 0.226E+04   0.377E+02 0.552E-01 -.228E+04   -.649E+01 0.907E-03 0.170E+02
   0.818E+02 -.445E-01 0.138E+04   -.864E+02 0.351E-01 -.137E+04   0.370E+01 0.887E-02 -.436E+01
   0.749E+02 -.116E+00 0.168E+04   -.817E+02 0.120E+00 -.167E+04   0.715E+01 -.671E-02 -.257E+01
   -.863E+02 -.139E+00 0.193E+04   0.933E+02 0.139E+00 -.193E+04   -.678E+01 -.132E-02 -.109E+00
   -.695E+02 -.110E+01 0.105E+04   0.750E+02 0.115E+01 -.106E+04   -.557E+01 -.449E-01 0.407E+01
   0.826E+02 -.282E-01 0.138E+04   -.872E+02 0.488E-01 -.137E+04   0.366E+01 -.229E-01 -.418E+01
   0.739E+02 0.484E-01 0.168E+04   -.807E+02 -.545E-01 -.167E+04   0.717E+01 0.154E-01 -.259E+01
   -.865E+02 -.810E-02 0.193E+04   0.935E+02 0.102E-01 -.193E+04   -.675E+01 -.728E-02 -.114E+00
[...]
   0.872E+02 0.755E-04 -.107E+04   -.940E+02 -.689E-04 0.108E+04   0.678E+01 -.735E-05 -.712E+01
   0.695E+02 0.106E-03 -.709E+03   -.753E+02 -.100E-03 0.712E+03   0.588E+01 -.123E-04 -.306E+01
   -.838E+02 0.131E+01 -.457E+03   0.901E+02 -.137E+01 0.454E+03   -.631E+01 0.655E-01 0.268E+01
   -.706E+02 0.157E+02 -.127E+04   0.729E+02 -.164E+02 0.126E+04   -.229E+01 0.660E+00 0.944E+01
   0.809E+02 0.165E+02 -.103E+04   -.870E+02 -.173E+02 0.103E+04   0.616E+01 0.776E+00 -.536E+01
   0.818E+02 0.164E+01 -.722E+03   -.881E+02 -.171E+01 0.725E+03   0.629E+01 0.738E-01 -.310E+01
   -.731E+02 0.231E-04 -.463E+03   0.791E+02 -.209E-04 0.461E+03   -.600E+01 -.407E-05 0.208E+01
   -.541E+02 0.433E-03 -.130E+04   0.592E+02 -.446E-03 0.129E+04   -.510E+01 0.144E-04 0.652E+01
   0.110E+03 0.884E-03 -.226E+04   -.116E+03 -.861E-03 0.228E+04   0.594E+01 -.302E-04 -.207E+02
   0.427E+02 0.155E-03 -.199E+04   -.465E+02 -.140E-03 0.199E+04   0.375E+01 -.254E-04 -.699E+01
   -.517E+02 0.776E+01 -.165E+04   0.565E+02 -.764E+01 0.165E+04   -.484E+01 -.110E+00 0.271E+01
   0.347E+01 0.367E+02 -.224E+04   -.834E+01 -.363E+02 0.226E+04   0.487E+01 -.340E+00 -.188E+02
   0.843E+02 0.562E+02 -.194E+04   -.891E+02 -.563E+02 0.195E+04   0.480E+01 0.467E-01 -.657E+01
   -.583E+02 0.153E-02 -.151E+04   0.618E+02 -.156E-02 0.150E+04   -.345E+01 -.180E-04 0.516E+01
   -.395E+02 0.489E-03 0.717E+02   -.313E-12 -.134E-11 -.773E-11   0.395E+02 -.490E-03 -.717E+02

 POSITION                                       TOTAL-FORCE (eV/Angst)
      7.09868      6.47144     21.59288        -0.003849     -0.000316     -0.000126
      7.09870      4.92168     21.59289        -0.006929      0.004379     -0.000069
      6.49182      5.69663     21.60481        -0.003105     -0.004176      0.003246
      8.34884      9.49429      8.23481         3.804637      0.002928      1.708057
      6.11976      7.59543      9.11755        -1.617317      0.002696     -1.939872
      3.19154      7.59543      8.23481         3.773329     -0.001450      1.686628
      0.96247      9.49429      9.11755        -1.655982     -0.003840     -1.945227
      9.76032      9.49572     11.80421        -0.002203      0.001806      0.001481
      7.51048      7.59089     12.60343         0.000107      0.001302     -0.001409
      4.59548      7.59265     11.79965        -0.002138     -0.000415     -0.000745
      2.34187      9.49368     12.61721        -0.001977      0.002161      0.000583
      0.90121      9.49740     15.37382         0.001348      0.000288      0.003292
      8.93977      7.59129     16.07323        -0.003013      0.001144     -0.001133
      6.04052      7.59407     15.34333        -0.003310      0.001020      0.004175
      3.76824      9.49505     16.11113         0.003361     -0.004524     -0.000925
      2.39202      9.48665     19.01808         0.001206     -0.003001      0.002720
      0.01130      7.58443     19.55930        -0.002645      0.002740      0.000740
      7.52709      7.58465     18.91269        -0.001247      0.000166      0.006264
      5.20044      9.50432     19.56267         0.000010     -0.001320      0.003199
      8.34884      1.89886      8.23481         3.804635     -0.002927      1.708057
      6.11976      0.00000      9.11755        -1.640462      0.000001     -1.937392
      3.19154      0.00000      8.23481         3.797863      0.000001      1.701811
      0.96247      1.89886      9.11755        -1.655980      0.003840     -1.945227
      9.76032      1.89743     11.80421        -0.002207     -0.001801      0.001494
      7.50286     -0.00000     12.60920        -0.001481      0.000013     -0.005708
      4.59807     -0.00000     11.80393         0.000263      0.000005     -0.001146
      2.34187      1.89947     12.61721        -0.001983     -0.002159      0.000580
      0.90121      1.89575     15.37382         0.001331     -0.000293      0.003274
      8.92461     -0.00000     16.09291         0.003264      0.000000     -0.001641
      6.04796     -0.00000     15.36053        -0.002688     -0.000007      0.005715
      3.76824      1.89810     16.11113         0.003361      0.004509     -0.000944
      2.39202      1.90650     19.01808         0.001219      0.003002      0.002727
      0.03699     -0.00000     19.56106        -0.004840     -0.000025     -0.002349
      7.55910      0.00000     18.99047         0.000145     -0.000059      0.003792
      5.20045      1.88883     19.56267        -0.000060      0.001272      0.003204
      8.34884      5.69658      8.23481         3.811965     -0.000001      1.699856
      6.11976      3.79772      9.11755        -1.617321     -0.002697     -1.939869
      3.19154      3.79772      8.23481         3.773333      0.001449      1.686631
      0.96247      5.69658      9.11755        -1.624665     -0.000001     -1.879830
      9.77453      5.69658     11.79842        -0.000181     -0.000006      0.002896
      7.51047      3.80226     12.60343         0.000113     -0.001314     -0.001410
      4.59549      3.80050     11.79965        -0.002140      0.000409     -0.000750
      2.34404      5.69658     12.64689         0.005864     -0.000002      0.000469
      0.92911      5.69657     15.38053         0.005118      0.000007     -0.001239
      8.93977      3.80186     16.07323        -0.003016     -0.001144     -0.001163
      6.04052      3.79908     15.34333        -0.003302     -0.001013      0.004148
      3.78842      5.69657     16.19536         0.002151      0.000016      0.006170
      2.42617      5.69658     19.03127        -0.000866      0.000003     -0.004932
      0.01130      3.80872     19.55930        -0.002555     -0.002719      0.000716
      7.52709      3.80850     18.91270        -0.001264     -0.000105      0.006188
      5.22291      5.69658     19.73310        -0.002269      0.000065      0.000290
      5.04710      7.59543      7.50000        -1.773756     -0.000131      1.098841
     10.20440      9.49429      7.50000        -1.767208      0.000185      1.093267
      9.42150      9.49429      9.85236        -0.964271     -0.000501     -0.183446
      6.49329      9.49429      8.96963         0.363299     -0.003461     -0.060644
      7.97532      7.59543      8.38273         0.252839     -0.001491     -1.037554
      6.44538      7.59543     11.03093        -0.080577      0.004997      0.352932
      4.26421      7.59543      9.85236        -0.972805     -0.002250     -0.171574
      1.33599      7.59543      8.96963         0.374409      0.009228     -0.067634
      2.81802      9.49429      8.38273         0.263504     -0.005219     -1.040050
[...]
      2.74100      5.69657     14.58021         0.000868      0.000000      0.003765
      2.00618      5.69658     16.97708         0.000861     -0.000001      0.004264
      9.34281      5.69658     16.01751         0.002183     -0.000007     -0.000790
      0.53542      3.79966     15.45598        -0.000544     -0.001984      0.003353
      9.42158      3.78085     18.02154        -0.001092      0.000683      0.003128
      7.17353      3.76393     16.91498        -0.002839      0.007332      0.000957
      4.18823      3.79953     16.04910         0.000040     -0.000188      0.000064
      5.68635      5.69658     15.48285         0.001588     -0.000002      0.000755
      4.26214      5.69658     18.12642        -0.000677      0.000002      0.004442
      3.56964      5.69658     20.50190        -0.004497     -0.000006      0.002882
      0.53879      5.69657     19.77433         0.003450     -0.000010      0.006385
      2.00810      3.80203     19.03983        -0.004837      0.003509      0.002322
      8.68983      3.86796     20.40766         0.003286     -0.001866     -0.001250
      5.72609      3.78009     19.76714         0.001477     -0.003317      0.002331
      7.14452      5.69658     18.86946        -0.005756     -0.000047      0.001579
    total drift:                               -0.008906     -0.000001      0.002303

  FREE ENERGIE OF THE ION-ELECTRON SYSTEM (eV)
  free  energy   TOTEN  =     -1057.53664108 eV

  energy  without entropy=    -1057.53664108  energy(sigma->0) =    -1057.53664108

 d Force = 0.1073959E-03[ 0.635E-04, 0.151E-03]  d Energy = 0.1087747E-03-0.138E-05
 d Force = 0.1058419E+02[ 0.106E+02, 0.106E+02]  d Ewald  = 0.1058419E+02-0.960E-06

 Conjugate gradient step on ions:
 trial-energy change:   -0.000109  1 .order   -0.000107   -0.000151   -0.000063
  (g-gl).g = 0.218E-03      g.g   = 0.246E-03  gl.gl    = 0.491E-03
 g(Force)  = 0.246E-03   g(Stress)= 0.000E+00 ortho     = 0.242E-04
 gamma     =   0.44362
 trial     =   0.58845
 opt step  =   0.95699  (harmonic =   1.01342) maximal distance =0.00110054
 next E    = -1057.536661   (d E  =  -0.00013)

 reached required accuracy - stopping structural energy minimisation