 vasp.6.3.0 20Jan22 (build Apr  1 2022 16:44:48) complex
 executed on        HPECrayEX_GCC date 2023.02.18  05:04:55

 INCAR:
   SYSTEM = MgO-rocksalt
   ISMEAR = 0
   SIGMA = 0.05
   EDIFF = 1E-7
   ALGO = ALL
   ISTART = 0
   IBRION = 2
   NSW = 1000
   ISYM = 0
   ISIF = 2
   EDIFFG = -0.01
   DIPOL = 0.5 0.5 0.5
   IDIPOL = 3
   LDIPOL = .TRUE.
   GGA = MK
   LUSE_VDW = .TRUE.
   PARAM1 = 0.1234
   PARAM2 = 0.711357
   ZAB_VDW = -1.8867
   AGGAC = 0.0
   ENCUT = 520
   PREC = Accurate
   LASPH = .TRUE.
   LREAL = Auto
   ISPIN = 1
   NELM = 200
   NELMIN = 8
   NCORE = 8
   KPAR = 1
   LWAVE = .FALSE.
   LCHARG = .FALSE.

 POTCAR:    PAW_PBE C 08Apr2002
 POTCAR:    PAW_PBE H 15Jun2001
 POTCAR:    PAW_PBE Mg 13Apr2007
 POTCAR:    PAW_PBE O 08Apr2002
|               ----> ADVICE to this user running VASP <----                  |
|     You have switched on vdW-DFT.                                           |
|     This routine was written and supplied by Jiri Klimes. We recommend      |
|     that you carefully read and cite the following publications:            |
|       J. Klimes, D.R. Bowler, A. Michelides                                 |
|          J. Phys.: Cond Matt. 22 022201 (2010)                              |
|       J. Klimes, D.R. Bowler, A. Michelides                                 |
|          Phys. Rev. B. 83, 195131 (2011)                                    |
|     and references therein.                                                 |

   TITEL  = PAW_PBE C 08Apr2002
   POMASS =   12.011; ZVAL   =    4.000    mass and valenz
   ENMAX  =  400.000; ENMIN  =  300.000 eV

   TITEL  = PAW_PBE H 15Jun2001
   POMASS =    1.000; ZVAL   =    1.000    mass and valenz
   ENMAX  =  250.000; ENMIN  =  200.000 eV

[...]

   TITEL  = PAW_PBE O 08Apr2002
   POMASS =   16.000; ZVAL   =    6.000    mass and valenz
   ENMAX  =  400.000; ENMIN  =  300.000 eV

 Optimization of the real space projectors (new method)

 maximal supplied QI-value         = 25.13
 optimisation between [QCUT,QGAM] = [ 11.56, 23.12] = [ 37.43,149.72] Ry
 Optimized for a Real-space Cutoff    1.04 Angstroem

   l    n(q)    QCUT    max X(q) W(low)/X(q) W(high)/X(q)  e(spline)
   0      7    11.561   115.676    0.20E-03    0.60E-03    0.21E-06
   0      7    11.561    87.132    0.20E-03    0.59E-03    0.21E-06
   1      7    11.561     4.429    0.23E-03    0.35E-03    0.15E-06
   1      7    11.561     2.733    0.18E-03    0.25E-03    0.12E-06
 Optimization of the real space projectors (new method)

[...]

   l    n(q)    QCUT    max X(q) W(low)/X(q) W(high)/X(q)  e(spline)
   0      9    11.527    28.265    0.62E-04    0.53E-04    0.73E-07
   0      9    11.527    10.429    0.52E-04    0.40E-04    0.58E-07
   1      8    11.527    13.073    0.98E-04    0.18E-03    0.86E-07
   1      8    11.527     9.625    0.79E-04    0.15E-03    0.74E-07
   2      8    11.527     4.652    0.22E-03    0.72E-04    0.47E-07
 Optimization of the real space projectors (new method)

 maximal supplied QI-value         = 24.76
 optimisation between [QCUT,QGAM] = [ 11.64, 23.27] = [ 37.91,151.63] Ry
 Optimized for a Real-space Cutoff    1.14 Angstroem

   l    n(q)    QCUT    max X(q) W(low)/X(q) W(high)/X(q)  e(spline)
   0      8    11.635    20.381    0.10E-03    0.33E-03    0.24E-06
   0      8    11.635    15.268    0.11E-03    0.35E-03    0.26E-06
   1      7    11.635     5.964    0.24E-03    0.31E-03    0.30E-06
   1      7    11.635     5.382    0.22E-03    0.25E-03    0.26E-06
|               ----> ADVICE to this user running VASP <----                  |
|     You enforced a specific xc type in the INCAR file but a different       |
|     type was found in the POTCAR file.                                      |
|     I HOPE YOU KNOW WHAT YOU ARE DOING!                                     |

  PAW_PBE C 08Apr2002                   :
  PAW_PBE H 15Jun2001                   :
  PAW_PBE Mg 13Apr2007                  :
  PAW_PBE O 08Apr2002                   :

 POSCAR:  C  H Mg  O
  positions in direct lattice
 exchange correlation table for  LEXCH =       43
   RHO(1)=    0.500       N(1)  =     2000
   RHO(2)=  100.500       N(2)  =     4000

 ion  position               nearest neighbor table
   1  0.480  0.471  0.789-   7 1.09   2 1.40   6 1.40
   2  0.562  0.461  0.788-   8 1.09   1 1.40   3 1.40
   3  0.595  0.384  0.789-   9 1.09   4 1.40   2 1.40
   4  0.545  0.318  0.793-  10 1.09   3 1.40   5 1.40
   5  0.462  0.328  0.794-  11 1.09   6 1.40   4 1.40
   6  0.430  0.404  0.792-  12 1.09   5 1.40   1 1.40
   7  0.454  0.530  0.788-   1 1.09
   8  0.601  0.512  0.785-   2 1.09
   9  0.659  0.376  0.788-   3 1.09
  10  0.570  0.259  0.793-   4 1.09
  11  0.424  0.277  0.796-   5 1.09
  12  0.366  0.412  0.793-   6 1.09
  13  0.125  0.000  0.352- 141 2.11 143 2.11 144 2.11 160 2.11 183 2.11  16 2.98  32 2.98  55 2.98
                            15 2.98  54 2.98  30 2.98  70 2.98  14 2.98
  14  0.250  0.125  0.352- 142 2.11 143 2.11 144 2.11 152 2.11 159 2.11  16 2.98  24 2.98  31 2.98
                            15 2.98  29 2.98  21 2.98  37 2.98  13 2.98
  15  0.125  0.125  0.451- 143 2.11 142 2.11 141 2.11 149 2.11 158 2.11 147 2.12  21 2.98  30 2.98
                            13 2.98  14 2.98  32 2.98  40 2.98  24 2.98  16 2.98  34 2.99  25 2.99
  16  0.250  0.000  0.451- 144 2.11 142 2.11 141 2.11 157 2.11 182 2.11 148 2.12  29 2.98  54 2.98
                            13 2.98  14 2.98  55 2.98  71 2.98  31 2.98  15 2.98  58 2.99  33 2.99
  17  0.125  0.000  0.550- 147 2.11 148 2.11 164 2.11 187 2.11 141 2.12 145 2.14  36 2.98  59 2.98
                            19 2.98  20 2.98  34 2.98  74 2.98  18 2.98  58 2.98  16 2.99  15 2.99
  18  0.250  0.125  0.550- 147 2.11 148 2.11 156 2.11 163 2.11 142 2.12 146 2.14  28 2.98  35 2.98
                            19 2.98  20 2.98  25 2.98  41 2.98  17 2.98  33 2.98  16 2.99  15 2.99
  19  0.125  0.125  0.648- 147 2.10 146 2.11 145 2.11 153 2.11 162 2.11  18 2.98  25 2.98  34 2.98
                            17 2.98  20 2.98  36 2.98  44 2.98  28 2.98
  20  0.250  0.000  0.648- 148 2.10 146 2.11 145 2.11 161 2.11 186 2.11  18 2.98  33 2.98  58 2.98
                            17 2.98  19 2.98  59 2.98  75 2.98  35 2.98
  21  0.125  0.250  0.352- 149 2.11 143 2.11 151 2.11 152 2.11 168 2.11  23 2.98  24 2.98  40 2.98
                            15 2.98  30 2.98  38 2.98  14 2.98  22 2.98
  22  0.250  0.375  0.352- 150 2.11 151 2.11 152 2.11 167 2.11 176 2.11  24 2.98  39 2.98  48 2.98
                            23 2.98  45 2.98  37 2.98  61 2.98  21 2.98
  23  0.125  0.375  0.451- 151 2.11 150 2.11 149 2.11 166 2.11 173 2.11 155 2.12  38 2.98  45 2.98
                            21 2.98  22 2.98  48 2.98  64 2.98  40 2.98  24 2.98  49 2.99  42 2.99
  24  0.250  0.250  0.451- 152 2.11 149 2.11 150 2.11 142 2.11 165 2.11 156 2.12  22 2.98  37 2.98
                            14 2.98  21 2.98  15 2.98  39 2.98  23 2.98  31 2.98  26 2.99  41 2.99
  25  0.125  0.250  0.550- 147 2.11 155 2.11 156 2.11 172 2.11 149 2.12 153 2.14  28 2.98  44 2.98
                            19 2.98  27 2.98  42 2.98  18 2.98  26 2.98  34 2.98  23 2.99  24 2.99
  26  0.250  0.375  0.550- 155 2.11 156 2.11 171 2.11 180 2.11 150 2.12 154 2.14  43 2.98  52 2.98
                            27 2.98  28 2.98  41 2.98  65 2.98  25 2.98  49 2.98  24 2.99  23 2.99
  27  0.125  0.375  0.648- 155 2.10 154 2.11 153 2.11 170 2.11 177 2.11  26 2.98  42 2.98  49 2.98
                            25 2.98  28 2.98  52 2.98  68 2.98  44 2.98
  28  0.250  0.250  0.648- 156 2.10 153 2.11 154 2.11 146 2.11 169 2.11  25 2.98  26 2.98  41 2.98
                            18 2.98  35 2.98  19 2.98  43 2.98  27 2.98
  29  0.375  0.000  0.352- 157 2.11 144 2.11 159 2.11 199 2.11 224 2.11  31 2.98  71 2.98  96 2.98
                            16 2.98  94 2.98  54 2.98 134 2.98  14 2.98
  30  0.000  0.125  0.352- 158 2.11 143 2.11 160 2.11 168 2.11 223 2.11  32 2.98  40 2.98  95 2.98
                            15 2.98  93 2.98  13 2.98 101 2.98  21 2.98
  31  0.375  0.125  0.451- 159 2.11 157 2.11 142 2.11 165 2.11 222 2.11 163 2.12  37 2.98  94 2.98
                            14 2.98  29 2.98  96 2.98 104 2.98  24 2.98  16 2.98  98 2.99  41 2.99
  32  0.000  0.000  0.451- 160 2.11 158 2.11 141 2.11 198 2.11 221 2.11 164 2.12  70 2.98  93 2.98
                            13 2.98  30 2.98  95 2.98 135 2.98  15 2.98  55 2.98  97 2.99  74 2.99
  33  0.375  0.000  0.550- 148 2.11 163 2.11 203 2.11 228 2.11 157 2.12 161 2.14  75 2.98 100 2.98
                            20 2.98  35 2.98  58 2.98 138 2.98  18 2.98  98 2.98  71 2.99  16 2.99
  34  0.000  0.125  0.550- 147 2.11 164 2.11 172 2.11 227 2.11 158 2.12 162 2.14  44 2.98  99 2.98
                            19 2.98  36 2.98  17 2.98 105 2.98  25 2.98  97 2.98  40 2.99  32 2.99
  35  0.375  0.125  0.648- 163 2.10 161 2.11 146 2.11 169 2.11 226 2.11  33 2.98  41 2.98  98 2.98
                            18 2.98  20 2.98 100 2.98 108 2.98  28 2.98
  36  0.000  0.000  0.648- 164 2.10 162 2.11 145 2.11 202 2.11 225 2.11  34 2.98  74 2.98  97 2.98
                            17 2.98  59 2.98  99 2.98 139 2.98  19 2.98
  37  0.375  0.250  0.352- 165 2.11 159 2.11 152 2.11 167 2.11 232 2.11  31 2.98  39 2.98 104 2.98
                            24 2.98  94 2.98 102 2.98  22 2.98  14 2.98
  38  0.000  0.375  0.352- 166 2.11 151 2.11 168 2.11 192 2.11 231 2.11  40 2.98  64 2.98 103 2.98
                            23 2.98 101 2.98  45 2.98 125 2.98  21 2.98
  39  0.375  0.375  0.451- 167 2.11 165 2.11 150 2.11 189 2.11 230 2.11 171 2.12  61 2.98 102 2.98
                            22 2.98  37 2.98 104 2.98 128 2.98  24 2.98  48 2.98 106 2.99  65 2.99
  40  0.000  0.250  0.451- 168 2.11 158 2.11 166 2.11 149 2.11 229 2.11 172 2.12  38 2.98 101 2.98
                            21 2.98  30 2.98  15 2.98 103 2.98  23 2.98  95 2.98  42 2.99 105 2.99
  41  0.375  0.250  0.550- 156 2.11 163 2.11 171 2.11 236 2.11 165 2.12 169 2.14  43 2.98 108 2.98
                            28 2.98  35 2.98 106 2.98  26 2.98  18 2.98  98 2.98  39 2.99  31 2.99
  42  0.000  0.375  0.550- 155 2.11 172 2.11 196 2.11 235 2.11 166 2.12 170 2.14  68 2.98 107 2.98
                            27 2.98  44 2.98  49 2.98 129 2.98  25 2.98 105 2.98  64 2.99  23 2.99
  43  0.375  0.375  0.648- 171 2.10 169 2.11 154 2.11 193 2.11 234 2.11  41 2.98  65 2.98 106 2.98
                            26 2.98  52 2.98 108 2.98 132 2.98  28 2.98
  44  0.000  0.250  0.648- 172 2.10 162 2.11 170 2.11 153 2.11 233 2.11  34 2.98  42 2.98 105 2.98
                            25 2.98  99 2.98  19 2.98 107 2.98  27 2.98
  45  0.125  0.500  0.352- 173 2.11 151 2.11 175 2.11 176 2.11 192 2.11  47 2.98  48 2.98  64 2.98
                            23 2.98  38 2.98  62 2.98  46 2.98  22 2.98
  46  0.250  0.625  0.352- 174 2.11 175 2.11 176 2.11 184 2.11 191 2.11  48 2.98  56 2.98  63 2.98
                            47 2.98  61 2.98  53 2.98  69 2.98  45 2.98
  47  0.125  0.625  0.451- 175 2.11 174 2.11 173 2.11 181 2.11 190 2.11 179 2.12  53 2.98  62 2.98
[...]
   2.11014557 14.77101896 13.82955363
   4.22029113 12.66087339 13.82955363
[...]
   8.44058226 10.55072783  9.61014557
  14.77101896 10.55072783  7.50000000
   8.44058226  8.44058226  7.50000000
  14.77101896  8.44058226 13.86857013
   8.44058226 10.55072783 13.86857013
  14.77101896 10.55072783 11.72549760
   8.44058226  8.44058226 11.72549760
  14.77101896 12.66087339  9.61014557
   8.44058226 14.77101896  9.61014557
  14.77101896 14.77101896  7.50000000
   8.44058226 12.66087339  7.50000000
  14.77101896 12.66087339 13.86857013
   8.44058226 14.77101896 13.86857013
  14.77101896 14.77101896 11.72549760
   8.44058226 12.66087339 11.72549760

--------------------------------------- Iteration      FINAL  ---------------------------------------

--------------------OUTCAR has been truncated-------------------------

[...]

--------------------OUTCAR has been truncated-------------------------

  FORCE on cell =-STRESS in cart. coord.  units (eV):
  Direction    XX          YY          ZZ          XY          YZ          ZX
  Alpha Z  1037.34551  1037.34551  1037.34551
  Ewald  203743.62089203741.03742************    -0.89689   -56.29291   -36.14282
  Hartree218600.58553218599.03041************    -0.30938   -32.90088   -21.16405
  E(xc)   -4768.78875 -4768.80290 -4753.23184    -0.00478    -0.12080    -0.07890
  Local  ************************424930.57186     1.06704    87.03641    55.94824
  n-local -2437.80819 -2437.82250 -2511.99053    -0.00321     0.18674     0.11984
  augment   882.78363   882.78485   890.73817     0.00028     0.00968     0.00600
  Kinetic 18385.69159 18385.94546 18616.93679     0.12992     2.04152     1.29007
  Fock        0.00000     0.00000     0.00000     0.00000     0.00000     0.00000
  Total    -116.71538  -116.68078    -0.23442    -0.01703    -0.04024    -0.02163
  in kB     -30.76338   -30.75426    -0.06179    -0.00449    -0.01061    -0.00570

 VOLUME and BASIS-vectors are now :
  energy-cutoff  :      520.00
  volume of cell :     6078.61
      direct lattice vectors                 reciprocal lattice vectors
    16.881164524  0.000000000  0.000000000     0.059237619  0.000000000  0.000000000
     0.000000000 16.881164524  0.000000000     0.000000000  0.059237619  0.000000000
     0.000000000  0.000000000 21.330436697     0.000000000  0.000000000  0.046881366

  length of vectors
    16.881164524 16.881164524 21.330436697     0.059237619  0.059237619  0.046881366

 FORCES acting on ions:
    Electron-Ion                     Ewald-Force                    Non-Local-Force
   0.688E+02 -.163E+03 -.525E+03   -.692E+02 0.164E+03 0.525E+03   0.453E+00 -.852E+00 -.121E+00
   -.106E+03 -.141E+03 -.525E+03   0.107E+03 0.142E+03 0.525E+03   -.711E+00 -.861E+00 -.116E+00
   -.176E+03 0.218E+02 -.524E+03   0.177E+03 -.220E+02 0.524E+03   -.846E+00 0.137E+00 -.754E-01
   -.686E+02 0.163E+03 -.526E+03   0.690E+02 -.164E+03 0.526E+03   -.391E+00 0.855E+00 -.115E+00
   0.106E+03 0.141E+03 -.526E+03   -.107E+03 -.142E+03 0.527E+03   0.616E+00 0.779E+00 -.159E+00
   0.176E+03 -.219E+02 -.525E+03   -.177E+03 0.220E+02 0.525E+03   0.821E+00 -.113E+00 -.614E-01
   0.307E+02 -.727E+02 -.131E+03   -.330E+02 0.780E+02 0.131E+03   0.227E+01 -.533E+01 0.143E+00
   -.476E+02 -.630E+02 -.131E+03   0.512E+02 0.677E+02 0.131E+03   -.353E+01 -.463E+01 0.315E+00
   -.782E+02 0.976E+01 -.131E+03   0.839E+02 -.105E+02 0.131E+03   -.573E+01 0.715E+00 0.865E-01
   -.308E+02 0.727E+02 -.132E+03   0.331E+02 -.780E+02 0.132E+03   -.229E+01 0.532E+01 -.134E+00
   0.476E+02 0.629E+02 -.132E+03   -.511E+02 -.675E+02 0.132E+03   0.351E+01 0.462E+01 -.256E+00
   0.783E+02 -.979E+01 -.131E+03   -.840E+02 0.105E+02 0.132E+03   0.573E+01 -.738E+00 -.131E+00
   0.744E+00 0.716E+00 0.303E+03   -.743E+00 -.715E+00 -.301E+03   -.112E-03 -.307E-03 -.232E+01
   0.139E+01 0.139E+01 0.304E+03   -.138E+01 -.139E+01 -.301E+03   -.982E-03 -.935E-03 -.232E+01
   0.142E+01 0.168E+01 0.102E+03   -.142E+01 -.168E+01 -.102E+03   0.198E-04 0.105E-03 0.140E+00
   0.167E+01 0.137E+01 0.102E+03   -.167E+01 -.137E+01 -.102E+03   -.409E-03 -.349E-03 0.142E+00
   0.178E+01 0.171E+01 -.944E+02   -.177E+01 -.171E+01 0.945E+02   -.176E-02 -.903E-03 -.705E-01
   0.436E+01 0.440E+01 -.910E+02   -.435E+01 -.440E+01 0.910E+02   -.914E-02 -.852E-02 -.632E-01
   0.443E+01 0.456E+01 -.293E+03   -.443E+01 -.455E+01 0.291E+03   -.630E-02 -.339E-02 0.232E+01
   0.448E+01 0.431E+01 -.293E+03   -.448E+01 -.431E+01 0.291E+03   -.132E-02 -.381E-02 0.232E+01
   0.108E+01 0.891E+00 0.303E+03   -.108E+01 -.889E+00 -.301E+03   -.841E-03 -.461E-03 -.232E+01
   0.183E+01 0.136E+00 0.304E+03   -.182E+01 -.136E+00 -.302E+03   -.124E-02 -.148E-03 -.232E+01
   0.206E+01 0.171E+00 0.103E+03   -.205E+01 -.171E+00 -.103E+03   -.205E-02 -.582E-03 0.147E+00
   0.297E+01 0.187E+01 0.104E+03   -.296E+01 -.187E+01 -.105E+03   -.159E-02 -.126E-02 0.148E+00
   0.369E+01 0.237E+01 -.917E+02   -.368E+01 -.236E+01 0.918E+02   -.115E-01 -.496E-02 -.675E-01
   0.798E+01 0.534E+00 -.863E+02   -.793E+01 -.533E+00 0.863E+02   -.701E-01 -.118E-02 -.286E-01
   0.837E+01 0.514E+00 -.290E+03   -.836E+01 -.514E+00 0.288E+03   -.713E-02 0.632E-03 0.232E+01
   0.142E+02 0.815E+01 -.284E+03   -.142E+02 -.814E+01 0.282E+03   -.347E-01 -.150E-01 0.232E+01
   0.860E+00 0.104E+01 0.303E+03   -.858E+00 -.104E+01 -.301E+03   -.649E-03 -.857E-03 -.232E+01
   -.797E-01 0.105E+01 0.303E+03   0.795E-01 -.104E+01 -.301E+03   0.523E-04 -.175E-03 -.232E+01
   0.180E+01 0.297E+01 0.104E+03   -.179E+01 -.296E+01 -.105E+03   -.172E-02 -.977E-03 0.143E+00
   -.989E-01 0.929E+00 0.101E+03   0.988E-01 -.928E+00 -.101E+03   0.870E-05 -.149E-03 0.150E+00
   0.225E+01 0.356E+01 -.918E+02   -.225E+01 -.355E+01 0.918E+02   -.265E-02 -.108E-01 -.651E-01
   -.229E+00 0.237E+01 -.939E+02   0.229E+00 -.237E+01 0.940E+02   0.554E-03 -.837E-03 -.705E-01
   0.768E+01 0.142E+02 -.284E+03   -.767E+01 -.142E+02 0.282E+03   -.126E-01 -.346E-01 0.232E+01
   -.231E+00 0.212E+01 -.295E+03   0.231E+00 -.212E+01 0.293E+03   0.415E-03 0.139E-02 0.233E+01
   0.130E+01 0.134E+01 0.305E+03   -.130E+01 -.134E+01 -.302E+03   -.103E-02 -.101E-02 -.232E+01
   -.103E+00 0.992E-01 0.303E+03   0.103E+00 -.989E-01 -.301E+03   0.107E-03 -.268E-03 -.232E+01
   0.269E+01 0.317E+00 0.108E+03   -.270E+01 -.316E+00 -.108E+03   0.118E-02 -.484E-03 0.113E+00
   -.164E+00 0.117E+01 0.102E+03   0.164E+00 -.117E+01 -.102E+03   0.258E-03 -.157E-03 0.143E+00
   0.588E+01 0.613E+01 -.823E+02   -.586E+01 -.610E+01 0.824E+02   -.288E-01 -.339E-01 -.628E-01
   -.363E+00 0.229E+00 -.923E+02   0.363E+00 -.231E+00 0.924E+02   0.702E-03 0.294E-02 -.698E-01
   0.221E+02 0.266E+01 -.257E+03   -.219E+02 -.266E+01 0.256E+03   -.142E+00 -.881E-02 0.230E+01
   -.543E+00 0.294E+01 -.292E+03   0.544E+00 -.294E+01 0.291E+03   -.116E-02 0.111E-03 0.232E+01
   0.112E+01 -.739E+00 0.304E+03   -.112E+01 0.738E+00 -.301E+03   -.697E-03 0.385E-03 -.232E+01
   0.146E+01 -.140E+01 0.304E+03   -.145E+01 0.140E+01 -.302E+03   -.109E-02 0.107E-02 -.232E+01
   0.153E+01 -.170E+01 0.102E+03   -.153E+01 0.169E+01 -.102E+03   -.183E-03 0.799E-03 0.140E+00
   0.310E+01 -.156E+01 0.105E+03   -.309E+01 0.155E+01 -.105E+03   -.123E-02 0.970E-03 0.140E+00
   0.395E+01 -.196E+01 -.914E+02   -.393E+01 0.196E+01 0.915E+02   -.165E-01 0.358E-02 -.626E-01
   0.487E+01 -.455E+01 -.902E+02   -.487E+01 0.455E+01 0.903E+02   -.815E-02 0.881E-02 -.563E-01
   0.501E+01 -.467E+01 -.292E+03   -.500E+01 0.467E+01 0.290E+03   -.716E-02 0.795E-03 0.232E+01
   0.158E+02 -.710E+01 -.282E+03   -.158E+02 0.709E+01 0.280E+03   -.536E-01 0.127E-01 0.232E+01
   0.774E+00 -.867E+00 0.303E+03   -.773E+00 0.866E+00 -.301E+03   -.301E-03 0.404E-03 -.232E+01
   0.105E+01 -.128E+00 0.303E+03   -.105E+01 0.127E+00 -.301E+03   -.402E-03 0.238E-04 -.232E+01
   0.979E+00 -.162E+00 0.101E+03   -.978E+00 0.162E+00 -.101E+03   0.311E-03 -.450E-03 0.139E+00
   0.179E+01 -.169E+01 0.102E+03   -.178E+01 0.169E+01 -.102E+03   -.467E-03 0.671E-03 0.141E+00
   0.193E+01 -.210E+01 -.942E+02   -.193E+01 0.210E+01 0.942E+02   -.731E-03 0.934E-03 -.714E-01
   0.238E+01 -.372E+00 -.938E+02   -.238E+01 0.372E+00 0.939E+02   0.108E-02 0.245E-04 -.711E-01
   0.222E+01 -.373E+00 -.295E+03   -.222E+01 0.373E+00 0.293E+03   0.128E-02 0.486E-03 0.232E+01
   0.509E+01 -.543E+01 -.292E+03   -.509E+01 0.542E+01 0.290E+03   -.178E-02 0.785E-02 0.232E+01
[...]
   -.321E+01 -.350E+01 0.877E+03   0.321E+01 0.350E+01 -.881E+03   0.967E-02 0.259E-02 0.352E+01
   0.324E+00 -.364E+01 0.882E+03   -.323E+00 0.363E+01 -.886E+03   -.792E-03 0.584E-02 0.350E+01
   -.264E+02 -.113E+02 -.846E+03   0.263E+02 0.113E+02 0.851E+03   0.210E-01 0.459E-02 -.494E+01
   0.259E+01 -.623E+02 -.807E+03   -.259E+01 0.621E+02 0.812E+03   0.204E-02 0.169E+00 -.490E+01
   -.980E+01 -.923E+01 -.275E+03   0.979E+01 0.922E+01 0.275E+03   0.854E-02 0.100E-01 0.278E+00
   0.175E+01 -.190E+02 -.228E+03   -.174E+01 0.189E+02 0.228E+03   -.102E-01 0.136E+00 0.446E-02
   -.392E+01 -.397E+01 0.305E+03   0.392E+01 0.397E+01 -.305E+03   0.618E-02 0.307E-02 -.335E-01
   0.297E+00 -.894E+00 0.308E+03   -.296E+00 0.892E+00 -.308E+03   -.159E-02 0.166E-02 -.238E-01
   -.234E+01 -.325E+00 0.876E+03   0.234E+01 0.325E+00 -.879E+03   0.624E-02 0.397E-02 0.352E+01
   0.220E+00 -.411E+01 0.878E+03   -.220E+00 0.410E+01 -.882E+03   -.398E-03 0.144E-01 0.351E+01
   -.103E+02 -.105E+02 -.858E+03   0.103E+02 0.105E+02 0.863E+03   0.572E-02 0.112E-01 -.494E+01
   0.687E+00 -.321E+01 -.853E+03   -.687E+00 0.321E+01 0.858E+03   0.689E-03 0.333E-03 -.494E+01
   -.521E+01 -.816E+00 -.281E+03   0.521E+01 0.814E+00 0.281E+03   0.502E-02 0.240E-02 0.276E+00
   0.664E+00 -.152E+02 -.268E+03   -.663E+00 0.151E+02 0.268E+03   -.177E-02 0.417E-01 0.293E+00
   0.146E-01 -.383E-01 0.373E+02   -.838E-12 0.220E-12 -.909E-12   -.155E-01 0.602E-01 -.374E+02

 POSITION                                       TOTAL-FORCE (eV/Angst)
      8.04609      7.85352     16.98310        -0.000962     -0.002699     -0.000283
      9.43263      7.68100     16.95706        -0.005159      0.000198      0.001180
      9.97700      6.39328     16.99114        -0.002857     -0.004551      0.000160
      9.13491      5.28014     17.05896         0.000936     -0.004416     -0.004333
      7.74741      5.45228     17.08967        -0.002309     -0.000238      0.001263
      7.20371      6.73892     17.04770         0.005231     -0.002301     -0.002402
      7.61891      8.85924     16.95558        -0.001637      0.003439      0.001236
     10.09195      8.54959     16.90356         0.003501      0.006205     -0.003607
     11.06239      6.25806     16.97139         0.000734     -0.001213      0.000221
      9.56376      4.27509     17.08546        -0.003717      0.002019      0.000949
      7.08818      4.58238     17.14033         0.000191     -0.000566     -0.003396
      6.11907      6.87651     17.06977        -0.002866     -0.000523      0.001191
      2.11015      0.00000      7.50000         0.000895      0.000652      0.357957
      4.22029      2.11015      7.50000         0.002410      0.002476      0.359045
      2.11015      2.11015      9.61015         0.002186      0.001614      0.014179
      4.22029      0.00000      9.61015         0.001109      0.001458      0.015599
      2.11005     -0.00005     11.72691         0.000940      0.000797     -0.000929
      4.22066      2.11056     11.72678         0.000187     -0.000143     -0.000451
      2.11043      2.11017     13.82000         0.000071      0.001085     -0.000493
      4.22041     -0.00003     13.81991         0.001303      0.000745     -0.000179
      2.11015      4.22029      7.50000         0.002378      0.001308      0.358900
      4.22029      6.33044      7.50000         0.003585      0.000072      0.362629
      2.11015      6.33044      9.61015         0.009155     -0.001088      0.016026
      4.22029      4.22029      9.61015         0.008543      0.006053      0.019089
      2.11065      4.22039     11.72680        -0.000311     -0.000127      0.000048
      4.22270      6.33038     11.72732        -0.000169      0.000246      0.000406
      2.11060      6.33010     13.82033         0.000834      0.000682      0.000567
      4.22177      4.22117     13.81881         0.000477      0.000200      0.000180
      6.33044      0.00000      7.50000         0.001134      0.002025      0.358086
      0.00000      2.11015      7.50000        -0.000119      0.001039      0.357931
      6.33044      2.11015      9.61015         0.004876      0.009097      0.017192
      0.00000      0.00000      9.61015        -0.000057      0.000244      0.016523
      6.33063      0.00026     11.72673         0.000027      0.000146      0.000063
     -0.00005      2.10999     11.72686         0.000297      0.000375     -0.000470
      6.33131      2.11132     13.81833         0.000676      0.000636      0.000143
      0.00000     -0.00031     13.82040        -0.000049      0.001374     -0.000748
      6.33044      4.22029      7.50000         0.002233      0.002413      0.362875
      0.00000      6.33044      7.50000        -0.000227     -0.000019      0.357108
      6.33044      6.33044      9.61015        -0.003324     -0.000116      0.021898
      0.00000      4.22029      9.61015        -0.000082     -0.000127      0.015032
      6.33214      4.22223     11.72757         0.000511      0.000453     -0.000236
     -0.00015      6.33014     11.72712         0.000324      0.000720      0.000326
      6.34002      6.33159     13.82563        -0.000066      0.000226     -0.000371
     -0.00012      4.22001     13.81989        -0.000058      0.000766     -0.000008
      2.11015      8.44058      7.50000         0.002459     -0.001293      0.358132
      4.22029     10.55073      7.50000         0.002724     -0.002491      0.359065
      2.11015     10.55073      9.61015         0.001744     -0.001025      0.013545
      4.22029      8.44058      9.61015         0.008829     -0.006282      0.018880
      2.11028      8.44006     11.72646        -0.000096      0.000643      0.000679
      4.22038     10.55036     11.72620        -0.000197     -0.000601     -0.000166
      2.11009     10.55041     13.81984         0.000344     -0.000809     -0.000411
      4.22144      8.43998     13.81696         0.000245      0.000249     -0.000004
      2.11015     12.66087      7.50000         0.001006     -0.001071      0.358777
      4.22029     14.77102      7.50000         0.001006     -0.000451      0.358753
      2.11015     14.77102      9.61015         0.001123     -0.000958      0.013541
      4.22029     12.66087      9.61015         0.001207     -0.001744      0.014421
      2.11013     12.66074     11.72680         0.000172     -0.000912     -0.001423
      4.22020     14.77089     11.72676         0.001217      0.000170     -0.000983
      2.11010     14.77080     13.82008         0.001461     -0.000241     -0.001055
      4.22016     12.66056     13.81959         0.001025     -0.000334      0.000484
[...]
      8.44058     10.55073      9.61015        -0.001495      0.014698      0.028546
     14.77102     10.55073      7.50000         0.005047     -0.001744     -0.410153
      8.44058      8.44058      7.50000        -0.000219      0.001526     -0.418251
     14.77046      8.44038     13.86220         0.000070      0.000342     -0.000419
      8.44043     10.55010     13.86904         0.000032      0.000484     -0.000145
     14.77121     10.55070     11.72069        -0.000226      0.000454      0.000520
      8.44018      8.44495     11.71978         0.000351      0.000378     -0.000472
     14.77102     12.66087      9.61015         0.003309      0.000810      0.038874
      8.44058     14.77102      9.61015        -0.000402     -0.000655      0.042647
     14.77102     14.77102      7.50000         0.004095      0.003382     -0.410063
      8.44058     12.66087      7.50000        -0.000107      0.003967     -0.412192
     14.77110     12.66087     13.86137         0.001068      0.000796      0.000053
      8.44035     14.77031     13.86224         0.000570      0.000397     -0.000023
     14.77110     14.77091     11.72064         0.001116      0.000442      0.000435
      8.44039     12.66032     11.72166        -0.000610     -0.000202     -0.000149
    total drift:                               -0.000958      0.021949     -0.025043

  FREE ENERGIE OF THE ION-ELECTRON SYSTEM (eV)
  free  energy   TOTEN  =     -1256.24960018 eV

  energy  without entropy=    -1256.24960018  energy(sigma->0) =    -1256.24960018

 d Force = 0.4766209E-05[ 0.456E-06, 0.908E-05]  d Energy = 0.5023707E-05-0.257E-06
 d Force =-0.5061504E+00[-0.506E+00,-0.506E+00]  d Ewald  =-0.5061503E+00-0.109E-06

 reached required accuracy - stopping structural energy minimisation