 vasp.6.4.2 20Jul23 (build Feb 22 2024 13:53:45) complex
 executed on              LinuxNV date 2024.08.27  20:28:32
 OpenACC runtime initialized ...    4 GPUs detected

 INCAR:
   SYSTEM = Oxide-Surface
   ISMEAR = 0
   SIGMA = 0.05
   EDIFF = 1E-5
   ALGO = Normal
   IBRION = -1
   NSW = 0
   ISYM = 0
   DIPOL = 0.5 0.5 0.5
   IDIPOL = 3
   LDIPOL = .TRUE.
   ISTART = 0
   LHFCALC = .FALSE.
   GGA = PE
   IVDW = 21
   VDW_SR = 0.96
   HFRCUT = -1
   ENCUT = 1000
   PREC = Normal
   PRECFOCK = Normal
   LASPH = .TRUE.
   LREAL = Auto
   ISPIN = 1
   NELM = 200
   NELMIN = 8
   NCORE = 1
   KPAR = 1
   LWAVE = .FALSE.
   LCHARG = .FALSE.

 POTCAR:    PAW_PBE Mg_sv 12Apr2007
 POTCAR:    PAW_PBE O_h 06Feb2004
 POTCAR:    PAW_PBE Mg_sv 12Apr2007
   VRHFIN =Mg: p6s2

   TITEL  = PAW_PBE Mg_sv 12Apr2007
   POMASS =   24.305; ZVAL   =   10.000    mass and valenz
   ENMAX  =  495.223; ENMIN  =  371.417 eV

   TITEL  = PAW_PBE O_h 06Feb2004
   POMASS =   16.000; ZVAL   =    6.000    mass and valenz
   ENMAX  =  700.000; ENMIN  =  500.000 eV

 Optimization of the real space projectors (new method)

 maximal supplied QI-value         = 22.11
 optimisation between [QCUT,QGAM] = [ 16.14, 32.28] = [ 72.95,291.79] Ry
 Optimized for a Real-space Cutoff    0.98 Angstroem

   l    n(q)    QCUT    max X(q) W(low)/X(q) W(high)/X(q)  e(spline)
   0      9    16.140     8.730    0.14E-04    0.12E-04    0.27E-07
   0      9    16.140     8.910    0.19E-04    0.17E-04    0.41E-07
   1      9    16.140     2.513    0.16E-04    0.28E-04    0.54E-07
   1      9    16.140     3.341    0.27E-04    0.13E-03    0.17E-06
   2      9    16.140     3.683    0.18E-03    0.21E-03    0.81E-07
 Optimization of the real space projectors (new method)

 maximal supplied QI-value         = 34.20
 optimisation between [QCUT,QGAM] = [ 16.08, 32.15] = [ 72.37,289.48] Ry
 Optimized for a Real-space Cutoff    0.71 Angstroem

   l    n(q)    QCUT    max X(q) W(low)/X(q) W(high)/X(q)  e(spline)
   0      7    16.076   280.207    0.42E-03    0.69E-03    0.60E-07
   0      7    16.076   228.978    0.42E-03    0.69E-03    0.61E-07
   1      6    16.076    86.127    0.11E-03    0.66E-03    0.10E-06
   1      6    16.076    65.368    0.11E-03    0.65E-03    0.10E-06
  PAW_PBE Mg_sv 12Apr2007               :
  PAW_PBE O_h 06Feb2004                 :

 POSCAR: Mg  O
  positions in direct lattice
 exchange correlation table for  LEXCH =        8
   RHO(1)=    0.500       N(1)  =     2000
   RHO(2)=  100.500       N(2)  =     4000

 ion  position               nearest neighbor table
   1  0.000  0.750  0.224-
   2  0.250  0.000  0.224-
   3  0.000  0.000  0.349-
   4  0.250  0.750  0.349-
   5  1.000  0.750  0.474-
   6  0.250  1.000  0.474-
   7  0.000  0.000  0.597-
   8  0.250  0.750  0.597-
   9  0.000  0.250  0.224-
  10  0.250  0.500  0.224-
  11  0.000  0.500  0.349-
  12  0.250  0.250  0.349-
  13  0.000  0.250  0.474-
  14  0.250  0.500  0.473-
  15  0.000  0.500  0.597-
  16  0.250  0.250  0.598-
  17  0.500  0.750  0.224-
  18  0.750  0.000  0.224-
  19  0.500  0.000  0.349-
  20  0.750  0.750  0.349-
  21  0.500  0.750  0.474-
  22  0.750  1.000  0.474-
  23  0.500  0.000  0.597-
  24  0.751  0.751  0.598-
  25  0.500  0.250  0.224-
  26  0.750  0.500  0.224-
  27  0.500  0.500  0.349-
  28  0.750  0.250  0.349-
  29  0.500  0.250  0.473-
  30  0.750  0.500  0.474-
  31  0.499  0.499  0.597-
  32  0.750  0.250  0.597-
  33  0.000  0.750  0.349-
  34  0.250  0.000  0.349-
  35  0.000  0.000  0.224-
  36  0.250  0.750  0.224-
  37  0.001  0.750  0.600-
  38  0.250  1.000  0.600-
  39  0.000  0.000  0.473-
  40  0.250  0.750  0.473-
  41  0.000  0.250  0.349-
  42  0.250  0.500  0.349-
  43  0.000  0.500  0.224-
  44  0.250  0.250  0.224-
  45  1.000  0.250  0.600-
  46  0.250  0.500  0.600-
  47  1.000  0.500  0.473-
  48  0.250  0.250  0.473-
  49  0.500  0.750  0.349-
  50  0.750  0.000  0.349-
  51  0.500  0.000  0.224-
  52  0.750  0.750  0.224-
  53  0.500  0.750  0.601-
  54  0.750  0.001  0.600-
  55  0.500  1.000  0.473-
  56  0.750  0.750  0.473-
  57  0.500  0.250  0.349-
  58  0.750  0.500  0.349-
  59  0.500  0.500  0.224-
  60  0.750  0.250  0.224-
  61  0.500  0.250  0.600-
  62  0.750  0.500  0.601-
  63  0.500  0.500  0.473-
  64  0.750  0.250  0.473-

IMPORTANT INFORMATION: All symmetrisations will be switched off!
NOSYMM: (Re-)initialisation of all symmetry stuff for point group C_1.

                                     Primitive cell

  volume of cell :    1211.2538

  direct lattice vectors                    reciprocal lattice vectors
     8.440984654  0.000000000  0.000000000     0.118469591  0.000000000  0.000000000
     0.000000000  8.440984654  0.000000000     0.000000000  0.118469591  0.000000000
     0.000000000  0.000000000 17.000000000     0.000000000  0.000000000  0.058823529

  length of vectors
     8.440984654  8.440984654 17.000000000     0.118469591  0.118469591  0.058823529

  position of ions in fractional coordinates (direct lattice)
     0.000013589  0.750000194  0.224440251
     0.250013589  0.000000194  0.224440251
     0.000013589  0.000000194  0.348572378
     0.250013589  0.750000194  0.348572378
     0.999966561  0.750070127  0.473605150
     0.249973769  0.999999806  0.473574844
     0.000085356  0.000081940  0.597372974
     0.249911674  0.749854424  0.597278904
     0.000013589  0.250000194  0.224440251
     0.250013589  0.500000194  0.224440251
     0.000013589  0.500000194  0.348572378
     0.250013589  0.250000194  0.348572378
     0.000017243  0.249980157  0.473578238
     0.249762180  0.499976802  0.473496967
     0.000015781  0.500169160  0.597346508
     0.249951061  0.249969241  0.597528815
     0.500013589  0.750000194  0.224440251
     0.750013589  0.000000194  0.224440251
     0.500013589  0.000000194  0.348572378
     0.750013589  0.750000194  0.348572378
     0.500273599  0.749982319  0.473747038
     0.750103789  0.999951129  0.473603294
     0.500188527  0.000063732  0.597268966
     0.751053112  0.750996103  0.598352833
     0.500013589  0.250000194  0.224440251
     0.750013589  0.500000194  0.224440251
     0.500013589  0.500000194  0.348572378
     0.750013589  0.250000194  0.348572378
     0.499983585  0.249784354  0.473489942
     0.749980441  0.500264035  0.473747642
     0.498953542  0.498986092  0.596951454
     0.749883494  0.249927580  0.597279352
     0.000013589  0.750000194  0.348572378
     0.250013589  0.000000194  0.348572378
     0.000013589  0.000000194  0.224440251
     0.250013589  0.750000194  0.224440251
     0.000512942  0.750094692  0.599721879
     0.250123386  0.999979282  0.600249487
     0.000150473  0.000132421  0.473209985
     0.250249984  0.750027907  0.473193538
     0.000013589  0.250000194  0.348572378
     0.250013589  0.500000194  0.348572378
     0.000013589  0.500000194  0.224440251
     0.250013589  0.250000194  0.224440251
     0.999986411  0.250117343  0.600233718
     0.249734853  0.499887790  0.599784938
     0.999791148  0.499924508  0.473255248
     0.249972411  0.249941824  0.473253190
     0.500013589  0.750000194  0.348572378
     0.750013589  0.000000194  0.348572378
     0.500013589  0.000000194  0.224440251
     0.750013589  0.750000194  0.224440251
     0.499914099  0.749702939  0.600650516
     0.750105757  0.000531742  0.599687753
     0.499934306  0.999831741  0.473236830
     0.749939395  0.749919876  0.473484321
     0.500013589  0.250000194  0.348572378
     0.750013589  0.500000194  0.348572378
     0.500013589  0.500000194  0.224440251
     0.750013589  0.250000194  0.224440251
     0.499875703  0.249746572  0.599863902
     0.749534934  0.499934376  0.600724769
     0.499995259  0.499984022  0.473233981
     0.750019295  0.250251889  0.473198844

  ion indices of the primitive-cell ions
   primitive index   ion index
                 1           1
                 2           2
                 3           3
                 4           4
                 5           5
                 6           6
                 7           7
                 8           8
                 9           9
                10          10
                11          11
                12          12
                13          13
                14          14
                15          15
                16          16
                17          17
                18          18
                19          19
                20          20
                21          21
                22          22
                23          23
                24          24
                25          25
                26          26
                27          27
                28          28
                29          29
                30          30
                31          31
                32          32
                33          33
                34          34
                35          35
                36          36
                37          37
                38          38
                39          39
                40          40
                41          41
                42          42
                43          43
                44          44
                45          45
                46          46
                47          47
                48          48
                49          49
                50          50
                51          51
                52          52
                53          53
                54          54
                55          55
                56          56
                57          57
                58          58
                59          59
                60          60
                61          61
                62          62
                63          63
                64          64

 KPOINTS: pymatgen v2020.8.13 with grid density =

Automatic generation of k-mesh.
 Grid dimensions read from file:
 generate k-points for:    2    2    1

 Generating k-lattice:

  Cartesian coordinates                     Fractional coordinates (reciprocal lattice)
     0.059234796  0.000000000  0.000000000     0.500000000  0.000000000  0.000000000
     0.000000000  0.059234796  0.000000000     0.000000000  0.500000000  0.000000000
     0.000000000  0.000000000  0.058823529     0.000000000  0.000000000  1.000000000

  Length of vectors
     0.059234796  0.059234796  0.058823529

  Shift w.r.t. Gamma in fractional coordinates (k-lattice)
     0.000000000  0.000000000  0.000000000

 Subroutine IBZKPT returns following result:

 Found      4 irreducible k-points:

 Following reciprocal coordinates:
            Coordinates               Weight
  0.000000  0.000000  0.000000      1.000000
  0.500000  0.000000  0.000000      1.000000
  0.000000  0.500000  0.000000      1.000000
  0.500000  0.500000  0.000000      1.000000

 Following cartesian coordinates:
            Coordinates               Weight
  0.000000  0.000000  0.000000      1.000000
  0.059235  0.000000  0.000000      1.000000
  0.000000  0.059235  0.000000      1.000000
  0.059235  0.059235  0.000000      1.000000

 SYSTEM =  Oxide-Surface
 POSCAR =  Mg  O

  energy-cutoff  :     1000.00
[...]
   O         183.487          4.816         18.520          3.42956224
   O         167.214          4.742         17.679          3.27395698
   O         167.205          4.742         17.679          3.27386420
   O         161.767          4.716         17.389          3.22018502
   O         160.359          4.709         17.313          3.20614659
   O         188.507          4.838         18.771          3.47615974
   O         188.036          4.836         18.748          3.47181279

  vdW correction parametrized for the method ¨	#    þ

  IVDW =  21
  VDW_RADIUS =    50.000 A
  VDW_IDAMPF =  0
  VDW_S6 =     1.000
  VDW_SR =     0.960
  VDW_D =    20.000
  LVDW_ONECELL = F F F
  LVDW_SAMETYPE T T
  LVDW_EWALD = F

  Number of pair interactions contributing to vdW energy:  892040
  Edisp (eV):   -3.59359

  FORCE on cell =-STRESS in cart. coord.  units (eV):
  Direction    XX          YY          ZZ          XY          YZ          ZX
  Alpha Z  1191.54525  1191.54525  1191.54525
  Ewald  112305.29622112305.28780************    -0.06806    -0.08177    -0.19031
  Hartree128879.12878128879.12411************    -0.04949    -0.05040    -0.11552
  E(xc)   -3223.67397 -3223.67399 -3229.82911    -0.00011    -0.00005    -0.00026
  Local  ************************250985.38193     0.11917     0.13060     0.29878
  n-local -5620.28497 -5620.28262 -5620.68190    -0.00116     0.00330    -0.00378
  augment   724.04560   724.04546   714.76221     0.00024    -0.00069    -0.00119
  Kinetic 12492.89392 12492.89412 12510.16071    -0.00092    -0.00138     0.02431
  Fock        0.00000     0.00000     0.00000     0.00000     0.00000     0.00000
  vdW        -5.09803    -5.09804    -3.47639     0.00002    -0.00000     0.00022
  Total     -20.79729   -20.79510     4.30823    -0.00030    -0.00040     0.01225
  in kB     -27.50947   -27.50657     5.69869    -0.00040    -0.00052     0.01621

 VOLUME and BASIS-vectors are now :
  energy-cutoff  :     1000.00
  volume of cell :     1211.25
      direct lattice vectors                 reciprocal lattice vectors
     8.440984654  0.000000000  0.000000000     0.118469591  0.000000000  0.000000000
     0.000000000  8.440984654  0.000000000     0.000000000  0.118469591  0.000000000
     0.000000000  0.000000000 17.000000000     0.000000000  0.000000000  0.058823529

  length of vectors
     8.440984654  8.440984654 17.000000000     0.118469591  0.118469591  0.058823529

 FORCES acting on ions
    electron-ion (+dipol)            ewald-force                    non-local-force                 convergence-correction
   0.969E-01 0.336E-01 0.245E+04   -.985E-01 -.347E-01 -.244E+04   0.145E-02 0.650E-03 -.914E+01   -.116E-03 0.209E-03 -.444E-02
   -.289E-01 0.762E-01 0.245E+04   0.301E-01 -.767E-01 -.244E+04   -.844E-03 0.493E-03 -.915E+01   0.637E-05 -.151E-03 -.424E-02
   0.321E+00 0.304E+00 0.811E+03   -.305E+00 -.289E+00 -.812E+03   -.125E-01 -.116E-01 0.699E+00   -.311E-03 -.548E-03 -.936E-02
   -.249E+00 0.313E-01 0.811E+03   0.288E+00 -.163E-01 -.812E+03   -.294E-01 -.121E-01 0.672E+00   -.107E-03 0.348E-03 -.864E-02
   0.987E+00 0.458E+00 -.819E+03   -.105E+01 -.459E+00 0.820E+03   0.619E-01 -.400E-02 -.407E+00   0.358E-03 0.440E-03 -.452E-02
   -.452E+00 0.474E+00 -.821E+03   0.454E+00 -.465E+00 0.821E+03   0.556E-02 -.849E-02 -.289E+00   -.318E-03 -.444E-03 -.392E-02
   -.533E+00 -.508E+00 -.243E+04   0.678E+00 0.652E+00 0.242E+04   -.113E+00 -.113E+00 0.783E+01   0.352E-03 0.190E-03 -.720E-02
   -.206E+01 -.544E+00 -.243E+04   0.218E+01 0.607E+00 0.242E+04   -.721E-01 -.417E-01 0.773E+01   0.427E-03 0.369E-03 -.683E-02
   0.774E-01 -.342E-01 0.245E+04   -.779E-01 0.354E-01 -.244E+04   0.547E-03 -.860E-03 -.915E+01   -.209E-03 -.817E-04 -.469E-02
   -.319E-01 -.753E-01 0.245E+04   0.322E-01 0.758E-01 -.244E+04   -.143E-03 -.386E-03 -.914E+01   0.149E-03 0.104E-03 -.481E-02
   0.529E+00 -.287E+00 0.811E+03   -.572E+00 0.275E+00 -.811E+03   0.330E-01 0.945E-02 0.710E+00   -.318E-03 0.613E-03 -.938E-02
   -.914E-02 -.495E-01 0.811E+03   -.543E-02 0.334E-01 -.812E+03   0.113E-01 0.132E-01 0.694E+00   0.345E-03 -.472E-03 -.917E-02
   0.506E+00 -.472E+00 -.821E+03   -.498E+00 0.479E+00 0.821E+03   -.916E-02 0.194E-03 -.293E+00   -.193E-03 -.562E-03 -.356E-02
   -.287E+00 -.458E+00 -.818E+03   0.275E+00 0.444E+00 0.819E+03   0.222E-01 0.119E-01 -.372E+00   0.842E-04 0.448E-03 -.367E-02
   0.239E+01 0.363E+00 -.243E+04   -.239E+01 -.508E+00 0.242E+04   -.320E-01 0.106E+00 0.778E+01   -.432E-03 -.306E-03 -.602E-02
   0.579E+00 0.646E+00 -.243E+04   -.639E+00 -.720E+00 0.243E+04   0.429E-01 0.535E-01 0.782E+01   -.616E-04 -.336E-03 -.649E-02
   -.929E-01 0.331E-01 0.245E+04   0.954E-01 -.342E-01 -.244E+04   -.192E-02 0.840E-03 -.916E+01   -.319E-04 0.105E-04 -.435E-02
   0.281E-01 0.957E-01 0.245E+04   -.293E-01 -.974E-01 -.244E+04   0.913E-03 0.136E-02 -.914E+01   0.644E-04 -.348E-04 -.412E-02
   -.304E+00 0.546E+00 0.811E+03   0.291E+00 -.586E+00 -.812E+03   0.107E-01 0.302E-01 0.702E+00   0.128E-03 -.118E-03 -.934E-02
   0.203E+00 0.214E+00 0.810E+03   -.230E+00 -.241E+00 -.810E+03   0.211E-01 0.218E-01 0.754E+00   0.334E-03 0.362E-03 -.942E-02
   -.120E+01 0.536E+00 -.825E+03   0.127E+01 -.524E+00 0.825E+03   -.638E-01 -.172E-01 -.305E+00   -.540E-03 0.108E-03 -.350E-02
   0.436E+00 0.972E+00 -.819E+03   -.434E+00 -.104E+01 0.819E+03   -.815E-02 0.622E-01 -.421E+00   0.410E-03 0.132E-03 -.445E-02
   0.358E+00 0.231E+01 -.243E+04   -.505E+00 -.232E+01 0.242E+04   0.107E+00 -.164E-01 0.776E+01   -.536E-03 -.217E-03 -.628E-02
   0.423E+01 0.396E+01 -.244E+04   -.433E+01 -.407E+01 0.243E+04   -.156E-01 -.419E-02 0.791E+01   -.392E-03 -.538E-03 -.708E-02
   -.762E-01 -.370E-01 0.245E+04   0.767E-01 0.373E-01 -.244E+04   -.360E-03 -.155E-03 -.914E+01   0.680E-04 -.858E-04 -.455E-02
   0.273E-01 -.920E-01 0.245E+04   -.286E-01 0.945E-01 -.244E+04   0.108E-02 -.197E-02 -.916E+01   0.618E-04 0.158E-04 -.454E-02
   -.482E+00 -.501E+00 0.811E+03   0.508E+00 0.527E+00 -.811E+03   -.212E-01 -.210E-01 0.696E+00   0.106E-03 0.332E-03 -.948E-02
   -.134E-01 -.253E+00 0.811E+03   0.266E-01 0.293E+00 -.811E+03   -.102E-01 -.302E-01 0.675E+00   -.364E-04 -.510E-03 -.907E-02
   -.486E+00 -.346E+00 -.818E+03   0.470E+00 0.332E+00 0.819E+03   0.137E-01 0.221E-01 -.347E+00   0.964E-04 -.815E-04 -.379E-02
   0.461E+00 -.117E+01 -.825E+03   -.449E+00 0.124E+01 0.825E+03   -.186E-01 -.649E-01 -.277E+00   0.956E-04 -.120E-03 -.363E-02
   -.390E+01 -.410E+01 -.243E+04   0.396E+01 0.413E+01 0.242E+04   0.360E-01 0.632E-01 0.767E+01   0.366E-03 0.422E-03 -.623E-02
   -.469E+00 -.204E+01 -.243E+04   0.517E+00 0.214E+01 0.242E+04   -.328E-01 -.603E-01 0.772E+01   0.267E-03 0.393E-03 -.634E-02
   0.279E+00 0.103E+00 0.485E+03   -.275E+00 -.107E+00 -.485E+03   -.545E-02 0.520E-02 -.519E-01   0.148E-04 -.408E-04 -.114E-01
   -.921E-01 0.168E+00 0.486E+03   0.946E-01 -.173E+00 -.486E+03   -.339E-02 0.672E-02 -.815E-01   0.112E-03 0.231E-04 -.116E-01
   0.452E-01 0.432E-01 0.148E+04   -.437E-01 -.422E-01 -.149E+04   -.168E-02 -.124E-02 0.263E+01   -.354E-03 -.802E-04 -.127E-01
   -.260E-01 0.125E-01 0.148E+04   0.297E-01 -.106E-01 -.149E+04   -.526E-02 -.205E-02 0.264E+01   0.211E-03 -.269E-03 -.127E-01
   0.563E-01 0.426E+00 -.149E+04   0.891E-01 -.468E+00 0.149E+04   -.184E+00 0.517E-01 -.438E+01   -.591E-04 0.173E-03 -.877E-02
   -.399E+00 0.471E+00 -.149E+04   0.474E+00 -.515E+00 0.150E+04   -.953E-01 0.490E-01 -.470E+01   -.650E-04 -.391E-04 -.883E-02
   0.260E+00 0.250E+00 -.486E+03   -.251E+00 -.241E+00 0.486E+03   -.187E-01 -.172E-01 0.310E+00   -.100E-03 -.196E-03 -.455E-02
   -.516E+00 -.825E-01 -.486E+03   0.564E+00 0.901E-01 0.486E+03   -.665E-01 -.117E-01 0.324E+00   -.147E-03 0.167E-03 -.518E-02
   0.174E+00 -.104E+00 0.486E+03   -.179E+00 0.104E+00 -.486E+03   0.635E-02 -.782E-03 -.788E-01   -.139E-03 -.665E-04 -.118E-01
   -.129E+00 -.163E+00 0.486E+03   0.149E+00 0.169E+00 -.486E+03   -.246E-01 -.856E-02 -.475E-01   0.151E-04 0.976E-04 -.120E-01
   0.605E-01 -.429E-01 0.148E+04   -.646E-01 0.417E-01 -.149E+04   0.502E-02 0.139E-02 0.263E+01   0.821E-04 0.726E-04 -.128E-01
   -.860E-02 -.130E-01 0.148E+04   0.709E-02 0.112E-01 -.149E+04   0.125E-02 0.201E-02 0.264E+01   0.367E-03 0.258E-03 -.125E-01
   0.467E+00 -.367E+00 -.149E+04   -.507E+00 0.425E+00 0.149E+04   0.434E-01 -.740E-01 -.468E+01   -.504E-04 -.733E-05 -.862E-02
   0.489E+00 -.525E+00 -.149E+04   -.548E+00 0.567E+00 0.149E+04   0.588E-01 -.472E-01 -.456E+01   0.173E-04 -.750E-04 -.838E-02
   0.832E+00 -.207E+00 -.486E+03   -.860E+00 0.186E+00 0.486E+03   0.384E-01 0.314E-01 0.311E+00   -.171E-03 0.222E-03 -.497E-02
   0.618E-01 0.349E-01 -.487E+03   -.518E-01 -.297E-01 0.487E+03   -.980E-02 -.181E-02 0.229E+00   -.208E-04 -.167E-03 -.500E-02
   -.230E+00 0.877E-01 0.485E+03   0.209E+00 -.850E-01 -.485E+03   0.264E-01 -.372E-02 -.111E+00   -.132E-03 0.256E-04 -.120E-01
   0.908E-01 0.273E+00 0.485E+03   -.970E-01 -.269E+00 -.485E+03   0.754E-02 -.490E-02 -.512E-01   -.285E-04 0.106E-03 -.118E-01
   -.446E-01 0.609E-01 0.148E+04   0.432E-01 -.649E-01 -.149E+04   0.148E-02 0.511E-02 0.263E+01   0.187E-03 0.644E-04 -.126E-01
   0.234E-01 0.254E-01 0.148E+04   -.279E-01 -.302E-01 -.149E+04   0.573E-02 0.589E-02 0.264E+01   -.708E-04 0.212E-03 -.127E-01
   -.200E+01 0.120E+01 -.149E+04   0.211E+01 -.140E+01 0.150E+04   -.920E-01 0.228E+00 -.480E+01   -.106E-03 0.767E-04 -.873E-02
   0.471E+00 0.168E+00 -.149E+04   -.525E+00 -.306E-01 0.149E+04   0.667E-01 -.176E+00 -.438E+01   0.135E-03 0.267E-04 -.866E-02
   -.218E+00 0.838E+00 -.486E+03   0.198E+00 -.869E+00 0.486E+03   0.306E-01 0.400E-01 0.321E+00   -.241E-04 -.380E-04 -.505E-02
   0.559E+00 0.564E+00 -.490E+03   -.589E+00 -.590E+00 0.490E+03   0.470E-01 0.406E-01 0.115E+00   0.293E-03 0.977E-04 -.490E-02
   -.168E+00 -.140E+00 0.486E+03   0.174E+00 0.156E+00 -.486E+03   -.833E-02 -.194E-01 -.496E-01   -.443E-04 -.219E-03 -.121E-01
   0.691E-01 -.226E+00 0.485E+03   -.660E-01 0.206E+00 -.485E+03   -.448E-02 0.262E-01 -.112E+00   0.133E-03 0.441E-04 -.117E-01
   -.573E-01 -.583E-01 0.148E+04   0.625E-01 0.631E-01 -.149E+04   -.665E-02 -.621E-02 0.263E+01   -.247E-03 -.337E-04 -.128E-01
   0.776E-02 -.280E-01 0.148E+04   -.638E-02 0.319E-01 -.149E+04   -.178E-02 -.489E-02 0.264E+01   -.200E-03 -.142E-03 -.125E-01
   -.546E+00 0.463E+00 -.149E+04   0.594E+00 -.519E+00 0.149E+04   -.538E-01 0.568E-01 -.460E+01   -.145E-03 -.555E-04 -.840E-02
   0.996E+00 -.192E+01 -.149E+04   -.121E+01 0.202E+01 0.150E+04   0.256E+00 -.853E-01 -.482E+01   0.207E-03 -.262E-04 -.892E-02
   -.850E+00 -.876E+00 -.485E+03   0.861E+00 0.891E+00 0.485E+03   -.193E-01 -.235E-01 0.384E+00   -.399E-04 0.534E-04 -.474E-02
   -.123E+00 -.516E+00 -.486E+03   0.130E+00 0.557E+00 0.486E+03   -.992E-02 -.560E-01 0.327E+00   0.166E-03 -.618E-04 -.519E-02
   0.872E-01 0.116E-01 0.227E+02   -.362E-12 -.362E-12 0.455E-12   -.890E-01 -.617E-02 -.222E+02   -.909E-04 0.928E-04 -.498E+00

 POSITION                                       TOTAL-FORCE (eV/Angst)
      0.00011      6.33074      3.81548        -0.000252     -0.000305      0.327408
      2.11036      0.00000      3.81548         0.000453     -0.000238      0.329635
      0.00011      0.00000      5.92573         0.003270      0.002796      0.031530
      2.11036      6.33074      5.92573         0.009365      0.003162      0.034331
      8.44070      6.33133      8.05129        -0.003127     -0.005482      0.024911
      2.11002      8.44098      8.05077         0.007629     -0.000725      0.048573
      0.00072      0.00069     10.15534         0.031275      0.030680     -0.002734
      2.10950      6.32951     10.15374         0.048314      0.022115      0.028463
      0.00011      2.11025      3.81548        -0.000070      0.000165      0.329468
      2.11036      4.22049      3.81548         0.000268      0.000063      0.327404
      0.00011      4.22049      5.92573        -0.010414     -0.002343      0.034628
      2.11036      2.11025      5.92573        -0.002841     -0.003509      0.030758
      0.00015      2.11008      8.05083        -0.001155      0.006662      0.047751
      2.10824      4.22030      8.04945         0.010431     -0.001850      0.034909
      0.00013      4.22192     10.15489        -0.029071     -0.039274      0.016240
      2.10983      2.10999     10.15799        -0.016453     -0.020624     -0.011893
      4.22061      6.33074      3.81548         0.000586     -0.000348      0.331299
      6.33085      0.00000      3.81548        -0.000150     -0.000417      0.327429
      4.22061      0.00000      5.92573        -0.002317     -0.009845      0.034650
      6.33085      6.33074      5.92573        -0.005005     -0.005392      0.040379
      4.22280      6.33059      8.05370         0.000948     -0.005598      0.057024
      6.33161      8.44057      8.05126        -0.006171     -0.002750      0.025068
      4.22208      0.00054     10.15357        -0.040265     -0.030785      0.025439
      6.33963      6.33915     10.17200        -0.117919     -0.110175     -0.089495
      4.22061      2.11025      3.81548         0.000240     -0.000015      0.327546
      6.33085      4.22049      3.81548        -0.000189      0.000402      0.331343
      4.22061      4.22049      5.92573         0.005368      0.005322      0.039047
      6.33085      2.11025      5.92573         0.003032      0.009250      0.034342
      4.22035      2.10843      8.04933        -0.002437      0.008289      0.037877
      6.33057      4.22272      8.05371        -0.006224      0.001088      0.057144
      4.21166      4.21193     10.14817         0.099540      0.098839      0.078227
      6.32976      2.10963     10.15375         0.015580      0.046219      0.030353
      0.00011      6.33074      5.92573        -0.001521      0.000829      0.079471
      2.11036      0.00000      5.92573        -0.000661      0.001338      0.069746
      0.00011      0.00000      3.81548        -0.000549     -0.000428     -0.516156
      2.11036      6.33074      3.81548        -0.001396     -0.000578     -0.508203
      0.00433      6.33154     10.19527        -0.038633      0.009716      0.077922
      2.11129      8.44081     10.20424        -0.019968      0.004977     -0.007397
      0.00127      0.00112      8.04457        -0.009969     -0.009319      0.015209
      2.11236      6.33097      8.04429        -0.018211     -0.004151      0.007706
      0.00011      2.11025      5.92573         0.001223     -0.000042      0.070729
      2.11036      4.22049      5.92573        -0.004956     -0.001951      0.073426
      0.00011      4.22049      3.81548         0.001043      0.000278     -0.516560
      2.11036      2.11025      3.81548         0.000146      0.000394     -0.507788
      8.44087      2.11124     10.20397         0.003788     -0.015993     -0.003420
      2.10801      4.21955     10.19634         0.000345     -0.005018      0.040374
      8.43922      4.21986      8.04534         0.010146      0.011397      0.008131
      2.11001      2.10976      8.04530         0.000313      0.003261      0.001450
      4.22061      6.33074      5.92573         0.005516     -0.001024      0.073973
      6.33085      0.00000      5.92573         0.001253     -0.001360      0.079549
      4.22061      0.00000      3.81548         0.000273      0.001087     -0.516623
      6.33085      6.33074      3.81548         0.001190      0.001298     -0.509047
      4.21977      6.32823     10.21106         0.015380      0.033771     -0.034055
      6.33163      0.00449     10.19469         0.012604     -0.038600      0.077347
      4.21994      8.43956      8.04503         0.010869      0.009631      0.007607
      6.33023      6.33006      8.04923         0.017202      0.015219     -0.001655
      4.22061      2.11025      5.92573        -0.001874     -0.003777      0.072377
      6.33085      4.22049      5.92573        -0.001223      0.005467      0.073760
      4.22061      4.22049      3.81548        -0.001650     -0.001522     -0.516971
      6.33085      2.11025      3.81548        -0.000586     -0.001243     -0.508166
      4.21944      2.10811     10.19769        -0.005478      0.000943      0.028791
      6.32681      4.21994     10.21232         0.044673      0.014093     -0.039661
      4.22045      4.22036      8.04498        -0.008196     -0.007873      0.001382
      6.33090      2.11237      8.04438        -0.003335     -0.016200      0.007695
    total drift:                               -0.001877      0.005544     -0.005394

  FREE ENERGIE OF THE ION-ELECTRON SYSTEM (eV)
  free  energy   TOTEN  =      -376.22853471 eV

  energy  without entropy=     -376.22853471  energy(sigma->0) =     -376.22853471