 vasp.6.4.2 20Jul23 (build Feb 22 2024 13:53:45) complex
 executed on              LinuxNV date 2024.08.27  20:34:15
 OpenACC runtime initialized ...    4 GPUs detected

 INCAR:
   SYSTEM = Oxide-Surface
   ISMEAR = 0
   SIGMA = 0.05
   EDIFF = 1E-5
   ALGO = Normal
   IBRION = -1
   NSW = 0
   ISYM = 0
   DIPOL = 0.5 0.5 0.5
   IDIPOL = 3
   LDIPOL = .TRUE.
   ISTART = 0
   LHFCALC = .FALSE.
   GGA = PE
   IVDW = 21
   VDW_SR = 0.96
   HFRCUT = -1
   ENCUT = 520
   PREC = Normal
   PRECFOCK = Normal
   LASPH = .TRUE.
   LREAL = Auto
   ISPIN = 1
   NELM = 200
   NELMIN = 8
   NCORE = 1
   KPAR = 1
   LWAVE = .TRUE.
   LCHARG = .FALSE.

 POTCAR:    PAW_PBE Mg_pv 13Apr2007
 POTCAR:    PAW_PBE O 08Apr2002
 POTCAR:    PAW_PBE Mg_pv 13Apr2007
   VRHFIN =Mg: p6s2

   TITEL  = PAW_PBE Mg_pv 13Apr2007
   POMASS =   24.305; ZVAL   =    8.000    mass and valenz
   ENMAX  =  403.929; ENMIN  =  302.947 eV

   TITEL  = PAW_PBE O 08Apr2002
   POMASS =   16.000; ZVAL   =    6.000    mass and valenz
   ENMAX  =  400.000; ENMIN  =  300.000 eV

 Optimization of the real space projectors (new method)

 maximal supplied QI-value         = 18.90
 optimisation between [QCUT,QGAM] = [ 11.53, 23.24] = [ 37.21,151.29] Ry
 Optimized for a Real-space Cutoff    1.21 Angstroem

   l    n(q)    QCUT    max X(q) W(low)/X(q) W(high)/X(q)  e(spline)
   1      8    11.527     2.974    0.16E-03    0.13E-03    0.98E-07
   1      8    11.527     4.279    0.42E-03    0.30E-03    0.22E-06
   0      8    11.527    16.381    0.13E-03    0.20E-03    0.72E-07
   0      8    11.527     5.611    0.88E-04    0.13E-03    0.50E-07
   2      7    11.527     4.652    0.25E-03    0.73E-04    0.51E-07
 Optimization of the real space projectors (new method)

 maximal supplied QI-value         = 24.76
 optimisation between [QCUT,QGAM] = [ 11.64, 23.27] = [ 37.91,151.63] Ry
 Optimized for a Real-space Cutoff    1.04 Angstroem

   l    n(q)    QCUT    max X(q) W(low)/X(q) W(high)/X(q)  e(spline)
   0      7    11.635    20.381    0.14E-03    0.49E-03    0.18E-06
   0      7    11.635    15.268    0.16E-03    0.52E-03    0.19E-06
   1      7    11.635     5.964    0.30E-03    0.44E-03    0.22E-06
   1      7    11.635     5.382    0.27E-03    0.34E-03    0.19E-06
  PAW_PBE Mg_pv 13Apr2007               :
  PAW_PBE O 08Apr2002                   :

 POSCAR: Mg  O
  positions in direct lattice
 exchange correlation table for  LEXCH =        8
   RHO(1)=    0.500       N(1)  =     2000
   RHO(2)=  100.500       N(2)  =     4000

 ion  position               nearest neighbor table
   1  0.000  0.750  0.224-  33 2.11  36 2.11  43 2.11  35 2.11  52 2.11
   2  0.250  0.000  0.224-  34 2.11  35 2.11  36 2.11  51 2.11  44 2.11
   3  0.000  0.000  0.349-  35 2.11  34 2.11  33 2.11  41 2.11  50 2.11  39 2.12
   4  0.250  0.750  0.349-  36 2.11  33 2.11  42 2.11  34 2.11  49 2.11  40 2.12
   5  1.000  0.750  0.474-  56 2.11  39 2.11  47 2.11  40 2.11  33 2.13  37 2.14
   6  0.250  1.000  0.474-  39 2.11  48 2.11  55 2.11  40 2.11  34 2.13  38 2.15
   7  0.000  0.000  0.597-  54 2.11  37 2.11  39 2.11  45 2.11  38 2.11
   8  0.250  0.750  0.597-  37 2.11  40 2.11  46 2.11  53 2.11  38 2.11
   9  0.000  0.250  0.224-  41 2.11  44 2.11  43 2.11  35 2.11  60 2.11
  10  0.250  0.500  0.224-  42 2.11  36 2.11  43 2.11  44 2.11  59 2.11
  11  0.000  0.500  0.349-  43 2.11  42 2.11  33 2.11  41 2.11  58 2.11  47 2.12
  12  0.250  0.250  0.349-  44 2.11  41 2.11  42 2.11  57 2.11  34 2.11  48 2.12
  13  0.000  0.250  0.474-  39 2.11  47 2.11  48 2.11  64 2.11  41 2.13  45 2.15
  14  0.250  0.500  0.473-  47 2.11  48 2.11  40 2.11  63 2.11  42 2.12  46 2.15
  15  0.000  0.500  0.597-  46 2.11  47 2.11  37 2.11  45 2.11  62 2.12
  16  0.250  0.250  0.598-  46 2.11  61 2.11  45 2.11  38 2.11  48 2.11
  17  0.500  0.750  0.224-  49 2.11  59 2.11  51 2.11  52 2.11  36 2.11
  18  0.750  0.000  0.224-  50 2.11  51 2.11  52 2.11  35 2.11  60 2.11
  19  0.500  0.000  0.349-  51 2.11  49 2.11  50 2.11  34 2.11  57 2.11  55 2.12
  20  0.750  0.750  0.349-  52 2.11  58 2.11  49 2.11  50 2.11  33 2.11  56 2.12
  21  0.500  0.750  0.474-  56 2.11  55 2.11  63 2.11  40 2.11  49 2.13  53 2.16
  22  0.750  1.000  0.474-  56 2.11  39 2.11  55 2.11  64 2.11  50 2.13  54 2.14
  23  0.500  0.000  0.597-  61 2.11  55 2.11  54 2.11  38 2.11  53 2.11
  24  0.751  0.751  0.598-  37 2.11  54 2.11  62 2.12  53 2.12  56 2.12
  25  0.500  0.250  0.224-  57 2.11  44 2.11  59 2.11  60 2.11  51 2.11
  26  0.750  0.500  0.224-  58 2.11  52 2.11  59 2.11  60 2.11  43 2.11
  27  0.500  0.500  0.349-  59 2.11  49 2.11  57 2.11  58 2.11  42 2.11  63 2.12
  28  0.750  0.250  0.349-  60 2.11  58 2.11  57 2.11  50 2.11  41 2.11  64 2.12
  29  0.500  0.250  0.473-  55 2.11  48 2.11  64 2.11  63 2.11  57 2.12  61 2.15
  30  0.750  0.500  0.474-  56 2.11  47 2.11  63 2.11  64 2.11  58 2.13  62 2.16
  31  0.499  0.499  0.597-  63 2.10  46 2.10  61 2.10  62 2.12  53 2.12
  32  0.750  0.250  0.597-  54 2.11  64 2.11  61 2.11  62 2.11  45 2.11
  33  0.000  0.750  0.349-   1 2.11   4 2.11  11 2.11   3 2.11  20 2.11   5 2.13
  34  0.250  0.000  0.349-   2 2.11   3 2.11   4 2.11  19 2.11  12 2.11   6 2.13
  35  0.000  0.000  0.224-   3 2.11   2 2.11   1 2.11   9 2.11  18 2.11
  36  0.250  0.750  0.224-   4 2.11   1 2.11  10 2.11   2 2.11  17 2.11
  37  0.001  0.750  0.600-   8 2.11  24 2.11  15 2.11   7 2.11   5 2.14
  38  0.250  1.000  0.600-  16 2.11   7 2.11  23 2.11   8 2.11   6 2.15
  39  0.000  0.000  0.473-   6 2.11  13 2.11  22 2.11   7 2.11   5 2.11   3 2.12
  40  0.250  0.750  0.473-   8 2.11   6 2.11  21 2.11  14 2.11   5 2.11   4 2.12
  41  0.000  0.250  0.349-   9 2.11  12 2.11  11 2.11   3 2.11  28 2.11  13 2.13
  42  0.250  0.500  0.349-  10 2.11   4 2.11  11 2.11  12 2.11  27 2.11  14 2.12
  43  0.000  0.500  0.224-  11 2.11  10 2.11   1 2.11   9 2.11  26 2.11
  44  0.250  0.250  0.224-  12 2.11   9 2.11  10 2.11  25 2.11   2 2.11
  45  1.000  0.250  0.600-  16 2.11   7 2.11  15 2.11  32 2.11  13 2.15
  46  0.250  0.500  0.600-  31 2.10  15 2.11  16 2.11   8 2.11  14 2.15
  47  1.000  0.500  0.473-  30 2.11  15 2.11  13 2.11  14 2.11   5 2.11  11 2.12
  48  0.250  0.250  0.473-   6 2.11  13 2.11  29 2.11  14 2.11  16 2.11  12 2.12
  49  0.500  0.750  0.349-  17 2.11  27 2.11  19 2.11  20 2.11   4 2.11  21 2.13
  50  0.750  0.000  0.349-  18 2.11  19 2.11  20 2.11   3 2.11  28 2.11  22 2.13
  51  0.500  0.000  0.224-  19 2.11  17 2.11  18 2.11   2 2.11  25 2.11
  52  0.750  0.750  0.224-  20 2.11  26 2.11  17 2.11  18 2.11   1 2.11
  53  0.500  0.750  0.601-   8 2.11  23 2.11  31 2.12  24 2.12  21 2.16
  54  0.750  0.001  0.600-  32 2.11  24 2.11  23 2.11   7 2.11  22 2.14
  55  0.500  1.000  0.473-  23 2.11  21 2.11  29 2.11   6 2.11  22 2.11  19 2.12
  56  0.750  0.750  0.473-  30 2.11  21 2.11   5 2.11  22 2.11  24 2.12  20 2.12
  57  0.500  0.250  0.349-  25 2.11  12 2.11  27 2.11  28 2.11  19 2.11  29 2.12
  58  0.750  0.500  0.349-  26 2.11  20 2.11  27 2.11  28 2.11  11 2.11  30 2.13
  59  0.500  0.500  0.224-  27 2.11  17 2.11  25 2.11  26 2.11  10 2.11
  60  0.750  0.250  0.224-  28 2.11  26 2.11  25 2.11  18 2.11   9 2.11
  61  0.500  0.250  0.600-  31 2.10  23 2.11  16 2.11  32 2.11  29 2.15
  62  0.750  0.500  0.601-  32 2.11  15 2.12  31 2.12  24 2.12  30 2.16
  63  0.500  0.500  0.473-  31 2.10  30 2.11  21 2.11  29 2.11  14 2.11  27 2.12
  64  0.750  0.250  0.473-  32 2.11  13 2.11  30 2.11  29 2.11  22 2.11  28 2.12

IMPORTANT INFORMATION: All symmetrisations will be switched off!
NOSYMM: (Re-)initialisation of all symmetry stuff for point group C_1.

                                     Primitive cell

  volume of cell :    1211.2538

  direct lattice vectors                    reciprocal lattice vectors
     8.440984654  0.000000000  0.000000000     0.118469591  0.000000000  0.000000000
     0.000000000  8.440984654  0.000000000     0.000000000  0.118469591  0.000000000
     0.000000000  0.000000000 17.000000000     0.000000000  0.000000000  0.058823529

  length of vectors
     8.440984654  8.440984654 17.000000000     0.118469591  0.118469591  0.058823529

  position of ions in fractional coordinates (direct lattice)
     0.000013589  0.750000194  0.224440251
     0.250013589  0.000000194  0.224440251
     0.000013589  0.000000194  0.348572378
     0.250013589  0.750000194  0.348572378
     0.999966561  0.750070127  0.473605150
     0.249973769  0.999999806  0.473574844
     0.000085356  0.000081940  0.597372974
     0.249911674  0.749854424  0.597278904
     0.000013589  0.250000194  0.224440251
     0.250013589  0.500000194  0.224440251
     0.000013589  0.500000194  0.348572378
     0.250013589  0.250000194  0.348572378
     0.000017243  0.249980157  0.473578238
     0.249762180  0.499976802  0.473496967
     0.000015781  0.500169160  0.597346508
     0.249951061  0.249969241  0.597528815
     0.500013589  0.750000194  0.224440251
     0.750013589  0.000000194  0.224440251
     0.500013589  0.000000194  0.348572378
     0.750013589  0.750000194  0.348572378
     0.500273599  0.749982319  0.473747038
     0.750103789  0.999951129  0.473603294
     0.500188527  0.000063732  0.597268966
     0.751053112  0.750996103  0.598352833
     0.500013589  0.250000194  0.224440251
     0.750013589  0.500000194  0.224440251
     0.500013589  0.500000194  0.348572378
     0.750013589  0.250000194  0.348572378
     0.499983585  0.249784354  0.473489942
     0.749980441  0.500264035  0.473747642
     0.498953542  0.498986092  0.596951454
     0.749883494  0.249927580  0.597279352
     0.000013589  0.750000194  0.348572378
     0.250013589  0.000000194  0.348572378
     0.000013589  0.000000194  0.224440251
     0.250013589  0.750000194  0.224440251
     0.000512942  0.750094692  0.599721879
     0.250123386  0.999979282  0.600249487
     0.000150473  0.000132421  0.473209985
     0.250249984  0.750027907  0.473193538
     0.000013589  0.250000194  0.348572378
     0.250013589  0.500000194  0.348572378
     0.000013589  0.500000194  0.224440251
     0.250013589  0.250000194  0.224440251
     0.999986411  0.250117343  0.600233718
     0.249734853  0.499887790  0.599784938
     0.999791148  0.499924508  0.473255248
     0.249972411  0.249941824  0.473253190
     0.500013589  0.750000194  0.348572378
     0.750013589  0.000000194  0.348572378
     0.500013589  0.000000194  0.224440251
     0.750013589  0.750000194  0.224440251
     0.499914099  0.749702939  0.600650516
     0.750105757  0.000531742  0.599687753
     0.499934306  0.999831741  0.473236830
     0.749939395  0.749919876  0.473484321
     0.500013589  0.250000194  0.348572378
     0.750013589  0.500000194  0.348572378
     0.500013589  0.500000194  0.224440251
     0.750013589  0.250000194  0.224440251
     0.499875703  0.249746572  0.599863902
     0.749534934  0.499934376  0.600724769
     0.499995259  0.499984022  0.473233981
     0.750019295  0.250251889  0.473198844

  ion indices of the primitive-cell ions
   primitive index   ion index
                 1           1
                 2           2
                 3           3
                 4           4
                 5           5
                 6           6
[...]
   O         181.849          4.809         18.437          3.41422164
   O         166.059          4.737         17.618          3.26262784
   O         166.090          4.737         17.620          3.26293024
   O         160.781          4.711         17.336          3.21036271
   O         159.252          4.704         17.253          3.19505672
   O         186.748          4.830         18.684          3.45990930
   O         186.262          4.828         18.659          3.45540159

  vdW correction parametrized for the method Ð»W    þ

  IVDW =  21
  VDW_RADIUS =    50.000 A
  VDW_IDAMPF =  0
  VDW_S6 =     1.000
  VDW_SR =     0.960
  VDW_D =    20.000
  LVDW_ONECELL = F F F
  LVDW_SAMETYPE T T
  LVDW_EWALD = F

  Number of pair interactions contributing to vdW energy:  892040
  Edisp (eV):   -3.55139

  FORCE on cell =-STRESS in cart. coord.  units (eV):
  Direction    XX          YY          ZZ          XY          YZ          ZX
  Alpha Z  1098.23100  1098.23100  1098.23100
  Ewald   86214.20551 86214.19778************    -0.05934    -0.05128    -0.13540
  Hartree 96847.66257 96847.65853-90432.86463    -0.04093    -0.02650    -0.06622
  E(xc)   -2456.51799 -2456.51802 -2461.78763    -0.00008    -0.00002    -0.00019
  Local  ************************193113.04019     0.10144     0.07593     0.19661
  n-local -2809.44006 -2809.44008 -2830.62579    -0.00864    -0.00219    -0.00396
  augment  1047.56732  1047.56744  1038.13593    -0.00065    -0.00020    -0.00021
  Kinetic  7300.86461  7300.86499  7342.69445     0.00008    -0.00039     0.02093
  Fock        0.00000     0.00000     0.00000     0.00000     0.00000     0.00000
  vdW        -5.05717    -5.05717    -3.45483     0.00002    -0.00001     0.00021
  Total     -21.00401   -21.00374     3.57114    -0.00810    -0.00466     0.01177
  in kB     -27.78290   -27.78255     4.72370    -0.01071    -0.00617     0.01557

 VOLUME and BASIS-vectors are now :
  energy-cutoff  :      520.00
  volume of cell :     1211.25
      direct lattice vectors                 reciprocal lattice vectors
     8.440984654  0.000000000  0.000000000     0.118469591  0.000000000  0.000000000
     0.000000000  8.440984654  0.000000000     0.000000000  0.118469591  0.000000000
     0.000000000  0.000000000 17.000000000     0.000000000  0.000000000  0.058823529

  length of vectors
     8.440984654  8.440984654 17.000000000     0.118469591  0.118469591  0.058823529

 FORCES acting on ions
    electron-ion (+dipol)            ewald-force                    non-local-force                 convergence-correction
   0.694E-01 0.221E-01 0.172E+04   -.707E-01 -.229E-01 -.171E+04   0.994E-03 0.516E-03 -.704E+01   0.382E-07 0.621E-04 -.324E-03
   -.182E-01 0.507E-01 0.172E+04   0.191E-01 -.514E-01 -.171E+04   -.721E-03 0.355E-03 -.705E+01   0.428E-04 0.203E-03 -.236E-03
   0.241E+00 0.227E+00 0.567E+03   -.228E+00 -.216E+00 -.568E+03   -.978E-02 -.891E-02 0.523E+00   0.210E-04 0.224E-04 -.102E-02
   -.130E+00 0.326E-01 0.567E+03   0.162E+00 -.201E-01 -.568E+03   -.226E-01 -.926E-02 0.504E+00   -.859E-05 0.271E-04 -.106E-02
   0.652E+00 0.314E+00 -.574E+03   -.703E+00 -.316E+00 0.574E+03   0.469E-01 -.219E-02 -.292E+00   0.546E-04 0.415E-04 0.281E-03
   -.303E+00 0.324E+00 -.575E+03   0.306E+00 -.318E+00 0.576E+03   0.444E-02 -.654E-02 -.201E+00   -.174E-04 0.455E-04 0.226E-03
   -.276E+00 -.257E+00 -.171E+04   0.393E+00 0.374E+00 0.170E+04   -.836E-01 -.837E-01 0.603E+01   -.417E-04 -.249E-04 0.483E-03
   -.142E+01 -.364E+00 -.171E+04   0.152E+01 0.417E+00 0.170E+04   -.529E-01 -.327E-01 0.595E+01   -.679E-04 0.320E-04 0.475E-03
   0.516E-01 -.225E-01 0.172E+04   -.523E-01 0.234E-01 -.171E+04   0.323E-03 -.615E-03 -.705E+01   0.150E-03 -.651E-04 -.251E-03
   -.192E-01 -.502E-01 0.172E+04   0.194E-01 0.509E-01 -.171E+04   -.187E-03 -.318E-03 -.704E+01   0.823E-04 -.200E-03 -.283E-03
   0.329E+00 -.214E+00 0.567E+03   -.365E+00 0.205E+00 -.568E+03   0.251E-01 0.727E-02 0.531E+00   0.372E-04 -.249E-04 -.968E-03
   -.127E-01 -.447E-01 0.567E+03   0.997E-03 0.312E-01 -.568E+03   0.864E-02 0.101E-01 0.521E+00   0.459E-04 -.234E-04 -.127E-02
   0.348E+00 -.316E+00 -.575E+03   -.342E+00 0.323E+00 0.576E+03   -.714E-02 0.223E-03 -.203E+00   0.545E-04 -.389E-04 0.238E-03
   -.201E+00 -.321E+00 -.573E+03   0.195E+00 0.310E+00 0.574E+03   0.162E-01 0.885E-02 -.263E+00   0.343E-04 -.462E-04 0.210E-03
   0.176E+01 0.163E+00 -.171E+04   -.177E+01 -.282E+00 0.170E+04   -.270E-01 0.831E-01 0.599E+01   0.921E-05 0.190E-04 0.524E-03
   0.375E+00 0.412E+00 -.171E+04   -.424E+00 -.473E+00 0.170E+04   0.324E-01 0.403E-01 0.602E+01   -.345E-04 -.305E-04 0.455E-03
   -.673E-01 0.212E-01 0.172E+04   0.692E-01 -.221E-01 -.171E+04   -.150E-02 0.636E-03 -.706E+01   -.595E-06 0.272E-04 -.304E-03
   0.178E-01 0.685E-01 0.172E+04   -.186E-01 -.699E-01 -.171E+04   0.570E-03 0.102E-02 -.704E+01   -.398E-04 0.493E-04 -.264E-03
   -.227E+00 0.344E+00 0.567E+03   0.217E+00 -.377E+00 -.568E+03   0.805E-02 0.231E-01 0.525E+00   -.246E-04 0.814E-04 -.109E-02
   0.118E+00 0.127E+00 0.566E+03   -.140E+00 -.149E+00 -.567E+03   0.161E-01 0.166E-01 0.568E+00   0.130E-04 0.424E-04 -.113E-02
   -.793E+00 0.369E+00 -.578E+03   0.842E+00 -.361E+00 0.578E+03   -.493E-01 -.133E-01 -.214E+00   -.621E-04 -.103E-04 0.208E-03
   0.299E+00 0.640E+00 -.574E+03   -.298E+00 -.691E+00 0.574E+03   -.558E-02 0.473E-01 -.303E+00   0.222E-04 0.470E-04 0.293E-03
   0.158E+00 0.168E+01 -.171E+04   -.279E+00 -.169E+01 0.170E+04   0.836E-01 -.140E-01 0.598E+01   0.354E-04 0.110E-04 0.505E-03
   0.284E+01 0.265E+01 -.171E+04   -.294E+01 -.276E+01 0.170E+04   -.113E-01 -.274E-02 0.609E+01   0.728E-04 0.804E-04 0.541E-03
   -.510E-01 -.233E-01 0.172E+04   0.517E-01 0.236E-01 -.171E+04   -.330E-03 -.136E-03 -.704E+01   -.152E-03 -.250E-04 -.202E-03
   0.167E-01 -.665E-01 0.172E+04   -.177E-01 0.685E-01 -.171E+04   0.759E-03 -.149E-02 -.706E+01   -.783E-04 -.549E-04 -.328E-03
   -.323E+00 -.334E+00 0.567E+03   0.344E+00 0.356E+00 -.567E+03   -.162E-01 -.159E-01 0.521E+00   -.400E-04 -.791E-04 -.106E-02
   -.174E-02 -.135E+00 0.567E+03   0.125E-01 0.167E+00 -.568E+03   -.781E-02 -.232E-01 0.506E+00   -.429E-04 -.398E-04 -.114E-02
   -.344E+00 -.247E+00 -.573E+03   0.331E+00 0.239E+00 0.574E+03   0.106E-01 0.170E-01 -.243E+00   -.584E-04 0.103E-04 0.154E-03
   0.314E+00 -.770E+00 -.578E+03   -.306E+00 0.821E+00 0.578E+03   -.142E-01 -.500E-01 -.193E+00   -.279E-04 -.450E-04 0.218E-03
   -.264E+01 -.280E+01 -.170E+04   0.271E+01 0.285E+01 0.170E+04   0.205E-01 0.413E-01 0.590E+01   -.171E-04 -.750E-05 0.501E-03
   -.328E+00 -.141E+01 -.171E+04   0.367E+00 0.150E+01 0.170E+04   -.257E-01 -.442E-01 0.594E+01   0.387E-04 -.843E-04 0.488E-03
   0.254E+00 0.860E-01 0.425E+03   -.252E+00 -.896E-01 -.425E+03   -.405E-02 0.457E-02 -.963E-01   0.176E-05 0.200E-04 0.303E-04
   -.747E-01 0.137E+00 0.425E+03   0.770E-01 -.141E+00 -.425E+03   -.271E-02 0.543E-02 -.118E+00   0.174E-04 0.480E-04 -.109E-04
   0.404E-01 0.389E-01 0.129E+04   -.395E-01 -.381E-01 -.130E+04   -.122E-02 -.114E-02 0.349E+01   0.112E-04 0.229E-04 0.281E-04
   -.196E-01 0.107E-01 0.129E+04   0.225E-01 -.950E-02 -.130E+04   -.389E-02 -.168E-02 0.349E+01   0.946E-06 0.116E-04 0.181E-06
   0.134E+00 0.341E+00 -.129E+04   -.225E-01 -.373E+00 0.130E+04   -.148E+00 0.433E-01 -.482E+01   -.145E-04 0.752E-05 0.261E-03
   -.304E+00 0.373E+00 -.130E+04   0.363E+00 -.413E+00 0.130E+04   -.758E-01 0.440E-01 -.508E+01   0.135E-05 0.866E-05 0.245E-03
   0.213E+00 0.205E+00 -.426E+03   -.213E+00 -.205E+00 0.426E+03   -.104E-01 -.976E-02 0.252E+00   -.949E-06 0.364E-05 0.648E-03
   -.440E+00 -.761E-01 -.426E+03   0.473E+00 0.800E-01 0.425E+03   -.521E-01 -.809E-02 0.274E+00   0.431E-05 0.813E-05 0.640E-03
   0.142E+00 -.870E-01 0.425E+03   -.146E+00 0.880E-01 -.425E+03   0.540E-02 -.924E-03 -.116E+00   0.373E-04 -.171E-04 -.215E-04
   -.939E-01 -.133E+00 0.425E+03   0.110E+00 0.138E+00 -.425E+03   -.203E-01 -.691E-02 -.862E-01   0.170E-04 -.510E-04 -.273E-05
   0.514E-01 -.386E-01 0.129E+04   -.544E-01 0.377E-01 -.130E+04   0.428E-02 0.125E-02 0.349E+01   0.183E-04 -.227E-04 -.361E-04
   -.675E-02 -.111E-01 0.129E+04   0.584E-02 0.991E-02 -.130E+04   0.140E-02 0.167E-02 0.349E+01   0.365E-05 -.803E-05 0.153E-03
   0.373E+00 -.287E+00 -.130E+04   -.409E+00 0.333E+00 0.130E+04   0.396E-01 -.585E-01 -.506E+01   0.333E-05 -.163E-05 0.247E-03
   0.359E+00 -.416E+00 -.130E+04   -.422E+00 0.453E+00 0.130E+04   0.587E-01 -.440E-01 -.497E+01   -.933E-05 -.569E-05 0.267E-03
   0.723E+00 -.176E+00 -.426E+03   -.743E+00 0.165E+00 0.426E+03   0.298E-01 0.230E-01 0.260E+00   -.249E-05 -.588E-05 0.679E-03
   0.661E-01 0.426E-01 -.426E+03   -.560E-01 -.354E-01 0.426E+03   -.106E-01 -.568E-02 0.183E+00   0.280E-05 -.688E-05 0.609E-03
   -.224E+00 0.739E-01 0.424E+03   0.208E+00 -.720E-01 -.424E+03   0.220E-01 -.285E-02 -.152E+00   -.930E-05 0.161E-04 0.616E-05
   0.731E-01 0.249E+00 0.425E+03   -.782E-01 -.246E+00 -.425E+03   0.679E-02 -.388E-02 -.957E-01   -.156E-04 0.215E-04 0.175E-04
   -.401E-01 0.518E-01 0.129E+04   0.391E-01 -.548E-01 -.130E+04   0.159E-02 0.407E-02 0.349E+01   -.183E-04 0.184E-04 0.510E-04
   0.180E-01 0.203E-01 0.129E+04   -.214E-01 -.237E-01 -.130E+04   0.495E-02 0.480E-02 0.349E+01   -.130E-05 0.191E-04 0.534E-05
   -.160E+01 0.898E+00 -.130E+04   0.172E+01 -.106E+01 0.130E+04   -.107E+00 0.201E+00 -.516E+01   0.137E-04 0.809E-05 0.230E-03
   0.371E+00 0.220E+00 -.129E+04   -.413E+00 -.117E+00 0.130E+04   0.560E-01 -.140E+00 -.482E+01   0.509E-05 -.605E-05 0.265E-03
   -.185E+00 0.721E+00 -.426E+03   0.175E+00 -.744E+00 0.426E+03   0.228E-01 0.320E-01 0.270E+00   0.145E-05 0.927E-05 0.660E-03
   0.483E+00 0.495E+00 -.429E+03   -.499E+00 -.506E+00 0.429E+03   0.325E-01 0.276E-01 0.750E-01   0.245E-05 0.747E-05 0.692E-03
   -.137E+00 -.106E+00 0.425E+03   0.142E+00 0.119E+00 -.425E+03   -.655E-02 -.165E-01 -.875E-01   -.370E-04 -.218E-04 -.557E-05
   0.571E-01 -.220E+00 0.424E+03   -.548E-01 0.204E+00 -.424E+03   -.319E-02 0.217E-01 -.152E+00   -.162E-04 -.218E-04 0.302E-04
   -.495E-01 -.502E-01 0.129E+04   0.532E-01 0.537E-01 -.130E+04   -.506E-02 -.492E-02 0.349E+01   -.224E-04 -.182E-04 0.196E-04
   0.626E-02 -.219E-01 0.129E+04   -.537E-02 0.247E-01 -.130E+04   -.114E-02 -.400E-02 0.349E+01   0.238E-05 -.105E-04 0.388E-04
   -.428E+00 0.341E+00 -.130E+04   0.471E+00 -.400E+00 0.130E+04   -.503E-01 0.560E-01 -.500E+01   -.458E-05 -.152E-04 0.262E-03
   0.727E+00 -.153E+01 -.130E+04   -.898E+00 0.165E+01 0.130E+04   0.221E+00 -.981E-01 -.517E+01   0.203E-05 0.988E-05 0.225E-03
   -.742E+00 -.757E+00 -.425E+03   0.746E+00 0.766E+00 0.425E+03   -.126E-01 -.173E-01 0.339E+00   -.637E-05 -.121E-04 0.638E-03
   -.110E+00 -.450E+00 -.426E+03   0.114E+00 0.475E+00 0.425E+03   -.689E-02 -.434E-01 0.277E+00   -.346E-05 -.742E-05 0.648E-03
   0.799E-01 0.113E-01 0.174E+02   0.248E-12 0.676E-13 0.256E-11   -.752E-01 -.895E-02 -.174E+02   -.150E-04 0.972E-05 0.240E-02

 POSITION                                       TOTAL-FORCE (eV/Angst)
      0.00011      6.33074      3.81548        -0.000426     -0.000257      0.315778
      2.11036      0.00000      3.81548         0.000163     -0.000224      0.318055
      0.00011      0.00000      5.92573         0.003029      0.002806      0.037336
      2.11036      6.33074      5.92573         0.009138      0.003263      0.043680
      8.44070      6.33133      8.05129        -0.003959     -0.004260      0.025725
      2.11002      8.44098      8.05077         0.007843     -0.000728      0.049492
      0.00072      0.00069     10.15534         0.033708      0.033197      0.011100
      2.10950      6.32951     10.15374         0.047613      0.020172      0.043216
      0.00011      2.11025      3.81548        -0.000280      0.000201      0.317890
      2.11036      4.22049      3.81548        -0.000009      0.000145      0.315603
      0.00011      4.22049      5.92573        -0.010714     -0.002249      0.040499
      2.11036      2.11025      5.92573        -0.003094     -0.003506      0.040150
      0.00015      2.11008      8.05083        -0.001444      0.006954      0.048539
      2.10824      4.22030      8.04945         0.009599     -0.002207      0.038394
      0.00013      4.22192     10.15489        -0.029093     -0.035846      0.030053
      2.10983      2.10999     10.15799        -0.016286     -0.020435      0.004283
      4.22061      6.33074      3.81548         0.000387     -0.000304      0.319820
      6.33085      0.00000      3.81548        -0.000349     -0.000371      0.315723
      4.22061      0.00000      5.92573        -0.002552     -0.009866      0.040581
      6.33085      6.33074      5.92573        -0.005158     -0.005245      0.049897
      4.22280      6.33059      8.05370        -0.000071     -0.005418      0.055630
      6.33161      8.44057      8.05126        -0.005487     -0.003289      0.025846
      4.22208      0.00054     10.15357        -0.037010     -0.029597      0.039112
      6.33963      6.33915     10.17200        -0.116331     -0.108592     -0.072161
      4.22061      2.11025      3.81548         0.000070      0.000047      0.315782
      6.33085      4.22049      3.81548        -0.000420      0.000461      0.319865
      4.22061      4.22049      5.92573         0.005115      0.005342      0.044875
      6.33085      2.11025      5.92573         0.002788      0.009310      0.043714
      4.22035      2.10843      8.04933        -0.002480      0.008546      0.040801
      6.33057      4.22272      8.05371        -0.006202      0.000332      0.055888
      4.21166      4.21193     10.14817         0.091517      0.090751      0.088541
      6.32976      2.10963     10.15375         0.013765      0.045442      0.045223
      0.00011      6.33074      5.92573        -0.001335      0.000902      0.078745
      2.11036      0.00000      5.92573        -0.000395      0.001408      0.069092
      0.00011      0.00000      3.81548        -0.000359     -0.000386     -0.514592
      2.11036      6.33074      3.81548        -0.001106     -0.000534     -0.515093
      0.00433      6.33154     10.19527        -0.035841      0.010815      0.087571
      2.11129      8.44081     10.20424        -0.016671      0.004465     -0.003376
      0.00127      0.00112      8.04457        -0.010126     -0.009728     -0.004803
      2.11236      6.33097      8.04429        -0.019632     -0.004376     -0.004249
      0.00011      2.11025      5.92573         0.001409     -0.000012      0.069994
      2.11036      4.22049      5.92573        -0.004690     -0.001904      0.072473
      0.00011      4.22049      3.81548         0.001250      0.000345     -0.515023
      2.11036      2.11025      3.81548         0.000440      0.000454     -0.514743
      8.44087      2.11124     10.20397         0.003288     -0.012724     -0.000109
      2.10801      4.21955     10.19634        -0.004250     -0.007251      0.050021
      8.43922      4.21986      8.04534         0.010030      0.012462     -0.009528
      2.11001      2.10976      8.04530        -0.000557      0.001613     -0.014937
      4.22061      6.33074      5.92573         0.005690     -0.000959      0.073487
      6.33085      0.00000      5.92573         0.001521     -0.001301      0.078769
      4.22061      0.00000      3.81548         0.000502      0.001140     -0.515138
      6.33085      6.33074      3.81548         0.001458      0.001371     -0.515723
      4.21977      6.32823     10.21106         0.016658      0.035241     -0.028839
      6.33163      0.00449     10.19469         0.013762     -0.036865      0.087889
      4.21994      8.43956      8.04503         0.012669      0.009330     -0.011066
      6.33023      6.33006      8.04923         0.016574      0.015787     -0.008119
      4.22061      2.11025      5.92573        -0.001717     -0.003751      0.071434
      6.33085      4.22049      5.92573        -0.000955      0.005524      0.073294
      4.22061      4.22049      3.81548        -0.001447     -0.001464     -0.515488
      6.33085      2.11025      3.81548        -0.000334     -0.001205     -0.515082
      4.21944      2.10811     10.19769        -0.007887     -0.003131      0.042210
      6.32681      4.21994     10.21232         0.050139      0.016703     -0.036156
      4.22045      4.22036      8.04498        -0.008549     -0.008298     -0.018146
      6.33090      2.11237      8.04438        -0.002909     -0.018246     -0.003699
    total drift:                                0.004699      0.002403      0.000657

  FREE ENERGIE OF THE ION-ELECTRON SYSTEM (eV)
  free  energy   TOTEN  =      -375.61386999 eV

  energy  without entropy=     -375.61386999  energy(sigma->0) =     -375.61386999

 writing wavefunctions