 vasp.6.4.2 20Jul23 (build Feb 22 2024 13:53:45) complex
 executed on              LinuxNV date 2024.08.27  20:36:51
 OpenACC runtime initialized ...    4 GPUs detected

 INCAR:
   SYSTEM = Oxide-Surface
   ISMEAR = 0
   SIGMA = 0.05
   EDIFF = 1E-5
   ALGO = Normal
   IBRION = -1
   NSW = 0
   ISYM = 0
   DIPOL = 0.5 0.5 0.5
   IDIPOL = 3
   LDIPOL = .TRUE.
   ISTART = 1
   LHFCALC = .TRUE.
   GGA = PE
   IVDW = 21
   VDW_SR = 0.96
   HFRCUT = -1
   ENCUT = 520
   PREC = Normal
   PRECFOCK = Normal
   LASPH = .TRUE.
   LREAL = Auto
   ISPIN = 1
   NELM = 200
   NELMIN = 8
   NCORE = 1
   KPAR = 1
   LWAVE = .FALSE.
   LCHARG = .FALSE.

 POTCAR:    PAW_PBE Mg_pv 13Apr2007
 POTCAR:    PAW_PBE O 08Apr2002
 POTCAR:    PAW_PBE Mg_pv 13Apr2007
   VRHFIN =Mg: p6s2

   TITEL  = PAW_PBE Mg_pv 13Apr2007
   POMASS =   24.305; ZVAL   =    8.000    mass and valenz
   ENMAX  =  403.929; ENMIN  =  302.947 eV

   TITEL  = PAW_PBE O 08Apr2002
   POMASS =   16.000; ZVAL   =    6.000    mass and valenz
   ENMAX  =  400.000; ENMIN  =  300.000 eV

 Optimization of the real space projectors (new method)

 maximal supplied QI-value         = 18.90
 optimisation between [QCUT,QGAM] = [ 11.53, 23.24] = [ 37.21,151.29] Ry
 Optimized for a Real-space Cutoff    1.21 Angstroem

   l    n(q)    QCUT    max X(q) W(low)/X(q) W(high)/X(q)  e(spline)
   1      8    11.527     2.974    0.16E-03    0.13E-03    0.98E-07
   1      8    11.527     4.279    0.42E-03    0.30E-03    0.22E-06
   0      8    11.527    16.381    0.13E-03    0.20E-03    0.72E-07
   0      8    11.527     5.611    0.88E-04    0.13E-03    0.50E-07
   2      7    11.527     4.652    0.25E-03    0.73E-04    0.51E-07
 Optimization of the real space projectors (new method)

 maximal supplied QI-value         = 24.76
 optimisation between [QCUT,QGAM] = [ 11.64, 23.27] = [ 37.91,151.63] Ry
 Optimized for a Real-space Cutoff    1.04 Angstroem

   l    n(q)    QCUT    max X(q) W(low)/X(q) W(high)/X(q)  e(spline)
   0      7    11.635    20.381    0.14E-03    0.49E-03    0.18E-06
   0      7    11.635    15.268    0.16E-03    0.52E-03    0.19E-06
   1      7    11.635     5.964    0.30E-03    0.44E-03    0.22E-06
   1      7    11.635     5.382    0.27E-03    0.34E-03    0.19E-06
  PAW_PBE Mg_pv 13Apr2007               :
  PAW_PBE O 08Apr2002                   :

 POSCAR: Mg  O
  positions in direct lattice
 exchange correlation table for  LEXCH =        8
   RHO(1)=    0.500       N(1)  =     2000
   RHO(2)=  100.500       N(2)  =     4000

 ion  position               nearest neighbor table
   1  0.000  0.750  0.224-  33 2.11  36 2.11  43 2.11  35 2.11  52 2.11
   2  0.250  0.000  0.224-  34 2.11  35 2.11  36 2.11  51 2.11  44 2.11
   3  0.000  0.000  0.349-  35 2.11  34 2.11  33 2.11  41 2.11  50 2.11  39 2.12
   4  0.250  0.750  0.349-  36 2.11  33 2.11  42 2.11  34 2.11  49 2.11  40 2.12
   5  1.000  0.750  0.474-  56 2.11  39 2.11  47 2.11  40 2.11  33 2.13  37 2.14
   6  0.250  1.000  0.474-  39 2.11  48 2.11  55 2.11  40 2.11  34 2.13  38 2.15
   7  0.000  0.000  0.597-  54 2.11  37 2.11  39 2.11  45 2.11  38 2.11
   8  0.250  0.750  0.597-  37 2.11  40 2.11  46 2.11  53 2.11  38 2.11
   9  0.000  0.250  0.224-  41 2.11  44 2.11  43 2.11  35 2.11  60 2.11
  10  0.250  0.500  0.224-  42 2.11  36 2.11  43 2.11  44 2.11  59 2.11
  11  0.000  0.500  0.349-  43 2.11  42 2.11  33 2.11  41 2.11  58 2.11  47 2.12
  12  0.250  0.250  0.349-  44 2.11  41 2.11  42 2.11  57 2.11  34 2.11  48 2.12
  13  0.000  0.250  0.474-  39 2.11  47 2.11  48 2.11  64 2.11  41 2.13  45 2.15
  14  0.250  0.500  0.473-  47 2.11  48 2.11  40 2.11  63 2.11  42 2.12  46 2.15
  15  0.000  0.500  0.597-  46 2.11  47 2.11  37 2.11  45 2.11  62 2.12
  16  0.250  0.250  0.598-  46 2.11  61 2.11  45 2.11  38 2.11  48 2.11
  17  0.500  0.750  0.224-  49 2.11  59 2.11  51 2.11  52 2.11  36 2.11
  18  0.750  0.000  0.224-  50 2.11  51 2.11  52 2.11  35 2.11  60 2.11
  19  0.500  0.000  0.349-  51 2.11  49 2.11  50 2.11  34 2.11  57 2.11  55 2.12
  20  0.750  0.750  0.349-  52 2.11  58 2.11  49 2.11  50 2.11  33 2.11  56 2.12
  21  0.500  0.750  0.474-  56 2.11  55 2.11  63 2.11  40 2.11  49 2.13  53 2.16
  22  0.750  1.000  0.474-  56 2.11  39 2.11  55 2.11  64 2.11  50 2.13  54 2.14
  23  0.500  0.000  0.597-  61 2.11  55 2.11  54 2.11  38 2.11  53 2.11
  24  0.751  0.751  0.598-  37 2.11  54 2.11  62 2.12  53 2.12  56 2.12
  25  0.500  0.250  0.224-  57 2.11  44 2.11  59 2.11  60 2.11  51 2.11
  26  0.750  0.500  0.224-  58 2.11  52 2.11  59 2.11  60 2.11  43 2.11
  27  0.500  0.500  0.349-  59 2.11  49 2.11  57 2.11  58 2.11  42 2.11  63 2.12
  28  0.750  0.250  0.349-  60 2.11  58 2.11  57 2.11  50 2.11  41 2.11  64 2.12
  29  0.500  0.250  0.473-  55 2.11  48 2.11  64 2.11  63 2.11  57 2.12  61 2.15
  30  0.750  0.500  0.474-  56 2.11  47 2.11  63 2.11  64 2.11  58 2.13  62 2.16
  31  0.499  0.499  0.597-  63 2.10  46 2.10  61 2.10  62 2.12  53 2.12
  32  0.750  0.250  0.597-  54 2.11  64 2.11  61 2.11  62 2.11  45 2.11
  33  0.000  0.750  0.349-   1 2.11   4 2.11  11 2.11   3 2.11  20 2.11   5 2.13
  34  0.250  0.000  0.349-   2 2.11   3 2.11   4 2.11  19 2.11  12 2.11   6 2.13
  35  0.000  0.000  0.224-   3 2.11   2 2.11   1 2.11   9 2.11  18 2.11
  36  0.250  0.750  0.224-   4 2.11   1 2.11  10 2.11   2 2.11  17 2.11
  37  0.001  0.750  0.600-   8 2.11  24 2.11  15 2.11   7 2.11   5 2.14
  38  0.250  1.000  0.600-  16 2.11   7 2.11  23 2.11   8 2.11   6 2.15
  39  0.000  0.000  0.473-   6 2.11  13 2.11  22 2.11   7 2.11   5 2.11   3 2.12
  40  0.250  0.750  0.473-   8 2.11   6 2.11  21 2.11  14 2.11   5 2.11   4 2.12
  41  0.000  0.250  0.349-   9 2.11  12 2.11  11 2.11   3 2.11  28 2.11  13 2.13
  42  0.250  0.500  0.349-  10 2.11   4 2.11  11 2.11  12 2.11  27 2.11  14 2.12
  43  0.000  0.500  0.224-  11 2.11  10 2.11   1 2.11   9 2.11  26 2.11
  44  0.250  0.250  0.224-  12 2.11   9 2.11  10 2.11  25 2.11   2 2.11
  45  1.000  0.250  0.600-  16 2.11   7 2.11  15 2.11  32 2.11  13 2.15
  46  0.250  0.500  0.600-  31 2.10  15 2.11  16 2.11   8 2.11  14 2.15
  47  1.000  0.500  0.473-  30 2.11  15 2.11  13 2.11  14 2.11   5 2.11  11 2.12
  48  0.250  0.250  0.473-   6 2.11  13 2.11  29 2.11  14 2.11  16 2.11  12 2.12
  49  0.500  0.750  0.349-  17 2.11  27 2.11  19 2.11  20 2.11   4 2.11  21 2.13
  50  0.750  0.000  0.349-  18 2.11  19 2.11  20 2.11   3 2.11  28 2.11  22 2.13
  51  0.500  0.000  0.224-  19 2.11  17 2.11  18 2.11   2 2.11  25 2.11
  52  0.750  0.750  0.224-  20 2.11  26 2.11  17 2.11  18 2.11   1 2.11
  53  0.500  0.750  0.601-   8 2.11  23 2.11  31 2.12  24 2.12  21 2.16
  54  0.750  0.001  0.600-  32 2.11  24 2.11  23 2.11   7 2.11  22 2.14
  55  0.500  1.000  0.473-  23 2.11  21 2.11  29 2.11   6 2.11  22 2.11  19 2.12
  56  0.750  0.750  0.473-  30 2.11  21 2.11   5 2.11  22 2.11  24 2.12  20 2.12
  57  0.500  0.250  0.349-  25 2.11  12 2.11  27 2.11  28 2.11  19 2.11  29 2.12
  58  0.750  0.500  0.349-  26 2.11  20 2.11  27 2.11  28 2.11  11 2.11  30 2.13
  59  0.500  0.500  0.224-  27 2.11  17 2.11  25 2.11  26 2.11  10 2.11
  60  0.750  0.250  0.224-  28 2.11  26 2.11  25 2.11  18 2.11   9 2.11
  61  0.500  0.250  0.600-  31 2.10  23 2.11  16 2.11  32 2.11  29 2.15
  62  0.750  0.500  0.601-  32 2.11  15 2.12  31 2.12  24 2.12  30 2.16
  63  0.500  0.500  0.473-  31 2.10  30 2.11  21 2.11  29 2.11  14 2.11  27 2.12
  64  0.750  0.250  0.473-  32 2.11  13 2.11  30 2.11  29 2.11  22 2.11  28 2.12

IMPORTANT INFORMATION: All symmetrisations will be switched off!
NOSYMM: (Re-)initialisation of all symmetry stuff for point group C_1.

                                     Primitive cell

  volume of cell :    1211.2538

  direct lattice vectors                    reciprocal lattice vectors
     8.440984654  0.000000000  0.000000000     0.118469591  0.000000000  0.000000000
     0.000000000  8.440984654  0.000000000     0.000000000  0.118469591  0.000000000
     0.000000000  0.000000000 17.000000000     0.000000000  0.000000000  0.058823529

  length of vectors
     8.440984654  8.440984654 17.000000000     0.118469591  0.118469591  0.058823529

  position of ions in fractional coordinates (direct lattice)
     0.000013589  0.750000194  0.224440251
     0.250013589  0.000000194  0.224440251
     0.000013589  0.000000194  0.348572378
     0.250013589  0.750000194  0.348572378
     0.999966561  0.750070127  0.473605150
     0.249973769  0.999999806  0.473574844
     0.000085356  0.000081940  0.597372974
     0.249911674  0.749854424  0.597278904
     0.000013589  0.250000194  0.224440251
     0.250013589  0.500000194  0.224440251
     0.000013589  0.500000194  0.348572378
     0.250013589  0.250000194  0.348572378
     0.000017243  0.249980157  0.473578238
     0.249762180  0.499976802  0.473496967
     0.000015781  0.500169160  0.597346508
     0.249951061  0.249969241  0.597528815
     0.500013589  0.750000194  0.224440251
     0.750013589  0.000000194  0.224440251
     0.500013589  0.000000194  0.348572378
     0.750013589  0.750000194  0.348572378
     0.500273599  0.749982319  0.473747038
     0.750103789  0.999951129  0.473603294
     0.500188527  0.000063732  0.597268966
     0.751053112  0.750996103  0.598352833
     0.500013589  0.250000194  0.224440251
     0.750013589  0.500000194  0.224440251
     0.500013589  0.500000194  0.348572378
     0.750013589  0.250000194  0.348572378
     0.499983585  0.249784354  0.473489942
     0.749980441  0.500264035  0.473747642
     0.498953542  0.498986092  0.596951454
     0.749883494  0.249927580  0.597279352
     0.000013589  0.750000194  0.348572378
     0.250013589  0.000000194  0.348572378
     0.000013589  0.000000194  0.224440251
     0.250013589  0.750000194  0.224440251
     0.000512942  0.750094692  0.599721879
     0.250123386  0.999979282  0.600249487
     0.000150473  0.000132421  0.473209985
     0.250249984  0.750027907  0.473193538
     0.000013589  0.250000194  0.348572378
     0.250013589  0.500000194  0.348572378
     0.000013589  0.500000194  0.224440251
     0.250013589  0.250000194  0.224440251
     0.999986411  0.250117343  0.600233718
     0.249734853  0.499887790  0.599784938
     0.999791148  0.499924508  0.473255248
     0.249972411  0.249941824  0.473253190
     0.500013589  0.750000194  0.348572378
     0.750013589  0.000000194  0.348572378
     0.500013589  0.000000194  0.224440251
     0.750013589  0.750000194  0.224440251
     0.499914099  0.749702939  0.600650516
     0.750105757  0.000531742  0.599687753
     0.499934306  0.999831741  0.473236830
     0.749939395  0.749919876  0.473484321
     0.500013589  0.250000194  0.348572378
     0.750013589  0.500000194  0.348572378
     0.500013589  0.500000194  0.224440251
     0.750013589  0.250000194  0.224440251
     0.499875703  0.249746572  0.599863902
     0.749534934  0.499934376  0.600724769
     0.499995259  0.499984022  0.473233981
     0.750019295  0.250251889  0.473198844

  ion indices of the primitive-cell ions
   primitive index   ion index
                 1           1
                 2           2
                 3           3
                 4           4
                 5           5
                 6           6
[...]
   O         195.831          4.869         19.132          3.54304440
   O         195.795          4.869         19.131          3.54272537
   O         189.137          4.841         18.803          3.48196717
   O         190.923          4.848         18.891          3.49836941
   O         241.056          5.040         21.227          3.93093273
   O         240.848          5.040         21.218          3.92923143
   O         236.269          5.023         21.015          3.89169977
   O         236.665          5.025         21.033          3.89496255
   O         195.824          4.869         19.132          3.54298140
   O         195.802          4.869         19.131          3.54278166
   O         187.147          4.832         18.703          3.46360168
   O         191.611          4.851         18.925          3.50466982
   O         241.042          5.040         21.226          3.93081266
   O         241.270          5.041         21.236          3.93267208
   O         236.712          5.025         21.035          3.89534953
   O         236.270          5.023         21.015          3.89171266
   O         195.730          4.868         19.128          3.54213769
   O         195.803          4.869         19.131          3.54279185
   O         190.513          4.846         18.871          3.49460999
   O         187.083          4.832         18.700          3.46300522
   O         241.321          5.041         21.239          3.93308919
   O         240.543          5.038         21.204          3.92674117

  vdW correction parametrized for the method °0    þ

  IVDW =  21
  VDW_RADIUS =    50.000 A
  VDW_IDAMPF =  0
  VDW_S6 =     1.000
  VDW_SR =     0.960
  VDW_D =    20.000
  LVDW_ONECELL = F F F
  LVDW_SAMETYPE T T
  LVDW_EWALD = F

  Number of pair interactions contributing to vdW energy:  892040
  Edisp (eV):   -3.87824

 VOLUME and BASIS-vectors are now :
  energy-cutoff  :      520.00
  volume of cell :     1211.25
      direct lattice vectors                 reciprocal lattice vectors
     8.440984654  0.000000000  0.000000000     0.118469591  0.000000000  0.000000000
     0.000000000  8.440984654  0.000000000     0.000000000  0.118469591  0.000000000
     0.000000000  0.000000000 17.000000000     0.000000000  0.000000000  0.058823529

  length of vectors
     8.440984654  8.440984654 17.000000000     0.118469591  0.118469591  0.058823529

 FORCES acting on ions
    electron-ion (+dipol)            ewald-force                    non-local-force                 convergence-correction
   0.694E-01 0.221E-01 0.172E+04   -.707E-01 -.229E-01 -.171E+04   0.817E-03 0.520E-03 -.676E+01   -.148E-05 0.119E-05 -.166E+00
   -.180E-01 0.507E-01 0.172E+04   0.191E-01 -.514E-01 -.171E+04   -.712E-03 0.451E-03 -.677E+01   -.505E-05 -.302E-05 -.166E+00
   0.242E+00 0.228E+00 0.567E+03   -.228E+00 -.216E+00 -.568E+03   -.911E-02 -.831E-02 0.466E+00   -.284E-05 -.107E-05 -.898E-01
   -.128E+00 0.333E-01 0.567E+03   0.162E+00 -.201E-01 -.568E+03   -.211E-01 -.842E-02 0.448E+00   -.335E-05 -.473E-05 -.898E-01
   0.650E+00 0.314E+00 -.574E+03   -.703E+00 -.316E+00 0.574E+03   0.427E-01 -.184E-02 -.274E+00   0.322E-04 -.103E-04 0.175E-01
   -.302E+00 0.324E+00 -.575E+03   0.306E+00 -.318E+00 0.576E+03   0.395E-02 -.547E-02 -.183E+00   0.168E-04 -.176E-04 0.175E-01
   -.269E+00 -.251E+00 -.171E+04   0.393E+00 0.374E+00 0.170E+04   -.772E-01 -.772E-01 0.574E+01   0.545E-04 0.450E-04 0.115E+00
   -.141E+01 -.363E+00 -.171E+04   0.152E+01 0.417E+00 0.170E+04   -.465E-01 -.283E-01 0.567E+01   0.646E-04 0.341E-04 0.115E+00
   0.516E-01 -.224E-01 0.172E+04   -.523E-01 0.234E-01 -.171E+04   0.399E-03 -.611E-03 -.677E+01   -.629E-05 0.369E-05 -.166E+00
   -.189E-01 -.502E-01 0.172E+04   0.194E-01 0.509E-01 -.171E+04   -.302E-03 -.418E-03 -.676E+01   -.626E-05 -.456E-07 -.166E+00
   0.327E+00 -.215E+00 0.567E+03   -.365E+00 0.205E+00 -.568E+03   0.231E-01 0.683E-02 0.473E+00   -.136E-05 0.177E-05 -.898E-01
   -.131E-01 -.454E-01 0.567E+03   0.997E-03 0.312E-01 -.568E+03   0.775E-02 0.911E-02 0.464E+00   0.638E-05 0.103E-04 -.897E-01
   0.347E+00 -.315E+00 -.575E+03   -.342E+00 0.323E+00 0.576E+03   -.607E-02 0.100E-03 -.186E+00   -.117E-04 0.195E-04 0.175E-01
   -.201E+00 -.321E+00 -.573E+03   0.195E+00 0.310E+00 0.574E+03   0.147E-01 0.775E-02 -.244E+00   0.105E-04 0.703E-05 0.173E-01
   0.177E+01 0.156E+00 -.171E+04   -.177E+01 -.282E+00 0.170E+04   -.292E-01 0.750E-01 0.571E+01   -.559E-04 -.404E-04 0.115E+00
   0.374E+00 0.410E+00 -.171E+04   -.424E+00 -.473E+00 0.170E+04   0.291E-01 0.363E-01 0.573E+01   -.394E-04 -.420E-04 0.115E+00
   -.674E-01 0.211E-01 0.172E+04   0.692E-01 -.221E-01 -.171E+04   -.124E-02 0.631E-03 -.677E+01   0.594E-05 0.300E-05 -.166E+00
   0.177E-01 0.686E-01 0.172E+04   -.186E-01 -.699E-01 -.171E+04   0.554E-03 0.868E-03 -.676E+01   0.666E-05 -.360E-05 -.166E+00
   -.228E+00 0.342E+00 0.567E+03   0.217E+00 -.377E+00 -.568E+03   0.751E-02 0.213E-01 0.468E+00   0.726E-05 0.443E-05 -.897E-01
   0.117E+00 0.125E+00 0.566E+03   -.140E+00 -.149E+00 -.567E+03   0.149E-01 0.154E-01 0.509E+00   -.574E-05 0.184E-05 -.898E-01
   -.790E+00 0.368E+00 -.578E+03   0.842E+00 -.361E+00 0.578E+03   -.438E-01 -.119E-01 -.192E+00   -.740E-05 -.328E-04 0.176E-01
   0.298E+00 0.639E+00 -.574E+03   -.298E+00 -.691E+00 0.574E+03   -.453E-02 0.429E-01 -.284E+00   -.212E-04 0.345E-04 0.174E-01
   0.152E+00 0.168E+01 -.171E+04   -.279E+00 -.169E+01 0.170E+04   0.758E-01 -.163E-01 0.570E+01   -.457E-04 -.522E-04 0.115E+00
   0.283E+01 0.265E+01 -.171E+04   -.294E+01 -.276E+01 0.170E+04   -.142E-01 -.598E-02 0.580E+01   -.480E-04 -.599E-04 0.115E+00
   -.510E-01 -.232E-01 0.172E+04   0.517E-01 0.236E-01 -.171E+04   -.434E-03 -.242E-03 -.676E+01   -.120E-06 0.191E-05 -.166E+00
   0.165E-01 -.666E-01 0.172E+04   -.177E-01 0.685E-01 -.171E+04   0.716E-03 -.123E-02 -.677E+01   0.727E-05 -.267E-05 -.166E+00
   -.322E+00 -.334E+00 0.567E+03   0.344E+00 0.356E+00 -.567E+03   -.147E-01 -.145E-01 0.463E+00   -.927E-05 -.965E-05 -.897E-01
   -.132E-02 -.132E+00 0.567E+03   0.125E-01 0.167E+00 -.568E+03   -.707E-02 -.216E-01 0.450E+00   -.109E-06 -.895E-07 -.897E-01
   -.344E+00 -.247E+00 -.573E+03   0.331E+00 0.239E+00 0.574E+03   0.941E-02 0.155E-01 -.225E+00   0.130E-04 0.150E-04 0.173E-01
   0.313E+00 -.768E+00 -.578E+03   -.306E+00 0.821E+00 0.578E+03   -.127E-01 -.445E-01 -.172E+00   -.413E-04 -.892E-05 0.175E-01
   -.264E+01 -.280E+01 -.170E+04   0.271E+01 0.285E+01 0.170E+04   0.242E-01 0.440E-01 0.563E+01   0.528E-04 0.441E-04 0.114E+00
   -.328E+00 -.141E+01 -.171E+04   0.367E+00 0.150E+01 0.170E+04   -.217E-01 -.380E-01 0.567E+01   0.233E-04 0.768E-04 0.115E+00
   0.255E+00 0.858E-01 0.425E+03   -.252E+00 -.896E-01 -.425E+03   -.408E-02 0.411E-02 -.107E+00   0.269E-05 -.435E-06 -.711E-01
   -.744E-01 0.136E+00 0.425E+03   0.770E-01 -.141E+00 -.425E+03   -.255E-02 0.531E-02 -.127E+00   -.316E-05 -.179E-06 -.711E-01
   0.405E-01 0.389E-01 0.129E+04   -.395E-01 -.381E-01 -.130E+04   -.102E-02 -.102E-02 0.305E+01   -.734E-05 -.999E-05 -.127E+00
   -.194E-01 0.107E-01 0.129E+04   0.225E-01 -.950E-02 -.130E+04   -.349E-02 -.144E-02 0.305E+01   -.147E-04 -.520E-05 -.127E+00
   0.142E+00 0.338E+00 -.130E+04   -.225E-01 -.373E+00 0.130E+04   -.133E+00 0.400E-01 -.432E+01   0.526E-04 -.946E-05 0.858E-01
   -.301E+00 0.372E+00 -.130E+04   0.363E+00 -.413E+00 0.130E+04   -.678E-01 0.396E-01 -.456E+01   0.818E-05 -.261E-04 0.861E-01
   0.214E+00 0.206E+00 -.426E+03   -.213E+00 -.205E+00 0.426E+03   -.860E-02 -.817E-02 0.215E+00   0.133E-04 0.156E-04 0.694E-02
   -.438E+00 -.760E-01 -.426E+03   0.473E+00 0.800E-01 0.425E+03   -.458E-01 -.670E-02 0.234E+00   0.140E-04 0.657E-06 0.700E-02
   0.141E+00 -.869E-01 0.425E+03   -.146E+00 0.880E-01 -.425E+03   0.536E-02 -.959E-03 -.125E+00   -.172E-05 0.227E-05 -.711E-01
   -.928E-01 -.132E+00 0.425E+03   0.110E+00 0.138E+00 -.425E+03   -.185E-01 -.652E-02 -.988E-01   0.796E-05 -.523E-05 -.710E-01
   0.512E-01 -.386E-01 0.129E+04   -.544E-01 0.377E-01 -.130E+04   0.397E-02 0.109E-02 0.305E+01   0.176E-05 0.107E-04 -.127E+00
   -.676E-02 -.111E-01 0.129E+04   0.584E-02 0.991E-02 -.130E+04   0.131E-02 0.144E-02 0.305E+01   -.252E-05 0.514E-05 -.127E+00
   0.371E+00 -.285E+00 -.130E+04   -.409E+00 0.333E+00 0.130E+04   0.357E-01 -.520E-01 -.455E+01   -.219E-04 0.720E-05 0.861E-01
   0.360E+00 -.414E+00 -.130E+04   -.422E+00 0.453E+00 0.130E+04   0.514E-01 -.414E-01 -.446E+01   0.217E-04 0.348E-04 0.858E-01
   0.722E+00 -.176E+00 -.426E+03   -.743E+00 0.165E+00 0.426E+03   0.251E-01 0.204E-01 0.223E+00   0.107E-04 -.176E-04 0.701E-02
   0.666E-01 0.428E-01 -.426E+03   -.560E-01 -.354E-01 0.426E+03   -.100E-01 -.580E-02 0.154E+00   0.391E-05 0.315E-05 0.698E-02
   -.225E+00 0.738E-01 0.424E+03   0.208E+00 -.720E-01 -.424E+03   0.204E-01 -.231E-02 -.158E+00   0.186E-06 -.526E-05 -.711E-01
   0.727E-01 0.250E+00 0.425E+03   -.782E-01 -.246E+00 -.425E+03   0.624E-02 -.399E-02 -.107E+00   -.988E-06 0.342E-05 -.711E-01
   -.402E-01 0.517E-01 0.129E+04   0.391E-01 -.548E-01 -.130E+04   0.147E-02 0.373E-02 0.305E+01   0.585E-05 -.330E-05 -.127E+00
   0.178E-01 0.202E-01 0.129E+04   -.214E-01 -.237E-01 -.130E+04   0.448E-02 0.428E-02 0.305E+01   0.111E-04 0.385E-05 -.127E+00
   -.160E+01 0.891E+00 -.130E+04   0.172E+01 -.106E+01 0.130E+04   -.949E-01 0.182E+00 -.463E+01   -.437E-04 -.305E-04 0.864E-01
   0.368E+00 0.227E+00 -.129E+04   -.413E+00 -.117E+00 0.130E+04   0.517E-01 -.126E+00 -.433E+01   -.145E-04 0.513E-04 0.858E-01
   -.186E+00 0.721E+00 -.426E+03   0.175E+00 -.744E+00 0.426E+03   0.202E-01 0.277E-01 0.232E+00   -.101E-04 0.633E-05 0.702E-02
   0.482E+00 0.493E+00 -.429E+03   -.499E+00 -.506E+00 0.429E+03   0.288E-01 0.241E-01 0.599E-01   -.310E-04 -.234E-04 0.713E-02
   -.137E+00 -.106E+00 0.425E+03   0.142E+00 0.119E+00 -.425E+03   -.610E-02 -.150E-01 -.999E-01   -.138E-05 0.751E-05 -.710E-01
   0.570E-01 -.222E+00 0.424E+03   -.548E-01 0.204E+00 -.424E+03   -.249E-02 0.200E-01 -.158E+00   -.326E-05 -.554E-05 -.711E-01
   -.494E-01 -.500E-01 0.129E+04   0.532E-01 0.537E-01 -.130E+04   -.439E-02 -.438E-02 0.305E+01   0.118E-05 -.112E-05 -.127E+00
   0.629E-02 -.217E-01 0.129E+04   -.537E-02 0.247E-01 -.130E+04   -.932E-03 -.367E-02 0.305E+01   0.715E-05 0.769E-06 -.127E+00
   -.426E+00 0.341E+00 -.130E+04   0.471E+00 -.400E+00 0.130E+04   -.472E-01 0.492E-01 -.448E+01   0.350E-04 0.193E-04 0.859E-01
   0.718E+00 -.153E+01 -.130E+04   -.898E+00 0.165E+01 0.130E+04   0.201E+00 -.865E-01 -.464E+01   -.313E-04 -.442E-04 0.864E-01
   -.742E+00 -.756E+00 -.425E+03   0.746E+00 0.766E+00 0.425E+03   -.112E-01 -.157E-01 0.293E+00   0.106E-04 0.389E-05 0.699E-02
   -.110E+00 -.449E+00 -.426E+03   0.114E+00 0.475E+00 0.425E+03   -.569E-02 -.377E-01 0.237E+00   -.759E-05 0.118E-04 0.701E-02
   0.846E-01 0.121E-01 0.222E+02   0.248E-12 0.676E-13 0.256E-11   -.649E-01 -.383E-02 -.174E+02   0.143E-05 0.155E-04 -.183E+01

 POSITION                                       TOTAL-FORCE (eV/Angst)
      0.00011      6.33074      3.81548        -0.000438     -0.000292      0.542100
      2.11036      0.00000      3.81548         0.000183     -0.000277      0.544364
      0.00011      0.00000      5.92573         0.003270      0.003037      0.036636
      2.11036      6.33074      5.92573         0.009732      0.003407      0.043418
      8.44070      6.33133      8.05129        -0.004171     -0.004379      0.029359
      2.11002      8.44098      8.05077         0.008067     -0.000911      0.051067
      0.00072      0.00069     10.15534         0.035384      0.034886     -0.156829
      2.10950      6.32951     10.15374         0.048677      0.020483     -0.122450
      0.00011      2.11025      3.81548        -0.000332      0.000213      0.544171
      2.11036      4.22049      3.81548         0.000016      0.000169      0.542013
      0.00011      4.22049      5.92573        -0.011275     -0.002480      0.039733
      2.11036      2.11025      5.92573        -0.003216     -0.003674      0.039395
      0.00015      2.11008      8.05083        -0.001604      0.007176      0.050148
      2.10824      4.22030      8.04945         0.009646     -0.002174      0.041513
      0.00013      4.22192     10.15489        -0.028232     -0.037518     -0.136375
      2.10983      2.10999     10.15799        -0.016673     -0.021016     -0.163304
      4.22061      6.33074      3.81548         0.000365     -0.000339      0.546114
      6.33085      0.00000      3.81548        -0.000397     -0.000381      0.542067
      4.22061      0.00000      5.92573        -0.002794     -0.010372      0.039882
      6.33085      6.33074      5.92573        -0.005541     -0.005601      0.048110
      4.22280      6.33059      8.05370         0.000274     -0.005655      0.057268
      6.33161      8.44057      8.05126        -0.005628     -0.003476      0.029685
      4.22208      0.00054     10.15357        -0.038743     -0.029033     -0.126905
      6.33963      6.33915     10.17200        -0.118000     -0.110162     -0.243066
      4.22061      2.11025      3.81548         0.000092      0.000065      0.542168
      6.33085      4.22049      3.81548        -0.000466      0.000441      0.546144
      4.22061      4.22049      5.92573         0.005304      0.005548      0.044424
      6.33085      2.11025      5.92573         0.002893      0.009883      0.043422
      4.22035      2.10843      8.04933        -0.002510      0.008527      0.043515
      6.33057      4.22272      8.05371        -0.006540      0.000720      0.057086
      4.21166      4.21193     10.14817         0.092703      0.091566     -0.073651
      6.32976      2.10963     10.15375         0.013743      0.046286     -0.120220
      0.00011      6.33074      5.92573        -0.001646      0.000957      0.061877
      2.11036      0.00000      5.92573        -0.000494      0.001611      0.051687
      0.00011      0.00000      3.81548        -0.000383     -0.000441     -0.430721
      2.11036      6.33074      3.81548        -0.001210     -0.000579     -0.431286
      0.00433      6.33154     10.19527        -0.039166      0.012114     -0.045880
      2.11129      8.44081     10.20424        -0.018288      0.005465     -0.143189
      0.00127      0.00112      8.04457        -0.010285     -0.009869      0.005412
      2.11236      6.33097      8.04429        -0.020565     -0.004488      0.006063
      0.00011      2.11025      5.92573         0.001609     -0.000044      0.052624
      2.11036      4.22049      5.92573        -0.005182     -0.002144      0.055765
      0.00011      4.22049      3.81548         0.001385      0.000370     -0.431220
      2.11036      2.11025      3.81548         0.000489      0.000486     -0.430756
      8.44087      2.11124     10.20397         0.004175     -0.013916     -0.139648
      2.10801      4.21955     10.19634        -0.003389     -0.008696     -0.086528
      8.43922      4.21986      8.04534         0.010280      0.012955      0.000912
      2.11001      2.10976      8.04530        -0.000890      0.001352     -0.006092
      4.22061      6.33074      5.92573         0.006339     -0.000977      0.055269
      6.33085      0.00000      5.92573         0.001648     -0.001601      0.061930
      4.22061      0.00000      3.81548         0.000567      0.001237     -0.431314
      6.33085      6.33074      3.81548         0.001601      0.001460     -0.431939
      4.21977      6.32823     10.21106         0.014440      0.040039     -0.170610
      6.33163      0.00449     10.19469         0.015419     -0.039965     -0.045689
      4.21994      8.43956      8.04503         0.013170      0.009731     -0.000493
      6.33023      6.33006      8.04923         0.017283      0.016326     -0.001161
      4.22061      2.11025      5.92573        -0.001939     -0.004145      0.054691
      6.33085      4.22049      5.92573        -0.000957      0.006148      0.055107
      4.22061      4.22049      3.81548        -0.001516     -0.001574     -0.431736
      6.33085      2.11025      3.81548        -0.000323     -0.001331     -0.431259
      4.21944      2.10811     10.19769        -0.009492     -0.002240     -0.094802
      6.32681      4.21994     10.21232         0.055407      0.014761     -0.178349
      4.22045      4.22036      8.04498        -0.008880     -0.008756     -0.006353
      6.33090      2.11237      8.04438        -0.003000     -0.018911      0.006688
    total drift:                                0.006141      0.003197     -0.003042

  FREE ENERGIE OF THE ION-ELECTRON SYSTEM (eV)
  free  energy   TOTEN  =      -467.37121384 eV

  energy  without entropy=     -467.37121384  energy(sigma->0) =     -467.37121384