 vasp.6.3.0 20Jan22 (build Apr  1 2022 16:44:48) complex
 executed on        HPECrayEX_GCC date 2023.02.23  11:35:35

 INCAR:
   SYSTEM = MgO-rocksalt
   ISMEAR = 0
   SIGMA = 0.05
   EDIFF = 1E-6
   ALGO = ALL
   ISTART = 0
   IBRION = -1
   NSW = 0
   ISYM = 0
   DIPOL = 0.5 0.5 0.5
   IDIPOL = 3
   LDIPOL = .TRUE.
   LHFCALC = .TRUE.
   GGA = B5
   AEXX = 0.2
   AGGAX = 0.72
   AGGAC = 0.81
   ALDAC = 0.19
   IVDW = 1
   VDW_S6 = 1.05
   VDW_C6 = 0.63 0.70
   VDW_R0 = 1.243 1.342
   ENCUT = 600
   PREC = Accurate
   LASPH = .TRUE.
   LREAL = .FALSE.
   ISPIN = 1
   NELM = 200
   NELMIN = 8
   NCORE = 8
   KPAR = 1
   LWAVE = .FALSE.
   LCHARG = .FALSE.

 POTCAR:    PAW_PBE Mg_pv 13Apr2007
 POTCAR:    PAW_PBE O 08Apr2002
 POTCAR:    PAW_PBE Mg_pv 13Apr2007
   VRHFIN =Mg: p6s2

   TITEL  = PAW_PBE Mg_pv 13Apr2007
   POMASS =   24.305; ZVAL   =    8.000    mass and valenz
   ENMAX  =  403.929; ENMIN  =  302.947 eV

   TITEL  = PAW_PBE O 08Apr2002
   POMASS =   16.000; ZVAL   =    6.000    mass and valenz
   ENMAX  =  400.000; ENMIN  =  300.000 eV

  PAW_PBE Mg_pv 13Apr2007               :
  PAW_PBE O 08Apr2002                   :

 POSCAR: Mg  O
  positions in direct lattice
 exchange correlation table for  LEXCH =       12
   RHO(1)=    0.500       N(1)  =     2000
   RHO(2)=  100.500       N(2)  =     4000

 ion  position               nearest neighbor table
   1  0.250  0.000  0.352-  33 2.11  35 2.11  36 2.11  43 2.11  52 2.11
   2  0.500  0.250  0.352-  34 2.11  35 2.11  36 2.11  44 2.11  51 2.11
   3  0.250  0.250  0.451-  35 2.11  34 2.11  33 2.11  41 2.11  50 2.11  39 2.11
   4  0.500  0.000  0.451-  40 2.11  36 2.11  33 2.11  34 2.11  42 2.11  49 2.11
   5  0.250  1.000  0.550-  40 2.11  39 2.11  47 2.11  56 2.11  33 2.11  37 2.15
   6  0.500  0.251  0.550-  48 2.10  55 2.11  39 2.11  40 2.12  34 2.13  38 2.13
   7  0.250  0.249  0.648-  39 2.09  37 2.11  54 2.11  38 2.11  45 2.11
   8  0.500  0.000  0.648-  38 2.08  46 2.09  40 2.09  53 2.12  37 2.12
   9  0.250  0.500  0.352-  41 2.11  35 2.11  43 2.11  44 2.11  60 2.11
  10  0.500  0.750  0.352-  42 2.11  36 2.11  43 2.11  44 2.11  59 2.11
  11  0.250  0.750  0.451-  43 2.11  41 2.11  42 2.11  33 2.11  58 2.11  47 2.11
  12  0.500  0.500  0.451-  44 2.11  41 2.11  42 2.11  34 2.11  57 2.11  48 2.13
  13  0.251  0.500  0.550-  48 2.10  39 2.11  47 2.11  64 2.12  41 2.13  45 2.13
  14  0.500  0.749  0.550-  48 2.10  47 2.11  63 2.11  40 2.12  42 2.13  46 2.14
  15  0.250  0.750  0.647-  47 2.09  62 2.11  37 2.11  45 2.11  46 2.11
  16  0.500  0.499  0.655-  38 2.13  45 2.14  61 2.14  46 2.15  48 2.22
  17  0.750  0.000  0.352-  49 2.11  36 2.11  51 2.11  52 2.11  59 2.11
  18  0.000  0.250  0.352-  50 2.11  35 2.11  51 2.11  52 2.11  60 2.11
  19  0.750  0.250  0.451-  51 2.11  49 2.11  50 2.11  34 2.11  57 2.11  55 2.11
  20  0.000  0.000  0.451-  52 2.11  49 2.11  50 2.11  33 2.11  58 2.11  56 2.11
  21  0.750  1.000  0.550-  40 2.11  55 2.11  63 2.11  56 2.11  49 2.11  53 2.15
  22  1.000  0.250  0.550-  64 2.11  55 2.11  39 2.11  56 2.11  50 2.11  54 2.15
  23  0.750  0.249  0.648-  55 2.09  53 2.11  54 2.11  38 2.11  61 2.11
  24  0.000  1.000  0.648-  56 2.10  54 2.11  37 2.11  53 2.11  62 2.11
  25  0.750  0.500  0.352-  57 2.11  51 2.11  44 2.11  59 2.11  60 2.11
  26  0.000  0.750  0.352-  58 2.11  52 2.11  43 2.11  59 2.11  60 2.11
  27  0.750  0.750  0.451-  59 2.11  49 2.11  57 2.11  58 2.11  42 2.11  63 2.11
  28  0.000  0.500  0.451-  64 2.11  60 2.11  57 2.11  58 2.11  41 2.11  50 2.11
  29  0.749  0.500  0.550-  48 2.10  55 2.11  63 2.11  64 2.12  57 2.13  61 2.13
  30  0.000  0.750  0.550-  64 2.11  47 2.11  63 2.11  56 2.11  58 2.11  62 2.14
  31  0.750  0.750  0.647-  63 2.09  62 2.11  53 2.11  61 2.11  46 2.11
  32  0.000  0.500  0.648-  45 2.09  61 2.09  64 2.09  54 2.12  62 2.12
  33  0.250  0.000  0.451-   1 2.11   3 2.11   4 2.11  11 2.11  20 2.11   5 2.11
  34  0.500  0.250  0.451-   2 2.11   3 2.11   4 2.11  12 2.11  19 2.11   6 2.13
  35  0.250  0.250  0.352-   3 2.11   2 2.11   1 2.11   9 2.11  18 2.11
  36  0.500  0.000  0.352-   4 2.11   2 2.11   1 2.11  10 2.11  17 2.11
  37  0.249  1.000  0.650-  24 2.11   7 2.11  15 2.11   8 2.12   5 2.15
  38  0.500  0.247  0.650-   8 2.08   7 2.11  23 2.11  16 2.13   6 2.13
  39  0.250  0.250  0.550-   7 2.09  22 2.11   5 2.11  13 2.11   6 2.11   3 2.11
  40  0.500  1.000  0.549-   8 2.09  21 2.11   5 2.11   4 2.11  14 2.12   6 2.12
  41  0.250  0.500  0.451-   9 2.11   3 2.11  11 2.11  12 2.11  28 2.11  13 2.13
  42  0.500  0.750  0.451-  10 2.11   4 2.11  11 2.11  12 2.11  27 2.11  14 2.13
  43  0.250  0.750  0.352-  11 2.11   9 2.11  10 2.11   1 2.11  26 2.11
  44  0.500  0.500  0.352-  12 2.11   9 2.11  10 2.11   2 2.11  25 2.11
  45  0.247  0.500  0.650-  32 2.09  15 2.11   7 2.11  13 2.13  16 2.14
  46  0.500  0.753  0.651-   8 2.09  15 2.11  31 2.11  14 2.14  16 2.15
  47  0.250  0.750  0.550-  15 2.09   5 2.11  30 2.11  14 2.11  13 2.11  11 2.11
  48  0.500  0.500  0.550-  14 2.10  29 2.10  13 2.10   6 2.10  12 2.13  16 2.22
  49  0.750  0.000  0.451-  17 2.11   4 2.11  19 2.11  20 2.11  27 2.11  21 2.11
  50  0.000  0.250  0.451-  18 2.11   3 2.11  19 2.11  20 2.11  28 2.11  22 2.11
  51  0.750  0.250  0.352-  19 2.11  17 2.11  18 2.11   2 2.11  25 2.11
  52  0.000  0.000  0.352-  20 2.11  17 2.11  18 2.11   1 2.11  26 2.11
  53  0.751  1.000  0.650-  24 2.11  23 2.11  31 2.11   8 2.12  21 2.15
  54  0.000  0.249  0.650-  24 2.11   7 2.11  23 2.11  32 2.12  22 2.15
  55  0.750  0.250  0.550-  23 2.09  22 2.11  21 2.11  29 2.11   6 2.11  19 2.11
  56  1.000  1.000  0.550-  24 2.10  20 2.11  30 2.11  21 2.11   5 2.11  22 2.11
  57  0.750  0.500  0.451-  25 2.11  19 2.11  12 2.11  27 2.11  28 2.11  29 2.13
  58  0.000  0.750  0.451-  26 2.11  20 2.11  11 2.11  27 2.11  28 2.11  30 2.11
  59  0.750  0.750  0.352-  27 2.11  17 2.11  25 2.11  26 2.11  10 2.11
  60  0.000  0.500  0.352-  28 2.11  18 2.11  25 2.11  26 2.11   9 2.11
  61  0.753  0.500  0.650-  32 2.09  31 2.11  23 2.11  29 2.13  16 2.14
  62  0.000  0.750  0.650-  24 2.11  15 2.11  31 2.11  32 2.12  30 2.14
  63  0.750  0.750  0.550-  31 2.09  21 2.11  30 2.11  14 2.11  29 2.11  27 2.11
  64  1.000  0.500  0.549-  32 2.09  30 2.11  22 2.11  28 2.11  29 2.12  13 2.12

IMPORTANT INFORMATION: All symmetrisations will be switched off!
NOSYMM: (Re-)initialisation of all symmetry stuff for point group C_1.

                                     Primitive cell

  volume of cell :    1519.6535

  direct lattice vectors                    reciprocal lattice vectors
     8.440582262  0.000000000  0.000000000     0.118475239  0.000000000  0.000000000
     0.000000000  8.440582262  0.000000000     0.000000000  0.118475239  0.000000000
     0.000000000  0.000000000 21.330436697     0.000000000  0.000000000  0.046881366

  length of vectors
     8.440582262  8.440582262 21.330436697     0.118475239  0.118475239  0.046881366

  position of ions in fractional coordinates (direct lattice)
     0.250000000  0.000000000  0.351610242
     0.500000000  0.250000000  0.351610242
     0.250000000  0.250000000  0.450536747
     0.500000000  0.000000000  0.450536747
     0.250260182  0.999860251  0.549678190
     0.500000020  0.251123605  0.550301925
     0.249776406  0.249438090  0.647519877
     0.500000006  0.000058106  0.647638248
     0.250000000  0.500000000  0.351610242
     0.500000000  0.750000000  0.351610242
     0.250000000  0.750000000  0.450536747
     0.500000000  0.500000000  0.450536747
     0.251295244  0.499807842  0.550351677
     0.499999991  0.748557874  0.550392014
     0.249569129  0.749979486  0.647466983
     0.499999991  0.498607096  0.654631564
     0.750000000  0.000000000  0.351610242
     0.000000000  0.250000000  0.351610242
     0.750000000  0.250000000  0.450536747
     0.000000000  0.000000000  0.450536747
     0.749739797  0.999860274  0.549678211
     0.999999979  0.250113073  0.549674442
     0.750223602  0.249438070  0.647519885
     0.000000010  0.999791920  0.647897593
     0.750000000  0.500000000  0.351610242
     0.000000000  0.750000000  0.351610242
     0.750000000  0.750000000  0.450536747
     0.000000000  0.500000000  0.450536747
     0.748704749  0.499807810  0.550351729
     0.000000002  0.749575326  0.549673924
     0.750430876  0.749979507  0.647466991
     0.000000021  0.499703594  0.647651095
     0.250000000  0.000000000  0.450536747
     0.500000000  0.250000000  0.450536747
     0.250000000  0.250000000  0.351610242
     0.500000000  0.000000000  0.351610242
     0.249357415  0.999764722  0.650244758
     0.499999989  0.246992516  0.650084017
     0.249841465  0.249714907  0.549611444
     0.500000013  0.999778971  0.549452976
     0.250000000  0.500000000  0.450536747
     0.500000000  0.750000000  0.450536747
     0.250000000  0.750000000  0.351610242
     0.500000000  0.500000000  0.351610242
     0.247174641  0.499732351  0.650286192
     0.499999996  0.752908910  0.650604496
     0.249942590  0.749963878  0.549656397
     0.500000016  0.499937500  0.550497276
     0.750000000  0.000000000  0.450536747
     0.000000000  0.250000000  0.450536747
     0.750000000  0.250000000  0.351610242
     0.000000000  0.000000000  0.351610242
     0.750642585  0.999764715  0.650244794
     0.000000026  0.249147452  0.650263053
     0.750158519  0.249714917  0.549611465
     0.999999989  0.999820762  0.549536835
     0.750000000  0.500000000  0.450536747
     0.000000000  0.750000000  0.450536747
     0.750000000  0.750000000  0.351610242
     0.000000000  0.500000000  0.351610242
     0.752825378  0.499732345  0.650286245
     0.000000017  0.750372505  0.650226287
     0.750057397  0.749963872  0.549656411
     0.999999977  0.499873592  0.549452345

  ion indices of the primitive-cell ions
   primitive index   ion index
                 1           1
                 2           2
                 3           3
                 4           4
                 5           5
                 6           6
                 7           7
                 8           8
                 9           9
                10          10
                11          11
                12          12
                13          13
                14          14
                15          15
                16          16
                17          17
                18          18
                19          19
                20          20
                21          21
                22          22
                23          23
                24          24
                25          25
                26          26
                27          27
                28          28
                29          29
                30          30
                31          31
                32          32
                33          33
                34          34
                35          35
                36          36
                37          37
                38          38
                39          39
                40          40
                41          41
                42          42
                43          43
                44          44
[...]
   0.50000000  0.75000000  0.45053675
   0.25000000  0.75000000  0.35161024
   0.50000000  0.50000000  0.35161024
   0.24717464  0.49973235  0.65028619
   0.50000000  0.75290891  0.65060450
   0.24994259  0.74996388  0.54965640
   0.50000002  0.49993750  0.55049728
   0.75000000  0.00000000  0.45053675
   0.00000000  0.25000000  0.45053675
   0.75000000  0.25000000  0.35161024
   0.00000000  0.00000000  0.35161024
   0.75064258  0.99976471  0.65024479
   0.00000003  0.24914745  0.65026305
   0.75015852  0.24971492  0.54961146
   0.99999999  0.99982076  0.54953684
   0.75000000  0.50000000  0.45053675
   0.00000000  0.75000000  0.45053675
   0.75000000  0.75000000  0.35161024
   0.00000000  0.50000000  0.35161024
   0.75282538  0.49973234  0.65028624
   0.00000002  0.75037251  0.65022629
   0.75005740  0.74996387  0.54965641
   0.99999998  0.49987359  0.54945235

 position of ions in cartesian coordinates  (Angst):
   2.11014557  0.00000000  7.50000000
   4.22029113  2.11014557  7.50000000
   2.11014557  2.11014557  9.61014557
   4.22029113  0.00000000  9.61014557
   2.11234166  8.43940270 11.72487583
   4.22029130  2.11962945 11.73818037
   2.10825830  2.10540272 13.81188175
   4.22029118  0.00049045 13.81440665
   2.11014557  4.22029113  7.50000000
   4.22029113  6.33043670  7.50000000
   2.11014557  6.33043670  9.61014557
   4.22029113  4.22029113  9.61014557
   2.12107818  4.21866921 11.73924160
   4.22029105  6.31826431 11.74010201
   2.10650876  6.33026355 13.81075349
   4.22029106  4.20853421 13.96357713
   6.33043670  0.00000000  7.50000000
   0.00000000  2.11014557  7.50000000
   6.33043670  2.11014557  9.61014557
   0.00000000  0.00000000  9.61014557
   6.32824044  8.43940289 11.72487628
   8.44058209  2.11109996 11.72479589
   6.33232402  2.10540255 13.81188191
   0.00000008  8.43882594 13.81993858
   6.33043670  4.22029113  7.50000000
   0.00000000  6.33043670  7.50000000
   6.33043670  6.33043670  9.61014557
   0.00000000  4.22029113  9.61014557
   6.31950402  4.21866894 11.73924271
   0.00000002  6.32685220 11.72478484
   6.33407354  6.33026373 13.81075367
   0.00000017  4.21778929 13.81468069
   2.11014557  0.00000000  9.61014557
   4.22029113  2.11014557  9.61014557
   2.11014557  2.11014557  7.50000000
   4.22029113  0.00000000  7.50000000
   2.10472177  8.43859638 13.87000466
   4.22029104  2.08476065 13.86657598
   2.10880744  2.10773922 11.72345212
   4.22029124  8.43871665 11.72007191
   2.11014557  4.22029113  9.61014557
   4.22029113  6.33043670  9.61014557
   2.11014557  6.33043670  7.50000000
   4.22029113  4.22029113  7.50000000
   2.08629789  4.21803202 13.87088846
   4.22029109  6.35498959 13.87767801
   2.10966099  6.33013180 11.72441098
   4.22029127  4.21976359 11.74234729
   6.33043670  0.00000000  9.61014557
   0.00000000  2.11014557  9.61014557
   6.33043670  2.11014557  7.50000000
   0.00000000  0.00000000  7.50000000
   6.33586049  8.43859632 13.87000542
   0.00000022  2.10294957 13.87039489
   6.33177469  2.10773930 11.72345256
   8.44058217  8.43906939 11.72186067
   6.33043670  4.22029113  9.61014557
   0.00000000  6.33043670  9.61014557
   6.33043670  6.33043670  7.50000000
   0.00000000  4.22029113  7.50000000
   6.35428453  4.21803197 13.87088958
   0.00000014  6.33358086 13.86961065
   6.33092116  6.33013176 11.72441129
   8.44058207  4.21922418 11.72005847

--------------------------------------- Iteration      FINAL  ---------------------------------------

--------------------OUTCAR has been truncated-------------------------

[...]

--------------------OUTCAR has been truncated-------------------------

  DFT-D2 method for vdW energy calculation

  Parameters of vdW forcefield:
         C6(Jnm^6/mol)     R0(A)
   Mg       0.630          1.243
   O        0.700          1.342

  vdW correction parametrized for the method ®óÿ      

  IVDW =   1
  VDW_RADIUS =    50.000 A
  VDW_S6 =     1.050
  VDW_SR =     1.000
  VDW_D =    20.000
  LVDW_EWALD = F

  Number of pair interactions contributing to vdW energy:  723282
  Edisp (eV):   -5.07954

 VOLUME and BASIS-vectors are now :
  energy-cutoff  :      600.00
  volume of cell :     1519.65
      direct lattice vectors                 reciprocal lattice vectors
     8.440582262  0.000000000  0.000000000     0.118475239  0.000000000  0.000000000
     0.000000000  8.440582262  0.000000000     0.000000000  0.118475239  0.000000000
     0.000000000  0.000000000 21.330436697     0.000000000  0.000000000  0.046881366

  length of vectors
     8.440582262  8.440582262 21.330436697     0.118475239  0.118475239  0.046881366

 FORCES acting on ions:
    Electron-Ion                     Ewald-Force                    Non-Local-Force
   -.266E+00 0.324E-01 0.207E+04   0.272E+00 -.336E-01 -.206E+04   -.365E-02 0.759E-03 -.638E+01
   0.441E-06 -.342E+00 0.207E+04   0.823E-05 0.351E+00 -.206E+04   -.929E-05 -.603E-02 -.640E+01
   -.142E+01 -.148E+01 0.685E+03   0.146E+01 0.152E+01 -.686E+03   -.251E-01 -.264E-01 0.425E+00
   -.212E-04 0.169E+00 0.685E+03   0.267E-04 -.192E+00 -.686E+03   -.307E-05 0.143E-01 0.309E+00
   -.870E+00 0.347E+00 -.686E+03   0.858E+00 -.350E+00 0.686E+03   -.126E-01 -.306E-03 -.121E+00
   0.879E-04 -.447E+01 -.693E+03   -.889E-04 0.482E+01 0.694E+03   -.427E-05 -.324E+00 -.256E+00
   -.229E+01 -.278E+01 -.205E+04   0.174E+01 0.229E+01 0.204E+04   0.388E+00 0.357E+00 0.553E+01
   0.669E-04 0.896E+00 -.205E+04   -.615E-04 -.105E+01 0.204E+04   -.174E-04 0.951E-01 0.527E+01
   -.341E+00 -.336E-01 0.207E+04   0.350E+00 0.341E-01 -.206E+04   -.638E-02 -.251E-03 -.640E+01
   -.562E-05 0.341E+00 0.207E+04   0.113E-04 -.351E+00 -.206E+04   -.134E-04 0.647E-02 -.641E+01
   -.150E+01 0.145E+01 0.685E+03   0.156E+01 -.151E+01 -.685E+03   -.378E-01 0.348E-01 0.435E+00
   -.480E-04 -.201E+00 0.680E+03   0.566E-04 0.211E+00 -.681E+03   -.670E-05 -.685E-02 0.575E+00
   -.456E+01 -.414E+00 -.695E+03   0.492E+01 0.423E+00 0.695E+03   -.334E+00 -.305E-02 -.255E+00
   -.457E-04 0.475E+01 -.697E+03   0.472E-04 -.511E+01 0.697E+03   0.221E-06 0.330E+00 -.226E+00
   -.381E+01 0.309E+01 -.205E+04   0.341E+01 -.261E+01 0.204E+04   0.309E+00 -.346E+00 0.548E+01
   0.107E-04 -.400E+01 -.211E+04   -.820E-06 0.393E+01 0.210E+04   -.125E-04 0.164E+00 0.645E+01
   0.266E+00 0.324E-01 0.207E+04   -.272E+00 -.336E-01 -.206E+04   0.365E-02 0.757E-03 -.638E+01
   0.158E-05 -.267E+00 0.207E+04   -.854E-05 0.272E+00 -.206E+04   -.126E-05 -.330E-02 -.638E+01
   0.142E+01 -.148E+01 0.685E+03   -.146E+01 0.152E+01 -.686E+03   0.251E-01 -.264E-01 0.425E+00
   0.312E-04 0.740E-01 0.687E+03   -.377E-04 -.793E-01 -.687E+03   0.813E-06 0.309E-02 0.340E+00
   0.870E+00 0.347E+00 -.686E+03   -.858E+00 -.350E+00 0.686E+03   0.126E-01 -.299E-03 -.121E+00
   -.234E-04 -.846E+00 -.686E+03   0.342E-04 0.834E+00 0.687E+03   -.141E-04 -.136E-01 -.106E+00
   0.229E+01 -.278E+01 -.205E+04   -.174E+01 0.229E+01 0.204E+04   -.388E+00 0.357E+00 0.553E+01
   0.186E-04 0.169E+00 -.205E+04   0.382E-05 -.152E+00 0.205E+04   -.347E-04 -.144E-01 0.538E+01
   0.341E+00 -.336E-01 0.207E+04   -.350E+00 0.341E-01 -.206E+04   0.639E-02 -.256E-03 -.640E+01
   0.228E-05 0.266E+00 0.207E+04   -.115E-04 -.272E+00 -.206E+04   0.555E-05 0.376E-02 -.638E+01
   0.150E+01 0.145E+01 0.685E+03   -.156E+01 -.151E+01 -.685E+03   0.378E-01 0.348E-01 0.435E+00
   0.437E-04 -.103E+00 0.685E+03   -.571E-04 0.955E-01 -.686E+03   0.633E-05 0.488E-02 0.310E+00
   0.456E+01 -.414E+00 -.695E+03   -.492E+01 0.423E+00 0.695E+03   0.334E+00 -.306E-02 -.255E+00
   0.734E-04 0.856E+00 -.686E+03   -.777E-04 -.842E+00 0.686E+03   -.586E-06 0.119E-01 -.120E+00
   0.381E+01 0.309E+01 -.205E+04   -.341E+01 -.261E+01 0.204E+04   -.309E+00 -.346E+00 0.548E+01
   0.150E-04 -.188E+00 -.205E+04   -.508E-08 0.169E+00 0.204E+04   -.232E-04 0.168E-01 0.529E+01
   -.660E+00 0.102E+00 0.515E+03   0.670E+00 -.944E-01 -.515E+03   -.128E-01 -.868E-02 -.313E-01
   -.188E-04 -.109E+01 0.512E+03   0.128E-04 0.104E+01 -.512E+03   -.310E-05 0.604E-01 -.136E+00
   -.229E+00 -.233E+00 0.155E+04   0.235E+00 0.241E+00 -.156E+04   -.785E-02 -.919E-02 0.313E+01
   -.232E-05 0.288E-01 0.155E+04   0.632E-05 -.306E-01 -.156E+04   -.154E-05 0.215E-02 0.313E+01
   -.102E+01 0.411E+00 -.156E+04   0.107E+01 -.480E+00 0.157E+04   -.162E-02 0.778E-01 -.480E+01
   0.180E-05 -.635E+01 -.156E+04   -.110E-04 0.604E+01 0.156E+04   0.908E-05 0.572E+00 -.388E+01
   -.189E+01 -.204E+01 -.509E+03   0.184E+01 0.199E+01 0.509E+03   0.691E-01 0.682E-01 0.514E+00
   0.443E-04 0.473E+00 -.508E+03   -.399E-04 -.497E+00 0.507E+03   -.307E-05 0.314E-01 0.466E+00
   -.107E+01 -.133E+00 0.511E+03   0.101E+01 0.143E+00 -.511E+03   0.688E-01 -.115E-01 -.152E+00
   -.307E-04 0.107E+01 0.511E+03   0.378E-04 -.100E+01 -.511E+03   -.282E-05 -.782E-01 -.167E+00
   -.237E+00 0.234E+00 0.155E+04   0.246E+00 -.241E+00 -.156E+04   -.103E-01 0.858E-02 0.313E+01
   -.160E-04 -.285E-01 0.155E+04   0.886E-05 0.306E-01 -.156E+04   -.685E-06 -.265E-02 0.311E+01
   -.744E+01 -.610E+00 -.156E+04   0.724E+01 0.666E+00 0.156E+04   0.487E+00 -.650E-01 -.397E+01
   0.125E-04 0.887E+01 -.156E+04   0.294E-07 -.876E+01 0.156E+04   -.615E-05 -.426E+00 -.410E+01
   -.227E+01 0.210E+01 -.510E+03   0.224E+01 -.206E+01 0.509E+03   0.499E-01 -.587E-01 0.525E+00
   0.137E-04 -.692E+00 -.535E+03   -.151E-04 0.717E+00 0.536E+03   -.284E-05 -.340E-01 -.871E+00
   0.660E+00 0.102E+00 0.515E+03   -.670E+00 -.945E-01 -.515E+03   0.128E-01 -.868E-02 -.313E-01
   0.185E-04 -.674E+00 0.515E+03   -.179E-04 0.691E+00 -.515E+03   -.249E-05 -.213E-01 -.315E-01
   0.229E+00 -.233E+00 0.155E+04   -.235E+00 0.241E+00 -.156E+04   0.786E-02 -.919E-02 0.313E+01
   -.982E-06 0.202E-01 0.155E+04   -.664E-05 -.200E-01 -.156E+04   0.885E-05 -.243E-03 0.314E+01
   0.102E+01 0.411E+00 -.156E+04   -.107E+01 -.480E+00 0.157E+04   0.163E-02 0.778E-01 -.480E+01
   0.424E-04 -.963E+00 -.156E+04   -.150E-04 0.985E+00 0.157E+04   -.130E-04 0.244E-01 -.479E+01
   0.189E+01 -.204E+01 -.509E+03   -.184E+01 0.199E+01 0.509E+03   -.691E-01 0.682E-01 0.514E+00
   0.201E-04 0.728E-01 -.510E+03   -.283E-04 -.759E-01 0.510E+03   0.146E-05 0.514E-02 0.167E+00
   0.107E+01 -.133E+00 0.511E+03   -.101E+01 0.143E+00 -.511E+03   -.688E-01 -.115E-01 -.152E+00
   0.307E-04 0.647E+00 0.515E+03   -.400E-04 -.648E+00 -.514E+03   0.911E-05 0.245E-02 -.264E-01
   0.237E+00 0.234E+00 0.155E+04   -.246E+00 -.241E+00 -.156E+04   0.103E-01 0.858E-02 0.313E+01
   0.676E-05 -.198E-01 0.155E+04   -.895E-05 0.200E-01 -.156E+04   -.192E-05 -.261E-03 0.313E+01
   0.744E+01 -.610E+00 -.156E+04   -.724E+01 0.666E+00 0.156E+04   -.487E+00 -.650E-01 -.397E+01
   0.316E-04 0.994E+00 -.156E+04   -.239E-04 -.102E+01 0.157E+04   -.678E-05 -.196E-01 -.479E+01
   0.227E+01 0.210E+01 -.510E+03   -.224E+01 -.206E+01 0.509E+03   -.499E-01 -.587E-01 0.525E+00
   0.698E-05 -.660E-01 -.508E+03   -.176E-05 0.638E-01 0.507E+03   -.399E-06 0.793E-03 0.469E+00
   -.180E-04 -.484E+00 0.153E+02   0.344E-12 -.969E-13 -.364E-11   0.515E-05 0.437E+00 -.134E+02

 POSITION                                       TOTAL-FORCE (eV/Angst)
      2.11015      0.00000      7.50000         0.001508     -0.000171      0.464263
      4.22029      2.11015      7.50000        -0.000003      0.002259      0.468507
      2.11015      2.11015      9.61015         0.011794      0.011963      0.019451
      4.22029      0.00000      9.61015         0.000002     -0.006329      0.041514
      2.11234      8.43940     11.72488        -0.023716     -0.003113      0.028530
      4.22029      2.11963     11.73818        -0.000005     -0.002263     -0.065702
      2.10826      2.10540     13.81188        -0.116459     -0.093802     -0.006530
      4.22029      0.00049     13.81441        -0.000012     -0.048294      0.036536
      2.11015      4.22029      7.50000         0.002254      0.000264      0.469637
      4.22029      6.33044      7.50000        -0.000010     -0.002175      0.470876
      2.11015      6.33044      9.61015         0.016993     -0.016209      0.023371
      4.22029      4.22029      9.61015         0.000001      0.002589      0.048023
      2.12108      4.21867     11.73924        -0.001081      0.005509     -0.053105
      4.22029      6.31826     11.74010         0.000002      0.002056     -0.032650
      2.10651      6.33026     13.81075        -0.054815      0.094234      0.025519
      4.22029      4.20853     13.96358        -0.000003      0.102149     -0.948550
      6.33044      0.00000      7.50000        -0.001511     -0.000171      0.464277
      0.00000      2.11015      7.50000        -0.000008      0.001536      0.464361
      6.33044      2.11015      9.61015        -0.011785      0.011954      0.019449
      0.00000      0.00000      9.61015        -0.000006     -0.001613      0.023509
      6.32824      8.43940     11.72488         0.023730     -0.003110      0.028524
      8.44058      2.11110     11.72480        -0.000003     -0.024277      0.027821
      6.33232      2.10540     13.81188         0.116472     -0.093789     -0.006473
      0.00000      8.43883     13.81994        -0.000012      0.000724     -0.018874
      6.33044      4.22029      7.50000        -0.002240      0.000256      0.469637
      0.00000      6.33044      7.50000        -0.000002     -0.001452      0.463853
      6.33044      6.33044      9.61015        -0.016998     -0.016209      0.023370
      0.00000      4.22029      9.61015        -0.000006     -0.002276      0.040978
      6.31950      4.21867     11.73924         0.001091      0.005516     -0.053132
      0.00000      6.32685     11.72478        -0.000004      0.025386      0.026390
      6.33407      6.33026     13.81075         0.054837      0.094225      0.025482
      0.00000      4.21779     13.81468        -0.000007      0.000019      0.030175
      2.11015      0.00000      9.61015        -0.005120     -0.002654      0.033971
      4.22029      2.11015      9.61015        -0.000010      0.017107      0.064122
      2.11015      2.11015      7.50000        -0.002602     -0.002993     -0.434949
      4.22029      0.00000      7.50000         0.000003      0.000809     -0.435734
      2.10472      8.43860     13.87000         0.046681      0.019291     -0.130539
      4.22029      2.08476     13.86658         0.000001      0.359960      0.145775
      2.10881      2.10774     11.72345         0.030141      0.028038      0.020175
      4.22029      8.43872     11.72007         0.000001      0.011865      0.042797
      2.11015      4.22029      9.61015         0.019384     -0.003059      0.063409
      4.22029      6.33044      9.61015         0.000004     -0.022093      0.062017
      2.11015      6.33044      7.50000        -0.003426      0.002979     -0.435371
      4.22029      4.22029      7.50000        -0.000008     -0.000788     -0.440181
      2.08630      4.21803     13.87089         0.365667     -0.017072      0.112941
      4.22029      6.35499     13.87768         0.000006     -0.394281      0.062887
      2.10966      6.33013     11.72441         0.019198     -0.025417      0.009625
      4.22029      4.21976     11.74235        -0.000004     -0.013332      0.039892
      6.33044      0.00000      9.61015         0.005129     -0.002648      0.033974
      0.00000      2.11015      9.61015        -0.000002     -0.007464      0.033362
      6.33044      2.11015      7.50000         0.002596     -0.002997     -0.434932
      0.00000      0.00000      7.50000         0.000003      0.000020     -0.432490
      6.33586      8.43860     13.87001        -0.046681      0.019307     -0.130577
      0.00000      2.10295     13.87039         0.000016      0.052136     -0.129807
      6.33177      2.10774     11.72345        -0.030141      0.028036      0.020171
      8.44058      8.43907     11.72186        -0.000006      0.002875     -0.027144
      6.33044      4.22029      9.61015        -0.019378     -0.003066      0.063415
      0.00000      6.33044      9.61015         0.000001      0.002185      0.035427
      6.33044      6.33044      7.50000         0.003427      0.002976     -0.435352
      0.00000      4.22029      7.50000        -0.000005      0.000018     -0.435674
      6.35428      4.21803     13.87089        -0.365687     -0.017064      0.112930
      0.00000      6.33358     13.86961         0.000002     -0.051364     -0.127904
      6.33092      6.33013     11.72441        -0.019195     -0.025419      0.009620
      8.44058      4.21922     11.72006         0.000005     -0.001272      0.045103
    total drift:                               -0.000010     -0.006953      0.006057

  FREE ENERGIE OF THE ION-ELECTRON SYSTEM (eV)
  free  energy   TOTEN  =      -438.36644484 eV

  energy  without entropy=     -438.36644484  energy(sigma->0) =     -438.36644484