 vasp.6.3.0 20Jan22 (build Apr  1 2022 16:44:48) complex
 executed on        HPECrayEX_GCC date 2022.11.03  12:14:55

 INCAR:
   SYSTEM = MgO-rocksalt
   ISMEAR = 0
   SIGMA = 0.05
   EDIFF = 1E-7
   ALGO = ALL
   ISTART = 0
   IBRION = 2
   NSW = 1000
   ISYM = 0
   ISIF = 2
   EDIFFG = -0.01
   DIPOL = 0.5 0.5 0.5
   IDIPOL = 3
   LDIPOL = .TRUE.
   LHFCALC = .TRUE.
   GGA = PE
   IVDW = 13
   VDW_S8 = 1.2007
   VDW_A1 = 0.4009
   VDW_A2 = 5.0293
   ENCUT = 600
   PREC = Accurate
   LASPH = .TRUE.
   LREAL = .FALSE.
   ISPIN = 1
   NELM = 200
   NELMIN = 8
   NCORE = 8
   KPAR = 1
   LWAVE = .FALSE.
   LCHARG = .FALSE.

 POTCAR:    PAW_PBE C 08Apr2002
 POTCAR:    PAW_PBE H 15Jun2001
 POTCAR:    PAW_PBE Mg_pv 13Apr2007
 POTCAR:    PAW_PBE O 08Apr2002
 POTCAR:    PAW_PBE C 08Apr2002
   VRHFIN =C: s2p2

   TITEL  = PAW_PBE C 08Apr2002
   POMASS =   12.011; ZVAL   =    4.000    mass and valenz
   ENMAX  =  400.000; ENMIN  =  300.000 eV

   TITEL  = PAW_PBE H 15Jun2001
   POMASS =    1.000; ZVAL   =    1.000    mass and valenz
   ENMAX  =  250.000; ENMIN  =  200.000 eV

   TITEL  = PAW_PBE Mg_pv 13Apr2007
   POMASS =   24.305; ZVAL   =    8.000    mass and valenz
   ENMAX  =  403.929; ENMIN  =  302.947 eV

   TITEL  = PAW_PBE O 08Apr2002
   POMASS =   16.000; ZVAL   =    6.000    mass and valenz
   ENMAX  =  400.000; ENMIN  =  300.000 eV

  PAW_PBE C 08Apr2002                   :
  PAW_PBE H 15Jun2001                   :
  PAW_PBE Mg_pv 13Apr2007               :
  PAW_PBE O 08Apr2002                   :

 POSCAR:  C  H Mg  O
  positions in direct lattice
|           W    W    AA    RRRRR   N    N  II  N    N   GGGG   !!!           |
|           W    W   A  A   R    R  NN   N  II  NN   N  G    G  !!!           |
|           W    W  A    A  R    R  N N  N  II  N N  N  G       !!!           |
|           W WW W  AAAAAA  RRRRR   N  N N  II  N  N N  G  GGG   !            |
|           WW  WW  A    A  R   R   N   NN  II  N   NN  G    G                |
|           W    W  A    A  R    R  N    N  II  N    N   GGGG   !!!           |
|     Specifying the vdW parameters                                           |
|     VDW_S8 = 1.201                                                          |
|     VDW_A1 = 0.401                                                          |
|     VDW_A2 = 5.029                                                          |
|     in the INCAR file will overwrite the defaults for pbe0. Please make     |
|     sure that is what you intended.                                         |

 ion  position               nearest neighbor table
   1  0.500  0.500  0.791-   6 1.09   5 1.09   8 1.09   7 1.09
   2  1.000  0.500  0.791-  10 1.09   9 1.09  12 1.09  11 1.09
   3  0.500  1.000  0.791-  14 1.09  13 1.09  16 1.09  15 1.09
   4  1.000  1.000  0.791-  18 1.09  17 1.09  20 1.09  19 1.09
   5  0.500  0.607  0.820-   1 1.09
   6  0.500  0.393  0.820-   1 1.09
   7  0.608  0.500  0.762-   1 1.09
   8  0.392  0.500  0.762-   1 1.09
   9  0.893  0.500  0.820-   2 1.09
  10  0.107  0.500  0.820-   2 1.09
  11  1.000  0.608  0.762-   2 1.09
  12  1.000  0.392  0.762-   2 1.09
  13  0.393  0.000  0.820-   3 1.09
  14  0.607  0.000  0.820-   3 1.09
  15  0.500  0.108  0.762-   3 1.09
  16  0.500  0.892  0.762-   3 1.09
  17  0.000  0.107  0.820-   4 1.09
  18  0.000  0.893  0.820-   4 1.09
  19  0.108  0.000  0.762-   4 1.09
  20  0.892  0.000  0.762-   4 1.09
  21  0.250  0.000  0.353-  55 2.09  56 2.09  63 2.09  72 2.09  53 2.09
  22  0.500  0.250  0.353-  55 2.09  56 2.09  64 2.09  71 2.09  54 2.09
  23  0.250  0.250  0.451-  53 2.09  54 2.09  61 2.09  70 2.09  55 2.09  59 2.09
  24  0.500  0.000  0.451-  53 2.09  54 2.09  62 2.09  69 2.09  56 2.09  60 2.09
  25  0.250  0.000  0.550-  60 2.09  76 2.09  59 2.09  67 2.09  53 2.10  57 2.12
  26  0.500  0.250  0.550-  68 2.09  59 2.09  75 2.09  60 2.09  54 2.10  58 2.12
  27  0.250  0.250  0.647-  59 2.08  57 2.09  58 2.09  74 2.09  65 2.09
  28  0.500  0.000  0.647-  60 2.08  66 2.09  58 2.09  57 2.09  73 2.09
  29  0.250  0.500  0.353-  55 2.09  63 2.09  64 2.09  80 2.09  61 2.09
  30  0.500  0.750  0.353-  56 2.09  63 2.09  64 2.09  79 2.09  62 2.09
  31  0.250  0.750  0.451-  53 2.09  61 2.09  62 2.09  78 2.09  63 2.09  67 2.09
  32  0.500  0.500  0.451-  54 2.09  61 2.09  62 2.09  77 2.09  64 2.09  68 2.10
  33  0.250  0.500  0.550-  68 2.09  59 2.09  67 2.09  84 2.09  61 2.10  65 2.12
  34  0.500  0.750  0.550-  68 2.09  83 2.09  67 2.09  60 2.09  62 2.10  66 2.12
  35  0.250  0.750  0.647-  67 2.08  57 2.09  66 2.09  82 2.09  65 2.09
  36  0.500  0.500  0.648-  58 2.09  66 2.09  81 2.09  65 2.09  68 2.09
  37  0.750  0.000  0.353-  56 2.09  71 2.09  72 2.09  79 2.09  69 2.09
  38  0.000  0.250  0.353-  55 2.09  71 2.09  72 2.09  80 2.09  70 2.09
  39  0.750  0.250  0.451-  54 2.09  69 2.09  70 2.09  77 2.09  71 2.09  75 2.09
  40  0.000  0.000  0.451-  53 2.09  69 2.09  70 2.09  78 2.09  72 2.09  76 2.10
  41  0.750  0.000  0.550-  60 2.09  76 2.09  75 2.09  83 2.09  69 2.10  73 2.12
  42  1.000  0.250  0.550-  75 2.09  59 2.09  76 2.09  84 2.09  70 2.10  74 2.12
  43  0.750  0.250  0.647-  75 2.08  73 2.09  58 2.09  74 2.09  81 2.09
  44  1.000  1.000  0.647-  76 2.08  82 2.09  74 2.09  73 2.09  57 2.09
  45  0.750  0.500  0.353-  64 2.09  71 2.09  79 2.09  80 2.09  77 2.09
  46  0.000  0.750  0.353-  63 2.09  72 2.09  79 2.09  80 2.09  78 2.09
  47  0.750  0.750  0.451-  62 2.09  69 2.09  77 2.09  78 2.09  79 2.09  83 2.09
  48  0.000  0.500  0.451-  61 2.09  70 2.09  77 2.09  78 2.09  80 2.09  84 2.10
  49  0.750  0.500  0.550-  68 2.09  75 2.09  83 2.09  84 2.09  77 2.10  81 2.12
  50  1.000  0.750  0.550-  83 2.09  67 2.09  76 2.09  84 2.09  78 2.10  82 2.12
  51  0.750  0.750  0.647-  83 2.08  73 2.09  66 2.09  82 2.09  81 2.09
  52  1.000  0.500  0.647-  84 2.08  65 2.08  81 2.08  82 2.09  74 2.09
  53  0.250  0.000  0.451-  23 2.09  24 2.09  31 2.09  40 2.09  21 2.09  25 2.10
  54  0.500  0.250  0.451-  23 2.09  24 2.09  32 2.09  39 2.09  22 2.09  26 2.10
  55  0.250  0.250  0.353-  21 2.09  22 2.09  29 2.09  38 2.09  23 2.09
  56  0.500  0.000  0.353-  21 2.09  22 2.09  30 2.09  37 2.09  24 2.09
  57  0.250  0.000  0.650-  27 2.09  35 2.09  44 2.09  28 2.09  25 2.12
  58  0.500  0.250  0.649-  28 2.09  27 2.09  43 2.09  36 2.09  26 2.12
  59  0.250  0.250  0.549-  27 2.08  42 2.09  33 2.09  25 2.09  26 2.09  23 2.09
  60  0.500  0.000  0.549-  28 2.08  41 2.09  25 2.09  26 2.09  34 2.09  24 2.09
[...]
  70  0.000  0.250  0.451-  23 2.09  39 2.09  40 2.09  48 2.09  38 2.09  42 2.10
  71  0.750  0.250  0.353-  22 2.09  37 2.09  38 2.09  45 2.09  39 2.09
  72  0.000  0.000  0.353-  21 2.09  37 2.09  38 2.09  46 2.09  40 2.09
  73  0.750  0.000  0.650-  43 2.09  51 2.09  44 2.09  28 2.09  41 2.12
  74  1.000  0.250  0.650-  44 2.09  43 2.09  27 2.09  52 2.09  42 2.12
  75  0.750  0.250  0.549-  43 2.08  42 2.09  49 2.09  41 2.09  26 2.09  39 2.09
  76  1.000  0.000  0.549-  44 2.08  42 2.09  50 2.09  41 2.09  25 2.09  40 2.10
  77  0.750  0.500  0.451-  32 2.09  39 2.09  47 2.09  48 2.09  45 2.09  49 2.10
  78  0.000  0.750  0.451-  31 2.09  40 2.09  47 2.09  48 2.09  46 2.09  50 2.10
  79  0.750  0.750  0.353-  30 2.09  37 2.09  45 2.09  46 2.09  47 2.09
  80  0.000  0.500  0.353-  29 2.09  38 2.09  45 2.09  46 2.09  48 2.09
  81  0.750  0.500  0.650-  52 2.08  43 2.09  51 2.09  36 2.09  49 2.12
  82  1.000  0.750  0.650-  44 2.09  51 2.09  35 2.09  52 2.09  50 2.12
  83  0.750  0.750  0.549-  51 2.08  50 2.09  49 2.09  41 2.09  34 2.09  47 2.09
  84  1.000  0.500  0.549-  52 2.08  42 2.09  50 2.09  49 2.09  33 2.09  48 2.10

IMPORTANT INFORMATION: All symmetrisations will be switched off!
NOSYMM: (Re-)initialisation of all symmetry stuff for point group C_1.

                                     Primitive cell

  volume of cell :    1482.1129

  direct lattice vectors                    reciprocal lattice vectors
     8.349111827  0.000000000  0.000000000     0.119773219  0.000000000  0.000000000
     0.000000000  8.349111827  0.000000000     0.000000000  0.119773219  0.000000000
     0.000000000  0.000000000 21.261833870     0.000000000  0.000000000  0.047032632

  length of vectors
     8.349111827  8.349111827 21.261833870     0.119773219  0.119773219  0.047032632

  position of ions in fractional coordinates (direct lattice)
     0.499999845  0.499999895  0.790985147
     0.999999934  0.499999880  0.790985147
     0.499999934  0.999999880  0.790985147
     0.999999845  0.999999895  0.790985147
     0.500000026  0.606873873  0.820340115
     0.500000007  0.393126242  0.820340086
     0.607710071  0.500000027  0.761840837
     0.392290109  0.500000032  0.761840868
     0.893125956  0.500000061  0.820340115
     0.106873587  0.500000042  0.820340086
     0.999999803  0.607710106  0.761840837
     0.999999797  0.392290145  0.761840868
     0.393125956  0.000000061  0.820340115
     0.606873587  0.000000042  0.820340086
     0.499999803  0.107710106  0.761840837
     0.499999797  0.892290145  0.761840868
     0.000000026  0.106873873  0.820340115
     0.000000007  0.893126242  0.820340086
     0.107710071  0.000000027  0.761840837
     0.892290109  0.000000032  0.761840868
     0.250000000  0.000000000  0.352744737
     0.500000000  0.250000000  0.352744737
     0.250000000  0.250000000  0.450914912
     0.500000000  0.000000000  0.450914912
     0.250002059  0.000000021  0.549701940
     0.499999985  0.250125161  0.549775393
     0.250052983  0.249810988  0.647256905
     0.499999998  0.000000017  0.647286844
     0.250000000  0.500000000  0.352744737
     0.500000000  0.750000000  0.352744737
     0.250000000  0.750000000  0.450914912
     0.500000000  0.500000000  0.450914912
     0.250118172  0.499999977  0.549775604
     0.500000000  0.749874868  0.549775364
     0.250053002  0.750189031  0.647256894
     0.500000008  0.499999949  0.647956803
     0.750000000  0.000000000  0.352744737
     0.000000000  0.250000000  0.352744737
     0.750000000  0.250000000  0.450914912
     0.000000000  0.000000000  0.450914912
     0.749997956  0.000000020  0.549701949
     0.999999991  0.249987696  0.549722026
     0.749947068  0.249810996  0.647256912
     0.999999968  0.999999984  0.647396083
     0.750000000  0.500000000  0.352744737
     0.000000000  0.750000000  0.352744737
     0.750000000  0.750000000  0.450914912
     0.000000000  0.500000000  0.450914912
     0.749881839  0.499999992  0.549775619
     0.999999987  0.750012315  0.549721997
     0.749947072  0.750189020  0.647256912
     0.999999997  0.500000019  0.647300533
     0.250000000  0.000000000  0.450914912
     0.500000000  0.250000000  0.450914912
     0.250000000  0.250000000  0.352744737
     0.500000000  0.000000000  0.352744737
     0.249940563  0.000000012  0.649608281
     0.500000000  0.249734324  0.649381278
     0.249916718  0.250009585  0.549418272
     0.500000016  0.000000041  0.549347396
[...]
     0.000000000  0.250000000  0.450914912
     0.750000000  0.250000000  0.352744737
     0.000000000  0.000000000  0.352744737
     0.750059501  0.000000017  0.649608277
     0.999999995  0.249924609  0.649612784
     0.750083283  0.250009563  0.549418263
[...]
   6.26490320  4.17455578 13.81354248
   8.34911166  6.26246327 13.81195897
   6.26252917  6.26175390 11.68164037
   8.34911174  4.17455561 11.68228806

--------------------------------------- Iteration      FINAL  ---------------------------------------

--------------------OUTCAR has been truncated-------------------------

[...]

--------------------OUTCAR has been truncated-------------------------

  FORCE on cell =-STRESS in cart. coord.  units (eV):
  Direction    XX          YY          ZZ          XY          YZ          ZX
  Alpha Z  1000.86407  1000.86407  1000.86407
  Ewald  157276.45706157276.41730************     0.00000    -0.00009     0.00085
  Hartree167918.83140167918.81656************     0.00000    -0.00000     0.00006
  E(xc)   -1941.14999 -1941.15003 -1943.74594    -0.00000     0.00000    -0.00000
  Local  ************************335192.48329    -0.00000     0.00006    -0.00062
  n-local  -774.37585  -774.37576  -798.64066     0.00000     0.00000    -0.00002
  augment   827.37538   827.37538   816.57824     0.00000     0.00000    -0.00000
  Kinetic  7746.31542  7746.32066  7783.62194     0.00000    -0.00000    -0.00002
  Fock    -2535.03958 -2535.03941 -2531.15007    -0.00000     0.00000    -0.00000
  vdW        -9.91614    -9.91615    -7.43116     0.00000    -0.00000    -0.00000
  Total     -30.25683   -30.25775    -2.10304     0.00000    -0.00003     0.00024
  in kB     -32.70790   -32.70890    -2.27341     0.00000    -0.00003     0.00026

 VOLUME and BASIS-vectors are now :
  energy-cutoff  :      600.00
  volume of cell :     1482.11
      direct lattice vectors                 reciprocal lattice vectors
     8.349111827  0.000000000  0.000000000     0.119773219  0.000000000  0.000000000
     0.000000000  8.349111827  0.000000000     0.000000000  0.119773219  0.000000000
     0.000000000  0.000000000 21.261833870     0.000000000  0.000000000  0.047032632

  length of vectors
     8.349111827  8.349111827 21.261833870     0.119773219  0.119773219  0.047032632

 FORCES acting on ions:
    Electron-Ion                     Ewald-Force                    Non-Local-Force
   -.699E-04 -.120E-03 -.974E+03   0.111E-03 0.176E-03 0.974E+03   0.557E-04 0.771E-04 -.895E-02
   0.887E-04 -.945E-04 -.974E+03   -.141E-03 0.143E-03 0.974E+03   -.717E-04 0.677E-04 -.129E-01
   0.971E-04 -.854E-04 -.973E+03   -.152E-03 0.132E-03 0.974E+03   -.764E-04 0.638E-04 -.111E-01
   -.762E-04 -.121E-03 -.973E+03   0.121E-03 0.179E-03 0.974E+03   0.612E-04 0.811E-04 -.104E-01
   -.510E-04 -.379E+02 -.247E+03   0.548E-04 0.425E+02 0.250E+03   -.782E-05 -.445E+01 -.310E+01
   -.455E-04 0.379E+02 -.247E+03   0.487E-04 -.425E+02 0.250E+03   -.721E-05 0.445E+01 -.310E+01
   -.380E+02 -.736E-04 -.240E+03   0.428E+02 0.786E-04 0.237E+03   -.452E+01 -.104E-04 0.301E+01
   0.380E+02 -.756E-04 -.240E+03   -.428E+02 0.809E-04 0.237E+03   0.452E+01 -.108E-04 0.301E+01
   0.379E+02 -.627E-04 -.247E+03   -.425E+02 0.670E-04 0.250E+03   0.445E+01 -.926E-05 -.310E+01
   -.379E+02 -.592E-04 -.247E+03   0.425E+02 0.631E-04 0.250E+03   -.445E+01 -.893E-05 -.310E+01
   0.669E-04 -.380E+02 -.240E+03   -.715E-04 0.428E+02 0.237E+03   0.990E-05 -.452E+01 0.301E+01
   0.674E-04 0.380E+02 -.240E+03   -.724E-04 -.428E+02 0.237E+03   0.101E-04 0.452E+01 0.301E+01
   0.379E+02 -.581E-04 -.247E+03   -.425E+02 0.622E-04 0.250E+03   0.445E+01 -.869E-05 -.310E+01
   -.379E+02 -.544E-04 -.247E+03   0.425E+02 0.581E-04 0.250E+03   -.445E+01 -.830E-05 -.310E+01
   0.706E-04 -.380E+02 -.240E+03   -.755E-04 0.427E+02 0.237E+03   0.105E-04 -.452E+01 0.301E+01
   0.714E-04 0.380E+02 -.240E+03   -.766E-04 -.427E+02 0.237E+03   0.107E-04 0.452E+01 0.301E+01
   -.574E-04 -.379E+02 -.247E+03   0.615E-04 0.425E+02 0.250E+03   -.872E-05 -.445E+01 -.310E+01
   -.510E-04 0.379E+02 -.247E+03   0.546E-04 -.425E+02 0.250E+03   -.802E-05 0.445E+01 -.310E+01
   -.380E+02 -.755E-04 -.240E+03   0.428E+02 0.806E-04 0.237E+03   -.452E+01 -.109E-04 0.301E+01
   0.380E+02 -.779E-04 -.240E+03   -.428E+02 0.835E-04 0.237E+03   0.452E+01 -.113E-04 0.301E+01
   -.274E-02 -.206E-05 0.217E+04   0.329E-02 0.196E-05 -.216E+04   -.342E-03 0.267E-06 -.683E+01
   0.219E-06 -.972E-02 0.217E+04   -.118E-06 0.102E-01 -.216E+04   0.623E-07 -.303E-03 -.683E+01
   -.910E-02 -.442E-01 0.809E+03   0.131E-01 0.492E-01 -.810E+03   -.247E-02 -.310E-02 0.452E+00
   0.140E-06 -.684E-05 0.809E+03   0.374E-06 0.705E-05 -.809E+03   -.271E-06 -.707E-06 0.438E+00
   0.199E-01 -.603E-04 -.537E+03   -.212E-01 0.600E-04 0.537E+03   0.238E-03 0.193E-05 -.231E+00
   0.107E-04 0.145E-01 -.537E+03   -.113E-04 -.640E-02 0.537E+03   0.225E-06 -.671E-02 -.221E+00
   0.756E-01 0.864E-01 -.188E+04   -.812E-01 -.866E-01 0.187E+04   0.135E-02 -.137E-03 0.593E+01
   -.214E-04 0.624E-05 -.186E+04   0.237E-04 -.437E-05 0.185E+04   -.175E-05 -.142E-05 0.564E+01
   0.778E-03 0.206E-05 0.217E+04   -.321E-03 -.187E-05 -.216E+04   -.279E-03 -.183E-06 -.683E+01
   -.793E-06 0.972E-02 0.217E+04   0.770E-06 -.102E-01 -.216E+04   0.467E-07 0.303E-03 -.683E+01
   -.909E-02 0.442E-01 0.809E+03   0.131E-01 -.492E-01 -.810E+03   -.247E-02 0.310E-02 0.452E+00
   -.297E-05 0.585E-05 0.809E+03   0.318E-05 -.589E-05 -.809E+03   -.468E-07 0.731E-06 0.439E+00
   -.117E-02 0.427E-04 -.537E+03   -.637E-02 -.434E-04 0.538E+03   0.548E-02 0.127E-06 -.225E+00
   -.482E-04 -.145E-01 -.537E+03   0.479E-04 0.639E-02 0.537E+03   0.179E-05 0.671E-02 -.221E+00
   0.755E-01 -.864E-01 -.188E+04   -.812E-01 0.866E-01 0.187E+04   0.135E-02 0.137E-03 0.593E+01
   -.188E-04 -.284E-05 -.186E+04   0.185E-04 0.291E-05 0.185E+04   0.936E-06 -.280E-06 0.563E+01
   0.275E-02 -.710E-06 0.217E+04   -.329E-02 0.105E-05 -.216E+04   0.343E-03 -.520E-06 -.683E+01
   -.233E-06 -.133E-01 0.217E+04   0.129E-06 0.138E-01 -.216E+04   -.246E-08 -.371E-03 -.683E+01
   0.910E-02 -.442E-01 0.809E+03   -.131E-01 0.492E-01 -.810E+03   0.247E-02 -.310E-02 0.452E+00
   -.201E-07 -.559E-05 0.809E+03   -.654E-06 0.541E-05 -.809E+03   0.852E-06 0.114E-07 0.435E+00
   -.199E-01 0.131E-05 -.537E+03   0.212E-01 -.155E-05 0.537E+03   -.235E-03 -.442E-06 -.231E+00
   -.186E-04 -.216E-01 -.537E+03   0.182E-04 0.258E-01 0.537E+03   0.125E-05 -.319E-02 -.231E+00
   -.756E-01 0.865E-01 -.188E+04   0.812E-01 -.866E-01 0.187E+04   -.135E-02 -.137E-03 0.593E+01
   0.332E-04 -.415E-04 -.186E+04   -.315E-04 0.391E-04 0.185E+04   -.130E-05 0.211E-05 0.564E+01
   -.778E-03 0.786E-06 0.217E+04   0.321E-03 -.101E-05 -.216E+04   0.279E-03 0.332E-06 -.683E+01
   0.755E-06 0.133E-01 0.217E+04   -.754E-06 -.138E-01 -.216E+04   0.380E-06 0.371E-03 -.683E+01
   0.910E-02 0.442E-01 0.809E+03   -.131E-01 -.492E-01 -.810E+03   0.247E-02 0.310E-02 0.452E+00
   0.312E-05 0.566E-05 0.809E+03   -.344E-05 -.556E-05 -.809E+03   0.387E-06 -.184E-06 0.449E+00
   0.117E-02 -.128E-04 -.537E+03   0.637E-02 0.127E-04 0.538E+03   -.548E-02 0.498E-06 -.225E+00
   0.418E-04 0.216E-01 -.537E+03   -.424E-04 -.258E-01 0.537E+03   -.801E-06 0.319E-02 -.231E+00
   -.755E-01 -.865E-01 -.188E+04   0.812E-01 0.866E-01 0.187E+04   -.135E-02 0.135E-03 0.593E+01
   -.105E-04 0.201E-04 -.186E+04   0.113E-04 -.177E-04 0.186E+04   0.521E-06 -.134E-05 0.565E+01
   -.942E-02 -.106E-04 0.606E+03   0.989E-02 0.114E-04 -.606E+03   -.557E-03 -.644E-06 -.101E+00
   0.216E-05 -.223E-01 0.606E+03   -.253E-05 0.230E-01 -.606E+03   0.634E-06 -.842E-03 -.106E+00
   -.101E-02 -.855E-02 0.163E+04   0.158E-02 0.917E-02 -.163E+04   -.672E-03 -.736E-03 0.300E+01
   -.164E-06 -.108E-05 0.163E+04   0.157E-06 0.112E-05 -.163E+04   -.119E-06 0.258E-07 0.300E+01
   -.478E+00 -.371E-04 -.143E+04   0.495E+00 0.378E-04 0.143E+04   -.124E-01 -.466E-07 -.452E+01
   -.157E-05 -.408E+00 -.143E+04   0.252E-05 0.430E+00 0.143E+04   -.126E-05 -.194E-01 -.454E+01
   0.178E-01 0.123E-01 -.396E+03   -.217E-01 -.148E-01 0.396E+03   0.386E-02 0.911E-03 0.381E+00
   -.192E-05 -.163E-04 -.397E+03   0.233E-05 0.159E-04 0.397E+03   -.762E-06 0.526E-06 0.204E+00
[...]
   0.101E-02 -.855E-02 0.163E+04   -.158E-02 0.917E-02 -.163E+04   0.672E-03 -.736E-03 0.300E+01
   0.163E-06 -.104E-05 0.163E+04   -.149E-06 0.102E-05 -.163E+04   0.429E-07 -.841E-08 0.300E+01
   0.478E+00 0.261E-06 -.143E+04   -.495E+00 -.220E-06 0.143E+04   0.124E-01 0.835E-07 -.452E+01
   -.158E-04 0.560E+00 -.143E+04   0.174E-04 -.579E+00 0.143E+04   -.137E-05 0.151E-01 -.451E+01
   -.178E-01 0.123E-01 -.396E+03   0.217E-01 -.148E-01 0.396E+03   -.386E-02 0.911E-03 0.381E+00
   0.545E-05 -.145E-04 -.397E+03   -.602E-05 0.141E-04 0.397E+03   0.985E-06 0.314E-06 0.190E+00
   -.127E-01 0.183E-05 0.606E+03   0.104E-01 -.831E-06 -.606E+03   0.277E-02 -.118E-05 -.109E+00
   0.458E-05 0.468E-01 0.606E+03   -.622E-05 -.458E-01 -.606E+03   0.143E-05 -.129E-02 -.997E-01
   0.101E-02 0.855E-02 0.163E+04   -.158E-02 -.917E-02 -.163E+04   0.672E-03 0.736E-03 0.300E+01
   -.451E-07 0.902E-06 0.163E+04   -.339E-06 -.999E-06 -.163E+04   0.342E-07 -.838E-07 0.300E+01
   -.454E+00 -.164E-04 -.143E+04   0.480E+00 0.173E-04 0.143E+04   -.248E-01 -.856E-06 -.453E+01
   0.379E-04 -.560E+00 -.143E+04   -.376E-04 0.579E+00 0.143E+04   -.578E-06 -.151E-01 -.451E+01
   -.178E-01 -.123E-01 -.396E+03   0.217E-01 0.148E-01 0.396E+03   -.386E-02 -.911E-03 0.381E+00
   0.985E-05 0.165E-04 -.398E+03   -.109E-04 -.167E-04 0.398E+03   0.947E-06 -.131E-07 0.181E+00
   0.438E-04 -.435E-03 0.212E+02   -.142E-12 -.142E-12 0.318E-11   -.365E-04 0.399E-03 -.181E+02

 POSITION                                       TOTAL-FORCE (eV/Angst)
      4.17455      4.17455     16.81933         0.000099      0.000137      0.003448
      0.00000      4.17455     16.81943        -0.000128      0.000120      0.000531
      4.17456     -0.00000     16.81942        -0.000136      0.000114      0.000589
     -0.00000     -0.00000     16.81938         0.000109      0.000144      0.001913
      4.17456      5.06681     17.44376        -0.000005      0.000082      0.006150
      4.17456      3.28230     17.44376        -0.000004     -0.000209      0.006231
      5.07347      4.17456     16.19937        -0.000735     -0.000006      0.006160
      3.27564      4.17456     16.19937         0.000642     -0.000006      0.006104
      7.45693      4.17456     17.44391        -0.001606     -0.000005      0.005986
      0.89218      4.17456     17.44391         0.001724     -0.000005      0.006061
      8.34911      5.07339     16.19932         0.000006     -0.000273      0.007772
      8.34911      3.27572     16.19933         0.000006      0.000162      0.007704
      3.28240      0.00000     17.44393        -0.001736     -0.000005      0.005806
      5.06671      0.00000     17.44393         0.001862     -0.000005      0.005885
      4.17455      0.89875     16.19922         0.000006      0.000493      0.007897
      4.17455      7.45036     16.19923         0.000006     -0.000599      0.007833
      0.00000      0.89217     17.44387        -0.000005      0.001480      0.006044
      0.00000      7.45694     17.44387        -0.000005     -0.001613      0.006128
      0.89885      0.00000     16.19933        -0.000386     -0.000006      0.006873
      7.45026      0.00000     16.19933         0.000284     -0.000006      0.006811
      2.08728      0.00000      7.50000         0.000145      0.000000      0.426704
      4.17456      2.08728      7.50000         0.000000      0.000128      0.427138
      2.08728      2.08728      9.58728         0.001104      0.001353      0.058894
      4.17456      0.00000      9.58728         0.000000     -0.000000      0.067229
      2.08730     -0.00000     11.68806        -0.000844      0.000002     -0.002455
      4.17456      2.08739     11.68852        -0.000000      0.000697     -0.006817
      2.08746      2.08727     13.75533        -0.003814     -0.000384      0.000059
      4.17456      0.00000     13.76973         0.000000      0.000000     -0.001133
      2.08728      4.17456      7.50000         0.000139      0.000000      0.427203
      4.17456      6.26183      7.50000        -0.000000     -0.000127      0.427138
      2.08728      6.26183      9.58728         0.001103     -0.001352      0.058893
      4.17456      4.17456      9.58728         0.000000      0.000001      0.068649
      2.08724      4.17456     11.68883        -0.000867     -0.000000     -0.006392
      4.17456      6.26172     11.68852         0.000001     -0.000697     -0.006816
      2.08746      6.26184     13.75533        -0.003815      0.000384      0.000056
      4.17456      4.17456     13.77061         0.000000     -0.000000     -0.001531
      6.26183      0.00000      7.50000        -0.000144     -0.000000      0.426704
      0.00000      2.08728      7.50000        -0.000000      0.000154      0.426633
      6.26183      2.08728      9.58728        -0.001104      0.001353      0.058894
      0.00000      0.00000      9.58728         0.000000     -0.000000      0.067246
      6.26181      0.00000     11.68806         0.000846     -0.000001     -0.002455
      8.34911      2.08736     11.68799         0.000001      0.000449      0.001160
      6.26166      2.08727     13.75533         0.003814     -0.000385      0.000058
      0.00000     -0.00000     13.76990         0.000000      0.000000     -0.004028
      6.26183      4.17456      7.50000        -0.000139      0.000000      0.427203
      0.00000      6.26183      7.50000         0.000000     -0.000154      0.426633
      6.26183      6.26183      9.58728        -0.001104     -0.001352      0.058895
      0.00000      4.17456      9.58728         0.000000     -0.000000      0.069743
      6.26187      4.17456     11.68883         0.000867      0.000000     -0.006393
      0.00000      6.26175     11.68799        -0.000001     -0.000449      0.001159
      6.26166      6.26184     13.75533         0.003814      0.000384      0.000058
      0.00000      4.17456     13.77110         0.000001      0.000001     -0.007235
      2.08728      0.00000      9.58728        -0.000196      0.000000      0.070992
      4.17456      2.08728      9.58728         0.000000     -0.000295      0.071419
      2.08728      2.08728      7.50000        -0.000217     -0.000251     -0.563931
      4.17456      0.00000      7.50000        -0.000000      0.000000     -0.564222
      2.08763     -0.00000     13.80820         0.002983      0.000001     -0.000577
      4.17456      2.08782     13.80927        -0.000001     -0.001456     -0.006597
      2.08736      2.08749     11.68119         0.000618     -0.001572     -0.004718
      4.17456     -0.00000     11.68239        -0.000001      0.000000      0.001099
[...]
      0.00000      2.08728      9.58728        -0.000000      0.000541      0.071059
      6.26183      2.08728      7.50000         0.000217     -0.000251     -0.563930
      0.00000      0.00000      7.50000         0.000000      0.000000     -0.563924
      6.26148     -0.00000     13.80820        -0.002982      0.000000     -0.000577
      0.00000      2.08680     13.80849        -0.000000     -0.001512     -0.000236
      6.26175      2.08749     11.68119        -0.000617     -0.001572     -0.004719
     -0.00000     -0.00000     11.68233         0.000001      0.000000     -0.001688
      6.26183      4.17456      9.58728         0.001021     -0.000000      0.072122
      0.00000      6.26183      9.58728        -0.000000     -0.000541      0.071058
      6.26183      6.26183      7.50000         0.000217      0.000251     -0.563931
      0.00000      4.17456      7.50000        -0.000000     -0.000000     -0.564214
      6.26247      4.17456     13.80967        -0.003690     -0.000000     -0.006471
      0.00000      6.26231     13.80849        -0.000001      0.001512     -0.000237
      6.26175      6.26162     11.68119        -0.000618      0.001571     -0.004718
      0.00000      4.17456     11.68335         0.000000     -0.000000     -0.008529
    total drift:                                0.000005     -0.000008      0.013555

  FREE ENERGIE OF THE ION-ELECTRON SYSTEM (eV)
  free  energy   TOTEN  =      -588.33013557 eV

  energy  without entropy=     -588.33013557  energy(sigma->0) =     -588.33013557

 d Force = 0.9087785E-04[ 0.672E-04, 0.115E-03]  d Energy = 0.1057580E-03-0.149E-04
 d Force =-0.4302704E+01[-0.430E+01,-0.430E+01]  d Ewald  =-0.4302691E+01-0.130E-04

 Conjugate gradient step on ions:
 trial-energy change:   -0.000106  1 .order   -0.000091   -0.000115   -0.000067
  (g-gl).g = 0.140E-03      g.g   = 0.131E-03  gl.gl    = 0.489E-03
 g(Force)  = 0.131E-03   g(Stress)= 0.000E+00 ortho     = 0.109E-04
 gamma     =   0.28653
 trial     =   0.85252
 opt step  =   1.18641  (harmonic =   2.06262) maximal distance =0.00073492
 next E    =  -588.330150   (d E  =  -0.00012)

 reached required accuracy - stopping structural energy minimisation