 vasp.6.3.0 20Jan22 (build Apr  1 2022 16:44:48) gamma-only
 executed on        HPECrayEX_GCC date 2023.03.12  04:36:55

 INCAR:
   SYSTEM = MgO-rocksalt
   ISMEAR = 0
   SIGMA = 0.05
   EDIFF = 1E-6
   ALGO = ALL
   ISTART = 0
   IBRION = -1
   NSW = 0
   ISYM = 0
   DIPOL = 0.5 0.5 0.5
   IDIPOL = 3
   LDIPOL = .TRUE.
   LHFCALC = .TRUE.
   GGA = B5
   AEXX = 0.2
   AGGAX = 0.72
   AGGAC = 0.81
   ALDAC = 0.19
   IVDW = 1
   VDW_S6 = 1.05
   VDW_C6 = 0.63 0.70
   VDW_R0 = 1.243 1.342
   ENCUT = 520
   PREC = Accurate
   LASPH = .TRUE.
   LREAL = Auto
   ISPIN = 1
   NELM = 200
   NELMIN = 8
   NCORE = 8
   KPAR = 1
   LWAVE = .FALSE.
   LCHARG = .FALSE.

 POTCAR:    PAW_PBE Mg_pv 13Apr2007
 POTCAR:    PAW_PBE O 08Apr2002
 POTCAR:    PAW_PBE Mg_pv 13Apr2007
   VRHFIN =Mg: p6s2

   TITEL  = PAW_PBE Mg_pv 13Apr2007
   POMASS =   24.305; ZVAL   =    8.000    mass and valenz
   ENMAX  =  403.929; ENMIN  =  302.947 eV

   TITEL  = PAW_PBE O 08Apr2002
   POMASS =   16.000; ZVAL   =    6.000    mass and valenz
   ENMAX  =  400.000; ENMIN  =  300.000 eV

 Optimization of the real space projectors (new method)

 maximal supplied QI-value         = 18.90
 optimisation between [QCUT,QGAM] = [ 11.53, 23.24] = [ 37.21,151.29] Ry
 Optimized for a Real-space Cutoff    1.28 Angstroem

   l    n(q)    QCUT    max X(q) W(low)/X(q) W(high)/X(q)  e(spline)
   1      8    11.527     2.974    0.44E-04    0.56E-04    0.12E-06
   1      8    11.527     4.279    0.12E-03    0.12E-03    0.26E-06
   0      9    11.527    16.381    0.46E-04    0.64E-04    0.78E-07
   0      9    11.527     5.611    0.26E-04    0.43E-04    0.55E-07
   2      8    11.527     4.652    0.22E-03    0.72E-04    0.47E-07
 Optimization of the real space projectors (new method)

 maximal supplied QI-value         = 24.76
 optimisation between [QCUT,QGAM] = [ 11.64, 23.27] = [ 37.91,151.63] Ry
 Optimized for a Real-space Cutoff    1.14 Angstroem

   l    n(q)    QCUT    max X(q) W(low)/X(q) W(high)/X(q)  e(spline)
   0      8    11.635    20.381    0.10E-03    0.33E-03    0.24E-06
   0      8    11.635    15.268    0.11E-03    0.35E-03    0.26E-06
   1      7    11.635     5.964    0.24E-03    0.31E-03    0.30E-06
   1      7    11.635     5.382    0.22E-03    0.25E-03    0.26E-06
|               ----> ADVICE to this user running VASP <----                  |
|     You enforced a specific xc type in the INCAR file but a different       |
|     type was found in the POTCAR file.                                      |
|     I HOPE YOU KNOW WHAT YOU ARE DOING!                                     |

  PAW_PBE Mg_pv 13Apr2007               :
  PAW_PBE O 08Apr2002                   :

 POSCAR: Mg  O
  positions in direct lattice
 exchange correlation table for  LEXCH =       12
   RHO(1)=    0.500       N(1)  =     2000
   RHO(2)=  100.500       N(2)  =     4000

 ion  position               nearest neighbor table
   1  0.125  0.000  0.353- 131 2.09 132 2.09 148 2.09 171 2.09 129 2.09
   2  0.250  0.125  0.353- 131 2.09 132 2.09 140 2.09 147 2.09 130 2.09
   3  0.125  0.125  0.451- 129 2.09 130 2.09 137 2.09 146 2.09 131 2.09 135 2.09
   4  0.250  0.000  0.451- 129 2.09 130 2.09 145 2.09 170 2.09 132 2.09 136 2.09
   5  0.125  1.000  0.549- 175 2.09 152 2.09 135 2.09 136 2.09 129 2.09 133 2.12
   6  0.250  0.125  0.549- 144 2.09 151 2.09 135 2.09 136 2.09 130 2.09 134 2.12
   7  0.125  0.125  0.647- 135 2.07 134 2.08 150 2.09 133 2.09 141 2.09
   8  0.250  1.000  0.647- 136 2.07 134 2.08 174 2.09 133 2.09 149 2.09
   9  0.125  0.250  0.353- 131 2.09 139 2.09 140 2.09 156 2.09 137 2.09
  10  0.250  0.375  0.353- 139 2.09 140 2.09 155 2.09 164 2.09 138 2.09
  11  0.125  0.375  0.451- 137 2.09 138 2.09 154 2.09 161 2.09 139 2.09 143 2.09
  12  0.250  0.250  0.451- 130 2.09 137 2.09 138 2.09 153 2.09 140 2.09 144 2.09
  13  0.125  0.250  0.549- 144 2.08 160 2.09 143 2.09 135 2.09 137 2.09 141 2.12
  14  0.250  0.375  0.550- 159 2.07 144 2.09 168 2.09 143 2.10 138 2.10 142 2.14
  15  0.125  0.375  0.647- 143 2.07 142 2.07 158 2.08 141 2.09 165 2.09
  16  0.250  0.250  0.646- 144 2.06 157 2.07 141 2.09 134 2.09 142 2.10
  17  0.375  0.000  0.353- 132 2.09 147 2.09 187 2.09 212 2.09 145 2.09
  18  0.000  0.125  0.353- 131 2.09 148 2.09 156 2.09 211 2.09 146 2.09
  19  0.375  0.125  0.451- 151 2.09 145 2.09 130 2.09 153 2.09 210 2.09 147 2.09
  20  0.000  0.000  0.451- 129 2.09 146 2.09 186 2.09 209 2.09 148 2.09 152 2.09
  21  0.375  1.000  0.549- 151 2.08 191 2.09 216 2.09 136 2.09 145 2.09 149 2.12
  22  0.000  0.125  0.549- 135 2.09 215 2.09 152 2.09 160 2.09 146 2.09 150 2.12
  23  0.375  0.125  0.646- 151 2.06 157 2.07 149 2.09 134 2.09 214 2.09
  24  0.000  1.000  0.647- 152 2.07 133 2.08 213 2.09 190 2.09 150 2.09
  25  0.375  0.250  0.353- 140 2.09 147 2.09 155 2.09 220 2.09 153 2.09
  26  0.000  0.375  0.353- 139 2.09 156 2.09 180 2.09 219 2.09 154 2.09
  27  0.375  0.375  0.451- 138 2.09 153 2.09 177 2.09 218 2.09 155 2.09 159 2.10
  28  0.000  0.250  0.451- 137 2.09 146 2.09 154 2.09 217 2.09 156 2.09 160 2.09
  29  0.375  0.250  0.550- 159 2.08 224 2.08 157 2.10 151 2.10 144 2.10 153 2.11
  30  0.000  0.375  0.549- 223 2.09 143 2.09 160 2.09 184 2.09 154 2.09 158 2.12
  31  0.375  0.374  0.650- 222 2.08 157 2.10 142 2.11 181 2.12 159 2.13
  32  0.000  0.250  0.647- 160 2.07 221 2.08 141 2.08 150 2.09 158 2.09
  33  0.125  0.500  0.353- 139 2.09 163 2.09 164 2.09 180 2.09 161 2.09
  34  0.250  0.625  0.353- 163 2.09 164 2.09 172 2.09 179 2.09 162 2.09
  35  0.125  0.625  0.451- 161 2.09 162 2.09 169 2.09 178 2.09 163 2.09 167 2.09
  36  0.250  0.500  0.451- 168 2.08 161 2.09 162 2.09 138 2.09 177 2.09 164 2.09
  37  0.125  0.500  0.549- 168 2.08 184 2.09 143 2.09 167 2.09 161 2.09 165 2.12
  38  0.250  0.625  0.549- 183 2.09 168 2.09 176 2.09 167 2.09 162 2.09 166 2.12
  39  0.125  0.625  0.647- 167 2.07 166 2.08 182 2.09 173 2.09 165 2.09
  40  0.250  0.500  0.646- 168 2.06 181 2.07 165 2.09 166 2.09 142 2.09
  41  0.125  0.750  0.353- 163 2.09 171 2.09 172 2.09 188 2.09 169 2.09
  42  0.250  0.875  0.353- 132 2.09 171 2.09 172 2.09 187 2.09 170 2.09
  43  0.125  0.875  0.451- 129 2.09 169 2.09 170 2.09 186 2.09 171 2.09 175 2.09
  44  0.250  0.750  0.451- 162 2.09 169 2.09 170 2.09 185 2.09 172 2.09 176 2.09
  45  0.125  0.750  0.549- 175 2.09 192 2.09 176 2.09 167 2.09 169 2.09 173 2.12
  46  0.250  0.875  0.549- 176 2.09 136 2.09 175 2.09 191 2.09 170 2.09 174 2.12
  47  0.125  0.875  0.647- 175 2.07 133 2.08 173 2.09 190 2.09 174 2.09
  48  0.250  0.750  0.647- 176 2.07 166 2.08 174 2.09 173 2.09 189 2.09
  49  0.375  0.500  0.353- 155 2.09 164 2.09 179 2.09 244 2.09 177 2.09
  50  0.000  0.625  0.353- 163 2.09 180 2.09 188 2.09 243 2.09 178 2.09
  51  0.375  0.625  0.451- 162 2.09 177 2.09 185 2.09 242 2.09 179 2.09 183 2.09
  52  0.000  0.500  0.451- 154 2.09 161 2.09 178 2.09 241 2.09 180 2.09 184 2.09
  53  0.375  0.500  0.550- 159 2.08 248 2.08 181 2.10 168 2.10 183 2.10 177 2.11
  54  0.000  0.625  0.549- 247 2.09 167 2.09 192 2.09 184 2.09 178 2.09 182 2.12
  55  0.375  0.625  0.646- 183 2.06 181 2.07 189 2.09 166 2.09 246 2.10
  56  1.000  0.500  0.647- 184 2.07 245 2.08 165 2.08 182 2.09 158 2.09
  57  0.375  0.750  0.353- 172 2.09 179 2.09 187 2.09 252 2.09 185 2.09
  58  0.000  0.875  0.353- 148 2.09 171 2.09 188 2.09 251 2.09 186 2.09
  59  0.375  0.875  0.451- 145 2.09 170 2.09 185 2.09 250 2.09 187 2.09 191 2.09
  60  0.000  0.750  0.451- 169 2.09 178 2.09 186 2.09 249 2.09 188 2.09 192 2.09
[...]
 242  0.500  0.625  0.451-  51 2.09  99 2.09 116 2.09 124 2.09 114 2.09 118 2.10
 243  0.875  0.625  0.353-  50 2.09  98 2.09 113 2.09 121 2.09 115 2.09
 244  0.500  0.500  0.353-  49 2.09  90 2.09  97 2.09 114 2.09 116 2.09
 245  0.875  0.500  0.649-  56 2.08 119 2.09 104 2.09  95 2.09 117 2.12
 246  0.500  0.626  0.650- 128 2.07 103 2.10  55 2.10 120 2.12 118 2.14
 247  0.875  0.625  0.549- 119 2.07  54 2.09 125 2.09 102 2.09 115 2.09 117 2.09
 248  0.500  0.501  0.550- 118 2.07  53 2.08 101 2.08 116 2.10  94 2.10 120 2.12
 249  0.875  0.750  0.451-  60 2.09 108 2.09 115 2.09 123 2.09 121 2.09 125 2.09
 250  0.500  0.875  0.451-  59 2.09  84 2.09 107 2.09 124 2.09 122 2.09 126 2.09
 251  0.875  0.875  0.353-  58 2.09  81 2.09 106 2.09 121 2.09 123 2.09
 252  0.500  0.750  0.353-  57 2.09 105 2.09 114 2.09 122 2.09 124 2.09
 253  0.875  0.750  0.649-  64 2.08 127 2.09 112 2.09 119 2.09 125 2.12
 254  0.500  0.875  0.649- 128 2.08  88 2.08 111 2.09  63 2.09 126 2.12
 255  0.875  0.875  0.549- 127 2.07  85 2.09 125 2.09  62 2.09 110 2.09 123 2.09
 256  0.500  0.750  0.549- 128 2.07 126 2.09  61 2.09 109 2.09 124 2.09 118 2.09

IMPORTANT INFORMATION: All symmetrisations will be switched off!
NOSYMM: (Re-)initialisation of all symmetry stuff for point group C_1.

                                     Primitive cell

  volume of cell :    5928.4515

  direct lattice vectors                    reciprocal lattice vectors
    16.698223653  0.000000000  0.000000000     0.059886610  0.000000000  0.000000000
     0.000000000 16.698223653  0.000000000     0.000000000  0.059886610  0.000000000
     0.000000000  0.000000000 21.261833870     0.000000000  0.000000000  0.047032632

  length of vectors
    16.698223653 16.698223653 21.261833870     0.059886610  0.059886610  0.047032632

  position of ions in fractional coordinates (direct lattice)
     0.125000000  0.000000000  0.352744737
     0.250000000  0.125000000  0.352744737
     0.125000000  0.125000000  0.450914912
     0.250000000  0.000000000  0.450914912
     0.124947106  0.999933649  0.549379795
     0.249932806  0.124970193  0.549289312
     0.124886664  0.124787375  0.646616688
     0.249795251  0.999866541  0.646605085
     0.125000000  0.250000000  0.352744737
     0.250000000  0.375000000  0.352744737
     0.125000000  0.375000000  0.450914912
     0.250000000  0.250000000  0.450914912
     0.124971742  0.249989763  0.549351495
     0.250425274  0.374934090  0.549658439
     0.124782697  0.374990812  0.646595973
     0.249818633  0.249615808  0.646191236
     0.375000000  0.000000000  0.352744737
     0.000000000  0.125000000  0.352744737
     0.375000000  0.125000000  0.450914912
     0.000000000  0.000000000  0.450914912
     0.374997274  0.999926472  0.549310937
     0.000011975  0.124923199  0.549364341
     0.374639152  0.124792126  0.645827664
     0.000011157  0.999872854  0.646707652
     0.375000000  0.250000000  0.352744737
     0.000000000  0.375000000  0.352744737
     0.375000000  0.375000000  0.450914912
     0.000000000  0.250000000  0.450914912
     0.375492042  0.250381253  0.549976404
     0.000006511  0.374992736  0.549374798
     0.375432668  0.374393411  0.649512927
     0.000012622  0.249820326  0.646647303
     0.125000000  0.500000000  0.352744737
     0.250000000  0.625000000  0.352744737
     0.125000000  0.625000000  0.450914912
     0.250000000  0.500000000  0.450914912
     0.124923923  0.500001654  0.549303915
     0.249967036  0.625084868  0.549283513
     0.124875346  0.625213597  0.646595039
     0.249768947  0.500391845  0.645779901
     0.125000000  0.750000000  0.352744737
     0.250000000  0.875000000  0.352744737
[...]
   4.17400547 10.43780693 11.67877480
   2.08519646 10.43995648 13.74779630
   4.17069774  8.35565495 13.73046496
   2.08727796 12.52366774  7.50000000
   4.17455591 14.61094570  7.50000000
   2.08727796 14.61094570  9.58727796
   4.17455591 12.52366774  9.58727796
   2.08628700 12.52478195 11.68099717
   4.17329707 14.61073646 11.68063558
   2.08558223 14.61086984 13.75017807
   4.17131724 12.52565948 13.74865255
   6.26183387  8.34911183  7.50000000
   0.00000000 10.43638978  7.50000000
   6.26183387 10.43638978  9.58727796
   0.00000000  8.34911183  9.58727796
   6.26796529  8.34114848 11.69272725
   0.00001015 10.43784237 11.68039712
   6.25554396 10.43923472 13.73927843
  16.69818536  8.35219451 13.74841013
   6.26183387 12.52366774  7.50000000
   0.00000000 14.61094570  7.50000000
   6.26183387 14.61094570  9.58727796
   0.00000000 12.52366774  9.58727796
[...]
   8.34911183 10.43638978  9.58727796
  14.61094570 10.43638978  7.50000000
   8.34911183  8.34911183  7.50000000
  14.61477573  8.35310888 13.80262598
   8.35136971 10.45431893 13.83040412
  14.61299768 10.43845681 11.67500875
   8.34831346  8.35939380 11.68412027
  14.61094570 12.52366774  9.58727796
   8.34911183 14.61094570  9.58727796
  14.61094570 14.61094570  7.50000000
   8.34911183 12.52366774  7.50000000
  14.61405908 12.52662170 13.80194666
   8.34924632 14.61092573 13.80454557
  14.61211886 14.61104033 11.67591435
   8.34913916 12.52417088 11.67850082

--------------------------------------- Iteration      FINAL  ---------------------------------------

--------------------OUTCAR has been truncated-------------------------

[...]

--------------------OUTCAR has been truncated-------------------------

  DFT-D2 method for vdW energy calculation

  Parameters of vdW forcefield:
         C6(Jnm^6/mol)     R0(A)
   Mg       0.630          1.243
   O        0.700          1.342

  vdW correction parametrized for the method v¸þ      

  IVDW =   1
  VDW_RADIUS =    50.000 A
  VDW_S6 =     1.050
  VDW_SR =     1.000
  VDW_D =    20.000
  LVDW_EWALD = F

  Number of pair interactions contributing to vdW energy: 2935640
  Edisp (eV):  -21.26999

 VOLUME and BASIS-vectors are now :
  energy-cutoff  :      520.00
  volume of cell :     5928.45
      direct lattice vectors                 reciprocal lattice vectors
    16.698223653  0.000000000  0.000000000     0.059886610  0.000000000  0.000000000
     0.000000000 16.698223653  0.000000000     0.000000000  0.059886610  0.000000000
     0.000000000  0.000000000 21.261833870     0.000000000  0.000000000  0.047032632

  length of vectors
    16.698223653 16.698223653 21.261833870     0.059886610  0.059886610  0.047032632

 FORCES acting on ions:
    Electron-Ion                     Ewald-Force                    Non-Local-Force
   -.374E+00 -.360E+00 0.213E+04   0.364E+00 0.350E+00 -.212E+04   0.627E-02 0.690E-02 -.645E+01
   -.833E+00 -.845E+00 0.213E+04   0.822E+00 0.834E+00 -.212E+04   0.733E-02 0.700E-02 -.643E+01
   -.827E+00 -.105E+01 0.706E+03   0.792E+00 0.102E+01 -.706E+03   0.234E-01 0.204E-01 0.324E+00
   -.992E+00 -.797E+00 0.706E+03   0.960E+00 0.759E+00 -.706E+03   0.211E-01 0.255E-01 0.313E+00
   -.788E+00 -.813E+00 -.709E+03   0.763E+00 0.785E+00 0.709E+03   0.185E-01 0.212E-01 -.183E+00
   -.195E+01 -.202E+01 -.707E+03   0.181E+01 0.190E+01 0.707E+03   0.935E-01 0.624E-01 -.122E+00
   -.196E+00 -.152E+01 -.211E+04   0.199E+00 0.152E+01 0.210E+04   -.232E-01 0.294E-02 0.531E+01
   -.161E+01 -.109E+00 -.211E+04   0.162E+01 0.126E+00 0.210E+04   -.488E-02 -.363E-01 0.529E+01
   -.681E+00 -.497E+00 0.213E+04   0.673E+00 0.490E+00 -.212E+04   0.536E-02 0.487E-02 -.644E+01
   -.123E+01 0.183E-01 0.212E+04   0.122E+01 -.181E-01 -.212E+04   0.777E-02 0.913E-04 -.644E+01
   -.177E+01 0.973E-01 0.704E+03   0.179E+01 -.988E-01 -.705E+03   -.132E-01 0.725E-03 0.362E+00
   -.307E+01 -.170E+01 0.704E+03   0.307E+01 0.172E+01 -.704E+03   0.107E-01 -.990E-02 0.352E+00
   -.699E+00 -.168E+01 -.709E+03   0.675E+00 0.167E+01 0.709E+03   -.158E-01 -.304E-02 -.171E+00
   -.251E+01 0.256E-02 -.717E+03   0.264E+01 -.346E-01 0.716E+03   -.218E+00 0.322E-01 0.128E+00
   -.173E+00 -.882E-01 -.211E+04   0.213E+00 0.107E+00 0.210E+04   -.752E-01 -.900E-02 0.520E+01
   0.565E+00 -.391E+01 -.210E+04   -.888E+00 0.371E+01 0.210E+04   0.105E+00 0.171E+00 0.528E+01
   -.505E+00 -.638E+00 0.213E+04   0.498E+00 0.629E+00 -.212E+04   0.533E-02 0.604E-02 -.644E+01
   -.285E-01 -.504E+00 0.213E+04   0.286E-01 0.491E+00 -.212E+04   -.103E-03 0.843E-02 -.645E+01
   -.170E+01 -.310E+01 0.704E+03   0.172E+01 0.309E+01 -.705E+03   -.101E-01 0.111E-01 0.325E+00
   -.430E-01 -.486E+00 0.706E+03   0.438E-01 0.466E+00 -.706E+03   -.493E-03 0.133E-01 0.329E+00
   -.167E+01 -.522E+00 -.708E+03   0.166E+01 0.472E+00 0.709E+03   0.590E-03 0.640E-02 -.161E+00
   -.876E-01 -.138E+01 -.709E+03   0.879E-01 0.135E+01 0.709E+03   -.519E-03 0.309E-01 -.188E+00
   -.392E+01 0.410E+00 -.210E+04   0.375E+01 -.689E+00 0.209E+04   0.148E+00 0.754E-01 0.523E+01
   -.311E-01 -.108E+01 -.211E+04   0.326E-01 0.106E+01 0.210E+04   -.113E-02 0.216E-01 0.532E+01
   -.889E+00 -.907E+00 0.212E+04   0.882E+00 0.899E+00 -.212E+04   0.501E-02 0.495E-02 -.643E+01
   -.185E-01 0.965E-03 0.213E+04   0.184E-01 -.275E-03 -.212E+04   0.725E-04 -.170E-03 -.643E+01
   -.336E+01 0.391E-02 0.700E+03   0.331E+01 -.119E-01 -.700E+03   0.379E-01 0.505E-02 0.519E+00
   -.119E+00 -.816E+00 0.705E+03   0.124E+00 0.791E+00 -.706E+03   -.249E-02 0.168E-01 0.338E+00
   -.305E+01 -.305E+01 -.713E+03   0.317E+01 0.318E+01 0.714E+03   -.189E+00 -.185E+00 -.352E+00
   -.953E-01 -.885E-02 -.709E+03   0.936E-01 0.865E-02 0.710E+03   0.223E-02 0.176E-02 -.189E+00
   0.188E+01 -.243E+01 -.213E+04   -.299E+01 0.229E+01 0.213E+04   0.578E+00 0.196E+00 0.619E+01
   -.144E-01 -.150E+01 -.211E+04   -.186E-02 0.145E+01 0.210E+04   0.114E-01 0.506E-01 0.529E+01
   -.669E+00 0.505E+00 0.213E+04   0.660E+00 -.498E+00 -.212E+04   0.565E-02 -.535E-02 -.644E+01
   -.873E+00 0.809E+00 0.213E+04   0.863E+00 -.798E+00 -.212E+04   0.705E-02 -.785E-02 -.643E+01
   -.827E+00 0.947E+00 0.706E+03   0.793E+00 -.914E+00 -.706E+03   0.230E-01 -.222E-01 0.314E+00
   -.313E+01 0.169E+01 0.704E+03   0.312E+01 -.171E+01 -.705E+03   0.134E-01 0.939E-02 0.317E+00
   -.581E+00 0.168E+01 -.708E+03   0.536E+00 -.168E+01 0.709E+03   0.483E-02 0.425E-02 -.168E+00
   -.229E+01 0.191E+01 -.707E+03   0.217E+01 -.176E+01 0.707E+03   0.743E-01 -.997E-01 -.128E+00
   -.162E+00 0.157E+01 -.211E+04   0.184E+00 -.158E+01 0.210E+04   -.372E-01 0.966E-02 0.530E+01
   0.110E+00 0.409E+01 -.210E+04   -.371E+00 -.394E+01 0.209E+04   0.696E-01 -.138E+00 0.521E+01
   -.391E+00 0.351E+00 0.213E+04   0.382E+00 -.342E+00 -.212E+04   0.621E-02 -.642E-02 -.645E+01
   -.529E+00 0.173E-01 0.213E+04   0.517E+00 -.182E-01 -.212E+04   0.871E-02 0.830E-03 -.645E+01
   -.518E+00 0.775E-02 0.706E+03   0.502E+00 -.940E-02 -.706E+03   0.115E-01 0.112E-02 0.326E+00
   -.111E+01 0.785E+00 0.706E+03   0.108E+01 -.748E+00 -.706E+03   0.201E-01 -.241E-01 0.327E+00
   -.839E+00 0.760E+00 -.709E+03   0.815E+00 -.738E+00 0.709E+03   0.182E-01 -.174E-01 -.183E+00
   -.149E+01 0.777E-01 -.709E+03   0.145E+01 -.769E-01 0.709E+03   0.307E-01 -.249E-03 -.188E+00
   -.102E+01 0.392E-01 -.211E+04   0.100E+01 -.383E-01 0.210E+04   0.162E-01 -.129E-02 0.531E+01
   -.163E+01 0.200E+00 -.211E+04   0.163E+01 -.217E+00 0.210E+04   0.355E-03 0.319E-01 0.531E+01
   -.921E+00 0.880E+00 0.212E+04   0.914E+00 -.872E+00 -.212E+04   0.536E-02 -.522E-02 -.643E+01
   -.123E-01 0.507E+00 0.213E+04   0.121E-01 -.495E+00 -.212E+04   0.155E-03 -.896E-02 -.645E+01
   -.175E+01 0.298E+01 0.704E+03   0.177E+01 -.297E+01 -.704E+03   -.121E-01 -.122E-01 0.345E+00
   0.387E-01 0.836E+00 0.705E+03   -.421E-01 -.809E+00 -.706E+03   0.179E-02 -.176E-01 0.349E+00
   -.317E+01 0.299E+01 -.713E+03   0.329E+01 -.310E+01 0.713E+03   -.179E+00 0.172E+00 -.374E+00
   -.419E-01 0.142E+01 -.709E+03   0.405E-01 -.139E+01 0.709E+03   0.201E-02 -.331E-01 -.188E+00
   -.430E+01 -.432E+00 -.210E+04   0.412E+01 0.730E+00 0.210E+04   0.161E+00 -.893E-01 0.527E+01
   -.147E+00 0.151E+01 -.211E+04   0.159E+00 -.147E+01 0.210E+04   -.512E-02 -.511E-01 0.531E+01
   -.512E+00 0.663E+00 0.213E+04   0.505E+00 -.656E+00 -.212E+04   0.542E-02 -.529E-02 -.644E+01
   -.197E-01 -.467E-02 0.213E+04   0.197E-01 0.410E-02 -.212E+04   -.168E-04 0.704E-03 -.645E+01
   -.851E+00 0.115E+00 0.705E+03   0.824E+00 -.122E+00 -.706E+03   0.181E-01 0.368E-02 0.343E+00
   -.373E-01 0.464E+00 0.706E+03   0.376E-01 -.446E+00 -.707E+03   -.196E-03 -.124E-01 0.319E+00
[...]
   0.363E+00 0.441E+00 0.160E+04   -.356E+00 -.434E+00 -.160E+04   -.855E-02 -.879E-02 0.310E+01
   0.143E-01 0.763E+00 0.160E+04   -.140E-01 -.752E+00 -.160E+04   -.310E-03 -.131E-01 0.311E+01
   0.118E+01 0.126E+01 -.161E+04   -.118E+01 -.132E+01 0.161E+04   -.285E-01 0.459E-01 -.499E+01
   -.205E+00 0.675E+01 -.161E+04   0.287E+00 -.659E+01 0.162E+04   -.103E+00 -.418E+00 -.505E+01
   0.701E+00 0.124E+01 -.525E+03   -.696E+00 -.126E+01 0.525E+03   -.179E-01 -.108E-02 0.206E+00
   -.305E+00 0.396E+01 -.535E+03   0.333E+00 -.400E+01 0.535E+03   -.240E-01 -.917E-01 0.162E+00
   0.417E+00 0.396E+00 0.529E+03   -.415E+00 -.397E+00 -.529E+03   0.503E-03 0.458E-03 -.974E-01
   0.389E-01 0.632E-01 0.528E+03   -.390E-01 -.611E-01 -.528E+03   0.394E-04 -.374E-02 -.543E-01
   0.229E+00 -.331E-03 0.160E+04   -.224E+00 -.100E-03 -.160E+04   -.661E-02 0.330E-03 0.310E+01
   0.287E-01 0.560E+00 0.160E+04   -.289E-01 -.558E+00 -.160E+04   0.262E-03 -.252E-02 0.310E+01
   0.668E+00 0.741E+00 -.161E+04   -.685E+00 -.761E+00 0.161E+04   0.105E-01 0.108E-01 -.488E+01
   0.249E-01 -.496E-01 -.161E+04   -.261E-01 0.467E-01 0.161E+04   0.149E-02 0.599E-02 -.495E+01
   0.544E+00 0.245E-01 -.525E+03   -.549E+00 -.225E-01 0.525E+03   0.220E-02 -.237E-02 0.199E+00
   0.120E+00 0.287E+01 -.527E+03   -.118E+00 -.294E+01 0.526E+03   -.146E-02 0.347E-01 0.278E+00
   -.583E-01 -.162E+00 0.842E+02   0.281E-12 -.704E-12 -.273E-11   0.549E-01 0.152E+00 -.741E+02

 POSITION                                       TOTAL-FORCE (eV/Angst)
      2.08728      0.00000      7.50000        -0.002034     -0.002276      0.312118
      4.17456      2.08728      7.50000        -0.002424     -0.002293      0.308096
      2.08728      2.08728      9.58728        -0.008976     -0.007530      0.022555
      4.17456      0.00000      9.58728        -0.007718     -0.009243      0.025038
      2.08639     16.69712     11.68082        -0.004974     -0.004827      0.052401
      4.17343      2.08678     11.67890        -0.038955     -0.039961      0.036604
      2.08539      2.08373     13.74826        -0.020475      0.001000      0.218973
      4.17114     16.69600     13.74801         0.004773     -0.020188      0.218523
      2.08728      4.17456      7.50000        -0.001642     -0.001527      0.309836
      4.17456      6.26183      7.50000        -0.002681     -0.000051      0.310749
      2.08728      6.26183      9.58728         0.010453     -0.000413      0.033143
      4.17456      4.17456      9.58728         0.004511      0.005018      0.024979
      2.08681      4.17438     11.68022        -0.038182     -0.008336      0.059601
      4.18166      6.26073     11.68675        -0.101188      0.002730      0.021121
      2.08365      6.26168     13.74782        -0.038509      0.007485      0.274697
      4.17153      4.16814     13.73921        -0.192930     -0.015171      0.281530
      6.26183      0.00000      7.50000        -0.001725     -0.001905      0.309683
      0.00000      2.08728      7.50000         0.000014     -0.002683      0.311626
      6.26183      2.08728      9.58728         0.005557      0.002988      0.017582
      0.00000      0.00000      9.58728         0.000207     -0.004764      0.028134
      6.26179     16.69700     11.67936        -0.010081     -0.039627      0.061500
      0.00020      2.08600     11.68049        -0.000222     -0.004019      0.058667
      6.25581      2.08381     13.73148        -0.010247     -0.183409      0.341048
      0.00019     16.69610     13.75019         0.000171      0.002445      0.202810
      6.26183      4.17456      7.50000        -0.002048     -0.002002      0.307881
      0.00000      6.26183      7.50000        -0.000035      0.000006      0.308244
      6.26183      6.26183      9.58728        -0.005597     -0.002142      0.020736
      0.00000      4.17456      9.58728         0.001747     -0.006354      0.025180
      6.27005      4.18092     11.69351        -0.072630     -0.068466     -0.121351
      0.00011      6.26171     11.68072         0.000626      0.001361      0.070950
      6.26906      6.25170     13.80984        -0.442469      0.069952     -0.387158
      0.00021      4.17156     13.74891        -0.003493      0.005620      0.221089
      2.08728      8.34911      7.50000        -0.001721      0.001649      0.309817
      4.17456     10.43639      7.50000        -0.002353      0.002597      0.308241
      2.08728     10.43639      9.58728        -0.008374      0.008015      0.022996
      4.17456      8.34911      9.58728         0.002027     -0.005187      0.020352
      2.08601      8.34914     11.67921        -0.037099      0.010142      0.063465
      4.17401     10.43781     11.67877        -0.035425      0.036411      0.039222
      2.08520     10.43996     13.74780        -0.016966     -0.007072      0.223181
      4.17070      8.35565     13.73046        -0.171085     -0.000426      0.350592
      2.08728     12.52367      7.50000        -0.001999      0.002069      0.312314
      4.17456     14.61095      7.50000        -0.002785     -0.000328      0.311866
      2.08728     14.61095      9.58728        -0.004248     -0.000208      0.025532
      4.17456     12.52367      9.58728        -0.007162      0.009165      0.025012
      2.08629     12.52478     11.68100        -0.003954      0.003019      0.051170
      4.17330     14.61074     11.68064        -0.001981      0.000431      0.057425
      2.08558     14.61087     13.75018         0.001530     -0.000757      0.205041
      4.17132     12.52566     13.74865         0.002848      0.017499      0.215998
      6.26183      8.34911      7.50000        -0.002109      0.002115      0.307686
      0.00000     10.43639      7.50000        -0.000054      0.002877      0.311753
      6.26183     10.43639      9.58728         0.006148     -0.003716      0.024861
      0.00000      8.34911      9.58728        -0.001311      0.006585      0.026049
      6.26797      8.34115     11.69273        -0.066376      0.074467     -0.114547
      0.00001     10.43784     11.68040         0.000642      0.002124      0.058290
      6.25554     10.43923     13.73928        -0.002290      0.187028      0.289857
     16.69819      8.35219     13.74841         0.005920     -0.007079      0.225256
      6.26183     12.52367      7.50000        -0.001742      0.001634      0.309939
      0.00000     14.61095      7.50000        -0.000016     -0.000281      0.312864
      6.26183     14.61095      9.58728        -0.006729     -0.001816      0.024185
      0.00000     12.52367      9.58728         0.000137      0.004425      0.027361
[...]
      8.34911     10.43639      9.58728        -0.001713     -0.010322      0.054395
     14.61095     10.43639      7.50000        -0.002937     -0.002768     -0.594428
      8.34911      8.34911      7.50000        -0.000099     -0.004368     -0.592152
     14.61478      8.35311     13.80263        -0.031545     -0.006863     -0.050032
      8.35137     10.45432     13.83040        -0.035631     -0.323372     -0.132798
     14.61300     10.43846     11.67501        -0.015473     -0.013872     -0.029633
      8.34831      8.35939     11.68412         0.001062     -0.149290      0.146942
     14.61095     12.52367      9.58728         0.001883     -0.000058      0.022465
      8.34911     14.61095      9.58728        -0.000009     -0.002072      0.040025
     14.61095     14.61095      7.50000        -0.002298     -0.000036     -0.596414
      8.34911     12.52367      7.50000         0.000069     -0.000792     -0.595200
     14.61406     12.52662     13.80195        -0.005848     -0.008535     -0.017813
      8.34925     14.61093     13.80455         0.000376      0.004179     -0.045435
     14.61212     14.61104     11.67591        -0.003293     -0.000897     -0.028711
      8.34914     12.52417     11.67850         0.000009     -0.033100     -0.033627
    total drift:                                0.002357      0.005125     -0.010266

  FREE ENERGIE OF THE ION-ELECTRON SYSTEM (eV)
  free  energy   TOTEN  =     -1755.68061254 eV

  energy  without entropy=    -1755.68061254  energy(sigma->0) =    -1755.68061254