 vasp.6.3.0 20Jan22 (build Apr  1 2022 16:44:48) complex
 executed on        HPECrayEX_GCC date 2023.03.02  02:36:18

 INCAR:
   SYSTEM = MgO-rocksalt
   ISMEAR = 0
   SIGMA = 0.05
   EDIFF = 1E-8
   ALGO = ALL
   ISTART = 0
   IBRION = 5
   POTIM = 0.01
   NFREE = 2
   ISYM = 0
   DIPOL = 0.5 0.5 0.5
   IDIPOL = 3
   LDIPOL = .TRUE.
   GGA = RE
   AGGAC = 0.0
   LUSE_VDW = .TRUE.
   LASPH = .TRUE.
   ENCUT = 600
   PREC = Accurate
   LASPH = .TRUE.
   LREAL = .FALSE.
   ISPIN = 1
   NELM = 200
   NELMIN = 8
   NCORE = 8
   KPAR = 1
   LWAVE = .FALSE.
   LCHARG = .FALSE.

 POTCAR:    PAW_PBE C 08Apr2002
 POTCAR:    PAW_PBE H 15Jun2001
 POTCAR:    PAW_PBE Mg_pv 13Apr2007
 POTCAR:    PAW_PBE O 08Apr2002
|               ----> ADVICE to this user running VASP <----                  |
|     You have switched on vdW-DFT.                                           |
|     This routine was written and supplied by Jiri Klimes. We recommend      |
|     that you carefully read and cite the following publications:            |
|       J. Klimes, D.R. Bowler, A. Michelides                                 |
|          J. Phys.: Cond Matt. 22 022201 (2010)                              |
|       J. Klimes, D.R. Bowler, A. Michelides                                 |
|          Phys. Rev. B. 83, 195131 (2011)                                    |
|     and references therein.                                                 |

   TITEL  = PAW_PBE C 08Apr2002
   POMASS =   12.011; ZVAL   =    4.000    mass and valenz
   ENMAX  =  400.000; ENMIN  =  300.000 eV

   TITEL  = PAW_PBE H 15Jun2001
   POMASS =    1.000; ZVAL   =    1.000    mass and valenz
   ENMAX  =  250.000; ENMIN  =  200.000 eV

   TITEL  = PAW_PBE Mg_pv 13Apr2007
   POMASS =   24.305; ZVAL   =    8.000    mass and valenz
   ENMAX  =  403.929; ENMIN  =  302.947 eV

   TITEL  = PAW_PBE O 08Apr2002
   POMASS =   16.000; ZVAL   =    6.000    mass and valenz
   ENMAX  =  400.000; ENMIN  =  300.000 eV

  PAW_PBE C 08Apr2002                   :
  PAW_PBE H 15Jun2001                   :
  PAW_PBE Mg_pv 13Apr2007               :
  PAW_PBE O 08Apr2002                   :

 POSCAR:  C  H Mg  O
  positions in direct lattice
 exchange correlation table for  LEXCH =       40
   RHO(1)=    0.500       N(1)  =     2000
   RHO(2)=  100.500       N(2)  =     4000

 ion  position               nearest neighbor table
   1  0.500  0.500  0.808-   3 1.09   2 1.09   5 1.10   4 1.10
   2  0.500  0.605  0.837-   1 1.09
   3  0.500  0.395  0.837-   1 1.09
   4  0.605  0.500  0.778-   1 1.10
   5  0.395  0.500  0.778-   1 1.10
   6  0.000  0.750  0.350-  38 2.14  40 2.14  41 2.14  48 2.14  57 2.14
   7  0.250  0.000  0.350-  39 2.14  40 2.14  41 2.14  49 2.14  56 2.14
   8  0.000  0.000  0.450-  40 2.14  39 2.14  38 2.14  46 2.14  55 2.14  44 2.14
   9  0.250  0.750  0.450-  41 2.14  39 2.14  38 2.14  47 2.14  54 2.14  45 2.14
  10  0.000  0.750  0.550-  45 2.14  61 2.14  44 2.14  52 2.14  38 2.15  42 2.16
  11  0.250  0.000  0.550-  60 2.14  53 2.14  45 2.14  44 2.14  39 2.15  43 2.16
  12  1.000  1.000  0.650-  44 2.13  59 2.14  43 2.14  42 2.14  50 2.14
  13  0.250  0.750  0.650-  45 2.13  58 2.14  43 2.14  51 2.14  42 2.14
  14  0.000  0.250  0.350-  46 2.14  40 2.14  48 2.14  49 2.14  65 2.14
  15  0.250  0.500  0.350-  47 2.14  41 2.14  48 2.14  49 2.14  64 2.14
  16  0.000  0.500  0.450-  48 2.14  46 2.14  47 2.14  38 2.14  63 2.14  52 2.14
  17  0.250  0.250  0.450-  49 2.14  46 2.14  47 2.14  39 2.14  62 2.14  53 2.14
  18  0.000  0.250  0.550-  53 2.14  69 2.14  44 2.14  52 2.14  46 2.15  50 2.16
  19  0.250  0.500  0.550-  52 2.14  53 2.14  45 2.14  68 2.14  47 2.15  51 2.16
  20  0.000  0.500  0.650-  52 2.13  51 2.14  67 2.14  42 2.14  50 2.14
  21  0.250  0.250  0.650-  53 2.13  66 2.14  43 2.14  51 2.14  50 2.14
  22  0.500  0.750  0.350-  54 2.14  41 2.14  56 2.14  57 2.14  64 2.14
  23  0.750  0.000  0.350-  55 2.14  40 2.14  56 2.14  57 2.14  65 2.14
  24  0.500  0.000  0.450-  56 2.14  54 2.14  55 2.14  39 2.14  62 2.14  60 2.14
  25  0.750  0.750  0.450-  57 2.14  54 2.14  55 2.14  38 2.14  63 2.14  61 2.14
  26  0.500  0.750  0.550-  60 2.14  68 2.14  45 2.14  61 2.14  54 2.15  58 2.16
  27  0.750  0.000  0.550-  60 2.14  69 2.14  61 2.14  44 2.14  55 2.15  59 2.16
  28  0.500  1.000  0.650-  60 2.13  58 2.14  66 2.14  59 2.14  43 2.14
  29  0.750  0.750  0.650-  61 2.13  58 2.14  59 2.14  67 2.14  42 2.14
  30  0.500  0.250  0.350-  62 2.14  56 2.14  49 2.14  64 2.14  65 2.14
  31  0.750  0.500  0.350-  63 2.14  57 2.14  48 2.14  64 2.14  65 2.14
  32  0.500  0.500  0.450-  64 2.14  54 2.14  62 2.14  63 2.14  47 2.14  68 2.14
  33  0.750  0.250  0.450-  65 2.14  55 2.14  62 2.14  63 2.14  46 2.14  69 2.14
  34  0.500  0.250  0.550-  60 2.14  68 2.14  53 2.14  69 2.14  62 2.15  66 2.16
  35  0.750  0.500  0.550-  52 2.14  69 2.14  61 2.14  68 2.14  63 2.15  67 2.16
  36  0.500  0.500  0.650-  68 2.13  58 2.14  66 2.14  51 2.14  67 2.14
  37  0.750  0.250  0.650-  69 2.13  66 2.14  59 2.14  67 2.14  50 2.14
  38  0.000  0.750  0.450-   6 2.14   8 2.14   9 2.14  16 2.14  25 2.14  10 2.15
  39  0.250  0.000  0.450-   7 2.14   8 2.14   9 2.14  17 2.14  24 2.14  11 2.15
  40  0.000  0.000  0.350-   8 2.14   7 2.14   6 2.14  14 2.14  23 2.14
  41  0.250  0.750  0.350-   9 2.14   7 2.14   6 2.14  15 2.14  22 2.14
  42  0.000  0.750  0.652-  20 2.14  12 2.14  13 2.14  29 2.14  10 2.16
  43  0.250  1.000  0.652-  13 2.14  21 2.14  28 2.14  12 2.14  11 2.16
  44  0.000  0.000  0.550-  12 2.13  18 2.14  10 2.14  11 2.14  27 2.14   8 2.14
  45  0.250  0.750  0.550-  13 2.13  10 2.14  11 2.14  19 2.14  26 2.14   9 2.14
  46  0.000  0.250  0.450-  14 2.14   8 2.14  16 2.14  17 2.14  33 2.14  18 2.15
  47  0.250  0.500  0.450-  15 2.14   9 2.14  16 2.14  17 2.14  32 2.14  19 2.15
  48  0.000  0.500  0.350-  16 2.14  14 2.14  15 2.14   6 2.14  31 2.14
  49  0.250  0.250  0.350-  17 2.14  14 2.14  15 2.14   7 2.14  30 2.14
  50  1.000  0.250  0.652-  20 2.14  12 2.14  37 2.14  21 2.14  18 2.16
  51  0.250  0.500  0.651-  20 2.14  13 2.14  21 2.14  36 2.14  19 2.16
  52  0.000  0.500  0.550-  20 2.13  19 2.14  35 2.14  18 2.14  10 2.14  16 2.14
  53  0.250  0.250  0.550-  21 2.13  18 2.14  11 2.14  19 2.14  34 2.14  17 2.14
  54  0.500  0.750  0.450-  22 2.14   9 2.14  24 2.14  25 2.14  32 2.14  26 2.15
  55  0.750  0.000  0.450-  23 2.14   8 2.14  24 2.14  25 2.14  33 2.14  27 2.15
  56  0.500  0.000  0.350-  24 2.14  22 2.14  23 2.14   7 2.14  30 2.14
  57  0.750  0.750  0.350-  25 2.14  22 2.14  23 2.14   6 2.14  31 2.14
  58  0.500  0.750  0.651-  29 2.14  13 2.14  28 2.14  36 2.14  26 2.16
  59  0.750  1.000  0.652-  29 2.14  37 2.14  28 2.14  12 2.14  27 2.16
  60  0.500  0.000  0.550-  28 2.13  34 2.14  26 2.14  11 2.14  27 2.14  24 2.14
  61  0.750  0.750  0.550-  29 2.13  10 2.14  27 2.14  35 2.14  26 2.14  25 2.14
  62  0.500  0.250  0.450-  30 2.14  24 2.14  17 2.14  32 2.14  33 2.14  34 2.15
  63  0.750  0.500  0.450-  31 2.14  25 2.14  16 2.14  32 2.14  33 2.14  35 2.15
  64  0.500  0.500  0.350-  32 2.14  22 2.14  30 2.14  31 2.14  15 2.14
  65  0.750  0.250  0.350-  33 2.14  23 2.14  30 2.14  31 2.14  14 2.14
  66  0.500  0.250  0.651-  37 2.14  21 2.14  28 2.14  36 2.14  34 2.16
  67  0.750  0.500  0.651-  20 2.14  29 2.14  37 2.14  36 2.14  35 2.16
  68  0.500  0.500  0.550-  36 2.13  34 2.14  26 2.14  19 2.14  35 2.14  32 2.14
  69  0.750  0.250  0.550-  37 2.13  18 2.14  27 2.14  35 2.14  34 2.14  33 2.14

IMPORTANT INFORMATION: All symmetrisations will be switched off!
NOSYMM: (Re-)initialisation of all symmetry stuff for point group C_1.

                                     Primitive cell

  volume of cell :    1563.6717

  direct lattice vectors                    reciprocal lattice vectors
     8.546113626  0.000000000  0.000000000     0.117012252  0.000000000  0.000000000
     0.000000000  8.546113626  0.000000000     0.000000000  0.117012252  0.000000000
     0.000000000  0.000000000 21.409585219     0.000000000  0.000000000  0.046708051

  length of vectors
     8.546113626  8.546113626 21.409585219     0.117012252  0.117012252  0.046708051

  position of ions in fractional coordinates (direct lattice)
     0.499999914  0.499999506  0.807548202
     0.499999991  0.604827035  0.836921686
     0.499999950  0.395173390  0.836921535
     0.605111703  0.500000035  0.778233774
     0.394888287  0.500000075  0.778233785
     0.000000000  0.750000000  0.350310383
     0.250000000  0.000000000  0.350310383
     0.000000000  0.000000000  0.450103461
     0.250000000  0.750000000  0.450103461
     0.000000010  0.750048803  0.550439856
     0.250007043  0.000000008  0.550439704
     0.999999995  0.999999990  0.649719877
     0.250129022  0.750046398  0.649515153
     0.000000000  0.250000000  0.350310383
     0.250000000  0.500000000  0.350310383
     0.000000000  0.500000000  0.450103461
     0.250000000  0.250000000  0.450103461
     0.000000008  0.249951191  0.550439878
     0.249952443  0.499999988  0.550416708
     0.000000008  0.500000002  0.649556603
     0.250129040  0.249953598  0.649515180
     0.500000000  0.750000000  0.350310383
     0.750000000  0.000000000  0.350310383
     0.500000000  0.000000000  0.450103461
     0.750000000  0.750000000  0.450103461
     0.499999994  0.750023873  0.550431636
     0.749992958  0.000000009  0.550439691
     0.500000007  0.999999987  0.649588587
     0.749870979  0.750046409  0.649515150
     0.500000000  0.250000000  0.350310383
     0.750000000  0.500000000  0.350310383
     0.500000000  0.500000000  0.450103461
     0.750000000  0.250000000  0.450103461
     0.499999994  0.249976122  0.550431644
     0.750047559  0.499999989  0.550416700
     0.500000000  0.500000010  0.649650227
     0.749870966  0.249953590  0.649515177
     0.000000000  0.750000000  0.450103461
     0.250000000  0.000000000  0.450103461
     0.000000000  0.000000000  0.350310383
     0.250000000  0.750000000  0.350310383
     0.000000003  0.749984296  0.651540068
     0.250006609  0.999999987  0.651525352
     0.000000004  0.000000004  0.550202403
     0.249933110  0.750006583  0.550136903
     0.000000000  0.250000000  0.450103461
     0.250000000  0.500000000  0.450103461
     0.000000000  0.500000000  0.350310383
     0.250000000  0.250000000  0.350310383
     0.999999998  0.250015696  0.651540104
     0.249804499  0.500000006  0.651481806
     0.000000005  0.499999989  0.550151038
     0.249933115  0.249993413  0.550136917
     0.500000000  0.750000000  0.450103461
     0.750000000  0.000000000  0.450103461
     0.500000000  0.000000000  0.350310383
     0.750000000  0.750000000  0.350310383
     0.500000003  0.750077766  0.651339700
     0.749993397  0.999999990  0.651525348
     0.499999997  0.000000005  0.550107257
     0.750066894  0.750006583  0.550136900
     0.500000000  0.250000000  0.450103461
     0.750000000  0.500000000  0.450103461
     0.500000000  0.500000000  0.350310383
     0.750000000  0.250000000  0.350310383
     0.500000003  0.249922229  0.651339732
     0.750195501  0.500000005  0.651481798
     0.499999996  0.499999991  0.550123034
     0.750066889  0.249993417  0.550136915

[...]
  3Z     0.000001  -11.587597   12.367218   -0.000003    1.499815   -1.191664   -0.000007   12.866743  -13.228490    0.128323   -1.376791    1.039245   -0.128321   -1.376803    1.039245
  4X    20.652440    0.000344  -11.373650   -0.091822   -0.049382    0.127262   -0.091824    0.049638    0.124876  -22.434762   -0.000600   12.548652    1.878211   -0.000535   -1.529301
  4Y     0.000821    4.167769    0.000507   -2.174776   -0.064079    1.375139    2.174849   -0.063332   -1.376356   -0.001984   -4.227790    0.000494    0.000534    0.172047   -0.000162
  4Z   -11.312405   -0.000719   12.226603   -1.401919   -0.117589    1.039385   -1.402012    0.116064    1.039589   12.541989    0.000544  -13.198386    1.527345   -0.000604   -1.240871
  5X    20.652019   -0.000074   11.374580   -0.092188    0.050519   -0.126912   -0.092198   -0.050506   -0.126921    1.877269   -0.000009    1.530163  -22.430976    0.000084  -12.547932
  5Y     0.000019    4.166949   -0.000687    2.174883   -0.063260    1.376179   -2.174818   -0.063657   -1.375481    0.000388    0.172235    0.000207    0.000969   -4.226342    0.000533
  5Z    11.312420   -0.000555   12.226705    1.401972   -0.117562    1.039394    1.402013    0.116135    1.039552   -1.527403   -0.000555   -1.240886  -12.542173    0.000478  -13.198729

 Eigenvectors and eigenvalues of the dynamical matrix

   1 f  =   91.657344 THz   575.900074 2PiTHz 3057.359888 cm-1   379.064144 meV
             X         Y         Z           dx          dy          dz
      4.273056  4.273053 17.289272    -0.000059    0.301195   -0.000337
      4.273057  5.168921 17.918146    -0.000029   -0.543459   -0.397453
      4.273056  3.377197 17.918143    -0.000006   -0.544533    0.398105
      5.171353  4.273057 16.661662    -0.000244    0.021915    0.000140
      3.374760  4.273057 16.661663     0.000468    0.021924    0.000308
      0.000000  6.409585  7.500000            0           0           0
      2.136528  0.000000  7.500000            0           0           0
      0.000000  0.000000  9.636528            0           0           0
      2.136528  6.409585  9.636528            0           0           0
      0.000000  6.410002 11.784689            0           0           0
      2.136589  0.000000 11.784686            0           0           0
      8.546114  8.546114 13.910233            0           0           0
      2.137631  6.409982 13.905850            0           0           0
      0.000000  2.136528  7.500000            0           0           0
      2.136528  4.273057  7.500000            0           0           0
      0.000000  4.273057  9.636528            0           0           0
      2.136528  2.136528  9.636528            0           0           0
      0.000000  2.136111 11.784689            0           0           0
      2.136122  4.273057 11.784193            0           0           0
      0.000000  4.273057 13.906737            0           0           0
      2.137631  2.136132 13.905851            0           0           0
      4.273057  6.409585  7.500000            0           0           0
      6.409585  0.000000  7.500000            0           0           0
      4.273057  0.000000  9.636528            0           0           0
      6.409585  6.409585  9.636528            0           0           0
      4.273057  6.409789 11.784513            0           0           0
      6.409525  0.000000 11.784685            0           0           0
      4.273057  8.546114 13.907422            0           0           0
      6.408483  6.409982 13.905850            0           0           0
      4.273057  2.136528  7.500000            0           0           0
      6.409585  4.273057  7.500000            0           0           0
      4.273057  4.273057  9.636528            0           0           0
      6.409585  2.136528  9.636528            0           0           0
      4.273057  2.136324 11.784513            0           0           0
      6.409992  4.273057 11.784193            0           0           0
      4.273057  4.273057 13.908742            0           0           0
      6.408482  2.136132 13.905851            0           0           0
      0.000000  6.409585  9.636528            0           0           0
      2.136528  0.000000  9.636528            0           0           0
      0.000000  0.000000  7.500000            0           0           0
      2.136528  6.409585  7.500000            0           0           0
      0.000000  6.409451 13.949203            0           0           0
      2.136585  8.546114 13.948888            0           0           0
      0.000000  0.000000 11.779605            0           0           0
      2.135957  6.409641 11.778203            0           0           0
      0.000000  2.136528  9.636528            0           0           0
      2.136528  4.273057  9.636528            0           0           0
      0.000000  4.273057  7.500000            0           0           0
      2.136528  2.136528  7.500000            0           0           0
      8.546114  2.136663 13.949203            0           0           0
      2.134858  4.273057 13.947955            0           0           0
      0.000000  4.273057 11.778506            0           0           0
      2.135957  2.136472 11.778203            0           0           0
      4.273057  6.409585  9.636528            0           0           0
      6.409585  0.000000  9.636528            0           0           0
      4.273057  0.000000  7.500000            0           0           0
      6.409585  6.409585  7.500000            0           0           0
      4.273057  6.410250 13.944913            0           0           0
      6.409529  8.546114 13.948887            0           0           0
      4.273057  0.000000 11.777568            0           0           0
      6.410157  6.409641 11.778203            0           0           0
      4.273057  2.136528  9.636528            0           0           0
      6.409585  4.273057  9.636528            0           0           0
      4.273057  4.273057  7.500000            0           0           0
      6.409585  2.136528  7.500000            0           0           0
      4.273057  2.135864 13.944913            0           0           0
      6.411256  4.273057 13.947955            0           0           0
      4.273057  4.273057 11.777906            0           0           0
      6.410157  2.136472 11.778203            0           0           0

[...]

  14 f  =    0.941730 THz     5.917062 2PiTHz   31.412722 cm-1     3.894679 meV
             X         Y         Z           dx          dy          dz
      4.273056  4.273053 17.289272    -0.857127   -0.018120    0.001878
      4.273057  5.168921 17.918146    -0.304166   -0.007278    0.003481
      4.273056  3.377197 17.918143    -0.292348   -0.007276   -0.002364
      5.171353  4.273057 16.661662    -0.194227    0.002694    0.075898
      3.374760  4.273057 16.661663    -0.194219   -0.009059   -0.074825
      0.000000  6.409585  7.500000            0           0           0
      2.136528  0.000000  7.500000            0           0           0
      0.000000  0.000000  9.636528            0           0           0
      2.136528  6.409585  9.636528            0           0           0
      0.000000  6.410002 11.784689            0           0           0
      2.136589  0.000000 11.784686            0           0           0
      8.546114  8.546114 13.910233            0           0           0
      2.137631  6.409982 13.905850            0           0           0
      0.000000  2.136528  7.500000            0           0           0
      2.136528  4.273057  7.500000            0           0           0
      0.000000  4.273057  9.636528            0           0           0
      2.136528  2.136528  9.636528            0           0           0
      0.000000  2.136111 11.784689            0           0           0
      2.136122  4.273057 11.784193            0           0           0
      0.000000  4.273057 13.906737            0           0           0
      2.137631  2.136132 13.905851            0           0           0
      4.273057  6.409585  7.500000            0           0           0
      6.409585  0.000000  7.500000            0           0           0
      4.273057  0.000000  9.636528            0           0           0
      6.409585  6.409585  9.636528            0           0           0
      4.273057  6.409789 11.784513            0           0           0
      6.409525  0.000000 11.784685            0           0           0
      4.273057  8.546114 13.907422            0           0           0
      6.408483  6.409982 13.905850            0           0           0
      4.273057  2.136528  7.500000            0           0           0
      6.409585  4.273057  7.500000            0           0           0
      4.273057  4.273057  9.636528            0           0           0
      6.409585  2.136528  9.636528            0           0           0
      4.273057  2.136324 11.784513            0           0           0
      6.409992  4.273057 11.784193            0           0           0
      4.273057  4.273057 13.908742            0           0           0
      6.408482  2.136132 13.905851            0           0           0
      0.000000  6.409585  9.636528            0           0           0
      2.136528  0.000000  9.636528            0           0           0
      0.000000  0.000000  7.500000            0           0           0
      2.136528  6.409585  7.500000            0           0           0
      0.000000  6.409451 13.949203            0           0           0
      2.136585  8.546114 13.948888            0           0           0
      0.000000  0.000000 11.779605            0           0           0
      2.135957  6.409641 11.778203            0           0           0
      0.000000  2.136528  9.636528            0           0           0
      2.136528  4.273057  9.636528            0           0           0
      0.000000  4.273057  7.500000            0           0           0
      2.136528  2.136528  7.500000            0           0           0
      8.546114  2.136663 13.949203            0           0           0
      2.134858  4.273057 13.947955            0           0           0
      0.000000  4.273057 11.778506            0           0           0
      2.135957  2.136472 11.778203            0           0           0
      4.273057  6.409585  9.636528            0           0           0
      6.409585  0.000000  9.636528            0           0           0
      4.273057  0.000000  7.500000            0           0           0
      6.409585  6.409585  7.500000            0           0           0
      4.273057  6.410250 13.944913            0           0           0
      6.409529  8.546114 13.948887            0           0           0
      4.273057  0.000000 11.777568            0           0           0
      6.410157  6.409641 11.778203            0           0           0
      4.273057  2.136528  9.636528            0           0           0
      6.409585  4.273057  9.636528            0           0           0
      4.273057  4.273057  7.500000            0           0           0
      6.409585  2.136528  7.500000            0           0           0
      4.273057  2.135864 13.944913            0           0           0
      6.411256  4.273057 13.947955            0           0           0
      4.273057  4.273057 11.777906            0           0           0
      6.410157  2.136472 11.778203            0           0           0

  15 f/i=    1.087172 THz     6.830904 2PiTHz   36.264157 cm-1     4.496180 meV
             X         Y         Z           dx          dy          dz
      4.273056  4.273053 17.289272     0.015804   -0.573370    0.001959
      4.273057  5.168921 17.918146     0.011289   -0.429569    0.376337
      4.273056  3.377197 17.918143    -0.002014   -0.429536   -0.375230
      5.171353  4.273057 16.661662     0.004438    0.091592    0.000420
      3.374760  4.273057 16.661663     0.004415    0.104761    0.000805
      0.000000  6.409585  7.500000            0           0           0
      2.136528  0.000000  7.500000            0           0           0
      0.000000  0.000000  9.636528            0           0           0
      2.136528  6.409585  9.636528            0           0           0
      0.000000  6.410002 11.784689            0           0           0
      2.136589  0.000000 11.784686            0           0           0
      8.546114  8.546114 13.910233            0           0           0
      2.137631  6.409982 13.905850            0           0           0
      0.000000  2.136528  7.500000            0           0           0
      2.136528  4.273057  7.500000            0           0           0
      0.000000  4.273057  9.636528            0           0           0
      2.136528  2.136528  9.636528            0           0           0
      0.000000  2.136111 11.784689            0           0           0
      2.136122  4.273057 11.784193            0           0           0
      0.000000  4.273057 13.906737            0           0           0
      2.137631  2.136132 13.905851            0           0           0
      4.273057  6.409585  7.500000            0           0           0
      6.409585  0.000000  7.500000            0           0           0
      4.273057  0.000000  9.636528            0           0           0
      6.409585  6.409585  9.636528            0           0           0
      4.273057  6.409789 11.784513            0           0           0
      6.409525  0.000000 11.784685            0           0           0
      4.273057  8.546114 13.907422            0           0           0
      6.408483  6.409982 13.905850            0           0           0
      4.273057  2.136528  7.500000            0           0           0
      6.409585  4.273057  7.500000            0           0           0
      4.273057  4.273057  9.636528            0           0           0
      6.409585  2.136528  9.636528            0           0           0
      4.273057  2.136324 11.784513            0           0           0
      6.409992  4.273057 11.784193            0           0           0
      4.273057  4.273057 13.908742            0           0           0
      6.408482  2.136132 13.905851            0           0           0
      0.000000  6.409585  9.636528            0           0           0
      2.136528  0.000000  9.636528            0           0           0
      0.000000  0.000000  7.500000            0           0           0
      2.136528  6.409585  7.500000            0           0           0
      0.000000  6.409451 13.949203            0           0           0
      2.136585  8.546114 13.948888            0           0           0
      0.000000  0.000000 11.779605            0           0           0
      2.135957  6.409641 11.778203            0           0           0
      0.000000  2.136528  9.636528            0           0           0
      2.136528  4.273057  9.636528            0           0           0
      0.000000  4.273057  7.500000            0           0           0
      2.136528  2.136528  7.500000            0           0           0
      8.546114  2.136663 13.949203            0           0           0
      2.134858  4.273057 13.947955            0           0           0
      0.000000  4.273057 11.778506            0           0           0
      2.135957  2.136472 11.778203            0           0           0
      4.273057  6.409585  9.636528            0           0           0
      6.409585  0.000000  9.636528            0           0           0
      4.273057  0.000000  7.500000            0           0           0
      6.409585  6.409585  7.500000            0           0           0
      4.273057  6.410250 13.944913            0           0           0
      6.409529  8.546114 13.948887            0           0           0
      4.273057  0.000000 11.777568            0           0           0
      6.410157  6.409641 11.778203            0           0           0
      4.273057  2.136528  9.636528            0           0           0
      6.409585  4.273057  9.636528            0           0           0
      4.273057  4.273057  7.500000            0           0           0
      6.409585  2.136528  7.500000            0           0           0
      4.273057  2.135864 13.944913            0           0           0
      6.411256  4.273057 13.947955            0           0           0
      4.273057  4.273057 11.777906            0           0           0
      6.410157  2.136472 11.778203            0           0           0

 Finite differences POTIM=   1.0000000000000000E-002