 vasp.6.4.2 20Jul23 (build Feb 22 2024 13:53:45) complex
 executed on              LinuxNV date 2024.08.27  14:51:27
 OpenACC runtime initialized ...    4 GPUs detected

 INCAR:
   SYSTEM = Oxide-Surface
   ISMEAR = 0
   SIGMA = 0.05
   EDIFF = 1E-5
   ALGO = Normal
   IBRION = -1
   NSW = 0
   ISYM = 0
   DIPOL = 0.5 0.5 0.5
   IDIPOL = 3
   LDIPOL = .TRUE.
   ISTART = 0
   LHFCALC = .FALSE.
   GGA = PE
   HFRCUT = -1
   ENCUT = 1000
   PREC = Normal
   PRECFOCK = Normal
   LASPH = .TRUE.
   LREAL = Auto
   ISPIN = 1
   NELM = 200
   NELMIN = 8
   NCORE = 1
   KPAR = 1
   LWAVE = .FALSE.
   LCHARG = .FALSE.

 POTCAR:    PAW_PBE C_h 06Feb2004
 POTCAR:    PAW_PBE H_h 06Feb2004
 POTCAR:    PAW_PBE Mg_sv 12Apr2007
 POTCAR:    PAW_PBE O_h 06Feb2004
 POTCAR:    PAW_PBE C_h 06Feb2004
   VRHFIN =C: s2p2

   TITEL  = PAW_PBE C_h 06Feb2004
   POMASS =   12.011; ZVAL   =    4.000    mass and valenz
   ENMAX  =  700.000; ENMIN  =  500.000 eV

[...]

   TITEL  = PAW_PBE Mg_sv 12Apr2007
   POMASS =   24.305; ZVAL   =   10.000    mass and valenz
   ENMAX  =  495.223; ENMIN  =  371.417 eV

   TITEL  = PAW_PBE O_h 06Feb2004
   POMASS =   16.000; ZVAL   =    6.000    mass and valenz
   ENMAX  =  700.000; ENMIN  =  500.000 eV

 Optimization of the real space projectors (new method)

 maximal supplied QI-value         = 34.20
 optimisation between [QCUT,QGAM] = [ 16.08, 32.15] = [ 72.37,289.48] Ry
 Optimized for a Real-space Cutoff    0.71 Angstroem

   l    n(q)    QCUT    max X(q) W(low)/X(q) W(high)/X(q)  e(spline)
   0      7    16.076   134.812    0.49E-03    0.92E-03    0.59E-07
   0      7    16.076    80.524    0.48E-03    0.91E-03    0.58E-07
   1      6    16.076    79.026    0.37E-03    0.58E-03    0.12E-06
   1      6    16.076    45.188    0.36E-03    0.56E-03    0.12E-06
 Optimization of the real space projectors (new method)

[...]

   l    n(q)    QCUT    max X(q) W(low)/X(q) W(high)/X(q)  e(spline)
   0      9    16.140     8.730    0.14E-04    0.12E-04    0.27E-07
   0      9    16.140     8.910    0.19E-04    0.17E-04    0.41E-07
   1      9    16.140     2.513    0.16E-04    0.28E-04    0.54E-07
   1      9    16.140     3.341    0.27E-04    0.13E-03    0.17E-06
   2      9    16.140     3.683    0.18E-03    0.21E-03    0.81E-07
 Optimization of the real space projectors (new method)

 maximal supplied QI-value         = 34.20
 optimisation between [QCUT,QGAM] = [ 16.08, 32.15] = [ 72.37,289.48] Ry
 Optimized for a Real-space Cutoff    0.71 Angstroem

   l    n(q)    QCUT    max X(q) W(low)/X(q) W(high)/X(q)  e(spline)
   0      7    16.076   280.207    0.42E-03    0.69E-03    0.60E-07
   0      7    16.076   228.978    0.42E-03    0.69E-03    0.61E-07
   1      6    16.076    86.127    0.11E-03    0.66E-03    0.10E-06
   1      6    16.076    65.368    0.11E-03    0.65E-03    0.10E-06
  PAW_PBE C_h 06Feb2004                 :
  PAW_PBE H_h 06Feb2004                 :
  PAW_PBE Mg_sv 12Apr2007               :
  PAW_PBE O_h 06Feb2004                 :

 POSCAR:  C  H Mg  O
  positions in direct lattice
 exchange correlation table for  LEXCH =        8
   RHO(1)=    0.500       N(1)  =     2000
   RHO(2)=  100.500       N(2)  =     4000

 ion  position               nearest neighbor table
   1  0.625  0.500  0.760-   3 1.10   2 1.10   4 1.10   5 1.10
   2  0.625  0.606  0.797-   1 1.10
   3  0.625  0.394  0.797-   1 1.10
   4  0.732  0.500  0.723-   1 1.10
   5  0.518  0.500  0.723-   1 1.10
   6  0.125  0.750  0.203-
   7  0.375  0.000  0.203-
   8  0.125  0.000  0.327-
   9  0.375  0.750  0.327-
  10  0.125  0.750  0.452-
  11  0.375  1.000  0.452-
  12  0.125  1.000  0.576-
  13  0.375  0.750  0.576-
  14  0.125  0.250  0.203-
  15  0.375  0.500  0.203-
  16  0.125  0.500  0.327-
  17  0.375  0.250  0.327-
  18  0.125  0.250  0.452-
  19  0.375  0.500  0.452-
  20  0.125  0.500  0.576-
  21  0.375  0.250  0.576-
  22  0.625  0.750  0.203-
  23  0.875  0.000  0.203-
  24  0.625  0.000  0.327-
  25  0.875  0.750  0.327-
  26  0.625  0.750  0.452-
  27  0.875  0.000  0.452-
  28  0.625  1.000  0.576-
  29  0.875  0.750  0.576-
  30  0.625  0.250  0.203-
  31  0.875  0.500  0.203-
  32  0.625  0.500  0.327-
  33  0.875  0.250  0.327-
  34  0.625  0.250  0.452-
  35  0.875  0.500  0.452-
  36  0.625  0.500  0.576-
  37  0.875  0.250  0.576-
  38  0.125  0.750  0.327-
  39  0.375  0.000  0.327-
  40  0.125  0.000  0.203-
  41  0.375  0.750  0.203-
  42  0.125  0.750  0.578-
  43  0.375  0.000  0.579-
  44  0.125  1.000  0.452-
  45  0.375  0.750  0.452-
  46  0.125  0.250  0.327-
  47  0.375  0.500  0.327-
  48  0.125  0.500  0.203-
  49  0.375  0.250  0.203-
  50  0.125  0.250  0.578-
  51  0.375  0.500  0.578-
  52  0.125  0.500  0.452-
  53  0.375  0.250  0.452-
  54  0.625  0.750  0.327-
  55  0.875  0.000  0.327-
  56  0.625  0.000  0.203-
  57  0.875  0.750  0.203-
  58  0.625  0.750  0.578-
  59  0.875  0.000  0.579-
  60  0.625  1.000  0.452-
  61  0.875  0.750  0.452-
  62  0.625  0.250  0.327-
  63  0.875  0.500  0.327-
  64  0.625  0.500  0.203-
  65  0.875  0.250  0.203-
  66  0.625  0.250  0.578-
  67  0.875  0.500  0.578-
  68  0.625  0.500  0.452-
  69  0.875  0.250  0.452-

IMPORTANT INFORMATION: All symmetrisations will be switched off!
NOSYMM: (Re-)initialisation of all symmetry stuff for point group C_1.

                                     Primitive cell

  volume of cell :    1211.2538

  direct lattice vectors                    reciprocal lattice vectors
     8.440984654  0.000000000  0.000000000     0.118469591  0.000000000  0.000000000
     0.000000000  8.440984654  0.000000000     0.000000000  0.118469591  0.000000000
     0.000000000  0.000000000 17.000000000     0.000000000  0.000000000  0.058823529

  length of vectors
     8.440984654  8.440984654 17.000000000     0.118469591  0.118469591  0.058823529

  position of ions in fractional coordinates (direct lattice)
     0.624874723  0.499997702  0.760129327
     0.624874667  0.606400246  0.797180401
     0.624874661  0.393601766  0.797179749
     0.731963124  0.500000082  0.723349296
     0.517786221  0.500000086  0.723349275
     0.124874701  0.750000001  0.202819599
     0.374874701  0.000000001  0.202819599
     0.124874701  0.000000001  0.326951726
     0.374874701  0.750000001  0.326951726
     0.124874704  0.750032169  0.451932988
     0.374867470  0.999999999  0.451925450
     0.124874712  0.999999992  0.575783509
     0.374991216  0.750097341  0.575612586
     0.124874701  0.250000001  0.202819599
     0.374874701  0.500000001  0.202819599
     0.124874701  0.500000001  0.326951726
     0.374874701  0.250000001  0.326951726
     0.124874708  0.249967823  0.451932992
     0.374983146  0.500000002  0.451948183
     0.124874712  0.499999995  0.575568334
     0.374991205  0.249902632  0.575612581
     0.624874701  0.750000001  0.202819599
     0.874874701  0.000000001  0.202819599
     0.624874701  0.000000001  0.326951726
     0.874874701  0.750000001  0.326951726
     0.624874696  0.749901113  0.451984522
     0.874881955  0.000000006  0.451925445
     0.624874708  0.999999999  0.575658965
     0.874758227  0.750097345  0.575612601
     0.624874701  0.250000001  0.202819599
     0.874874701  0.500000001  0.202819599
     0.624874701  0.500000001  0.326951726
     0.874874701  0.250000001  0.326951726
     0.624874702  0.250098875  0.451984502
     0.874766288  0.499999992  0.451948190
     0.624874715  0.499999989  0.576325730
     0.874758224  0.249902626  0.575612601
     0.124874701  0.750000001  0.326951726
     0.374874701  0.000000001  0.326951726
     0.124874701  0.000000001  0.202819599
     0.374874701  0.750000001  0.202819599
     0.124874712  0.750041777  0.578461591
     0.374814565  0.000000004  0.578506137
     0.124874716  0.999999982  0.451658755
     0.374798799  0.750012793  0.451587177
     0.124874701  0.250000001  0.326951726
     0.374874701  0.500000001  0.326951726
     0.124874701  0.500000001  0.202819599
     0.374874701  0.250000001  0.202819599
     0.124874718  0.249958210  0.578461567
     0.374624152  0.499999983  0.578487550
     0.124874718  0.500000004  0.451540272
     0.374798803  0.249987199  0.451587172
     0.624874701  0.750000001  0.326951726
     0.874874701  0.000000001  0.326951726
     0.624874701  0.000000001  0.202819599
     0.874874701  0.750000001  0.202819599
     0.624874705  0.750141603  0.578186521
     0.874934875  0.000000005  0.578506145
     0.624874715  0.999999988  0.451528368
     0.874950615  0.750012792  0.451587179
     0.624874701  0.250000001  0.326951726
     0.874874701  0.500000001  0.326951726
     0.624874701  0.500000001  0.202819599
     0.874874701  0.250000001  0.202819599
     0.624874705  0.249858389  0.578186513
     0.875125299  0.499999988  0.578487554
     0.624874718  0.499999993  0.451751169
     0.874950602  0.249987190  0.451587179

  ion indices of the primitive-cell ions
   primitive index   ion index
                 1           1
                 2           2
                 3           3
                 4           4
                 5           5
                 6           6
                 7           7
                 8           8
                 9           9
                10          10
                11          11
                12          12
                13          13
                14          14
                15          15
                16          16
                17          17
                18          18
                19          19
                20          20
                21          21
                22          22
                23          23
                24          24
                25          25
                26          26
                27          27
                28          28
                29          29
                30          30
                31          31
                32          32
                33          33
                34          34
                35          35
                36          36
                37          37
                38          38
                39          39
                40          40
                41          41
                42          42
                43          43
                44          44
                45          45
                46          46
                47          47
                48          48
                49          49
                50          50
                51          51
                52          52
                53          53
                54          54
                55          55
                56          56
                57          57
                58          58
                59          59
                60          60
                61          61
                62          62
                63          63
                64          64
                65          65
                66          66
                67          67
                68          68
                69          69

 KPOINTS: pymatgen v2020.8.13 with grid density =

Automatic generation of k-mesh.
 Grid dimensions read from file:
[...]
  augment   724.27064   724.17506   714.89633     0.00001    -0.00000    -0.00068
  Kinetic 12605.94948 12605.99509 12623.25122     0.00001     0.00008     0.00301
  Fock        0.00000     0.00000     0.00000     0.00000     0.00000     0.00000
  Total     -15.48391   -15.63633     8.03978     0.00004    -0.00076     0.05401
  in kB     -20.48123   -20.68285    10.63456     0.00006    -0.00100     0.07144

 VOLUME and BASIS-vectors are now :
  energy-cutoff  :     1000.00
  volume of cell :     1211.25
      direct lattice vectors                 reciprocal lattice vectors
     8.440984654  0.000000000  0.000000000     0.118469591  0.000000000  0.000000000
     0.000000000  8.440984654  0.000000000     0.000000000  0.118469591  0.000000000
     0.000000000  0.000000000 17.000000000     0.000000000  0.000000000  0.058823529

  length of vectors
     8.440984654  8.440984654 17.000000000     0.118469591  0.118469591  0.058823529

 FORCES acting on ions
    electron-ion (+dipol)            ewald-force                    non-local-force                 convergence-correction
   0.985E-05 -.157E-02 -.674E+03   -.198E-04 0.141E-02 0.674E+03   0.156E-01 0.174E-02 -.891E-01   -.221E-04 0.129E-04 -.869E-02
   -.614E-05 -.430E+02 -.151E+03   -.217E-04 0.474E+02 0.154E+03   0.631E-03 -.450E+01 -.315E+01   -.297E-05 0.109E-02 -.153E-03
   -.141E-05 0.430E+02 -.151E+03   -.246E-04 -.474E+02 0.154E+03   0.632E-03 0.450E+01 -.315E+01   -.606E-05 -.109E-02 -.153E-03
   -.435E+02 -.836E-03 -.186E+03   0.480E+02 0.885E-03 0.183E+03   -.456E+01 -.121E-03 0.304E+01   0.656E-03 0.715E-05 -.211E-02
   0.435E+02 -.833E-03 -.186E+03   -.480E+02 0.887E-03 0.183E+03   0.456E+01 -.120E-03 0.304E+01   -.654E-03 0.259E-05 -.211E-02
   -.239E-02 -.775E+00 0.244E+04   -.362E-05 0.774E+00 -.243E+04   0.316E-02 -.318E-04 -.916E+01   0.537E-05 0.299E-03 -.146E-02
   0.805E+00 -.146E-04 0.244E+04   -.806E+00 -.717E-05 -.243E+04   -.146E-02 0.102E-04 -.916E+01   -.466E-03 0.527E-05 -.144E-02
   -.505E-03 0.218E-04 0.823E+03   -.690E-05 -.756E-07 -.824E+03   0.287E-02 -.960E-05 0.705E+00   0.196E-04 -.194E-04 0.117E-02
   0.834E+00 -.881E+00 0.825E+03   -.832E+00 0.882E+00 -.825E+03   -.139E-02 -.445E-03 0.682E+00   -.170E-03 -.467E-04 0.154E-02
   -.131E-02 -.289E+01 -.786E+03   -.280E-04 0.290E+01 0.786E+03   -.124E-02 -.848E-02 -.315E+00   0.937E-04 -.204E-03 0.578E-03
   0.291E+01 0.370E-04 -.786E+03   -.290E+01 -.539E-04 0.786E+03   -.975E-02 0.243E-04 -.298E+00   -.247E-04 -.123E-04 0.142E-03
   -.333E-03 0.661E-04 -.239E+04   0.258E-04 -.874E-04 0.239E+04   0.209E-02 -.176E-04 0.778E+01   0.138E-04 0.439E-04 0.852E-03
   0.184E+02 -.185E+02 -.237E+04   -.184E+02 0.186E+02 0.236E+04   -.414E-01 -.800E-01 0.780E+01   -.207E-03 -.496E-04 0.526E-03
   -.241E-02 0.775E+00 0.244E+04   -.324E-05 -.774E+00 -.243E+04   0.316E-02 -.220E-04 -.916E+01   0.192E-04 -.209E-03 -.145E-02
   0.102E+01 0.288E-04 0.244E+04   -.102E+01 0.705E-05 -.243E+04   -.312E-02 -.792E-05 -.916E+01   -.500E-03 -.219E-04 -.774E-03
   -.483E-03 -.203E-04 0.825E+03   -.208E-04 -.986E-06 -.825E+03   0.290E-02 0.690E-05 0.659E+00   0.457E-06 0.203E-04 0.122E-02
   0.834E+00 0.881E+00 0.825E+03   -.832E+00 -.882E+00 -.825E+03   -.136E-02 0.474E-03 0.682E+00   -.256E-03 0.177E-04 0.133E-02
   -.126E-02 0.289E+01 -.786E+03   -.460E-04 -.290E+01 0.786E+03   -.120E-02 0.843E-02 -.315E+00   0.234E-04 0.227E-03 0.588E-03
   0.482E+01 -.186E-04 -.778E+03   -.479E+01 0.188E-04 0.779E+03   -.341E-01 0.279E-05 -.304E+00   -.112E-03 -.873E-05 0.604E-03
   -.394E-03 -.892E-04 -.238E+04   0.447E-04 0.706E-04 0.237E+04   0.515E-03 -.239E-04 0.777E+01   0.456E-04 0.409E-04 0.424E-03
   0.184E+02 0.185E+02 -.237E+04   -.184E+02 -.186E+02 0.236E+04   -.414E-01 0.800E-01 0.780E+01   -.239E-03 0.655E-04 0.561E-03
   -.236E-02 -.987E+00 0.244E+04   0.404E-05 0.985E+00 -.243E+04   0.314E-02 0.166E-02 -.916E+01   0.208E-05 0.317E-03 -.746E-03
   -.805E+00 0.572E-05 0.244E+04   0.806E+00 -.778E-05 -.243E+04   -.462E-02 0.146E-04 -.916E+01   0.425E-03 -.172E-04 -.141E-02
   -.529E-03 0.106E-03 0.825E+03   0.892E-05 -.406E-04 -.825E+03   0.290E-02 0.441E-05 0.636E+00   0.185E-04 -.737E-04 0.116E-02
   -.832E+00 -.881E+00 0.825E+03   0.832E+00 0.882E+00 -.825E+03   -.266E-03 -.485E-03 0.682E+00   0.211E-03 0.117E-04 0.138E-02
   -.143E-02 -.486E+01 -.777E+03   0.102E-03 0.484E+01 0.778E+03   -.122E-02 0.220E-01 -.488E+00   0.150E-04 -.489E-04 0.210E-02
   -.291E+01 0.659E-04 -.786E+03   0.290E+01 -.104E-03 0.786E+03   0.492E-02 0.232E-05 -.299E+00   -.906E-05 0.327E-04 0.549E-04
   -.424E-03 0.239E-03 -.238E+04   0.662E-04 -.176E-03 0.237E+04   0.608E-03 -.361E-04 0.779E+01   -.171E-04 -.390E-04 -.955E-04
   -.184E+02 -.185E+02 -.237E+04   0.184E+02 0.186E+02 0.236E+04   0.362E-01 -.796E-01 0.780E+01   0.760E-04 -.690E-04 0.635E-03
   -.237E-02 0.987E+00 0.244E+04   0.334E-05 -.985E+00 -.243E+04   0.315E-02 -.171E-02 -.916E+01   -.135E-04 -.219E-03 -.788E-03
   -.102E+01 0.288E-04 0.244E+04   0.102E+01 0.757E-05 -.243E+04   -.301E-02 -.131E-04 -.916E+01   0.530E-03 -.126E-04 -.727E-03
   -.535E-03 -.863E-04 0.826E+03   0.260E-04 0.395E-04 -.826E+03   0.289E-02 -.303E-05 0.713E+00   0.172E-04 0.598E-04 0.194E-02
   -.832E+00 0.881E+00 0.825E+03   0.832E+00 -.882E+00 -.825E+03   -.219E-03 0.491E-03 0.682E+00   0.181E-03 -.971E-05 0.147E-02
   -.139E-02 0.486E+01 -.777E+03   0.444E-04 -.484E+01 0.778E+03   -.121E-02 -.220E-01 -.488E+00   0.103E-04 0.699E-04 0.211E-02
   -.482E+01 -.305E-04 -.778E+03   0.479E+01 0.388E-04 0.779E+03   0.293E-01 -.243E-04 -.304E+00   0.109E-03 0.252E-04 0.660E-03
   -.371E-03 -.432E-03 -.231E+04   0.599E-04 0.293E-03 0.230E+04   0.918E-03 -.917E-05 0.759E+01   0.177E-04 0.132E-03 0.690E-03
   -.184E+02 0.185E+02 -.237E+04   0.184E+02 -.186E+02 0.236E+04   0.362E-01 0.796E-01 0.780E+01   0.251E-03 -.234E-04 0.544E-03
   0.747E-03 -.504E+00 0.494E+03   -.963E-05 0.496E+00 -.493E+03   -.194E-02 0.956E-02 -.874E-01   -.393E-04 0.641E-04 0.605E-02
   0.504E+00 -.177E-04 0.494E+03   -.494E+00 -.108E-04 -.493E+03   -.123E-01 0.852E-05 -.895E-01   -.170E-03 0.238E-04 0.612E-02
   0.468E-04 0.203E-04 0.148E+04   -.143E-05 -.290E-05 -.148E+04   -.132E-02 0.853E-05 0.262E+01   0.232E-04 -.222E-04 -.189E-02
   0.545E+00 -.528E+00 0.148E+04   -.546E+00 0.527E+00 -.148E+04   0.206E-02 0.741E-03 0.261E+01   -.338E-03 0.206E-03 -.142E-02
   -.247E-05 -.606E+01 -.146E+04   0.345E-04 0.606E+01 0.147E+04   0.738E-04 -.201E-02 -.463E+01   0.386E-04 -.306E-03 0.468E-02
   0.590E+01 0.103E-03 -.146E+04   -.590E+01 -.118E-03 0.147E+04   0.590E-02 0.140E-05 -.465E+01   0.563E-04 0.127E-04 0.450E-02
   0.971E-03 -.268E-04 -.468E+03   -.162E-04 -.201E-06 0.467E+03   0.119E-02 0.585E-05 0.249E+00   -.739E-05 0.211E-04 0.887E-02
   0.229E+01 -.228E+01 -.463E+03   -.228E+01 0.228E+01 0.463E+03   -.154E-01 0.378E-03 0.292E+00   -.158E-03 0.574E-04 0.896E-02
   0.695E-03 0.504E+00 0.494E+03   -.103E-04 -.496E+00 -.493E+03   -.195E-02 -.956E-02 -.874E-01   0.233E-04 -.473E-04 0.608E-02
   0.563E+00 0.213E-06 0.494E+03   -.574E+00 0.860E-05 -.494E+03   0.142E-01 -.295E-05 -.878E-01   -.875E-04 -.799E-05 0.610E-02
   0.488E-04 0.247E-04 0.148E+04   -.258E-05 0.282E-05 -.148E+04   -.132E-02 0.149E-05 0.262E+01   0.167E-04 -.314E-04 -.151E-02
   0.545E+00 0.528E+00 0.148E+04   -.546E+00 -.527E+00 -.148E+04   0.207E-02 -.743E-03 0.261E+01   -.315E-03 -.190E-03 -.145E-02
   0.303E-04 0.606E+01 -.146E+04   -.355E-06 -.606E+01 0.147E+04   0.599E-04 0.203E-02 -.463E+01   0.482E-04 0.257E-03 0.470E-02
   0.189E+02 -.461E-04 -.144E+04   -.188E+02 0.917E-04 0.144E+04   -.821E-01 0.127E-04 -.461E+01   0.464E-04 -.542E-04 0.460E-02
   0.108E-02 -.352E-04 -.464E+03   -.896E-05 -.271E-06 0.463E+03   -.959E-03 -.361E-05 0.319E+00   0.281E-04 0.388E-04 0.911E-02
   0.229E+01 0.228E+01 -.463E+03   -.228E+01 -.228E+01 0.463E+03   -.154E-01 -.390E-03 0.292E+00   -.118E-03 -.670E-04 0.906E-02
   0.656E-03 -.567E+00 0.494E+03   0.157E-04 0.581E+00 -.494E+03   -.193E-02 -.174E-01 -.953E-01   0.166E-04 -.423E-04 0.610E-02
   -.506E+00 0.358E-04 0.494E+03   0.494E+00 -.164E-04 -.493E+03   0.142E-01 0.977E-05 -.895E-01   0.184E-03 -.282E-04 0.615E-02
   0.734E-04 0.381E-04 0.148E+04   0.157E-05 -.613E-05 -.148E+04   -.132E-02 0.161E-04 0.261E+01   -.109E-04 -.429E-04 -.137E-02
   -.546E+00 -.528E+00 0.148E+04   0.546E+00 0.527E+00 -.148E+04   0.994E-03 0.736E-03 0.261E+01   0.311E-03 0.214E-03 -.136E-02
   -.252E-05 -.186E+02 -.144E+04   0.653E-04 0.186E+02 0.145E+04   0.130E-02 0.102E+00 -.471E+01   0.254E-04 -.244E-03 0.423E-02
   -.590E+01 0.157E-03 -.146E+04   0.590E+01 -.130E-03 0.147E+04   0.496E-02 -.111E-05 -.465E+01   -.704E-04 -.275E-04 0.451E-02
   0.102E-02 0.691E-04 -.464E+03   0.306E-04 -.365E-04 0.463E+03   -.921E-03 0.539E-05 0.272E+00   0.325E-04 -.368E-04 0.932E-02
   -.229E+01 -.228E+01 -.463E+03   0.228E+01 0.228E+01 0.463E+03   0.191E-01 -.887E-03 0.292E+00   0.194E-04 0.109E-03 0.908E-02
   0.678E-03 0.567E+00 0.494E+03   0.926E-05 -.581E+00 -.494E+03   -.194E-02 0.174E-01 -.953E-01   0.500E-05 0.360E-04 0.614E-02
   -.565E+00 -.152E-04 0.494E+03   0.574E+00 0.129E-04 -.494E+03   -.123E-01 -.157E-04 -.878E-01   0.103E-03 0.132E-04 0.601E-02
   0.526E-04 -.179E-04 0.148E+04   0.278E-05 0.605E-05 -.148E+04   -.131E-02 0.249E-05 0.262E+01   -.814E-06 0.102E-04 -.106E-02
   -.546E+00 0.528E+00 0.148E+04   0.546E+00 -.527E+00 -.148E+04   0.994E-03 -.746E-03 0.261E+01   0.323E-03 -.144E-03 -.141E-02
   0.706E-04 0.186E+02 -.144E+04   0.340E-04 -.186E+02 0.145E+04   0.133E-02 -.102E+00 -.471E+01   -.443E-04 0.215E-03 0.407E-02
   -.189E+02 -.198E-03 -.144E+04   0.188E+02 0.834E-04 0.144E+04   0.954E-01 -.135E-04 -.461E+01   -.167E-04 0.124E-03 0.469E-02
   0.810E-03 -.589E-04 -.460E+03   0.392E-04 0.367E-04 0.459E+03   0.170E-02 -.101E-04 0.130E+00   -.132E-04 0.300E-04 0.882E-02
   -.229E+01 0.228E+01 -.463E+03   0.228E+01 -.228E+01 0.463E+03   0.191E-01 0.897E-03 0.292E+00   0.142E-03 -.141E-03 0.901E-02
   -.110E-01 -.205E-02 0.236E+02   0.391E-12 0.227E-12 -.301E-11   0.348E-01 0.190E-02 -.237E+02   0.959E-04 0.313E-03 0.146E+00

 POSITION                                       TOTAL-FORCE (eV/Angst)
      5.27456      4.22047     12.92220         0.015225      0.001600      0.073066
      5.27456      5.11862     13.55207         0.000253     -0.039871     -0.022341
      5.27456      3.32239     13.55206         0.000253      0.038530     -0.021496
      6.17849      4.22049     12.29694        -0.020155     -0.000068      0.032335
      4.37063      4.22049     12.29694         0.017099     -0.000066      0.031690
      1.05407      6.33074      3.44793         0.000422     -0.000058      0.313688
      3.16431      0.00000      3.44793        -0.003482     -0.000009      0.310720
      1.05407      0.00000      5.55818         0.002033     -0.000010      0.034119
      3.16431      6.33074      5.55818         0.000294      0.000065      0.036242
      1.05407      6.33101      7.68286        -0.002828     -0.001194      0.051731
      3.16425      8.44098      7.68273         0.001114     -0.000007      0.048583
      1.05407      8.44098      9.78832         0.001445      0.000003      0.032073
      3.16530      6.33156      9.78541        -0.008130      0.007335      0.025909
      1.05407      2.11025      3.44793         0.000420      0.000060      0.313691
      3.16431      4.22049      3.44793        -0.003140      0.000004      0.309775
      1.05407      4.22049      5.55818         0.002053      0.000004      0.035422
      3.16431      2.11025      5.55818         0.000310     -0.000049      0.036286
      1.05407      2.10997      7.68286        -0.002828      0.001186      0.051711
      3.16523      4.22049      7.68312        -0.002158     -0.000008      0.049659
      1.05407      4.22049      9.78466        -0.000136     -0.000004      0.036292
      3.16530      2.10942      9.78541        -0.008130     -0.007343      0.025913
      5.27456      6.33074      3.44793         0.000433     -0.000418      0.314727
      7.38480      0.00000      3.44793        -0.002712     -0.000007      0.310721
      5.27456      0.00000      5.55818         0.002054     -0.000006      0.038441
      7.38480      6.33074      5.55818        -0.000827      0.000052      0.036224
      5.27456      6.32990      7.68374        -0.002883      0.002878      0.053076
      7.38487      0.00000      7.68273        -0.005760     -0.000006      0.047559
      5.27456      8.44098      9.78620        -0.000114     -0.000015      0.030339
      7.38382      6.33156      9.78541         0.007204      0.007800      0.025397
      5.27456      2.11025      3.44793         0.000423      0.000413      0.314722
      7.38480      4.22049      3.44793        -0.003056      0.000008      0.309755
      5.27456      4.22049      5.55818         0.002049      0.000008      0.039272
      7.38480      2.11025      5.55818        -0.000800     -0.000058      0.036247
      5.27456      2.11108      7.68374        -0.002899     -0.002864      0.053070
      7.38389      4.22049      7.68312        -0.002441      0.000007      0.049573
      5.27456      4.22049      9.79754         0.000277     -0.000019      0.038351
      7.38382      2.10942      9.78541         0.007212     -0.007802      0.025405
      1.05407      6.33074      5.55818        -0.001586      0.002164      0.057910
      3.16431      0.00000      5.55818        -0.003399      0.000002      0.053133
      1.05407      0.00000      3.44793        -0.001602      0.000001     -0.553129
      3.16431      6.33074      3.44793         0.000443      0.000166     -0.558873
      1.05407      6.33109      9.83385        -0.000203     -0.005563      0.053950
      3.16380      0.00000      9.83460         0.006792     -0.000004      0.047179
      1.05407      8.44098      7.67820         0.001793     -0.000002      0.003993
      3.16367      6.33085      7.67698        -0.000251     -0.000735      0.009402
      1.05407      2.11025      5.55818        -0.001589     -0.002169      0.057909
      3.16431      4.22049      5.55818         0.002599     -0.000005      0.055055
      1.05407      4.22049      3.44793        -0.001601     -0.000005     -0.552477
      3.16431      2.11025      3.44793         0.000443     -0.000170     -0.558874
      1.05407      2.10989      9.83385        -0.000209      0.005564      0.053962
      3.16220      4.22049      9.83429        -0.009333      0.000002      0.048279
      1.05407      4.22049      7.67618        -0.000209     -0.000003      0.019269
      3.16367      2.11014      7.67698        -0.000254      0.000727      0.009391
      5.27456      6.33074      5.55818        -0.001592     -0.003891      0.059593
      7.38480      0.00000      5.55818         0.002804     -0.000001      0.053130
      5.27456      0.00000      3.44793        -0.001607      0.000003     -0.554152
      7.38480      6.33074      3.44793         0.000228      0.000165     -0.558883
      5.27456      6.33193      9.82917         0.001037      0.014250      0.045696
      7.38531      0.00000      9.83460        -0.000060     -0.000003      0.047156
      5.27456      8.44098      7.67598        -0.000183     -0.000001      0.014409
      7.38544      6.33085      7.67698         0.001917     -0.002004      0.009286
      5.27456      2.11025      5.55818        -0.001593      0.003885      0.059591
      7.38480      4.22049      5.55818        -0.003191     -0.000007      0.055056
      5.27456      4.22049      3.44793        -0.001601     -0.000002     -0.553711
      7.38480      2.11025      3.44793         0.000225     -0.000172     -0.558874
      5.27456      2.10905      9.82917         0.001042     -0.014249      0.045718
      7.38692      4.22049      9.83429         0.018543     -0.000006      0.049601
      5.27456      4.22049      7.67977         0.002192     -0.000005      0.003075
      7.38544      2.11014      7.67698         0.001911      0.001999      0.009283
    total drift:                                0.023955      0.000165      0.008849

  FREE ENERGIE OF THE ION-ELECTRON SYSTEM (eV)
  free  energy   TOTEN  =      -396.70965327 eV

  energy  without entropy=     -396.70965327  energy(sigma->0) =     -396.70965327

     |            E. Caldeweyher, S. Ehlert & S. Grimme          |
     |          Mulliken Center for Theoretical Chemistry        |
     |                    University of Bonn                     |

Rational (Becke-Johnson) damping: hse06-D4-ATM
  s6         1.0000
  s8         1.1953
  s9         1.0000
  a1         0.3866
  a2         5.1913
 alp        16.0000

Dispersion energy:      -2.7407604614809E-01 Eh