 vasp.6.4.2 20Jul23 (build Feb 22 2024 13:53:45) complex
 executed on              LinuxNV date 2024.08.27  14:54:04
 OpenACC runtime initialized ...    4 GPUs detected

 INCAR:
   SYSTEM = Oxide-Surface
   ISMEAR = 0
   SIGMA = 0.05
   EDIFF = 1E-5
   ALGO = Normal
   IBRION = -1
   NSW = 0
   ISYM = 0
   DIPOL = 0.5 0.5 0.5
   IDIPOL = 3
   LDIPOL = .TRUE.
   ISTART = 1
   LHFCALC = .TRUE.
   HFSCREEN = 0.2
   GGA = PE
   HFRCUT = -1
   ENCUT = 520
   PREC = Normal
   PRECFOCK = Normal
   LASPH = .TRUE.
   LREAL = Auto
   ISPIN = 1
   NELM = 200
   NELMIN = 8
   NCORE = 1
   KPAR = 1
   LWAVE = .FALSE.
   LCHARG = .FALSE.

 POTCAR:    PAW_PBE C 08Apr2002
 POTCAR:    PAW_PBE H 15Jun2001
 POTCAR:    PAW_PBE Mg_pv 13Apr2007
 POTCAR:    PAW_PBE O 08Apr2002
 POTCAR:    PAW_PBE C 08Apr2002
   VRHFIN =C: s2p2

   TITEL  = PAW_PBE C 08Apr2002
   POMASS =   12.011; ZVAL   =    4.000    mass and valenz
   ENMAX  =  400.000; ENMIN  =  300.000 eV

   TITEL  = PAW_PBE H 15Jun2001
   POMASS =    1.000; ZVAL   =    1.000    mass and valenz
   ENMAX  =  250.000; ENMIN  =  200.000 eV

   TITEL  = PAW_PBE Mg_pv 13Apr2007
   POMASS =   24.305; ZVAL   =    8.000    mass and valenz
   ENMAX  =  403.929; ENMIN  =  302.947 eV

   TITEL  = PAW_PBE O 08Apr2002
   POMASS =   16.000; ZVAL   =    6.000    mass and valenz
   ENMAX  =  400.000; ENMIN  =  300.000 eV

 Optimization of the real space projectors (new method)

 maximal supplied QI-value         = 25.13
 optimisation between [QCUT,QGAM] = [ 11.56, 23.12] = [ 37.43,149.72] Ry
 Optimized for a Real-space Cutoff    1.04 Angstroem

   l    n(q)    QCUT    max X(q) W(low)/X(q) W(high)/X(q)  e(spline)
   0      7    11.561   115.676    0.20E-03    0.60E-03    0.21E-06
   0      7    11.561    87.132    0.20E-03    0.59E-03    0.21E-06
   1      7    11.561     4.429    0.23E-03    0.35E-03    0.15E-06
   1      7    11.561     2.733    0.18E-03    0.25E-03    0.12E-06
 Optimization of the real space projectors (new method)

[...]

   l    n(q)    QCUT    max X(q) W(low)/X(q) W(high)/X(q)  e(spline)
   1      8    11.527     2.974    0.16E-03    0.13E-03    0.98E-07
   1      8    11.527     4.279    0.42E-03    0.30E-03    0.22E-06
   0      8    11.527    16.381    0.13E-03    0.20E-03    0.72E-07
   0      8    11.527     5.611    0.88E-04    0.13E-03    0.50E-07
   2      7    11.527     4.652    0.25E-03    0.73E-04    0.51E-07
 Optimization of the real space projectors (new method)

 maximal supplied QI-value         = 24.76
 optimisation between [QCUT,QGAM] = [ 11.64, 23.27] = [ 37.91,151.63] Ry
 Optimized for a Real-space Cutoff    1.04 Angstroem

   l    n(q)    QCUT    max X(q) W(low)/X(q) W(high)/X(q)  e(spline)
   0      7    11.635    20.381    0.14E-03    0.49E-03    0.18E-06
   0      7    11.635    15.268    0.16E-03    0.52E-03    0.19E-06
   1      7    11.635     5.964    0.30E-03    0.44E-03    0.22E-06
   1      7    11.635     5.382    0.27E-03    0.34E-03    0.19E-06
  PAW_PBE C 08Apr2002                   :
  PAW_PBE H 15Jun2001                   :
  PAW_PBE Mg_pv 13Apr2007               :
  PAW_PBE O 08Apr2002                   :

 POSCAR:  C  H Mg  O
  positions in direct lattice
 exchange correlation table for  LEXCH =        8
   RHO(1)=    0.500       N(1)  =     2000
   RHO(2)=  100.500       N(2)  =     4000

 ion  position               nearest neighbor table
   1  0.625  0.500  0.760-   3 1.10   2 1.10   4 1.10   5 1.10
   2  0.625  0.606  0.797-   1 1.10
   3  0.625  0.394  0.797-   1 1.10
   4  0.732  0.500  0.723-   1 1.10
   5  0.518  0.500  0.723-   1 1.10
   6  0.125  0.750  0.203-  38 2.11  40 2.11  41 2.11  48 2.11  57 2.11
   7  0.375  0.000  0.203-  39 2.11  40 2.11  41 2.11  49 2.11  56 2.11
   8  0.125  0.000  0.327-  40 2.11  39 2.11  38 2.11  46 2.11  55 2.11  44 2.12
   9  0.375  0.750  0.327-  41 2.11  39 2.11  38 2.11  47 2.11  54 2.11  45 2.12
  10  0.125  0.750  0.452-  61 2.11  45 2.11  44 2.11  52 2.11  38 2.12  42 2.15
  11  0.375  1.000  0.452-  53 2.11  45 2.11  44 2.11  60 2.11  39 2.12  43 2.15
  12  0.125  1.000  0.576-  44 2.11  59 2.11  43 2.11  42 2.11  50 2.11
  13  0.375  0.750  0.576-  45 2.11  58 2.11  43 2.11  51 2.11  42 2.11
  14  0.125  0.250  0.203-  46 2.11  40 2.11  48 2.11  49 2.11  65 2.11
  15  0.375  0.500  0.203-  47 2.11  41 2.11  48 2.11  49 2.11  64 2.11
  16  0.125  0.500  0.327-  48 2.11  46 2.11  47 2.11  38 2.11  63 2.11  52 2.12
  17  0.375  0.250  0.327-  49 2.11  46 2.11  47 2.11  39 2.11  62 2.11  53 2.12
  18  0.125  0.250  0.452-  53 2.11  69 2.11  44 2.11  52 2.11  46 2.12  50 2.15
  19  0.375  0.500  0.452-  68 2.11  45 2.11  53 2.11  52 2.11  47 2.12  51 2.15
  20  0.125  0.500  0.576-  52 2.11  67 2.11  51 2.11  42 2.11  50 2.11
  21  0.375  0.250  0.576-  53 2.11  66 2.11  43 2.11  51 2.11  50 2.11
  22  0.625  0.750  0.203-  54 2.11  41 2.11  56 2.11  57 2.11  64 2.11
  23  0.875  0.000  0.203-  55 2.11  40 2.11  56 2.11  57 2.11  65 2.11
  24  0.625  0.000  0.327-  56 2.11  54 2.11  55 2.11  39 2.11  62 2.11  60 2.12
  25  0.875  0.750  0.327-  57 2.11  54 2.11  55 2.11  38 2.11  63 2.11  61 2.12
  26  0.625  0.750  0.452-  68 2.11  45 2.11  61 2.11  60 2.11  54 2.13  58 2.15
  27  0.875  0.000  0.452-  69 2.11  61 2.11  44 2.11  60 2.11  55 2.12  59 2.15
  28  0.625  1.000  0.576-  66 2.11  58 2.11  60 2.11  43 2.11  59 2.11
  29  0.875  0.750  0.576-  61 2.11  58 2.11  59 2.11  67 2.11  42 2.11
  30  0.625  0.250  0.203-  62 2.11  56 2.11  49 2.11  64 2.11  65 2.11
  31  0.875  0.500  0.203-  63 2.11  57 2.11  48 2.11  64 2.11  65 2.11
  32  0.625  0.500  0.327-  64 2.11  54 2.11  62 2.11  63 2.11  47 2.11  68 2.12
  33  0.875  0.250  0.327-  65 2.11  55 2.11  62 2.11  63 2.11  46 2.11  69 2.12
  34  0.625  0.250  0.452-  68 2.11  53 2.11  69 2.11  60 2.11  62 2.13  66 2.15
  35  0.875  0.500  0.452-  68 2.11  61 2.11  69 2.11  52 2.11  63 2.12  67 2.15
  36  0.625  0.500  0.576-  66 2.11  58 2.11  51 2.11  67 2.11  68 2.12
  37  0.875  0.250  0.576-  69 2.11  66 2.11  59 2.11  67 2.11  50 2.11
  38  0.125  0.750  0.327-   6 2.11   8 2.11   9 2.11  16 2.11  25 2.11  10 2.12
  39  0.375  0.000  0.327-   7 2.11   8 2.11   9 2.11  17 2.11  24 2.11  11 2.12
  40  0.125  0.000  0.203-   8 2.11   7 2.11   6 2.11  14 2.11  23 2.11
  41  0.375  0.750  0.203-   9 2.11   7 2.11   6 2.11  15 2.11  22 2.11
  42  0.125  0.750  0.578-  12 2.11  20 2.11  29 2.11  13 2.11  10 2.15
  43  0.375  0.000  0.579-  21 2.11  13 2.11  12 2.11  28 2.11  11 2.15
  44  0.125  1.000  0.452-  10 2.11  18 2.11  12 2.11  11 2.11  27 2.11   8 2.12
  45  0.375  0.750  0.452-  13 2.11  10 2.11  11 2.11  19 2.11  26 2.11   9 2.12
  46  0.125  0.250  0.327-  14 2.11   8 2.11  16 2.11  17 2.11  33 2.11  18 2.12
  47  0.375  0.500  0.327-  15 2.11   9 2.11  16 2.11  17 2.11  32 2.11  19 2.12
  48  0.125  0.500  0.203-  16 2.11  14 2.11  15 2.11   6 2.11  31 2.11
  49  0.375  0.250  0.203-  17 2.11  14 2.11  15 2.11   7 2.11  30 2.11
  50  0.125  0.250  0.578-  12 2.11  20 2.11  21 2.11  37 2.11  18 2.15
  51  0.375  0.500  0.578-  20 2.11  21 2.11  13 2.11  36 2.11  19 2.15
  52  0.125  0.500  0.452-  20 2.11  10 2.11  18 2.11  19 2.11  35 2.11  16 2.12
  53  0.375  0.250  0.452-  21 2.11  18 2.11  11 2.11  19 2.11  34 2.11  17 2.12
  54  0.625  0.750  0.327-  22 2.11   9 2.11  24 2.11  25 2.11  32 2.11  26 2.13
  55  0.875  0.000  0.327-  23 2.11   8 2.11  24 2.11  25 2.11  33 2.11  27 2.12
  56  0.625  0.000  0.203-  24 2.11  22 2.11  23 2.11   7 2.11  30 2.11
  57  0.875  0.750  0.203-  25 2.11  22 2.11  23 2.11   6 2.11  31 2.11
  58  0.625  0.750  0.578-  28 2.11  13 2.11  29 2.11  36 2.11  26 2.15
  59  0.875  0.000  0.579-  37 2.11  29 2.11  12 2.11  28 2.11  27 2.15
  60  0.625  1.000  0.452-  28 2.11  27 2.11  11 2.11  26 2.11  34 2.11  24 2.12
  61  0.875  0.750  0.452-  29 2.11  10 2.11  27 2.11  35 2.11  26 2.11  25 2.12
  62  0.625  0.250  0.327-  30 2.11  24 2.11  17 2.11  32 2.11  33 2.11  34 2.13
  63  0.875  0.500  0.327-  31 2.11  25 2.11  16 2.11  32 2.11  33 2.11  35 2.12
  64  0.625  0.500  0.203-  32 2.11  22 2.11  30 2.11  31 2.11  15 2.11
  65  0.875  0.250  0.203-  33 2.11  23 2.11  30 2.11  31 2.11  14 2.11
  66  0.625  0.250  0.578-  28 2.11  21 2.11  37 2.11  36 2.11  34 2.15
  67  0.875  0.500  0.578-  20 2.11  29 2.11  37 2.11  36 2.11  35 2.15
  68  0.625  0.500  0.452-  35 2.11  19 2.11  34 2.11  26 2.11  36 2.12  32 2.12
  69  0.875  0.250  0.452-  37 2.11  18 2.11  27 2.11  35 2.11  34 2.11  33 2.12

IMPORTANT INFORMATION: All symmetrisations will be switched off!
NOSYMM: (Re-)initialisation of all symmetry stuff for point group C_1.

                                     Primitive cell

  volume of cell :    1211.2538

  direct lattice vectors                    reciprocal lattice vectors
     8.440984654  0.000000000  0.000000000     0.118469591  0.000000000  0.000000000
     0.000000000  8.440984654  0.000000000     0.000000000  0.118469591  0.000000000
     0.000000000  0.000000000 17.000000000     0.000000000  0.000000000  0.058823529

  length of vectors
     8.440984654  8.440984654 17.000000000     0.118469591  0.118469591  0.058823529

  position of ions in fractional coordinates (direct lattice)
     0.624874723  0.499997702  0.760129327
     0.624874667  0.606400246  0.797180401
     0.624874661  0.393601766  0.797179749
     0.731963124  0.500000082  0.723349296
     0.517786221  0.500000086  0.723349275
     0.124874701  0.750000001  0.202819599
     0.374874701  0.000000001  0.202819599
     0.124874701  0.000000001  0.326951726
     0.374874701  0.750000001  0.326951726
     0.124874704  0.750032169  0.451932988
     0.374867470  0.999999999  0.451925450
     0.124874712  0.999999992  0.575783509
     0.374991216  0.750097341  0.575612586
     0.124874701  0.250000001  0.202819599
     0.374874701  0.500000001  0.202819599
     0.124874701  0.500000001  0.326951726
     0.374874701  0.250000001  0.326951726
     0.124874708  0.249967823  0.451932992
     0.374983146  0.500000002  0.451948183
     0.124874712  0.499999995  0.575568334
     0.374991205  0.249902632  0.575612581
     0.624874701  0.750000001  0.202819599
     0.874874701  0.000000001  0.202819599
     0.624874701  0.000000001  0.326951726
     0.874874701  0.750000001  0.326951726
     0.624874696  0.749901113  0.451984522
     0.874881955  0.000000006  0.451925445
     0.624874708  0.999999999  0.575658965
     0.874758227  0.750097345  0.575612601
     0.624874701  0.250000001  0.202819599
     0.874874701  0.500000001  0.202819599
     0.624874701  0.500000001  0.326951726
     0.874874701  0.250000001  0.326951726
     0.624874702  0.250098875  0.451984502
     0.874766288  0.499999992  0.451948190
     0.624874715  0.499999989  0.576325730
     0.874758224  0.249902626  0.575612601
     0.124874701  0.750000001  0.326951726
     0.374874701  0.000000001  0.326951726
     0.124874701  0.000000001  0.202819599
     0.374874701  0.750000001  0.202819599
     0.124874712  0.750041777  0.578461591
     0.374814565  0.000000004  0.578506137
     0.124874716  0.999999982  0.451658755
     0.374798799  0.750012793  0.451587177
     0.124874701  0.250000001  0.326951726
[...]
   7.38480393  2.11024617  3.44793318
   5.27455780  2.10905083  9.82917072
   7.38691922  4.22049223  9.83428842
   5.27455790  4.22049227  7.67976987
   7.38544461  2.11013803  7.67698204

--------------------------------------- Iteration      FINAL  ---------------------------------------

--------------------OUTCAR has been truncated-------------------------

[...]

--------------------OUTCAR has been truncated-------------------------

 VOLUME and BASIS-vectors are now :
  energy-cutoff  :      520.00
  volume of cell :     1211.25
      direct lattice vectors                 reciprocal lattice vectors
     8.440984654  0.000000000  0.000000000     0.118469591  0.000000000  0.000000000
     0.000000000  8.440984654  0.000000000     0.000000000  0.118469591  0.000000000
     0.000000000  0.000000000 17.000000000     0.000000000  0.000000000  0.058823529

  length of vectors
     8.440984654  8.440984654 17.000000000     0.118469591  0.118469591  0.058823529

 FORCES acting on ions
    electron-ion (+dipol)            ewald-force                    non-local-force                 convergence-correction
   0.134E-05 -.833E-03 -.589E+03   -.191E-04 0.142E-02 0.589E+03   -.214E-02 0.831E-03 -.156E+00   0.728E-05 -.132E-05 0.745E-01
   0.213E-04 -.430E+02 -.136E+03   -.216E-04 0.474E+02 0.139E+03   -.852E-05 -.439E+01 -.307E+01   0.804E-06 0.301E-03 0.164E-01
   0.239E-04 0.431E+02 -.136E+03   -.245E-04 -.474E+02 0.139E+03   -.835E-05 0.439E+01 -.307E+01   0.801E-06 -.301E-03 0.164E-01
   -.432E+02 -.833E-03 -.158E+03   0.477E+02 0.885E-03 0.156E+03   -.445E+01 -.117E-03 0.297E+01   -.391E-03 -.225E-06 0.206E-01
   0.432E+02 -.835E-03 -.158E+03   -.477E+02 0.887E-03 0.156E+03   0.445E+01 -.117E-03 0.297E+01   0.393E-03 -.231E-06 0.206E-01
   0.103E-03 -.623E+00 0.171E+04   -.250E-05 0.623E+00 -.171E+04   -.920E-03 0.164E-03 -.684E+01   0.416E-06 0.166E-03 -.148E+00
   0.646E+00 0.480E-05 0.171E+04   -.648E+00 -.532E-05 -.171E+04   0.154E-03 -.140E-06 -.684E+01   -.207E-03 0.532E-06 -.148E+00
   0.832E-04 -.132E-05 0.577E+03   -.610E-05 0.568E-06 -.578E+03   -.574E-03 0.775E-06 0.486E+00   0.154E-06 -.488E-06 -.972E-01
   0.676E+00 -.718E+00 0.578E+03   -.675E+00 0.718E+00 -.579E+03   -.992E-03 -.178E-03 0.467E+00   0.772E-04 -.182E-03 -.967E-01
   0.792E-04 -.234E+01 -.547E+03   -.193E-04 0.234E+01 0.547E+03   -.191E-03 -.638E-02 -.200E+00   0.100E-05 -.744E-03 -.839E-02
   0.232E+01 0.415E-04 -.547E+03   -.231E+01 -.402E-04 0.548E+03   -.404E-02 -.176E-05 -.184E+00   0.424E-03 0.191E-06 -.857E-02
   0.888E-04 0.656E-04 -.168E+04   0.194E-04 -.665E-04 0.167E+04   -.710E-03 0.626E-06 0.577E+01   0.158E-05 0.257E-07 0.826E-01
   0.147E+02 -.148E+02 -.166E+04   -.146E+02 0.149E+02 0.165E+04   -.280E-01 -.502E-01 0.579E+01   0.151E-02 -.244E-02 0.829E-01
   0.102E-03 0.623E+00 0.171E+04   -.233E-05 -.623E+00 -.171E+04   -.920E-03 -.164E-03 -.684E+01   0.104E-05 -.165E-03 -.148E+00
   0.814E+00 -.477E-05 0.171E+04   -.814E+00 0.526E-05 -.170E+04   -.794E-03 -.210E-06 -.684E+01   -.291E-03 -.369E-07 -.147E+00
   0.906E-04 -.309E-06 0.578E+03   -.154E-04 -.370E-06 -.579E+03   -.575E-03 0.421E-06 0.452E+00   0.297E-05 -.249E-06 -.967E-01
   0.676E+00 0.718E+00 0.578E+03   -.675E+00 -.718E+00 -.579E+03   -.991E-03 0.178E-03 0.467E+00   0.767E-04 0.182E-03 -.967E-01
   0.974E-04 0.234E+01 -.547E+03   -.348E-04 -.234E+01 0.547E+03   -.194E-03 0.638E-02 -.200E+00   0.131E-05 0.743E-03 -.839E-02
   0.391E+01 -.174E-04 -.541E+03   -.388E+01 0.168E-04 0.541E+03   -.255E-01 -.437E-06 -.194E+00   0.530E-03 0.208E-06 -.682E-02
   0.519E-04 -.562E-04 -.166E+04   0.334E-04 0.567E-04 0.166E+04   -.132E-02 0.156E-06 0.576E+01   0.329E-05 -.929E-06 0.825E-01
   0.147E+02 0.148E+02 -.166E+04   -.146E+02 -.149E+02 0.165E+04   -.280E-01 0.502E-01 0.579E+01   0.151E-02 0.244E-02 0.829E-01
   0.963E-04 -.791E+00 0.171E+04   0.273E-05 0.789E+00 -.170E+04   -.930E-03 0.108E-02 -.684E+01   -.219E-06 0.250E-03 -.147E+00
   -.646E+00 0.559E-05 0.171E+04   0.648E+00 -.566E-05 -.171E+04   -.200E-02 0.305E-06 -.684E+01   0.208E-03 -.462E-06 -.148E+00
   0.724E-04 0.253E-04 0.578E+03   0.536E-05 -.270E-04 -.579E+03   -.575E-03 0.649E-06 0.437E+00   -.134E-05 0.160E-06 -.969E-01
   -.676E+00 -.718E+00 0.578E+03   0.675E+00 0.718E+00 -.579E+03   -.162E-03 -.175E-03 0.467E+00   -.765E-04 -.182E-03 -.967E-01
   0.165E-04 -.397E+01 -.540E+03   0.685E-04 0.396E+01 0.541E+03   -.544E-03 0.194E-01 -.319E+00   -.197E-05 -.857E-03 -.728E-02
   -.232E+01 0.786E-04 -.547E+03   0.231E+01 -.770E-04 0.548E+03   0.364E-02 -.272E-05 -.184E+00   -.421E-03 0.409E-06 -.857E-02
   0.470E-04 0.152E-03 -.167E+04   0.492E-04 -.141E-03 0.166E+04   -.580E-03 -.803E-05 0.578E+01   -.176E-05 -.170E-06 0.821E-01
   -.147E+02 -.148E+02 -.166E+04   0.146E+02 0.149E+02 0.165E+04   0.260E-01 -.498E-01 0.579E+01   -.151E-02 -.245E-02 0.829E-01
   0.971E-04 0.791E+00 0.171E+04   0.234E-05 -.789E+00 -.170E+04   -.930E-03 -.108E-02 -.684E+01   -.349E-06 -.250E-03 -.147E+00
   -.814E+00 -.544E-05 0.171E+04   0.814E+00 0.551E-05 -.170E+04   -.107E-02 0.137E-06 -.684E+01   0.289E-03 -.260E-06 -.147E+00
   0.619E-04 -.260E-04 0.579E+03   0.163E-04 0.276E-04 -.579E+03   -.579E-03 -.726E-06 0.491E+00   -.607E-06 -.388E-08 -.962E-01
   -.676E+00 0.718E+00 0.578E+03   0.675E+00 -.718E+00 -.579E+03   -.163E-03 0.176E-03 0.467E+00   -.769E-04 0.182E-03 -.967E-01
   0.566E-04 0.397E+01 -.540E+03   0.282E-04 -.396E+01 0.541E+03   -.546E-03 -.194E-01 -.319E+00   -.156E-05 0.857E-03 -.728E-02
   -.391E+01 -.279E-04 -.541E+03   0.388E+01 0.287E-04 0.541E+03   0.248E-01 -.460E-06 -.193E+00   -.533E-03 -.415E-06 -.682E-02
   0.263E-04 -.256E-03 -.161E+04   0.463E-04 0.238E-03 0.160E+04   -.133E-02 0.113E-04 0.560E+01   0.238E-05 -.704E-06 0.898E-01
   -.147E+02 0.148E+02 -.166E+04   0.146E+02 -.149E+02 0.165E+04   0.260E-01 0.498E-01 0.579E+01   -.151E-02 0.245E-02 0.829E-01
   0.642E-04 -.517E+00 0.433E+03   -.831E-05 0.511E+00 -.433E+03   0.240E-02 0.732E-02 -.120E+00   0.138E-05 -.145E-03 -.754E-01
   0.512E+00 0.883E-05 0.433E+03   -.504E+00 -.969E-05 -.433E+03   -.714E-02 -.225E-06 -.117E+00   0.697E-04 0.323E-06 -.754E-01
   0.836E-04 0.221E-05 0.129E+04   -.130E-05 -.274E-05 -.129E+04   -.177E-02 0.362E-06 0.310E+01   -.108E-05 -.776E-08 -.113E+00
   0.547E+00 -.529E+00 0.129E+04   -.547E+00 0.529E+00 -.129E+04   -.127E-02 0.598E-03 0.310E+01   -.175E-03 0.146E-03 -.113E+00
   0.370E-04 -.613E+01 -.127E+04   0.279E-04 0.612E+01 0.127E+04   -.182E-02 0.403E-02 -.459E+01   0.131E-05 -.104E-02 0.624E-01
   0.588E+01 0.109E-03 -.127E+04   -.588E+01 -.109E-03 0.128E+04   -.377E-02 -.119E-05 -.460E+01   0.500E-03 -.410E-07 0.622E-01
   0.461E-04 0.253E-05 -.407E+03   -.150E-04 -.197E-05 0.407E+03   -.180E-02 0.909E-07 0.208E+00   0.884E-06 -.180E-06 -.110E-01
   0.231E+01 -.232E+01 -.403E+03   -.229E+01 0.231E+01 0.402E+03   -.106E-01 -.709E-03 0.247E+00   0.402E-03 -.669E-03 -.104E-01
   0.646E-04 0.517E+00 0.433E+03   -.942E-05 -.511E+00 -.433E+03   0.240E-02 -.732E-02 -.120E+00   0.160E-05 0.145E-03 -.754E-01
   0.560E+00 -.782E-05 0.434E+03   -.568E+00 0.795E-05 -.433E+03   0.123E-01 0.169E-09 -.118E+00   0.771E-04 0.119E-06 -.750E-01
   0.832E-04 -.334E-05 0.129E+04   -.224E-05 0.268E-05 -.129E+04   -.177E-02 0.140E-06 0.310E+01   0.143E-05 -.858E-07 -.113E+00
   0.547E+00 0.529E+00 0.129E+04   -.547E+00 -.529E+00 -.129E+04   -.126E-02 -.598E-03 0.310E+01   -.176E-03 -.146E-03 -.113E+00
   0.648E-04 0.613E+01 -.127E+04   -.102E-05 -.612E+01 0.127E+04   -.182E-02 -.403E-02 -.459E+01   0.159E-05 0.105E-02 0.624E-01
   0.189E+02 -.101E-03 -.125E+04   -.188E+02 0.934E-04 0.125E+04   -.693E-01 0.826E-05 -.453E+01   0.238E-02 -.857E-06 0.643E-01
   0.597E-04 -.352E-05 -.403E+03   -.964E-05 0.219E-05 0.403E+03   0.454E-02 0.423E-06 0.264E+00   0.189E-05 0.464E-06 -.103E-01
   0.231E+01 0.232E+01 -.403E+03   -.229E+01 -.231E+01 0.402E+03   -.106E-01 0.706E-03 0.247E+00   0.403E-03 0.668E-03 -.104E-01
   0.444E-04 -.568E+00 0.434E+03   0.130E-04 0.579E+00 -.433E+03   0.240E-02 -.125E-01 -.129E+00   -.549E-06 -.149E-03 -.751E-01
   -.512E+00 0.141E-04 0.433E+03   0.504E+00 -.141E-04 -.433E+03   0.119E-01 0.445E-06 -.117E+00   -.688E-04 -.314E-06 -.754E-01
   0.794E-04 0.500E-05 0.129E+04   0.137E-05 -.552E-05 -.129E+04   -.178E-02 0.620E-06 0.310E+01   -.442E-08 0.437E-07 -.113E+00
   -.547E+00 -.529E+00 0.129E+04   0.547E+00 0.529E+00 -.129E+04   -.229E-02 0.599E-03 0.310E+01   0.176E-03 0.148E-03 -.113E+00
   0.613E-05 -.187E+02 -.125E+04   0.541E-04 0.186E+02 0.125E+04   -.175E-02 0.801E-01 -.464E+01   -.124E-05 -.275E-02 0.634E-01
   -.588E+01 0.116E-03 -.127E+04   0.588E+01 -.118E-03 0.128E+04   0.124E-03 0.998E-06 -.460E+01   -.500E-03 -.269E-06 0.622E-01
   0.372E-04 0.351E-04 -.403E+03   0.246E-04 -.343E-04 0.403E+03   0.453E-02 -.112E-05 0.226E+00   -.269E-05 0.553E-06 -.106E-01
   -.231E+01 -.232E+01 -.403E+03   0.229E+01 0.231E+01 0.402E+03   0.124E-01 0.162E-02 0.244E+00   -.402E-03 -.671E-03 -.104E-01
   0.488E-04 0.568E+00 0.434E+03   0.802E-05 -.579E+00 -.433E+03   0.240E-02 0.124E-01 -.129E+00   -.396E-06 0.149E-03 -.751E-01
   -.560E+00 -.104E-04 0.434E+03   0.568E+00 0.107E-04 -.433E+03   -.745E-02 -.128E-05 -.118E+00   -.786E-04 -.593E-07 -.750E-01
   0.790E-04 -.454E-05 0.129E+04   0.235E-05 0.548E-05 -.129E+04   -.178E-02 -.562E-06 0.310E+01   0.245E-06 -.244E-06 -.113E+00
   -.547E+00 0.529E+00 0.129E+04   0.547E+00 -.529E+00 -.129E+04   -.229E-02 -.599E-03 0.310E+01   0.176E-03 -.147E-03 -.113E+00
   0.284E-04 0.187E+02 -.125E+04   0.290E-04 -.186E+02 0.125E+04   -.175E-02 -.802E-01 -.464E+01   -.125E-05 0.275E-02 0.634E-01
   -.189E+02 -.906E-04 -.125E+04   0.188E+02 0.859E-04 0.125E+04   0.657E-01 0.737E-05 -.453E+01   -.239E-02 -.178E-05 0.643E-01
   0.512E-05 -.390E-04 -.399E+03   0.316E-04 0.363E-04 0.399E+03   -.179E-02 0.247E-05 0.983E-01   0.733E-07 0.362E-06 -.940E-02
   -.231E+01 0.232E+01 -.403E+03   0.229E+01 -.231E+01 0.402E+03   0.124E-01 -.162E-02 0.244E+00   -.403E-03 0.671E-03 -.104E-01
   0.459E-02 -.124E-02 0.231E+02   -.153E-12 0.711E-13 0.136E-11   -.251E-01 0.113E-02 -.182E+02   0.122E-04 -.232E-05 -.229E+01

 POSITION                                       TOTAL-FORCE (eV/Angst)
      5.27456      4.22047     12.92220        -0.001892      0.001473      0.045999
      5.27456      5.11862     13.55207         0.000239     -0.217714     -0.142796
      5.27456      3.32239     13.55206         0.000239      0.216358     -0.141954
      6.17849      4.22049     12.29694        -0.190600     -0.000071      0.156240
      4.37063      4.22049     12.29694         0.191138     -0.000071      0.156261
      1.05407      6.33074      3.44793         0.000030     -0.000111      0.538152
      3.16431      0.00000      3.44793        -0.000388      0.000000      0.538884
      1.05407      0.00000      5.55818        -0.000272      0.000000      0.033650
      3.16431      6.33074      5.55818         0.000227      0.000032      0.033950
      1.05407      6.33101      7.68286        -0.000312     -0.001299      0.046148
      3.16425      8.44098      7.68273         0.002590      0.000000      0.046166
      1.05407      8.44098      9.78832        -0.000584      0.000000     -0.143387
      3.16530      6.33156      9.78541        -0.005145      0.008667     -0.143754
      1.05407      2.11025      3.44793         0.000030      0.000112      0.538152
      3.16431      4.22049      3.44793        -0.000164      0.000001      0.538409
      1.05407      4.22049      5.55818        -0.000272      0.000000      0.035104
      3.16431      2.11025      5.55818         0.000226     -0.000031      0.033950
      1.05407      2.10997      7.68286        -0.000312      0.001300      0.046149
      3.16523      4.22049      7.68312         0.000058     -0.000000      0.048294
      1.05407      4.22049      9.78466        -0.000653      0.000000     -0.141304
      3.16530      2.10942      9.78541        -0.005141     -0.008664     -0.143747
      5.27456      6.33074      3.44793         0.000018     -0.000384      0.539925
      7.38480      0.00000      3.44793         0.000445      0.000000      0.538877
      5.27456      0.00000      5.55818        -0.000274     -0.000000      0.037968
      7.38480      6.33074      5.55818        -0.000780      0.000034      0.033952
      5.27456      6.32990      7.68374        -0.000255      0.001567      0.048737
      7.38487      0.00000      7.68273        -0.003233     -0.000000      0.046185
      5.27456      8.44098      9.78620        -0.000466      0.000002     -0.146249
      7.38382      6.33156      9.78541         0.004072      0.008736     -0.144020
      5.27456      2.11025      3.44793         0.000018      0.000385      0.539925
      7.38480      4.22049      3.44793         0.000195      0.000000      0.538413
      5.27456      4.22049      5.55818        -0.000277      0.000001      0.039192
      7.38480      2.11025      5.55818        -0.000780     -0.000032      0.033952
      5.27456      2.11108      7.68374        -0.000256     -0.001566      0.048736
      7.38389      4.22049      7.68312        -0.000595      0.000000      0.048169
      5.27456      4.22049      9.79754        -0.000755     -0.000005     -0.118441
      7.38382      2.10942      9.78541         0.004070     -0.008733     -0.144013
      1.05407      6.33074      5.55818         0.002309      0.002416      0.046953
      3.16431      0.00000      5.55818        -0.000960     -0.000000      0.047508
      1.05407      0.00000      3.44793        -0.001135      0.000000     -0.464438
      3.16431      6.33074      3.44793        -0.000978      0.000185     -0.464713
      1.05407      6.33109      9.83385        -0.001194     -0.003822     -0.086396
      3.16380      0.00000      9.83460         0.001966     -0.000001     -0.090179
      1.05407      8.44098      7.67820        -0.001183      0.000001      0.009025
      3.16367      6.33085      7.67698         0.002574     -0.002962      0.018337
      1.05407      2.11025      5.55818         0.002309     -0.002414      0.046954
      3.16431      4.22049      5.55818         0.005419      0.000001      0.049290
      1.05407      4.22049      3.44793        -0.001133     -0.000000     -0.463892
      3.16431      2.11025      3.44793        -0.000978     -0.000184     -0.464712
      1.05407      2.10989      9.83385        -0.001194      0.003823     -0.086394
      3.16220      4.22049      9.83429        -0.019053      0.000002     -0.085654
      1.05407      4.22049      7.67618         0.004117      0.000000      0.026207
      3.16367      2.11014      7.67698         0.002573      0.002964      0.018337
      5.27456      6.33074      5.55818         0.002306     -0.004012      0.048570
      7.38480      0.00000      5.55818         0.005573      0.000001      0.047506
      5.27456      0.00000      3.44793        -0.001137      0.000001     -0.465713
      7.38480      6.33074      3.44793        -0.001297      0.000186     -0.464715
      5.27456      6.33193      9.82917        -0.001193      0.019153     -0.095748
      7.38531      0.00000      9.83460        -0.004420     -0.000001     -0.090191
      5.27456      8.44098      7.67598         0.004117      0.000001      0.021190
      7.38544      6.33085      7.67698        -0.000451     -0.001019      0.015647
      5.27456      2.11025      5.55818         0.002306      0.004012      0.048572
      7.38480      4.22049      5.55818        -0.000806     -0.000001      0.049294
      5.27456      4.22049      3.44793        -0.001138      0.000001     -0.464664
      7.38480      2.11025      3.44793        -0.001297     -0.000185     -0.464714
      5.27456      2.10905      9.82917        -0.001192     -0.019158     -0.095753
      7.38692      4.22049      9.83429         0.016603      0.000003     -0.085662
      5.27456      4.22049      7.67977        -0.001177      0.000001      0.004629
      7.38544      2.11014      7.67698        -0.000449      0.001021      0.015646
    total drift:                               -0.017414     -0.000035     -0.148246

  FREE ENERGIE OF THE ION-ELECTRON SYSTEM (eV)
  free  energy   TOTEN  =      -473.58620166 eV

  energy  without entropy=     -473.58620166  energy(sigma->0) =     -473.58620166

     |            E. Caldeweyher, S. Ehlert & S. Grimme          |
     |          Mulliken Center for Theoretical Chemistry        |
     |                    University of Bonn                     |

Rational (Becke-Johnson) damping: hse06-D4-ATM
  s6         1.0000
  s8         1.1953
  s9         1.0000
  a1         0.3866
  a2         5.1913
 alp        16.0000

Dispersion energy:      -2.7407604614809E-01 Eh