 vasp.6.3.0 20Jan22 (build Apr  1 2022 16:44:48) complex
 executed on        HPECrayEX_GCC date 2022.11.14  02:44:09

 INCAR:
   SYSTEM = MgO-rocksalt
   ISMEAR = 0
   SIGMA = 0.05
   EDIFF = 1E-6
   ALGO = ALL
   ISTART = 0
   IBRION = -1
   NSW = 0
   ISYM = 0
   DIPOL = 0.5 0.5 0.5
   IDIPOL = 3
   LDIPOL = .TRUE.
   LHFCALC = .TRUE.
   GGA = B5
   AEXX = 0.2
   AGGAX = 0.72
   AGGAC = 0.81
   ALDAC = 0.19
   IVDW = 1
   VDW_S6 = 1.05
   VDW_C6 = 1.23 0.70 0.63 0.70
   VDW_R0 = 1.397 1.342 1.243 1.342
   ENCUT = 600
   PREC = Accurate
   LASPH = .TRUE.
   LREAL = .FALSE.
   ISPIN = 2
   MAGMOM = 1.0 0.0 0.0 0.0 0.0 0.0 0.0 0.0 0.0 0.0 0.0 0.0 0.0 0.0 0.0 0.0 0.0 0.0 0.0 0.0 0.0 0.0 0.0 0.0 0.0 0.0 0.0 0.0 0.0 0.0 0.0 0.0 0.0 0.0 0.0 0.0 0.0 0.0 0.0 0.0 0.0 0.0 0.0 0.0 0.0 0.0 0.0 0.0 0.0 0.0 0.0 0.0 0.0 0.0 0.0 0.0 0.0 0.0 0.0 0.0 0.0 0.0 0.0 0.0 0.0 0.0
   NELM = 200
   NELMIN = 8
   NCORE = 8
   KPAR = 1
   LWAVE = .FALSE.
   LCHARG = .FALSE.

 POTCAR:    PAW_PBE N 08Apr2002
 POTCAR:    PAW_PBE O 08Apr2002
 POTCAR:    PAW_PBE Mg_pv 13Apr2007
 POTCAR:    PAW_PBE O 08Apr2002
 POTCAR:    PAW_PBE N 08Apr2002
   VRHFIN =N: s2p3

   TITEL  = PAW_PBE N 08Apr2002
   POMASS =   14.001; ZVAL   =    5.000    mass and valenz
   ENMAX  =  400.000; ENMIN  =  300.000 eV

[...]

   TITEL  = PAW_PBE Mg_pv 13Apr2007
   POMASS =   24.305; ZVAL   =    8.000    mass and valenz
   ENMAX  =  403.929; ENMIN  =  302.947 eV

   TITEL  = PAW_PBE O 08Apr2002
   POMASS =   16.000; ZVAL   =    6.000    mass and valenz
   ENMAX  =  400.000; ENMIN  =  300.000 eV

  PAW_PBE N 08Apr2002                   :
  PAW_PBE O 08Apr2002                   :
  PAW_PBE Mg_pv 13Apr2007               :
  PAW_PBE O 08Apr2002                   :

 POSCAR:  N  O Mg  O
  positions in direct lattice
 exchange correlation table for  LEXCH =       12
   RHO(1)=    0.500       N(1)  =     2000
   RHO(2)=  100.500       N(2)  =     4000

 ion  position               nearest neighbor table
   1  0.502  0.503  0.769-   2 1.16
   2  0.426  0.431  0.804-   1 1.16
   3  0.250  0.000  0.352-  37 2.10  38 2.10  45 2.10  54 2.10  35 2.10
   4  0.500  0.250  0.352-  37 2.10  38 2.10  46 2.10  53 2.10  36 2.10
   5  0.250  0.250  0.451-  35 2.10  36 2.10  43 2.10  52 2.10  37 2.10  41 2.11
   6  0.500  0.000  0.451-  35 2.10  36 2.10  44 2.10  51 2.10  38 2.10  42 2.11
   7  0.250  0.000  0.550-  42 2.10  41 2.10  49 2.10  58 2.10  35 2.11  39 2.13
   8  0.500  0.250  0.550-  50 2.10  41 2.10  57 2.10  42 2.10  36 2.11  40 2.13
   9  0.250  0.250  0.648-  41 2.09  56 2.10  39 2.10  47 2.10  40 2.10
  10  0.500  0.000  0.648-  42 2.09  48 2.10  40 2.10  39 2.10  55 2.10
  11  0.250  0.500  0.352-  37 2.10  45 2.10  46 2.10  62 2.10  43 2.10
  12  0.500  0.750  0.352-  38 2.10  45 2.10  46 2.10  61 2.10  44 2.10
  13  0.250  0.750  0.451-  35 2.10  43 2.10  44 2.10  60 2.10  45 2.10  49 2.11
  14  0.500  0.500  0.451-  36 2.10  43 2.10  44 2.10  59 2.10  46 2.10  50 2.11
  15  0.250  0.500  0.550-  50 2.10  41 2.10  49 2.10  66 2.10  43 2.11  47 2.13
  16  0.500  0.750  0.550-  50 2.10  65 2.10  49 2.10  42 2.10  44 2.11  48 2.13
  17  0.250  0.750  0.647-  49 2.09  39 2.10  64 2.10  48 2.10  47 2.10
  18  0.500  0.500  0.649-  63 2.10  48 2.11  40 2.11  47 2.11  50 2.12
  19  0.750  0.000  0.352-  38 2.10  53 2.10  54 2.10  61 2.10  51 2.10
  20  0.000  0.250  0.352-  37 2.10  53 2.10  54 2.10  62 2.10  52 2.10
  21  0.750  0.250  0.451-  36 2.10  51 2.10  52 2.10  59 2.10  53 2.10  57 2.11
  22  0.000  0.000  0.451-  35 2.10  51 2.10  52 2.10  60 2.10  54 2.10  58 2.10
  23  0.750  1.000  0.550-  65 2.10  42 2.10  57 2.10  58 2.10  51 2.11  55 2.13
  24  0.000  0.250  0.550-  66 2.10  41 2.10  57 2.10  58 2.10  52 2.11  56 2.13
  25  0.750  0.250  0.647-  57 2.09  56 2.10  55 2.10  63 2.10  40 2.10
  26  0.000  0.000  0.648-  58 2.09  55 2.10  56 2.10  64 2.10  39 2.10
  27  0.750  0.500  0.352-  46 2.10  53 2.10  61 2.10  62 2.10  59 2.10
  28  0.000  0.750  0.352-  45 2.10  54 2.10  61 2.10  62 2.10  60 2.10
  29  0.750  0.750  0.451-  44 2.10  51 2.10  59 2.10  60 2.10  61 2.10  65 2.11
  30  0.000  0.500  0.451-  43 2.10  52 2.10  59 2.10  60 2.10  62 2.10  66 2.10
  31  0.750  0.500  0.550-  50 2.10  65 2.10  57 2.10  66 2.10  59 2.11  63 2.13
  32  0.000  0.750  0.550-  65 2.10  66 2.10  49 2.10  58 2.10  60 2.11  64 2.13
  33  0.750  0.750  0.648-  65 2.09  64 2.10  55 2.10  63 2.10  48 2.10
  34  0.000  0.500  0.648-  66 2.09  63 2.10  47 2.10  64 2.10  56 2.10
  35  0.250  0.000  0.451-   5 2.10   6 2.10  13 2.10  22 2.10   3 2.10   7 2.11
  36  0.500  0.250  0.451-   5 2.10   6 2.10  14 2.10  21 2.10   4 2.10   8 2.11
  37  0.250  0.250  0.352-   3 2.10   4 2.10  11 2.10  20 2.10   5 2.10
  38  0.500  0.000  0.352-   3 2.10   4 2.10  12 2.10  19 2.10   6 2.10
  39  0.250  0.000  0.650-  17 2.10  26 2.10   9 2.10  10 2.10   7 2.13
  40  0.500  0.250  0.650-  10 2.10  25 2.10   9 2.10  18 2.11   8 2.13
  41  0.250  0.250  0.550-   9 2.09   7 2.10   8 2.10  24 2.10  15 2.10   5 2.11
  42  0.500  0.000  0.550-  10 2.09   7 2.10  23 2.10   8 2.10  16 2.10   6 2.11
  43  0.250  0.500  0.451-   5 2.10  13 2.10  14 2.10  30 2.10  11 2.10  15 2.11
  44  0.500  0.750  0.451-   6 2.10  13 2.10  14 2.10  29 2.10  12 2.10  16 2.11
  45  0.250  0.750  0.352-   3 2.10  11 2.10  12 2.10  28 2.10  13 2.10
  46  0.500  0.500  0.352-   4 2.10  11 2.10  12 2.10  27 2.10  14 2.10
  47  0.250  0.500  0.650-  34 2.10  17 2.10   9 2.10  18 2.11  15 2.13
  48  0.500  0.751  0.650-  10 2.10  17 2.10  33 2.10  18 2.11  16 2.13
  49  0.250  0.750  0.550-  17 2.09   7 2.10  32 2.10  15 2.10  16 2.10  13 2.11
  50  0.500  0.500  0.550-  15 2.10   8 2.10  16 2.10  31 2.10  14 2.11  18 2.12
  51  0.750  0.000  0.451-   6 2.10  21 2.10  22 2.10  29 2.10  19 2.10  23 2.11
  52  0.000  0.250  0.451-   5 2.10  21 2.10  22 2.10  30 2.10  20 2.10  24 2.11
  53  0.750  0.250  0.352-   4 2.10  19 2.10  20 2.10  27 2.10  21 2.10
  54  0.000  0.000  0.352-   3 2.10  19 2.10  20 2.10  28 2.10  22 2.10
  55  0.750  0.000  0.650-  26 2.10  25 2.10  33 2.10  10 2.10  23 2.13
  56  0.000  0.250  0.650-  25 2.10   9 2.10  26 2.10  34 2.10  24 2.13
  57  0.750  0.250  0.550-  25 2.09  23 2.10  24 2.10   8 2.10  31 2.10  21 2.11
  58  0.000  0.000  0.549-  26 2.09   7 2.10  32 2.10  24 2.10  23 2.10  22 2.10
  59  0.750  0.500  0.451-  14 2.10  21 2.10  29 2.10  30 2.10  27 2.10  31 2.11
  60  0.000  0.750  0.451-  13 2.10  22 2.10  29 2.10  30 2.10  28 2.10  32 2.11
  61  0.750  0.750  0.352-  12 2.10  19 2.10  27 2.10  28 2.10  29 2.10
  62  0.000  0.500  0.352-  11 2.10  20 2.10  27 2.10  28 2.10  30 2.10
  63  0.751  0.500  0.650-  34 2.10  25 2.10  33 2.10  18 2.10  31 2.13
  64  0.000  0.750  0.650-  17 2.10  26 2.10  33 2.10  34 2.10  32 2.13
  65  0.750  0.750  0.550-  33 2.09  23 2.10  32 2.10  31 2.10  16 2.10  29 2.11
  66  0.000  0.500  0.549-  34 2.09  24 2.10  32 2.10  15 2.10  31 2.10  30 2.10

IMPORTANT INFORMATION: All symmetrisations will be switched off!
NOSYMM: (Re-)initialisation of all symmetry stuff for point group C_1.

                                     Primitive cell

  volume of cell :    1504.9259

  direct lattice vectors                    reciprocal lattice vectors
     8.404861995  0.000000000  0.000000000     0.118978753  0.000000000  0.000000000
     0.000000000  8.404861995  0.000000000     0.000000000  0.118978753  0.000000000
     0.000000000  0.000000000 21.303646496     0.000000000  0.000000000  0.046940321

  length of vectors
     8.404861995  8.404861995 21.303646496     0.118978753  0.118978753  0.046940321

  position of ions in fractional coordinates (direct lattice)
     0.501830753  0.502979679  0.769166479
     0.426300127  0.430653869  0.804383217
     0.250000000  0.000000000  0.352052406
     0.500000000  0.250000000  0.352052406
     0.250000000  0.250000000  0.450684135
     0.500000000  0.000000000  0.450684135
     0.250155485  0.000112376  0.549796276
     0.500083001  0.250360023  0.549959179
     0.249979190  0.249978990  0.647668607
     0.500136193  0.000072732  0.647651850
     0.250000000  0.500000000  0.352052406
     0.500000000  0.750000000  0.352052406
     0.250000000  0.750000000  0.450684135
     0.500000000  0.500000000  0.450684135
     0.250391198  0.500066001  0.549961741
     0.500098966  0.749825843  0.549932889
     0.249912054  0.750371772  0.647464498
     0.500383157  0.500329161  0.649075522
     0.750000000  0.000000000  0.352052406
     0.000000000  0.250000000  0.352052406
     0.750000000  0.250000000  0.450684135
     0.000000000  0.000000000  0.450684135
     0.750011612  0.999994794  0.549799123
     0.000128641  0.250142569  0.549784559
     0.750386320  0.249923538  0.647464826
     0.000120171  0.000098481  0.647622200
     0.750000000  0.500000000  0.352052406
     0.000000000  0.750000000  0.352052406
     0.750000000  0.750000000  0.450684135
     0.000000000  0.500000000  0.450684135
     0.749827127  0.500085281  0.549933531
     0.000012715  0.749993302  0.549791446
     0.750190311  0.750161192  0.647743746
     0.000102184  0.500109011  0.647635186
     0.250000000  0.000000000  0.450684135
     0.500000000  0.250000000  0.450684135
     0.250000000  0.250000000  0.352052406
     0.500000000  0.000000000  0.352052406
     0.249967885  0.000125160  0.649771210
     0.500249571  0.249529991  0.649935231
     0.250110039  0.250058061  0.549586314
     0.500073361  0.000120157  0.549517037
     0.250000000  0.500000000  0.450684135
     0.500000000  0.750000000  0.450684135
     0.250000000  0.750000000  0.352052406
     0.500000000  0.500000000  0.352052406
     0.249510652  0.500232206  0.649934720
     0.499942709  0.750835325  0.649740203
     0.250029396  0.750110748  0.549522105
     0.500059701  0.500059268  0.549786094
     0.750000000  0.000000000  0.450684135
     0.000000000  0.250000000  0.450684135
     0.750000000  0.250000000  0.352052406
     0.000000000  0.000000000  0.352052406
     0.750309144  0.000100386  0.649783298
     0.000149287  0.249939740  0.649739284
     0.750119272  0.249987229  0.549513618
     0.000096135  0.000062219  0.549476569
     0.750000000  0.500000000  0.450684135
     0.000000000  0.750000000  0.450684135
     0.750000000  0.750000000  0.352052406
     0.000000000  0.500000000  0.352052406
     0.750823340  0.499933982  0.649719141
     0.000122853  0.750257835  0.649761920
     0.750105154  0.750091382  0.549556766
     0.000135439  0.500061769  0.549490299

  ion indices of the primitive-cell ions
   primitive index   ion index
                 1           1
                 2           2
                 3           3
                 4           4
                 5           5
                 6           6
                 7           7
                 8           8
                 9           9
                10          10
                11          11
                12          12
                13          13
                14          14
                15          15
                16          16
                17          17
                18          18
                19          19
                20          20
[...]
   0.75011927  0.24998723  0.54951362
   0.00009613  0.00006222  0.54947657
   0.75000000  0.50000000  0.45068414
   0.00000000  0.75000000  0.45068414
   0.75000000  0.75000000  0.35205241
   0.00000000  0.50000000  0.35205241
   0.75082334  0.49993398  0.64971914
   0.00012285  0.75025784  0.64976192
   0.75010515  0.75009138  0.54955677
   0.00013544  0.50006177  0.54949030

 position of ions in cartesian coordinates  (Angst):
   4.21781823  4.22747479 16.38605076
   3.58299374  3.61958634 17.13629570
   2.10121550  0.00000000  7.50000000
   4.20243100  2.10121550  7.50000000
   2.10121550  2.10121550  9.60121550
   4.20243100  0.00000000  9.60121550
   2.10252233  0.00094451 11.71266551
   4.20312861  2.10424144 11.71613593
   2.10104060  2.10103891 13.79770304
   4.20357568  0.00061130 13.79734606
   2.10121550  4.20243100  7.50000000
   4.20243100  6.30364650  7.50000000
   2.10121550  6.30364650  9.60121550
   4.20243100  4.20243100  9.60121550
   2.10450346  4.20298573 11.71619051
   4.20326279  6.30218273 11.71557586
   2.10047633  6.30677119 13.79335478
   4.20565138  4.20519755 13.82767547
   6.30364650  0.00000000  7.50000000
   0.00000000  2.10121550  7.50000000
   6.30364650  2.10121550  9.60121550
   0.00000000  0.00000000  9.60121550
   6.30374409  8.40481824 11.71272616
   0.00108121  2.10241377 11.71241589
   6.30689346  2.10057285 13.79336177
   0.00101002  0.00082772 13.79671441
   6.30364650  4.20243100  7.50000000
   0.00000000  6.30364650  7.50000000
   6.30364650  6.30364650  9.60121550
   0.00000000  4.20243100  9.60121550
   6.30219352  4.20314777 11.71558953
   0.00010686  6.30359020 11.71256261
   6.30524603  6.30500129 13.79930379
   0.00085884  4.20334722 13.79699107
   2.10121550  0.00000000  9.60121550
   4.20243100  2.10121550  9.60121550
   2.10121550  2.10121550  7.50000000
   4.20243100  0.00000000  7.50000000
   2.10094557  0.00105195 13.84249616
   4.20452861  2.09726514 13.84599040
   2.10214036  2.10170350 11.70819255
   4.20304759  0.00100990 11.70671671
   2.10121550  4.20243100  9.60121550
   4.20243100  6.30364650  9.60121550
   2.10121550  6.30364650  7.50000000
   4.20243100  4.20243100  7.50000000
   2.09710259  4.20438265 13.84597952
   4.20194948  6.31066729 13.84183560
   2.10146257  6.30457731 11.70682467
   4.20293278  4.20292914 11.71244860
   6.30364650  0.00000000  9.60121550
   0.00000000  2.10121550  9.60121550
   6.30364650  2.10121550  7.50000000
   0.00000000  0.00000000  7.50000000
   6.30624481  0.00084373 13.84275368
   0.00125474  2.10070902 13.84181602
   6.30464896  2.10110816 11.70664385
   0.00080800  0.00052294 11.70585459
   6.30364650  4.20243100  9.60121550
   0.00000000  6.30364650  9.60121550
   6.30364650  6.30364650  7.50000000
   0.00000000  4.20243100  7.50000000
   6.31056655  4.20187612 13.84138691
   0.00103256  6.30581357 13.84229825
   6.30453030  6.30441455 11.70756308
   0.00113834  4.20295016 11.70614709

--------------------------------------- Iteration      FINAL  ---------------------------------------

--------------------OUTCAR has been truncated-------------------------

[...]

--------------------OUTCAR has been truncated-------------------------

  DFT-D2 method for vdW energy calculation

  Parameters of vdW forcefield:
         C6(Jnm^6/mol)     R0(A)
   N        1.230          1.397
   O        0.700          1.342
   Mg       0.630          1.243
   O        0.700          1.342

  vdW correction parametrized for the method        ÌÝ}

  IVDW =   1
  VDW_RADIUS =    50.000 A
  VDW_S6 =     1.050
  VDW_SR =     1.000
  VDW_D =    20.000
  LVDW_EWALD = F

  Number of pair interactions contributing to vdW energy:  776608
  Edisp (eV):   -5.26911

 VOLUME and BASIS-vectors are now :
  energy-cutoff  :      600.00
  volume of cell :     1504.93
      direct lattice vectors                 reciprocal lattice vectors
     8.404861995  0.000000000  0.000000000     0.118978753  0.000000000  0.000000000
     0.000000000  8.404861995  0.000000000     0.000000000  0.118978753  0.000000000
     0.000000000  0.000000000 21.303646496     0.000000000  0.000000000  0.046940321

  length of vectors
     8.404861995  8.404861995 21.303646496     0.118978753  0.118978753  0.046940321

 FORCES acting on ions:
    Electron-Ion                     Ewald-Force                    Non-Local-Force
   -.151E+03 -.144E+03 -.115E+04   0.176E+03 0.168E+03 0.112E+04   -.231E+02 -.221E+02 0.261E+02
   0.141E+03 0.135E+03 -.152E+04   -.176E+03 -.169E+03 0.156E+04   0.307E+02 0.293E+02 -.361E+02
   0.147E+00 0.349E-01 0.211E+04   -.146E+00 -.345E-01 -.210E+04   -.906E-03 -.295E-03 -.641E+01
   -.369E-01 0.172E+00 0.211E+04   0.370E-01 -.170E+00 -.210E+04   -.203E-04 -.158E-02 -.642E+01
   0.663E+00 0.677E+00 0.729E+03   -.643E+00 -.658E+00 -.729E+03   -.125E-01 -.112E-01 0.430E+00
   -.147E+00 0.163E+00 0.729E+03   0.153E+00 -.153E+00 -.729E+03   -.337E-02 -.583E-02 0.388E+00
   0.327E+01 0.728E+00 -.642E+03   -.325E+01 -.721E+00 0.642E+03   -.164E-01 -.600E-02 -.183E+00
   -.894E+00 0.548E+01 -.634E+03   0.885E+00 -.541E+01 0.634E+03   0.836E-02 -.674E-01 -.235E+00
   0.236E+02 0.239E+02 -.199E+04   -.237E+02 -.240E+02 0.198E+04   0.768E-01 0.694E-01 0.555E+01
   -.273E+01 0.441E+01 -.201E+04   0.273E+01 -.445E+01 0.200E+04   0.131E-02 0.365E-01 0.551E+01
   0.165E+00 -.344E-01 0.211E+04   -.163E+00 0.344E-01 -.210E+04   -.156E-02 0.850E-05 -.642E+01
   -.427E-01 -.171E+00 0.211E+04   0.429E-01 0.169E+00 -.210E+04   -.176E-03 0.126E-02 -.641E+01
   0.642E+00 -.660E+00 0.729E+03   -.632E+00 0.650E+00 -.729E+03   -.564E-02 0.645E-02 0.407E+00
   -.168E+00 -.152E+00 0.730E+03   0.168E+00 0.151E+00 -.730E+03   0.554E-03 0.688E-03 0.455E+00
   0.548E+01 -.779E+00 -.634E+03   -.540E+01 0.775E+00 0.634E+03   -.716E-01 0.382E-02 -.239E+00
   -.948E+00 -.541E+01 -.635E+03   0.954E+00 0.533E+01 0.635E+03   -.601E-02 0.671E-01 -.290E+00
   0.200E+02 -.223E+02 -.200E+04   -.200E+02 0.224E+02 0.199E+04   0.433E-01 -.594E-01 0.556E+01
   -.748E+01 -.686E+01 -.192E+04   0.750E+01 0.688E+01 0.192E+04   -.226E-01 -.821E-02 0.470E+01
   -.146E+00 0.400E-01 0.211E+04   0.145E+00 -.401E-01 -.210E+04   0.649E-03 0.556E-04 -.641E+01
   0.372E-01 0.154E+00 0.211E+04   -.368E-01 -.153E+00 -.210E+04   -.349E-03 -.926E-03 -.641E+01
   -.632E+00 0.658E+00 0.729E+03   0.622E+00 -.650E+00 -.729E+03   0.642E-02 -.501E-02 0.404E+00
   0.159E+00 0.142E+00 0.728E+03   -.157E+00 -.142E+00 -.728E+03   -.102E-02 0.124E-03 0.388E+00
   -.323E+01 0.782E+00 -.643E+03   0.322E+01 -.795E+00 0.643E+03   0.181E-01 0.119E-01 -.180E+00
   0.775E+00 0.332E+01 -.642E+03   -.772E+00 -.330E+01 0.642E+03   -.221E-02 -.183E-01 -.188E+00
   -.220E+02 0.200E+02 -.200E+04   0.221E+02 -.200E+02 0.199E+04   -.610E-01 0.346E-01 0.556E+01
   0.239E+01 0.223E+01 -.202E+04   -.240E+01 -.223E+01 0.202E+04   0.821E-02 0.247E-02 0.550E+01
   -.164E+00 -.402E-01 0.211E+04   0.162E+00 0.404E-01 -.210E+04   0.121E-02 -.159E-03 -.642E+01
   0.424E-01 -.154E+00 0.211E+04   -.424E-01 0.153E+00 -.210E+04   0.369E-05 0.729E-03 -.641E+01
   -.615E+00 -.645E+00 0.729E+03   0.610E+00 0.639E+00 -.729E+03   0.298E-02 0.354E-02 0.415E+00
   0.172E+00 -.135E+00 0.729E+03   -.162E+00 0.141E+00 -.729E+03   -.616E-02 -.345E-02 0.378E+00
   -.538E+01 -.829E+00 -.635E+03   0.531E+01 0.841E+00 0.636E+03   0.674E-01 -.107E-01 -.300E+00
   0.836E+00 -.328E+01 -.643E+03   -.852E+00 0.326E+01 0.643E+03   0.148E-01 0.175E-01 -.182E+00
   -.194E+02 -.195E+02 -.201E+04   0.195E+02 0.195E+02 0.200E+04   -.594E-01 -.530E-01 0.555E+01
   0.501E+01 -.249E+01 -.201E+04   -.504E+01 0.249E+01 0.200E+04   0.248E-01 -.321E-02 0.550E+01
   0.462E+00 0.963E-01 0.546E+03   -.465E+00 -.105E+00 -.546E+03   0.341E-02 0.102E-01 -.748E-01
   -.908E-01 0.616E+00 0.547E+03   0.890E-01 -.635E+00 -.546E+03   0.196E-02 0.222E-01 -.108E+00
   0.117E+00 0.122E+00 0.158E+04   -.115E+00 -.120E+00 -.158E+04   -.228E-02 -.234E-02 0.312E+01
   -.296E-01 0.285E-01 0.158E+04   0.298E-01 -.282E-01 -.158E+04   -.166E-03 -.365E-03 0.312E+01
   0.869E+01 0.302E+01 -.153E+04   -.864E+01 -.301E+01 0.154E+04   -.425E-01 -.952E-02 -.455E+01
   -.460E+01 0.291E+02 -.150E+04   0.458E+01 -.289E+02 0.150E+04   0.124E-01 -.156E+00 -.452E+01
   0.327E+01 0.326E+01 -.472E+03   -.326E+01 -.325E+01 0.471E+03   -.539E-02 -.441E-02 0.342E+00
   -.567E+00 0.617E+00 -.474E+03   0.570E+00 -.619E+00 0.473E+03   -.271E-02 0.207E-02 0.321E+00
   0.599E+00 -.821E-01 0.547E+03   -.620E+00 0.812E-01 -.546E+03   0.251E-01 0.842E-03 -.109E+00
   -.129E+00 -.598E+00 0.546E+03   0.124E+00 0.606E+00 -.546E+03   0.620E-02 -.100E-01 -.100E+00
   0.115E+00 -.122E+00 0.158E+04   -.114E+00 0.120E+00 -.158E+04   -.144E-02 0.266E-02 0.312E+01
   -.312E-01 -.291E-01 0.158E+04   0.306E-01 0.285E-01 -.159E+04   0.742E-03 0.746E-03 0.311E+01
   0.290E+02 -.433E+01 -.150E+04   -.289E+02 0.432E+01 0.150E+04   -.164E+00 0.929E-02 -.453E+01
   -.285E+01 -.273E+02 -.151E+04   0.286E+01 0.272E+02 0.151E+04   -.140E-01 0.142E+00 -.456E+01
   0.308E+01 -.322E+01 -.472E+03   -.307E+01 0.322E+01 0.472E+03   -.847E-02 0.384E-02 0.381E+00
   -.769E+00 -.691E+00 -.469E+03   0.777E+00 0.697E+00 0.469E+03   -.652E-02 -.630E-02 0.178E-01
   -.445E+00 0.124E+00 0.546E+03   0.439E+00 -.122E+00 -.545E+03   0.687E-02 -.178E-02 -.794E-01
   0.101E+00 0.487E+00 0.546E+03   -.111E+00 -.488E+00 -.546E+03   0.121E-01 0.546E-03 -.726E-01
   -.117E+00 0.121E+00 0.158E+04   0.115E+00 -.119E+00 -.158E+04   0.270E-02 -.161E-02 0.312E+01
   0.291E-01 0.272E-01 0.158E+04   -.295E-01 -.276E-01 -.158E+04   0.464E-03 0.529E-03 0.312E+01
   -.844E+01 0.218E+01 -.154E+04   0.840E+01 -.219E+01 0.154E+04   0.332E-01 0.911E-02 -.455E+01
   0.331E+01 0.875E+01 -.153E+04   -.330E+01 -.871E+01 0.154E+04   -.794E-02 -.394E-01 -.455E+01
   -.319E+01 0.308E+01 -.472E+03   0.319E+01 -.307E+01 0.472E+03   -.140E-04 -.883E-02 0.381E+00
   0.533E+00 0.461E+00 -.478E+03   -.534E+00 -.460E+00 0.478E+03   -.430E-03 -.506E-03 0.318E+00
   -.570E+00 -.120E+00 0.546E+03   0.580E+00 0.115E+00 -.546E+03   -.117E-01 0.527E-02 -.101E+00
   0.129E+00 -.472E+00 0.546E+03   -.129E+00 0.466E+00 -.546E+03   0.296E-04 0.745E-02 -.787E-01
   -.115E+00 -.120E+00 0.158E+04   0.114E+00 0.119E+00 -.158E+04   0.160E-02 0.168E-02 0.312E+01
   0.302E-01 -.276E-01 0.158E+04   -.300E-01 0.278E-01 -.158E+04   -.343E-03 -.296E-03 0.312E+01
   -.273E+02 -.256E+01 -.151E+04   0.271E+02 0.258E+01 0.151E+04   0.139E+00 -.166E-01 -.457E+01
   0.245E+01 -.856E+01 -.154E+04   -.247E+01 0.852E+01 0.154E+04   0.111E-01 0.356E-01 -.455E+01
   -.301E+01 -.304E+01 -.474E+03   0.300E+01 0.303E+01 0.474E+03   0.541E-02 0.102E-01 0.308E+00
   0.676E+00 -.504E+00 -.473E+03   -.679E+00 0.508E+00 0.473E+03   0.311E-02 -.422E-02 0.323E+00
   -.957E+01 -.917E+01 0.308E+02   -.270E-12 -.260E-12 -.728E-11   0.759E+01 0.727E+01 -.261E+02

 POSITION                                       TOTAL-FORCE (eV/Angst)
      4.21782      4.22747     16.38605        -0.003482     -0.005676      0.008734
      3.58299      3.61959     17.13630        -0.003885     -0.003064      0.012322
      2.10122      0.00000      7.50000         0.000311      0.000032      0.405053
      4.20243      2.10122      7.50000        -0.000072      0.000543      0.406654
      2.10122      2.10122      9.60122         0.005875      0.005366      0.033100
      4.20243      0.00000      9.60122         0.001562      0.002656      0.038196
      2.10252      0.00094     11.71267        -0.000636      0.000108     -0.011927
      4.20313      2.10424     11.71614         0.000072      0.001142     -0.007879
      2.10104      2.10104     13.79770         0.000979      0.000917     -0.006145
      4.20358      0.00061     13.79735        -0.000021      0.000266     -0.004534
      2.10122      4.20243      7.50000         0.000511     -0.000065      0.406766
      4.20243      6.30365      7.50000        -0.000015     -0.000563      0.405981
      2.10122      6.30365      9.60122         0.002847     -0.002952      0.033286
      4.20243      4.20243      9.60122         0.000216      0.000108      0.043760
      2.10450      4.20299     11.71619         0.000046      0.000272     -0.007742
      4.20326      6.30218     11.71558        -0.000245     -0.001576     -0.008160
      2.10048      6.30677     13.79335         0.000266     -0.001969     -0.005127
      4.20565      4.20520     13.82768        -0.001103      0.001760     -0.006805
      6.30365      0.00000      7.50000        -0.000352     -0.000068      0.405513
      0.00000      2.10122      7.50000         0.000038      0.000338      0.405014
      6.30365      2.10122      9.60122        -0.002862      0.002575      0.033006
      0.00000      0.00000      9.60122         0.000572      0.000111      0.029767
      6.30374      8.40482     11.71273         0.000503     -0.000434     -0.011345
      0.00108      2.10241     11.71242         0.000150     -0.001142     -0.010936
      6.30689      2.10057     13.79336        -0.000221     -0.000378     -0.004704
      0.00101      0.00083     13.79671        -0.001098     -0.000884      0.004118
      6.30365      4.20243      7.50000        -0.000552     -0.000008      0.406080
      0.00000      6.30365      7.50000        -0.000067     -0.000375      0.405561
      6.30365      6.30365      9.60122        -0.001785     -0.002083      0.032572
      0.00000      4.20243      9.60122         0.002796      0.001558      0.037742
      6.30219      4.20315     11.71559        -0.000667     -0.000132     -0.008544
      0.00011      6.30359     11.71256        -0.000502      0.000057     -0.010953
      6.30525      6.30500     13.79930        -0.000396     -0.001382     -0.004878
      0.00086      4.20335     13.79699        -0.001790      0.000156     -0.004268
      2.10122      0.00000      9.60122         0.000866      0.003202      0.050168
      4.20243      2.10122      9.60122         0.000322      0.006576      0.056592
      2.10122      2.10122      7.50000        -0.000817     -0.000826     -0.494853
      4.20243      0.00000      7.50000        -0.000104     -0.000171     -0.494858
      2.10095      0.00105     13.84250        -0.000587      0.001122      0.005735
      4.20453      2.09727     13.84599        -0.000493      0.001094      0.004200
      2.10214      2.10170     11.70819        -0.000522      0.002238      0.004590
      4.20305      0.00101     11.70672        -0.000088     -0.000204      0.005294
      2.10122      4.20243      9.60122         0.007466     -0.000006      0.056484
      4.20243      6.30365      9.60122         0.001758     -0.003062      0.056778
      2.10122      6.30365      7.50000        -0.000536      0.000854     -0.494822
      4.20243      4.20243      7.50000         0.000197      0.000210     -0.495784
      2.09710      4.20438     13.84598         0.003270     -0.000514      0.000529
      4.20195      6.31067     13.84184        -0.000404     -0.003157      0.003483
      2.10146      6.30458     11.70682        -0.000750     -0.001411      0.004783
      4.20293      4.20293     11.71245         0.000271     -0.000609      0.011646
      6.30365      0.00000      9.60122         0.002058     -0.000592      0.048785
      0.00000      2.10122      9.60122         0.003831     -0.000158      0.049678
      6.30365      2.10122      7.50000         0.000857     -0.000589     -0.494816
      0.00000      0.00000      7.50000         0.000097      0.000130     -0.494182
      6.30624      0.00084     13.84275        -0.003925     -0.000539      0.004873
      0.00125      2.10071     13.84182         0.000137      0.000601      0.007814
      6.30465      2.10111     11.70664        -0.002076      0.000794      0.006468
      0.00081      0.00052     11.70585        -0.000825      0.000403      0.012154
      6.30365      4.20243      9.60122        -0.003706      0.001488      0.056402
      0.00000      6.30365      9.60122         0.000004      0.002371      0.048192
      6.30365      6.30365      7.50000         0.000482      0.000516     -0.494894
      0.00000      4.20243      7.50000        -0.000173     -0.000138     -0.494932
      6.31057      4.20188     13.84139         0.000560     -0.000982      0.001252
      0.00103      6.30581     13.84230        -0.001163     -0.001263      0.006774
      6.30453      6.30441     11.70756        -0.003241     -0.001638      0.008156
      0.00114      4.20295     11.70615         0.000240     -0.000955      0.009032
    total drift:                                0.003839      0.003143      0.004250

  FREE ENERGIE OF THE ION-ELECTRON SYSTEM (eV)
  free  energy   TOTEN  =      -454.80567093 eV

  energy  without entropy=     -454.80567093  energy(sigma->0) =     -454.80567093