 vasp.6.4.2 20Jul23 (build Feb 22 2024 13:53:45) complex
 executed on              LinuxNV date 2024.08.27  18:25:42
 OpenACC runtime initialized ...    4 GPUs detected

 INCAR:
   SYSTEM = Oxide-Surface
   ISMEAR = 0
   SIGMA = 0.05
   EDIFF = 1E-5
   ALGO = Normal
   IBRION = -1
   NSW = 0
   ISYM = 0
   DIPOL = 0.5 0.5 0.5
   IDIPOL = 3
   LDIPOL = .TRUE.
   ISTART = 1
   METAGGA = R2SCAN
   ENCUT = 1000
   PREC = Normal
   PRECFOCK = Normal
   LASPH = .TRUE.
   LREAL = Auto
   ISPIN = 1
   NELM = 200
   NELMIN = 8
   NCORE = 1
   KPAR = 1
   LWAVE = .FALSE.
   LCHARG = .FALSE.

 POTCAR:    PAW_PBE Mg_sv 12Apr2007
 POTCAR:    PAW_PBE O_h 06Feb2004
 POTCAR:    PAW_PBE Mg_sv 12Apr2007
   VRHFIN =Mg: p6s2

   TITEL  = PAW_PBE Mg_sv 12Apr2007
   POMASS =   24.305; ZVAL   =   10.000    mass and valenz
   ENMAX  =  495.223; ENMIN  =  371.417 eV

   TITEL  = PAW_PBE O_h 06Feb2004
   POMASS =   16.000; ZVAL   =    6.000    mass and valenz
   ENMAX  =  700.000; ENMIN  =  500.000 eV

 Optimization of the real space projectors (new method)

 maximal supplied QI-value         = 22.11
 optimisation between [QCUT,QGAM] = [ 16.14, 32.28] = [ 72.95,291.79] Ry
 Optimized for a Real-space Cutoff    0.98 Angstroem

   l    n(q)    QCUT    max X(q) W(low)/X(q) W(high)/X(q)  e(spline)
   0      9    16.140     8.730    0.14E-04    0.12E-04    0.27E-07
   0      9    16.140     8.910    0.19E-04    0.17E-04    0.41E-07
   1      9    16.140     2.513    0.16E-04    0.28E-04    0.54E-07
   1      9    16.140     3.341    0.27E-04    0.13E-03    0.17E-06
   2      9    16.140     3.683    0.18E-03    0.21E-03    0.81E-07
 Optimization of the real space projectors (new method)

 maximal supplied QI-value         = 34.20
 optimisation between [QCUT,QGAM] = [ 16.08, 32.15] = [ 72.37,289.48] Ry
 Optimized for a Real-space Cutoff    0.71 Angstroem

   l    n(q)    QCUT    max X(q) W(low)/X(q) W(high)/X(q)  e(spline)
   0      7    16.076   280.207    0.42E-03    0.69E-03    0.60E-07
   0      7    16.076   228.978    0.42E-03    0.69E-03    0.61E-07
   1      6    16.076    86.127    0.11E-03    0.66E-03    0.10E-06
   1      6    16.076    65.368    0.11E-03    0.65E-03    0.10E-06
  PAW_PBE Mg_sv 12Apr2007               :
  PAW_PBE O_h 06Feb2004                 :

 POSCAR: Mg  O
  positions in direct lattice

 METAGGA = R2SCAN                                      LMAXTAU =  6    LMIXTAU =  F

 ion  position               nearest neighbor table
   1  0.000  0.750  0.252-
   2  0.250  0.000  0.252-
   3  0.000  0.000  0.376-
   4  0.250  0.750  0.376-
   5  1.000  0.750  0.499-
   6  0.252  0.001  0.502-
   7  0.000  0.003  0.624-
   8  0.237  0.750  0.623-  37 2.00
   9  0.000  0.250  0.252-
  10  0.250  0.500  0.252-
  11  0.000  0.500  0.376-
  12  0.250  0.250  0.376-
  13  0.000  0.250  0.500-
  14  0.252  0.500  0.502-
  15  0.000  0.498  0.624-
  16  0.248  0.250  0.625-
  17  0.500  0.750  0.252-
  18  0.750  0.000  0.252-
  19  0.500  0.000  0.376-
  20  0.750  0.750  0.376-
  21  0.500  0.750  0.498-
  22  0.748  0.001  0.502-
  23  0.500  0.011  0.636-  61 2.02
  24  0.763  0.750  0.623-  37 2.00
  25  0.500  0.250  0.252-
  26  0.750  0.500  0.252-
  27  0.500  0.500  0.376-
  28  0.750  0.250  0.376-
  29  0.500  0.250  0.502-
  30  0.748  0.500  0.502-
  31  0.500  0.489  0.636-  61 2.02
  32  0.752  0.250  0.625-
  33  0.000  0.750  0.376-
  34  0.250  0.000  0.376-
  35  0.000  0.000  0.252-
  36  0.250  0.750  0.252-
  37  0.000  0.750  0.626-   8 2.00  24 2.00
  38  0.248  0.999  0.626-
  39  0.000  1.000  0.500-
  40  0.252  0.750  0.501-
  41  0.000  0.250  0.376-
  42  0.250  0.500  0.376-
  43  0.000  0.500  0.252-
  44  0.250  0.250  0.252-
  45  0.000  0.250  0.626-
  46  0.248  0.502  0.626-
  47  0.000  0.501  0.500-
  48  0.251  0.250  0.501-
  49  0.500  0.750  0.376-
  50  0.750  0.000  0.376-
  51  0.500  0.000  0.252-
  52  0.750  0.750  0.252-
  53  0.500  0.750  0.633-
  54  0.752  0.999  0.626-
  55  0.500  0.998  0.502-
  56  0.748  0.750  0.501-
  57  0.500  0.250  0.376-
  58  0.750  0.500  0.376-
  59  0.500  0.500  0.252-
  60  0.750  0.250  0.252-
  61  0.500  0.250  0.628-  23 2.02  31 2.02
  62  0.752  0.502  0.626-
  63  0.500  0.503  0.502-
  64  0.749  0.250  0.501-

IMPORTANT INFORMATION: All symmetrisations will be switched off!
NOSYMM: (Re-)initialisation of all symmetry stuff for point group C_1.

                                     Primitive cell

  volume of cell :    1211.2538

  direct lattice vectors                    reciprocal lattice vectors
     8.440984654  0.000000000  0.000000000     0.118469591  0.000000000  0.000000000
     0.000000000  8.440984654  0.000000000     0.000000000  0.118469591  0.000000000
     0.000000000  0.000000000 17.000000000     0.000000000  0.000000000  0.058823529

  length of vectors
     8.440984654  8.440984654 17.000000000     0.118469591  0.118469591  0.058823529

  position of ions in fractional coordinates (direct lattice)
     0.000000012  0.750271483  0.251856836
     0.250000012  0.000271483  0.251856836
     0.000000012  0.000271483  0.375988963
     0.250000012  0.750271483  0.375988963
     0.999999988  0.750271429  0.499368462
     0.252039891  0.001028111  0.501782346
     0.000000034  0.002582678  0.624444171
     0.237174200  0.750271417  0.622958809
     0.000000012  0.250271483  0.251856836
     0.250000012  0.500271483  0.251856836
     0.000000012  0.500271483  0.375988963
     0.250000012  0.250271483  0.375988963
     0.000000025  0.250271481  0.500321386
     0.252039913  0.499514860  0.501782439
     0.000000033  0.497960304  0.624444240
     0.247666331  0.250271551  0.624926941
     0.500000012  0.750271483  0.251856836
     0.750000012  0.000271483  0.251856836
     0.500000012  0.000271483  0.375988963
     0.750000012  0.750271483  0.375988963
     0.500000031  0.750271498  0.497974947
     0.747960134  0.001028090  0.501782397
     0.500000002  0.011479476  0.636458488
     0.762825859  0.750271422  0.622958927
     0.500000012  0.250271483  0.251856836
     0.750000012  0.500271483  0.251856836
     0.500000012  0.500271483  0.375988963
     0.750000012  0.250271483  0.375988963
     0.500000005  0.250271518  0.502223723
     0.747960113  0.499514886  0.501782491
     0.500000001  0.489064058  0.636458884
     0.752333702  0.250271549  0.624926893
     0.000000012  0.750271483  0.375988963
     0.250000012  0.000271483  0.375988963
     0.000000012  0.000271483  0.251856836
     0.250000012  0.750271483  0.251856836
     0.000000034  0.750271519  0.625525054
     0.248158668  0.998774097  0.625931889
     0.000000015  0.999728517  0.499971061
     0.252314560  0.750271518  0.501128046
     0.000000012  0.250271483  0.375988963
     0.250000012  0.500271483  0.375988963
     0.000000012  0.500271483  0.251856836
     0.250000012  0.250271483  0.251856836
     0.000000017  0.250271467  0.626441503
     0.248158646  0.501768877  0.625931815
     0.000000014  0.500814411  0.499971054
     0.250533599  0.250271460  0.500674415
     0.500000012  0.750271483  0.375988963
     0.750000012  0.000271483  0.375988963
     0.500000012  0.000271483  0.251856836
     0.750000012  0.750271483  0.251856836
     0.499999972  0.750272301  0.632609027
     0.751841373  0.998774078  0.625931895
     0.500000008  0.997971315  0.502167211
     0.747685467  0.750271518  0.501128092
     0.500000012  0.250271483  0.375988963
     0.750000012  0.500271483  0.375988963
     0.500000012  0.500271483  0.251856836
     0.750000012  0.250271483  0.251856836
     0.500000019  0.250271401  0.628355073
     0.751841390  0.501768901  0.625931830
     0.500000009  0.502571702  0.502167205
     0.749466433  0.250271458  0.500674433

  ion indices of the primitive-cell ions
   primitive index   ion index
                 1           1
                 2           2
                 3           3
                 4           4
                 5           5
                 6           6
                 7           7
                 8           8
                 9           9
                10          10
                11          11
                12          12
                13          13
                14          14
                15          15
                16          16
                17          17
                18          18
                19          19
                20          20
                21          21
                22          22
                23          23
                24          24
                25          25
                26          26
                27          27
                28          28
                29          29
                30          30
                31          31
                32          32
                33          33
                34          34
                35          35
                36          36
                37          37
                38          38
                39          39
                40          40
                41          41
                42          42
                43          43
                44          44
                45          45
                46          46
                47          47
                48          48
                49          49
                50          50
                51          51
                52          52
                53          53
                54          54
                55          55
                56          56
                57          57
                58          58
                59          59
                60          60
                61          61
                62          62
                63          63
                64          64

 KPOINTS: pymatgen v2020.8.13 with grid density =

Automatic generation of k-mesh.
 Grid dimensions read from file:
 generate k-points for:    2    2    1

 Generating k-lattice:

  Cartesian coordinates                     Fractional coordinates (reciprocal lattice)
     0.059234796  0.000000000  0.000000000     0.500000000  0.000000000  0.000000000
     0.000000000  0.059234796  0.000000000     0.000000000  0.500000000  0.000000000
     0.000000000  0.000000000  0.058823529     0.000000000  0.000000000  1.000000000

  Length of vectors
     0.059234796  0.059234796  0.058823529

  Shift w.r.t. Gamma in fractional coordinates (k-lattice)
     0.000000000  0.000000000  0.000000000

 Subroutine IBZKPT returns following result:

 Found      4 irreducible k-points:

 Following reciprocal coordinates:
            Coordinates               Weight
  0.000000  0.000000  0.000000      1.000000
  0.500000  0.000000  0.000000      1.000000
  0.000000  0.500000  0.000000      1.000000
  0.500000  0.500000  0.000000      1.000000

 Following cartesian coordinates:
            Coordinates               Weight
  0.000000  0.000000  0.000000      1.000000
  0.059235  0.000000  0.000000      1.000000
  0.000000  0.059235  0.000000      1.000000
  0.059235  0.059235  0.000000      1.000000

 SYSTEM =  Oxide-Surface
 POSCAR =  Mg  O

[...]
   6.33073860  4.22278391  6.39181237
   4.22049243  4.22278391  4.28156621
   6.33073860  2.11253775  4.28156621
   4.22049249  2.11253705 10.68203623
   6.34628164  4.23542359 10.64084111
   4.22049240  4.24220002  8.53684248
   6.32623466  2.11253754  8.51146535

--------------------------------------- Iteration      FINAL  ---------------------------------------

--------------------OUTCAR has been truncated-------------------------

[...]

--------------------OUTCAR has been truncated-------------------------

  FORCE on cell =-STRESS in cart. coord.  units (eV):
  Direction    XX          YY          ZZ          XY          YZ          ZX
  Alpha Z  1191.54525  1191.54525  1191.54525
  Ewald  111577.52009111600.82496************    -0.00000     0.00054    -0.00004
  Hartree128261.04133128278.59861************    -0.00000    -0.00116    -0.00003
  E(xc)   -3446.05800 -3446.08002 -3447.36545    -0.00000    -0.00141    -0.00000
  Local  ************************249594.80224     0.00000     0.00248    -0.00000
  n-local -5513.17410 -5513.05458 -5513.68400     0.00000     0.00361    -0.00002
  augment   832.39061   832.26454   824.50572     0.00001    -0.01829    -0.00008
  Kinetic 12480.86826 12480.18148 12487.62107    -0.00000    -0.00165     0.00017
  Fock        0.00000     0.00000     0.00000     0.00000     0.00000     0.00000
  Total     -38.43523   -39.00671    -8.40793     0.00000    -0.01588    -0.00001
  in kB     -50.83993   -51.59585   -11.12152     0.00001    -0.02101    -0.00002

 VOLUME and BASIS-vectors are now :
  energy-cutoff  :     1000.00
  volume of cell :     1211.25
      direct lattice vectors                 reciprocal lattice vectors
     8.440984654  0.000000000  0.000000000     0.118469591  0.000000000  0.000000000
     0.000000000  8.440984654  0.000000000     0.000000000  0.118469591  0.000000000
     0.000000000  0.000000000 17.000000000     0.000000000  0.000000000  0.058823529

  length of vectors
     8.440984654  8.440984654 17.000000000     0.118469591  0.118469591  0.058823529

 FORCES acting on ions
    electron-ion (+dipol)            ewald-force                    non-local-force                 convergence-correction
   0.152E-04 0.587E-03 0.245E+04   -.210E-04 -.315E-04 -.244E+04   0.151E-04 -.696E-02 -.953E+01   0.230E-05 0.152E-04 -.188E-01
   -.899E+00 -.364E+00 0.245E+04   0.914E+00 0.385E+00 -.244E+04   -.120E-01 -.221E-01 -.966E+01   0.377E-04 0.994E-04 -.189E-01
   0.105E-03 -.981E+00 0.812E+03   -.102E-03 0.102E+01 -.812E+03   -.156E-04 -.339E-01 0.542E+00   -.568E-05 -.922E-04 -.130E-01
   -.177E+01 0.445E-03 0.806E+03   0.177E+01 -.193E-03 -.807E+03   -.319E-02 -.542E-02 0.814E+00   0.778E-04 0.547E-05 -.128E-01
   0.440E-04 0.388E-03 -.786E+03   -.623E-04 -.108E-04 0.785E+03   0.487E-04 -.699E-03 0.720E+00   -.405E-05 0.114E-04 -.103E-01
   -.157E+02 0.509E+01 -.823E+03   0.172E+02 -.556E+01 0.824E+03   -.131E+01 0.253E+00 -.880E+00   0.144E-03 -.947E-04 -.103E-01
   0.971E-04 0.178E+01 -.243E+04   0.628E-05 -.964E+00 0.242E+04   -.147E-03 -.824E+00 0.873E+01   -.193E-05 0.348E-03 0.156E-02
   -.737E+02 0.135E-02 -.241E+04   0.743E+02 0.656E-04 0.240E+04   0.104E+01 -.929E-02 0.845E+01   0.340E-03 0.122E-04 0.677E-03
   0.169E-04 0.505E-03 0.245E+04   -.218E-04 0.324E-04 -.244E+04   -.623E-05 -.699E-02 -.955E+01   0.287E-05 0.123E-04 -.191E-01
   -.899E+00 0.366E+00 0.245E+04   0.914E+00 -.385E+00 -.244E+04   -.120E-01 0.935E-02 -.966E+01   0.364E-04 -.716E-04 -.189E-01
   0.105E-03 0.983E+00 0.812E+03   -.104E-03 -.102E+01 -.812E+03   -.156E-04 0.204E-01 0.543E+00   -.161E-05 0.101E-03 -.130E-01
   -.539E+01 0.335E-05 0.807E+03   0.561E+01 0.196E-03 -.808E+03   -.170E+00 -.544E-02 0.975E+00   0.146E-03 0.249E-05 -.130E-01
   0.689E-04 -.348E-03 -.802E+03   -.621E-04 0.901E-04 0.801E+03   0.365E-05 0.176E-02 0.572E+00   -.541E-05 -.101E-04 -.100E-01
   -.157E+02 -.509E+01 -.823E+03   0.172E+02 0.556E+01 0.824E+03   -.130E+01 -.272E+00 -.878E+00   0.164E-03 0.882E-04 -.103E-01
   0.103E-03 -.177E+01 -.243E+04   -.375E-05 0.964E+00 0.242E+04   -.152E-03 0.807E+00 0.872E+01   -.195E-05 -.365E-03 0.157E-02
   -.553E+01 -.465E-04 -.242E+04   0.360E+01 0.196E-04 0.241E+04   0.170E+01 -.394E-02 0.918E+01   -.134E-03 0.104E-04 0.182E-02
   -.124E-04 0.605E-03 0.245E+04   0.213E-04 -.388E-04 -.244E+04   -.350E-04 -.696E-02 -.954E+01   -.955E-05 0.846E-05 -.188E-01
   0.899E+00 -.364E+00 0.245E+04   -.914E+00 0.385E+00 -.244E+04   0.120E-01 -.221E-01 -.966E+01   -.351E-04 0.104E-03 -.189E-01
   -.110E-03 -.459E+01 0.799E+03   0.105E-03 0.485E+01 -.799E+03   0.248E-04 -.197E+00 0.756E+00   0.722E-05 -.243E-04 -.129E-01
   0.177E+01 0.445E-03 0.806E+03   -.177E+01 -.195E-03 -.807E+03   0.322E-02 -.542E-02 0.814E+00   -.714E-04 0.717E-05 -.128E-01
   -.549E-04 0.968E-03 -.848E+03   0.815E-04 -.632E-03 0.849E+03   -.322E-04 -.428E-02 0.270E+00   0.135E-04 0.113E-04 -.103E-01
   0.157E+02 0.509E+01 -.823E+03   -.172E+02 -.556E+01 0.824E+03   0.131E+01 0.253E+00 -.879E+00   -.148E-03 -.997E-04 -.103E-01
   0.723E-04 0.654E+02 -.248E+04   0.357E-04 -.674E+02 0.247E+04   -.191E-03 0.291E+00 0.998E+01   -.344E-05 -.195E-03 0.391E-02
   0.737E+02 0.135E-02 -.241E+04   -.743E+02 0.584E-04 0.240E+04   -.104E+01 -.929E-02 0.845E+01   -.345E-03 0.521E-05 0.675E-03
   -.201E-04 0.510E-03 0.245E+04   0.219E-04 0.386E-04 -.244E+04   0.463E-05 -.705E-02 -.967E+01   0.363E-05 0.111E-04 -.190E-01
   0.899E+00 0.366E+00 0.245E+04   -.914E+00 -.385E+00 -.244E+04   0.120E-01 0.935E-02 -.966E+01   -.348E-04 -.708E-04 -.189E-01
   -.109E-03 0.459E+01 0.799E+03   0.109E-03 -.485E+01 -.799E+03   0.769E-05 0.184E+00 0.756E+00   -.713E-06 0.363E-04 -.129E-01
   0.539E+01 0.317E-05 0.807E+03   -.561E+01 0.201E-03 -.808E+03   0.170E+00 -.542E-02 0.975E+00   -.149E-03 -.819E-05 -.130E-01
   -.782E-04 -.745E-04 -.829E+03   0.681E-04 0.714E-03 0.828E+03   0.298E-05 -.783E-02 0.798E+00   0.125E-05 0.926E-06 -.102E-01
   0.157E+02 -.509E+01 -.823E+03   -.172E+02 0.556E+01 0.824E+03   0.130E+01 -.272E+00 -.878E+00   -.158E-03 0.104E-03 -.103E-01
   0.744E-04 -.654E+02 -.248E+04   0.338E-04 0.674E+02 0.247E+04   -.181E-03 -.318E+00 0.997E+01   -.160E-05 0.190E-03 0.392E-02
   0.553E+01 -.635E-04 -.242E+04   -.360E+01 0.396E-04 0.241E+04   -.170E+01 -.393E-02 0.918E+01   0.133E-03 0.697E-05 0.180E-02
   0.401E-04 0.146E-02 0.489E+03   -.432E-04 -.482E-04 -.490E+03   0.116E-04 -.153E-02 0.223E+00   -.288E-05 -.103E-05 -.840E-02
   -.228E+01 -.400E+00 0.481E+03   0.223E+01 0.384E+00 -.481E+03   0.532E-01 0.190E-01 -.262E+00   0.508E-04 -.507E-04 -.841E-02
   0.191E-04 -.126E+00 0.148E+04   -.132E-04 0.139E+00 -.149E+04   -.176E-04 -.175E-01 0.237E+01   0.300E-05 0.264E-04 -.121E-01
   -.394E+00 0.157E-02 0.148E+04   0.401E+00 -.224E-04 -.149E+04   -.897E-02 -.112E-02 0.239E+01   0.432E-04 -.701E-05 -.120E-01
   -.959E-04 0.108E-03 -.148E+04   0.502E-04 0.914E-04 0.148E+04   0.839E-04 -.359E-02 -.355E+01   -.255E-05 0.415E-05 0.404E-03
   -.179E+02 0.835E+01 -.147E+04   0.190E+02 -.100E+02 0.147E+04   -.126E+01 0.218E+01 -.222E+01   -.204E-04 0.416E-04 0.559E-03
   0.493E-04 -.901E+00 -.476E+03   -.449E-04 0.707E+00 0.476E+03   0.116E-04 0.270E+00 0.770E+00   -.431E-05 -.340E-04 -.727E-02
   -.132E+02 0.149E-02 -.489E+03   0.143E+02 -.151E-03 0.489E+03   -.149E+01 -.997E-03 -.963E-01   0.148E-03 -.160E-05 -.726E-02
   0.519E-04 0.130E-02 0.487E+03   -.559E-04 0.687E-04 -.487E+03   0.101E-04 -.150E-02 0.169E+00   0.556E-06 -.449E-06 -.845E-02
   -.228E+01 0.403E+00 0.481E+03   0.223E+01 -.384E+00 -.481E+03   0.532E-01 -.212E-01 -.262E+00   0.631E-04 0.563E-04 -.839E-02
   0.185E-04 0.128E+00 0.148E+04   -.134E-04 -.139E+00 -.149E+04   -.547E-05 0.133E-01 0.237E+01   0.242E-05 -.301E-04 -.121E-01
   -.649E+00 0.152E-02 0.148E+04   0.678E+00 0.225E-04 -.148E+04   -.372E-01 -.115E-02 0.234E+01   0.409E-04 0.502E-06 -.121E-01
   0.116E-04 0.871E-03 -.148E+04   -.237E-04 -.438E-04 0.148E+04   0.337E-05 -.516E-02 -.343E+01   0.386E-05 0.200E-05 0.104E-02
   -.179E+02 -.834E+01 -.147E+04   0.190E+02 0.100E+02 0.147E+04   -.126E+01 -.219E+01 -.222E+01   -.225E-04 -.510E-04 0.553E-03
   0.514E-04 0.903E+00 -.476E+03   -.474E-04 -.707E+00 0.476E+03   -.564E-05 -.276E+00 0.770E+00   -.133E-05 0.341E-04 -.727E-02
   -.583E+01 0.118E-02 -.481E+03   0.578E+01 0.162E-03 0.480E+03   0.202E-01 -.183E-02 0.109E+01   0.404E-04 -.790E-06 -.725E-02
   -.433E-04 0.145E-02 0.489E+03   0.475E-04 -.106E-03 -.489E+03   -.458E-05 -.142E-02 0.119E+00   -.184E-05 -.521E-05 -.836E-02
   0.228E+01 -.400E+00 0.481E+03   -.223E+01 0.384E+00 -.481E+03   -.532E-01 0.190E-01 -.262E+00   -.515E-04 -.492E-04 -.838E-02
   -.925E-05 -.380E+00 0.148E+04   0.133E-04 0.415E+00 -.148E+04   -.305E-05 -.456E-01 0.235E+01   -.643E-05 0.408E-04 -.120E-01
   0.394E+00 0.158E-02 0.148E+04   -.401E+00 -.226E-04 -.149E+04   0.897E-02 -.114E-02 0.239E+01   -.362E-04 -.467E-05 -.120E-01
   -.164E-03 0.276E-02 -.147E+04   0.740E-04 -.132E-02 0.148E+04   0.139E-03 -.447E-02 -.165E+01   0.304E-05 0.322E-05 0.141E-02
   0.179E+02 0.835E+01 -.147E+04   -.190E+02 -.100E+02 0.147E+04   0.126E+01 0.218E+01 -.222E+01   0.263E-04 0.408E-04 0.530E-03
   -.379E-04 0.478E+01 -.527E+03   0.465E-04 -.592E+01 0.529E+03   -.113E-04 0.160E+01 -.220E+01   0.358E-05 -.148E-03 -.726E-02
   0.132E+02 0.147E-02 -.489E+03   -.143E+02 -.151E-03 0.489E+03   0.149E+01 -.972E-03 -.965E-01   -.152E-03 0.275E-05 -.727E-02
   -.562E-04 0.120E-02 0.477E+03   0.556E-04 0.954E-04 -.477E+03   0.179E-05 -.138E-02 -.188E+00   0.301E-05 0.139E-05 -.840E-02
   0.228E+01 0.403E+00 0.481E+03   -.223E+01 -.384E+00 -.481E+03   -.532E-01 -.212E-01 -.262E+00   -.625E-04 0.562E-04 -.840E-02
   -.130E-04 0.382E+00 0.148E+04   0.135E-04 -.415E+00 -.148E+04   0.333E-05 0.415E-01 0.235E+01   -.188E-05 -.370E-04 -.120E-01
   0.649E+00 0.151E-02 0.148E+04   -.678E+00 0.228E-04 -.148E+04   0.372E-01 -.114E-02 0.234E+01   -.452E-04 0.530E-06 -.122E-01
   -.477E-05 -.558E-03 -.146E+04   0.226E-04 0.148E-02 0.146E+04   -.233E-04 -.736E-02 -.644E+00   -.608E-05 0.107E-05 0.113E-02
   0.179E+02 -.834E+01 -.147E+04   -.190E+02 0.100E+02 0.147E+04   0.126E+01 -.219E+01 -.222E+01   0.254E-04 -.431E-04 0.561E-03
   -.426E-04 -.477E+01 -.527E+03   0.524E-04 0.592E+01 0.529E+03   -.103E-04 -.160E+01 -.220E+01   -.232E-05 0.146E-03 -.727E-02
   0.583E+01 0.117E-02 -.481E+03   -.578E+01 0.179E-03 0.480E+03   -.202E-01 -.183E-02 0.109E+01   -.413E-04 -.687E-05 -.725E-02
   0.393E-03 0.589E-01 0.853E+00   0.433E-12 -.124E-12 0.142E-11   -.706E-03 -.299E+00 -.100E+00   -.544E-05 0.147E-03 -.536E+00

 POSITION                                       TOTAL-FORCE (eV/Angst)
      0.00000      6.33303      4.28157         0.000017     -0.002633      0.431099
      2.11025      0.00229      4.28157         0.003394      0.002422      0.451585
      0.00000      0.00229      6.39181        -0.000013      0.007276      0.107041
      2.11025      6.33303      6.39181        -0.005998     -0.001406      0.133666
      8.44098      6.33303      8.48926         0.000031      0.003443     -0.177174
      2.12746      0.00868      8.53030         0.131023     -0.204639     -0.074384
      0.00000      0.02180     10.61555        -0.000041     -0.008008     -0.353137
      2.00198      6.33303     10.59030         1.585706     -0.004111     -0.004733
      0.00000      2.11254      4.28157        -0.000003     -0.002686      0.435137
      2.11025      4.22278      4.28157         0.003380     -0.006253      0.451546
      0.00000      4.22278      6.39181        -0.000012     -0.011541      0.107144
      2.11025      2.11254      6.39181         0.050216     -0.001484      0.087718
      0.00000      2.11254      8.50546         0.000010      0.005242     -0.074458
      2.12747      4.21640      8.53030         0.135199      0.195752     -0.073381
      0.00000      4.20328     10.61555        -0.000049      0.001747     -0.359197
      2.09055      2.11254     10.62376        -0.229368     -0.000208     -0.495084
      4.22049      6.33303      4.28157        -0.000031     -0.002633      0.431469
      6.33074      0.00229      4.28157        -0.003361      0.002418      0.451657
      4.22049      0.00229      6.39181         0.000032      0.063136      0.197549
      6.33074      6.33303      6.39181         0.006038     -0.001411      0.133765
      4.22049      6.33303      8.46557         0.000013     -0.000177      1.219359
      6.31352      0.00868      8.53030        -0.131024     -0.204642     -0.074129
      4.22049      0.09690     10.81979        -0.000081     -1.680027     -1.363166
      6.43900      6.33303     10.59030        -1.585620     -0.004122     -0.004546
      4.22049      2.11254      4.28157         0.000015     -0.002737      0.457754
      6.33074      4.22278      4.28157        -0.003372     -0.006256      0.451501
      4.22049      4.22278      6.39181         0.000012     -0.067485      0.197502
      6.33074      2.11254      6.39181        -0.050210     -0.001467      0.087686
      4.22049      2.11254      8.53780        -0.000001     -0.003439     -0.306676
      6.31352      4.21640      8.53030        -0.135206      0.195756     -0.073204
      4.22049      4.12818     10.81980        -0.000070      1.663652     -1.367415
      6.35044      2.11254     10.62376         0.229394     -0.000192     -0.495064
      0.00000      6.33303      6.39181         0.000007      0.003488      0.014938
      2.11025      0.00229      6.39181         0.007868      0.006598      0.053603
      0.00000      0.00229      4.28157        -0.000002     -0.000886     -0.397509
      2.11025      6.33303      4.28157        -0.001978      0.004070     -0.396202
      0.00000      6.33303     10.63393         0.000048      0.000266      0.103683
      2.09470      8.43064     10.64084        -0.093822      0.518446      0.392213
      0.00000      8.43869      8.49951         0.000017      0.082535      0.174492
      2.12978      6.33303      8.51918        -0.429343      0.003962     -0.206614
      0.00000      2.11254      6.39181         0.000010      0.003472      0.063513
      2.11025      4.22278      6.39181         0.007858      0.000931      0.053466
      0.00000      4.22278      4.28157         0.000009      0.006223     -0.397506
      2.11025      2.11254      4.28157        -0.008634      0.004046     -0.407228
      0.00000      2.11254     10.64951        -0.000001     -0.000708      0.102992
      2.09470      4.23542     10.64084        -0.091430     -0.516893      0.392448
      0.00000      4.22737      8.49951         0.000002     -0.078732      0.174706
      2.11475      2.11254      8.51147        -0.020508      0.003113      0.194890
      4.22049      6.33303      6.39181         0.000002      0.003529     -0.108780
      6.33074      0.00229      6.39181        -0.007850      0.006607      0.053535
      4.22049      0.00229      4.28157         0.000001     -0.007498     -0.402165
      6.33074      6.33303      4.28157         0.001987      0.004057     -0.396215
      4.22049      6.33304     10.75435         0.000048      0.000564      0.041497
      6.34628      8.43064     10.64084         0.093726      0.518442      0.392321
      4.22049      8.42386      8.53684         0.000003      0.471711     -0.141089
      6.31120      6.33303      8.51918         0.429315      0.003979     -0.206581
      4.22049      2.11254      6.39181         0.000005      0.003532      0.099208
      6.33074      4.22278      6.39181        -0.007842      0.000941      0.053604
      4.22049      4.22278      4.28157         0.000008      0.012863     -0.402168
      6.33074      2.11254      4.28157         0.008640      0.004047     -0.407208
      4.22049      2.11254     10.68204        -0.000005     -0.002850      0.525730
      6.34628      4.23542     10.64084         0.091326     -0.516897      0.392370
      4.22049      4.24220      8.53684        -0.000003     -0.469354     -0.142257
      6.32623      2.11254      8.51147         0.020519      0.003115      0.194877
    total drift:                               -0.000318     -0.240212      0.216742

  FREE ENERGIE OF THE ION-ELECTRON SYSTEM (eV)
  free  energy   TOTEN  =      -506.46465145 eV

  energy  without entropy=     -506.46465145  energy(sigma->0) =     -506.46465145

     |            E. Caldeweyher, S. Ehlert & S. Grimme          |
     |          Mulliken Center for Theoretical Chemistry        |
     |                    University of Bonn                     |

Rational (Becke-Johnson) damping: r2scan-D4-ATM
  s6         1.0000
  s8         0.6019
  s9         1.0000
  a1         0.5156
  a2         5.7734
 alp        16.0000

Dispersion energy:      -1.1231511071951E-01 Eh