 vasp.6.3.0 20Jan22 (build Aug 21 2024 11:13:42) complex
 executed on        HPECrayEX_GCC date 2024.09.03  18:40:20

 INCAR:
   SYSTEM = MgO-rocksalt
   ISMEAR = 0
   SIGMA = 0.05
   EDIFF = 1E-6
   ALGO = ALL
   ISTART = 0
   IBRION = -1
   NSW = 0
   ISYM = 0
   DIPOL = 0.5 0.5 0.5
   IDIPOL = 3
   LDIPOL = .TRUE.
   LHFCALC = .TRUE.
   GGA = B5
   AEXX = 0.2
   AGGAX = 0.72
   AGGAC = 0.81
   ALDAC = 0.19
   IVDW = 1
   VDW_S6 = 1.05
   VDW_C6 = 1.75 0.14 0.63 0.70
   VDW_R0 = 1.452 1.001 1.243 1.342
   ENCUT = 600
   PREC = Accurate
   LASPH = .TRUE.
   LREAL = .FALSE.
   ISPIN = 1
   NELM = 200
   NELMIN = 8
   NCORE = 8
   KPAR = 1
   LWAVE = .FALSE.
   LCHARG = .FALSE.

 POTCAR:    PAW_PBE C 08Apr2002
 POTCAR:    PAW_PBE H 15Jun2001
 POTCAR:    PAW_PBE Mg_pv 13Apr2007
 POTCAR:    PAW_PBE O 08Apr2002
 POTCAR:    PAW_PBE C 08Apr2002
   VRHFIN =C: s2p2

   TITEL  = PAW_PBE C 08Apr2002
   POMASS =   12.011; ZVAL   =    4.000    mass and valenz
   ENMAX  =  400.000; ENMIN  =  300.000 eV

   TITEL  = PAW_PBE H 15Jun2001
   POMASS =    1.000; ZVAL   =    1.000    mass and valenz
   ENMAX  =  250.000; ENMIN  =  200.000 eV

   TITEL  = PAW_PBE Mg_pv 13Apr2007
   POMASS =   24.305; ZVAL   =    8.000    mass and valenz
   ENMAX  =  403.929; ENMIN  =  302.947 eV

   TITEL  = PAW_PBE O 08Apr2002
   POMASS =   16.000; ZVAL   =    6.000    mass and valenz
   ENMAX  =  400.000; ENMIN  =  300.000 eV

  PAW_PBE C 08Apr2002                   :
  PAW_PBE H 15Jun2001                   :
  PAW_PBE Mg_pv 13Apr2007               :
  PAW_PBE O 08Apr2002                   :

 POSCAR:  C  H Mg  O
  positions in direct lattice
 exchange correlation table for  LEXCH =       12
   RHO(1)=    0.500       N(1)  =     2000
   RHO(2)=  100.500       N(2)  =     4000

 ion  position               nearest neighbor table
   1  0.500  0.500  0.791-   6 1.09   5 1.09   8 1.09   7 1.09
   2  0.000  0.500  0.791-  10 1.09   9 1.09  12 1.09  11 1.09
   3  0.500  1.000  0.791-  14 1.09  13 1.09  16 1.09  15 1.09
   4  1.000  1.000  0.791-  18 1.09  17 1.09  20 1.09  19 1.09
   5  0.500  0.607  0.820-   1 1.09
   6  0.500  0.393  0.820-   1 1.09
   7  0.608  0.500  0.762-   1 1.09
   8  0.392  0.500  0.762-   1 1.09
   9  0.893  0.500  0.820-   2 1.09
  10  0.107  0.500  0.820-   2 1.09
  11  1.000  0.608  0.762-   2 1.09
  12  1.000  0.392  0.762-   2 1.09
  13  0.393  0.000  0.820-   3 1.09
  14  0.607  0.000  0.820-   3 1.09
  15  0.500  0.108  0.762-   3 1.09
  16  0.500  0.892  0.762-   3 1.09
  17  0.000  0.107  0.820-   4 1.09
  18  0.000  0.893  0.820-   4 1.09
  19  0.108  0.000  0.762-   4 1.09
  20  0.892  0.000  0.762-   4 1.09
  21  0.250  0.000  0.353-  55 2.09  56 2.09  63 2.09  72 2.09  53 2.09
  22  0.500  0.250  0.353-  55 2.09  56 2.09  64 2.09  71 2.09  54 2.09
  23  0.250  0.250  0.451-  53 2.09  54 2.09  61 2.09  70 2.09  55 2.09  59 2.09
  24  0.500  0.000  0.451-  53 2.09  54 2.09  62 2.09  69 2.09  56 2.09  60 2.10
  25  0.250  1.000  0.550-  60 2.09  76 2.09  67 2.09  59 2.09  53 2.10  57 2.12
  26  0.500  0.250  0.550-  68 2.09  75 2.09  59 2.09  60 2.09  54 2.10  58 2.12
  27  0.250  0.250  0.647-  59 2.07  58 2.09  57 2.09  65 2.09  74 2.09
  28  0.500  0.000  0.648-  73 2.09  57 2.09  60 2.09  58 2.09  66 2.09
  29  0.250  0.500  0.353-  55 2.09  63 2.09  64 2.09  80 2.09  61 2.09
  30  0.500  0.750  0.353-  56 2.09  63 2.09  64 2.09  79 2.09  62 2.09
  31  0.250  0.750  0.451-  53 2.09  61 2.09  62 2.09  78 2.09  63 2.09  67 2.09
  32  0.500  0.500  0.451-  54 2.09  61 2.09  62 2.09  77 2.09  64 2.09  68 2.10
  33  0.250  0.500  0.550-  67 2.09  59 2.09  84 2.09  68 2.09  61 2.10  65 2.12
  34  0.500  0.750  0.550-  68 2.09  67 2.09  83 2.09  60 2.09  62 2.10  66 2.12
  35  0.250  0.750  0.647-  67 2.07  66 2.09  57 2.09  65 2.09  82 2.09
  36  0.500  0.500  0.648-  66 2.09  58 2.09  68 2.09  65 2.09  81 2.09
  37  0.750  0.000  0.353-  56 2.09  71 2.09  72 2.09  79 2.09  69 2.09
  38  0.000  0.250  0.353-  55 2.09  71 2.09  72 2.09  80 2.09  70 2.09
  39  0.750  0.250  0.451-  54 2.09  69 2.09  70 2.09  77 2.09  71 2.09  75 2.09
  40  0.000  0.000  0.451-  53 2.09  69 2.09  70 2.09  78 2.09  72 2.09  76 2.10
  41  0.750  0.000  0.550-  60 2.09  76 2.09  75 2.09  83 2.09  69 2.10  73 2.12
  42  1.000  0.250  0.550-  84 2.09  76 2.09  75 2.09  59 2.09  70 2.10  74 2.12
  43  0.750  0.250  0.647-  75 2.07  58 2.09  73 2.09  81 2.09  74 2.09
  44  0.000  1.000  0.648-  82 2.09  74 2.09  76 2.09  57 2.09  73 2.09
  45  0.750  0.500  0.353-  64 2.09  71 2.09  79 2.09  80 2.09  77 2.09
  46  0.000  0.750  0.353-  63 2.09  72 2.09  79 2.09  80 2.09  78 2.09
  47  0.750  0.750  0.451-  62 2.09  69 2.09  77 2.09  78 2.09  79 2.09  83 2.09
  48  0.000  0.500  0.451-  61 2.09  70 2.09  77 2.09  78 2.09  80 2.09  84 2.10
  49  0.750  0.500  0.550-  75 2.09  83 2.09  84 2.09  68 2.09  77 2.10  81 2.12
  50  0.000  0.750  0.550-  84 2.09  76 2.09  67 2.09  83 2.09  78 2.10  82 2.12
  51  0.750  0.750  0.647-  83 2.07  66 2.09  73 2.09  81 2.09  82 2.09
  52  0.000  0.500  0.648-  81 2.09  65 2.09  84 2.09  82 2.09  74 2.09
  53  0.250  0.000  0.451-  23 2.09  24 2.09  31 2.09  40 2.09  21 2.09  25 2.10
  54  0.500  0.250  0.451-  23 2.09  24 2.09  32 2.09  39 2.09  22 2.09  26 2.10
  55  0.250  0.250  0.353-  21 2.09  22 2.09  29 2.09  38 2.09  23 2.09
  56  0.500  0.000  0.353-  21 2.09  22 2.09  30 2.09  37 2.09  24 2.09
  57  0.250  1.000  0.649-  28 2.09  35 2.09  27 2.09  44 2.09  25 2.12
  58  0.500  0.250  0.649-  36 2.09  27 2.09  43 2.09  28 2.09  26 2.12
  59  0.250  0.250  0.549-  27 2.07  33 2.09  26 2.09  42 2.09  25 2.09  23 2.09
  60  0.500  1.000  0.549-  41 2.09  25 2.09  28 2.09  34 2.09  26 2.09  24 2.10
[...]
  70  0.000  0.250  0.451-  23 2.09  39 2.09  40 2.09  48 2.09  38 2.09  42 2.10
  71  0.750  0.250  0.353-  22 2.09  37 2.09  38 2.09  45 2.09  39 2.09
  72  0.000  0.000  0.353-  21 2.09  37 2.09  38 2.09  46 2.09  40 2.09
  73  0.750  1.000  0.649-  28 2.09  51 2.09  43 2.09  44 2.09  41 2.12
  74  0.000  0.250  0.649-  44 2.09  52 2.09  43 2.09  27 2.09  42 2.12
  75  0.750  0.250  0.549-  43 2.07  49 2.09  26 2.09  42 2.09  41 2.09  39 2.09
  76  1.000  1.000  0.549-  41 2.09  25 2.09  42 2.09  50 2.09  44 2.09  40 2.10
  77  0.750  0.500  0.451-  32 2.09  39 2.09  47 2.09  48 2.09  45 2.09  49 2.10
  78  0.000  0.750  0.451-  31 2.09  40 2.09  47 2.09  48 2.09  46 2.09  50 2.10
  79  0.750  0.750  0.353-  30 2.09  37 2.09  45 2.09  46 2.09  47 2.09
  80  0.000  0.500  0.353-  29 2.09  38 2.09  45 2.09  46 2.09  48 2.09
  81  0.750  0.500  0.650-  52 2.09  43 2.09  51 2.09  36 2.09  49 2.12
  82  0.000  0.750  0.649-  44 2.09  52 2.09  35 2.09  51 2.09  50 2.12
  83  0.750  0.750  0.549-  51 2.07  49 2.09  34 2.09  50 2.09  41 2.09  47 2.09
  84  0.000  0.500  0.549-  50 2.09  42 2.09  33 2.09  49 2.09  52 2.09  48 2.10

IMPORTANT INFORMATION: All symmetrisations will be switched off!
NOSYMM: (Re-)initialisation of all symmetry stuff for point group C_1.

                                     Primitive cell

  volume of cell :    1482.1129

  direct lattice vectors                    reciprocal lattice vectors
     8.349111827  0.000000000  0.000000000     0.119773219  0.000000000  0.000000000
     0.000000000  8.349111827  0.000000000     0.000000000  0.119773219  0.000000000
     0.000000000  0.000000000 21.261833870     0.000000000  0.000000000  0.047032632

  length of vectors
     8.349111827  8.349111827 21.261833870     0.119773219  0.119773219  0.047032632

  position of ions in fractional coordinates (direct lattice)
     0.499999868  0.499999817  0.791057203
     0.000000004  0.499999872  0.791062202
     0.500000016  0.999999884  0.791061503
     0.999999850  0.999999805  0.791059542
     0.500000024  0.606868100  0.820426024
     0.500000010  0.393132117  0.820425968
     0.607666311  0.500000025  0.761899171
     0.392333868  0.500000035  0.761899203
     0.893140755  0.500000057  0.820432821
     0.106858707  0.500000048  0.820432771
     0.999999806  0.607656490  0.761896852
     0.999999799  0.392343788  0.761896892
     0.393143584  0.000000057  0.820433829
     0.606855869  0.000000048  0.820433775
     0.499999806  0.107646666  0.761892160
     0.499999799  0.892353606  0.761892198
     0.000000024  0.106857917  0.820431304
     0.000000008  0.893142306  0.820431245
     0.107658470  0.000000024  0.761897089
     0.892341716  0.000000036  0.761897124
     0.250000000  0.000000000  0.352744737
     0.500000000  0.250000000  0.352744737
     0.250000000  0.250000000  0.450914912
     0.500000000  0.000000000  0.450914912
     0.250002502  0.999999988  0.549720037
     0.500000006  0.250013402  0.549742085
     0.250021273  0.249999048  0.646949434
     0.500000002  0.000000002  0.647626606
     0.250000000  0.500000000  0.352744737
     0.500000000  0.750000000  0.352744737
     0.250000000  0.750000000  0.450914912
     0.500000000  0.500000000  0.450914912
     0.249995949  0.500000006  0.549756437
     0.499999989  0.749986596  0.549742086
     0.250021271  0.750000950  0.646949441
     0.499999998  0.500000000  0.647667843
     0.750000000  0.000000000  0.352744737
     0.000000000  0.250000000  0.352744737
     0.750000000  0.250000000  0.450914912
     0.000000000  0.000000000  0.450914912
     0.749997501  0.000000007  0.549720037
     0.999999996  0.250010001  0.549717121
     0.749978736  0.249999053  0.646949447
     0.000000008  0.999999996  0.647634861
     0.750000000  0.500000000  0.352744737
     0.000000000  0.750000000  0.352744737
     0.750000000  0.750000000  0.450914912
     0.000000000  0.500000000  0.450914912
     0.750004049  0.499999991  0.549756437
     0.000000014  0.749989996  0.549717122
     0.749978734  0.750000951  0.646949424
     0.000000002  0.500000002  0.647691081
     0.250000000  0.000000000  0.450914912
     0.500000000  0.250000000  0.450914912
     0.250000000  0.250000000  0.352744737
     0.500000000  0.000000000  0.352744737
     0.250042652  0.999999992  0.649435762
     0.500000003  0.250065347  0.649486198
     0.250009753  0.250025975  0.549397126
     0.500000004  0.999999998  0.549453569
[...]
     0.000000000  0.250000000  0.450914912
     0.750000000  0.250000000  0.352744737
     0.000000000  0.000000000  0.352744737
     0.749957350  0.999999998  0.649435764
     0.000000003  0.249942922  0.649449683
     0.749990251  0.250025974  0.549397129
     1.000000000  1.000000000  0.549450518
     0.750000000  0.500000000  0.450914912
     0.000000000  0.750000000  0.450914912
     0.750000000  0.750000000  0.352744737
     0.000000000  0.500000000  0.352744737
     0.750075806  0.500000003  0.649505115
     0.000000010  0.750057080  0.649449677
     0.749990249  0.749974028  0.549397120
     0.000000002  0.500000001  0.549498784

  ion indices of the primitive-cell ions
   primitive index   ion index
                 1           1
                 2           2
                 3           3
                 4           4
                 5           5
                 6           6
                 7           7
                 8           8
                 9           9
                10          10
[...]
   0.00000000  0.00000000  9.58727796
   6.26181300  0.00000006 11.68805610
   8.34911179  2.08736145 11.68799411
   6.26165634  2.08727005 13.75533167
   0.00000007  8.34911180 13.76990483
   6.26183387  4.17455591  7.50000000
   0.00000000  6.26183387  7.50000000
   6.26183387  6.26183387  9.58727796
   0.00000000  4.17455591  9.58727796
   6.26186768  4.17455584 11.68883003
   0.00000011  6.26175035 11.68799413
   6.26165632  6.26184181 13.75533118
   0.00000001  4.17455593 13.77110017
   2.08727796  0.00000000  9.58727796
   4.17455591  2.08727796  9.58727796
   2.08727796  2.08727796  7.50000000
   4.17455591  0.00000000  7.50000000
   2.08763406  8.34911176 13.80819529
   4.17455594  2.08782354 13.80926763
   2.08735938  2.08749482 11.68119042
   4.17455595  8.34911181 11.68239051
[...]
   0.00000000  2.08727796  9.58727796
   6.26183387  2.08727796  7.50000000
   0.00000000  0.00000000  7.50000000
   6.26147778  8.34911181 13.80819531
   0.00000003  2.08680140 13.80849128
   6.26175248  2.08749481 11.68119049
   8.34911182  8.34911182 11.68232563
   6.26183387  4.17455591  9.58727796
   0.00000000  6.26183387  9.58727796
   6.26183387  6.26183387  7.50000000
   0.00000000  4.17455591  7.50000000
   6.26246678  4.17455593 13.80966986
   0.00000009  6.26231044 13.80849114
   6.26175246  6.26161703 11.68119029
   0.00000001  4.17455592 11.68335185

--------------------------------------- Iteration      FINAL  ---------------------------------------

--------------------OUTCAR has been truncated-------------------------

[...]

--------------------OUTCAR has been truncated-------------------------

  DFT-D2 method for vdW energy calculation

  Parameters of vdW forcefield:
         C6(Jnm^6/mol)     R0(A)
   C        1.750          1.452
   H        0.140          1.001
   Mg       0.630          1.243
   O        0.700          1.342

  vdW correction parametrized for the method   h
      

  IVDW =   1
  VDW_RADIUS =    50.000 A
  VDW_S6 =     1.050
  VDW_SR =     1.000
  VDW_D =    20.000
  LVDW_EWALD = F

  Number of pair interactions contributing to vdW energy: 1268012
  Edisp (eV):   -6.24953

 VOLUME and BASIS-vectors are now :
  energy-cutoff  :      600.00
  volume of cell :     1482.11
      direct lattice vectors                 reciprocal lattice vectors
     8.349111827  0.000000000  0.000000000     0.119773219  0.000000000  0.000000000
     0.000000000  8.349111827  0.000000000     0.000000000  0.119773219  0.000000000
     0.000000000  0.000000000 21.261833870     0.000000000  0.000000000  0.047032632

  length of vectors
     8.349111827  8.349111827 21.261833870     0.119773219  0.119773219  0.047032632

 FORCES acting on ions:
    Electron-Ion                     Ewald-Force                    Non-Local-Force
   -.618E-04 -.118E-03 -.974E+03   0.111E-03 0.176E-03 0.974E+03   0.543E-04 0.769E-04 0.471E-01
   0.842E-04 -.944E-04 -.974E+03   -.141E-03 0.143E-03 0.974E+03   -.669E-04 0.625E-04 0.431E-01
   0.996E-04 -.886E-04 -.974E+03   -.152E-03 0.132E-03 0.974E+03   -.788E-04 0.661E-04 0.448E-01
   -.744E-04 -.119E-03 -.974E+03   0.121E-03 0.179E-03 0.974E+03   0.570E-04 0.798E-04 0.455E-01
   -.496E-04 -.378E+02 -.247E+03   0.548E-04 0.425E+02 0.250E+03   -.795E-05 -.460E+01 -.320E+01
   -.438E-04 0.378E+02 -.247E+03   0.487E-04 -.425E+02 0.250E+03   -.722E-05 0.460E+01 -.320E+01
   -.380E+02 -.737E-04 -.240E+03   0.428E+02 0.786E-04 0.237E+03   -.467E+01 -.110E-04 0.310E+01
   0.380E+02 -.756E-04 -.240E+03   -.428E+02 0.809E-04 0.237E+03   0.467E+01 -.113E-04 0.310E+01
   0.378E+02 -.633E-04 -.247E+03   -.425E+02 0.670E-04 0.250E+03   0.460E+01 -.980E-05 -.320E+01
   -.378E+02 -.608E-04 -.247E+03   0.425E+02 0.631E-04 0.250E+03   -.460E+01 -.948E-05 -.320E+01
   0.669E-04 -.380E+02 -.240E+03   -.715E-04 0.428E+02 0.237E+03   0.105E-04 -.467E+01 0.310E+01
   0.681E-04 0.380E+02 -.240E+03   -.724E-04 -.428E+02 0.237E+03   0.107E-04 0.467E+01 0.310E+01
   0.378E+02 -.588E-04 -.247E+03   -.425E+02 0.622E-04 0.250E+03   0.460E+01 -.912E-05 -.320E+01
   -.378E+02 -.547E-04 -.247E+03   0.425E+02 0.581E-04 0.250E+03   -.460E+01 -.858E-05 -.320E+01
   0.703E-04 -.380E+02 -.240E+03   -.755E-04 0.427E+02 0.237E+03   0.108E-04 -.467E+01 0.310E+01
   0.712E-04 0.380E+02 -.240E+03   -.766E-04 -.427E+02 0.237E+03   0.111E-04 0.467E+01 0.310E+01
   -.571E-04 -.378E+02 -.247E+03   0.615E-04 0.425E+02 0.250E+03   -.912E-05 -.460E+01 -.320E+01
   -.520E-04 0.378E+02 -.247E+03   0.546E-04 -.425E+02 0.250E+03   -.871E-05 0.460E+01 -.320E+01
   -.380E+02 -.756E-04 -.240E+03   0.428E+02 0.806E-04 0.237E+03   -.467E+01 -.114E-04 0.310E+01
   0.380E+02 -.777E-04 -.240E+03   -.428E+02 0.835E-04 0.237E+03   0.467E+01 -.117E-04 0.310E+01
   -.274E-02 -.320E-06 0.217E+04   0.329E-02 0.196E-05 -.216E+04   -.364E-03 -.178E-05 -.644E+01
   0.187E-05 -.970E-02 0.217E+04   -.118E-06 0.102E-01 -.216E+04   -.973E-06 -.327E-03 -.644E+01
   -.904E-02 -.442E-01 0.809E+03   0.131E-01 0.492E-01 -.810E+03   -.261E-02 -.324E-02 0.435E+00
   0.183E-05 -.884E-05 0.809E+03   0.374E-06 0.705E-05 -.809E+03   0.490E-06 0.298E-05 0.421E+00
   0.197E-01 -.589E-04 -.537E+03   -.212E-01 0.600E-04 0.537E+03   0.361E-03 0.406E-05 -.211E+00
   0.118E-04 0.145E-01 -.537E+03   -.113E-04 -.640E-02 0.537E+03   0.197E-05 -.690E-02 -.199E+00
   0.753E-01 0.862E-01 -.188E+04   -.812E-01 -.866E-01 0.187E+04   0.162E-02 0.261E-05 0.559E+01
   -.187E-04 0.637E-05 -.186E+04   0.237E-04 -.437E-05 0.185E+04   -.349E-05 -.185E-05 0.541E+01
   0.788E-03 0.579E-05 0.217E+04   -.321E-03 -.187E-05 -.216E+04   -.294E-03 -.786E-05 -.644E+01
   0.728E-06 0.970E-02 0.217E+04   0.770E-06 -.102E-01 -.216E+04   0.100E-05 0.338E-03 -.644E+01
   -.904E-02 0.442E-01 0.809E+03   0.131E-01 -.492E-01 -.810E+03   -.261E-02 0.324E-02 0.435E+00
   -.169E-05 0.669E-05 0.809E+03   0.318E-05 -.589E-05 -.809E+03   -.419E-06 -.244E-05 0.422E+00
   -.143E-02 0.434E-04 -.537E+03   -.637E-02 -.434E-04 0.538E+03   0.574E-02 -.372E-05 -.204E+00
   -.457E-04 -.145E-01 -.537E+03   0.479E-04 0.639E-02 0.537E+03   0.216E-05 0.690E-02 -.199E+00
   0.753E-01 -.862E-01 -.188E+04   -.812E-01 0.866E-01 0.187E+04   0.163E-02 -.312E-05 0.559E+01
   -.187E-04 -.487E-05 -.186E+04   0.185E-04 0.291E-05 0.185E+04   0.391E-05 0.224E-05 0.540E+01
   0.274E-02 -.380E-05 0.217E+04   -.329E-02 0.105E-05 -.216E+04   0.360E-03 -.254E-05 -.644E+01
   0.252E-05 -.133E-01 0.217E+04   0.129E-06 0.138E-01 -.216E+04   -.458E-06 -.392E-03 -.644E+01
   0.904E-02 -.442E-01 0.809E+03   -.131E-01 0.492E-01 -.810E+03   0.261E-02 -.324E-02 0.435E+00
   0.127E-05 -.520E-05 0.809E+03   -.654E-06 0.541E-05 -.809E+03   0.103E-05 0.128E-05 0.418E+00
   -.197E-01 -.439E-06 -.537E+03   0.212E-01 -.155E-05 0.537E+03   -.364E-03 0.436E-05 -.211E+00
   -.187E-04 -.215E-01 -.537E+03   0.182E-04 0.258E-01 0.537E+03   0.174E-05 -.336E-02 -.211E+00
   -.753E-01 0.863E-01 -.188E+04   0.812E-01 -.866E-01 0.187E+04   -.162E-02 0.561E-05 0.559E+01
   0.332E-04 -.405E-04 -.186E+04   -.315E-04 0.391E-04 0.185E+04   -.119E-05 0.302E-06 0.542E+01
   -.792E-03 0.242E-07 0.217E+04   0.321E-03 -.101E-05 -.216E+04   0.297E-03 0.946E-06 -.644E+01
   0.434E-05 0.133E-01 0.217E+04   -.754E-06 -.138E-01 -.216E+04   -.930E-05 0.389E-03 -.644E+01
   0.904E-02 0.442E-01 0.809E+03   -.131E-01 -.492E-01 -.810E+03   0.261E-02 0.324E-02 0.435E+00
   0.208E-05 0.504E-05 0.809E+03   -.344E-05 -.556E-05 -.809E+03   0.141E-05 -.293E-05 0.432E+00
   0.143E-02 -.126E-04 -.537E+03   0.637E-02 0.127E-04 0.538E+03   -.574E-02 0.115E-06 -.204E+00
   0.408E-04 0.215E-01 -.537E+03   -.424E-04 -.258E-01 0.537E+03   0.379E-06 0.336E-02 -.211E+00
   -.753E-01 -.862E-01 -.188E+04   0.812E-01 0.866E-01 0.187E+04   -.162E-02 -.668E-05 0.559E+01
   -.120E-04 0.193E-04 -.186E+04   0.113E-04 -.177E-04 0.186E+04   -.102E-05 -.258E-05 0.542E+01
   -.941E-02 -.105E-04 0.606E+03   0.989E-02 0.114E-04 -.606E+03   -.565E-03 0.535E-07 -.917E-01
   0.355E-05 -.223E-01 0.606E+03   -.253E-05 0.230E-01 -.606E+03   0.485E-06 -.908E-03 -.977E-01
   -.101E-02 -.856E-02 0.163E+04   0.158E-02 0.917E-02 -.163E+04   -.709E-03 -.760E-03 0.310E+01
   0.230E-05 0.127E-05 0.163E+04   0.157E-06 0.112E-05 -.163E+04   0.276E-05 -.388E-05 0.310E+01
   -.484E+00 -.343E-04 -.143E+04   0.495E+00 0.378E-04 0.143E+04   -.933E-02 -.175E-05 -.466E+01
   -.807E-06 -.414E+00 -.143E+04   0.252E-05 0.430E+00 0.143E+04   -.538E-06 -.166E-01 -.467E+01
   0.176E-01 0.123E-01 -.396E+03   -.217E-01 -.148E-01 0.396E+03   0.418E-02 0.899E-03 0.387E+00
   -.267E-06 -.187E-04 -.397E+03   0.233E-05 0.159E-04 0.397E+03   -.244E-05 -.725E-07 0.208E+00
[...]
   0.101E-02 -.856E-02 0.163E+04   -.158E-02 0.917E-02 -.163E+04   0.709E-03 -.755E-03 0.310E+01
   0.106E-05 -.354E-06 0.163E+04   -.149E-06 0.102E-05 -.163E+04   -.780E-06 -.230E-05 0.310E+01
   0.484E+00 0.345E-05 -.143E+04   -.495E+00 -.220E-06 0.143E+04   0.933E-02 -.362E-05 -.466E+01
   -.144E-04 0.566E+00 -.143E+04   0.174E-04 -.579E+00 0.143E+04   -.324E-05 0.121E-01 -.465E+01
   -.176E-01 0.123E-01 -.396E+03   0.217E-01 -.148E-01 0.396E+03   -.419E-02 0.899E-03 0.387E+00
   0.545E-05 -.126E-04 -.397E+03   -.602E-05 0.141E-04 0.397E+03   0.105E-05 -.101E-06 0.193E+00
   -.127E-01 0.161E-05 0.606E+03   0.104E-01 -.831E-06 -.606E+03   0.292E-02 -.126E-05 -.101E+00
   0.366E-05 0.467E-01 0.606E+03   -.622E-05 -.458E-01 -.606E+03   0.199E-05 -.135E-02 -.907E-01
   0.101E-02 0.857E-02 0.163E+04   -.158E-02 -.917E-02 -.163E+04   0.711E-03 0.757E-03 0.310E+01
   0.113E-04 -.523E-05 0.163E+04   -.339E-06 -.999E-06 -.163E+04   -.106E-04 0.439E-05 0.310E+01
   -.460E+00 -.186E-04 -.143E+04   0.480E+00 0.173E-04 0.143E+04   -.222E-01 -.853E-06 -.467E+01
   0.395E-04 -.566E+00 -.143E+04   -.376E-04 0.579E+00 0.143E+04   -.353E-05 -.121E-01 -.465E+01
   -.176E-01 -.123E-01 -.396E+03   0.217E-01 0.148E-01 0.396E+03   -.418E-02 -.899E-03 0.387E+00
   0.724E-05 0.179E-04 -.398E+03   -.109E-04 -.167E-04 0.398E+03   0.198E-05 -.128E-06 0.183E+00
   0.604E-04 -.427E-03 0.196E+02   0.284E-13 -.227E-12 0.114E-11   -.471E-04 0.390E-03 -.173E+02

 POSITION                                       TOTAL-FORCE (eV/Angst)
      4.17455      4.17455     16.81933         0.000106      0.000138     -0.014334
      0.00000      4.17455     16.81943        -0.000126      0.000114     -0.017220
      4.17456      8.34911     16.81942        -0.000135      0.000112     -0.017280
      8.34911      8.34911     16.81938         0.000106      0.000143     -0.015836
      4.17456      5.06681     17.44376        -0.000003      0.034156      0.025634
      4.17456      3.28230     17.44376        -0.000003     -0.034281      0.025713
      5.07347      4.17456     16.19937        -0.001307     -0.000007     -0.006455
      3.27564      4.17456     16.19937         0.001216     -0.000006     -0.006511
      7.45693      4.17456     17.44391        -0.035644     -0.000006      0.025439
      0.89218      4.17456     17.44391         0.035759     -0.000007      0.025519
      8.34911      5.07339     16.19932         0.000006     -0.000846     -0.004864
      8.34911      3.27572     16.19933         0.000007      0.000737     -0.004929
      3.28240      0.00000     17.44393        -0.035786     -0.000006      0.025265
      5.06671      0.00000     17.44393         0.035906     -0.000006      0.025339
      4.17455      0.89875     16.19922         0.000006     -0.000048     -0.004713
      4.17455      7.45036     16.19923         0.000006     -0.000054     -0.004775
      0.00000      0.89217     17.44387        -0.000005      0.035525      0.025492
      0.00000      7.45694     17.44387        -0.000007     -0.035652      0.025571
      0.89885      0.00000     16.19933        -0.000929     -0.000007     -0.005768
      7.45026      0.00000     16.19933         0.000830     -0.000006     -0.005827
      2.08728      0.00000      7.50000         0.000131      0.000001      0.309996
      4.17456      2.08728      7.50000         0.000000      0.000123      0.310438
      2.08728      2.08728      9.58728         0.001081      0.001343      0.044468
      4.17456      0.00000      9.58728         0.000002      0.000002      0.052275
      2.08730      8.34911     11.68806        -0.001054      0.000006      0.009931
      4.17456      2.08739     11.68852         0.000002      0.000479      0.005320
      2.08746      2.08727     13.75533        -0.003806     -0.000303      0.076324
      4.17456      0.00000     13.76973         0.000001      0.000000      0.112219
      2.08728      4.17456      7.50000         0.000144     -0.000004      0.310502
      4.17456      6.26183      7.50000         0.000002     -0.000113      0.310445
      2.08728      6.26183      9.58728         0.001083     -0.001344      0.044465
      4.17456      4.17456      9.58728         0.000001     -0.000002      0.053668
      2.08724      4.17456     11.68883        -0.001421     -0.000004      0.005576
      4.17456      6.26172     11.68852         0.000004     -0.000477      0.005314
      2.08746      6.26184     13.75533        -0.003803      0.000301      0.076313
      4.17456      4.17456     13.77061         0.000004     -0.000000      0.110873
      6.26183      0.00000      7.50000        -0.000139     -0.000005      0.309986
      0.00000      2.08728      7.50000         0.000003      0.000155      0.309891
      6.26183      2.08728      9.58728        -0.001084      0.001342      0.044465
      0.00000      0.00000      9.58728         0.000002      0.000002      0.052300
      6.26181      0.00000     11.68806         0.001049      0.000002      0.009928
      8.34911      2.08736     11.68799         0.000002      0.000521      0.013615
      6.26166      2.08727     13.75533         0.003805     -0.000300      0.076299
      0.00000      8.34911     13.76990         0.000001      0.000000      0.108380
      6.26183      4.17456      7.50000        -0.000145      0.000000      0.310460
      0.00000      6.26183      7.50000        -0.000005     -0.000155      0.309885
      6.26183      6.26183      9.58728        -0.001083     -0.001343      0.044466
      0.00000      4.17456      9.58728         0.000000     -0.000004      0.054648
      6.26187      4.17456     11.68883         0.001422      0.000000      0.005573
      0.00000      6.26175     11.68799        -0.000001     -0.000523      0.013610
      6.26166      6.26184     13.75533         0.003804      0.000301      0.076290
      0.00000      4.17456     13.77110        -0.000002     -0.000001      0.105293
      2.08728      0.00000      9.58728        -0.000173      0.000001      0.067657
      4.17456      2.08728      9.58728         0.000001     -0.000319      0.067970
      2.08728      2.08728      7.50000        -0.000239     -0.000258     -0.591362
      4.17456      0.00000      7.50000         0.000005     -0.000001     -0.591652
      2.08763      8.34911     13.80820        -0.002189      0.000002      0.046828
      4.17456      2.08782     13.80927         0.000001     -0.006498      0.040794
      2.08736      2.08749     11.68119         0.000632     -0.001606      0.005773
      4.17456      8.34911     11.68239        -0.000001     -0.000003      0.011212
[...]
      0.00000      2.08728      9.58728         0.000002      0.000572      0.067793
      6.26183      2.08728      7.50000         0.000237     -0.000255     -0.591383
      0.00000      0.00000      7.50000         0.000000     -0.000001     -0.591330
      6.26148      8.34911     13.80820         0.002188     -0.000001      0.046826
      0.00000      2.08680     13.80849        -0.000001      0.003591      0.047142
      6.26175      2.08749     11.68119        -0.000631     -0.001601      0.005774
      8.34911      8.34911     11.68233         0.000001      0.000002      0.008208
      6.26183      4.17456      9.58728         0.001052     -0.000000      0.068660
      0.00000      6.26183      9.58728        -0.000000     -0.000572      0.067792
      6.26183      6.26183      7.50000         0.000236      0.000260     -0.591371
      0.00000      4.17456      7.50000         0.000000     -0.000001     -0.591627
      6.26247      4.17456     13.80967        -0.008961     -0.000002      0.040877
      0.00000      6.26231     13.80849        -0.000003     -0.003588      0.047147
      6.26175      6.26162     11.68119        -0.000634      0.001604      0.005773
      0.00000      4.17456     11.68335        -0.000002      0.000001      0.001217
    total drift:                                0.000009     -0.000015      0.020764

  FREE ENERGIE OF THE ION-ELECTRON SYSTEM (eV)
  free  energy   TOTEN  =      -549.52132979 eV

  energy  without entropy=     -549.52132979  energy(sigma->0) =     -549.52132979