 vasp.6.3.0 20Jan22 (build Apr  1 2022 16:44:48) complex
 executed on        HPECrayEX_GCC date 2022.10.26  06:17:13

 INCAR:
   SYSTEM = MgO-rocksalt
   ISMEAR = 0
   SIGMA = 0.05
   EDIFF = 1E-7
   ALGO = ALL
   ISTART = 0
   IBRION = 2
   NSW = 1000
   ISYM = 0
   ISIF = 2
   EDIFFG = -0.01
   DIPOL = 0.5 0.5 0.5
   IDIPOL = 3
   LDIPOL = .TRUE.
   GGA = PE
   IVDW = 1
   VDW_C6 = 1.75 0.70 0.63 0.70
   VDW_R0 = 1.452 1.342 1.243 1.342
   ENCUT = 600
   PREC = Accurate
   LASPH = .TRUE.
   LREAL = .FALSE.
   ISPIN = 1
   NELM = 200
   NELMIN = 8
   NCORE = 8
   KPAR = 1
   LWAVE = .FALSE.
   LCHARG = .FALSE.

 POTCAR:    PAW_PBE C 08Apr2002
 POTCAR:    PAW_PBE O 08Apr2002
 POTCAR:    PAW_PBE Mg_pv 13Apr2007
 POTCAR:    PAW_PBE O 08Apr2002
 POTCAR:    PAW_PBE C 08Apr2002
   VRHFIN =C: s2p2

   TITEL  = PAW_PBE C 08Apr2002
   POMASS =   12.011; ZVAL   =    4.000    mass and valenz
   ENMAX  =  400.000; ENMIN  =  300.000 eV

[...]

   TITEL  = PAW_PBE Mg_pv 13Apr2007
   POMASS =   24.305; ZVAL   =    8.000    mass and valenz
   ENMAX  =  403.929; ENMIN  =  302.947 eV

   TITEL  = PAW_PBE O 08Apr2002
   POMASS =   16.000; ZVAL   =    6.000    mass and valenz
   ENMAX  =  400.000; ENMIN  =  300.000 eV

  PAW_PBE C 08Apr2002                   :
  PAW_PBE O 08Apr2002                   :
  PAW_PBE Mg_pv 13Apr2007               :
  PAW_PBE O 08Apr2002                   :

 POSCAR:  C  O Mg  O
  positions in direct lattice
 exchange correlation table for  LEXCH =        8
   RHO(1)=    0.500       N(1)  =     2000
   RHO(2)=  100.500       N(2)  =     4000

 ion  position               nearest neighbor table
   1  0.500  0.250  0.717-   2 1.18   3 1.18  41 1.41
   2  0.500  0.377  0.740-   1 1.18  19 2.21
   3  0.500  0.123  0.740-   1 1.18  11 2.21
   4  0.250  0.000  0.351-  36 2.12  38 2.12  39 2.12  46 2.12  55 2.12
   5  0.500  0.250  0.351-  37 2.12  38 2.12  39 2.12  47 2.12  54 2.12
   6  0.250  0.250  0.450-  38 2.12  37 2.12  36 2.12  44 2.12  53 2.12  42 2.12
   7  0.500  0.000  0.450-  39 2.12  37 2.12  36 2.12  45 2.12  52 2.12  43 2.12
   8  0.250  0.000  0.550-  42 2.12  43 2.12  50 2.12  59 2.12  36 2.13  40 2.15
   9  0.500  0.250  0.550-  42 2.12  43 2.12  51 2.12  58 2.12  37 2.13  41 2.15
  10  0.250  0.250  0.649-  42 2.11  41 2.12  40 2.12  48 2.12  57 2.12
  11  0.500  0.000  0.649-  43 2.11  41 2.12  40 2.12  49 2.12  56 2.12   3 2.21
  12  0.250  0.500  0.351-  44 2.12  38 2.12  46 2.12  47 2.12  63 2.12
  13  0.500  0.750  0.351-  45 2.12  39 2.12  46 2.12  47 2.12  62 2.12
  14  0.250  0.750  0.450-  46 2.12  44 2.12  45 2.12  36 2.12  61 2.12  50 2.12
  15  0.500  0.500  0.450-  47 2.12  44 2.12  45 2.12  37 2.12  60 2.12  51 2.12
  16  0.250  0.500  0.550-  42 2.12  50 2.12  51 2.12  67 2.12  44 2.13  48 2.15
  17  0.500  0.750  0.550-  43 2.12  50 2.12  51 2.12  66 2.12  45 2.13  49 2.15
  18  0.250  0.750  0.649-  50 2.11  48 2.12  49 2.12  40 2.12  65 2.12
  19  0.500  0.500  0.649-  51 2.11  48 2.12  49 2.12  41 2.12  64 2.12   2 2.21
  20  0.750  0.000  0.351-  52 2.12  39 2.12  54 2.12  55 2.12  62 2.12
  21  0.000  0.250  0.351-  53 2.12  38 2.12  54 2.12  55 2.12  63 2.12
  22  0.750  0.250  0.450-  54 2.12  52 2.12  53 2.12  37 2.12  60 2.12  58 2.12
  23  0.000  0.000  0.450-  55 2.12  52 2.12  53 2.12  36 2.12  61 2.12  59 2.12
  24  0.750  0.000  0.550-  43 2.12  58 2.12  59 2.12  66 2.12  52 2.13  56 2.15
  25  0.000  0.250  0.550-  42 2.12  58 2.12  59 2.12  67 2.12  53 2.13  57 2.15
  26  0.750  0.250  0.649-  58 2.11  56 2.12  57 2.12  41 2.12  64 2.12
  27  0.000  0.000  0.649-  59 2.11  56 2.12  57 2.12  40 2.12  65 2.12
  28  0.750  0.500  0.351-  60 2.12  54 2.12  47 2.12  62 2.12  63 2.12
  29  0.000  0.750  0.351-  61 2.12  55 2.12  46 2.12  62 2.12  63 2.12
  30  0.750  0.750  0.450-  62 2.12  52 2.12  60 2.12  61 2.12  45 2.12  66 2.12
  31  0.000  0.500  0.450-  63 2.12  53 2.12  60 2.12  61 2.12  44 2.12  67 2.12
  32  0.750  0.500  0.550-  51 2.12  58 2.12  66 2.12  67 2.12  60 2.13  64 2.15
  33  0.000  0.750  0.550-  50 2.12  59 2.12  66 2.12  67 2.12  61 2.13  65 2.15
  34  0.750  0.750  0.649-  66 2.11  56 2.12  64 2.12  65 2.12  49 2.12
  35  0.000  0.500  0.649-  67 2.11  57 2.12  64 2.12  65 2.12  48 2.12
  36  0.250  0.000  0.450-   4 2.12   6 2.12   7 2.12  14 2.12  23 2.12   8 2.13
  37  0.500  0.250  0.450-   5 2.12   6 2.12   7 2.12  15 2.12  22 2.12   9 2.13
  38  0.250  0.250  0.351-   6 2.12   5 2.12   4 2.12  12 2.12  21 2.12
  39  0.500  0.000  0.351-   7 2.12   5 2.12   4 2.12  13 2.12  20 2.12
  40  0.250  0.000  0.651-  10 2.12  11 2.12  18 2.12  27 2.12   8 2.15
  41  0.500  0.250  0.651-   1 1.41  10 2.12  11 2.12  19 2.12  26 2.12   9 2.15
  42  0.250  0.250  0.550-  10 2.11   9 2.12   8 2.12  16 2.12  25 2.12   6 2.12
  43  0.500  0.000  0.550-  11 2.11   9 2.12   8 2.12  17 2.12  24 2.12   7 2.12
  44  0.250  0.500  0.450-  12 2.12   6 2.12  14 2.12  15 2.12  31 2.12  16 2.13
  45  0.500  0.750  0.450-  13 2.12   7 2.12  14 2.12  15 2.12  30 2.12  17 2.13
  46  0.250  0.750  0.351-  14 2.12  12 2.12  13 2.12   4 2.12  29 2.12
  47  0.500  0.500  0.351-  15 2.12  12 2.12  13 2.12   5 2.12  28 2.12
  48  0.250  0.500  0.651-  10 2.12  18 2.12  19 2.12  35 2.12  16 2.15
  49  0.500  0.750  0.651-  11 2.12  18 2.12  19 2.12  34 2.12  17 2.15
  50  0.250  0.750  0.550-  18 2.11  16 2.12  17 2.12   8 2.12  33 2.12  14 2.12
  51  0.500  0.500  0.550-  19 2.11  16 2.12  17 2.12   9 2.12  32 2.12  15 2.12
  52  0.750  0.000  0.450-  20 2.12   7 2.12  22 2.12  23 2.12  30 2.12  24 2.13
  53  0.000  0.250  0.450-  21 2.12   6 2.12  22 2.12  23 2.12  31 2.12  25 2.13
  54  0.750  0.250  0.351-  22 2.12  20 2.12  21 2.12   5 2.12  28 2.12
  55  0.000  0.000  0.351-  23 2.12  20 2.12  21 2.12   4 2.12  29 2.12
  56  0.750  0.000  0.651-  11 2.12  26 2.12  27 2.12  34 2.12  24 2.15
  57  0.000  0.250  0.651-  10 2.12  26 2.12  27 2.12  35 2.12  25 2.15
  58  0.750  0.250  0.550-  26 2.11  24 2.12  25 2.12   9 2.12  32 2.12  22 2.12
  59  0.000  0.000  0.550-  27 2.11  24 2.12  25 2.12   8 2.12  33 2.12  23 2.12
  60  0.750  0.500  0.450-  28 2.12  22 2.12  15 2.12  30 2.12  31 2.12  32 2.13
  61  0.000  0.750  0.450-  29 2.12  23 2.12  14 2.12  30 2.12  31 2.12  33 2.13
  62  0.750  0.750  0.351-  30 2.12  20 2.12  28 2.12  29 2.12  13 2.12
  63  0.000  0.500  0.351-  31 2.12  21 2.12  28 2.12  29 2.12  12 2.12
  64  0.750  0.500  0.651-  19 2.12  26 2.12  34 2.12  35 2.12  32 2.15
  65  0.000  0.750  0.651-  18 2.12  27 2.12  34 2.12  35 2.12  33 2.15
  66  0.750  0.750  0.550-  34 2.11  24 2.12  32 2.12  33 2.12  17 2.12  30 2.12
  67  0.000  0.500  0.550-  35 2.11  25 2.12  32 2.12  33 2.12  16 2.12  31 2.12

IMPORTANT INFORMATION: All symmetrisations will be switched off!
NOSYMM: (Re-)initialisation of all symmetry stuff for point group C_1.

                                     Primitive cell

  volume of cell :    1530.6606

  direct lattice vectors                    reciprocal lattice vectors
     8.467142631  0.000000000  0.000000000     0.118103597  0.000000000  0.000000000
     0.000000000  8.467142631  0.000000000     0.000000000  0.118103597  0.000000000
     0.000000000  0.000000000 21.350356973     0.000000000  0.000000000  0.046837624

  length of vectors
     8.467142631  8.467142631 21.350356973     0.118103597  0.118103597  0.046837624

  position of ions in fractional coordinates (direct lattice)
     0.500000000  0.250000000  0.716826613
     0.500000000  0.376591961  0.739547328
     0.500000000  0.123408039  0.739547328
     0.250000000  0.000000000  0.351282183
     0.500000000  0.250000000  0.351282183
     0.250000000  0.250000000  0.450427394
     0.500000000  0.000000000  0.450427394
     0.250000000  0.000000000  0.550191116
     0.500000000  0.250000000  0.550191116
     0.250000000  0.250000000  0.648532086
     0.500000000  0.000000000  0.648532086
     0.250000000  0.500000000  0.351282183
     0.500000000  0.750000000  0.351282183
     0.250000000  0.750000000  0.450427394
     0.500000000  0.500000000  0.450427394
     0.250000000  0.500000000  0.550191116
     0.500000000  0.750000000  0.550191116
     0.250000000  0.750000000  0.648532086
     0.500000000  0.500000000  0.648532086
     0.750000000  0.000000000  0.351282183
     0.000000000  0.250000000  0.351282183
     0.750000000  0.250000000  0.450427394
     0.000000000  0.000000000  0.450427394
     0.750000000  0.000000000  0.550191116
     0.000000000  0.250000000  0.550191116
     0.750000000  0.250000000  0.648532086
     0.000000000  0.000000000  0.648532086
     0.750000000  0.500000000  0.351282183
     0.000000000  0.750000000  0.351282183
     0.750000000  0.750000000  0.450427394
     0.000000000  0.500000000  0.450427394
     0.750000000  0.500000000  0.550191116
     0.000000000  0.750000000  0.550191116
     0.750000000  0.750000000  0.648532086
     0.000000000  0.500000000  0.648532086
     0.250000000  0.000000000  0.450427394
     0.500000000  0.250000000  0.450427394
     0.250000000  0.250000000  0.351282183
     0.500000000  0.000000000  0.351282183
     0.250000000  0.000000000  0.650785562
     0.500000000  0.250000000  0.650785562
     0.250000000  0.250000000  0.549814593
     0.500000000  0.000000000  0.549814593
     0.250000000  0.500000000  0.450427394
     0.500000000  0.750000000  0.450427394
     0.250000000  0.750000000  0.351282183
     0.500000000  0.500000000  0.351282183
     0.250000000  0.500000000  0.650785562
     0.500000000  0.750000000  0.650785562
     0.250000000  0.750000000  0.549814593
     0.500000000  0.500000000  0.549814593
     0.750000000  0.000000000  0.450427394
     0.000000000  0.250000000  0.450427394
     0.750000000  0.250000000  0.351282183
     0.000000000  0.000000000  0.351282183
     0.750000000  0.000000000  0.650785562
     0.000000000  0.250000000  0.650785562
     0.750000000  0.250000000  0.549814593
     0.000000000  0.000000000  0.549814593
     0.750000000  0.500000000  0.450427394
     0.000000000  0.750000000  0.450427394
     0.750000000  0.750000000  0.351282183
     0.000000000  0.500000000  0.351282183
     0.750000000  0.500000000  0.650785562
     0.000000000  0.750000000  0.650785562
     0.750000000  0.750000000  0.549814593
     0.000000000  0.500000000  0.549814593

  ion indices of the primitive-cell ions
   primitive index   ion index
                 1           1
                 2           2
                 3           3
                 4           4
                 5           5
                 6           6
                 7           7
                 8           8
                 9           9
                10          10
                11          11
                12          12
                13          13
                14          14
                15          15
                16          16
                17          17
                18          18
                19          19
                20          20
                21          21
                22          22
                23          23
                24          24
                25          25
                26          26
[...]
   4.23357132  4.23357132 13.84639155
   6.35035697  0.00000000  7.50000000
   0.00000000  2.11678566  7.50000000
   6.35035697  2.11678566  9.61678566
   0.00000000  0.00000000  9.61678566
   6.35035697  0.00000000 11.74677673
   0.00000000  2.11678566 11.74677673
   6.35035697  2.11678566 13.84639155
   0.00000000  0.00000000 13.84639155
   6.35035697  4.23357132  7.50000000
   0.00000000  6.35035697  7.50000000
   6.35035697  6.35035697  9.61678566
   0.00000000  4.23357132  9.61678566
   6.35035697  4.23357132 11.74677673
   0.00000000  6.35035697 11.74677673
   6.35035697  6.35035697 13.84639155
   0.00000000  4.23357132 13.84639155
   2.11678566  0.00000000  9.61678566
   4.23357132  2.11678566  9.61678566
   2.11678566  2.11678566  7.50000000
   4.23357132  0.00000000  7.50000000
   2.11678566  0.00000000 13.89450407
   4.23357132  2.11678566 13.89450407
   2.11678566  2.11678566 11.73873783
   4.23357132  0.00000000 11.73873783
   2.11678566  4.23357132  9.61678566
   4.23357132  6.35035697  9.61678566
   2.11678566  6.35035697  7.50000000
   4.23357132  4.23357132  7.50000000
   2.11678566  4.23357132 13.89450407
   4.23357132  6.35035697 13.89450407
   2.11678566  6.35035697 11.73873783
   4.23357132  4.23357132 11.73873783
   6.35035697  0.00000000  9.61678566
   0.00000000  2.11678566  9.61678566
   6.35035697  2.11678566  7.50000000
   0.00000000  0.00000000  7.50000000
   6.35035697  0.00000000 13.89450407
   0.00000000  2.11678566 13.89450407
   6.35035697  2.11678566 11.73873783
   0.00000000  0.00000000 11.73873783
   6.35035697  4.23357132  9.61678566
   0.00000000  6.35035697  9.61678566
   6.35035697  6.35035697  7.50000000
   0.00000000  4.23357132  7.50000000
   6.35035697  4.23357132 13.89450407
   0.00000000  6.35035697 13.89450407
   6.35035697  6.35035697 11.73873783
   0.00000000  4.23357132 11.73873783

--------------------------------------- Iteration      FINAL  ---------------------------------------

--------------------OUTCAR has been truncated-------------------------

[...]

--------------------OUTCAR has been truncated-------------------------

  Number of pair interactions contributing to vdW energy:  787009
  Edisp (eV):   -3.75684

  FORCE on cell =-STRESS in cart. coord.  units (eV):
  Direction    XX          YY          ZZ          XY          YZ          ZX
  Alpha Z   920.36442   920.36442   920.36442
  Ewald  159012.37749159890.93870************    -0.00003    -0.00634    -0.00001
  Hartree169517.39586170027.60213************    -0.00002    -0.00027    -0.00002
  E(xc)   -2532.47660 -2530.71399 -2536.07651    -0.00000    -0.00002     0.00000
  Local  ************************338457.16085     0.00004     0.00504     0.00003
  n-local -2862.23029 -2866.62270 -2885.77731     0.00000     0.00022    -0.00000
  augment  1060.68640  1059.48129  1052.92616     0.00000     0.00001     0.00000
  Kinetic  7642.93098  7603.69833  7674.65271     0.00000     0.00048    -0.00000
  Fock        0.00000     0.00000     0.00000     0.00000     0.00000     0.00000
  vdW        -5.39957    -5.26561    -4.37644    -0.00000     0.00000     0.00000
  Total     -24.89025   -26.88886    -2.63240     0.00000    -0.00088    -0.00000
  in kB     -26.05319   -28.14519    -2.75540     0.00000    -0.00092    -0.00000

 VOLUME and BASIS-vectors are now :
  energy-cutoff  :      600.00
  volume of cell :     1530.66
      direct lattice vectors                 reciprocal lattice vectors
     8.467142631  0.000000000  0.000000000     0.118103597  0.000000000  0.000000000
     0.000000000  8.467142631  0.000000000     0.000000000  0.118103597  0.000000000
     0.000000000  0.000000000 21.350356973     0.000000000  0.000000000  0.046837624

  length of vectors
     8.467142631  8.467142631 21.350356973     0.118103597  0.118103597  0.046837624

 FORCES acting on ions:
    Electron-Ion                     Ewald-Force                    Non-Local-Force
   0.483E-04 -.103E-01 -.109E+04   -.488E-04 0.127E-01 0.110E+04   0.530E-06 -.134E-03 -.228E+01
   0.209E-04 -.223E+03 -.179E+04   -.200E-04 0.265E+03 0.182E+04   0.186E-07 -.425E+02 -.273E+02
   0.669E-05 0.223E+03 -.179E+04   -.361E-05 -.265E+03 0.182E+04   -.277E-05 0.425E+02 -.273E+02
   0.143E-01 0.784E+00 0.209E+04   -.136E-01 -.820E+00 -.208E+04   -.107E-02 0.258E-01 -.707E+01
   -.114E-04 0.991E-05 0.209E+04   0.118E-04 -.888E-05 -.208E+04   -.275E-06 -.721E-06 -.689E+01
   0.252E+01 0.234E-04 0.747E+03   -.256E+01 -.186E-04 -.748E+03   0.191E-01 -.351E-05 0.773E+00
   -.506E-04 0.622E+01 0.743E+03   0.533E-04 -.650E+01 -.743E+03   -.207E-05 0.190E+00 0.617E+00
   0.513E+01 0.834E+01 -.587E+03   -.454E+01 -.856E+01 0.588E+03   -.597E+00 0.216E+00 -.129E+01
   -.164E-04 0.534E-04 -.568E+03   0.223E-04 -.565E-04 0.563E+03   -.565E-05 0.323E-05 0.470E+01
   0.469E+02 -.139E-04 -.187E+04   -.525E+02 0.115E-03 0.186E+04   0.555E+01 -.681E-04 0.694E+01
   -.214E-04 0.855E+02 -.188E+04   0.171E-04 -.885E+02 0.188E+04   0.414E-05 0.308E+01 0.131E+01
   0.144E-01 -.784E+00 0.209E+04   -.136E-01 0.820E+00 -.208E+04   -.107E-02 -.258E-01 -.707E+01
   -.117E-04 -.103E-04 0.209E+04   0.119E-04 0.956E-05 -.208E+04   -.193E-06 0.541E-06 -.707E+01
   -.116E+01 -.316E-04 0.743E+03   0.125E+01 0.260E-04 -.743E+03   -.651E-01 0.392E-05 0.435E+00
   -.564E-04 -.622E+01 0.743E+03   0.595E-04 0.650E+01 -.743E+03   -.222E-05 -.190E+00 0.617E+00
   0.513E+01 -.834E+01 -.587E+03   -.454E+01 0.856E+01 0.588E+03   -.597E+00 -.216E+00 -.129E+01
   -.264E-04 -.193E-03 -.595E+03   0.248E-04 0.176E-03 0.595E+03   0.220E-05 0.193E-04 -.505E+00
   0.277E+02 -.738E-04 -.195E+04   -.286E+02 0.457E-05 0.194E+04   0.891E+00 0.528E-04 0.629E+01
   -.286E-04 -.855E+02 -.188E+04   0.248E-04 0.885E+02 0.188E+04   0.335E-05 -.308E+01 0.131E+01
   -.143E-01 0.784E+00 0.209E+04   0.136E-01 -.820E+00 -.208E+04   0.107E-02 0.258E-01 -.707E+01
   0.112E-04 0.252E-05 0.209E+04   -.116E-04 -.146E-05 -.208E+04   0.293E-06 -.736E-06 -.694E+01
   -.252E+01 0.169E-04 0.747E+03   0.256E+01 -.122E-04 -.748E+03   -.191E-01 -.349E-05 0.773E+00
   0.432E-04 0.256E+01 0.746E+03   -.453E-04 -.271E+01 -.746E+03   0.161E-05 0.107E+00 0.121E+00
   -.513E+01 0.834E+01 -.587E+03   0.454E+01 -.856E+01 0.588E+03   0.597E+00 0.216E+00 -.129E+01
   -.639E-05 -.253E-04 -.566E+03   0.158E-05 0.281E-04 0.566E+03   0.522E-05 -.116E-05 0.575E-01
   -.469E+02 -.205E-04 -.187E+04   0.525E+02 0.120E-03 0.186E+04   -.555E+01 -.669E-04 0.694E+01
   -.442E-05 0.174E+02 -.196E+04   0.892E-05 -.182E+02 0.196E+04   -.422E-05 0.792E+00 0.617E+01
   -.144E-01 -.784E+00 0.209E+04   0.136E-01 0.820E+00 -.208E+04   0.107E-02 -.258E-01 -.707E+01
   0.116E-04 -.229E-05 0.209E+04   -.116E-04 0.145E-05 -.208E+04   0.801E-07 0.587E-06 -.704E+01
   0.116E+01 -.217E-04 0.743E+03   -.125E+01 0.156E-04 -.743E+03   0.651E-01 0.420E-05 0.435E+00
   0.521E-04 -.256E+01 0.746E+03   -.548E-04 0.271E+01 -.746E+03   0.199E-05 -.107E+00 0.121E+00
   -.513E+01 -.834E+01 -.587E+03   0.454E+01 0.856E+01 0.588E+03   0.597E+00 -.216E+00 -.129E+01
   -.103E-04 -.474E-04 -.590E+03   0.112E-04 0.278E-04 0.590E+03   -.116E-05 0.135E-04 -.211E+00
   -.277E+02 -.293E-04 -.195E+04   0.286E+02 -.371E-04 0.194E+04   -.891E+00 0.492E-04 0.629E+01
   -.226E-06 -.174E+02 -.196E+04   0.505E-05 0.182E+02 0.196E+04   -.356E-05 -.792E+00 0.617E+01
   0.246E+00 0.217E+01 0.557E+03   -.363E+00 -.226E+01 -.556E+03   0.155E+00 0.132E+00 -.325E+00
   -.348E-04 0.501E-04 0.568E+03   0.335E-04 -.482E-04 -.568E+03   0.172E-05 -.311E-05 0.537E+00
   0.178E+00 0.490E-05 0.157E+04   -.186E+00 -.375E-05 -.157E+04   0.119E-01 -.155E-05 0.354E+01
   -.848E-05 0.771E+00 0.157E+04   0.876E-05 -.819E+00 -.157E+04   -.508E-06 0.671E-01 0.349E+01
   0.366E+02 0.285E+02 -.145E+04   -.357E+02 -.286E+02 0.145E+04   -.905E+00 0.616E-01 -.529E+01
   -.253E-04 -.105E-02 -.122E+04   0.291E-04 0.162E-02 0.120E+04   -.271E-05 -.703E-03 0.229E+02
   0.325E+01 0.422E-04 -.427E+03   -.351E+01 -.384E-04 0.426E+03   0.254E+00 -.685E-05 0.918E+00
   -.219E-04 0.832E+01 -.455E+03   0.224E-04 -.869E+01 0.457E+03   -.117E-05 0.370E+00 -.179E+01
   0.246E+00 -.217E+01 0.557E+03   -.364E+00 0.226E+01 -.556E+03   0.155E+00 -.132E+00 -.325E+00
   -.389E-04 -.667E-04 0.554E+03   0.384E-04 0.612E-04 -.553E+03   0.389E-06 0.833E-05 -.282E+00
   -.138E+00 -.503E-05 0.157E+04   0.143E+00 0.400E-05 -.157E+04   -.767E-02 0.147E-05 0.345E+01
   -.908E-05 -.771E+00 0.157E+04   0.943E-05 0.819E+00 -.157E+04   -.510E-06 -.671E-01 0.349E+01
   0.366E+02 -.285E+02 -.145E+04   -.357E+02 0.286E+02 0.145E+04   -.905E+00 -.616E-01 -.529E+01
   -.588E-05 0.412E-04 -.145E+04   0.732E-05 -.856E-04 0.146E+04   -.271E-05 0.534E-04 -.413E+01
   0.270E+01 -.639E-04 -.436E+03   -.282E+01 0.457E-04 0.436E+03   0.121E+00 0.272E-04 0.409E+00
   -.177E-04 -.832E+01 -.455E+03   0.176E-04 0.869E+01 0.457E+03   -.646E-06 -.370E+00 -.179E+01
   -.246E+00 0.217E+01 0.557E+03   0.363E+00 -.226E+01 -.556E+03   -.155E+00 0.132E+00 -.325E+00
   0.307E-04 0.350E-05 0.563E+03   -.292E-04 -.221E-05 -.563E+03   -.186E-05 -.164E-05 0.345E+00
   -.178E+00 0.427E-05 0.157E+04   0.186E+00 -.308E-05 -.157E+04   -.119E-01 -.163E-05 0.354E+01
   0.819E-05 0.455E+00 0.157E+04   -.851E-05 -.490E+00 -.157E+04   0.510E-06 0.475E-01 0.348E+01
   -.366E+02 0.285E+02 -.145E+04   0.357E+02 -.286E+02 0.145E+04   0.905E+00 0.616E-01 -.529E+01
   -.258E-04 -.409E-04 -.148E+04   0.266E-04 0.718E-04 0.148E+04   -.164E-05 -.394E-04 -.528E+01
   -.325E+01 0.415E-04 -.427E+03   0.351E+01 -.390E-04 0.426E+03   -.254E+00 -.600E-05 0.918E+00
   -.950E-05 0.600E+01 -.433E+03   0.113E-04 -.606E+01 0.432E+03   -.696E-06 0.658E-01 0.142E+00
   -.246E+00 -.217E+01 0.557E+03   0.364E+00 0.226E+01 -.556E+03   -.155E+00 -.132E+00 -.325E+00
   0.339E-04 -.239E-06 0.558E+03   -.335E-04 -.565E-05 -.558E+03   -.186E-06 0.799E-05 -.462E-01
   0.138E+00 -.431E-05 0.157E+04   -.143E+00 0.324E-05 -.157E+04   0.767E-02 0.149E-05 0.345E+01
   0.894E-05 -.455E+00 0.157E+04   -.926E-05 0.490E+00 -.157E+04   0.531E-06 -.475E-01 0.348E+01
   -.366E+02 -.285E+02 -.145E+04   0.357E+02 0.286E+02 0.145E+04   0.905E+00 -.616E-01 -.529E+01
   -.191E-04 0.339E-04 -.149E+04   0.200E-04 -.758E-04 0.150E+04   0.116E-06 0.537E-04 -.516E+01
   -.270E+01 -.380E-04 -.436E+03   0.282E+01 0.182E-04 0.436E+03   -.121E+00 0.282E-04 0.409E+00
   0.723E-05 -.600E+01 -.433E+03   -.665E-05 0.606E+01 0.432E+03   0.198E-06 -.658E-01 0.142E+00
   0.148E-04 -.222E-02 0.552E+02   -.318E-12 -.348E-12 0.125E-11   -.162E-04 0.222E-02 -.552E+02

 POSITION                                       TOTAL-FORCE (eV/Angst)
      4.23357      2.11677     15.44274         0.000000      0.002181     -0.004740
      4.23357      3.27080     15.93662         0.000001     -0.009166      0.000467
      4.23357      0.96278     15.93661         0.000000      0.007115      0.001313
      2.11679      0.00000      7.50000        -0.000332     -0.010050      0.400516
      4.23357      2.11679      7.50000         0.000000      0.000000      0.361835
      2.11679      2.11679      9.61679        -0.021661      0.000001     -0.020694
      4.23357      0.00000      9.61679         0.000001     -0.090560      0.070278
      2.13531     -0.00662     11.75928         0.000716     -0.000855     -0.000072
      4.23357      2.11679     11.69296         0.000000      0.000000      0.000328
      2.00199      2.11679     13.81234         0.000134      0.000032      0.001982
      4.23357     -0.09929     14.05083        -0.000000      0.001531      0.001451
      2.11679      4.23357      7.50000        -0.000332      0.010050      0.400517
      4.23357      6.35036      7.50000        -0.000000     -0.000000      0.404483
      2.11679      6.35036      9.61679         0.025236     -0.000002      0.053253
      4.23357      4.23357      9.61679         0.000001      0.090561      0.070279
      2.13531      4.24019     11.75928         0.000713      0.000858     -0.000065
      4.23357      6.35036     11.76697         0.000001      0.000002      0.001930
      2.09426      6.35036     13.84662         0.001330     -0.000016      0.002795
      4.23357      4.33287     14.05083        -0.000000     -0.001625      0.001612
      6.35036      0.00000      7.50000         0.000332     -0.010050      0.400517
      0.00000      2.11679      7.50000        -0.000000      0.000000      0.375057
      6.35036      2.11679      9.61679         0.021661      0.000001     -0.020692
      0.00000      0.00000      9.61679        -0.000000     -0.043398      0.055484
      6.33184     -0.00662     11.75928        -0.000716     -0.000855     -0.000071
     -0.00000      2.11679     11.71607         0.000000      0.000002     -0.003684
      6.46515      2.11679     13.81234        -0.000133      0.000032      0.001981
      0.00000     -0.02158     13.83710         0.000000      0.001587     -0.000540
      6.35036      4.23357      7.50000         0.000332      0.010050      0.400518
      0.00000      6.35036      7.50000         0.000000     -0.000000      0.400508
      6.35036      6.35036      9.61679        -0.025236     -0.000002      0.053254
      0.00000      4.23357      9.61679        -0.000001      0.043399      0.055487
      6.33184      4.24019     11.75928        -0.000713      0.000858     -0.000065
      0.00000      6.35036     11.73312        -0.000000     -0.000006     -0.003526
      6.37288      6.35036     13.84662        -0.001334     -0.000017      0.002792
      0.00000      4.25515     13.83710         0.000001     -0.001584     -0.000531
      2.11679      0.00000      9.61679         0.037515      0.040368      0.050486
      4.23357      2.11679      9.61679         0.000000     -0.000001     -0.041719
      2.11679      2.11679      7.50000         0.003431     -0.000000     -0.462297
      4.23357      0.00000      7.50000        -0.000000      0.019064     -0.476077
      2.09832      0.01164     13.86780        -0.000426     -0.001060      0.003119
      4.23357      2.11679     13.98006         0.000001     -0.000135      0.005520
      2.13683      2.11679     11.74584        -0.000593     -0.000003      0.000549
      4.23357      0.01918     11.76415        -0.000001     -0.000426      0.000596
      2.11679      4.23357      9.61679         0.037514     -0.040368      0.050484
      4.23357      6.35036      9.61679        -0.000000      0.000003      0.101946
      2.11679      6.35036      7.50000        -0.002256      0.000000     -0.485863
      4.23357      4.23357      7.50000        -0.000000     -0.019064     -0.476078
      2.09832      4.22193     13.86780        -0.000460      0.001080      0.003073
      4.23357      6.35036     13.91107        -0.000001      0.000009      0.003876
      2.12194      6.35036     11.73897        -0.000981      0.000009      0.002293
      4.23357      4.21439     11.76415        -0.000001      0.000423      0.000601
      6.35036      0.00000      9.61679        -0.037514      0.040369      0.050488
      0.00000      2.11679      9.61679        -0.000000     -0.000000      0.039359
      6.35036      2.11679      7.50000        -0.003431     -0.000000     -0.462297
      0.00000      0.00000      7.50000         0.000000      0.013356     -0.479266
      6.36883      0.01164     13.86780         0.000426     -0.001057      0.003119
      0.00000      2.11679     13.85755        -0.000001     -0.000009      0.001030
      6.33031      2.11679     11.74584         0.000593     -0.000003      0.000548
     -0.00000      0.00448     11.72580         0.000001      0.000590      0.000423
      6.35036      4.23357      9.61679        -0.037514     -0.040369      0.050485
      0.00000      6.35036      9.61679         0.000000      0.000002      0.009160
      6.35036      6.35036      7.50000         0.002256      0.000000     -0.485864
      0.00000      4.23357      7.50000         0.000000     -0.013355     -0.479267
      6.36883      4.22193     13.86780         0.000459      0.001078      0.003075
      0.00000      6.35036     13.87360         0.000001      0.000012      0.001832
      6.34520      6.35036     11.73897         0.000981      0.000008      0.002291
     -0.00000      4.22910     11.72580         0.000001     -0.000597      0.000417
    total drift:                               -0.000001     -0.000001      0.014843

  FREE ENERGIE OF THE ION-ELECTRON SYSTEM (eV)
  free  energy   TOTEN  =      -399.14772335 eV

  energy  without entropy=     -399.14772335  energy(sigma->0) =     -399.14772335

 d Force = 0.1309365E-04[ 0.464E-05, 0.216E-04]  d Energy = 0.1312202E-04-0.284E-07
 d Force = 0.6828110E+01[ 0.683E+01, 0.683E+01]  d Ewald  = 0.6828110E+01 0.721E-08

 reached required accuracy - stopping structural energy minimisation