 vasp.6.3.0 20Jan22 (build Mar 11 2022 13:48:16) complex

 executed on             LinuxIFC date 2023.12.26  18:01:47

 INCAR:
   SYSTEM = MgO-rocksalt
   ISMEAR = 0
   SIGMA = 0.05
   EDIFF = 1E-6
   ALGO = ALL
   ISTART = 0
   IBRION = -1
   NSW = 0
   ISYM = 0
   DIPOL = 0.5 0.5 0.5
   IDIPOL = 3
   LDIPOL = .TRUE.
   LHFCALC = .TRUE.
   GGA = B5
   AEXX = 0.2
   AGGAX = 0.72
   AGGAC = 0.81
   ALDAC = 0.19
   IVDW = 1
   VDW_S6 = 1.05
   VDW_C6 = 1.75 0.14 0.63 0.70
   VDW_R0 = 1.452 1.001 1.243 1.342
   ENCUT = 520
   PREC = Accurate
   LASPH = .TRUE.
   LREAL = Auto
   ISPIN = 1
   NELM = 200
   NELMIN = 8
   NCORE = 2
   KPAR = 1
   LWAVE = .FALSE.
   LCHARG = .FALSE.

 POTCAR:    PAW_PBE C 08Apr2002
 POTCAR:    PAW_PBE H 15Jun2001
 POTCAR:    PAW_PBE Mg_pv 13Apr2007
 POTCAR:    PAW_PBE O 08Apr2002
|           W    W    AA    RRRRR   N    N  II  N    N   GGGG   !!!           |
|           W    W   A  A   R    R  NN   N  II  NN   N  G    G  !!!           |
|           W    W  A    A  R    R  N N  N  II  N N  N  G       !!!           |
|           W WW W  AAAAAA  RRRRR   N  N N  II  N  N N  G  GGG   !            |
|           WW  WW  A    A  R   R   N   NN  II  N   NN  G    G                |
|           W    W  A    A  R    R  N    N  II  N    N   GGGG   !!!           |
|     For optimal performance we recommend to set                             |
|       NCORE = 2 up to number-of-cores-per-socket                            |
|     This setting can greatly improve the performance of VASP for DFT.       |
|     The default, NCORE=1 might be grossly inefficient on modern             |
|     multi-core architectures or massively parallel machines. Do your        |
|     Unfortunately you need to use the default for GW and RPA                |
|     calculations (for HF NCORE is supported but not extensively tested      |
|     yet).                                                                   |

   TITEL  = PAW_PBE C 08Apr2002
   POMASS =   12.011; ZVAL   =    4.000    mass and valenz
   ENMAX  =  400.000; ENMIN  =  300.000 eV

   TITEL  = PAW_PBE H 15Jun2001
   POMASS =    1.000; ZVAL   =    1.000    mass and valenz
   ENMAX  =  250.000; ENMIN  =  200.000 eV

   TITEL  = PAW_PBE Mg_pv 13Apr2007
   POMASS =   24.305; ZVAL   =    8.000    mass and valenz
   ENMAX  =  403.929; ENMIN  =  302.947 eV

   TITEL  = PAW_PBE O 08Apr2002
   POMASS =   16.000; ZVAL   =    6.000    mass and valenz
   ENMAX  =  400.000; ENMIN  =  300.000 eV

 Optimization of the real space projectors (new method)

 maximal supplied QI-value         = 25.13
 optimisation between [QCUT,QGAM] = [ 11.56, 23.12] = [ 37.43,149.72] Ry
 Optimized for a Real-space Cutoff    1.04 Angstroem

   l    n(q)    QCUT    max X(q) W(low)/X(q) W(high)/X(q)  e(spline)
   0      7    11.561   115.676    0.20E-03    0.60E-03    0.21E-06
   0      7    11.561    87.132    0.20E-03    0.59E-03    0.21E-06
   1      7    11.561     4.429    0.23E-03    0.35E-03    0.15E-06
   1      7    11.561     2.733    0.18E-03    0.25E-03    0.12E-06
 Optimization of the real space projectors (new method)

[...]

   l    n(q)    QCUT    max X(q) W(low)/X(q) W(high)/X(q)  e(spline)
   1      8    11.527     2.974    0.44E-04    0.56E-04    0.12E-06
   1      8    11.527     4.279    0.12E-03    0.12E-03    0.26E-06
   0      9    11.527    16.381    0.46E-04    0.64E-04    0.78E-07
   0      9    11.527     5.611    0.26E-04    0.43E-04    0.55E-07
   2      8    11.527     4.652    0.22E-03    0.72E-04    0.47E-07
 Optimization of the real space projectors (new method)

 maximal supplied QI-value         = 24.76
 optimisation between [QCUT,QGAM] = [ 11.64, 23.27] = [ 37.91,151.63] Ry
 Optimized for a Real-space Cutoff    1.14 Angstroem

   l    n(q)    QCUT    max X(q) W(low)/X(q) W(high)/X(q)  e(spline)
   0      8    11.635    20.381    0.10E-03    0.33E-03    0.24E-06
   0      8    11.635    15.268    0.11E-03    0.35E-03    0.26E-06
   1      7    11.635     5.964    0.24E-03    0.31E-03    0.30E-06
   1      7    11.635     5.382    0.22E-03    0.25E-03    0.26E-06
|               ----> ADVICE to this user running VASP <----                  |
|     You enforced a specific xc type in the INCAR file but a different       |
|     type was found in the POTCAR file.                                      |
|     I HOPE YOU KNOW WHAT YOU ARE DOING!                                     |

  PAW_PBE C 08Apr2002                   :
  PAW_PBE H 15Jun2001                   :
  PAW_PBE Mg_pv 13Apr2007               :
  PAW_PBE O 08Apr2002                   :

 POSCAR:  C  H Mg  O
  positions in direct lattice
 exchange correlation table for  LEXCH =       12
   RHO(1)=    0.500       N(1)  =     2000
   RHO(2)=  100.500       N(2)  =     4000

 ion  position               nearest neighbor table
   1  0.478  0.469  0.794-   7 1.09   2 1.40   6 1.40
   2  0.560  0.459  0.793-   8 1.09   1 1.40   3 1.40
   3  0.593  0.383  0.795-   9 1.09   4 1.40   2 1.40
   4  0.543  0.317  0.799-  10 1.09   3 1.40   5 1.40
   5  0.461  0.327  0.800-  11 1.09   6 1.40   4 1.40
   6  0.429  0.403  0.798-  12 1.09   5 1.40   1 1.40
   7  0.453  0.528  0.793-   1 1.09
   8  0.599  0.510  0.789-   2 1.09
   9  0.657  0.375  0.793-   3 1.09
  10  0.569  0.258  0.800-   4 1.09
  11  0.423  0.276  0.803-   5 1.09
  12  0.365  0.411  0.799-   6 1.09
  13  0.125  0.000  0.351- 141 2.12 143 2.12 144 2.12 160 2.12 183 2.12
  14  0.250  0.125  0.351- 142 2.12 143 2.12 144 2.12 152 2.12 159 2.12
  15  0.125  0.125  0.450- 147 2.11 143 2.12 141 2.12 142 2.12 149 2.12 158 2.12
  16  0.250  0.000  0.450- 148 2.11 144 2.12 141 2.12 142 2.12 157 2.12 182 2.12
  17  0.125  0.000  0.550- 147 2.12 164 2.12 187 2.12 148 2.12 141 2.12 145 2.14
  18  0.250  0.125  0.550- 163 2.12 156 2.12 148 2.12 147 2.12 142 2.12 146 2.14
  19  0.125  0.125  0.648- 147 2.10 146 2.12 153 2.12 145 2.12 162 2.12
  20  0.250  0.000  0.648- 148 2.10 146 2.12 161 2.12 186 2.12 145 2.12
  21  0.125  0.250  0.351- 149 2.12 143 2.12 151 2.12 152 2.12 168 2.12
  22  0.250  0.375  0.351- 150 2.12 151 2.12 152 2.12 167 2.12 176 2.12
  23  0.125  0.375  0.450- 155 2.11 151 2.12 149 2.12 150 2.12 166 2.12 173 2.12
  24  0.250  0.250  0.450- 156 2.11 152 2.12 150 2.12 142 2.12 149 2.12 165 2.12
  25  0.125  0.250  0.550- 156 2.12 155 2.12 172 2.12 147 2.12 149 2.12 153 2.14
  26  0.250  0.375  0.550- 171 2.11 180 2.12 156 2.12 155 2.12 150 2.12 154 2.15
  27  0.125  0.375  0.648- 155 2.10 177 2.12 153 2.12 154 2.12 170 2.12
  28  0.250  0.250  0.648- 156 2.10 169 2.12 154 2.12 153 2.12 146 2.12
  29  0.375  0.000  0.351- 157 2.12 144 2.12 159 2.12 199 2.12 224 2.12
  30  0.000  0.125  0.351- 158 2.12 143 2.12 160 2.12 168 2.12 223 2.12
  31  0.375  0.125  0.450- 163 2.11 159 2.12 142 2.12 157 2.12 165 2.12 222 2.12
  32  0.000  0.000  0.450- 164 2.12 160 2.12 141 2.12 158 2.12 198 2.12 221 2.12
  33  0.375  0.000  0.550- 163 2.12 228 2.12 203 2.12 148 2.12 157 2.12 161 2.14
  34  0.000  0.125  0.550- 164 2.12 227 2.12 147 2.12 172 2.12 158 2.12 162 2.14
  35  0.375  0.125  0.648- 163 2.10 169 2.11 226 2.12 146 2.12 161 2.12
  36  0.000  0.000  0.648- 164 2.10 162 2.12 202 2.12 145 2.12 225 2.12
  37  0.375  0.250  0.351- 165 2.12 159 2.12 152 2.12 167 2.12 232 2.12
  38  0.000  0.375  0.351- 166 2.12 151 2.12 168 2.12 192 2.12 231 2.12
  39  0.375  0.375  0.450- 171 2.11 167 2.12 150 2.12 165 2.12 189 2.12 230 2.12
  40  0.000  0.250  0.450- 172 2.11 168 2.12 166 2.12 149 2.12 158 2.12 229 2.12
  41  0.375  0.250  0.550- 171 2.11 236 2.11 156 2.12 163 2.12 165 2.12 169 2.14
  42  0.000  0.375  0.550- 196 2.12 172 2.12 155 2.12 235 2.12 166 2.12 170 2.14
  43  0.376  0.375  0.648- 234 2.11 171 2.11 193 2.12 169 2.12 154 2.13
  44  0.000  0.250  0.648- 172 2.10 170 2.12 162 2.12 233 2.12 153 2.12
  45  0.125  0.500  0.351- 173 2.12 151 2.12 175 2.12 176 2.12 192 2.12
  46  0.250  0.625  0.351- 174 2.12 175 2.12 176 2.12 184 2.12 191 2.12
  47  0.125  0.625  0.450- 179 2.11 175 2.12 173 2.12 174 2.12 181 2.12 190 2.12
  48  0.250  0.500  0.450- 180 2.11 176 2.12 174 2.12 150 2.12 173 2.12 189 2.12
  49  0.125  0.500  0.550- 180 2.12 155 2.12 196 2.12 179 2.12 173 2.12 177 2.14
  50  0.250  0.625  0.550- 180 2.12 195 2.12 179 2.12 188 2.12 174 2.12 178 2.14
  51  0.125  0.625  0.648- 179 2.10 178 2.12 177 2.12 194 2.12 185 2.12
  52  0.250  0.500  0.647- 180 2.09 193 2.11 154 2.12 177 2.12 178 2.12
  53  0.125  0.750  0.351- 181 2.12 175 2.12 183 2.12 184 2.12 200 2.12
  54  0.250  0.875  0.351- 182 2.12 144 2.12 183 2.12 184 2.12 199 2.12
  55  0.125  0.875  0.450- 187 2.11 183 2.12 182 2.12 141 2.12 181 2.12 198 2.12
  56  0.250  0.750  0.450- 188 2.11 184 2.12 182 2.12 174 2.12 181 2.12 197 2.12
  57  0.125  0.750  0.550- 188 2.12 204 2.12 179 2.12 187 2.12 181 2.12 185 2.14
  58  0.250  0.875  0.550- 148 2.12 188 2.12 203 2.12 187 2.12 182 2.12 186 2.14
  59  0.125  0.875  0.648- 187 2.10 185 2.12 145 2.12 186 2.12 202 2.12
  60  0.250  0.750  0.648- 188 2.10 178 2.12 201 2.12 185 2.12 186 2.12
[...]
 254  0.500  0.625  0.450- 126 2.12 111 2.12  63 2.12 128 2.12 136 2.12 130 2.12
 255  0.875  0.625  0.351- 127 2.12 110 2.12 125 2.12  62 2.12 133 2.12
 256  0.500  0.500  0.351- 128 2.12 102 2.12 109 2.12 126 2.12  61 2.12
 257  0.875  0.500  0.650- 131 2.12  68 2.12 107 2.12 116 2.12 129 2.14
 258  0.500  0.625  0.650- 140 2.12 115 2.12  67 2.12 132 2.13 130 2.15
 259  0.875  0.625  0.549- 131 2.10 127 2.11  66 2.12 137 2.12 114 2.12 129 2.12
 260  0.500  0.500  0.549- 130 2.11 128 2.11  65 2.11 113 2.11 132 2.12 106 2.12
 261  0.875  0.750  0.450- 133 2.12 120 2.12 127 2.12  72 2.12 135 2.12 137 2.12
 262  0.500  0.875  0.450- 134 2.12  96 2.12 119 2.12  71 2.12 136 2.12 138 2.12
 263  0.875  0.875  0.351- 135 2.12  93 2.12 118 2.12 133 2.12  70 2.12
 264  0.500  0.750  0.351- 136 2.12 117 2.12 126 2.12 134 2.12  69 2.12
 265  0.875  0.750  0.650-  76 2.12 139 2.12 131 2.12 124 2.12 137 2.14
 266  0.500  0.875  0.650-  75 2.12 123 2.12 140 2.12 100 2.12 138 2.14
 267  0.875  0.875  0.549- 139 2.10 135 2.11  97 2.12  74 2.12 137 2.12 122 2.12
 268  0.500  0.750  0.549- 140 2.10 136 2.11  73 2.12 121 2.12 138 2.12 130 2.12

IMPORTANT INFORMATION: All symmetrisations will be switched off!
NOSYMM: (Re-)initialisation of all symmetry stuff for point group C_1.

                                     Primitive cell

  volume of cell :    6122.6422

  direct lattice vectors                    reciprocal lattice vectors
    16.934285261  0.000000000  0.000000000     0.059051798  0.000000000  0.000000000
     0.000000000 16.934285261  0.000000000     0.000000000  0.059051798  0.000000000
     0.000000000  0.000000000 21.350356973     0.000000000  0.000000000  0.046837624

  length of vectors
    16.934285261 16.934285261 21.350356973     0.059051798  0.059051798  0.046837624

  position of ions in fractional coordinates (direct lattice)
     0.478307706  0.468933165  0.794352240
     0.560256608  0.459006490  0.792658189
     0.592725152  0.382995775  0.794676435
     0.543248004  0.317059693  0.798568674
     0.461196777  0.326982986  0.800381812
     0.428805204  0.402861589  0.798137754
[...]
   0.00000000  4.23357132  9.61678566
   6.35238074  4.23603789 11.73847908
   0.00010639  6.35043457 11.73856659
   6.36050581  6.35234588 13.83394832
   0.00017899  4.23389752 13.82861802
   2.11678566  8.46714263  7.50000000
   4.23357132 10.58392829  7.50000000
   2.11678566 10.58392829  9.61678566
   4.23357132  8.46714263  9.61678566
   2.11684694  8.46706877 11.73759838
   4.23361847 10.58382867 11.73721228
   2.11694994 10.58418441 13.82805410
   4.23454300  8.46712713 13.82389907
   2.11678566 12.70071395  7.50000000
   4.23357132 14.81749960  7.50000000
   2.11678566 14.81749960  9.61678566
   4.23357132 12.70071395  9.61678566
   2.11681534 12.70098031 11.73813739
   4.23373866 14.81785119 11.73828486
   2.11710822 14.81788456 13.82883287
   4.23362775 12.70078202 13.82815618
[...]
   8.46714263 10.58392829  9.61678566
  14.81749960 10.58392829  7.50000000
   8.46714263  8.46714263  7.50000000
  14.81759179  8.46756868 13.87927720
   8.46733918 10.58393790 13.88684581
  14.81815988 10.58444689 11.73011230
   8.46696291  8.47244708 11.72976043
  14.81749960 12.70071395  9.61678566
   8.46714263 14.81749960  9.61678566
  14.81749960 14.81749960  7.50000000
   8.46714263 12.70071395  7.50000000
  14.81825369 12.70143515 13.87950151
   8.46722505 14.81743474 13.87999378
  14.81791888 14.81798347 11.73050523
   8.46710930 12.70039554 11.73085358

--------------------------------------- Iteration      FINAL  ---------------------------------------

--------------------OUTCAR has been truncated-------------------------

[...]

--------------------OUTCAR has been truncated-------------------------

  DFT-D2 method for vdW energy calculation

  Parameters of vdW forcefield:
         C6(Jnm^6/mol)     R0(A)
   C        1.750          1.452
   H        0.140          1.001
   Mg       0.630          1.243
   O        0.700          1.342

  vdW correction parametrized for the method           

  IVDW =   1
  VDW_RADIUS =    50.000 A
  VDW_S6 =     1.050
  VDW_SR =     1.000
  VDW_D =    20.000
  LVDW_EWALD = F

  Number of pair interactions contributing to vdW energy: 3111369
  Edisp (eV):  -20.70759

 VOLUME and BASIS-vectors are now :
  energy-cutoff  :      520.00
  volume of cell :     6122.64
      direct lattice vectors                 reciprocal lattice vectors
    16.934285261  0.000000000  0.000000000     0.059051798  0.000000000  0.000000000
     0.000000000 16.934285261  0.000000000     0.000000000  0.059051798  0.000000000
     0.000000000  0.000000000 21.350356973     0.000000000  0.000000000  0.046837624

  length of vectors
    16.934285261 16.934285261 21.350356973     0.059051798  0.059051798  0.046837624

 FORCES acting on ions:
    Electron-Ion                     Ewald-Force                    Non-Local-Force
   0.699E+02 -.162E+03 -.925E+03   -.703E+02 0.163E+03 0.925E+03   0.431E+00 -.757E+00 -.847E-01
   -.106E+03 -.141E+03 -.928E+03   0.107E+03 0.141E+03 0.928E+03   -.660E+00 -.792E+00 -.577E-01
   -.175E+03 0.210E+02 -.924E+03   0.176E+03 -.211E+02 0.924E+03   -.747E+00 0.113E+00 -.301E-01
   -.690E+02 0.162E+03 -.917E+03   0.694E+02 -.163E+03 0.917E+03   -.345E+00 0.757E+00 -.655E-01
   0.106E+03 0.141E+03 -.914E+03   -.106E+03 -.142E+03 0.914E+03   0.537E+00 0.695E+00 -.114E+00
   0.175E+03 -.215E+02 -.917E+03   -.176E+03 0.216E+02 0.917E+03   0.713E+00 -.112E+00 -.132E-01
   0.314E+02 -.730E+02 -.232E+03   -.336E+02 0.782E+02 0.232E+03   0.228E+01 -.529E+01 0.177E+00
   -.478E+02 -.634E+02 -.233E+03   0.512E+02 0.679E+02 0.233E+03   -.350E+01 -.461E+01 0.411E+00
   -.787E+02 0.952E+01 -.232E+03   0.843E+02 -.102E+02 0.232E+03   -.570E+01 0.688E+00 0.126E+00
   -.314E+02 0.729E+02 -.228E+03   0.336E+02 -.781E+02 0.229E+03   -.230E+01 0.529E+01 -.153E+00
   0.476E+02 0.634E+02 -.227E+03   -.511E+02 -.679E+02 0.227E+03   0.347E+01 0.460E+01 -.302E+00
   0.787E+02 -.973E+01 -.229E+03   -.843E+02 0.104E+02 0.229E+03   0.571E+01 -.720E+00 -.160E+00
   0.294E+01 0.277E+01 0.206E+04   -.294E+01 -.277E+01 -.205E+04   -.284E-02 -.238E-02 -.638E+01
   0.557E+01 0.560E+01 0.206E+04   -.556E+01 -.559E+01 -.206E+04   -.775E-02 -.837E-02 -.638E+01
   0.562E+01 0.674E+01 0.699E+03   -.561E+01 -.673E+01 -.699E+03   -.485E-02 -.504E-02 0.331E+00
   0.671E+01 0.535E+01 0.699E+03   -.671E+01 -.534E+01 -.699E+03   -.423E-02 -.474E-02 0.322E+00
   0.685E+01 0.658E+01 -.668E+03   -.685E+01 -.658E+01 0.668E+03   -.211E-02 -.160E-02 -.209E+00
   0.174E+02 0.175E+02 -.655E+03   -.174E+02 -.175E+02 0.655E+03   -.261E-01 -.211E-01 -.177E+00
   0.171E+02 0.178E+02 -.202E+04   -.171E+02 -.178E+02 0.201E+04   -.138E-01 -.694E-02 0.545E+01
   0.175E+02 0.165E+02 -.202E+04   -.175E+02 -.165E+02 0.201E+04   -.591E-02 -.155E-01 0.544E+01
   0.431E+01 0.368E+01 0.206E+04   -.430E+01 -.368E+01 -.206E+04   -.750E-02 -.444E-02 -.638E+01
   0.743E+01 0.732E+00 0.207E+04   -.742E+01 -.731E+00 -.206E+04   -.114E-01 -.829E-03 -.639E+01
   0.823E+01 0.101E+01 0.704E+03   -.820E+01 -.101E+01 -.704E+03   -.247E-01 0.347E-04 0.335E+00
   0.120E+02 0.778E+01 0.709E+03   -.120E+02 -.776E+01 -.709E+03   -.213E-01 -.171E-01 0.334E+00
   0.145E+02 0.963E+01 -.658E+03   -.145E+02 -.961E+01 0.658E+03   -.234E-01 -.110E-01 -.188E+00
   0.325E+02 0.291E+01 -.636E+03   -.322E+02 -.291E+01 0.636E+03   -.189E+00 -.349E-02 -.990E-01
   0.329E+02 0.264E+01 -.201E+04   -.329E+02 -.264E+01 0.200E+04   -.198E-01 0.434E-03 0.545E+01
   0.561E+02 0.327E+02 -.198E+04   -.560E+02 -.327E+02 0.198E+04   -.769E-01 -.388E-01 0.546E+01
   0.350E+01 0.409E+01 0.206E+04   -.349E+01 -.408E+01 -.206E+04   -.386E-02 -.655E-02 -.638E+01
   -.391E+00 0.420E+01 0.206E+04   0.390E+00 -.419E+01 -.205E+04   0.444E-03 -.367E-02 -.638E+01
   0.736E+01 0.120E+02 0.709E+03   -.734E+01 -.120E+02 -.709E+03   -.143E-01 -.225E-01 0.326E+00
   -.499E+00 0.358E+01 0.695E+03   0.499E+00 -.358E+01 -.695E+03   -.325E-03 -.185E-02 0.346E+00
   0.909E+01 0.139E+02 -.658E+03   -.908E+01 -.138E+02 0.658E+03   -.114E-01 -.262E-01 -.196E+00
   -.111E+01 0.935E+01 -.666E+03   0.111E+01 -.935E+01 0.666E+03   0.927E-03 0.258E-02 -.207E+00
   0.303E+02 0.560E+02 -.199E+04   -.303E+02 -.560E+02 0.198E+04   -.343E-01 -.794E-01 0.546E+01
   -.110E+01 0.816E+01 -.203E+04   0.110E+01 -.817E+01 0.202E+04   -.136E-03 0.104E-02 0.547E+01
   0.533E+01 0.558E+01 0.207E+04   -.532E+01 -.557E+01 -.206E+04   -.754E-02 -.866E-02 -.639E+01
   -.499E+00 0.558E+00 0.206E+04   0.498E+00 -.557E+00 -.206E+04   0.947E-03 -.356E-03 -.637E+01
   0.113E+02 0.168E+01 0.724E+03   -.113E+02 -.167E+01 -.724E+03   0.106E-01 -.299E-02 0.233E+00
   -.796E+00 0.489E+01 0.700E+03   0.797E+00 -.489E+01 -.700E+03   -.326E-03 -.187E-02 0.324E+00
   0.243E+02 0.255E+02 -.620E+03   -.243E+02 -.254E+02 0.620E+03   -.785E-01 -.958E-01 -.165E+00
   -.176E+01 0.141E+01 -.660E+03   0.176E+01 -.141E+01 0.660E+03   0.382E-03 0.305E-02 -.207E+00
   0.920E+02 0.138E+02 -.188E+04   -.917E+02 -.138E+02 0.188E+04   -.318E+00 -.180E-01 0.555E+01
   -.262E+01 0.120E+02 -.202E+04   0.262E+01 -.120E+02 0.201E+04   0.407E-03 -.734E-03 0.544E+01
   0.449E+01 -.285E+01 0.206E+04   -.448E+01 0.285E+01 -.206E+04   -.778E-02 0.345E-02 -.638E+01
   0.592E+01 -.565E+01 0.206E+04   -.590E+01 0.564E+01 -.206E+04   -.913E-02 0.770E-02 -.638E+01
   0.617E+01 -.687E+01 0.700E+03   -.616E+01 0.686E+01 -.700E+03   -.443E-02 0.248E-02 0.323E+00
   0.126E+02 -.603E+01 0.711E+03   -.126E+02 0.601E+01 -.711E+03   -.223E-01 0.142E-01 0.297E+00
   0.159E+02 -.750E+01 -.656E+03   -.158E+02 0.748E+01 0.656E+03   -.406E-01 0.122E-01 -.184E+00
   0.199E+02 -.185E+02 -.651E+03   -.199E+02 0.185E+02 0.651E+03   -.185E-01 0.291E-01 -.161E+00
   0.200E+02 -.186E+02 -.202E+04   -.200E+02 0.186E+02 0.201E+04   -.214E-01 0.493E-02 0.545E+01
   0.644E+02 -.274E+02 -.198E+04   -.642E+02 0.273E+02 0.197E+04   -.142E+00 0.303E-01 0.546E+01
   0.308E+01 -.360E+01 0.206E+04   -.308E+01 0.360E+01 -.205E+04   -.335E-02 0.319E-02 -.638E+01
   0.423E+01 -.675E+00 0.206E+04   -.422E+01 0.673E+00 -.205E+04   -.356E-02 0.128E-02 -.638E+01
   0.386E+01 -.869E+00 0.695E+03   -.386E+01 0.870E+00 -.696E+03   -.188E-02 -.422E-03 0.326E+00
   0.726E+01 -.708E+01 0.700E+03   -.725E+01 0.707E+01 -.700E+03   -.464E-02 0.359E-02 0.331E+00
   0.763E+01 -.875E+01 -.667E+03   -.763E+01 0.875E+01 0.667E+03   0.383E-03 0.515E-02 -.199E+00
   0.955E+01 -.189E+01 -.666E+03   -.955E+01 0.189E+01 0.666E+03   0.112E-02 0.576E-03 -.197E+00
   0.868E+01 -.188E+01 -.203E+04   -.869E+01 0.188E+01 0.202E+04   0.246E-02 0.103E-02 0.545E+01
   0.206E+02 -.222E+02 -.202E+04   -.206E+02 0.222E+02 0.201E+04   -.423E-02 0.278E-01 0.546E+01
[...]
   -.331E+01 -.355E+01 0.155E+04   0.330E+01 0.354E+01 -.155E+04   0.848E-02 0.314E-02 0.314E+01
   0.396E+00 -.360E+01 0.155E+04   -.395E+00 0.360E+01 -.156E+04   -.942E-03 0.457E-02 0.312E+01
   -.271E+02 -.111E+02 -.153E+04   0.271E+02 0.111E+02 0.153E+04   0.136E-01 0.195E-02 -.480E+01
   0.334E+01 -.636E+02 -.149E+04   -.334E+01 0.634E+02 0.149E+04   -.274E-02 0.155E+00 -.476E+01
   -.101E+02 -.938E+01 -.488E+03   0.101E+02 0.937E+01 0.488E+03   0.778E-02 0.110E-01 0.352E+00
   0.213E+01 -.188E+02 -.442E+03   -.212E+01 0.187E+02 0.442E+03   -.123E-01 0.124E+00 0.446E-01
   -.403E+01 -.420E+01 0.523E+03   0.402E+01 0.419E+01 -.522E+03   0.543E-02 0.686E-02 -.536E-01
   0.387E+00 -.116E+01 0.526E+03   -.386E+00 0.115E+01 -.525E+03   -.846E-03 0.412E-02 -.535E-01
   -.239E+01 -.440E+00 0.155E+04   0.239E+01 0.440E+00 -.155E+04   0.516E-02 0.324E-02 0.314E+01
   0.279E+00 -.427E+01 0.155E+04   -.279E+00 0.426E+01 -.155E+04   -.486E-03 0.130E-01 0.313E+01
   -.105E+02 -.108E+02 -.154E+04   0.105E+02 0.108E+02 0.155E+04   0.698E-02 0.623E-02 -.481E+01
   0.831E+00 -.407E+01 -.154E+04   -.831E+00 0.407E+01 0.154E+04   0.460E-04 -.196E-02 -.480E+01
   -.521E+01 -.101E+01 -.495E+03   0.521E+01 0.101E+01 0.495E+03   0.140E-02 0.133E-02 0.348E+00
   0.852E+00 -.155E+02 -.481E+03   -.848E+00 0.154E+02 0.481E+03   -.346E-02 0.481E-01 0.372E+00
   -.341E-01 -.749E-01 0.810E+02   -.166E-11 0.924E-12 0.149E-10   0.136E-01 0.671E-01 -.715E+02

 POSITION                                       TOTAL-FORCE (eV/Angst)
      8.09980      7.94105     16.95970         0.015608     -0.009682      0.014700
      9.48755      7.77295     16.92354        -0.011289     -0.013344      0.013859
     10.03738      6.48576     16.96663        -0.014476     -0.008533      0.016636
      9.19952      5.36918     17.04973         0.000294      0.017900      0.011270
      7.81004      5.53722     17.08844         0.003877      0.013228      0.008182
      7.26151      6.82217     17.04053         0.016950     -0.017463      0.015508
      7.66985      8.94325     16.92507         0.122423     -0.292692      0.010004
     10.14282      8.64108     16.85259        -0.198755     -0.260449      0.019406
     11.12154      6.35485     16.93858        -0.325001      0.037204      0.006795
      9.63176      4.36776     17.07984        -0.130192      0.293578     -0.009059
      7.15513      4.66663     17.14735         0.191310      0.255291     -0.015999
      6.17860      6.95624     17.06779         0.307705     -0.040616     -0.006261
      2.11679      0.00000      7.50000         0.000828      0.000722      0.505512
      4.23357      2.11679      7.50000         0.002574      0.002940      0.505773
      2.11679      2.11679      9.61679         0.001759      0.001903     -0.001523
      4.23357      0.00000      9.61679         0.001559      0.001766     -0.002601
      2.11685      0.00035     11.73846         0.002005     -0.000513     -0.005994
      4.23406      2.11728     11.73810         0.000811      0.001423     -0.006252
      2.11739      2.11736     13.82880        -0.000135     -0.000337     -0.010276
      4.23410      0.00060     13.82852        -0.000377     -0.000021     -0.010551
      2.11679      4.23357      7.50000         0.002733      0.001488      0.505758
      4.23357      6.35036      7.50000         0.003898      0.000010      0.509241
      2.11679      6.35036      9.61679         0.008927     -0.000171     -0.000018
      4.23357      4.23357      9.61679         0.008289      0.006487      0.001333
      2.11722      4.23389     11.73829         0.001407      0.001042     -0.007336
      4.23624      6.35074     11.73838         0.001936      0.000159     -0.006322
      2.11762      6.35064     13.82856         0.000905      0.000094     -0.011405
      4.23523      4.23502     13.82683         0.001413     -0.000140     -0.013077
      6.35036      0.00000      7.50000         0.001480      0.002095      0.505765
      0.00000      2.11679      7.50000        -0.000115      0.001053      0.505477
      6.35036      2.11679      9.61679         0.005393      0.008834      0.001039
      0.00000      0.00000      9.61679         0.000240      0.000746     -0.002009
      6.35079      0.00056     11.73824        -0.000932      0.000024     -0.007053
      0.00017      2.11681     11.73849         0.000078      0.002706     -0.006740
      6.35165      2.11844     13.82635         0.000967      0.001502     -0.013972
      0.00023      0.00044     13.82900         0.000013     -0.000966     -0.009739
      6.35036      4.23357      7.50000         0.002236      0.002796      0.509701
      0.00000      6.35036      7.50000        -0.000273      0.000208      0.504996
      6.35036      6.35036      9.61679        -0.002943      0.001264      0.006084
      0.00000      4.23357      9.61679         0.000413      0.000573     -0.002962
      6.35238      4.23604     11.73848         0.000998      0.000920     -0.005058
      0.00011      6.35043     11.73857         0.000121     -0.001997     -0.007315
      6.36051      6.35235     13.83395        -0.001269      0.000040     -0.032065
      0.00018      4.23390     13.82862        -0.000172     -0.000746     -0.011303
      2.11679      8.46714      7.50000         0.002474     -0.001244      0.505847
      4.23357     10.58393      7.50000         0.003033     -0.002322      0.505883
      2.11679     10.58393      9.61679         0.001416     -0.000749     -0.003431
      4.23357      8.46714      9.61679         0.009446     -0.005685      0.000983
      2.11685      8.46707     11.73760         0.003215     -0.000897     -0.005782
      4.23362     10.58383     11.73721         0.001101     -0.000713     -0.006729
      2.11695     10.58418     13.82805        -0.000074     -0.000321     -0.010553
      4.23454      8.46713     13.82390         0.002777     -0.000117     -0.013232
      2.11679     12.70071      7.50000         0.001367     -0.001065      0.505452
      4.23357     14.81750      7.50000         0.001198     -0.000711      0.505439
      2.11679     14.81750      9.61679         0.000845      0.000334     -0.001478
      4.23357     12.70071      9.61679         0.001711     -0.000795     -0.002585
      2.11682     12.70098     11.73814        -0.000186      0.000334     -0.006704
      4.23374     14.81785     11.73828        -0.000208     -0.000318     -0.007263
      2.11711     14.81788     13.82883        -0.001286      0.000330     -0.010848
      4.23363     12.70078     13.82816         0.000084      0.000022     -0.010523
[...]
      8.46714     10.58393      9.61679        -0.001260      0.015876      0.008467
     14.81750     10.58393      7.50000         0.004364     -0.000620     -0.390519
      8.46714      8.46714      7.50000        -0.000254      0.001413     -0.396852
     14.81759      8.46757     13.87928         0.000207     -0.000025     -0.130492
      8.46734     10.58394     13.88685        -0.000846      0.000051     -0.130209
     14.81816     10.58445     11.73011        -0.000350      0.000321      0.015133
      8.46696      8.47245     11.72976        -0.000915      0.001194      0.008207
     14.81750     12.70071      9.61679         0.002939      0.002247      0.023857
      8.46714     14.81750      9.61679        -0.000249     -0.000378      0.024976
     14.81750     14.81750      7.50000         0.003290      0.002610     -0.390540
      8.46714     12.70071      7.50000        -0.000110      0.004219     -0.393739
     14.81825     12.70144     13.87950         0.000267     -0.000396     -0.131865
      8.46723     14.81743     13.87999         0.000275      0.000004     -0.130925
     14.81792     14.81798     11.73051        -0.000212     -0.000004      0.013678
      8.46711     12.70040     11.73085        -0.000476      0.000947      0.016742
    total drift:                               -0.009672      0.009456     -0.185875

  FREE ENERGIE OF THE ION-ELECTRON SYSTEM (eV)
  free  energy   TOTEN  =     -1839.45951837 eV

  energy  without entropy=    -1839.45951837  energy(sigma->0) =    -1839.45951837