 vasp.6.3.0 20Jan22 (build Apr  1 2022 16:44:48) complex
 executed on        HPECrayEX_GCC date 2022.11.09  20:44:48

 INCAR:
   SYSTEM = MgO-rocksalt
   ISMEAR = 0
   SIGMA = 0.05
   EDIFF = 1E-7
   ALGO = ALL
   ISTART = 0
   IBRION = 2
   NSW = 1000
   ISYM = 0
   ISIF = 2
   EDIFFG = -0.016
   DIPOL = 0.5 0.5 0.5
   IDIPOL = 3
   LDIPOL = .TRUE.
   LHFCALC = .TRUE.
   GGA = B5
   AEXX = 0.2
   AGGAX = 0.72
   AGGAC = 0.81
   ALDAC = 0.19
   IVDW = 1
   VDW_S6 = 1.05
   VDW_C6 = 1.75 0.70 0.14 0.63 0.70
   VDW_R0 = 1.452 1.342 1.001 1.243 1.342
   ENCUT = 600
   PREC = Accurate
   LASPH = .TRUE.
   LREAL = .FALSE.
   ISPIN = 1
   NELM = 200
   NELMIN = 8
   NCORE = 8
   KPAR = 1
   LWAVE = .FALSE.
   LCHARG = .FALSE.

 POTCAR:    PAW_PBE C 08Apr2002
 POTCAR:    PAW_PBE O 08Apr2002
 POTCAR:    PAW_PBE H 15Jun2001
 POTCAR:    PAW_PBE Mg_pv 13Apr2007
 POTCAR:    PAW_PBE O 08Apr2002
 POTCAR:    PAW_PBE C 08Apr2002
   VRHFIN =C: s2p2

   TITEL  = PAW_PBE C 08Apr2002
   POMASS =   12.011; ZVAL   =    4.000    mass and valenz
   ENMAX  =  400.000; ENMIN  =  300.000 eV

[...]

   TITEL  = PAW_PBE H 15Jun2001
   POMASS =    1.000; ZVAL   =    1.000    mass and valenz
   ENMAX  =  250.000; ENMIN  =  200.000 eV

   TITEL  = PAW_PBE Mg_pv 13Apr2007
   POMASS =   24.305; ZVAL   =    8.000    mass and valenz
   ENMAX  =  403.929; ENMIN  =  302.947 eV

   TITEL  = PAW_PBE O 08Apr2002
   POMASS =   16.000; ZVAL   =    6.000    mass and valenz
   ENMAX  =  400.000; ENMIN  =  300.000 eV

  PAW_PBE C 08Apr2002                   :
  PAW_PBE O 08Apr2002                   :
  PAW_PBE H 15Jun2001                   :
  PAW_PBE Mg_pv 13Apr2007               :
  PAW_PBE O 08Apr2002                   :

 POSCAR:  C  O  H Mg  O
  positions in direct lattice
  velocities in cartesian coordinates
 exchange correlation table for  LEXCH =       12
   RHO(1)=    0.500       N(1)  =     2000
   RHO(2)=  100.500       N(2)  =     4000

 ion  position               nearest neighbor table
   1  0.430  0.623  0.796-   3 1.09   5 1.09   6 1.09   2 1.43
   2  0.421  0.495  0.753-   4 1.00   1 1.43  22 2.24
   3  0.537  0.606  0.824-   1 1.09
   4  0.322  0.502  0.727-   2 1.00
   5  0.438  0.737  0.772-   1 1.09
   6  0.327  0.623  0.828-   1 1.09
   7  0.250  0.000  0.352-  41 2.10  42 2.10  49 2.10  58 2.10  39 2.10
   8  0.500  0.250  0.352-  41 2.10  42 2.10  50 2.10  57 2.10  40 2.10
   9  0.250  0.250  0.451-  39 2.10  40 2.10  47 2.10  56 2.10  41 2.10  45 2.11
  10  0.500  0.000  0.451-  46 2.10  40 2.10  39 2.10  48 2.10  55 2.10  42 2.10
  11  0.250  0.000  0.549-  46 2.10  62 2.10  39 2.10  45 2.10  53 2.11  43 2.13
  12  0.500  0.251  0.550-  54 2.09  44 2.10  61 2.10  45 2.11  46 2.11  40 2.12
  13  0.250  0.247  0.647-  45 2.08  43 2.08  44 2.10  60 2.10  51 2.13
  14  0.501  0.000  0.647-  44 2.08  46 2.09  52 2.09  59 2.10  43 2.11
  15  0.250  0.500  0.352-  41 2.10  49 2.10  50 2.10  66 2.10  47 2.10
  16  0.500  0.750  0.352-  42 2.10  49 2.10  50 2.10  65 2.10  48 2.10
  17  0.250  0.750  0.451-  39 2.10  47 2.10  48 2.10  64 2.10  49 2.10  53 2.11
  18  0.500  0.500  0.451-  40 2.10  47 2.10  48 2.10  63 2.10  50 2.10  54 2.12
  19  0.251  0.500  0.550-  54 2.09  45 2.09  53 2.10  70 2.11  47 2.12  51 2.17
  20  0.500  0.749  0.550-  54 2.09  69 2.10  53 2.11  46 2.11  52 2.12  48 2.12
  21  0.249  0.753  0.647-  53 2.07  43 2.08  68 2.10  52 2.11  51 2.12
  22  0.507  0.499  0.653-  67 2.06  44 2.11  52 2.13  54 2.19  51 2.21   2 2.24
  23  0.750  0.000  0.352-  42 2.10  57 2.10  58 2.10  65 2.10  55 2.10
  24  0.000  0.250  0.352-  41 2.10  57 2.10  58 2.10  66 2.10  56 2.10
  25  0.750  0.250  0.451-  40 2.10  55 2.10  56 2.10  63 2.10  57 2.10  61 2.10
  26  0.000  0.000  0.451-  62 2.10  55 2.10  56 2.10  39 2.10  64 2.10  58 2.10
  27  0.750  0.000  0.549-  46 2.10  61 2.10  69 2.10  55 2.11  62 2.11  59 2.13
  28  1.000  0.250  0.550-  61 2.10  45 2.10  70 2.10  62 2.10  56 2.11  60 2.13
  29  0.750  0.249  0.648-  61 2.09  59 2.09  44 2.10  60 2.10  67 2.11
  30  1.000  0.000  0.647-  62 2.09  60 2.09  59 2.10  68 2.10  43 2.10
  31  0.750  0.500  0.352-  50 2.10  57 2.10  65 2.10  66 2.10  63 2.10
  32  0.000  0.750  0.352-  49 2.10  58 2.10  65 2.10  66 2.10  64 2.10
  33  0.750  0.750  0.451-  48 2.10  55 2.10  63 2.10  64 2.10  65 2.10  69 2.10
  34  0.000  0.500  0.451-  47 2.10  56 2.10  63 2.10  64 2.10  66 2.10  70 2.11
  35  0.749  0.500  0.550-  54 2.10  61 2.10  69 2.10  70 2.11  63 2.12  67 2.13
  36  1.000  0.750  0.550-  69 2.10  70 2.10  53 2.10  62 2.10  64 2.11  68 2.13
  37  0.750  0.751  0.647-  69 2.09  59 2.09  68 2.10  52 2.11  67 2.11
  38  0.998  0.500  0.647-  67 2.07  51 2.08  70 2.09  60 2.11  68 2.11
  39  0.250  0.000  0.451-   9 2.10  10 2.10  17 2.10  26 2.10   7 2.10  11 2.10
  40  0.500  0.250  0.451-   9 2.10  10 2.10  18 2.10  25 2.10   8 2.10  12 2.12
  41  0.250  0.250  0.352-   7 2.10   8 2.10  15 2.10  24 2.10   9 2.10
  42  0.500  0.000  0.352-   7 2.10   8 2.10  16 2.10  23 2.10  10 2.10
  43  0.250  1.000  0.649-  21 2.08  13 2.08  30 2.10  14 2.11  11 2.13
  44  0.500  0.248  0.649-  14 2.08  12 2.10  13 2.10  29 2.10  22 2.11
  45  0.250  0.251  0.550-  13 2.08  19 2.09  28 2.10  11 2.10  12 2.11   9 2.11
  46  0.500  1.000  0.549-  14 2.09  11 2.10  10 2.10  27 2.10  20 2.11  12 2.11
  47  0.250  0.500  0.451-   9 2.10  17 2.10  18 2.10  34 2.10  15 2.10  19 2.12
  48  0.500  0.750  0.451-  10 2.10  17 2.10  18 2.10  33 2.10  16 2.10  20 2.12
  49  0.250  0.750  0.352-   7 2.10  15 2.10  16 2.10  32 2.10  17 2.10
  50  0.500  0.500  0.352-   8 2.10  15 2.10  16 2.10  31 2.10  18 2.10
  51  0.245  0.500  0.652-  38 2.08  21 2.12  13 2.13  19 2.17  22 2.21
  52  0.500  0.752  0.650-  14 2.09  21 2.11  37 2.11  20 2.12  22 2.13
  53  0.250  0.749  0.550-  21 2.07  19 2.10  36 2.10  20 2.11  17 2.11  11 2.11
  54  0.500  0.500  0.550-  19 2.09  20 2.09  12 2.09  35 2.10  18 2.12  22 2.19
  55  0.750  0.000  0.451-  10 2.10  25 2.10  26 2.10  33 2.10  23 2.10  27 2.11
  56  0.000  0.250  0.451-   9 2.10  25 2.10  26 2.10  34 2.10  24 2.10  28 2.11
  57  0.750  0.250  0.352-   8 2.10  23 2.10  24 2.10  31 2.10  25 2.10
  58  0.000  0.000  0.352-   7 2.10  23 2.10  24 2.10  32 2.10  26 2.10
  59  0.750  1.000  0.649-  37 2.09  29 2.09  30 2.10  14 2.10  27 2.13
  60  0.000  0.249  0.650-  30 2.09  29 2.10  13 2.10  38 2.11  28 2.13
  61  0.750  0.250  0.549-  29 2.09  28 2.10  35 2.10  27 2.10  25 2.10  12 2.10
  62  0.000  1.000  0.549-  30 2.09  26 2.10  11 2.10  36 2.10  28 2.10  27 2.11
  63  0.750  0.500  0.451-  18 2.10  25 2.10  33 2.10  34 2.10  31 2.10  35 2.12
  64  0.000  0.750  0.451-  17 2.10  26 2.10  33 2.10  34 2.10  32 2.10  36 2.11
  65  0.750  0.750  0.352-  16 2.10  23 2.10  31 2.10  32 2.10  33 2.10
  66  0.000  0.500  0.352-  15 2.10  24 2.10  31 2.10  32 2.10  34 2.10
  67  0.752  0.500  0.650-  22 2.06  38 2.07  37 2.11  29 2.11  35 2.13
  68  0.000  0.751  0.650-  30 2.10  21 2.10  37 2.10  38 2.11  36 2.13
  69  0.750  0.750  0.549-  37 2.09  36 2.10  35 2.10  20 2.10  27 2.10  33 2.10
  70  0.000  0.500  0.550-  38 2.09  36 2.10  28 2.10  34 2.11  19 2.11  35 2.11

IMPORTANT INFORMATION: All symmetrisations will be switched off!
NOSYMM: (Re-)initialisation of all symmetry stuff for point group C_1.

                                     Primitive cell

  volume of cell :    1504.9259

  direct lattice vectors                    reciprocal lattice vectors
     8.404861995  0.000000000  0.000000000     0.118978753  0.000000000  0.000000000
     0.000000000  8.404861995  0.000000000     0.000000000  0.118978753  0.000000000
     0.000000000  0.000000000 21.303646496     0.000000000  0.000000000  0.046940321

  length of vectors
     8.404861995  8.404861995 21.303646496     0.118978753  0.118978753  0.046940321

  position of ions in fractional coordinates (direct lattice)
     0.430064728  0.622978179  0.796454134
     0.421264014  0.494618309  0.752645571
     0.537183409  0.606058402  0.824447505
     0.322016637  0.501521827  0.727265023
     0.437960707  0.737416063  0.772140826
     0.326845733  0.622675374  0.827778908
     0.250000000  0.000000000  0.352052406
     0.500000000  0.250000000  0.352052406
     0.250000000  0.250000000  0.450684135
     0.500000000  0.000000000  0.450684135
     0.250391361  0.000175582  0.549385993
     0.500238885  0.251097538  0.550178877
     0.250257464  0.247331058  0.647327606
     0.500596342  0.000305165  0.647128940
     0.250000000  0.500000000  0.352052406
     0.500000000  0.750000000  0.352052406
     0.250000000  0.750000000  0.450684135
     0.500000000  0.500000000  0.450684135
     0.251206888  0.499724465  0.550105079
     0.500294687  0.748667704  0.550212670
     0.249489696  0.752543118  0.646512346
     0.507034054  0.498909078  0.653336192
     0.750000000  0.000000000  0.352052406
     0.000000000  0.250000000  0.352052406
     0.750000000  0.250000000  0.450684135
     0.000000000  0.000000000  0.450684135
     0.749783280  0.000024274  0.549493508
     0.999903747  0.250159155  0.549698278
     0.750078237  0.248809539  0.647581809
     0.999627899  0.000011475  0.647332798
     0.750000000  0.500000000  0.352052406
     0.000000000  0.750000000  0.352052406
     0.750000000  0.750000000  0.450684135
     0.000000000  0.500000000  0.450684135
     0.749018725  0.499784692  0.549993289
     0.999749459  0.749651456  0.549590109
     0.750454040  0.750868673  0.647330094
     0.997876525  0.499656198  0.647437983
     0.250000000  0.000000000  0.450684135
     0.500000000  0.250000000  0.450684135
     0.250000000  0.250000000  0.352052406
     0.500000000  0.000000000  0.352052406
     0.249774594  0.999693673  0.649378980
     0.500098130  0.248095936  0.648564672
     0.249723685  0.250501471  0.549651607
     0.499833446  0.999650361  0.549165132
     0.250000000  0.500000000  0.450684135
     0.500000000  0.750000000  0.450684135
     0.250000000  0.750000000  0.352052406
     0.500000000  0.500000000  0.352052406
     0.244702887  0.500231407  0.652092335
     0.499872587  0.751512702  0.649579350
     0.249823292  0.749362334  0.549565814
     0.499626372  0.500105942  0.550421322
     0.750000000  0.000000000  0.450684135
     0.000000000  0.250000000  0.450684135
     0.750000000  0.250000000  0.352052406
     0.000000000  0.000000000  0.352052406
     0.750420241  0.999733710  0.649457831
     0.000056198  0.249080291  0.649633970
     0.750469840  0.250029415  0.549407735
     0.000262865  0.999840370  0.549287868
     0.750000000  0.500000000  0.450684135
     0.000000000  0.750000000  0.450684135
     0.750000000  0.750000000  0.352052406
     0.000000000  0.500000000  0.352052406
     0.752161590  0.500027828  0.649768737
     0.000063775  0.750650853  0.649612973
     0.750283183  0.749771166  0.549451518
     0.000476504  0.499997164  0.549558895

  ion indices of the primitive-cell ions
   primitive index   ion index
                 1           1
                 2           2
                 3           3
                 4           4
                 5           5
                 6           6
                 7           7
[...]
   4.20243100  6.30364650  9.60121550
   2.10121550  6.30364650  7.50000000
   4.20243100  4.20243100  7.50000000
   2.05669400  4.20437594 13.89194459
   4.20136011  6.31636054 13.83840884
   2.09973029  6.29828700 11.70775583
   4.19929071  4.20332143 11.72598128
   6.30364650  0.00000000  9.60121550
   0.00000000  2.10121550  9.60121550
   6.30364650  2.10121550  7.50000000
   0.00000000  0.00000000  7.50000000
   6.30717857  8.40262386 13.83582004
   0.00047233  2.09348547 13.83957244
   6.30759543  2.10146272 11.70438816
   0.00220935  8.40352032 11.70183456
   6.30364650  4.20243100  9.60121550
   0.00000000  6.30364650  9.60121550
   6.30364650  6.30364650  7.50000000
   0.00000000  4.20243100  7.50000000
   6.32181436  4.20266489 13.84244347
   0.00053602  6.30911683 13.83912514
   6.30602661  6.30172317 11.70532090
   0.00400495  4.20240716 11.70760844

--------------------------------------- Iteration      FINAL  ---------------------------------------

--------------------OUTCAR has been truncated-------------------------

[...]

--------------------OUTCAR has been truncated-------------------------

  Number of pair interactions contributing to vdW energy:  871642
  Edisp (eV):   -5.42530

  FORCE on cell =-STRESS in cart. coord.  units (eV):
  Direction    XX          YY          ZZ          XY          YZ          ZX
  Alpha Z   927.94987   927.94987   927.94987
  Ewald  160278.70515160337.25553************    12.92953   137.69166    32.88219
  Hartree170710.14080170770.24790************     8.41823    79.53285     5.21028
  E(xc)   -2049.19497 -2049.35144 -2052.25801    -0.00289     0.09044     0.21615
  Local  ************************340553.80742   -21.53112  -207.55560   -28.15014
  n-local -1206.24364 -1204.61812 -1226.89918     0.30589     1.62922    -0.31554
  augment   903.32622   903.54838   893.25780     0.00975    -0.86026    -0.64457
  Kinetic  7575.23309  7580.05556  7610.58712    -0.13593   -10.70414    -9.07470
  Fock    -2013.77222 -2013.49886 -2010.45672     0.00993     0.22842    -0.03151
  vdW        -7.63579    -7.77024    -6.54826    -0.01599    -0.03301    -0.01702
  Total     -29.50659   -29.80598    -2.47411    -0.01260     0.01957     0.07516
  in kB     -31.41337   -31.73210    -2.63399    -0.01341     0.02084     0.08001

 VOLUME and BASIS-vectors are now :
  energy-cutoff  :      600.00
  volume of cell :     1504.93
      direct lattice vectors                 reciprocal lattice vectors
     8.404861995  0.000000000  0.000000000     0.118978753  0.000000000  0.000000000
     0.000000000  8.404861995  0.000000000     0.000000000  0.118978753  0.000000000
     0.000000000  0.000000000 21.303646496     0.000000000  0.000000000  0.046940321

  length of vectors
     8.404861995  8.404861995 21.303646496     0.118978753  0.118978753  0.046940321

 FORCES acting on ions:
    Electron-Ion                     Ewald-Force                    Non-Local-Force
   -.805E+01 -.930E+02 -.102E+04   0.860E+01 0.978E+02 0.103E+04   -.521E+00 -.456E+01 -.361E+01
   -.240E+02 0.135E+03 -.161E+04   0.497E+02 -.167E+03 0.161E+04   -.228E+02 0.281E+02 0.129E+01
   -.513E+02 -.107E+01 -.246E+03   0.563E+02 0.313E+00 0.249E+03   -.479E+01 0.741E+00 -.318E+01
   0.733E+02 0.514E+01 -.254E+03   -.797E+02 -.497E+01 0.250E+03   0.618E+01 -.185E+00 0.408E+01
   -.450E+01 -.617E+02 -.241E+03   0.495E+01 0.669E+02 0.238E+03   -.421E+00 -.501E+01 0.273E+01
   0.469E+02 -.861E+01 -.246E+03   -.515E+02 0.861E+01 0.250E+03   0.448E+01 0.210E-02 -.351E+01
   0.852E-01 -.962E-01 0.211E+04   -.787E-01 0.973E-01 -.211E+04   -.418E-02 -.766E-03 -.638E+01
   -.539E-01 -.284E-01 0.211E+04   0.563E-01 0.362E-01 -.211E+04   -.155E-02 -.536E-02 -.643E+01
   0.194E+00 -.261E-01 0.742E+03   -.170E+00 0.125E+00 -.743E+03   -.132E-01 -.643E-01 0.481E+00
   -.348E+00 -.419E+00 0.744E+03   0.386E+00 0.391E+00 -.744E+03   -.243E-01 0.183E-01 0.223E+00
   0.434E+01 -.187E+01 -.617E+03   -.426E+01 0.194E+01 0.617E+03   -.706E-01 -.591E-01 -.647E-01
   -.165E+01 0.478E+01 -.613E+03   0.171E+01 -.444E+01 0.614E+03   -.605E-01 -.310E+00 -.101E+01
   0.273E+02 0.313E+02 -.197E+04   -.273E+02 -.324E+02 0.196E+04   -.130E-01 0.964E+00 0.570E+01
   -.817E+01 -.955E+01 -.199E+04   0.833E+01 0.975E+01 0.198E+04   -.153E+00 -.175E+00 0.557E+01
   0.772E-01 0.965E-01 0.211E+04   -.672E-01 -.977E-01 -.211E+04   -.673E-02 0.805E-03 -.643E+01
   -.649E-01 0.277E-01 0.211E+04   0.677E-01 -.361E-01 -.211E+04   -.178E-02 0.573E-02 -.644E+01
   0.186E+00 0.771E-02 0.743E+03   -.127E+00 -.107E+00 -.743E+03   -.373E-01 0.651E-01 0.478E+00
   -.355E+00 0.390E+00 0.741E+03   0.321E+00 -.373E+00 -.742E+03   0.230E-01 -.121E-01 0.563E+00
   0.454E+01 0.195E+01 -.621E+03   -.423E+01 -.201E+01 0.620E+03   -.290E+00 0.574E-01 0.780E+00
   -.225E+01 -.472E+01 -.613E+03   0.234E+01 0.438E+01 0.614E+03   -.868E-01 0.311E+00 -.577E+00
   0.335E+02 -.324E+02 -.194E+04   -.337E+02 0.335E+02 0.193E+04   0.183E+00 -.963E+00 0.579E+01
   -.378E+02 0.134E+02 -.188E+04   0.400E+02 -.136E+02 0.188E+04   -.199E+01 0.189E+00 0.254E+01
   -.850E-01 -.858E-01 0.211E+04   0.787E-01 0.864E-01 -.211E+04   0.406E-02 -.376E-03 -.641E+01
   0.538E-01 -.204E-01 0.211E+04   -.560E-01 0.246E-01 -.211E+04   0.145E-02 -.276E-02 -.641E+01
   -.188E+00 -.805E-01 0.742E+03   0.167E+00 0.948E-01 -.743E+03   0.117E-01 -.838E-02 0.356E+00
   0.362E+00 -.415E+00 0.742E+03   -.396E+00 0.429E+00 -.742E+03   0.222E-01 -.890E-02 0.338E+00
   -.440E+01 -.134E+01 -.623E+03   0.431E+01 0.137E+01 0.623E+03   0.814E-01 -.309E-01 -.764E-01
   0.170E+01 0.322E+01 -.624E+03   -.177E+01 -.317E+01 0.624E+03   0.630E-01 -.423E-01 -.183E+00
   -.235E+02 0.196E+02 -.200E+04   0.235E+02 -.200E+02 0.199E+04   -.808E-02 0.370E+00 0.559E+01
   0.693E+01 -.461E+01 -.201E+04   -.709E+01 0.466E+01 0.200E+04   0.143E+00 -.500E-01 0.550E+01
   -.756E-01 0.855E-01 0.211E+04   0.657E-01 -.863E-01 -.211E+04   0.656E-02 0.553E-03 -.641E+01
   0.641E-01 0.197E-01 0.211E+04   -.669E-01 -.243E-01 -.211E+04   0.188E-02 0.295E-02 -.640E+01
   -.179E+00 0.734E-01 0.743E+03   0.116E+00 -.919E-01 -.743E+03   0.390E-01 0.109E-01 0.393E+00
   0.317E+00 0.409E+00 0.742E+03   -.279E+00 -.428E+00 -.742E+03   -.247E-01 0.121E-01 0.395E+00
   -.545E+01 0.134E+01 -.617E+03   0.518E+01 -.137E+01 0.617E+03   0.243E+00 0.319E-01 -.318E+00
   0.223E+01 -.321E+01 -.620E+03   -.233E+01 0.317E+01 0.621E+03   0.925E-01 0.400E-01 -.121E+00
   -.281E+02 -.203E+02 -.198E+04   0.283E+02 0.207E+02 0.198E+04   -.158E+00 -.357E+00 0.560E+01
   0.164E+02 0.492E+01 -.198E+04   -.168E+02 -.497E+01 0.198E+04   0.347E+00 0.527E-01 0.541E+01
   0.405E+00 -.269E+00 0.557E+03   -.384E+00 0.264E+00 -.557E+03   -.269E-01 0.552E-02 0.395E-01
   -.805E-01 0.256E-01 0.556E+03   0.938E-01 -.864E-01 -.555E+03   -.184E-01 0.721E-01 -.160E+00
   0.565E-01 -.201E-01 0.159E+04   -.507E-01 0.305E-01 -.159E+04   -.719E-02 -.130E-01 0.312E+01
   -.488E-01 -.681E-01 0.159E+04   0.547E-01 0.668E-01 -.159E+04   -.723E-02 0.158E-02 0.311E+01
   0.120E+02 -.738E+01 -.152E+04   -.119E+02 0.742E+01 0.152E+04   -.913E-01 -.356E-01 -.461E+01
   -.109E+02 0.341E+02 -.148E+04   0.108E+02 -.337E+02 0.148E+04   0.951E-01 -.417E+00 -.474E+01
   0.327E+01 0.263E+01 -.457E+03   -.320E+01 -.270E+01 0.457E+03   -.625E-01 0.694E-01 0.481E+00
   -.164E+01 -.128E+01 -.455E+03   0.167E+01 0.131E+01 0.454E+03   -.281E-01 -.234E-01 0.318E+00
   0.409E+00 0.272E+00 0.556E+03   -.452E+00 -.266E+00 -.556E+03   0.486E-01 -.696E-02 -.143E+00
   -.148E+00 -.326E-01 0.556E+03   0.156E+00 0.105E+00 -.556E+03   -.119E-01 -.866E-01 -.190E+00
   0.542E-01 0.198E-01 0.159E+04   -.444E-01 -.302E-01 -.159E+04   -.121E-01 0.130E-01 0.312E+01
   -.461E-01 0.685E-01 0.159E+04   0.445E-01 -.669E-01 -.159E+04   0.217E-02 -.207E-02 0.310E+01
   0.445E+02 0.865E+01 -.145E+04   -.441E+02 -.870E+01 0.145E+04   -.312E+00 0.327E-01 -.179E+01
   -.153E+02 -.364E+02 -.146E+04   0.152E+02 0.359E+02 0.147E+04   0.905E-01 0.454E+00 -.451E+01
   0.338E+01 -.265E+01 -.452E+03   -.333E+01 0.272E+01 0.451E+03   -.472E-01 -.673E-01 0.720E+00
   -.519E+00 0.129E+01 -.466E+03   0.540E+00 -.133E+01 0.467E+03   -.177E-01 0.328E-01 -.857E+00
   -.406E+00 -.215E+00 0.557E+03   0.381E+00 0.220E+00 -.557E+03   0.320E-01 -.659E-02 -.464E-01
   0.861E-01 -.150E-01 0.556E+03   -.102E+00 0.207E-01 -.556E+03   0.220E-01 -.599E-02 -.794E-01
   -.564E-01 -.172E-01 0.159E+04   0.505E-01 0.199E-01 -.159E+04   0.729E-02 -.341E-02 0.312E+01
   0.487E-01 -.707E-01 0.159E+04   -.547E-01 0.732E-01 -.159E+04   0.741E-02 -.312E-02 0.313E+01
   -.111E+02 -.467E+01 -.153E+04   0.111E+02 0.468E+01 0.153E+04   0.734E-01 -.898E-02 -.456E+01
   0.791E+01 0.107E+02 -.152E+04   -.782E+01 -.104E+02 0.153E+04   -.799E-01 -.223E+00 -.458E+01
   -.330E+01 0.274E+01 -.460E+03   0.323E+01 -.275E+01 0.460E+03   0.668E-01 0.856E-02 0.278E+00
   0.165E+01 -.114E+01 -.464E+03   -.167E+01 0.115E+01 0.464E+03   0.192E-01 -.500E-02 0.243E+00
   -.366E+00 0.202E+00 0.556E+03   0.403E+00 -.201E+00 -.556E+03   -.424E-01 0.532E-03 -.936E-01
   0.139E+00 0.167E-02 0.557E+03   -.144E+00 -.727E-03 -.557E+03   0.830E-02 -.182E-02 -.386E-01
   -.535E-01 0.174E-01 0.159E+04   0.439E-01 -.200E-01 -.159E+04   0.120E-01 0.327E-02 0.312E+01
   0.450E-01 0.711E-01 0.159E+04   -.434E-01 -.734E-01 -.159E+04   -.205E-02 0.288E-02 0.312E+01
   -.334E+02 0.507E+01 -.150E+04   0.335E+02 -.509E+01 0.150E+04   -.818E-01 0.167E-01 -.441E+01
   0.104E+02 -.109E+02 -.152E+04   -.104E+02 0.107E+02 0.152E+04   -.404E-01 0.233E+00 -.459E+01
   -.338E+01 -.274E+01 -.458E+03   0.332E+01 0.274E+01 0.457E+03   0.507E-01 -.753E-02 0.379E+00
   0.117E+01 0.117E+01 -.459E+03   -.118E+01 -.119E+01 0.458E+03   0.364E-02 0.123E-01 0.417E+00
   0.227E+02 -.223E+02 0.198E+02   0.282E-13 -.733E-14 -.114E-12   -.199E+02 0.191E+02 -.177E+02

 POSITION                                       TOTAL-FORCE (eV/Angst)
      3.61610      5.23532     16.96777         0.008976      0.003176     -0.002584
      3.54290      4.15683     16.03427         0.006966      0.004459      0.011399
      4.51731      5.09426     17.56403         0.000155     -0.001004     -0.004141
      2.70808      4.21388     15.49528        -0.001166     -0.002568      0.000208
      3.68237      6.19715     16.44934         0.001131     -0.008151      0.004633
      2.74947      5.23251     17.63535         0.007558     -0.003186     -0.002150
      2.10122      0.00000      7.50000         0.001812      0.000300      0.398445
      4.20243      2.10122      7.50000         0.000635      0.001917      0.408370
      2.10122      2.10122      9.60122         0.007982      0.026174      0.027924
      4.20243      0.00000      9.60122         0.010333     -0.007233      0.049747
      2.10372      0.00158     11.70441         0.000226      0.000546     -0.002170
      4.20433      2.11052     11.72018        -0.001755      0.000495     -0.001325
      2.10245      2.07997     13.79017        -0.001144     -0.001044     -0.000828
      4.20664      0.00318     13.78618        -0.003139      0.001326     -0.000496
      2.10122      4.20243      7.50000         0.002434     -0.000179      0.408774
      4.20243      6.30365      7.50000         0.000709     -0.001895      0.411095
      2.10122      6.30365      9.60122         0.017262     -0.025941      0.025715
      4.20243      4.20243      9.60122        -0.008181      0.003975      0.063378
      2.11085      4.20044     11.72006        -0.001685      0.000670     -0.006200
      4.20483      6.29276     11.72142        -0.002015      0.001321     -0.002690
      2.09632      6.32490     13.77309        -0.001595      0.002184     -0.000189
      4.26091      4.19352     13.91822         0.001582      0.001420     -0.003203
      6.30365      0.00000      7.50000        -0.001785      0.000229      0.405859
      0.00000      2.10122      7.50000        -0.000682      0.001230      0.405210
      6.30365      2.10122      9.60122        -0.007375      0.004615      0.031127
      0.00000      0.00000      9.60122        -0.009217      0.003759      0.017514
      6.30160      0.00046     11.70656        -0.001185      0.000539     -0.002379
      8.40353      2.10207     11.71050        -0.000867      0.002028     -0.001708
      6.30399      2.09099     13.79602        -0.003438      0.002744     -0.001211
      8.40130      0.00072     13.79272        -0.001058      0.000651     -0.002551
      6.30365      4.20243      7.50000        -0.002480     -0.000104      0.404989
      0.00000      6.30365      7.50000        -0.000761     -0.001168      0.402342
      6.30365      6.30365      9.60122        -0.018548     -0.005810      0.027887
      0.00000      4.20243      9.60122         0.010097     -0.005411      0.050399
      6.29578      4.20097     11.71678        -0.002412      0.000666     -0.002712
      8.40222      6.30179     11.70829        -0.000615     -0.000497     -0.001578
      6.30686      6.31234     13.79083        -0.002978     -0.000701     -0.001346
      8.38485      4.20027     13.79246         0.004797      0.000662      0.000385
      2.10122      0.00000      9.60122        -0.010072      0.000998      0.048429
      4.20243      2.10122      9.60122        -0.007797      0.021682      0.060782
      2.10122      2.10122      7.50000        -0.002399     -0.004335     -0.493278
      4.20243      0.00000      7.50000        -0.002408      0.000611     -0.495375
      2.09856      8.40275     13.83541         0.000559      0.000970      0.000200
      4.20237      2.08635     13.81592         0.000277     -0.001122      0.002236
      2.09811      2.10594     11.70951         0.000989     -0.000920      0.004233
      4.20161      8.40202     11.69963        -0.005545      0.001394      0.002283
      2.10122      4.20243      9.60122         0.012727     -0.001386      0.063225
      4.20243      6.30365      9.60122        -0.005776     -0.026117      0.054889
      2.10122      6.30365      7.50000        -0.004065      0.004461     -0.492907
      4.20243      4.20243      7.50000         0.000759     -0.000656     -0.498605
      2.05645      4.20476     13.89228        -0.003472      0.000274      0.000923
      4.20046      6.31630     13.83782         0.000586      0.001451      0.003061
      2.09920      6.29833     11.70792        -0.000165      0.001161      0.004162
      4.19872      4.20347     11.72525         0.001208      0.000614      0.005010
      6.30365      0.00000      9.60122         0.011664     -0.002658      0.028121
      0.00000      2.10122      9.60122         0.008897     -0.001192      0.036905
      6.30365      2.10122      7.50000         0.002391     -0.001088     -0.495075
      0.00000      0.00000      7.50000         0.002437     -0.000982     -0.491365
      6.30632      8.40313     13.83765        -0.001097      0.001039      0.000765
     -0.00051      2.09361     13.83998         0.000252      0.002296      0.001947
      6.30714      2.10105     11.70455         0.000521      0.002713      0.002960
      0.00155      8.40383     11.70253         0.000432      0.000326      0.003206
      6.30365      4.20243      9.60122        -0.011655      0.001027      0.066810
      0.00000      6.30365      9.60122         0.004759     -0.000986      0.039961
      6.30365      6.30365      7.50000         0.003986      0.001171     -0.494803
      0.00000      4.20243      7.50000        -0.000756      0.001019     -0.493584
      6.32235      4.20310     13.84225        -0.007228      0.000925      0.001271
     -0.00049      6.31007     13.83969         0.000527     -0.001166      0.001992
      6.30542      6.30292     11.70549         0.001239     -0.003160      0.003541
      0.00353      4.20249     11.70808        -0.000350      0.001442      0.002138
    total drift:                                0.001395     -0.004633     -0.001799

  FREE ENERGIE OF THE ION-ELECTRON SYSTEM (eV)
  free  energy   TOTEN  =      -474.86903426 eV

  energy  without entropy=     -474.86903426  energy(sigma->0) =     -474.86903426

 d Force = 0.2054943E-04[ 0.164E-04, 0.247E-04]  d Energy = 0.1938149E-04 0.117E-05
 d Force = 0.1816511E+01[ 0.182E+01, 0.182E+01]  d Ewald  = 0.1816511E+01 0.359E-06

 Conjugate gradient step on ions:
 trial-energy change:   -0.000019  1 .order   -0.000021   -0.000025   -0.000016
  (g-gl).g = 0.782E-04      g.g   = 0.712E-04  gl.gl    = 0.837E-04
 g(Force)  = 0.712E-04   g(Stress)= 0.000E+00 ortho     = 0.177E-05
 gamma     =   0.93375
 trial     =   0.33948
 opt step  =   1.00657  (harmonic =   1.00657) maximal distance =0.00123746
 next E    =  -474.869052   (d E  =  -0.00004)

 reached required accuracy - stopping structural energy minimisation