 vasp.6.3.0 20Jan22 (build Mar 11 2022 13:48:16) complex

 executed on             LinuxIFC date 2024.01.22  05:49:25

 INCAR:
   SYSTEM = TiO2
   ISMEAR = 0
   SIGMA = 0.05
   EDIFF = 1E-5
   ALGO = ALL
   ISTART = 0
   IBRION = -1
   NSW = 0
   ISYM = 0
   ISIF = 2
   EDIFFG = -0.01
   DIPOL = 0.5 0.5 0.5
   IDIPOL = 3
   LDIPOL = .TRUE.
   GGA = MK
   LUSE_VDW = .TRUE.
   PARAM1 = 0.1234
   PARAM2 = 0.711357
   ZAB_VDW = -1.8867
   AGGAC = 0.0
   ENCUT = 600
   PREC = Accurate
   LASPH = .TRUE.
   LREAL = .FALSE.
   ISPIN = 1
   NELM = 200
   NELMIN = 8
   NCORE = 2
   KPAR = 1
   LWAVE = .FALSE.
   LCHARG = .FALSE.

 POTCAR:    PAW_PBE H 15Jun2001
 POTCAR:    PAW_PBE O 08Apr2002
 POTCAR:    PAW_PBE Ti_pv 07Sep2000
 POTCAR:    PAW_PBE O 08Apr2002
|           W    W    AA    RRRRR   N    N  II  N    N   GGGG   !!!           |
|           W    W   A  A   R    R  NN   N  II  NN   N  G    G  !!!           |
|           W    W  A    A  R    R  N N  N  II  N N  N  G       !!!           |
|           W WW W  AAAAAA  RRRRR   N  N N  II  N  N N  G  GGG   !            |
|           WW  WW  A    A  R   R   N   NN  II  N   NN  G    G                |
|           W    W  A    A  R    R  N    N  II  N    N   GGGG   !!!           |
|     For optimal performance we recommend to set                             |
|       NCORE = 2 up to number-of-cores-per-socket                            |
|     This setting can greatly improve the performance of VASP for DFT.       |
|     The default, NCORE=1 might be grossly inefficient on modern             |
|     multi-core architectures or massively parallel machines. Do your        |
|     Unfortunately you need to use the default for GW and RPA                |
|     calculations (for HF NCORE is supported but not extensively tested      |
|     yet).                                                                   |

   TITEL  = PAW_PBE H 15Jun2001
   POMASS =    1.000; ZVAL   =    1.000    mass and valenz
   ENMAX  =  250.000; ENMIN  =  200.000 eV

   TITEL  = PAW_PBE O 08Apr2002
   POMASS =   16.000; ZVAL   =    6.000    mass and valenz
   ENMAX  =  400.000; ENMIN  =  300.000 eV

   TITEL  = PAW_PBE Ti_pv 07Sep2000
   POMASS =   47.880; ZVAL   =   10.000    mass and valenz
   ENMAX  =  222.335; ENMIN  =  166.751 eV

   TITEL  = PAW_PBE O 08Apr2002
   POMASS =   16.000; ZVAL   =    6.000    mass and valenz
   ENMAX  =  400.000; ENMIN  =  300.000 eV

  PAW_PBE H 15Jun2001                   :
  PAW_PBE O 08Apr2002                   :
  PAW_PBE Ti_pv 07Sep2000               :
  PAW_PBE O 08Apr2002                   :

 POSCAR:  H  O Ti  O
  positions in direct lattice
 exchange correlation table for  LEXCH =       43
   RHO(1)=    0.500       N(1)  =     2000
   RHO(2)=  100.500       N(2)  =     4000

 ion  position               nearest neighbor table
   1  0.694  0.433  0.772-   3 0.98
   2  0.689  0.569  0.774-   3 0.98
   3  0.632  0.499  0.774-   2 0.98   1 0.98  51 2.30
   4  0.808  0.833  0.295-  88 1.94  54 1.94  56 1.94  53 1.99  55 1.99  21 3.05   7 3.05   5 3.05

   5  0.592  0.667  0.327-  52 1.94 119 1.94  55 1.94  57 1.94  56 1.99  58 1.99  36 3.05   6 3.05
                             4 3.05  10 3.08
   6  0.308  0.667  0.295- 124 1.94  58 1.94  60 1.94  52 1.99  59 1.99  39 3.05   5 3.05   7 3.05

   7  0.092  0.833  0.327-  53 1.94  91 1.94  59 1.94  61 1.94  60 1.99  54 1.99  22 3.05   4 3.05
                             6 3.05   8 3.08
   8  0.945  0.834  0.423-  62 1.92  96 1.93  64 1.94  54 1.98  63 1.98  61 2.00  11 2.99   9 3.04
                            25 3.05   7 3.08
   9  0.727  0.666  0.451-  57 1.89 127 1.93  63 1.94  65 1.96  66 1.99  64 2.00  10 3.01   8 3.04
                            40 3.05  14 3.10
  10  0.444  0.667  0.422-  66 1.93 132 1.93  68 1.93  58 1.97  67 1.99  57 2.00   9 3.01  11 3.05
                            43 3.05   5 3.08
  11  0.226  0.833  0.452-  61 1.90  99 1.94  67 1.94  62 1.97  69 1.97  68 2.01   8 2.99  26 3.05
                            10 3.05  12 3.11
  12  0.086  0.834  0.550-  70 1.92 104 1.93  72 1.94  71 1.97  69 2.01  62 2.01  15 2.95  13 3.04
                            29 3.05  11 3.11
  13  0.865  0.666  0.575-  65 1.86 135 1.93  71 1.94  74 1.95  72 2.01  73 2.01  14 2.98  12 3.04
                            44 3.05  18 3.17
  14  0.584  0.667  0.549- 140 1.93  74 1.93  76 1.93  66 1.97  75 1.98  65 2.02  13 2.98  15 3.05
                            47 3.06   9 3.10
  15  0.364  0.834  0.577-  69 1.86 107 1.94  75 1.94  70 1.95  77 2.00  76 2.02  12 2.95  30 3.05
                            14 3.05
  16  0.231  0.833  0.681-  78 1.86  80 1.93 112 1.94  79 2.00  77 2.10  70 2.10  19 2.85  33 3.07
                            17 3.09
  17  0.000  0.666  0.700-  73 1.78  81 1.84 143 1.97  79 1.98  80 2.07  18 2.86  16 3.09  48 3.10

[...]

  20  0.808  0.167  0.295-  88 1.94  86 1.94 120 1.94  85 1.99  87 1.99  21 3.05  23 3.05  37 3.05

[...]

  36  0.808  0.500  0.295-  56 1.94 120 1.94 118 1.94 119 1.99 117 1.99   5 3.05  37 3.05  39 3.05

  37  0.592  0.333  0.327- 116 1.94 119 1.94  87 1.94 121 1.94 120 1.99 122 1.99  36 3.05  38 3.05
                            20 3.05  42 3.08
  38  0.308  0.333  0.295- 124 1.94 122 1.94  92 1.94 123 1.99 116 1.99  39 3.05  37 3.05  23 3.05

  39  0.092  0.500  0.327- 117 1.94  59 1.94 123 1.94 125 1.94 124 1.99 118 1.99  38 3.05   6 3.05
                            36 3.05  40 3.07
  40  0.946  0.500  0.422- 126 1.93  64 1.93 128 1.94 118 1.97 125 1.98 127 2.00  43 2.99  41 3.05
                             9 3.05  39 3.07
  41  0.727  0.334  0.451- 121 1.89 127 1.93  95 1.94 129 1.96 130 1.99 128 2.00  42 3.01  24 3.04
                            40 3.05  46 3.10
  42  0.444  0.334  0.422- 130 1.93 132 1.93 100 1.93 122 1.97 131 1.99 121 2.01  41 3.01  27 3.05
                            43 3.05  37 3.08
  43  0.226  0.500  0.453- 125 1.92 131 1.94  67 1.94 126 1.96 133 1.97 132 2.01  40 2.99  42 3.05
                            10 3.05  44 3.07
  44  0.089  0.500  0.551- 134 1.92  72 1.93 136 1.93 133 1.98 135 2.00 126 2.01  47 2.96  45 3.05
                            13 3.05  43 3.07
  45  0.865  0.334  0.575- 129 1.86 135 1.93 103 1.94 138 1.95 136 2.01 137 2.01  46 2.98  28 3.04
                            44 3.05  50 3.16
  46  0.584  0.334  0.549- 140 1.93 138 1.93 108 1.93 130 1.97 139 1.98 129 2.02  45 2.98  31 3.05
                            47 3.06  41 3.10
  47  0.366  0.500  0.580- 133 1.92  75 1.94 139 1.94 134 1.94 141 2.00 140 2.03  44 2.96  46 3.06
                            14 3.06  48 3.14
  48  0.234  0.500  0.681- 142 1.86 144 1.93  80 1.93 143 2.03 141 2.05 134 2.10  51 2.87  17 3.10
                            49 3.10  47 3.14
  49  1.000  0.335  0.700- 137 1.78 145 1.84 143 1.97 111 1.98 144 2.07  50 2.86  32 3.09  48 3.10

  50  0.729  0.335  0.677- 145 1.90 147 1.92 115 1.94 146 1.99 138 2.03 137 2.10  49 2.86  35 3.08
                            51 3.08  45 3.16
  51  0.505  0.500  0.706- 142 1.82 141 1.86 146 1.98  82 1.98 147 2.11   3 2.30  48 2.87  50 3.08
                            18 3.08
  52  0.488  0.667  0.269-   5 1.94   6 1.99
  53  0.988  0.833  0.269-   7 1.94   4 1.99
  54  0.911  0.833  0.353-   4 1.94   8 1.98   7 1.99
  55  0.627  0.833  0.321-  21 1.94   5 1.94   4 1.99
  56  0.772  0.667  0.300-  36 1.94   4 1.94   5 1.99
  57  0.624  0.667  0.395-   9 1.89   5 1.94  10 2.00
  58  0.411  0.667  0.353-   6 1.94  10 1.97   5 1.99
  59  0.127  0.667  0.321-  39 1.94   7 1.94   6 1.99
  60  0.272  0.833  0.300-  22 1.94   6 1.94   7 1.99
  61  0.124  0.833  0.395-  11 1.90   7 1.94   8 2.00
  62  0.049  0.834  0.480-   8 1.92  11 1.97  12 2.01
  63  0.764  0.833  0.447-  25 1.94   9 1.94   8 1.98
  64  0.910  0.667  0.427-  40 1.93   8 1.94   9 2.00
  65  0.764  0.666  0.520-  13 1.86   9 1.96  14 2.02
  66  0.549  0.666  0.480-  10 1.93  14 1.97   9 1.99
  67  0.264  0.667  0.448-  43 1.94  11 1.94  10 1.99
  68  0.409  0.833  0.427-  10 1.93  26 1.93  11 2.01
  69  0.264  0.833  0.521-  15 1.86  11 1.97  12 2.01
  70  0.193  0.833  0.607-  12 1.92  15 1.95  16 2.10
  71  0.904  0.834  0.573-  29 1.94  13 1.94  12 1.97
  72  0.052  0.667  0.553-  44 1.93  12 1.94  13 2.01
  73  0.914  0.668  0.645-  17 1.78  13 2.01  18 2.10
  74  0.694  0.669  0.605-  14 1.93  13 1.95  18 2.03
  75  0.405  0.667  0.575-  47 1.94  15 1.94  14 1.98
  76  0.549  0.834  0.553-  30 1.93  14 1.93  15 2.02
  77  0.412  0.835  0.646-  19 1.78  15 2.00  16 2.10
  78  0.347  0.833  0.732-  19 1.84  16 1.86
  79  0.052  0.833  0.709-  33 1.98  17 1.98  16 2.00
  80  0.195  0.666  0.681-  16 1.93  48 1.93  17 2.07
  81  0.841  0.661  0.731-  17 1.84  18 1.89
  82  0.554  0.668  0.708-  19 1.97  51 1.98  18 1.99
  83  0.695  0.834  0.679-  34 1.93  18 1.94  19 2.06
  84  0.488  0.000  0.269-  21 1.94  22 1.99
  85  0.988  0.167  0.269-  23 1.94  20 1.99
  86  0.911  0.167  0.353-  20 1.94  24 1.98  23 1.99
  87  0.627  0.167  0.321-  21 1.94  37 1.94  20 1.99
  88  0.772  0.000  0.300-   4 1.94  20 1.94  21 1.99
  89  0.624  0.000  0.395-  25 1.89  21 1.94  26 2.00
  90  0.411  0.000  0.353-  22 1.94  26 1.98  21 1.99
  91  0.127  0.000  0.321-   7 1.94  23 1.94  22 1.99
  92  0.272  0.167  0.300-  22 1.94  38 1.94  23 1.99
  93  0.124  0.167  0.395-  27 1.90  23 1.94  24 2.00
  94  0.049  0.167  0.480-  24 1.92  27 1.97  28 2.01
  95  0.764  0.167  0.447-  25 1.94  41 1.94  24 1.98
  96  0.909  0.000  0.427-   8 1.93  24 1.93  25 2.00
  97  0.764  0.000  0.520-  29 1.86  25 1.97  30 2.01
  98  0.549  0.000  0.480-  26 1.92  25 1.98  30 2.00
  99  0.264  0.000  0.448-  27 1.94  11 1.94  26 1.99
 100  0.409  0.167  0.427-  42 1.93  26 1.93  27 2.01
 101  0.264  0.167  0.521-  31 1.86  27 1.97  28 2.01
 102  0.193  0.167  0.607-  28 1.92  31 1.95  32 2.10
 103  0.904  0.167  0.573-  29 1.94  45 1.94  28 1.97
 104  0.051  0.000  0.553-  12 1.93  28 1.93  29 2.03
 105  0.913  0.000  0.646-  33 1.78  29 2.01  34 2.09
 106  0.693  0.000  0.606-  30 1.92  29 1.94  34 2.09
 107  0.404  0.000  0.574-  15 1.94  31 1.94  30 1.98
 108  0.549  0.167  0.553-  30 1.93  46 1.93  31 2.02
 109  0.412  0.165  0.646-  35 1.78  31 2.00  32 2.10
 110  0.347  0.167  0.732-  35 1.84  32 1.86
 111  0.052  0.168  0.709-  33 1.98  49 1.98  32 2.00
[...]
 133  0.266  0.500  0.522-  47 1.92  43 1.97  44 1.98
 134  0.193  0.500  0.608-  44 1.92  47 1.94  48 2.10
 135  0.904  0.500  0.573-  45 1.93  13 1.93  44 2.00
 136  0.051  0.334  0.553-  44 1.93  28 1.94  45 2.01
 137  0.914  0.332  0.645-  49 1.78  45 2.01  50 2.10
 138  0.694  0.331  0.605-  46 1.93  45 1.95  50 2.03
 139  0.405  0.334  0.575-  47 1.94  31 1.94  46 1.98
 140  0.551  0.500  0.554-  46 1.93  14 1.93  47 2.03
 141  0.413  0.500  0.649-  51 1.86  47 2.00  48 2.05
 142  0.345  0.500  0.734-  51 1.82  48 1.86
 143  0.051  0.500  0.708-  49 1.97  17 1.97  48 2.03
 144  0.195  0.334  0.681-  32 1.93  48 1.93  49 2.07
 145  0.841  0.340  0.731-  49 1.84  50 1.90
 146  0.554  0.332  0.708-  35 1.97  51 1.98  50 1.99
 147  0.693  0.500  0.675-  18 1.92  50 1.92  51 2.11

IMPORTANT INFORMATION: All symmetrisations will be switched off!
[...]
  10.15250698  9.47400868  7.50000000
   9.36380511  9.47400868  9.85154599
   6.44590546  9.47400868  8.97095207
   7.93352867  7.57920695  8.38059392
   6.41347169  7.57920695 11.02237567
   4.22692715  7.57920695  9.85154599
   1.30902750  7.57920695  8.97095207
   2.79665070  9.47400868  8.38059392
[...]
   2.72798632  5.68568333 14.57069407
   1.98508780  5.68729208 16.96419565
   9.29013907  5.68672881 16.00732357
   0.52906972  3.79466043 15.44052830
   9.38592437  3.77762681 18.00928746
   7.13023226  3.76181742 16.89922261
   4.15794954  3.79366009 16.04769985
   5.65779448  5.68617809 15.46271414
   4.24704808  5.68812075 18.11858062
   3.54204057  5.68646205 20.49770437
   0.52904171  5.68716842 19.77764012
   1.99939348  3.79770463 19.01108495
   8.63878983  3.86148030 20.39753654
   5.69333686  3.77384739 19.75784900
   7.11528600  5.68719850 18.85003606

--------------------------------------- Iteration      FINAL  ---------------------------------------

--------------------OUTCAR has been truncated-------------------------

[...]

--------------------OUTCAR has been truncated-------------------------

  FORCE on cell =-STRESS in cart. coord.  units (eV):
  Direction    XX          YY          ZZ          XY          YZ          ZX
  Alpha Z  2442.53637  2442.53637  2442.53637
  Ewald  486975.51660480476.57633************    -4.06634     9.15141 -1816.29365
  Hartree508108.44093504130.86229************    -1.87744     3.51679 -1225.63843
  E(xc)   -5196.32797 -5196.74160 -5195.67936    -0.00883     0.01691    -0.30706
  Local  ************************************     5.58389   -11.63949  3050.40091
  n-local -3329.76856 -3296.15409 -3339.19161    -0.03865     0.06539     2.82856
  augment  3154.27422  3151.54293  3145.90191     0.02243    -0.05499    -0.83148
  Kinetic 17156.25361 17204.95609 17280.17180     0.39308    -1.15389   -17.37490
  Fock        0.00000     0.00000     0.00000     0.00000     0.00000     0.00000
  Total     -36.70198    -4.13560    -4.86277     0.00815    -0.09786    -7.21604
  in kB     -18.03271    -2.03194    -2.38922     0.00401    -0.04808    -3.54544

 VOLUME and BASIS-vectors are now :
  energy-cutoff  :      600.00
  volume of cell :     3260.91
      direct lattice vectors                 reciprocal lattice vectors
    10.273755933  0.000000000  0.000000000     0.097335386 -0.000000000  0.000000000
     0.000000000 11.368810418  0.000000000     0.000000000  0.087959950  0.000000000
     0.000000000  0.000000000 27.918672987     0.000000000  0.000000000  0.035818321

  length of vectors
    10.273755933 11.368810418 27.918672987     0.097335386  0.087959950  0.035818321

 FORCES acting on ions:
    Electron-Ion                     Ewald-Force                    Non-Local-Force
   -.528E+02 0.633E+02 -.358E+03   0.580E+02 -.698E+02 0.358E+03   -.517E+01 0.638E+01 0.435E+00
   -.491E+02 -.672E+02 -.360E+03   0.540E+02 0.741E+02 0.360E+03   -.480E+01 -.673E+01 0.752E-01
   0.142E+02 0.231E+01 -.218E+04   -.555E+02 -.403E+01 0.219E+04   0.410E+02 0.172E+01 -.101E+02
   0.643E+01 -.116E+00 0.337E+04   -.160E+01 0.120E+00 -.337E+04   -.104E+01 -.710E-03 -.311E+01
   0.504E+01 -.248E+00 0.277E+04   -.655E+01 0.252E+00 -.277E+04   -.117E+00 -.105E-02 -.106E+00
   0.644E+01 0.916E-01 0.337E+04   -.164E+01 -.926E-01 -.337E+04   -.103E+01 0.636E-03 -.311E+01
   0.331E+01 0.520E-01 0.277E+04   -.487E+01 -.573E-01 -.277E+04   -.108E+00 0.150E-02 -.111E+00
   -.217E+00 -.224E+00 0.126E+04   0.347E-01 0.219E+00 -.126E+04   0.179E+00 0.994E-03 0.279E-01
   0.164E+01 -.224E+01 0.805E+03   -.157E+01 0.223E+01 -.804E+03   -.473E-01 0.195E-01 -.160E+00
   0.200E+01 -.413E+00 0.127E+04   -.216E+01 0.408E+00 -.127E+04   0.162E+00 0.759E-02 -.391E-03
   -.636E+01 0.242E+00 0.792E+03   0.644E+01 -.247E+00 -.792E+03   -.337E-01 0.310E-02 -.156E+00
   -.597E+01 -.238E+01 -.782E+03   0.566E+01 0.236E+01 0.782E+03   0.313E+00 0.474E-02 0.126E+00
   -.140E+02 -.506E+01 -.117E+04   0.142E+02 0.510E+01 0.117E+04   -.106E+00 -.324E-01 -.236E+00
   0.300E+01 -.236E+01 -.747E+03   -.324E+01 0.236E+01 0.747E+03   0.261E+00 0.310E-02 0.829E-01
   -.107E+01 -.209E+01 -.120E+04   0.129E+01 0.210E+01 0.120E+04   -.126E+00 -.982E-02 -.285E+00
   0.285E+02 -.128E+02 -.279E+04   -.295E+02 0.128E+02 0.279E+04   0.976E+00 0.164E-01 -.807E-01
   -.916E+02 -.283E+02 -.318E+04   0.920E+02 0.282E+02 0.318E+04   -.929E-01 0.164E+00 0.612E+00
   -.110E+02 -.547E+02 -.269E+04   0.102E+02 0.548E+02 0.269E+04   0.813E+00 -.393E-01 0.427E-01
   -.580E+02 -.349E+02 -.318E+04   0.584E+02 0.349E+02 0.318E+04   -.593E-01 0.770E-02 0.661E+00
   0.643E+01 0.126E+00 0.337E+04   -.160E+01 -.130E+00 -.337E+04   -.104E+01 0.854E-03 -.311E+01
   0.495E+01 0.211E-01 0.277E+04   -.650E+01 -.217E-01 -.277E+04   -.109E+00 0.272E-03 -.114E+00
   0.630E+01 0.107E-01 0.337E+04   -.147E+01 -.110E-01 -.337E+04   -.103E+01 0.983E-04 -.311E+01
   0.332E+01 -.159E-01 0.277E+04   -.488E+01 0.195E-01 -.277E+04   -.108E+00 -.570E-03 -.112E+00
   -.335E+00 0.103E+00 0.126E+04   0.158E+00 -.105E+00 -.126E+04   0.177E+00 0.359E-02 0.275E-01
   -.196E+01 0.844E-02 0.799E+03   0.202E+01 -.112E-01 -.799E+03   -.146E-01 0.748E-03 -.165E+00
   0.205E+01 -.337E-01 0.126E+04   -.222E+01 0.315E-01 -.126E+04   0.169E+00 0.158E-02 0.107E-01
   -.628E+01 -.915E-01 0.793E+03   0.636E+01 0.962E-01 -.792E+03   -.332E-01 -.428E-02 -.157E+00
   -.618E+01 0.230E+01 -.782E+03   0.587E+01 -.229E+01 0.782E+03   0.312E+00 -.129E-02 0.127E+00
   -.115E+02 0.352E-01 -.119E+04   0.117E+02 -.351E-01 0.119E+04   -.837E-01 -.242E-03 -.255E+00
   -.902E+00 0.103E-01 -.770E+03   0.602E+00 -.116E-01 0.770E+03   0.299E+00 0.642E-03 0.148E+00
   -.960E+00 0.205E+01 -.120E+04   0.119E+01 -.206E+01 0.120E+04   -.126E+00 0.114E-01 -.286E+00
   0.289E+02 0.124E+02 -.279E+04   -.299E+02 -.124E+02 0.279E+04   0.976E+00 -.138E-01 -.799E-01
   -.759E+02 -.162E+00 -.319E+04   0.763E+02 0.160E+00 0.319E+04   -.121E+00 0.122E-02 0.630E+00
   0.106E+02 0.675E-01 -.278E+04   -.115E+02 -.645E-01 0.278E+04   0.906E+00 -.199E-02 -.297E-01
   -.583E+02 0.353E+02 -.318E+04   0.587E+02 -.353E+02 0.318E+04   -.603E-01 -.970E-02 0.663E+00
   0.643E+01 -.372E-02 0.337E+04   -.159E+01 0.424E-02 -.337E+04   -.104E+01 -.314E-04 -.310E+01
   0.503E+01 0.258E+00 0.277E+04   -.654E+01 -.262E+00 -.277E+04   -.118E+00 0.143E-02 -.106E+00
   0.644E+01 -.999E-01 0.337E+04   -.165E+01 0.102E+00 -.337E+04   -.103E+01 -.673E-03 -.311E+01
   0.230E+01 0.115E-01 0.277E+04   -.381E+01 -.120E-01 -.277E+04   -.128E+00 0.414E-03 -.103E+00
   0.567E+00 -.631E-01 0.126E+04   -.748E+00 0.615E-01 -.126E+04   0.166E+00 0.133E-02 0.588E-01
   0.187E+01 0.222E+01 0.805E+03   -.180E+01 -.221E+01 -.805E+03   -.476E-01 -.201E-01 -.160E+00
   0.188E+01 0.312E+00 0.127E+04   -.204E+01 -.311E+00 -.127E+04   0.160E+00 -.509E-02 -.839E-03
   -.914E+01 0.740E-01 0.776E+03   0.924E+01 -.724E-01 -.776E+03   -.503E-01 -.106E-02 -.572E-01
   -.310E+01 -.373E-01 -.785E+03   0.283E+01 0.350E-01 0.785E+03   0.245E+00 0.103E-02 0.141E+00
   -.138E+02 0.489E+01 -.116E+04   0.140E+02 -.494E+01 0.117E+04   -.105E+00 0.339E-01 -.231E+00
   0.296E+01 0.237E+01 -.747E+03   -.320E+01 -.237E+01 0.747E+03   0.257E+00 -.319E-02 0.808E-01
   -.173E+01 0.181E+00 -.124E+04   0.194E+01 -.178E+00 0.124E+04   -.125E+00 -.196E-02 -.139E+00
   0.440E+02 0.317E-01 -.279E+04   -.448E+02 -.293E-01 0.279E+04   0.790E+00 -.106E-02 0.975E-02
   -.914E+02 0.287E+02 -.318E+04   0.918E+02 -.285E+02 0.318E+04   -.885E-01 -.173E+00 0.617E+00
   -.117E+02 0.551E+02 -.268E+04   0.109E+02 -.552E+02 0.268E+04   0.808E+00 0.439E-01 0.506E-01
   0.287E+02 -.576E+00 -.314E+04   -.279E+02 0.568E+00 0.314E+04   -.420E+00 0.613E-02 0.360E+00
   -.322E+02 -.471E-01 0.228E+04   0.369E+02 0.482E-01 -.229E+04   -.650E+01 -.137E-02 0.171E+02
   -.326E+02 -.440E-01 0.228E+04   0.373E+02 0.433E-01 -.229E+04   -.649E+01 0.921E-03 0.171E+02
   0.815E+02 0.629E-01 0.138E+04   -.863E+02 -.853E-01 -.138E+04   0.378E+01 0.229E-01 -.448E+01
   0.750E+02 -.103E+00 0.169E+04   -.819E+02 0.106E+00 -.168E+04   0.730E+01 -.701E-02 -.262E+01
   -.862E+02 -.119E+00 0.194E+04   0.934E+02 0.119E+00 -.194E+04   -.695E+01 -.224E-02 -.564E-01
   -.687E+02 -.866E+00 0.106E+04   0.742E+02 0.897E+00 -.106E+04   -.563E+01 -.235E-01 0.423E+01
   0.824E+02 0.626E-01 0.138E+04   -.871E+02 -.538E-01 -.138E+04   0.374E+01 -.978E-02 -.430E+01
   0.739E+02 0.493E-01 0.169E+04   -.808E+02 -.542E-01 -.168E+04   0.732E+01 0.136E-01 -.263E+01
   -.864E+02 0.872E-02 0.194E+04   0.936E+02 -.653E-02 -.194E+04   -.692E+01 -.782E-02 -.622E-01
[...]
   0.876E+02 -.463E-01 -.108E+04   -.945E+02 0.550E-01 0.109E+04   0.692E+01 -.978E-02 -.734E+01
   0.687E+02 -.174E+00 -.715E+03   -.747E+02 0.189E+00 0.718E+03   0.596E+01 -.122E-01 -.313E+01
   -.830E+02 0.137E+01 -.459E+03   0.893E+02 -.145E+01 0.456E+03   -.640E+01 0.755E-01 0.274E+01
   -.706E+02 0.155E+02 -.128E+04   0.730E+02 -.161E+02 0.127E+04   -.251E+01 0.629E+00 0.979E+01
   0.805E+02 0.159E+02 -.104E+04   -.868E+02 -.166E+02 0.104E+04   0.627E+01 0.710E+00 -.546E+01
   0.809E+02 0.205E+01 -.733E+03   -.872E+02 -.216E+01 0.736E+03   0.635E+01 0.105E+00 -.336E+01
   -.722E+02 -.618E-01 -.462E+03   0.783E+02 0.668E-01 0.460E+03   -.609E+01 -.546E-02 0.224E+01
   -.538E+02 -.462E+00 -.131E+04   0.589E+02 0.498E+00 0.130E+04   -.517E+01 -.365E-01 0.701E+01
   0.110E+03 0.254E-02 -.228E+04   -.116E+03 -.117E-01 0.230E+04   0.613E+01 0.907E-02 -.209E+02
   0.409E+02 -.150E-01 -.201E+04   -.446E+02 0.225E-01 0.201E+04   0.370E+01 -.773E-02 -.739E+01
   -.493E+02 0.815E+01 -.166E+04   0.541E+02 -.806E+01 0.165E+04   -.479E+01 -.918E-01 0.301E+01
   0.378E+01 0.390E+02 -.225E+04   -.873E+01 -.388E+02 0.227E+04   0.496E+01 -.195E+00 -.189E+02
   0.837E+02 0.555E+02 -.196E+04   -.885E+02 -.555E+02 0.196E+04   0.482E+01 0.164E-01 -.681E+01
   -.563E+02 -.306E+00 -.152E+04   0.597E+02 0.301E+00 0.151E+04   -.347E+01 0.347E-02 0.518E+01
   -.404E+02 -.150E+01 0.733E+02   0.320E-12 0.824E-12 -.932E-11   0.404E+02 0.150E+01 -.733E+02

 POSITION                                       TOTAL-FORCE (eV/Angst)
      7.12601      4.92762     21.55423         0.087946     -0.176314      0.006053
      7.07816      6.46372     21.59719         0.082734      0.177966      0.011098
      6.49485      5.67657     21.61376        -0.241988     -0.002008     -0.117453
      8.29921      9.47401      8.23548         3.824181      0.003157      1.636694
      6.08023      7.57921      9.11607        -1.635688      0.002744     -1.978202
      3.16233      7.57921      8.23548         3.790948     -0.000287      1.613923
      0.94335      9.47401      9.11607        -1.676139     -0.003833     -1.981412
      9.70804      9.47696     11.79939        -0.001731     -0.002109     -0.045991
      7.46680      7.57573     12.59376         0.011315      0.003932      0.024354
      4.56313      7.57772     11.79452         0.000334      0.001232     -0.039385
      2.31691      9.47426     12.60946         0.023686     -0.001036      0.020001
      0.88581      9.47973     15.36543         0.002882     -0.006244     -0.033587
      8.89061      7.57665     16.05893         0.045800      0.007101      0.073043
      6.00361      7.58012     15.33207         0.008632      0.000124     -0.015679
      3.73970      9.47663     16.10029         0.046924     -0.002108      0.061690
      2.37420      9.46848     19.00448         0.002349      0.006605      0.048793
      0.00061      7.57079     19.54914         0.099234      0.008724      0.120993
      7.48719      7.56984     18.89699         0.015390      0.026796      0.050470
      5.17131      9.48586     19.55488         0.069682      0.009182      0.122937
      8.29921      1.89480      8.23548         3.823656     -0.002955      1.636085
      6.08023      0.00000      9.11607        -1.660044     -0.000378     -1.976086
      3.16233      0.00000      8.23548         3.815454     -0.000220      1.629868
      0.94335      1.89480      9.11607        -1.675620      0.002952     -1.981320
      9.70775      1.89443     11.79934         0.001809     -0.000362     -0.045691
      7.45840      0.00121     12.59926         0.019124     -0.001980      0.020375
      4.56506      0.00071     11.79888         0.000013     -0.000628     -0.045386
      2.31702      1.89600     12.60912         0.022173      0.000116      0.022105
      0.88555      1.89426     15.36503         0.005096      0.004386     -0.033556
      8.87554      0.00249     16.07756         0.052043     -0.000175      0.066647
      6.01053      0.00188     15.34967        -0.000749     -0.000613     -0.024799
      3.73944      1.89581     16.10016         0.045038      0.001478      0.059588
      2.37400      1.90629     19.00429        -0.000683     -0.006132      0.048150
      0.02796      0.00320     19.54922         0.076140     -0.000831      0.132333
      7.52089      0.00202     18.97289        -0.003378      0.001044      0.055856
      5.17094      1.88638     19.55435         0.073228     -0.008676      0.123474
      8.29921      5.68441      8.23548         3.830764      0.000512      1.627934
      6.08023      3.78960      9.11607        -1.634250     -0.002843     -1.978006
      3.16233      3.78960      8.23548         3.789934      0.000940      1.612753
      0.94335      5.68441      9.11607        -1.643986     -0.000046     -1.919246
      9.72335      5.68586     11.79347        -0.004012      0.000049     -0.038756
      7.46718      3.79564     12.59351         0.009023     -0.004031      0.025777
      4.56290      3.79264     11.79430         0.002076     -0.001227     -0.039483
      2.32113      5.68515     12.63847         0.018727      0.000578      0.009958
      0.91611      5.68740     15.37096        -0.010307     -0.000873     -0.027800
      8.89151      3.79737     16.05804         0.043150     -0.008577      0.073317
      6.00291      3.79240     15.33113         0.011008      0.000548     -0.016217
      3.76101      5.68639     16.18358         0.035398      0.000618      0.041167
      2.40874      5.68700     19.01769        -0.014306      0.001199      0.046515
     10.27277      3.80414     19.54998         0.097554     -0.008664      0.117482
      7.48558      3.80345     18.89296         0.013822     -0.027288      0.050355
      5.18998      5.68612     19.72347         0.121587     -0.001506      0.174088
      5.01563      7.57921      7.50000        -1.794008     -0.000235      1.044648
     10.15251      9.47401      7.50000        -1.787428      0.000201      1.038406
      9.36381      9.47401      9.85155        -0.957160      0.000431     -0.190087
      6.44591      9.47401      8.97095         0.392783     -0.003456     -0.066894
      7.93353      7.57921      8.38059         0.222025     -0.001951     -1.041157
      6.41347      7.57921     11.02238        -0.117220      0.006796      0.394152
      4.22693      7.57921      9.85155        -0.966455     -0.000911     -0.179907
      1.30903      7.57921      8.97095         0.404577      0.008714     -0.074349
      2.79665      9.47401      8.38059         0.233486     -0.005609     -1.044003
[...]
      2.72799      5.68568     14.57069        -0.029629     -0.000257     -0.023425
      1.98509      5.68729     16.96420         0.020605     -0.001136      0.059654
      9.29014      5.68673     16.00732         0.034902      0.002837      0.000738
      0.52907      3.79466     15.44053        -0.034344     -0.002795      0.003602
      9.38592      3.77763     18.00929        -0.095066     -0.000016     -0.062012
      7.13023      3.76182     16.89922         0.021831      0.002485      0.046121
      4.15795      3.79366     16.04770         0.024466     -0.005954     -0.004881
      5.65779      5.68618     15.46271        -0.038126     -0.000506      0.011961
      4.24705      5.68812     18.11858        -0.068058     -0.000771     -0.031551
      3.54204      5.68646     20.49770         0.006381     -0.000071     -0.040645
      0.52904      5.68717     19.77764         0.034859     -0.000266     -0.017103
      1.99939      3.79770     19.01108        -0.065018     -0.001288      0.025335
      8.63879      3.86148     20.39754         0.011212      0.001751     -0.026985
      5.69334      3.77385     19.75785         0.030799     -0.007161     -0.005699
      7.11529      5.68720     18.85004        -0.058000     -0.001512      0.022528
    total drift:                               -0.000219     -0.002505      0.036059

  FREE ENERGIE OF THE ION-ELECTRON SYSTEM (eV)
  free  energy   TOTEN  =     -1057.65021592 eV

  energy  without entropy=    -1057.65021592  energy(sigma->0) =    -1057.65021592