 vasp.6.3.0 20Jan22 (build Apr  1 2022 16:44:48) complex
 executed on        HPECrayEX_GCC date 2023.02.14  20:26:21

 INCAR:
   SYSTEM = MgO-rocksalt
   ISMEAR = 0
   SIGMA = 0.05
   EDIFF = 1E-7
   ALGO = ALL
   ISTART = 0
   IBRION = 2
   NSW = 1000
   ISYM = 0
   ISIF = 2
   EDIFFG = -0.01
   DIPOL = 0.5 0.5 0.5
   IDIPOL = 3
   LDIPOL = .TRUE.
   GGA = MK
   LUSE_VDW = .TRUE.
   PARAM1 = 0.1234
   PARAM2 = 0.711357
   ZAB_VDW = -1.8867
   AGGAC = 0.0
   ENCUT = 600
   PREC = Accurate
   LASPH = .TRUE.
   LREAL = .FALSE.
   ISPIN = 1
   NELM = 200
   NELMIN = 8
   NCORE = 8
   KPAR = 1
   LWAVE = .FALSE.
   LCHARG = .FALSE.

 POTCAR:    PAW_PBE N 08Apr2002
 POTCAR:    PAW_PBE H 15Jun2001
 POTCAR:    PAW_PBE Mg_pv 13Apr2007
 POTCAR:    PAW_PBE O 08Apr2002
|               ----> ADVICE to this user running VASP <----                  |
|     You have switched on vdW-DFT.                                           |
|     This routine was written and supplied by Jiri Klimes. We recommend      |
|     that you carefully read and cite the following publications:            |
|       J. Klimes, D.R. Bowler, A. Michelides                                 |
|          J. Phys.: Cond Matt. 22 022201 (2010)                              |
|       J. Klimes, D.R. Bowler, A. Michelides                                 |
|          Phys. Rev. B. 83, 195131 (2011)                                    |
|     and references therein.                                                 |

   TITEL  = PAW_PBE N 08Apr2002
   POMASS =   14.001; ZVAL   =    5.000    mass and valenz
   ENMAX  =  400.000; ENMIN  =  300.000 eV

   TITEL  = PAW_PBE H 15Jun2001
   POMASS =    1.000; ZVAL   =    1.000    mass and valenz
   ENMAX  =  250.000; ENMIN  =  200.000 eV

   TITEL  = PAW_PBE Mg_pv 13Apr2007
   POMASS =   24.305; ZVAL   =    8.000    mass and valenz
   ENMAX  =  403.929; ENMIN  =  302.947 eV

   TITEL  = PAW_PBE O 08Apr2002
   POMASS =   16.000; ZVAL   =    6.000    mass and valenz
   ENMAX  =  400.000; ENMIN  =  300.000 eV

  PAW_PBE N 08Apr2002                   :
  PAW_PBE H 15Jun2001                   :
  PAW_PBE Mg_pv 13Apr2007               :
  PAW_PBE O 08Apr2002                   :

 POSCAR:  N  H Mg  O
  positions in direct lattice
 exchange correlation table for  LEXCH =       43
   RHO(1)=    0.500       N(1)  =     2000
   RHO(2)=  100.500       N(2)  =     4000

 ion  position               nearest neighbor table
   1  0.500  0.500  0.789-   2 1.02   3 1.02   4 1.02
   2  0.500  0.612  0.807-   1 1.02
   3  0.403  0.444  0.807-   1 1.02
   4  0.597  0.444  0.807-   1 1.02
   5  0.250  0.000  0.352-  37 2.11  39 2.11  40 2.11  47 2.11  56 2.11
   6  0.500  0.250  0.352-  38 2.11  39 2.11  40 2.11  48 2.11  55 2.11
   7  0.250  0.250  0.451-  39 2.11  38 2.11  37 2.11  45 2.11  54 2.11  43 2.12
   8  0.500  0.000  0.451-  40 2.11  38 2.11  37 2.11  46 2.11  53 2.11  44 2.12
   9  0.250  0.000  0.550-  43 2.11  44 2.11  51 2.11  60 2.11  37 2.12  41 2.14
  10  0.500  0.250  0.550-  43 2.11  44 2.11  52 2.11  59 2.11  38 2.12  42 2.14
  11  0.250  0.250  0.648-  43 2.10  42 2.11  41 2.11  49 2.11  58 2.11
  12  0.500  0.000  0.648-  44 2.10  42 2.11  41 2.11  50 2.11  57 2.11
  13  0.250  0.500  0.352-  45 2.11  39 2.11  47 2.11  48 2.11  64 2.11
  14  0.500  0.750  0.352-  46 2.11  40 2.11  47 2.11  48 2.11  63 2.11
  15  0.250  0.750  0.451-  47 2.11  45 2.11  46 2.11  37 2.11  62 2.11  51 2.12
  16  0.500  0.500  0.451-  48 2.11  45 2.11  46 2.11  38 2.11  61 2.11  52 2.12
  17  0.250  0.500  0.550-  43 2.11  51 2.11  52 2.11  68 2.11  45 2.12  49 2.14
  18  0.500  0.750  0.550-  44 2.11  51 2.11  52 2.11  67 2.11  46 2.12  50 2.14
  19  0.250  0.750  0.648-  51 2.10  49 2.11  50 2.11  41 2.11  66 2.11
  20  0.500  0.500  0.648-  52 2.10  49 2.11  50 2.11  42 2.11  65 2.11
  21  0.750  0.000  0.352-  53 2.11  40 2.11  55 2.11  56 2.11  63 2.11
  22  0.000  0.250  0.352-  54 2.11  39 2.11  55 2.11  56 2.11  64 2.11
  23  0.750  0.250  0.451-  55 2.11  53 2.11  54 2.11  38 2.11  61 2.11  59 2.12
  24  0.000  0.000  0.451-  56 2.11  53 2.11  54 2.11  37 2.11  62 2.11  60 2.12
  25  0.750  0.000  0.550-  44 2.11  59 2.11  60 2.11  67 2.11  53 2.12  57 2.14
  26  0.000  0.250  0.550-  43 2.11  59 2.11  60 2.11  68 2.11  54 2.12  58 2.14
  27  0.750  0.250  0.648-  59 2.10  57 2.11  58 2.11  42 2.11  65 2.11
  28  0.000  0.000  0.648-  60 2.10  57 2.11  58 2.11  41 2.11  66 2.11
  29  0.750  0.500  0.352-  61 2.11  55 2.11  48 2.11  63 2.11  64 2.11
  30  0.000  0.750  0.352-  62 2.11  56 2.11  47 2.11  63 2.11  64 2.11
  31  0.750  0.750  0.451-  63 2.11  53 2.11  61 2.11  62 2.11  46 2.11  67 2.12
  32  0.000  0.500  0.451-  64 2.11  54 2.11  61 2.11  62 2.11  45 2.11  68 2.12
  33  0.750  0.500  0.550-  52 2.11  59 2.11  67 2.11  68 2.11  61 2.12  65 2.14
  34  0.000  0.750  0.550-  51 2.11  60 2.11  67 2.11  68 2.11  62 2.12  66 2.14
  35  0.750  0.750  0.648-  67 2.10  57 2.11  65 2.11  66 2.11  50 2.11
  36  0.000  0.500  0.648-  68 2.10  58 2.11  65 2.11  66 2.11  49 2.11
  37  0.250  0.000  0.451-   5 2.11   7 2.11   8 2.11  15 2.11  24 2.11   9 2.12
  38  0.500  0.250  0.451-   6 2.11   7 2.11   8 2.11  16 2.11  23 2.11  10 2.12
  39  0.250  0.250  0.352-   7 2.11   6 2.11   5 2.11  13 2.11  22 2.11
  40  0.500  0.000  0.352-   8 2.11   6 2.11   5 2.11  14 2.11  21 2.11
  41  0.250  0.000  0.650-  11 2.11  12 2.11  19 2.11  28 2.11   9 2.14
  42  0.500  0.250  0.650-  11 2.11  12 2.11  20 2.11  27 2.11  10 2.14
  43  0.250  0.250  0.550-  11 2.10  10 2.11   9 2.11  17 2.11  26 2.11   7 2.12
  44  0.500  0.000  0.550-  12 2.10  10 2.11   9 2.11  18 2.11  25 2.11   8 2.12
  45  0.250  0.500  0.451-  13 2.11   7 2.11  15 2.11  16 2.11  32 2.11  17 2.12
  46  0.500  0.750  0.451-  14 2.11   8 2.11  15 2.11  16 2.11  31 2.11  18 2.12
  47  0.250  0.750  0.352-  15 2.11  13 2.11  14 2.11   5 2.11  30 2.11
  48  0.500  0.500  0.352-  16 2.11  13 2.11  14 2.11   6 2.11  29 2.11
  49  0.250  0.500  0.650-  11 2.11  19 2.11  20 2.11  36 2.11  17 2.14
  50  0.500  0.750  0.650-  12 2.11  19 2.11  20 2.11  35 2.11  18 2.14
  51  0.250  0.750  0.550-  19 2.10  17 2.11  18 2.11   9 2.11  34 2.11  15 2.12
  52  0.500  0.500  0.550-  20 2.10  17 2.11  18 2.11  10 2.11  33 2.11  16 2.12
  53  0.750  0.000  0.451-  21 2.11   8 2.11  23 2.11  24 2.11  31 2.11  25 2.12
  54  0.000  0.250  0.451-  22 2.11   7 2.11  23 2.11  24 2.11  32 2.11  26 2.12
  55  0.750  0.250  0.352-  23 2.11  21 2.11  22 2.11   6 2.11  29 2.11
  56  0.000  0.000  0.352-  24 2.11  21 2.11  22 2.11   5 2.11  30 2.11
  57  0.750  0.000  0.650-  12 2.11  27 2.11  28 2.11  35 2.11  25 2.14
  58  0.000  0.250  0.650-  11 2.11  27 2.11  28 2.11  36 2.11  26 2.14
  59  0.750  0.250  0.550-  27 2.10  25 2.11  26 2.11  10 2.11  33 2.11  23 2.12
  60  0.000  0.000  0.550-  28 2.10  25 2.11  26 2.11   9 2.11  34 2.11  24 2.12
  61  0.750  0.500  0.451-  29 2.11  23 2.11  16 2.11  31 2.11  32 2.11  33 2.12
  62  0.000  0.750  0.451-  30 2.11  24 2.11  15 2.11  31 2.11  32 2.11  34 2.12
  63  0.750  0.750  0.352-  31 2.11  21 2.11  29 2.11  30 2.11  14 2.11
  64  0.000  0.500  0.352-  32 2.11  22 2.11  29 2.11  30 2.11  13 2.11
  65  0.750  0.500  0.650-  20 2.11  27 2.11  35 2.11  36 2.11  33 2.14
  66  0.000  0.750  0.650-  19 2.11  28 2.11  35 2.11  36 2.11  34 2.14
  67  0.750  0.750  0.550-  35 2.10  25 2.11  33 2.11  34 2.11  18 2.11  31 2.12
  68  0.000  0.500  0.550-  36 2.10  26 2.11  33 2.11  34 2.11  17 2.11  32 2.12

IMPORTANT INFORMATION: All symmetrisations will be switched off!
NOSYMM: (Re-)initialisation of all symmetry stuff for point group C_1.

                                     Primitive cell

  volume of cell :    1519.6535

  direct lattice vectors                    reciprocal lattice vectors
     8.440582262  0.000000000  0.000000000     0.118475239  0.000000000  0.000000000
     0.000000000  8.440582262  0.000000000     0.000000000  0.118475239  0.000000000
     0.000000000  0.000000000 21.330436697     0.000000000  0.000000000  0.046881366

  length of vectors
     8.440582262  8.440582262 21.330436697     0.118475239  0.118475239  0.046881366

  position of ions in fractional coordinates (direct lattice)
     0.500000000  0.500000000  0.788992456
     0.500000000  0.611735307  0.807294150
     0.403234385  0.444132346  0.807294150
     0.596765615  0.444132346  0.807294150
     0.250000000  0.000000000  0.351610242
     0.500000000  0.250000000  0.351610242
     0.250000000  0.250000000  0.450536747
     0.500000000  0.000000000  0.450536747
     0.250000000  0.000000000  0.549966382
     0.500000000  0.250000000  0.549966382
     0.250000000  0.250000000  0.648348359
     0.500000000  0.000000000  0.648348359
     0.250000000  0.500000000  0.351610242
     0.500000000  0.750000000  0.351610242
     0.250000000  0.750000000  0.450536747
     0.500000000  0.500000000  0.450536747
     0.250000000  0.500000000  0.549966382
     0.500000000  0.750000000  0.549966382
     0.250000000  0.750000000  0.648348359
     0.500000000  0.500000000  0.648348359
     0.750000000  0.000000000  0.351610242
     0.000000000  0.250000000  0.351610242
     0.750000000  0.250000000  0.450536747
     0.000000000  0.000000000  0.450536747
     0.750000000  0.000000000  0.549966382
     0.000000000  0.250000000  0.549966382
     0.750000000  0.250000000  0.648348359
     0.000000000  0.000000000  0.648348359
     0.750000000  0.500000000  0.351610242
     0.000000000  0.750000000  0.351610242
     0.750000000  0.750000000  0.450536747
     0.000000000  0.500000000  0.450536747
     0.750000000  0.500000000  0.549966382
     0.000000000  0.750000000  0.549966382
     0.750000000  0.750000000  0.648348359
     0.000000000  0.500000000  0.648348359
     0.250000000  0.000000000  0.450536747
     0.500000000  0.250000000  0.450536747
     0.250000000  0.250000000  0.351610242
     0.500000000  0.000000000  0.351610242
     0.250000000  0.000000000  0.650177506
     0.500000000  0.250000000  0.650177506
     0.250000000  0.250000000  0.549707339
     0.500000000  0.000000000  0.549707339
     0.250000000  0.500000000  0.450536747
     0.500000000  0.750000000  0.450536747
     0.250000000  0.750000000  0.351610242
     0.500000000  0.500000000  0.351610242
     0.250000000  0.500000000  0.650177506
     0.500000000  0.750000000  0.650177506
     0.250000000  0.750000000  0.549707339
     0.500000000  0.500000000  0.549707339
     0.750000000  0.000000000  0.450536747
     0.000000000  0.250000000  0.450536747
     0.750000000  0.250000000  0.351610242
     0.000000000  0.000000000  0.351610242
     0.750000000  0.000000000  0.650177506
     0.000000000  0.250000000  0.650177506
     0.750000000  0.250000000  0.549707339
     0.000000000  0.000000000  0.549707339
     0.750000000  0.500000000  0.450536747
     0.000000000  0.750000000  0.450536747
     0.750000000  0.750000000  0.351610242
     0.000000000  0.500000000  0.351610242
     0.750000000  0.500000000  0.650177506
     0.000000000  0.750000000  0.650177506
     0.750000000  0.750000000  0.549707339
     0.000000000  0.500000000  0.549707339

  ion indices of the primitive-cell ions
[...]
   6.33043670  0.00000000  7.50000000
   0.00000000  2.11014557  7.50000000
   6.33043670  2.11014557  9.61014557
   0.00000000  0.00000000  9.61014557
   6.33043670  0.00000000 11.73102311
   0.00000000  2.11014557 11.73102311
   6.33043670  2.11014557 13.82955363
   0.00000000  0.00000000 13.82955363
   6.33043670  4.22029113  7.50000000
   0.00000000  6.33043670  7.50000000
   6.33043670  6.33043670  9.61014557
   0.00000000  4.22029113  9.61014557
   6.33043670  4.22029113 11.73102311
   0.00000000  6.33043670 11.73102311
   6.33043670  6.33043670 13.82955363
   0.00000000  4.22029113 13.82955363
   2.11014557  0.00000000  9.61014557
   4.22029113  2.11014557  9.61014557
   2.11014557  2.11014557  7.50000000
   4.22029113  0.00000000  7.50000000
   2.11014557  0.00000000 13.86857013
   4.22029113  2.11014557 13.86857013
   2.11014557  2.11014557 11.72549760
   4.22029113  0.00000000 11.72549760
   2.11014557  4.22029113  9.61014557
   4.22029113  6.33043670  9.61014557
   2.11014557  6.33043670  7.50000000
   4.22029113  4.22029113  7.50000000
   2.11014557  4.22029113 13.86857013
   4.22029113  6.33043670 13.86857013
   2.11014557  6.33043670 11.72549760
   4.22029113  4.22029113 11.72549760
   6.33043670  0.00000000  9.61014557
   0.00000000  2.11014557  9.61014557
   6.33043670  2.11014557  7.50000000
   0.00000000  0.00000000  7.50000000
   6.33043670  0.00000000 13.86857013
   0.00000000  2.11014557 13.86857013
   6.33043670  2.11014557 11.72549760
   0.00000000  0.00000000 11.72549760
   6.33043670  4.22029113  9.61014557
   0.00000000  6.33043670  9.61014557
   6.33043670  6.33043670  7.50000000
   0.00000000  4.22029113  7.50000000
   6.33043670  4.22029113 13.86857013
   0.00000000  6.33043670 13.86857013
   6.33043670  6.33043670 11.72549760
   0.00000000  4.22029113 11.72549760

--------------------------------------- Iteration      FINAL  ---------------------------------------

--------------------OUTCAR has been truncated-------------------------

[...]

--------------------OUTCAR has been truncated-------------------------

  FORCE on cell =-STRESS in cart. coord.  units (eV):
  Direction    XX          YY          ZZ          XY          YZ          ZX
  Alpha Z   899.64575   899.64575   899.64575
  Ewald  160051.89292160049.95847************     0.00002    -8.77022    -0.00002
  Hartree170337.14544170337.25042************     0.00000    -0.93639    -0.00002
  E(xc)   -2487.03694 -2487.05019 -2487.47616     0.00000    -0.05934     0.00000
  Local  ************************340266.99816    -0.00001     6.52938     0.00004
  n-local -2854.48232 -2854.55940 -2873.96859    -0.00000    -0.24190     0.00000
  augment  1052.72638  1052.75433  1044.16471    -0.00000     0.07486     0.00000
  Kinetic  7426.74408  7427.76456  7483.61597    -0.00000     3.56036    -0.00001
  Fock        0.00000     0.00000     0.00000     0.00000     0.00000     0.00000
  Total     -28.93211   -28.89143    -2.33271     0.00000     0.15674    -0.00001
  in kB     -30.50325   -30.46037    -2.45938     0.00000     0.16525    -0.00001

 VOLUME and BASIS-vectors are now :
  energy-cutoff  :      600.00
  volume of cell :     1519.65
      direct lattice vectors                 reciprocal lattice vectors
     8.440582262  0.000000000  0.000000000     0.118475239  0.000000000  0.000000000
     0.000000000  8.440582262  0.000000000     0.000000000  0.118475239  0.000000000
     0.000000000  0.000000000 21.330436697     0.000000000  0.000000000  0.046881366

  length of vectors
     8.440582262  8.440582262 21.330436697     0.118475239  0.118475239  0.046881366

 FORCES acting on ions:
    Electron-Ion                     Ewald-Force                    Non-Local-Force
   0.153E-04 0.654E+01 -.134E+04   -.871E-05 -.106E+02 0.131E+04   0.148E-06 0.401E+01 0.241E+02
   0.119E-05 -.693E+02 -.275E+03   -.144E-05 0.765E+02 0.276E+03   -.462E-06 -.715E+01 -.109E+01
   0.577E+02 0.288E+02 -.279E+03   -.637E+02 -.318E+02 0.282E+03   0.595E+01 0.294E+01 -.288E+01
   -.577E+02 0.288E+02 -.279E+03   0.637E+02 -.318E+02 0.282E+03   -.595E+01 0.294E+01 -.288E+01
   -.508E-01 0.949E-02 0.208E+04   0.576E-01 -.101E-01 -.208E+04   -.479E-02 0.468E-03 -.678E+01
   -.774E-05 -.859E-01 0.208E+04   0.820E-05 0.980E-01 -.208E+04   -.369E-06 -.904E-02 -.681E+01
   -.368E+00 -.417E+00 0.715E+03   0.419E+00 0.471E+00 -.716E+03   -.349E-01 -.375E-01 0.465E+00
   -.250E-04 0.444E-01 0.715E+03   0.266E-04 -.634E-01 -.716E+03   -.123E-05 0.134E-01 0.325E+00
   0.271E+01 -.131E+00 -.645E+03   -.263E+01 0.143E+00 0.645E+03   -.818E-01 -.106E-01 0.441E-02
   0.864E-04 0.235E+01 -.643E+03   -.889E-04 -.202E+01 0.643E+03   -.746E-06 -.331E+00 -.491E+00
   0.185E+02 0.190E+02 -.199E+04   -.186E+02 -.191E+02 0.199E+04   0.719E-01 0.917E-01 0.606E+01
   0.587E-04 -.210E+01 -.200E+04   -.625E-04 0.212E+01 0.200E+04   0.169E-05 -.269E-01 0.589E+01
   -.830E-01 -.106E-01 0.208E+04   0.954E-01 0.105E-01 -.208E+04   -.931E-02 0.131E-03 -.681E+01
   -.109E-04 0.851E-01 0.208E+04   0.112E-04 -.978E-01 -.208E+04   -.274E-06 0.954E-02 -.682E+01
   -.408E+00 0.391E+00 0.715E+03   0.479E+00 -.457E+00 -.715E+03   -.496E-01 0.462E-01 0.487E+00
   -.503E-04 -.711E-01 0.713E+03   0.564E-04 0.790E-01 -.713E+03   -.432E-05 -.626E-02 0.550E+00
   0.236E+01 0.123E+00 -.643E+03   -.202E+01 -.130E+00 0.644E+03   -.339E+00 0.749E-02 -.436E+00
   -.414E-04 -.218E+01 -.644E+03   0.462E-04 0.184E+01 0.645E+03   -.330E-05 0.336E+00 -.314E+00
   0.201E+02 -.194E+02 -.199E+04   -.202E+02 0.195E+02 0.198E+04   0.141E+00 -.824E-01 0.606E+01
   0.118E-04 0.482E+01 -.193E+04   -.145E-04 -.509E+01 0.193E+04   0.329E-05 0.264E+00 0.802E+00
   0.508E-01 0.949E-02 0.208E+04   -.576E-01 -.101E-01 -.208E+04   0.479E-02 0.468E-03 -.678E+01
   0.795E-05 -.537E-01 0.208E+04   -.851E-05 0.601E-01 -.208E+04   0.388E-06 -.450E-02 -.678E+01
   0.368E+00 -.417E+00 0.715E+03   -.419E+00 0.471E+00 -.716E+03   0.349E-01 -.375E-01 0.465E+00
   0.355E-04 -.852E-02 0.715E+03   -.376E-04 0.722E-02 -.715E+03   0.137E-05 0.593E-03 0.433E+00
   -.271E+01 -.131E+00 -.645E+03   0.263E+01 0.142E+00 0.645E+03   0.818E-01 -.106E-01 0.441E-02
   -.301E-04 0.269E+01 -.646E+03   0.354E-04 -.260E+01 0.646E+03   -.250E-05 -.856E-01 0.170E-01
   -.185E+02 0.190E+02 -.199E+04   0.186E+02 -.191E+02 0.199E+04   -.719E-01 0.917E-01 0.606E+01
   0.150E-05 -.736E+00 -.202E+04   0.449E-05 0.751E+00 0.201E+04   -.545E-05 -.146E-01 0.594E+01
   0.830E-01 -.106E-01 0.208E+04   -.954E-01 0.105E-01 -.208E+04   0.931E-02 0.131E-03 -.681E+01
   0.111E-04 0.528E-01 0.208E+04   -.114E-04 -.598E-01 -.208E+04   0.269E-06 0.506E-02 -.678E+01
   0.408E+00 0.391E+00 0.715E+03   -.479E+00 -.457E+00 -.715E+03   0.496E-01 0.462E-01 0.487E+00
   0.507E-04 -.187E-01 0.715E+03   -.569E-04 0.800E-02 -.716E+03   0.448E-05 0.750E-02 0.323E+00
   -.236E+01 0.123E+00 -.643E+03   0.202E+01 -.130E+00 0.644E+03   0.339E+00 0.749E-02 -.436E+00
   0.745E-04 -.269E+01 -.645E+03   -.772E-04 0.260E+01 0.645E+03   0.987E-06 0.838E-01 -.157E-02
   -.201E+02 -.194E+02 -.199E+04   0.202E+02 0.195E+02 0.198E+04   -.141E+00 -.824E-01 0.606E+01
   0.175E-05 0.802E+00 -.200E+04   -.209E-07 -.815E+00 0.200E+04   -.218E-05 0.141E-01 0.590E+01
   0.173E-01 0.241E-01 0.536E+03   0.803E-02 -.143E-01 -.536E+03   -.363E-01 -.135E-01 -.152E-03
   -.139E-04 -.149E+00 0.535E+03   0.127E-04 0.111E+00 -.535E+03   0.143E-05 0.485E-01 -.152E+00
   -.521E-01 -.561E-01 0.156E+04   0.611E-01 0.664E-01 -.157E+04   -.126E-01 -.144E-01 0.360E+01
   -.608E-05 0.101E-01 0.156E+04   0.630E-05 -.112E-01 -.157E+04   -.427E-06 0.155E-02 0.360E+01
   0.732E+01 -.970E+00 -.153E+04   -.714E+01 0.945E+00 0.154E+04   -.183E+00 0.255E-01 -.494E+01
   0.155E-04 0.243E+02 -.150E+04   -.147E-04 -.237E+02 0.150E+04   0.907E-06 -.618E+00 -.486E+01
   0.183E+01 0.177E+01 -.475E+03   -.180E+01 -.174E+01 0.475E+03   -.367E-01 -.278E-01 0.546E+00
   0.348E-04 -.134E-01 -.474E+03   -.400E-04 0.157E-01 0.474E+03   0.451E-05 -.116E-02 0.425E+00
   -.125E+00 -.538E-01 0.535E+03   0.792E-01 0.606E-01 -.535E+03   0.584E-01 -.863E-02 -.168E+00
   -.364E-04 0.124E+00 0.535E+03   0.377E-04 -.709E-01 -.534E+03   -.165E-05 -.675E-01 -.179E+00
   -.570E-01 0.568E-01 0.156E+04   0.681E-01 -.666E-01 -.157E+04   -.154E-01 0.136E-01 0.360E+01
   -.805E-05 -.961E-02 0.156E+04   0.883E-05 0.111E-01 -.157E+04   -.105E-05 -.215E-02 0.358E+01
   0.248E+02 0.138E+01 -.150E+04   -.241E+02 -.137E+01 0.150E+04   -.718E+00 -.835E-02 -.480E+01
   0.488E-05 -.250E+02 -.149E+04   -.370E-05 0.242E+02 0.150E+04   -.131E-05 0.849E+00 -.468E+01
   0.172E+01 -.174E+01 -.475E+03   -.170E+01 0.171E+01 0.474E+03   -.222E-01 0.363E-01 0.592E+00
   0.128E-04 -.120E+00 -.490E+03   -.152E-04 0.113E+00 0.491E+03   0.175E-05 0.689E-02 -.116E+01
   -.173E-01 0.242E-01 0.536E+03   -.802E-02 -.143E-01 -.536E+03   0.363E-01 -.135E-01 -.155E-03
   0.192E-04 -.362E-02 0.536E+03   -.178E-04 0.366E-01 -.536E+03   -.200E-05 -.465E-01 -.476E-02
   0.521E-01 -.561E-01 0.156E+04   -.611E-01 0.664E-01 -.157E+04   0.126E-01 -.144E-01 0.360E+01
   0.628E-05 0.505E-02 0.156E+04   -.661E-05 -.418E-02 -.157E+04   0.391E-06 -.123E-02 0.362E+01
   -.732E+01 -.970E+00 -.153E+04   0.714E+01 0.945E+00 0.154E+04   0.183E+00 0.255E-01 -.494E+01
   0.143E-04 0.723E+01 -.153E+04   -.155E-04 -.706E+01 0.154E+04   -.149E-05 -.167E+00 -.493E+01
   -.183E+01 0.177E+01 -.475E+03   0.180E+01 -.174E+01 0.475E+03   0.367E-01 -.278E-01 0.546E+00
   0.283E-04 -.169E+00 -.481E+03   -.278E-04 0.170E+00 0.481E+03   -.158E-05 -.243E-03 0.316E+00
   0.125E+00 -.538E-01 0.535E+03   -.792E-01 0.606E-01 -.535E+03   -.584E-01 -.864E-02 -.168E+00
   0.392E-04 -.244E-01 0.536E+03   -.399E-04 0.682E-02 -.536E+03   0.106E-05 0.261E-01 0.831E-02
   0.570E-01 0.568E-01 0.156E+04   -.681E-01 -.666E-01 -.157E+04   0.154E-01 0.136E-01 0.360E+01
   0.820E-05 -.449E-02 0.156E+04   -.892E-05 0.407E-02 -.157E+04   0.106E-05 0.572E-03 0.360E+01
   -.248E+02 0.138E+01 -.150E+04   0.241E+02 -.137E+01 0.150E+04   0.718E+00 -.835E-02 -.480E+01
   0.212E-04 -.726E+01 -.153E+04   -.236E-04 0.709E+01 0.154E+04   0.167E-05 0.177E+00 -.495E+01
   -.172E+01 -.174E+01 -.475E+03   0.170E+01 0.171E+01 0.474E+03   0.222E-01 0.363E-01 0.592E+00
   0.135E-05 0.184E+00 -.474E+03   -.475E-06 -.190E+00 0.474E+03   0.349E-06 0.695E-02 0.420E+00
   -.488E-05 -.325E+01 0.861E+00   0.924E-13 -.185E-12 -.500E-11   0.531E-05 0.325E+01 -.882E+00

 POSITION                                       TOTAL-FORCE (eV/Angst)
      4.22029      4.32772     16.20024         0.000007     -0.007633      0.000085
      4.22029      5.33363     16.39082        -0.000001      0.007995      0.005923
      3.38993      3.92016     16.63580         0.003272      0.003022      0.007754
      5.05066      3.92016     16.63580        -0.003279      0.003024      0.007749
      2.11015      0.00000      7.50000         0.001913      0.000009      0.314574
      4.22029      2.11015      7.50000         0.000000      0.003093      0.321378
      2.11015      2.11015      9.61015         0.015337      0.015892      0.017661
      4.22029      0.00000      9.61015         0.000000     -0.005352      0.041919
      2.11234     -0.00118     11.72488         0.002208      0.000881     -0.004493
      4.22029      2.11963     11.73818        -0.000003      0.000415     -0.007099
      2.10826      2.10540     13.81188        -0.000276      0.000797     -0.003110
      4.22029      0.00049     13.81441        -0.000002      0.000340     -0.002344
      2.11015      4.22029      7.50000         0.003027      0.000119      0.322321
      4.22029      6.33044      7.50000         0.000000     -0.002948      0.323120
      2.11015      6.33044      9.61015         0.020622     -0.019856      0.018671
      4.22029      4.22029      9.61015         0.000002      0.001808      0.063180
      2.12108      4.21867     11.73924        -0.000159      0.001099     -0.007127
      4.22029      6.31826     11.74010         0.000001      0.000716     -0.006815
      2.10651      6.33026     13.81075         0.000373      0.000968     -0.003721
      4.22029      4.20853     13.96358         0.000001      0.002232      0.007621
      6.33044      0.00000      7.50000        -0.001913      0.000009      0.314574
      0.00000      2.11015      7.50000        -0.000000      0.001984      0.315082
      6.33044      2.11015      9.61015        -0.015337      0.015893      0.017660
      0.00000      0.00000      9.61015        -0.000001     -0.000566      0.004871
      6.32824     -0.00118     11.72488        -0.002207      0.000876     -0.004494
     -0.00000      2.11110     11.72480         0.000003      0.002667     -0.004096
      6.33232      2.10540     13.81188         0.000276      0.000798     -0.003108
      0.00000     -0.00176     13.81994         0.000001      0.000753     -0.001824
      6.33044      4.22029      7.50000        -0.003027      0.000119      0.322322
      0.00000      6.33044      7.50000        -0.000000     -0.001841      0.313931
      6.33044      6.33044      9.61015        -0.020622     -0.019858      0.018673
      0.00000      4.22029      9.61015        -0.000002     -0.002994      0.042224
      6.31950      4.21867     11.73924         0.000160      0.001104     -0.007129
      0.00000      6.32685     11.72478        -0.000002     -0.001797     -0.004957
      6.33407      6.33026     13.81075        -0.000372      0.000965     -0.003725
      0.00000      4.21779     13.81468        -0.000000      0.001173     -0.002719
      2.11015      0.00000      9.61015        -0.010998     -0.003506      0.045569
      4.22029      2.11015      9.61015         0.000000      0.010382      0.066121
      2.11015      2.11015      7.50000        -0.003565     -0.003943     -0.402282
      4.22029      0.00000      7.50000        -0.000000      0.000567     -0.402896
      2.10472     -0.00199     13.87000        -0.003599      0.000954      0.000195
      4.22029      2.08476     13.86658         0.000002      0.001262      0.003324
      2.10881      2.10774     11.72345        -0.002418     -0.001712      0.004359
      4.22029     -0.00187     11.72007        -0.000001      0.001251      0.003244
      2.11015      4.22029      9.61015         0.012632     -0.001681      0.066415
      4.22029      6.33044      9.61015        -0.000000     -0.014735      0.066806
      2.11015      6.33044      7.50000        -0.004366      0.003967     -0.402316
      4.22029      4.22029      7.50000        -0.000000     -0.000500     -0.409236
      2.08630      4.21803     13.87089         0.000256      0.000561      0.002891
      4.22029      6.35499     13.87768        -0.000000      0.000645      0.002248
      2.10966      6.33013     11.72441        -0.002807      0.003570      0.003125
      4.22029      4.21976     11.74235        -0.000001     -0.000237      0.001951
      6.33044      0.00000      9.61015         0.010999     -0.003505      0.045570
      0.00000      2.11015      9.61015        -0.000001     -0.013379      0.043710
      6.33044      2.11015      7.50000         0.003565     -0.003943     -0.402282
      0.00000      0.00000      7.50000         0.000000     -0.000226     -0.398409
      6.33586     -0.00199     13.87001         0.003600      0.000956      0.000192
      0.00000      2.10295     13.87039        -0.000003     -0.002314      0.000545
      6.33177      2.10774     11.72345         0.002420     -0.001714      0.004358
     -0.00000     -0.00151     11.72186        -0.000001      0.001112      0.004292
      6.33044      4.22029      9.61015        -0.012632     -0.001681      0.066416
      0.00000      6.33044      9.61015         0.000000      0.008660      0.047801
      6.33044      6.33044      7.50000         0.004366      0.003967     -0.402316
      0.00000      4.22029      7.50000         0.000000      0.000279     -0.402917
      6.35428      4.21803     13.87089        -0.000256      0.000560      0.002889
      0.00000      6.33358     13.86961        -0.000001      0.004543     -0.000182
      6.33092      6.33013     11.72441         0.002809      0.003571      0.003125
     -0.00000      4.21922     11.72006         0.000001      0.000363      0.003160
    total drift:                                0.000000     -0.008884     -0.020786

  FREE ENERGIE OF THE ION-ELECTRON SYSTEM (eV)
  free  energy   TOTEN  =      -283.39076991 eV

  energy  without entropy=     -283.39076991  energy(sigma->0) =     -283.39076991

 d Force = 0.6130146E-04[ 0.171E-05, 0.121E-03]  d Energy = 0.5598954E-04 0.531E-05
 d Force = 0.1036050E+02[ 0.104E+02, 0.104E+02]  d Ewald  = 0.1036049E+02 0.248E-05

 reached required accuracy - stopping structural energy minimisation