 vasp.6.3.0 20Jan22 (build Apr  1 2022 16:44:48) complex
 executed on        HPECrayEX_GCC date 2022.11.13  01:32:22

 INCAR:
   SYSTEM = MgO-rocksalt
   ISMEAR = 0
   SIGMA = 0.05
   EDIFF = 1E-6
   ALGO = ALL
   ISTART = 0
   IBRION = -1
   NSW = 0
   ISYM = 0
   DIPOL = 0.5 0.5 0.5
   IDIPOL = 3
   LDIPOL = .TRUE.
   LHFCALC = .TRUE.
   GGA = B5
   AEXX = 0.2
   AGGAX = 0.72
   AGGAC = 0.81
   ALDAC = 0.19
   IVDW = 1
   VDW_S6 = 1.05
   VDW_C6 = 0.63 0.70
   VDW_R0 = 1.243 1.342
   ENCUT = 600
   PREC = Accurate
   LASPH = .TRUE.
   LREAL = .FALSE.
   ISPIN = 1
   NELM = 200
   NELMIN = 8
   NCORE = 8
   KPAR = 1
   LWAVE = .FALSE.
   LCHARG = .FALSE.

 POTCAR:    PAW_PBE Mg_pv 13Apr2007
 POTCAR:    PAW_PBE O 08Apr2002
 POTCAR:    PAW_PBE Mg_pv 13Apr2007
   VRHFIN =Mg: p6s2

   TITEL  = PAW_PBE Mg_pv 13Apr2007
   POMASS =   24.305; ZVAL   =    8.000    mass and valenz
   ENMAX  =  403.929; ENMIN  =  302.947 eV

   TITEL  = PAW_PBE O 08Apr2002
   POMASS =   16.000; ZVAL   =    6.000    mass and valenz
   ENMAX  =  400.000; ENMIN  =  300.000 eV

  PAW_PBE Mg_pv 13Apr2007               :
  PAW_PBE O 08Apr2002                   :

 POSCAR: Mg  O
  positions in direct lattice
 exchange correlation table for  LEXCH =       12
   RHO(1)=    0.500       N(1)  =     2000
   RHO(2)=  100.500       N(2)  =     4000

 ion  position               nearest neighbor table
   1  0.250  0.000  0.353-  35 2.09  36 2.09  52 2.09  33 2.09  43 2.09
   2  0.500  0.250  0.353-  51 2.09  36 2.09  44 2.09  35 2.09  34 2.09
   3  0.250  0.250  0.451-  33 2.09  34 2.09  41 2.09  50 2.09  35 2.09  39 2.09
   4  0.500  0.000  0.451-  49 2.09  34 2.09  33 2.09  36 2.09  42 2.09  40 2.10
   5  0.250  0.000  0.550-  40 2.09  39 2.09  47 2.09  56 2.09  33 2.10  37 2.12
   6  0.500  0.250  0.550-  55 2.09  48 2.09  40 2.09  39 2.09  34 2.10  38 2.12
   7  0.250  0.251  0.647-  39 2.08  54 2.08  38 2.09  37 2.09  45 2.09
   8  0.500  0.001  0.648-  38 2.09  46 2.09  40 2.09  37 2.09  53 2.09
   9  0.250  0.500  0.353-  43 2.09  35 2.09  44 2.09  60 2.09  41 2.09
  10  0.500  0.750  0.353-  44 2.09  59 2.09  43 2.09  42 2.09  36 2.09
  11  0.250  0.750  0.451-  41 2.09  42 2.09  58 2.09  43 2.09  33 2.09  47 2.09
  12  0.500  0.500  0.451-  42 2.09  57 2.09  34 2.09  41 2.09  44 2.09  48 2.10
  13  0.250  0.500  0.550-  48 2.09  47 2.09  39 2.09  64 2.09  41 2.10  45 2.12
  14  0.500  0.750  0.550-  63 2.09  40 2.09  48 2.09  47 2.09  42 2.10  46 2.12
  15  0.250  0.751  0.647-  47 2.08  62 2.08  46 2.09  45 2.09  37 2.09
  16  0.500  0.501  0.648-  46 2.09  38 2.09  48 2.09  45 2.09  61 2.09
  17  0.750  0.000  0.353-  36 2.09  51 2.09  49 2.09  52 2.09  59 2.09
  18  0.000  0.250  0.353-  35 2.09  52 2.09  60 2.09  50 2.09  51 2.09
  19  0.750  0.250  0.451-  34 2.09  49 2.09  57 2.09  51 2.09  50 2.09  55 2.10
  20  0.000  0.000  0.451-  33 2.09  50 2.09  52 2.09  49 2.09  58 2.09  56 2.09
  21  0.750  0.000  0.550-  40 2.09  55 2.09  63 2.09  56 2.09  49 2.10  53 2.12
  22  1.000  0.250  0.550-  55 2.09  64 2.09  56 2.09  39 2.09  50 2.10  54 2.12
  23  0.750  0.251  0.648-  61 2.09  53 2.09  55 2.09  54 2.09  38 2.09
  24  0.000  0.001  0.647-  56 2.08  37 2.08  53 2.09  62 2.09  54 2.09
  25  0.750  0.500  0.353-  44 2.09  59 2.09  51 2.09  57 2.09  60 2.09
  26  0.000  0.750  0.353-  60 2.09  43 2.09  58 2.09  59 2.09  52 2.09
  27  0.750  0.750  0.451-  42 2.09  57 2.09  59 2.09  58 2.09  49 2.09  63 2.10
  28  0.000  0.500  0.451-  58 2.09  50 2.09  41 2.09  60 2.09  57 2.09  64 2.09
  29  0.750  0.500  0.550-  48 2.09  63 2.09  55 2.09  64 2.09  57 2.10  61 2.12
  30  1.000  0.750  0.550-  63 2.09  64 2.09  56 2.09  47 2.09  58 2.10  62 2.12
  31  0.750  0.751  0.648-  53 2.09  61 2.09  63 2.09  62 2.09  46 2.09
  32  0.000  0.501  0.647-  64 2.08  45 2.08  61 2.09  54 2.09  62 2.09
  33  0.250  0.000  0.451-   3 2.09   4 2.09  20 2.09   1 2.09  11 2.09   5 2.10
  34  0.500  0.250  0.451-  19 2.09   4 2.09  12 2.09   3 2.09   2 2.09   6 2.10
  35  0.250  0.250  0.353-   1 2.09   2 2.09   9 2.09  18 2.09   3 2.09
  36  0.500  0.000  0.353-  17 2.09   2 2.09   1 2.09   4 2.09  10 2.09
  37  0.249  0.001  0.649-  24 2.08   7 2.09  15 2.09   8 2.09   5 2.12
  38  0.500  0.251  0.650-   8 2.09   7 2.09  16 2.09  23 2.09   6 2.12
  39  0.250  0.250  0.549-   7 2.08  13 2.09   5 2.09   6 2.09  22 2.09   3 2.09
  40  0.500  0.000  0.550-  21 2.09   5 2.09  14 2.09   6 2.09   8 2.09   4 2.10
  41  0.250  0.500  0.451-  11 2.09   3 2.09  12 2.09  28 2.09   9 2.09  13 2.10
  42  0.500  0.750  0.451-  12 2.09  27 2.09  11 2.09  10 2.09   4 2.09  14 2.10
  43  0.250  0.750  0.353-   9 2.09  10 2.09  26 2.09  11 2.09   1 2.09
  44  0.500  0.500  0.353-  10 2.09  25 2.09   2 2.09   9 2.09  12 2.09
  45  0.249  0.501  0.649-  32 2.08  15 2.09   7 2.09  16 2.09  13 2.12
  46  0.500  0.751  0.650-  16 2.09  15 2.09   8 2.09  31 2.09  14 2.12
  47  0.250  0.750  0.549-  15 2.08  13 2.09   5 2.09  14 2.09  30 2.09  11 2.09
  48  0.500  0.500  0.550-  29 2.09  13 2.09   6 2.09  14 2.09  16 2.09  12 2.10
  49  0.750  0.000  0.451-   4 2.09  19 2.09  17 2.09  20 2.09  27 2.09  21 2.10
  50  0.000  0.250  0.451-   3 2.09  20 2.09  28 2.09  18 2.09  19 2.09  22 2.10
  51  0.750  0.250  0.353-   2 2.09  17 2.09  25 2.09  19 2.09  18 2.09
  52  0.000  0.000  0.353-   1 2.09  18 2.09  20 2.09  17 2.09  26 2.09
  53  0.750  0.001  0.650-  31 2.09  24 2.09  23 2.09   8 2.09  21 2.12
  54  0.000  0.251  0.649-   7 2.08  32 2.09  24 2.09  23 2.09  22 2.12
  55  0.750  0.250  0.550-   6 2.09  22 2.09  21 2.09  29 2.09  23 2.09  19 2.10
  56  1.000  0.000  0.549-  24 2.08  30 2.09  22 2.09  21 2.09   5 2.09  20 2.09
  57  0.750  0.500  0.451-  12 2.09  27 2.09  19 2.09  25 2.09  28 2.09  29 2.10
  58  0.000  0.750  0.451-  28 2.09  11 2.09  26 2.09  27 2.09  20 2.09  30 2.10
  59  0.750  0.750  0.353-  10 2.09  25 2.09  27 2.09  26 2.09  17 2.09
  60  0.000  0.500  0.353-  26 2.09  18 2.09   9 2.09  28 2.09  25 2.09
  61  0.750  0.501  0.650-  23 2.09  32 2.09  31 2.09  16 2.09  29 2.12
  62  0.000  0.751  0.649-  15 2.08  24 2.09  32 2.09  31 2.09  30 2.12
  63  0.750  0.750  0.550-  14 2.09  30 2.09  29 2.09  21 2.09  31 2.09  27 2.10
  64  1.000  0.500  0.549-  32 2.08  22 2.09  30 2.09  29 2.09  13 2.09  28 2.09

IMPORTANT INFORMATION: All symmetrisations will be switched off!
NOSYMM: (Re-)initialisation of all symmetry stuff for point group C_1.

                                     Primitive cell

  volume of cell :    1482.1129

  direct lattice vectors                    reciprocal lattice vectors
     8.349111827  0.000000000  0.000000000     0.119773219  0.000000000  0.000000000
     0.000000000  8.349111827  0.000000000     0.000000000  0.119773219  0.000000000
     0.000000000  0.000000000 21.261833870     0.000000000  0.000000000  0.047032632

  length of vectors
     8.349111827  8.349111827 21.261833870     0.119773219  0.119773219  0.047032632

  position of ions in fractional coordinates (direct lattice)
     0.250000245  0.000000000  0.352744737
     0.500000489  0.250000245  0.352744737
     0.250000245  0.250000245  0.450915008
     0.500000489  0.000000000  0.450915008
     0.250142250  0.000395631  0.549666040
     0.500178303  0.250433109  0.549879424
     0.249766681  0.250701938  0.646966194
     0.499604381  0.000884115  0.647855093
     0.250000245  0.500000489  0.352744737
     0.500000489  0.749999536  0.352744737
     0.250000245  0.749999536  0.450915008
     0.500000489  0.500000489  0.450915008
     0.250134043  0.500396655  0.549666850
     0.500178456  0.750421910  0.549878367
     0.249766326  0.750704710  0.646966606
     0.499605858  0.500884173  0.647859919
     0.749999536  0.000000000  0.352744737
     0.000000000  0.250000245  0.352744737
     0.749999536  0.250000245  0.450915008
     0.000000000  0.000000000  0.450915008
     0.749734738  0.000427711  0.549878320
     0.999785017  0.250414276  0.549668534
     0.750227113  0.250889483  0.647884412
     0.000090467  0.000708863  0.646959371
     0.749999536  0.500000489  0.352744737
     0.000000000  0.749999536  0.352744737
     0.749999536  0.749999536  0.450915008
     0.000000000  0.500000489  0.450915008
     0.749744888  0.500427746  0.549885405
     0.999784933  0.750384903  0.549669449
     0.750227814  0.750890631  0.647884399
     0.000087848  0.500708496  0.646976660
     0.250000245  0.000000000  0.450915008
     0.500000489  0.250000245  0.450915008
     0.250000245  0.250000245  0.352744737
     0.500000489  0.000000000  0.352744737
     0.249364476  0.000730230  0.649391864
     0.499596950  0.250761746  0.649682668
     0.250021477  0.250396151  0.549345346
     0.499965977  0.000413963  0.549603059
     0.250000245  0.500000489  0.450915008
     0.500000489  0.749999536  0.450915008
     0.250000245  0.749999536  0.352744737
     0.500000489  0.500000489  0.352744737
     0.249352349  0.500730171  0.649387898
     0.499596978  0.750753488  0.649681921
     0.250022985  0.750384643  0.549345229
     0.499955508  0.500415948  0.549590505
     0.749999536  0.000000000  0.450915008
     0.000000000  0.250000245  0.450915008
     0.749999536  0.250000245  0.352744737
     0.000000000  0.000000000  0.352744737
     0.750221960  0.000762759  0.649692654
     0.000499707  0.250743453  0.649434586
     0.749972194  0.250410080  0.549607323
     0.999880445  0.000394031  0.549345760
     0.749999536  0.500000489  0.450915008
     0.000000000  0.749999536  0.450915008
     0.749999536  0.749999536  0.352744737
     0.000000000  0.500000489  0.352744737
     0.750231895  0.500762240  0.649685136
     0.000499983  0.750726359  0.649434558
     0.749971042  0.750420115  0.549607142
     0.999893731  0.500393302  0.549354902

  ion indices of the primitive-cell ions
   primitive index   ion index
                 1           1
                 2           2
                 3           3
                 4           4
                 5           5
                 6           6
                 7           7
                 8           8
                 9           9
                10          10
                11          11
                12          12
                13          13
                14          14
                15          15
                16          16
                17          17
                18          18
                19          19
                20          20
                21          21
                22          22
                23          23
                24          24
                25          25
                26          26
                27          27
                28          28
                29          29
                30          30
                31          31
                32          32
                33          33
                34          34
                35          35
                36          36
                37          37
                38          38
                39          39
                40          40
                41          41
                42          42
                43          43
                44          44
[...]
   0.50000049  0.74999954  0.45091501
   0.25000024  0.74999954  0.35274474
   0.50000049  0.50000049  0.35274474
   0.24935235  0.50073017  0.64938790
   0.49959698  0.75075349  0.64968192
   0.25002299  0.75038464  0.54934523
   0.49995551  0.50041595  0.54959051
   0.74999954  0.00000000  0.45091501
   0.00000000  0.25000024  0.45091501
   0.74999954  0.25000024  0.35274474
   0.00000000  0.00000000  0.35274474
   0.75022196  0.00076276  0.64969265
   0.00049971  0.25074345  0.64943459
   0.74997219  0.25041008  0.54960732
   0.99988045  0.00039403  0.54934576
   0.74999954  0.50000049  0.45091501
   0.00000000  0.74999954  0.45091501
   0.74999954  0.74999954  0.35274474
   0.00000000  0.50000049  0.35274474
   0.75023189  0.50076224  0.64968514
   0.00049998  0.75072636  0.64943456
   0.74997104  0.75042012  0.54960714
   0.99989373  0.50039330  0.54935490

 position of ions in cartesian coordinates  (Angst):
   2.08728000  0.00000000  7.50000000
   4.17456000  2.08728000  7.50000000
   2.08728000  2.08728000  9.58728000
   4.17456000  0.00000000  9.58728000
   2.08846562  0.00330317 11.68690803
   4.17604458  2.09089404 11.69144497
   2.08532995  2.09313852 13.75568773
   4.17125285  0.00738157 13.77458735
   2.08728000  4.17456000  7.50000000
   4.17456000  6.26183000  7.50000000
   2.08728000  6.26183000  9.58728000
   4.17456000  4.17456000  9.58728000
   2.08839709  4.17786763 11.68692525
   4.17604587  6.26535645 11.69142249
   2.08532699  6.26771757 13.75569651
   4.17126518  4.18193797 13.77468996
   6.26183000  0.00000000  7.50000000
   0.00000000  2.08728000  7.50000000
   6.26183000  2.08728000  9.58728000
   0.00000000  0.00000000  9.58728000
   6.25961917  0.00357101 11.69142149
   8.34731691  2.09073679 11.68696104
   6.26373007  2.09470435 13.77521073
   0.00075532  0.00591838 13.75554267
   6.26183000  4.17456000  7.50000000
   0.00000000  6.26183000  7.50000000
   6.26183000  6.26183000  9.58728000
   0.00000000  4.17456000  9.58728000
   6.25970391  4.17812722 11.69157212
   8.34731621  6.26504746 11.68698052
   6.26373592  6.26926985 13.77521045
   0.00073345  4.18047122 13.75591027
   2.08728000  0.00000000  9.58728000
   4.17456000  2.08728000  9.58728000
   2.08728000  2.08728000  7.50000000
   4.17456000  0.00000000  7.50000000
   2.08197190  0.00609677 13.80726194
   4.17119080  2.09363786 13.81344495
   2.08745727  2.09058547 11.68008948
   4.17427185  0.00345623 11.68556893
   2.08728000  4.17456000  9.58728000
   4.17456000  6.26183000  9.58728000
   2.08728000  6.26183000  7.50000000
   4.17456000  4.17456000  7.50000000
   2.08187064  4.18065219 13.80717761
   4.17119104  6.26812483 13.81342907
   2.08746986  6.26504530 11.68008700
   4.17418445  4.17802871 11.68530202
   6.26183000  0.00000000  9.58728000
   0.00000000  2.08728000  9.58728000
   6.26183000  2.08728000  7.50000000
   0.00000000  0.00000000  7.50000000
   6.26368704  0.00636836 13.81365727
   0.00417211  2.09348513 13.80817028
   6.26160171  2.09070176 11.68565959
   8.34811365  0.00328981 11.68009829
   6.26183000  4.17456000  9.58728000
   0.00000000  6.26183000  9.58728000
   6.26183000  6.26183000  7.50000000
   0.00000000  4.17456000  7.50000000
   6.26376998  4.18091994 13.81349742
   0.00417442  6.26789832 13.80816968
   6.26159210  6.26534146 11.68565574
   8.34822457  4.17783963 11.68029266

--------------------------------------- Iteration      FINAL  ---------------------------------------

--------------------OUTCAR has been truncated-------------------------

[...]

--------------------OUTCAR has been truncated-------------------------

  DFT-D2 method for vdW energy calculation

  Parameters of vdW forcefield:
         C6(Jnm^6/mol)     R0(A)
   Mg       0.630          1.243
   O        0.700          1.342

  vdW correction parametrized for the method Fhÿ      

  IVDW =   1
  VDW_RADIUS =    50.000 A
  VDW_S6 =     1.050
  VDW_SR =     1.000
  VDW_D =    20.000
  LVDW_EWALD = F

  Number of pair interactions contributing to vdW energy:  742625
  Edisp (eV):   -5.30612

 VOLUME and BASIS-vectors are now :
  energy-cutoff  :      600.00
  volume of cell :     1482.11
      direct lattice vectors                 reciprocal lattice vectors
     8.349111827  0.000000000  0.000000000     0.119773219  0.000000000  0.000000000
     0.000000000  8.349111827  0.000000000     0.000000000  0.119773219  0.000000000
     0.000000000  0.000000000 21.261833870     0.000000000  0.000000000  0.047032632

  length of vectors
     8.349111827  8.349111827 21.261833870     0.119773219  0.119773219  0.047032632

 FORCES acting on ions:
    Electron-Ion                     Ewald-Force                    Non-Local-Force
   -.119E+00 0.816E-03 0.212E+04   0.120E+00 0.380E-04 -.212E+04   -.111E-02 -.660E-03 -.644E+01
   -.123E+00 0.399E-02 0.212E+04   0.125E+00 -.304E-02 -.212E+04   -.141E-02 -.707E-03 -.644E+01
   -.522E+00 0.519E-01 0.703E+03   0.539E+00 -.342E-01 -.704E+03   -.101E-01 -.108E-01 0.402E+00
   -.553E+00 0.351E-01 0.702E+03   0.566E+00 -.165E-01 -.702E+03   -.852E-02 -.112E-01 0.475E+00
   -.863E+00 0.165E-01 -.707E+03   0.926E+00 -.165E-01 0.707E+03   -.585E-01 -.208E-03 -.200E+00
   -.103E+01 -.123E-01 -.711E+03   0.108E+01 0.146E-01 0.711E+03   -.504E-01 -.256E-02 -.204E+00
   -.133E+01 -.123E+00 -.210E+04   0.119E+01 0.109E+00 0.210E+04   0.123E+00 0.123E-01 0.535E+01
   -.932E+00 0.272E+00 -.211E+04   0.858E+00 -.270E+00 0.211E+04   0.698E-01 -.156E-01 0.547E+01
   -.118E+00 0.465E-02 0.212E+04   0.119E+00 -.370E-02 -.212E+04   -.107E-02 -.774E-03 -.644E+01
   -.123E+00 -.436E-02 0.212E+04   0.125E+00 0.509E-02 -.212E+04   -.140E-02 -.501E-03 -.644E+01
   -.519E+00 0.203E-01 0.703E+03   0.535E+00 -.392E-02 -.704E+03   -.100E-01 -.979E-02 0.402E+00
   -.570E+00 0.433E-01 0.702E+03   0.583E+00 -.247E-01 -.702E+03   -.823E-02 -.113E-01 0.471E+00
   -.906E+00 0.215E-01 -.707E+03   0.968E+00 -.212E-01 0.707E+03   -.574E-01 -.450E-03 -.202E+00
   -.103E+01 -.436E-01 -.711E+03   0.108E+01 0.426E-01 0.711E+03   -.504E-01 0.667E-03 -.204E+00
   -.134E+01 -.163E+00 -.210E+04   0.119E+01 0.148E+00 0.210E+04   0.123E+00 0.135E-01 0.535E+01
   -.930E+00 0.272E+00 -.211E+04   0.854E+00 -.269E+00 0.211E+04   0.710E-01 -.159E-01 0.546E+01
   0.115E+00 0.101E-02 0.212E+04   -.118E+00 -.816E-04 -.212E+04   0.157E-02 -.716E-03 -.644E+01
   0.125E+00 0.308E-02 0.212E+04   -.127E+00 -.213E-02 -.212E+04   0.121E-02 -.705E-03 -.644E+01
   0.530E+00 0.342E-01 0.702E+03   -.545E+00 -.154E-01 -.702E+03   0.996E-02 -.113E-01 0.475E+00
   0.530E+00 0.384E-01 0.703E+03   -.550E+00 -.211E-01 -.704E+03   0.129E-01 -.105E-01 0.402E+00
   0.932E+00 -.287E-01 -.711E+03   -.986E+00 0.298E-01 0.711E+03   0.499E-01 -.112E-02 -.202E+00
   0.960E+00 0.731E-01 -.707E+03   -.102E+01 -.720E-01 0.708E+03   0.589E-01 -.239E-02 -.189E+00
   0.891E+00 0.293E+00 -.211E+04   -.814E+00 -.292E+00 0.211E+04   -.717E-01 -.144E-01 0.546E+01
   0.140E+01 -.142E+00 -.210E+04   -.125E+01 0.128E+00 0.210E+04   -.127E+00 0.129E-01 0.534E+01
   0.115E+00 0.480E-02 0.212E+04   -.117E+00 -.378E-02 -.212E+04   0.151E-02 -.832E-03 -.644E+01
   0.125E+00 -.377E-02 0.212E+04   -.127E+00 0.435E-02 -.212E+04   0.122E-02 -.393E-03 -.644E+01
   0.526E+00 0.382E-01 0.702E+03   -.542E+00 -.200E-01 -.702E+03   0.989E-02 -.109E-01 0.475E+00
   0.548E+00 0.399E-01 0.703E+03   -.568E+00 -.224E-01 -.704E+03   0.126E-01 -.106E-01 0.406E+00
   0.972E+00 -.263E-01 -.711E+03   -.103E+01 0.274E-01 0.711E+03   0.492E-01 -.120E-02 -.207E+00
   0.960E+00 -.378E-01 -.707E+03   -.102E+01 0.360E-01 0.708E+03   0.590E-01 0.234E-02 -.189E+00
   0.893E+00 0.257E+00 -.211E+04   -.815E+00 -.253E+00 0.211E+04   -.715E-01 -.166E-01 0.546E+01
   0.140E+01 -.142E+00 -.210E+04   -.125E+01 0.127E+00 0.210E+04   -.129E+00 0.133E-01 0.535E+01
   -.371E+00 0.335E-01 0.527E+03   0.364E+00 -.538E-01 -.527E+03   0.918E-02 0.241E-01 -.798E-01
   -.400E+00 0.471E-01 0.526E+03   0.388E+00 -.685E-01 -.526E+03   0.143E-01 0.252E-01 -.115E+00
   -.891E-01 0.165E-02 0.160E+04   0.909E-01 -.207E-02 -.160E+04   -.219E-02 0.552E-03 0.310E+01
   -.914E-01 -.121E-02 0.160E+04   0.933E-01 0.589E-03 -.160E+04   -.246E-02 0.771E-03 0.310E+01
   -.112E+01 0.754E-01 -.160E+04   0.110E+01 -.712E-01 0.161E+04   0.695E-01 -.857E-02 -.468E+01
   -.966E+00 -.290E+00 -.160E+04   0.993E+00 0.334E+00 0.161E+04   0.162E-02 -.420E-01 -.453E+01
   -.690E+00 0.138E-01 -.523E+03   0.682E+00 -.108E-01 0.523E+03   0.784E-02 -.376E-02 0.362E+00
   -.738E+00 0.784E-02 -.528E+03   0.727E+00 -.462E-02 0.527E+03   0.126E-01 -.333E-02 0.212E+00
   -.367E+00 0.374E-01 0.527E+03   0.361E+00 -.578E-01 -.527E+03   0.741E-02 0.241E-01 -.811E-01
   -.400E+00 0.246E-01 0.526E+03   0.388E+00 -.471E-01 -.526E+03   0.144E-01 0.269E-01 -.115E+00
   -.888E-01 -.541E-02 0.160E+04   0.906E-01 0.491E-02 -.160E+04   -.220E-02 0.763E-03 0.310E+01
   -.929E-01 0.209E-02 0.160E+04   0.947E-01 -.271E-02 -.160E+04   -.241E-02 0.780E-03 0.310E+01
   -.118E+01 0.759E-01 -.160E+04   0.115E+01 -.718E-01 0.161E+04   0.712E-01 -.851E-02 -.468E+01
   -.967E+00 -.298E+00 -.160E+04   0.994E+00 0.346E+00 0.161E+04   0.161E-02 -.452E-01 -.453E+01
   -.685E+00 -.538E-01 -.523E+03   0.677E+00 0.563E-01 0.523E+03   0.750E-02 -.181E-02 0.362E+00
   -.773E+00 0.160E-01 -.528E+03   0.761E+00 -.126E-01 0.527E+03   0.145E-01 -.373E-02 0.214E+00
   0.370E+00 0.366E-01 0.526E+03   -.354E+00 -.586E-01 -.526E+03   -.197E-01 0.261E-01 -.116E+00
   0.388E+00 0.403E-01 0.527E+03   -.376E+00 -.617E-01 -.527E+03   -.137E-01 0.253E-01 -.806E-01
   0.869E-01 0.930E-04 0.159E+04   -.886E-01 -.589E-03 -.160E+04   0.222E-02 0.673E-03 0.310E+01
   0.939E-01 -.741E-03 0.160E+04   -.956E-01 0.239E-03 -.160E+04   0.214E-02 0.691E-03 0.310E+01
   0.896E+00 -.297E+00 -.160E+04   -.923E+00 0.344E+00 0.161E+04   0.133E-02 -.450E-01 -.453E+01
   0.119E+01 0.123E+00 -.160E+04   -.118E+01 -.118E+00 0.161E+04   -.637E-01 -.986E-02 -.469E+01
   0.717E+00 0.118E-01 -.528E+03   -.706E+00 -.969E-02 0.528E+03   -.129E-01 -.168E-02 0.208E+00
   0.711E+00 -.199E-01 -.523E+03   -.702E+00 0.234E-01 0.523E+03   -.689E-02 -.370E-02 0.367E+00
   0.365E+00 0.400E-01 0.526E+03   -.351E+00 -.620E-01 -.526E+03   -.178E-01 0.261E-01 -.117E+00
   0.388E+00 0.267E-01 0.527E+03   -.377E+00 -.462E-01 -.527E+03   -.137E-01 0.233E-01 -.808E-01
   0.866E-01 -.411E-02 0.159E+04   -.883E-01 0.357E-02 -.160E+04   0.224E-02 0.780E-03 0.310E+01
   0.953E-01 0.183E-02 0.160E+04   -.970E-01 -.248E-02 -.160E+04   0.210E-02 0.741E-03 0.310E+01
   0.950E+00 -.299E+00 -.160E+04   -.977E+00 0.346E+00 0.161E+04   0.178E-03 -.450E-01 -.453E+01
   0.119E+01 0.241E-01 -.160E+04   -.118E+01 -.186E-01 0.161E+04   -.638E-01 -.917E-02 -.469E+01
   0.712E+00 0.134E-01 -.528E+03   -.702E+00 -.985E-02 0.528E+03   -.126E-01 -.425E-02 0.208E+00
   0.747E+00 -.216E-01 -.523E+03   -.737E+00 0.249E-01 0.523E+03   -.957E-02 -.346E-02 0.360E+00
   0.408E-02 0.161E+00 0.192E+02   0.167E-14 0.328E-14 -.432E-11   -.473E-02 -.139E+00 -.169E+02

 POSITION                                       TOTAL-FORCE (eV/Angst)
      2.08728      0.00000      7.50000         0.000398     -0.000023      0.309516
      4.17456      2.08728      7.50000         0.000411      0.000016      0.310771
      2.08728      2.08728      9.58728         0.004662      0.005307      0.046336
      4.17456      0.00000      9.58728         0.003459      0.005714      0.056748
      2.08847      0.00330     11.68691        -0.001215     -0.000317      0.010967
      4.17604      2.09089     11.69144         0.000633     -0.000560      0.003529
      2.08533      2.09314     13.75569        -0.008894      0.000144      0.168831
      4.17125      0.00738     13.77459         0.002450     -0.013435      0.044169
      2.08728      4.17456      7.50000         0.000380     -0.000046      0.309597
      4.17456      6.26183      7.50000         0.000410      0.000021      0.310705
      2.08728      6.26183      9.58728         0.004627      0.005062      0.046336
      4.17456      4.17456      9.58728         0.003421      0.005643      0.056667
      2.08840      4.17787     11.68693        -0.000384     -0.000368      0.011158
      4.17605      6.26536     11.69142         0.000638     -0.000376      0.003767
      2.08533      6.26772     13.75570        -0.008753     -0.000547      0.168742
      4.17127      4.18194     13.77469         0.001662     -0.013321      0.042683
      6.26183      0.00000      7.50000        -0.000404     -0.000010      0.310794
      0.00000      2.08728      7.50000        -0.000405      0.000027      0.309562
      6.26183      2.08728      9.58728        -0.004301      0.005790      0.057181
      0.00000      0.00000      9.58728        -0.005971      0.005204      0.046753
      6.25962      0.00357     11.69142         0.000636     -0.000286      0.004732
      8.34732      2.09074     11.68696        -0.000120     -0.001524      0.012389
      6.26373      2.09470     13.77521        -0.000321     -0.014162      0.041082
      0.00076      0.00592     13.75554         0.008360     -0.000409      0.170898
      6.26183      4.17456      7.50000        -0.000379     -0.000036      0.310756
      0.00000      6.26183      7.50000        -0.000408     -0.000008      0.309588
      6.26183      6.26183      9.58728        -0.004264      0.005669      0.057182
      0.00000      4.17456      9.58728        -0.005886      0.005215      0.046495
      6.25970      4.17813     11.69157        -0.000355     -0.000277      0.003197
      8.34732      6.26505     11.68698        -0.000112      0.000565      0.012171
      6.26374      6.26927     13.77521        -0.000468     -0.013344      0.041068
      0.00073      4.18047     13.75591         0.009211     -0.000524      0.168691
      2.08728      0.00000      9.58728         0.003033      0.007012      0.065148
      4.17456      2.08728      9.58728         0.004748      0.007252      0.077477
      2.08728      2.08728      7.50000        -0.000744      0.000058     -0.591468
      4.17456      0.00000      7.50000        -0.000894      0.000102     -0.592217
      2.08197      0.00610     13.80726         0.059044     -0.005938      0.028135
      4.17119      2.09364     13.81344         0.030404     -0.003191      0.055812
      2.08746      2.09059     11.68009         0.000387     -0.001541      0.003064
      4.17427      0.00346     11.68557         0.002692     -0.000706      0.003776
      2.08728      4.17456      9.58728         0.002422      0.006964      0.064716
      4.17456      6.26183      9.58728         0.004749      0.008024      0.077376
      2.08728      6.26183      7.50000        -0.000687      0.000215     -0.591475
      4.17456      4.17456      7.50000        -0.000863      0.000116     -0.592284
      2.08187      4.18065     13.80718         0.060784     -0.005918      0.029581
      4.17119      6.26812     13.81343         0.030433     -0.003562      0.056027
      2.08747      6.26505     11.68009         0.000144      0.000301      0.003100
      4.17418      4.17803     11.68530         0.004293     -0.001024      0.007344
      6.26183      0.00000      9.58728        -0.006294      0.007611      0.077198
      0.00000      2.08728      9.58728        -0.004401      0.007381      0.065111
      6.26183      2.08728      7.50000         0.000862      0.000119     -0.592219
      0.00000      0.00000      7.50000         0.000731      0.000133     -0.591431
      6.26369      0.00637     13.81366        -0.027303     -0.003756      0.054940
      0.00417      2.09349     13.80817        -0.058807     -0.007230      0.023932
      6.26160      2.09070     11.68566        -0.003982      0.000007      0.005014
      8.34811      0.00329     11.68010         0.001156     -0.000881      0.004099
      6.26183      4.17456      9.58728        -0.005625      0.007550      0.077714
      0.00000      6.26183      9.58728        -0.004395      0.006868      0.065177
      6.26183      6.26183      7.50000         0.000807      0.000199     -0.592213
      0.00000      4.17456      7.50000         0.000685      0.000044     -0.591501
      6.26377      4.18092     13.81350        -0.028757     -0.003667      0.056304
      0.00417      6.26790     13.80817        -0.058849     -0.005146      0.023913
      6.26159      6.26534     11.68566        -0.003762     -0.001465      0.005071
      8.34822      4.17784     11.68029        -0.000730     -0.000737      0.001716
    total drift:                               -0.000895      0.009645      0.013101

  FREE ENERGIE OF THE ION-ELECTRON SYSTEM (eV)
  free  energy   TOTEN  =      -438.96858179 eV

  energy  without entropy=     -438.96858179  energy(sigma->0) =     -438.96858179