 vasp.6.3.0 20Jan22 (build Aug 21 2024 11:13:42) complex
 executed on        HPECrayEX_GCC date 2024.11.27  04:18:32

 INCAR:
   SYSTEM = TiO2
   ISMEAR = 0
   SIGMA = 0.05
   EDIFF = 1E-4
   ALGO = ALL
   ISTART = 0
   IBRION = -1
   NSW = 0
   ISYM = 0
   ISIF = 2
   EDIFFG = -0.01
   DIPOL = 0.5 0.5 0.5
   IDIPOL = 3
   LDIPOL = .TRUE.
   LHFCALC = .TRUE.
   HFSCREEN = 0.2
   GGA = PE
   IVDW = 13
   VDW_S8 = 1.19528249
   VDW_A1 = 0.38663183
   VDW_A2 = 5.19133469
   ENCUT = 520
   PREC = Normal
   PRECFOCK = Fast
   LASPH = .TRUE.
   LREAL = .FALSE.
   ISPIN = 1
   NKREDX = 3
   NKREDY = 3
   NELM = 200
   NELMIN = 8
   NCORE = 16
   KPAR = 1
   LWAVE = .FALSE.
   LCHARG = .FALSE.

 POTCAR:    PAW_PBE Ti 08Apr2002
 POTCAR:    PAW_PBE O 08Apr2002
 POTCAR:    PAW_PBE Ti 08Apr2002
   VRHFIN =Ti: d3 s1

   TITEL  = PAW_PBE Ti 08Apr2002
   POMASS =   47.880; ZVAL   =    4.000    mass and valenz
   ENMAX  =  178.330; ENMIN  =  133.747 eV

   TITEL  = PAW_PBE O 08Apr2002
   POMASS =   16.000; ZVAL   =    6.000    mass and valenz
   ENMAX  =  400.000; ENMIN  =  300.000 eV

  PAW_PBE Ti 08Apr2002                  :
  PAW_PBE O 08Apr2002                   :

 POSCAR: Ti  O
  positions in direct lattice
 WARNING: Using user supplied parameters
     VDW_S8 = 1.195
     VDW_A1 = 0.387
     VDW_A2 = 5.191
     because the xc functional is not supported. Required parameters not
     defined in the INCAR file will be replaced with PBE defaults ones.

 ion  position               nearest neighbor table
   1  0.815  0.833  0.293-  85 1.97  53 1.97  51 1.97  50 2.02  52 2.02  18 3.11   4 3.11   2 3.11

   2  0.599  0.667  0.325-  49 1.97 116 1.97  54 1.97  52 1.97  53 2.02  55 2.02  33 3.11   3 3.11
                             1 3.11   7 3.15
   3  0.315  0.667  0.293- 121 1.97  57 1.97  55 1.97  49 2.02  56 2.02  36 3.11   2 3.11   4 3.11

   4  0.099  0.833  0.325-  50 1.97  88 1.97  58 1.97  56 1.97  57 2.02  51 2.02  19 3.11   1 3.11
                             3 3.11   5 3.15
   5  0.949  0.833  0.422-  59 1.95  93 1.96  61 1.96  60 2.01  51 2.01  58 2.04   8 3.05  22 3.10
                             6 3.10   4 3.15
   6  0.730  0.666  0.451-  54 1.91 124 1.96  60 1.97  62 2.00  63 2.01  61 2.03   7 3.06   5 3.10
                            37 3.11
   7  0.449  0.666  0.422-  63 1.95 129 1.96  65 1.96  55 2.01  64 2.01  54 2.04   6 3.06   8 3.11
                            40 3.11   2 3.15
   8  0.229  0.833  0.451-  58 1.91  96 1.97  64 1.97  59 2.00  66 2.01  65 2.04   5 3.05  23 3.11
                             7 3.11
   9  0.088  0.833  0.551-  67 1.94 101 1.96  69 1.96  68 2.00  66 2.04  59 2.05  12 3.00  10 3.10
                            26 3.11
  10  0.866  0.666  0.576-  62 1.88 132 1.96  68 1.98  71 1.98  69 2.04  70 2.05  11 3.02   9 3.10
                            41 3.11
  11  0.587  0.666  0.550- 137 1.96  71 1.96  73 1.96  72 2.00  63 2.03  62 2.05  10 3.02  12 3.11
                            44 3.12
  12  0.365  0.833  0.577-  66 1.88 104 1.97  72 1.97  67 1.98  74 2.04  73 2.05   9 3.00  27 3.11
                            11 3.11
  13  0.231  0.833  0.683-  75 1.88  77 1.95 109 1.97  76 2.02  74 2.13  67 2.15  16 2.89  30 3.12
                            14 3.14
  14  0.001  0.666  0.702-  70 1.79  78 1.86 140 2.00  76 2.02  77 2.09  15 2.90  13 3.14  45 3.15

[...]

  17  0.815  0.167  0.293-  85 1.97 117 1.97  83 1.97  82 2.02  84 2.02  18 3.11  20 3.11  34 3.11

[...]

  36  0.099  0.500  0.325- 114 1.97  56 1.97 120 1.97 122 1.97 121 2.02 115 2.02   3 3.11  35 3.11
                            33 3.11  37 3.13
  37  0.950  0.500  0.422- 123 1.95 125 1.96  61 1.96 115 2.01 124 2.02 122 2.02  40 3.05   6 3.11
                            38 3.11  36 3.13
  38  0.730  0.334  0.451- 118 1.91 124 1.96  92 1.97 126 2.00 127 2.01 125 2.03  39 3.06  21 3.10
                            37 3.11
  39  0.449  0.334  0.422- 127 1.95 129 1.96  97 1.96 119 2.01 128 2.01 118 2.04  38 3.06  24 3.11
                            40 3.11  34 3.15
  40  0.229  0.500  0.452- 122 1.94 128 1.97  64 1.97 123 1.98 130 2.01 129 2.05  37 3.05  39 3.11
                             7 3.11  41 3.14
  41  0.091  0.500  0.551- 131 1.93 133 1.96  69 1.96 130 2.01 132 2.03 123 2.06  44 3.00  42 3.11
                            10 3.11  40 3.14
  42  0.866  0.334  0.576- 126 1.88 132 1.96 100 1.98 135 1.98 133 2.04 134 2.05  43 3.02  25 3.10
                            41 3.11
  43  0.587  0.334  0.550- 137 1.96 135 1.96 105 1.96 136 2.00 127 2.03 126 2.05  42 3.02  28 3.11
                            44 3.12
  44  0.366  0.500  0.580- 130 1.93 131 1.97 136 1.97  72 1.97 138 2.03 137 2.06  41 3.00  43 3.12
                            11 3.12
  45  0.235  0.500  0.684- 139 1.87 141 1.96  77 1.96 140 2.06 138 2.07 131 2.16  48 2.92  46 3.15
                            14 3.15
  46  0.001  0.334  0.702- 134 1.79 142 1.86 140 2.00 108 2.02 141 2.09  47 2.90  29 3.14  45 3.15

  47  0.730  0.333  0.680- 142 1.90 112 1.96 144 1.96 143 2.02 135 2.09 134 2.13  46 2.90  32 3.13
                            48 3.13
  48  0.506  0.500  0.707- 139 1.87 138 1.89 143 2.01  79 2.01 144 2.09  45 2.92  47 3.13  15 3.13

  49  0.494  0.667  0.267-   2 1.97   3 2.02
  50  0.994  0.833  0.267-   4 1.97   1 2.02
  51  0.919  0.833  0.351-   1 1.97   5 2.01   4 2.02
  52  0.636  0.833  0.320-  18 1.97   2 1.97   1 2.02
  53  0.778  0.667  0.299-  33 1.97   1 1.97   2 2.02
  54  0.628  0.667  0.394-   6 1.91   2 1.97   7 2.04
  55  0.419  0.667  0.351-   3 1.97   7 2.01   2 2.02
  56  0.136  0.667  0.320-  36 1.97   4 1.97   3 2.02
  57  0.278  0.833  0.299-  19 1.97   3 1.97   4 2.02
  58  0.128  0.833  0.394-   8 1.91   4 1.97   5 2.04
  59  0.054  0.833  0.479-   5 1.95   8 2.00   9 2.05
  60  0.769  0.833  0.447-  22 1.97   6 1.97   5 2.01
  61  0.912  0.667  0.426-   5 1.96  37 1.96   6 2.03
  62  0.765  0.667  0.521-  10 1.88   6 2.00  11 2.05
  63  0.554  0.666  0.479-   7 1.95   6 2.01  11 2.03
  64  0.269  0.667  0.447-  40 1.97   8 1.97   7 2.01
  65  0.412  0.833  0.426-  23 1.96   7 1.96   8 2.04
  66  0.265  0.833  0.521-  12 1.88   8 2.01   9 2.04
  67  0.195  0.833  0.607-   9 1.94  12 1.98  13 2.15
  68  0.907  0.833  0.574-  26 1.97  10 1.98   9 2.00
  69  0.051  0.666  0.554-   9 1.96  41 1.96  10 2.04
  70  0.913  0.667  0.647-  14 1.79  10 2.05  15 2.13
  71  0.697  0.667  0.607-  11 1.96  10 1.98  15 2.09
  72  0.408  0.666  0.575-  44 1.97  12 1.97  11 2.00
  73  0.550  0.833  0.554-  11 1.96  27 1.96  12 2.05
  74  0.411  0.836  0.647-  16 1.79  12 2.04  13 2.13
  75  0.348  0.833  0.734-  16 1.86  13 1.88
  76  0.053  0.833  0.710-  30 2.01  14 2.02  13 2.02
  77  0.194  0.666  0.683-  13 1.95  45 1.96  14 2.09
  78  0.844  0.665  0.733-  14 1.86  15 1.90
  79  0.554  0.669  0.709-  16 1.99  48 2.01  15 2.02
  80  0.695  0.834  0.681-  31 1.95  15 1.96  16 2.09
  81  0.494  0.000  0.267-  18 1.97  19 2.02
  82  0.994  0.167  0.267-  20 1.97  17 2.02
  83  0.919  0.167  0.351-  17 1.97  21 2.01  20 2.02
  84  0.636  0.167  0.320-  18 1.97  34 1.97  17 2.02
  85  0.778  0.000  0.299-   1 1.97  17 1.97  18 2.02
  86  0.628  0.000  0.394-  22 1.91  18 1.97  23 2.04
  87  0.419  0.000  0.351-  19 1.97  23 2.01  18 2.02
  88  0.136  0.000  0.320-   4 1.97  20 1.97  19 2.02
  89  0.278  0.167  0.299-  19 1.97  35 1.97  20 2.02
  90  0.128  0.167  0.394-  24 1.91  20 1.97  21 2.04
  91  0.054  0.167  0.479-  21 1.95  24 2.00  25 2.05
  92  0.769  0.167  0.447-  22 1.97  38 1.97  21 2.01
  93  0.912  0.000  0.426-  21 1.96   5 1.96  22 2.03
  94  0.765  0.000  0.521-  26 1.88  22 2.01  27 2.04
  95  0.554  0.000  0.479-  23 1.95  22 2.00  27 2.04
  96  0.269  0.000  0.447-  24 1.97   8 1.97  23 2.01
  97  0.412  0.167  0.426-  23 1.96  39 1.96  24 2.04
  98  0.265  0.167  0.521-  28 1.88  24 2.01  25 2.04
  99  0.195  0.167  0.607-  25 1.94  28 1.98  29 2.15
 100  0.907  0.167  0.574-  26 1.97  42 1.98  25 2.00
 101  0.052  0.000  0.554-  25 1.96   9 1.96  26 2.06
 102  0.912  0.000  0.647-  30 1.80  26 2.05  31 2.12
 103  0.696  0.000  0.607-  27 1.95  26 1.97  31 2.15
 104  0.407  0.000  0.574-  12 1.97  28 1.97  27 2.00
 105  0.550  0.167  0.554-  43 1.96  27 1.96  28 2.05
 106  0.411  0.164  0.647-  32 1.79  28 2.04  29 2.13
 107  0.348  0.167  0.734-  32 1.86  29 1.88
 108  0.053  0.167  0.710-  30 2.01  46 2.02  29 2.02
[...]
 130  0.266  0.500  0.522-  44 1.93  41 2.01  40 2.01
 131  0.195  0.500  0.608-  41 1.93  44 1.97  45 2.16
 132  0.907  0.500  0.574-  10 1.96  42 1.96  41 2.03
 133  0.051  0.334  0.554-  25 1.96  41 1.96  42 2.04
 134  0.913  0.333  0.647-  46 1.79  42 2.05  47 2.13
 135  0.697  0.333  0.607-  43 1.96  42 1.98  47 2.09
 136  0.408  0.334  0.575-  44 1.97  28 1.97  43 2.00
 137  0.551  0.500  0.555-  43 1.96  11 1.96  44 2.06
 138  0.411  0.500  0.650-  48 1.89  44 2.03  45 2.07
 139  0.345  0.500  0.736-  45 1.87  48 1.87
 140  0.052  0.500  0.710-  46 2.00  14 2.00  45 2.06
 141  0.194  0.334  0.683-  29 1.95  45 1.96  46 2.09
 142  0.844  0.335  0.733-  46 1.86  47 1.90
 143  0.554  0.331  0.709-  32 1.99  48 2.01  47 2.02
 144  0.692  0.500  0.681-  15 1.96  47 1.96  48 2.09

IMPORTANT INFORMATION: All symmetrisations will be switched off!
NOSYMM: (Re-)initialisation of all symmetry stuff for point group C_1.

                                     Primitive cell

  volume of cell :    3395.7251

  direct lattice vectors                    reciprocal lattice vectors
    10.494931139  0.000000000  0.000000000     0.095284094 -0.000000000  0.000000000
     0.000000000 11.517834055  0.000000000     0.000000000  0.086821879  0.000000000
     0.000000000  0.000000000 28.091964603     0.000000000  0.000000000  0.035597368

  length of vectors
    10.494931139 11.517834055 28.091964603     0.095284094  0.086821879  0.035597368

  position of ions in fractional coordinates (direct lattice)
     0.815066060  0.833333333  0.293308113
     0.598522517  0.666666667  0.325106865
     0.315066060  0.666666667  0.293308113
     0.098522517  0.833333333  0.325106865
     0.948860649  0.833356972  0.422125592
     0.729776645  0.666251966  0.450716933
     0.448500885  0.666422675  0.422036162
     0.229008285  0.833260803  0.450948012
     0.087727520  0.833412303  0.551010907
     0.866063803  0.665997702  0.575996841
     0.586773097  0.666384244  0.550338371
     0.364848378  0.833394432  0.576788592
     0.231393663  0.832663874  0.682752097
     0.000832241  0.665527463  0.701603256
     0.730321781  0.666834795  0.680157911
     0.502546538  0.834628115  0.701327106
     0.815066060  0.166666667  0.293308113
     0.598522517  0.000000000  0.325106865
     0.315066060  0.000000000  0.293308113
     0.098522517  0.166666667  0.325106865
     0.948860664  0.166643032  0.422125591
     0.729415807  0.000000013  0.450715750
     0.448581295  0.999999995  0.422098145
     0.229008296  0.166739196  0.450948014
     0.087727514  0.166587659  0.551010905
     0.864895226  0.000000004  0.576336105
     0.587245470  0.000000016  0.550582504
     0.364848377  0.166605604  0.576788603
     0.231393647  0.167336157  0.682752115
     0.002874617  0.000000001  0.701614338
[...]
   4.39984000  7.67855604  9.87249167
   1.42498401  7.67855604  8.97920226
   2.91559963  9.59819505  8.39328941
   1.34523648  9.59819505 11.07315764
   0.57131441  9.59867126 13.46108286
   8.07580310  9.59756162 12.55276081
[...]
   2.79120092  5.75891700 14.67031738
   2.04538041  5.75891703 17.07954739
   9.51800441  5.75891709 16.11354150
   0.53988933  3.84140503 15.55724379
   9.58036378  3.83983725 18.17095604
   7.31027685  3.83179595 17.04415270
   4.27705088  3.84128102 16.15218124
   5.78270794  5.75891700 15.57890524
   4.31134500  5.75891682 18.26317469
   3.62198211  5.75891705 20.66789646
   0.54889225  5.75891714 19.94830754
   2.03921530  3.84229729 19.19475988
   8.86124402  3.85905739 20.58031408
   5.81229544  3.80990552 19.90351007
   7.26603559  5.75891747 19.12766619

--------------------------------------- Iteration      FINAL  ---------------------------------------

--------------------OUTCAR has been truncated-------------------------

[...]

--------------------OUTCAR has been truncated-------------------------

  FORCE on cell =-STRESS in cart. coord.  units (eV):
  Direction    XX          YY          ZZ          XY          YZ          ZX
  Alpha Z  1459.31131  1459.31131  1459.31131
  Ewald  243349.14514241446.02220************     0.00014     0.00010  -589.92267
  Hartree254461.02744253818.23767************     0.00004     0.00002  -291.64301
  E(xc)   -2777.00112 -2770.14311 -2762.33231     0.00000     0.00001    -3.26171
  Local  ************************500127.21433    -0.00024    -0.00006   899.76626
  n-local -1775.84148 -1758.43023 -1803.82349     0.00004    -0.00005    -6.02422
  augment   803.70032   799.99225   801.32552    -0.00000    -0.00002    -0.56947
  Kinetic 13737.91426 13831.10812 13903.65836     0.00017    -0.00016   -11.24447
  Fock    -1279.05575 -1266.61137 -1265.13545     0.00000     0.00001    -0.68092
  vdW       -24.75408   -26.18825   -21.66504    -0.00000    -0.00000    -0.28958
  Total    -210.55921  -157.94756  -134.08361     0.00016    -0.00014    -3.86979
  in kB     -99.34644   -74.52311   -63.26358     0.00007    -0.00007    -1.82585

 VOLUME and BASIS-vectors are now :
  energy-cutoff  :      520.00
  volume of cell :     3395.73
      direct lattice vectors                 reciprocal lattice vectors
    10.494931139  0.000000000  0.000000000     0.095284094 -0.000000000  0.000000000
     0.000000000 11.517834055  0.000000000     0.000000000  0.086821879  0.000000000
     0.000000000  0.000000000 28.091964603     0.000000000  0.000000000  0.035597368

  length of vectors
    10.494931139 11.517834055 28.091964603     0.095284094  0.086821879  0.035597368

 FORCES acting on ions:
    Electron-Ion                     Ewald-Force                    Non-Local-Force
   0.907E+01 0.261E-01 0.950E+03   -.616E+01 -.252E-01 -.947E+03   0.847E+00 0.195E-03 -.179E+01
   -.137E+01 0.106E-01 0.768E+03   0.302E+00 -.905E-02 -.769E+03   -.656E+00 -.172E-03 -.808E+00
   0.902E+01 0.477E-01 0.950E+03   -.613E+01 -.507E-01 -.947E+03   0.840E+00 -.556E-03 -.179E+01
   -.172E+01 0.502E-01 0.768E+03   0.632E+00 -.534E-01 -.769E+03   -.661E+00 -.981E-03 -.813E+00
   -.981E+00 0.217E+00 0.347E+03   0.859E+00 -.219E+00 -.347E+03   0.127E+00 0.157E-02 0.300E-01
   -.597E+00 -.367E+00 0.216E+03   0.794E+00 0.385E+00 -.216E+03   -.404E-01 0.864E-02 -.126E+00
   -.703E+00 -.135E+00 0.346E+03   0.603E+00 0.150E+00 -.347E+03   0.124E+00 0.529E-02 0.118E-01
   -.259E+01 0.190E+00 0.215E+03   0.283E+01 -.183E+00 -.215E+03   -.316E-01 0.632E-02 -.129E+00
   -.253E+01 -.103E-01 -.226E+03   0.231E+01 0.108E-01 0.226E+03   0.223E+00 0.165E-01 0.120E+00
   -.312E+01 -.493E+00 -.337E+03   0.363E+01 0.546E+00 0.338E+03   -.123E+00 0.496E-02 -.197E+00
   -.811E+00 0.414E+00 -.223E+03   0.694E+00 -.366E+00 0.223E+03   0.199E+00 0.944E-02 0.850E-01
   -.269E+01 0.116E+01 -.341E+03   0.320E+01 -.112E+01 0.342E+03   -.142E+00 -.107E-02 -.238E+00
   0.596E+01 -.256E+00 -.780E+03   -.684E+01 0.343E+00 0.779E+03   0.646E+00 0.157E-01 -.106E+00
   -.267E+02 -.180E+01 -.893E+03   0.280E+02 0.177E+01 0.894E+03   -.909E-01 0.974E-01 0.612E+00
   0.364E+01 0.381E+00 -.772E+03   -.410E+01 -.260E+00 0.772E+03   0.698E+00 0.125E-01 0.773E-01
   -.279E+02 -.102E+01 -.892E+03   0.293E+02 0.120E+01 0.892E+03   -.378E-01 0.550E-01 0.584E+00
   0.907E+01 -.261E-01 0.950E+03   -.616E+01 0.252E-01 -.947E+03   0.847E+00 -.184E-03 -.179E+01
   -.139E+01 0.317E-05 0.768E+03   0.307E+00 0.240E-05 -.769E+03   -.658E+00 0.232E-05 -.812E+00
   0.902E+01 -.674E-05 0.950E+03   -.611E+01 0.841E-06 -.947E+03   0.844E+00 -.284E-04 -.179E+01
   -.172E+01 -.502E-01 0.768E+03   0.632E+00 0.534E-01 -.769E+03   -.661E+00 0.984E-03 -.813E+00
   -.981E+00 -.217E+00 0.347E+03   0.859E+00 0.219E+00 -.347E+03   0.127E+00 -.160E-02 0.300E-01
   -.148E+01 0.778E-05 0.216E+03   0.170E+01 -.141E-04 -.216E+03   -.214E-01 0.374E-05 -.131E+00
   -.538E+00 -.194E-04 0.347E+03   0.423E+00 0.162E-04 -.347E+03   0.120E+00 -.125E-04 0.203E-01
   -.259E+01 -.190E+00 0.215E+03   0.283E+01 0.183E+00 -.215E+03   -.316E-01 -.631E-02 -.129E+00
   -.253E+01 0.102E-01 -.226E+03   0.231E+01 -.107E-01 0.226E+03   0.223E+00 -.165E-01 0.120E+00
   -.415E+01 0.623E-05 -.340E+03   0.471E+01 -.528E-05 0.341E+03   -.116E+00 -.587E-05 -.194E+00
   -.187E+01 0.187E-04 -.224E+03   0.168E+01 -.103E-04 0.224E+03   0.227E+00 -.393E-05 0.141E+00
   -.269E+01 -.116E+01 -.341E+03   0.320E+01 0.112E+01 0.342E+03   -.142E+00 0.107E-02 -.238E+00
   0.596E+01 0.256E+00 -.780E+03   -.684E+01 -.343E+00 0.779E+03   0.646E+00 -.157E-01 -.106E+00
   -.269E+02 0.570E-05 -.893E+03   0.283E+02 -.836E-05 0.893E+03   -.779E-01 0.346E-05 0.579E+00
   0.530E+01 0.370E-04 -.779E+03   -.610E+01 -.462E-04 0.778E+03   0.625E+00 -.511E-05 -.485E-01
   -.279E+02 0.102E+01 -.892E+03   0.293E+02 -.120E+01 0.892E+03   -.378E-01 -.550E-01 0.584E+00
   0.907E+01 -.487E-05 0.950E+03   -.616E+01 -.164E-05 -.947E+03   0.849E+00 0.409E-05 -.179E+01
   -.137E+01 -.106E-01 0.768E+03   0.302E+00 0.905E-02 -.769E+03   -.656E+00 0.150E-03 -.808E+00
   0.902E+01 -.477E-01 0.950E+03   -.613E+01 0.507E-01 -.947E+03   0.840E+00 0.549E-03 -.179E+01
   -.185E+01 0.265E-05 0.768E+03   0.795E+00 -.327E-06 -.769E+03   -.658E+00 -.157E-04 -.789E+00
   -.751E-01 -.662E-05 0.346E+03   -.107E+00 -.576E-06 -.347E+03   0.114E+00 -.679E-05 0.418E-01
   -.597E+00 0.367E+00 0.216E+03   0.794E+00 -.385E+00 -.216E+03   -.404E-01 -.863E-02 -.126E+00
   -.703E+00 0.135E+00 0.346E+03   0.603E+00 -.150E+00 -.347E+03   0.124E+00 -.528E-02 0.118E-01
   -.364E+01 -.196E-04 0.210E+03   0.388E+01 0.289E-04 -.210E+03   -.303E-01 0.542E-05 -.665E-01
   -.453E+00 -.505E-05 -.228E+03   0.462E-01 0.194E-04 0.227E+03   0.173E+00 -.495E-05 0.128E+00
   -.312E+01 0.493E+00 -.337E+03   0.363E+01 -.546E+00 0.338E+03   -.123E+00 -.495E-02 -.197E+00
   -.811E+00 -.414E+00 -.223E+03   0.694E+00 0.366E+00 0.223E+03   0.199E+00 -.944E-02 0.850E-01
   -.382E+01 -.223E-04 -.355E+03   0.422E+01 0.335E-04 0.355E+03   -.145E+00 0.137E-05 -.144E+00
   0.917E+01 -.533E-04 -.783E+03   -.104E+02 0.650E-04 0.782E+03   0.412E+00 -.811E-05 -.450E-01
   -.267E+02 0.180E+01 -.893E+03   0.280E+02 -.177E+01 0.894E+03   -.909E-01 -.974E-01 0.612E+00
   0.364E+01 -.381E+00 -.772E+03   -.410E+01 0.260E+00 0.772E+03   0.698E+00 -.125E-01 0.773E-01
   -.285E+02 -.938E-04 -.921E+03   0.288E+02 0.111E-03 0.919E+03   -.178E+00 0.386E-05 0.891E+00
   -.636E+01 0.253E-01 0.153E+04   0.114E+02 -.259E-01 -.155E+04   -.619E+01 0.452E-04 0.164E+02
   -.652E+01 0.258E-01 0.153E+04   0.116E+02 -.263E-01 -.155E+04   -.618E+01 0.141E-02 0.164E+02
   0.425E+02 0.149E+00 0.969E+03   -.467E+02 -.144E+00 -.965E+03   0.314E+01 -.527E-02 -.391E+01
   0.310E+02 0.607E-01 0.118E+04   -.377E+02 -.593E-01 -.118E+04   0.652E+01 -.167E-02 -.237E+01
   -.424E+02 0.144E-01 0.135E+04   0.492E+02 -.148E-01 -.135E+04   -.596E+01 -.112E-02 -.483E+00
   -.342E+02 -.232E+00 0.719E+03   0.391E+02 0.290E+00 -.723E+03   -.457E+01 -.534E-01 0.409E+01
   0.429E+02 0.126E+00 0.968E+03   -.471E+02 -.104E+00 -.964E+03   0.312E+01 -.229E-01 -.380E+01
   0.305E+02 0.819E-01 0.118E+04   -.372E+02 -.902E-01 -.118E+04   0.653E+01 0.155E-01 -.238E+01
   -.426E+02 0.632E-01 0.135E+04   0.493E+02 -.623E-01 -.135E+04   -.595E+01 -.175E-02 -.485E+00
   -.359E+02 0.205E+00 0.720E+03   0.408E+02 -.192E+00 -.724E+03   -.462E+01 -.148E-01 0.415E+01
   0.384E+02 -.502E-02 0.116E+03   -.444E+02 0.230E-01 -.110E+03   0.552E+01 -.168E-01 -.503E+01
   0.391E+02 0.325E+00 0.337E+03   -.454E+02 -.408E+00 -.334E+03   0.579E+01 0.711E-01 -.279E+01
[...]
   0.412E+02 0.446E-05 -.746E+03   -.477E+02 0.545E-05 0.755E+03   0.611E+01 0.394E-05 -.784E+01
   0.359E+02 0.307E-04 -.503E+03   -.414E+02 -.647E-04 0.506E+03   0.513E+01 0.993E-05 -.268E+01
   -.408E+02 -.345E+00 -.342E+03   0.467E+02 0.312E+00 0.340E+03   -.536E+01 0.546E-01 0.246E+01
   -.354E+02 0.701E+00 -.938E+03   0.367E+02 -.938E+00 0.927E+03   -.148E+01 0.219E+00 0.934E+01
   0.427E+02 0.670E+00 -.733E+03   -.485E+02 -.922E+00 0.740E+03   0.532E+01 0.243E+00 -.611E+01
   0.374E+02 -.170E+01 -.514E+03   -.434E+02 0.154E+01 0.518E+03   0.552E+01 0.215E+00 -.289E+01
   -.365E+02 -.203E-04 -.348E+03   0.419E+02 0.524E-04 0.346E+03   -.511E+01 0.585E-06 0.216E+01
   -.389E+02 -.697E-04 -.956E+03   0.427E+02 0.770E-04 0.948E+03   -.313E+01 -.869E-05 0.805E+01
   0.140E+02 -.150E-03 -.153E+04   -.196E+02 0.138E-03 0.156E+04   0.566E+01 0.101E-04 -.195E+02
   0.294E+02 -.987E-04 -.138E+04   -.329E+02 0.991E-04 0.139E+04   0.341E+01 -.212E-04 -.710E+01
   -.244E+02 0.101E+00 -.118E+04   0.288E+02 0.490E-01 0.117E+04   -.398E+01 -.403E-01 0.260E+01
   0.166E+02 0.202E+00 -.153E+04   -.224E+02 0.503E-01 0.155E+04   0.521E+01 -.257E+00 -.200E+02
   0.298E+02 -.266E+01 -.137E+04   -.346E+02 0.252E+01 0.138E+04   0.432E+01 0.663E+00 -.540E+01
   -.231E+02 0.245E-04 -.116E+04   0.278E+02 0.151E-04 0.116E+04   -.453E+01 -.472E-06 0.416E+01
   -.228E+02 0.339E-03 0.695E+02   0.227E-12 0.385E-12 0.000E+00   0.239E+02 -.216E-04 -.627E+02

 POSITION                                       TOTAL-FORCE (eV/Angst)
      8.55406      9.59820      8.23960         4.151640      0.001262      2.597378
      6.28145      7.67856      9.13289        -1.862455      0.001201     -2.011582
      3.30660      7.67856      8.23960         4.128758     -0.003625      2.584680
      1.03399      9.59820      9.13289        -1.887085     -0.004387     -2.020815
      9.95823      9.59847     11.85834        -0.019664      0.006490      0.043341
      7.65896      7.67378     12.66152        -0.011195     -0.000790     -0.021952
      4.70699      7.67575     11.85582        -0.014180      0.001970      0.032185
      2.40343      9.59736     12.66802        -0.027929      0.014604     -0.021193
      0.92069      9.59910     15.47898        -0.014434      0.027999      0.064661
      9.08928      7.67085     16.18088        -0.005410      0.013098      0.029651
      6.15814      7.67530     15.46009         0.034312      0.045182      0.022834
      3.82906      9.59890     16.20312        -0.056227      0.051229     -0.017579
      2.42846      9.59048     19.17985        -0.006394      0.068072      0.101820
      0.00873      7.66543     19.70941        -0.274761      0.005324     -0.166851
      7.66468      7.68049     19.10697         0.394598      0.139647      0.277321
      5.27419      9.61311     19.70166        -0.146815      0.208157     -0.225484
      8.55406      1.91964      8.23960         4.151632     -0.001234      2.597402
      6.28145      0.00000      9.13289        -1.873478      0.000004     -2.017417
      3.30660      0.00000      8.23960         4.143541     -0.000038      2.590492
      1.03399      1.91964      9.13289        -1.887080      0.004376     -2.020762
      9.95823      1.91937     11.85834        -0.019681     -0.006519      0.043330
      7.65517      0.00000     12.66149        -0.017472     -0.000004     -0.010405
      4.70783     11.51783     11.85757        -0.019417     -0.000020      0.050799
      2.40343      1.92047     12.66802        -0.027922     -0.014606     -0.021224
      0.92069      1.91873     15.47898        -0.014484     -0.028013      0.064656
      9.07702      0.00000     16.19041        -0.032879     -0.000008      0.019242
      6.16310      0.00000     15.46694         0.019787      0.000003      0.058827
      3.82906      1.91894     16.20313        -0.056154     -0.051239     -0.017564
      2.42846      1.92735     19.17985        -0.006408     -0.068075      0.101850
      0.03017      0.00000     19.70973        -0.115586     -0.000002     -0.271893
      7.69434      0.00000     19.16060         0.103783     -0.000016      0.111763
      5.27419      1.90473     19.70166        -0.146841     -0.208193     -0.225499
      8.55406      5.75892      8.23960         4.156619     -0.000003      2.587542
      6.28145      3.83928      9.13289        -1.862398     -0.001231     -2.011579
      3.30660      3.83928      8.23960         4.128779      0.003627      2.584661
      1.03399      5.75892      9.13289        -1.852873     -0.000016     -1.959612
      9.97301      5.75892     11.85267        -0.017867     -0.000017      0.009316
      7.65896      3.84405     12.66152        -0.011181      0.000796     -0.021985
      4.70699      3.84209     11.85582        -0.014172     -0.001968      0.032167
      2.40605      5.75892     12.69584        -0.042445      0.000012     -0.084131
      0.95198      5.75892     15.48433        -0.071887      0.000005     -0.028906
      9.08928      3.84698     16.18088        -0.005426     -0.013093      0.029652
      6.15814      3.84253     15.46009         0.034333     -0.045195      0.022860
      3.84389      5.75892     16.28735        -0.128119      0.000010     -0.425625
      2.46897      5.75892     19.20116        -0.379607      0.000001     -0.066573
      0.00873      3.85240     19.70941        -0.274738     -0.005348     -0.166882
      7.66468      3.83734     19.10697         0.394615     -0.139649      0.277279
      5.30796      5.75892     19.86413        -1.156942      0.000015     -2.289649
      5.18821      7.67856      7.50000        -2.100006     -0.000899      2.023637
     10.43567      9.59820      7.50000        -2.096061      0.001474      2.020408
      9.64731      9.59820      9.87249        -0.610229     -0.001552     -0.369685
      6.67245      9.59820      8.97920         0.783763     -0.000303     -0.244930
      8.16307      7.67856      8.39329        -0.067278     -0.002038     -0.978858
      6.59270      7.67856     11.07316        -0.404573     -0.002621      0.673659
      4.39984      7.67856      9.87249        -0.617500     -0.004135     -0.346741
      1.42498      7.67856      8.97920         0.791843      0.009522     -0.250889
      2.91560      9.59820      8.39329        -0.060343     -0.000858     -0.980317
      1.34524      9.59820     11.07316        -0.355757     -0.003755      0.680859
      0.57131      9.59867     13.46108         0.379264     -0.000925     -0.273881
      8.07580      9.59756     12.55276         0.394644     -0.001149     -0.177073
[...]
      2.79120      5.75892     14.67032        -0.308224      0.000016      0.335185
      2.04538      5.75892     17.07955         0.537458      0.000013     -0.314150
      9.51800      5.75892     16.11354         0.381386     -0.000027     -0.168539
      0.53989      3.84141     15.55724        -0.358045      0.031989      0.151861
      9.58036      3.83984     18.17096        -0.365379      0.014537      0.090539
      7.31028      3.83180     17.04415         0.330695      0.026856     -0.372840
      4.27705      3.84128     16.15218         0.355894      0.086554     -0.149747
      5.78271      5.75892     15.57891        -0.399247      0.000033      0.172056
      4.31134      5.75892     18.26317         0.191764     -0.000005      1.077196
      3.62198      5.75892     20.66790         0.897225     -0.000001     -0.711274
      0.54889      5.75892     19.94831         0.392647     -0.000027     -0.442293
      2.03922      3.84230     19.19476        -0.200095      0.108983      0.136553
      8.86124      3.85906     20.58031         0.197785     -0.043299     -1.194476
      5.81230      3.80991     19.90351         0.204985      0.652810     -0.015331
      7.26604      5.75892     19.12767        -0.570287      0.000039      0.473186
    total drift:                               -0.006990      0.000317      0.001053

  FREE ENERGIE OF THE ION-ELECTRON SYSTEM (eV)
  free  energy   TOTEN  =     -1565.16015879 eV

  energy  without entropy=    -1565.16015879  energy(sigma->0) =    -1565.16015879