 vasp.6.3.0 20Jan22 (build Apr  1 2022 16:44:48) complex
 executed on        HPECrayEX_GCC date 2022.11.13  02:33:11

 INCAR:
   SYSTEM = MgO-rocksalt
   ISMEAR = 0
   SIGMA = 0.05
   EDIFF = 1E-6
   ALGO = ALL
   ISTART = 0
   IBRION = -1
   NSW = 0
   ISYM = 0
   DIPOL = 0.5 0.5 0.5
   IDIPOL = 3
   LDIPOL = .TRUE.
   LHFCALC = .TRUE.
   GGA = B5
   AEXX = 0.2
   AGGAX = 0.72
   AGGAC = 0.81
   ALDAC = 0.19
   IVDW = 1
   VDW_S6 = 1.05
   VDW_C6 = 1.75 0.70 0.63 0.70
   VDW_R0 = 1.452 1.342 1.243 1.342
   ENCUT = 600
   PREC = Accurate
   LASPH = .TRUE.
   LREAL = .FALSE.
   ISPIN = 1
   NELM = 200
   NELMIN = 8
   NCORE = 8
   KPAR = 1
   LWAVE = .FALSE.
   LCHARG = .FALSE.

 POTCAR:    PAW_PBE C 08Apr2002
 POTCAR:    PAW_PBE O 08Apr2002
 POTCAR:    PAW_PBE Mg_pv 13Apr2007
 POTCAR:    PAW_PBE O 08Apr2002
 POTCAR:    PAW_PBE C 08Apr2002
   VRHFIN =C: s2p2

   TITEL  = PAW_PBE C 08Apr2002
   POMASS =   12.011; ZVAL   =    4.000    mass and valenz
   ENMAX  =  400.000; ENMIN  =  300.000 eV

[...]

   TITEL  = PAW_PBE Mg_pv 13Apr2007
   POMASS =   24.305; ZVAL   =    8.000    mass and valenz
   ENMAX  =  403.929; ENMIN  =  302.947 eV

   TITEL  = PAW_PBE O 08Apr2002
   POMASS =   16.000; ZVAL   =    6.000    mass and valenz
   ENMAX  =  400.000; ENMIN  =  300.000 eV

  PAW_PBE C 08Apr2002                   :
  PAW_PBE O 08Apr2002                   :
  PAW_PBE Mg_pv 13Apr2007               :
  PAW_PBE O 08Apr2002                   :

 POSCAR:  C  O Mg  O
  positions in direct lattice
 exchange correlation table for  LEXCH =       12
   RHO(1)=    0.500       N(1)  =     2000
   RHO(2)=  100.500       N(2)  =     4000

 ion  position               nearest neighbor table
   1  0.625  0.625  0.771-   3 1.18   2 1.18
   2  0.527  0.527  0.773-   1 1.18
   3  0.723  0.723  0.773-   1 1.18
   4  0.250  0.000  0.351-  36 2.12  38 2.12  39 2.12  46 2.12  55 2.12
   5  0.500  0.250  0.351-  37 2.12  38 2.12  39 2.12  47 2.12  54 2.12
   6  0.250  0.250  0.450-  38 2.12  37 2.12  36 2.12  44 2.12  53 2.12  42 2.12
   7  0.500  0.000  0.450-  39 2.12  37 2.12  36 2.12  45 2.12  52 2.12  43 2.12
   8  0.250  1.000  0.550-  43 2.12  50 2.12  42 2.12  59 2.12  36 2.13  40 2.15
   9  0.500  0.250  0.550-  58 2.12  42 2.12  51 2.12  43 2.12  37 2.13  41 2.14
  10  0.250  0.250  0.648-  42 2.11  40 2.12  57 2.12  48 2.12  41 2.12
  11  0.500  0.000  0.648-  43 2.10  41 2.11  40 2.12  56 2.12  49 2.12
  12  0.250  0.500  0.351-  44 2.12  38 2.12  46 2.12  47 2.12  63 2.12
  13  0.500  0.750  0.351-  45 2.12  39 2.12  46 2.12  47 2.12  62 2.12
  14  0.250  0.750  0.450-  46 2.12  44 2.12  45 2.12  36 2.12  61 2.12  50 2.12
  15  0.500  0.500  0.450-  47 2.12  44 2.12  45 2.12  37 2.12  60 2.12  51 2.13
  16  0.250  0.500  0.550-  50 2.12  42 2.12  51 2.12  67 2.12  44 2.13  48 2.14
  17  0.500  0.750  0.550-  51 2.11  66 2.11  50 2.12  43 2.12  45 2.13  49 2.16
  18  0.250  0.750  0.648-  50 2.10  65 2.11  40 2.12  48 2.12  49 2.12
  19  0.498  0.498  0.649-  41 2.11  48 2.11  51 2.11  64 2.13  49 2.13
  20  0.750  0.000  0.351-  52 2.12  39 2.12  54 2.12  55 2.12  62 2.12
  21  0.000  0.250  0.351-  53 2.12  38 2.12  54 2.12  55 2.12  63 2.12
  22  0.750  0.250  0.450-  54 2.12  52 2.12  53 2.12  37 2.12  60 2.12  58 2.12
  23  0.000  0.000  0.450-  55 2.12  52 2.12  53 2.12  36 2.12  61 2.12  59 2.12
  24  0.750  0.000  0.550-  43 2.12  59 2.12  66 2.12  58 2.12  52 2.13  56 2.14
  25  1.000  0.250  0.550-  67 2.12  58 2.12  42 2.12  59 2.12  53 2.13  57 2.15
  26  0.750  0.250  0.648-  58 2.10  56 2.11  57 2.12  41 2.12  64 2.12
  27  0.000  0.000  0.648-  59 2.11  57 2.12  40 2.12  65 2.12  56 2.12
  28  0.750  0.500  0.351-  60 2.12  54 2.12  47 2.12  62 2.12  63 2.12
  29  0.000  0.750  0.351-  61 2.12  55 2.12  46 2.12  62 2.12  63 2.12
  30  0.750  0.750  0.450-  62 2.12  52 2.12  60 2.12  61 2.12  45 2.12  66 2.13
  31  0.000  0.500  0.450-  63 2.12  53 2.12  60 2.12  61 2.12  44 2.12  67 2.12
  32  0.750  0.500  0.550-  51 2.11  66 2.11  58 2.12  67 2.12  60 2.13  64 2.16
  33  0.000  0.750  0.550-  67 2.12  59 2.12  66 2.12  50 2.12  61 2.13  65 2.14
  34  0.752  0.752  0.649-  56 2.11  65 2.11  66 2.11  49 2.13  64 2.13
  35  0.000  0.500  0.648-  67 2.10  48 2.11  57 2.12  65 2.12  64 2.12
  36  0.250  0.000  0.450-   4 2.12   6 2.12   7 2.12  14 2.12  23 2.12   8 2.13
  37  0.500  0.250  0.450-   5 2.12   6 2.12   7 2.12  15 2.12  22 2.12   9 2.13
  38  0.250  0.250  0.351-   6 2.12   5 2.12   4 2.12  12 2.12  21 2.12
  39  0.500  0.000  0.351-   7 2.12   5 2.12   4 2.12  13 2.12  20 2.12
  40  0.250  1.000  0.651-  10 2.12  27 2.12  18 2.12  11 2.12   8 2.15
  41  0.500  0.249  0.650-  19 2.11  11 2.11  10 2.12  26 2.12   9 2.14
  42  0.250  0.250  0.550-  10 2.11   8 2.12  25 2.12  16 2.12   9 2.12   6 2.12
  43  0.500  1.000  0.550-  11 2.10  17 2.12   8 2.12  24 2.12   9 2.12   7 2.12
  44  0.250  0.500  0.450-  12 2.12   6 2.12  14 2.12  15 2.12  31 2.12  16 2.13
  45  0.500  0.750  0.450-  13 2.12   7 2.12  14 2.12  15 2.12  30 2.12  17 2.13
  46  0.250  0.750  0.351-  14 2.12  12 2.12  13 2.12   4 2.12  29 2.12
  47  0.500  0.500  0.351-  15 2.12  12 2.12  13 2.12   5 2.12  28 2.12
  48  0.249  0.500  0.650-  19 2.11  35 2.11  10 2.12  18 2.12  16 2.14
  49  0.500  0.750  0.652-  11 2.12  18 2.12  19 2.13  34 2.13  17 2.16
  50  0.250  0.750  0.550-  18 2.10  17 2.12   8 2.12  16 2.12  33 2.12  14 2.12
  51  0.500  0.500  0.550-  19 2.11  17 2.11  32 2.11  16 2.12   9 2.12  15 2.13
  52  0.750  0.000  0.450-  20 2.12   7 2.12  22 2.12  23 2.12  30 2.12  24 2.13
  53  0.000  0.250  0.450-  21 2.12   6 2.12  22 2.12  23 2.12  31 2.12  25 2.13
  54  0.750  0.250  0.351-  22 2.12  20 2.12  21 2.12   5 2.12  28 2.12
  55  0.000  0.000  0.351-  23 2.12  20 2.12  21 2.12   4 2.12  29 2.12
  56  0.750  0.001  0.650-  34 2.11  26 2.11  27 2.12  11 2.12  24 2.14
  57  1.000  0.250  0.651-  10 2.12  27 2.12  26 2.12  35 2.12  25 2.15
  58  0.750  0.250  0.550-  26 2.10  32 2.12  25 2.12   9 2.12  24 2.12  22 2.12
  59  0.000  0.000  0.550-  27 2.11  25 2.12   8 2.12  24 2.12  33 2.12  23 2.12
  60  0.750  0.500  0.450-  28 2.12  22 2.12  15 2.12  30 2.12  31 2.12  32 2.13
  61  0.000  0.750  0.450-  29 2.12  23 2.12  14 2.12  30 2.12  31 2.12  33 2.13
  62  0.750  0.750  0.351-  30 2.12  20 2.12  28 2.12  29 2.12  13 2.12
  63  0.000  0.500  0.351-  31 2.12  21 2.12  28 2.12  29 2.12  12 2.12
  64  0.750  0.500  0.652-  35 2.12  26 2.12  19 2.13  34 2.13  32 2.16
  65  0.001  0.750  0.650-  34 2.11  18 2.11  27 2.12  35 2.12  33 2.14
  66  0.750  0.750  0.550-  34 2.11  17 2.11  32 2.11  24 2.12  33 2.12  30 2.13
  67  1.000  0.500  0.550-  35 2.10  32 2.12  25 2.12  33 2.12  16 2.12  31 2.12

IMPORTANT INFORMATION: All symmetrisations will be switched off!
NOSYMM: (Re-)initialisation of all symmetry stuff for point group C_1.

                                     Primitive cell

  volume of cell :    1530.6606

  direct lattice vectors                    reciprocal lattice vectors
     8.467142631  0.000000000  0.000000000     0.118103597  0.000000000  0.000000000
     0.000000000  8.467142631  0.000000000     0.000000000  0.118103597  0.000000000
     0.000000000  0.000000000 21.350356973     0.000000000  0.000000000  0.046837624

  length of vectors
     8.467142631  8.467142631 21.350356973     0.118103597  0.118103597  0.046837624

  position of ions in fractional coordinates (direct lattice)
     0.625000781  0.625000788  0.771474314
     0.526655283  0.526655309  0.772804739
     0.723344168  0.723344152  0.772805082
     0.250000000  0.000000000  0.351282183
     0.500000000  0.250000000  0.351282183
     0.250000000  0.250000000  0.450427394
     0.500000000  0.000000000  0.450427394
     0.250078438  0.999921519  0.550068769
     0.499955822  0.249907048  0.550110864
     0.249726458  0.249726458  0.648370669
     0.500077443  0.000346500  0.648346683
     0.250000000  0.500000000  0.351282183
     0.500000000  0.750000000  0.351282183
     0.250000000  0.750000000  0.450427394
     0.500000000  0.500000000  0.450427394
     0.249907049  0.499955821  0.550110863
     0.500313412  0.749686464  0.550371124
     0.249653379  0.749922486  0.648346707
     0.497959788  0.497959785  0.648975368
     0.750000000  0.000000000  0.351282183
     0.000000000  0.250000000  0.351282183
     0.750000000  0.250000000  0.450427394
     0.000000000  0.000000000  0.450427394
     0.750044075  0.000092961  0.550110806
     0.999921518  0.250078438  0.550068769
     0.749922487  0.249653373  0.648346705
     0.000273420  0.000273420  0.648370578
     0.750000000  0.500000000  0.351282183
     0.000000000  0.750000000  0.351282183
     0.750000000  0.750000000  0.450427394
     0.000000000  0.500000000  0.450427394
     0.749686464  0.500313410  0.550371124
     0.000092962  0.750044074  0.550110807
     0.752040199  0.752040199  0.648975102
     0.000346497  0.500077440  0.648346684
     0.250000000  0.000000000  0.450427394
     0.500000000  0.250000000  0.450427394
     0.250000000  0.250000000  0.351282183
     0.500000000  0.000000000  0.351282183
     0.250067555  0.999932327  0.650665711
     0.499768035  0.249268357  0.650289571
     0.249915206  0.249915206  0.549693468
     0.500035371  0.999605497  0.549784276
     0.250000000  0.500000000  0.450427394
     0.500000000  0.750000000  0.450427394
     0.250000000  0.750000000  0.351282183
     0.500000000  0.500000000  0.351282183
     0.249268357  0.499768033  0.650289571
     0.500171478  0.749828496  0.651640008
     0.250394469  0.749964535  0.549784275
     0.500052177  0.500052177  0.550031482
     0.750000000  0.000000000  0.450427394
     0.000000000  0.250000000  0.450427394
     0.750000000  0.250000000  0.351282183
     0.000000000  0.000000000  0.351282183
     0.750231901  0.000731537  0.650289464
     0.999932326  0.250067550  0.650665711
     0.749964536  0.250394465  0.549784274
     0.000084749  0.000084748  0.549693420
     0.750000000  0.500000000  0.450427394
     0.000000000  0.750000000  0.450427394
     0.750000000  0.750000000  0.351282183
     0.000000000  0.500000000  0.351282183
     0.749828500  0.500171477  0.651640006
     0.000731541  0.750231902  0.650289465
     0.749947744  0.749947745  0.550031413
     0.999605497  0.500035370  0.549784276

  ion indices of the primitive-cell ions
   primitive index   ion index
                 1           1
                 2           2
                 3           3
                 4           4
                 5           5
                 6           6
                 7           7
                 8           8
                 9           9
                10          10
                11          11
                12          12
                13          13
                14          14
                15          15
                16          16
                17          17
                18          18
                19          19
                20          20
                21          21
                22          22
                23          23
                24          24
                25          25
                26          26
[...]
   0.74982850  0.50017148  0.65164001
   0.00073154  0.75023190  0.65028946
   0.74994774  0.74994775  0.55003141
   0.99960550  0.50003537  0.54978428

 position of ions in cartesian coordinates  (Angst):
   5.29197076  5.29197081 16.47125200
   4.45926540  4.45926562 16.49965704
   6.12465824  6.12465811 16.49966437
   2.11678566  0.00000000  7.50000000
   4.23357132  2.11678566  7.50000000
   2.11678566  2.11678566  9.61678566
   4.23357132  0.00000000  9.61678566
   2.11744981  8.46647812 11.74416457
   4.23319726  2.11599862 11.74506332
   2.11446954  2.11446954 13.84294523
   4.23422704  0.00293386 13.84243312
   2.11678566  4.23357132  7.50000000
   4.23357132  6.35035697  7.50000000
   2.11678566  6.35035697  9.61678566
   4.23357132  4.23357132  9.61678566
   2.11599862  4.23319725 11.74506331
   4.23622502  6.34770222 11.75061997
   2.11385077  6.34970065 13.84243363
   4.21629655  4.21629652 13.85585578
   6.35035697  0.00000000  7.50000000
   0.00000000  2.11678566  7.50000000
   6.35035697  2.11678566  9.61678566
   0.00000000  0.00000000  9.61678566
   6.35073016  0.00078711 11.74506207
   8.46647811  2.11744980 11.74416459
   6.34970066  2.11385072 13.84243359
   0.00231509  0.00231508 13.84294329
   6.35035697  4.23357132  7.50000000
   0.00000000  6.35035697  7.50000000
   6.35035697  6.35035697  9.61678566
   0.00000000  4.23357132  9.61678566
   6.34770222  4.23622500 11.75061996
   0.00078712  6.35073015 11.74506210
   6.36763163  6.36763163 13.85585010
   0.00293384  4.23422701 13.84243314
   2.11678566  0.00000000  9.61678566
   4.23357132  2.11678566  9.61678566
   2.11678566  2.11678566  7.50000000
   4.23357132  0.00000000  7.50000000
   2.11735765  8.46656963 13.89194519
   4.23160723  2.11059073 13.88391448
   2.11606770  2.11606770 11.73615177
   4.23387080  8.46380232 11.73809056
   2.11678566  4.23357132  9.61678566
   4.23357132  6.35035697  9.61678566
   2.11678566  6.35035697  7.50000000
   4.23357132  4.23357132  7.50000000
   2.11059073  4.23160722 13.88391449
   4.23502324  6.34890483 13.91274679
   2.12012568  6.35005668 11.73809053
   4.23401311  4.23401311 11.74336848
   6.35035697  0.00000000  9.61678566
   0.00000000  2.11678566  9.61678566
   6.35035697  2.11678566  7.50000000
   0.00000000  0.00000000  7.50000000
   6.35232052  0.00619403 13.88391220
   8.46656963  2.11735761 13.89194521
   6.35005669  2.12012565 11.73809051
   0.00071758  0.00071758 11.73615074
   6.35035697  4.23357132  9.61678566
   0.00000000  6.35035697  9.61678566
   6.35035697  6.35035697  7.50000000
   0.00000000  4.23357132  7.50000000
   6.34890486  4.23502323 13.91274674
   0.00619406  6.35232052 13.88391221
   6.34991451  6.34991452 11.74336701
   8.46380232  4.23387080 11.73809055

--------------------------------------- Iteration      FINAL  ---------------------------------------

--------------------OUTCAR has been truncated-------------------------

[...]

--------------------OUTCAR has been truncated-------------------------

  DFT-D2 method for vdW energy calculation

  Parameters of vdW forcefield:
         C6(Jnm^6/mol)     R0(A)
   C        1.750          1.452
   O        0.700          1.342
   Mg       0.630          1.243
   O        0.700          1.342

  vdW correction parametrized for the method        l
(

  IVDW =   1
  VDW_RADIUS =    50.000 A
  VDW_S6 =     1.050
  VDW_SR =     1.000
  VDW_D =    20.000
  LVDW_EWALD = F

  Number of pair interactions contributing to vdW energy:  786770
  Edisp (eV):   -5.21911

 VOLUME and BASIS-vectors are now :
  energy-cutoff  :      600.00
  volume of cell :     1530.66
      direct lattice vectors                 reciprocal lattice vectors
     8.467142631  0.000000000  0.000000000     0.118103597  0.000000000  0.000000000
     0.000000000  8.467142631  0.000000000     0.000000000  0.118103597  0.000000000
     0.000000000  0.000000000 21.350356973     0.000000000  0.000000000  0.046837624

  length of vectors
     8.467142631  8.467142631 21.350356973     0.118103597  0.118103597  0.046837624

 FORCES acting on ions:
    Electron-Ion                     Ewald-Force                    Non-Local-Force
   0.584E-02 0.583E-02 -.102E+04   -.744E-02 -.744E-02 0.102E+04   0.112E-03 0.113E-03 0.358E+00
   0.188E+03 0.188E+03 -.155E+04   -.233E+03 -.233E+03 0.155E+04   0.410E+02 0.410E+02 -.255E+01
   -.188E+03 -.188E+03 -.155E+04   0.233E+03 0.233E+03 0.155E+04   -.410E+02 -.410E+02 -.255E+01
   0.163E+00 -.163E+00 0.208E+04   -.162E+00 0.162E+00 -.207E+04   -.622E-03 0.640E-03 -.638E+01
   0.163E+00 0.187E+00 0.208E+04   -.162E+00 -.186E+00 -.207E+04   -.422E-03 -.513E-03 -.637E+01
   0.802E+00 0.802E+00 0.736E+03   -.818E+00 -.818E+00 -.736E+03   0.107E-01 0.107E-01 0.377E+00
   0.823E+00 -.784E+00 0.737E+03   -.834E+00 0.731E+00 -.737E+03   0.735E-02 0.335E-01 0.409E+00
   0.353E+01 -.353E+01 -.605E+03   -.353E+01 0.353E+01 0.605E+03   -.204E-02 0.204E-02 -.179E+00
   0.362E+01 0.628E+01 -.594E+03   -.362E+01 -.626E+01 0.594E+03   -.220E-02 -.182E-01 -.385E+00
   0.188E+02 0.188E+02 -.195E+04   -.188E+02 -.188E+02 0.195E+04   0.280E-01 0.280E-01 0.543E+01
   0.204E+02 -.245E+02 -.193E+04   -.204E+02 0.248E+02 0.193E+04   0.218E-01 -.281E+00 0.544E+01
   0.187E+00 0.163E+00 0.208E+04   -.186E+00 -.162E+00 -.207E+04   -.506E-03 -.421E-03 -.637E+01
   0.191E+00 -.191E+00 0.208E+04   -.189E+00 0.189E+00 -.207E+04   -.128E-02 0.127E-02 -.639E+01
   0.784E+00 -.823E+00 0.737E+03   -.731E+00 0.834E+00 -.737E+03   -.335E-01 -.735E-02 0.409E+00
   0.799E+00 0.799E+00 0.739E+03   -.769E+00 -.769E+00 -.739E+03   -.201E-01 -.201E-01 0.492E+00
   0.628E+01 0.362E+01 -.594E+03   -.626E+01 -.362E+01 0.594E+03   -.182E-01 -.219E-02 -.385E+00
   0.645E+01 -.645E+01 -.589E+03   -.642E+01 0.642E+01 0.589E+03   -.280E-01 0.280E-01 0.234E-01
   0.245E+02 -.204E+02 -.193E+04   -.248E+02 0.204E+02 0.193E+04   0.281E+00 -.218E-01 0.544E+01
   0.341E+02 0.341E+02 -.184E+04   -.346E+02 -.346E+02 0.183E+04   0.495E+00 0.495E+00 0.527E+01
   -.163E+00 -.187E+00 0.208E+04   0.162E+00 0.186E+00 -.207E+04   0.423E-03 0.514E-03 -.637E+01
   -.163E+00 0.163E+00 0.208E+04   0.162E+00 -.162E+00 -.207E+04   0.631E-03 -.622E-03 -.638E+01
   -.823E+00 0.784E+00 0.737E+03   0.834E+00 -.731E+00 -.737E+03   -.734E-02 -.335E-01 0.409E+00
   -.802E+00 -.802E+00 0.736E+03   0.818E+00 0.818E+00 -.736E+03   -.107E-01 -.107E-01 0.377E+00
   -.362E+01 -.628E+01 -.594E+03   0.362E+01 0.626E+01 0.594E+03   0.220E-02 0.182E-01 -.385E+00
   -.353E+01 0.353E+01 -.605E+03   0.353E+01 -.353E+01 0.605E+03   0.203E-02 -.205E-02 -.179E+00
   -.204E+02 0.245E+02 -.193E+04   0.204E+02 -.248E+02 0.193E+04   -.218E-01 0.281E+00 0.544E+01
   -.188E+02 -.188E+02 -.195E+04   0.188E+02 0.188E+02 0.195E+04   -.280E-01 -.280E-01 0.543E+01
   -.191E+00 0.191E+00 0.208E+04   0.189E+00 -.189E+00 -.207E+04   0.127E-02 -.128E-02 -.639E+01
   -.187E+00 -.163E+00 0.208E+04   0.186E+00 0.162E+00 -.207E+04   0.500E-03 0.425E-03 -.637E+01
   -.798E+00 -.798E+00 0.739E+03   0.769E+00 0.769E+00 -.739E+03   0.202E-01 0.202E-01 0.492E+00
   -.784E+00 0.823E+00 0.737E+03   0.731E+00 -.834E+00 -.737E+03   0.335E-01 0.735E-02 0.409E+00
   -.645E+01 0.645E+01 -.589E+03   0.642E+01 -.642E+01 0.589E+03   0.280E-01 -.280E-01 0.234E-01
   -.628E+01 -.362E+01 -.594E+03   0.626E+01 0.362E+01 0.594E+03   0.182E-01 0.220E-02 -.385E+00
   -.341E+02 -.341E+02 -.184E+04   0.346E+02 0.346E+02 0.183E+04   -.495E+00 -.495E+00 0.527E+01
   -.245E+02 0.204E+02 -.193E+04   0.248E+02 -.204E+02 0.193E+04   -.281E+00 0.218E-01 0.544E+01
   0.504E+00 -.504E+00 0.551E+03   -.509E+00 0.509E+00 -.551E+03   0.658E-02 -.658E-02 -.945E-01
   0.501E+00 0.654E+00 0.552E+03   -.499E+00 -.652E+00 -.552E+03   -.113E-02 -.136E-02 -.708E-01
   0.134E+00 0.134E+00 0.156E+04   -.136E+00 -.136E+00 -.156E+04   0.165E-02 0.164E-02 0.313E+01
   0.135E+00 -.128E+00 0.156E+04   -.136E+00 0.125E+00 -.156E+04   0.185E-02 0.446E-02 0.313E+01
   0.954E+01 -.954E+01 -.149E+04   -.950E+01 0.950E+01 0.150E+04   -.379E-01 0.379E-01 -.469E+01
   0.108E+02 0.285E+02 -.146E+04   -.107E+02 -.285E+02 0.147E+04   -.323E-01 0.430E-01 -.480E+01
   0.354E+01 0.354E+01 -.446E+03   -.353E+01 -.353E+01 0.445E+03   -.958E-02 -.958E-02 0.301E+00
   0.363E+01 -.341E+01 -.441E+03   -.363E+01 0.343E+01 0.441E+03   -.839E-02 -.140E-01 0.361E+00
   0.654E+00 0.501E+00 0.552E+03   -.652E+00 -.499E+00 -.552E+03   -.135E-02 -.113E-02 -.708E-01
   0.711E+00 -.711E+00 0.553E+03   -.736E+00 0.736E+00 -.553E+03   0.307E-01 -.307E-01 -.146E+00
   0.128E+00 -.135E+00 0.156E+04   -.124E+00 0.136E+00 -.156E+04   -.446E-02 -.185E-02 0.313E+01
   0.131E+00 0.131E+00 0.156E+04   -.126E+00 -.126E+00 -.157E+04   -.560E-02 -.560E-02 0.313E+01
   0.285E+02 0.108E+02 -.146E+04   -.285E+02 -.107E+02 0.147E+04   0.430E-01 -.323E-01 -.480E+01
   0.356E+02 -.356E+02 -.142E+04   -.355E+02 0.355E+02 0.142E+04   -.553E-01 0.554E-01 -.429E+01
   0.341E+01 -.363E+01 -.441E+03   -.343E+01 0.363E+01 0.441E+03   0.140E-01 0.839E-02 0.361E+00
   0.361E+01 0.361E+01 -.433E+03   -.364E+01 -.364E+01 0.433E+03   0.289E-01 0.289E-01 0.279E+00
   -.501E+00 -.654E+00 0.552E+03   0.499E+00 0.652E+00 -.552E+03   0.112E-02 0.135E-02 -.708E-01
   -.504E+00 0.504E+00 0.551E+03   0.509E+00 -.509E+00 -.551E+03   -.658E-02 0.658E-02 -.945E-01
   -.135E+00 0.128E+00 0.156E+04   0.136E+00 -.124E+00 -.156E+04   -.185E-02 -.446E-02 0.313E+01
   -.134E+00 -.134E+00 0.156E+04   0.136E+00 0.136E+00 -.156E+04   -.165E-02 -.165E-02 0.313E+01
   -.108E+02 -.285E+02 -.146E+04   0.107E+02 0.285E+02 0.147E+04   0.323E-01 -.430E-01 -.480E+01
   -.954E+01 0.954E+01 -.149E+04   0.950E+01 -.950E+01 0.150E+04   0.379E-01 -.379E-01 -.469E+01
   -.363E+01 0.341E+01 -.441E+03   0.363E+01 -.343E+01 0.441E+03   0.839E-02 0.140E-01 0.361E+00
   -.354E+01 -.354E+01 -.446E+03   0.353E+01 0.353E+01 0.445E+03   0.958E-02 0.958E-02 0.301E+00
   -.711E+00 0.711E+00 0.553E+03   0.736E+00 -.736E+00 -.553E+03   -.307E-01 0.307E-01 -.146E+00
   -.654E+00 -.501E+00 0.552E+03   0.652E+00 0.499E+00 -.552E+03   0.135E-02 0.112E-02 -.708E-01
   -.131E+00 -.131E+00 0.156E+04   0.126E+00 0.126E+00 -.157E+04   0.560E-02 0.560E-02 0.313E+01
   -.128E+00 0.135E+00 0.156E+04   0.125E+00 -.136E+00 -.156E+04   0.446E-02 0.185E-02 0.313E+01
   -.356E+02 0.356E+02 -.142E+04   0.355E+02 -.355E+02 0.142E+04   0.554E-01 -.553E-01 -.429E+01
   -.285E+02 -.108E+02 -.146E+04   0.285E+02 0.107E+02 0.147E+04   -.430E-01 0.323E-01 -.480E+01
   -.361E+01 -.361E+01 -.433E+03   0.364E+01 0.364E+01 0.433E+03   -.289E-01 -.289E-01 0.279E+00
   -.341E+01 0.363E+01 -.441E+03   0.343E+01 -.363E+01 0.441E+03   -.140E-01 -.839E-02 0.361E+00
   0.107E-02 0.109E-02 0.243E+02   0.167E-12 0.316E-12 -.284E-11   -.966E-03 -.993E-03 -.214E+02

 POSITION                                       TOTAL-FORCE (eV/Angst)
      5.29197      5.29197     16.47125        -0.001471     -0.001474      0.159617
      4.45927      4.45927     16.49966         0.899465      0.899453     -0.075340
      6.12466      6.12466     16.49966        -0.897993     -0.898004     -0.075309
      2.11679      0.00000      7.50000         0.000235     -0.000225      0.510451
      4.23357      2.11679      7.50000         0.000216      0.000194      0.507594
      2.11679      2.11679      9.61679        -0.004152     -0.004149      0.025943
      4.23357      0.00000      9.61679        -0.002467     -0.015013      0.030977
      2.11745      8.46648     11.74416        -0.000377      0.000374     -0.012048
      4.23320      2.11600     11.74506        -0.000255     -0.000455     -0.006505
      2.11447      2.11447     13.84295         0.001895      0.001891     -0.062388
      4.23423      0.00293     13.84243         0.001005      0.009106     -0.070381
      2.11679      4.23357      7.50000         0.000198      0.000215      0.507585
      4.23357      6.35036      7.50000         0.000455     -0.000462      0.512887
      2.11679      6.35036      9.61679         0.015008      0.002459      0.030945
      4.23357      4.23357      9.61679         0.006665      0.006668      0.033816
      2.11600      4.23320     11.74506        -0.000459     -0.000250     -0.006502
      4.23623      6.34770     11.75062        -0.000696      0.000664     -0.014001
      2.11385      6.34970     13.84243        -0.009120     -0.001022     -0.070316
      4.21630      4.21630     13.85586        -0.024454     -0.024456     -0.073250
      6.35036      0.00000      7.50000        -0.000211     -0.000194      0.507562
      0.00000      2.11679      7.50000        -0.000230      0.000238      0.510447
      6.35036      2.11679      9.61679         0.002467      0.015013      0.030947
      0.00000      0.00000      9.61679         0.004152      0.004145      0.025971
      6.35073      0.00079     11.74506         0.000246      0.000469     -0.006513
      8.46648      2.11745     11.74416         0.000369     -0.000375     -0.012047
      6.34970      2.11385     13.84243        -0.001022     -0.009106     -0.070333
      0.00232      0.00232     13.84294        -0.001887     -0.001891     -0.062423
      6.35036      4.23357      7.50000        -0.000452      0.000456      0.512889
      0.00000      6.35036      7.50000        -0.000200     -0.000207      0.507603
      6.35036      6.35036      9.61679        -0.006666     -0.006668      0.033770
      0.00000      4.23357      9.61679        -0.015007     -0.002465      0.030980
      6.34770      4.23622     11.75062         0.000666     -0.000695     -0.014000
      0.00079      6.35073     11.74506         0.000472      0.000246     -0.006513
      6.36763      6.36763     13.85585         0.024469      0.024472     -0.073283
      0.00293      4.23423     13.84243         0.009108      0.001004     -0.070369
      2.11679      0.00000      9.61679         0.002345     -0.002350      0.040778
      4.23357      2.11679      9.61679         0.000081      0.000331      0.054562
      2.11679      2.11679      7.50000         0.000542      0.000551     -0.392130
      4.23357      0.00000      7.50000         0.000626      0.001494     -0.392573
      2.11736      8.46657     13.89195         0.000426     -0.000423     -0.133181
      4.23161      2.11059     13.88391         0.000945      0.003811     -0.144216
      2.11607      2.11607     11.73615        -0.001543     -0.001535      0.013039
      4.23387      8.46380     11.73809        -0.001459     -0.000787      0.013919
      2.11679      4.23357      9.61679         0.000327      0.000088      0.054561
      4.23357      6.35036      9.61679         0.009820     -0.009827      0.053586
      2.11679      6.35036      7.50000        -0.001502     -0.000626     -0.392525
      4.23357      4.23357      7.50000        -0.001893     -0.001884     -0.393122
      2.11059      4.23161     13.88391         0.003809      0.000950     -0.144219
      4.23502      6.34890     13.91275         0.009021     -0.009002     -0.113556
      2.12013      6.35006     11.73809         0.000799      0.001456      0.013947
      4.23401      4.23401     11.74337         0.002037      0.002044      0.011857
      6.35036      0.00000      9.61679        -0.000082     -0.000330      0.054556
      0.00000      2.11679      9.61679        -0.002349      0.002348      0.040779
      6.35036      2.11679      7.50000        -0.000621     -0.001497     -0.392529
      0.00000      0.00000      7.50000        -0.000550     -0.000557     -0.392171
      6.35232      0.00619     13.88391        -0.000938     -0.003835     -0.144180
      8.46657      2.11736     13.89195        -0.000423      0.000428     -0.133172
      6.35006      2.12013     11.73809         0.001457      0.000801      0.013942
      0.00072      0.00072     11.73615         0.001545      0.001538      0.013050
      6.35036      4.23357      9.61679        -0.009820      0.009824      0.053585
      0.00000      6.35036      9.61679        -0.000327     -0.000083      0.054560
      6.35036      6.35036      7.50000         0.001893      0.001892     -0.393069
      0.00000      4.23357      7.50000         0.001495      0.000626     -0.392559
      6.34890      4.23502     13.91275        -0.008999      0.009021     -0.113556
      0.00619      6.35232     13.88391        -0.003830     -0.000942     -0.144182
      6.34991      6.34991     11.74337        -0.002017     -0.002028      0.011831
      8.46380      4.23387     11.73809        -0.000786     -0.001456      0.013925
    total drift:                                0.000003     -0.000007      0.015321

  FREE ENERGIE OF THE ION-ELECTRON SYSTEM (eV)
  free  energy   TOTEN  =      -466.28832808 eV

  energy  without entropy=     -466.28832808  energy(sigma->0) =     -466.28832808