 vasp.6.4.2 20Jul23 (build Feb 22 2024 13:53:45) complex
 executed on              LinuxNV date 2024.08.27  14:05:29
 OpenACC runtime initialized ...    4 GPUs detected

 INCAR:
   SYSTEM = Oxide-Surface
   ISMEAR = 0
   SIGMA = 0.05
   EDIFF = 1E-5
   ALGO = Normal
   IBRION = -1
   NSW = 0
   ISYM = 0
   DIPOL = 0.5 0.5 0.5
   IDIPOL = 3
   LDIPOL = .TRUE.
   ISTART = 1
   GGA = MK
   LUSE_VDW = .TRUE.
   PARAM1 = 0.1234
   PARAM2 = 0.711357
   ZAB_VDW = -1.8867
   AGGAC = 0.0
   ENCUT = 1000
   PREC = Normal
   PRECFOCK = Normal
   LASPH = .TRUE.
   LREAL = Auto
   ISPIN = 1
   NELM = 200
   NELMIN = 8
   NCORE = 1
   KPAR = 1
   LWAVE = .FALSE.
   LCHARG = .FALSE.

 POTCAR:    PAW_PBE C_h 06Feb2004
 POTCAR:    PAW_PBE H_h 06Feb2004
 POTCAR:    PAW_PBE Mg_sv 12Apr2007
 POTCAR:    PAW_PBE O_h 06Feb2004
|               ----> ADVICE to this user running VASP <----                  |
|     You have switched on vdW-DFT.                                           |
|     This routine was written and supplied by Jiri Klimes. We recommend      |
|     that you carefully read and cite the following publications:            |
|       J. Klimes, D.R. Bowler, A. Michelides                                 |
|          J. Phys.: Cond Matt. 22 022201 (2010)                              |
|       J. Klimes, D.R. Bowler, A. Michelides                                 |
|          Phys. Rev. B. 83, 195131 (2011)                                    |
|     and references therein.                                                 |

   TITEL  = PAW_PBE C_h 06Feb2004
   POMASS =   12.011; ZVAL   =    4.000    mass and valenz
   ENMAX  =  700.000; ENMIN  =  500.000 eV

[...]

   TITEL  = PAW_PBE Mg_sv 12Apr2007
   POMASS =   24.305; ZVAL   =   10.000    mass and valenz
   ENMAX  =  495.223; ENMIN  =  371.417 eV

   TITEL  = PAW_PBE O_h 06Feb2004
   POMASS =   16.000; ZVAL   =    6.000    mass and valenz
   ENMAX  =  700.000; ENMIN  =  500.000 eV

 Optimization of the real space projectors (new method)

 maximal supplied QI-value         = 34.20
 optimisation between [QCUT,QGAM] = [ 16.08, 32.15] = [ 72.37,289.48] Ry
 Optimized for a Real-space Cutoff    0.71 Angstroem

   l    n(q)    QCUT    max X(q) W(low)/X(q) W(high)/X(q)  e(spline)
   0      7    16.076   134.812    0.49E-03    0.92E-03    0.59E-07
   0      7    16.076    80.524    0.48E-03    0.91E-03    0.58E-07
   1      6    16.076    79.026    0.37E-03    0.58E-03    0.12E-06
   1      6    16.076    45.188    0.36E-03    0.56E-03    0.12E-06
 Optimization of the real space projectors (new method)

[...]

   l    n(q)    QCUT    max X(q) W(low)/X(q) W(high)/X(q)  e(spline)
   0      9    16.140     8.730    0.14E-04    0.12E-04    0.27E-07
   0      9    16.140     8.910    0.19E-04    0.17E-04    0.41E-07
   1      9    16.140     2.513    0.16E-04    0.28E-04    0.54E-07
   1      9    16.140     3.341    0.27E-04    0.13E-03    0.17E-06
   2      9    16.140     3.683    0.18E-03    0.21E-03    0.81E-07
 Optimization of the real space projectors (new method)

 maximal supplied QI-value         = 34.20
 optimisation between [QCUT,QGAM] = [ 16.08, 32.15] = [ 72.37,289.48] Ry
 Optimized for a Real-space Cutoff    0.71 Angstroem

   l    n(q)    QCUT    max X(q) W(low)/X(q) W(high)/X(q)  e(spline)
   0      7    16.076   280.207    0.42E-03    0.69E-03    0.60E-07
   0      7    16.076   228.978    0.42E-03    0.69E-03    0.61E-07
   1      6    16.076    86.127    0.11E-03    0.66E-03    0.10E-06
   1      6    16.076    65.368    0.11E-03    0.65E-03    0.10E-06
|               ----> ADVICE to this user running VASP <----                  |
|     You enforced a specific xc type in the INCAR file but a different       |
|     type was found in the POTCAR file.                                      |
|     I HOPE YOU KNOW WHAT YOU ARE DOING!                                     |

  PAW_PBE C_h 06Feb2004                 :
  PAW_PBE H_h 06Feb2004                 :
  PAW_PBE Mg_sv 12Apr2007               :
  PAW_PBE O_h 06Feb2004                 :

 POSCAR:  C  H Mg  O
  positions in direct lattice
 exchange correlation table for  LEXCH =       43
   RHO(1)=    0.500       N(1)  =     2000
   RHO(2)=  100.500       N(2)  =     4000

 ion  position               nearest neighbor table
   1  0.504  0.498  0.743-   5 1.10   3 1.10   4 1.10   2 1.53
   2  0.675  0.499  0.774-   6 1.10   8 1.10   7 1.10   1 1.53
   3  0.482  0.392  0.707-   1 1.10
   4  0.479  0.604  0.708-   1 1.10
   5  0.418  0.495  0.792-   1 1.10
   6  0.759  0.502  0.724-   2 1.10
   7  0.701  0.394  0.809-   2 1.10
   8  0.698  0.604  0.811-   2 1.10
   9  0.000  0.750  0.189-
  10  0.250  0.000  0.189-
  11  0.000  0.000  0.313-
  12  0.250  0.750  0.313-
  13  1.000  0.750  0.438-
  14  0.250  1.000  0.438-
  15  1.000  1.000  0.562-
  16  0.250  0.750  0.562-
  17  0.000  0.250  0.189-
  18  0.250  0.500  0.189-
  19  0.000  0.500  0.313-
  20  0.250  0.250  0.313-
  21  1.000  0.250  0.438-
  22  0.250  0.500  0.439-
  23  0.000  0.500  0.562-
  24  0.250  0.250  0.562-
  25  0.500  0.750  0.189-
  26  0.750  0.000  0.189-
  27  0.500  0.000  0.313-
  28  0.750  0.750  0.313-
  29  0.500  0.750  0.439-
  30  0.750  1.000  0.438-
  31  0.500  1.000  0.562-
  32  0.750  0.750  0.562-
  33  0.500  0.250  0.189-
  34  0.750  0.500  0.189-
  35  0.500  0.500  0.313-
  36  0.750  0.250  0.313-
  37  0.500  0.250  0.439-
  38  0.750  0.500  0.439-
  39  0.500  0.500  0.563-
  40  0.750  0.250  0.562-
  41  0.000  0.750  0.313-
  42  0.250  0.000  0.313-
  43  0.000  0.000  0.189-
  44  0.250  0.750  0.189-
  45  1.000  0.750  0.565-
  46  0.250  1.000  0.565-
  47  1.000  1.000  0.438-
  48  0.250  0.750  0.438-
  49  0.000  0.250  0.313-
  50  0.250  0.500  0.313-
  51  0.000  0.500  0.189-
  52  0.250  0.250  0.189-
  53  1.000  0.250  0.565-
  54  0.250  0.500  0.565-
  55  1.000  0.500  0.438-
  56  0.250  0.250  0.438-
  57  0.500  0.750  0.313-
  58  0.750  0.000  0.313-
  59  0.500  0.000  0.189-
  60  0.750  0.750  0.189-
  61  0.500  0.750  0.565-
  62  0.750  1.000  0.565-
  63  0.500  1.000  0.438-
  64  0.750  0.750  0.438-
  65  0.500  0.250  0.313-
  66  0.750  0.500  0.313-
  67  0.500  0.500  0.189-
  68  0.750  0.250  0.189-
  69  0.500  0.250  0.565-
  70  0.750  0.500  0.565-
  71  0.500  0.500  0.438-
  72  0.750  0.250  0.438-

IMPORTANT INFORMATION: All symmetrisations will be switched off!
NOSYMM: (Re-)initialisation of all symmetry stuff for point group C_1.

                                     Primitive cell

  volume of cell :    1211.2538

  direct lattice vectors                    reciprocal lattice vectors
     8.440984654  0.000000000  0.000000000     0.118469591  0.000000000  0.000000000
     0.000000000  8.440984654  0.000000000     0.000000000  0.118469591  0.000000000
     0.000000000  0.000000000 17.000000000     0.000000000  0.000000000  0.058823529

  length of vectors
     8.440984654  8.440984654 17.000000000     0.118469591  0.118469591  0.058823529

  position of ions in fractional coordinates (direct lattice)
     0.504442512  0.497603211  0.743410718
     0.675427142  0.499371115  0.773615542
     0.481946286  0.392260978  0.706770344
     0.478809683  0.604144071  0.708156302
     0.417859844  0.495031697  0.791753827
     0.759160533  0.502033602  0.724065079
     0.701478841  0.393602621  0.809133108
     0.698200527  0.603760305  0.810658094
     0.000007636  0.750031286  0.189341906
     0.250007636  0.000031286  0.189341906
     0.000007636  0.000031286  0.313474033
     0.250007636  0.750031286  0.313474033
     0.999976970  0.749963850  0.438457003
     0.249986644  0.999964140  0.438470494
     0.999992364  0.999910906  0.562348157
     0.249873245  0.749845785  0.562202626
     0.000007636  0.250031286  0.189341906
     0.250007636  0.500031286  0.189341906
     0.000007636  0.500031286  0.313474033
     0.250007636  0.250031286  0.313474033
     0.999977352  0.249980617  0.438453686
     0.250127274  0.499963970  0.438535724
     0.000145226  0.499923750  0.562114841
     0.249869118  0.249973003  0.562195641
     0.500007636  0.750031286  0.189341906
     0.750007636  0.000031286  0.189341906
     0.500007636  0.000031286  0.313474033
     0.750007636  0.750031286  0.313474033
     0.499991240  0.749815526  0.438527908
     0.749986537  0.999961265  0.438479227
     0.499961494  0.999896839  0.562145227
     0.750043134  0.749924142  0.562250345
     0.500007636  0.250031286  0.189341906
     0.750007636  0.500031286  0.189341906
     0.500007636  0.500031286  0.313474033
     0.750007636  0.250031286  0.313474033
     0.499993003  0.250082768  0.438527210
     0.749860656  0.499960669  0.438562571
     0.499843564  0.499898967  0.563085918
     0.750058171  0.249889399  0.562241868
     0.000007636  0.750031286  0.313474033
     0.250007636  0.000031286  0.313474033
     0.000007636  0.000031286  0.189341906
     0.250007636  0.750031286  0.189341906
     0.999943344  0.749886766  0.565046454
     0.249946089  0.999912111  0.565050657
     0.999971036  0.999968714  0.438179888
     0.249965036  0.750040437  0.438149594
     0.000007636  0.250031286  0.313474033
     0.250007636  0.500031286  0.313474033
     0.000007636  0.500031286  0.189341906
     0.250007636  0.250031286  0.189341906
     0.999945875  0.249945679  0.565037155
     0.249719068  0.499911441  0.564728513
     0.999971089  0.499970067  0.438088058
     0.249956936  0.249888775  0.438144915
     0.500007636  0.750031286  0.313474033
     0.750007636  0.000031286  0.313474033
     0.500007636  0.000031286  0.189341906
     0.750007636  0.750031286  0.189341906
     0.499989702  0.750219279  0.564996442
     0.750006699  0.999909280  0.565084458
     0.499996442  0.999947314  0.438110544
     0.750005020  0.750030779  0.438172055
     0.500007636  0.250031286  0.313474033
     0.750007636  0.500031286  0.313474033
     0.500007636  0.500031286  0.189341906
     0.750007636  0.250031286  0.189341906
     0.499997048  0.249555778  0.564962164
     0.750207288  0.499910047  0.564892284
     0.500015401  0.499961148  0.438334676
     0.750015257  0.249893599  0.438167343

  ion indices of the primitive-cell ions
   primitive index   ion index
                 1           1
                 2           2
                 3           3
                 4           4
                 5           5
                 6           6
                 7           7
                 8           8
                 9           9
                10          10
                11          11
                12          12
                13          13
                14          14
                15          15
                16          16
                17          17
                18          18
                19          19
                20          20
                21          21
                22          22
                23          23
                24          24
                25          25
                26          26
                27          27
                28          28
                29          29
                30          30
[...]
  Fock        0.00000     0.00000     0.00000     0.00000     0.00000     0.00000
  Total     -25.52779   -25.28280     0.33364     0.00501     0.07392    -0.02001
  in kB     -33.76670   -33.44265     0.44132     0.00662     0.09777    -0.02647

 VOLUME and BASIS-vectors are now :
  energy-cutoff  :     1000.00
  volume of cell :     1211.25
      direct lattice vectors                 reciprocal lattice vectors
     8.440984654  0.000000000  0.000000000     0.118469591  0.000000000  0.000000000
     0.000000000  8.440984654  0.000000000     0.000000000  0.118469591  0.000000000
     0.000000000  0.000000000 17.000000000     0.000000000  0.000000000  0.058823529

  length of vectors
     8.440984654  8.440984654 17.000000000     0.118469591  0.118469591  0.058823529

 FORCES acting on ions
    electron-ion (+dipol)            ewald-force                    non-local-force                 convergence-correction
   0.683E+02 0.733E+00 -.664E+03   -.689E+02 -.760E+00 0.664E+03   0.678E+00 0.696E-01 0.854E-02   0.372E-02 0.686E-04 -.176E-01
   -.685E+02 -.723E+00 -.561E+03   0.696E+02 0.746E+00 0.561E+03   -.129E+01 -.122E-01 0.283E-01   -.533E-02 -.454E-04 -.177E-01
   0.181E+02 0.466E+02 -.183E+03   -.191E+02 -.512E+02 0.180E+03   0.982E+00 0.449E+01 0.302E+01   0.580E-03 0.115E-02 -.534E-02
   0.195E+02 -.470E+02 -.183E+03   -.206E+02 0.515E+02 0.180E+03   0.111E+01 -.453E+01 0.290E+01   0.620E-03 -.117E-02 -.535E-02
   0.455E+02 0.122E+01 -.151E+03   -.492E+02 -.133E+01 0.155E+03   0.369E+01 0.109E+00 -.409E+01   0.231E-02 0.678E-04 -.570E-02
   -.448E+02 -.126E+01 -.155E+03   0.484E+02 0.137E+01 0.151E+03   -.356E+01 -.111E+00 0.426E+01   -.155E-02 -.459E-04 -.505E-02
   -.195E+02 0.463E+02 -.123E+03   0.207E+02 -.507E+02 0.127E+03   -.114E+01 0.445E+01 -.303E+01   -.140E-02 0.255E-02 -.525E-02
   -.181E+02 -.458E+02 -.123E+03   0.191E+02 0.502E+02 0.126E+03   -.100E+01 -.440E+01 -.316E+01   -.134E-02 -.255E-02 -.526E-02
   -.926E+00 -.163E+01 0.243E+04   0.926E+00 0.163E+01 -.242E+04   0.154E-03 0.970E-03 -.887E+01   -.345E-03 -.809E-03 0.480E-01
   0.991E+00 0.169E-01 0.243E+04   -.993E+00 -.172E-01 -.242E+04   0.101E-02 0.329E-03 -.888E+01   0.482E-03 0.480E-05 0.483E-01
   -.512E+00 0.204E-01 0.829E+03   0.511E+00 -.232E-01 -.830E+03   0.763E-03 0.159E-02 0.647E+00   -.733E-04 0.310E-04 0.213E-01
   0.970E+00 -.136E+01 0.830E+03   -.967E+00 0.136E+01 -.831E+03   -.198E-02 0.286E-02 0.619E+00   0.911E-04 -.278E-03 0.212E-01
   -.202E+01 -.524E+01 -.761E+03   0.202E+01 0.522E+01 0.761E+03   0.412E-02 0.120E-01 -.259E+00   -.193E-04 -.427E-03 0.101E-01
   0.356E+01 0.760E-01 -.764E+03   -.355E+01 -.764E-01 0.764E+03   -.808E-02 0.100E-03 -.265E+00   -.175E-06 0.151E-04 0.978E-02
   -.575E+01 0.123E+00 -.236E+04   0.576E+01 -.121E+00 0.235E+04   -.350E-02 0.169E-02 0.743E+01   -.613E-03 0.283E-04 -.128E-01
   0.212E+02 -.247E+02 -.234E+04   -.213E+02 0.247E+02 0.233E+04   0.534E-01 0.364E-01 0.747E+01   -.518E-03 -.100E-02 -.107E-01
   -.926E+00 0.163E+01 0.243E+04   0.926E+00 -.163E+01 -.242E+04   0.248E-03 -.540E-03 -.887E+01   -.336E-03 0.813E-03 0.480E-01
   0.128E+01 -.176E-01 0.243E+04   -.128E+01 0.176E-01 -.242E+04   0.412E-03 0.220E-03 -.888E+01   0.489E-03 -.602E-04 0.474E-01
   -.613E+00 -.317E-01 0.831E+03   0.609E+00 0.290E-01 -.831E+03   0.298E-02 0.158E-02 0.593E+00   -.303E-04 -.229E-04 0.211E-01
   0.962E+00 0.136E+01 0.830E+03   -.960E+00 -.136E+01 -.831E+03   -.143E-02 0.202E-02 0.618E+00   0.901E-04 0.304E-03 0.212E-01
   -.203E+01 0.526E+01 -.761E+03   0.203E+01 -.525E+01 0.761E+03   0.411E-02 -.127E-01 -.261E+00   -.276E-04 0.417E-03 0.101E-01
   0.535E+01 -.724E-01 -.752E+03   -.531E+01 0.728E-01 0.753E+03   -.393E-01 -.481E-03 -.484E+00   -.397E-04 -.400E-04 0.986E-02
   -.141E+02 -.112E+00 -.233E+04   0.142E+02 0.114E+00 0.232E+04   -.101E+00 -.111E-02 0.745E+01   0.268E-03 -.948E-05 -.912E-02
   0.215E+02 0.248E+02 -.234E+04   -.216E+02 -.247E+02 0.233E+04   0.611E-01 -.378E-01 0.748E+01   -.581E-03 0.101E-02 -.107E-01
   0.932E+00 -.192E+01 0.243E+04   -.932E+00 0.192E+01 -.242E+04   -.332E-04 0.155E-02 -.888E+01   0.306E-03 -.720E-03 0.472E-01
   -.995E+00 0.170E-01 0.243E+04   0.996E+00 -.171E-01 -.242E+04   -.865E-03 0.226E-03 -.888E+01   -.483E-03 0.265E-04 0.480E-01
   0.507E+00 0.193E-01 0.830E+03   -.508E+00 -.238E-01 -.831E+03   0.241E-03 0.285E-02 0.605E+00   0.442E-04 0.143E-04 0.211E-01
   -.971E+00 -.146E+01 0.831E+03   0.966E+00 0.146E+01 -.831E+03   0.380E-02 0.556E-02 0.627E+00   -.635E-04 -.298E-03 0.211E-01
   0.204E+01 -.703E+01 -.752E+03   -.204E+01 0.699E+01 0.753E+03   -.436E-02 0.388E-01 -.341E+00   0.795E-04 -.374E-03 0.947E-02
   -.355E+01 0.815E-01 -.761E+03   0.354E+01 -.819E-01 0.762E+03   0.549E-02 0.998E-04 -.257E+00   -.276E-04 0.267E-04 0.100E-01
   0.582E+01 0.405E+00 -.234E+04   -.583E+01 -.402E+00 0.233E+04   0.482E-02 -.113E-02 0.742E+01   0.578E-03 -.652E-04 -.106E-01
   -.215E+02 -.336E+02 -.232E+04   0.215E+02 0.336E+02 0.231E+04   -.428E-01 -.206E-01 0.747E+01   0.414E-03 -.188E-03 -.961E-02
   0.932E+00 0.192E+01 0.243E+04   -.932E+00 -.192E+01 -.242E+04   -.123E-03 -.105E-02 -.888E+01   0.285E-03 0.788E-03 0.472E-01
   -.129E+01 -.177E-01 0.242E+04   0.129E+01 0.175E-01 -.241E+04   -.322E-03 0.296E-03 -.888E+01   -.431E-03 -.773E-05 0.468E-01
   0.610E+00 -.189E-01 0.832E+03   -.607E+00 0.158E-01 -.832E+03   -.264E-02 0.175E-02 0.666E+00   0.426E-04 -.273E-04 0.212E-01
   -.963E+00 0.146E+01 0.831E+03   0.959E+00 -.146E+01 -.831E+03   0.314E-02 -.474E-03 0.626E+00   -.572E-04 0.270E-03 0.211E-01
   0.205E+01 0.699E+01 -.752E+03   -.205E+01 -.696E+01 0.753E+03   -.449E-02 -.386E-01 -.351E+00   0.594E-04 0.414E-03 0.940E-02
   -.540E+01 -.821E-01 -.748E+03   0.535E+01 0.831E-01 0.748E+03   0.436E-01 -.858E-03 -.428E+00   0.122E-04 -.231E-04 0.964E-02
   0.150E+02 -.636E+00 -.225E+04   -.150E+02 0.652E+00 0.224E+04   0.705E-01 -.123E-01 0.733E+01   0.571E-04 0.108E-03 -.120E-01
   -.218E+02 0.337E+02 -.232E+04   0.219E+02 -.337E+02 0.231E+04   -.518E-01 0.202E-01 0.747E+01   0.530E-03 0.194E-03 -.960E-02
   -.338E+00 -.859E+00 0.497E+03   0.340E+00 0.854E+00 -.497E+03   -.327E-02 0.638E-02 -.758E-01   -.533E-04 -.236E-03 0.151E-01
   0.566E+00 0.584E-02 0.497E+03   -.558E+00 -.156E-02 -.497E+03   -.105E-01 -.573E-02 -.818E-01   0.124E-03 0.449E-05 0.151E-01
   -.477E+00 0.995E-02 0.147E+04   0.477E+00 -.984E-02 -.147E+04   -.219E-03 -.244E-03 0.267E+01   -.112E-03 0.631E-05 0.306E-01
   0.679E+00 -.983E+00 0.147E+04   -.680E+00 0.983E+00 -.147E+04   0.329E-04 0.563E-03 0.267E+01   0.250E-03 -.345E-03 0.302E-01
   -.591E+01 -.117E+02 -.144E+04   0.591E+01 0.117E+02 0.144E+04   -.141E-02 0.182E-01 -.469E+01   -.203E-03 -.862E-03 -.609E-02
   0.727E+01 0.148E+00 -.144E+04   -.725E+01 -.152E+00 0.145E+04   -.246E-01 0.531E-02 -.469E+01   0.221E-03 -.152E-04 -.701E-02
   -.984E+00 0.271E-01 -.454E+03   0.984E+00 -.251E-01 0.454E+03   0.122E-03 -.280E-02 0.248E+00   -.690E-04 0.205E-04 0.932E-02
   0.262E+01 -.337E+01 -.449E+03   -.261E+01 0.335E+01 0.449E+03   -.101E-01 0.236E-01 0.245E+00   -.575E-04 -.224E-03 0.933E-02
   -.338E+00 0.846E+00 0.497E+03   0.341E+00 -.834E+00 -.497E+03   -.317E-02 -.165E-01 -.762E-01   -.543E-04 0.228E-03 0.151E-01
   0.638E+00 -.231E-01 0.498E+03   -.650E+00 0.272E-01 -.497E+03   0.162E-01 -.538E-02 -.882E-01   0.896E-04 -.239E-04 0.152E-01
   -.636E+00 -.979E-02 0.147E+04   0.636E+00 0.990E-02 -.147E+04   0.128E-02 -.220E-03 0.267E+01   -.243E-03 -.128E-04 0.300E-01
   0.680E+00 0.984E+00 0.147E+04   -.681E+00 -.983E+00 -.147E+04   0.127E-03 -.151E-02 0.267E+01   0.261E-03 0.367E-03 0.302E-01
   -.593E+01 0.117E+02 -.144E+04   0.593E+01 -.117E+02 0.144E+04   -.186E-02 -.140E-01 -.468E+01   -.224E-03 0.872E-03 -.609E-02
   0.210E+02 -.162E+00 -.142E+04   -.209E+02 0.160E+00 0.142E+04   -.106E+00 -.288E-03 -.479E+01   -.700E-03 -.850E-05 -.516E-02
   -.143E+01 -.474E-01 -.447E+03   0.144E+01 0.473E-01 0.447E+03   -.671E-02 0.872E-03 0.255E+00   0.659E-04 -.133E-04 0.945E-02
   0.262E+01 0.337E+01 -.449E+03   -.261E+01 -.335E+01 0.449E+03   -.858E-02 -.211E-01 0.246E+00   -.688E-04 0.245E-03 0.931E-02
   0.331E+00 -.934E+00 0.498E+03   -.330E+00 0.951E+00 -.497E+03   -.797E-03 -.213E-01 -.853E-01   0.392E-04 -.179E-03 0.150E-01
   -.570E+00 0.599E-02 0.497E+03   0.565E+00 -.153E-02 -.497E+03   0.678E-02 -.598E-02 -.811E-01   -.115E-03 0.229E-04 0.151E-01
   0.479E+00 0.111E-01 0.147E+04   -.479E+00 -.110E-01 -.147E+04   0.765E-04 -.231E-03 0.267E+01   0.118E-03 0.205E-05 0.302E-01
   -.683E+00 -.114E+01 0.147E+04   0.684E+00 0.114E+01 -.147E+04   -.308E-03 0.202E-02 0.267E+01   -.231E-03 -.455E-03 0.299E-01
   0.602E+01 -.259E+02 -.141E+04   -.603E+01 0.258E+02 0.142E+04   0.575E-02 0.103E+00 -.471E+01   0.313E-03 0.120E-03 -.573E-02
   -.733E+01 0.163E+00 -.144E+04   0.731E+01 -.167E+00 0.144E+04   0.228E-01 0.606E-02 -.469E+01   -.205E-03 -.149E-04 -.621E-02
   0.976E+00 0.657E-01 -.449E+03   -.978E+00 -.683E-01 0.449E+03   0.280E-02 0.404E-02 0.272E+00   0.532E-04 -.429E-05 0.917E-02
   -.263E+01 -.385E+01 -.447E+03   0.262E+01 0.383E+01 0.447E+03   0.102E-01 0.192E-01 0.245E+00   0.410E-04 -.912E-04 0.935E-02
   0.332E+00 0.909E+00 0.498E+03   -.332E+00 -.915E+00 -.497E+03   -.642E-03 0.748E-02 -.842E-01   0.315E-04 0.180E-03 0.150E-01
   -.641E+00 -.247E-01 0.498E+03   0.655E+00 0.290E-01 -.498E+03   -.183E-01 -.566E-02 -.934E-01   -.818E-04 -.189E-04 0.150E-01
   0.642E+00 -.106E-01 0.147E+04   -.641E+00 0.108E-01 -.147E+04   -.138E-02 -.382E-03 0.267E+01   0.220E-03 -.299E-04 0.294E-01
   -.684E+00 0.115E+01 0.147E+04   0.685E+00 -.114E+01 -.147E+04   -.390E-03 -.299E-02 0.267E+01   -.239E-03 0.453E-03 0.299E-01
   0.605E+01 0.261E+02 -.141E+04   -.606E+01 -.260E+02 0.142E+04   0.605E-02 -.973E-01 -.471E+01   0.293E-03 -.141E-03 -.580E-02
   -.216E+02 -.173E+00 -.139E+04   0.215E+02 0.170E+00 0.140E+04   0.548E-01 0.540E-02 -.476E+01   0.482E-03 0.933E-06 -.543E-02
   0.146E+01 -.261E-01 -.443E+03   -.146E+01 0.229E-01 0.443E+03   0.254E-02 0.379E-02 0.780E-01   -.424E-04 -.595E-05 0.902E-02
   -.263E+01 0.385E+01 -.447E+03   0.262E+01 -.384E+01 0.447E+03   0.909E-02 -.150E-01 0.246E+00   0.723E-04 0.918E-04 0.931E-02
   0.618E+00 -.697E-02 0.235E+02   -.423E-12 -.249E-13 0.853E-12   -.598E+00 0.601E-01 -.244E+02   -.222E-02 0.749E-04 0.864E+00

 POSITION                                       TOTAL-FORCE (eV/Angst)
      4.25799      4.20026     12.63798         0.147870      0.041160      0.070193
      5.70127      4.21518     13.15146        -0.140133      0.010455     -0.013365
      4.06810      3.31107     12.01510        -0.001611     -0.052297     -0.009324
      4.04163      5.09957     12.03866        -0.003355      0.047668     -0.010029
      3.52715      4.17855     13.45982        -0.012991     -0.000429      0.020235
      6.40806      4.23766     12.30911         0.031706      0.000659     -0.021922
      5.92117      3.32239     13.75526         0.003423     -0.018333      0.006885
      5.89350      5.09633     13.78119         0.006183      0.015976      0.005648
      0.00006      6.33100      3.21881        -0.000334     -0.000998      0.312795
      2.11031      0.00026      3.21881        -0.000483     -0.000650      0.313571
      0.00006      0.00026      5.32906        -0.000798     -0.001875      0.053244
      2.11031      6.33100      5.32906         0.000555     -0.001971      0.046727
      8.44079      6.33043      7.45377        -0.000694     -0.003397      0.037369
      2.11013      8.44068      7.45400         0.001509     -0.001063      0.036552
      8.44092      8.44023      9.55992        -0.000167      0.002509      0.044849
      2.10918      6.32944      9.55744        -0.007107      0.001868      0.034430
      0.00006      2.11051      3.21881        -0.000356     -0.000395      0.312835
      2.11031      4.22076      3.21881        -0.000464     -0.000617      0.313709
      0.00006      4.22076      5.32906        -0.001386     -0.001842      0.058545
      2.11031      2.11051      5.32906         0.000451     -0.000737      0.046610
      8.44079      2.11008      7.45371        -0.000566      0.000881      0.037607
      2.11132      4.22019      7.45511        -0.001682     -0.000825      0.042396
      0.00123      4.21985      9.55595         0.004494     -0.000176      0.041462
      2.10914      2.11002      9.55733        -0.009291     -0.002239      0.035537
      4.22056      6.33100      3.21881        -0.000178     -0.001016      0.313719
      6.33080      0.00026      3.21881         0.000002     -0.000626      0.313645
      4.22056      0.00026      5.32906        -0.000674     -0.002338      0.057862
      6.33080      6.33100      5.32906        -0.001590     -0.002662      0.047469
      4.22042      6.32918      7.45497         0.000162      0.000782      0.041951
      6.33062      8.44066      7.45415        -0.002038     -0.000986      0.036566
      4.22017      8.44011      9.55647         0.001482      0.001285      0.045025
      6.33110      6.33010      9.55826         0.004046      0.008887      0.030006
      4.22056      2.11051      3.21881        -0.000145     -0.000404      0.313644
      6.33080      4.22076      3.21881        -0.000010     -0.000650      0.312836
      4.22056      4.22076      5.32906         0.000155     -0.002115      0.061908
      6.33080      2.11051      5.32906        -0.001437     -0.000159      0.047266
      4.22043      2.11094      7.45496         0.000141     -0.001296      0.041145
      6.32956      4.22016      7.45556         0.000197     -0.000572      0.041437
      4.21917      4.21964      9.57246        -0.006754      0.003420      0.032476
      6.33123      2.10931      9.55811         0.005025     -0.007591      0.028960
      0.00006      6.33100      5.32906        -0.001015      0.000572      0.064185
      2.11031      0.00026      5.32906        -0.002682     -0.002187      0.063489
      0.00006      0.00026      3.21881        -0.000310     -0.000865     -0.423065
      2.11031      6.33100      3.21881        -0.000288     -0.000820     -0.424445
      8.44051      6.32978      9.60579        -0.001350      0.002565     -0.085624
      2.10979      8.44024      9.60586        -0.001259      0.001216     -0.085585
      8.44074      8.44072      7.44906         0.000173     -0.001493      0.008253
      2.10995      6.33108      7.44854        -0.000299      0.000140     -0.010259
      0.00006      2.11051      5.32906        -0.000993     -0.004796      0.063875
      2.11031      4.22076      5.32906         0.003252     -0.002095      0.066354
      0.00006      4.22076      3.21881        -0.000002     -0.000863     -0.422792
      2.11031      2.11051      3.21881        -0.000265     -0.001269     -0.424467
      8.44053      2.10979      9.60563        -0.000884     -0.002956     -0.083921
      2.10787      4.21974      9.60038        -0.001125     -0.003144     -0.092424
      8.44074      4.22024      7.44750        -0.001178     -0.000019      0.001109
      2.10988      2.10931      7.44846         0.000685     -0.000172     -0.009902
      4.22056      6.33100      5.32906        -0.000456     -0.005569      0.066518
      6.33080      0.00026      5.32906         0.001294     -0.002236      0.064242
      4.22056      0.00026      3.21881        -0.000248     -0.000861     -0.423680
      6.33080      6.33100      3.21881        -0.000378     -0.000511     -0.424445
      4.22041      6.33259      9.60494        -0.000763      0.004134     -0.083944
      6.33080      8.44022      9.60644         0.001497      0.001325     -0.086804
      4.22046      8.44054      7.44788        -0.000151      0.000762      0.004478
      6.33078      6.33100      7.44892         0.000426     -0.000850     -0.010240
      4.22056      2.11051      5.32906        -0.000426      0.000618      0.066744
      6.33080      4.22076      5.32906        -0.004345     -0.002149      0.066736
      4.22056      4.22076      3.21881        -0.000563     -0.000899     -0.424128
      6.33080      2.11051      3.21881        -0.000397     -0.001582     -0.424421
      4.22047      2.10650      9.60436        -0.000838     -0.005244     -0.081614
      6.33249      4.21973      9.60317         0.000735      0.000967     -0.086417
      4.22062      4.22016      7.45169        -0.000477     -0.000176     -0.000305
      6.33087      2.10935      7.44884        -0.000523      0.001170     -0.009978
    total drift:                                0.017748      0.053247     -0.057441

  FREE ENERGIE OF THE ION-ELECTRON SYSTEM (eV)
  free  energy   TOTEN  =      -292.82991378 eV

  energy  without entropy=     -292.82991378  energy(sigma->0) =     -292.82991378