 vasp.6.4.2 20Jul23 (build Nov 17 2023 15:39:20) complex
 executed on              LinuxNV date 2024.02.27  20:17:17
 OpenACC runtime initialized ...    4 GPUs detected

 INCAR:
   SYSTEM = Oxide-Surface
   ISMEAR = 0
   SIGMA = 0.05
   EDIFF = 1E-4
   ALGO = Normal
   ISTART = 2
   IBRION = -1
   NSW = 0
   ISYM = 0
   DIPOL = 0.5 0.5 0.5
   IDIPOL = 3
   LDIPOL = .TRUE.
   LHFCALC = .TRUE.
   GGA = PE
   IVDW = 21
   VDW_SR = 0.96
   ENCUT = 450
   PREC = Normal
   LASPH = .TRUE.
   LREAL = Auto
   ISPIN = 1
   NELM = 200
   NELMIN = 8
   NCORE = 1
   KPAR = 1
   LWAVE = .FALSE.
   LCHARG = .FALSE.

 POTCAR:    PAW_PBE Mg_pv 13Apr2007
 POTCAR:    PAW_PBE O 08Apr2002
 POTCAR:    PAW_PBE Mg_pv 13Apr2007
   VRHFIN =Mg: p6s2

   TITEL  = PAW_PBE Mg_pv 13Apr2007
   POMASS =   24.305; ZVAL   =    8.000    mass and valenz
   ENMAX  =  403.929; ENMIN  =  302.947 eV

   TITEL  = PAW_PBE O 08Apr2002
   POMASS =   16.000; ZVAL   =    6.000    mass and valenz
   ENMAX  =  400.000; ENMIN  =  300.000 eV

 Optimization of the real space projectors (new method)

 maximal supplied QI-value         = 18.90
 optimisation between [QCUT,QGAM] = [ 10.77, 21.73] = [ 32.49,132.25] Ry
 Optimized for a Real-space Cutoff    1.23 Angstroem

   l    n(q)    QCUT    max X(q) W(low)/X(q) W(high)/X(q)  e(spline)
   1      7    10.771     2.974    0.18E-03    0.56E-05    0.13E-06
   1      7    10.771     4.279    0.39E-03    0.94E-04    0.28E-06
   0      8    10.771    16.381    0.27E-03    0.38E-03    0.44E-07
   0      8    10.771     5.611    0.18E-03    0.26E-03    0.32E-07
   2      7    10.771     4.652    0.12E-03    0.23E-03    0.45E-07
 Optimization of the real space projectors (new method)

 maximal supplied QI-value         = 24.76
 optimisation between [QCUT,QGAM] = [ 10.64, 21.54] = [ 31.73,129.89] Ry
 Optimized for a Real-space Cutoff    1.23 Angstroem

   l    n(q)    QCUT    max X(q) W(low)/X(q) W(high)/X(q)  e(spline)
   0      8    10.645    20.381    0.38E-03    0.60E-03    0.15E-06
   0      8    10.645    15.268    0.40E-03    0.65E-03    0.17E-06
   1      7    10.645     5.964    0.30E-03    0.63E-03    0.18E-06
   1      7    10.645     5.382    0.24E-03    0.53E-03    0.16E-06
  PAW_PBE Mg_pv 13Apr2007               :
  PAW_PBE O 08Apr2002                   :

 POSCAR: Mg  O
  positions in direct lattice
 exchange correlation table for  LEXCH =        8
   RHO(1)=    0.500       N(1)  =     2000
   RHO(2)=  100.500       N(2)  =     4000

 ion  position               nearest neighbor table
   1  0.000  0.750  0.352-  33 2.11  35 2.11  36 2.11  43 2.11  52 2.11
   2  0.250  0.000  0.352-  34 2.11  35 2.11  36 2.11  44 2.11  51 2.11
   3  0.000  0.000  0.451-  35 2.11  34 2.11  33 2.11  41 2.11  50 2.11  39 2.12
   4  0.250  0.750  0.451-  36 2.11  34 2.11  33 2.11  42 2.11  49 2.11  40 2.12
   5  1.000  0.750  0.550-  56 2.11  40 2.11  47 2.11  39 2.11  33 2.12  37 2.15
   6  0.250  1.000  0.550-  40 2.11  48 2.11  55 2.11  39 2.11  34 2.12  38 2.15
   7  1.000  1.000  0.649-  38 2.11  54 2.11  39 2.11  37 2.11  45 2.11
   8  0.250  0.750  0.649-  40 2.11  46 2.11  37 2.11  38 2.11  53 2.11
   9  0.000  0.250  0.352-  41 2.11  35 2.11  43 2.11  44 2.11  60 2.11
  10  0.250  0.500  0.352-  42 2.11  36 2.11  43 2.11  44 2.11  59 2.11
  11  0.000  0.500  0.451-  43 2.11  41 2.11  42 2.11  33 2.11  58 2.11  47 2.12
  12  0.250  0.250  0.451-  44 2.11  41 2.11  42 2.11  34 2.11  57 2.11  48 2.12
  13  1.000  0.250  0.550-  64 2.11  48 2.11  47 2.11  39 2.11  41 2.12  45 2.15
  14  0.250  0.500  0.550-  63 2.11  48 2.11  40 2.11  47 2.11  42 2.13  46 2.15
  15  0.000  0.500  0.649-  46 2.11  47 2.11  62 2.11  37 2.11  45 2.11
  16  0.250  0.250  0.649-  48 2.11  45 2.11  46 2.11  38 2.11  61 2.11
  17  0.500  0.750  0.352-  49 2.11  36 2.11  51 2.11  52 2.11  59 2.11
  18  0.750  0.000  0.352-  50 2.11  35 2.11  51 2.11  52 2.11  60 2.11
  19  0.500  0.000  0.451-  51 2.11  49 2.11  50 2.11  34 2.11  57 2.11  55 2.12
  20  0.750  0.750  0.451-  52 2.11  49 2.11  50 2.11  33 2.11  58 2.11  56 2.12
  21  0.500  0.750  0.550-  63 2.11  56 2.11  40 2.11  55 2.11  49 2.13  53 2.15
  22  0.750  1.000  0.550-  56 2.11  64 2.11  39 2.11  55 2.11  50 2.13  54 2.15
  23  0.500  1.000  0.649-  61 2.11  53 2.11  55 2.11  38 2.11  54 2.11
  24  0.750  0.750  0.649-  56 2.11  37 2.11  54 2.11  62 2.11  53 2.11
  25  0.500  0.250  0.352-  57 2.11  51 2.11  44 2.11  59 2.11  60 2.11
  26  0.750  0.500  0.352-  58 2.11  52 2.11  43 2.11  59 2.11  60 2.11
  27  0.500  0.500  0.451-  59 2.11  49 2.11  57 2.11  58 2.11  42 2.11  63 2.12
  28  0.750  0.250  0.451-  60 2.11  50 2.11  57 2.11  58 2.11  41 2.11  64 2.12
  29  0.500  0.250  0.550-  63 2.11  64 2.11  48 2.11  55 2.11  57 2.13  61 2.15
  30  0.750  0.500  0.550-  63 2.11  64 2.11  56 2.11  47 2.11  58 2.13  62 2.15
  31  0.500  0.500  0.649-  46 2.11  53 2.11  61 2.11  62 2.11  63 2.12
  32  0.750  0.250  0.649-  64 2.11  45 2.11  54 2.11  62 2.11  61 2.11
  33  0.000  0.750  0.451-   1 2.11   3 2.11   4 2.11  11 2.11  20 2.11   5 2.12
  34  0.250  0.000  0.451-   2 2.11   3 2.11   4 2.11  12 2.11  19 2.11   6 2.12
  35  0.000  0.000  0.352-   3 2.11   2 2.11   1 2.11   9 2.11  18 2.11
  36  0.250  0.750  0.352-   4 2.11   2 2.11   1 2.11  10 2.11  17 2.11
  37  1.000  0.750  0.651-  24 2.11   8 2.11  15 2.11   7 2.11   5 2.15
  38  0.250  1.000  0.651-   7 2.11  23 2.11  16 2.11   8 2.11   6 2.15
  39  1.000  1.000  0.550-  22 2.11   5 2.11  13 2.11   6 2.11   7 2.11   3 2.12
  40  0.250  0.750  0.550-   8 2.11   6 2.11   5 2.11  21 2.11  14 2.11   4 2.12
  41  0.000  0.250  0.451-   9 2.11   3 2.11  11 2.11  12 2.11  28 2.11  13 2.12
  42  0.250  0.500  0.451-  10 2.11   4 2.11  11 2.11  12 2.11  27 2.11  14 2.13
  43  0.000  0.500  0.352-  11 2.11   9 2.11  10 2.11   1 2.11  26 2.11
  44  0.250  0.250  0.352-  12 2.11   9 2.11  10 2.11   2 2.11  25 2.11
  45  1.000  0.250  0.651-  32 2.11  16 2.11  15 2.11   7 2.11  13 2.15
  46  0.250  0.500  0.651-  15 2.11   8 2.11  16 2.11  31 2.11  14 2.15
  47  1.000  0.500  0.550-  15 2.11  13 2.11   5 2.11  30 2.11  14 2.11  11 2.12
  48  0.250  0.250  0.550-  16 2.11   6 2.11  13 2.11  29 2.11  14 2.11  12 2.12
  49  0.500  0.750  0.451-  17 2.11   4 2.11  19 2.11  20 2.11  27 2.11  21 2.13
  50  0.750  0.000  0.451-  18 2.11   3 2.11  19 2.11  20 2.11  28 2.11  22 2.13
  51  0.500  0.000  0.352-  19 2.11  17 2.11  18 2.11   2 2.11  25 2.11
  52  0.750  0.750  0.352-  20 2.11  17 2.11  18 2.11   1 2.11  26 2.11
  53  0.500  0.750  0.651-  23 2.11  24 2.11   8 2.11  31 2.11  21 2.15
  54  0.750  1.000  0.651-  32 2.11   7 2.11  24 2.11  23 2.11  22 2.15
  55  0.500  1.000  0.550-  23 2.11  22 2.11   6 2.11  21 2.11  29 2.11  19 2.12
  56  0.750  0.750  0.550-  24 2.11  22 2.11   5 2.11  21 2.11  30 2.11  20 2.12
  57  0.500  0.250  0.451-  25 2.11  19 2.11  12 2.11  27 2.11  28 2.11  29 2.13
  58  0.750  0.500  0.451-  26 2.11  20 2.11  11 2.11  27 2.11  28 2.11  30 2.13
  59  0.500  0.500  0.352-  27 2.11  17 2.11  25 2.11  26 2.11  10 2.11
  60  0.750  0.250  0.352-  28 2.11  18 2.11  25 2.11  26 2.11   9 2.11
  61  0.500  0.250  0.651-  23 2.11  32 2.11  16 2.11  31 2.11  29 2.15
  62  0.750  0.500  0.651-  15 2.11  24 2.11  32 2.11  31 2.11  30 2.15
  63  0.500  0.500  0.550-  30 2.11  21 2.11  29 2.11  14 2.11  31 2.12  27 2.12
  64  0.750  0.250  0.550-  32 2.11  22 2.11  13 2.11  29 2.11  30 2.11  28 2.12

IMPORTANT INFORMATION: All symmetrisations will be switched off!
NOSYMM: (Re-)initialisation of all symmetry stuff for point group C_1.

                                     Primitive cell

  volume of cell :    1519.8199

  direct lattice vectors                    reciprocal lattice vectors
     8.440984654  0.000000000  0.000000000     0.118469591  0.000000000  0.000000000
     0.000000000  8.440984654  0.000000000     0.000000000  0.118469591  0.000000000
     0.000000000  0.000000000 21.330738491     0.000000000  0.000000000  0.046880702

  length of vectors
     8.440984654  8.440984654 21.330738491     0.118469591  0.118469591  0.046880702

  position of ions in fractional coordinates (direct lattice)
     0.000000000  0.750000000  0.351605267
     0.250000000  0.000000000  0.351605267
     0.000000000  0.000000000  0.450535089
     0.250000000  0.750000000  0.450535089
     0.999969335  0.749932564  0.550143009
     0.249979009  0.999932854  0.550153760
     0.999984729  0.999879620  0.648880782
     0.249865610  0.749814499  0.648764798
     0.000000000  0.250000000  0.351605267
     0.250000000  0.500000000  0.351605267
     0.000000000  0.500000000  0.450535089
     0.250000000  0.250000000  0.450535089
     0.999969716  0.249949331  0.550140365
     0.250119639  0.499932684  0.550205747
     0.000137590  0.499892464  0.648694835
     0.249861482  0.249941717  0.648759231
     0.500000000  0.750000000  0.351605267
     0.750000000  0.000000000  0.351605267
     0.500000000  0.000000000  0.450535089
     0.750000000  0.750000000  0.450535089
     0.499983604  0.749784240  0.550199518
     0.749978902  0.999929979  0.550160720
     0.499953859  0.999865553  0.648719052
     0.750035499  0.749892856  0.648802828
     0.500000000  0.250000000  0.351605267
     0.750000000  0.500000000  0.351605267
     0.500000000  0.500000000  0.450535089
     0.750000000  0.250000000  0.450535089
     0.499985367  0.250051482  0.550198962
     0.749853021  0.499929383  0.550227143
     0.499835929  0.499867681  0.649468757
     0.750050535  0.249858113  0.648796072
     0.000000000  0.750000000  0.450535089
     0.250000000  0.000000000  0.450535089
     0.000000000  0.000000000  0.351605267
     0.250000000  0.750000000  0.351605267
     0.999935709  0.749855480  0.651031248
     0.249938454  0.999880825  0.651034598
     0.999963400  0.999937428  0.549922155
     0.249957400  0.750009151  0.549898012
     0.000000000  0.250000000  0.450535089
     0.250000000  0.500000000  0.450535089
     0.000000000  0.500000000  0.351605267
     0.250000000  0.250000000  0.351605267
     0.999938240  0.249914393  0.651023838
     0.249711433  0.499880155  0.650777859
     0.999963453  0.499938781  0.549848970
     0.249949301  0.249857489  0.549894283
     0.500000000  0.750000000  0.450535089
     0.750000000  0.000000000  0.450535089
     0.500000000  0.000000000  0.351605267
     0.750000000  0.750000000  0.351605267
     0.499982066  0.750187993  0.650991390
     0.749999064  0.999877994  0.651061537
     0.499988807  0.999916028  0.549866891
     0.749997384  0.749999493  0.549915913
     0.500000000  0.250000000  0.450535089
     0.750000000  0.500000000  0.450535089
     0.500000000  0.500000000  0.351605267
     0.750000000  0.250000000  0.351605267
     0.499989412  0.249524492  0.650964072
     0.750199653  0.499878761  0.650908380
     0.500007765  0.499929862  0.550045517
     0.750007621  0.249862313  0.549912158

  ion indices of the primitive-cell ions
   primitive index   ion index
                 1           1
                 2           2
                 3           3
                 4           4
                 5           5
                 6           6
                 7           7
[...]
   O         195.580          4.868         19.120          3.54077862
   O         195.562          4.868         19.119          3.54061270
   O         190.889          4.848         18.890          3.49805854
   O         191.244          4.849         18.907          3.50130609
   O         242.139          5.044         21.275          3.93974768
   O         242.087          5.044         21.272          3.93932667
   O         238.740          5.032         21.125          3.91200166
   O         238.645          5.032         21.121          3.91122565
   O         195.510          4.867         19.117          3.54014409
   O         195.492          4.867         19.116          3.53997720
   O         191.312          4.850         18.910          3.50192834
   O         190.827          4.848         18.886          3.49749253
   O         241.968          5.043         21.267          3.93836170
   O         241.930          5.043         21.265          3.93804582
   O         238.740          5.032         21.125          3.91200328
   O         238.709          5.032         21.123          3.91174945
   O         195.590          4.868         19.121          3.54087099
   O         195.561          4.868         19.119          3.54060654
   O         191.191          4.849         18.904          3.50082214
   O         191.127          4.849         18.901          3.50023972
   O         240.876          5.040         21.219          3.92946617
   O         241.951          5.043         21.266          3.93822194

  vdW correction parametrized for the method  Ïf5    þ

  IVDW =  21
  VDW_RADIUS =    50.000 A
  VDW_IDAMPF =  0
  VDW_S6 =     1.000
  VDW_SR =     0.960
  VDW_D =    20.000
  LVDW_ONECELL = F F F
  LVDW_SAMETYPE T T
  LVDW_EWALD = F

  Number of pair interactions contributing to vdW energy:  723305
  Edisp (eV):   -3.83976

 VOLUME and BASIS-vectors are now :
  energy-cutoff  :      450.00
  volume of cell :     1519.82
      direct lattice vectors                 reciprocal lattice vectors
     8.440984654  0.000000000  0.000000000     0.118469591  0.000000000  0.000000000
     0.000000000  8.440984654  0.000000000     0.000000000  0.118469591  0.000000000
     0.000000000  0.000000000 21.330738491     0.000000000  0.000000000  0.046880702

  length of vectors
     8.440984654  8.440984654 21.330738491     0.118469591  0.118469591  0.046880702

 FORCES acting on ions
    electron-ion (+dipol)            ewald-force                    non-local-force                 convergence-correction
   0.882E-02 0.173E-01 0.207E+04   -.916E-02 -.173E-01 -.206E+04   0.217E-03 0.106E-04 -.674E+01   0.770E-06 -.228E-05 -.231E+00
   -.246E-01 0.989E-03 0.207E+04   0.247E-01 -.114E-02 -.206E+04   -.151E-04 0.103E-03 -.675E+01   0.183E-05 0.670E-06 -.231E+00
   0.194E-01 0.113E-02 0.683E+03   -.216E-01 -.359E-02 -.683E+03   0.135E-02 0.142E-02 0.500E+00   0.349E-05 0.187E-05 -.972E-01
   -.158E+00 0.125E+00 0.683E+03   0.160E+00 -.126E+00 -.683E+03   -.121E-02 0.654E-03 0.497E+00   0.274E-05 -.714E-06 -.973E-01
   0.758E-01 -.982E-01 -.690E+03   -.842E-01 0.110E+00 0.690E+03   0.550E-02 -.687E-02 -.161E+00   0.105E-05 -.129E-04 0.707E-01
   -.354E-01 0.977E-02 -.690E+03   0.311E-01 -.990E-02 0.690E+03   0.275E-02 0.524E-03 -.172E+00   0.109E-04 -.280E-06 0.707E-01
   -.352E-01 -.108E-01 -.205E+04   0.379E-01 0.119E-01 0.204E+04   -.306E-02 -.616E-04 0.571E+01   0.261E-05 -.881E-06 0.214E+00
   -.462E+00 -.137E+00 -.205E+04   0.423E+00 0.207E+00 0.204E+04   0.345E-01 -.391E-01 0.573E+01   0.246E-04 -.321E-04 0.214E+00
   0.874E-02 -.176E-01 0.207E+04   -.908E-02 0.174E-01 -.206E+04   0.218E-03 0.164E-03 -.674E+01   -.172E-06 0.196E-05 -.231E+00
   -.441E-01 -.136E-02 0.207E+04   0.450E-01 0.123E-02 -.206E+04   -.576E-03 0.980E-04 -.675E+01   -.235E-05 0.241E-06 -.231E+00
   0.468E-01 -.156E-01 0.683E+03   -.509E-01 0.131E-01 -.684E+03   0.257E-02 0.146E-02 0.477E+00   -.160E-05 -.589E-06 -.973E-01
   -.167E+00 -.138E+00 0.683E+03   0.169E+00 0.134E+00 -.683E+03   -.814E-03 0.254E-02 0.495E+00   0.268E-05 0.399E-06 -.973E-01
   0.707E-01 0.114E+00 -.690E+03   -.789E-01 -.126E+00 0.690E+03   0.607E-02 0.655E-02 -.162E+00   -.651E-06 0.112E-04 0.707E-01
   -.538E+00 -.339E-02 -.690E+03   0.587E+00 0.364E-02 0.690E+03   -.405E-01 -.311E-03 -.240E+00   -.656E-05 0.220E-06 0.709E-01
   0.588E+00 0.269E-01 -.205E+04   -.599E+00 -.243E-01 0.204E+04   -.105E-01 -.210E-02 0.570E+01   0.517E-05 0.224E-06 0.214E+00
   -.491E+00 0.123E+00 -.205E+04   0.449E+00 -.190E+00 0.204E+04   0.371E-01 0.385E-01 0.573E+01   0.236E-04 0.316E-04 0.214E+00
   -.903E-02 0.366E-01 0.207E+04   0.927E-02 -.375E-01 -.206E+04   -.142E-03 0.577E-03 -.675E+01   -.158E-05 0.104E-05 -.231E+00
   0.246E-01 0.105E-02 0.207E+04   -.247E-01 -.121E-02 -.206E+04   0.793E-04 0.106E-03 -.675E+01   -.134E-05 0.101E-05 -.231E+00
   -.259E-01 -.540E-02 0.683E+03   0.262E-01 0.143E-02 -.683E+03   -.277E-03 0.229E-02 0.480E+00   -.287E-05 0.426E-06 -.973E-01
   0.155E+00 0.151E+00 0.683E+03   -.159E+00 -.155E+00 -.683E+03   0.237E-02 0.217E-02 0.499E+00   -.276E-05 -.592E-05 -.972E-01
   -.666E-01 0.410E+00 -.691E+03   0.753E-01 -.447E+00 0.691E+03   -.588E-02 0.334E-01 -.198E+00   0.346E-06 0.815E-05 0.708E-01
   0.499E-01 0.120E-01 -.690E+03   -.431E-01 -.121E-01 0.691E+03   -.443E-02 0.580E-03 -.168E+00   -.118E-04 0.720E-06 0.708E-01
   0.506E-01 0.206E-01 -.205E+04   -.545E-01 -.143E-01 0.204E+04   0.355E-02 -.463E-02 0.567E+01   -.488E-05 -.294E-05 0.214E+00
   0.396E+00 0.300E+00 -.205E+04   -.356E+00 -.261E+00 0.204E+04   -.330E-01 -.273E-01 0.571E+01   -.233E-04 -.305E-04 0.214E+00
   -.894E-02 -.373E-01 0.207E+04   0.918E-02 0.378E-01 -.206E+04   -.147E-03 -.346E-03 -.675E+01   -.161E-05 -.117E-05 -.231E+00
   0.441E-01 -.147E-02 0.207E+04   -.450E-01 0.133E-02 -.206E+04   0.614E-03 0.103E-03 -.675E+01   0.489E-05 -.204E-06 -.231E+00
   -.503E-01 -.423E-02 0.682E+03   0.534E-01 0.134E-02 -.683E+03   -.195E-02 0.157E-02 0.526E+00   0.942E-06 -.443E-06 -.972E-01
   0.164E+00 -.164E+00 0.683E+03   -.168E+00 0.162E+00 -.683E+03   0.190E-02 0.115E-02 0.498E+00   -.105E-05 0.475E-05 -.972E-01
   -.623E-01 -.437E+00 -.691E+03   0.710E-01 0.475E+00 0.691E+03   -.592E-02 -.336E-01 -.205E+00   0.305E-06 -.723E-05 0.708E-01
   0.510E+00 -.744E-02 -.691E+03   -.560E+00 0.824E-02 0.691E+03   0.418E-01 -.213E-03 -.234E+00   0.541E-05 -.366E-06 0.709E-01
   -.393E+00 0.623E-01 -.206E+04   0.416E+00 -.553E-01 0.205E+04   -.387E-02 -.489E-02 0.585E+01   -.717E-05 0.181E-07 0.215E+00
   0.426E+00 -.316E+00 -.205E+04   -.384E+00 0.280E+00 0.204E+04   -.351E-01 0.264E-01 0.572E+01   -.213E-04 0.303E-04 0.214E+00
   0.270E-01 0.132E-01 0.512E+03   -.260E-01 -.131E-01 -.512E+03   -.116E-02 0.132E-03 -.724E-01   0.214E-05 -.243E-05 -.708E-01
   -.472E-01 -.118E-02 0.512E+03   0.519E-01 0.474E-02 -.512E+03   -.561E-02 -.406E-02 -.775E-01   -.181E-05 0.304E-06 -.708E-01
   0.540E-02 0.130E-02 0.155E+04   -.558E-02 -.121E-02 -.156E+04   0.215E-03 -.122E-03 0.309E+01   -.169E-06 0.114E-05 -.174E+00
   -.256E-01 0.201E-01 0.155E+04   0.261E-01 -.201E-01 -.156E+04   -.623E-03 -.984E-04 0.309E+01   0.276E-06 -.142E-05 -.174E+00
   0.450E-01 -.103E+00 -.156E+04   -.633E-01 0.112E+00 0.156E+04   0.224E-01 -.736E-02 -.455E+01   0.428E-05 -.322E-04 0.163E+00
   -.956E-01 0.423E-03 -.156E+04   0.118E+00 -.274E-02 0.156E+04   -.220E-01 0.364E-02 -.456E+01   0.250E-04 0.324E-06 0.163E+00
   -.238E-03 0.160E-02 -.513E+03   -.214E-03 0.278E-03 0.512E+03   0.214E-02 -.108E-02 0.217E+00   0.793E-06 0.255E-05 0.520E-01
   -.225E+00 0.842E-01 -.512E+03   0.229E+00 -.837E-01 0.512E+03   -.183E-02 -.538E-02 0.258E+00   0.542E-05 -.514E-05 0.520E-01
   0.265E-01 -.210E-01 0.512E+03   -.255E-01 0.270E-01 -.512E+03   -.113E-02 -.704E-02 -.725E-01   -.120E-05 0.526E-06 -.708E-01
   -.166E+00 -.945E-02 0.512E+03   0.157E+00 0.128E-01 -.511E+03   0.105E-01 -.374E-02 -.805E-01   0.407E-05 0.236E-05 -.708E-01
   0.769E-02 -.118E-02 0.155E+04   -.814E-02 0.124E-02 -.156E+04   0.549E-03 -.858E-04 0.309E+01   -.119E-05 0.423E-06 -.174E+00
   -.264E-01 -.199E-01 0.155E+04   0.268E-01 0.200E-01 -.156E+04   -.544E-03 -.138E-03 0.309E+01   0.999E-06 0.672E-06 -.174E+00
   0.371E-01 0.102E+00 -.156E+04   -.541E-01 -.114E+00 0.156E+04   0.212E-01 0.130E-01 -.455E+01   0.431E-05 0.309E-04 0.163E+00
   -.739E+00 0.238E-01 -.156E+04   0.720E+00 -.259E-01 0.156E+04   0.438E-01 0.284E-02 -.441E+01   -.390E-05 0.753E-06 0.163E+00
   0.149E+00 -.165E-01 -.511E+03   -.155E+00 0.166E-01 0.511E+03   0.627E-02 -.174E-02 0.274E+00   -.101E-05 0.290E-05 0.519E-01
   -.246E+00 -.866E-01 -.512E+03   0.249E+00 0.853E-01 0.512E+03   -.263E-02 0.528E-02 0.256E+00   0.635E-05 0.507E-05 0.519E-01
   -.315E-01 0.130E+00 0.512E+03   0.330E-01 -.115E+00 -.511E+03   -.170E-02 -.166E-01 -.815E-01   -.231E-05 -.253E-05 -.708E-01
   0.453E-01 -.110E-02 0.512E+03   -.478E-01 0.480E-02 -.512E+03   0.300E-02 -.422E-02 -.795E-01   -.810E-06 0.335E-05 -.708E-01
   -.538E-02 0.723E-03 0.155E+04   0.563E-02 -.654E-03 -.156E+04   -.296E-03 -.933E-04 0.309E+01   -.294E-07 -.116E-05 -.174E+00
   0.258E-01 0.225E-01 0.155E+04   -.262E-01 -.226E-01 -.156E+04   0.529E-03 0.205E-03 0.309E+01   0.147E-05 -.286E-05 -.174E+00
   0.214E-01 0.664E+00 -.156E+04   -.122E-01 -.631E+00 0.156E+04   -.129E-01 -.634E-01 -.445E+01   -.455E-05 -.235E-06 0.163E+00
   0.803E-01 0.263E-02 -.156E+04   -.100E+00 -.508E-02 0.156E+04   0.198E-01 0.381E-02 -.456E+01   -.222E-04 -.133E-05 0.163E+00
   -.756E-02 0.125E-01 -.512E+03   0.703E-02 -.147E-01 0.511E+03   -.946E-03 0.907E-03 0.267E+00   0.922E-06 -.168E-05 0.519E-01
   0.222E+00 0.216E+00 -.512E+03   -.227E+00 -.221E+00 0.512E+03   0.360E-02 0.819E-03 0.246E+00   -.477E-05 -.541E-05 0.520E-01
   -.308E-01 -.146E+00 0.512E+03   0.321E-01 0.140E+00 -.511E+03   -.157E-02 0.695E-02 -.808E-01   -.188E-05 0.358E-05 -.708E-01
   0.164E+00 -.104E-01 0.512E+03   -.154E+00 0.140E-01 -.511E+03   -.119E-01 -.397E-02 -.873E-01   -.971E-06 -.214E-06 -.708E-01
   -.769E-02 -.300E-03 0.155E+04   0.817E-02 0.464E-03 -.156E+04   -.579E-03 -.201E-03 0.309E+01   -.156E-05 -.202E-05 -.174E+00
   0.265E-01 -.222E-01 0.155E+04   -.269E-01 0.226E-01 -.156E+04   0.457E-03 -.453E-03 0.309E+01   0.377E-05 -.396E-06 -.174E+00
   0.246E-01 -.703E+00 -.156E+04   -.145E-01 0.662E+00 0.156E+04   -.142E-01 0.771E-01 -.445E+01   -.631E-05 0.742E-05 0.163E+00
   0.582E+00 0.242E-01 -.156E+04   -.551E+00 -.269E-01 0.156E+04   -.521E-01 0.405E-02 -.444E+01   0.483E-05 0.658E-06 0.163E+00
   -.133E+00 0.219E-01 -.515E+03   0.140E+00 -.257E-01 0.515E+03   -.912E-02 0.868E-03 0.107E+00   0.114E-05 -.289E-05 0.521E-01
   0.243E+00 -.215E+00 -.512E+03   -.248E+00 0.218E+00 0.512E+03   0.415E-02 0.196E-02 0.246E+00   -.537E-05 0.613E-05 0.520E-01
   0.126E-01 0.313E-02 0.192E+02   -.127E-12 -.516E-13 -.153E-11   -.884E-02 0.273E-02 -.157E+02   0.612E-05 0.341E-05 -.587E+00

 POSITION                                       TOTAL-FORCE (eV/Angst)
      0.00000      6.33074      7.50000        -0.000120     -0.000062      0.502366
      2.11025      0.00000      7.50000         0.000001     -0.000081      0.502653
      0.00000      0.00000      9.61025        -0.000689     -0.000858      0.028080
      2.11025      6.33074      9.61025         0.000624     -0.000911      0.027534
      8.44073      6.33017     11.73496        -0.002223      0.003148      0.051800
      2.11007      8.44042     11.73519        -0.001352     -0.000001      0.053766
      8.44086      8.43997     13.84111        -0.000723      0.001322     -0.120928
      2.10911      6.32917     13.83863         0.000193      0.024453     -0.117179
      0.00000      2.11025      7.50000        -0.000118     -0.000087      0.502393
      2.11025      4.22049      7.50000         0.000163     -0.000067      0.502593
      0.00000      4.22049      9.61025        -0.001196     -0.000834      0.028736
      2.11025      2.11025      9.61025         0.000504     -0.001013      0.027445
      8.44073      2.10982     11.73490        -0.001522     -0.004463      0.052327
      2.11126      4.21992     11.73629         0.003387     -0.000468      0.036355
      0.00116      4.21958     13.83714        -0.021181     -0.000151     -0.104179
      2.10908      2.10975     13.83851        -0.000083     -0.022793     -0.117473
      4.22049      6.33074      7.50000         0.000034     -0.000238      0.502791
      6.33074      0.00000      7.50000        -0.000088     -0.000083      0.502770
      4.22049      0.00000      9.61025         0.000019     -0.001346      0.030189
      6.33074      6.33074      9.61025        -0.001392     -0.001619      0.028976
      4.22035      6.32892     11.73616         0.001855     -0.000200      0.050258
      6.33056      8.44039     11.73533         0.001514      0.000077      0.053777
      4.22010      8.43985     13.83766         0.000041      0.000729     -0.097603
      6.33104      6.32983     13.83944         0.002409      0.008143     -0.117192
      4.22049      2.11025      7.50000         0.000034      0.000056      0.502731
      6.33074      4.22049      7.50000        -0.000235     -0.000071      0.503075
      4.22049      4.22049      9.61025         0.000830     -0.001095      0.033083
      6.33074      2.11025      9.61025        -0.001228     -0.000411      0.028837
      4.22037      2.11068     11.73615         0.001782      0.000775      0.050621
      6.32950      4.21990     11.73675        -0.003627      0.000102      0.046779
      4.21911      4.21938     13.85365         0.018440      0.001672     -0.236455
      6.33117      2.10905     13.83930         0.002032     -0.006172     -0.117285
      0.00000      6.33074      9.61025        -0.000403      0.000218      0.084678
      2.11025      0.00000      9.61025        -0.001905     -0.001294      0.083948
      0.00000      0.00000      7.50000         0.000029     -0.000104     -0.424248
      2.11025      6.33074      7.50000        -0.000228     -0.000118     -0.424105
      8.44044      6.32952     13.88698         0.008093      0.000161     -0.137195
      2.10973      8.43998     13.88705        -0.003276      0.001675     -0.139862
      8.44068      8.44046     11.73025         0.001999      0.000369     -0.000316
      2.10989      6.33082     11.72973         0.001038     -0.006179      0.004517
      0.00000      2.11025      9.61025        -0.000391     -0.002429      0.084344
      2.11025      4.22049      9.61025         0.003308     -0.001162      0.088438
      0.00000      4.22049      7.50000         0.000153     -0.000086     -0.424135
      2.11025      2.11025      7.50000        -0.000200     -0.000083     -0.424097
      8.44046      2.10952     13.88682         0.007947      0.003162     -0.136321
      2.10781      4.21948     13.88157         0.033939      0.001033     -0.082344
      8.44068      4.21998     11.72868         0.002372     -0.001493      0.010016
      2.10982      2.10904     11.72965         0.000918      0.005463      0.002654
      4.22049      6.33074      9.61025        -0.000524     -0.005184      0.087401
      6.33074      0.00000      9.61025         0.001035     -0.001336      0.083935
      4.22049      0.00000      7.50000        -0.000132     -0.000092     -0.424256
      6.33074      6.33074      7.50000         0.000122     -0.000005     -0.424259
      4.22034      6.33233     13.88613        -0.006330     -0.042366     -0.108075
      6.33073      8.43995     13.88762         0.003162      0.001744     -0.141653
      4.22040      8.44028     11.72907        -0.001504     -0.000711      0.007385
      6.33072      6.33073     11.73011        -0.000296     -0.004206      0.000969
      4.22049      2.11025      9.61025        -0.000479      0.002201      0.087630
      6.33074      4.22049      9.61025        -0.003822     -0.001230      0.088188
      4.22049      4.22049      7.50000        -0.000230     -0.000123     -0.424876
      6.33074      2.11025      7.50000         0.000096     -0.000198     -0.424266
      4.22040      2.10623     13.88554        -0.006870      0.050237     -0.104066
      6.33242      4.21947     13.88436        -0.031331      0.001664     -0.096031
      4.22056      4.21990     11.73288        -0.003842     -0.002293      0.003953
      6.33080      2.10908     11.73003        -0.000534      0.005313      0.000406
    total drift:                                0.002088      0.003027      0.098044

  FREE ENERGIE OF THE ION-ELECTRON SYSTEM (eV)
  free  energy   TOTEN  =      -467.78416872 eV

  energy  without entropy=     -467.78416872  energy(sigma->0) =     -467.78416872