 vasp.6.3.0 20Jan22 (build Dec 25 2023 18:06:01) complex
 executed on        HPECrayEX_GCC date 2024.01.24  04:43:05

 INCAR:
   SYSTEM = MgO-rocksalt
   ISMEAR = 0
   SIGMA = 0.05
   EDIFF = 1E-8
   ALGO = ALL
   ISTART = 0
   IBRION = 5
   POTIM = 0.01
   NFREE = 2
   ISYM = 0
   DIPOL = 0.5 0.5 0.5
   IDIPOL = 3
   LDIPOL = .TRUE.
   GGA = RE
   IVDW = 13
   VDW_S8 = 1.7468
   VDW_A1 = 0.5363
   VDW_A2 = 3.0726
   ENCUT = 600
   PREC = Accurate
   LASPH = .TRUE.
   LREAL = .FALSE.
   ISPIN = 1
   NELM = 200
   NELMIN = 8
   NCORE = 8
   KPAR = 1
   LWAVE = .FALSE.
   LCHARG = .FALSE.

 POTCAR:    PAW_PBE C 08Apr2002
 POTCAR:    PAW_PBE O 08Apr2002
 POTCAR:    PAW_PBE Ti_pv 07Sep2000
 POTCAR:    PAW_PBE O 08Apr2002
 POTCAR:    PAW_PBE C 08Apr2002
   VRHFIN =C: s2p2

   TITEL  = PAW_PBE C 08Apr2002
   POMASS =   12.011; ZVAL   =    4.000    mass and valenz
   ENMAX  =  400.000; ENMIN  =  300.000 eV

[...]

   TITEL  = PAW_PBE Ti_pv 07Sep2000
   POMASS =   47.880; ZVAL   =   10.000    mass and valenz
   ENMAX  =  222.335; ENMIN  =  166.751 eV

   TITEL  = PAW_PBE O 08Apr2002
   POMASS =   16.000; ZVAL   =    6.000    mass and valenz
   ENMAX  =  400.000; ENMIN  =  300.000 eV

  PAW_PBE C 08Apr2002                   :
  PAW_PBE O 08Apr2002                   :
  PAW_PBE Ti_pv 07Sep2000               :
  PAW_PBE O 08Apr2002                   :

 POSCAR:  C  O Ti  O
  positions in direct lattice
|           W    W    AA    RRRRR   N    N  II  N    N   GGGG   !!!           |
|           W    W   A  A   R    R  NN   N  II  NN   N  G    G  !!!           |
|           W    W  A    A  R    R  N N  N  II  N N  N  G       !!!           |
|           W WW W  AAAAAA  RRRRR   N  N N  II  N  N N  G  GGG   !            |
|           WW  WW  A    A  R   R   N   NN  II  N   NN  G    G                |
|           W    W  A    A  R    R  N    N  II  N    N   GGGG   !!!           |
|     Specifying the vdW parameters                                           |
|     VDW_S8 = 1.747                                                          |
|     VDW_A1 = 0.536                                                          |
|     VDW_A2 = 3.073                                                          |
|     in the INCAR file will overwrite the defaults for revpbe. Please        |
|     make sure that is what you intended.                                    |

 ion  position               nearest neighbor table
   1  0.500  0.610  0.803-   2 1.18   3 1.18
   2  0.500  0.709  0.808-   1 1.18
   3  0.500  0.512  0.796-   1 1.18
   4  0.750  0.625  0.287-  85 1.95 145 1.95 144 1.95  84 1.95  87 1.98 166 1.98  14 2.96  34 2.96

   5  0.000  0.750  0.287-  86 1.95  87 1.95 106 1.95 107 1.95  88 1.98  35 2.96  15 2.96
   6  0.000  0.625  0.394-  88 1.95 148 1.95  89 1.95 149 1.95  90 1.98  91 1.98  16 2.96  36 2.96

[...]

  83  0.500  0.499  0.709- 237 1.82 243 1.94 242 1.94 183 1.96 182 1.96  73 2.95  53 2.98
  84  0.750  0.750  0.245-   4 1.95  14 1.95
  85  0.750  0.750  0.329-   4 1.95  14 1.95   7 1.98
  86  0.098  0.625  0.287-   5 1.95  35 1.95  44 1.98
  87  0.902  0.625  0.287-   5 1.95  35 1.95   4 1.98
  88  0.000  0.750  0.352-   6 1.95  16 1.95   5 1.98
  89  0.000  0.750  0.435-   6 1.95  16 1.95   9 1.98
  90  0.848  0.625  0.394-   7 1.95  37 1.95   6 1.98
  91  0.152  0.625  0.394-  47 1.95  77 1.95   6 1.98
  92  0.750  0.750  0.458-   8 1.95  18 1.95   7 1.98
  93  0.750  0.750  0.542-   8 1.95  18 1.95  11 2.11
  94  0.098  0.625  0.500-   9 1.95  39 1.95  48 1.98
  95  0.902  0.625  0.500-   9 1.95  39 1.95   8 1.98
  96  1.000  0.750  0.565-  20 1.89  10 1.89   9 2.00
  97  0.000  0.750  0.649-  13 1.81  10 2.02  20 2.02
  98  0.850  0.625  0.607-  10 1.95  11 1.97  41 1.97
  99  0.150  0.625  0.607-  10 1.95  51 1.97  81 1.97
 100  0.750  0.750  0.672-  11 1.86  12 2.10  22 2.10
 101  0.749  0.750  0.756-  12 1.83  22 1.83
 102  0.094  0.625  0.719-  43 1.95  13 1.95  52 2.03
 103  0.906  0.625  0.719-  43 1.95  13 1.95  12 2.03
 104  0.750  0.000  0.245-  14 1.95  24 1.95
 105  0.750  0.000  0.329-  14 1.95  24 1.95  17 1.98
 106  0.098  0.875  0.287-   5 1.95  15 1.95  54 1.98
 107  0.902  0.875  0.287-   5 1.95  15 1.95  14 1.98
 108  0.000  0.000  0.352-  16 1.95  26 1.95  15 1.98
 109  0.000  0.000  0.435-  16 1.95  26 1.95  19 1.98
 110  0.848  0.875  0.394-   7 1.95  17 1.95  16 1.98
 111  0.152  0.875  0.394-  47 1.95  57 1.95  16 1.98
 112  0.750  0.000  0.458-  18 1.95  28 1.95  17 1.98
 113  0.750  0.000  0.542-  18 1.95  28 1.95  21 2.11
 114  0.098  0.875  0.500-   9 1.95  19 1.95  58 1.98
 115  0.902  0.875  0.500-   9 1.95  19 1.95  18 1.98
 116  1.000  0.000  0.565-  30 1.89  20 1.89  19 2.00
 117  1.000  1.000  0.649-  23 1.81  20 2.02  30 2.02
 118  0.850  0.875  0.607-  20 1.95  11 1.97  21 1.97
 119  0.150  0.875  0.607-  20 1.95  51 1.97  61 1.97
 120  0.750  0.000  0.672-  21 1.86  32 2.10  22 2.10
 121  0.750  1.000  0.756-  22 1.83  32 1.83
 122  0.094  0.875  0.719-  13 1.95  23 1.95  62 2.03
 123  0.906  0.875  0.719-  13 1.95  23 1.95  22 2.03
 124  0.750  0.250  0.245-  24 1.95  34 1.95
 125  0.750  0.250  0.329-  24 1.95  34 1.95  27 1.98
 126  0.098  0.125  0.287-  15 1.95  25 1.95  64 1.98
 127  0.902  0.125  0.287-  15 1.95  25 1.95  24 1.98
 128  0.000  0.250  0.352-  26 1.95  36 1.95  25 1.98
 129  0.000  0.250  0.435-  26 1.95  36 1.95  29 1.98
 130  0.848  0.125  0.394-  17 1.95  27 1.95  26 1.98
 131  0.152  0.125  0.394-  57 1.95  67 1.95  26 1.98
 132  0.750  0.250  0.458-  28 1.95  38 1.95  27 1.98
 133  0.750  0.250  0.542-  28 1.95  38 1.95  31 2.11
 134  0.098  0.125  0.500-  19 1.95  29 1.95  68 1.98
 135  0.902  0.125  0.500-  19 1.95  29 1.95  28 1.98
 136  1.000  0.250  0.565-  40 1.89  30 1.89  29 2.00
 137  1.000  0.250  0.649-  33 1.81  40 2.02  30 2.02
 138  0.850  0.125  0.607-  30 1.95  21 1.97  31 1.97
 139  0.150  0.125  0.607-  30 1.95  61 1.97  71 1.97
 140  0.750  0.250  0.672-  31 1.86  32 2.10  42 2.10
 141  0.750  0.250  0.756-  42 1.83  32 1.83
 142  0.094  0.125  0.719-  33 1.95  23 1.95  72 2.03
[...]
 229  0.500  0.500  0.435-  46 1.95  76 1.95  79 1.98
 230  0.348  0.375  0.394-  67 1.95  77 1.95  76 1.98
 231  0.652  0.375  0.394-  27 1.95  37 1.95  76 1.98
 232  0.250  0.500  0.458-  48 1.95  78 1.95  77 1.98
 233  0.250  0.500  0.542-  48 1.95  78 1.95  81 2.11
 234  0.598  0.375  0.500-  69 1.95  79 1.95  38 1.98
 235  0.402  0.375  0.500-  69 1.95  79 1.95  78 1.98
 236  0.500  0.500  0.565-  80 1.89  50 1.90  79 2.00
 237  0.500  0.500  0.649-  83 1.82  50 2.01  80 2.01
 238  0.350  0.375  0.607-  80 1.95  81 1.97  71 1.97
 239  0.650  0.375  0.607-  80 1.95  41 1.97  31 1.97
 240  0.249  0.500  0.672-  81 1.86  52 2.10  82 2.10
 241  0.251  0.500  0.756-  82 1.83  52 1.84
 242  0.594  0.374  0.718-  83 1.94  73 1.94  42 2.03
 243  0.406  0.374  0.718-  83 1.94  73 1.94  82 2.03

IMPORTANT INFORMATION: All symmetrisations will be switched off!
NOSYMM: (Re-)initialisation of all symmetry stuff for point group C_1.

                                     Primitive cell

  volume of cell :    4700.2961

  direct lattice vectors                    reciprocal lattice vectors
    13.003980404  0.000000000  0.000000000     0.076899531  0.000000000  0.000000000
     0.000000000 11.830378115  0.000000000     0.000000000  0.084528152  0.000000000
     0.000000000  0.000000000 30.552748813     0.000000000  0.000000000  0.032730279

  length of vectors
    13.003980404 11.830378115 30.552748813     0.076899531  0.084528152  0.032730279

  position of ions in fractional coordinates (direct lattice)
     0.499999660  0.610168759  0.802732442
     0.499999549  0.708561239  0.808141469
     0.499999786  0.511620407  0.796353529
     0.750000000  0.625000000  0.287188045
     0.000000000  0.750000000  0.287188045
     0.000000000  0.625000000  0.393594023
     0.750000000  0.750000000  0.393594023
     0.750000000  0.625000000  0.500000000
     0.000000000  0.750000000  0.500000000
     0.999999939  0.625012602  0.604131190
     0.750021775  0.750035515  0.610696778
     0.750003064  0.625099460  0.720187232
     0.000000016  0.750048202  0.708165271
     0.750000000  0.875000000  0.287188045
     0.000000000  0.000000000  0.287188045
     0.000000000  0.875000000  0.393594023
     0.750000000  0.000000000  0.393594023
     0.750000000  0.875000000  0.500000000
     0.000000000  0.000000000  0.500000000
     0.999999991  0.875008991  0.604144304
     0.749983712  0.000012875  0.610796716
     0.749876203  0.874991967  0.720525488
     0.999999989  0.999985733  0.708180187
     0.750000000  0.125000000  0.287188045
     0.000000000  0.250000000  0.287188045
     0.000000000  0.125000000  0.393594023
     0.750000000  0.250000000  0.393594023
     0.750000000  0.125000000  0.500000000
     0.000000000  0.250000000  0.500000000
     0.000000067  0.124986485  0.604150370
     0.750020773  0.249966864  0.610793409
     0.749936140  0.125009463  0.720500285
     0.000000014  0.249968494  0.708178592
     0.750000000  0.375000000  0.287188045
     0.000000000  0.500000000  0.287188045
     0.000000000  0.375000000  0.393594023
     0.750000000  0.500000000  0.393594023
     0.750000000  0.375000000  0.500000000
     0.000000000  0.500000000  0.500000000
     0.000000084  0.374994155  0.604134382
     0.750042567  0.499977077  0.610710241
     0.750059276  0.375070994  0.720471486
     0.999999993  0.500046918  0.708154109
     0.250000000  0.625000000  0.287188045
     0.500000000  0.750000000  0.287188045
     0.500000000  0.625000000  0.393594023
     0.250000000  0.750000000  0.393594023
     0.250000000  0.625000000  0.500000000
     0.500000000  0.750000000  0.500000000
     0.499999957  0.624723114  0.604426797
     0.249978087  0.750035507  0.610696776
     0.249996934  0.625099468  0.720187222
     0.500000013  0.750558309  0.708051210
     0.250000000  0.875000000  0.287188045
     0.500000000  0.000000000  0.287188045
     0.500000000  0.875000000  0.393594023
     0.250000000  0.000000000  0.393594023
     0.250000000  0.875000000  0.500000000
     0.500000000  0.000000000  0.500000000
     0.499999960  0.874829590  0.604010476
[...]
     0.500000000  0.500000000  0.435304973
     0.347999548  0.375000000  0.393594023
     0.652000452  0.375000000  0.393594023
     0.250000000  0.500000000  0.458289049
     0.250000000  0.500000000  0.541710951
     0.597999548  0.375000000  0.500000000
     0.402000452  0.375000000  0.500000000
     0.499999988  0.500009952  0.565445434
     0.500000010  0.499946207  0.649265036
     0.350114586  0.375000884  0.607233860
     0.649885401  0.375000880  0.607233846
     0.249478263  0.500033224  0.671624988
     0.251184731  0.500305644  0.755885903
     0.594380379  0.374260879  0.718008979
     0.405619619  0.374260885  0.718008977

  ion indices of the primitive-cell ions
   primitive index   ion index
                 1           1
                 2           2
                 3           3
                 4           4
                 5           5
                 6           6
                 7           7
                 8           8
                 9           9
[...]
      9.75326      2.95720     18.66142         0.000154      0.000240     -0.000793
      9.75215      1.47891     22.01326         0.000020     -0.000491     -0.001139
      0.00000      2.95722     21.63680        -0.000001      0.000846      0.000581
      9.75299      4.43639      8.77438        -0.000248     -0.000426     -3.375659
      0.00000      5.91519      8.77438         0.000000     -0.000081      2.809131
      0.00000      4.43639     12.02538        -0.000000     -0.000272      0.541908
      9.75299      5.91519     12.02538        -0.000742     -0.000405     -0.705334
      9.75299      4.43639     15.27637        -0.004939     -0.012948      0.709910
      0.00000      5.91519     15.27637        -0.000000     -0.002151     -0.762124
      0.00000      4.43632     18.45797         0.000001      0.000277      0.000922
      9.75354      5.91492     18.65888         0.000269      0.000419      0.000228
      9.75376      4.43723     22.01238         0.000017      0.003028      0.000964
     13.00398      5.91574     21.63605        -0.000001      0.000817      0.001257
      3.25100      7.39399      8.77438         0.000241      0.000049     -3.375740
      6.50199      8.87278      8.77438        -0.000000      0.000251      2.809993
      6.50199      7.39399     12.02538         0.000000      0.001952      0.543836
      3.25100      8.87278     12.02538         0.000885      0.000582     -0.705448
      3.25100      7.39399     15.27637         0.004977     -0.000508      0.701089
      6.50199      8.87278     15.27637         0.000000     -0.004046     -0.736080
      6.50199      7.39071     18.46690         0.000000     -0.000605      0.001502
      3.25071      8.87320     18.65847         0.000195      0.000006      0.000547
      3.25096      7.39516     22.00370         0.001448      0.000606     -0.000762
      6.50199      8.87939     21.63291        -0.000001     -0.006589     -0.005994
      3.25100     10.35158      8.77438         0.000290      0.000428     -3.375695
      6.50199      0.00000      8.77438        -0.000000      0.000119      2.810077
      6.50199     10.35158     12.02538         0.000000      0.001745      0.545584
      3.25100      0.00000     12.02538         0.001114      0.000383     -0.703541
      3.25100     10.35158     15.27637         0.003919      0.014295      0.709878
      6.50199      0.00000     15.27637        -0.000000      0.002326     -0.765559
      6.50199     10.34956     18.45418        -0.000000     -0.000433     -0.000308
[...]
      6.50199      5.91519     13.29976        -0.000000      0.000314     -0.106034
      4.52538      4.43639     12.02538         0.438947      0.000523      0.048712
      8.47860      4.43639     12.02538        -0.438947      0.000523      0.048711
      3.25100      5.91519     14.00199        -0.000963      0.002660     -0.115299
      3.25100      5.91519     16.55076         0.000689      0.001828      0.027755
      7.77637      4.43639     15.27637        -0.494886      0.007265      0.096531
      5.22761      4.43639     15.27637         0.494886      0.007265      0.096530
      6.50199      5.91531     17.27591        -0.000000     -0.000786     -0.000084
      6.50199      5.91455     19.83683        -0.000000     -0.000314     -0.004119
      4.55288      4.43640     18.55266        -0.000581      0.000288     -0.001439
      8.45110      4.43640     18.55266         0.000580      0.000287     -0.001439
      3.24421      5.91558     20.51999        -0.001262     -0.000587     -0.001063
      3.26640      5.91880     23.09439         0.000820     -0.001337     -0.000844
      7.72931      4.42765     21.93715         0.001734     -0.003334     -0.005166
      5.27467      4.42765     21.93715        -0.001735     -0.003335     -0.005165
    total drift:                               -0.000001      0.001392     -0.041028

  FREE ENERGIE OF THE ION-ELECTRON SYSTEM (eV)
  free  energy   TOTEN  =     -2148.76030923 eV

  energy  without entropy=    -2148.76030923  energy(sigma->0) =    -2148.76030923

 d Force =-0.9503173E-04[-0.134E-02, 0.115E-02]  d Energy =-0.7409330E-04-0.209E-04
 d Force =-0.4818862E+02[-0.482E+02,-0.482E+02]  d Ewald  =-0.4818845E+02-0.176E-03

 Finite differences progress:
  Degree of freedom:   9/  9
  Displacement:        2/  2
  Total:              18/ 18

 SECOND DERIVATIVES (NOT SYMMETRIZED)
               1X          1Y          1Z          2X          2Y          2Z          3X          3Y          3Z
  1X   -11.581269    0.000064   -0.002931    5.932112   -0.001465   -0.003547    5.822408    0.001264   -0.003072
  1Y     0.001257 -172.057111  -25.216536   -0.005338   87.509865   12.134111   -0.006038   83.247018   12.305255
  1Z     0.000146  -25.181681  -16.421060    0.000184   11.514792    7.670559   -0.000249   13.411285    8.219759
  2X     5.934891   -0.002313   -0.007785   -3.214306   -0.001573   -0.004194   -2.852670    0.000480   -0.002158
  2Y     0.001536   87.499763   11.527638    0.007410  -93.522690  -13.343333   -0.000924    6.339447    2.203928
  2Z     0.000107   12.096554    7.679255    0.000192  -13.311715   -5.165973   -0.000082    0.871928   -2.721509
  3X     5.813631    0.002167   -0.003135   -2.847882   -0.001779   -0.001957   -3.466614    0.001271   -0.000920
  3Y    -0.000630   83.237628   13.428572   -0.001258    6.333805    0.871099    0.002012  -89.540669  -13.925982
  3Z    -0.000029   12.265643    8.220090    0.000009    2.210943   -2.722754    0.000007  -13.897464   -6.236052

 Eigenvectors and eigenvalues of the dynamical matrix

   1 f  =   70.051805 THz   440.148474 2PiTHz 2336.676706 cm-1   289.710858 meV
             X         Y         Z           dx          dy          dz
      6.501986  7.218527 24.525683    -0.000002    0.843758    0.132869
      6.501984  8.382547 24.690943     0.000016   -0.374922   -0.056364
      6.501987  6.052663 24.330789     0.000007   -0.351581   -0.055366
      9.752985  7.393986  8.774384            0           0           0
      0.000000  8.872784  8.774384            0           0           0
      0.000000  7.393986 12.025379            0           0           0
      9.752985  8.872784 12.025379            0           0           0
      9.752985  7.393986 15.276374            0           0           0
      0.000000  8.872784 15.276374            0           0           0
     13.003980  7.394135 18.457868            0           0           0
      9.753268  8.873204 18.658465            0           0           0
      9.753025  7.395163 22.003700            0           0           0
      0.000000  8.873354 21.636396            0           0           0
      9.752985 10.351581  8.774384            0           0           0
      0.000000  0.000000  8.774384            0           0           0
      0.000000 10.351581 12.025379            0           0           0
      9.752985  0.000000 12.025379            0           0           0
      9.752985 10.351581 15.276374            0           0           0
      0.000000  0.000000 15.276374            0           0           0
     13.003980 10.351687 18.458269            0           0           0
      9.752773  0.000152 18.661519            0           0           0
      9.751375 10.351486 22.014034            0           0           0
     13.003980 11.830209 21.636851            0           0           0
      9.752985  1.478797  8.774384            0           0           0
      0.000000  2.957595  8.774384            0           0           0
      0.000000  1.478797 12.025379            0           0           0
      9.752985  2.957595 12.025379            0           0           0
      9.752985  1.478797 15.276374            0           0           0
      0.000000  2.957595 15.276374            0           0           0
      0.000001  1.478637 18.458454            0           0           0
      9.753255  2.957203 18.661418            0           0           0
      9.752155  1.478909 22.013264            0           0           0
      0.000000  2.957222 21.636803            0           0           0
      9.752985  4.436392  8.774384            0           0           0
      0.000000  5.915189  8.774384            0           0           0
      0.000000  4.436392 12.025379            0           0           0
      9.752985  5.915189 12.025379            0           0           0
      9.752985  4.436392 15.276374            0           0           0
      0.000000  5.915189 15.276374            0           0           0
      0.000001  4.436323 18.457966            0           0           0
      9.753539  5.914918 18.658877            0           0           0
      9.753756  4.437232 22.012384            0           0           0
     13.003980  5.915744 21.636055            0           0           0
      3.250995  7.393986  8.774384            0           0           0
      6.501990  8.872784  8.774384            0           0           0
      6.501990  7.393986 12.025379            0           0           0
      3.250995  8.872784 12.025379            0           0           0
      3.250995  7.393986 15.276374            0           0           0
      6.501990  8.872784 15.276374            0           0           0
      6.501990  7.390711 18.466900            0           0           0
      3.250710  8.873204 18.658465            0           0           0
      3.250955  7.395163 22.003699            0           0           0
      6.501990  8.879389 21.632911            0           0           0
      3.250995 10.351581  8.774384            0           0           0
      6.501990  0.000000  8.774384            0           0           0
      6.501990 10.351581 12.025379            0           0           0
      3.250995  0.000000 12.025379            0           0           0
      3.250995 10.351581 15.276374            0           0           0
      6.501990  0.000000 15.276374            0           0           0
      6.501990 10.349565 18.454180            0           0           0
[...]
      6.501990  5.915189 13.299764            0           0           0
      4.525379  4.436392 12.025379            0           0           0
      8.478601  4.436392 12.025379            0           0           0
      3.250995  5.915189 14.001990            0           0           0
      3.250995  5.915189 16.550759            0           0           0
      7.776374  4.436392 15.276374            0           0           0
      5.227606  4.436392 15.276374            0           0           0
      6.501990  5.915307 17.275912            0           0           0
      6.501990  5.914553 19.836832            0           0           0
      4.552883  4.436402 18.552664            0           0           0
      8.451097  4.436402 18.552663            0           0           0
      3.244210  5.915582 20.519990            0           0           0
      3.266401  5.918805 23.094392            0           0           0
      7.729311  4.427648 21.937148            0           0           0
      5.274670  4.427648 21.937148            0           0           0

[...]

   9 f  =    0.482831 THz     3.033714 2PiTHz   16.105496 cm-1     1.996826 meV
             X         Y         Z           dx          dy          dz
      6.501986  7.218527 24.525683     0.008913    0.390672   -0.133692
      6.501984  8.382547 24.690943     0.015254    0.518672   -0.584775
      6.501987  6.052663 24.330789     0.004686    0.386352    0.262521
      9.752985  7.393986  8.774384            0           0           0
      0.000000  8.872784  8.774384            0           0           0
      0.000000  7.393986 12.025379            0           0           0
      9.752985  8.872784 12.025379            0           0           0
      9.752985  7.393986 15.276374            0           0           0
      0.000000  8.872784 15.276374            0           0           0
     13.003980  7.394135 18.457868            0           0           0
      9.753268  8.873204 18.658465            0           0           0
      9.753025  7.395163 22.003700            0           0           0
      0.000000  8.873354 21.636396            0           0           0
      9.752985 10.351581  8.774384            0           0           0
      0.000000  0.000000  8.774384            0           0           0
      0.000000 10.351581 12.025379            0           0           0
      9.752985  0.000000 12.025379            0           0           0
      9.752985 10.351581 15.276374            0           0           0
      0.000000  0.000000 15.276374            0           0           0
     13.003980 10.351687 18.458269            0           0           0
      9.752773  0.000152 18.661519            0           0           0
      9.751375 10.351486 22.014034            0           0           0
     13.003980 11.830209 21.636851            0           0           0
      9.752985  1.478797  8.774384            0           0           0
      0.000000  2.957595  8.774384            0           0           0
      0.000000  1.478797 12.025379            0           0           0
      9.752985  2.957595 12.025379            0           0           0
      9.752985  1.478797 15.276374            0           0           0
      0.000000  2.957595 15.276374            0           0           0
      0.000001  1.478637 18.458454            0           0           0
      9.753255  2.957203 18.661418            0           0           0
      9.752155  1.478909 22.013264            0           0           0
      0.000000  2.957222 21.636803            0           0           0
      9.752985  4.436392  8.774384            0           0           0
      0.000000  5.915189  8.774384            0           0           0
      0.000000  4.436392 12.025379            0           0           0
      9.752985  5.915189 12.025379            0           0           0
      9.752985  4.436392 15.276374            0           0           0
      0.000000  5.915189 15.276374            0           0           0
      0.000001  4.436323 18.457966            0           0           0
      9.753539  5.914918 18.658877            0           0           0
      9.753756  4.437232 22.012384            0           0           0
     13.003980  5.915744 21.636055            0           0           0
      3.250995  7.393986  8.774384            0           0           0
      6.501990  8.872784  8.774384            0           0           0
      6.501990  7.393986 12.025379            0           0           0
      3.250995  8.872784 12.025379            0           0           0
      3.250995  7.393986 15.276374            0           0           0
      6.501990  8.872784 15.276374            0           0           0
      6.501990  7.390711 18.466900            0           0           0
      3.250710  8.873204 18.658465            0           0           0
      3.250955  7.395163 22.003699            0           0           0
      6.501990  8.879389 21.632911            0           0           0
      3.250995 10.351581  8.774384            0           0           0
      6.501990  0.000000  8.774384            0           0           0
      6.501990 10.351581 12.025379            0           0           0
      3.250995  0.000000 12.025379            0           0           0
      3.250995 10.351581 15.276374            0           0           0
      6.501990  0.000000 15.276374            0           0           0
      6.501990 10.349565 18.454180            0           0           0
[...]
      6.501990  5.915189 13.299764            0           0           0
      4.525379  4.436392 12.025379            0           0           0
      8.478601  4.436392 12.025379            0           0           0
      3.250995  5.915189 14.001990            0           0           0
      3.250995  5.915189 16.550759            0           0           0
      7.776374  4.436392 15.276374            0           0           0
      5.227606  4.436392 15.276374            0           0           0
      6.501990  5.915307 17.275912            0           0           0
      6.501990  5.914553 19.836832            0           0           0
      4.552883  4.436402 18.552664            0           0           0
      8.451097  4.436402 18.552663            0           0           0
      3.244210  5.915582 20.519990            0           0           0
      3.266401  5.918805 23.094392            0           0           0
      7.729311  4.427648 21.937148            0           0           0
      5.274670  4.427648 21.937148            0           0           0

 Finite differences POTIM=   1.0000000000000000E-002