 vasp.6.3.0 20Jan22 (build Dec 25 2023 18:06:01) complex
 executed on        HPECrayEX_GCC date 2024.01.24  05:53:27

 INCAR:
   SYSTEM = MgO-rocksalt
   ISMEAR = 0
   SIGMA = 0.05
   EDIFF = 1E-8
   ALGO = ALL
   ISTART = 0
   IBRION = 5
   POTIM = 0.01
   NFREE = 2
   ISYM = 0
   DIPOL = 0.5 0.5 0.5
   IDIPOL = 3
   LDIPOL = .TRUE.
   GGA = PE
   IVDW = 21
   LDAU = .TRUE.
   LDAUTYPE = 2
   LDAUL = -1 -1 2 -1
   LDAUU = 0.0 0.0 4.2 0.0
   LDAUPRINT = 1
   LMAXMIX = 4
   ENCUT = 600
   PREC = Accurate
   LASPH = .TRUE.
   LREAL = .FALSE.
   ISPIN = 1
   NELM = 200
   NELMIN = 8
   NCORE = 8
   KPAR = 1
   LWAVE = .FALSE.
   LCHARG = .FALSE.

 POTCAR:    PAW_PBE C 08Apr2002
 POTCAR:    PAW_PBE O 08Apr2002
 POTCAR:    PAW_PBE Ti_pv 07Sep2000
 POTCAR:    PAW_PBE O 08Apr2002
 POTCAR:    PAW_PBE C 08Apr2002
   VRHFIN =C: s2p2

   TITEL  = PAW_PBE C 08Apr2002
   POMASS =   12.011; ZVAL   =    4.000    mass and valenz
   ENMAX  =  400.000; ENMIN  =  300.000 eV

[...]

   TITEL  = PAW_PBE Ti_pv 07Sep2000
   POMASS =   47.880; ZVAL   =   10.000    mass and valenz
   ENMAX  =  222.335; ENMIN  =  166.751 eV

   TITEL  = PAW_PBE O 08Apr2002
   POMASS =   16.000; ZVAL   =    6.000    mass and valenz
   ENMAX  =  400.000; ENMIN  =  300.000 eV

  PAW_PBE C 08Apr2002                   :
  PAW_PBE O 08Apr2002                   :
  PAW_PBE Ti_pv 07Sep2000               :
  PAW_PBE O 08Apr2002                   :

 POSCAR:  C  O Ti  O
  positions in direct lattice
 exchange correlation table for  LEXCH =        8
   RHO(1)=    0.500       N(1)  =     2000
   RHO(2)=  100.500       N(2)  =     4000

 ion  position               nearest neighbor table
   1  0.422  0.500  0.818-   2 1.17   3 1.19
   2  0.365  0.500  0.847-   1 1.17
   3  0.484  0.500  0.790-   1 1.19  83 2.40
   4  0.750  0.625  0.286-  84 1.98  85 1.98 144 1.98 145 1.98 166 2.00  87 2.00  14 3.03  34 3.03

   5  0.000  0.750  0.286-  86 1.98  87 1.98 106 1.98 107 1.98  88 2.00  35 3.03  15 3.03
   6  0.000  0.625  0.393-  89 1.98 149 1.98 148 1.98  88 1.98  90 2.00  91 2.00  16 3.03  36 3.03

[...]

  84  0.750  0.750  0.244-   4 1.98  14 1.98
  85  0.750  0.750  0.328-   4 1.98  14 1.98   7 2.00
  86  0.098  0.625  0.286-   5 1.98  35 1.98  44 2.00
  87  0.902  0.625  0.286-   5 1.98  35 1.98   4 2.00
  88  0.000  0.750  0.351-   6 1.98  16 1.98   5 2.00
  89  0.000  0.750  0.435-   6 1.98  16 1.98   9 2.00
  90  0.848  0.625  0.393-   7 1.98  37 1.98   6 2.00
  91  0.152  0.625  0.393-  47 1.98  77 1.98   6 2.00
  92  0.750  0.750  0.458-   8 1.98  18 1.98   7 2.00
  93  0.750  0.750  0.542-   8 1.98  18 1.98  11 2.09
  94  0.098  0.625  0.500-   9 1.98  39 1.98  48 2.00
  95  0.902  0.625  0.500-   9 1.98  39 1.98   8 2.00
  96  1.000  0.750  0.565-  20 1.94  10 1.94   9 2.01
  97  0.000  0.750  0.649-  13 1.86  10 2.03  20 2.03
  98  0.850  0.625  0.607-  10 1.98  11 2.00  41 2.00
  99  0.150  0.625  0.607-  10 1.98  51 2.00  81 2.00
 100  0.750  0.750  0.672-  11 1.92  22 2.11  12 2.11
 101  0.750  0.750  0.756-  12 1.87  22 1.88
 102  0.093  0.625  0.720-  43 1.97  13 1.97  52 2.06
 103  0.907  0.625  0.719-  43 1.97  13 1.97  12 2.06
 104  0.750  0.000  0.244-  14 1.98  24 1.98
 105  0.750  0.000  0.328-  14 1.98  24 1.98  17 2.00
 106  0.098  0.875  0.286-   5 1.98  15 1.98  54 2.00
 107  0.902  0.875  0.286-   5 1.98  15 1.98  14 2.00
 108  0.000  0.000  0.351-  16 1.98  26 1.98  15 2.00
 109  0.000  0.000  0.435-  16 1.98  26 1.98  19 2.00
 110  0.848  0.875  0.393-   7 1.98  17 1.98  16 2.00
 111  0.152  0.875  0.393-  47 1.98  57 1.98  16 2.00
 112  0.750  0.000  0.458-  18 1.98  28 1.98  17 2.00
 113  0.750  0.000  0.542-  18 1.98  28 1.98  21 2.09
 114  0.098  0.875  0.500-   9 1.98  19 1.98  58 2.00
 115  0.902  0.875  0.500-   9 1.98  19 1.98  18 2.00
 116  1.000  0.000  0.565-  20 1.94  30 1.94  19 2.01
 117  0.000  1.000  0.649-  23 1.86  20 2.03  30 2.03
 118  0.850  0.875  0.607-  20 1.98  21 2.00  11 2.00
 119  0.150  0.875  0.607-  20 1.98  61 2.00  51 2.00
 120  0.750  1.000  0.672-  21 1.92  32 2.11  22 2.11
 121  0.750  1.000  0.756-  22 1.87  32 1.87
 122  0.093  0.875  0.720-  13 1.97  23 1.97  62 2.06
 123  0.907  0.875  0.719-  13 1.97  23 1.97  22 2.06
 124  0.750  0.250  0.244-  24 1.98  34 1.98
 125  0.750  0.250  0.328-  24 1.98  34 1.98  27 2.00
 126  0.098  0.125  0.286-  15 1.98  25 1.98  64 2.00
 127  0.902  0.125  0.286-  15 1.98  25 1.98  24 2.00
 128  0.000  0.250  0.351-  26 1.98  36 1.98  25 2.00
 129  0.000  0.250  0.435-  26 1.98  36 1.98  29 2.00
 130  0.848  0.125  0.393-  17 1.98  27 1.98  26 2.00
 131  0.152  0.125  0.393-  57 1.98  67 1.98  26 2.00
 132  0.750  0.250  0.458-  28 1.98  38 1.98  27 2.00
 133  0.750  0.250  0.542-  28 1.98  38 1.98  31 2.09
 134  0.098  0.125  0.500-  19 1.98  29 1.98  68 2.00
 135  0.902  0.125  0.500-  19 1.98  29 1.98  28 2.00
 136  1.000  0.250  0.565-  30 1.94  40 1.94  29 2.01
 137  0.000  0.250  0.649-  33 1.86  40 2.03  30 2.03
 138  0.850  0.125  0.607-  30 1.98  21 2.00  31 2.00
 139  0.150  0.125  0.607-  30 1.98  61 2.00  71 2.00
 140  0.750  0.250  0.672-  31 1.92  32 2.11  42 2.11
 141  0.750  0.250  0.756-  42 1.87  32 1.88
 142  0.093  0.125  0.720-  33 1.97  23 1.97  72 2.06
 143  0.907  0.125  0.719-  33 1.97  23 1.97  32 2.06
[...]
 229  0.500  0.500  0.435-  46 1.98  76 1.98  79 2.00
 230  0.348  0.375  0.393-  67 1.98  77 1.98  76 2.00
 231  0.652  0.375  0.393-  27 1.98  37 1.98  76 2.00
 232  0.250  0.500  0.458-  48 1.98  78 1.98  77 2.00
 233  0.250  0.500  0.542-  48 1.98  78 1.98  81 2.09
 234  0.598  0.375  0.500-  69 1.98  79 1.98  38 2.00
 235  0.402  0.375  0.500-  69 1.98  79 1.98  78 2.00
 236  0.500  0.500  0.566-  80 1.94  50 1.94  79 2.01
 237  0.500  0.500  0.650-  83 1.90  50 2.02  80 2.02
 238  0.349  0.375  0.608-  80 1.98  71 2.00  81 2.00
 239  0.651  0.375  0.607-  80 1.98  41 2.00  31 2.00
 240  0.248  0.500  0.672-  81 1.92  52 2.10  82 2.10
 241  0.254  0.500  0.756-  52 1.89  82 1.89
 242  0.593  0.374  0.719-  73 1.96  83 1.97  42 2.06
 243  0.406  0.373  0.717-  73 1.96  83 1.98  82 2.05

IMPORTANT INFORMATION: All symmetrisations will be switched off!
NOSYMM: (Re-)initialisation of all symmetry stuff for point group C_1.

                                     Primitive cell

  volume of cell :    4886.2662

  direct lattice vectors                    reciprocal lattice vectors
    13.143747607  0.000000000  0.000000000     0.076081802  0.000000000  0.000000000
     0.000000000 12.104894358  0.000000000     0.000000000  0.082611212  0.000000000
     0.000000000  0.000000000 30.711208800     0.000000000  0.000000000  0.032561401

  length of vectors
    13.143747607 12.104894358 30.711208800     0.076081802  0.082611212  0.032561401

  position of ions in fractional coordinates (direct lattice)
     0.422122536  0.499999959  0.817805128
     0.365183970  0.499999901  0.846899480
     0.484267978  0.500000019  0.789847904
     0.750000000  0.625000000  0.286010579
     0.000000000  0.750000000  0.286010579
     0.000000000  0.625000000  0.393005289
     0.750000000  0.750000000  0.393005289
     0.750000000  0.625000000  0.500000000
     0.000000000  0.750000000  0.500000000
     0.999940488  0.625024783  0.605090832
     0.749989355  0.749989648  0.609836362
     0.749764582  0.625060347  0.720023896
     0.000062835  0.750037314  0.709774230
     0.750000000  0.875000000  0.286010579
     0.000000000  0.000000000  0.286010579
     0.000000000  0.875000000  0.393005289
     0.750000000  0.000000000  0.393005289
     0.750000000  0.875000000  0.500000000
     0.000000000  0.000000000  0.500000000
     0.999995705  0.875022930  0.605140200
     0.750055004  0.999999991  0.609841149
     0.749975721  0.875051955  0.720051213
     0.000112120  0.999999994  0.709786666
     0.750000000  0.125000000  0.286010579
     0.000000000  0.250000000  0.286010579
     0.000000000  0.125000000  0.393005289
     0.750000000  0.250000000  0.393005289
     0.750000000  0.125000000  0.500000000
     0.000000000  0.250000000  0.500000000
     0.999995687  0.124977077  0.605140202
     0.749989331  0.250010338  0.609836362
     0.749975725  0.124948024  0.720051211
     0.000062837  0.249962676  0.709774230
     0.750000000  0.375000000  0.286010579
     0.000000000  0.500000000  0.286010579
     0.000000000  0.375000000  0.393005289
     0.750000000  0.500000000  0.393005289
     0.750000000  0.375000000  0.500000000
     0.000000000  0.500000000  0.500000000
     0.999940482  0.374975228  0.605090830
     0.750017718  0.499999991  0.609904982
     0.749764588  0.374939633  0.720023897
     0.999596473  0.499999995  0.709738705
     0.250000000  0.625000000  0.286010579
     0.500000000  0.750000000  0.286010579
     0.500000000  0.625000000  0.393005289
     0.250000000  0.750000000  0.393005289
     0.250000000  0.625000000  0.500000000
     0.500000000  0.750000000  0.500000000
     0.500024655  0.624148824  0.605729616
     0.249914255  0.750037932  0.609705728
     0.249627772  0.625375174  0.719497890
     0.500298739  0.750308299  0.709190758
     0.250000000  0.875000000  0.286010579
     0.500000000  0.000000000  0.286010579
     0.500000000  0.875000000  0.393005289
     0.250000000  0.000000000  0.393005289
     0.250000000  0.875000000  0.500000000
     0.500000000  0.000000000  0.500000000
     0.500095179  0.874709344  0.604718731
[...]
     0.500000000  0.500000000  0.434805357
     0.347668537  0.375000000  0.393005289
     0.652331463  0.375000000  0.393005289
     0.250000000  0.500000000  0.458199933
     0.250000000  0.500000000  0.541800067
     0.597668537  0.375000000  0.500000000
     0.402331463  0.375000000  0.500000000
     0.499892536  0.500000012  0.565598994
     0.500286247  0.499999992  0.649856876
     0.349347762  0.375021319  0.607543282
     0.650613770  0.375056610  0.607397406
     0.247970785  0.499999999  0.672135210
     0.253701449  0.500000003  0.755880908
     0.593293172  0.374110485  0.718836949
     0.405624262  0.372989207  0.717444230

  ion indices of the primitive-cell ions
   primitive index   ion index
                 1           1
                 2           2
                 3           3
                 4           4
                 5           5
                 6           6
                 7           7
                 8           8
                 9           9
                10          10
                11          11
                12          12
                13          13
                14          14
                15          15
                16          16
                17          17
                18          18
                19          19
                20          20
                21          21
                22          22
                23          23
                24          24
                25          25
                26          26
                27          27
                28          28
                29          29
                30          30
                31          31
                32          32
                33          33
                34          34
                35          35
[...]

 Eigenvectors and eigenvalues of the dynamical matrix

   1 f  =   71.085680 THz   446.644499 2PiTHz 2371.163047 cm-1   293.986617 meV
             X         Y         Z           dx          dy          dz
      5.548272  6.052447 25.115784    -0.559003   -0.000019    0.645529
      4.799886  6.052446 26.009307     0.255232   -0.000002   -0.305733
      6.365096  6.052447 24.257184     0.225966   -0.000013   -0.247248
      9.857811  7.565559  8.783731            0           0           0
      0.000000  9.078671  8.783731            0           0           0
      0.000000  7.565559 12.069667            0           0           0
      9.857811  9.078671 12.069667            0           0           0
      9.857811  7.565559 15.355604            0           0           0
      0.000000  9.078671 15.355604            0           0           0
     13.142965  7.565859 18.583071            0           0           0
      9.857671  9.078545 18.728812            0           0           0
      9.854716  7.566289 22.112804            0           0           0
      0.000826  9.079122 21.798025            0           0           0
      9.857811 10.591783  8.783731            0           0           0
      0.000000  0.000000  8.783731            0           0           0
      0.000000 10.591783 12.069667            0           0           0
      9.857811  0.000000 12.069667            0           0           0
      9.857811 10.591783 15.355604            0           0           0
      0.000000  0.000000 15.355604            0           0           0
     13.143691 10.592060 18.584587            0           0           0
      9.858534 12.104894 18.728959            0           0           0
      9.857492 10.592411 22.113643            0           0           0
      0.001474 12.104894 21.798407            0           0           0
      9.857811  1.513112  8.783731            0           0           0
      0.000000  3.026224  8.783731            0           0           0
      0.000000  1.513112 12.069667            0           0           0
      9.857811  3.026224 12.069667            0           0           0
      9.857811  1.513112 15.355604            0           0           0
      0.000000  3.026224 15.355604            0           0           0
     13.143691  1.512834 18.584587            0           0           0
      9.857670  3.026349 18.728812            0           0           0
      9.857492  1.512483 22.113643            0           0           0
      0.000826  3.025772 21.798025            0           0           0
      9.857811  4.539335  8.783731            0           0           0
      0.000000  6.052447  8.783731            0           0           0
      0.000000  4.539335 12.069667            0           0           0
      9.857811  6.052447 12.069667            0           0           0
      9.857811  4.539335 15.355604            0           0           0
      0.000000  6.052447 15.355604            0           0           0
     13.142965  4.539036 18.583071            0           0           0
      9.858044  6.052447 18.730919            0           0           0
      9.854717  4.538605 22.112804            0           0           0
     13.138444  6.052447 21.796934            0           0           0
      3.285937  7.565559  8.783731            0           0           0
      6.571874  9.078671  8.783731            0           0           0
      6.571874  7.565559 12.069667            0           0           0
      3.285937  9.078671 12.069667            0           0           0
      3.285937  7.565559 15.355604            0           0           0
      6.571874  9.078671 15.355604            0           0           0
      6.572198  7.555256 18.602689            0           0           0
      3.284810  9.079130 18.724800            0           0           0
      3.281044  7.570100 22.096650            0           0           0
      6.575800  9.082403 21.780105            0           0           0
      3.285937 10.591783  8.783731            0           0           0
      6.571874  0.000000  8.783731            0           0           0
      6.571874 10.591783 12.069667            0           0           0
      3.285937  0.000000 12.069667            0           0           0
      3.285937 10.591783 15.355604            0           0           0
      6.571874  0.000000 15.355604            0           0           0
      6.573125 10.588264 18.571643            0           0           0
[...]
      6.571874  6.052447 13.353398            0           0           0
      4.569667  4.539335 12.069667            0           0           0
      8.574080  4.539335 12.069667            0           0           0
      3.285937  6.052447 14.071874            0           0           0
      3.285937  6.052447 16.639335            0           0           0
      7.855604  4.539335 15.355604            0           0           0
      5.288143  4.539335 15.355604            0           0           0
      6.570461  6.052447 17.370229            0           0           0
      6.575636  6.052447 19.957890            0           0           0
      4.591739  4.539593 18.658389            0           0           0
      8.551503  4.540021 18.653909            0           0           0
      3.259265  6.052447 20.642085            0           0           0
      3.334588  6.052447 23.214016            0           0           0
      7.798096  4.528568 22.076352            0           0           0
      5.331423  4.514995 22.033580            0           0           0

[...]

   8 f  =    1.493157 THz     9.381783 2PiTHz   49.806362 cm-1     6.175199 meV
             X         Y         Z           dx          dy          dz
      5.548272  6.052447 25.115784    -0.465132   -0.001593   -0.138944
      4.799886  6.052446 26.009307    -0.744948   -0.008116   -0.334081
      6.365096  6.052447 24.257184    -0.308360    0.004418    0.051138
      9.857811  7.565559  8.783731            0           0           0
      0.000000  9.078671  8.783731            0           0           0
      0.000000  7.565559 12.069667            0           0           0
      9.857811  9.078671 12.069667            0           0           0
      9.857811  7.565559 15.355604            0           0           0
      0.000000  9.078671 15.355604            0           0           0
     13.142965  7.565859 18.583071            0           0           0
      9.857671  9.078545 18.728812            0           0           0
      9.854716  7.566289 22.112804            0           0           0
      0.000826  9.079122 21.798025            0           0           0
      9.857811 10.591783  8.783731            0           0           0
      0.000000  0.000000  8.783731            0           0           0
      0.000000 10.591783 12.069667            0           0           0
      9.857811  0.000000 12.069667            0           0           0
      9.857811 10.591783 15.355604            0           0           0
      0.000000  0.000000 15.355604            0           0           0
     13.143691 10.592060 18.584587            0           0           0
      9.858534 12.104894 18.728959            0           0           0
      9.857492 10.592411 22.113643            0           0           0
      0.001474 12.104894 21.798407            0           0           0
      9.857811  1.513112  8.783731            0           0           0
      0.000000  3.026224  8.783731            0           0           0
      0.000000  1.513112 12.069667            0           0           0
      9.857811  3.026224 12.069667            0           0           0
      9.857811  1.513112 15.355604            0           0           0
      0.000000  3.026224 15.355604            0           0           0
     13.143691  1.512834 18.584587            0           0           0
      9.857670  3.026349 18.728812            0           0           0
      9.857492  1.512483 22.113643            0           0           0
      0.000826  3.025772 21.798025            0           0           0
      9.857811  4.539335  8.783731            0           0           0
      0.000000  6.052447  8.783731            0           0           0
      0.000000  4.539335 12.069667            0           0           0
      9.857811  6.052447 12.069667            0           0           0
      9.857811  4.539335 15.355604            0           0           0
      0.000000  6.052447 15.355604            0           0           0
     13.142965  4.539036 18.583071            0           0           0
      9.858044  6.052447 18.730919            0           0           0
      9.854717  4.538605 22.112804            0           0           0
     13.138444  6.052447 21.796934            0           0           0
      3.285937  7.565559  8.783731            0           0           0
      6.571874  9.078671  8.783731            0           0           0
      6.571874  7.565559 12.069667            0           0           0
      3.285937  9.078671 12.069667            0           0           0
      3.285937  7.565559 15.355604            0           0           0
      6.571874  9.078671 15.355604            0           0           0
      6.572198  7.555256 18.602689            0           0           0
      3.284810  9.079130 18.724800            0           0           0
      3.281044  7.570100 22.096650            0           0           0
      6.575800  9.082403 21.780105            0           0           0
      3.285937 10.591783  8.783731            0           0           0
      6.571874  0.000000  8.783731            0           0           0
      6.571874 10.591783 12.069667            0           0           0
      3.285937  0.000000 12.069667            0           0           0
      3.285937 10.591783 15.355604            0           0           0
      6.571874  0.000000 15.355604            0           0           0
      6.573125 10.588264 18.571643            0           0           0
[...]
      6.571874  6.052447 13.353398            0           0           0
      4.569667  4.539335 12.069667            0           0           0
      8.574080  4.539335 12.069667            0           0           0
      3.285937  6.052447 14.071874            0           0           0
      3.285937  6.052447 16.639335            0           0           0
      7.855604  4.539335 15.355604            0           0           0
      5.288143  4.539335 15.355604            0           0           0
      6.570461  6.052447 17.370229            0           0           0
      6.575636  6.052447 19.957890            0           0           0
      4.591739  4.539593 18.658389            0           0           0
      8.551503  4.540021 18.653909            0           0           0
      3.259265  6.052447 20.642085            0           0           0
      3.334588  6.052447 23.214016            0           0           0
      7.798096  4.528568 22.076352            0           0           0
      5.331423  4.514995 22.033580            0           0           0

   9 f/i=    0.545602 THz     3.428119 2PiTHz   18.199328 cm-1     2.256428 meV
             X         Y         Z           dx          dy          dz
      5.548272  6.052447 25.115784    -0.003790    0.386462   -0.002722
      4.799886  6.052446 26.009307    -0.005331    0.921724   -0.003990
      6.365096  6.052447 24.257184    -0.002854   -0.031531   -0.001753
      9.857811  7.565559  8.783731            0           0           0
      0.000000  9.078671  8.783731            0           0           0
      0.000000  7.565559 12.069667            0           0           0
      9.857811  9.078671 12.069667            0           0           0
      9.857811  7.565559 15.355604            0           0           0
      0.000000  9.078671 15.355604            0           0           0
     13.142965  7.565859 18.583071            0           0           0
      9.857671  9.078545 18.728812            0           0           0
      9.854716  7.566289 22.112804            0           0           0
      0.000826  9.079122 21.798025            0           0           0
      9.857811 10.591783  8.783731            0           0           0
      0.000000  0.000000  8.783731            0           0           0
      0.000000 10.591783 12.069667            0           0           0
      9.857811  0.000000 12.069667            0           0           0
      9.857811 10.591783 15.355604            0           0           0
      0.000000  0.000000 15.355604            0           0           0
     13.143691 10.592060 18.584587            0           0           0
      9.858534 12.104894 18.728959            0           0           0
      9.857492 10.592411 22.113643            0           0           0
      0.001474 12.104894 21.798407            0           0           0
      9.857811  1.513112  8.783731            0           0           0
      0.000000  3.026224  8.783731            0           0           0
      0.000000  1.513112 12.069667            0           0           0
      9.857811  3.026224 12.069667            0           0           0
      9.857811  1.513112 15.355604            0           0           0
      0.000000  3.026224 15.355604            0           0           0
     13.143691  1.512834 18.584587            0           0           0
      9.857670  3.026349 18.728812            0           0           0
      9.857492  1.512483 22.113643            0           0           0
      0.000826  3.025772 21.798025            0           0           0
      9.857811  4.539335  8.783731            0           0           0
      0.000000  6.052447  8.783731            0           0           0
      0.000000  4.539335 12.069667            0           0           0
      9.857811  6.052447 12.069667            0           0           0
      9.857811  4.539335 15.355604            0           0           0
      0.000000  6.052447 15.355604            0           0           0
     13.142965  4.539036 18.583071            0           0           0
      9.858044  6.052447 18.730919            0           0           0
      9.854717  4.538605 22.112804            0           0           0
     13.138444  6.052447 21.796934            0           0           0
      3.285937  7.565559  8.783731            0           0           0
      6.571874  9.078671  8.783731            0           0           0
      6.571874  7.565559 12.069667            0           0           0
      3.285937  9.078671 12.069667            0           0           0
      3.285937  7.565559 15.355604            0           0           0
      6.571874  9.078671 15.355604            0           0           0
      6.572198  7.555256 18.602689            0           0           0
      3.284810  9.079130 18.724800            0           0           0
      3.281044  7.570100 22.096650            0           0           0
      6.575800  9.082403 21.780105            0           0           0
      3.285937 10.591783  8.783731            0           0           0
      6.571874  0.000000  8.783731            0           0           0
      6.571874 10.591783 12.069667            0           0           0
      3.285937  0.000000 12.069667            0           0           0
      3.285937 10.591783 15.355604            0           0           0
      6.571874  0.000000 15.355604            0           0           0
      6.573125 10.588264 18.571643            0           0           0
[...]
      6.571874  6.052447 13.353398            0           0           0
      4.569667  4.539335 12.069667            0           0           0
      8.574080  4.539335 12.069667            0           0           0
      3.285937  6.052447 14.071874            0           0           0
      3.285937  6.052447 16.639335            0           0           0
      7.855604  4.539335 15.355604            0           0           0
      5.288143  4.539335 15.355604            0           0           0
      6.570461  6.052447 17.370229            0           0           0
      6.575636  6.052447 19.957890            0           0           0
      4.591739  4.539593 18.658389            0           0           0
      8.551503  4.540021 18.653909            0           0           0
      3.259265  6.052447 20.642085            0           0           0
      3.334588  6.052447 23.214016            0           0           0
      7.798096  4.528568 22.076352            0           0           0
      5.331423  4.514995 22.033580            0           0           0

 Finite differences POTIM=   1.0000000000000000E-002