 vasp.6.4.2 20Jul23 (build Feb 22 2024 13:53:45) complex
 executed on              LinuxNV date 2024.08.27  18:57:41
 OpenACC runtime initialized ...    4 GPUs detected

 INCAR:
   SYSTEM = Oxide-Surface
   ISMEAR = 0
   SIGMA = 0.05
   EDIFF = 1E-5
   ALGO = Normal
   IBRION = -1
   NSW = 0
   ISYM = 0
   DIPOL = 0.5 0.5 0.5
   IDIPOL = 3
   LDIPOL = .TRUE.
   ISTART = 1
   METAGGA = SCAN
   LUSE_VDW = .TRUE.
   BPARAM = 15.7
   CPARAM = 0.0093
   ENCUT = 1000
   PREC = Normal
   PRECFOCK = Normal
   LASPH = .TRUE.
   LREAL = Auto
   ISPIN = 1
   NELM = 200
   NELMIN = 8
   NCORE = 1
   KPAR = 1
   LWAVE = .FALSE.
   LCHARG = .FALSE.

 POTCAR:    PAW_PBE C_h 06Feb2004
 POTCAR:    PAW_PBE H_h 06Feb2004
 POTCAR:    PAW_PBE Ti_sv 26Sep2005
 POTCAR:    PAW_PBE O_h 06Feb2004
|               ----> ADVICE to this user running VASP <----                  |
|     You have switched on vdW-DFT.                                           |
|     This routine was written and supplied by Jiri Klimes. We recommend      |
|     that you carefully read and cite the following publications:            |
|       J. Klimes, D.R. Bowler, A. Michelides                                 |
|          J. Phys.: Cond Matt. 22 022201 (2010)                              |
|       J. Klimes, D.R. Bowler, A. Michelides                                 |
|          Phys. Rev. B. 83, 195131 (2011)                                    |
|     and references therein.                                                 |

   TITEL  = PAW_PBE C_h 06Feb2004
   POMASS =   12.011; ZVAL   =    4.000    mass and valenz
   ENMAX  =  700.000; ENMIN  =  500.000 eV

[...]

   TITEL  = PAW_PBE Ti_sv 26Sep2005
   POMASS =   47.880; ZVAL   =   12.000    mass and valenz
   ENMAX  =  274.610; ENMIN  =  205.957 eV

   TITEL  = PAW_PBE O_h 06Feb2004
   POMASS =   16.000; ZVAL   =    6.000    mass and valenz
   ENMAX  =  700.000; ENMIN  =  500.000 eV

 Optimization of the real space projectors (new method)

 maximal supplied QI-value         = 34.20
 optimisation between [QCUT,QGAM] = [ 16.08, 32.15] = [ 72.37,289.48] Ry
 Optimized for a Real-space Cutoff    0.71 Angstroem

   l    n(q)    QCUT    max X(q) W(low)/X(q) W(high)/X(q)  e(spline)
   0      7    16.076   134.812    0.49E-03    0.92E-03    0.59E-07
   0      7    16.076    80.524    0.48E-03    0.91E-03    0.58E-07
   1      6    16.076    79.026    0.37E-03    0.58E-03    0.12E-06
   1      6    16.076    45.188    0.36E-03    0.56E-03    0.12E-06
 Optimization of the real space projectors (new method)

[...]

   l    n(q)    QCUT    max X(q) W(low)/X(q) W(high)/X(q)  e(spline)
   0     12    16.089    12.277    0.23E-04    0.54E-05    0.15E-06
   0     12    16.089    11.419    0.26E-04    0.82E-06    0.19E-06
   1     12    16.089     4.010    0.40E-04    0.12E-04    0.58E-06
   1     12    16.089     6.182    0.55E-05    0.28E-04    0.27E-06
   2     11    16.089    47.177    0.17E-03    0.26E-03    0.90E-06
   2     11    16.089    42.437    0.17E-03    0.25E-03    0.88E-06
 Optimization of the real space projectors (new method)

 maximal supplied QI-value         = 34.20
 optimisation between [QCUT,QGAM] = [ 16.08, 32.15] = [ 72.37,289.48] Ry
 Optimized for a Real-space Cutoff    0.71 Angstroem

   l    n(q)    QCUT    max X(q) W(low)/X(q) W(high)/X(q)  e(spline)
   0      7    16.076   280.207    0.42E-03    0.69E-03    0.60E-07
   0      7    16.076   228.978    0.42E-03    0.69E-03    0.61E-07
   1      6    16.076    86.127    0.11E-03    0.66E-03    0.10E-06
   1      6    16.076    65.368    0.11E-03    0.65E-03    0.10E-06
  PAW_PBE C_h 06Feb2004                 :
  PAW_PBE H_h 06Feb2004                 :
  PAW_PBE Ti_sv 26Sep2005               :
  PAW_PBE O_h 06Feb2004                 :

 POSCAR:  C  H Ti  O
  positions in direct lattice

 METAGGA = SCAN                                        LMAXTAU =  6    LMIXTAU =  F

 ion  position               nearest neighbor table
   1  0.500  0.500  0.834-   2 1.10   3 1.10   4 1.10   5 1.10
   2  0.496  0.576  0.859-   1 1.10
   3  0.504  0.424  0.859-   1 1.10
   4  0.571  0.504  0.810-   1 1.10
   5  0.430  0.496  0.810-   1 1.10
   6  0.750  0.625  0.192-  87 1.95 147 1.95 146 1.95  86 1.95  89 1.98 168 1.98
   7  0.000  0.750  0.192-  88 1.95 108 1.95  89 1.95 109 1.95  90 1.98
   8  0.000  0.625  0.322-  90 1.95 150 1.95  91 1.95 151 1.95  93 1.98  92 1.98
   9  0.750  0.750  0.322-  92 1.95 112 1.95 173 1.95 193 1.95  94 1.98  87 1.98
  10  0.750  0.625  0.452-  95 1.95 155 1.95 154 1.95  94 1.95  97 1.98 176 1.98
  11  0.000  0.750  0.452-  96 1.95 116 1.95  97 1.95 117 1.95  91 1.98  98 2.00
  12  1.000  0.625  0.579-  98 1.90 158 1.90 100 1.95 101 1.95  99 2.02 159 2.02
  13  0.750  0.750  0.587- 102 1.86 201 1.97 181 1.97 100 1.97 120 1.97  95 2.11
  14  0.750  0.625  0.721- 103 1.83 163 1.84 184 2.03 105 2.03 102 2.10 162 2.10
  15  0.000  0.750  0.706-  99 1.81 124 1.95 125 1.95 104 1.95 105 1.95
  16  0.750  0.875  0.192-  87 1.95 107 1.95 106 1.95  86 1.95 109 1.98 188 1.98
  17  0.000  0.000  0.192- 108 1.95 128 1.95 109 1.95 129 1.95 110 1.98
  18  0.000  0.875  0.322-  90 1.95 110 1.95  91 1.95 111 1.95 113 1.98 112 1.98
  19  0.750  0.000  0.322- 112 1.95 132 1.95 193 1.95 213 1.95 114 1.98 107 1.98
  20  0.750  0.875  0.452-  95 1.95 115 1.95 114 1.95  94 1.95 117 1.98 196 1.98
  21  0.000  0.000  0.452- 116 1.95 136 1.95 117 1.95 137 1.95 111 1.98 118 2.00
  22  1.000  0.875  0.579- 118 1.89  98 1.90 120 1.95 121 1.95 119 2.02  99 2.02
  23  0.750  0.000  0.587- 122 1.86 221 1.97 201 1.97 140 1.97 120 1.97 115 2.11
  24  0.750  0.875  0.721- 123 1.83 103 1.83 204 2.03 125 2.03 122 2.10 102 2.10
  25  1.000  1.000  0.706- 119 1.81 125 1.95 144 1.95 145 1.95 124 1.95
  26  0.750  0.125  0.192- 107 1.95 127 1.95 126 1.95 106 1.95 129 1.98 208 1.98
  27  0.000  0.250  0.192- 128 1.95 148 1.95 129 1.95 149 1.95 130 1.98
  28  0.000  0.125  0.322- 110 1.95 130 1.95 111 1.95 131 1.95 133 1.98 132 1.98
  29  0.750  0.250  0.322- 132 1.95 152 1.95 213 1.95 233 1.95 134 1.98 127 1.98
  30  0.750  0.125  0.452- 115 1.95 135 1.95 134 1.95 114 1.95 137 1.98 216 1.98
  31  0.000  0.250  0.452- 136 1.95 156 1.95 137 1.95 157 1.95 131 1.98 138 2.00
  32  0.000  0.125  0.579- 118 1.89 138 1.90 141 1.95 140 1.95 119 2.02 139 2.02
  33  0.750  0.250  0.587- 142 1.86 221 1.97 241 1.97 160 1.97 140 1.97 135 2.11
  34  0.750  0.125  0.721- 123 1.83 143 1.83 224 2.03 145 2.03 122 2.10 142 2.10
  35  1.000  0.250  0.706- 139 1.81 145 1.95 144 1.95 165 1.95 164 1.95
  36  0.750  0.375  0.192- 127 1.95 147 1.95 146 1.95 126 1.95 149 1.98 228 1.98
  37  0.000  0.500  0.192-  88 1.95 148 1.95  89 1.95 149 1.95 150 1.98
  38  0.000  0.375  0.322- 130 1.95 150 1.95 131 1.95 151 1.95 153 1.98 152 1.98
  39  0.750  0.500  0.322-  92 1.95 152 1.95 173 1.95 233 1.95 147 1.98 154 1.98
  40  0.750  0.375  0.452- 135 1.95 155 1.95 154 1.95 134 1.95 157 1.98 236 1.98
  41  0.000  0.500  0.452-  96 1.95 156 1.95  97 1.95 157 1.95 151 1.98 158 2.00
  42  0.000  0.375  0.579- 138 1.90 158 1.90 161 1.95 160 1.95 139 2.02 159 2.02
  43  0.750  0.500  0.587- 162 1.86 241 1.97 181 1.97 160 1.97 100 1.97 155 2.11
  44  0.750  0.375  0.721- 143 1.83 163 1.83 244 2.03 165 2.03 142 2.10 162 2.10
  45  0.000  0.500  0.706- 159 1.81 164 1.95 105 1.95 104 1.95 165 1.95
  46  0.250  0.625  0.192- 167 1.95 227 1.95 226 1.95 166 1.95  88 1.98 169 1.98
  47  0.500  0.750  0.192- 168 1.95 169 1.95 188 1.95 189 1.95 170 1.98
  48  0.500  0.625  0.322- 170 1.95 230 1.95 171 1.95 231 1.95 172 1.98 173 1.98
  49  0.250  0.750  0.322-  93 1.95 113 1.95 172 1.95 192 1.95 174 1.98 167 1.98
  50  0.250  0.625  0.452- 175 1.95 235 1.95 234 1.95 174 1.95  96 1.98 177 1.98
  51  0.500  0.750  0.452- 176 1.95 177 1.95 196 1.95 197 1.95 171 1.98 178 2.00
  52  0.500  0.625  0.580- 238 1.90 178 1.90 180 1.95 181 1.95 179 2.01 239 2.02
  53  0.250  0.750  0.587- 182 1.86 200 1.97 180 1.97 101 1.97 121 1.97 175 2.11
  54  0.250  0.625  0.721- 183 1.83 243 1.83 185 2.03 104 2.03 182 2.10 242 2.10
  55  0.500  0.750  0.706- 179 1.81 184 1.94 185 1.94 204 1.95 205 1.95
  56  0.250  0.875  0.192- 167 1.95 187 1.95 186 1.95 166 1.95 108 1.98 189 1.98
  57  0.500  0.000  0.192- 188 1.95 189 1.95 208 1.95 209 1.95 190 1.98
  58  0.500  0.875  0.322- 170 1.95 190 1.95 171 1.95 191 1.95 192 1.98 193 1.98
  59  0.250  0.000  0.322- 113 1.95 133 1.95 192 1.95 212 1.95 194 1.98 187 1.98
  60  0.250  0.875  0.452- 175 1.95 195 1.95 194 1.95 174 1.95 116 1.98 197 1.98
[...]
 231  0.500  0.500  0.373-  48 1.95  78 1.95  81 1.98
 232  0.348  0.375  0.322-  69 1.95  79 1.95  78 1.98
 233  0.652  0.375  0.322-  29 1.95  39 1.95  78 1.98
 234  0.250  0.500  0.401-  50 1.95  80 1.95  79 1.98
 235  0.250  0.500  0.503-  50 1.95  80 1.95  83 2.11
 236  0.598  0.375  0.452-  71 1.95  81 1.95  40 1.98
 237  0.402  0.375  0.452-  71 1.95  81 1.95  80 1.98
 238  0.500  0.500  0.532-  52 1.90  82 1.90  81 2.00
 239  0.500  0.500  0.635-  85 1.82  82 2.02  52 2.02
 240  0.350  0.375  0.583-  82 1.95  83 1.97  73 1.97
 241  0.650  0.375  0.583-  82 1.95  43 1.97  33 1.97
 242  0.249  0.500  0.662-  83 1.86  84 2.10  54 2.10
 243  0.251  0.500  0.765-  54 1.83  84 1.84
 244  0.594  0.374  0.719-  75 1.94  85 1.95  44 2.03
 245  0.406  0.374  0.719-  75 1.94  85 1.95  84 2.03

IMPORTANT INFORMATION: All symmetrisations will be switched off!
NOSYMM: (Re-)initialisation of all symmetry stuff for point group C_1.

                                     Primitive cell

  volume of cell :    3846.0501

  direct lattice vectors                    reciprocal lattice vectors
    13.003980404  0.000000000  0.000000000     0.076899531  0.000000000  0.000000000
     0.000000000 11.830378115  0.000000000     0.000000000  0.084528152  0.000000000
     0.000000000  0.000000000 25.000000000     0.000000000  0.000000000  0.040000000

  length of vectors
    13.003980404 11.830378115 25.000000000     0.076899531  0.084528152  0.040000000

  position of ions in fractional coordinates (direct lattice)
     0.500064753  0.500001971  0.833925908
     0.496116025  0.575765153  0.859097683
     0.504021055  0.424236392  0.859102374
     0.570575345  0.504286181  0.809848038
     0.429538220  0.495704177  0.809856132
     0.750000008  0.625000007  0.191872994
     0.000000008  0.750000007  0.191872994
     0.000000008  0.625000007  0.321912798
     0.750000008  0.750000007  0.321912798
     0.750000008  0.625000007  0.451952602
     0.000000008  0.750000007  0.451952602
     0.999998729  0.625016586  0.579214663
     0.750021378  0.750038300  0.587267412
     0.750117211  0.625133254  0.721168073
     0.000025095  0.750082334  0.706350679
     0.750000008  0.875000007  0.191872994
     0.000000008  0.000000007  0.191872994
     0.000000008  0.875000007  0.321912798
     0.750000008  0.000000007  0.321912798
     0.750000008  0.875000007  0.451952602
     0.000000008  0.000000007  0.451952602
     0.999995895  0.875019834  0.579234708
     0.749960162  0.000003641  0.587339263
     0.749868689  0.875032817  0.721416409
     0.999999847  0.999999993  0.706360792
     0.750000008  0.125000007  0.191872994
[...]
     0.000000000  0.000000000 25.000000000     0.000000000  0.000000000  0.040000000

  length of vectors
    13.003980404 11.830378115 25.000000000     0.076899531  0.084528152  0.040000000

 FORCES acting on ions
    electron-ion (+dipol)            ewald-force                    non-local-force                 convergence-correction
   0.266E-01 0.279E-02 -.104E+04   -.228E-01 -.222E-02 0.104E+04   -.110E-01 -.323E-02 -.111E+01   -.289E-05 -.412E-06 -.436E-02
   0.226E+01 -.436E+02 -.237E+03   -.252E+01 0.479E+02 0.240E+03   0.269E+00 -.463E+01 -.328E+01   0.657E-05 -.143E-03 -.116E-02
   -.226E+01 0.436E+02 -.237E+03   0.251E+01 -.479E+02 0.240E+03   -.269E+00 0.463E+01 -.328E+01   -.785E-05 0.143E-03 -.116E-02
   -.355E+02 -.245E+01 -.281E+03   0.402E+02 0.270E+01 0.278E+03   -.485E+01 -.263E+00 0.288E+01   0.555E-04 -.191E-05 -.113E-02
   0.355E+02 0.246E+01 -.280E+03   -.402E+02 -.271E+01 0.278E+03   0.485E+01 0.264E+00 0.287E+01   -.566E-04 0.185E-05 -.113E-02
   -.170E+01 -.690E+00 0.368E+04   0.171E+01 0.691E+00 -.368E+04   -.683E-02 -.326E-03 0.122E+01   -.331E-03 -.221E-03 0.344E-02
   -.542E-02 -.710E+00 0.390E+04   0.820E-04 0.711E+00 -.389E+04   0.654E-02 0.898E-04 -.588E+01   0.108E-04 -.197E-03 0.424E-02
   0.587E-02 -.163E+00 0.188E+04   0.129E-02 0.163E+00 -.188E+04   -.993E-02 -.147E-03 -.215E+00   -.189E-04 0.620E-04 0.209E-02
   -.463E+00 -.234E+00 0.187E+04   0.458E+00 0.235E+00 -.187E+04   0.549E-02 -.179E-04 0.354E+00   0.789E-05 -.232E-05 0.198E-02
   -.627E+00 -.324E+00 -.192E+02   0.630E+00 0.325E+00 0.202E+02   -.885E-02 -.401E-03 -.302E+00   0.819E-04 0.517E-04 0.369E-02
   -.188E-01 -.541E+00 -.210E+01   0.165E-01 0.544E+00 0.746E+00   0.188E-02 -.125E-02 0.610E+00   -.762E-05 0.648E-04 0.296E-02
   -.381E-01 -.158E+01 -.183E+04   0.421E-01 0.158E+01 0.183E+04   -.328E-02 -.258E-02 0.805E+00   -.335E-05 0.667E-04 0.495E-02
   -.518E+01 -.405E+01 -.188E+04   0.518E+01 0.406E+01 0.188E+04   0.803E-02 -.225E-03 -.119E+01   0.247E-03 0.142E-03 0.369E-02
   -.411E+02 -.167E+02 -.361E+04   0.411E+02 0.167E+02 0.361E+04   0.609E-03 -.188E-01 -.171E+01   0.547E-03 0.328E-03 0.283E-03
   -.675E-01 -.569E+01 -.371E+04   0.681E-01 0.571E+01 0.371E+04   -.752E-02 -.282E-01 0.310E+01   0.101E-04 0.489E-04 -.164E-03
   -.136E+01 -.675E+00 0.368E+04   0.136E+01 0.676E+00 -.368E+04   -.664E-02 -.327E-03 0.122E+01   -.241E-03 -.893E-04 0.375E-02
   -.586E-02 -.114E-03 0.390E+04   0.518E-03 -.303E-05 -.389E+04   0.653E-02 0.233E-03 -.588E+01   0.184E-04 0.415E-04 0.441E-02
   0.586E-02 -.164E+00 0.188E+04   0.129E-02 0.164E+00 -.188E+04   -.992E-02 -.125E-03 -.215E+00   -.737E-05 -.902E-05 0.217E-02
   -.466E+00 -.129E-02 0.187E+04   0.460E+00 0.139E-02 -.187E+04   0.559E-02 0.126E-03 0.353E+00   0.218E-04 -.108E-05 0.202E-02
   -.929E+00 -.378E+00 -.199E+02   0.934E+00 0.388E+00 0.209E+02   -.961E-02 -.207E-02 -.304E+00   0.837E-04 0.400E-04 0.372E-02
   -.337E-02 0.665E-04 -.263E+01   0.811E-03 -.169E-04 0.128E+01   0.199E-02 0.550E-04 0.610E+00   -.115E-06 -.263E-05 0.298E-02
   -.599E-01 -.150E+01 -.184E+04   0.633E-01 0.151E+01 0.183E+04   -.229E-02 -.433E-02 0.799E+00   -.134E-04 0.459E-04 0.494E-02
   -.396E+01 -.262E-02 -.189E+04   0.395E+01 0.347E-02 0.189E+04   0.158E-01 0.304E-02 -.119E+01   0.203E-03 0.649E-06 0.372E-02
   -.152E+02 -.120E+02 -.363E+04   0.152E+02 0.120E+02 0.363E+04   0.112E-01 -.107E-01 -.175E+01   0.298E-03 -.644E-04 0.144E-03
   -.235E-02 -.359E-03 -.371E+04   0.419E-02 0.446E-03 0.371E+04   -.238E-02 -.115E-02 0.310E+01   -.588E-05 0.483E-05 -.256E-03
   -.136E+01 0.676E+00 0.368E+04   0.136E+01 -.677E+00 -.368E+04   -.663E-02 -.538E-04 0.122E+01   -.251E-03 0.727E-04 0.379E-02
   -.646E-02 0.710E+00 0.390E+04   0.113E-02 -.711E+00 -.389E+04   0.655E-02 0.360E-03 -.588E+01   0.130E-04 0.191E-03 0.418E-02
   0.772E-02 0.164E+00 0.188E+04   -.607E-03 -.164E+00 -.188E+04   -.989E-02 -.140E-04 -.215E+00   -.193E-04 -.313E-04 0.215E-02
   -.463E+00 0.234E+00 0.187E+04   0.458E+00 -.235E+00 -.187E+04   0.548E-02 0.294E-03 0.354E+00   0.208E-04 -.346E-06 0.196E-02
   -.936E+00 0.356E+00 -.199E+02   0.941E+00 -.364E+00 0.210E+02   -.958E-02 0.148E-02 -.305E+00   0.742E-04 -.449E-04 0.373E-02
   0.112E-01 0.541E+00 -.210E+01   -.141E-01 -.544E+00 0.746E+00   0.209E-02 0.136E-02 0.610E+00   0.685E-06 -.662E-04 0.296E-02
   0.636E-01 0.150E+01 -.184E+04   -.585E-01 -.151E+01 0.183E+04   -.505E-02 0.427E-02 0.799E+00   -.284E-05 -.497E-04 0.495E-02
   -.523E+01 0.406E+01 -.188E+04   0.522E+01 -.406E+01 0.188E+04   0.630E-02 -.147E-02 -.118E+01   0.235E-03 -.137E-03 0.371E-02
   -.152E+02 0.119E+02 -.363E+04   0.152E+02 -.119E+02 0.363E+04   0.134E-01 0.649E-02 -.175E+01   0.300E-03 0.756E-04 0.124E-03
   0.552E-01 0.569E+01 -.371E+04   -.521E-01 -.571E+01 0.371E+04   0.243E-02 0.258E-01 0.310E+01   -.579E-05 -.559E-04 -.161E-03
   -.170E+01 0.689E+00 0.368E+04   0.171E+01 -.690E+00 -.368E+04   -.682E-02 -.673E-04 0.122E+01   -.345E-03 0.233E-03 0.346E-02
   -.603E-02 -.483E-04 0.390E+04   0.699E-03 0.311E-05 -.389E+04   0.655E-02 0.218E-03 -.588E+01   0.110E-04 -.391E-04 0.400E-02
   0.762E-02 0.163E+00 0.188E+04   -.497E-03 -.163E+00 -.188E+04   -.989E-02 -.199E-04 -.215E+00   -.369E-04 -.243E-04 0.207E-02
   -.461E+00 0.133E-02 0.187E+04   0.456E+00 -.130E-02 -.187E+04   0.533E-02 0.139E-03 0.354E+00   0.232E-05 0.173E-05 0.190E-02
   -.632E+00 0.346E+00 -.192E+02   0.634E+00 -.349E+00 0.202E+02   -.882E-02 0.651E-03 -.302E+00   0.815E-04 -.473E-04 0.369E-02
   -.406E-02 0.538E-04 -.157E+01   0.151E-02 -.126E-04 0.215E+00   0.198E-02 0.597E-04 0.610E+00   -.516E-05 0.373E-05 0.295E-02
   0.366E-01 0.158E+01 -.183E+04   -.323E-01 -.158E+01 0.183E+04   -.399E-02 0.254E-02 0.805E+00   0.797E-05 -.625E-04 0.495E-02
   -.670E+01 0.780E-02 -.188E+04   0.669E+01 -.903E-02 0.188E+04   0.729E-02 -.270E-02 -.120E+01   0.281E-03 -.480E-05 0.363E-02
   -.408E+02 0.169E+02 -.361E+04   0.408E+02 -.169E+02 0.361E+04   -.151E-02 0.683E-02 -.172E+01   0.538E-03 -.335E-03 0.258E-03
   -.899E-02 0.355E-03 -.371E+04   0.110E-01 -.295E-03 0.370E+04   -.279E-02 -.115E-02 0.309E+01   0.127E-05 0.936E-06 -.849E-04
   0.171E+01 -.689E+00 0.368E+04   -.171E+01 0.690E+00 -.368E+04   -.546E-02 -.307E-03 0.122E+01   0.306E-03 -.246E-03 0.342E-02
   -.542E-02 -.124E+01 0.389E+04   0.711E-04 0.124E+01 -.389E+04   0.653E-02 -.143E-03 -.588E+01   0.260E-04 -.305E-03 0.337E-02
   0.825E-02 -.155E+00 0.188E+04   -.117E-02 0.159E+00 -.188E+04   -.989E-02 -.129E-02 -.216E+00   -.373E-05 0.281E-04 0.193E-02
   0.453E+00 -.234E+00 0.187E+04   -.458E+00 0.235E+00 -.187E+04   0.536E-02 -.213E-04 0.354E+00   -.177E-04 0.103E-04 0.198E-02
   0.647E+00 -.345E+00 -.192E+02   -.635E+00 0.348E+00 0.202E+02   -.117E-01 -.828E-03 -.302E+00   -.956E-04 0.481E-04 0.370E-02
   0.881E-02 -.148E+00 -.921E+00   -.117E-01 0.132E+00 -.394E+00   0.207E-02 0.986E-02 0.599E+00   0.229E-04 0.644E-04 0.284E-02
   0.183E-01 -.384E+01 -.182E+04   -.139E-01 0.384E+01 0.182E+04   -.381E-02 0.177E-01 0.783E+00   -.625E-05 0.137E-03 0.459E-02
   0.521E+01 -.405E+01 -.188E+04   -.522E+01 0.405E+01 0.188E+04   0.973E-02 0.186E-02 -.118E+01   -.243E-03 0.130E-03 0.371E-02
   0.408E+02 -.169E+02 -.361E+04   -.408E+02 0.169E+02 0.361E+04   -.169E-01 -.789E-02 -.172E+01   -.530E-03 0.372E-03 0.282E-03
   0.249E+00 -.412E+02 -.367E+04   -.242E+00 0.411E+02 0.367E+04   -.704E-02 0.318E-01 0.311E+01   -.186E-04 0.451E-03 -.185E-03
   0.137E+01 -.675E+00 0.368E+04   -.136E+01 0.676E+00 -.368E+04   -.565E-02 -.336E-03 0.122E+01   0.219E-03 -.674E-04 0.376E-02
   -.481E-02 -.602E-04 0.390E+04   -.535E-03 -.383E-05 -.389E+04   0.653E-02 0.206E-03 -.588E+01   0.188E-04 -.177E-04 0.370E-02
   0.823E-02 -.156E+00 0.188E+04   -.114E-02 0.158E+00 -.188E+04   -.989E-02 -.796E-03 -.216E+00   -.992E-05 -.487E-05 0.203E-02
   0.456E+00 0.141E-02 0.187E+04   -.460E+00 -.137E-02 -.187E+04   0.524E-02 0.139E-03 0.353E+00   -.312E-04 -.990E-05 0.202E-02
   0.950E+00 -.355E+00 -.199E+02   -.941E+00 0.363E+00 0.210E+02   -.109E-01 -.165E-02 -.305E+00   -.100E-03 0.457E-04 0.373E-02
[...]
   -.631E+02 0.805E-01 0.935E+03   0.666E+02 -.812E-01 -.935E+03   -.307E+01 0.987E-03 0.138E+00   -.202E-04 -.944E-05 0.890E-03
   0.631E+02 0.812E-01 0.935E+03   -.666E+02 -.820E-01 -.935E+03   0.307E+01 0.107E-02 0.138E+00   0.265E-04 -.115E-04 0.889E-03
   0.206E+00 -.790E-02 0.424E+03   -.204E+00 0.261E-02 -.428E+03   -.414E-02 0.844E-02 0.383E+01   -.298E-04 -.579E-05 0.120E-02
   0.580E+00 -.191E-02 -.463E+03   -.578E+00 0.814E-02 0.469E+03   -.665E-03 -.100E-01 -.656E+01   -.724E-04 -.874E-05 0.214E-02
   -.660E+02 0.150E-01 -.182E+01   0.706E+02 -.193E-01 0.154E+01   -.512E+01 0.115E-01 0.361E+00   0.114E-03 -.175E-04 0.159E-02
   0.660E+02 0.962E-02 -.182E+01   -.706E+02 -.136E-01 0.153E+01   0.513E+01 0.111E-01 0.361E+00   -.112E-03 -.190E-04 0.159E-02
   0.926E-03 -.575E-02 -.485E+03   -.133E-02 -.556E-03 0.479E+03   0.307E-03 0.104E-01 0.586E+01   0.189E-05 0.297E-05 0.216E-02
   0.867E-02 0.530E-02 -.129E+04   -.924E-02 0.490E-03 0.129E+04   0.126E-02 -.864E-02 0.176E+01   -.124E-05 0.401E-06 0.200E-02
   -.305E+02 0.184E+01 -.919E+03   0.334E+02 -.187E+01 0.918E+03   -.296E+01 0.236E-01 0.869E+00   -.535E-04 -.531E-04 0.218E-02
   0.304E+02 0.188E+01 -.919E+03   -.334E+02 -.191E+01 0.918E+03   0.296E+01 0.250E-01 0.871E+00   0.529E-04 -.556E-04 0.218E-02
   0.115E+02 -.152E+00 -.147E+04   -.116E+02 0.156E+00 0.147E+04   0.610E-01 -.242E-02 -.141E+01   -.245E-03 0.741E-05 0.140E-02
   0.391E+02 0.223E-01 -.222E+04   -.392E+02 -.168E-01 0.224E+04   0.611E-01 -.835E-02 -.197E+02   -.351E-03 0.720E-05 -.357E-02
   -.494E+02 0.217E+02 -.188E+04   0.549E+02 -.217E+02 0.188E+04   -.564E+01 -.925E-02 -.337E+01   0.419E-04 -.253E-03 -.805E-03
   0.494E+02 0.215E+02 -.188E+04   -.550E+02 -.215E+02 0.188E+04   0.565E+01 -.508E-02 -.330E+01   -.333E-04 -.255E-03 -.797E-03
   -.866E-03 0.955E-01 0.956E+02   -.259E-11 -.249E-13 0.266E-10   0.389E-01 -.156E+00 -.998E+02   -.397E-04 -.797E-05 0.402E+00

 POSITION                                       TOTAL-FORCE (eV/Angst)
      6.50283      5.91521     20.84815        -0.008122     -0.002381      0.085957
      6.45148      6.81152     21.47744         0.015822     -0.239666     -0.163289
      6.55428      5.01888     21.47756        -0.016292      0.242253     -0.164752
      7.41975      5.96590     20.24620        -0.164404     -0.012263      0.121041
      5.58571      5.86437     20.24640         0.165489      0.013239      0.121800
      9.75299      7.39399      4.79682        -0.000265      0.000922     -3.753577
      0.00000      8.87278      4.79682         0.001058      0.000894      2.992111
      0.00000      7.39399      8.04782        -0.002934      0.000324      0.500770
      9.75299      8.87278      8.04782         0.000002      0.000996     -0.711036
      9.75299      7.39399     11.29882        -0.006402      0.000941      0.738249
      0.00000      8.87278     11.29882        -0.000516      0.002474     -0.724849
     13.00396      7.39418     14.48037         0.000640     -0.000916      0.095942
      9.75326      8.87324     14.68169         0.001941      0.001562     -0.087042
      9.75451      7.39556     18.02920        -0.003994      0.007605      0.194843
      0.00033      8.87376     17.65877        -0.006987     -0.010653      0.123941
      9.75299     10.35158      4.79682        -0.000565      0.000950     -3.754197
      0.00000      0.00000      4.79682         0.001043      0.000406      2.991764
      0.00000     10.35158      8.04782        -0.002932      0.000322      0.500911
      9.75299      0.00000      8.04782        -0.000194      0.000471     -0.710578
      9.75299     10.35158     11.29882        -0.004314      0.008093      0.743708
      0.00000      0.00000     11.29882        -0.000726      0.000350     -0.724156
     13.00393     10.35182     14.48087         0.000916     -0.001433      0.092113
      9.75247      0.00004     14.68348         0.006407      0.004145     -0.089374
      9.75128     10.35197     18.03541        -0.012568     -0.000956      0.173646
     13.00398     11.83038     17.65902        -0.000703     -0.000808      0.121438
      9.75299      1.47880      4.79682        -0.000551     -0.000646     -3.754164
      0.00000      2.95759      4.79682         0.001076     -0.000105      2.992006
      0.00000      1.47880      8.04782        -0.002956     -0.000056      0.500899
      9.75299      2.95759      8.04782        -0.000002     -0.000097     -0.710803
      9.75299      1.47880     11.29882        -0.004315     -0.006187      0.744768
      0.00000      2.95759     11.29882        -0.000931     -0.001772     -0.724847
      0.00006      1.47856     14.48087        -0.000121      0.001211      0.092126
      9.75326      2.95717     14.68204         0.000549     -0.001810     -0.082242
      9.75103      1.47862     18.03555        -0.012572     -0.000100      0.171231
     13.00367      2.95662     17.65877         0.005296      0.008987      0.123888
      9.75299      4.43639      4.79682        -0.000247     -0.000583     -3.753513
      0.00000      5.91519      4.79682         0.001068      0.000382      2.992301
      0.00000      4.43639      8.04782        -0.002958     -0.000081      0.500764
      9.75299      5.91519      8.04782         0.000185      0.000418     -0.711242
      9.75299      4.43639     11.29882        -0.006404     -0.002150      0.739310
      0.00000      5.91519     11.29882        -0.000725      0.000353     -0.725571
      0.00002      4.43620     14.48037         0.000164      0.000683      0.095967
      9.75358      5.91515     14.68176        -0.001469     -0.003692     -0.085959
      9.75379      4.43532     18.03030        -0.005834     -0.015538      0.185233
      0.00001      5.91519     17.65823        -0.000893     -0.000842      0.128125
      3.25100      7.39399      4.79682        -0.002506      0.000921     -3.753510
      6.50199      8.87278      4.79682         0.001060      0.001557      2.995076
      6.50199      7.39399      8.04782        -0.002963      0.003060      0.501527
      3.25100      8.87278      8.04782         0.000278      0.000991     -0.710798
      3.25100      7.39399     11.29882         0.000188      0.002484      0.739382
      6.50199      8.87278     11.29882        -0.000948     -0.005975     -0.698332
      6.50198      7.39030     14.48965         0.000409      0.014148      0.101470
      3.25072      8.87320     14.68205         0.001052      0.002811     -0.082305
      3.25022      7.39505     18.03033         0.001745      0.016117      0.184737
      6.50208      8.87248     17.65481        -0.000149      0.008641      0.076691
      3.25100     10.35158      4.79682        -0.002203      0.000966     -3.754145
      6.50199      0.00000      4.79682         0.001043      0.000373      2.994069
      6.50199     10.35158      8.04782        -0.002966      0.001606      0.503432
      3.25100      0.00000      8.04782         0.000471      0.000417     -0.710565
      3.25100     10.35158     11.29882        -0.001905      0.006507      0.744772
[...]
      6.50199      5.91519      9.32220        -0.000036     -0.003442     -0.159936
      4.52538      4.43639      8.04782         0.376303      0.000595      0.002693
      8.47860      4.43639      8.04782        -0.373209      0.000630      0.002579
      3.25100      5.91519     10.02443        -0.001544      0.003613     -0.031125
      3.25100      5.91519     12.57320         0.001655     -0.003723     -0.047764
      7.77637      4.43639     11.29882        -0.583518      0.007673      0.039807
      5.22761      4.43639     11.29882         0.586440      0.007574      0.039798
      6.50199      5.91519     13.29981        -0.000220      0.004468      0.101336
      6.50199      5.91519     15.86380         0.000456     -0.002960     -0.051486
      4.55308      4.43637     14.57527        -0.081602      0.000601      0.004519
      8.45091      4.43645     14.57512         0.080826     -0.000100      0.001189
      3.24438      5.91546     16.54148         0.002882      0.001554      0.099620
      3.26188      5.91464     19.11442         0.021975      0.000821     -0.355872
      7.72812      4.42967     17.96827        -0.130288      0.017474      0.018250
      5.27493      4.42915     17.96517         0.131140      0.028050      0.009376
    total drift:                                0.038003     -0.060846     -3.782208

  FREE ENERGIE OF THE ION-ELECTRON SYSTEM (eV)
  free  energy   TOTEN  =     -3054.45726652 eV

  energy  without entropy=    -3054.45726652  energy(sigma->0) =    -3054.45726652