 vasp.6.3.0 20Jan22 (build Apr  1 2022 16:44:48) complex
 executed on        HPECrayEX_GCC date 2023.02.07  22:56:40

 INCAR:
   SYSTEM = MgO-rocksalt
   ISMEAR = 0
   SIGMA = 0.05
   EDIFF = 1E-7
   ALGO = ALL
   ISTART = 0
   IBRION = 5
   POTIM = 0.01
   NFREE = 2
   ISYM = 0
   DIPOL = 0.5 0.5 0.5
   IDIPOL = 3
   LDIPOL = .TRUE.
   GGA = RE
   AGGAC = 0.0
   LUSE_VDW = .TRUE.
   LASPH = .TRUE.
   ENCUT = 600
   PREC = Accurate
   LASPH = .TRUE.
   LREAL = .FALSE.
   ISPIN = 1
   NELM = 200
   NELMIN = 8
   NCORE = 8
   KPAR = 1
   LWAVE = .FALSE.
   LCHARG = .FALSE.

 POTCAR:    PAW_PBE C 08Apr2002
 POTCAR:    PAW_PBE H 15Jun2001
 POTCAR:    PAW_PBE Mg_pv 13Apr2007
 POTCAR:    PAW_PBE O 08Apr2002
|               ----> ADVICE to this user running VASP <----                  |
|     You have switched on vdW-DFT.                                           |
|     This routine was written and supplied by Jiri Klimes. We recommend      |
|     that you carefully read and cite the following publications:            |
|       J. Klimes, D.R. Bowler, A. Michelides                                 |
|          J. Phys.: Cond Matt. 22 022201 (2010)                              |
|       J. Klimes, D.R. Bowler, A. Michelides                                 |
|          Phys. Rev. B. 83, 195131 (2011)                                    |
|     and references therein.                                                 |

   TITEL  = PAW_PBE C 08Apr2002
   POMASS =   12.011; ZVAL   =    4.000    mass and valenz
   ENMAX  =  400.000; ENMIN  =  300.000 eV

   TITEL  = PAW_PBE H 15Jun2001
   POMASS =    1.000; ZVAL   =    1.000    mass and valenz
   ENMAX  =  250.000; ENMIN  =  200.000 eV

   TITEL  = PAW_PBE Mg_pv 13Apr2007
   POMASS =   24.305; ZVAL   =    8.000    mass and valenz
   ENMAX  =  403.929; ENMIN  =  302.947 eV

   TITEL  = PAW_PBE O 08Apr2002
   POMASS =   16.000; ZVAL   =    6.000    mass and valenz
   ENMAX  =  400.000; ENMIN  =  300.000 eV

  PAW_PBE C 08Apr2002                   :
  PAW_PBE H 15Jun2001                   :
  PAW_PBE Mg_pv 13Apr2007               :
  PAW_PBE O 08Apr2002                   :

 POSCAR:  C  H Mg  O
  positions in direct lattice
 exchange correlation table for  LEXCH =       40
   RHO(1)=    0.500       N(1)  =     2000
   RHO(2)=  100.500       N(2)  =     4000

 ion  position               nearest neighbor table
   1  0.441  0.509  0.812-   9 1.10  11 1.10  10 1.10   2 1.54
   2  0.300  0.426  0.841-  13 1.10  14 1.10  12 1.10   1 1.54
   3  0.441  0.009  0.812-  15 1.10  17 1.10  16 1.10   4 1.54
   4  0.300  0.926  0.841-  19 1.10  20 1.10  18 1.10   3 1.54
   5  0.799  0.759  0.811-  23 1.10  22 1.10  21 1.10   6 1.54
   6  0.939  0.676  0.841-  26 1.10  25 1.10  24 1.10   5 1.54
   7  0.799  0.259  0.811-  29 1.10  28 1.10  27 1.10   8 1.54
   8  0.939  0.176  0.841-  32 1.10  31 1.10  30 1.10   7 1.54
   9  0.405  0.612  0.785-   1 1.10
  10  0.505  0.430  0.780-   1 1.10
  11  0.524  0.548  0.847-   1 1.10
  12  0.217  0.387  0.805-   2 1.10
  13  0.237  0.504  0.873-   2 1.10
  14  0.336  0.323  0.868-   2 1.10
  15  0.405  0.112  0.785-   3 1.10
  16  0.505  0.930  0.780-   3 1.10
  17  0.524  0.048  0.847-   3 1.10
  18  0.217  0.887  0.805-   4 1.10
  19  0.237  0.004  0.873-   4 1.10
  20  0.336  0.823  0.868-   4 1.10
  21  0.736  0.679  0.779-   5 1.10
  22  0.836  0.861  0.784-   5 1.10
  23  0.715  0.799  0.846-   5 1.10
  24  0.023  0.637  0.805-   6 1.10
  25  0.902  0.573  0.868-   6 1.10
  26  0.002  0.754  0.873-   6 1.10
  27  0.736  0.179  0.779-   7 1.10
  28  0.836  0.361  0.784-   7 1.10
  29  0.715  0.299  0.846-   7 1.10
  30  0.023  0.137  0.805-   8 1.10
  31  0.902  0.073  0.868-   8 1.10
  32  0.002  0.254  0.873-   8 1.10
  33  0.000  0.750  0.350-  65 2.14  67 2.14  68 2.14  75 2.14  84 2.14
  34  0.250  0.000  0.350-  66 2.14  67 2.14  68 2.14  76 2.14  83 2.14
  35  0.000  0.000  0.450-  67 2.14  66 2.14  65 2.14  73 2.14  82 2.14  71 2.14
  36  0.250  0.750  0.450-  68 2.14  66 2.14  65 2.14  74 2.14  81 2.14  72 2.14
  37  1.000  0.750  0.550-  88 2.14  79 2.14  71 2.14  72 2.14  65 2.15  69 2.17
  38  0.250  0.000  0.550-  87 2.14  72 2.14  80 2.14  71 2.14  66 2.15  70 2.17
  39  0.000  0.000  0.649-  71 2.12  70 2.13  86 2.14  77 2.14  69 2.14
  40  0.250  0.750  0.649-  72 2.12  69 2.13  70 2.14  85 2.14  78 2.14
  41  0.000  0.250  0.350-  73 2.14  67 2.14  75 2.14  76 2.14  92 2.14
  42  0.250  0.500  0.350-  74 2.14  68 2.14  75 2.14  76 2.14  91 2.14
  43  0.000  0.500  0.450-  75 2.14  73 2.14  74 2.14  65 2.14  90 2.14  79 2.14
  44  0.250  0.250  0.450-  76 2.14  73 2.14  74 2.14  66 2.14  89 2.14  80 2.14
  45  1.000  0.250  0.550-  96 2.14  79 2.14  71 2.14  80 2.14  73 2.15  77 2.17
  46  0.250  0.500  0.550-  95 2.14  80 2.14  72 2.14  79 2.14  74 2.15  78 2.17
  47  0.000  0.500  0.649-  79 2.12  78 2.13  69 2.14  77 2.14  94 2.14
  48  0.250  0.250  0.649-  80 2.12  77 2.13  93 2.14  78 2.14  70 2.14
  49  0.500  0.750  0.350-  81 2.14  68 2.14  83 2.14  84 2.14  91 2.14
  50  0.750  0.000  0.350-  82 2.14  67 2.14  83 2.14  84 2.14  92 2.14
  51  0.500  0.000  0.450-  83 2.14  81 2.14  82 2.14  66 2.14  89 2.14  87 2.14
  52  0.750  0.750  0.450-  84 2.14  81 2.14  82 2.14  65 2.14  90 2.14  88 2.14
  53  0.500  0.750  0.551-  88 2.14  87 2.14  95 2.14  72 2.14  81 2.15  85 2.16
  54  0.750  0.000  0.551-  87 2.14  96 2.14  88 2.14  71 2.14  82 2.15  86 2.16
  55  0.500  0.000  0.650-  87 2.13  85 2.14  93 2.14  70 2.14  86 2.14
  56  0.750  0.750  0.650-  88 2.13  94 2.14  86 2.14  69 2.14  85 2.14
  57  0.500  0.250  0.350-  89 2.14  83 2.14  76 2.14  91 2.14  92 2.14
  58  0.750  0.500  0.350-  90 2.14  84 2.14  75 2.14  91 2.14  92 2.14
  59  0.500  0.500  0.450-  91 2.14  81 2.14  89 2.14  90 2.14  74 2.14  95 2.14
  60  0.750  0.250  0.450-  92 2.14  82 2.14  89 2.14  90 2.14  73 2.14  96 2.14
[...]
  82  0.750  0.000  0.450-  50 2.14  35 2.14  51 2.14  52 2.14  60 2.14  54 2.15
  83  0.500  0.000  0.350-  51 2.14  49 2.14  50 2.14  34 2.14  57 2.14
  84  0.750  0.750  0.350-  52 2.14  49 2.14  50 2.14  33 2.14  58 2.14
  85  0.500  0.750  0.652-  55 2.14  40 2.14  63 2.14  56 2.14  53 2.16
  86  0.750  0.000  0.652-  39 2.14  56 2.14  64 2.14  55 2.14  54 2.16
  87  0.500  0.000  0.550-  55 2.13  38 2.14  54 2.14  53 2.14  61 2.14  51 2.14
  88  0.750  0.750  0.550-  56 2.13  37 2.14  53 2.14  62 2.14  54 2.14  52 2.14
  89  0.500  0.250  0.450-  57 2.14  51 2.14  44 2.14  59 2.14  60 2.14  61 2.15
  90  0.750  0.500  0.450-  58 2.14  52 2.14  43 2.14  59 2.14  60 2.14  62 2.15
  91  0.500  0.500  0.350-  59 2.14  49 2.14  57 2.14  58 2.14  42 2.14
  92  0.750  0.250  0.350-  60 2.14  50 2.14  57 2.14  58 2.14  41 2.14
  93  0.500  0.250  0.652-  48 2.14  55 2.14  63 2.14  64 2.14  61 2.16
  94  0.750  0.500  0.652-  64 2.14  56 2.14  47 2.14  63 2.14  62 2.16
  95  0.500  0.500  0.550-  63 2.13  46 2.14  62 2.14  53 2.14  61 2.14  59 2.14
  96  0.750  0.250  0.550-  64 2.13  45 2.14  61 2.14  54 2.14  62 2.14  60 2.14

IMPORTANT INFORMATION: All symmetrisations will be switched off!
NOSYMM: (Re-)initialisation of all symmetry stuff for point group C_1.

                                     Primitive cell

  volume of cell :    1563.6717

  direct lattice vectors                    reciprocal lattice vectors
     8.546113626  0.000000000  0.000000000     0.117012252  0.000000000  0.000000000
     0.000000000  8.546113626  0.000000000     0.000000000  0.117012252  0.000000000
     0.000000000  0.000000000 21.409585219     0.000000000  0.000000000  0.046708051

  length of vectors
     8.546113626  8.546113626 21.409585219     0.117012252  0.117012252  0.046708051

  position of ions in fractional coordinates (direct lattice)
     0.441375799  0.509016279  0.811568336
     0.299971595  0.426062869  0.841061143
     0.441377571  0.009016684  0.811568571
     0.299972173  0.926063344  0.841061966
     0.798738320  0.758882397  0.810912924
     0.939367901  0.676045448  0.841028434
     0.798736609  0.258882703  0.810912802
     0.939365892  0.176046204  0.841028230
     0.405262874  0.612002648  0.784593509
     0.504684124  0.429755037  0.780057201
     0.524391248  0.548387937  0.847366611
     0.217123016  0.387287397  0.805067342
     0.236771707  0.504084336  0.873004512
     0.336428904  0.322744620  0.867792688
     0.405268411  0.112000286  0.784590618
     0.504680693  0.929758581  0.780055974
     0.524391797  0.048388240  0.847367124
     0.217129169  0.887290646  0.805066118
     0.236769547  0.004081712  0.873004907
     0.336424667  0.822743695  0.867795765
     0.735692433  0.679231237  0.779478681
     0.835647403  0.861306018  0.783747723
     0.715217555  0.799179806  0.846354467
     0.022831552  0.636765528  0.805362745
     0.902163061  0.573091234  0.867826672
     0.002065640  0.754328416  0.873029589
     0.735690716  0.179229574  0.779479149
     0.835652433  0.361303768  0.783748183
     0.715217166  0.299180736  0.846355235
     0.022831492  0.136765926  0.805362744
     0.902160819  0.073093571  0.867826626
     0.002066688  0.254326793  0.873029128
     0.000000000  0.750000000  0.350310383
     0.250000000  0.000000000  0.350310383
     0.000000000  0.000000000  0.450103461
     0.250000000  0.750000000  0.450103461
     0.999957845  0.750112429  0.550418299
     0.250041368  0.000142650  0.550407494
     0.000077236  0.000327530  0.649346663
     0.249831921  0.750295364  0.649332648
     0.000000000  0.250000000  0.350310383
     0.250000000  0.500000000  0.350310383
     0.000000000  0.500000000  0.450103461
     0.250000000  0.250000000  0.450103461
     0.999958040  0.250174880  0.550418847
     0.250074500  0.500144173  0.550411887
     0.000123523  0.500284282  0.649329324
     0.249873169  0.250295521  0.649332897
     0.500000000  0.750000000  0.350310383
     0.750000000  0.000000000  0.350310383
     0.500000000  0.000000000  0.450103461
     0.750000000  0.750000000  0.450103461
     0.500119448  0.750188735  0.550544161
     0.749921968  0.000191838  0.550547101
     0.499808910  0.000365844  0.649754402
     0.750142876  0.750383843  0.649792152
     0.500000000  0.250000000  0.350310383
     0.750000000  0.500000000  0.350310383
     0.500000000  0.500000000  0.450103461
     0.750000000  0.250000000  0.450103461
[...]
     0.750000000  0.000000000  0.450103461
     0.500000000  0.000000000  0.350310383
     0.750000000  0.750000000  0.350310383
     0.499807649  0.750411890  0.651590185
     0.750146604  0.000394274  0.651576885
     0.499975254  0.000173696  0.550219147
     0.750048669  0.750186573  0.550221723
     0.500000000  0.250000000  0.450103461
     0.750000000  0.500000000  0.450103461
     0.500000000  0.500000000  0.350310383
     0.750000000  0.250000000  0.350310383
     0.499806576  0.250340854  0.651589790
     0.750082673  0.500392841  0.651588694
     0.499972465  0.500181469  0.550212711
     0.750040496  0.250190756  0.550222315

  ion indices of the primitive-cell ions
   primitive index   ion index
                 1           1
                 2           2
                 3           3
                 4           4
[...]

[...]

  93 f  =    0.451357 THz     2.835957 2PiTHz   15.055635 cm-1     1.866660 meV
             X         Y         Z           dx          dy          dz
      3.772048  4.350111 17.375341     0.099719   -0.297327   -0.043591
      2.563591  3.641182 18.006770     0.106282   -0.306832   -0.040828
      3.772063  0.077058 17.375346     0.103665   -0.305568   -0.045282
      2.563596  7.914243 18.006788     0.100093   -0.299438   -0.044392
      6.826108  6.485495 17.361309     0.108797   -0.289986   -0.005264
      8.027945  5.777561 18.006070     0.113231   -0.294105   -0.017047
      6.826094  2.212441 17.361307     0.101174   -0.289458   -0.006964
      8.027928  1.504511 18.006066     0.106743   -0.288996   -0.015892
      3.463423  5.230244 16.797822     0.025611   -0.083927   -0.008298
      4.313088  3.672735 16.700701     0.027216   -0.083194   -0.016269
      4.481507  4.686586 18.141768     0.030241   -0.087423   -0.013261
      1.855558  3.309802 17.236158     0.028542   -0.086504   -0.010775
      2.023478  4.307962 18.690665     0.031863   -0.091013   -0.008360
      2.875160  2.758212 18.579081     0.032583   -0.090130   -0.015363
      3.463470  0.957167 16.797760     0.030293   -0.085112   -0.008891
      4.313059  7.945822 16.700675     0.026140   -0.087587   -0.016503
      4.481512  0.413531 18.141779     0.032248   -0.092427   -0.013407
      1.855611  7.582887 17.236132     0.025961   -0.081899   -0.012138
      2.023459  0.034883 18.690673     0.032152   -0.086830   -0.009752
      2.875123  7.031261 18.579147     0.027287   -0.089053   -0.016116
      6.287311  5.804787 16.688315     0.033027   -0.081304   -0.005008
      7.141538  7.360819 16.779714     0.031273   -0.080646    0.002865
      6.112330  6.829881 18.120098     0.031316   -0.087780    0.000268
      0.195121  5.441871 17.242482     0.032985   -0.081328   -0.006291
      7.709988  4.897703 18.579809     0.033923   -0.087346   -0.008121
      0.017653  6.446576 18.691201     0.032385   -0.086890   -0.002681
      6.287296  1.531716 16.688325     0.031983   -0.081832   -0.005727
      7.141581  3.087743 16.779724     0.028567   -0.080268    0.002437
      6.112327  2.556833 18.120115     0.028268   -0.088238   -0.000739
      0.195121  1.168817 17.242482     0.031783   -0.079325   -0.005540
      7.709969  0.624666 18.579808     0.032634   -0.086069   -0.007759
      0.017662  2.173506 18.691192     0.029546   -0.084755   -0.002231
      0.000000  6.409585  7.500000            0           0           0
      2.136528  0.000000  7.500000            0           0           0
      0.000000  0.000000  9.636528            0           0           0
      2.136528  6.409585  9.636528            0           0           0
      8.545753  6.410546 11.784227            0           0           0
      2.136882  0.001219 11.783996            0           0           0
      0.000660  0.002799 13.902243            0           0           0
      2.135092  6.412109 13.901943            0           0           0
      0.000000  2.136528  7.500000            0           0           0
      2.136528  4.273057  7.500000            0           0           0
      0.000000  4.273057  9.636528            0           0           0
      2.136528  2.136528  9.636528            0           0           0
      8.545755  2.138023 11.784239            0           0           0
      2.137165  4.274289 11.784090            0           0           0
      0.001056  4.275486 13.901871            0           0           0
      2.135444  2.139054 13.901948            0           0           0
      4.273057  6.409585  7.500000            0           0           0
      6.409585  0.000000  7.500000            0           0           0
      4.273057  0.000000  9.636528            0           0           0
      6.409585  6.409585  9.636528            0           0           0
      4.274078  6.411198 11.786922            0           0           0
      6.408918  0.001639 11.786985            0           0           0
      4.271424  0.003127 13.910972            0           0           0
      6.410806  6.412866 13.911780            0           0           0
      4.273057  2.136528  7.500000            0           0           0
      6.409585  4.273057  7.500000            0           0           0
      4.273057  4.273057  9.636528            0           0           0
      6.409585  2.136528  9.636528            0           0           0
[...]
      6.409585  0.000000  9.636528            0           0           0
      4.273057  0.000000  7.500000            0           0           0
      6.409585  6.409585  7.500000            0           0           0
      4.271413  6.413105 13.950276            0           0           0
      6.410838  0.003370 13.949991            0           0           0
      4.272845  0.001484 11.779964            0           0           0
      6.410001  6.411180 11.780019            0           0           0
      4.273057  2.136528  9.636528            0           0           0
      6.409585  4.273057  9.636528            0           0           0
      4.273057  4.273057  7.500000            0           0           0
      6.409585  2.136528  7.500000            0           0           0
      4.271404  2.139441 13.950267            0           0           0
      6.410292  4.276414 13.950244            0           0           0
      4.272821  4.274608 11.779826            0           0           0
      6.409931  2.138159 11.780032            0           0           0

  94 f/i=    0.103450 THz     0.649993 2PiTHz    3.450709 cm-1     0.427833 meV
             X         Y         Z           dx          dy          dz
      3.772048  4.350111 17.375341     0.244382    0.133408   -0.042503
      2.563591  3.641182 18.006770     0.308151    0.051516   -0.013131
      3.772063  0.077058 17.375346     0.323397    0.060702   -0.060063
      2.563596  7.914243 18.006788     0.272819    0.157833   -0.048948
      6.826108  6.485495 17.361309     0.317351    0.076196    0.065166
      8.027945  5.777561 18.006070     0.348507    0.102755    0.036738
      6.826094  2.212441 17.361307     0.247844    0.142913    0.060690
      8.027928  1.504511 18.006066     0.239722    0.115989    0.046295
      3.463423  5.230244 16.797822     0.049681    0.031344   -0.012081
      4.313088  3.672735 16.700701     0.081266    0.048206   -0.013579
      4.481507  4.686586 18.141768     0.068257    0.054276   -0.017245
      1.855558  3.309802 17.236158     0.089310    0.002247    0.001288
      2.023478  4.307962 18.690665     0.081523    0.004068    0.000878
      2.875160  2.758212 18.579081     0.110176    0.020404   -0.006829
      3.463470  0.957167 16.797760     0.112194    0.023429   -0.018776
      4.313059  7.945822 16.700675     0.078640    0.003929   -0.015640
      4.481512  0.413531 18.141779     0.101532    0.004057   -0.019129
      1.855611  7.582887 17.236132     0.069865    0.061256   -0.012662
      2.023459  0.034883 18.690673     0.095219    0.058282   -0.013531
      2.875123  7.031261 18.579147     0.059896    0.038933   -0.014075
      6.287311  5.804787 16.688315     0.091806    0.018569    0.022010
      7.141538  7.360819 16.779714     0.081547    0.023746    0.016269
      6.112330  6.829881 18.120098     0.094469    0.017079    0.023830
      0.195121  5.441871 17.242482     0.097088    0.033108    0.005731
      7.709988  4.897703 18.579809     0.109758    0.028302    0.013591
      0.017653  6.446576 18.691201     0.101260    0.033380    0.006335
      6.287296  1.531716 16.688325     0.065796    0.044692    0.018580
      7.141581  3.087743 16.779724     0.074878    0.038893    0.016210
      6.112327  2.556833 18.120115     0.075543    0.045127    0.019713
      0.195121  1.168817 17.242482     0.063936    0.028876    0.010589
      7.709969  0.624666 18.579808     0.065738    0.035401    0.014479
      0.017662  2.173506 18.691192     0.075992    0.029946    0.011456
      0.000000  6.409585  7.500000            0           0           0
      2.136528  0.000000  7.500000            0           0           0
      0.000000  0.000000  9.636528            0           0           0
      2.136528  6.409585  9.636528            0           0           0
      8.545753  6.410546 11.784227            0           0           0
      2.136882  0.001219 11.783996            0           0           0
      0.000660  0.002799 13.902243            0           0           0
      2.135092  6.412109 13.901943            0           0           0
      0.000000  2.136528  7.500000            0           0           0
      2.136528  4.273057  7.500000            0           0           0
      0.000000  4.273057  9.636528            0           0           0
      2.136528  2.136528  9.636528            0           0           0
      8.545755  2.138023 11.784239            0           0           0
      2.137165  4.274289 11.784090            0           0           0
      0.001056  4.275486 13.901871            0           0           0
      2.135444  2.139054 13.901948            0           0           0
      4.273057  6.409585  7.500000            0           0           0
      6.409585  0.000000  7.500000            0           0           0
      4.273057  0.000000  9.636528            0           0           0
      6.409585  6.409585  9.636528            0           0           0
      4.274078  6.411198 11.786922            0           0           0
      6.408918  0.001639 11.786985            0           0           0
      4.271424  0.003127 13.910972            0           0           0
      6.410806  6.412866 13.911780            0           0           0
      4.273057  2.136528  7.500000            0           0           0
      6.409585  4.273057  7.500000            0           0           0
      4.273057  4.273057  9.636528            0           0           0
      6.409585  2.136528  9.636528            0           0           0
[...]
      6.409585  0.000000  9.636528            0           0           0
      4.273057  0.000000  7.500000            0           0           0
      6.409585  6.409585  7.500000            0           0           0
      4.271413  6.413105 13.950276            0           0           0
      6.410838  0.003370 13.949991            0           0           0
      4.272845  0.001484 11.779964            0           0           0
      6.410001  6.411180 11.780019            0           0           0
      4.273057  2.136528  9.636528            0           0           0
      6.409585  4.273057  9.636528            0           0           0
      4.273057  4.273057  7.500000            0           0           0
      6.409585  2.136528  7.500000            0           0           0
      4.271404  2.139441 13.950267            0           0           0
      6.410292  4.276414 13.950244            0           0           0
      4.272821  4.274608 11.779826            0           0           0
      6.409931  2.138159 11.780032            0           0           0

[...]

  96 f/i=    0.464610 THz     2.919233 2PiTHz   15.497732 cm-1     1.921473 meV
             X         Y         Z           dx          dy          dz
      3.772048  4.350111 17.375341    -0.306297   -0.023811    0.048952
      2.563591  3.641182 18.006770    -0.186330   -0.230861    0.047149
      3.772063  0.077058 17.375346     0.232643    0.000606   -0.049654
      2.563596  7.914243 18.006788     0.103295    0.207465   -0.066366
      6.826108  6.485495 17.361309    -0.075581   -0.271611   -0.041259
      8.027945  5.777561 18.006070     0.209606    0.165019   -0.093708
      6.826094  2.212441 17.361307    -0.003919    0.246914    0.014374
      8.027928  1.504511 18.006066    -0.284360   -0.187952    0.059452
      3.463423  5.230244 16.797822    -0.130604   -0.021477    0.014728
      4.313088  3.672735 16.700701    -0.055220    0.020546    0.013181
      4.481507  4.686586 18.141768    -0.105464    0.026347    0.015117
      1.855558  3.309802 17.236158    -0.039546   -0.100793    0.014808
      2.023478  4.307962 18.690665    -0.084787   -0.093335    0.015024
      2.875160  2.758212 18.579081    -0.009452   -0.051548    0.012516
      3.463470  0.957167 16.797760     0.112041    0.016131   -0.014207
      4.313059  7.945822 16.700675     0.035257   -0.026462   -0.013063
      4.481512  0.413531 18.141779     0.082116   -0.035306   -0.012344
      1.855611  7.582887 17.236132     0.017878    0.096001   -0.023295
      2.023459  0.034883 18.690673     0.059115    0.085804   -0.021192
      2.875123  7.031261 18.579147    -0.017158    0.043537   -0.018603
      6.287311  5.804787 16.688315     0.038253   -0.135518   -0.002197
      7.141538  7.360819 16.779714    -0.120097   -0.046268   -0.017780
      6.112330  6.829881 18.120098    -0.045294   -0.149209   -0.001999
      0.195121  5.441871 17.242482     0.081696    0.114162   -0.036694
      7.709988  4.897703 18.579809     0.158226    0.019713   -0.015852
      0.017653  6.446576 18.691201     0.004270    0.106154   -0.040364
      6.287296  1.531716 16.688325    -0.061379    0.128631   -0.005622
      7.141581  3.087743 16.779724     0.095657    0.040287    0.010887
      6.112327  2.556833 18.120115     0.022832    0.140487   -0.004598
      0.195121  1.168817 17.242482    -0.103472   -0.118636    0.025689
      7.709969  0.624666 18.579808    -0.178247   -0.027587    0.004873
      0.017662  2.173506 18.691192    -0.026077   -0.113173    0.031043
      0.000000  6.409585  7.500000            0           0           0
      2.136528  0.000000  7.500000            0           0           0
      0.000000  0.000000  9.636528            0           0           0
      2.136528  6.409585  9.636528            0           0           0
      8.545753  6.410546 11.784227            0           0           0
      2.136882  0.001219 11.783996            0           0           0
      0.000660  0.002799 13.902243            0           0           0
      2.135092  6.412109 13.901943            0           0           0
      0.000000  2.136528  7.500000            0           0           0
      2.136528  4.273057  7.500000            0           0           0
      0.000000  4.273057  9.636528            0           0           0
      2.136528  2.136528  9.636528            0           0           0
      8.545755  2.138023 11.784239            0           0           0
      2.137165  4.274289 11.784090            0           0           0
      0.001056  4.275486 13.901871            0           0           0
      2.135444  2.139054 13.901948            0           0           0
      4.273057  6.409585  7.500000            0           0           0
      6.409585  0.000000  7.500000            0           0           0
      4.273057  0.000000  9.636528            0           0           0
      6.409585  6.409585  9.636528            0           0           0
      4.274078  6.411198 11.786922            0           0           0
      6.408918  0.001639 11.786985            0           0           0
      4.271424  0.003127 13.910972            0           0           0
      6.410806  6.412866 13.911780            0           0           0
      4.273057  2.136528  7.500000            0           0           0
      6.409585  4.273057  7.500000            0           0           0
      4.273057  4.273057  9.636528            0           0           0
      6.409585  2.136528  9.636528            0           0           0
[...]
      6.409585  0.000000  9.636528            0           0           0
      4.273057  0.000000  7.500000            0           0           0
      6.409585  6.409585  7.500000            0           0           0
      4.271413  6.413105 13.950276            0           0           0
      6.410838  0.003370 13.949991            0           0           0
      4.272845  0.001484 11.779964            0           0           0
      6.410001  6.411180 11.780019            0           0           0
      4.273057  2.136528  9.636528            0           0           0
      6.409585  4.273057  9.636528            0           0           0
      4.273057  4.273057  7.500000            0           0           0
      6.409585  2.136528  7.500000            0           0           0
      4.271404  2.139441 13.950267            0           0           0
      6.410292  4.276414 13.950244            0           0           0
      4.272821  4.274608 11.779826            0           0           0
      6.409931  2.138159 11.780032            0           0           0

 Finite differences POTIM=   1.0000000000000000E-002