 vasp.6.3.0 20Jan22 (build Apr  1 2022 16:44:48) gamma-only
 executed on        HPECrayEX_GCC date 2023.02.21  01:43:48

 INCAR:
   SYSTEM = MgO-rocksalt
   ISMEAR = 0
   SIGMA = 0.05
   EDIFF = 1E-6
   ALGO = ALL
   ISTART = 0
   IBRION = -1
   NSW = 0
   ISYM = 0
   DIPOL = 0.5 0.5 0.5
   IDIPOL = 3
   LDIPOL = .TRUE.
   GGA = RE
   IVDW = 13
   VDW_S8 = 1.7468
   VDW_A1 = 0.5363
   VDW_A2 = 3.0726
   ENCUT = 520
   PREC = Accurate
   LASPH = .TRUE.
   LREAL = Auto
   ISPIN = 1
   NELM = 200
   NELMIN = 8
   NCORE = 8
   KPAR = 1
   LWAVE = .FALSE.
   LCHARG = .FALSE.

 POTCAR:    PAW_PBE C 08Apr2002
 POTCAR:    PAW_PBE O 08Apr2002
 POTCAR:    PAW_PBE H 15Jun2001
 POTCAR:    PAW_PBE Mg_pv 13Apr2007
 POTCAR:    PAW_PBE O 08Apr2002
 POTCAR:    PAW_PBE C 08Apr2002
   VRHFIN =C: s2p2

   TITEL  = PAW_PBE C 08Apr2002
   POMASS =   12.011; ZVAL   =    4.000    mass and valenz
   ENMAX  =  400.000; ENMIN  =  300.000 eV

[...]

   TITEL  = PAW_PBE H 15Jun2001
   POMASS =    1.000; ZVAL   =    1.000    mass and valenz
   ENMAX  =  250.000; ENMIN  =  200.000 eV

   TITEL  = PAW_PBE Mg_pv 13Apr2007
   POMASS =   24.305; ZVAL   =    8.000    mass and valenz
   ENMAX  =  403.929; ENMIN  =  302.947 eV

   TITEL  = PAW_PBE O 08Apr2002
   POMASS =   16.000; ZVAL   =    6.000    mass and valenz
   ENMAX  =  400.000; ENMIN  =  300.000 eV

 Optimization of the real space projectors (new method)

 maximal supplied QI-value         = 25.13
 optimisation between [QCUT,QGAM] = [ 11.56, 23.12] = [ 37.43,149.72] Ry
 Optimized for a Real-space Cutoff    1.04 Angstroem

   l    n(q)    QCUT    max X(q) W(low)/X(q) W(high)/X(q)  e(spline)
   0      7    11.561   115.676    0.20E-03    0.60E-03    0.21E-06
   0      7    11.561    87.132    0.20E-03    0.59E-03    0.21E-06
   1      7    11.561     4.429    0.23E-03    0.35E-03    0.15E-06
   1      7    11.561     2.733    0.18E-03    0.25E-03    0.12E-06
 Optimization of the real space projectors (new method)

[...]

   l    n(q)    QCUT    max X(q) W(low)/X(q) W(high)/X(q)  e(spline)
   1      8    11.527     2.974    0.44E-04    0.56E-04    0.12E-06
   1      8    11.527     4.279    0.12E-03    0.12E-03    0.26E-06
   0      9    11.527    16.381    0.46E-04    0.64E-04    0.78E-07
   0      9    11.527     5.611    0.26E-04    0.43E-04    0.55E-07
   2      8    11.527     4.652    0.22E-03    0.72E-04    0.47E-07
 Optimization of the real space projectors (new method)

 maximal supplied QI-value         = 24.76
 optimisation between [QCUT,QGAM] = [ 11.64, 23.27] = [ 37.91,151.63] Ry
 Optimized for a Real-space Cutoff    1.14 Angstroem

   l    n(q)    QCUT    max X(q) W(low)/X(q) W(high)/X(q)  e(spline)
   0      8    11.635    20.381    0.10E-03    0.33E-03    0.24E-06
   0      8    11.635    15.268    0.11E-03    0.35E-03    0.26E-06
   1      7    11.635     5.964    0.24E-03    0.31E-03    0.30E-06
   1      7    11.635     5.382    0.22E-03    0.25E-03    0.26E-06
|               ----> ADVICE to this user running VASP <----                  |
|     You enforced a specific xc type in the INCAR file but a different       |
|     type was found in the POTCAR file.                                      |
|     I HOPE YOU KNOW WHAT YOU ARE DOING!                                     |

  PAW_PBE C 08Apr2002                   :
  PAW_PBE O 08Apr2002                   :
  PAW_PBE H 15Jun2001                   :
  PAW_PBE Mg_pv 13Apr2007               :
  PAW_PBE O 08Apr2002                   :

 POSCAR:  C  O  H Mg  O
  positions in direct lattice
|           W    W    AA    RRRRR   N    N  II  N    N   GGGG   !!!           |
|           W    W   A  A   R    R  NN   N  II  NN   N  G    G  !!!           |
|           W    W  A    A  R    R  N N  N  II  N N  N  G       !!!           |
|           W WW W  AAAAAA  RRRRR   N  N N  II  N  N N  G  GGG   !            |
|           WW  WW  A    A  R   R   N   NN  II  N   NN  G    G                |
|           W    W  A    A  R    R  N    N  II  N    N   GGGG   !!!           |
|     Specifying the vdW parameters                                           |
|     VDW_S8 = 1.747                                                          |
|     VDW_A1 = 0.536                                                          |
|     VDW_A2 = 3.073                                                          |
|     in the INCAR file will overwrite the defaults for revpbe. Please        |
|     make sure that is what you intended.                                    |

 ion  position               nearest neighbor table
   1  0.528  0.555  0.794-  12 1.10  11 1.10   9 1.10   5 1.44
   2  0.321  0.401  0.795-  16 1.10  15 1.10  13 1.10   6 1.44
   3  0.474  0.195  0.795-  20 1.10  19 1.10  17 1.10   7 1.44
   4  0.680  0.347  0.794-  24 1.10  23 1.10  21 1.10   8 1.44
   5  0.508  0.487  0.756-  10 1.00   1 1.44
   6  0.388  0.382  0.756-  14 1.00   2 1.44
   7  0.492  0.263  0.756-  18 1.00   3 1.44
   8  0.612  0.367  0.756-  22 1.00   4 1.44
   9  0.519  0.542  0.844-   1 1.10
  10  0.552  0.448  0.759-   5 1.00
  11  0.590  0.572  0.786-   1 1.10
  12  0.489  0.603  0.779-   1 1.10
  13  0.334  0.392  0.845-   2 1.10
  14  0.427  0.427  0.759-   6 1.00
  15  0.303  0.463  0.787-   2 1.10
  16  0.272  0.362  0.780-   2 1.10
  17  0.483  0.209  0.845-   3 1.10
  18  0.448  0.302  0.759-   7 1.00
  19  0.412  0.177  0.787-   3 1.10
  20  0.513  0.147  0.780-   3 1.10
  21  0.667  0.355  0.844-   4 1.10
  22  0.573  0.323  0.758-   8 1.00
  23  0.696  0.285  0.786-   4 1.10
  24  0.729  0.384  0.779-   4 1.10
  25  0.125  0.000  0.351- 153 2.12 155 2.12 156 2.12 172 2.12 195 2.12
  26  0.250  0.125  0.351- 154 2.12 155 2.12 156 2.12 164 2.12 171 2.12
  27  0.125  0.125  0.450- 159 2.11 155 2.12 153 2.12 154 2.12 161 2.12 170 2.12
  28  0.250  0.000  0.450- 160 2.11 156 2.12 153 2.12 154 2.12 169 2.12 194 2.12
  29  0.125  1.000  0.550- 159 2.12 160 2.12 199 2.12 176 2.12 153 2.12 157 2.14
  30  0.250  0.125  0.550- 168 2.11 175 2.11 154 2.12 159 2.12 160 2.12 158 2.15
  31  0.125  0.125  0.647- 159 2.10 158 2.11 174 2.12 157 2.12 165 2.12
  32  0.250  1.000  0.647- 160 2.09 158 2.11 198 2.11 173 2.12 157 2.12
  33  0.125  0.250  0.351- 161 2.12 155 2.12 163 2.12 164 2.12 180 2.12
  34  0.250  0.375  0.351- 162 2.12 163 2.12 164 2.12 179 2.12 188 2.12
  35  0.125  0.375  0.450- 167 2.11 163 2.12 161 2.12 162 2.12 178 2.12 185 2.12
  36  0.250  0.250  0.450- 168 2.11 164 2.12 162 2.12 154 2.12 161 2.12 177 2.12
  37  0.125  0.250  0.550- 168 2.11 184 2.12 167 2.12 161 2.12 159 2.12 165 2.15
  38  0.250  0.375  0.550- 183 2.10 168 2.12 192 2.12 162 2.13 167 2.13 166 2.15
  39  0.125  0.375  0.647- 167 2.09 166 2.10 182 2.11 189 2.12 165 2.12
  40  0.250  0.250  0.647- 168 2.08 181 2.09 165 2.12 158 2.12 166 2.12
  41  0.375  0.000  0.351- 169 2.12 156 2.12 171 2.12 211 2.12 236 2.12
  42  0.000  0.125  0.351- 170 2.12 155 2.12 172 2.12 180 2.12 235 2.12
  43  0.375  0.125  0.450- 175 2.11 171 2.12 154 2.12 169 2.12 177 2.12 234 2.12
  44  0.000  0.000  0.450- 176 2.11 172 2.12 153 2.12 170 2.12 210 2.12 233 2.12
  45  0.375  1.000  0.550- 175 2.11 215 2.12 240 2.12 169 2.12 160 2.12 173 2.15
  46  0.000  0.125  0.550- 239 2.11 159 2.11 176 2.12 184 2.12 170 2.12 174 2.14
  47  0.375  0.125  0.647- 175 2.08 181 2.10 173 2.12 158 2.12 238 2.12
  48  0.000  1.000  0.648- 176 2.10 237 2.11 157 2.11 214 2.12 174 2.12
  49  0.375  0.250  0.351- 177 2.12 171 2.12 164 2.12 179 2.12 244 2.12
  50  0.000  0.375  0.351- 178 2.12 163 2.12 180 2.12 204 2.12 243 2.12
  51  0.375  0.375  0.450- 179 2.12 177 2.12 162 2.12 201 2.12 242 2.12 183 2.13
  52  0.000  0.250  0.450- 184 2.11 180 2.12 178 2.12 161 2.12 170 2.12 241 2.12
  53  0.376  0.251  0.550- 248 2.11 183 2.11 181 2.12 168 2.13 175 2.13 177 2.13
  54  0.000  0.375  0.550- 247 2.11 167 2.11 208 2.12 178 2.12 184 2.12 182 2.15
  55  0.375  0.375  0.651- 246 2.13 166 2.13 181 2.14 205 2.15 183 2.16
  56  0.000  0.250  0.647- 184 2.09 165 2.11 245 2.11 174 2.12 182 2.12
  57  0.125  0.500  0.351- 185 2.12 163 2.12 187 2.12 188 2.12 204 2.12
  58  0.250  0.625  0.351- 186 2.12 187 2.12 188 2.12 196 2.12 203 2.12
  59  0.125  0.625  0.450- 191 2.11 187 2.12 185 2.12 186 2.12 193 2.12 202 2.12
  60  0.250  0.500  0.450- 192 2.11 188 2.12 186 2.12 162 2.12 185 2.12 201 2.12
[...]
 266  0.500  0.625  0.450- 138 2.12 123 2.12  75 2.12 140 2.12 148 2.12 142 2.13
 267  0.875  0.625  0.351- 139 2.12 122 2.12 137 2.12  74 2.12 145 2.12
 268  0.500  0.500  0.351- 140 2.12 114 2.12 121 2.12 138 2.12  73 2.12
 269  0.875  0.500  0.650-  80 2.11 143 2.12 128 2.12 119 2.12 141 2.15
 270  0.500  0.626  0.650- 152 2.10  79 2.12 127 2.12 144 2.13 142 2.14
 271  0.875  0.625  0.549- 143 2.10 139 2.11  78 2.11 149 2.12 126 2.12 141 2.12
 272  0.500  0.500  0.550- 142 2.10 125 2.11  77 2.11 118 2.12 140 2.13 144 2.16
 273  0.875  0.750  0.450- 145 2.12 132 2.12 139 2.12  84 2.12 147 2.12 149 2.12
 274  0.500  0.875  0.450- 146 2.12 108 2.12 131 2.12  83 2.12 148 2.12 150 2.12
 275  0.875  0.875  0.351- 147 2.12 105 2.12 130 2.12 145 2.12  82 2.12
 276  0.500  0.750  0.351- 148 2.12 129 2.12 138 2.12 146 2.12  81 2.12
 277  0.875  0.750  0.650-  88 2.11 151 2.11 143 2.12 136 2.12 149 2.14
 278  0.500  0.875  0.650- 152 2.11 112 2.11 135 2.12  87 2.12 150 2.15
 279  0.875  0.875  0.549- 151 2.10 147 2.11  86 2.12 109 2.12 149 2.12 134 2.12
 280  0.500  0.750  0.549- 152 2.09 148 2.11 150 2.11 133 2.12  85 2.12 142 2.13

IMPORTANT INFORMATION: All symmetrisations will be switched off!
NOSYMM: (Re-)initialisation of all symmetry stuff for point group C_1.

                                     Primitive cell

  volume of cell :    6122.6422

  direct lattice vectors                    reciprocal lattice vectors
    16.934285261  0.000000000  0.000000000     0.059051798  0.000000000  0.000000000
     0.000000000 16.934285261  0.000000000     0.000000000  0.059051798  0.000000000
     0.000000000  0.000000000 21.350356973     0.000000000  0.000000000  0.046837624

  length of vectors
    16.934285261 16.934285261 21.350356973     0.059051798  0.059051798  0.046837624

  position of ions in fractional coordinates (direct lattice)
     0.527697817  0.554917398  0.793855915
     0.320743285  0.401023348  0.794525226
     0.473900184  0.195109725  0.794567180
     0.679838993  0.346598032  0.793859388
     0.508155801  0.487029642  0.756249271
     0.388337104  0.382453515  0.756302694
     0.492348468  0.262579403  0.756168770
     0.612200349  0.366804741  0.756201248
     0.519004007  0.542257809  0.844005403
     0.552315633  0.447850318  0.758695887
     0.589511506  0.572185211  0.785555578
     0.489273453  0.603463142  0.778871865
     0.334026370  0.391850155  0.844521562
     0.427366719  0.426739399  0.758858400
     0.302853723  0.462768635  0.786793976
     0.272350605  0.362353950  0.779612259
     0.483293388  0.208558700  0.844518117
     0.448127493  0.301720371  0.758789701
     0.412118886  0.177179305  0.787036137
     0.512525746  0.146671172  0.779673154
     0.667211098  0.355460994  0.843993279
     0.572733810  0.322854287  0.758497488
     0.696444743  0.284596584  0.785609300
[...]
   6.34268985  6.34981700 13.90287580
   0.00031653  4.23111058 13.82379256
   2.11678566  8.46714263  7.50000000
   4.23357132 10.58392829  7.50000000
   2.11678566 10.58392829  9.61678566
   4.23357132  8.46714263  9.61678566
[...]
   8.46714263 10.58392829  9.61678566
  14.81749960 10.58392829  7.50000000
   8.46714263  8.46714263  7.50000000
  14.82181723  8.47146019 13.88179742
   8.46702657 10.60769622 13.88565067
  14.81975101 10.58609462 11.72933742
   8.46791725  8.47391451 11.74417834
  14.81749960 12.70071395  9.61678566
   8.46714263 14.81749960  9.61678566
  14.81749960 14.81749960  7.50000000
   8.46714263 12.70071395  7.50000000
  14.82133627 12.70387475 13.88068815
   8.46737335 14.81749822 13.88049175
  14.81905231 14.81758001 11.72945377
   8.46743443 12.70422213 11.72862687

--------------------------------------- Iteration      FINAL  ---------------------------------------

--------------------OUTCAR has been truncated-------------------------

[...]

--------------------OUTCAR has been truncated-------------------------

  FORCE on cell =-STRESS in cart. coord.  units (eV):
  Direction    XX          YY          ZZ          XY          YZ          ZX
  Alpha Z  3649.39383  3649.39383  3649.39383
  Ewald  630898.83805630905.91642************    -1.80021    -6.39237    -2.73541
  Hartree672697.12055672703.37616************    -1.13769    -4.41991    -2.53142
  E(xc)  -10090.35401-10090.34832-10122.07017    -0.00253    -0.00715     0.00099
  Local  ************************************     2.83301    10.65312     5.22642
  n-local-11331.91658-11331.90144-11408.59538    -0.01744    -0.07493     0.01287
  augment  4210.36242  4210.35779  4177.78465     0.00120     0.01412     0.00682
  Kinetic 30139.25524 30139.24320 30343.56949     0.11314     0.28332    -0.08607
  Fock        0.00000     0.00000     0.00000     0.00000     0.00000     0.00000
  vdW       -87.38583   -87.38591   -68.48098    -0.00076     0.00165     0.00050
  Total    -108.29841  -108.32836     3.22488    -0.01128     0.05785    -0.10530
  in kB     -28.33961   -28.34744     0.84389    -0.00295     0.01514    -0.02755

 VOLUME and BASIS-vectors are now :
  energy-cutoff  :      520.00
  volume of cell :     6122.64
      direct lattice vectors                 reciprocal lattice vectors
    16.934285261  0.000000000  0.000000000     0.059051798  0.000000000  0.000000000
     0.000000000 16.934285261  0.000000000     0.000000000  0.059051798  0.000000000
     0.000000000  0.000000000 21.350356973     0.000000000  0.000000000  0.046837624

  length of vectors
    16.934285261 16.934285261 21.350356973     0.059051798  0.059051798  0.046837624

 FORCES acting on ions:
    Electron-Ion                     Ewald-Force                    Non-Local-Force
   -.387E+02 -.195E+03 -.102E+04   0.399E+02 0.201E+03 0.102E+04   -.116E+01 -.566E+01 -.327E+01
   0.195E+03 -.372E+02 -.102E+04   -.201E+03 0.383E+02 0.102E+04   0.563E+01 -.110E+01 -.333E+01
   0.371E+02 0.195E+03 -.102E+04   -.382E+02 -.201E+03 0.102E+04   0.108E+01 0.561E+01 -.335E+01
   -.195E+03 0.395E+02 -.102E+04   0.201E+03 -.408E+02 0.102E+04   -.564E+01 0.120E+01 -.327E+01
   0.387E+02 -.107E+03 -.153E+04   -.681E+02 0.103E+03 0.152E+04   0.295E+02 0.411E+01 0.191E+02
   0.107E+03 0.364E+02 -.153E+04   -.103E+03 -.655E+02 0.151E+04   -.408E+01 0.292E+02 0.195E+02
   -.362E+02 0.108E+03 -.153E+04   0.652E+02 -.104E+03 0.151E+04   -.290E+02 -.401E+01 0.196E+02
   -.107E+03 -.401E+02 -.153E+04   0.103E+03 0.696E+02 0.152E+04   0.391E+01 -.296E+02 0.190E+02
   0.301E+01 -.188E+02 -.253E+03   -.376E+01 0.178E+02 0.259E+03   0.745E+00 0.103E+01 -.544E+01
   -.577E+02 0.206E+02 -.265E+03   0.632E+02 -.256E+02 0.265E+03   -.551E+01 0.504E+01 -.214E+00
   -.652E+02 -.475E+02 -.241E+03   0.705E+02 0.490E+02 0.240E+03   -.534E+01 -.154E+01 0.906E+00
   0.325E+02 -.750E+02 -.240E+03   -.359E+02 0.793E+02 0.238E+03   0.338E+01 -.439E+01 0.176E+01
   0.182E+02 0.361E+01 -.253E+03   -.171E+02 -.439E+01 0.258E+03   -.108E+01 0.786E+00 -.543E+01
   -.205E+02 -.580E+02 -.265E+03   0.254E+02 0.635E+02 0.265E+03   -.502E+01 -.553E+01 -.227E+00
   0.480E+02 -.649E+02 -.241E+03   -.496E+02 0.702E+02 0.240E+03   0.160E+01 -.534E+01 0.846E+00
   0.749E+02 0.329E+02 -.239E+03   -.793E+02 -.363E+02 0.238E+03   0.437E+01 0.340E+01 0.175E+01
   -.384E+01 0.181E+02 -.253E+03   0.464E+01 -.170E+02 0.258E+03   -.806E+00 -.110E+01 -.542E+01
   0.577E+02 -.203E+02 -.265E+03   -.632E+02 0.253E+02 0.266E+03   0.550E+01 -.502E+01 -.235E+00
   0.649E+02 0.480E+02 -.241E+03   -.702E+02 -.497E+02 0.240E+03   0.534E+01 0.160E+01 0.822E+00
   -.329E+02 0.750E+02 -.239E+03   0.362E+02 -.793E+02 0.238E+03   -.339E+01 0.438E+01 0.175E+01
   -.188E+02 -.312E+01 -.253E+03   0.178E+02 0.388E+01 0.259E+03   0.103E+01 -.760E+00 -.544E+01
   0.210E+02 0.569E+02 -.265E+03   -.260E+02 -.623E+02 0.265E+03   0.506E+01 0.547E+01 -.189E+00
   -.471E+02 0.655E+02 -.241E+03   0.486E+02 -.708E+02 0.240E+03   -.149E+01 0.536E+01 0.901E+00
   -.753E+02 -.319E+02 -.240E+03   0.798E+02 0.352E+02 0.238E+03   -.443E+01 -.333E+01 0.176E+01
   0.548E+01 0.550E+01 0.207E+04   -.547E+01 -.549E+01 -.206E+04   -.600E-02 -.616E-02 -.712E+01
   0.919E+01 0.911E+01 0.208E+04   -.916E+01 -.909E+01 -.207E+04   -.208E-01 -.208E-01 -.713E+01
   0.111E+02 0.125E+02 0.721E+03   -.111E+02 -.125E+02 -.721E+03   -.148E-01 -.889E-02 0.411E+00
   0.127E+02 0.112E+02 0.721E+03   -.127E+02 -.112E+02 -.722E+03   -.753E-02 -.130E-01 0.404E+00
   0.151E+02 0.151E+02 -.647E+03   -.150E+02 -.150E+02 0.647E+03   -.105E-01 -.142E-01 -.171E+00
   0.350E+02 0.342E+02 -.613E+03   -.349E+02 -.341E+02 0.613E+03   -.689E-01 -.818E-01 -.715E-01
   0.393E+02 0.372E+02 -.200E+04   -.392E+02 -.372E+02 0.199E+04   -.107E+00 0.102E-02 0.624E+01
   0.391E+02 0.399E+02 -.200E+04   -.390E+02 -.398E+02 0.199E+04   -.164E-01 -.113E+00 0.623E+01
   0.737E+01 0.550E+01 0.208E+04   -.734E+01 -.549E+01 -.207E+04   -.205E-01 -.783E-02 -.713E+01
   0.111E+02 -.459E-01 0.208E+04   -.110E+02 0.453E-01 -.207E+04   -.408E-01 0.149E-03 -.716E+01
   0.142E+02 -.252E-01 0.730E+03   -.141E+02 0.224E-01 -.731E+03   -.637E-01 0.210E-02 0.383E+00
   0.190E+02 0.113E+02 0.741E+03   -.189E+02 -.112E+02 -.741E+03   -.794E-01 -.442E-01 0.312E+00
   0.307E+02 0.174E+02 -.622E+03   -.306E+02 -.174E+02 0.622E+03   -.140E+00 -.359E-01 -.778E-01
   0.554E+02 0.292E+00 -.577E+03   -.549E+02 -.300E+00 0.577E+03   -.499E+00 0.813E-02 -.255E+00
   0.774E+02 0.162E+01 -.196E+04   -.770E+02 -.161E+01 0.196E+04   -.420E+00 -.847E-02 0.625E+01
   0.119E+03 0.665E+02 -.191E+04   -.118E+03 -.665E+02 0.190E+04   -.656E+00 0.421E-01 0.632E+01
   0.560E+01 0.743E+01 0.208E+04   -.559E+01 -.740E+01 -.207E+04   -.828E-02 -.204E-01 -.712E+01
   -.549E-01 0.724E+01 0.207E+04   0.548E-01 -.723E+01 -.206E+04   0.282E-04 -.598E-02 -.712E+01
   0.116E+02 0.188E+02 0.741E+03   -.115E+02 -.187E+02 -.742E+03   -.463E-01 -.835E-01 0.320E+00
   -.749E-01 0.777E+01 0.712E+03   0.753E-01 -.777E+01 -.712E+03   -.217E-03 0.132E-02 0.440E+00
   0.177E+02 0.313E+02 -.621E+03   -.176E+02 -.312E+02 0.621E+03   -.355E-01 -.133E+00 -.858E-01
   -.334E+00 0.184E+02 -.643E+03   0.336E+00 -.184E+02 0.643E+03   -.961E-03 0.852E-02 -.165E+00
   0.701E+02 0.118E+03 -.190E+04   -.702E+02 -.118E+03 0.189E+04   0.917E-01 -.509E+00 0.637E+01
   -.230E+00 0.182E+02 -.201E+04   0.230E+00 -.182E+02 0.201E+04   0.619E-03 0.112E-01 0.625E+01
   0.750E+01 0.737E+01 0.208E+04   -.746E+01 -.733E+01 -.208E+04   -.277E-01 -.280E-01 -.719E+01
   -.570E-01 -.504E-01 0.207E+04   0.570E-01 0.501E-01 -.207E+04   -.321E-04 0.199E-03 -.712E+01
   0.143E+02 -.889E-01 0.759E+03   -.141E+02 0.929E-01 -.760E+03   -.949E-01 -.263E-02 0.417E+00
   -.153E+00 0.799E+01 0.722E+03   0.157E+00 -.799E+01 -.723E+03   -.286E-02 0.966E-04 0.429E+00
   0.388E+02 0.378E+02 -.547E+03   -.384E+02 -.374E+02 0.547E+03   -.395E+00 -.410E+00 -.844E+00
   -.217E+00 0.222E-02 -.630E+03   0.214E+00 0.917E-03 0.630E+03   0.229E-02 -.654E-02 -.128E+00
   0.133E+03 0.558E+01 -.170E+04   -.133E+03 -.556E+01 0.170E+04   -.309E+00 -.240E-01 0.363E+01
   -.113E+01 0.219E+02 -.199E+04   0.114E+01 -.219E+02 0.199E+04   -.333E-02 0.526E-01 0.625E+01
   0.737E+01 -.557E+01 0.208E+04   -.735E+01 0.555E+01 -.207E+04   -.207E-01 0.818E-02 -.712E+01
   0.915E+01 -.913E+01 0.208E+04   -.913E+01 0.911E+01 -.207E+04   -.212E-01 0.207E-01 -.713E+01
   0.111E+02 -.126E+02 0.721E+03   -.111E+02 0.126E+02 -.721E+03   -.160E-01 0.585E-02 0.414E+00
   0.189E+02 -.114E+02 0.741E+03   -.188E+02 0.114E+02 -.741E+03   -.873E-01 0.454E-01 0.322E+00
[...]
   -.487E+01 -.585E+01 0.156E+04   0.485E+01 0.584E+01 -.156E+04   0.179E-01 0.111E-01 0.344E+01
   0.450E-01 -.585E+01 0.157E+04   -.452E-01 0.582E+01 -.157E+04   0.260E-03 0.431E-01 0.335E+01
   -.458E+02 -.250E+02 -.151E+04   0.457E+02 0.249E+02 0.151E+04   0.735E-01 0.854E-01 -.515E+01
   0.475E+01 -.111E+03 -.142E+04   -.474E+01 0.111E+03 0.143E+04   -.149E-01 0.432E+00 -.505E+01
   -.163E+02 -.167E+02 -.470E+03   0.162E+02 0.167E+02 0.470E+03   0.540E-01 0.496E-01 0.385E+00
   0.285E+00 -.297E+02 -.395E+03   -.282E+00 0.294E+02 0.395E+03   -.295E-02 0.327E+00 -.361E+00
   -.655E+01 -.648E+01 0.536E+03   0.653E+01 0.647E+01 -.536E+03   0.189E-01 0.159E-01 -.498E-02
   0.506E-01 0.818E-01 0.543E+03   -.513E-01 -.842E-01 -.543E+03   0.855E-03 0.701E-03 0.778E-02
   -.384E+01 0.373E-01 0.155E+04   0.384E+01 -.372E-01 -.156E+04   0.790E-02 0.221E-02 0.345E+01
   0.374E-01 -.579E+01 0.156E+04   -.378E-01 0.577E+01 -.156E+04   0.674E-03 0.301E-01 0.342E+01
   -.177E+02 -.175E+02 -.153E+04   0.177E+02 0.174E+02 0.154E+04   0.440E-01 0.422E-01 -.516E+01
   0.105E+00 0.129E+00 -.152E+04   -.105E+00 -.128E+00 0.152E+04   -.691E-03 -.121E-02 -.514E+01
   -.928E+01 0.147E+00 -.481E+03   0.926E+01 -.149E+00 0.481E+03   0.193E-01 0.999E-03 0.384E+00
   0.364E+00 -.238E+02 -.454E+03   -.362E+00 0.236E+02 0.454E+03   -.197E-02 0.227E+00 0.461E+00
   -.156E+00 0.191E+00 0.278E+02   -.324E-11 0.143E-11 -.227E-10   0.162E+00 -.242E+00 -.277E+02

 POSITION                                       TOTAL-FORCE (eV/Angst)
      8.93619      9.39713     16.94911         0.034862      0.071426      0.027238
      5.43156      6.79104     16.96340        -0.072896      0.030650      0.035544
      8.02516      3.30404     16.96429        -0.035921     -0.076111      0.028774
     11.51259      5.86939     16.94918         0.072089     -0.040160      0.031940
      8.60526      8.24750     16.14619         0.036196     -0.118755     -0.051940
      6.57621      6.47658     16.14733         0.118845      0.036357     -0.053601
      8.33757      4.44659     16.14447        -0.041657      0.114675     -0.046593
     10.36718      6.21158     16.14517        -0.121264     -0.036478     -0.053059
      8.78896      9.18275     18.01982         0.000614      0.009248     -0.001680
      9.35307      7.58403     16.19843        -0.061912      0.071008      0.021660
      9.98296      9.68955     16.77189        -0.023845      0.010300      0.016755
      8.28550     10.21922     16.62919         0.015607     -0.015985      0.020565
      5.65650      6.63570     18.03084        -0.009199      0.001326     -0.002801
      7.23715      7.22653     16.20190        -0.070240     -0.061021      0.020750
      5.12861      7.83666     16.79833        -0.011556     -0.021748      0.016089
      4.61206      6.13621     16.64500         0.016680      0.017557      0.021371
      8.18423      3.53179     18.03076        -0.004205     -0.010482     -0.007279
      7.58872      5.10942     16.20043         0.063111     -0.071586      0.018886
      6.97894      3.00040     16.80350         0.024493     -0.009120      0.015455
      8.67926      2.48377     16.64630        -0.018421      0.016688      0.020307
     11.29874      6.01948     18.01956         0.009251     -0.000226      0.000402
      9.69884      5.46731     16.19419         0.072686      0.061393      0.021463
     11.79379      4.81944     16.77304         0.012363      0.021025      0.015484
     12.34181      6.51114     16.62987        -0.014000     -0.013277      0.018538
      2.11679      0.00000      7.50000         0.001630      0.001873      0.372248
      4.23357      2.11679      7.50000         0.005880      0.006503      0.377311
      2.11679      2.11679      9.61679         0.003801      0.002689      0.008172
      4.23357      0.00000      9.61679         0.001787      0.003022      0.006847
      2.11613     16.93357     11.73596         0.000224     -0.000094     -0.037755
      4.23318      2.11631     11.73313         0.000606      0.000894     -0.038462
      2.11491      2.11315     13.82427        -0.002815      0.001597      0.072500
      4.23027     16.93182     13.82361         0.000147      0.000090      0.077149
      2.11679      4.23357      7.50000         0.006040      0.002599      0.376252
      4.23357      6.35036      7.50000         0.011316     -0.000300      0.387582
      2.11679      6.35036      9.61679         0.027159     -0.000577      0.022531
      4.23357      4.23357      9.61679         0.034567      0.016575      0.038898
      2.11606      4.23363     11.73403         0.001868     -0.000132     -0.035339
      4.24150      6.35016     11.74222        -0.003571      0.000147     -0.031581
      2.11417      6.35065     13.81996         0.004820      0.001142      0.075528
      4.22964      4.22759     13.81071         0.004296      0.010438      0.080686
      6.35036      0.00000      7.50000         0.002510      0.005879      0.375892
      0.00000      2.11679      7.50000        -0.000025      0.001934      0.372385
      6.35036      2.11679      9.61679         0.017111      0.036632      0.039118
      0.00000      0.00000      9.61679         0.000154     -0.000630      0.008054
      6.35057     16.93323     11.73364        -0.001828      0.001583     -0.032903
      0.00013      2.11545     11.73543         0.000921      0.001446     -0.033866
      6.34442      2.11213     13.80945         0.009640      0.004748      0.078340
      0.00017     16.93263     13.82606         0.000499      0.001606      0.074495
      6.35036      4.23357      7.50000         0.007548      0.008220      0.394495
      0.00000      6.35036      7.50000        -0.000022      0.000109      0.373527
      6.35036      6.35036      9.61679         0.043398      0.001524      0.108969
      0.00000      4.23357      9.61679         0.000989      0.000028      0.004365
      6.35886      4.24285     11.75145        -0.001905     -0.003986     -0.034446
      0.00024      6.35081     11.73452        -0.000184     -0.003100     -0.031412
      6.34269      6.34982     13.90288         0.002934     -0.006058     -0.003746
      0.00032      4.23111     13.82379        -0.000972      0.001837      0.079301
      2.11679      8.46714      7.50000         0.005740     -0.002317      0.375660
      4.23357     10.58393      7.50000         0.006000     -0.005296      0.377177
      2.11679     10.58393      9.61679         0.004039     -0.001060      0.008512
      4.23357      8.46714      9.61679         0.037539     -0.016521      0.039241
[...]
      8.46714     10.58393      9.61679         0.000559      0.023316      0.036514
     14.81750     10.58393      7.50000         0.006682      0.001548     -0.454392
      8.46714      8.46714      7.50000         0.000050      0.012404     -0.481310
     14.82182      8.47146     13.88180        -0.003542     -0.001441     -0.009055
      8.46703     10.60770     13.88565         0.003325     -0.018067     -0.018356
     14.81975     10.58609     11.72934         0.000663     -0.002319     -0.013007
      8.46792      8.47391     11.74418         0.000139     -0.004357     -0.003285
     14.81750     12.70071      9.61679         0.006420      0.004705      0.042994
      8.46714     14.81750      9.61679         0.000215     -0.001482      0.035056
     14.81750     14.81750      7.50000         0.003874      0.002507     -0.452274
      8.46714     12.70071      7.50000         0.000170      0.008652     -0.460377
     14.82134     12.70387     13.88069        -0.000168      0.000791     -0.010815
      8.46737     14.81750     13.88049        -0.000307     -0.000251     -0.007911
     14.81905     14.81758     11.72945         0.000314     -0.000602     -0.008761
      8.46743     12.70422     11.72863        -0.000176     -0.001215     -0.017428
    total drift:                                0.005871     -0.051304      0.099757

  FREE ENERGIE OF THE ION-ELECTRON SYSTEM (eV)
  free  energy   TOTEN  =     -1607.56290599 eV

  energy  without entropy=    -1607.56290599  energy(sigma->0) =    -1607.56290599