 vasp.6.4.2 20Jul23 (build Feb 22 2024 13:53:45) complex
 executed on              LinuxNV date 2024.08.27  17:21:50
 OpenACC runtime initialized ...    4 GPUs detected

 INCAR:
   SYSTEM = Oxide-Surface
   ISMEAR = 0
   SIGMA = 0.05
   EDIFF = 1E-5
   ALGO = Normal
   IBRION = -1
   NSW = 0
   ISYM = 0
   DIPOL = 0.5 0.5 0.5
   IDIPOL = 3
   LDIPOL = .TRUE.
   ISTART = 1
   GGA = MK
   LUSE_VDW = .TRUE.
   PARAM1 = 0.1234
   PARAM2 = 0.711357
   ZAB_VDW = -1.8867
   AGGAC = 0.0
   ENCUT = 1000
   PREC = Normal
   PRECFOCK = Normal
   LASPH = .TRUE.
   LREAL = Auto
   ISPIN = 1
   NELM = 200
   NELMIN = 8
   NCORE = 1
   KPAR = 1
   LWAVE = .FALSE.
   LCHARG = .FALSE.

 POTCAR:    PAW_PBE C_h 06Feb2004
 POTCAR:    PAW_PBE O_h 06Feb2004
 POTCAR:    PAW_PBE Mg_sv 12Apr2007
 POTCAR:    PAW_PBE O_h 06Feb2004
|               ----> ADVICE to this user running VASP <----                  |
|     You have switched on vdW-DFT.                                           |
|     This routine was written and supplied by Jiri Klimes. We recommend      |
|     that you carefully read and cite the following publications:            |
|       J. Klimes, D.R. Bowler, A. Michelides                                 |
|          J. Phys.: Cond Matt. 22 022201 (2010)                              |
|       J. Klimes, D.R. Bowler, A. Michelides                                 |
|          Phys. Rev. B. 83, 195131 (2011)                                    |
|     and references therein.                                                 |

   TITEL  = PAW_PBE C_h 06Feb2004
   POMASS =   12.011; ZVAL   =    4.000    mass and valenz
   ENMAX  =  700.000; ENMIN  =  500.000 eV

[...]

   TITEL  = PAW_PBE Mg_sv 12Apr2007
   POMASS =   24.305; ZVAL   =   10.000    mass and valenz
   ENMAX  =  495.223; ENMIN  =  371.417 eV

   TITEL  = PAW_PBE O_h 06Feb2004
   POMASS =   16.000; ZVAL   =    6.000    mass and valenz
   ENMAX  =  700.000; ENMIN  =  500.000 eV

 Optimization of the real space projectors (new method)

 maximal supplied QI-value         = 34.20
 optimisation between [QCUT,QGAM] = [ 16.08, 32.15] = [ 72.37,289.48] Ry
 Optimized for a Real-space Cutoff    0.71 Angstroem

   l    n(q)    QCUT    max X(q) W(low)/X(q) W(high)/X(q)  e(spline)
   0      7    16.076   134.812    0.49E-03    0.92E-03    0.59E-07
   0      7    16.076    80.524    0.48E-03    0.91E-03    0.58E-07
   1      6    16.076    79.026    0.37E-03    0.58E-03    0.12E-06
   1      6    16.076    45.188    0.36E-03    0.56E-03    0.12E-06
 Optimization of the real space projectors (new method)

[...]

   l    n(q)    QCUT    max X(q) W(low)/X(q) W(high)/X(q)  e(spline)
   0      9    16.140     8.730    0.14E-04    0.12E-04    0.27E-07
   0      9    16.140     8.910    0.19E-04    0.17E-04    0.41E-07
   1      9    16.140     2.513    0.16E-04    0.28E-04    0.54E-07
   1      9    16.140     3.341    0.27E-04    0.13E-03    0.17E-06
   2      9    16.140     3.683    0.18E-03    0.21E-03    0.81E-07
 Optimization of the real space projectors (new method)

 maximal supplied QI-value         = 34.20
 optimisation between [QCUT,QGAM] = [ 16.08, 32.15] = [ 72.37,289.48] Ry
 Optimized for a Real-space Cutoff    0.71 Angstroem

   l    n(q)    QCUT    max X(q) W(low)/X(q) W(high)/X(q)  e(spline)
   0      7    16.076   280.207    0.42E-03    0.69E-03    0.60E-07
   0      7    16.076   228.978    0.42E-03    0.69E-03    0.61E-07
   1      6    16.076    86.127    0.11E-03    0.66E-03    0.10E-06
   1      6    16.076    65.368    0.11E-03    0.65E-03    0.10E-06
|               ----> ADVICE to this user running VASP <----                  |
|     You enforced a specific xc type in the INCAR file but a different       |
|     type was found in the POTCAR file.                                      |
|     I HOPE YOU KNOW WHAT YOU ARE DOING!                                     |

  PAW_PBE C_h 06Feb2004                 :
  PAW_PBE O_h 06Feb2004                 :
  PAW_PBE Mg_sv 12Apr2007               :
  PAW_PBE O_h 06Feb2004                 :

 POSCAR:  C  O Mg  O
  positions in direct lattice
 exchange correlation table for  LEXCH =       43
   RHO(1)=    0.500       N(1)  =     2000
   RHO(2)=  100.500       N(2)  =     4000

 ion  position               nearest neighbor table
   1  0.625  0.625  0.762-   3 1.18   2 1.18
   2  0.526  0.526  0.764-   1 1.18
   3  0.724  0.724  0.764-   1 1.18
   4  0.000  0.750  0.236-
   5  0.250  0.000  0.236-
   6  0.000  0.000  0.360-
   7  0.250  0.750  0.360-
   8  0.000  0.750  0.485-
   9  0.250  1.000  0.485-
  10  0.000  0.000  0.609-
  11  0.250  0.750  0.609-
  12  0.000  0.250  0.236-
  13  0.250  0.500  0.236-
  14  0.000  0.500  0.360-
  15  0.250  0.250  0.360-
  16  1.000  0.250  0.485-
  17  0.250  0.500  0.485-
  18  0.000  0.500  0.609-
  19  0.250  0.250  0.609-
  20  0.500  0.750  0.236-
  21  0.750  0.000  0.236-
  22  0.500  0.000  0.360-
  23  0.750  0.750  0.360-
  24  0.500  0.750  0.485-
  25  0.750  0.000  0.485-
  26  0.500  0.000  0.609-
  27  0.752  0.752  0.609-
  28  0.500  0.250  0.236-
  29  0.750  0.500  0.236-
  30  0.500  0.500  0.360-
  31  0.750  0.250  0.360-
  32  0.500  0.250  0.485-
  33  0.750  0.500  0.485-
  34  0.498  0.498  0.609-
  35  0.750  0.250  0.609-
  36  0.000  0.750  0.360-
  37  0.250  0.000  0.360-
  38  0.000  0.000  0.236-
  39  0.250  0.750  0.236-
  40  0.001  0.750  0.611-
  41  0.250  1.000  0.612-
  42  0.000  0.000  0.485-
  43  0.250  0.750  0.485-
  44  0.000  0.250  0.360-
  45  0.250  0.500  0.360-
  46  0.000  0.500  0.236-
  47  0.250  0.250  0.236-
  48  1.000  0.250  0.612-
  49  0.249  0.500  0.611-
  50  1.000  0.500  0.485-
  51  0.250  0.250  0.485-
  52  0.500  0.750  0.360-
  53  0.750  0.000  0.360-
  54  0.500  0.000  0.236-
  55  0.750  0.750  0.236-
  56  0.500  0.750  0.613-
  57  0.750  0.001  0.611-
  58  0.500  1.000  0.485-
  59  0.750  0.750  0.485-
  60  0.500  0.250  0.360-
  61  0.750  0.500  0.360-
  62  0.500  0.500  0.236-
  63  0.750  0.250  0.236-
  64  0.500  0.249  0.611-
  65  0.750  0.500  0.613-
  66  0.500  0.500  0.485-
  67  0.750  0.250  0.485-

IMPORTANT INFORMATION: All symmetrisations will be switched off!
NOSYMM: (Re-)initialisation of all symmetry stuff for point group C_1.

                                     Primitive cell

  volume of cell :    1211.2538

  direct lattice vectors                    reciprocal lattice vectors
     8.440984654  0.000000000  0.000000000     0.118469591  0.000000000  0.000000000
     0.000000000  8.440984654  0.000000000     0.000000000  0.118469591  0.000000000
     0.000000000  0.000000000 17.000000000     0.000000000  0.000000000  0.058823529

  length of vectors
     8.440984654  8.440984654 17.000000000     0.118469591  0.118469591  0.058823529

  position of ions in fractional coordinates (direct lattice)
     0.625033636  0.625033636  0.762419616
     0.526174150  0.526174133  0.764180546
     0.723885278  0.723885283  0.764179839
     0.000030738  0.750030735  0.235819454
     0.250030738  0.000030735  0.235819454
     0.000030738  0.000030735  0.359951582
     0.250030738  0.750030735  0.359951582
     0.000201210  0.750096264  0.484924403
     0.250092311  0.999969265  0.484937667
     0.000230924  0.000230921  0.608776447
     0.249858919  0.749819737  0.608667763
     0.000030738  0.250030735  0.235819454
     0.250030738  0.500030735  0.235819454
     0.000030738  0.500030735  0.359951582
     0.250030738  0.250030735  0.359951582
     0.999969262  0.250092302  0.484937664
     0.249860443  0.499965307  0.484924424
     0.000202696  0.500241874  0.608667759
     0.249830687  0.249830684  0.608776513
     0.500030738  0.750030735  0.235819454
     0.750030738  0.000030735  0.235819454
     0.500030738  0.000030735  0.359951582
     0.750030738  0.750030735  0.359951582
     0.500301088  0.749760405  0.485169396
     0.750096258  0.000201208  0.484924406
     0.500241885  0.000202690  0.608667756
     0.751949439  0.751949450  0.609119152
     0.500030738  0.250030735  0.235819454
     0.750030738  0.500030735  0.235819454
     0.500030738  0.500030735  0.359951582
     0.750030738  0.250030735  0.359951582
     0.499965312  0.249860434  0.484924423
     0.749760398  0.500301085  0.485169393
     0.498112182  0.498112177  0.609119267
     0.749819734  0.249858918  0.608667762
     0.000030738  0.750030735  0.359951582
     0.250030738  0.000030735  0.359951582
     0.000030738  0.000030735  0.235819454
     0.250030738  0.750030735  0.235819454
     0.000691699  0.750207572  0.610894536
     0.250199398  0.999862199  0.611557811
     0.000145627  0.000145627  0.484545221
     0.250434878  0.750012183  0.484600927
     0.000030738  0.250030735  0.359951582
     0.250030738  0.500030735  0.359951582
     0.000030738  0.500030735  0.235819454
     0.250030738  0.250030735  0.235819454
     0.999862202  0.250199394  0.611557812
     0.249369970  0.499854062  0.610894625
     0.999626681  0.500049381  0.484600930
     0.249915938  0.249915934  0.484545237
     0.500030738  0.750030735  0.359951582
     0.750030738  0.000030735  0.359951582
     0.500030738  0.000030735  0.235819454
     0.750030738  0.750030735  0.235819454
     0.500350929  0.749710577  0.612502175
     0.750207565  0.000691696  0.610894534
     0.500049381  0.999626692  0.484600929
     0.750001397  0.750001391  0.484806093
     0.500030738  0.250030735  0.359951582
     0.750030738  0.500030735  0.359951582
     0.500030738  0.500030735  0.235819454
     0.750030738  0.250030735  0.235819454
     0.499854065  0.249369967  0.610894620
     0.749710588  0.500350924  0.612502182
     0.500060181  0.500060179  0.484806128
     0.750012185  0.250434879  0.484600929

  ion indices of the primitive-cell ions
   primitive index   ion index
                 1           1
                 2           2
                 3           3
                 4           4
                 5           5
                 6           6
                 7           7
                 8           8
                 9           9
                10          10
                11          11
                12          12
                13          13
                14          14
                15          15
                16          16
                17          17
                18          18
                19          19
                20          20
                21          21
                22          22
                23          23
                24          24
                25          25
                26          26
                27          27
                28          28
                29          29
                30          30
                31          31
                32          32
                33          33
                34          34
                35          35
                36          36
                37          37
                38          38
                39          39
                40          40
                41          41
                42          42
                43          43
                44          44
[...]
   6.33084135  2.11391697  8.23821580

--------------------------------------- Iteration      FINAL  ---------------------------------------

--------------------OUTCAR has been truncated-------------------------

[...]

--------------------OUTCAR has been truncated-------------------------

  FORCE on cell =-STRESS in cart. coord.  units (eV):
  Direction    XX          YY          ZZ          XY          YZ          ZX
  Alpha Z  1248.31882  1248.31882  1248.31882
  Ewald  105910.19249105910.19261************   387.37522    -0.00198    -0.00197
  Hartree122892.46295122892.46297************   174.73138    -0.00118    -0.00119
  E(xc)   -3293.51663 -3293.51663 -3295.69008     0.92821     0.00000     0.00000
  Local  ************************237587.07618  -527.80530     0.00289     0.00288
  n-local -5653.56423 -5653.56423 -5655.81908     3.30726     0.00086     0.00086
  augment   727.61039   727.61038   718.65678    -0.29981    -0.00029    -0.00029
  Kinetic 12898.04996 12898.04996 12946.63257   -38.92209     0.00020     0.00019
  Fock        0.00000     0.00000     0.00000     0.00000     0.00000     0.00000
  Total     -26.15130   -26.15130     0.28235    -0.68514     0.00048     0.00048
  in kB     -34.59144   -34.59144     0.37347    -0.90627     0.00064     0.00064

 VOLUME and BASIS-vectors are now :
  energy-cutoff  :     1000.00
  volume of cell :     1211.25
      direct lattice vectors                 reciprocal lattice vectors
     8.440984654  0.000000000  0.000000000     0.118469591  0.000000000  0.000000000
     0.000000000  8.440984654  0.000000000     0.000000000  0.118469591  0.000000000
     0.000000000  0.000000000 17.000000000     0.000000000  0.000000000  0.058823529

  length of vectors
     8.440984654  8.440984654 17.000000000     0.118469591  0.118469591  0.058823529

 FORCES acting on ions
    electron-ion (+dipol)            ewald-force                    non-local-force                 convergence-correction
   0.253E-01 0.253E-01 -.819E+03   -.282E-01 -.281E-01 0.819E+03   0.557E-02 0.557E-02 -.119E+00   -.158E-05 -.151E-06 -.338E-02
   0.189E+03 0.189E+03 -.124E+04   -.232E+03 -.232E+03 0.125E+04   0.429E+02 0.429E+02 -.276E+01   0.413E-03 0.412E-03 -.522E-02
   -.189E+03 -.189E+03 -.124E+04   0.232E+03 0.232E+03 0.125E+04   -.429E+02 -.429E+02 -.275E+01   -.415E-03 -.412E-03 -.522E-02
   -.919E+00 -.770E+00 0.244E+04   0.921E+00 0.773E+00 -.243E+04   -.167E-02 -.178E-02 -.884E+01   -.523E-04 -.527E-04 0.615E-02
   0.768E+00 -.767E+00 0.244E+04   -.770E+00 0.770E+00 -.243E+04   0.154E-02 -.145E-02 -.886E+01   0.523E-04 -.730E-04 0.634E-02
   -.127E+01 -.127E+01 0.848E+03   0.129E+01 0.129E+01 -.849E+03   -.200E-01 -.200E-01 0.619E+00   0.299E-04 0.285E-04 0.975E-02
   0.114E+01 -.130E+01 0.850E+03   -.109E+01 0.131E+01 -.850E+03   -.448E-01 -.165E-01 0.641E+00   -.411E-04 -.470E-05 0.961E-02
   -.802E+01 -.475E+01 -.729E+03   0.802E+01 0.475E+01 0.729E+03   0.161E-02 -.104E-02 -.506E+00   0.150E-03 0.989E-04 0.972E-02
   0.460E+01 -.460E+01 -.744E+03   -.460E+01 0.460E+01 0.744E+03   0.171E-02 -.103E-02 -.202E+00   -.120E-03 0.985E-04 0.982E-02
   -.245E+02 -.245E+02 -.234E+04   0.245E+02 0.245E+02 0.233E+04   -.244E-02 -.244E-02 0.748E+01   0.115E-03 0.124E-03 0.510E-02
   0.312E+02 -.264E+02 -.231E+04   -.315E+02 0.264E+02 0.231E+04   0.323E+00 0.849E-02 0.747E+01   -.109E-03 0.133E-03 0.518E-02
   -.767E+00 0.768E+00 0.244E+04   0.770E+00 -.770E+00 -.243E+04   -.145E-02 0.154E-02 -.886E+01   -.706E-04 0.443E-04 0.633E-02
   0.919E+00 0.770E+00 0.244E+04   -.921E+00 -.773E+00 -.243E+04   0.176E-02 0.186E-02 -.884E+01   0.386E-04 0.814E-04 0.617E-02
   -.114E+01 0.130E+01 0.850E+03   0.109E+01 -.131E+01 -.850E+03   0.437E-01 0.154E-01 0.640E+00   0.174E-04 -.654E-05 0.963E-02
   0.127E+01 0.127E+01 0.848E+03   -.129E+01 -.129E+01 -.849E+03   0.189E-01 0.189E-01 0.620E+00   -.402E-04 -.316E-04 0.975E-02
   -.460E+01 0.460E+01 -.744E+03   0.460E+01 -.460E+01 0.744E+03   -.103E-02 0.170E-02 -.202E+00   0.101E-03 -.888E-04 0.979E-02
   0.802E+01 0.475E+01 -.729E+03   -.802E+01 -.475E+01 0.729E+03   -.375E-02 0.188E-02 -.506E+00   -.168E-03 -.902E-04 0.973E-02
   -.312E+02 0.264E+02 -.231E+04   0.315E+02 -.264E+02 0.231E+04   -.324E+00 -.103E-01 0.747E+01   0.113E-03 -.119E-03 0.519E-02
   0.245E+02 0.245E+02 -.234E+04   -.245E+02 -.245E+02 0.233E+04   0.956E-03 0.959E-03 0.748E+01   -.109E-03 -.141E-03 0.510E-02
   0.930E+00 -.930E+00 0.244E+04   -.930E+00 0.930E+00 -.243E+04   0.602E-03 -.515E-03 -.887E+01   0.660E-04 -.450E-04 0.597E-02
   -.770E+00 -.919E+00 0.244E+04   0.773E+00 0.921E+00 -.243E+04   -.178E-02 -.167E-02 -.884E+01   -.610E-04 -.554E-04 0.615E-02
   0.130E+01 -.114E+01 0.850E+03   -.131E+01 0.109E+01 -.850E+03   0.154E-01 0.437E-01 0.640E+00   0.647E-05 0.404E-04 0.958E-02
   -.123E+01 -.123E+01 0.852E+03   0.120E+01 0.120E+01 -.852E+03   0.234E-01 0.234E-01 0.717E+00   0.979E-05 -.710E-05 0.949E-02
   0.816E+01 -.816E+01 -.722E+03   -.815E+01 0.815E+01 0.722E+03   -.190E-01 0.165E-01 0.583E-01   -.123E-03 0.106E-03 0.958E-02
   -.475E+01 -.802E+01 -.729E+03   0.475E+01 0.802E+01 0.729E+03   -.105E-02 0.162E-02 -.506E+00   0.119E-03 0.143E-03 0.974E-02
   0.264E+02 -.312E+02 -.231E+04   -.264E+02 0.315E+02 0.231E+04   -.103E-01 -.324E+00 0.747E+01   -.105E-03 0.130E-03 0.520E-02
   -.423E+02 -.423E+02 -.219E+04   0.429E+02 0.429E+02 0.218E+04   -.590E+00 -.590E+00 0.724E+01   0.763E-04 0.109E-03 0.493E-02
   0.770E+00 0.919E+00 0.244E+04   -.773E+00 -.921E+00 -.243E+04   0.186E-02 0.176E-02 -.884E+01   0.786E-04 0.303E-04 0.617E-02
   -.930E+00 0.930E+00 0.244E+04   0.930E+00 -.930E+00 -.243E+04   -.515E-03 0.600E-03 -.887E+01   -.521E-04 0.683E-04 0.598E-02
   0.123E+01 0.123E+01 0.852E+03   -.120E+01 -.120E+01 -.852E+03   -.245E-01 -.245E-01 0.716E+00   0.176E-04 0.346E-05 0.948E-02
   -.130E+01 0.114E+01 0.850E+03   0.131E+01 -.109E+01 -.850E+03   -.165E-01 -.448E-01 0.641E+00   0.114E-04 -.167E-04 0.961E-02
   0.475E+01 0.802E+01 -.729E+03   -.475E+01 -.802E+01 0.729E+03   0.188E-02 -.376E-02 -.506E+00   -.977E-04 -.146E-03 0.975E-02
   -.816E+01 0.816E+01 -.722E+03   0.815E+01 -.815E+01 0.722E+03   0.165E-01 -.190E-01 0.583E-01   0.130E-03 -.119E-03 0.955E-02
   0.423E+02 0.423E+02 -.219E+04   -.429E+02 -.429E+02 0.218E+04   0.593E+00 0.593E+00 0.724E+01   -.761E-04 -.980E-04 0.493E-02
   -.264E+02 0.312E+02 -.231E+04   0.264E+02 -.315E+02 0.231E+04   0.850E-02 0.323E+00 0.747E+01   0.993E-04 -.137E-03 0.520E-02
   -.780E+00 -.639E+00 0.509E+03   0.773E+00 0.635E+00 -.509E+03   0.826E-02 0.331E-02 -.341E-01   0.263E-04 0.169E-04 0.581E-02
   0.643E+00 -.643E+00 0.508E+03   -.648E+00 0.648E+00 -.508E+03   0.679E-02 -.767E-02 -.795E-01   -.131E-04 0.123E-04 0.582E-02
   -.494E+00 -.494E+00 0.148E+04   0.498E+00 0.498E+00 -.148E+04   -.308E-02 -.308E-02 0.271E+01   -.271E-04 -.304E-04 0.376E-02
   0.518E+00 -.495E+00 0.148E+04   -.516E+00 0.499E+00 -.148E+04   -.315E-02 -.561E-02 0.271E+01   0.380E-04 -.281E-04 0.368E-02
   -.292E+02 -.109E+02 -.141E+04   0.293E+02 0.109E+02 0.142E+04   -.552E-01 0.179E-01 -.477E+01   0.116E-03 0.564E-04 0.316E-02
   0.971E+01 -.971E+01 -.144E+04   -.967E+01 0.967E+01 0.144E+04   -.404E-01 0.413E-01 -.468E+01   -.547E-04 0.622E-04 0.317E-02
   -.373E+01 -.373E+01 -.439E+03   0.372E+01 0.372E+01 0.439E+03   0.162E-01 0.162E-01 0.227E+00   0.437E-04 0.392E-04 0.606E-02
   0.348E+01 -.386E+01 -.434E+03   -.349E+01 0.385E+01 0.433E+03   0.101E-01 0.124E-01 0.291E+00   -.952E-04 0.441E-04 0.605E-02
   -.643E+00 0.643E+00 0.508E+03   0.648E+00 -.648E+00 -.508E+03   -.767E-02 0.678E-02 -.795E-01   0.146E-04 -.135E-04 0.585E-02
   0.780E+00 0.639E+00 0.509E+03   -.773E+00 -.635E+00 -.509E+03   -.913E-02 -.419E-02 -.341E-01   -.246E-04 -.800E-05 0.580E-02
   -.518E+00 0.495E+00 0.148E+04   0.516E+00 -.499E+00 -.148E+04   0.428E-02 0.673E-02 0.270E+01   -.384E-04 0.344E-04 0.367E-02
   0.494E+00 0.494E+00 0.148E+04   -.498E+00 -.498E+00 -.148E+04   0.421E-02 0.421E-02 0.272E+01   0.309E-04 0.274E-04 0.378E-02
   -.971E+01 0.971E+01 -.144E+04   0.967E+01 -.967E+01 0.144E+04   0.413E-01 -.404E-01 -.468E+01   0.603E-04 -.549E-04 0.316E-02
   0.292E+02 0.109E+02 -.141E+04   -.293E+02 -.109E+02 0.142E+04   0.574E-01 -.176E-01 -.477E+01   -.109E-03 -.603E-04 0.316E-02
   -.348E+01 0.386E+01 -.434E+03   0.349E+01 -.385E+01 0.433E+03   -.112E-01 -.116E-01 0.280E+00   0.721E-04 -.455E-04 0.604E-02
   0.373E+01 0.373E+01 -.439E+03   -.372E+01 -.372E+01 0.439E+03   -.169E-01 -.169E-01 0.239E+00   -.584E-04 -.467E-04 0.608E-02
   0.880E+00 -.880E+00 0.510E+03   -.909E+00 0.909E+00 -.510E+03   0.358E-01 -.368E-01 -.106E+00   -.234E-04 0.181E-04 0.574E-02
   -.639E+00 -.780E+00 0.509E+03   0.635E+00 0.773E+00 -.509E+03   0.330E-02 0.826E-02 -.341E-01   0.685E-05 0.228E-04 0.581E-02
   0.495E+00 -.518E+00 0.148E+04   -.499E+00 0.516E+00 -.148E+04   0.673E-02 0.428E-02 0.270E+01   0.290E-04 -.399E-04 0.367E-02
   -.525E+00 -.525E+00 0.148E+04   0.521E+00 0.521E+00 -.148E+04   0.414E-02 0.414E-02 0.270E+01   -.425E-04 -.419E-04 0.354E-02
   0.355E+02 -.355E+02 -.136E+04   -.354E+02 0.354E+02 0.137E+04   -.958E-01 0.975E-01 -.435E+01   -.103E-03 0.101E-03 0.311E-02
   -.109E+02 -.292E+02 -.141E+04   0.109E+02 0.293E+02 0.142E+04   0.179E-01 -.552E-01 -.477E+01   0.563E-04 0.115E-03 0.317E-02
   0.386E+01 -.348E+01 -.434E+03   -.385E+01 0.349E+01 0.433E+03   -.116E-01 -.112E-01 0.280E+00   -.424E-04 0.835E-04 0.604E-02
   -.369E+01 -.369E+01 -.424E+03   0.372E+01 0.372E+01 0.424E+03   -.331E-01 -.331E-01 0.260E+00   0.833E-04 0.676E-04 0.599E-02
   0.639E+00 0.780E+00 0.509E+03   -.636E+00 -.773E+00 -.509E+03   -.419E-02 -.914E-02 -.341E-01   -.139E-04 -.260E-04 0.579E-02
   -.880E+00 0.880E+00 0.510E+03   0.909E+00 -.909E+00 -.510E+03   -.368E-01 0.358E-01 -.106E+00   0.191E-04 -.245E-04 0.575E-02
   0.525E+00 0.525E+00 0.148E+04   -.521E+00 -.521E+00 -.148E+04   -.302E-02 -.301E-02 0.270E+01   0.409E-04 0.420E-04 0.355E-02
   -.495E+00 0.518E+00 0.148E+04   0.499E+00 -.516E+00 -.148E+04   -.561E-02 -.315E-02 0.271E+01   -.324E-04 0.362E-04 0.367E-02
   0.109E+02 0.292E+02 -.141E+04   -.109E+02 -.293E+02 0.142E+04   -.176E-01 0.574E-01 -.477E+01   -.588E-04 -.112E-03 0.318E-02
   -.355E+02 0.355E+02 -.136E+04   0.354E+02 -.354E+02 0.137E+04   0.975E-01 -.958E-01 -.435E+01   0.972E-04 -.102E-03 0.310E-02
   0.369E+01 0.369E+01 -.424E+03   -.372E+01 -.372E+01 0.424E+03   0.344E-01 0.344E-01 0.258E+00   -.572E-04 -.648E-04 0.600E-02
   -.386E+01 0.348E+01 -.434E+03   0.385E+01 -.349E+01 0.433E+03   0.124E-01 0.101E-01 0.291E+00   0.575E-04 -.752E-04 0.604E-02
   0.396E-02 0.395E-02 0.277E+02   0.639E-12 -.135E-12 -.273E-11   -.386E-02 -.388E-02 -.281E+02   -.444E-07 0.108E-04 0.380E+00

 POSITION                                       TOTAL-FORCE (eV/Angst)
      5.27590      5.27590     12.96113         0.002761      0.002761      0.094842
      4.44143      4.44143     12.99107         0.620663      0.620664     -0.046685
      6.11030      6.11030     12.99106        -0.619719     -0.619718     -0.043274
      0.00026      6.33100      4.00893         0.000702      0.000570      0.303789
      2.11051      0.00026      4.00893        -0.000372      0.000543      0.306505
      0.00026      0.00026      6.11918         0.005610      0.005610      0.041869
      2.11051      6.33100      6.11918         0.012388      0.002437      0.049477
      0.00170      6.33155      8.24371        -0.002693      0.000065      0.036230
      2.11103      8.44073      8.24394         0.000064      0.000696      0.033038
      0.00195      0.00195     10.34920         0.000736      0.000736      0.035499
      2.10906      6.32922     10.34735        -0.011527      0.004861      0.029821
      0.00026      2.11051      4.00893         0.000543     -0.000372      0.306505
      2.11051      4.22075      4.00893        -0.000531     -0.000401      0.303787
      0.00026      4.22075      6.11918        -0.013458     -0.003507      0.045432
      2.11051      2.11051      6.11918        -0.006678     -0.006677      0.045932
      8.44073      2.11103      8.24394         0.000695      0.000065      0.033037
      2.10907      4.22020      8.24372         0.000578      0.000795      0.036527
      0.00171      4.22253     10.34735         0.009930     -0.006775      0.031463
      2.10882      2.10882     10.34920        -0.001949     -0.001949      0.036043
      4.22075      6.33100      4.00893        -0.000107      0.000276      0.310228
      6.33100      0.00026      4.00893         0.000569      0.000703      0.303788
      4.22075      0.00026      6.11918        -0.003508     -0.013458      0.045433
      6.33100      6.33100      6.11918        -0.006150     -0.006151      0.052503
      4.22303      6.32872      8.24788        -0.005477      0.002905      0.035572
      6.33155      0.00170      8.24371         0.000065     -0.002692      0.036229
      4.22253      0.00171     10.34735        -0.006776      0.009931      0.031464
      6.34719      6.34719     10.35503         0.007571      0.007569      0.054048
      4.22075      2.11051      4.00893        -0.000400     -0.000531      0.303786
      6.33100      4.22075      4.00893         0.000277     -0.000108      0.310229
      4.22075      4.22075      6.11918         0.005079      0.005079      0.048467
      6.33100      2.11051      6.11918         0.002436      0.012387      0.049476
      4.22020      2.10907      8.24372         0.000794      0.000580      0.036527
      6.32872      4.22303      8.24788         0.002905     -0.005477      0.035574
      4.20456      4.20456     10.35503        -0.006315     -0.006315      0.053321
      6.32922      2.10906     10.34735         0.004862     -0.011527      0.029821
      0.00026      6.33100      6.11918         0.000941      0.000142      0.066490
      2.11051      0.00026      6.11918         0.001282     -0.002170      0.055696
      0.00026      0.00026      4.00893         0.000507      0.000507     -0.417977
      2.11051      6.33100      4.00893        -0.001103     -0.001638     -0.410255
      0.00584      6.33249     10.38521         0.002738      0.000983     -0.078084
      2.11193      8.43982     10.39648        -0.001688      0.002639     -0.083511
      0.00123      0.00123      8.23727         0.001169      0.001169      0.001642
      2.11392      6.33084      8.23822         0.000451      0.001863      0.008051
      0.00026      2.11051      6.11918        -0.002169      0.001278      0.055692
      2.11051      4.22075      6.11918        -0.001826     -0.001031      0.066496
      0.00026      4.22075      4.00893         0.002208      0.002747     -0.419276
      2.11051      2.11051      4.00893         0.000599      0.000600     -0.408954
      8.43982      2.11193     10.39648         0.002640     -0.001688     -0.083510
      2.10493      4.21926     10.38521        -0.000563     -0.000737     -0.078376
      8.43783      4.22091      8.23822        -0.000981     -0.000974     -0.001550
      2.10954      2.10954      8.23727        -0.002080     -0.002081      0.011637
      4.22075      6.33100      6.11918         0.007501     -0.008394      0.063862
      6.33100      0.00026      6.11918         0.000141      0.000941      0.066492
      4.22075      0.00026      4.00893         0.002747      0.002210     -0.419274
      6.33100      6.33100      4.00893         0.000651      0.000649     -0.411750
      4.22345      6.32830     10.41254        -0.003937      0.005376     -0.081689
      6.33249      0.00584     10.38521         0.000985      0.002737     -0.078085
      4.22091      8.43783      8.23822        -0.000972     -0.000981     -0.001542
      6.33075      6.33075      8.24170        -0.000366     -0.000364      0.007775
      4.22075      2.11051      6.11918        -0.001030     -0.001827      0.066497
      6.33100      4.22075      6.11918        -0.008398      0.007503      0.063855
      4.22075      4.22075      4.00893         0.000461      0.000459     -0.420774
      6.33100      2.11051      4.00893        -0.001636     -0.001101     -0.410256
      4.21926      2.10493     10.38521        -0.000738     -0.000562     -0.078373
      6.32830      4.22345     10.41254         0.005377     -0.003937     -0.081689
      4.22100      4.22100      8.24170         0.001658      0.001658      0.006388
      6.33084      2.11392      8.23822         0.001864      0.000449      0.008050
    total drift:                                0.000097      0.000089      0.015889

  FREE ENERGIE OF THE ION-ELECTRON SYSTEM (eV)
  free  energy   TOTEN  =      -273.79290588 eV

  energy  without entropy=     -273.79290588  energy(sigma->0) =     -273.79290588