 vasp.6.3.0 20Jan22 (build Apr  1 2022 16:44:48) complex
 executed on        HPECrayEX_GCC date 2023.02.14  19:26:43

 INCAR:
   SYSTEM = MgO-rocksalt
   ISMEAR = 0
   SIGMA = 0.05
   EDIFF = 1E-7
   ALGO = ALL
   ISTART = 0
   IBRION = 2
   NSW = 1000
   ISYM = 0
   ISIF = 2
   EDIFFG = -0.01
   DIPOL = 0.5 0.5 0.5
   IDIPOL = 3
   LDIPOL = .TRUE.
   GGA = PE
   IVDW = 1
   VDW_C6 = 1.23 0.14 0.63 0.70
   VDW_R0 = 1.397 1.001 1.243 1.342
   ENCUT = 600
   PREC = Accurate
   LASPH = .TRUE.
   LREAL = .FALSE.
   ISPIN = 1
   NELM = 200
   NELMIN = 8
   NCORE = 8
   KPAR = 1
   LWAVE = .FALSE.
   LCHARG = .FALSE.

 POTCAR:    PAW_PBE N 08Apr2002
 POTCAR:    PAW_PBE H 15Jun2001
 POTCAR:    PAW_PBE Mg_pv 13Apr2007
 POTCAR:    PAW_PBE O 08Apr2002
 POTCAR:    PAW_PBE N 08Apr2002
   VRHFIN =N: s2p3

   TITEL  = PAW_PBE N 08Apr2002
   POMASS =   14.001; ZVAL   =    5.000    mass and valenz
   ENMAX  =  400.000; ENMIN  =  300.000 eV

   TITEL  = PAW_PBE H 15Jun2001
   POMASS =    1.000; ZVAL   =    1.000    mass and valenz
   ENMAX  =  250.000; ENMIN  =  200.000 eV

   TITEL  = PAW_PBE Mg_pv 13Apr2007
   POMASS =   24.305; ZVAL   =    8.000    mass and valenz
   ENMAX  =  403.929; ENMIN  =  302.947 eV

   TITEL  = PAW_PBE O 08Apr2002
   POMASS =   16.000; ZVAL   =    6.000    mass and valenz
   ENMAX  =  400.000; ENMIN  =  300.000 eV

  PAW_PBE N 08Apr2002                   :
  PAW_PBE H 15Jun2001                   :
  PAW_PBE Mg_pv 13Apr2007               :
  PAW_PBE O 08Apr2002                   :

 POSCAR:  N  H Mg  O
  positions in direct lattice
 exchange correlation table for  LEXCH =        8
   RHO(1)=    0.500       N(1)  =     2000
   RHO(2)=  100.500       N(2)  =     4000

 ion  position               nearest neighbor table
   1  0.500  0.500  0.789-   2 1.02   3 1.02   4 1.02
   2  0.500  0.611  0.807-   1 1.02
   3  0.404  0.444  0.807-   1 1.02
   4  0.596  0.444  0.807-   1 1.02
   5  0.250  0.000  0.351-  37 2.12  39 2.12  40 2.12  47 2.12  56 2.12
   6  0.500  0.250  0.351-  38 2.12  39 2.12  40 2.12  48 2.12  55 2.12
   7  0.250  0.250  0.450-  39 2.12  38 2.12  37 2.12  45 2.12  54 2.12  43 2.12
   8  0.500  0.000  0.450-  40 2.12  38 2.12  37 2.12  46 2.12  53 2.12  44 2.12
   9  0.250  0.000  0.550-  43 2.12  44 2.12  51 2.12  60 2.12  37 2.13  41 2.15
  10  0.500  0.250  0.550-  43 2.12  44 2.12  52 2.12  59 2.12  38 2.13  42 2.15
  11  0.250  0.250  0.649-  43 2.11  42 2.12  41 2.12  49 2.12  58 2.12
  12  0.500  0.000  0.649-  44 2.11  42 2.12  41 2.12  50 2.12  57 2.12
  13  0.250  0.500  0.351-  45 2.12  39 2.12  47 2.12  48 2.12  64 2.12
  14  0.500  0.750  0.351-  46 2.12  40 2.12  47 2.12  48 2.12  63 2.12
  15  0.250  0.750  0.450-  47 2.12  45 2.12  46 2.12  37 2.12  62 2.12  51 2.12
  16  0.500  0.500  0.450-  48 2.12  45 2.12  46 2.12  38 2.12  61 2.12  52 2.12
  17  0.250  0.500  0.550-  43 2.12  51 2.12  52 2.12  68 2.12  45 2.13  49 2.15
  18  0.500  0.750  0.550-  44 2.12  51 2.12  52 2.12  67 2.12  46 2.13  50 2.15
  19  0.250  0.750  0.649-  51 2.11  49 2.12  50 2.12  41 2.12  66 2.12
  20  0.500  0.500  0.649-  52 2.11  49 2.12  50 2.12  42 2.12  65 2.12
  21  0.750  0.000  0.351-  53 2.12  40 2.12  55 2.12  56 2.12  63 2.12
  22  0.000  0.250  0.351-  54 2.12  39 2.12  55 2.12  56 2.12  64 2.12
  23  0.750  0.250  0.450-  55 2.12  53 2.12  54 2.12  38 2.12  61 2.12  59 2.12
  24  0.000  0.000  0.450-  56 2.12  53 2.12  54 2.12  37 2.12  62 2.12  60 2.12
  25  0.750  0.000  0.550-  44 2.12  59 2.12  60 2.12  67 2.12  53 2.13  57 2.15
  26  0.000  0.250  0.550-  43 2.12  59 2.12  60 2.12  68 2.12  54 2.13  58 2.15
  27  0.750  0.250  0.649-  59 2.11  57 2.12  58 2.12  42 2.12  65 2.12
  28  0.000  0.000  0.649-  60 2.11  57 2.12  58 2.12  41 2.12  66 2.12
  29  0.750  0.500  0.351-  61 2.12  55 2.12  48 2.12  63 2.12  64 2.12
  30  0.000  0.750  0.351-  62 2.12  56 2.12  47 2.12  63 2.12  64 2.12
  31  0.750  0.750  0.450-  63 2.12  53 2.12  61 2.12  62 2.12  46 2.12  67 2.12
  32  0.000  0.500  0.450-  64 2.12  54 2.12  61 2.12  62 2.12  45 2.12  68 2.12
  33  0.750  0.500  0.550-  52 2.12  59 2.12  67 2.12  68 2.12  61 2.13  65 2.15
  34  0.000  0.750  0.550-  51 2.12  60 2.12  67 2.12  68 2.12  62 2.13  66 2.15
  35  0.750  0.750  0.649-  67 2.11  57 2.12  65 2.12  66 2.12  50 2.12
  36  0.000  0.500  0.649-  68 2.11  58 2.12  65 2.12  66 2.12  49 2.12
  37  0.250  0.000  0.450-   5 2.12   7 2.12   8 2.12  15 2.12  24 2.12   9 2.13
  38  0.500  0.250  0.450-   6 2.12   7 2.12   8 2.12  16 2.12  23 2.12  10 2.13
  39  0.250  0.250  0.351-   7 2.12   6 2.12   5 2.12  13 2.12  22 2.12
  40  0.500  0.000  0.351-   8 2.12   6 2.12   5 2.12  14 2.12  21 2.12
  41  0.250  0.000  0.651-  11 2.12  12 2.12  19 2.12  28 2.12   9 2.15
  42  0.500  0.250  0.651-  11 2.12  12 2.12  20 2.12  27 2.12  10 2.15
  43  0.250  0.250  0.550-  11 2.11  10 2.12   9 2.12  17 2.12  26 2.12   7 2.12
  44  0.500  0.000  0.550-  12 2.11  10 2.12   9 2.12  18 2.12  25 2.12   8 2.12
  45  0.250  0.500  0.450-  13 2.12   7 2.12  15 2.12  16 2.12  32 2.12  17 2.13
  46  0.500  0.750  0.450-  14 2.12   8 2.12  15 2.12  16 2.12  31 2.12  18 2.13
  47  0.250  0.750  0.351-  15 2.12  13 2.12  14 2.12   5 2.12  30 2.12
  48  0.500  0.500  0.351-  16 2.12  13 2.12  14 2.12   6 2.12  29 2.12
  49  0.250  0.500  0.651-  11 2.12  19 2.12  20 2.12  36 2.12  17 2.15
  50  0.500  0.750  0.651-  12 2.12  19 2.12  20 2.12  35 2.12  18 2.15
  51  0.250  0.750  0.550-  19 2.11  17 2.12  18 2.12   9 2.12  34 2.12  15 2.12
  52  0.500  0.500  0.550-  20 2.11  17 2.12  18 2.12  10 2.12  33 2.12  16 2.12
  53  0.750  0.000  0.450-  21 2.12   8 2.12  23 2.12  24 2.12  31 2.12  25 2.13
  54  0.000  0.250  0.450-  22 2.12   7 2.12  23 2.12  24 2.12  32 2.12  26 2.13
  55  0.750  0.250  0.351-  23 2.12  21 2.12  22 2.12   6 2.12  29 2.12
  56  0.000  0.000  0.351-  24 2.12  21 2.12  22 2.12   5 2.12  30 2.12
  57  0.750  0.000  0.651-  12 2.12  27 2.12  28 2.12  35 2.12  25 2.15
  58  0.000  0.250  0.651-  11 2.12  27 2.12  28 2.12  36 2.12  26 2.15
  59  0.750  0.250  0.550-  27 2.11  25 2.12  26 2.12  10 2.12  33 2.12  23 2.12
  60  0.000  0.000  0.550-  28 2.11  25 2.12  26 2.12   9 2.12  34 2.12  24 2.12
  61  0.750  0.500  0.450-  29 2.12  23 2.12  16 2.12  31 2.12  32 2.12  33 2.13
  62  0.000  0.750  0.450-  30 2.12  24 2.12  15 2.12  31 2.12  32 2.12  34 2.13
  63  0.750  0.750  0.351-  31 2.12  21 2.12  29 2.12  30 2.12  14 2.12
  64  0.000  0.500  0.351-  32 2.12  22 2.12  29 2.12  30 2.12  13 2.12
  65  0.750  0.500  0.651-  20 2.12  27 2.12  35 2.12  36 2.12  33 2.15
  66  0.000  0.750  0.651-  19 2.12  28 2.12  35 2.12  36 2.12  34 2.15
  67  0.750  0.750  0.550-  35 2.11  25 2.12  33 2.12  34 2.12  18 2.12  31 2.12
  68  0.000  0.500  0.550-  36 2.11  26 2.12  33 2.12  34 2.12  17 2.12  32 2.12

IMPORTANT INFORMATION: All symmetrisations will be switched off!
NOSYMM: (Re-)initialisation of all symmetry stuff for point group C_1.

                                     Primitive cell

  volume of cell :    1530.6606

  direct lattice vectors                    reciprocal lattice vectors
     8.467142631  0.000000000  0.000000000     0.118103597  0.000000000  0.000000000
     0.000000000  8.467142631  0.000000000     0.000000000  0.118103597  0.000000000
     0.000000000  0.000000000 21.350356973     0.000000000  0.000000000  0.046837624

  length of vectors
     8.467142631  8.467142631 21.350356973     0.118103597  0.118103597  0.046837624

  position of ions in fractional coordinates (direct lattice)
     0.500000000  0.500000000  0.789044960
     0.500000000  0.611384807  0.807329578
     0.403537927  0.444307596  0.807329578
     0.596462073  0.444307596  0.807329578
     0.250000000  0.000000000  0.351282183
     0.500000000  0.250000000  0.351282183
     0.250000000  0.250000000  0.450427394
     0.500000000  0.000000000  0.450427394
     0.250000000  0.000000000  0.550191116
     0.500000000  0.250000000  0.550191116
     0.250000000  0.250000000  0.648532086
     0.500000000  0.000000000  0.648532086
     0.250000000  0.500000000  0.351282183
     0.500000000  0.750000000  0.351282183
     0.250000000  0.750000000  0.450427394
     0.500000000  0.500000000  0.450427394
     0.250000000  0.500000000  0.550191116
     0.500000000  0.750000000  0.550191116
     0.250000000  0.750000000  0.648532086
     0.500000000  0.500000000  0.648532086
     0.750000000  0.000000000  0.351282183
     0.000000000  0.250000000  0.351282183
     0.750000000  0.250000000  0.450427394
     0.000000000  0.000000000  0.450427394
     0.750000000  0.000000000  0.550191116
     0.000000000  0.250000000  0.550191116
     0.750000000  0.250000000  0.648532086
     0.000000000  0.000000000  0.648532086
     0.750000000  0.500000000  0.351282183
     0.000000000  0.750000000  0.351282183
     0.750000000  0.750000000  0.450427394
     0.000000000  0.500000000  0.450427394
     0.750000000  0.500000000  0.550191116
     0.000000000  0.750000000  0.550191116
     0.750000000  0.750000000  0.648532086
     0.000000000  0.500000000  0.648532086
     0.250000000  0.000000000  0.450427394
     0.500000000  0.250000000  0.450427394
     0.250000000  0.250000000  0.351282183
     0.500000000  0.000000000  0.351282183
     0.250000000  0.000000000  0.650785562
     0.500000000  0.250000000  0.650785562
     0.250000000  0.250000000  0.549814593
     0.500000000  0.000000000  0.549814593
     0.250000000  0.500000000  0.450427394
     0.500000000  0.750000000  0.450427394
     0.250000000  0.750000000  0.351282183
     0.500000000  0.500000000  0.351282183
     0.250000000  0.500000000  0.650785562
     0.500000000  0.750000000  0.650785562
     0.250000000  0.750000000  0.549814593
     0.500000000  0.500000000  0.549814593
     0.750000000  0.000000000  0.450427394
     0.000000000  0.250000000  0.450427394
     0.750000000  0.250000000  0.351282183
     0.000000000  0.000000000  0.351282183
     0.750000000  0.000000000  0.650785562
     0.000000000  0.250000000  0.650785562
     0.750000000  0.250000000  0.549814593
     0.000000000  0.000000000  0.549814593
     0.750000000  0.500000000  0.450427394
     0.000000000  0.750000000  0.450427394
     0.750000000  0.750000000  0.351282183
     0.000000000  0.500000000  0.351282183
     0.750000000  0.500000000  0.650785562
     0.000000000  0.750000000  0.650785562
     0.750000000  0.750000000  0.549814593
     0.000000000  0.500000000  0.549814593

  ion indices of the primitive-cell ions
   primitive index   ion index
                 1           1
                 2           2
                 3           3
                 4           4
                 5           5
                 6           6
                 7           7
                 8           8
                 9           9
                10          10
                11          11
                12          12
                13          13
                14          14
                15          15
                16          16
                17          17
                18          18
                19          19
                20          20
                21          21
[...]
   0.00000000  4.23357132 13.84639155
   2.11678566  0.00000000  9.61678566
   4.23357132  2.11678566  9.61678566
   2.11678566  2.11678566  7.50000000
   4.23357132  0.00000000  7.50000000
   2.11678566  0.00000000 13.89450407
   4.23357132  2.11678566 13.89450407
   2.11678566  2.11678566 11.73873783
   4.23357132  0.00000000 11.73873783
   2.11678566  4.23357132  9.61678566
   4.23357132  6.35035697  9.61678566
   2.11678566  6.35035697  7.50000000
   4.23357132  4.23357132  7.50000000
   2.11678566  4.23357132 13.89450407
   4.23357132  6.35035697 13.89450407
   2.11678566  6.35035697 11.73873783
   4.23357132  4.23357132 11.73873783
   6.35035697  0.00000000  9.61678566
   0.00000000  2.11678566  9.61678566
   6.35035697  2.11678566  7.50000000
   0.00000000  0.00000000  7.50000000
   6.35035697  0.00000000 13.89450407
   0.00000000  2.11678566 13.89450407
   6.35035697  2.11678566 11.73873783
   0.00000000  0.00000000 11.73873783
   6.35035697  4.23357132  9.61678566
   0.00000000  6.35035697  9.61678566
   6.35035697  6.35035697  7.50000000
   0.00000000  4.23357132  7.50000000
   6.35035697  4.23357132 13.89450407
   0.00000000  6.35035697 13.89450407
   6.35035697  6.35035697 11.73873783
   0.00000000  4.23357132 11.73873783

--------------------------------------- Iteration      FINAL  ---------------------------------------

--------------------OUTCAR has been truncated-------------------------

[...]

--------------------OUTCAR has been truncated-------------------------

  Number of pair interactions contributing to vdW energy:  809967
  Edisp (eV):   -3.69928

  FORCE on cell =-STRESS in cart. coord.  units (eV):
  Direction    XX          YY          ZZ          XY          YZ          ZX
  Alpha Z   893.17632   893.17632   893.17632
  Ewald  158660.86293158655.89796************     0.00486   -14.16820    -0.00493
  Hartree168983.70034168984.16778************     0.00026    -0.89572     0.00029
  E(xc)   -2486.75293 -2486.77561 -2491.85565     0.00001    -0.09113     0.00000
  Local  ************************337427.79617    -0.00325     9.46671     0.00230
  n-local -2835.04758 -2835.25525 -2855.51261    -0.00023    -0.37340     0.00029
  augment  1048.94606  1049.01970  1040.60322    -0.00002     0.14107     0.00002
  Kinetic  7419.98449  7422.65774  7479.89597    -0.00043     6.00123     0.00005
  Fock        0.00000     0.00000     0.00000     0.00000     0.00000     0.00000
  vdW        -5.32169    -5.32000    -4.55605    -0.00000    -0.01347     0.00000
  Total     -28.42503   -28.35366    -2.74653     0.00120     0.06708    -0.00198
  in kB     -29.75313   -29.67842    -2.87485     0.00126     0.07021    -0.00207

 VOLUME and BASIS-vectors are now :
  energy-cutoff  :      600.00
  volume of cell :     1530.66
      direct lattice vectors                 reciprocal lattice vectors
     8.467142631  0.000000000  0.000000000     0.118103597  0.000000000  0.000000000
     0.000000000  8.467142631  0.000000000     0.000000000  0.118103597  0.000000000
     0.000000000  0.000000000 21.350356973     0.000000000  0.000000000  0.046837624

  length of vectors
     8.467142631  8.467142631 21.350356973     0.118103597  0.118103597  0.046837624

 FORCES acting on ions:
    Electron-Ion                     Ewald-Force                    Non-Local-Force
   -.339E-02 0.112E+02 -.133E+04   0.609E-02 -.181E+02 0.131E+04   0.137E-02 0.685E+01 0.230E+02
   -.370E-02 -.703E+02 -.271E+03   0.397E-02 0.775E+02 0.271E+03   -.448E-03 -.724E+01 -.620E-01
   0.581E+02 0.251E+02 -.279E+03   -.641E+02 -.277E+02 0.282E+03   0.599E+01 0.255E+01 -.322E+01
   -.581E+02 0.251E+02 -.279E+03   0.641E+02 -.277E+02 0.282E+03   -.599E+01 0.255E+01 -.321E+01
   -.604E-01 0.678E-02 0.207E+04   0.670E-01 -.688E-02 -.206E+04   -.469E-02 0.876E-04 -.701E+01
   -.155E-04 -.941E-01 0.207E+04   0.156E-04 0.106E+00 -.206E+04   -.165E-06 -.919E-02 -.704E+01
   -.395E+00 -.452E+00 0.709E+03   0.439E+00 0.510E+00 -.710E+03   -.302E-01 -.407E-01 0.516E+00
   0.208E-04 0.375E-01 0.709E+03   -.896E-05 -.613E-01 -.710E+03   -.811E-05 0.172E-01 0.394E+00
   0.263E+01 -.277E+00 -.640E+03   -.256E+01 0.299E+00 0.640E+03   -.740E-01 -.224E-01 -.567E-01
   -.558E-04 0.222E+01 -.638E+03   0.364E-04 -.190E+01 0.638E+03   0.112E-04 -.327E+00 -.567E+00
   0.178E+02 0.184E+02 -.198E+04   -.179E+02 -.186E+02 0.197E+04   0.113E+00 0.124E+00 0.616E+01
   0.498E-05 -.347E+01 -.198E+04   0.381E-07 0.352E+01 0.198E+04   -.477E-05 -.559E-01 0.598E+01
   -.914E-01 -.693E-02 0.207E+04   0.104E+00 0.692E-02 -.206E+04   -.937E-02 0.121E-04 -.704E+01
   -.162E-04 0.937E-01 0.207E+04   0.162E-04 -.106E+00 -.206E+04   -.106E-07 0.945E-02 -.705E+01
   -.450E+00 0.447E+00 0.709E+03   0.528E+00 -.507E+00 -.710E+03   -.554E-01 0.422E-01 0.551E+00
   -.160E-03 -.520E-01 0.707E+03   0.161E-03 0.703E-01 -.708E+03   0.597E-06 -.136E-01 0.611E+00
   0.223E+01 0.232E+00 -.639E+03   -.189E+01 -.255E+00 0.639E+03   -.342E+00 0.233E-01 -.478E+00
   -.127E-03 -.184E+01 -.641E+03   0.116E-03 0.151E+01 0.641E+03   0.507E-05 0.331E+00 -.211E+00
   0.204E+02 -.192E+02 -.197E+04   -.207E+02 0.193E+02 0.196E+04   0.223E+00 -.115E+00 0.616E+01
   -.180E-02 0.826E+01 -.191E+04   0.162E-02 -.874E+01 0.191E+04   0.158E-03 0.481E+00 0.785E+00
   0.604E-01 0.678E-02 0.207E+04   -.670E-01 -.688E-02 -.206E+04   0.469E-02 0.874E-04 -.701E+01
   0.157E-04 -.629E-01 0.207E+04   -.149E-04 0.694E-01 -.206E+04   -.611E-06 -.461E-02 -.701E+01
   0.395E+00 -.452E+00 0.709E+03   -.439E+00 0.510E+00 -.710E+03   0.301E-01 -.407E-01 0.516E+00
   -.745E-05 -.361E-01 0.709E+03   0.133E-04 0.445E-01 -.710E+03   -.334E-05 -.614E-02 0.479E+00
   -.263E+01 -.277E+00 -.640E+03   0.256E+01 0.299E+00 0.640E+03   0.740E-01 -.224E-01 -.566E-01
   -.983E-04 0.259E+01 -.641E+03   0.115E-03 -.251E+01 0.641E+03   -.504E-05 -.789E-01 -.404E-01
   -.178E+02 0.184E+02 -.198E+04   0.179E+02 -.186E+02 0.197E+04   -.113E+00 0.124E+00 0.616E+01
   0.140E-03 -.132E+01 -.200E+04   -.133E-03 0.134E+01 0.199E+04   -.911E-05 -.226E-01 0.603E+01
   0.914E-01 -.693E-02 0.207E+04   -.104E+00 0.692E-02 -.206E+04   0.937E-02 0.122E-04 -.704E+01
   0.170E-04 0.626E-01 0.207E+04   -.159E-04 -.693E-01 -.206E+04   -.778E-06 0.473E-02 -.700E+01
   0.450E+00 0.447E+00 0.709E+03   -.528E+00 -.507E+00 -.710E+03   0.554E-01 0.422E-01 0.551E+00
   0.175E-03 0.339E-01 0.709E+03   -.158E-03 -.450E-01 -.710E+03   -.115E-04 0.784E-02 0.387E+00
   -.223E+01 0.232E+00 -.639E+03   0.189E+01 -.255E+00 0.639E+03   0.342E+00 0.233E-01 -.478E+00
   0.111E-03 -.261E+01 -.640E+03   -.947E-04 0.253E+01 0.640E+03   -.873E-05 0.793E-01 -.528E-01
   -.204E+02 -.192E+02 -.197E+04   0.207E+02 0.193E+02 0.196E+04   -.223E+00 -.115E+00 0.616E+01
   0.100E-02 0.144E+01 -.198E+04   -.924E-03 -.147E+01 0.198E+04   -.764E-04 0.315E-01 0.600E+01
   -.200E-01 0.363E-01 0.532E+03   0.420E-01 -.331E-01 -.532E+03   -.315E-01 -.497E-02 -.153E-01
   -.364E-04 -.173E+00 0.530E+03   0.182E-04 0.133E+00 -.530E+03   0.246E-04 0.508E-01 -.159E+00
   -.573E-01 -.630E-01 0.155E+04   0.657E-01 0.732E-01 -.156E+04   -.117E-01 -.141E-01 0.349E+01
   -.655E-05 0.847E-02 0.155E+04   0.611E-05 -.103E-01 -.156E+04   0.606E-06 0.253E-02 0.349E+01
   0.725E+01 -.181E+01 -.152E+04   -.707E+01 0.179E+01 0.153E+04   -.186E+00 0.237E-01 -.514E+01
   -.302E-03 0.241E+02 -.149E+04   0.315E-03 -.236E+02 0.149E+04   -.150E-04 -.543E+00 -.506E+01
   0.178E+01 0.165E+01 -.471E+03   -.174E+01 -.162E+01 0.470E+03   -.328E-01 -.297E-01 0.582E+00
   0.778E-04 -.742E-01 -.470E+03   -.757E-04 0.827E-01 0.469E+03   -.622E-05 -.715E-02 0.490E+00
   -.155E+00 -.424E-01 0.530E+03   0.110E+00 0.420E-01 -.530E+03   0.574E-01 0.135E-02 -.184E+00
   -.373E-04 0.166E+00 0.530E+03   0.215E-04 -.119E+00 -.530E+03   0.214E-04 -.602E-01 -.199E+00
   -.648E-01 0.631E-01 0.155E+04   0.766E-01 -.732E-01 -.156E+04   -.165E-01 0.140E-01 0.349E+01
   -.205E-04 -.822E-02 0.155E+04   0.188E-04 0.103E-01 -.156E+04   0.240E-05 -.287E-02 0.347E+01
   0.250E+02 0.249E+01 -.149E+04   -.243E+02 -.248E+01 0.149E+04   -.709E+00 -.175E-01 -.500E+01
   -.422E-03 -.254E+02 -.148E+04   0.402E-03 0.245E+02 0.149E+04   0.274E-04 0.918E+00 -.473E+01
   0.160E+01 -.163E+01 -.470E+03   -.160E+01 0.161E+01 0.469E+03   -.365E-02 0.219E-01 0.685E+00
   -.576E-03 -.216E+00 -.485E+03   0.571E-03 0.205E+00 0.486E+03   0.200E-04 0.122E-01 -.109E+01
   0.201E-01 0.363E-01 0.532E+03   -.421E-01 -.331E-01 -.532E+03   0.315E-01 -.496E-02 -.153E-01
   0.531E-04 -.291E-01 0.532E+03   -.559E-04 0.533E-01 -.532E+03   0.328E-05 -.345E-01 -.236E-01
   0.573E-01 -.631E-01 0.155E+04   -.657E-01 0.732E-01 -.156E+04   0.117E-01 -.141E-01 0.349E+01
   0.487E-05 0.849E-03 0.155E+04   -.512E-05 0.652E-03 -.156E+04   0.412E-06 -.210E-02 0.351E+01
   -.725E+01 -.181E+01 -.152E+04   0.707E+01 0.179E+01 0.153E+04   0.186E+00 0.237E-01 -.514E+01
   0.110E-03 0.702E+01 -.152E+04   -.923E-04 -.685E+01 0.153E+04   -.246E-04 -.163E+00 -.512E+01
   -.178E+01 0.165E+01 -.471E+03   0.174E+01 -.162E+01 0.470E+03   0.328E-01 -.297E-01 0.582E+00
   -.209E-03 -.323E+00 -.476E+03   0.230E-03 0.329E+00 0.476E+03   -.184E-04 -.543E-02 0.372E+00
   0.155E+00 -.424E-01 0.530E+03   -.110E+00 0.420E-01 -.530E+03   -.574E-01 0.134E-02 -.184E+00
   0.671E-04 0.201E-01 0.532E+03   -.731E-04 -.407E-01 -.532E+03   0.737E-05 0.298E-01 0.444E-02
   0.647E-01 0.631E-01 0.155E+04   -.766E-01 -.732E-01 -.156E+04   0.165E-01 0.140E-01 0.349E+01
   0.189E-04 -.622E-03 0.155E+04   -.179E-04 -.772E-03 -.156E+04   -.139E-05 0.193E-02 0.349E+01
   -.250E+02 0.249E+01 -.149E+04   0.243E+02 -.248E+01 0.149E+04   0.709E+00 -.175E-01 -.500E+01
   0.397E-03 -.711E+01 -.152E+04   -.381E-03 0.695E+01 0.153E+04   -.303E-04 0.160E+00 -.514E+01
   -.160E+01 -.163E+01 -.470E+03   0.160E+01 0.161E+01 0.469E+03   0.365E-02 0.218E-01 0.685E+00
   0.398E-03 0.348E+00 -.470E+03   -.359E-03 -.359E+00 0.469E+03   -.594E-04 0.109E-01 0.483E+00
   -.290E-02 -.554E+01 0.463E+01   -.384E-12 -.369E-12 -.193E-11   0.286E-02 0.554E+01 -.461E+01

 POSITION                                       TOTAL-FORCE (eV/Angst)
      4.23354      4.42050     16.21574         0.004057     -0.004065      0.002364
      4.23360      5.44231     16.26334        -0.000182      0.007749      0.002784
      3.40308      4.07264     16.69477        -0.001518      0.002318      0.003521
      5.06413      4.07260     16.69476        -0.002362      0.003749      0.001289
      2.11679      0.00000      7.50000         0.001904     -0.000008      0.389777
      4.23357      2.11679      7.50000         0.000000      0.003089      0.395728
      2.11679      2.11679      9.61679         0.013428      0.017237      0.012381
      4.23357      0.00000      9.61679         0.000004     -0.006494      0.036024
      2.11906      0.00035     11.74045        -0.000121     -0.000280     -0.001530
      4.23357      2.12697     11.75353        -0.000007      0.001748     -0.005089
      2.11449      2.11357     13.83126        -0.001603     -0.001155     -0.003718
      4.23357      0.00359     13.83213         0.000001     -0.000317     -0.003527
      2.11679      4.23357      7.50000         0.003128      0.000013      0.397130
      4.23357      6.35036      7.50000         0.000000     -0.003140      0.398170
      2.11679      6.35036      9.61679         0.022259     -0.017840      0.012654
      4.23357      4.23357      9.61679         0.000001      0.004581      0.057746
      2.12788      4.23269     11.75510         0.001809     -0.000214     -0.005185
      4.23357      6.33892     11.75617        -0.000005     -0.001699     -0.005436
      2.11193      6.35204     13.82736        -0.001270      0.001543     -0.004560
      4.23357      4.21502     13.98379        -0.000021     -0.000158     -0.002435
      6.35036      0.00000      7.50000        -0.001903     -0.000008      0.389777
      0.00000      2.11679      7.50000         0.000001      0.001894      0.390712
      6.35036      2.11679      9.61679        -0.013422      0.017234      0.012377
      0.00000      0.00000      9.61679         0.000003      0.002226      0.001023
      6.34809      0.00035     11.74045         0.000116     -0.000284     -0.001529
      0.00000      2.11887     11.74042         0.000012      0.000424     -0.001314
      6.35266      2.11357     13.83126         0.001596     -0.001162     -0.003707
      0.00000      0.00017     13.83686        -0.000002      0.000485     -0.003255
      6.35036      4.23357      7.50000        -0.003127      0.000013      0.397128
      0.00000      6.35036      7.50000         0.000001     -0.001903      0.388471
      6.35036      6.35036      9.61679        -0.022253     -0.017837      0.012651
      0.00000      4.23357      9.61679         0.000005     -0.003126      0.036287
      6.33927      4.23269     11.75510        -0.001818     -0.000212     -0.005181
      0.00000      6.34764     11.73989         0.000008      0.000834     -0.001706
      6.35522      6.35204     13.82736         0.001270      0.001555     -0.004561
      0.00000      4.23245     13.83205         0.000001     -0.000252     -0.003535
      2.11679      0.00000      9.61679        -0.009623     -0.001820      0.051068
      4.23357      2.11679      9.61679         0.000007      0.010890      0.072251
      2.11679      2.11679      7.50000        -0.003309     -0.003974     -0.475824
      4.23357      0.00000      7.50000         0.000001      0.000735     -0.476267
      2.11065     -0.00050     13.89613         0.001089      0.000583      0.000160
      4.23357      2.09186     13.89037        -0.000002      0.002010      0.003221
      2.11528      2.11542     11.73738        -0.000537     -0.001454      0.005012
      4.23357     -0.00176     11.73468        -0.000004      0.001278     -0.002156
      2.11679      4.23357      9.61679         0.012445      0.000955      0.071670
      4.23357      6.35036      9.61679         0.000006     -0.013166      0.071602
      2.11679      6.35036      7.50000        -0.004687      0.003964     -0.475691
      4.23357      4.23357      7.50000         0.000001     -0.000825     -0.482657
      2.09270      4.23320     13.89718         0.002516      0.000884      0.003129
      4.23357      6.37892     13.91071         0.000007     -0.002955      0.003181
      2.11686      6.35123     11.73855        -0.000476     -0.000488      0.004640
      4.23357      4.23436     11.75688         0.000016      0.000836      0.009131
      6.35036      0.00000      9.61679         0.009631     -0.001819      0.051069
      0.00000      2.11679      9.61679         0.000001     -0.010479      0.048320
      6.35036      2.11679      7.50000         0.003310     -0.003973     -0.475824
      0.00000      0.00000      7.50000         0.000001     -0.000583     -0.471897
      6.35650     -0.00050     13.89613        -0.001084      0.000576      0.000149
      0.00000      2.11104     13.89670        -0.000007     -0.000069     -0.000116
      6.35186      2.11541     11.73738         0.000537     -0.001434      0.005003
      0.00000     -0.00073     11.73563         0.000002      0.000646     -0.000721
      6.35036      4.23357      9.61679        -0.012437      0.000954      0.071679
      0.00000      6.35036      9.61679         0.000002      0.009367      0.054510
      6.35036      6.35036      7.50000         0.004688      0.003963     -0.475690
      0.00000      4.23357      7.50000         0.000000      0.000549     -0.476340
      6.37444      4.23320     13.89718        -0.002529      0.000890      0.003141
      0.00000      6.35547     13.89552        -0.000014     -0.002347      0.000065
      6.35029      6.35123     11.73855         0.000478     -0.000509      0.004639
      0.00000      4.23373     11.73436        -0.000020      0.000279     -0.002183
    total drift:                               -0.000032     -0.000717      0.022643

  FREE ENERGIE OF THE ION-ELECTRON SYSTEM (eV)
  free  energy   TOTEN  =      -395.74718905 eV

  energy  without entropy=     -395.74718905  energy(sigma->0) =     -395.74718905

 d Force = 0.1380140E-04[ 0.121E-04, 0.155E-04]  d Energy = 0.1359744E-04 0.204E-06
 d Force = 0.1698449E+00[ 0.170E+00, 0.170E+00]  d Ewald  = 0.1698449E+00-0.121E-08

 Conjugate gradient step on ions:
 trial-energy change:   -0.000014  1 .order   -0.000014   -0.000016   -0.000012
  (g-gl).g = 0.447E-04      g.g   = 0.496E-04  gl.gl    = 0.111E-03
 g(Force)  = 0.496E-04   g(Stress)= 0.000E+00 ortho     = 0.211E-05
 gamma     =   0.40390
 trial     =   0.30791
 opt step  =   1.23164  (harmonic =   1.38272) maximal distance =0.00178891
 next E    =  -395.747210   (d E  =  -0.00003)

 reached required accuracy - stopping structural energy minimisation