 vasp.6.4.1 05Apr23 (build Sep 19 2024 10:44:22) complex

 executed on             LinuxIFC date 2024.10.19  06:12:31

 INCAR:
   SYSTEM = TiO2
   ISMEAR = 0
   SIGMA = 0.05
   EDIFF = 1E-7
   ALGO = ALL
   ISTART = 0
   IBRION = 2
   NSW = 1000
   ISYM = 0
   ISIF = 2
   EDIFFG = -0.01
   DIPOL = 0.5 0.5 0.5
   IDIPOL = 3
   LDIPOL = .TRUE.
   GGA = PE
   IVDW = 21
   ENCUT = 600
   PREC = Accurate
   LASPH = .TRUE.
   LREAL = .FALSE.
   ISPIN = 1
   NELM = 200
   NELMIN = 8
   NCORE = 8
   KPAR = 1
   LWAVE = .FALSE.
   LCHARG = .FALSE.

 POTCAR:    PAW_PBE C 08Apr2002
 POTCAR:    PAW_PBE H 15Jun2001
 POTCAR:    PAW_PBE Ti_pv 07Sep2000
 POTCAR:    PAW_PBE O 08Apr2002
|           W    W    AA    RRRRR   N    N  II  N    N   GGGG   !!!           |
|           W    W   A  A   R    R  NN   N  II  NN   N  G    G  !!!           |
|           W    W  A    A  R    R  N N  N  II  N N  N  G       !!!           |
|           W WW W  AAAAAA  RRRRR   N  N N  II  N  N N  G  GGG   !            |
|           WW  WW  A    A  R   R   N   NN  II  N   NN  G    G                |
|           W    W  A    A  R    R  N    N  II  N    N   GGGG   !!!           |
|     For optimal performance we recommend to set                             |
|       NCORE = 2 up to number-of-cores-per-socket                            |
|     This setting can greatly improve the performance of VASP for DFT.       |
|     The default, NCORE=1 might be grossly inefficient on modern             |
|     multi-core architectures or massively parallel machines. Do your        |
|     Unfortunately you need to use the default for GW and RPA                |
|     calculations (for HF NCORE is supported but not extensively tested      |
|     yet).                                                                   |

   TITEL  = PAW_PBE C 08Apr2002
   POMASS =   12.011; ZVAL   =    4.000    mass and valenz
   ENMAX  =  400.000; ENMIN  =  300.000 eV

   TITEL  = PAW_PBE H 15Jun2001
   POMASS =    1.000; ZVAL   =    1.000    mass and valenz
   ENMAX  =  250.000; ENMIN  =  200.000 eV

   TITEL  = PAW_PBE Ti_pv 07Sep2000
   POMASS =   47.880; ZVAL   =   10.000    mass and valenz
   ENMAX  =  222.335; ENMIN  =  166.751 eV

   TITEL  = PAW_PBE O 08Apr2002
   POMASS =   16.000; ZVAL   =    6.000    mass and valenz
   ENMAX  =  400.000; ENMIN  =  300.000 eV

  PAW_PBE C 08Apr2002                   :
  PAW_PBE H 15Jun2001                   :
  PAW_PBE Ti_pv 07Sep2000               :
  PAW_PBE O 08Apr2002                   :

 POSCAR:  C  H Ti  O
  positions in direct lattice
 exchange correlation table for  LEXCH =        8
   RHO(1)=    0.500       N(1)  =     2000
   RHO(2)=  100.500       N(2)  =     4000

 ion  position               nearest neighbor table
   1  0.500  0.500  0.812-   2 1.10   3 1.10   4 1.10   5 1.10
   2  0.496  0.575  0.833-   1 1.10
   3  0.504  0.425  0.833-   1 1.10
   4  0.570  0.504  0.792-   1 1.10
   5  0.430  0.496  0.792-   1 1.10
   6  0.750  0.625  0.287-  86 1.96  87 1.96 146 1.96 147 1.96  89 1.98 168 1.98  16 2.97  36 2.97

   7  0.000  0.750  0.287-  88 1.96  89 1.96 108 1.96 109 1.96  90 1.98  37 2.97  17 2.97
   8  0.000  0.625  0.393-  90 1.96  91 1.96 150 1.96 151 1.96  92 1.98  93 1.98  18 2.97  38 2.97

[...]

  85  0.500  0.500  0.708- 239 1.81 244 1.95 184 1.95 245 1.95 185 1.95  55 2.97  75 2.97
  86  0.750  0.750  0.245-   6 1.96  16 1.96
  87  0.750  0.750  0.329-   6 1.96  16 1.96   9 1.98
  88  0.098  0.625  0.287-   7 1.96  37 1.96  46 1.98
  89  0.902  0.625  0.287-   7 1.96  37 1.96   6 1.98
  90  0.000  0.750  0.352-   8 1.96  18 1.96   7 1.98
  91  0.000  0.750  0.435-   8 1.96  18 1.96  11 1.98
  92  0.848  0.625  0.393-   9 1.96  39 1.96   8 1.98
  93  0.152  0.625  0.393-  49 1.96  79 1.96   8 1.98
  94  0.750  0.750  0.458-  10 1.96  20 1.96   9 1.98
  95  0.750  0.750  0.542-  10 1.96  20 1.96  13 2.11
  96  0.098  0.625  0.500-  11 1.96  41 1.96  50 1.98
  97  0.902  0.625  0.500-  11 1.96  41 1.96  10 1.98
  98  1.000  0.750  0.566-  22 1.90  12 1.90  11 2.01
  99  1.000  0.750  0.649-  15 1.81  12 2.02  22 2.02
 100  0.850  0.625  0.607-  12 1.96  13 1.98  43 1.98
 101  0.150  0.625  0.607-  12 1.96  83 1.98  53 1.98
 102  0.750  0.750  0.672-  13 1.87  14 2.10  24 2.10
 103  0.750  0.750  0.756-  24 1.84  14 1.84
 104  0.094  0.625  0.719-  15 1.95  45 1.95  54 2.04
 105  0.906  0.625  0.719-  45 1.95  15 1.95  14 2.04
 106  0.750  0.000  0.245-  16 1.96  26 1.96
 107  0.750  0.000  0.329-  16 1.96  26 1.96  19 1.98
 108  0.098  0.875  0.287-   7 1.96  17 1.96  56 1.98
 109  0.902  0.875  0.287-   7 1.96  17 1.96  16 1.98
 110  0.000  0.000  0.352-  18 1.96  28 1.96  17 1.98
 111  0.000  0.000  0.435-  18 1.96  28 1.96  21 1.98
 112  0.848  0.875  0.393-   9 1.96  19 1.96  18 1.98
 113  0.152  0.875  0.393-  49 1.96  59 1.96  18 1.98
 114  0.750  0.000  0.458-  20 1.96  30 1.96  19 1.98
 115  0.750  0.000  0.542-  20 1.96  30 1.96  23 2.11
 116  0.098  0.875  0.500-  11 1.96  21 1.96  60 1.98
 117  0.902  0.875  0.500-  11 1.96  21 1.96  20 1.98
 118  1.000  1.000  0.566-  22 1.90  32 1.90  21 2.01
 119  1.000  1.000  0.649-  25 1.81  32 2.02  22 2.02
 120  0.850  0.875  0.607-  22 1.96  13 1.98  23 1.98
 121  0.150  0.875  0.607-  22 1.96  53 1.98  63 1.98
 122  0.750  0.000  0.672-  23 1.87  34 2.10  24 2.10
 123  0.750  1.000  0.756-  24 1.84  34 1.84
 124  0.094  0.875  0.719-  15 1.95  25 1.95  64 2.04
 125  0.906  0.875  0.719-  15 1.95  25 1.95  24 2.04
 126  0.750  0.250  0.245-  26 1.96  36 1.96
 127  0.750  0.250  0.329-  26 1.96  36 1.96  29 1.98
 128  0.098  0.125  0.287-  17 1.96  27 1.96  66 1.98
 129  0.902  0.125  0.287-  17 1.96  27 1.96  26 1.98
 130  0.000  0.250  0.352-  28 1.96  38 1.96  27 1.98
 131  0.000  0.250  0.435-  28 1.96  38 1.96  31 1.98
 132  0.848  0.125  0.393-  19 1.96  29 1.96  28 1.98
 133  0.152  0.125  0.393-  59 1.96  69 1.96  28 1.98
 134  0.750  0.250  0.458-  30 1.96  40 1.96  29 1.98
 135  0.750  0.250  0.542-  30 1.96  40 1.96  33 2.11
 136  0.098  0.125  0.500-  21 1.96  31 1.96  70 1.98
 137  0.902  0.125  0.500-  21 1.96  31 1.96  30 1.98
 138  1.000  0.250  0.566-  42 1.90  32 1.90  31 2.01
 139  1.000  0.250  0.649-  35 1.81  32 2.02  42 2.02
 140  0.850  0.125  0.607-  32 1.96  23 1.98  33 1.98
 141  0.150  0.125  0.607-  32 1.96  73 1.98  63 1.98
 142  0.750  0.250  0.672-  33 1.87  34 2.10  44 2.10
 143  0.750  0.250  0.756-  44 1.84  34 1.84
 144  0.094  0.125  0.719-  35 1.95  25 1.95  74 2.04
[...]
 231  0.500  0.500  0.435-  48 1.96  78 1.96  81 1.98
 232  0.348  0.375  0.393-  69 1.96  79 1.96  78 1.98
 233  0.652  0.375  0.393-  29 1.96  39 1.96  78 1.98
 234  0.250  0.500  0.458-  50 1.96  80 1.96  79 1.98
 235  0.250  0.500  0.542-  50 1.96  80 1.96  83 2.11
 236  0.598  0.375  0.500-  71 1.96  81 1.96  40 1.98
 237  0.402  0.375  0.500-  71 1.96  81 1.96  80 1.98
 238  0.500  0.500  0.566-  82 1.90  52 1.90  81 2.01
 239  0.500  0.500  0.649-  85 1.81  52 2.02  82 2.02
 240  0.350  0.375  0.607-  82 1.96  83 1.98  73 1.98
 241  0.650  0.375  0.607-  82 1.96  43 1.98  33 1.98
 242  0.250  0.500  0.672-  83 1.87  54 2.10  84 2.10
 243  0.250  0.500  0.756-  84 1.84  54 1.84
 244  0.594  0.375  0.719-  85 1.95  75 1.95  44 2.04
 245  0.406  0.375  0.719-  85 1.95  75 1.95  84 2.04

IMPORTANT INFORMATION: All symmetrisations will be switched off!
NOSYMM: (Re-)initialisation of all symmetry stuff for point group C_1.

                                     Primitive cell

  volume of cell :    4740.1649

  direct lattice vectors                    reciprocal lattice vectors
    13.042933829  0.000000000  0.000000000     0.076669867  0.000000000  0.000000000
     0.000000000 11.878216733  0.000000000     0.000000000  0.084187721  0.000000000
     0.000000000  0.000000000 30.596159140     0.000000000  0.000000000  0.032683841

  length of vectors
    13.042933829 11.878216733 30.596159140     0.076669867  0.084187721  0.032683841

  position of ions in fractional coordinates (direct lattice)
     0.500062649  0.500001957  0.811948122
     0.496125715  0.575460008  0.832515879
     0.504007136  0.424541518  0.832519712
     0.570362658  0.504268912  0.792274190
     0.429746748  0.495721472  0.792280804
     0.750000000  0.625000000  0.286853412
     0.000000000  0.750000000  0.286853412
     0.000000000  0.625000000  0.393426706
     0.750000000  0.750000000  0.393426706
     0.750000000  0.625000000  0.500000000
     0.000000000  0.750000000  0.500000000
     0.999999988  0.624999996  0.604420548
     0.750000029  0.750000004  0.610781620
     0.749999986  0.624999976  0.720512796
     0.999999994  0.750000000  0.708478094
     0.750000000  0.875000000  0.286853412
     0.000000000  0.000000000  0.286853412
     0.000000000  0.875000000  0.393426706
     0.750000000  0.000000000  0.393426706
     0.750000000  0.875000000  0.500000000
     0.000000000  0.000000000  0.500000000
     0.000000047  0.874999985  0.604420536
     0.750000015  0.999999991  0.610781625
     0.749999989  0.874999980  0.720512821
     0.999999986  0.999999992  0.708478097
     0.750000000  0.125000000  0.286853412
     0.000000000  0.250000000  0.286853412
     0.000000000  0.125000000  0.393426706
     0.750000000  0.250000000  0.393426706
     0.750000000  0.125000000  0.500000000
     0.000000000  0.250000000  0.500000000
     0.999999985  0.125000011  0.604420556
     0.749999996  0.250000012  0.610781629
     0.750000000  0.125000005  0.720512813
     0.000000019  0.250000013  0.708478102
     0.750000000  0.375000000  0.286853412
     0.000000000  0.500000000  0.286853412
     0.000000000  0.375000000  0.393426706
     0.750000000  0.500000000  0.393426706
     0.750000000  0.375000000  0.500000000
     0.000000000  0.500000000  0.500000000
     0.000000001  0.375000014  0.604420545
     0.750000001  0.499999992  0.610781619
     0.750000006  0.375000035  0.720512810
     0.999999988  0.500000008  0.708478097
     0.250000000  0.625000000  0.286853412
     0.500000000  0.750000000  0.286853412
     0.500000000  0.625000000  0.393426706
     0.250000000  0.750000000  0.393426706
     0.250000000  0.625000000  0.500000000
     0.500000000  0.750000000  0.500000000
     0.500000049  0.624999998  0.604420575
     0.250000032  0.749999979  0.610781590
     0.249999982  0.624999991  0.720512811
     0.499999969  0.749999986  0.708478101
     0.250000000  0.875000000  0.286853412
     0.500000000  0.000000000  0.286853412
     0.500000000  0.875000000  0.393426706
     0.250000000  0.000000000  0.393426706
     0.250000000  0.875000000  0.500000000
[...]
     0.500000000  0.500000000  0.435151311
     0.347877722  0.375000000  0.393426706
     0.652122278  0.375000000  0.393426706
     0.250000000  0.500000000  0.458275395
     0.250000000  0.500000000  0.541724605
     0.597877722  0.375000000  0.500000000
     0.402122278  0.375000000  0.500000000
     0.500000010  0.500000002  0.565535419
     0.500000024  0.500000006  0.649214872
     0.350074070  0.375000024  0.607255933
     0.649925944  0.375000018  0.607255929
     0.249999980  0.500000012  0.671750483
     0.249999991  0.500000014  0.755761153
     0.593813259  0.375000027  0.719151370
[...]
   O          53.645          3.924         10.014          1.85439163
   O          36.678          3.683          8.280          1.53335108
   O          51.603          3.898          9.821          1.81876152
   O          51.651          3.899          9.826          1.81959944

  Number of pair interactions contributing to vdW energy: 3368655
  Edisp (eV):  -34.79525

  FORCE on cell =-STRESS in cart. coord.  units (eV):
  Direction    XX          YY          ZZ          XY          YZ          ZX
  Alpha Z  4647.32934  4647.32934  4647.32934
  Ewald  966459.72270984122.50008************    -0.06627     0.01202     0.03475
  Hartree************************************    -0.04651     0.00049     0.00377
  E(xc)   -8615.23423 -8596.93764 -8624.57192    -0.00021     0.00000     0.00006
  Local  ************************************     0.12266    -0.00829    -0.03385
  n-local -5423.15578 -5347.24189 -5467.90041     0.00090    -0.00037     0.00031
  augment  5221.48992  5204.32194  5224.81929    -0.00058    -0.00003    -0.00007
  Kinetic 28692.13491 28211.72848 28743.71587    -0.00434    -0.00028    -0.00408
  Fock        0.00000     0.00000     0.00000     0.00000     0.00000     0.00000
  vdW       -50.56992   -29.89729   -43.02661    -0.00112     0.00001     0.00014
  Total       6.49841   -36.49707   -32.61332     0.00454     0.00355     0.00102
  in kB       2.19647   -12.33602   -11.02331     0.00153     0.00120     0.00034

 VOLUME and BASIS-vectors are now :
  energy-cutoff  :      600.00
  volume of cell :     4740.16
      direct lattice vectors                 reciprocal lattice vectors
    13.042933829  0.000000000  0.000000000     0.076669867  0.000000000  0.000000000
     0.000000000 11.878216733  0.000000000     0.000000000  0.084187721  0.000000000
     0.000000000  0.000000000 30.596159140     0.000000000  0.000000000  0.032683841

  length of vectors
    13.042933829 11.878216733 30.596159140     0.076669867  0.084187721  0.032683841

 FORCES acting on ions:
    Electron-Ion                     Ewald-Force                    Non-Local-Force
   0.209E-02 0.374E-02 -.147E+04   0.691E-03 -.638E-02 0.147E+04   0.326E-02 -.373E-02 -.579E+00
   0.136E+01 -.435E+02 -.360E+03   -.151E+01 0.480E+02 0.364E+03   0.155E+00 -.453E+01 -.321E+01
   -.137E+01 0.435E+02 -.360E+03   0.153E+01 -.480E+02 0.364E+03   -.157E+00 0.453E+01 -.320E+01
   -.361E+02 -.145E+01 -.377E+03   0.408E+02 0.160E+01 0.374E+03   -.468E+01 -.151E+00 0.287E+01
   0.362E+02 0.146E+01 -.377E+03   -.408E+02 -.161E+01 0.374E+03   0.469E+01 0.153E+00 0.287E+01
   -.130E+00 -.379E-01 0.376E+04   0.130E+00 0.379E-01 -.377E+04   0.603E-04 -.589E-05 0.428E+00
   -.508E-04 -.500E-01 0.394E+04   0.518E-04 0.501E-01 -.393E+04   -.313E-06 -.115E-04 -.389E+01
   -.333E-03 -.409E-01 0.192E+04   0.341E-03 0.415E-01 -.192E+04   -.208E-05 -.946E-04 -.457E-01
   -.189E+00 -.505E-01 0.191E+04   0.188E+00 0.508E-01 -.191E+04   0.163E-03 -.236E-04 0.204E+00
   -.740E+00 -.198E+00 -.284E+01   0.736E+00 0.197E+00 0.365E+01   0.690E-03 0.129E-03 -.132E+00
   -.101E-01 -.333E+00 0.682E+01   0.105E-01 0.334E+00 -.785E+01   -.141E-03 0.317E-03 0.342E+00
   0.367E-02 -.118E+01 -.186E+04   -.423E-02 0.118E+01 0.186E+04   -.320E-04 -.163E-02 0.419E-01
   -.428E+01 -.331E+01 -.192E+04   0.429E+01 0.331E+01 0.192E+04   -.295E-02 -.491E-02 -.745E-01
   -.312E+02 -.128E+02 -.371E+04   0.312E+02 0.128E+02 0.371E+04   0.794E-02 0.735E-02 -.196E+00
   0.174E-01 -.501E+01 -.375E+04   -.175E-01 0.501E+01 0.375E+04   -.334E-04 -.301E-02 0.953E+00
   -.126E+00 -.379E-01 0.376E+04   0.126E+00 0.379E-01 -.377E+04   0.804E-04 -.702E-05 0.428E+00
   -.297E-04 -.181E-05 0.394E+04   0.299E-04 0.178E-05 -.393E+04   -.428E-07 -.136E-07 -.389E+01
   -.409E-03 -.415E-01 0.192E+04   0.436E-03 0.421E-01 -.192E+04   -.436E-05 -.977E-04 -.457E-01
   -.200E+00 -.293E-03 0.191E+04   0.200E+00 0.307E-03 -.191E+04   0.194E-03 -.730E-05 0.204E+00
   -.861E+00 -.226E+00 -.333E+01   0.859E+00 0.229E+00 0.414E+01   0.399E-03 -.743E-04 -.132E+00
   0.826E-03 -.477E-04 0.659E+01   -.738E-03 0.476E-04 -.762E+01   -.446E-04 0.324E-06 0.340E+00
   -.366E+00 -.125E+01 -.186E+04   0.367E+00 0.126E+01 0.186E+04   0.144E-03 -.118E-02 0.376E-01
   -.323E+01 0.254E+00 -.192E+04   0.323E+01 -.254E+00 0.192E+04   0.424E-03 0.646E-03 -.718E-01
   -.120E+02 -.922E+01 -.373E+04   0.120E+02 0.922E+01 0.373E+04   0.131E-01 0.289E-02 -.201E+00
   -.332E-02 0.252E-03 -.376E+04   0.333E-02 -.284E-03 0.376E+04   -.102E-04 0.638E-05 0.952E+00
   -.126E+00 0.378E-01 0.376E+04   0.126E+00 -.379E-01 -.377E+04   0.797E-04 0.628E-05 0.428E+00
   -.110E-04 0.500E-01 0.394E+04   0.105E-04 -.501E-01 -.393E+04   0.213E-06 0.115E-04 -.389E+01
   0.265E-03 0.415E-01 0.192E+04   -.284E-03 -.421E-01 -.192E+04   0.183E-05 0.977E-04 -.457E-01
   -.190E+00 0.506E-01 0.191E+04   0.189E+00 -.509E-01 -.191E+04   0.156E-03 0.424E-04 0.204E+00
   -.868E+00 0.222E+00 -.332E+01   0.866E+00 -.225E+00 0.414E+01   0.328E-03 0.390E-04 -.132E+00
   0.113E-01 0.333E+00 0.682E+01   -.115E-01 -.334E+00 -.785E+01   0.533E-04 -.315E-03 0.342E+00
   0.321E+00 0.125E+01 -.186E+04   -.323E+00 -.126E+01 0.186E+04   -.104E-03 0.119E-02 0.376E-01
   -.401E+01 0.282E+01 -.192E+04   0.401E+01 -.282E+01 0.192E+04   -.404E-02 0.368E-02 -.745E-01
   -.119E+02 0.931E+01 -.373E+04   0.119E+02 -.931E+01 0.373E+04   0.133E-01 -.189E-02 -.202E+00
   -.263E-01 0.500E+01 -.375E+04   0.264E-01 -.501E+01 0.375E+04   0.150E-04 0.301E-02 0.953E+00
   -.130E+00 0.379E-01 0.376E+04   0.130E+00 -.380E-01 -.377E+04   0.595E-04 0.649E-05 0.428E+00
   -.321E-04 0.181E-05 0.394E+04   0.324E-04 -.178E-05 -.393E+04   -.689E-07 0.195E-07 -.389E+01
   0.166E-03 0.409E-01 0.192E+04   -.167E-03 -.415E-01 -.192E+04   -.455E-06 0.944E-04 -.457E-01
   -.178E+00 0.201E-03 0.191E+04   0.178E+00 -.198E-03 -.191E+04   0.999E-04 -.959E-05 0.204E+00
   -.746E+00 0.202E+00 -.285E+01   0.742E+00 -.201E+00 0.367E+01   0.619E-03 -.113E-03 -.132E+00
   0.447E-03 0.126E-05 0.704E+01   -.358E-03 -.206E-05 -.807E+01   -.445E-04 0.126E-05 0.344E+00
   -.553E-01 0.118E+01 -.186E+04   0.559E-01 -.118E+01 0.186E+04   0.764E-04 0.162E-02 0.419E-01
   -.556E+01 0.259E+00 -.191E+04   0.556E+01 -.260E+00 0.191E+04   0.463E-04 0.732E-03 -.764E-01
   -.311E+02 0.130E+02 -.371E+04   0.311E+02 -.130E+02 0.371E+04   0.870E-02 -.623E-02 -.196E+00
   -.466E-02 -.242E-04 -.375E+04   0.468E-02 0.446E-04 0.375E+04   -.183E-04 -.320E-05 0.955E+00
   0.130E+00 -.379E-01 0.376E+04   -.130E+00 0.380E-01 -.377E+04   -.596E-04 -.648E-05 0.428E+00
   0.402E-04 -.569E-01 0.394E+04   -.409E-04 0.571E-01 -.393E+04   0.932E-07 -.264E-04 -.389E+01
   0.612E-04 -.209E-01 0.192E+04   -.482E-04 0.236E-01 -.192E+04   -.909E-06 -.558E-03 -.458E-01
   0.189E+00 -.506E-01 0.191E+04   -.189E+00 0.509E-01 -.191E+04   -.157E-03 -.422E-04 0.204E+00
   0.747E+00 -.202E+00 -.285E+01   -.743E+00 0.201E+00 0.367E+01   -.626E-03 0.112E-03 -.132E+00
   -.683E-02 -.179E+00 0.855E+01   0.703E-02 0.167E+00 -.956E+01   -.710E-04 0.719E-02 0.334E+00
   -.344E+00 -.240E+01 -.185E+04   0.345E+00 0.242E+01 0.185E+04   0.220E-03 -.166E-01 0.406E-01
   0.399E+01 -.281E+01 -.192E+04   -.399E+01 0.282E+01 0.192E+04   0.417E-02 -.368E-02 -.745E-01
   0.311E+02 -.130E+02 -.371E+04   -.311E+02 0.130E+02 0.371E+04   -.869E-02 0.622E-02 -.196E+00
   0.763E-01 -.305E+02 -.372E+04   -.761E-01 0.305E+02 0.372E+04   -.370E-03 -.118E-01 0.100E+01
   0.126E+00 -.378E-01 0.376E+04   -.126E+00 0.379E-01 -.377E+04   -.798E-04 -.629E-05 0.428E+00
   0.301E-04 -.230E-05 0.394E+04   -.305E-04 0.219E-05 -.393E+04   0.638E-07 0.103E-07 -.389E+01
   0.142E-03 -.228E-01 0.192E+04   -.148E-03 0.244E-01 -.192E+04   0.150E-05 -.432E-03 -.458E-01
   0.200E+00 0.282E-03 0.191E+04   -.199E+00 -.296E-03 -.191E+04   -.195E-03 0.724E-05 0.204E+00
   0.868E+00 -.222E+00 -.332E+01   -.866E+00 0.225E+00 0.414E+01   -.337E-03 -.391E-04 -.132E+00
[...]
   -.532E+02 0.174E-01 0.115E+04   0.572E+02 -.177E-01 -.115E+04   -.353E+01 0.459E-03 0.157E+00
   0.532E+02 0.175E-01 0.115E+04   -.572E+02 -.178E-01 -.115E+04   0.353E+01 0.470E-03 0.157E+00
   0.243E+00 -.412E-03 0.501E+03   -.242E+00 0.509E-03 -.505E+03   -.214E-02 -.195E-03 0.413E+01
   0.824E+00 -.254E-01 -.520E+03   -.820E+00 0.261E-01 0.527E+03   -.474E-02 -.356E-03 -.710E+01
   -.553E+02 0.184E-01 0.460E+01   0.600E+02 -.190E-01 -.484E+01   -.514E+01 0.563E-02 0.335E+00
   0.553E+02 0.188E-01 0.458E+01   -.600E+02 -.193E-01 -.482E+01   0.514E+01 0.543E-02 0.334E+00
   -.136E-01 -.203E-03 -.621E+03   0.151E-01 0.209E-03 0.615E+03   -.150E-02 0.272E-06 0.641E+01
   -.508E-02 0.276E-04 -.158E+04   0.575E-02 -.121E-04 0.158E+04   -.665E-03 -.185E-04 0.255E+01
   -.261E+02 0.156E+01 -.112E+04   0.291E+02 -.157E+01 0.112E+04   -.301E+01 0.659E-02 0.886E+00
   0.252E+02 0.178E+01 -.112E+04   -.281E+02 -.181E+01 0.112E+04   0.290E+01 0.334E-01 0.883E+00
   0.105E+02 -.308E-01 -.179E+04   -.106E+02 0.301E-01 0.180E+04   0.452E-01 0.766E-03 -.229E+01
   0.365E+02 -.331E-01 -.269E+04   -.365E+02 0.330E-01 0.271E+04   0.627E-01 0.332E-04 -.205E+02
   -.382E+02 0.193E+02 -.229E+04   0.440E+02 -.192E+02 0.230E+04   -.583E+01 -.413E-02 -.370E+01
   0.382E+02 0.192E+02 -.229E+04   -.440E+02 -.191E+02 0.230E+04   0.584E+01 -.142E-01 -.368E+01
   -.365E-01 0.503E-02 0.979E+02   0.171E-11 0.878E-12 -.546E-11   0.364E-01 -.500E-02 -.979E+02

 POSITION                                       TOTAL-FORCE (eV/Angst)
      6.52174      5.93921     25.01579         0.006005     -0.006322     -0.001520
      6.49137      6.83559     25.64468         0.000410      0.002294      0.004626
      6.55243      5.04266     25.64482        -0.001142      0.003679      0.000810
      7.43706      5.96936     24.40849        -0.006586     -0.000786      0.002505
      5.60651      5.90883     24.40875         0.001198      0.001122     -0.000634
      9.78220      7.42389      8.77661        -0.000137      0.000058     -3.416685
      0.00000      8.90866      8.77661         0.000001      0.000062      2.831561
      0.00000      7.42389     12.03735         0.000006      0.000510      0.521067
      9.78220      8.90866     12.03735        -0.000562      0.000332     -0.704895
      9.78220      7.42389     15.29808        -0.003404     -0.001266      0.677972
      0.00000      8.90866     15.29808         0.000238      0.001400     -0.697510
     -0.00001      7.42393     18.49406        -0.000503      0.003011     -0.000640
      9.78188      8.90848     18.68519        -0.002107      0.002313      0.001212
      9.78314      7.42550     22.03936         0.000349     -0.000537      0.002886
      0.00033      8.90901     21.67979        -0.000047      0.006454     -0.000078
      9.78220     10.39344      8.77661        -0.000168      0.000067     -3.416679
      0.00000      0.00000      8.77661         0.000001     -0.000000      2.831611
      0.00000     10.39344     12.03735         0.000024      0.000478      0.521678
      9.78220      0.00000     12.03735        -0.000665      0.000006     -0.704883
      9.78220     10.39344     15.29808        -0.001772      0.002938      0.679099
      0.00000      0.00000     15.29808         0.000043     -0.000000     -0.697777
     -0.00140     10.39352     18.49377        -0.000374      0.002760     -0.000269
      9.78191      0.00040     18.68573        -0.000574      0.000001      0.006214
      9.78177     10.39416     22.04353        -0.003024      0.000474     -0.001301
      0.00003     -0.00000     21.68003         0.000003     -0.000025     -0.002578
      9.78220      1.48478      8.77661        -0.000169     -0.000063     -3.416677
      0.00000      2.96955      8.77661        -0.000000     -0.000063      2.831561
      0.00000      1.48478     12.03735        -0.000018     -0.000478      0.521678
      9.78220      2.96955     12.03735        -0.000549     -0.000332     -0.704854
      9.78220      1.48478     15.29808        -0.001694     -0.002645      0.678868
      0.00000      2.96955     15.29808        -0.000151     -0.001401     -0.697514
      0.00130      1.48470     18.49377         0.000219     -0.002776     -0.000280
      9.78364      2.96906     18.68526        -0.001268     -0.002287      0.001404
      9.78138      1.48458     22.04359        -0.002718     -0.000747     -0.001234
     -0.00026      2.96920     21.67979         0.000060     -0.006446     -0.000090
      9.78220      4.45433      8.77661        -0.000137     -0.000063     -3.416681
      0.00000      5.93911      8.77661         0.000001     -0.000000      2.831527
      0.00000      4.45433     12.03735        -0.000000     -0.000510      0.521067
      9.78220      5.93911     12.03735        -0.000457     -0.000006     -0.704886
      9.78220      4.45433     15.29808        -0.003330      0.000975      0.678593
      0.00000      5.93911     15.29808         0.000044      0.000000     -0.697717
     -0.00012      4.45428     18.49406         0.000346     -0.002991     -0.000648
      9.78259      5.93948     18.68583        -0.002471     -0.000081     -0.001477
      9.78255      4.45331     22.03957         0.000713      0.000175      0.003318
      0.00004      5.93911     21.67962         0.000003      0.000017      0.001162
      3.26073      7.42389      8.77661         0.000137      0.000063     -3.416681
      6.52147      8.90866      8.77661        -0.000001      0.000146      2.832174
      6.52147      7.42389     12.03735         0.000013      0.002129      0.522470
      3.26073      8.90866     12.03735         0.000547      0.000331     -0.704850
      3.26073      7.42389     15.29808         0.003264     -0.000971      0.678602
      6.52147      8.90866     15.29808         0.000125     -0.004619     -0.688235
      6.52007      7.42140     18.49976        -0.000516     -0.004339     -0.001507
      3.25921      8.90915     18.68526         0.001139      0.002289      0.001409
      3.26047      7.42491     22.03957        -0.000714     -0.000138      0.003327
      6.52173      8.90964     21.67334        -0.000049     -0.005510      0.001093
      3.26073     10.39344      8.77661         0.000169      0.000062     -3.416676
      6.52147      0.00000      8.77661         0.000000     -0.000000      2.832327
      6.52147     10.39344     12.03735        -0.000003      0.001202      0.524003
      3.26073      0.00000     12.03735         0.000663     -0.000007     -0.704879
      3.26073     10.39344     15.29808         0.001625      0.002647      0.678881
[...]
      6.52147      5.93911     13.31396         0.000002     -0.000001     -0.111833
      4.53735      4.45433     12.03735         0.426603      0.000158      0.055091
      8.50559      4.45433     12.03735        -0.426592      0.000165      0.055096
      3.26073      5.93911     14.02147        -0.000609     -0.000098     -0.106557
      3.26073      5.93911     16.57469         0.000114      0.000438     -0.007536
      7.79808      4.45433     15.29808        -0.477291      0.004965      0.088421
      5.24485      4.45433     15.29808         0.477289      0.004883      0.088538
      6.52149      5.93911     17.30671         0.000011      0.000006      0.000541
      6.52149      5.93911     19.87383         0.000001     -0.000003     -0.007767
      4.56505      4.45447     18.58108         0.000421     -0.001550     -0.000466
      8.47768      4.45451     18.58088        -0.000388     -0.001599     -0.000456
      3.25548      5.93925     20.55045        -0.002875      0.000113      0.002635
      3.26840      5.93882     23.11959        -0.000954     -0.000067     -0.001367
      7.74779      4.44795     21.98893         0.001807      0.001161     -0.000159
      5.29488      4.44783     21.98829        -0.001695      0.001034     -0.000653
    total drift:                               -0.000087      0.000037     -0.033444

  FREE ENERGIE OF THE ION-ELECTRON SYSTEM (eV)
  free  energy   TOTEN  =     -2179.18512125 eV

  energy  without entropy=    -2179.18512125  energy(sigma->0) =    -2179.18512125

 d Force = 0.1196575E-03[ 0.316E-04, 0.208E-03]  d Energy = 0.5240540E-04 0.673E-04
 d Force = 0.4348157E+02[ 0.435E+02, 0.435E+02]  d Ewald  = 0.4348157E+02 0.170E-05

 Conjugate gradient step on ions:
 trial-energy change:   -0.000052  1 .order   -0.000120   -0.000208   -0.000032
  (g-gl).g = 0.236E-03      g.g   = 0.247E-03  gl.gl    = 0.265E-03
 g(Force)  = 0.247E-03   g(Stress)= 0.000E+00 ortho     = 0.336E-05
 gamma     =   0.89024
 trial     =   0.83085
 opt step  =   0.97988  (harmonic =   0.97988) maximal distance =0.00386739
 next E    = -2179.185191   (d E  =  -0.00012)

 reached required accuracy - stopping structural energy minimisation