 vasp.6.3.0 20Jan22 (build Apr  1 2022 16:44:48) complex
 executed on        HPECrayEX_GCC date 2022.11.01  09:48:05

 INCAR:
   SYSTEM = MgO-rocksalt
   ISMEAR = 0
   SIGMA = 0.05
   EDIFF = 1E-7
   ALGO = ALL
   ISTART = 0
   IBRION = 2
   NSW = 1000
   ISYM = 0
   ISIF = 2
   EDIFFG = -0.01
   DIPOL = 0.5 0.5 0.5
   IDIPOL = 3
   LDIPOL = .TRUE.
   LHFCALC = .TRUE.
   GGA = B5
   AEXX = 0.2
   AGGAX = 0.72
   AGGAC = 0.81
   ALDAC = 0.19
   IVDW = 1
   VDW_S6 = 1.05
   VDW_C6 = 1.75 0.70 0.63 0.70
   VDW_R0 = 1.452 1.342 1.243 1.342
   ENCUT = 600
   PREC = Accurate
   LASPH = .TRUE.
   LREAL = .FALSE.
   ISPIN = 1
   NELM = 200
   NELMIN = 8
   NCORE = 8
   KPAR = 1
   LWAVE = .FALSE.
   LCHARG = .FALSE.

 POTCAR:    PAW_PBE C 08Apr2002
 POTCAR:    PAW_PBE O 08Apr2002
 POTCAR:    PAW_PBE Mg_pv 13Apr2007
 POTCAR:    PAW_PBE O 08Apr2002
 POTCAR:    PAW_PBE C 08Apr2002
   VRHFIN =C: s2p2

   TITEL  = PAW_PBE C 08Apr2002
   POMASS =   12.011; ZVAL   =    4.000    mass and valenz
   ENMAX  =  400.000; ENMIN  =  300.000 eV

[...]

   TITEL  = PAW_PBE Mg_pv 13Apr2007
   POMASS =   24.305; ZVAL   =    8.000    mass and valenz
   ENMAX  =  403.929; ENMIN  =  302.947 eV

   TITEL  = PAW_PBE O 08Apr2002
   POMASS =   16.000; ZVAL   =    6.000    mass and valenz
   ENMAX  =  400.000; ENMIN  =  300.000 eV

  PAW_PBE C 08Apr2002                   :
  PAW_PBE O 08Apr2002                   :
  PAW_PBE Mg_pv 13Apr2007               :
  PAW_PBE O 08Apr2002                   :

 POSCAR:  C  O Mg  O
  positions in direct lattice
  velocities in cartesian coordinates
 exchange correlation table for  LEXCH =       12
   RHO(1)=    0.500       N(1)  =     2000
   RHO(2)=  100.500       N(2)  =     4000

 ion  position               nearest neighbor table
   1  0.625  0.625  0.771-   3 1.17   2 1.17
   2  0.527  0.527  0.772-   1 1.17
   3  0.723  0.723  0.772-   1 1.17
   4  0.250  0.000  0.352-  38 2.10  39 2.10  46 2.10  55 2.10  36 2.10
   5  0.500  0.250  0.352-  38 2.10  39 2.10  47 2.10  54 2.10  37 2.10
   6  0.250  0.250  0.451-  36 2.10  37 2.10  44 2.10  53 2.10  38 2.10  42 2.10
   7  0.500  0.000  0.451-  36 2.10  37 2.10  45 2.10  52 2.10  39 2.10  43 2.11
   8  0.250  1.000  0.550-  42 2.10  59 2.10  50 2.10  43 2.10  36 2.11  40 2.13
   9  0.500  0.250  0.550-  58 2.10  42 2.10  51 2.10  43 2.10  37 2.11  41 2.12
  10  0.250  0.250  0.648-  42 2.09  57 2.10  40 2.10  41 2.10  48 2.10
  11  0.500  0.000  0.648-  43 2.09  41 2.09  56 2.10  40 2.10  49 2.11
  12  0.250  0.500  0.352-  38 2.10  46 2.10  47 2.10  63 2.10  44 2.10
  13  0.500  0.750  0.352-  39 2.10  46 2.10  47 2.10  62 2.10  45 2.10
  14  0.250  0.750  0.451-  36 2.10  44 2.10  45 2.10  61 2.10  46 2.10  50 2.11
  15  0.500  0.500  0.451-  37 2.10  44 2.10  45 2.10  60 2.10  47 2.10  51 2.11
  16  0.250  0.500  0.550-  50 2.10  42 2.10  51 2.10  67 2.10  44 2.11  48 2.12
  17  0.500  0.750  0.550-  51 2.10  66 2.10  50 2.10  43 2.10  45 2.12  49 2.14
  18  0.250  0.750  0.648-  50 2.09  65 2.09  48 2.10  40 2.10  49 2.11
  19  0.498  0.498  0.648-  41 2.09  48 2.09  51 2.10  64 2.12  49 2.12
  20  0.750  0.000  0.352-  39 2.10  54 2.10  55 2.10  62 2.10  52 2.10
  21  0.000  0.250  0.352-  38 2.10  54 2.10  55 2.10  63 2.10  53 2.10
  22  0.750  0.250  0.451-  37 2.10  52 2.10  53 2.10  60 2.10  54 2.10  58 2.11
  23  0.000  0.000  0.451-  36 2.10  52 2.10  53 2.10  61 2.10  55 2.10  59 2.10
  24  0.750  0.000  0.550-  43 2.10  59 2.10  66 2.10  58 2.10  52 2.11  56 2.12
  25  1.000  0.250  0.550-  42 2.10  59 2.10  58 2.10  67 2.10  53 2.11  57 2.13
  26  0.750  0.250  0.648-  58 2.09  56 2.09  41 2.10  57 2.10  64 2.11
  27  0.000  0.000  0.648-  59 2.09  40 2.10  57 2.10  56 2.10  65 2.10
  28  0.750  0.500  0.352-  47 2.10  54 2.10  62 2.10  63 2.10  60 2.10
  29  0.000  0.750  0.352-  46 2.10  55 2.10  62 2.10  63 2.10  61 2.10
  30  0.750  0.750  0.451-  45 2.10  52 2.10  60 2.10  61 2.10  62 2.10  66 2.11
  31  0.000  0.500  0.451-  44 2.10  53 2.10  60 2.10  61 2.10  63 2.10  67 2.11
  32  0.750  0.500  0.550-  51 2.10  66 2.10  58 2.10  67 2.10  60 2.12  64 2.14
  33  0.000  0.750  0.550-  67 2.10  59 2.10  66 2.10  50 2.10  61 2.11  65 2.12
  34  0.752  0.752  0.648-  56 2.09  65 2.09  66 2.10  64 2.12  49 2.12
  35  0.000  0.500  0.648-  67 2.09  48 2.09  65 2.10  57 2.10  64 2.11
  36  0.250  0.000  0.451-   6 2.10   7 2.10  14 2.10  23 2.10   4 2.10   8 2.11
  37  0.500  0.250  0.451-   6 2.10   7 2.10  15 2.10  22 2.10   5 2.10   9 2.11
  38  0.250  0.250  0.352-   4 2.10   5 2.10  12 2.10  21 2.10   6 2.10
  39  0.500  0.000  0.352-   4 2.10   5 2.10  13 2.10  20 2.10   7 2.10
  40  0.250  1.000  0.650-  10 2.10  27 2.10  11 2.10  18 2.10   8 2.13
  41  0.500  0.249  0.649-  19 2.09  11 2.09  10 2.10  26 2.10   9 2.12
  42  0.250  0.250  0.549-  10 2.09  25 2.10   8 2.10  16 2.10   9 2.10   6 2.10
  43  0.500  1.000  0.549-  11 2.09  17 2.10   8 2.10  24 2.10   9 2.10   7 2.11
  44  0.250  0.500  0.451-   6 2.10  14 2.10  15 2.10  31 2.10  12 2.10  16 2.11
  45  0.500  0.750  0.451-   7 2.10  14 2.10  15 2.10  30 2.10  13 2.10  17 2.12
  46  0.250  0.750  0.352-   4 2.10  12 2.10  13 2.10  29 2.10  14 2.10
  47  0.500  0.500  0.352-   5 2.10  12 2.10  13 2.10  28 2.10  15 2.10
  48  0.249  0.500  0.649-  19 2.09  35 2.09  10 2.10  18 2.10  16 2.12
  49  0.500  0.750  0.651-  11 2.11  18 2.11  19 2.12  34 2.12  17 2.14
  50  0.250  0.750  0.549-  18 2.09  17 2.10   8 2.10  16 2.10  33 2.10  14 2.11
  51  0.500  0.500  0.550-  19 2.10  32 2.10  17 2.10  16 2.10   9 2.10  15 2.11
  52  0.750  0.000  0.451-   7 2.10  22 2.10  23 2.10  30 2.10  20 2.10  24 2.11
  53  0.000  0.250  0.451-   6 2.10  22 2.10  23 2.10  31 2.10  21 2.10  25 2.11
  54  0.750  0.250  0.352-   5 2.10  20 2.10  21 2.10  28 2.10  22 2.10
  55  0.000  0.000  0.352-   4 2.10  20 2.10  21 2.10  29 2.10  23 2.10
  56  0.750  0.001  0.649-  34 2.09  26 2.09  27 2.10  11 2.10  24 2.12
  57  1.000  0.250  0.650-  10 2.10  27 2.10  35 2.10  26 2.10  25 2.13
  58  0.750  0.250  0.549-  26 2.09  32 2.10  25 2.10   9 2.10  24 2.10  22 2.11
  59  0.000  0.000  0.549-  27 2.09   8 2.10  25 2.10  33 2.10  24 2.10  23 2.10
  60  0.750  0.500  0.451-  15 2.10  22 2.10  30 2.10  31 2.10  28 2.10  32 2.12
  61  0.000  0.750  0.451-  14 2.10  23 2.10  30 2.10  31 2.10  29 2.10  33 2.11
  62  0.750  0.750  0.352-  13 2.10  20 2.10  28 2.10  29 2.10  30 2.10
  63  0.000  0.500  0.352-  12 2.10  21 2.10  28 2.10  29 2.10  31 2.10
  64  0.750  0.500  0.651-  26 2.11  35 2.11  19 2.12  34 2.12  32 2.14
  65  0.001  0.750  0.649-  34 2.09  18 2.09  27 2.10  35 2.10  33 2.12
  66  0.750  0.750  0.550-  34 2.10  17 2.10  32 2.10  33 2.10  24 2.10  30 2.11
  67  1.000  0.500  0.549-  35 2.09  32 2.10  25 2.10  33 2.10  16 2.10  31 2.11

IMPORTANT INFORMATION: All symmetrisations will be switched off!
NOSYMM: (Re-)initialisation of all symmetry stuff for point group C_1.

                                     Primitive cell

  volume of cell :    1504.9259

  direct lattice vectors                    reciprocal lattice vectors
     8.404861995  0.000000000  0.000000000     0.118978753  0.000000000  0.000000000
     0.000000000  8.404861995  0.000000000     0.000000000  0.118978753  0.000000000
     0.000000000  0.000000000 21.303646496     0.000000000  0.000000000  0.046940321

  length of vectors
     8.404861995  8.404861995 21.303646496     0.118978753  0.118978753  0.046940321

  position of ions in fractional coordinates (direct lattice)
     0.625015166  0.625015564  0.771045975
     0.526887481  0.526887288  0.771861643
     0.723102599  0.723102951  0.771860058
     0.250000000  0.000000000  0.352052406
     0.500000000  0.250000000  0.352052406
     0.250000000  0.250000000  0.450684135
     0.500000000  0.000000000  0.450684135
     0.250050077  0.999949731  0.549726846
     0.499961945  0.249878925  0.549759810
     0.249786099  0.249785933  0.647637962
     0.500159530  0.000375583  0.647554304
     0.250000000  0.500000000  0.352052406
     0.500000000  0.750000000  0.352052406
     0.250000000  0.750000000  0.450684135
     0.500000000  0.500000000  0.450684135
     0.249878923  0.499961694  0.549759787
     0.500327025  0.749673048  0.550002539
     0.249623499  0.749839507  0.647554136
     0.497761373  0.497761284  0.648087029
     0.750000000  0.000000000  0.352052406
     0.000000000  0.250000000  0.352052406
     0.750000000  0.250000000  0.450684135
     0.000000000  0.000000000  0.450684135
     0.750038458  0.000120300  0.549760070
     0.999949635  0.250049917  0.549726865
     0.749839927  0.249623921  0.647554167
     0.000213701  0.000213693  0.647638097
     0.750000000  0.500000000  0.352052406
     0.000000000  0.750000000  0.352052406
     0.750000000  0.750000000  0.450684135
     0.000000000  0.500000000  0.450684135
     0.749672966  0.500326878  0.550002563
     0.000120340  0.750038624  0.549760085
     0.752238385  0.752238373  0.648087573
     0.000376071  0.500159945  0.647554287
     0.250000000  0.000000000  0.450684135
     0.500000000  0.250000000  0.450684135
     0.250000000  0.250000000  0.352052406
     0.500000000  0.000000000  0.352052406
     0.250077086  0.999922612  0.649717059
     0.499776723  0.249267314  0.649263768
     0.249887527  0.249887752  0.549418342
     0.500011109  0.999593236  0.549498862
     0.250000000  0.500000000  0.450684135
     0.500000000  0.750000000  0.450684135
     0.250000000  0.750000000  0.352052406
     0.500000000  0.500000000  0.352052406
     0.249267258  0.499776768  0.649263817
     0.500272590  0.749726767  0.650662423
     0.250407083  0.749989218  0.549498921
     0.500058416  0.500058488  0.549730351
     0.750000000  0.000000000  0.450684135
     0.000000000  0.250000000  0.450684135
     0.750000000  0.250000000  0.352052406
     0.000000000  0.000000000  0.352052406
     0.750223207  0.000732531  0.649264318
     0.999922803  0.250077139  0.649717117
     0.749989374  0.250406960  0.549498905
     0.000111413  0.000111227  0.549418100
     0.750000000  0.500000000  0.450684135
     0.000000000  0.750000000  0.450684135
     0.750000000  0.750000000  0.352052406
     0.000000000  0.500000000  0.352052406
     0.749726836  0.500272588  0.650662459
     0.000732736  0.750223106  0.649264332
     0.749941746  0.749941655  0.549730696
     0.999593192  0.500011123  0.549498907

  ion indices of the primitive-cell ions
   primitive index   ion index
                 1           1
                 2           2
                 3           3
                 4           4
                 5           5
                 6           6
                 7           7
                 8           8
                 9           9
                10          10
                11          11
                12          12
                13          13
                14          14
                15          15
                16          16
                17          17
                18          18
                19          19
                20          20
                21          21
                22          22
                23          23
                24          24
[...]
   6.30364650  6.30364650  9.60121550
   0.00000000  4.20243100  9.60121550
   6.30089782  4.20517836 11.71706016
   0.00101144  6.30397112 11.71189451
   6.32245981  6.32245971 13.80662855
   0.00316083  4.20377531 13.79526761
   2.10121550  0.00000000  9.60121550
   4.20243100  2.10121550  9.60121550
   2.10121550  2.10121550  7.50000000
   4.20243100  0.00000000  7.50000000
   2.10186340  8.40421156 13.84134254
   4.20055439  2.09505738 13.83168579
   2.10027018  2.10027207 11.70461413
   4.20252437  8.40144320 11.70632950
   2.10121550  4.20243100  9.60121550
   4.20243100  6.30364650  9.60121550
   2.10121550  6.30364650  7.50000000
   4.20243100  4.20243100  7.50000000
   2.09505691  4.20055476 13.83168685
   4.20472208  6.30135001 13.86148226
   2.10463698  6.30355588 11.70633076
   4.20292197  4.20292258 11.71126107
   6.30364650  0.00000000  9.60121550
   0.00000000  2.10121550  9.60121550
   6.30364650  2.10121550  7.50000000
   0.00000000  0.00000000  7.50000000
   6.30552252  0.00615682 13.83169752
   8.40421317  2.10186384 13.84134378
   6.30355719  2.10463594 11.70633042
   0.00093641  0.00093485 11.70460898
   6.30364650  4.20243100  9.60121550
   0.00000000  6.30364650  9.60121550
   6.30364650  6.30364650  7.50000000
   0.00000000  4.20243100  7.50000000
   6.30135059  4.20472206 13.86148301
   0.00615855  6.30552167 13.83169781
   6.30315688  6.30315611 11.71126841
   8.40144283  4.20252449 11.70633046

--------------------------------------- Iteration      FINAL  ---------------------------------------

--------------------OUTCAR has been truncated-------------------------

[...]

--------------------OUTCAR has been truncated-------------------------

  Number of pair interactions contributing to vdW energy:  800003
  Edisp (eV):   -5.37351

  FORCE on cell =-STRESS in cart. coord.  units (eV):
  Direction    XX          YY          ZZ          XY          YZ          ZX
  Alpha Z   936.10291   936.10291   936.10291
  Ewald  160176.83498160176.83160************   390.14615     0.00552     0.00582
  Hartree170655.28571170655.28369************   173.52574     0.00235     0.00263
  E(xc)   -2062.45161 -2062.45162 -2066.67297     1.08407     0.00001     0.00001
  Local  ************************340288.38868  -526.42247    -0.00731    -0.00790
  n-local -1212.82254 -1212.82253 -1232.71290    -2.46095    -0.00006    -0.00007
  augment   908.46306   908.46307   899.60330    -1.45025    -0.00003    -0.00003
  Kinetic  7653.86641  7653.86662  7721.17774   -32.50190    -0.00033    -0.00030
  Fock    -2020.79703 -2020.79702 -2016.02658    -1.56268     0.00001     0.00001
  vdW        -7.73561    -7.73561    -6.60898     0.00895     0.00000     0.00000
  Total     -30.54432   -30.54430    -2.45558     0.36665     0.00017     0.00018
  in kB     -32.51816   -32.51814    -2.61427     0.39035     0.00018     0.00020

 VOLUME and BASIS-vectors are now :
  energy-cutoff  :      600.00
  volume of cell :     1504.93
      direct lattice vectors                 reciprocal lattice vectors
     8.404861995  0.000000000  0.000000000     0.118978753  0.000000000  0.000000000
     0.000000000  8.404861995  0.000000000     0.000000000  0.118978753  0.000000000
     0.000000000  0.000000000 21.303646496     0.000000000  0.000000000  0.046940321

  length of vectors
     8.404861995  8.404861995 21.303646496     0.118978753  0.118978753  0.046940321

 FORCES acting on ions:
    Electron-Ion                     Ewald-Force                    Non-Local-Force
   0.229E-01 0.230E-01 -.104E+04   -.296E-01 -.297E-01 0.104E+04   0.364E-03 0.363E-03 0.256E+00
   0.192E+03 0.192E+03 -.157E+04   -.239E+03 -.239E+03 0.157E+04   0.416E+02 0.416E+02 -.184E+01
   -.192E+03 -.192E+03 -.157E+04   0.239E+03 0.239E+03 0.157E+04   -.416E+02 -.416E+02 -.184E+01
   0.157E+00 -.157E+00 0.212E+04   -.156E+00 0.156E+00 -.211E+04   -.685E-03 0.684E-03 -.642E+01
   0.158E+00 0.182E+00 0.212E+04   -.157E+00 -.182E+00 -.211E+04   -.516E-03 -.552E-03 -.640E+01
   0.776E+00 0.776E+00 0.749E+03   -.795E+00 -.795E+00 -.750E+03   0.125E-01 0.125E-01 0.361E+00
   0.808E+00 -.758E+00 0.750E+03   -.822E+00 0.700E+00 -.751E+03   0.966E-02 0.370E-01 0.393E+00
   0.342E+01 -.342E+01 -.616E+03   -.343E+01 0.343E+01 0.616E+03   0.208E-02 -.219E-02 -.173E+00
   0.356E+01 0.617E+01 -.605E+03   -.356E+01 -.615E+01 0.605E+03   0.943E-03 -.182E-01 -.400E+00
   0.187E+02 0.187E+02 -.199E+04   -.188E+02 -.188E+02 0.199E+04   0.297E-01 0.297E-01 0.553E+01
   0.203E+02 -.241E+02 -.197E+04   -.203E+02 0.244E+02 0.197E+04   0.210E-01 -.267E+00 0.553E+01
   0.183E+00 0.158E+00 0.212E+04   -.182E+00 -.157E+00 -.211E+04   -.551E-03 -.516E-03 -.640E+01
   0.187E+00 -.187E+00 0.212E+04   -.185E+00 0.185E+00 -.211E+04   -.135E-02 0.135E-02 -.643E+01
   0.757E+00 -.806E+00 0.750E+03   -.699E+00 0.820E+00 -.751E+03   -.370E-01 -.963E-02 0.393E+00
   0.781E+00 0.781E+00 0.752E+03   -.747E+00 -.747E+00 -.752E+03   -.232E-01 -.232E-01 0.470E+00
   0.617E+01 0.356E+01 -.605E+03   -.615E+01 -.356E+01 0.605E+03   -.182E-01 0.945E-03 -.400E+00
   0.637E+01 -.637E+01 -.601E+03   -.634E+01 0.634E+01 0.601E+03   -.309E-01 0.311E-01 0.283E-01
   0.241E+02 -.203E+02 -.197E+04   -.244E+02 0.203E+02 0.197E+04   0.267E+00 -.210E-01 0.553E+01
   0.332E+02 0.332E+02 -.188E+04   -.337E+02 -.337E+02 0.187E+04   0.461E+00 0.461E+00 0.539E+01
   -.158E+00 -.183E+00 0.212E+04   0.157E+00 0.182E+00 -.211E+04   0.518E-03 0.549E-03 -.640E+01
   -.157E+00 0.157E+00 0.212E+04   0.156E+00 -.156E+00 -.211E+04   0.683E-03 -.685E-03 -.642E+01
   -.806E+00 0.757E+00 0.750E+03   0.821E+00 -.699E+00 -.751E+03   -.963E-02 -.370E-01 0.393E+00
   -.778E+00 -.778E+00 0.749E+03   0.796E+00 0.796E+00 -.750E+03   -.125E-01 -.125E-01 0.360E+00
   -.356E+01 -.618E+01 -.605E+03   0.356E+01 0.616E+01 0.605E+03   -.932E-03 0.182E-01 -.400E+00
   -.342E+01 0.342E+01 -.616E+03   0.343E+01 -.343E+01 0.616E+03   -.223E-02 0.206E-02 -.173E+00
   -.203E+02 0.241E+02 -.197E+04   0.203E+02 -.244E+02 0.197E+04   -.210E-01 0.267E+00 0.553E+01
   -.187E+02 -.187E+02 -.199E+04   0.188E+02 0.188E+02 0.199E+04   -.297E-01 -.297E-01 0.553E+01
   -.187E+00 0.187E+00 0.212E+04   0.185E+00 -.185E+00 -.211E+04   0.135E-02 -.135E-02 -.643E+01
   -.183E+00 -.158E+00 0.212E+04   0.182E+00 0.157E+00 -.211E+04   0.549E-03 0.519E-03 -.640E+01
   -.779E+00 -.779E+00 0.752E+03   0.745E+00 0.745E+00 -.752E+03   0.232E-01 0.232E-01 0.470E+00
   -.758E+00 0.808E+00 0.750E+03   0.700E+00 -.822E+00 -.751E+03   0.370E-01 0.965E-02 0.393E+00
   -.637E+01 0.637E+01 -.601E+03   0.634E+01 -.634E+01 0.601E+03   0.311E-01 -.309E-01 0.283E-01
   -.618E+01 -.356E+01 -.605E+03   0.616E+01 0.356E+01 0.605E+03   0.182E-01 -.952E-03 -.400E+00
   -.332E+02 -.332E+02 -.188E+04   0.337E+02 0.337E+02 0.187E+04   -.461E+00 -.461E+00 0.539E+01
   -.241E+02 0.203E+02 -.197E+04   0.244E+02 -.203E+02 0.197E+04   -.267E+00 0.210E-01 0.553E+01
   0.478E+00 -.479E+00 0.561E+03   -.482E+00 0.483E+00 -.561E+03   0.510E-02 -.509E-02 -.903E-01
   0.485E+00 0.642E+00 0.563E+03   -.483E+00 -.639E+00 -.562E+03   -.125E-02 -.295E-02 -.610E-01
   0.131E+00 0.131E+00 0.159E+04   -.132E+00 -.132E+00 -.159E+04   0.199E-02 0.199E-02 0.312E+01
   0.132E+00 -.124E+00 0.159E+04   -.133E+00 0.120E+00 -.159E+04   0.214E-02 0.507E-02 0.312E+01
   0.945E+01 -.945E+01 -.152E+04   -.941E+01 0.941E+01 0.152E+04   -.394E-01 0.394E-01 -.456E+01
   0.106E+02 0.280E+02 -.149E+04   -.106E+02 -.281E+02 0.150E+04   -.361E-01 0.494E-01 -.464E+01
   0.347E+01 0.347E+01 -.455E+03   -.346E+01 -.346E+01 0.455E+03   -.124E-01 -.124E-01 0.248E+00
   0.362E+01 -.331E+01 -.450E+03   -.361E+01 0.332E+01 0.450E+03   -.433E-02 -.111E-01 0.321E+00
   0.642E+00 0.485E+00 0.563E+03   -.639E+00 -.483E+00 -.562E+03   -.296E-02 -.124E-02 -.610E-01
   0.706E+00 -.706E+00 0.563E+03   -.731E+00 0.730E+00 -.563E+03   0.296E-01 -.296E-01 -.144E+00
   0.124E+00 -.131E+00 0.159E+04   -.120E+00 0.133E+00 -.159E+04   -.507E-02 -.213E-02 0.312E+01
   0.127E+00 0.127E+00 0.159E+04   -.122E+00 -.122E+00 -.159E+04   -.621E-02 -.621E-02 0.312E+01
   0.280E+02 0.106E+02 -.149E+04   -.281E+02 -.106E+02 0.150E+04   0.494E-01 -.361E-01 -.464E+01
   0.348E+02 -.348E+02 -.145E+04   -.347E+02 0.347E+02 0.145E+04   -.842E-01 0.846E-01 -.421E+01
   0.331E+01 -.362E+01 -.450E+03   -.332E+01 0.361E+01 0.450E+03   0.111E-01 0.433E-02 0.321E+00
   0.353E+01 0.353E+01 -.442E+03   -.355E+01 -.355E+01 0.442E+03   0.247E-01 0.247E-01 0.238E+00
   -.484E+00 -.643E+00 0.563E+03   0.482E+00 0.639E+00 -.562E+03   0.118E-02 0.300E-02 -.609E-01
   -.479E+00 0.478E+00 0.561E+03   0.483E+00 -.482E+00 -.561E+03   -.509E-02 0.509E-02 -.903E-01
   -.131E+00 0.124E+00 0.159E+04   0.133E+00 -.120E+00 -.159E+04   -.213E-02 -.507E-02 0.312E+01
   -.131E+00 -.131E+00 0.159E+04   0.133E+00 0.133E+00 -.159E+04   -.200E-02 -.200E-02 0.312E+01
   -.106E+02 -.280E+02 -.149E+04   0.106E+02 0.281E+02 0.150E+04   0.363E-01 -.497E-01 -.463E+01
   -.945E+01 0.945E+01 -.152E+04   0.941E+01 -.941E+01 0.152E+04   0.394E-01 -.394E-01 -.456E+01
   -.362E+01 0.331E+01 -.450E+03   0.361E+01 -.332E+01 0.450E+03   0.434E-02 0.111E-01 0.321E+00
   -.348E+01 -.348E+01 -.455E+03   0.346E+01 0.346E+01 0.455E+03   0.124E-01 0.124E-01 0.248E+00
   -.706E+00 0.706E+00 0.563E+03   0.730E+00 -.731E+00 -.563E+03   -.297E-01 0.296E-01 -.144E+00
   -.643E+00 -.484E+00 0.563E+03   0.640E+00 0.482E+00 -.562E+03   0.301E-02 0.118E-02 -.609E-01
   -.127E+00 -.127E+00 0.159E+04   0.122E+00 0.122E+00 -.159E+04   0.622E-02 0.622E-02 0.312E+01
   -.124E+00 0.132E+00 0.159E+04   0.120E+00 -.133E+00 -.159E+04   0.507E-02 0.214E-02 0.312E+01
   -.348E+02 0.348E+02 -.145E+04   0.347E+02 -.347E+02 0.145E+04   0.846E-01 -.842E-01 -.421E+01
   -.280E+02 -.106E+02 -.149E+04   0.281E+02 0.106E+02 0.150E+04   -.496E-01 0.363E-01 -.463E+01
   -.352E+01 -.352E+01 -.442E+03   0.355E+01 0.355E+01 0.442E+03   -.248E-01 -.248E-01 0.238E+00
   -.331E+01 0.362E+01 -.450E+03   0.332E+01 -.361E+01 0.450E+03   -.111E-01 -.432E-02 0.321E+00
   0.387E-02 0.387E-02 0.216E+02   -.128E-12 -.114E-12 -.352E-11   -.361E-02 -.360E-02 -.190E+02

 POSITION                                       TOTAL-FORCE (eV/Angst)
      5.25309      5.25309     16.45624        -0.006264     -0.006262      0.000093
      4.42905      4.42905     16.47348         0.002475      0.002472      0.001972
      6.07706      6.07706     16.47350         0.003588      0.003596      0.002152
      2.10122      0.00000      7.50000         0.000264     -0.000256      0.406663
      4.20243      2.10122      7.50000         0.000240      0.000252      0.403329
      2.10122      2.10122      9.60122        -0.004641     -0.004640      0.030284
      4.20243      0.00000      9.60122        -0.003407     -0.016463      0.036500
      2.10164      8.40444     11.71162         0.000969     -0.000958     -0.000535
      4.20204      2.10038     11.71232        -0.001179     -0.000153      0.000007
      2.09908      2.09908     13.79765        -0.000430     -0.000426      0.000160
      4.20325      0.00278     13.79612        -0.000507     -0.000323      0.000742
      2.10122      4.20243      7.50000         0.000252      0.000240      0.403329
      4.20243      6.30365      7.50000         0.000489     -0.000482      0.409002
      2.10122      6.30365      9.60122         0.016486      0.003398      0.036434
      4.20243      4.20243      9.60122         0.007865      0.007870      0.040761
      2.10038      4.20204     11.71232        -0.000149     -0.001178      0.000001
      4.20506      6.30102     11.71813        -0.000398      0.000391      0.000639
      2.09843      6.30282     13.79612         0.000359      0.000490      0.000748
      4.18509      4.18509     13.80890         0.001489      0.001493      0.001001
      6.30365      0.00000      7.50000        -0.000233     -0.000243      0.403327
      0.00000      2.10122      7.50000        -0.000256      0.000264      0.406663
      6.30365      2.10122      9.60122         0.003398      0.016485      0.036427
      0.00000      0.00000      9.60122         0.004654      0.004648      0.030313
      6.30403      0.00084     11.71231         0.001169      0.000139      0.000006
      8.40444      2.10164     11.71162        -0.000957      0.000973     -0.000531
      6.30282      2.09843     13.79611         0.000480      0.000346      0.000759
      0.00212      0.00212     13.79764         0.000455      0.000454      0.000222
      6.30365      4.20243      7.50000        -0.000483      0.000490      0.409000
      0.00000      6.30365      7.50000        -0.000243     -0.000233      0.403328
      6.30365      6.30365      9.60122        -0.007867     -0.007872      0.040674
      0.00000      4.20243      9.60122        -0.016464     -0.003404      0.036503
      6.30101      4.20506     11.71813         0.000406     -0.000385      0.000638
      0.00084      6.30403     11.71231         0.000135      0.001167     -0.000006
      6.32099      6.32099     13.80887        -0.001480     -0.001485      0.000864
      0.00278      4.20325     13.79612        -0.000332     -0.000514      0.000749
      2.10122      0.00000      9.60122         0.002037     -0.002024      0.039011
      4.20243      2.10122      9.60122         0.000063     -0.000172      0.054455
      2.10122      2.10122      7.50000         0.000669      0.000669     -0.493967
      4.20243      0.00000      7.50000         0.000719      0.001706     -0.494352
      2.10181      8.40426     13.84218         0.000660     -0.000652     -0.000988
      4.20056      2.09535     13.83244        -0.000105      0.000769      0.001391
      2.10036      2.10036     11.70494        -0.000164     -0.000169      0.001447
      4.20250      8.40141     11.70681         0.000481      0.001166      0.000681
      2.10122      4.20243      9.60122        -0.000175      0.000067      0.054459
      4.20243      6.30365      9.60122         0.009466     -0.009466      0.053554
      2.10122      6.30365      7.50000        -0.001699     -0.000710     -0.494456
      4.20243      4.20243      7.50000        -0.002115     -0.002116     -0.495011
      2.09535      4.20056     13.83244         0.000784     -0.000120      0.001383
      4.20471      6.30137     13.86371        -0.000071      0.000144      0.001395
      2.10467      6.30358     11.70681        -0.001185     -0.000474      0.000696
      4.20305      4.20305     11.71175        -0.001376     -0.001384     -0.000955
      6.30365      0.00000      9.60122        -0.000080      0.000197      0.054421
      0.00000      2.10122      9.60122        -0.002024      0.002035      0.039009
      6.30365      2.10122      7.50000        -0.000710     -0.001699     -0.494453
      0.00000      0.00000      7.50000        -0.000664     -0.000663     -0.493862
      6.30551      0.00585     13.83242         0.000120     -0.000810      0.001474
      8.40426      2.10180     13.84217        -0.000642      0.000665     -0.000985
      6.30358      2.10467     11.70680        -0.000466     -0.001178      0.000717
      0.00085      0.00085     11.70492         0.000182      0.000196      0.001532
      6.30365      4.20243      9.60122        -0.009469      0.009465      0.053549
      0.00000      6.30365      9.60122         0.000202     -0.000082      0.054424
      6.30365      6.30365      7.50000         0.002126      0.002125     -0.495113
      0.00000      4.20243      7.50000         0.001705      0.000718     -0.494352
      6.30137      4.20471     13.86370         0.000148     -0.000061      0.001395
      0.00586      6.30551     13.83242        -0.000825      0.000133      0.001473
      6.30303      6.30302     11.71173         0.001348      0.001355     -0.000862
      8.40141      4.20250     11.70681         0.001176      0.000481      0.000674
    total drift:                               -0.000264     -0.000254      0.003610

  FREE ENERGIE OF THE ION-ELECTRON SYSTEM (eV)
  free  energy   TOTEN  =      -466.82991260 eV

  energy  without entropy=     -466.82991260  energy(sigma->0) =     -466.82991260

 d Force = 0.1395477E-05[ 0.732E-06, 0.206E-05]  d Energy = 0.1201339E-05 0.194E-06
 d Force =-0.1980557E+00[-0.198E+00,-0.198E+00]  d Ewald  =-0.1980557E+00 0.122E-08

 Conjugate gradient step on ions:
 trial-energy change:   -0.000001  1 .order   -0.000001   -0.000002   -0.000001
  (g-gl).g =-0.373E-04      g.g   = 0.372E-04  gl.gl    = 0.199E-03
 g(Force)  = 0.372E-04   g(Stress)= 0.000E+00 ortho     =-0.138E-05
 gamma     =  -0.18766
 trial     =   0.05504
 opt step  =   0.08540  (harmonic =   0.08540) maximal distance =0.00003787
 next E    =  -466.829913   (d E  =  -0.00000)

 reached required accuracy - stopping structural energy minimisation