 vasp.6.3.0 20Jan22 (build Aug 21 2024 11:13:42) complex
 executed on        HPECrayEX_GCC date 2024.11.27  00:48:12

 INCAR:
   SYSTEM = TiO2
   ISMEAR = 0
   SIGMA = 0.05
   EDIFF = 1E-4
   ALGO = ALL
   ISTART = 0
   IBRION = -1
   NSW = 0
   ISYM = 0
   ISIF = 2
   EDIFFG = -0.01
   DIPOL = 0.5 0.5 0.5
   IDIPOL = 3
   LDIPOL = .TRUE.
   LHFCALC = .TRUE.
   HFSCREEN = 0.2
   GGA = PE
   IVDW = 13
   VDW_S8 = 1.19528249
   VDW_A1 = 0.38663183
   VDW_A2 = 5.19133469
   ENCUT = 520
   PREC = Normal
   PRECFOCK = Fast
   LASPH = .TRUE.
   LREAL = .FALSE.
   ISPIN = 1
   NKREDX = 3
   NKREDY = 3
   NELM = 200
   NELMIN = 8
   NCORE = 16
   KPAR = 1
   LWAVE = .FALSE.
   LCHARG = .FALSE.

 POTCAR:    PAW_PBE H 15Jun2001
 POTCAR:    PAW_PBE O 08Apr2002
 POTCAR:    PAW_PBE Ti 08Apr2002
 POTCAR:    PAW_PBE O 08Apr2002
 POTCAR:    PAW_PBE H 15Jun2001
   VRHFIN =H: ultrasoft test

   TITEL  = PAW_PBE H 15Jun2001
   POMASS =    1.000; ZVAL   =    1.000    mass and valenz
   ENMAX  =  250.000; ENMIN  =  200.000 eV

   TITEL  = PAW_PBE O 08Apr2002
   POMASS =   16.000; ZVAL   =    6.000    mass and valenz
   ENMAX  =  400.000; ENMIN  =  300.000 eV

[...]

   TITEL  = PAW_PBE O 08Apr2002
   POMASS =   16.000; ZVAL   =    6.000    mass and valenz
   ENMAX  =  400.000; ENMIN  =  300.000 eV

  PAW_PBE H 15Jun2001                   :
  PAW_PBE O 08Apr2002                   :
  PAW_PBE Ti 08Apr2002                  :
  PAW_PBE O 08Apr2002                   :

 POSCAR:  H  O Ti  O
  positions in direct lattice
 WARNING: Using user supplied parameters
     VDW_S8 = 1.195
     VDW_A1 = 0.387
     VDW_A2 = 5.191
     because the xc functional is not supported. Required parameters not
     defined in the INCAR file will be replaced with PBE defaults ones.

 ion  position               nearest neighbor table
   1  0.690  0.568  0.773-   3 0.98
   2  0.690  0.432  0.773-   3 0.98
   3  0.631  0.500  0.774-   2 0.98   1 0.98  51 2.30
   4  0.808  0.833  0.295-  88 1.94  56 1.94  54 1.94  53 1.99  55 1.99  21 3.05   7 3.05   5 3.05

   5  0.592  0.667  0.327-  52 1.94 119 1.94  55 1.94  57 1.94  56 1.99  58 1.99  36 3.05   6 3.05
                             4 3.05  10 3.08
   6  0.308  0.667  0.295- 124 1.94  60 1.94  58 1.94  52 1.99  59 1.99  39 3.05   5 3.05   7 3.05

   7  0.092  0.833  0.327-  53 1.94  91 1.94  59 1.94  61 1.94  60 1.99  54 1.99  22 3.05   4 3.05
                             6 3.05   8 3.08
   8  0.945  0.833  0.423-  62 1.92  96 1.93  64 1.94  54 1.98  63 1.98  61 2.00  11 3.00   9 3.04
                            25 3.05   7 3.08
   9  0.727  0.666  0.451-  57 1.89 127 1.93  63 1.94  65 1.96  66 1.99  64 2.00  10 3.01   8 3.04
                            40 3.05  14 3.10
  10  0.444  0.666  0.422-  66 1.93 132 1.93  68 1.93  58 1.97  67 1.99  57 2.00   9 3.01  11 3.05
                            43 3.05   5 3.08
  11  0.226  0.833  0.452-  61 1.90  99 1.94  67 1.94  69 1.97  62 1.97  68 2.01   8 3.00  26 3.05
                            10 3.05  12 3.11
  12  0.086  0.834  0.550-  70 1.92 104 1.93  72 1.94  71 1.97  69 2.01  62 2.01  15 2.95  13 3.04
                            29 3.05  11 3.11
  13  0.865  0.666  0.575-  65 1.86 135 1.93  71 1.94  74 1.95  72 2.01  73 2.01  14 2.98  12 3.04
                            44 3.05  18 3.17
  14  0.584  0.667  0.549- 140 1.93  74 1.93  76 1.93  66 1.97  75 1.98  65 2.02  13 2.98  15 3.05
                            47 3.06   9 3.10
  15  0.364  0.833  0.577-  69 1.86 107 1.94  75 1.94  70 1.95  77 2.00  76 2.02  12 2.95  30 3.05
                            14 3.05
  16  0.231  0.833  0.681-  78 1.86  80 1.93 112 1.94  79 2.00  70 2.10  77 2.10  19 2.85  33 3.07
                            17 3.09
  17  1.000  0.666  0.700-  73 1.78  81 1.84 143 1.97  79 1.98  80 2.07  18 2.86  16 3.09  48 3.10

[...]

  20  0.808  0.167  0.295-  88 1.94 120 1.94  86 1.94  85 1.99  87 1.99  21 3.05  23 3.05  37 3.05

[...]

  36  0.808  0.500  0.295-  56 1.94 120 1.94 118 1.94 117 1.99 119 1.99  37 3.05   5 3.05  39 3.05

  37  0.592  0.333  0.327- 116 1.94 119 1.94  87 1.94 121 1.94 120 1.99 122 1.99  36 3.05  38 3.05
                            20 3.05  42 3.08
  38  0.308  0.333  0.295- 124 1.94  92 1.94 122 1.94 116 1.99 123 1.99  39 3.05  37 3.05  23 3.05

  39  0.092  0.500  0.327- 117 1.94  59 1.94 123 1.94 125 1.94 124 1.99 118 1.99   6 3.05  38 3.05
                            36 3.05  40 3.07
  40  0.946  0.500  0.422- 126 1.93  64 1.94 128 1.94 118 1.97 125 1.98 127 2.00  43 2.99   9 3.05
                            41 3.05  39 3.07
  41  0.727  0.334  0.451- 121 1.89 127 1.93  95 1.94 129 1.96 130 1.99 128 2.00  42 3.01  24 3.04
                            40 3.05  46 3.10
  42  0.444  0.334  0.422- 130 1.93 132 1.93 100 1.93 122 1.97 131 1.99 121 2.00  41 3.01  27 3.05
                            43 3.05  37 3.08
  43  0.226  0.500  0.453- 125 1.92  67 1.94 131 1.94 126 1.96 133 1.97 132 2.01  40 2.99  10 3.05
                            42 3.05  44 3.07
  44  0.089  0.500  0.550- 134 1.92  72 1.93 136 1.93 133 1.98 135 2.00 126 2.01  47 2.96  13 3.05
                            45 3.05  43 3.07
  45  0.865  0.334  0.575- 129 1.86 135 1.93 103 1.94 138 1.95 136 2.01 137 2.01  46 2.98  28 3.04
                            44 3.05  50 3.17
  46  0.584  0.333  0.549- 140 1.93 138 1.93 108 1.93 130 1.97 139 1.98 129 2.02  45 2.98  31 3.05
                            47 3.06  41 3.10
  47  0.366  0.500  0.580- 133 1.91  75 1.94 139 1.94 134 1.94 141 1.99 140 2.03  44 2.96  14 3.06
                            46 3.06  48 3.14
  48  0.234  0.500  0.681- 142 1.86 144 1.93  80 1.93 143 2.03 141 2.05 134 2.09  51 2.87  49 3.10
                            17 3.10  47 3.14
  49  1.000  0.334  0.700- 137 1.78 145 1.84 143 1.97 111 1.98 144 2.07  50 2.86  32 3.09  48 3.10

  50  0.729  0.334  0.677- 145 1.90 147 1.92 115 1.94 146 1.99 138 2.03 137 2.10  49 2.86  35 3.08
                            51 3.08  45 3.17
  51  0.505  0.500  0.706- 142 1.82 141 1.86  82 1.98 146 1.98 147 2.12   3 2.30  48 2.87  18 3.08
                            50 3.08
  52  0.488  0.667  0.269-   5 1.94   6 1.99
  53  0.988  0.833  0.269-   7 1.94   4 1.99
  54  0.911  0.833  0.353-   4 1.94   8 1.98   7 1.99
  55  0.627  0.833  0.321-  21 1.94   5 1.94   4 1.99
  56  0.772  0.667  0.300-  36 1.94   4 1.94   5 1.99
  57  0.624  0.667  0.395-   9 1.89   5 1.94  10 2.00
  58  0.411  0.667  0.353-   6 1.94  10 1.97   5 1.99
  59  0.127  0.667  0.321-  39 1.94   7 1.94   6 1.99
  60  0.272  0.833  0.300-  22 1.94   6 1.94   7 1.99
  61  0.124  0.833  0.395-  11 1.90   7 1.94   8 2.00
  62  0.049  0.834  0.480-   8 1.92  11 1.97  12 2.01
  63  0.764  0.833  0.447-  25 1.94   9 1.94   8 1.98
  64  0.909  0.667  0.427-   8 1.94  40 1.94   9 2.00
  65  0.764  0.666  0.520-  13 1.86   9 1.96  14 2.02
  66  0.549  0.666  0.480-  10 1.93  14 1.97   9 1.99
  67  0.264  0.667  0.448-  43 1.94  11 1.94  10 1.99
  68  0.409  0.833  0.427-  10 1.93  26 1.93  11 2.01
  69  0.264  0.833  0.521-  15 1.86  11 1.97  12 2.01
  70  0.193  0.833  0.607-  12 1.92  15 1.95  16 2.10
  71  0.904  0.834  0.573-  29 1.94  13 1.94  12 1.97
  72  0.051  0.666  0.553-  44 1.93  12 1.94  13 2.01
  73  0.914  0.668  0.645-  17 1.78  13 2.01  18 2.10
  74  0.694  0.669  0.605-  14 1.93  13 1.95  18 2.03
  75  0.405  0.666  0.575-  47 1.94  15 1.94  14 1.98
  76  0.549  0.833  0.553-  30 1.93  14 1.93  15 2.02
  77  0.412  0.835  0.646-  19 1.78  15 2.00  16 2.10
  78  0.346  0.833  0.732-  19 1.84  16 1.86
  79  0.051  0.833  0.709-  33 1.98  17 1.98  16 2.00
  80  0.194  0.666  0.681-  16 1.93  48 1.93  17 2.07
  81  0.841  0.661  0.731-  17 1.84  18 1.90
  82  0.554  0.668  0.708-  19 1.97  51 1.98  18 1.99
  83  0.695  0.834  0.679-  34 1.93  18 1.94  19 2.06
  84  0.488  0.000  0.269-  21 1.94  22 1.99
  85  0.988  0.167  0.269-  23 1.94  20 1.99
  86  0.911  0.167  0.353-  20 1.94  24 1.98  23 1.99
  87  0.627  0.167  0.321-  21 1.94  37 1.94  20 1.99
  88  0.772  0.000  0.300-   4 1.94  20 1.94  21 1.99
  89  0.624  0.000  0.395-  25 1.89  21 1.94  26 2.00
  90  0.411  0.000  0.353-  22 1.94  26 1.98  21 1.99
  91  0.127  0.000  0.321-   7 1.94  23 1.94  22 1.99
  92  0.272  0.167  0.300-  22 1.94  38 1.94  23 1.99
  93  0.124  0.167  0.395-  27 1.90  23 1.94  24 2.00
  94  0.049  0.166  0.480-  24 1.92  27 1.97  28 2.01
  95  0.764  0.167  0.447-  25 1.94  41 1.94  24 1.98
  96  0.909  0.000  0.427-  24 1.93   8 1.93  25 2.00
  97  0.764  1.000  0.520-  29 1.86  25 1.97  30 2.01
  98  0.549  1.000  0.480-  26 1.92  25 1.98  30 2.00
  99  0.264  1.000  0.448-  27 1.94  11 1.94  26 1.99
 100  0.409  0.167  0.427-  42 1.93  26 1.93  27 2.01
 101  0.264  0.167  0.521-  31 1.86  27 1.97  28 2.01
 102  0.193  0.167  0.607-  28 1.92  31 1.95  32 2.10
 103  0.904  0.166  0.573-  29 1.94  45 1.94  28 1.97
 104  0.051  1.000  0.553-  28 1.93  12 1.93  29 2.03
 105  0.913  1.000  0.646-  33 1.78  29 2.01  34 2.09
 106  0.693  1.000  0.606-  30 1.92  29 1.94  34 2.10
 107  0.404  1.000  0.574-  31 1.94  15 1.94  30 1.98
 108  0.549  0.167  0.553-  30 1.93  46 1.93  31 2.02
 109  0.412  0.165  0.646-  35 1.78  31 2.00  32 2.10
 110  0.346  0.167  0.732-  35 1.84  32 1.86
 111  0.051  0.167  0.709-  33 1.98  49 1.98  32 2.00
[...]
 133  0.265  0.500  0.522-  47 1.91  43 1.97  44 1.98
 134  0.193  0.500  0.608-  44 1.92  47 1.94  48 2.09
 135  0.904  0.500  0.573-  45 1.93  13 1.93  44 2.00
 136  0.051  0.334  0.553-  44 1.93  28 1.94  45 2.01
 137  0.914  0.332  0.645-  49 1.78  45 2.01  50 2.10
 138  0.694  0.331  0.605-  46 1.93  45 1.95  50 2.03
 139  0.405  0.334  0.575-  47 1.94  31 1.94  46 1.98
 140  0.551  0.500  0.554-  14 1.93  46 1.93  47 2.03
 141  0.413  0.500  0.649-  51 1.86  47 1.99  48 2.05
 142  0.344  0.500  0.734-  51 1.82  48 1.86
 143  0.051  0.500  0.708-  49 1.97  17 1.97  48 2.03
 144  0.194  0.334  0.681-  32 1.93  48 1.93  49 2.07
 145  0.841  0.339  0.731-  49 1.84  50 1.90
 146  0.554  0.332  0.708-  35 1.97  51 1.98  50 1.99
 147  0.693  0.500  0.675-  50 1.92  18 1.92  51 2.12

IMPORTANT INFORMATION: All symmetrisations will be switched off!
NOSYMM: (Re-)initialisation of all symmetry stuff for point group C_1.

                                     Primitive cell

  volume of cell :    3260.5577

  direct lattice vectors                    reciprocal lattice vectors
    10.272661001  0.000000000  0.000000000     0.097345761 -0.000000000  0.000000000
     0.000000000 11.368814841  0.000000000     0.000000000  0.087959916  0.000000000
     0.000000000  0.000000000 27.918606646     0.000000000  0.000000000  0.035818406

  length of vectors
    10.272661001 11.368814841 27.918606646     0.097345761  0.087959916  0.035818406

  position of ions in fractional coordinates (direct lattice)
     0.690242186  0.567621487  0.772901899
     0.690241175  0.432379855  0.772901897
     0.631097483  0.499999119  0.774147740
     0.807711828  0.833333333  0.294983814
     0.591733995  0.666666667  0.326524766
     0.307711828  0.666666667  0.294983814
     0.091733995  0.833333333  0.326524766
     0.944867475  0.833483152  0.422627596
     0.726738982  0.666274889  0.451092195
[...]
   6.44412470  9.47401237  8.97107415
   7.93190783  7.57920989  8.38057942
   6.41223715  7.57920989 11.02231769
   4.22545764  7.57920989  9.85165358
   1.30779420  7.57920989  8.97107415
   2.79557733  9.47401237  8.38057942
[...]
   2.72662035  5.68440683 14.56802540
   1.98398768  5.68440687 16.96074764
   9.28900554  5.68440693 16.00908270
   0.52742010  3.79188108 15.43832247
   9.38425438  3.77494194 18.00907254
   7.12833887  3.75854473 16.89957410
   4.15660712  3.79171403 16.04368052
   5.65795319  5.68440708 15.46289637
   4.24553276  5.68440685 18.11393398
   3.53873964  5.68440689 20.49245367
   0.52859209  5.68440663 19.77605041
   1.99782651  3.79460142 19.00643581
   8.63839775  3.85571139 20.39736005
   5.69102523  3.77166269 19.75743172
   7.11463986  5.68440650 18.84986003

--------------------------------------- Iteration      FINAL  ---------------------------------------

--------------------OUTCAR has been truncated-------------------------

[...]

--------------------OUTCAR has been truncated-------------------------

  FORCE on cell =-STRESS in cart. coord.  units (eV):
  Direction    XX          YY          ZZ          XY          YZ          ZX
  Alpha Z  1542.31018  1542.31018  1542.31018
  Ewald  253569.20812251830.94836************    -0.00171     0.00033  -572.96972
  Hartree264846.17349264226.46508************    -0.00003     0.00060  -279.10697
  E(xc)   -2823.29492 -2817.78360 -2809.62722    -0.00001     0.00002    -2.81861
  Local  ************************521022.00982     0.00053    -0.00095   868.59847
  n-local -1773.83556 -1751.13636 -1798.48000     0.00005    -0.00007    -4.21554
  augment   810.03475   805.41249   809.05723     0.00008    -0.00000    -0.88242
  Kinetic 13967.58877 14039.06214 14133.28723     0.00035     0.00013   -10.42642
  Fock    -1302.24529 -1290.43679 -1288.78549    -0.00001    -0.00000    -0.19429
  vdW       -26.69766   -28.31458   -23.51821     0.00000     0.00000    -0.28976
  Total    -105.76899   -56.49250   -48.33263    -0.00075     0.00005    -2.30525
  in kB     -51.97291   -27.75936   -23.74975    -0.00037     0.00003    -1.13276

 VOLUME and BASIS-vectors are now :
  energy-cutoff  :      520.00
  volume of cell :     3260.56
      direct lattice vectors                 reciprocal lattice vectors
    10.272661001  0.000000000  0.000000000     0.097345761 -0.000000000  0.000000000
     0.000000000 11.368814841  0.000000000     0.000000000  0.087959916  0.000000000
     0.000000000  0.000000000 27.918606646     0.000000000  0.000000000  0.035818406

  length of vectors
    10.272661001 11.368814841 27.918606646     0.097345761  0.087959916  0.035818406

 FORCES acting on ions:
    Electron-Ion                     Ewald-Force                    Non-Local-Force
   -.482E+02 -.656E+02 -.259E+03   0.530E+02 0.719E+02 0.259E+03   -.487E+01 -.639E+01 0.234E+00
   -.482E+02 0.656E+02 -.259E+03   0.530E+02 -.719E+02 0.259E+03   -.487E+01 0.639E+01 0.234E+00
   0.467E+02 -.262E-02 -.156E+04   -.883E+02 0.444E-02 0.157E+04   0.369E+02 -.512E-03 -.901E+01
   0.102E+02 -.368E-01 0.992E+03   -.720E+01 0.399E-01 -.990E+03   0.872E+00 0.106E-02 -.191E+01
   -.156E+01 -.907E-01 0.805E+03   0.495E+00 0.939E-01 -.806E+03   -.686E+00 0.213E-03 -.865E+00
   0.102E+02 -.679E-02 0.992E+03   -.723E+01 0.589E-02 -.989E+03   0.860E+00 -.134E-03 -.191E+01
   -.205E+01 -.150E-01 0.805E+03   0.951E+00 0.123E-01 -.806E+03   -.696E+00 -.293E-03 -.869E+00
   -.570E+00 0.173E-01 0.369E+03   0.418E+00 -.296E-01 -.369E+03   0.121E+00 0.730E-04 0.224E-01
   0.294E+00 -.976E+00 0.236E+03   -.131E+00 0.991E+00 -.236E+03   -.427E-01 0.152E-01 -.131E+00
   0.167E+00 -.261E+00 0.370E+03   -.280E+00 0.271E+00 -.370E+03   0.111E+00 0.396E-02 0.165E-02
   -.184E+01 -.323E-01 0.233E+03   0.208E+01 0.246E-01 -.233E+03   -.342E-01 0.174E-02 -.126E+00
   -.291E+01 -.796E+00 -.225E+03   0.270E+01 0.757E+00 0.224E+03   0.217E+00 0.538E-02 0.138E+00
   -.536E+01 -.196E+01 -.335E+03   0.590E+01 0.203E+01 0.336E+03   -.107E+00 -.330E-01 -.191E+00
   0.177E+00 -.112E+01 -.214E+03   -.285E+00 0.112E+01 0.214E+03   0.167E+00 -.187E-02 0.824E-01
   -.265E+00 -.903E+00 -.345E+03   0.815E+00 0.892E+00 0.346E+03   -.123E+00 -.963E-02 -.211E+00
   0.881E+01 -.521E+01 -.804E+03   -.971E+01 0.525E+01 0.804E+03   0.612E+00 0.847E-02 -.408E-01
   -.360E+02 -.111E+02 -.922E+03   0.377E+02 0.110E+02 0.923E+03   0.603E-01 0.129E+00 0.725E+00
   -.622E+01 -.213E+02 -.768E+03   0.566E+01 0.215E+02 0.768E+03   0.506E+00 -.244E-01 0.643E-01
   -.218E+02 -.138E+02 -.922E+03   0.235E+02 0.138E+02 0.922E+03   0.857E-01 0.127E-01 0.741E+00
   0.102E+02 0.368E-01 0.992E+03   -.720E+01 -.399E-01 -.990E+03   0.872E+00 -.104E-02 -.191E+01
   -.160E+01 0.160E-04 0.805E+03   0.512E+00 0.190E-05 -.806E+03   -.691E+00 0.515E-05 -.869E+00
   0.102E+02 -.108E-04 0.992E+03   -.720E+01 0.331E-06 -.990E+03   0.869E+00 -.297E-04 -.191E+01
   -.205E+01 0.150E-01 0.805E+03   0.951E+00 -.123E-01 -.806E+03   -.696E+00 0.298E-03 -.869E+00
   -.570E+00 -.173E-01 0.369E+03   0.418E+00 0.296E-01 -.369E+03   0.121E+00 -.845E-04 0.224E-01
   -.933E+00 -.344E-05 0.235E+03   0.114E+01 -.336E-05 -.234E+03   -.218E-01 -.719E-06 -.131E+00
   0.335E+00 -.181E-04 0.370E+03   -.473E+00 0.719E-05 -.370E+03   0.114E+00 0.183E-05 0.884E-02
   -.184E+01 0.323E-01 0.233E+03   0.208E+01 -.246E-01 -.233E+03   -.342E-01 -.173E-02 -.126E+00
   -.291E+01 0.796E+00 -.225E+03   0.270E+01 -.757E+00 0.224E+03   0.217E+00 -.538E-02 0.138E+00
   -.453E+01 -.183E-06 -.343E+03   0.513E+01 -.553E-05 0.344E+03   -.982E-01 0.588E-05 -.191E+00
   -.125E+01 0.156E-04 -.221E+03   0.105E+01 -.118E-04 0.221E+03   0.206E+00 0.470E-06 0.152E+00
   -.265E+00 0.903E+00 -.345E+03   0.815E+00 -.892E+00 0.346E+03   -.123E+00 0.963E-02 -.211E+00
   0.881E+01 0.521E+01 -.804E+03   -.971E+01 -.525E+01 0.804E+03   0.612E+00 -.847E-02 -.408E-01
   -.295E+02 0.418E-05 -.927E+03   0.312E+02 0.887E-05 0.927E+03   0.463E-01 0.298E-06 0.707E+00
   0.270E+01 -.651E-04 -.801E+03   -.353E+01 0.803E-04 0.800E+03   0.564E+00 0.779E-05 -.927E-02
   -.218E+02 0.138E+02 -.922E+03   0.235E+02 -.138E+02 0.922E+03   0.856E-01 -.126E-01 0.741E+00
   0.102E+02 -.492E-05 0.992E+03   -.719E+01 -.280E-05 -.990E+03   0.874E+00 0.640E-05 -.191E+01
   -.156E+01 0.907E-01 0.805E+03   0.495E+00 -.939E-01 -.806E+03   -.686E+00 -.229E-03 -.865E+00
   0.102E+02 0.681E-02 0.992E+03   -.723E+01 -.589E-02 -.989E+03   0.860E+00 0.893E-04 -.191E+01
   -.219E+01 0.129E-04 0.805E+03   0.113E+01 -.107E-05 -.806E+03   -.694E+00 0.957E-05 -.840E+00
   -.374E+00 0.589E-05 0.369E+03   0.159E+00 -.170E-04 -.369E+03   0.118E+00 -.140E-04 0.449E-01
   0.294E+00 0.976E+00 0.236E+03   -.131E+00 -.991E+00 -.236E+03   -.427E-01 -.152E-01 -.131E+00
   0.167E+00 0.261E+00 0.370E+03   -.280E+00 -.271E+00 -.370E+03   0.111E+00 -.396E-02 0.167E-02
   -.245E+01 -.900E-05 0.228E+03   0.270E+01 0.997E-05 -.228E+03   -.403E-01 0.405E-05 -.399E-01
   -.186E+01 -.157E-04 -.225E+03   0.153E+01 0.472E-05 0.224E+03   0.178E+00 0.105E-04 0.152E+00
   -.536E+01 0.196E+01 -.335E+03   0.590E+01 -.203E+01 0.336E+03   -.108E+00 0.330E-01 -.191E+00
   0.177E+00 0.112E+01 -.214E+03   -.285E+00 -.112E+01 0.214E+03   0.167E+00 0.187E-02 0.824E-01
   0.166E+00 -.703E-05 -.356E+03   0.312E+00 0.274E-05 0.356E+03   -.111E+00 0.608E-05 -.839E-01
   0.142E+02 -.138E-04 -.802E+03   -.151E+02 0.208E-04 0.801E+03   0.486E+00 0.319E-05 0.414E-01
   -.360E+02 0.111E+02 -.922E+03   0.377E+02 -.110E+02 0.923E+03   0.603E-01 -.129E+00 0.725E+00
   -.622E+01 0.213E+02 -.768E+03   0.566E+01 -.215E+02 0.768E+03   0.506E+00 0.244E-01 0.643E-01
   0.125E+02 -.274E-03 -.898E+03   -.106E+02 0.228E-03 0.898E+03   -.270E+00 -.176E-05 0.401E+00
   -.655E+01 -.560E-01 0.160E+04   0.117E+02 0.571E-01 -.162E+04   -.628E+01 -.199E-02 0.166E+02
   -.682E+01 -.467E-01 0.160E+04   0.120E+02 0.469E-01 -.162E+04   -.627E+01 0.732E-03 0.166E+02
   0.435E+02 0.541E-02 0.102E+04   -.483E+02 -.142E-01 -.101E+04   0.357E+01 0.701E-02 -.420E+01
   0.313E+02 -.786E-01 0.124E+04   -.387E+02 0.833E-01 -.123E+04   0.702E+01 -.682E-02 -.254E+01
   -.425E+02 -.108E+00 0.141E+04   0.501E+02 0.109E+00 -.141E+04   -.652E+01 -.430E-02 -.244E+00
   -.357E+02 -.683E+00 0.761E+03   0.414E+02 0.733E+00 -.766E+03   -.524E+01 -.394E-01 0.412E+01
   0.441E+02 -.319E-01 0.102E+04   -.490E+02 0.504E-01 -.101E+04   0.354E+01 -.190E-01 -.402E+01
   0.306E+02 -.118E-01 0.123E+04   -.380E+02 0.479E-02 -.123E+04   0.704E+01 0.129E-01 -.255E+01
   -.426E+02 -.261E-01 0.141E+04   0.501E+02 0.301E-01 -.141E+04   -.649E+01 -.855E-02 -.248E+00
[...]
   0.445E+02 -.639E-04 -.755E+03   -.518E+02 0.115E-04 0.763E+03   0.655E+01 0.477E-05 -.717E+01
   0.320E+02 -.256E-04 -.505E+03   -.382E+02 0.937E-05 0.509E+03   0.560E+01 0.345E-05 -.307E+01
   -.433E+02 0.133E+01 -.336E+03   0.499E+02 -.144E+01 0.334E+03   -.600E+01 0.959E-01 0.265E+01
   -.488E+02 0.117E+02 -.953E+03   0.510E+02 -.124E+02 0.942E+03   -.227E+01 0.589E+00 0.937E+01
   0.411E+02 0.114E+02 -.728E+03   -.477E+02 -.122E+02 0.734E+03   0.591E+01 0.715E+00 -.543E+01
   0.419E+02 0.165E+01 -.516E+03   -.485E+02 -.178E+01 0.520E+03   0.601E+01 0.117E+00 -.317E+01
   -.355E+02 0.287E-04 -.337E+03   0.418E+02 -.463E-04 0.335E+03   -.573E+01 0.170E-04 0.208E+01
   -.212E+02 -.570E-05 -.962E+03   0.264E+02 0.132E-05 0.954E+03   -.483E+01 0.193E-04 0.681E+01
   0.696E+02 -.129E-03 -.157E+04   -.763E+02 0.131E-03 0.160E+04   0.596E+01 0.573E-05 -.202E+02
   0.141E+02 -.179E-03 -.142E+04   -.178E+02 0.200E-03 0.143E+04   0.342E+01 -.121E-04 -.707E+01
   -.201E+02 0.849E+01 -.121E+04   0.248E+02 -.836E+01 0.120E+04   -.436E+01 -.113E+00 0.297E+01
   -.306E+02 0.435E+02 -.156E+04   0.250E+02 -.432E+02 0.158E+04   0.487E+01 -.251E+00 -.183E+02
   0.549E+02 0.531E+02 -.138E+04   -.598E+02 -.531E+02 0.139E+04   0.448E+01 0.137E-01 -.651E+01
   -.333E+02 -.308E-03 -.110E+04   0.367E+02 0.320E-03 0.109E+04   -.311E+01 0.159E-04 0.500E+01
   -.473E+02 -.141E-03 0.743E+02   0.242E-12 -.789E-12 0.227E-11   0.447E+02 0.138E-03 -.668E+02

 POSITION                                       TOTAL-FORCE (eV/Angst)
      7.09062      6.45318     21.57834        -0.309999     -0.333635      0.016047
      7.09061      4.91565     21.57834        -0.309051      0.332382      0.015997
      6.48305      5.68440     21.61313         0.472142      0.001276     -0.241064
      8.29735      9.47401      8.23554         4.285849      0.004447      2.081645
      6.07868      7.57921      9.11612        -1.884923      0.003394     -2.125210
      3.16102      7.57921      8.23554         4.246965     -0.000966      2.055416
      0.94235      9.47401      9.11612        -1.931368     -0.003111     -2.127845
      9.70630      9.47572     11.79917        -0.016725      0.000074     -0.034897
      7.46554      7.57476     12.59387         0.013133      0.000617      0.026360
      4.56215      7.57684     11.79415        -0.012737      0.000183     -0.022120
      2.31729      9.47376     12.60831         0.015981     -0.003089      0.019384
      0.88481      9.47748     15.36316        -0.008026     -0.005375     -0.024020
      8.88980      7.57457     16.05885         0.061995      0.009663      0.084738
      6.00266      7.57808     15.33130        -0.000538     -0.001711     -0.007608
      3.73942      9.47482     16.09719         0.051757     -0.000003      0.069417
      2.37207      9.46523     19.00026        -0.031247      0.011549      0.006334
     10.27165      7.56806     19.54912         0.223108     -0.011554      0.086356
      7.48462      7.56766     18.89491         0.008216      0.013016      0.041243
      5.16886      9.48459     19.55187         0.226132      0.000774      0.062321
      8.29735      1.89480      8.23554         4.285882     -0.004416      2.081663
      6.07868      0.00000      9.11612        -1.913290      0.000023     -2.123679
      3.16102      0.00000      8.23554         4.275552     -0.000043      2.074069
      0.94235      1.89480      9.11612        -1.931400      0.003104     -2.127881
      9.70630      1.89310     11.79917        -0.016753     -0.000085     -0.034913
      7.45767      0.00000     12.59902         0.013820     -0.000007      0.024453
      4.56466     11.36881     11.79864        -0.010456     -0.000010     -0.030469
      2.31729      1.89506     12.60831         0.016006      0.003101      0.019399
      0.88481      1.89133     15.36316        -0.007996      0.005386     -0.023952
      8.87399     11.36881     16.07777         0.060207      0.000001      0.074064
      6.00999     11.36881     15.34888        -0.006019      0.000004     -0.024269
      3.73942      1.89400     16.09719         0.051737      0.000006      0.069390
      2.37207      1.90358     19.00026        -0.031252     -0.011538      0.006337
      0.02763     11.36881     19.54896         0.226557      0.000012      0.067865
      7.51904     11.36881     18.97406        -0.020222      0.000019     -0.006270
      5.16886      1.88422     19.55187         0.226110     -0.000688      0.062367
      8.29735      5.68441      8.23554         4.290297      0.000000      2.069987
      6.07868      3.78960      9.11612        -1.884868     -0.003409     -2.125160
      3.16102      3.78960      8.23554         4.246934      0.000937      2.055368
      0.94235      5.68441      9.11612        -1.894539      0.000022     -2.061644
      9.72078      5.68441     11.79322        -0.024171     -0.000025     -0.039080
      7.46554      3.79406     12.59387         0.013142     -0.000614      0.026355
      4.56216      3.79197     11.79415        -0.012720     -0.000170     -0.022101
      2.32057      5.68441     12.63661         0.019822      0.000005      0.000991
      0.91331      5.68441     15.36816        -0.014764     -0.000000     -0.033156
      8.88980      3.79425     16.05885         0.061962     -0.009659      0.084744
      6.00267      3.79073     15.33130        -0.000531      0.001716     -0.007616
      3.75979      5.68441     16.17957         0.033674      0.000002      0.002611
      2.40558      5.68441     19.01172        -0.034816      0.000010     -0.021525
     10.27165      3.80075     19.54912         0.223065      0.011511      0.086400
      7.48462      3.80115     18.89492         0.008247     -0.013045      0.041294
      5.18613      5.68441     19.71892         0.241205     -0.000045      0.004111
      5.01424      7.57921      7.50000        -2.126537     -0.001422      1.519879
     10.15057      9.47401      7.50000        -2.119073      0.001231      1.513056
      9.36179      9.47401      9.85165        -0.813296     -0.000686     -0.340927
      6.44412      9.47401      8.97107         0.685307     -0.003302     -0.191636
      7.93191      7.57921      8.38058         0.047231     -0.004345     -1.072002
      6.41224      7.57921     11.02232        -0.333957      0.004134      0.580765
      4.22546      7.57921      9.85165        -0.822823     -0.003495     -0.325829
      1.30779      7.57921      8.97107         0.699478      0.008122     -0.200082
      2.79558      9.47401      8.38058         0.060062     -0.006006     -1.075123
[...]
      2.72662      5.68441     14.56803        -0.273723     -0.000017      0.110806
      1.98399      5.68441     16.96075         0.274853     -0.000048     -0.126521
      9.28901      5.68441     16.00908         0.260358     -0.000013     -0.100520
      0.52742      3.79188     15.43832        -0.267731      0.004736      0.105080
      9.38425      3.77494     18.00907        -0.375068      0.006710     -0.099939
      7.12834      3.75854     16.89957         0.249946      0.020296     -0.125664
      4.15661      3.79171     16.04368         0.249959      0.005684     -0.106992
      5.65795      5.68441     15.46290        -0.277904      0.000003      0.103036
      4.24553      5.68441     18.11393        -0.307937      0.000018      0.087413
      3.53874      5.68441     20.49245         0.071220      0.000007     -0.311489
      0.52859      5.68441     19.77605         0.203476      0.000006     -0.173742
      1.99783      3.79460     19.00644        -0.252332      0.003168      0.144760
      8.63840      3.85571     20.39736         0.057474     -0.019751     -0.345585
      5.69103      3.77166     19.75743         0.201049      0.000327     -0.160322
      7.11464      5.68441     18.84986        -0.223261      0.000030      0.175109
    total drift:                                0.057664     -0.000011      0.016029

  FREE ENERGIE OF THE ION-ELECTRON SYSTEM (eV)
  free  energy   TOTEN  =     -1589.01828584 eV

  energy  without entropy=    -1589.01828584  energy(sigma->0) =    -1589.01828584