 vasp.6.3.0 20Jan22 (build Aug 21 2024 11:13:42) complex
 executed on        HPECrayEX_GCC date 2024.11.26  18:07:21

 INCAR:
   SYSTEM = TiO2
   ISMEAR = 0
   SIGMA = 0.05
   EDIFF = 1E-4
   ALGO = ALL
   ISTART = 0
   IBRION = -1
   NSW = 0
   ISYM = 0
   ISIF = 2
   EDIFFG = -0.01
   DIPOL = 0.5 0.5 0.5
   IDIPOL = 3
   LDIPOL = .TRUE.
   GGA = PE
   IVDW = 21
   ENCUT = 600
   PREC = Accurate
   LASPH = .TRUE.
   LREAL = .FALSE.
   ISPIN = 1
   NELM = 200
   NELMIN = 8
   NCORE = 16
   KPAR = 1
   LWAVE = .FALSE.
   LCHARG = .FALSE.

 POTCAR:    PAW_PBE H 15Jun2001
 POTCAR:    PAW_PBE O 08Apr2002
 POTCAR:    PAW_PBE Ti_pv 07Sep2000
 POTCAR:    PAW_PBE O 08Apr2002
 POTCAR:    PAW_PBE H 15Jun2001
   VRHFIN =H: ultrasoft test

   TITEL  = PAW_PBE H 15Jun2001
   POMASS =    1.000; ZVAL   =    1.000    mass and valenz
   ENMAX  =  250.000; ENMIN  =  200.000 eV

   TITEL  = PAW_PBE O 08Apr2002
   POMASS =   16.000; ZVAL   =    6.000    mass and valenz
   ENMAX  =  400.000; ENMIN  =  300.000 eV

   TITEL  = PAW_PBE Ti_pv 07Sep2000
   POMASS =   47.880; ZVAL   =   10.000    mass and valenz
   ENMAX  =  222.335; ENMIN  =  166.751 eV

   TITEL  = PAW_PBE O 08Apr2002
   POMASS =   16.000; ZVAL   =    6.000    mass and valenz
   ENMAX  =  400.000; ENMIN  =  300.000 eV

  PAW_PBE H 15Jun2001                   :
  PAW_PBE O 08Apr2002                   :
  PAW_PBE Ti_pv 07Sep2000               :
  PAW_PBE O 08Apr2002                   :

 POSCAR:  H  O Ti  O
  positions in direct lattice
 exchange correlation table for  LEXCH =        8
   RHO(1)=    0.500       N(1)  =     2000
   RHO(2)=  100.500       N(2)  =     4000

 ion  position               nearest neighbor table
   1  0.486  0.542  0.806-   3 0.97
   2  0.595  0.500  0.793-   3 0.98
   3  0.522  0.491  0.787-   1 0.97   2 0.98  83 2.30
   4  0.750  0.625  0.285-  84 1.98 144 1.98  85 1.98 145 1.98 166 2.02  87 2.02  14 3.00  34 3.00

   5  0.000  0.750  0.285-  86 1.98  87 1.98 106 1.98 107 1.98  88 2.02  35 3.00  15 3.00
   6  0.000  0.625  0.393-  88 1.98 148 1.98  89 1.98 149 1.98  90 2.02  91 2.02  16 3.00  36 3.00

[...]

  84  0.750  0.750  0.243-   4 1.98  14 1.98
  85  0.750  0.750  0.327-   4 1.98  14 1.98   7 2.02
  86  0.098  0.625  0.285-   5 1.98  35 1.98  44 2.02
  87  0.902  0.625  0.285-   5 1.98  35 1.98   4 2.02
  88  0.000  0.750  0.351-   6 1.98  16 1.98   5 2.02
  89  0.000  0.750  0.434-   6 1.98  16 1.98   9 2.02
  90  0.848  0.625  0.393-   7 1.98  37 1.98   6 2.02
  91  0.152  0.625  0.393-  47 1.98  77 1.98   6 2.02
  92  0.750  0.750  0.458-   8 1.98  18 1.98   7 2.02
  93  0.750  0.750  0.542-   8 1.98  18 1.98  11 2.16
  94  0.098  0.625  0.500-   9 1.98  39 1.98  48 2.02
  95  0.902  0.625  0.500-   9 1.98  39 1.98   8 2.02
  96  0.000  0.750  0.566-  20 1.92  10 1.92   9 2.05
  97  1.000  0.750  0.651-  13 1.83  10 2.05  20 2.06
  98  0.849  0.625  0.608-  41 1.93  11 1.93  10 2.12
  99  0.150  0.625  0.608-  10 1.87  51 2.07  81 2.07
 100  0.752  0.751  0.673-  11 1.89  12 2.12  22 2.12
 101  0.749  0.749  0.757-  12 1.85  22 1.85
 102  0.094  0.625  0.721-  43 1.97  13 1.98  52 2.07
 103  0.907  0.625  0.721-  43 1.97  13 1.98  12 2.07
 104  0.750  0.000  0.243-  14 1.98  24 1.98
 105  0.750  0.000  0.327-  14 1.98  24 1.98  17 2.02
 106  0.098  0.875  0.285-   5 1.98  15 1.98  54 2.02
 107  0.902  0.875  0.285-   5 1.98  15 1.98  14 2.02
 108  0.000  0.000  0.351-  16 1.98  26 1.98  15 2.02
 109  0.000  0.000  0.434-  16 1.98  26 1.98  19 2.02
 110  0.848  0.875  0.393-   7 1.98  17 1.98  16 2.02
 111  0.152  0.875  0.393-  47 1.98  57 1.98  16 2.02
 112  0.750  0.000  0.458-  18 1.98  28 1.98  17 2.02
 113  0.750  0.000  0.542-  18 1.98  28 1.98  21 2.16
 114  0.098  0.875  0.500-   9 1.98  19 1.98  58 2.02
 115  0.902  0.875  0.500-   9 1.98  19 1.98  18 2.02
 116  0.000  0.000  0.566-  20 1.92  30 1.92  19 2.05
 117  0.000  0.000  0.651-  23 1.83  20 2.05  30 2.05
 118  0.849  0.875  0.608-  11 1.93  21 1.93  20 2.12
 119  0.150  0.875  0.608-  20 1.87  61 2.07  51 2.07
 120  0.751  0.000  0.673-  21 1.89  32 2.12  22 2.13
 121  0.750  1.000  0.758-  32 1.85  22 1.85
 122  0.094  0.875  0.721-  13 1.97  23 1.98  62 2.08
 123  0.906  0.875  0.721-  13 1.97  23 1.97  22 2.08
 124  0.750  0.250  0.243-  24 1.98  34 1.98
 125  0.750  0.250  0.327-  24 1.98  34 1.98  27 2.02
 126  0.098  0.125  0.285-  15 1.98  25 1.98  64 2.02
 127  0.902  0.125  0.285-  15 1.98  25 1.98  24 2.02
 128  0.000  0.250  0.351-  26 1.98  36 1.98  25 2.02
 129  0.000  0.250  0.434-  26 1.98  36 1.98  29 2.02
 130  0.848  0.125  0.393-  17 1.98  27 1.98  26 2.02
 131  0.152  0.125  0.393-  57 1.98  67 1.98  26 2.02
 132  0.750  0.250  0.458-  28 1.98  38 1.98  27 2.02
 133  0.750  0.250  0.542-  28 1.98  38 1.98  31 2.16
 134  0.098  0.125  0.500-  19 1.98  29 1.98  68 2.02
 135  0.902  0.125  0.500-  19 1.98  29 1.98  28 2.02
 136  0.000  0.250  0.566-  40 1.92  30 1.92  29 2.05
 137  0.000  0.250  0.651-  33 1.83  40 2.05  30 2.06
 138  0.849  0.125  0.608-  31 1.93  21 1.93  30 2.12
 139  0.150  0.125  0.608-  30 1.87  61 2.07  71 2.07
 140  0.752  0.250  0.673-  31 1.89  42 2.11  32 2.14
 141  0.749  0.250  0.757-  42 1.85  32 1.86
 142  0.094  0.125  0.721-  33 1.97  23 1.98  72 2.08
 143  0.906  0.125  0.721-  33 1.97  23 1.97  32 2.08
[...]
 229  0.500  0.500  0.434-  46 1.98  76 1.98  79 2.02
 230  0.348  0.375  0.393-  67 1.98  77 1.98  76 2.02
 231  0.652  0.375  0.393-  27 1.98  37 1.98  76 2.02
 232  0.250  0.500  0.458-  48 1.98  78 1.98  77 2.02
 233  0.250  0.500  0.542-  48 1.98  78 1.98  81 2.17
 234  0.598  0.375  0.500-  69 1.98  79 1.98  38 2.02
 235  0.402  0.375  0.500-  69 1.98  79 1.98  78 2.02
 236  0.501  0.500  0.567-  50 1.92  80 1.92  79 2.05
 237  0.500  0.500  0.651-  83 1.91  50 2.03  80 2.03
 238  0.349  0.375  0.609-  71 1.93  81 1.93  80 2.13
 239  0.651  0.375  0.609-  80 1.87  31 2.06  41 2.06
 240  0.250  0.500  0.673-  81 1.89  52 2.13  82 2.13
 241  0.252  0.500  0.757-  82 1.85  52 1.86
 242  0.595  0.372  0.718-  73 1.95  83 1.99  42 2.06
 243  0.406  0.374  0.719-  83 1.96  73 1.97  82 2.07

IMPORTANT INFORMATION: All symmetrisations will be switched off!
NOSYMM: (Re-)initialisation of all symmetry stuff for point group C_1.

                                     Primitive cell

  volume of cell :    4896.0359

  direct lattice vectors                    reciprocal lattice vectors
    13.251808214  0.000000000  0.000000000     0.075461400  0.000000000  0.000000000
     0.000000000 11.981455428  0.000000000     0.000000000  0.083462314  0.000000000
     0.000000000  0.000000000 30.836130416     0.000000000  0.000000000  0.032429491

  length of vectors
    13.251808214 11.981455428 30.836130416     0.075461400  0.083462314  0.032429491

  position of ions in fractional coordinates (direct lattice)
     0.485535181  0.542094287  0.805861096
     0.594596928  0.499875298  0.793223727
     0.522363865  0.490926674  0.787122229
     0.750000000  0.625000000  0.285125305
     0.000000000  0.750000000  0.285125305
     0.000000000  0.625000000  0.392562653
     0.750000000  0.750000000  0.392562653
     0.750000000  0.625000000  0.500000000
     0.000000000  0.750000000  0.500000000
     0.009321705  0.625107090  0.605227828
     0.757405639  0.750243900  0.611806379
     0.750678543  0.625257078  0.721587341
     0.999987207  0.750424250  0.710115072
     0.750000000  0.875000000  0.285125305
     0.000000000  0.000000000  0.285125305
     0.000000000  0.875000000  0.392562653
     0.750000000  0.000000000  0.392562653
     0.750000000  0.875000000  0.500000000
     0.000000000  0.000000000  0.500000000
     0.009386169  0.875071513  0.605272489
     0.756908956  0.000074119  0.612044865
     0.749294005  0.874783227  0.722267443
     0.999708336  0.999993447  0.710097529
     0.750000000  0.125000000  0.285125305
     0.000000000  0.250000000  0.285125305
     0.000000000  0.125000000  0.392562653
     0.750000000  0.250000000  0.392562653
     0.750000000  0.125000000  0.500000000
     0.000000000  0.250000000  0.500000000
     0.009364154  0.124953340  0.605266198
     0.757370566  0.249908022  0.611839565
     0.749090459  0.124375579  0.722279948
     0.999980389  0.249578965  0.710106699
     0.750000000  0.375000000  0.285125305
     0.000000000  0.500000000  0.285125305
     0.000000000  0.375000000  0.392562653
     0.750000000  0.500000000  0.392562653
     0.750000000  0.375000000  0.500000000
     0.000000000  0.500000000  0.500000000
     0.009204751  0.374999885  0.605224464
     0.757752634  0.500109149  0.611906878
     0.751017355  0.373992550  0.721690543
     0.000391843  0.500083205  0.710056432
     0.250000000  0.625000000  0.285125305
     0.500000000  0.750000000  0.285125305
     0.500000000  0.625000000  0.392562653
     0.250000000  0.750000000  0.392562653
     0.250000000  0.625000000  0.500000000
     0.500000000  0.750000000  0.500000000
     0.509588352  0.623163056  0.606293249
     0.257395568  0.749901768  0.611977983
     0.249843566  0.625385849  0.722150872
     0.500811712  0.750054604  0.709118763
     0.250000000  0.875000000  0.285125305
     0.500000000  0.000000000  0.285125305
     0.500000000  0.875000000  0.392562653
     0.250000000  0.000000000  0.392562653
     0.250000000  0.875000000  0.500000000
     0.500000000  0.000000000  0.500000000
     0.509268661  0.874216367  0.604450905
[...]
     0.500000000  0.500000000  0.434466779
     0.347508286  0.375000000  0.392562653
     0.652491714  0.375000000  0.392562653
     0.250000000  0.500000000  0.458095874
     0.250000000  0.500000000  0.541904126
     0.597508286  0.375000000  0.500000000
     0.402491714  0.375000000  0.500000000
     0.500605133  0.499872990  0.566632461
     0.500012525  0.500295944  0.651278363
     0.348752223  0.374992323  0.608537912
     0.650781974  0.375165822  0.608545613
     0.249937664  0.500302642  0.673199506
     0.251914013  0.500056756  0.757473692
     0.595491359  0.372135151  0.717759068
     0.406162744  0.373649349  0.719450649

  ion indices of the primitive-cell ions
   primitive index   ion index
                 1           1
                 2           2
                 3           3
                 4           4
                 5           5
                 6           6
                 7           7
                 8           8
                 9           9
                10          10
                11          11
                12          12
                13          13
                14          14
                15          15
                16          16
                17          17
                18          18
                19          19
                20          20
                21          21
                22          22
                23          23
                24          24
                25          25
                26          26
                27          27
                28          28
                29          29
                30          30
                31          31
                32          32
                33          33
                34          34
[...]
   O          52.750          3.913          9.930          1.83885455
   O          52.349          3.908          9.892          1.83184999
   O          52.102          3.905          9.869          1.82751782
   O          53.789          3.925         10.027          1.85687513
   O          51.456          3.896          9.807          1.81615416
   O          51.920          3.902          9.851          1.82433922
   O          53.031          3.916          9.956          1.84375380
   O          37.215          3.692          8.340          1.54451676
   O          51.127          3.892          9.776          1.81033862
   O          50.390          3.883          9.705          1.79724906

  vdW correction parametrized for the method pbe

  IVDW =  21
  VDW_RADIUS =    50.000 A
  VDW_IDAMPF =  0
  VDW_S6 =     1.000
  VDW_SR =     0.950
  VDW_D =    20.000
  LVDW_ONECELL = F F F
  LVDW_SAMETYPE T T T T
  LVDW_EWALD = F

  Number of pair interactions contributing to vdW energy: 3210457
  Edisp (eV):  -33.08565

  FORCE on cell =-STRESS in cart. coord.  units (eV):
  Direction    XX          YY          ZZ          XY          YZ          ZX
  Alpha Z  4498.56372  4498.56372  4498.56372
  Ewald  935259.79749953175.12838************   -25.88332    34.27840   -32.86313
  Hartree976455.81114986346.04936************    -6.48436     5.76473   -18.47364
  E(xc)   -8600.12169 -8581.43288 -8609.10252    -0.09005     0.14626    -0.09331
  Local  ************************************    26.17654   -29.52325    49.00215
  n-local -5465.49318 -5387.69045 -5503.33269    -0.26576    -0.00558    -0.28621
  augment  5228.55669  5217.48375  5234.14278     0.39041    -0.71510     0.03427
  Kinetic 28618.30492 28167.49016 28686.37049     6.19867    -9.96435     3.02664
  Fock        0.00000     0.00000     0.00000     0.00000     0.00000     0.00000
  vdW       -49.49361   -30.56838   -42.04317    -0.00223    -0.01284     0.03809
  Total    -116.36606  -171.25236  -149.05124     0.03990    -0.03173     0.38485
  in kB     -38.07960   -56.04057   -48.77548     0.01306    -0.01038     0.12594

 VOLUME and BASIS-vectors are now :
  energy-cutoff  :      600.00
  volume of cell :     4896.04
      direct lattice vectors                 reciprocal lattice vectors
    13.251808214  0.000000000  0.000000000     0.075461400  0.000000000  0.000000000
     0.000000000 11.981455428  0.000000000     0.000000000  0.083462314  0.000000000
     0.000000000  0.000000000 30.836130416     0.000000000  0.000000000  0.032429491

  length of vectors
    13.251808214 11.981455428 30.836130416     0.075461400  0.083462314  0.032429491

 FORCES acting on ions:
    Electron-Ion                     Ewald-Force                    Non-Local-Force
   0.448E+02 -.540E+02 -.432E+03   -.493E+02 0.592E+02 0.437E+03   0.444E+01 -.516E+01 -.495E+01
   -.722E+02 -.722E+01 -.420E+03   0.804E+02 0.790E+01 0.421E+03   -.809E+01 -.683E+00 -.143E+01
   0.353E+02 0.377E+02 -.244E+04   -.512E+02 -.687E+02 0.242E+04   0.159E+02 0.309E+02 0.219E+02
   -.107E+00 -.180E-01 0.364E+04   0.105E+00 0.181E-01 -.364E+04   0.711E-03 0.172E-04 0.381E+00
   -.343E-01 -.322E-01 0.381E+04   0.349E-01 0.325E-01 -.381E+04   -.105E-03 -.308E-04 -.387E+01
   -.537E-01 -.396E-01 0.186E+04   0.557E-01 0.399E-01 -.186E+04   -.350E-03 0.366E-04 -.462E-01
   -.314E+00 -.606E-02 0.185E+04   0.307E+00 0.677E-02 -.185E+04   0.206E-02 -.187E-04 0.216E+00
   -.187E+01 -.125E+00 0.697E+00   0.185E+01 0.117E+00 0.700E-01   0.867E-02 0.624E-03 -.122E+00
   0.233E+01 -.513E+00 0.834E+01   -.236E+01 0.519E+00 -.941E+01   0.951E-02 -.277E-02 0.381E+00
   0.283E+02 -.163E+01 -.179E+04   -.282E+02 0.164E+01 0.179E+04   -.985E-01 -.494E-02 0.166E+00
   0.553E+01 -.516E+01 -.185E+04   -.544E+01 0.517E+01 0.185E+04   -.120E+00 -.893E-02 -.239E+00
   -.576E+02 -.169E+02 -.359E+04   0.575E+02 0.169E+02 0.359E+04   0.118E+00 0.506E-01 -.747E-01
   -.209E+01 -.223E+01 -.364E+04   0.211E+01 0.225E+01 0.363E+04   -.183E-01 -.163E-01 0.105E+01
   -.115E+00 -.220E-01 0.364E+04   0.112E+00 0.224E-01 -.364E+04   0.854E-03 -.543E-04 0.381E+00
   -.327E-01 -.246E-02 0.381E+04   0.333E-01 0.258E-02 -.381E+04   -.118E-03 -.801E-05 -.387E+01
   -.337E-01 -.567E-01 0.186E+04   0.355E-01 0.568E-01 -.186E+04   -.318E-03 0.204E-04 -.463E-01
   -.393E+00 -.161E-01 0.185E+04   0.386E+00 0.160E-01 -.185E+04   0.208E-02 0.365E-05 0.215E+00
   -.300E+01 -.357E+00 -.588E-01   0.298E+01 0.378E+00 0.836E+00   0.653E-02 -.107E-02 -.124E+00
   0.259E+01 -.452E-01 0.762E+01   -.262E+01 0.443E-01 -.869E+01   0.960E-02 0.213E-03 0.379E+00
   0.301E+02 -.147E+01 -.180E+04   -.300E+02 0.147E+01 0.180E+04   -.108E+00 -.494E-02 0.170E+00
   0.670E+01 0.183E+00 -.186E+04   -.660E+01 -.179E+00 0.186E+04   -.117E+00 -.339E-02 -.237E+00
   -.153E+02 -.148E+02 -.362E+04   0.152E+02 0.148E+02 0.362E+04   0.592E-01 0.292E-02 -.159E+00
   -.244E+01 0.291E+00 -.364E+04   0.243E+01 -.289E+00 0.364E+04   0.138E-01 -.217E-02 0.108E+01
   -.114E+00 0.179E-01 0.364E+04   0.111E+00 -.181E-01 -.364E+04   0.828E-03 0.317E-04 0.381E+00
   -.345E-01 0.322E-01 0.381E+04   0.351E-01 -.325E-01 -.381E+04   -.136E-03 -.894E-05 -.387E+01
   -.338E-01 0.406E-01 0.186E+04   0.357E-01 -.411E-01 -.186E+04   -.323E-03 0.410E-04 -.463E-01
   -.303E+00 0.661E-02 0.185E+04   0.297E+00 -.735E-02 -.185E+04   0.202E-02 -.394E-04 0.216E+00
   -.297E+01 0.250E+00 -.129E+00   0.296E+01 -.269E+00 0.908E+00   0.702E-02 0.133E-02 -.125E+00
   0.234E+01 0.587E+00 0.823E+01   -.236E+01 -.591E+00 -.930E+01   0.937E-02 0.116E-02 0.383E+00
   0.305E+02 0.136E+01 -.180E+04   -.305E+02 -.137E+01 0.180E+04   -.104E+00 0.571E-02 0.169E+00
   0.524E+01 0.524E+01 -.185E+04   -.515E+01 -.524E+01 0.185E+04   -.122E+00 0.236E-02 -.241E+00
   -.156E+02 0.120E+02 -.362E+04   0.155E+02 -.120E+02 0.362E+04   0.666E-01 -.158E-01 -.161E+00
   -.177E+01 0.211E+01 -.364E+04   0.178E+01 -.212E+01 0.363E+04   -.153E-01 0.142E-01 0.105E+01
   -.106E+00 0.221E-01 0.364E+04   0.104E+00 -.224E-01 -.364E+04   0.785E-03 0.326E-04 0.381E+00
   -.360E-01 0.245E-02 0.381E+04   0.366E-01 -.257E-02 -.381E+04   -.102E-03 0.127E-04 -.387E+01
   -.544E-01 0.556E-01 0.186E+04   0.565E-01 -.557E-01 -.186E+04   -.360E-03 -.409E-04 -.462E-01
   -.227E+00 0.156E-01 0.185E+04   0.220E+00 -.154E-01 -.185E+04   0.187E-02 -.308E-04 0.216E+00
   -.183E+01 0.228E+00 0.597E+00   0.181E+01 -.222E+00 0.171E+00   0.882E-02 0.319E-04 -.122E+00
   0.218E+01 0.267E-01 0.899E+01   -.221E+01 -.268E-01 -.101E+02   0.893E-02 -.171E-03 0.381E+00
   0.283E+02 0.178E+01 -.179E+04   -.282E+02 -.179E+01 0.179E+04   -.103E+00 0.316E-02 0.171E+00
   0.375E+01 0.241E+00 -.184E+04   -.364E+01 -.239E+00 0.184E+04   -.137E+00 -.194E-02 -.249E+00
   -.576E+02 0.137E+02 -.359E+04   0.576E+02 -.136E+02 0.359E+04   0.764E-01 -.735E-01 -.784E-01
   -.329E+01 0.205E+00 -.363E+04   0.327E+01 -.206E+00 0.363E+04   0.189E-01 0.454E-03 0.101E+01
   0.987E-01 -.154E-01 0.364E+04   -.962E-01 0.154E-01 -.364E+04   -.676E-03 0.234E-04 0.381E+00
   0.427E-01 -.199E-01 0.381E+04   -.432E-01 0.203E-01 -.381E+04   0.120E-03 -.448E-04 -.387E+01
   0.247E+00 0.107E+00 0.186E+04   -.249E+00 -.969E-01 -.186E+04   0.376E-03 -.223E-02 -.475E-01
   0.125E+00 0.215E-01 0.185E+04   -.118E+00 -.208E-01 -.185E+04   -.879E-03 -.112E-03 0.214E+00
   -.980E+00 0.549E-01 -.821E+00   0.103E+01 -.650E-01 0.162E+01   -.692E-02 0.724E-03 -.128E+00
   0.375E+01 0.109E+01 0.108E+02   -.379E+01 -.114E+01 -.117E+02   0.993E-02 0.271E-01 0.319E+00
   0.333E+02 -.997E+01 -.179E+04   -.332E+02 0.100E+02 0.179E+04   -.125E+00 -.449E-01 0.115E+00
   0.185E+02 -.503E+01 -.185E+04   -.184E+02 0.502E+01 0.185E+04   -.131E+00 0.576E-02 -.249E+00
   0.384E+02 -.138E+02 -.360E+04   -.384E+02 0.138E+02 0.360E+04   0.406E-01 0.111E-01 -.156E+00
   0.147E+02 -.514E+02 -.359E+04   -.146E+02 0.514E+02 0.359E+04   -.993E-01 -.169E-01 0.112E+01
   0.107E+00 -.198E-01 0.364E+04   -.104E+00 0.201E-01 -.364E+04   -.725E-03 -.365E-04 0.381E+00
   0.413E-01 -.379E-02 0.381E+04   -.418E-01 0.391E-02 -.381E+04   0.110E-03 0.223E-05 -.387E+01
   0.230E+00 0.698E-01 0.186E+04   -.233E+00 -.673E-01 -.186E+04   0.477E-03 -.109E-02 -.483E-01
   0.200E+00 -.178E-01 0.185E+04   -.193E+00 0.177E-01 -.185E+04   -.974E-03 0.432E-04 0.214E+00
   -.593E-01 -.943E-01 -.120E+01   0.991E-01 0.103E+00 0.199E+01   -.408E-02 -.823E-03 -.127E+00
   0.348E+01 -.196E+00 0.136E+02   -.353E+01 0.195E+00 -.146E+02   0.157E-01 -.385E-03 0.331E+00
   0.300E+02 -.960E+01 -.177E+04   -.299E+02 0.961E+01 0.177E+04   -.138E+00 0.950E-03 0.757E-01
[...]
   -.560E+02 -.225E-01 0.111E+04   0.601E+02 0.217E-01 -.111E+04   -.384E+01 0.119E-02 0.156E+00
   0.561E+02 -.149E-01 0.111E+04   -.602E+02 0.141E-01 -.111E+04   0.384E+01 0.122E-02 0.159E+00
   -.208E+00 0.313E-01 0.488E+03   0.230E+00 -.318E-01 -.493E+03   -.317E-01 0.132E-02 0.440E+01
   0.149E+01 0.134E+00 -.505E+03   -.176E+01 -.131E+00 0.512E+03   0.277E+00 -.405E-02 -.753E+01
   -.571E+02 -.276E+00 0.736E+01   0.619E+02 0.271E+00 -.762E+01   -.537E+01 0.217E-01 0.338E+00
   0.580E+02 -.335E+00 0.367E+01   -.628E+02 0.330E+00 -.384E+01   0.538E+01 0.219E-01 0.262E+00
   0.192E+02 0.237E+00 -.591E+03   -.209E+02 -.276E+00 0.584E+03   0.166E+01 0.411E-01 0.715E+01
   0.183E+02 -.162E+01 -.154E+04   -.196E+02 0.166E+01 0.154E+04   0.133E+01 -.378E-01 -.724E+00
   -.664E+02 0.192E+01 -.108E+04   0.741E+02 -.197E+01 0.108E+04   -.782E+01 0.473E-01 0.135E+01
   -.970E+01 0.353E+01 -.108E+04   0.110E+02 -.364E+01 0.108E+04   -.133E+01 0.109E+00 0.602E+00
   0.200E+02 -.725E+00 -.173E+04   -.206E+02 0.738E+00 0.174E+04   0.582E+00 -.112E-01 -.221E+01
   0.370E+02 -.126E+00 -.261E+04   -.367E+02 0.124E+00 0.263E+04   -.299E+00 0.395E-02 -.203E+02
   -.529E+02 0.371E+02 -.216E+04   0.588E+02 -.368E+02 0.216E+04   -.607E+01 -.285E+00 -.160E+01
   0.631E+02 0.339E+02 -.220E+04   -.692E+02 -.340E+02 0.220E+04   0.623E+01 0.134E+00 -.285E+01
   0.307E+02 -.257E+02 0.722E+02   -.450E-11 -.230E-11 0.309E-10   -.307E+02 0.257E+02 -.722E+02

 POSITION                                       TOTAL-FORCE (eV/Angst)
      6.43422      6.49508     24.84964        -0.000845     -0.008487     -0.062694
      7.87948      5.98923     24.45995         0.048614     -0.001738     -0.090013
      6.92227      5.88202     24.27180        -0.016222      0.005540     -0.171615
      9.93886      7.48841      8.79216        -0.001829      0.000120     -3.185986
      0.00000      8.98609      8.79216         0.000429      0.000200      3.104633
      0.00000      7.48841     12.10511         0.001592      0.000359      0.485376
      9.93886      8.98609     12.10511        -0.004797      0.000705     -0.678183
      9.93886      7.48841     15.41807        -0.013784     -0.007874      0.639850
      0.00000      8.98609     15.41807        -0.013860      0.003463     -0.696702
      0.12353      7.48969     18.66288         0.088556     -0.001210     -0.028559
     10.03699      8.98901     18.86574         0.027008      0.000292      0.086697
      9.94785      7.49149     22.25096        -0.029169      0.009018     -0.063086
     13.25164      8.99117     21.89720         0.006269      0.003793     -0.347932
      9.93886     10.48377      8.79216        -0.001795      0.000352     -3.186044
      0.00000      0.00000      8.79216         0.000439      0.000115      3.104326
      0.00000     10.48377     12.10511         0.001496      0.000165      0.485707
      9.93886      0.00000     12.10511        -0.005097     -0.000101     -0.677562
      9.93886     10.48377     15.41807        -0.004810      0.020116      0.647827
      0.00000      0.00000     15.41807        -0.014428     -0.000564     -0.696137
      0.12438     10.48463     18.66426         0.094331      0.000302     -0.026742
     10.03041      0.00089     18.87310         0.030906      0.000537      0.083899
      9.92950     10.48118     22.27193        -0.000751      0.001956     -0.067291
     13.24794     11.98138     21.89666         0.002396      0.001330     -0.347102
      9.93886      1.49768      8.79216        -0.001834     -0.000122     -3.185978
      0.00000      2.99536      8.79216         0.000377     -0.000238      3.104503
      0.00000      1.49768     12.10511         0.001539     -0.000398      0.485516
      9.93886      2.99536     12.10511        -0.004656     -0.000792     -0.678001
      9.93886      1.49768     15.41807        -0.004124     -0.017970      0.649533
      0.00000      2.99536     15.41807        -0.013154     -0.002250     -0.696706
      0.12409      1.49712     18.66407         0.090135      0.001353     -0.027911
     10.03653      2.99426     18.86676         0.027316     -0.001206      0.087533
      9.92680      1.49020     22.27232        -0.001758     -0.002345     -0.069446
     13.25155      2.99032     21.89694         0.005415     -0.004977     -0.344871
      9.93886      4.49305      8.79216        -0.001665     -0.000243     -3.185906
      0.00000      5.99073      8.79216         0.000413     -0.000103      3.104473
      0.00000      4.49305     12.10511         0.001644     -0.000113      0.485129
      9.93886      5.99073     12.10511        -0.004461      0.000133     -0.678449
      9.93886      4.49305     15.41807        -0.014255      0.005715      0.641970
      0.00000      5.99073     15.41807        -0.012830     -0.000210     -0.697435
      0.12198      4.49304     18.66278         0.093115     -0.001049     -0.027774
     10.04159      5.99204     18.86884         0.023897      0.000258      0.091322
      9.95234      4.48098     22.25414        -0.021929     -0.018359     -0.065098
      0.00519      5.99172     21.89539         0.003259     -0.000907     -0.341204
      3.31295      7.48841      8.79216         0.001762      0.000040     -3.185136
      6.62590      8.98609      8.79216        -0.000415      0.000355      3.109162
      6.62590      7.48841     12.10511        -0.002349      0.007772      0.500766
      3.31295      8.98609     12.10511         0.005771      0.000652     -0.671838
      3.31295      7.48841     15.41807         0.039825     -0.009290      0.663123
      6.62590      8.98609     15.41807        -0.023052     -0.028257     -0.594263
      6.75297      7.46640     18.69574         0.092869      0.000411     -0.020890
      3.41096      8.98491     18.87103         0.027287     -0.002655      0.081592
      3.31088      7.49303     22.26834        -0.001583     -0.004820     -0.061546
      6.63666      8.98675     21.86648         0.020312     -0.033070     -0.330551
      3.31295     10.48377      8.79216         0.001878      0.000190     -3.184963
      6.62590      0.00000      8.79216        -0.000387      0.000121      3.109496
      6.62590     10.48377     12.10511        -0.002536      0.001412      0.503522
      3.31295      0.00000     12.10511         0.006115     -0.000063     -0.671548
      3.31295     10.48377     15.41807         0.035881      0.008266      0.661719
      6.62590      0.00000     15.41807        -0.027047     -0.000714     -0.716648
      6.74873     10.47438     18.63893         0.096704     -0.010673     -0.025753
[...]
      6.62590      5.99073     13.39727         0.001989     -0.000390     -0.204532
      4.60511      4.49305     12.10511         0.304171      0.000357      0.052732
      8.64670      4.49305     12.10511        -0.302383      0.000443      0.053702
      3.31295      5.99073     14.12590        -0.009947      0.000801     -0.017184
      3.31295      5.99073     16.71023         0.001249     -0.000764     -0.201393
      7.91807      4.49305     15.41807        -0.541159      0.016662      0.077122
      5.33374      4.49305     15.41807         0.558178      0.017069      0.092277
      6.63392      5.98921     17.47275         0.032055      0.001551      0.162113
      6.62607      5.99427     20.08290         0.030429      0.000825     -0.052752
      4.62160      4.49295     18.76495        -0.172827      0.000055      0.021244
      8.62404      4.49503     18.76519        -0.023458     -0.002981      0.005065
      3.31213      5.99435     20.75887         0.011486      0.001488     -0.080220
      3.33832      5.99141     23.35756        -0.020026      0.002366     -0.450424
      7.89134      4.45872     22.13291        -0.130161     -0.010058     -0.034067
      5.38239      4.47686     22.18507         0.132659      0.007679     -0.061579
    total drift:                                0.007275     -0.000284     -0.026857

  FREE ENERGIE OF THE ION-ELECTRON SYSTEM (eV)
  free  energy   TOTEN  =     -2167.39990410 eV

  energy  without entropy=    -2167.39990410  energy(sigma->0) =    -2167.39990410