 vasp.6.3.0 20Jan22 (build Apr  1 2022 16:44:48) complex
 executed on        HPECrayEX_GCC date 2022.10.10  22:31:34

 INCAR:
   SYSTEM = MgO-rocksalt
   ISMEAR = 0
   SIGMA = 0.05
   EDIFF = 1E-6
   ALGO = ALL
   ISTART = 0
   IBRION = -1
   NSW = 0
   ISYM = 0
   DIPOL = 0.5 0.5 0.5
   IDIPOL = 3
   LDIPOL = .TRUE.
   LHFCALC = .TRUE.
   GGA = B5
   AEXX = 0.2
   AGGAX = 0.72
   AGGAC = 0.81
   ALDAC = 0.19
   IVDW = 1
   VDW_S6 = 1.05
   VDW_C6 = 0.14 0.70 0.63 0.70
   VDW_R0 = 1.001 1.342 1.243 1.342
   ENCUT = 600
   PREC = Accurate
   LASPH = .TRUE.
   LREAL = .FALSE.
   ISPIN = 1
   NELM = 200
   NELMIN = 8
   NCORE = 8
   KPAR = 1
   LWAVE = .FALSE.
   LCHARG = .FALSE.

 POTCAR:    PAW_PBE H 15Jun2001
 POTCAR:    PAW_PBE O 08Apr2002
 POTCAR:    PAW_PBE Mg_pv 13Apr2007
 POTCAR:    PAW_PBE O 08Apr2002
 POTCAR:    PAW_PBE H 15Jun2001
   VRHFIN =H: ultrasoft test

   TITEL  = PAW_PBE H 15Jun2001
   POMASS =    1.000; ZVAL   =    1.000    mass and valenz
   ENMAX  =  250.000; ENMIN  =  200.000 eV

   TITEL  = PAW_PBE O 08Apr2002
   POMASS =   16.000; ZVAL   =    6.000    mass and valenz
   ENMAX  =  400.000; ENMIN  =  300.000 eV

   TITEL  = PAW_PBE Mg_pv 13Apr2007
   POMASS =   24.305; ZVAL   =    8.000    mass and valenz
   ENMAX  =  403.929; ENMIN  =  302.947 eV

   TITEL  = PAW_PBE O 08Apr2002
   POMASS =   16.000; ZVAL   =    6.000    mass and valenz
   ENMAX  =  400.000; ENMIN  =  300.000 eV

  PAW_PBE H 15Jun2001                   :
  PAW_PBE O 08Apr2002                   :
  PAW_PBE Mg_pv 13Apr2007               :
  PAW_PBE O 08Apr2002                   :

 POSCAR:  H  O Mg  O
  positions in direct lattice
 exchange correlation table for  LEXCH =       12
   RHO(1)=    0.500       N(1)  =     2000
   RHO(2)=  100.500       N(2)  =     4000

 ion  position               nearest neighbor table
   1  0.605  0.554  0.771-   3 0.97
   2  0.508  0.673  0.728-   3 1.01
   3  0.501  0.571  0.752-   1 0.97   2 1.01  19 2.21
   4  0.250  0.000  0.352-  36 2.11  38 2.11  39 2.11  46 2.11  55 2.11
   5  0.500  0.250  0.352-  37 2.11  38 2.11  39 2.11  47 2.11  54 2.11
   6  0.250  0.250  0.451-  38 2.11  37 2.11  36 2.11  44 2.11  53 2.11  42 2.11
   7  0.500  0.000  0.451-  39 2.11  37 2.11  36 2.11  45 2.11  52 2.11  43 2.12
   8  0.250  0.000  0.550-  42 2.11  43 2.11  50 2.11  59 2.11  36 2.12  40 2.14
   9  0.500  0.251  0.550-  51 2.11  42 2.11  58 2.11  43 2.12  37 2.12  41 2.13
  10  0.249  0.250  0.648-  57 2.10  42 2.11  40 2.11  48 2.11  41 2.12
  11  0.500  0.002  0.648-  41 2.07  49 2.09  43 2.10  40 2.12  56 2.12
  12  0.250  0.500  0.352-  44 2.11  38 2.11  46 2.11  47 2.11  63 2.11
  13  0.500  0.750  0.352-  45 2.11  39 2.11  46 2.11  47 2.11  62 2.11
  14  0.250  0.750  0.451-  46 2.11  44 2.11  45 2.11  36 2.11  61 2.11  50 2.12
  15  0.500  0.500  0.451-  47 2.11  44 2.11  45 2.11  37 2.11  60 2.11  51 2.14
  16  0.251  0.500  0.550-  51 2.10  48 2.10  42 2.11  50 2.11  67 2.12  44 2.13
  17  0.500  0.749  0.550-  51 2.10  50 2.10  66 2.11  43 2.11  45 2.13  49 2.19
  18  0.248  0.750  0.648-  65 2.09  50 2.09  48 2.11  40 2.11  49 2.14
  19  0.499  0.493  0.653-  41 2.07  48 2.12  64 2.14  51 2.19   3 2.21  49 2.21
  20  0.750  0.000  0.352-  52 2.11  39 2.11  54 2.11  55 2.11  62 2.11
  21  0.000  0.250  0.352-  53 2.11  38 2.11  54 2.11  55 2.11  63 2.11
  22  0.750  0.250  0.451-  54 2.11  52 2.11  53 2.11  37 2.11  60 2.11  58 2.11
  23  0.000  0.000  0.451-  55 2.11  52 2.11  53 2.11  36 2.11  61 2.11  59 2.11
  24  0.750  0.000  0.550-  58 2.11  43 2.11  59 2.11  66 2.11  52 2.12  56 2.14
  25  0.000  0.250  0.550-  42 2.11  67 2.11  58 2.11  59 2.11  53 2.11  57 2.14
  26  0.751  0.250  0.648-  58 2.10  57 2.10  56 2.11  64 2.12  41 2.12
  27  0.001  0.001  0.648-  40 2.10  59 2.10  57 2.10  56 2.11  65 2.11
  28  0.750  0.500  0.352-  60 2.11  54 2.11  47 2.11  62 2.11  63 2.11
  29  0.000  0.750  0.352-  61 2.11  55 2.11  46 2.11  62 2.11  63 2.11
  30  0.750  0.750  0.451-  62 2.11  52 2.11  60 2.11  61 2.11  45 2.11  66 2.12
  31  0.000  0.500  0.451-  67 2.11  63 2.11  60 2.11  61 2.11  44 2.11  53 2.11
  32  0.749  0.500  0.550-  51 2.10  58 2.11  66 2.11  67 2.12  60 2.13  64 2.13
  33  0.001  0.750  0.550-  67 2.11  59 2.11  61 2.11  50 2.11  66 2.12  65 2.14
  34  0.753  0.751  0.647-  66 2.08  65 2.09  56 2.11  64 2.12  49 2.14
  35  0.001  0.500  0.648-  48 2.09  64 2.10  67 2.10  57 2.11  65 2.12
  36  0.250  0.000  0.451-   4 2.11   6 2.11   7 2.11  14 2.11  23 2.11   8 2.12
  37  0.500  0.250  0.451-   5 2.11   6 2.11   7 2.11  15 2.11  22 2.11   9 2.12
  38  0.250  0.250  0.352-   6 2.11   5 2.11   4 2.11  12 2.11  21 2.11
  39  0.500  0.000  0.352-   7 2.11   5 2.11   4 2.11  13 2.11  20 2.11
  40  0.250  0.000  0.650-  27 2.10  10 2.11  18 2.11  11 2.12   8 2.14
  41  0.501  0.248  0.650-  11 2.07  19 2.07  26 2.12  10 2.12   9 2.13
  42  0.250  0.250  0.550-   8 2.11  10 2.11  25 2.11   9 2.11   6 2.11  16 2.11
  43  0.500  0.999  0.550-  11 2.10  24 2.11   8 2.11  17 2.11   7 2.12   9 2.12
  44  0.250  0.500  0.451-  12 2.11   6 2.11  14 2.11  15 2.11  31 2.11  16 2.13
  45  0.500  0.750  0.451-  13 2.11   7 2.11  14 2.11  15 2.11  30 2.11  17 2.13
  46  0.250  0.750  0.352-  14 2.11  12 2.11  13 2.11   4 2.11  29 2.11
  47  0.500  0.500  0.352-  15 2.11  12 2.11  13 2.11   5 2.11  28 2.11
  48  0.248  0.500  0.649-  35 2.09  16 2.10  18 2.11  10 2.11  19 2.12
  49  0.501  0.755  0.653-  11 2.09  34 2.14  18 2.14  17 2.19  19 2.21
  50  0.251  0.750  0.550-  18 2.09  17 2.10   8 2.11  33 2.11  16 2.11  14 2.12
  51  0.500  0.501  0.551-  17 2.10  32 2.10  16 2.10   9 2.11  15 2.14  19 2.19
  52  0.750  0.000  0.451-  20 2.11   7 2.11  22 2.11  23 2.11  30 2.11  24 2.12
  53  0.000  0.250  0.451-  21 2.11   6 2.11  22 2.11  23 2.11  31 2.11  25 2.11
  54  0.750  0.250  0.352-  22 2.11  20 2.11  21 2.11   5 2.11  28 2.11
  55  0.000  0.000  0.352-  23 2.11  20 2.11  21 2.11   4 2.11  29 2.11
  56  0.751  0.000  0.650-  34 2.11  27 2.11  26 2.11  11 2.12  24 2.14
  57  0.000  0.250  0.650-  26 2.10  27 2.10  10 2.10  35 2.11  25 2.14
  58  0.750  0.250  0.550-  26 2.10  24 2.11  32 2.11   9 2.11  25 2.11  22 2.11
  59  0.000  1.000  0.549-  27 2.10  23 2.11  33 2.11  24 2.11   8 2.11  25 2.11
  60  0.750  0.500  0.451-  28 2.11  22 2.11  15 2.11  30 2.11  31 2.11  32 2.13
  61  0.000  0.750  0.451-  29 2.11  23 2.11  14 2.11  30 2.11  31 2.11  33 2.11
  62  0.750  0.750  0.352-  30 2.11  20 2.11  28 2.11  29 2.11  13 2.11
  63  0.000  0.500  0.352-  31 2.11  21 2.11  28 2.11  29 2.11  12 2.11
  64  0.752  0.500  0.650-  35 2.10  34 2.12  26 2.12  32 2.13  19 2.14
  65  0.000  0.751  0.650-  34 2.09  18 2.09  27 2.11  35 2.12  33 2.14
  66  0.750  0.750  0.550-  34 2.08  17 2.11  24 2.11  32 2.11  30 2.12  33 2.12
  67  1.000  0.500  0.549-  35 2.10  33 2.11  31 2.11  25 2.11  32 2.12  16 2.12

IMPORTANT INFORMATION: All symmetrisations will be switched off!
NOSYMM: (Re-)initialisation of all symmetry stuff for point group C_1.

                                     Primitive cell

  volume of cell :    1519.6535

  direct lattice vectors                    reciprocal lattice vectors
     8.440582262  0.000000000  0.000000000     0.118475239  0.000000000  0.000000000
     0.000000000  8.440582262  0.000000000     0.000000000  0.118475239  0.000000000
     0.000000000  0.000000000 21.330436697     0.000000000  0.000000000  0.046881366

  length of vectors
     8.440582262  8.440582262 21.330436697     0.118475239  0.118475239  0.046881366

  position of ions in fractional coordinates (direct lattice)
     0.605158999  0.554067465  0.771204868
     0.508013591  0.673270021  0.727731706
     0.501310769  0.570779158  0.752330931
     0.250000000  0.000000000  0.351610242
     0.500000000  0.250000000  0.351610242
     0.250000000  0.250000000  0.450536747
     0.500000000  0.000000000  0.450536747
     0.250443671  0.000234700  0.549863667
     0.500127418  0.250726857  0.550140190
     0.249370171  0.249928275  0.648256506
     0.500218927  0.002231511  0.648240720
     0.250000000  0.500000000  0.351610242
     0.500000000  0.750000000  0.351610242
     0.250000000  0.750000000  0.450536747
     0.500000000  0.500000000  0.450536747
     0.251172918  0.499809327  0.550275388
     0.500073628  0.748942861  0.550308960
     0.247902624  0.750078790  0.647985275
     0.498815322  0.492985253  0.653426090
     0.750000000  0.000000000  0.351610242
     0.000000000  0.250000000  0.351610242
     0.750000000  0.250000000  0.450536747
     0.000000000  0.000000000  0.450536747
     0.750058423  0.000380019  0.549745321
     0.000396353  0.250266217  0.549684030
     0.751379424  0.249603600  0.647940336
     0.000599586  0.000539546  0.648052127
     0.750000000  0.500000000  0.351610242
     0.000000000  0.750000000  0.351610242
     0.750000000  0.750000000  0.450536747
     0.000000000  0.500000000  0.450536747
     0.749211491  0.499736173  0.550345284
     0.000556679  0.749778358  0.549553159
     0.753229513  0.750753423  0.647099760
     0.000900244  0.499611865  0.647878654
     0.250000000  0.000000000  0.450536747
     0.500000000  0.250000000  0.450536747
     0.250000000  0.250000000  0.351610242
     0.500000000  0.000000000  0.351610242
     0.249634776  0.000068177  0.649965239
     0.500514592  0.247666295  0.649906933
     0.250257006  0.249639082  0.549524704
     0.500318584  0.999347322  0.549772013
     0.250000000  0.500000000  0.450536747
     0.500000000  0.750000000  0.450536747
     0.250000000  0.750000000  0.351610242
     0.500000000  0.500000000  0.351610242
     0.248443818  0.500103926  0.648918891
     0.500701594  0.754826085  0.652930165
     0.250960897  0.750325172  0.549844235
     0.500456640  0.500567019  0.550657647
     0.750000000  0.000000000  0.450536747
     0.000000000  0.250000000  0.450536747
     0.750000000  0.250000000  0.351610242
     0.000000000  0.000000000  0.351610242
     0.751185725  0.000051405  0.649974854
     0.000263684  0.249620988  0.649863965
     0.750220670  0.249895587  0.549601060
     0.000165847  0.999841486  0.549473429
     0.750000000  0.500000000  0.450536747
     0.000000000  0.750000000  0.450536747
     0.750000000  0.750000000  0.351610242
     0.000000000  0.500000000  0.351610242
     0.752363077  0.500240580  0.650180424
     0.000261912  0.750504440  0.649797873
     0.749595911  0.750117344  0.549777748
     0.999912299  0.500236878  0.549321759

  ion indices of the primitive-cell ions
   primitive index   ion index
                 1           1
                 2           2
                 3           3
                 4           4
                 5           5
                 6           6
                 7           7
                 8           8
                 9           9
                10          10
                11          11
                12          12
                13          13
                14          14
                15          15
                16          16
                17          17
                18          18
                19          19
                20          20
                21          21
[...]
   0.75236308  0.50024058  0.65018042
   0.00026191  0.75050444  0.64979787
   0.74959591  0.75011734  0.54977775
   0.99991230  0.50023688  0.54932176

 position of ions in cartesian coordinates  (Angst):
   5.10789431  4.67665202 16.45013661
   4.28793051  5.68279099 15.52283509
   4.23135478  4.81770844 16.04754729
   2.11014557  0.00000000  7.50000000
   4.22029113  2.11014557  7.50000000
   2.11014557  2.11014557  9.61014557
   4.22029113  0.00000000  9.61014557
   2.11389041  0.00198100 11.72883214
   4.22136661  2.11628066 11.73473050
   2.10482944  2.10954016 13.82759436
   4.22213900  0.01883525 13.82725764
   2.11014557  4.22029113  7.50000000
   4.22029113  6.33043670  7.50000000
   2.11014557  6.33043670  9.61014557
   4.22029113  4.22029113  9.61014557
   2.12004568  4.21868174 11.73761434
   4.22091259  6.32151383 11.73833044
   2.09244249  6.33110173 13.82180889
   4.21029176  4.16108258 13.93786385
   6.33043670  0.00000000  7.50000000
   0.00000000  2.11014557  7.50000000
   6.33043670  2.11014557  9.61014557
   0.00000000  0.00000000  9.61014557
   6.33092982  0.00320759 11.72630776
   0.00334545  2.11239260 11.72500041
   6.34207984  2.10679972 13.82085031
   0.00506085  0.00455408 13.82323487
   6.33043670  4.22029113  7.50000000
   0.00000000  6.33043670  7.50000000
   6.33043670  6.33043670  9.61014557
   0.00000000  4.22029113  9.61014557
   6.32378122  4.21806427 11.73910524
   0.00469870  6.32856591 11.72220887
   6.35769567  6.33679602 13.80292046
   0.00759858  4.21701505 13.81953461
   2.11014557  0.00000000  9.61014557
   4.22029113  2.11014557  9.61014557
   2.11014557  2.11014557  7.50000000
   4.22029113  0.00000000  7.50000000
   2.10706286  0.00057545 13.86404240
   4.22463459  2.09044774 13.86279870
   2.11231485  2.10709920 11.72160191
   4.22298017  8.43507328 11.72687712
   2.11014557  4.22029113  9.61014557
   4.22029113  6.33043670  9.61014557
   2.11014557  6.33043670  7.50000000
   4.22029113  4.22029113  7.50000000
   2.09701048  4.22116833 13.84172333
   4.22621299  6.37117166 13.92728556
   2.11825610  6.33318134 11.72841765
   4.22414544  4.22507710 11.74576808
   6.33043670  0.00000000  9.61014557
   0.00000000  2.11014557  9.61014557
   6.33043670  2.11014557  7.50000000
   0.00000000  0.00000000  7.50000000
   6.34044491  0.00043389 13.86424747
   0.00222565  2.10694649 13.86188216
   6.33229928  2.10926426 11.72323062
   0.00139985  8.43924431 11.72050820
   6.33043670  4.22029113  9.61014557
   0.00000000  6.33043670  9.61014557
   6.33043670  6.33043670  7.50000000
   0.00000000  4.22029113  7.50000000
   6.35038245  4.22232176 13.86863237
   0.00221069  6.33469446 13.86047239
   6.32702595  6.33142715 11.72699944
   8.43984201  4.22229052 11.71727301

--------------------------------------- Iteration      FINAL  ---------------------------------------

--------------------OUTCAR has been truncated-------------------------

[...]

--------------------OUTCAR has been truncated-------------------------

  DFT-D2 method for vdW energy calculation

  Parameters of vdW forcefield:
         C6(Jnm^6/mol)     R0(A)
   H        0.140          1.001
   O        0.700          1.342
   Mg       0.630          1.243
   O        0.700          1.342

  vdW correction parametrized for the method        ÜSl

  IVDW =   1
  VDW_RADIUS =    50.000 A
  VDW_S6 =     1.050
  VDW_SR =     1.000
  VDW_D =    20.000
  LVDW_EWALD = F

  Number of pair interactions contributing to vdW energy:  791500
  Edisp (eV):   -5.22279

 VOLUME and BASIS-vectors are now :
  energy-cutoff  :      600.00
  volume of cell :     1519.65
      direct lattice vectors                 reciprocal lattice vectors
     8.440582262  0.000000000  0.000000000     0.118475239  0.000000000  0.000000000
     0.000000000  8.440582262  0.000000000     0.000000000  0.118475239  0.000000000
     0.000000000  0.000000000 21.330436697     0.000000000  0.000000000  0.046881366

  length of vectors
     8.440582262  8.440582262 21.330436697     0.118475239  0.118475239  0.046881366

 FORCES acting on ions:
    Electron-Ion                     Ewald-Force                    Non-Local-Force
   -.777E+02 0.146E+02 -.299E+03   0.847E+02 -.160E+02 0.302E+03   -.718E+01 0.135E+01 -.343E+01
   -.234E+01 -.681E+02 -.267E+03   0.243E+01 0.738E+02 0.263E+03   -.143E+00 -.591E+01 0.355E+01
   0.476E+02 0.268E+02 -.170E+04   -.850E+02 -.477E+02 0.171E+04   0.337E+02 0.189E+02 -.475E+01
   -.878E-01 0.101E-01 0.209E+04   0.915E-01 -.716E-02 -.208E+04   -.247E-02 -.192E-02 -.639E+01
   -.859E-03 -.237E-01 0.208E+04   0.232E-03 0.327E-01 -.208E+04   0.367E-03 -.605E-02 -.639E+01
   -.342E+00 -.968E-01 0.718E+03   0.357E+00 0.113E+00 -.718E+03   -.817E-02 -.859E-02 0.336E+00
   0.129E+00 -.871E-01 0.716E+03   -.140E+00 0.339E-01 -.717E+03   0.761E-02 0.349E-01 0.406E+00
   0.225E+01 -.628E+00 -.644E+03   -.220E+01 0.706E+00 0.645E+03   -.466E-01 -.742E-01 -.227E+00
   -.111E+00 0.358E+01 -.638E+03   0.639E-01 -.336E+01 0.639E+03   0.392E-01 -.193E+00 -.423E+00
   0.166E+02 0.185E+02 -.201E+04   -.170E+02 -.186E+02 0.200E+04   0.348E+00 0.412E-01 0.564E+01
   0.550E+00 -.105E+02 -.200E+04   -.624E+00 0.109E+02 0.200E+04   0.640E-01 -.404E+00 0.545E+01
   -.122E+00 -.782E-02 0.208E+04   0.129E+00 0.487E-02 -.208E+04   -.524E-02 0.190E-02 -.640E+01
   0.764E-02 0.199E-01 0.208E+04   -.863E-02 -.294E-01 -.208E+04   0.634E-03 0.642E-02 -.641E+01
   -.305E+00 0.464E-01 0.717E+03   0.423E+00 -.614E-01 -.717E+03   -.761E-01 0.834E-02 0.493E+00
   0.321E-01 0.142E+00 0.715E+03   -.800E-03 -.101E+00 -.715E+03   -.205E-01 -.283E-01 0.612E+00
   0.326E+01 0.825E+00 -.635E+03   -.300E+01 -.880E+00 0.636E+03   -.237E+00 0.510E-01 -.991E+00
   0.118E+00 -.287E+01 -.647E+03   -.196E+00 0.259E+01 0.646E+03   0.683E-01 0.252E+00 0.897E+00
   0.245E+02 -.217E+02 -.199E+04   -.256E+02 0.217E+02 0.198E+04   0.964E+00 -.259E-01 0.573E+01
   0.127E+01 0.297E+02 -.191E+04   -.168E+01 -.318E+02 0.191E+04   0.358E+00 0.190E+01 0.227E+01
   0.887E-01 0.239E-02 0.209E+04   -.915E-01 0.117E-02 -.208E+04   0.173E-02 -.234E-02 -.638E+01
   0.290E-02 0.116E-01 0.209E+04   -.119E-02 -.622E-02 -.208E+04   -.114E-02 -.346E-02 -.640E+01
   0.375E+00 -.174E+00 0.717E+03   -.368E+00 0.239E+00 -.718E+03   -.495E-02 -.412E-01 0.389E+00
   -.776E-01 -.125E+00 0.717E+03   0.109E+00 0.170E+00 -.717E+03   -.200E-01 -.285E-01 0.331E+00
   -.224E+01 -.859E+00 -.642E+03   0.219E+01 0.972E+00 0.643E+03   0.467E-01 -.106E+00 -.152E+00
   0.135E+00 0.273E+01 -.644E+03   -.904E-01 -.266E+01 0.644E+03   -.416E-01 -.615E-01 -.117E+00
   -.165E+02 0.177E+02 -.200E+04   0.169E+02 -.179E+02 0.200E+04   -.333E+00 0.171E+00 0.565E+01
   -.444E+00 -.401E+01 -.202E+04   0.503E+00 0.419E+01 0.202E+04   -.559E-01 -.162E+00 0.556E+01
   0.122E+00 0.506E-03 0.208E+04   -.129E+00 -.387E-02 -.208E+04   0.474E-02 0.221E-02 -.641E+01
   -.469E-02 -.132E-01 0.209E+04   0.701E-02 0.794E-02 -.208E+04   -.158E-02 0.335E-02 -.636E+01
   0.329E+00 0.119E+00 0.717E+03   -.419E+00 -.180E+00 -.717E+03   0.598E-01 0.387E-01 0.502E+00
   0.361E-03 0.166E+00 0.718E+03   -.188E-01 -.208E+00 -.718E+03   0.127E-01 0.266E-01 0.218E+00
   -.304E+01 0.106E+01 -.640E+03   0.277E+01 -.115E+01 0.641E+03   0.244E+00 0.787E-01 -.448E+00
   -.116E+00 -.295E+01 -.639E+03   0.193E+00 0.287E+01 0.639E+03   -.706E-01 0.735E-01 -.820E-01
   -.246E+02 -.210E+02 -.197E+04   0.257E+02 0.212E+02 0.197E+04   -.102E+01 -.222E+00 0.582E+01
   0.117E+00 0.484E+01 -.201E+04   0.632E-01 -.501E+01 0.200E+04   -.163E+00 0.152E+00 0.558E+01
   -.159E+00 0.141E+00 0.537E+03   0.144E+00 -.122E+00 -.537E+03   0.188E-01 -.251E-01 -.907E-01
   -.332E-01 -.101E-01 0.537E+03   0.148E-01 -.242E-01 -.537E+03   0.230E-01 0.406E-01 -.869E-01
   -.763E-01 -.378E-02 0.157E+04   0.768E-01 0.845E-02 -.157E+04   -.598E-03 -.578E-02 0.312E+01
   0.780E-02 0.385E-02 0.157E+04   -.114E-01 -.582E-02 -.157E+04   0.453E-02 0.251E-02 0.313E+01
   0.803E+01 -.559E+01 -.153E+04   -.778E+01 0.553E+01 0.153E+04   -.229E+00 0.590E-01 -.442E+01
   0.369E+00 0.268E+02 -.151E+04   -.369E+00 -.269E+02 0.151E+04   -.849E-03 0.607E-01 -.432E+01
   0.204E+01 0.227E+01 -.476E+03   -.204E+01 -.219E+01 0.475E+03   0.421E-03 -.657E-01 0.230E+00
   0.225E+00 -.227E+00 -.476E+03   -.238E+00 0.263E+00 0.476E+03   0.136E-01 -.322E-01 0.342E+00
   -.322E+00 -.103E+00 0.537E+03   0.244E+00 0.837E-01 -.537E+03   0.941E-01 0.263E-01 -.156E+00
   0.208E-01 -.603E-01 0.537E+03   -.330E-01 0.109E+00 -.536E+03   0.154E-01 -.574E-01 -.150E+00
   -.819E-01 0.203E-02 0.157E+04   0.918E-01 -.673E-02 -.157E+04   -.124E-01 0.580E-02 0.313E+01
   -.173E-02 -.997E-03 0.157E+04   0.291E-02 0.336E-02 -.157E+04   -.147E-02 -.301E-02 0.312E+01
   0.296E+02 0.792E+01 -.149E+04   -.291E+02 -.782E+01 0.150E+04   -.422E+00 -.967E-01 -.458E+01
   0.200E+01 -.370E+02 -.147E+04   -.211E+01 0.367E+02 0.147E+04   0.973E-01 0.295E+00 -.170E+01
   0.156E+01 -.246E+01 -.475E+03   -.164E+01 0.240E+01 0.474E+03   0.700E-01 0.567E-01 0.448E+00
   -.376E+00 -.303E+00 -.485E+03   0.339E+00 0.248E+00 0.486E+03   0.333E-01 0.441E-01 -.755E+00
   0.199E+00 0.101E+00 0.538E+03   -.208E+00 -.946E-01 -.538E+03   0.106E-01 -.112E-01 -.377E-01
   0.853E-01 0.204E+00 0.538E+03   -.938E-01 -.184E+00 -.538E+03   0.874E-02 -.259E-01 -.642E-01
   0.750E-01 -.136E-01 0.157E+04   -.762E-01 0.229E-01 -.157E+04   0.154E-02 -.116E-01 0.312E+01
   -.823E-02 -.271E-02 0.157E+04   0.112E-01 0.986E-02 -.157E+04   -.371E-02 -.883E-02 0.313E+01
   -.812E+01 -.647E+01 -.153E+04   0.788E+01 0.645E+01 0.153E+04   0.212E+00 0.145E-01 -.444E+01
   -.516E+00 0.636E+01 -.153E+04   0.531E+00 -.624E+01 0.154E+04   -.138E-01 -.106E+00 -.440E+01
   -.212E+01 0.185E+01 -.475E+03   0.214E+01 -.181E+01 0.475E+03   -.226E-01 -.398E-01 0.358E+00
   -.238E+00 -.992E+00 -.480E+03   0.256E+00 0.103E+01 0.479E+03   -.192E-01 -.338E-01 0.205E+00
   0.358E+00 -.523E-01 0.537E+03   -.296E+00 0.397E-01 -.536E+03   -.748E-01 0.176E-01 -.188E+00
   0.499E-01 -.226E+00 0.538E+03   -.710E-01 0.203E+00 -.538E+03   0.237E-01 0.304E-01 0.395E-01
   0.799E-01 0.114E-01 0.157E+04   -.908E-01 -.209E-01 -.157E+04   0.135E-01 0.118E-01 0.313E+01
   0.162E-02 0.390E-02 0.157E+04   -.315E-02 -.112E-01 -.157E+04   0.195E-02 0.898E-02 0.312E+01
   -.300E+02 0.934E+01 -.149E+04   0.293E+02 -.925E+01 0.150E+04   0.570E+00 -.810E-01 -.428E+01
   -.139E+01 -.698E+01 -.153E+04   0.145E+01 0.686E+01 0.153E+04   -.628E-01 0.105E+00 -.444E+01
   -.161E+01 -.202E+01 -.472E+03   0.171E+01 0.199E+01 0.471E+03   -.916E-01 0.309E-01 0.728E+00
   0.178E+00 0.116E+01 -.473E+03   -.137E+00 -.120E+01 0.473E+03   -.378E-01 0.310E-01 0.257E+00
   -.307E+02 -.184E+02 0.213E+02   0.369E-12 -.568E-13 -.222E-11   0.267E+02 0.160E+02 -.188E+02

 POSITION                                       TOTAL-FORCE (eV/Angst)
      5.10789      4.67665     16.45014        -0.466916      0.062417     -0.226769
      4.28793      5.68279     15.52284        -0.062294     -0.415624      0.219054
      4.23135      4.81771     16.04755         0.520660      0.372955     -0.013109
      2.11015      0.00000      7.50000         0.000913      0.000816      0.468233
      4.22029      2.11015      7.50000        -0.000275      0.002171      0.466344
      2.11015      2.11015      9.61015         0.005480      0.006129      0.030720
      4.22029      0.00000      9.61015        -0.002829     -0.013949      0.048585
      2.11389      0.00198     11.72883        -0.000121     -0.002071     -0.003340
      4.22137      2.11628     11.73473        -0.003891      0.003597     -0.004411
      2.10483      2.10954     13.82759        -0.009187     -0.000025     -0.117779
      4.22214      0.01884     13.82726        -0.003727     -0.000491     -0.119020
      2.11015      4.22029      7.50000         0.001649     -0.000843      0.470160
      4.22029      6.33044      7.50000        -0.000348     -0.002334      0.470990
      2.11015      6.33044      9.61015         0.031793     -0.005371      0.027329
      4.22029      4.22029      9.61015         0.008113      0.009309      0.061396
      2.12005      4.21868     11.73761         0.001131      0.000235      0.004388
      4.22091      6.32151     11.73833        -0.003435     -0.000450     -0.021039
      2.09244      6.33110     13.82181        -0.007547     -0.003500     -0.116016
      4.21029      4.16108     13.93786        -0.012452     -0.056869     -0.097710
      6.33044      0.00000      7.50000        -0.000861      0.000927      0.464393
      0.00000      2.11015      7.50000         0.000364      0.001495      0.469481
      6.33044      2.11015      9.61015         0.001580      0.019165      0.026087
      0.00000      0.00000      9.61015         0.009042      0.012182      0.019730
      6.33093      0.00321     11.72631        -0.000584     -0.001633     -0.001480
      0.00335      2.11239     11.72500        -0.000726      0.001771     -0.005690
      6.34208      2.10680     13.82085         0.005043     -0.004162     -0.118578
      0.00506      0.00455     13.82323        -0.001255      0.003386     -0.116394
      6.33044      4.22029      7.50000        -0.001675     -0.000908      0.473189
      0.00000      6.33044      7.50000         0.000496     -0.001525      0.460434
      6.33044      6.33044      9.61015        -0.022801     -0.017121      0.024359
      0.00000      4.22029      9.61015        -0.004310     -0.011402      0.047136
      6.32378      4.21806     11.73911        -0.003076     -0.000146     -0.003587
      0.00470      6.32857     11.72221        -0.000060     -0.000909     -0.001005
      6.35770      6.33680     13.80292         0.004621      0.002885     -0.121558
      0.00760      4.21702     13.81953         0.002177     -0.006073     -0.123680
      2.11015      0.00000      9.61015         0.006052     -0.010487      0.033531
      4.22029      2.11015      9.61015         0.007729      0.012121      0.066861
      2.11015      2.11015      7.50000        -0.000261     -0.001934     -0.436196
      4.22029      0.00000      7.50000         0.001455      0.000869     -0.434386
      2.10706      0.00058     13.86404        -0.005725      0.000877     -0.005715
      4.22463      2.09045     13.86280         0.000062      0.003573     -0.011213
      2.11231      2.10710     11.72160         0.003371      0.001104      0.018215
      4.22298      8.43507     11.72688         0.002318      0.000106      0.013592
      2.11015      4.22029      9.61015         0.029643      0.010411      0.056709
      4.22029      6.33044      9.61015         0.005259     -0.016465      0.058917
      2.11015      6.33044      7.50000        -0.004209      0.001891     -0.434107
      4.22029      4.22029      7.50000        -0.000569     -0.001083     -0.438559
      2.09701      4.22117     13.84172        -0.009319     -0.002765     -0.012817
      4.22621      6.37117     13.92729         0.009608      0.039840      0.009219
      2.11826      6.33318     11.72842        -0.002156      0.004066      0.013657
      4.22415      4.22508     11.74577         0.000999     -0.004889     -0.012939
      6.33044      0.00000      9.61015         0.002408     -0.006215      0.039769
      0.00000      2.11015      9.61015         0.001308     -0.009687      0.023443
      6.33044      2.11015      7.50000         0.000488     -0.003890     -0.435594
      0.00000      0.00000      7.50000        -0.001289     -0.002926     -0.432809
      6.34044      0.00043     13.86425         0.000086     -0.001297     -0.008051
      0.00223      2.10695     13.86188        -0.000591      0.001987     -0.005201
      6.33230      2.10926     11.72323        -0.006437     -0.000551      0.016631
      0.00140      8.43924     11.72051        -0.003294     -0.004565      0.008485
      6.33044      4.22029      9.61015        -0.024263      0.007605      0.050764
      0.00000      6.33044      9.61015         0.005845      0.011148      0.047221
      6.33044      6.33044      7.50000         0.004514      0.003910     -0.433409
      0.00000      4.22029      7.50000         0.000625      0.002944     -0.436306
      6.35038      4.22232     13.86863        -0.002488      0.003426      0.007428
      0.00221      6.33469     13.86047        -0.002023      0.001082     -0.007564
      6.32703      6.33143     11.72700        -0.001980      0.005784      0.020310
      8.43984      4.22229     11.71727        -0.001863     -0.000023      0.019268
    total drift:                                0.004511      0.001543      0.013204

  FREE ENERGIE OF THE ION-ELECTRON SYSTEM (eV)
  free  energy   TOTEN  =      -456.24857397 eV

  energy  without entropy=     -456.24857397  energy(sigma->0) =     -456.24857397