 vasp.6.3.0 20Jan22 (build Apr  1 2022 16:44:48) complex
 executed on        HPECrayEX_GCC date 2023.04.05  16:08:41

 INCAR:
   SYSTEM = MgO-rocksalt
   ISMEAR = 0
   SIGMA = 0.05
   EDIFF = 1E-7
   ALGO = ALL
   ISTART = 0
   IBRION = 2
   NSW = 1000
   ISYM = 2
   ISIF = 3
   EDIFFG = -0.005
   GGA = MK
   LUSE_VDW = .TRUE.
   PARAM1 = 0.1234
   PARAM2 = 0.711357
   ZAB_VDW = -1.8867
   AGGAC = 0.0
   ENCUT = 600
   PREC = Accurate
   LASPH = .TRUE.
   LREAL = .FALSE.
   ISPIN = 1
   NELM = 200
   NELMIN = 8
   NCORE = 8
   KPAR = 1
   LWAVE = .FALSE.
   LCHARG = .FALSE.

 POTCAR:    PAW_PBE Ti_pv 07Sep2000
 POTCAR:    PAW_PBE O 08Apr2002
|               ----> ADVICE to this user running VASP <----                  |
|     You have switched on vdW-DFT.                                           |
|     This routine was written and supplied by Jiri Klimes. We recommend      |
|     that you carefully read and cite the following publications:            |
|       J. Klimes, D.R. Bowler, A. Michelides                                 |
|          J. Phys.: Cond Matt. 22 022201 (2010)                              |
|       J. Klimes, D.R. Bowler, A. Michelides                                 |
|          Phys. Rev. B. 83, 195131 (2011)                                    |
|     and references therein.                                                 |

   TITEL  = PAW_PBE Ti_pv 07Sep2000
   POMASS =   47.880; ZVAL   =   10.000    mass and valenz
   ENMAX  =  222.335; ENMIN  =  166.751 eV

   TITEL  = PAW_PBE O 08Apr2002
   POMASS =   16.000; ZVAL   =    6.000    mass and valenz
   ENMAX  =  400.000; ENMIN  =  300.000 eV

  PAW_PBE Ti_pv 07Sep2000               :
  PAW_PBE O 08Apr2002                   :

 POSCAR: Ti4 O8
  positions in direct lattice
  velocities in cartesian coordinates
 exchange correlation table for  LEXCH =       43
   RHO(1)=    0.500       N(1)  =     2000
   RHO(2)=  100.500       N(2)  =     4000

 ion  position               nearest neighbor table
   1  0.500  0.500  0.500-   5 1.94   7 1.94   7 1.94   5 1.94   6 2.00  12 2.00   2 3.06   2 3.06
                             4 3.06   4 3.06
   2  0.500  0.000  0.750-   6 1.94   8 1.94   6 1.94   8 1.94   7 2.00   9 2.00   1 3.06   1 3.06
                             3 3.06   3 3.06
   3  0.000  0.000  0.000-   9 1.94  11 1.94  11 1.94   9 1.94  10 2.00   8 2.00   4 3.06   2 3.06
                             2 3.06   4 3.06
   4  0.000  0.500  0.250-  10 1.94  12 1.94  10 1.94  12 1.94  11 2.00   5 2.00   3 3.06   1 3.06
                             1 3.06   3 3.06
   5  0.000  0.500  0.458-   1 1.94   1 1.94   4 2.00
   6  0.500  0.500  0.708-   2 1.94   2 1.94   1 2.00
   7  0.500  0.000  0.542-   1 1.94   1 1.94   2 2.00
   8  0.000  0.000  0.792-   2 1.94   2 1.94   3 2.00
   9  0.500  0.000  0.958-   3 1.94   3 1.94   2 2.00
  10  0.000  0.000  0.208-   4 1.94   4 1.94   3 2.00
  11  0.000  0.500  0.042-   3 1.94   3 1.94   4 2.00
  12  0.500  0.500  0.292-   4 1.94   4 1.94   1 2.00

  LATTYP: Found a simple tetragonal cell.
 ALAT       =     3.7975006937
 C/A-ratio  =     2.5262115767

  Lattice vectors:

 A1 = (   3.7975006937,   0.0000000000,   0.0000000000)
 A2 = (   0.0000000000,   3.7975006937,   0.0000000000)
 A3 = (   0.0000000000,   0.0000000000,   9.5932902151)

Analysis of symmetry for initial positions (statically):
 Subroutine PRICEL returns following result:

  LATTYP: Found a body centered tetragonal cell.
 ALAT       =     3.7975006937
 C/A-ratio  =     2.5262115767

[...]

   2 primitive cells build up your supercell.

 Routine SETGRP: Setting up the symmetry group for a
 simple tetragonal supercell.

 Subroutine GETGRP returns: Found 16 space group operations
 (whereof  8 operations were pure point group operations)
 out of a pool of 16 trial point group operations.

The static configuration has the point symmetry D_2d.
 The point group associated with its full space group is D_4h.

Analysis of symmetry for dynamics (positions and initial velocities):
 Subroutine PRICEL returns following result:

  LATTYP: Found a body centered tetragonal cell.
 ALAT       =     3.7975006937
 C/A-ratio  =     2.5262115767

  Lattice vectors:

 A1 = (  -1.8987503469,   1.8987503469,   4.7966451076)
 A2 = (   1.8987503469,  -1.8987503469,   4.7966451076)
 A3 = (   1.8987503469,   1.8987503469,  -4.7966451076)

   2 primitive cells build up your supercell.

 Routine SETGRP: Setting up the symmetry group for a
 simple tetragonal supercell.

 Subroutine GETGRP returns: Found 16 space group operations
 (whereof  8 operations were pure point group operations)
 out of a pool of 16 trial point group operations.

The dynamic configuration has the point symmetry D_2d.
 The point group associated with its full space group is D_4h.

 Subroutine INISYM returns: Found 16 space group operations
 (whereof  8 operations are pure point group operations),
 and found     2 'primitive' translations

                                     Primitive cell

  volume of cell :      69.1725

  direct lattice vectors                    reciprocal lattice vectors
    -1.898750347  1.898750347  4.796645108    -0.000000000  0.263331091  0.104239523
     1.898750347 -1.898750347  4.796645108     0.263331091 -0.000000000  0.104239523
     1.898750347  1.898750347 -4.796645108     0.263331091  0.263331091  0.000000000

  length of vectors
     5.497118340  5.497118340  5.497118340     0.283212185  0.283212185  0.372406400

  position of ions in fractional coordinates (direct lattice)
     0.000000000  0.000000000  0.000000000
     0.750000000  0.250000000  0.500000000
     0.958025254  0.458025254  0.500000000
     0.208025254  0.208025254  0.000000000
     0.541974746  0.041974746  0.500000000
     0.791974746  0.791974746  0.000000000

  ion indices of the primitive-cell ions
   primitive index   ion index
                 1           1
                 2           2
                 3           5
                 4           6
                 5           7
                 6          12

 KPOINTS: pymatgen v2020.8.13 with grid density =

Automatic generation of k-mesh.
 Grid dimensions read from file:
 generate k-points for:    6    6    2

 Generating k-lattice:

  Cartesian coordinates                     Fractional coordinates (reciprocal lattice)
     0.043888515 -0.000000000  0.000000000     0.166666667 -0.000000000  0.000000000
     0.000000000  0.043888515  0.000000000     0.000000000  0.166666667  0.000000000
    -0.000000000 -0.000000000  0.052119762     0.000000000  0.000000000  0.500000000

  Length of vectors
     0.043888515  0.043888515  0.052119762

  Shift w.r.t. Gamma in fractional coordinates (k-lattice)
     0.000000000  0.000000000  0.000000000

 Subroutine IBZKPT returns following result:

 Found     20 irreducible k-points:

 Following reciprocal coordinates:
            Coordinates               Weight
  0.000000  0.000000  0.000000      1.000000
  0.166667  0.000000  0.000000      4.000000
  0.333333  0.000000  0.000000      4.000000
  0.500000  0.000000  0.000000      2.000000
  0.166667  0.166667  0.000000      4.000000
  0.333333  0.166667  0.000000      8.000000
  0.500000  0.166667  0.000000      4.000000
  0.333333  0.333333  0.000000      4.000000
  0.500000  0.333333  0.000000      4.000000
  0.500000  0.500000  0.000000      1.000000
  0.000000  0.000000  0.500000      1.000000
  0.166667  0.000000  0.500000      4.000000
  0.333333  0.000000  0.500000      4.000000
  0.500000  0.000000  0.500000      2.000000
  0.166667  0.166667  0.500000      4.000000
  0.333333  0.166667  0.500000      8.000000
  0.500000  0.166667  0.500000      4.000000
  0.333333  0.333333  0.500000      4.000000
  0.500000  0.333333  0.500000      4.000000
  0.500000  0.500000  0.500000      1.000000

 Following cartesian coordinates:
            Coordinates               Weight
  0.000000  0.000000  0.000000      1.000000
  0.043889  0.000000  0.000000      4.000000
  0.087777  0.000000  0.000000      4.000000
  0.131666  0.000000  0.000000      2.000000
  0.043889  0.043889  0.000000      4.000000
  0.087777  0.043889  0.000000      8.000000
  0.131666  0.043889  0.000000      4.000000
  0.087777  0.087777  0.000000      4.000000
  0.131666  0.087777  0.000000      4.000000
  0.131666  0.131666  0.000000      1.000000
  0.000000  0.000000  0.052120      1.000000
  0.043889  0.000000  0.052120      4.000000
  0.087777  0.000000  0.052120      4.000000
  0.131666  0.000000  0.052120      2.000000
  0.043889  0.043889  0.052120      4.000000
  0.087777  0.043889  0.052120      8.000000
  0.131666  0.043889  0.052120      4.000000
  0.087777  0.087777  0.052120      4.000000
  0.131666  0.087777  0.052120      4.000000
  0.131666  0.131666  0.052120      1.000000

 SYSTEM =  MgO-rocksalt
 POSCAR =  Ti4 O8

  energy-cutoff  :      600.00
  volume of cell :      138.34
      direct lattice vectors                 reciprocal lattice vectors
     3.797500694  0.000000000  0.000000000     0.263331091 -0.000000000  0.000000000
     0.000000000  3.797500694  0.000000000     0.000000000  0.263331091  0.000000000
     0.000000000  0.000000000  9.593290215    -0.000000000 -0.000000000  0.104239523

[...]

 k-points in units of 2pi/SCALE and weight: pymatgen v2020.8.13 with grid density =
   0.00000000  0.00000000  0.00000000       0.014
   0.04388852  0.00000000  0.00000000       0.056
   0.08777703  0.00000000  0.00000000       0.056
   0.13166555  0.00000000  0.00000000       0.028
   0.04388852  0.04388852  0.00000000       0.056
   0.08777703  0.04388852  0.00000000       0.111
   0.13166555  0.04388852  0.00000000       0.056
   0.08777703  0.08777703  0.00000000       0.056
   0.13166555  0.08777703  0.00000000       0.056
   0.13166555  0.13166555  0.00000000       0.014
   0.00000000  0.00000000  0.05211976       0.014
   0.04388852  0.00000000  0.05211976       0.056
   0.08777703  0.00000000  0.05211976       0.056
   0.13166555  0.00000000  0.05211976       0.028
   0.04388852  0.04388852  0.05211976       0.056
   0.08777703  0.04388852  0.05211976       0.111
   0.13166555  0.04388852  0.05211976       0.056
   0.08777703  0.08777703  0.05211976       0.056
   0.13166555  0.08777703  0.05211976       0.056
   0.13166555  0.13166555  0.05211976       0.014

 k-points in reciprocal lattice and weights: pymatgen v2020.8.13 with grid density =
   0.00000000  0.00000000  0.00000000       0.014
   0.16666667  0.00000000  0.00000000       0.056
   0.33333333  0.00000000  0.00000000       0.056
   0.50000000  0.00000000  0.00000000       0.028
   0.16666667  0.16666667  0.00000000       0.056
   0.33333333  0.16666667  0.00000000       0.111
   0.50000000  0.16666667  0.00000000       0.056
   0.33333333  0.33333333  0.00000000       0.056
   0.50000000  0.33333333  0.00000000       0.056
   0.50000000  0.50000000  0.00000000       0.014
   0.00000000  0.00000000  0.50000000       0.014
   0.16666667  0.00000000  0.50000000       0.056
   0.33333333  0.00000000  0.50000000       0.056
   0.50000000  0.00000000  0.50000000       0.028
   0.16666667  0.16666667  0.50000000       0.056
   0.33333333  0.16666667  0.50000000       0.111
   0.50000000  0.16666667  0.50000000       0.056
   0.33333333  0.33333333  0.50000000       0.056
   0.50000000  0.33333333  0.50000000       0.056
   0.50000000  0.50000000  0.50000000       0.014

 position of ions in fractional coordinates (direct lattice)
   0.50000000  0.50000000  0.50000000
   0.50000000  0.00000000  0.75000000
   0.00000000  0.00000000  0.00000000
   0.00000000  0.50000000  0.25000000
   0.00000000  0.50000000  0.45802525
   0.50000000  0.50000000  0.70802525
   0.50000000  0.00000000  0.54197475
   0.00000000  0.00000000  0.79197475
   0.50000000  0.00000000  0.95802525
   0.00000000  0.00000000  0.20802525
   0.00000000  0.50000000  0.04197475
   0.50000000  0.50000000  0.29197475

 position of ions in cartesian coordinates  (Angst):
   1.89875035  1.89875035  4.79664511
   1.89875035  0.00000000  7.19496766
   0.00000000  0.00000000  0.00000000
   0.00000000  1.89875035  2.39832255
   0.00000000  1.89875035  4.39396919
   1.89875035  1.89875035  6.79229175
   1.89875035  0.00000000  5.19932102
   0.00000000  0.00000000  7.59764358
   1.89875035  0.00000000  9.19061430
   0.00000000  0.00000000  1.99564664
   0.00000000  1.89875035  0.40267592
   1.89875035  1.89875035  2.80099847

--------------------------------------- Iteration      FINAL  ---------------------------------------

--------------------OUTCAR has been truncated-------------------------

[...]

--------------------OUTCAR has been truncated-------------------------

  FORCE on cell =-STRESS in cart. coord.  units (eV):
  Direction    XX          YY          ZZ          XY          YZ          ZX
  Alpha Z   395.31861   395.31861   395.31861
  Ewald   -1993.53013 -1993.53013 -1408.85911     0.00000    -0.00000    -0.00000
  Hartree   572.08519   572.08519   936.70654    -0.00000    -0.00000    -0.00000
  E(xc)    -430.39556  -430.39556  -430.40325     0.00000     0.00000    -0.00000
  Local      41.27329    41.27329  -901.80689    -0.00000    -0.00000    -0.00000
  n-local  -274.57331  -269.76458  -274.71037     0.00441    -0.00000     0.00000
  augment   262.80614   262.80614   262.21800     0.00000     0.00000    -0.00000
  Kinetic  1417.95709  1431.30497  1421.51230    -1.20094     0.00000    -0.00000
  Fock        0.00000     0.00000     0.00000     0.00000     0.00000     0.00000
  Total       0.01963     0.01963    -0.02418     0.00000     0.00000     0.00000
  in kB       0.22729     0.22729    -0.28002     0.00000     0.00000     0.00000

 VOLUME and BASIS-vectors are now :
  energy-cutoff  :      600.00
  volume of cell :      138.34
      direct lattice vectors                 reciprocal lattice vectors
     3.797500694  0.000000000  0.000000000     0.263331091 -0.000000000  0.000000000
     0.000000000  3.797500694  0.000000000     0.000000000  0.263331091  0.000000000
     0.000000000  0.000000000  9.593290215    -0.000000000 -0.000000000  0.104239523

  length of vectors
     3.797500694  3.797500694  9.593290215     0.263331091  0.263331091  0.104239523

 FORCES acting on ions:
    Electron-Ion                     Ewald-Force                    Non-Local-Force
   0.186E-12 -.160E-11 0.216E-12   -.104E-12 0.114E-12 -.171E-12   0.982E-24 -.827E-24 -.139E-16
   0.183E-12 -.115E-12 -.361E-12   0.119E-12 -.114E-12 -.249E-13   -.827E-24 0.827E-24 0.219E-16
   0.102E-13 0.458E-13 0.166E-12   -.100E-12 0.113E-12 -.114E-12   0.207E-24 -.124E-23 -.128E-16
   0.858E-14 0.171E-12 0.657E-13   0.123E-12 -.114E-12 0.426E-13   0.000E+00 0.124E-23 0.234E-16
   -.175E-13 0.494E-13 -.856E+02   0.125E-12 0.129E-13 0.925E+02   0.207E-24 0.000E+00 -.687E+01
   0.143E-12 -.220E-12 -.856E+02   0.144E-13 0.129E-12 0.925E+02   -.362E-24 -.827E-24 -.687E+01
   0.127E-12 -.446E-12 0.856E+02   -.165E-13 -.126E-12 -.925E+02   0.414E-24 0.827E-24 0.687E+01
   -.205E-13 -.344E-13 0.856E+02   -.146E-12 -.108E-13 -.925E+02   0.827E-24 0.000E+00 0.687E+01
   0.103E-12 0.270E-13 -.856E+02   0.127E-12 0.114E-13 0.925E+02   0.414E-24 0.827E-24 -.687E+01
   0.760E-14 0.416E-12 -.856E+02   0.148E-13 0.128E-12 0.925E+02   0.465E-24 0.165E-23 -.687E+01
   0.153E-13 -.364E-12 0.856E+02   -.160E-13 -.127E-12 -.925E+02   -.414E-24 -.109E-23 0.687E+01
   0.675E-13 0.181E-11 0.856E+02   -.144E-12 -.118E-13 -.925E+02   -.362E-24 -.109E-23 0.687E+01
   0.817E-12 -.271E-12 0.114E-12   -.409E-14 0.397E-14 0.142E-12   0.155E-23 0.310E-24 0.000E+00

 POSITION                                       TOTAL-FORCE (eV/Angst)
      1.89875      1.89875      4.79665        -0.000000     -0.000000      0.000000
      1.89875      0.00000      7.19497        -0.000000      0.000000     -0.000000
      0.00000      0.00000      0.00000         0.000000      0.000000      0.000000
      0.00000      1.89875      2.39832         0.000000     -0.000000      0.000000
      0.00000      1.89875      4.39397         0.000000     -0.000000      0.001781
      1.89875      1.89875      6.79229         0.000000     -0.000000      0.001781
      1.89875      0.00000      5.19932        -0.000000      0.000000     -0.001781
      0.00000      0.00000      7.59764        -0.000000      0.000000     -0.001781
      1.89875      0.00000      9.19061        -0.000000     -0.000000      0.001781
      0.00000      0.00000      1.99565         0.000000     -0.000000      0.001781
      0.00000      1.89875      0.40268         0.000000      0.000000     -0.001781
      1.89875      1.89875      2.80100         0.000000      0.000000     -0.001781
    total drift:                                0.000000     -0.000000      0.000000

  FREE ENERGIE OF THE ION-ELECTRON SYSTEM (eV)
  free  energy   TOTEN  =       -88.29235297 eV

  energy  without entropy=      -88.29235297  energy(sigma->0) =      -88.29235297

 reached required accuracy - stopping structural energy minimisation