 vasp.6.3.0 20Jan22 (build Mar 11 2022 13:48:16) complex

 executed on             LinuxIFC date 2024.08.21  17:44:55

 INCAR:
   SYSTEM = MgO-rocksalt
   ISMEAR = 0
   SIGMA = 0.05
   EDIFF = 1E-7
   ALGO = Normal
   ISTART = 0
   IBRION = 2
   NSW = 1000
   ISYM = 2
   ISIF = 3
   EDIFFG = -0.005
   GGA = MK
   LUSE_VDW = .TRUE.
   PARAM1 = 0.1234
   PARAM2 = 0.711357
   ZAB_VDW = -1.8867
   AGGAC = 0.0
   ENCUT = 600
   PREC = Accurate
   LASPH = .TRUE.
   LREAL = .FALSE.
   ISPIN = 1
   NELM = 200
   NELMIN = 8
   NCORE = 8
   KPAR = 1
   LWAVE = .FALSE.
   LCHARG = .FALSE.

 POTCAR:    PAW_PBE Ti_pv 07Sep2000
 POTCAR:    PAW_PBE O 08Apr2002
|           W    W    AA    RRRRR   N    N  II  N    N   GGGG   !!!           |
|           W    W   A  A   R    R  NN   N  II  NN   N  G    G  !!!           |
|           W    W  A    A  R    R  N N  N  II  N N  N  G       !!!           |
|           W WW W  AAAAAA  RRRRR   N  N N  II  N  N N  G  GGG   !            |
|           WW  WW  A    A  R   R   N   NN  II  N   NN  G    G                |
|           W    W  A    A  R    R  N    N  II  N    N   GGGG   !!!           |
|     For optimal performance we recommend to set                             |
|       NCORE = 2 up to number-of-cores-per-socket                            |
|     This setting can greatly improve the performance of VASP for DFT.       |
|     The default, NCORE=1 might be grossly inefficient on modern             |
|     multi-core architectures or massively parallel machines. Do your        |
|     Unfortunately you need to use the default for GW and RPA                |
|     calculations (for HF NCORE is supported but not extensively tested      |
|     yet).                                                                   |

   TITEL  = PAW_PBE Ti_pv 07Sep2000
   POMASS =   47.880; ZVAL   =   10.000    mass and valenz
   ENMAX  =  222.335; ENMIN  =  166.751 eV

   TITEL  = PAW_PBE O 08Apr2002
   POMASS =   16.000; ZVAL   =    6.000    mass and valenz
   ENMAX  =  400.000; ENMIN  =  300.000 eV

  PAW_PBE Ti_pv 07Sep2000               :
  PAW_PBE O 08Apr2002                   :

 POSCAR: Ti4 O8
  positions in direct lattice
  velocities in cartesian coordinates
 exchange correlation table for  LEXCH =       43
   RHO(1)=    0.500       N(1)  =     2000
   RHO(2)=  100.500       N(2)  =     4000

 ion  position               nearest neighbor table
   1  0.500  0.500  0.500-   5 1.94   7 1.94   7 1.94   5 1.94   6 2.00  12 2.00   2 3.06   2 3.06
                             4 3.06   4 3.06
   2  0.500  0.000  0.750-   6 1.94   8 1.94   6 1.94   8 1.94   7 2.00   9 2.00   1 3.06   1 3.06
                             3 3.06   3 3.06
   3  0.000  0.000  0.000-   9 1.94  11 1.94  11 1.94   9 1.94  10 2.00   8 2.00   4 3.06   2 3.06
                             2 3.06   4 3.06
   4  0.000  0.500  0.250-  10 1.94  12 1.94  10 1.94  12 1.94  11 2.00   5 2.00   3 3.06   1 3.06
                             1 3.06   3 3.06
   5  0.000  0.500  0.458-   1 1.94   1 1.94   4 2.00
   6  0.500  0.500  0.708-   2 1.94   2 1.94   1 2.00
   7  0.500  0.000  0.542-   1 1.94   1 1.94   2 2.00
   8  0.000  0.000  0.792-   2 1.94   2 1.94   3 2.00
   9  0.500  0.000  0.958-   3 1.94   3 1.94   2 2.00
  10  0.000  0.000  0.208-   4 1.94   4 1.94   3 2.00
  11  0.000  0.500  0.042-   3 1.94   3 1.94   4 2.00
  12  0.500  0.500  0.292-   4 1.94   4 1.94   1 2.00

  LATTYP: Found a simple tetragonal cell.
 ALAT       =     3.7977170603
 C/A-ratio  =     2.5252021631

  Lattice vectors:

 A1 = (   3.7977170603,   0.0000000000,   0.0000000000)
 A2 = (   0.0000000000,   3.7977170603,   0.0000000000)
 A3 = (   0.0000000000,   0.0000000000,   9.5900033355)

Analysis of symmetry for initial positions (statically):
 Subroutine PRICEL returns following result:

  LATTYP: Found a body centered tetragonal cell.
 ALAT       =     3.7977170603
 C/A-ratio  =     2.5252021631

[...]

   2 primitive cells build up your supercell.

 Routine SETGRP: Setting up the symmetry group for a
 simple tetragonal supercell.

 Subroutine GETGRP returns: Found 16 space group operations
 (whereof  8 operations were pure point group operations)
 out of a pool of 16 trial point group operations.

The static configuration has the point symmetry D_2d.
 The point group associated with its full space group is D_4h.

Analysis of symmetry for dynamics (positions and initial velocities):
 Subroutine PRICEL returns following result:

  LATTYP: Found a body centered tetragonal cell.
 ALAT       =     3.7977170603
 C/A-ratio  =     2.5252021631

  Lattice vectors:

 A1 = (  -1.8988585302,   1.8988585302,   4.7950016678)
 A2 = (   1.8988585302,  -1.8988585302,   4.7950016678)
 A3 = (   1.8988585302,   1.8988585302,  -4.7950016678)

   2 primitive cells build up your supercell.

 Routine SETGRP: Setting up the symmetry group for a
 simple tetragonal supercell.

 Subroutine GETGRP returns: Found 16 space group operations
 (whereof  8 operations were pure point group operations)
 out of a pool of 16 trial point group operations.

The dynamic configuration has the point symmetry D_2d.
 The point group associated with its full space group is D_4h.

 Subroutine INISYM returns: Found 16 space group operations
 (whereof  8 operations are pure point group operations),
 and found     2 'primitive' translations

                                     Primitive cell

  volume of cell :      69.1567

  direct lattice vectors                    reciprocal lattice vectors
    -1.898858530  1.898858530  4.795001668    -0.000000000  0.263316088  0.104275250
     1.898858530 -1.898858530  4.795001668     0.263316088 -0.000000000  0.104275250
     1.898858530  1.898858530 -4.795001668     0.263316088  0.263316088 -0.000000000

  length of vectors
     5.495759131  5.495759131  5.495759131     0.283211388  0.283211388  0.372385183

  position of ions in fractional coordinates (direct lattice)
     0.000000000  1.000000000  1.000000000
     0.750000000  0.250000000  0.500000000
     0.958107685  0.458107685  0.500000000
     0.208107685  0.208107685  1.000000000
     0.541892315  0.041892315  0.500000000
     0.791892315  0.791892315  1.000000000

  ion indices of the primitive-cell ions
   primitive index   ion index
                 1           1
                 2           2
                 3           5
                 4           6
                 5           7
                 6          12

 KPOINTS: pymatgen v2020.8.13 with grid density =

Automatic generation of k-mesh.
 Grid dimensions read from file:
 generate k-points for:    6    6    2

 Generating k-lattice:

  Cartesian coordinates                     Fractional coordinates (reciprocal lattice)
     0.043886015 -0.000000000  0.000000000     0.166666667 -0.000000000  0.000000000
     0.000000000  0.043886015  0.000000000     0.000000000  0.166666667  0.000000000
    -0.000000000 -0.000000000  0.052137625     0.000000000  0.000000000  0.500000000

  Length of vectors
     0.043886015  0.043886015  0.052137625

  Shift w.r.t. Gamma in fractional coordinates (k-lattice)
     0.000000000  0.000000000  0.000000000

 Subroutine IBZKPT returns following result:

 Found     20 irreducible k-points:

 Following reciprocal coordinates:
            Coordinates               Weight
  0.000000  0.000000  0.000000      1.000000
  0.166667 -0.000000  0.000000      4.000000
  0.333333 -0.000000  0.000000      4.000000
  0.500000 -0.000000  0.000000      2.000000
  0.166667  0.166667  0.000000      4.000000
  0.333333  0.166667  0.000000      8.000000
  0.500000  0.166667  0.000000      4.000000
  0.333333  0.333333  0.000000      4.000000
  0.500000  0.333333  0.000000      4.000000
  0.500000  0.500000  0.000000      1.000000
  0.000000 -0.000000  0.500000      1.000000
  0.166667  0.000000  0.500000      4.000000
  0.333333 -0.000000  0.500000      4.000000
  0.500000 -0.000000  0.500000      2.000000
  0.166667  0.166667  0.500000      4.000000
  0.333333  0.166667  0.500000      8.000000
  0.500000  0.166667  0.500000      4.000000
  0.333333  0.333333  0.500000      4.000000
  0.500000  0.333333  0.500000      4.000000
  0.500000  0.500000  0.500000      1.000000

 Following cartesian coordinates:
            Coordinates               Weight
  0.000000  0.000000  0.000000      1.000000
  0.043886 -0.000000  0.000000      4.000000
  0.087772 -0.000000  0.000000      4.000000
  0.131658 -0.000000  0.000000      2.000000
  0.043886  0.043886  0.000000      4.000000
  0.087772  0.043886  0.000000      8.000000
  0.131658  0.043886  0.000000      4.000000
  0.087772  0.087772  0.000000      4.000000
  0.131658  0.087772  0.000000      4.000000
  0.131658  0.131658  0.000000      1.000000
 -0.000000 -0.000000  0.052138      1.000000
  0.043886 -0.000000  0.052138      4.000000
  0.087772 -0.000000  0.052138      4.000000
  0.131658 -0.000000  0.052138      2.000000
  0.043886  0.043886  0.052138      4.000000
  0.087772  0.043886  0.052138      8.000000
  0.131658  0.043886  0.052138      4.000000
  0.087772  0.087772  0.052138      4.000000
  0.131658  0.087772  0.052138      4.000000
  0.131658  0.131658  0.052138      1.000000

 SYSTEM =  MgO-rocksalt
 POSCAR =  Ti4 O8

  energy-cutoff  :      600.00
  volume of cell :      138.31
      direct lattice vectors                 reciprocal lattice vectors
     3.797717060  0.000000000  0.000000000     0.263316088 -0.000000000  0.000000000
     0.000000000  3.797717060  0.000000000     0.000000000  0.263316088  0.000000000
     0.000000000  0.000000000  9.590003336    -0.000000000 -0.000000000  0.104275250

[...]

 k-points in units of 2pi/SCALE and weight: pymatgen v2020.8.13 with grid density =
   0.00000000  0.00000000  0.00000000       0.014
   0.04388601 -0.00000000  0.00000000       0.056
   0.08777203 -0.00000000  0.00000000       0.056
   0.13165804 -0.00000000  0.00000000       0.028
   0.04388601  0.04388601  0.00000000       0.056
   0.08777203  0.04388601  0.00000000       0.111
   0.13165804  0.04388601  0.00000000       0.056
   0.08777203  0.08777203  0.00000000       0.056
   0.13165804  0.08777203  0.00000000       0.056
   0.13165804  0.13165804  0.00000000       0.014
  -0.00000000 -0.00000000  0.05213763       0.014
   0.04388601 -0.00000000  0.05213763       0.056
   0.08777203 -0.00000000  0.05213763       0.056
   0.13165804 -0.00000000  0.05213763       0.028
   0.04388601  0.04388601  0.05213763       0.056
   0.08777203  0.04388601  0.05213763       0.111
   0.13165804  0.04388601  0.05213763       0.056
   0.08777203  0.08777203  0.05213763       0.056
   0.13165804  0.08777203  0.05213763       0.056
   0.13165804  0.13165804  0.05213763       0.014

 k-points in reciprocal lattice and weights: pymatgen v2020.8.13 with grid density =
   0.00000000  0.00000000  0.00000000       0.014
   0.16666667 -0.00000000  0.00000000       0.056
   0.33333333 -0.00000000  0.00000000       0.056
   0.50000000 -0.00000000  0.00000000       0.028
   0.16666667  0.16666667  0.00000000       0.056
   0.33333333  0.16666667  0.00000000       0.111
   0.50000000  0.16666667  0.00000000       0.056
   0.33333333  0.33333333  0.00000000       0.056
   0.50000000  0.33333333  0.00000000       0.056
   0.50000000  0.50000000  0.00000000       0.014
   0.00000000 -0.00000000  0.50000000       0.014
   0.16666667  0.00000000  0.50000000       0.056
   0.33333333 -0.00000000  0.50000000       0.056
   0.50000000 -0.00000000  0.50000000       0.028
   0.16666667  0.16666667  0.50000000       0.056
   0.33333333  0.16666667  0.50000000       0.111
   0.50000000  0.16666667  0.50000000       0.056
   0.33333333  0.33333333  0.50000000       0.056
   0.50000000  0.33333333  0.50000000       0.056
   0.50000000  0.50000000  0.50000000       0.014

 position of ions in fractional coordinates (direct lattice)
   0.50000000  0.50000000  0.50000000
   0.50000000  0.00000000  0.75000000
   0.00000000  0.00000000  0.00000000
   0.00000000  0.50000000  0.25000000
   0.00000000  0.50000000  0.45810768
   0.50000000  0.50000000  0.70810768
   0.50000000  0.00000000  0.54189232
   0.00000000  0.00000000  0.79189232
   0.50000000  0.00000000  0.95810768
   0.00000000  0.00000000  0.20810768
   0.00000000  0.50000000  0.04189232
   0.50000000  0.50000000  0.29189232

 position of ions in cartesian coordinates  (Angst):
   1.89885853  1.89885853  4.79500167
   1.89885853  0.00000000  7.19250250
   0.00000000  0.00000000  0.00000000
   0.00000000  1.89885853  2.39750083
   0.00000000  1.89885853  4.39325423
   1.89885853  1.89885853  6.79075506
   1.89885853  0.00000000  5.19674911
   0.00000000  0.00000000  7.59424994
   1.89885853  0.00000000  9.18825589
   0.00000000  0.00000000  1.99575339
   0.00000000  1.89885853  0.40174744
   1.89885853  1.89885853  2.79924828

--------------------------------------- Iteration      FINAL  ---------------------------------------

--------------------OUTCAR has been truncated-------------------------

[...]

--------------------OUTCAR has been truncated-------------------------

  FORCE on cell =-STRESS in cart. coord.  units (eV):
  Direction    XX          YY          ZZ          XY          YZ          ZX
  Alpha Z   395.40904   395.40904   395.40904
  Ewald   -1993.21185 -1993.21185 -1410.33649     0.00000     0.00000     0.00000
  Hartree   572.20525   572.20525   935.83693    -0.00000    -0.00000    -0.00000
  E(xc)    -430.39633  -430.39633  -430.40525     0.00000    -0.00000    -0.00000
  Local      40.74474    40.74474  -899.54589    -0.00000    -0.00000    -0.00000
  n-local  -274.58306  -269.73406  -274.71292     0.00323     0.00000    -0.00000
  augment   262.80683   262.80683   262.21258    -0.00000     0.00000    -0.00000
  Kinetic  1417.94394  1431.33565  1421.50484    -1.20716    -0.00000     0.00000
  Fock        0.00000     0.00000     0.00000     0.00000     0.00000     0.00000
  Total       0.03892     0.03892    -0.03716     0.00000     0.00000     0.00000
  in kB       0.45085     0.45085    -0.43042     0.00000     0.00000     0.00000

 VOLUME and BASIS-vectors are now :
  energy-cutoff  :      600.00
  volume of cell :      138.31
      direct lattice vectors                 reciprocal lattice vectors
     3.797717060  0.000000000  0.000000000     0.263316088 -0.000000000  0.000000000
     0.000000000  3.797717060  0.000000000     0.000000000  0.263316088  0.000000000
     0.000000000  0.000000000  9.590003336    -0.000000000 -0.000000000  0.104275250

  length of vectors
     3.797717060  3.797717060  9.590003336     0.263316088  0.263316088  0.104275250

 FORCES acting on ions
    electron-ion (+dipol)            ewald-force                    non-local-force                 convergence-correction
   0.131E-12 -.117E-11 0.527E-13   0.202E-13 -.174E-13 0.568E-13   0.430E-24 0.803E-26 0.141E-16   -.188E-13 0.216E-13 -.285E-12
   0.155E-12 -.428E-12 -.130E-12   0.553E-14 -.553E-14 -.355E-13   -.246E-24 -.263E-26 -.481E-17   0.103E-12 0.121E-13 -.156E-12
   0.957E-14 0.468E-12 -.141E-12   0.238E-13 -.173E-13 0.114E-12   -.320E-24 0.582E-25 0.220E-16   0.786E-13 0.264E-13 -.253E-13
   -.782E-14 -.324E-12 0.227E-12   0.917E-14 -.468E-14 -.114E-12   0.361E-24 -.460E-25 -.707E-17   0.219E-12 0.151E-13 0.124E-12
   0.122E-13 0.177E-13 -.856E+02   -.164E-13 0.149E-13 0.925E+02   -.185E-25 -.338E-25 -.690E+01   0.594E-13 0.486E-13 0.876E-04
   0.141E-12 0.437E-13 -.856E+02   0.566E-14 0.188E-13 0.925E+02   -.631E-25 -.546E-26 -.690E+01   0.101E-12 0.223E-13 0.876E-04
   0.120E-12 0.147E-12 0.856E+02   -.135E-13 0.579E-14 -.925E+02   0.171E-25 -.133E-26 0.690E+01   0.285E-13 -.147E-13 -.876E-04
   0.137E-13 0.201E-12 0.856E+02   -.135E-13 -.130E-13 -.925E+02   0.126E-27 0.485E-25 0.690E+01   -.446E-13 0.713E-14 -.876E-04
   0.721E-13 -.166E-12 -.856E+02   -.119E-13 0.125E-13 0.925E+02   0.369E-25 0.345E-26 -.690E+01   -.415E-13 0.440E-13 0.876E-04
   -.106E-13 -.166E-12 -.856E+02   0.620E-14 0.157E-13 0.925E+02   0.317E-25 0.906E-26 -.690E+01   0.128E-12 0.183E-13 0.876E-04
   -.976E-16 0.248E-12 0.856E+02   -.132E-13 0.341E-14 -.925E+02   -.427E-25 -.174E-25 0.690E+01   0.614E-13 -.164E-13 -.876E-04
   0.719E-13 -.873E-12 0.856E+02   -.922E-14 -.150E-13 -.925E+02   -.872E-26 0.304E-25 0.690E+01   -.144E-12 -.358E-14 -.876E-04
   0.708E-12 -.200E-11 0.287E-11   -.722E-14 -.195E-14 0.568E-13   0.178E-24 0.511E-25 0.000E+00   0.531E-12 0.181E-12 -.502E-12

 POSITION                                       TOTAL-FORCE (eV/Angst)
      1.89886      1.89886      4.79500         0.000000     -0.000000     -0.000000
      1.89886      0.00000      7.19250        -0.000000     -0.000000     -0.000000
      0.00000      0.00000      0.00000         0.000000      0.000000     -0.000000
      0.00000      1.89886      2.39750        -0.000000     -0.000000     -0.000000
      0.00000      1.89886      4.39325         0.000000     -0.000000     -0.003791
      1.89886      1.89886      6.79076        -0.000000     -0.000000     -0.003791
      1.89886      0.00000      5.19675         0.000000      0.000000      0.003791
      0.00000      0.00000      7.59425        -0.000000      0.000000      0.003791
      1.89886      0.00000      9.18826         0.000000      0.000000     -0.003791
      0.00000      0.00000      1.99575         0.000000      0.000000     -0.003791
      0.00000      1.89886      0.40175        -0.000000      0.000000      0.003791
      1.89886      1.89886      2.79925        -0.000000      0.000000      0.003791
    total drift:                                0.000000     -0.000000      0.000000

  FREE ENERGIE OF THE ION-ELECTRON SYSTEM (eV)
  free  energy   TOTEN  =       -88.29230060 eV

  energy  without entropy=      -88.29230060  energy(sigma->0) =      -88.29230060

 reached required accuracy - stopping structural energy minimisation