 vasp.6.3.0 20Jan22 (build Apr  1 2022 16:44:48) gamma-only
 executed on        HPECrayEX_GCC date 2023.03.12  03:01:11

 INCAR:
   SYSTEM = MgO-rocksalt
   ISMEAR = 0
   SIGMA = 0.05
   EDIFF = 1E-6
   ALGO = ALL
   ISTART = 0
   IBRION = -1
   NSW = 0
   ISYM = 0
   DIPOL = 0.5 0.5 0.5
   IDIPOL = 3
   LDIPOL = .TRUE.
   LHFCALC = .TRUE.
   GGA = B5
   AEXX = 0.2
   AGGAX = 0.72
   AGGAC = 0.81
   ALDAC = 0.19
   IVDW = 1
   VDW_S6 = 1.05
   VDW_C6 = 0.63 0.70
   VDW_R0 = 1.243 1.342
   ENCUT = 520
   PREC = Accurate
   LASPH = .TRUE.
   LREAL = Auto
   ISPIN = 1
   NELM = 200
   NELMIN = 8
   NCORE = 8
   KPAR = 1
   LWAVE = .FALSE.
   LCHARG = .FALSE.

 POTCAR:    PAW_PBE Mg_pv 13Apr2007
 POTCAR:    PAW_PBE O 08Apr2002
 POTCAR:    PAW_PBE Mg_pv 13Apr2007
   VRHFIN =Mg: p6s2

   TITEL  = PAW_PBE Mg_pv 13Apr2007
   POMASS =   24.305; ZVAL   =    8.000    mass and valenz
   ENMAX  =  403.929; ENMIN  =  302.947 eV

   TITEL  = PAW_PBE O 08Apr2002
   POMASS =   16.000; ZVAL   =    6.000    mass and valenz
   ENMAX  =  400.000; ENMIN  =  300.000 eV

 Optimization of the real space projectors (new method)

 maximal supplied QI-value         = 18.90
 optimisation between [QCUT,QGAM] = [ 11.53, 23.24] = [ 37.21,151.29] Ry
 Optimized for a Real-space Cutoff    1.28 Angstroem

   l    n(q)    QCUT    max X(q) W(low)/X(q) W(high)/X(q)  e(spline)
   1      8    11.527     2.974    0.44E-04    0.56E-04    0.12E-06
   1      8    11.527     4.279    0.12E-03    0.12E-03    0.26E-06
   0      9    11.527    16.381    0.46E-04    0.64E-04    0.78E-07
   0      9    11.527     5.611    0.26E-04    0.43E-04    0.55E-07
   2      8    11.527     4.652    0.22E-03    0.72E-04    0.47E-07
 Optimization of the real space projectors (new method)

 maximal supplied QI-value         = 24.76
 optimisation between [QCUT,QGAM] = [ 11.64, 23.27] = [ 37.91,151.63] Ry
 Optimized for a Real-space Cutoff    1.14 Angstroem

   l    n(q)    QCUT    max X(q) W(low)/X(q) W(high)/X(q)  e(spline)
   0      8    11.635    20.381    0.10E-03    0.33E-03    0.24E-06
   0      8    11.635    15.268    0.11E-03    0.35E-03    0.26E-06
   1      7    11.635     5.964    0.24E-03    0.31E-03    0.30E-06
   1      7    11.635     5.382    0.22E-03    0.25E-03    0.26E-06
|               ----> ADVICE to this user running VASP <----                  |
|     You enforced a specific xc type in the INCAR file but a different       |
|     type was found in the POTCAR file.                                      |
|     I HOPE YOU KNOW WHAT YOU ARE DOING!                                     |

  PAW_PBE Mg_pv 13Apr2007               :
  PAW_PBE O 08Apr2002                   :

 POSCAR: Mg  O
  positions in direct lattice
 exchange correlation table for  LEXCH =       12
   RHO(1)=    0.500       N(1)  =     2000
   RHO(2)=  100.500       N(2)  =     4000

 ion  position               nearest neighbor table
   1  0.125  0.000  0.351- 129 2.12 131 2.12 132 2.12 148 2.12 171 2.12
   2  0.250  0.125  0.351- 130 2.12 131 2.12 132 2.12 140 2.12 147 2.12
   3  0.125  0.125  0.450- 135 2.11 131 2.12 129 2.12 130 2.12 137 2.12 146 2.12
   4  0.250  0.000  0.450- 136 2.11 132 2.12 129 2.12 130 2.12 145 2.12 170 2.12
   5  0.125  1.000  0.550- 135 2.12 136 2.12 152 2.12 175 2.12 129 2.12 133 2.14
   6  0.250  0.125  0.550- 144 2.12 151 2.12 130 2.12 135 2.12 136 2.12 134 2.14
   7  0.125  0.125  0.648- 135 2.10 134 2.11 150 2.12 133 2.12 141 2.12
   8  0.250  1.000  0.647- 136 2.10 134 2.11 174 2.12 149 2.12 133 2.12
   9  0.125  0.250  0.351- 137 2.12 131 2.12 139 2.12 140 2.12 156 2.12
  10  0.250  0.375  0.351- 138 2.12 139 2.12 140 2.12 155 2.12 164 2.12
  11  0.125  0.375  0.450- 143 2.11 139 2.12 137 2.12 138 2.12 154 2.12 161 2.12
  12  0.250  0.250  0.450- 144 2.11 140 2.12 138 2.12 130 2.12 137 2.12 153 2.12
  13  0.125  0.250  0.550- 144 2.11 160 2.12 143 2.12 135 2.12 137 2.12 141 2.15
  14  0.250  0.375  0.550- 159 2.10 144 2.12 168 2.12 143 2.12 138 2.12 142 2.17
  15  0.125  0.375  0.648- 143 2.09 142 2.10 158 2.11 141 2.12 165 2.12
  16  0.250  0.250  0.647- 144 2.09 157 2.10 141 2.12 134 2.12 142 2.13
  17  0.375  0.000  0.351- 145 2.12 132 2.12 147 2.12 187 2.12 212 2.12
  18  0.000  0.125  0.351- 146 2.12 131 2.12 148 2.12 156 2.12 211 2.12
  19  0.375  0.125  0.450- 151 2.11 147 2.12 130 2.12 145 2.12 153 2.12 210 2.12
  20  0.000  0.000  0.450- 152 2.11 148 2.12 129 2.12 146 2.12 186 2.12 209 2.12
  21  0.375  1.000  0.550- 151 2.11 191 2.12 216 2.12 145 2.12 136 2.12 149 2.15
  22  0.000  0.125  0.550- 215 2.11 135 2.12 152 2.12 160 2.12 146 2.12 150 2.14
  23  0.375  0.125  0.647- 151 2.08 157 2.09 149 2.12 134 2.12 214 2.12
  24  0.000  1.000  0.648- 152 2.10 213 2.11 133 2.11 190 2.12 150 2.12
  25  0.375  0.250  0.351- 153 2.12 147 2.12 140 2.12 155 2.12 220 2.12
  26  0.000  0.375  0.351- 154 2.12 139 2.12 156 2.12 180 2.12 219 2.12
  27  0.375  0.375  0.450- 155 2.12 153 2.12 138 2.12 177 2.12 218 2.12 159 2.12
  28  0.000  0.250  0.450- 160 2.11 156 2.12 154 2.12 137 2.12 146 2.12 217 2.12
  29  0.375  0.250  0.550- 224 2.11 159 2.11 157 2.12 151 2.13 144 2.13 153 2.13
  30  0.000  0.375  0.550- 223 2.12 143 2.12 184 2.12 160 2.12 154 2.12 158 2.14
  31  0.375  0.374  0.650- 222 2.11 157 2.13 142 2.14 159 2.15 181 2.15
  32  0.000  0.250  0.648- 160 2.10 141 2.11 221 2.11 150 2.12 158 2.12
  33  0.125  0.500  0.351- 161 2.12 139 2.12 163 2.12 164 2.12 180 2.12
  34  0.250  0.625  0.351- 162 2.12 163 2.12 164 2.12 172 2.12 179 2.12
  35  0.125  0.625  0.450- 167 2.11 163 2.12 161 2.12 162 2.12 169 2.12 178 2.12
  36  0.250  0.500  0.450- 168 2.11 164 2.12 162 2.12 138 2.12 161 2.12 177 2.12
  37  0.125  0.500  0.550- 168 2.11 184 2.12 143 2.12 161 2.12 167 2.12 165 2.15
  38  0.250  0.625  0.550- 183 2.12 168 2.12 162 2.12 176 2.12 167 2.12 166 2.14
  39  0.125  0.625  0.648- 167 2.10 166 2.11 182 2.11 173 2.12 165 2.12
  40  0.250  0.500  0.647- 168 2.08 181 2.09 165 2.12 166 2.12 142 2.12
  41  0.125  0.750  0.351- 169 2.12 163 2.12 171 2.12 172 2.12 188 2.12
  42  0.250  0.875  0.351- 170 2.12 132 2.12 171 2.12 172 2.12 187 2.12
  43  0.125  0.875  0.450- 175 2.11 171 2.12 170 2.12 129 2.12 169 2.12 186 2.12
  44  0.250  0.750  0.450- 176 2.11 172 2.12 170 2.12 162 2.12 169 2.12 185 2.12
  45  0.125  0.750  0.550- 176 2.12 192 2.12 167 2.12 175 2.12 169 2.12 173 2.14
  46  0.250  0.875  0.550- 136 2.11 176 2.12 175 2.12 191 2.12 170 2.12 174 2.14
  47  0.125  0.875  0.648- 175 2.10 133 2.11 173 2.11 190 2.12 174 2.12
  48  0.250  0.750  0.648- 176 2.10 166 2.11 174 2.12 173 2.12 189 2.12
  49  0.375  0.500  0.351- 177 2.12 164 2.12 155 2.12 179 2.12 244 2.12
  50  0.000  0.625  0.351- 178 2.12 163 2.12 180 2.12 188 2.12 243 2.12
  51  0.375  0.625  0.450- 183 2.11 179 2.12 162 2.12 177 2.12 185 2.12 242 2.12
  52  0.000  0.500  0.450- 184 2.11 180 2.12 178 2.12 154 2.12 161 2.12 241 2.12
  53  0.375  0.500  0.550- 248 2.11 159 2.11 181 2.12 168 2.13 177 2.13 183 2.13
  54  0.000  0.625  0.550- 247 2.12 167 2.12 184 2.12 192 2.12 178 2.12 182 2.14
  55  0.375  0.625  0.647- 183 2.09 181 2.10 189 2.12 166 2.12 246 2.13
  56  0.000  0.500  0.648- 184 2.09 245 2.11 165 2.11 182 2.12 158 2.12
  57  0.375  0.750  0.351- 185 2.12 179 2.12 172 2.12 187 2.12 252 2.12
  58  0.000  0.875  0.351- 186 2.12 171 2.12 148 2.12 188 2.12 251 2.12
  59  0.375  0.875  0.450- 191 2.11 187 2.12 185 2.12 145 2.12 170 2.12 250 2.12
  60  0.000  0.750  0.450- 192 2.11 188 2.12 186 2.12 169 2.12 178 2.12 249 2.12
[...]
 242  0.500  0.625  0.450- 114 2.12  99 2.12  51 2.12 116 2.12 124 2.12 118 2.12
 243  0.875  0.625  0.351- 115 2.12  98 2.12 113 2.12  50 2.12 121 2.12
 244  0.500  0.500  0.351- 116 2.12  90 2.12  97 2.12 114 2.12  49 2.12
 245  0.875  0.500  0.650-  56 2.11 119 2.12 104 2.12  95 2.12 117 2.15
 246  0.500  0.626  0.652- 128 2.11 103 2.13  55 2.13 120 2.15 118 2.17
 247  0.875  0.625  0.549- 119 2.10 115 2.11  54 2.12 125 2.12 102 2.12 117 2.12
 248  0.500  0.501  0.550- 118 2.10  53 2.11 101 2.11 116 2.12  94 2.13 120 2.14
 249  0.875  0.750  0.450- 121 2.12 108 2.12 115 2.12  60 2.12 123 2.12 125 2.12
 250  0.500  0.875  0.450- 122 2.12  84 2.12 107 2.12  59 2.12 124 2.12 126 2.12
 251  0.875  0.875  0.351- 123 2.12  81 2.12 106 2.12 121 2.12  58 2.12
 252  0.500  0.750  0.351- 124 2.12 105 2.12 114 2.12 122 2.12  57 2.12
 253  0.875  0.750  0.650-  64 2.11 127 2.11 112 2.12 119 2.12 125 2.14
 254  0.500  0.875  0.650- 128 2.11  88 2.11 111 2.12  63 2.12 126 2.14
 255  0.875  0.875  0.549- 127 2.10 123 2.11  62 2.12  85 2.12 125 2.12 110 2.12
 256  0.500  0.750  0.550- 128 2.09 124 2.12  61 2.12 109 2.12 126 2.12 118 2.12

IMPORTANT INFORMATION: All symmetrisations will be switched off!
NOSYMM: (Re-)initialisation of all symmetry stuff for point group C_1.

                                     Primitive cell

  volume of cell :    6122.6422

  direct lattice vectors                    reciprocal lattice vectors
    16.934285261  0.000000000  0.000000000     0.059051798  0.000000000  0.000000000
     0.000000000 16.934285261  0.000000000     0.000000000  0.059051798  0.000000000
     0.000000000  0.000000000 21.350356973     0.000000000  0.000000000  0.046837624

  length of vectors
    16.934285261 16.934285261 21.350356973     0.059051798  0.059051798  0.046837624

  position of ions in fractional coordinates (direct lattice)
     0.125000000  0.000000000  0.351282183
     0.250000000  0.125000000  0.351282183
     0.125000000  0.125000000  0.450427394
     0.250000000  0.000000000  0.450427394
     0.124976460  0.999995091  0.549662152
     0.249963527  0.125000295  0.549598213
     0.124898938  0.124832303  0.647520932
     0.249821013  0.999907101  0.647494962
     0.125000000  0.250000000  0.351282183
     0.250000000  0.375000000  0.351282183
     0.125000000  0.375000000  0.450427394
     0.250000000  0.250000000  0.450427394
     0.124976666  0.250017933  0.549668808
     0.250388853  0.374968480  0.549914379
     0.124833868  0.375001886  0.647551616
     0.249853559  0.249628296  0.647168623
     0.375000000  0.000000000  0.351282183
     0.000000000  0.125000000  0.351282183
     0.375000000  0.125000000  0.450427394
     0.000000000  0.000000000  0.450427394
     0.375042764  0.999935057  0.549626224
     0.000005717  0.124969241  0.549668640
     0.374635274  0.124826722  0.646828975
     0.000006928  0.999935556  0.647533010
     0.375000000  0.250000000  0.351282183
     0.000000000  0.375000000  0.351282183
     0.375000000  0.375000000  0.450427394
     0.000000000  0.250000000  0.450427394
     0.375471394  0.250339584  0.550251992
     0.000004468  0.375026507  0.549716167
     0.375470488  0.374410050  0.650221597
     0.000012369  0.249876898  0.647516019
     0.125000000  0.500000000  0.351282183
     0.250000000  0.625000000  0.351282183
     0.125000000  0.625000000  0.450427394
     0.250000000  0.500000000  0.450427394
     0.124911611  0.499996615  0.549618992
     0.249980168  0.625089692  0.549591141
     0.124869144  0.625222728  0.647513442
     0.249790272  0.500447719  0.646760090
     0.125000000  0.750000000  0.351282183
     0.250000000  0.875000000  0.351282183
[...]
   4.23323547 10.58544716 11.73396704
   2.11456971 10.58770003 13.82464313
   4.23001972  8.47472444 13.80855880
   2.11678566 12.70071395  7.50000000
   4.23357132 14.81749960  7.50000000
   2.11678566 14.81749960  9.61678566
   4.23357132 12.70071395  9.61678566
   2.11633460 12.70151941 11.73558311
   4.23309001 14.81786392 11.73576645
   2.11487540 14.81825328 13.82500090
   4.22993741 12.70340576 13.82473819
   6.35035697  8.46714263  7.50000000
   0.00000000 10.58392829  7.50000000
   6.35035697 10.58392829  9.61678566
   0.00000000  8.46714263  9.61678566
   6.35574126  8.46001197 11.74688602
   0.00017751 10.58462717 11.73561783
   6.34292744 10.58719945 13.81774373
   0.00006698  8.46988631 13.82527774
   6.35035697 12.70071395  7.50000000
   0.00000000 14.81749960  7.50000000
   6.35035697 14.81749960  9.61678566
   0.00000000 12.70071395  9.61678566
[...]
   8.46714263 10.58392829  9.61678566
  14.81749960 10.58392829  7.50000000
   8.46714263  8.46714263  7.50000000
  14.82124606  8.47126807 13.88076794
   8.46924050 10.60127330 13.91354387
  14.81944450 10.58537590 11.72866960
   8.46605640  8.47784763 11.73750349
  14.81749960 12.70071395  9.61678566
   8.46714263 14.81749960  9.61678566
  14.81749960 14.81749960  7.50000000
   8.46714263 12.70071395  7.50000000
  14.82114498 12.70396702 13.87807751
   8.46743935 14.81760709 13.88173193
  14.81871656 14.81784139 11.72851494
   8.46721498 12.70054012 11.73312055

--------------------------------------- Iteration      FINAL  ---------------------------------------

--------------------OUTCAR has been truncated-------------------------

[...]

--------------------OUTCAR has been truncated-------------------------

  DFT-D2 method for vdW energy calculation

  Parameters of vdW forcefield:
         C6(Jnm^6/mol)     R0(A)
   Mg       0.630          1.243
   O        0.700          1.342

  vdW correction parametrized for the method ìþ      

  IVDW =   1
  VDW_RADIUS =    50.000 A
  VDW_S6 =     1.050
  VDW_SR =     1.000
  VDW_D =    20.000
  LVDW_EWALD = F

  Number of pair interactions contributing to vdW energy: 2843584
  Edisp (eV):  -20.12297

 VOLUME and BASIS-vectors are now :
  energy-cutoff  :      520.00
  volume of cell :     6122.64
      direct lattice vectors                 reciprocal lattice vectors
    16.934285261  0.000000000  0.000000000     0.059051798  0.000000000  0.000000000
     0.000000000 16.934285261  0.000000000     0.000000000  0.059051798  0.000000000
     0.000000000  0.000000000 21.350356973     0.000000000  0.000000000  0.046837624

  length of vectors
    16.934285261 16.934285261 21.350356973     0.059051798  0.059051798  0.046837624

 FORCES acting on ions:
    Electron-Ion                     Ewald-Force                    Non-Local-Force
   -.361E+00 -.353E+00 0.206E+04   0.351E+00 0.342E+00 -.205E+04   0.680E-02 0.725E-02 -.639E+01
   -.793E+00 -.801E+00 0.206E+04   0.779E+00 0.788E+00 -.205E+04   0.950E-02 0.893E-02 -.637E+01
   -.790E+00 -.106E+01 0.684E+03   0.752E+00 0.103E+01 -.684E+03   0.254E-01 0.177E-01 0.270E+00
   -.991E+00 -.749E+00 0.684E+03   0.962E+00 0.711E+00 -.684E+03   0.197E-01 0.259E-01 0.264E+00
   -.729E+00 -.658E+00 -.685E+03   0.705E+00 0.633E+00 0.685E+03   0.150E-01 0.141E-01 -.220E+00
   -.180E+01 -.205E+01 -.684E+03   0.166E+01 0.193E+01 0.684E+03   0.898E-01 0.710E-01 -.152E+00
   0.614E-01 -.132E+01 -.204E+04   -.519E-01 0.131E+01 0.204E+04   -.283E-01 0.444E-02 0.536E+01
   -.121E+01 0.135E+00 -.204E+04   0.122E+01 -.115E+00 0.204E+04   -.103E-01 -.374E-01 0.535E+01
   -.623E+00 -.481E+00 0.206E+04   0.612E+00 0.473E+00 -.205E+04   0.770E-02 0.564E-02 -.638E+01
   -.114E+01 0.233E-01 0.205E+04   0.112E+01 -.233E-01 -.205E+04   0.122E-01 0.183E-03 -.638E+01
   -.152E+01 0.111E+00 0.682E+03   0.154E+01 -.113E+00 -.682E+03   -.675E-02 0.143E-02 0.322E+00
   -.285E+01 -.154E+01 0.682E+03   0.283E+01 0.155E+01 -.682E+03   0.185E-01 -.737E-02 0.318E+00
   -.730E+00 -.161E+01 -.685E+03   0.713E+00 0.160E+01 0.686E+03   -.166E-01 -.233E-02 -.209E+00
   -.227E+01 0.109E+00 -.693E+03   0.239E+01 -.142E+00 0.693E+03   -.193E+00 0.294E-01 0.134E+00
   -.130E+00 -.163E-01 -.204E+04   0.201E+00 0.400E-01 0.203E+04   -.939E-01 -.133E-01 0.525E+01
   0.996E+00 -.398E+01 -.204E+04   -.126E+01 0.380E+01 0.203E+04   0.642E-01 0.164E+00 0.534E+01
   -.502E+00 -.591E+00 0.206E+04   0.494E+00 0.578E+00 -.205E+04   0.596E-02 0.855E-02 -.638E+01
   -.542E-02 -.505E+00 0.206E+04   0.553E-02 0.492E+00 -.205E+04   -.735E-04 0.854E-02 -.639E+01
   -.159E+01 -.291E+01 0.682E+03   0.160E+01 0.288E+01 -.682E+03   -.634E-02 0.193E-01 0.295E+00
   -.875E-02 -.521E+00 0.684E+03   0.970E-02 0.508E+00 -.684E+03   -.592E-03 0.887E-02 0.283E+00
   -.152E+01 -.473E+00 -.685E+03   0.151E+01 0.436E+00 0.685E+03   -.328E-03 0.355E-03 -.198E+00
   -.442E-01 -.137E+01 -.685E+03   0.424E-01 0.132E+01 0.686E+03   0.158E-02 0.332E-01 -.221E+00
   -.381E+01 0.548E+00 -.203E+04   0.365E+01 -.787E+00 0.203E+04   0.135E+00 0.536E-01 0.530E+01
   -.336E-02 -.752E+00 -.204E+04   0.239E-02 0.737E+00 0.204E+04   0.122E-02 0.130E-01 0.540E+01
   -.842E+00 -.835E+00 0.205E+04   0.831E+00 0.824E+00 -.205E+04   0.779E-02 0.798E-02 -.637E+01
   0.123E-01 0.993E-03 0.206E+04   -.125E-01 -.632E-03 -.205E+04   0.178E-03 0.736E-04 -.638E+01
   -.316E+01 0.545E-01 0.678E+03   0.310E+01 -.635E-01 -.679E+03   0.483E-01 0.549E-02 0.470E+00
   -.614E-01 -.850E+00 0.683E+03   0.653E-01 0.829E+00 -.684E+03   -.205E-02 0.141E-01 0.284E+00
   -.295E+01 -.289E+01 -.690E+03   0.305E+01 0.299E+01 0.690E+03   -.153E+00 -.155E+00 -.370E+00
   -.726E-02 0.882E-01 -.686E+03   0.405E-02 -.891E-01 0.686E+03   0.316E-02 -.104E-02 -.248E+00
   0.195E+01 -.238E+01 -.206E+04   -.305E+01 0.223E+01 0.206E+04   0.580E+00 0.196E+00 0.617E+01
   0.431E-01 -.122E+01 -.204E+04   -.590E-01 0.118E+01 0.203E+04   0.107E-01 0.417E-01 0.535E+01
   -.607E+00 0.485E+00 0.206E+04   0.595E+00 -.477E+00 -.205E+04   0.790E-02 -.591E-02 -.638E+01
   -.836E+00 0.755E+00 0.206E+04   0.823E+00 -.740E+00 -.205E+04   0.901E-02 -.103E-01 -.637E+01
   -.782E+00 0.935E+00 0.684E+03   0.746E+00 -.903E+00 -.684E+03   0.245E-01 -.214E-01 0.268E+00
   -.288E+01 0.153E+01 0.682E+03   0.285E+01 -.154E+01 -.683E+03   0.220E-01 0.380E-02 0.280E+00
   -.638E+00 0.165E+01 -.685E+03   0.604E+00 -.163E+01 0.685E+03   0.268E-02 -.144E-02 -.205E+00
   -.226E+01 0.176E+01 -.684E+03   0.213E+01 -.161E+01 0.684E+03   0.817E-01 -.964E-01 -.161E+00
   0.223E-01 0.133E+01 -.204E+04   0.223E-02 -.134E+01 0.204E+04   -.370E-01 0.916E-02 0.536E+01
   0.531E+00 0.406E+01 -.203E+04   -.729E+00 -.394E+01 0.203E+04   0.296E-01 -.117E+00 0.527E+01
   -.382E+00 0.348E+00 0.206E+04   0.373E+00 -.338E+00 -.205E+04   0.643E-02 -.714E-02 -.639E+01
   -.532E+00 0.245E-01 0.206E+04   0.519E+00 -.256E-01 -.205E+04   0.882E-02 0.898E-03 -.639E+01
   -.573E+00 0.213E-01 0.684E+03   0.560E+00 -.209E-01 -.684E+03   0.921E-02 -.329E-03 0.261E+00
   -.115E+01 0.755E+00 0.684E+03   0.112E+01 -.714E+00 -.684E+03   0.172E-01 -.271E-01 0.277E+00
   -.810E+00 0.651E+00 -.685E+03   0.779E+00 -.626E+00 0.685E+03   0.202E-01 -.154E-01 -.222E+00
   -.133E+01 0.154E+00 -.685E+03   0.129E+01 -.152E+00 0.686E+03   0.306E-01 -.333E-02 -.226E+00
   -.847E+00 0.259E-01 -.204E+04   0.826E+00 -.269E-01 0.204E+04   0.204E-01 -.117E-02 0.538E+01
   -.137E+01 0.835E-02 -.204E+04   0.138E+01 -.247E-01 0.204E+04   -.256E-02 0.287E-01 0.536E+01
   -.873E+00 0.802E+00 0.205E+04   0.861E+00 -.790E+00 -.205E+04   0.833E-02 -.833E-02 -.637E+01
   0.918E-02 0.508E+00 0.206E+04   -.931E-02 -.495E+00 -.205E+04   0.902E-04 -.935E-02 -.639E+01
   -.164E+01 0.268E+01 0.682E+03   0.165E+01 -.265E+01 -.682E+03   -.846E-02 -.240E-01 0.317E+00
   0.973E-01 0.860E+00 0.683E+03   -.101E+00 -.836E+00 -.683E+03   0.222E-02 -.161E-01 0.312E+00
   -.305E+01 0.279E+01 -.689E+03   0.313E+01 -.286E+01 0.689E+03   -.130E+00 0.133E+00 -.406E+00
   0.268E-01 0.125E+01 -.685E+03   -.276E-01 -.120E+01 0.686E+03   0.598E-03 -.292E-01 -.224E+00
   -.460E+01 -.742E+00 -.204E+04   0.445E+01 0.988E+00 0.203E+04   0.144E+00 -.577E-01 0.531E+01
   -.593E-01 0.117E+01 -.204E+04   0.711E-01 -.113E+01 0.204E+04   -.634E-02 -.343E-01 0.538E+01
   -.513E+00 0.622E+00 0.206E+04   0.505E+00 -.611E+00 -.205E+04   0.603E-02 -.790E-02 -.638E+01
   -.496E-02 -.397E-02 0.206E+04   0.509E-02 0.368E-02 -.205E+04   -.937E-04 0.529E-03 -.639E+01
   -.887E+00 0.172E+00 0.683E+03   0.865E+00 -.180E+00 -.684E+03   0.145E-01 0.465E-02 0.292E+00
   -.457E-02 0.519E+00 0.684E+03   0.635E-02 -.503E+00 -.685E+03   -.108E-02 -.106E-01 0.255E+00
[...]
   0.363E+00 0.438E+00 0.154E+04   -.355E+00 -.430E+00 -.155E+04   -.786E-02 -.127E-01 0.313E+01
   -.937E-02 0.699E+00 0.154E+04   0.972E-02 -.686E+00 -.155E+04   -.452E-03 -.167E-01 0.315E+01
   0.115E+01 0.115E+01 -.156E+04   -.116E+01 -.121E+01 0.156E+04   -.120E-01 0.439E-01 -.502E+01
   -.218E+00 0.660E+01 -.156E+04   0.301E+00 -.647E+01 0.157E+04   -.104E+00 -.351E+00 -.516E+01
   0.726E+00 0.117E+01 -.507E+03   -.721E+00 -.118E+01 0.507E+03   -.149E-01 0.490E-04 0.251E+00
   -.398E+00 0.348E+01 -.516E+03   0.427E+00 -.351E+01 0.516E+03   -.253E-01 -.983E-01 0.249E+00
   0.455E+00 0.416E+00 0.513E+03   -.450E+00 -.411E+00 -.513E+03   -.495E-02 -.684E-02 -.822E-01
   0.217E-01 0.114E+00 0.512E+03   -.223E-01 -.116E+00 -.512E+03   0.679E-03 -.611E-03 -.565E-01
   0.245E+00 0.467E-03 0.154E+04   -.240E+00 -.881E-03 -.155E+04   -.446E-02 0.288E-02 0.313E+01
   0.165E-01 0.519E+00 0.154E+04   -.169E-01 -.514E+00 -.155E+04   0.457E-03 -.612E-02 0.313E+01
   0.588E+00 0.517E+00 -.156E+04   -.604E+00 -.534E+00 0.156E+04   0.847E-02 0.938E-02 -.492E+01
   -.124E-02 -.763E-01 -.156E+04   0.194E-02 0.728E-01 0.156E+04   -.139E-02 0.951E-02 -.498E+01
   0.664E+00 0.246E-01 -.507E+03   -.671E+00 -.263E-01 0.507E+03   0.207E-02 0.312E-02 0.257E+00
   0.997E-01 0.263E+01 -.509E+03   -.959E-01 -.268E+01 0.509E+03   -.403E-02 0.279E-01 0.320E+00
   -.107E+00 -.119E+00 0.816E+02   0.413E-11 0.831E-12 -.373E-10   0.965E-01 0.797E-01 -.720E+02

 POSITION                                       TOTAL-FORCE (eV/Angst)
      2.11679      0.00000      7.50000        -0.002391     -0.002344      0.509957
      4.23357      2.11679      7.50000        -0.003179     -0.002641      0.505319
      2.11679      2.11679      9.61679        -0.009375     -0.005616     -0.001002
      4.23357      0.00000      9.61679        -0.006638     -0.008966     -0.000895
      2.11639     16.93420     11.73548        -0.007050     -0.009325      0.024665
      4.23295      2.11679     11.73412        -0.040229     -0.038974      0.010409
      2.11507      2.11395     13.82480        -0.020155     -0.002004      0.030470
      4.23054     16.93271     13.82425         0.001344     -0.019511      0.036562
      2.11679      4.23357      7.50000        -0.002251     -0.001706      0.507516
      4.23357      6.35036      7.50000        -0.003930     -0.000214      0.507568
      2.11679      6.35036      9.61679         0.007071     -0.000687      0.007475
      4.23357      4.23357      9.61679         0.000676      0.004380     -0.000197
      2.11639      4.23387     11.73563        -0.031753     -0.008519      0.028609
      4.24016      6.34982     11.74087        -0.084407     -0.000088      0.004908
      2.11397      6.35039     13.82546        -0.029277      0.008831      0.082952
      4.23109      4.22728     13.81728        -0.177418     -0.008074      0.089918
      6.35036      0.00000      7.50000        -0.001792     -0.002671      0.507296
      0.00000      2.11679      7.50000         0.000025     -0.002825      0.509771
      6.35036      2.11679      9.61679         0.004002     -0.000741     -0.005245
      0.00000      0.00000      9.61679         0.000280     -0.002548      0.001394
      6.35108     16.93319     11.73472        -0.014291     -0.033415      0.032308
      0.00010      2.11626     11.73562        -0.000043     -0.006415      0.027308
      6.34418      2.11385     13.81003        -0.011940     -0.167074      0.139129
      0.00012     16.93319     13.82506         0.000340     -0.000760      0.025067
      6.35036      4.23357      7.50000        -0.002969     -0.002684      0.503980
      0.00000      6.35036      7.50000        -0.000053      0.000179      0.506227
      6.35036      6.35036      9.61679        -0.010725     -0.002492     -0.009383
      0.00000      4.23357      9.61679         0.001493     -0.004731     -0.001482
      6.35834      4.23932     11.74808        -0.062552     -0.057531     -0.124631
      0.00008      6.35081     11.73664         0.000243     -0.002088      0.034841
      6.35832      6.34037     13.88246        -0.431030      0.060756     -0.519101
      0.00021      4.23149     13.82470        -0.003864      0.001614      0.042907
      2.11679      8.46714      7.50000        -0.002685      0.001974      0.507393
      4.23357     10.58393      7.50000        -0.003011      0.003792      0.505417
      2.11679     10.58393      9.61679        -0.008608      0.007648      0.000214
      4.23357      8.46714      9.61679        -0.002395     -0.002689     -0.005199
      2.11529      8.46709     11.73456        -0.027817      0.010774      0.035864
      4.23324     10.58545     11.73397        -0.034450      0.037068      0.014671
      2.11457     10.58770     13.82464        -0.015044     -0.004094      0.034077
      4.23002      8.47472     13.80856        -0.154156     -0.008260      0.155902
      2.11679     12.70071      7.50000        -0.001927      0.002471      0.509933
      4.23357     14.81750      7.50000        -0.002878     -0.000475      0.509712
      2.11679     14.81750      9.61679        -0.002722      0.000287      0.002419
      4.23357     12.70071      9.61679        -0.005435      0.010612      0.000372
      2.11633     12.70152     11.73558        -0.008004      0.007292      0.023369
      4.23309     14.81786     11.73577        -0.008439     -0.001787      0.025901
      2.11488     14.81825     13.82500         0.000612     -0.001699      0.022450
      4.22994     12.70341     13.82474         0.004700      0.013787      0.034178
      6.35036      8.46714      7.50000        -0.002755      0.002972      0.503843
      0.00000     10.58393      7.50000        -0.000034      0.003043      0.509684
      6.35036     10.58393      9.61679         0.004620      0.002296      0.002517
      0.00000      8.46714      9.61679        -0.001605      0.005935     -0.001777
      6.35574      8.46001     11.74689        -0.059464      0.066666     -0.115687
      0.00018     10.58463     11.73562        -0.000108      0.009962      0.027785
      6.34293     10.58720     13.81774         0.008760      0.169401      0.097867
      0.00007      8.46989     13.82528         0.004469     -0.001674      0.041328
      6.35036     12.70071      7.50000        -0.002179      0.002648      0.507796
      0.00000     14.81750      7.50000         0.000019      0.000034      0.510554
      6.35036     14.81750      9.61679        -0.005130     -0.002315     -0.000183
      0.00000     12.70071      9.61679         0.000549      0.003701      0.001362
[...]
      8.46714     10.58393      9.61679        -0.001530     -0.010412      0.024902
     14.81750     10.58393      7.50000        -0.000980     -0.005626     -0.392760
      8.46714      8.46714      7.50000        -0.000157     -0.005407     -0.390726
     14.82125      8.47127     13.88077        -0.026671     -0.006169     -0.198548
      8.46924     10.60127     13.91354        -0.036513     -0.281473     -0.312775
     14.81944     10.58538     11.72867        -0.012853     -0.010613     -0.018409
      8.46606      8.47785     11.73750         0.000811     -0.142658      0.137301
     14.81750     12.70071      9.61679        -0.000674     -0.002295      0.000886
      8.46714     14.81750      9.61679         0.000176     -0.002315      0.016143
     14.81750     14.81750      7.50000         0.000151      0.002628     -0.394901
      8.46714     12.70071      7.50000         0.000151     -0.001827     -0.393552
     14.82114     12.70397     13.87808        -0.006873     -0.006420     -0.166129
      8.46744     14.81761     13.88173        -0.000863      0.007946     -0.189552
     14.81872     14.81784     11.72851        -0.004616      0.001628     -0.014935
      8.46721     12.70054     11.73312        -0.000695     -0.020792     -0.021107
    total drift:                                0.000176     -0.023605     -0.157013

  FREE ENERGIE OF THE ION-ELECTRON SYSTEM (eV)
  free  energy   TOTEN  =     -1752.75707161 eV

  energy  without entropy=    -1752.75707161  energy(sigma->0) =    -1752.75707161