 vasp.6.4.2 20Jul23 (build Feb 22 2024 13:53:45) complex
 executed on              LinuxNV date 2024.08.29  07:45:19
 OpenACC runtime initialized ...    4 GPUs detected

 INCAR:
   SYSTEM = Oxide-Surface
   ISMEAR = 0
   SIGMA = 0.05
   EDIFF = 1E-5
   ALGO = Normal
   IBRION = -1
   NSW = 0
   ISYM = 0
   DIPOL = 0.5 0.5 0.5
   IDIPOL = 3
   LDIPOL = .TRUE.
   ISTART = 1
   LHFCALC = .TRUE.
   HFSCREEN = 0.2
   GGA = PE
   HFRCUT = -1
   ENCUT = 520
   PREC = Normal
   PRECFOCK = Normal
   LASPH = .TRUE.
   LREAL = Auto
   ISPIN = 1
   NELM = 200
   NELMIN = 8
   NCORE = 1
   KPAR = 1
   LWAVE = .FALSE.
   LCHARG = .FALSE.

 POTCAR:    PAW_PBE Ti_pv 07Sep2000
 POTCAR:    PAW_PBE O 08Apr2002
 POTCAR:    PAW_PBE Ti_pv 07Sep2000
   VRHFIN =Ti: d3 s1

   TITEL  = PAW_PBE Ti_pv 07Sep2000
   POMASS =   47.880; ZVAL   =   10.000    mass and valenz
   ENMAX  =  222.335; ENMIN  =  166.751 eV

   TITEL  = PAW_PBE O 08Apr2002
   POMASS =   16.000; ZVAL   =    6.000    mass and valenz
   ENMAX  =  400.000; ENMIN  =  300.000 eV

 Optimization of the real space projectors (new method)

 maximal supplied QI-value         = 15.12
 optimisation between [QCUT,QGAM] = [ 11.64, 23.28] = [ 37.95,151.78] Ry
 Optimized for a Real-space Cutoff    1.45 Angstroem

   l    n(q)    QCUT    max X(q) W(low)/X(q) W(high)/X(q)  e(spline)
   1     10    11.641     4.216    0.33E-04    0.72E-04    0.48E-07
   1     10    11.641     5.422    0.11E-03    0.20E-03    0.10E-06
   2      9    11.641    72.084    0.36E-03    0.27E-03    0.57E-06
   2      9    11.641    65.965    0.35E-03    0.27E-03    0.57E-06
   0     10    11.641    41.531    0.11E-03    0.93E-04    0.16E-06
   0     10    11.641    16.290    0.82E-04    0.72E-04    0.13E-06
 Optimization of the real space projectors (new method)

 maximal supplied QI-value         = 24.76
 optimisation between [QCUT,QGAM] = [ 11.64, 23.27] = [ 37.91,151.63] Ry
 Optimized for a Real-space Cutoff    1.04 Angstroem

   l    n(q)    QCUT    max X(q) W(low)/X(q) W(high)/X(q)  e(spline)
   0      7    11.635    20.381    0.14E-03    0.49E-03    0.18E-06
   0      7    11.635    15.268    0.16E-03    0.52E-03    0.19E-06
   1      7    11.635     5.964    0.30E-03    0.44E-03    0.22E-06
   1      7    11.635     5.382    0.27E-03    0.34E-03    0.19E-06
  PAW_PBE Ti_pv 07Sep2000               :
  PAW_PBE O 08Apr2002                   :

 POSCAR: Ti  O
  positions in direct lattice
 exchange correlation table for  LEXCH =        8
   RHO(1)=    0.500       N(1)  =     2000
   RHO(2)=  100.500       N(2)  =     4000

 ion  position               nearest neighbor table
   1  0.808  0.916  0.247-  53 1.94  51 1.94  85 1.94  52 1.99  50 1.99   2 3.05   4 3.05  18 3.05

   2  0.592  0.749  0.282-  49 1.94  52 1.94  54 1.94 116 1.94  53 1.99  55 1.99   1 3.05   3 3.05
                            33 3.05   7 3.08
   3  0.308  0.749  0.247-  57 1.94  55 1.94 121 1.94  56 1.99  49 1.99   4 3.05   2 3.05  36 3.05

   4  0.092  0.916  0.282-  50 1.94  56 1.94  58 1.94  88 1.94  57 1.99  51 1.99   3 3.05   1 3.05
                            19 3.05   5 3.08
   5  0.945  0.916  0.390-  59 1.92  93 1.93  61 1.94  51 1.98  60 1.98  58 2.00   8 2.99   6 3.04
                            22 3.05   4 3.08
   6  0.727  0.749  0.421-  54 1.89 124 1.93  60 1.94  62 1.96  63 1.99  61 2.00   7 3.01   5 3.04
                            37 3.05  11 3.10
   7  0.444  0.749  0.390-  63 1.93 129 1.93  65 1.93  55 1.97  64 1.99  54 2.00   6 3.01   8 3.05
                            40 3.05   2 3.08
   8  0.226  0.916  0.422-  58 1.90  96 1.94  64 1.94  59 1.97  66 1.97  65 2.01   5 2.99  23 3.05
                             7 3.05   9 3.11
   9  0.086  0.916  0.532-  67 1.92 101 1.93  69 1.94  68 1.97  66 2.01  59 2.01  12 2.95  10 3.04
                            26 3.05   8 3.11
  10  0.865  0.749  0.560-  62 1.86 132 1.93  68 1.94  71 1.95  69 2.01  70 2.01  11 2.98   9 3.04
                            41 3.05  15 3.17
  11  0.584  0.749  0.531- 137 1.93  71 1.93  73 1.93  63 1.97  72 1.98  62 2.02  10 2.98  12 3.05
                            44 3.06   6 3.10
  12  0.364  0.916  0.562-  66 1.86 104 1.94  72 1.94  67 1.95  74 2.00  73 2.02   9 2.95  27 3.05
                            11 3.05
  13  0.231  0.915  0.678-  75 1.86  77 1.93 109 1.94  76 2.00  74 2.10  67 2.10  16 2.85  30 3.07
                            14 3.09
  14  0.000  0.749  0.700-  70 1.78  78 1.84 140 1.97  76 1.98  77 2.07  15 2.86  13 3.09  45 3.10

[...]

  17  0.808  0.249  0.247-  85 1.94 117 1.94  83 1.94  84 1.99  82 1.99  34 3.05  18 3.05  20 3.05

[...]

  36  0.092  0.583  0.282- 114 1.94 120 1.94 122 1.94  56 1.94 121 1.99 115 1.99  35 3.05  33 3.05
                             3 3.05  37 3.07
  37  0.946  0.583  0.389- 123 1.93  61 1.93 125 1.94 115 1.97 122 1.98 124 2.00  40 2.99  38 3.05
                             6 3.05  36 3.07
  38  0.727  0.417  0.421- 118 1.89 124 1.93  92 1.94 126 1.96 127 1.99 125 2.00  39 3.01  21 3.04
                            37 3.05  43 3.10
  39  0.444  0.416  0.389- 127 1.93 129 1.93  97 1.93 119 1.97 128 1.99 118 2.01  38 3.01  24 3.05
                            40 3.05  34 3.08
  40  0.226  0.583  0.423- 122 1.92 128 1.94  64 1.94 123 1.96 130 1.97 129 2.01  37 2.99  39 3.05
                             7 3.05  41 3.07
  41  0.089  0.583  0.533- 131 1.92  69 1.93 133 1.93 130 1.98 132 2.00 123 2.01  44 2.96  42 3.05
                            10 3.05  40 3.07
  42  0.865  0.417  0.560- 126 1.86 132 1.93 100 1.94 135 1.95 133 2.01 134 2.01  43 2.98  25 3.04
                            41 3.05  47 3.16
  43  0.584  0.416  0.531- 137 1.93 135 1.93 105 1.93 127 1.97 136 1.98 126 2.02  42 2.98  28 3.05
                            44 3.06  38 3.10
  44  0.366  0.583  0.565- 130 1.92  72 1.94 136 1.94 131 1.94 138 2.00 137 2.03  41 2.96  43 3.06
                            11 3.06  45 3.14
  45  0.234  0.583  0.678- 139 1.86 141 1.93  77 1.93 140 2.03 138 2.05 131 2.10  48 2.87  14 3.10
                            46 3.10  44 3.14
  46  1.000  0.417  0.700- 134 1.78 142 1.84 140 1.97 108 1.98 141 2.07  47 2.86  29 3.09  45 3.10

  47  0.729  0.417  0.673- 142 1.90 144 1.92 112 1.94 143 1.99 135 2.03 134 2.10  46 2.86  32 3.08
                            48 3.08  42 3.16
  48  0.505  0.583  0.707- 139 1.82 138 1.86 143 1.98  79 1.98 144 2.11  45 2.87  47 3.08  15 3.08

  49  0.488  0.749  0.218-   2 1.94   3 1.99
  50  0.988  0.916  0.218-   4 1.94   1 1.99
  51  0.911  0.916  0.312-   1 1.94   5 1.98   4 1.99
  52  0.627  0.916  0.277-   2 1.94  18 1.94   1 1.99
  53  0.772  0.749  0.253-   1 1.94  33 1.94   2 1.99
  54  0.624  0.749  0.359-   6 1.89   2 1.94   7 2.00
  55  0.411  0.749  0.312-   3 1.94   7 1.97   2 1.99
  56  0.127  0.749  0.277-   4 1.94  36 1.94   3 1.99
  57  0.272  0.916  0.253-   3 1.94  19 1.94   4 1.99
  58  0.124  0.916  0.359-   8 1.90   4 1.94   5 2.00
  59  0.049  0.916  0.453-   5 1.92   8 1.97   9 2.01
  60  0.764  0.916  0.417-  22 1.94   6 1.94   5 1.98
  61  0.910  0.749  0.394-  37 1.93   5 1.94   6 2.00
  62  0.764  0.749  0.498-  10 1.86   6 1.96  11 2.02
  63  0.549  0.749  0.453-   7 1.93  11 1.97   6 1.99
  64  0.264  0.749  0.418-  40 1.94   8 1.94   7 1.99
  65  0.409  0.916  0.394-   7 1.93  23 1.93   8 2.01
  66  0.264  0.916  0.499-  12 1.86   8 1.97   9 2.01
  67  0.193  0.916  0.595-   9 1.92  12 1.95  13 2.10
  68  0.904  0.916  0.557-  26 1.94  10 1.94   9 1.97
  69  0.052  0.749  0.535-  41 1.93   9 1.94  10 2.01
  70  0.914  0.751  0.638-  14 1.78  10 2.01  15 2.10
  71  0.694  0.752  0.594-  11 1.93  10 1.95  15 2.03
  72  0.405  0.749  0.560-  44 1.94  12 1.94  11 1.98
  73  0.549  0.916  0.535-  27 1.93  11 1.93  12 2.02
  74  0.413  0.917  0.639-  16 1.78  12 2.00  13 2.10
  75  0.347  0.916  0.735-  16 1.84  13 1.86
  76  0.052  0.916  0.709-  30 1.98  14 1.98  13 2.00
  77  0.195  0.749  0.678-  13 1.93  45 1.93  14 2.07
  78  0.841  0.744  0.734-  14 1.84  15 1.89
  79  0.554  0.751  0.708-  16 1.97  48 1.98  15 1.99
  80  0.695  0.917  0.676-  31 1.93  15 1.94  16 2.06
  81  0.488  0.083  0.218-  18 1.94  19 1.99
  82  0.988  0.249  0.218-  20 1.94  17 1.99
  83  0.911  0.249  0.312-  17 1.94  21 1.98  20 1.99
  84  0.627  0.249  0.277-  18 1.94  34 1.94  17 1.99
  85  0.772  0.083  0.253-  17 1.94   1 1.94  18 1.99
  86  0.624  0.083  0.359-  22 1.89  18 1.94  23 2.00
  87  0.411  0.083  0.312-  19 1.94  23 1.98  18 1.99
  88  0.127  0.083  0.277-  20 1.94   4 1.94  19 1.99
  89  0.272  0.249  0.253-  19 1.94  35 1.94  20 1.99
  90  0.124  0.249  0.359-  24 1.90  20 1.94  21 2.00
  91  0.049  0.249  0.453-  21 1.92  24 1.97  25 2.01
  92  0.764  0.249  0.417-  22 1.94  38 1.94  21 1.98
  93  0.909  0.083  0.394-   5 1.93  21 1.93  22 2.00
  94  0.764  0.083  0.499-  26 1.86  22 1.97  27 2.01
  95  0.549  0.083  0.453-  23 1.92  22 1.98  27 2.00
  96  0.264  0.083  0.418-  24 1.94   8 1.94  23 1.99
  97  0.409  0.249  0.394-  39 1.93  23 1.93  24 2.01
  98  0.264  0.250  0.499-  28 1.86  24 1.97  25 2.01
  99  0.193  0.250  0.595-  25 1.92  28 1.95  29 2.10
 100  0.904  0.249  0.557-  26 1.94  42 1.94  25 1.97
 101  0.051  0.083  0.536-   9 1.93  25 1.93  26 2.03
 102  0.913  0.083  0.639-  30 1.78  26 2.01  31 2.09
 103  0.693  0.083  0.594-  27 1.92  26 1.94  31 2.09
 104  0.404  0.083  0.559-  12 1.94  28 1.94  27 1.98
 105  0.549  0.249  0.535-  27 1.93  43 1.93  28 2.02
 106  0.412  0.248  0.639-  32 1.78  28 2.00  29 2.10
 107  0.347  0.250  0.735-  32 1.84  29 1.86
 108  0.052  0.250  0.709-  30 1.98  46 1.98  29 2.00
[...]
 130  0.266  0.583  0.501-  44 1.92  40 1.97  41 1.98
 131  0.193  0.583  0.596-  41 1.92  44 1.94  45 2.10
 132  0.904  0.583  0.558-  42 1.93  10 1.93  41 2.00
 133  0.052  0.416  0.535-  41 1.93  25 1.94  42 2.01
 134  0.914  0.415  0.638-  46 1.78  42 2.01  47 2.10
 135  0.694  0.414  0.594-  43 1.93  42 1.95  47 2.03
 136  0.405  0.416  0.560-  44 1.94  28 1.94  43 1.98
 137  0.551  0.583  0.536-  43 1.93  11 1.93  44 2.03
 138  0.413  0.583  0.642-  48 1.86  44 2.00  45 2.05
 139  0.345  0.583  0.738-  48 1.82  45 1.86
 140  0.052  0.583  0.709-  46 1.97  14 1.97  45 2.03
 141  0.195  0.417  0.678-  29 1.93  45 1.93  46 2.07
 142  0.841  0.422  0.734-  46 1.84  47 1.90
 143  0.554  0.415  0.708-  32 1.97  48 1.98  47 1.99
 144  0.693  0.583  0.672-  15 1.92  47 1.92  48 2.11

IMPORTANT INFORMATION: All symmetrisations will be switched off!
NOSYMM: (Re-)initialisation of all symmetry stuff for point group C_1.

                                     Primitive cell

  volume of cell :    2920.0096

  direct lattice vectors                    reciprocal lattice vectors
    10.273755933  0.000000000  0.000000000     0.097335386 -0.000000000  0.000000000
     0.000000000 11.368810418  0.000000000     0.000000000  0.087959950  0.000000000
     0.000000000  0.000000000 25.000000000     0.000000000  0.000000000  0.040000000

  length of vectors
    10.273755933 11.368810418 25.000000000     0.097335386  0.087959950  0.040000000

  position of ions in fractional coordinates (direct lattice)
     0.807824645  0.915977663  0.247143925
     0.591839534  0.749310996  0.282367682
[...]
   0.469E+01 -.119E+00 0.243E+04   -.652E+01 0.125E+00 -.244E+04   0.313E-01 -.586E-02 0.582E-01   -.485E-04 -.935E-05 0.433E-01
   0.703E+01 0.182E+00 0.298E+04   -.160E+01 -.182E+00 -.297E+04   -.130E+01 -.847E-02 -.372E+01   0.129E-03 -.152E-04 0.458E-01
   0.301E+01 0.169E+00 0.243E+04   -.490E+01 -.174E+00 -.244E+04   0.440E-01 0.118E-01 0.472E-01   -.293E-04 -.814E-05 0.433E-01
   0.385E-01 0.240E+00 0.110E+04   -.231E+00 -.234E+00 -.110E+04   0.154E+00 0.407E-03 -.166E-01   -.202E-04 -.390E-06 0.298E-01
   0.187E+01 -.146E+01 0.687E+03   -.184E+01 0.143E+01 -.687E+03   -.341E-01 0.330E-01 -.944E-01   0.474E-04 -.747E-06 0.242E-01
   0.168E+01 0.655E-01 0.110E+04   -.184E+01 -.745E-01 -.110E+04   0.150E+00 -.238E-02 -.354E-01   -.279E-04 -.302E-05 0.298E-01
   -.665E+01 0.904E+00 0.678E+03   0.665E+01 -.899E+00 -.678E+03   0.417E-01 0.129E-01 -.626E-01   0.586E-04 -.250E-05 0.240E-01
   -.522E+01 0.195E+00 -.718E+03   0.488E+01 -.183E+00 0.718E+03   0.282E+00 -.197E-01 0.523E-01   -.389E-04 -.400E-05 0.900E-03
   -.914E+01 0.308E+00 -.106E+04   0.922E+01 -.259E+00 0.106E+04   0.750E-02 -.122E-01 -.161E+00   0.301E-04 -.740E-05 -.584E-02
   0.179E+01 0.186E+01 -.693E+03   -.199E+01 -.183E+01 0.693E+03   0.247E+00 0.100E-01 0.351E-01   -.731E-04 -.211E-05 0.120E-02
   -.435E+01 0.244E+01 -.109E+04   0.441E+01 -.237E+01 0.109E+04   0.105E-01 -.329E-01 -.173E+00   -.432E-05 -.109E-04 -.621E-02
   0.228E+02 -.157E+01 -.247E+04   -.238E+02 0.158E+01 0.247E+04   0.892E+00 0.111E-01 -.347E+00   0.536E-04 -.647E-04 -.342E-01
   -.669E+02 -.875E+01 -.283E+04   0.660E+02 0.850E+01 0.283E+04   0.477E+00 0.198E+00 0.104E+01   -.332E-04 -.747E-04 -.393E-01
   0.104E+02 -.744E+01 -.244E+04   -.106E+02 0.754E+01 0.244E+04   0.699E+00 0.401E-02 -.231E+00   -.145E-04 -.530E-04 -.330E-01
   -.729E+02 -.273E+01 -.283E+04   0.725E+02 0.294E+01 0.283E+04   0.430E+00 -.463E-01 0.107E+01   -.119E-03 -.741E-04 -.394E-01
   0.710E+01 0.316E-01 0.298E+04   -.163E+01 -.372E-01 -.297E+04   -.131E+01 -.747E-02 -.373E+01   0.112E-03 0.136E-04 0.458E-01
   0.460E+01 0.205E-01 0.243E+04   -.647E+01 -.211E-01 -.244E+04   0.412E-01 0.545E-02 0.455E-01   -.467E-04 0.205E-06 0.433E-01
   0.690E+01 0.101E-01 0.298E+04   -.144E+01 -.104E-01 -.297E+04   -.131E+01 0.225E-02 -.373E+01   0.132E-03 0.308E-06 0.458E-01
   0.302E+01 -.134E+00 0.243E+04   -.491E+01 0.136E+00 -.244E+04   0.426E-01 -.492E-02 0.548E-01   -.283E-04 0.735E-05 0.433E-01
   -.792E-01 -.364E+00 0.110E+04   -.108E+00 0.350E+00 -.110E+04   0.157E+00 0.680E-02 -.135E-01   -.203E-04 0.485E-06 0.298E-01
   -.185E+01 0.462E-02 0.683E+03   0.183E+01 -.771E-02 -.683E+03   0.389E-01 -.107E-02 -.936E-01   0.514E-04 -.135E-06 0.241E-01
   0.181E+01 -.358E-01 0.110E+04   -.198E+01 0.334E-01 -.110E+04   0.141E+00 -.877E-03 -.408E-01   -.264E-04 0.357E-08 0.298E-01
   -.657E+01 -.755E+00 0.678E+03   0.657E+01 0.751E+00 -.678E+03   0.321E-01 0.977E-02 -.958E-01   0.589E-04 0.262E-05 0.241E-01
   -.542E+01 -.287E+00 -.717E+03   0.508E+01 0.269E+00 0.717E+03   0.289E+00 0.300E-01 0.514E-01   -.386E-04 0.404E-05 0.903E-03
   -.932E+01 0.105E-01 -.108E+04   0.934E+01 -.959E-02 0.108E+04   0.738E-01 0.766E-02 -.145E+00   0.453E-05 -.345E-06 -.602E-02
   -.153E+01 -.689E-02 -.707E+03   0.126E+01 0.559E-02 0.707E+03   0.272E+00 0.182E-01 0.931E-01   -.601E-04 -.845E-08 0.104E-02
   -.426E+01 -.250E+01 -.109E+04   0.432E+01 0.243E+01 0.109E+04   0.867E-02 0.391E-01 -.164E+00   -.494E-05 0.111E-04 -.621E-02
   0.231E+02 0.110E+01 -.247E+04   -.241E+02 -.112E+01 0.248E+04   0.905E+00 -.286E-01 -.341E+00   0.529E-04 0.647E-04 -.342E-01
   -.701E+02 -.234E+00 -.283E+04   0.696E+02 0.235E+00 0.283E+04   0.403E+00 -.508E-02 0.103E+01   -.773E-04 -.289E-06 -.394E-01
   0.148E+02 -.298E-01 -.247E+04   -.155E+02 0.342E-01 0.247E+04   0.798E+00 -.252E-02 -.291E+00   -.179E-04 -.815E-06 -.339E-01
   -.733E+02 0.290E+01 -.283E+04   0.729E+02 -.312E+01 0.283E+04   0.417E+00 0.527E-01 0.107E+01   -.122E-03 0.738E-04 -.394E-01
   0.710E+01 -.295E-02 0.298E+04   -.163E+01 0.361E-02 -.297E+04   -.131E+01 0.207E-02 -.372E+01   0.109E-03 -.341E-06 0.458E-01
   0.468E+01 0.130E+00 0.243E+04   -.651E+01 -.136E+00 -.244E+04   0.322E-01 0.122E-01 0.504E-01   -.471E-04 0.882E-05 0.433E-01
   0.703E+01 -.189E+00 0.298E+04   -.161E+01 0.190E+00 -.297E+04   -.131E+01 0.642E-02 -.373E+01   0.129E-03 0.148E-04 0.458E-01
   0.201E+01 0.122E-01 0.243E+04   -.384E+01 -.126E-01 -.244E+04   0.260E-01 0.551E-02 0.540E-01   -.221E-04 0.546E-08 0.433E-01
   0.910E+00 -.602E-01 0.110E+04   -.109E+01 0.593E-01 -.110E+04   0.124E+00 -.127E-02 0.431E-01   -.230E-04 0.164E-06 0.298E-01
   0.210E+01 0.143E+01 0.687E+03   -.206E+01 -.141E+01 -.687E+03   -.734E-02 -.289E-01 -.893E-01   0.471E-04 0.538E-06 0.242E-01
   0.156E+01 -.165E+00 0.110E+04   -.172E+01 0.170E+00 -.110E+04   0.143E+00 -.956E-02 -.432E-01   -.278E-04 0.307E-05 0.298E-01
   -.952E+01 0.772E-01 0.662E+03   0.953E+01 -.751E-01 -.662E+03   0.230E-01 0.937E-02 0.409E-02   0.604E-04 -.194E-06 0.238E-01
   -.189E+01 -.214E-01 -.724E+03   0.156E+01 0.197E-01 0.724E+03   0.189E+00 -.513E-02 0.104E+00   -.327E-04 0.152E-06 0.867E-03
   -.893E+01 -.445E+00 -.106E+04   0.901E+01 0.393E+00 0.106E+04   0.260E-01 0.103E-01 -.146E+00   0.313E-04 0.819E-05 -.583E-02
   0.175E+01 -.183E+01 -.693E+03   -.194E+01 0.180E+01 0.693E+03   0.238E+00 -.782E-03 0.500E-01   -.737E-04 0.235E-05 0.121E-02
   -.829E+01 0.205E+00 -.113E+04   0.829E+01 -.202E+00 0.113E+04   0.124E-01 -.140E-01 0.920E-01   -.838E-05 -.278E-06 -.697E-02
   0.267E+02 0.935E-01 -.248E+04   -.280E+02 -.941E-01 0.248E+04   0.779E+00 -.773E-02 -.207E+00   0.592E-04 0.401E-06 -.342E-01
   -.665E+02 0.912E+01 -.283E+04   0.656E+02 -.886E+01 0.283E+04   0.491E+00 -.174E+00 0.105E+01   -.316E-04 0.749E-04 -.393E-01
   0.980E+01 0.791E+01 -.244E+04   -.996E+01 -.800E+01 0.244E+04   0.705E+00 -.840E-02 -.226E+00   -.149E-04 0.535E-04 -.330E-01
   -.858E+02 -.607E-02 -.292E+04   0.841E+02 0.239E-01 0.291E+04   0.984E+00 0.229E-02 0.262E+01   -.217E-03 0.585E-06 -.409E-01
   -.317E+02 0.349E-02 0.201E+04   0.370E+02 -.174E-02 -.203E+04   -.639E+01 -.441E-02 0.167E+02   -.604E-04 -.123E-04 0.286E-01
   -.320E+02 0.435E-02 0.201E+04   0.373E+02 -.512E-02 -.203E+04   -.640E+01 0.127E-02 0.167E+02   -.553E-04 -.115E-04 0.286E-01
   0.814E+02 0.162E+00 0.121E+04   -.863E+02 -.186E+00 -.120E+04   0.365E+01 0.212E-01 -.417E+01   0.116E-04 -.310E-05 0.243E-01
   0.744E+02 -.300E-01 0.148E+04   -.819E+02 0.348E-01 -.147E+04   0.711E+01 -.105E-02 -.254E+01   -.259E-04 -.646E-05 0.263E-01
   -.858E+02 -.595E-01 0.171E+04   0.934E+02 0.609E-01 -.171E+04   -.656E+01 0.987E-03 -.239E+00   0.193E-04 -.681E-05 0.274E-01
   -.684E+02 -.664E+00 0.929E+03   0.742E+02 0.697E+00 -.933E+03   -.532E+01 -.286E-01 0.412E+01   -.405E-05 -.214E-05 0.208E-01
   0.821E+02 0.166E+00 0.121E+04   -.870E+02 -.156E+00 -.120E+04   0.361E+01 -.124E-01 -.398E+01   0.802E-05 -.432E-05 0.243E-01
   0.733E+02 0.115E+00 0.148E+04   -.808E+02 -.120E+00 -.147E+04   0.712E+01 0.144E-01 -.255E+01   -.162E-04 -.156E-04 0.263E-01
   -.861E+02 0.651E-01 0.171E+04   0.936E+02 -.613E-01 -.171E+04   -.654E+01 -.858E-02 -.244E+00   0.299E-04 -.941E-05 0.274E-01
   -.735E+02 0.478E+00 0.930E+03   0.797E+02 -.502E+00 -.934E+03   -.551E+01 0.332E-01 0.423E+01   0.501E-05 -.204E-05 0.208E-01
   0.782E+02 -.181E+00 0.119E+03   -.851E+02 0.195E+00 -.114E+03   0.618E+01 -.188E-01 -.495E+01   -.138E-04 -.156E-06 0.109E-01
   0.802E+02 0.232E+00 0.412E+03   -.872E+02 -.296E+00 -.408E+03   0.629E+01 0.503E-01 -.287E+01   0.497E-05 -.703E-06 0.150E-01
[...]
   0.854E+02 -.275E-01 -.981E+03   -.928E+02 0.374E-01 0.989E+03   0.679E+01 -.245E-02 -.701E+01   -.133E-04 -.133E-06 -.867E-02
   0.719E+02 -.156E+00 -.657E+03   -.781E+02 0.172E+00 0.660E+03   0.567E+01 -.132E-01 -.308E+01   0.175E-04 0.122E-06 -.312E-02
   -.815E+02 -.334E+00 -.419E+03   0.883E+02 0.239E+00 0.416E+03   -.605E+01 0.105E+00 0.262E+01   0.227E-04 0.503E-05 0.138E-03
   -.603E+02 0.681E+01 -.114E+04   0.629E+02 -.750E+01 0.113E+04   -.247E+01 0.614E+00 0.903E+01   0.121E-03 0.184E-04 -.146E-01
   0.819E+02 0.869E+01 -.948E+03   -.885E+02 -.952E+01 0.954E+03   0.583E+01 0.767E+00 -.543E+01   -.498E-04 0.430E-06 -.832E-02
   0.775E+02 -.108E+01 -.672E+03   -.842E+02 0.897E+00 0.675E+03   0.601E+01 0.209E+00 -.315E+01   -.140E-04 0.133E-04 -.333E-02
   -.733E+02 -.481E-01 -.427E+03   0.797E+02 0.538E-01 0.425E+03   -.584E+01 -.108E-01 0.220E+01   -.137E-04 0.615E-06 0.127E-04
   -.697E+02 -.390E+00 -.118E+04   0.746E+02 0.433E+00 0.117E+04   -.420E+01 -.485E-01 0.793E+01   0.912E-05 -.106E-06 -.153E-01
   0.596E+02 0.120E+00 -.203E+04   -.668E+02 -.116E+00 0.205E+04   0.681E+01 -.242E-03 -.196E+02   0.179E-03 0.234E-06 -.292E-01
   0.557E+02 0.536E-01 -.179E+04   -.599E+02 -.514E-01 0.180E+04   0.396E+01 -.530E-02 -.732E+01   -.672E-04 -.844E-06 -.251E-01
   -.533E+02 0.948E+00 -.147E+04   0.581E+02 -.896E+00 0.147E+04   -.421E+01 0.286E-01 0.292E+01   -.396E-04 0.511E-04 -.205E-01
   0.518E+02 -.495E+01 -.202E+04   -.584E+02 0.615E+01 0.205E+04   0.613E+01 -.120E+01 -.200E+02   0.187E-03 0.726E-04 -.287E-01
   0.567E+02 0.159E+01 -.178E+04   -.615E+02 -.205E+01 0.179E+04   0.421E+01 0.872E+00 -.602E+01   -.127E-03 0.306E-04 -.249E-01
   -.427E+02 -.254E-02 -.141E+04   0.467E+02 -.902E-02 0.140E+04   -.389E+01 0.649E-02 0.575E+01   -.358E-04 0.178E-06 -.195E-01
   -.178E+02 0.167E-01 0.696E+02   -.298E-12 0.128E-11 0.227E-11   0.173E+02 0.720E-01 -.630E+02   0.311E-03 -.700E-06 0.839E+00

 POSITION                                       TOTAL-FORCE (eV/Angst)
      8.29939     10.41358      6.17860         4.293069      0.007796      2.047534
      6.08041      8.51877      7.05919        -1.862976      0.001971     -2.172160
      3.16252      8.51877      6.17860         4.258168     -0.003006      2.022977
      0.94354     10.41358      7.05919        -1.907467      0.000591     -2.174584
      9.70823     10.41653      9.74251        -0.020215      0.007738     -0.020177
      7.46699      8.51530     10.53688        -0.004293     -0.003802      0.000028
      4.56332      8.51729      9.73765        -0.009945     -0.003524     -0.018430
      2.31709     10.41383     10.55258        -0.007605      0.009322     -0.007500
      0.88600     10.41929     13.30855        -0.026141      0.013733      0.023251
      8.89080      8.51622     14.00205         0.010235      0.012681      0.104889
      6.00380      8.51968     13.27519         0.046208      0.026199      0.007635
      3.73988     10.41619     14.04341        -0.021439      0.041184      0.002699
      2.37439     10.40804     16.94761         0.040794      0.030049      0.290026
      0.00080      8.51036     17.49226        -0.656749     -0.060564      0.171437
      7.48737      8.50941     16.84011         0.591615      0.075335      0.694300
      5.17150     10.42543     17.49800        -0.295827      0.160956     -0.036190
      8.29939      2.83437      6.17860         4.293825     -0.007508      2.047408
      6.08041      0.93957      7.05919        -1.889643     -0.000008     -2.167933
      3.16252      0.93957      6.17860         4.284861     -0.000987      2.040888
      0.94354      2.83437      7.05919        -1.906656     -0.000151     -2.174739
      9.70793      2.83400      9.74246        -0.015582     -0.010337     -0.019566
      7.45859      0.94078     10.54238        -0.007627     -0.003680     -0.003150
      4.56525      0.94027      9.74200        -0.009619     -0.002654     -0.014732
      2.31721      2.83557     10.55224        -0.010420     -0.007037     -0.010368
      0.88573      2.83383     13.30815        -0.023829     -0.012165      0.024162
      8.87573      0.94206     14.02068        -0.009622      0.000254      0.046681
      6.01072      0.94145     13.29279         0.016742      0.000690      0.021353
      3.73962      2.83538     14.04328        -0.023431     -0.041303      0.000782
      2.37419      2.84586     16.94741         0.035314     -0.028568      0.288400
      0.02814      0.94277     17.49234        -0.329130     -0.000926      0.004640
      7.52107      0.94159     16.91601         0.190393      0.000280      0.315258
      5.17113      2.82595     17.49748        -0.295753     -0.168940     -0.046208
      8.29939      6.62397      6.17860         4.298326     -0.000168      2.037601
      6.08041      4.72917      7.05919        -1.861578     -0.000581     -2.171604
      3.16252      4.72917      6.17860         4.255801      0.003809      2.021210
      0.94354      6.62397      7.05919        -1.871340      0.000326     -2.115445
      9.72353      6.62543      9.73659        -0.027044     -0.001297     -0.041442
      7.46737      4.73521     10.53664        -0.002686      0.004468      0.002786
      4.56309      4.73221      9.73742        -0.009834      0.001054     -0.020161
      2.32131      6.62471     10.58159        -0.010020      0.001096     -0.055480
      0.91630      6.62697     13.31408        -0.082055     -0.003121     -0.029018
      8.89170      4.73694     14.00116         0.011704     -0.015111      0.110698
      6.00310      4.73197     13.27426         0.049903     -0.022003      0.009597
      3.76120      6.62596     14.12670        -0.069805     -0.001992     -0.287695
      2.40893      6.62656     16.96081        -0.372789     -0.003385      0.113498
     10.27296      4.74371     17.49310        -0.683320      0.064189      0.178322
      7.48577      4.74301     16.83609         0.617581     -0.071736      0.718889
      5.19016      6.62568     17.66659        -0.998917      0.015276     -1.906720
      5.01582      8.51877      5.44312        -2.110555     -0.002305      1.557054
     10.15269     10.41358      5.44312        -2.116329      0.000849      1.550785
      9.36399     10.41358      7.79467        -0.819368      0.000887     -0.348492
      6.44609     10.41358      6.91407         0.708851      0.001673     -0.217658
      7.93372      8.51877      6.32372         0.030725      0.001330     -1.116523
      6.41366      8.51877      8.96550        -0.306289      0.002189      0.590243
      4.22711      8.51877      7.79467        -0.833466     -0.003154     -0.322684
      1.30921      8.51877      6.91407         0.713290      0.010683     -0.223723
      2.79684     10.41358      6.32372         0.038957     -0.005857     -1.119602
      1.27678     10.41358      8.96550        -0.215419      0.010301      0.662095
      0.50823     10.41679     11.33652         0.262589     -0.005582     -0.183664
      7.84864     10.41418     10.43341         0.258150     -0.002562     -0.105710
[...]
      2.72817      6.62525     12.51382        -0.215893     -0.002914      0.242093
      1.98527      6.62686     14.90732         0.373747      0.004054     -0.151004
      9.29033      6.62630     13.95045         0.259193      0.000830     -0.120108
      0.52926      4.73423     13.38365        -0.242320      0.025636      0.090403
      9.38611      4.71719     15.95241        -0.199869      0.021276      0.166572
      7.13042      4.70139     14.84234         0.182882      0.043771     -0.249233
      4.15814      4.73323     13.99082         0.229727      0.061799     -0.087502
      5.65798      6.62575     13.40584        -0.283829     -0.005295      0.111208
      4.24724      6.62769     16.06170         0.120615     -0.009781      0.940083
      3.54223      6.62603     18.44083         0.724279      0.001138     -0.401030
      0.52923      6.62674     17.72076         0.352120     -0.001925     -0.234188
      1.99958      4.73727     16.95421        -0.093062      0.087886      0.143094
      8.63898      4.80105     18.34066         0.446220     -0.174401     -1.144657
      5.69352      4.71342     17.70097         0.041073      0.560856      0.182413
      7.11547      6.62677     16.79316        -0.557829     -0.002862      0.649653
    total drift:                               -0.039387      0.009752      0.062221

  FREE ENERGIE OF THE ION-ELECTRON SYSTEM (eV)
  free  energy   TOTEN  =     -1573.22580323 eV

  energy  without entropy=    -1573.22580323  energy(sigma->0) =    -1573.22580323

     |            E. Caldeweyher, S. Ehlert & S. Grimme          |
     |          Mulliken Center for Theoretical Chemistry        |
     |                    University of Bonn                     |

Rational (Becke-Johnson) damping: hse06-D4-ATM
  s6         1.0000
  s8         1.1953
  s9         1.0000
  a1         0.3866
  a2         5.1913
 alp        16.0000

Dispersion energy:      -7.6866629060077E-01 Eh