 vasp.6.4.2 20Jul23 (build Feb 22 2024 13:53:45) complex
 executed on              LinuxNV date 2024.08.29  07:41:37
 OpenACC runtime initialized ...    4 GPUs detected

 INCAR:
   SYSTEM = Oxide-Surface
   ISMEAR = 0
   SIGMA = 0.05
   EDIFF = 1E-5
   ALGO = Normal
   IBRION = -1
   NSW = 0
   ISYM = 0
   DIPOL = 0.5 0.5 0.5
   IDIPOL = 3
   LDIPOL = .TRUE.
   ISTART = 0
   LHFCALC = .FALSE.
   GGA = PE
   HFRCUT = -1
   ENCUT = 520
   PREC = Normal
   PRECFOCK = Normal
   LASPH = .TRUE.
   LREAL = Auto
   ISPIN = 1
   NELM = 200
   NELMIN = 8
   NCORE = 1
   KPAR = 1
   LWAVE = .TRUE.
   LCHARG = .FALSE.

 POTCAR:    PAW_PBE Ti_pv 07Sep2000
 POTCAR:    PAW_PBE O 08Apr2002
 POTCAR:    PAW_PBE Ti_pv 07Sep2000
   VRHFIN =Ti: d3 s1

   TITEL  = PAW_PBE Ti_pv 07Sep2000
   POMASS =   47.880; ZVAL   =   10.000    mass and valenz
   ENMAX  =  222.335; ENMIN  =  166.751 eV

   TITEL  = PAW_PBE O 08Apr2002
   POMASS =   16.000; ZVAL   =    6.000    mass and valenz
   ENMAX  =  400.000; ENMIN  =  300.000 eV

 Optimization of the real space projectors (new method)

 maximal supplied QI-value         = 15.12
 optimisation between [QCUT,QGAM] = [ 11.64, 23.28] = [ 37.95,151.78] Ry
 Optimized for a Real-space Cutoff    1.45 Angstroem

   l    n(q)    QCUT    max X(q) W(low)/X(q) W(high)/X(q)  e(spline)
   1     10    11.641     4.216    0.33E-04    0.72E-04    0.48E-07
   1     10    11.641     5.422    0.11E-03    0.20E-03    0.10E-06
   2      9    11.641    72.084    0.36E-03    0.27E-03    0.57E-06
   2      9    11.641    65.965    0.35E-03    0.27E-03    0.57E-06
   0     10    11.641    41.531    0.11E-03    0.93E-04    0.16E-06
   0     10    11.641    16.290    0.82E-04    0.72E-04    0.13E-06
 Optimization of the real space projectors (new method)

 maximal supplied QI-value         = 24.76
 optimisation between [QCUT,QGAM] = [ 11.64, 23.27] = [ 37.91,151.63] Ry
 Optimized for a Real-space Cutoff    1.04 Angstroem

   l    n(q)    QCUT    max X(q) W(low)/X(q) W(high)/X(q)  e(spline)
   0      7    11.635    20.381    0.14E-03    0.49E-03    0.18E-06
   0      7    11.635    15.268    0.16E-03    0.52E-03    0.19E-06
   1      7    11.635     5.964    0.30E-03    0.44E-03    0.22E-06
   1      7    11.635     5.382    0.27E-03    0.34E-03    0.19E-06
  PAW_PBE Ti_pv 07Sep2000               :
  PAW_PBE O 08Apr2002                   :

 POSCAR: Ti  O
  positions in direct lattice
 exchange correlation table for  LEXCH =        8
   RHO(1)=    0.500       N(1)  =     2000
   RHO(2)=  100.500       N(2)  =     4000

 ion  position               nearest neighbor table
   1  0.808  0.916  0.247-  53 1.94  51 1.94  85 1.94  52 1.99  50 1.99   2 3.05   4 3.05  18 3.05

   2  0.592  0.749  0.282-  49 1.94  52 1.94  54 1.94 116 1.94  53 1.99  55 1.99   1 3.05   3 3.05
                            33 3.05   7 3.08
   3  0.308  0.749  0.247-  57 1.94  55 1.94 121 1.94  56 1.99  49 1.99   4 3.05   2 3.05  36 3.05

   4  0.092  0.916  0.282-  50 1.94  56 1.94  58 1.94  88 1.94  57 1.99  51 1.99   3 3.05   1 3.05
                            19 3.05   5 3.08
   5  0.945  0.916  0.390-  59 1.92  93 1.93  61 1.94  51 1.98  60 1.98  58 2.00   8 2.99   6 3.04
                            22 3.05   4 3.08
   6  0.727  0.749  0.421-  54 1.89 124 1.93  60 1.94  62 1.96  63 1.99  61 2.00   7 3.01   5 3.04
                            37 3.05  11 3.10
   7  0.444  0.749  0.390-  63 1.93 129 1.93  65 1.93  55 1.97  64 1.99  54 2.00   6 3.01   8 3.05
                            40 3.05   2 3.08
   8  0.226  0.916  0.422-  58 1.90  96 1.94  64 1.94  59 1.97  66 1.97  65 2.01   5 2.99  23 3.05
                             7 3.05   9 3.11
   9  0.086  0.916  0.532-  67 1.92 101 1.93  69 1.94  68 1.97  66 2.01  59 2.01  12 2.95  10 3.04
                            26 3.05   8 3.11
  10  0.865  0.749  0.560-  62 1.86 132 1.93  68 1.94  71 1.95  69 2.01  70 2.01  11 2.98   9 3.04
                            41 3.05  15 3.17
  11  0.584  0.749  0.531- 137 1.93  71 1.93  73 1.93  63 1.97  72 1.98  62 2.02  10 2.98  12 3.05
                            44 3.06   6 3.10
  12  0.364  0.916  0.562-  66 1.86 104 1.94  72 1.94  67 1.95  74 2.00  73 2.02   9 2.95  27 3.05
                            11 3.05
  13  0.231  0.915  0.678-  75 1.86  77 1.93 109 1.94  76 2.00  74 2.10  67 2.10  16 2.85  30 3.07
                            14 3.09
  14  0.000  0.749  0.700-  70 1.78  78 1.84 140 1.97  76 1.98  77 2.07  15 2.86  13 3.09  45 3.10

[...]

  17  0.808  0.249  0.247-  85 1.94 117 1.94  83 1.94  84 1.99  82 1.99  34 3.05  18 3.05  20 3.05

[...]

  36  0.092  0.583  0.282- 114 1.94 120 1.94 122 1.94  56 1.94 121 1.99 115 1.99  35 3.05  33 3.05
                             3 3.05  37 3.07
  37  0.946  0.583  0.389- 123 1.93  61 1.93 125 1.94 115 1.97 122 1.98 124 2.00  40 2.99  38 3.05
                             6 3.05  36 3.07
  38  0.727  0.417  0.421- 118 1.89 124 1.93  92 1.94 126 1.96 127 1.99 125 2.00  39 3.01  21 3.04
                            37 3.05  43 3.10
  39  0.444  0.416  0.389- 127 1.93 129 1.93  97 1.93 119 1.97 128 1.99 118 2.01  38 3.01  24 3.05
                            40 3.05  34 3.08
  40  0.226  0.583  0.423- 122 1.92 128 1.94  64 1.94 123 1.96 130 1.97 129 2.01  37 2.99  39 3.05
                             7 3.05  41 3.07
  41  0.089  0.583  0.533- 131 1.92  69 1.93 133 1.93 130 1.98 132 2.00 123 2.01  44 2.96  42 3.05
                            10 3.05  40 3.07
  42  0.865  0.417  0.560- 126 1.86 132 1.93 100 1.94 135 1.95 133 2.01 134 2.01  43 2.98  25 3.04
                            41 3.05  47 3.16
  43  0.584  0.416  0.531- 137 1.93 135 1.93 105 1.93 127 1.97 136 1.98 126 2.02  42 2.98  28 3.05
                            44 3.06  38 3.10
  44  0.366  0.583  0.565- 130 1.92  72 1.94 136 1.94 131 1.94 138 2.00 137 2.03  41 2.96  43 3.06
                            11 3.06  45 3.14
  45  0.234  0.583  0.678- 139 1.86 141 1.93  77 1.93 140 2.03 138 2.05 131 2.10  48 2.87  14 3.10
                            46 3.10  44 3.14
  46  1.000  0.417  0.700- 134 1.78 142 1.84 140 1.97 108 1.98 141 2.07  47 2.86  29 3.09  45 3.10

  47  0.729  0.417  0.673- 142 1.90 144 1.92 112 1.94 143 1.99 135 2.03 134 2.10  46 2.86  32 3.08
                            48 3.08  42 3.16
  48  0.505  0.583  0.707- 139 1.82 138 1.86 143 1.98  79 1.98 144 2.11  45 2.87  47 3.08  15 3.08

  49  0.488  0.749  0.218-   2 1.94   3 1.99
  50  0.988  0.916  0.218-   4 1.94   1 1.99
  51  0.911  0.916  0.312-   1 1.94   5 1.98   4 1.99
  52  0.627  0.916  0.277-   2 1.94  18 1.94   1 1.99
  53  0.772  0.749  0.253-   1 1.94  33 1.94   2 1.99
  54  0.624  0.749  0.359-   6 1.89   2 1.94   7 2.00
  55  0.411  0.749  0.312-   3 1.94   7 1.97   2 1.99
  56  0.127  0.749  0.277-   4 1.94  36 1.94   3 1.99
  57  0.272  0.916  0.253-   3 1.94  19 1.94   4 1.99
  58  0.124  0.916  0.359-   8 1.90   4 1.94   5 2.00
  59  0.049  0.916  0.453-   5 1.92   8 1.97   9 2.01
  60  0.764  0.916  0.417-  22 1.94   6 1.94   5 1.98
  61  0.910  0.749  0.394-  37 1.93   5 1.94   6 2.00
  62  0.764  0.749  0.498-  10 1.86   6 1.96  11 2.02
  63  0.549  0.749  0.453-   7 1.93  11 1.97   6 1.99
  64  0.264  0.749  0.418-  40 1.94   8 1.94   7 1.99
  65  0.409  0.916  0.394-   7 1.93  23 1.93   8 2.01
  66  0.264  0.916  0.499-  12 1.86   8 1.97   9 2.01
  67  0.193  0.916  0.595-   9 1.92  12 1.95  13 2.10
  68  0.904  0.916  0.557-  26 1.94  10 1.94   9 1.97
  69  0.052  0.749  0.535-  41 1.93   9 1.94  10 2.01
  70  0.914  0.751  0.638-  14 1.78  10 2.01  15 2.10
  71  0.694  0.752  0.594-  11 1.93  10 1.95  15 2.03
  72  0.405  0.749  0.560-  44 1.94  12 1.94  11 1.98
  73  0.549  0.916  0.535-  27 1.93  11 1.93  12 2.02
  74  0.413  0.917  0.639-  16 1.78  12 2.00  13 2.10
  75  0.347  0.916  0.735-  16 1.84  13 1.86
  76  0.052  0.916  0.709-  30 1.98  14 1.98  13 2.00
  77  0.195  0.749  0.678-  13 1.93  45 1.93  14 2.07
  78  0.841  0.744  0.734-  14 1.84  15 1.89
  79  0.554  0.751  0.708-  16 1.97  48 1.98  15 1.99
  80  0.695  0.917  0.676-  31 1.93  15 1.94  16 2.06
  81  0.488  0.083  0.218-  18 1.94  19 1.99
  82  0.988  0.249  0.218-  20 1.94  17 1.99
  83  0.911  0.249  0.312-  17 1.94  21 1.98  20 1.99
  84  0.627  0.249  0.277-  18 1.94  34 1.94  17 1.99
  85  0.772  0.083  0.253-  17 1.94   1 1.94  18 1.99
  86  0.624  0.083  0.359-  22 1.89  18 1.94  23 2.00
  87  0.411  0.083  0.312-  19 1.94  23 1.98  18 1.99
  88  0.127  0.083  0.277-  20 1.94   4 1.94  19 1.99
  89  0.272  0.249  0.253-  19 1.94  35 1.94  20 1.99
  90  0.124  0.249  0.359-  24 1.90  20 1.94  21 2.00
  91  0.049  0.249  0.453-  21 1.92  24 1.97  25 2.01
  92  0.764  0.249  0.417-  22 1.94  38 1.94  21 1.98
  93  0.909  0.083  0.394-   5 1.93  21 1.93  22 2.00
  94  0.764  0.083  0.499-  26 1.86  22 1.97  27 2.01
  95  0.549  0.083  0.453-  23 1.92  22 1.98  27 2.00
  96  0.264  0.083  0.418-  24 1.94   8 1.94  23 1.99
  97  0.409  0.249  0.394-  39 1.93  23 1.93  24 2.01
  98  0.264  0.250  0.499-  28 1.86  24 1.97  25 2.01
  99  0.193  0.250  0.595-  25 1.92  28 1.95  29 2.10
 100  0.904  0.249  0.557-  26 1.94  42 1.94  25 1.97
 101  0.051  0.083  0.536-   9 1.93  25 1.93  26 2.03
 102  0.913  0.083  0.639-  30 1.78  26 2.01  31 2.09
 103  0.693  0.083  0.594-  27 1.92  26 1.94  31 2.09
 104  0.404  0.083  0.559-  12 1.94  28 1.94  27 1.98
 105  0.549  0.249  0.535-  27 1.93  43 1.93  28 2.02
 106  0.412  0.248  0.639-  32 1.78  28 2.00  29 2.10
 107  0.347  0.250  0.735-  32 1.84  29 1.86
 108  0.052  0.250  0.709-  30 1.98  46 1.98  29 2.00
[...]
 130  0.266  0.583  0.501-  44 1.92  40 1.97  41 1.98
 131  0.193  0.583  0.596-  41 1.92  44 1.94  45 2.10
 132  0.904  0.583  0.558-  42 1.93  10 1.93  41 2.00
 133  0.052  0.416  0.535-  41 1.93  25 1.94  42 2.01
 134  0.914  0.415  0.638-  46 1.78  42 2.01  47 2.10
 135  0.694  0.414  0.594-  43 1.93  42 1.95  47 2.03
 136  0.405  0.416  0.560-  44 1.94  28 1.94  43 1.98
 137  0.551  0.583  0.536-  43 1.93  11 1.93  44 2.03
 138  0.413  0.583  0.642-  48 1.86  44 2.00  45 2.05
 139  0.345  0.583  0.738-  48 1.82  45 1.86
 140  0.052  0.583  0.709-  46 1.97  14 1.97  45 2.03
 141  0.195  0.417  0.678-  29 1.93  45 1.93  46 2.07
 142  0.841  0.422  0.734-  46 1.84  47 1.90
 143  0.554  0.415  0.708-  32 1.97  48 1.98  47 1.99
 144  0.693  0.583  0.672-  15 1.92  47 1.92  48 2.11

IMPORTANT INFORMATION: All symmetrisations will be switched off!
NOSYMM: (Re-)initialisation of all symmetry stuff for point group C_1.

                                     Primitive cell

  volume of cell :    2920.0096

  direct lattice vectors                    reciprocal lattice vectors
    10.273755933  0.000000000  0.000000000     0.097335386 -0.000000000  0.000000000
     0.000000000 11.368810418  0.000000000     0.000000000  0.087959950  0.000000000
     0.000000000  0.000000000 25.000000000     0.000000000  0.000000000  0.040000000

  length of vectors
    10.273755933 11.368810418 25.000000000     0.097335386  0.087959950  0.040000000

  position of ions in fractional coordinates (direct lattice)
     0.807824645  0.915977663  0.247143925
     0.591839534  0.749310996  0.282367682
     0.307824645  0.749310996  0.247143925
[...]
   0.495E+01 -.120E+00 0.243E+04   -.652E+01 0.125E+00 -.244E+04   -.862E-01 -.346E-02 -.397E-01   0.128E-02 -.261E-03 0.214E-03
   0.650E+01 0.182E+00 0.298E+04   -.160E+01 -.182E+00 -.297E+04   -.109E+01 -.270E-02 -.331E+01   -.781E-03 0.470E-05 -.154E-02
   0.328E+01 0.169E+00 0.243E+04   -.490E+01 -.174E+00 -.244E+04   -.768E-01 0.552E-02 -.446E-01   0.474E-03 -.256E-03 0.907E-03
   0.484E-01 0.235E+00 0.110E+04   -.231E+00 -.234E+00 -.110E+04   0.179E+00 0.368E-02 0.319E-01   0.443E-03 -.130E-03 0.374E-03
   0.189E+01 -.144E+01 0.687E+03   -.184E+01 0.143E+01 -.687E+03   -.539E-01 0.180E-01 -.167E+00   -.191E-03 -.182E-04 0.114E-02
   0.169E+01 0.727E-01 0.110E+04   -.184E+01 -.745E-01 -.110E+04   0.162E+00 0.336E-02 0.314E-02   -.116E-03 0.350E-04 0.982E-03
   -.661E+01 0.903E+00 0.678E+03   0.665E+01 -.899E+00 -.678E+03   -.312E-01 0.510E-02 -.152E+00   -.341E-03 -.565E-03 0.108E-02
   -.521E+01 0.184E+00 -.718E+03   0.488E+01 -.183E+00 0.718E+03   0.317E+00 0.509E-02 0.127E+00   -.129E-03 -.196E-03 0.496E-03
   -.906E+01 0.309E+00 -.106E+04   0.922E+01 -.259E+00 0.106E+04   -.111E+00 -.381E-01 -.284E+00   0.432E-03 -.177E-04 0.179E-03
   0.180E+01 0.186E+01 -.693E+03   -.199E+01 -.183E+01 0.693E+03   0.247E+00 -.402E-02 0.805E-01   0.141E-03 0.868E-04 0.537E-03
   -.428E+01 0.243E+01 -.109E+04   0.441E+01 -.237E+01 0.109E+04   -.122E+00 -.175E-01 -.295E+00   0.106E-03 0.394E-03 -.240E-03
   0.228E+02 -.156E+01 -.247E+04   -.238E+02 0.158E+01 0.247E+04   0.981E+00 0.912E-02 -.163E+00   0.184E-03 0.116E-03 -.786E-03
   -.664E+02 -.870E+01 -.283E+04   0.660E+02 0.850E+01 0.283E+04   0.183E-01 0.169E+00 0.682E+00   -.332E-03 -.116E-02 -.134E-02
   0.104E+02 -.741E+01 -.244E+04   -.106E+02 0.754E+01 0.244E+04   0.763E+00 -.312E-01 -.788E-01   0.458E-03 0.525E-03 -.541E-03
   -.725E+02 -.274E+01 -.283E+04   0.725E+02 0.294E+01 0.283E+04   -.153E-01 -.474E-01 0.726E+00   0.659E-03 0.382E-03 -.998E-03
   0.657E+01 0.324E-01 0.298E+04   -.163E+01 -.372E-01 -.297E+04   -.109E+01 -.193E-02 -.332E+01   -.818E-03 -.158E-03 -.131E-02
   0.487E+01 0.206E-01 0.243E+04   -.647E+01 -.211E-01 -.244E+04   -.773E-01 0.203E-03 -.487E-01   0.103E-02 -.386E-04 0.879E-03
   0.637E+01 0.994E-02 0.298E+04   -.144E+01 -.104E-01 -.297E+04   -.109E+01 -.906E-03 -.332E+01   -.772E-03 0.198E-03 -.175E-02
   0.329E+01 -.134E+00 0.243E+04   -.491E+01 0.136E+00 -.244E+04   -.767E-01 -.255E-02 -.454E-01   0.963E-03 0.107E-03 0.829E-03
   -.694E-01 -.358E+00 0.110E+04   -.108E+00 0.350E+00 -.110E+04   0.178E+00 0.213E-02 0.312E-01   0.651E-03 0.165E-03 0.732E-03
   -.181E+01 0.503E-02 0.683E+03   0.183E+01 -.771E-02 -.683E+03   -.150E-01 -.670E-03 -.169E+00   -.580E-03 -.769E-05 0.487E-03
   0.181E+01 -.351E-01 0.110E+04   -.198E+01 0.334E-01 -.110E+04   0.166E+00 -.387E-03 0.130E-01   0.819E-03 -.225E-03 0.787E-03
   -.653E+01 -.754E+00 0.678E+03   0.657E+01 0.751E+00 -.678E+03   -.317E-01 -.380E-02 -.158E+00   -.827E-03 0.183E-03 0.807E-03
   -.541E+01 -.276E+00 -.717E+03   0.508E+01 0.269E+00 0.717E+03   0.318E+00 0.140E-02 0.128E+00   -.460E-04 0.997E-06 0.492E-03
   -.923E+01 0.108E-01 -.108E+04   0.934E+01 -.959E-02 0.108E+04   -.802E-01 -.890E-03 -.277E+00   0.312E-03 -.270E-03 0.961E-04
   -.152E+01 -.665E-02 -.708E+03   0.126E+01 0.559E-02 0.707E+03   0.294E+00 0.147E-02 0.151E+00   -.419E-03 0.405E-04 0.750E-03
   -.419E+01 -.249E+01 -.109E+04   0.432E+01 0.243E+01 0.109E+04   -.122E+00 0.200E-01 -.295E+00   0.217E-03 -.467E-03 0.611E-06
   0.231E+02 0.109E+01 -.247E+04   -.241E+02 -.112E+01 0.248E+04   0.983E+00 -.619E-02 -.161E+00   0.166E-05 0.137E-03 -.735E-03
   -.696E+02 -.234E+00 -.283E+04   0.696E+02 0.235E+00 0.283E+04   -.516E-01 -.203E-02 0.696E+00   0.151E-03 0.117E-03 -.117E-02
   0.147E+02 -.302E-01 -.247E+04   -.155E+02 0.342E-01 0.247E+04   0.877E+00 -.413E-02 -.102E+00   -.457E-03 -.589E-04 -.585E-03
   -.728E+02 0.291E+01 -.283E+04   0.729E+02 -.312E+01 0.283E+04   -.172E-01 0.465E-01 0.731E+00   0.555E-03 -.589E-03 -.917E-03
   0.657E+01 -.366E-02 0.298E+04   -.163E+01 0.361E-02 -.297E+04   -.109E+01 -.104E-02 -.331E+01   -.117E-02 0.679E-03 -.121E-02
   0.495E+01 0.130E+00 0.243E+04   -.651E+01 -.136E+00 -.244E+04   -.868E-01 0.590E-02 -.390E-01   0.554E-03 0.310E-03 0.803E-03
   0.650E+01 -.190E+00 0.298E+04   -.161E+01 0.190E+00 -.297E+04   -.109E+01 0.343E-02 -.331E+01   -.745E-03 -.202E-03 -.137E-02
   0.228E+01 0.121E-01 0.243E+04   -.384E+01 -.126E-01 -.244E+04   -.959E-01 0.348E-03 -.364E-01   0.790E-03 0.146E-03 0.106E-02
   0.910E+00 -.604E-01 0.110E+04   -.109E+01 0.593E-01 -.110E+04   0.170E+00 -.168E-03 0.694E-01   0.799E-03 -.362E-04 0.747E-03
   0.212E+01 0.142E+01 0.687E+03   -.206E+01 -.141E+01 -.687E+03   -.519E-01 -.181E-01 -.166E+00   -.294E-03 0.207E-04 0.849E-03
   0.157E+01 -.172E+00 0.110E+04   -.172E+01 0.170E+00 -.110E+04   0.159E+00 -.162E-02 0.113E-02   0.408E-03 0.189E-03 0.505E-03
   -.948E+01 0.765E-01 0.662E+03   0.953E+01 -.751E-01 -.662E+03   -.488E-01 -.114E-02 -.409E-01   -.669E-03 0.382E-03 0.700E-03
   -.191E+01 -.220E-01 -.724E+03   0.156E+01 0.197E-01 0.724E+03   0.272E+00 -.127E-02 0.163E+00   -.371E-03 0.196E-03 0.444E-03
   -.885E+01 -.446E+00 -.106E+04   0.901E+01 0.393E+00 0.106E+04   -.108E+00 0.398E-01 -.280E+00   0.268E-03 0.289E-03 0.283E-03
   0.176E+01 -.183E+01 -.693E+03   -.194E+01 0.180E+01 0.693E+03   0.242E+00 0.714E-02 0.803E-01   0.178E-03 -.129E-03 0.586E-03
   -.823E+01 0.204E+00 -.113E+04   0.829E+01 -.202E+00 0.113E+04   -.117E+00 -.439E-02 0.189E-01   0.305E-04 0.686E-04 -.148E-03
   0.266E+02 0.941E-01 -.248E+04   -.280E+02 -.941E-01 0.248E+04   0.917E+00 -.282E-02 -.552E-01   -.164E-02 -.270E-03 -.111E-02
   -.660E+02 0.906E+01 -.283E+04   0.656E+02 -.886E+01 0.283E+04   0.268E-01 -.172E+00 0.689E+00   -.151E-03 0.105E-02 -.140E-02
   0.970E+01 0.788E+01 -.244E+04   -.996E+01 -.800E+01 0.244E+04   0.758E+00 0.282E-01 -.766E-01   0.674E-03 -.466E-03 -.594E-03
   -.853E+02 -.678E-02 -.292E+04   0.841E+02 0.239E-01 0.291E+04   0.551E+00 -.287E-02 0.224E+01   0.933E-03 0.198E-03 -.136E-02
   -.322E+02 0.321E-02 0.201E+04   0.370E+02 -.174E-02 -.203E+04   -.654E+01 -.319E-02 0.171E+02   -.514E-04 -.547E-04 -.120E-02
   -.325E+02 0.439E-02 0.201E+04   0.373E+02 -.512E-02 -.203E+04   -.655E+01 0.142E-02 0.171E+02   -.260E-03 -.102E-03 -.112E-02
   0.815E+02 0.164E+00 0.121E+04   -.863E+02 -.186E+00 -.120E+04   0.386E+01 0.225E-01 -.449E+01   -.127E-03 -.106E-03 0.384E-03
   0.749E+02 -.309E-01 0.148E+04   -.819E+02 0.348E-01 -.147E+04   0.739E+01 -.217E-02 -.269E+01   0.486E-03 -.486E-04 -.613E-04
   -.862E+02 -.603E-01 0.171E+04   0.934E+02 0.609E-01 -.171E+04   -.698E+01 0.120E-02 -.115E+00   -.196E-03 -.337E-04 -.740E-03
   -.686E+02 -.666E+00 0.930E+03   0.742E+02 0.697E+00 -.933E+03   -.570E+01 -.282E-01 0.427E+01   0.839E-04 -.118E-04 0.362E-03
   0.822E+02 0.166E+00 0.121E+04   -.870E+02 -.156E+00 -.120E+04   0.382E+01 -.125E-01 -.430E+01   -.118E-03 -.473E-04 0.310E-03
   0.738E+02 0.116E+00 0.148E+04   -.808E+02 -.120E+00 -.147E+04   0.740E+01 0.140E-01 -.270E+01   0.330E-03 -.550E-04 0.235E-04
   -.864E+02 0.638E-01 0.171E+04   0.936E+02 -.613E-01 -.171E+04   -.696E+01 -.794E-02 -.121E+00   -.737E-04 -.697E-04 -.864E-03
   -.738E+02 0.480E+00 0.930E+03   0.797E+02 -.502E+00 -.934E+03   -.590E+01 0.308E-01 0.439E+01   -.126E-03 -.145E-03 0.491E-03
   0.786E+02 -.183E+00 0.119E+03   -.851E+02 0.195E+00 -.114E+03   0.654E+01 -.168E-01 -.516E+01   0.764E-04 -.116E-03 0.725E-03
   0.806E+02 0.234E+00 0.411E+03   -.872E+02 -.296E+00 -.408E+03   0.668E+01 0.576E-01 -.302E+01   -.917E-04 -.136E-04 0.710E-03
[...]
   0.857E+02 -.281E-01 -.982E+03   -.928E+02 0.374E-01 0.989E+03   0.721E+01 -.529E-02 -.724E+01   -.234E-03 -.948E-06 0.215E-03
   0.721E+02 -.157E+00 -.657E+03   -.781E+02 0.172E+00 0.660E+03   0.604E+01 -.133E-01 -.323E+01   0.768E-04 0.103E-04 0.410E-03
   -.818E+02 -.329E+00 -.419E+03   0.883E+02 0.239E+00 0.416E+03   -.643E+01 0.112E+00 0.275E+01   -.468E-05 0.383E-04 0.504E-03
   -.604E+02 0.685E+01 -.114E+04   0.629E+02 -.750E+01 0.113E+04   -.261E+01 0.647E+00 0.958E+01   0.542E-04 0.169E-03 0.170E-05
   0.822E+02 0.875E+01 -.948E+03   -.885E+02 -.952E+01 0.954E+03   0.623E+01 0.797E+00 -.563E+01   0.317E-04 -.536E-04 0.136E-03
   0.778E+02 -.105E+01 -.672E+03   -.842E+02 0.897E+00 0.675E+03   0.640E+01 0.207E+00 -.332E+01   -.154E-04 0.376E-04 0.325E-03
   -.735E+02 -.487E-01 -.427E+03   0.797E+02 0.538E-01 0.425E+03   -.621E+01 -.962E-02 0.233E+01   0.579E-04 0.362E-04 0.469E-03
   -.699E+02 -.394E+00 -.118E+04   0.746E+02 0.433E+00 0.117E+04   -.441E+01 -.473E-01 0.843E+01   -.106E-04 0.130E-04 -.234E-03
   0.601E+02 0.120E+00 -.203E+04   -.668E+02 -.116E+00 0.205E+04   0.706E+01 -.208E-02 -.202E+02   -.361E-04 -.995E-05 -.180E-02
   0.559E+02 0.541E-01 -.179E+04   -.599E+02 -.514E-01 0.180E+04   0.418E+01 -.411E-02 -.762E+01   0.473E-06 0.775E-05 -.112E-02
   -.535E+02 0.950E+00 -.147E+04   0.581E+02 -.896E+00 0.147E+04   -.452E+01 0.306E-01 0.303E+01   -.174E-03 0.290E-03 -.527E-03
   0.522E+02 -.505E+01 -.203E+04   -.584E+02 0.615E+01 0.205E+04   0.643E+01 -.123E+01 -.208E+02   0.770E-04 0.860E-04 -.178E-02
   0.568E+02 0.171E+01 -.178E+04   -.615E+02 -.205E+01 0.179E+04   0.451E+01 0.854E+00 -.628E+01   0.250E-03 -.185E-03 -.948E-03
   -.429E+02 -.153E-02 -.141E+04   0.467E+02 -.902E-02 0.140E+04   -.413E+01 0.779E-02 0.593E+01   0.287E-03 0.234E-05 -.338E-03
   -.154E+02 0.143E-01 0.647E+02   -.298E-12 0.128E-11 0.227E-11   0.154E+02 -.575E-02 -.646E+02   0.307E-02 -.296E-04 -.667E-02

 POSITION                                       TOTAL-FORCE (eV/Angst)
      8.29939     10.41358      6.17860         3.841404      0.007454      1.583482
      6.08041      8.51877      7.05919        -1.653514      0.001439     -2.017478
      3.16252      8.51877      6.17860         3.809181     -0.002314      1.559921
      0.94354     10.41358      7.05919        -1.695899      0.001021     -2.021059
      9.70823     10.41653      9.74251        -0.002995      0.004242     -0.031373
      7.46699      8.51530     10.53688         0.004212      0.003766      0.016362
      4.56332      8.51729      9.73765         0.006234      0.001625     -0.032006
      2.31709     10.41383     10.55258         0.007554      0.008476      0.007770
      0.88600     10.41929     13.30855        -0.010465      0.006566      0.004515
      8.89080      8.51622     14.00205         0.045864      0.011523      0.137124
      6.00380      8.51968     13.27519         0.056552      0.025872     -0.002716
      3.73988     10.41619     14.04341         0.008414      0.033825      0.039291
      2.37439     10.40804     16.94761        -0.068933      0.037111      0.136007
      0.00080      8.51036     17.49226        -0.304479     -0.027465      0.356341
      7.48737      8.50941     16.84011         0.479712      0.093708      0.564883
      5.17150     10.42543     17.49800         0.034548      0.154709      0.169010
      8.29939      2.83437      6.17860         3.842299     -0.006923      1.583216
      6.08041      0.93957      7.05919        -1.678172     -0.000347     -2.014881
      3.16252      0.93957      6.17860         3.833916     -0.001228      1.576855
      0.94354      2.83437      7.05919        -1.695275     -0.000346     -2.021337
      9.70793      2.83400      9.74246         0.001304     -0.006093     -0.030971
      7.45859      0.94078     10.54238         0.010321     -0.003422      0.013841
      4.56525      0.94027      9.74200         0.002385     -0.002356     -0.031496
      2.31721      2.83557     10.55224         0.004906     -0.006611      0.005480
      0.88573      2.83383     13.30815        -0.007831     -0.005141      0.005317
      8.87573      0.94206     14.02068         0.033018     -0.000046      0.086482
      6.01072      0.94145     13.29279         0.026609      0.000387      0.011759
      3.73962      2.83538     14.04328         0.006523     -0.033501      0.037040
      2.37419      2.84586     16.94741        -0.074645     -0.034500      0.134813
      0.02814      0.94277     17.49234         0.004032     -0.000697      0.197164
      7.52107      0.94159     16.91601         0.068125     -0.000272      0.165705
      5.17113      2.82595     17.49748         0.035551     -0.162877      0.160269
      8.29939      6.62397      6.17860         3.846848     -0.000471      1.574135
      6.08041      4.72917      7.05919        -1.652123      0.000035     -2.016771
      3.16252      4.72917      6.17860         3.806773      0.003325      1.558455
      0.94354      6.62397      7.05919        -1.663015     -0.000010     -1.964459
      9.72353      6.62543      9.73659        -0.009540     -0.001396     -0.038351
      7.46737      4.73521     10.53664         0.004908     -0.003296      0.019023
      4.56309      4.73221      9.73742         0.006515     -0.003239     -0.033549
      2.32131      6.62471     10.58159        -0.001854      0.000608     -0.037920
      0.91630      6.62697     13.31408        -0.078422     -0.003437     -0.033479
      8.89170      4.73694     14.00116         0.046049     -0.013774      0.143313
      6.00310      4.73197     13.27426         0.060051     -0.022152     -0.000219
      3.76120      6.62596     14.12670        -0.053027     -0.002440     -0.237920
      2.40893      6.62656     16.96081        -0.446384     -0.003156      0.015447
     10.27296      4.74371     17.49310        -0.330171      0.029190      0.363437
      7.48577      4.74301     16.83609         0.506353     -0.090721      0.590401
      5.19016      6.62568     17.66659        -0.582291      0.014367     -1.591591
      5.01582      8.51877      5.44312        -1.782976     -0.001835      0.925382
     10.15269     10.41358      5.44312        -1.787648      0.000528      0.919557
      9.36399     10.41358      7.79467        -0.975456      0.000089     -0.209703
      6.44609     10.41358      6.91407         0.397522      0.001638     -0.115104
      7.93372      8.51877      6.32372         0.251761      0.001737     -1.122806
      6.41366      8.51877      8.96550        -0.116592      0.003437      0.410155
      4.22711      8.51877      7.79467        -0.988276     -0.002653     -0.189142
      1.30921      8.51877      6.91407         0.401739      0.009840     -0.120704
      2.79684     10.41358      6.32372         0.259771     -0.005570     -1.125785
      1.27678     10.41358      8.96550        -0.019807      0.008489      0.475318
      0.50823     10.41679     11.33652         0.026533     -0.004668      0.010270
      7.84864     10.41418     10.43341         0.023917     -0.003860     -0.003540
[...]
      2.72817      6.62525     12.51382         0.032711     -0.002847      0.051446
      1.98527      6.62686     14.90732         0.120194      0.003940      0.119511
      9.29033      6.62630     13.95045         0.046569      0.001474     -0.017929
      0.52926      4.73423     13.38365        -0.013056      0.021909     -0.000438
      9.38611      4.71719     15.95241        -0.112921      0.005247     -0.169221
      7.13042      4.70139     14.84234        -0.027552      0.022978     -0.024910
      4.15814      4.73323     13.99082         0.006540      0.052245      0.021187
      5.65798      6.62575     13.40584        -0.062068     -0.004550      0.027777
      4.24724      6.62769     16.06170         0.283775     -0.007818      0.642664
      3.54223      6.62603     18.44083         0.410376      0.001192      0.306914
      0.52923      6.62674     17.72076         0.189877     -0.001477      0.004689
      1.99958      4.73727     16.95421         0.086664      0.084392      0.044810
      8.63898      4.80105     18.34066         0.211486     -0.129090     -0.398934
      5.69352      4.71342     17.70097        -0.113470      0.513286      0.387885
      7.11547      6.62677     16.79316        -0.375539     -0.002823      0.455359
    total drift:                               -0.037536      0.008513      0.074829

  FREE ENERGIE OF THE ION-ELECTRON SYSTEM (eV)
  free  energy   TOTEN  =     -1275.23407010 eV

  energy  without entropy=    -1275.23407010  energy(sigma->0) =    -1275.23407010

 writing wavefunctions

     |            E. Caldeweyher, S. Ehlert & S. Grimme          |
     |          Mulliken Center for Theoretical Chemistry        |
     |                    University of Bonn                     |

Rational (Becke-Johnson) damping: hse06-D4-ATM
  s6         1.0000
  s8         1.1953
  s9         1.0000
  a1         0.3866
  a2         5.1913
 alp        16.0000

Dispersion energy:      -7.6866629060077E-01 Eh