 vasp.6.3.0 20Jan22 (build Apr  1 2022 16:44:48) complex
 executed on        HPECrayEX_GCC date 2023.03.02  02:12:36

 INCAR:
   SYSTEM = MgO-rocksalt
   ISMEAR = 0
   SIGMA = 0.05
   EDIFF = 1E-8
   ALGO = ALL
   ISTART = 0
   IBRION = 5
   POTIM = 0.01
   NFREE = 2
   ISYM = 0
   DIPOL = 0.5 0.5 0.5
   IDIPOL = 3
   LDIPOL = .TRUE.
   GGA = MK
   LUSE_VDW = .TRUE.
   PARAM1 = 0.1234
   PARAM2 = 0.711357
   ZAB_VDW = -1.8867
   AGGAC = 0.0
   ENCUT = 600
   PREC = Accurate
   LASPH = .TRUE.
   LREAL = .FALSE.
   ISPIN = 1
   NELM = 200
   NELMIN = 8
   NCORE = 8
   KPAR = 1
   LWAVE = .FALSE.
   LCHARG = .FALSE.

 POTCAR:    PAW_PBE N 08Apr2002
 POTCAR:    PAW_PBE O 08Apr2002
 POTCAR:    PAW_PBE Mg_pv 13Apr2007
 POTCAR:    PAW_PBE O 08Apr2002
|               ----> ADVICE to this user running VASP <----                  |
|     You have switched on vdW-DFT.                                           |
|     This routine was written and supplied by Jiri Klimes. We recommend      |
|     that you carefully read and cite the following publications:            |
|       J. Klimes, D.R. Bowler, A. Michelides                                 |
|          J. Phys.: Cond Matt. 22 022201 (2010)                              |
|       J. Klimes, D.R. Bowler, A. Michelides                                 |
|          Phys. Rev. B. 83, 195131 (2011)                                    |
|     and references therein.                                                 |

   TITEL  = PAW_PBE N 08Apr2002
   POMASS =   14.001; ZVAL   =    5.000    mass and valenz
   ENMAX  =  400.000; ENMIN  =  300.000 eV

[...]

   TITEL  = PAW_PBE Mg_pv 13Apr2007
   POMASS =   24.305; ZVAL   =    8.000    mass and valenz
   ENMAX  =  403.929; ENMIN  =  302.947 eV

   TITEL  = PAW_PBE O 08Apr2002
   POMASS =   16.000; ZVAL   =    6.000    mass and valenz
   ENMAX  =  400.000; ENMIN  =  300.000 eV

  PAW_PBE N 08Apr2002                   :
  PAW_PBE O 08Apr2002                   :
  PAW_PBE Mg_pv 13Apr2007               :
  PAW_PBE O 08Apr2002                   :

 POSCAR:  N  O Mg  O
  positions in direct lattice
 exchange correlation table for  LEXCH =       43
   RHO(1)=    0.500       N(1)  =     2000
   RHO(2)=  100.500       N(2)  =     4000

 ion  position               nearest neighbor table
   1  0.532  0.547  0.790-   2 1.14
   2  0.628  0.638  0.781-   1 1.14   3 1.20
   3  0.728  0.735  0.770-   2 1.20
   4  0.250  0.000  0.352-  36 2.11  38 2.11  39 2.11  46 2.11  55 2.11
   5  0.500  0.250  0.352-  37 2.11  38 2.11  39 2.11  47 2.11  54 2.11
   6  0.250  0.250  0.451-  38 2.11  37 2.11  36 2.11  44 2.11  53 2.11  42 2.11
   7  0.500  0.000  0.451-  39 2.11  37 2.11  36 2.11  45 2.11  52 2.11  43 2.11
   8  0.250  1.000  0.550-  59 2.11  50 2.11  43 2.11  42 2.11  36 2.12  40 2.14
   9  0.500  0.250  0.550-  58 2.11  43 2.11  42 2.11  51 2.11  37 2.12  41 2.13
  10  0.250  0.250  0.648-  42 2.10  57 2.11  48 2.11  41 2.11  40 2.11
  11  0.500  0.000  0.648-  43 2.10  41 2.11  40 2.11  56 2.11  49 2.12
  12  0.250  0.500  0.352-  44 2.11  38 2.11  46 2.11  47 2.11  63 2.11
  13  0.500  0.750  0.352-  45 2.11  39 2.11  46 2.11  47 2.11  62 2.11
  14  0.250  0.750  0.451-  46 2.11  44 2.11  45 2.11  36 2.11  61 2.11  50 2.11
  15  0.500  0.500  0.451-  47 2.11  44 2.11  45 2.11  37 2.11  60 2.11  51 2.11
  16  0.250  0.500  0.550-  50 2.11  67 2.11  42 2.11  51 2.11  44 2.12  48 2.13
  17  0.500  0.750  0.550-  66 2.11  43 2.11  51 2.11  50 2.11  45 2.13  49 2.14
  18  0.250  0.750  0.648-  50 2.10  65 2.10  49 2.11  48 2.11  40 2.11
  19  0.499  0.499  0.648-  51 2.09  48 2.10  41 2.10  64 2.12  49 2.12
  20  0.750  0.000  0.352-  52 2.11  39 2.11  54 2.11  55 2.11  62 2.11
  21  0.000  0.250  0.352-  53 2.11  38 2.11  54 2.11  55 2.11  63 2.11
  22  0.750  0.250  0.451-  54 2.11  52 2.11  53 2.11  37 2.11  60 2.11  58 2.11
  23  0.000  0.000  0.451-  55 2.11  52 2.11  53 2.11  36 2.11  61 2.11  59 2.11
  24  0.750  1.000  0.550-  66 2.11  59 2.11  43 2.11  58 2.11  52 2.12  56 2.13
  25  1.000  0.250  0.550-  58 2.11  59 2.11  67 2.11  42 2.11  53 2.12  57 2.14
  26  0.750  0.250  0.648-  58 2.10  56 2.10  64 2.11  41 2.11  57 2.11
  27  0.000  0.000  0.648-  59 2.10  57 2.11  40 2.11  56 2.11  65 2.11
  28  0.750  0.500  0.352-  60 2.11  54 2.11  47 2.11  62 2.11  63 2.11
  29  0.000  0.750  0.352-  61 2.11  55 2.11  46 2.11  62 2.11  63 2.11
  30  0.750  0.750  0.451-  62 2.11  52 2.11  60 2.11  61 2.11  45 2.11  66 2.12
  31  0.000  0.500  0.451-  63 2.11  53 2.11  60 2.11  61 2.11  44 2.11  67 2.12
  32  0.750  0.500  0.550-  66 2.11  67 2.11  51 2.11  58 2.11  60 2.13  64 2.15
  33  1.000  0.750  0.550-  66 2.11  59 2.11  67 2.11  50 2.11  61 2.12  65 2.13
  34  0.751  0.751  0.650-  65 2.11  56 2.11  64 2.12  66 2.12  49 2.12
  35  1.000  0.500  0.648-  67 2.10  48 2.11  57 2.11  65 2.11  64 2.12
  36  0.250  0.000  0.451-   4 2.11   6 2.11   7 2.11  14 2.11  23 2.11   8 2.12
  37  0.500  0.250  0.451-   5 2.11   6 2.11   7 2.11  15 2.11  22 2.11   9 2.12
  38  0.250  0.250  0.352-   6 2.11   5 2.11   4 2.11  12 2.11  21 2.11
  39  0.500  0.000  0.352-   7 2.11   5 2.11   4 2.11  13 2.11  20 2.11
  40  0.250  0.000  0.650-  10 2.11  27 2.11  11 2.11  18 2.11   8 2.14
  41  0.500  0.250  0.650-  19 2.10  11 2.11  10 2.11  26 2.11   9 2.13
  42  0.250  0.250  0.550-  10 2.10  16 2.11   9 2.11   8 2.11  25 2.11   6 2.11
  43  0.500  1.000  0.550-  11 2.10  17 2.11   9 2.11   8 2.11  24 2.11   7 2.11
  44  0.250  0.500  0.451-  12 2.11   6 2.11  14 2.11  15 2.11  31 2.11  16 2.12
  45  0.500  0.750  0.451-  13 2.11   7 2.11  14 2.11  15 2.11  30 2.11  17 2.13
  46  0.250  0.750  0.352-  14 2.11  12 2.11  13 2.11   4 2.11  29 2.11
  47  0.500  0.500  0.352-  15 2.11  12 2.11  13 2.11   5 2.11  28 2.11
  48  0.250  0.500  0.650-  19 2.10  35 2.11  10 2.11  18 2.11  16 2.13
  49  0.499  0.750  0.651-  18 2.11  11 2.12  19 2.12  34 2.12  17 2.14
  50  0.250  0.750  0.550-  18 2.10  16 2.11   8 2.11  17 2.11  33 2.11  14 2.11
  51  0.500  0.500  0.550-  19 2.09  32 2.11  17 2.11   9 2.11  16 2.11  15 2.11
  52  0.750  0.000  0.451-  20 2.11   7 2.11  22 2.11  23 2.11  30 2.11  24 2.12
  53  0.000  0.250  0.451-  21 2.11   6 2.11  22 2.11  23 2.11  31 2.11  25 2.12
  54  0.750  0.250  0.352-  22 2.11  20 2.11  21 2.11   5 2.11  28 2.11
  55  0.000  0.000  0.352-  23 2.11  20 2.11  21 2.11   4 2.11  29 2.11
  56  0.750  0.001  0.650-  26 2.10  34 2.11  27 2.11  11 2.11  24 2.13
  57  1.000  0.250  0.650-  10 2.11  27 2.11  35 2.11  26 2.11  25 2.14
  58  0.750  0.250  0.550-  26 2.10   9 2.11  25 2.11  32 2.11  24 2.11  22 2.11
  59  1.000  0.000  0.550-  27 2.10   8 2.11  24 2.11  25 2.11  33 2.11  23 2.11
  60  0.750  0.500  0.451-  28 2.11  22 2.11  15 2.11  30 2.11  31 2.11  32 2.13
  61  0.000  0.750  0.451-  29 2.11  23 2.11  14 2.11  30 2.11  31 2.11  33 2.12
  62  0.750  0.750  0.352-  30 2.11  20 2.11  28 2.11  29 2.11  13 2.11
  63  0.000  0.500  0.352-  31 2.11  21 2.11  28 2.11  29 2.11  12 2.11
  64  0.749  0.500  0.651-  26 2.11  35 2.12  19 2.12  34 2.12  32 2.15
  65  0.001  0.750  0.650-  18 2.10  34 2.11  27 2.11  35 2.11  33 2.13
  66  0.750  0.750  0.550-  32 2.11  17 2.11  33 2.11  24 2.11  30 2.12  34 2.12
  67  1.000  0.500  0.550-  35 2.10  32 2.11  16 2.11  25 2.11  33 2.11  31 2.12

IMPORTANT INFORMATION: All symmetrisations will be switched off!
NOSYMM: (Re-)initialisation of all symmetry stuff for point group C_1.

                                     Primitive cell

  volume of cell :    1519.6535

  direct lattice vectors                    reciprocal lattice vectors
     8.440582262  0.000000000  0.000000000     0.118475239  0.000000000  0.000000000
     0.000000000  8.440582262  0.000000000     0.000000000  0.118475239  0.000000000
     0.000000000  0.000000000 21.330436697     0.000000000  0.000000000  0.046881366

  length of vectors
     8.440582262  8.440582262 21.330436697     0.118475239  0.118475239  0.046881366

  position of ions in fractional coordinates (direct lattice)
     0.531934137  0.546520345  0.790420180
     0.627735647  0.638429656  0.780841068
     0.728369123  0.734986257  0.769776071
     0.250000000  0.000000000  0.351610242
     0.500000000  0.250000000  0.351610242
     0.250000000  0.250000000  0.450536747
     0.500000000  0.000000000  0.450536747
     0.249885421  0.999852342  0.549868399
     0.499930520  0.249734412  0.549816505
     0.249763368  0.249890506  0.648214976
     0.499876593  0.000129797  0.648171809
     0.250000000  0.500000000  0.351610242
     0.500000000  0.750000000  0.351610242
     0.250000000  0.750000000  0.450536747
     0.500000000  0.500000000  0.450536747
     0.249631850  0.499995760  0.549824823
     0.500237370  0.749975151  0.550160809
     0.249657077  0.749879999  0.648169760
     0.498553617  0.498683392  0.647838422
     0.750000000  0.000000000  0.351610242
     0.000000000  0.250000000  0.351610242
     0.750000000  0.250000000  0.450536747
     0.000000000  0.000000000  0.450536747
     0.750046386  0.999809490  0.550039618
     0.999776120  0.249975237  0.549880660
     0.749770310  0.249802537  0.648196839
     0.000003756  0.000132777  0.648249479
     0.750000000  0.500000000  0.351610242
     0.000000000  0.750000000  0.351610242
     0.750000000  0.750000000  0.450536747
     0.000000000  0.500000000  0.450536747
     0.749907380  0.500319163  0.550169054
     0.999721226  0.750089047  0.550042489
     0.751046044  0.751177024  0.649539815
     0.999970556  0.499993944  0.648240051
     0.250000000  0.000000000  0.450536747
     0.500000000  0.250000000  0.450536747
     0.250000000  0.250000000  0.351610242
     0.500000000  0.000000000  0.351610242
     0.249913481  0.000011034  0.650112911
     0.499652670  0.249677156  0.649878529
     0.249889289  0.249955523  0.549568943
     0.499940104  0.999800137  0.549666826
     0.250000000  0.500000000  0.450536747
     0.500000000  0.750000000  0.450536747
     0.250000000  0.750000000  0.351610242
     0.500000000  0.500000000  0.351610242
     0.249548089  0.499769249  0.649855678
     0.499472445  0.749592756  0.650686351
     0.250068798  0.749907739  0.549640893
     0.499882767  0.499942880  0.549664806
     0.750000000  0.000000000  0.450536747
     0.000000000  0.250000000  0.450536747
     0.750000000  0.250000000  0.351610242
     0.000000000  0.000000000  0.351610242
     0.749971397  0.000700201  0.649912281
     0.999899833  0.250030779  0.650121715
     0.749837728  0.250171312  0.549651698
     0.999968535  0.000034524  0.549641266
     0.750000000  0.500000000  0.450536747
     0.000000000  0.750000000  0.450536747
     0.750000000  0.750000000  0.351610242
     0.000000000  0.500000000  0.351610242
     0.749370858  0.499665800  0.650761115
     0.000546248  0.750087472  0.649952710
     0.749870825  0.749932270  0.549999218
     0.999698564  0.500009834  0.549691597

  ion indices of the primitive-cell ions
   primitive index   ion index
                 1           1
                 2           2
                 3           3
                 4           4
                 5           5
                 6           6
[...]
      2.10815      2.10922     13.82671        -0.005602     -0.005558      0.005392
      4.21925      0.00110     13.82579         0.002521     -0.000715     -0.001124
      2.11015      4.22029      7.50000         0.000007      0.000535      0.316207
      4.22029      6.33044      7.50000         0.000859     -0.000161      0.320783
      2.11015      6.33044      9.61015         0.006253      0.001228      0.031928
      4.22029      4.22029      9.61015         0.007164      0.007942      0.028793
      2.10704      4.22026     11.72800         0.002622      0.000882      0.000227
      4.22229      6.33023     11.73517         0.001957     -0.004446     -0.002720
      2.10725      6.32942     13.82574        -0.001799      0.001539     -0.000125
      4.20808      4.20918     13.81868         0.005133      0.004831     -0.009014
      6.33044      0.00000      7.50000        -0.000076     -0.000710      0.317828
      0.00000      2.11015      7.50000        -0.000532      0.000143      0.317776
      6.33044      2.11015      9.61015         0.000535      0.007749      0.032201
      0.00000      0.00000      9.61015        -0.002408     -0.001660      0.024908
      6.33083      8.43897     11.73259        -0.006404      0.001642     -0.003199
      8.43869      2.10994     11.72919         0.003441      0.001329      0.004372
      6.32850      2.10848     13.82632         0.001863     -0.001600     -0.000398
      0.00003      0.00112     13.82744         0.003299      0.002881      0.003026
      6.33044      4.22029      7.50000        -0.000131      0.000848      0.320858
      0.00000      6.33044      7.50000        -0.000706     -0.000117      0.317888
      6.33044      6.33044      9.61015        -0.005295     -0.004605      0.041531
      0.00000      4.22029      9.61015        -0.014470      0.002799      0.026668
      6.32965      4.22299     11.73535        -0.005167      0.001595     -0.002782
      8.43823      6.33119     11.73265         0.001857     -0.005360     -0.003081
      6.33927      6.34037     13.85497        -0.003215     -0.003441     -0.000647
      8.44033      4.22024     13.82724        -0.000621      0.002080     -0.000900
      2.11015      0.00000      9.61015        -0.000538     -0.000437      0.046559
      4.22029      2.11015      9.61015        -0.002837     -0.003588      0.048313
      2.11015      2.11015      7.50000         0.000338      0.000335     -0.401593
      4.22029      0.00000      7.50000        -0.000487      0.001638     -0.402910
      2.10942      0.00009     13.86719         0.004197      0.000879      0.004627
      4.21736      2.10742     13.86219        -0.002977      0.002698      0.005943
      2.10921      2.10977     11.72255        -0.003292     -0.003272      0.007275
      4.21979      8.43890     11.72463        -0.004553     -0.001953      0.002101
      2.11015      4.22029      9.61015        -0.005455     -0.001966      0.049145
      4.22029      6.33044      9.61015         0.005374     -0.002293      0.058327
      2.11015      6.33044      7.50000        -0.000768     -0.000408     -0.402885
      4.22029      4.22029      7.50000        -0.001968     -0.001903     -0.403092
      2.10633      4.21834     13.86171         0.003513     -0.002620      0.005612
      4.21584      6.32700     13.87942        -0.002735     -0.001593     -0.002757
      2.11073      6.32966     11.72408         0.001327      0.005911     -0.001481
      4.21930      4.21981     11.72459         0.000865      0.001145      0.003180
      6.33044      0.00000      9.61015        -0.000331     -0.003361      0.058832
      0.00000      2.11015      9.61015        -0.001684      0.001009      0.047580
      6.33044      2.11015      7.50000        -0.000416     -0.000819     -0.402891
      0.00000      0.00000      7.50000         0.000566      0.000580     -0.402612
      6.33020      0.00591     13.86291        -0.000816     -0.001073     -0.001691
      8.43974      2.11041     13.86738         0.000604      0.003776      0.004043
      6.32907      2.11159     11.72431         0.006228      0.001786     -0.001593
      8.44032      0.00029     11.72409         0.003061      0.002648     -0.000612
      6.33044      4.22029      9.61015        -0.003141      0.006565      0.058429
      0.00000      6.33044      9.61015        -0.004910      0.000168      0.058775
      6.33044      6.33044      7.50000         0.000932      0.001019     -0.404454
      0.00000      4.22029      7.50000         0.001671     -0.000501     -0.402918
      6.32513      4.21747     13.88102        -0.001295     -0.002299     -0.003226
      0.00461      6.33118     13.86378        -0.001264     -0.000734     -0.001879
      6.32935      6.32987     11.73172         0.000241     -0.000161     -0.000591
      8.43804      4.22037     11.72516        -0.002158     -0.004390      0.001366
    total drift:                               -0.003917     -0.000926     -0.010398

  FREE ENERGIE OF THE ION-ELECTRON SYSTEM (eV)
  free  energy   TOTEN  =      -282.36692158 eV

  energy  without entropy=     -282.36692158  energy(sigma->0) =     -282.36692158

 d Force =-0.2023327E-04[-0.121E-02, 0.117E-02]  d Energy = 0.5542141E-05-0.258E-04
 d Force =-0.3004461E+02[-0.301E+02,-0.300E+02]  d Ewald  =-0.3004435E+02-0.261E-03

 Finite differences progress:
  Degree of freedom:   9/  9
  Displacement:        2/  2
  Total:              18/ 18

 SECOND DERIVATIVES (NOT SYMMETRIZED)
               1X          1Y          1Z          2X          2Y          2Z          3X          3Y          3Z
  1X   -60.712952  -55.538015   14.869242   59.335785   51.765827  -14.061392    1.553873    3.937583   -1.078380
  1Y   -55.525646  -56.106867   14.259764   51.731317   55.035914  -13.438200    3.955570    1.226102   -1.064741
  1Z    14.855679   14.249777   -6.441660  -13.878710  -13.270086    8.574264   -0.955122   -0.941152   -2.160216
  2X    59.320272   51.744385  -13.895080  -96.949635  -82.917279   23.309596   37.022168   30.600044   -9.076063
  2Y    51.766662   55.035555  -13.288514  -82.913450  -90.165035   22.278476   30.584158   34.499485   -8.665408
  2Z   -14.051723  -13.431391    8.567678   23.283602   22.260642  -16.815777   -8.876497   -8.477992    7.740685
  3X     1.553288    3.957541   -0.953859   37.022947   30.579712   -8.889011  -38.545537  -34.371752    9.759829
  3Y     3.938338    1.229166   -0.942854   30.597967   34.500559   -8.485739  -34.362470  -35.722155    9.357081
  3Z    -1.078596   -1.065797   -2.158527   -9.065281   -8.652234    7.754505    9.745656    9.351182   -5.966610

 Eigenvectors and eigenvalues of the dynamical matrix

   1 f  =   69.761265 THz   438.322954 2PiTHz 2326.985320 cm-1   288.509279 meV
             X         Y         Z           dx          dy          dz
      4.489834  4.612950 16.860008     0.392379    0.376347   -0.100706
      5.298454  5.388718 16.655681    -0.567814   -0.544911    0.151512
      6.147859  6.203712 16.419660     0.161176    0.154696   -0.045341
      2.110146  0.000000  7.500000            0           0           0
      4.220291  2.110146  7.500000            0           0           0
      2.110146  2.110146  9.610146            0           0           0
      4.220291  0.000000  9.610146            0           0           0
      2.109178  8.439336 11.728933            0           0           0
      4.219705  2.107904 11.727826            0           0           0
      2.108148  2.109221 13.826709            0           0           0
      4.219250  0.001096 13.825788            0           0           0
      2.110146  4.220291  7.500000            0           0           0
      4.220291  6.330437  7.500000            0           0           0
      2.110146  6.330437  9.610146            0           0           0
      4.220291  4.220291  9.610146            0           0           0
      2.107038  4.220255 11.728004            0           0           0
      4.222295  6.330227 11.735170            0           0           0
      2.107251  6.329424 13.825744            0           0           0
      4.208083  4.209178 13.818676            0           0           0
      6.330437  0.000000  7.500000            0           0           0
      0.000000  2.110146  7.500000            0           0           0
      6.330437  2.110146  9.610146            0           0           0
      0.000000  0.000000  9.610146            0           0           0
      6.330828  8.438974 11.732585            0           0           0
      8.438693  2.109937 11.729195            0           0           0
      6.328498  2.108479 13.826322            0           0           0
      0.000032  0.001121 13.827444            0           0           0
      6.330437  4.220291  7.500000            0           0           0
      0.000000  6.330437  7.500000            0           0           0
      6.330437  6.330437  9.610146            0           0           0
      0.000000  4.220291  9.610146            0           0           0
      6.329655  4.222985 11.735346            0           0           0
      8.438229  6.331188 11.732647            0           0           0
      6.339266  6.340371 13.854968            0           0           0
      8.440334  4.220240 13.827243            0           0           0
      2.110146  0.000000  9.610146            0           0           0
      4.220291  2.110146  9.610146            0           0           0
      2.110146  2.110146  7.500000            0           0           0
      4.220291  0.000000  7.500000            0           0           0
      2.109415  0.000093 13.867192            0           0           0
      4.217359  2.107421 13.862193            0           0           0
      2.109211  2.109770 11.722546            0           0           0
      4.219786  8.438895 11.724633            0           0           0
      2.110146  4.220291  9.610146            0           0           0
      4.220291  6.330437  9.610146            0           0           0
      2.110146  6.330437  7.500000            0           0           0
      4.220291  4.220291  7.500000            0           0           0
      2.106331  4.218343 13.861705            0           0           0
      4.215838  6.326999 13.879424            0           0           0
      2.110726  6.329658 11.724080            0           0           0
      4.219302  4.219809 11.724590            0           0           0
      6.330437  0.000000  9.610146            0           0           0
      0.000000  2.110146  9.610146            0           0           0
      6.330437  2.110146  7.500000            0           0           0
      0.000000  0.000000  7.500000            0           0           0
      6.330195  0.005910 13.862913            0           0           0
      8.439737  2.110405 13.867380            0           0           0
      6.329067  2.111592 11.724311            0           0           0
      8.440317  0.000291 11.724088            0           0           0
      6.330437  4.220291  9.610146            0           0           0
      0.000000  6.330437  9.610146            0           0           0
      6.330437  6.330437  7.500000            0           0           0
      0.000000  4.220291  7.500000            0           0           0
      6.325126  4.217470 13.881019            0           0           0
      0.004611  6.331175 13.863775            0           0           0
      6.329346  6.329865 11.731724            0           0           0
      8.438038  4.220374 11.725162            0           0           0

[...]

   9 f  =    0.870370 THz     5.468697 2PiTHz   29.032426 cm-1     3.599560 meV
             X         Y         Z           dx          dy          dz
      4.489834  4.612950 16.860008     0.595751   -0.459268    0.051504
      5.298454  5.388718 16.655681     0.446552   -0.317418    0.002049
      6.147859  6.203712 16.419660     0.309927   -0.179956   -0.053804
      2.110146  0.000000  7.500000            0           0           0
      4.220291  2.110146  7.500000            0           0           0
      2.110146  2.110146  9.610146            0           0           0
      4.220291  0.000000  9.610146            0           0           0
      2.109178  8.439336 11.728933            0           0           0
      4.219705  2.107904 11.727826            0           0           0
      2.108148  2.109221 13.826709            0           0           0
      4.219250  0.001096 13.825788            0           0           0
      2.110146  4.220291  7.500000            0           0           0
      4.220291  6.330437  7.500000            0           0           0
      2.110146  6.330437  9.610146            0           0           0
      4.220291  4.220291  9.610146            0           0           0
      2.107038  4.220255 11.728004            0           0           0
      4.222295  6.330227 11.735170            0           0           0
      2.107251  6.329424 13.825744            0           0           0
      4.208083  4.209178 13.818676            0           0           0
      6.330437  0.000000  7.500000            0           0           0
      0.000000  2.110146  7.500000            0           0           0
      6.330437  2.110146  9.610146            0           0           0
      0.000000  0.000000  9.610146            0           0           0
      6.330828  8.438974 11.732585            0           0           0
      8.438693  2.109937 11.729195            0           0           0
      6.328498  2.108479 13.826322            0           0           0
      0.000032  0.001121 13.827444            0           0           0
      6.330437  4.220291  7.500000            0           0           0
      0.000000  6.330437  7.500000            0           0           0
      6.330437  6.330437  9.610146            0           0           0
      0.000000  4.220291  9.610146            0           0           0
      6.329655  4.222985 11.735346            0           0           0
      8.438229  6.331188 11.732647            0           0           0
      6.339266  6.340371 13.854968            0           0           0
      8.440334  4.220240 13.827243            0           0           0
      2.110146  0.000000  9.610146            0           0           0
      4.220291  2.110146  9.610146            0           0           0
      2.110146  2.110146  7.500000            0           0           0
      4.220291  0.000000  7.500000            0           0           0
      2.109415  0.000093 13.867192            0           0           0
      4.217359  2.107421 13.862193            0           0           0
      2.109211  2.109770 11.722546            0           0           0
      4.219786  8.438895 11.724633            0           0           0
      2.110146  4.220291  9.610146            0           0           0
      4.220291  6.330437  9.610146            0           0           0
      2.110146  6.330437  7.500000            0           0           0
      4.220291  4.220291  7.500000            0           0           0
      2.106331  4.218343 13.861705            0           0           0
      4.215838  6.326999 13.879424            0           0           0
      2.110726  6.329658 11.724080            0           0           0
      4.219302  4.219809 11.724590            0           0           0
      6.330437  0.000000  9.610146            0           0           0
      0.000000  2.110146  9.610146            0           0           0
      6.330437  2.110146  7.500000            0           0           0
      0.000000  0.000000  7.500000            0           0           0
      6.330195  0.005910 13.862913            0           0           0
      8.439737  2.110405 13.867380            0           0           0
      6.329067  2.111592 11.724311            0           0           0
      8.440317  0.000291 11.724088            0           0           0
      6.330437  4.220291  9.610146            0           0           0
      0.000000  6.330437  9.610146            0           0           0
      6.330437  6.330437  7.500000            0           0           0
      0.000000  4.220291  7.500000            0           0           0
      6.325126  4.217470 13.881019            0           0           0
      0.004611  6.331175 13.863775            0           0           0
      6.329346  6.329865 11.731724            0           0           0
      8.438038  4.220374 11.725162            0           0           0

 Finite differences POTIM=   1.0000000000000000E-002