 vasp.6.3.0 20Jan22 (build Apr  1 2022 16:44:48) gamma-only
 executed on        HPECrayEX_GCC date 2023.02.22  03:46:25

 INCAR:
   SYSTEM = MgO-rocksalt
   ISMEAR = 0
   SIGMA = 0.05
   EDIFF = 1E-6
   ALGO = ALL
   ISTART = 0
   IBRION = -1
   NSW = 0
   ISYM = 0
   DIPOL = 0.5 0.5 0.5
   IDIPOL = 3
   LDIPOL = .TRUE.
   GGA = RE
   AGGAC = 0.0
   LUSE_VDW = .TRUE.
   LASPH = .TRUE.
   ENCUT = 520
   PREC = Accurate
   LASPH = .TRUE.
   LREAL = Auto
   ISPIN = 1
   NELM = 200
   NELMIN = 8
   NCORE = 8
   KPAR = 1
   LWAVE = .FALSE.
   LCHARG = .FALSE.

 POTCAR:    PAW_PBE H 15Jun2001
 POTCAR:    PAW_PBE O 08Apr2002
 POTCAR:    PAW_PBE Mg_pv 13Apr2007
 POTCAR:    PAW_PBE O 08Apr2002
|               ----> ADVICE to this user running VASP <----                  |
|     You have switched on vdW-DFT.                                           |
|     This routine was written and supplied by Jiri Klimes. We recommend      |
|     that you carefully read and cite the following publications:            |
|       J. Klimes, D.R. Bowler, A. Michelides                                 |
|          J. Phys.: Cond Matt. 22 022201 (2010)                              |
|       J. Klimes, D.R. Bowler, A. Michelides                                 |
|          Phys. Rev. B. 83, 195131 (2011)                                    |
|     and references therein.                                                 |

   TITEL  = PAW_PBE H 15Jun2001
   POMASS =    1.000; ZVAL   =    1.000    mass and valenz
   ENMAX  =  250.000; ENMIN  =  200.000 eV

   TITEL  = PAW_PBE O 08Apr2002
   POMASS =   16.000; ZVAL   =    6.000    mass and valenz
   ENMAX  =  400.000; ENMIN  =  300.000 eV

   TITEL  = PAW_PBE Mg_pv 13Apr2007
   POMASS =   24.305; ZVAL   =    8.000    mass and valenz
   ENMAX  =  403.929; ENMIN  =  302.947 eV

   TITEL  = PAW_PBE O 08Apr2002
   POMASS =   16.000; ZVAL   =    6.000    mass and valenz
   ENMAX  =  400.000; ENMIN  =  300.000 eV

 Optimization of the real space projectors (new method)

 maximal supplied QI-value         = 34.20
 optimisation between [QCUT,QGAM] = [ 11.63, 23.26] = [ 37.87,151.49] Ry
 Optimized for a Real-space Cutoff    1.21 Angstroem

   l    n(q)    QCUT    max X(q) W(low)/X(q) W(high)/X(q)  e(spline)
   0      8    11.629    19.460    0.17E-03    0.34E-03    0.21E-06
   0      8    11.629    12.209    0.16E-03    0.33E-03    0.21E-06
   1      8    11.629     4.655    0.18E-03    0.16E-03    0.26E-06
 Optimization of the real space projectors (new method)

[...]

   l    n(q)    QCUT    max X(q) W(low)/X(q) W(high)/X(q)  e(spline)
   1      8    11.527     2.974    0.44E-04    0.56E-04    0.12E-06
   1      8    11.527     4.279    0.12E-03    0.12E-03    0.26E-06
   0      9    11.527    16.381    0.46E-04    0.64E-04    0.78E-07
   0      9    11.527     5.611    0.26E-04    0.43E-04    0.55E-07
   2      8    11.527     4.652    0.22E-03    0.72E-04    0.47E-07
 Optimization of the real space projectors (new method)

 maximal supplied QI-value         = 24.76
 optimisation between [QCUT,QGAM] = [ 11.64, 23.27] = [ 37.91,151.63] Ry
 Optimized for a Real-space Cutoff    1.14 Angstroem

   l    n(q)    QCUT    max X(q) W(low)/X(q) W(high)/X(q)  e(spline)
   0      8    11.635    20.381    0.10E-03    0.33E-03    0.24E-06
   0      8    11.635    15.268    0.11E-03    0.35E-03    0.26E-06
   1      7    11.635     5.964    0.24E-03    0.31E-03    0.30E-06
   1      7    11.635     5.382    0.22E-03    0.25E-03    0.26E-06
|               ----> ADVICE to this user running VASP <----                  |
|     You enforced a specific xc type in the INCAR file but a different       |
|     type was found in the POTCAR file.                                      |
|     I HOPE YOU KNOW WHAT YOU ARE DOING!                                     |

  PAW_PBE H 15Jun2001                   :
  PAW_PBE O 08Apr2002                   :
  PAW_PBE Mg_pv 13Apr2007               :
  PAW_PBE O 08Apr2002                   :

 POSCAR:  H  O Mg  O
  positions in direct lattice
 exchange correlation table for  LEXCH =       40
   RHO(1)=    0.500       N(1)  =     2000
   RHO(2)=  100.500       N(2)  =     4000

 ion  position               nearest neighbor table
   1  0.414  0.429  0.762-   9 0.99
   2  0.329  0.391  0.768-   9 0.97
   3  0.585  0.324  0.763-  10 0.99
   4  0.671  0.360  0.768-  10 0.97
   5  0.448  0.292  0.762-  11 0.99
   6  0.484  0.206  0.771-  11 0.97
   7  0.553  0.463  0.762-  12 0.99
   8  0.515  0.549  0.765-  12 0.97
   9  0.383  0.380  0.757-   2 0.97   1 0.99
  10  0.617  0.372  0.757-   4 0.97   3 0.99
  11  0.497  0.259  0.757-   6 0.97   5 0.99
  12  0.504  0.494  0.756-   8 0.97   7 0.99
  13  0.000  0.375  0.352- 141 2.11 144 2.11 151 2.11 175 2.11 224 2.11
  14  0.125  0.000  0.352- 142 2.11 143 2.11 152 2.11 159 2.11 176 2.11
  15  0.000  0.000  0.451- 147 2.11 143 2.11 142 2.11 149 2.11 173 2.11 222 2.11
  16  0.125  0.375  0.451- 144 2.11 141 2.11 150 2.11 157 2.11 174 2.11 148 2.11
  17  0.000  0.375  0.550- 228 2.11 148 2.11 155 2.11 179 2.11 141 2.11 145 2.15
  18  0.125  1.000  0.550- 163 2.11 156 2.11 147 2.11 180 2.11 142 2.11 146 2.15
  19  0.000  1.000  0.648- 147 2.10 226 2.11 146 2.11 177 2.11 153 2.11
  20  0.125  0.375  0.648- 148 2.10 161 2.10 145 2.11 154 2.11 178 2.11
  21  0.000  0.125  0.352- 149 2.11 143 2.11 151 2.11 152 2.11 232 2.11
  22  0.125  0.250  0.352- 150 2.11 144 2.11 151 2.11 152 2.11 167 2.11
  23  0.000  0.250  0.451- 155 2.11 151 2.11 150 2.11 141 2.11 149 2.11 230 2.11
  24  0.125  0.125  0.451- 156 2.11 152 2.11 150 2.11 142 2.11 149 2.11 165 2.11
  25  0.000  0.125  0.550- 236 2.11 156 2.11 147 2.11 155 2.11 149 2.11 153 2.15
  26  0.125  0.250  0.550- 171 2.10 155 2.11 148 2.11 156 2.11 150 2.11 154 2.15
  27  0.000  0.250  0.648- 155 2.10 154 2.11 234 2.11 153 2.11 145 2.11
  28  0.125  0.125  0.648- 156 2.10 169 2.11 153 2.11 154 2.11 146 2.11
  29  0.250  0.375  0.352- 157 2.11 144 2.11 160 2.11 167 2.11 191 2.11
  30  0.375  0.000  0.352- 158 2.11 159 2.11 168 2.11 192 2.11 207 2.11
  31  0.250  0.000  0.451- 163 2.11 159 2.11 142 2.11 158 2.11 165 2.11 189 2.11
  32  0.375  0.375  0.451- 160 2.11 157 2.11 166 2.11 190 2.11 205 2.11 164 2.12
  33  0.250  0.375  0.550- 164 2.09 171 2.11 195 2.11 148 2.12 157 2.12 161 2.17
  34  0.375  1.000  0.550- 172 2.10 211 2.11 196 2.11 163 2.11 158 2.11 162 2.15
  35  0.250  1.000  0.648- 163 2.10 169 2.10 193 2.11 162 2.11 146 2.11
  36  0.376  0.374  0.650- 209 2.10 170 2.12 161 2.14 194 2.14 164 2.15
  37  0.250  0.125  0.352- 165 2.11 159 2.11 152 2.11 167 2.11 168 2.11
  38  0.375  0.250  0.352- 166 2.11 160 2.11 167 2.11 168 2.11 215 2.11
  39  0.250  0.250  0.451- 171 2.11 167 2.11 165 2.11 166 2.11 150 2.11 157 2.11
  40  0.375  0.125  0.451- 172 2.11 168 2.11 166 2.11 158 2.11 165 2.11 213 2.11
  41  0.250  0.125  0.550- 171 2.11 172 2.11 156 2.11 165 2.11 163 2.11 169 2.15
  42  0.375  0.250  0.550- 164 2.10 219 2.10 170 2.12 172 2.12 171 2.12 166 2.12
  43  0.250  0.250  0.647- 171 2.09 170 2.09 154 2.11 169 2.11 161 2.12
  44  0.375  0.125  0.647- 172 2.08 170 2.09 162 2.11 169 2.11 217 2.12
  45  0.000  0.875  0.352- 173 2.11 143 2.11 176 2.11 183 2.11 256 2.11
  46  0.125  0.500  0.352- 174 2.11 144 2.11 175 2.11 184 2.11 191 2.11
  47  0.000  0.500  0.451- 179 2.11 175 2.11 141 2.11 174 2.11 181 2.11 254 2.11
  48  0.125  0.875  0.451- 180 2.11 176 2.11 142 2.11 173 2.11 182 2.11 189 2.11
  49  0.000  0.875  0.550- 180 2.11 147 2.11 260 2.11 187 2.11 173 2.11 177 2.14
  50  0.125  0.500  0.550- 195 2.10 179 2.11 148 2.11 188 2.11 174 2.11 178 2.15
  51  1.000  0.500  0.648- 179 2.10 258 2.11 178 2.11 185 2.11 145 2.11
  52  0.125  0.875  0.648- 180 2.10 186 2.11 146 2.11 177 2.11 193 2.11
  53  0.000  0.625  0.352- 181 2.11 175 2.11 183 2.11 184 2.11 264 2.11
  54  0.125  0.750  0.352- 182 2.11 176 2.11 183 2.11 184 2.11 199 2.11
  55  0.000  0.750  0.451- 187 2.11 183 2.11 182 2.11 173 2.11 181 2.11 262 2.11
  56  0.125  0.625  0.451- 188 2.11 184 2.11 182 2.11 174 2.11 181 2.11 197 2.11
  57  0.000  0.625  0.550- 268 2.11 188 2.11 187 2.11 179 2.11 181 2.11 185 2.15
  58  0.125  0.750  0.550- 203 2.11 188 2.11 180 2.11 187 2.11 182 2.11 186 2.15
  59  0.000  0.750  0.648- 187 2.10 266 2.11 186 2.11 177 2.11 185 2.11
  60  0.125  0.625  0.648- 188 2.10 201 2.11 185 2.11 178 2.11 186 2.11
[...]
 254  0.875  0.500  0.451- 126 2.11  96 2.11  47 2.11 127 2.11 136 2.11 130 2.11
 255  0.750  0.500  0.352- 127 2.11 110 2.11 126 2.11  93 2.11 133 2.11
 256  0.875  0.875  0.352- 128 2.11  94 2.11 125 2.11  45 2.11 134 2.11
 257  0.750  0.875  0.650- 139 2.11  99 2.11 132 2.11 116 2.11 129 2.15
 258  0.875  0.500  0.650-  51 2.11 140 2.11 131 2.11 100 2.11 130 2.15
 259  0.750  0.500  0.549- 131 2.09 130 2.10 127 2.11 137 2.11  97 2.11 114 2.12
 260  0.875  0.875  0.549- 132 2.10 128 2.11 138 2.11  49 2.11  98 2.11 129 2.11
 261  0.750  0.625  0.451- 133 2.11 127 2.11 120 2.11 135 2.11 136 2.11 137 2.11
 262  0.875  0.750  0.451- 134 2.11 128 2.11  55 2.11 135 2.11 136 2.11 138 2.11
 263  0.750  0.750  0.352- 135 2.11 125 2.11 133 2.11 134 2.11 118 2.11
 264  0.875  0.625  0.352- 136 2.11 126 2.11 133 2.11 134 2.11  53 2.11
 265  0.750  0.625  0.650- 140 2.11 139 2.11 124 2.11 131 2.11 137 2.15
 266  0.875  0.750  0.650-  59 2.11 132 2.11 139 2.11 140 2.11 138 2.14
 267  0.750  0.750  0.549- 139 2.10 135 2.11 129 2.11 138 2.11 122 2.11 137 2.11
 268  0.875  0.625  0.549- 140 2.10  57 2.11 136 2.11 138 2.11 137 2.11 130 2.11

IMPORTANT INFORMATION: All symmetrisations will be switched off!
NOSYMM: (Re-)initialisation of all symmetry stuff for point group C_1.

                                     Primitive cell

  volume of cell :    6079.2794

  direct lattice vectors                    reciprocal lattice vectors
    16.881969308  0.000000000  0.000000000     0.059234796  0.000000000  0.000000000
     0.000000000 16.881969308  0.000000000     0.000000000  0.059234796  0.000000000
     0.000000000  0.000000000 21.330738491     0.000000000  0.000000000  0.046880702

  length of vectors
    16.881969308 16.881969308 21.330738491     0.059234796  0.059234796  0.046880702

  position of ions in fractional coordinates (direct lattice)
     0.414341837  0.428715694  0.761860915
     0.328928198  0.391065431  0.768397373
     0.585107087  0.324094252  0.762729627
     0.671488833  0.359542978  0.768435381
     0.448176468  0.291715406  0.762344371
     0.484469126  0.205986330  0.770609068
     0.553080855  0.463483134  0.762191520
     0.515411944  0.549287239  0.764963745
     0.383350027  0.379545401  0.756545400
     0.617352665  0.372339636  0.756604586
     0.496544799  0.259474257  0.756719011
     0.503712865  0.493923001  0.756279389
     0.000000000  0.375000000  0.351605267
     0.125000000  0.000000000  0.351605267
     0.000000000  0.000000000  0.450535089
     0.125000000  0.375000000  0.450535089
     0.000000982  0.375008808  0.549650017
     0.124979125  0.999971962  0.549639455
     0.000024196  0.999918175  0.647814712
     0.124854050  0.375012226  0.647727005
     0.000000000  0.125000000  0.351605267
     0.125000000  0.250000000  0.351605267
[...]
   0.00000000 10.55123082  7.50000000
   2.11024616 12.66147698  7.50000000
   0.00000000 12.66147698  9.61024616
   2.11024616 10.55123082  9.61024616
   0.00027224 10.55220708 11.72411471
   2.11018379 12.66226519 11.72448766
   0.00014711 12.66321108 13.81814825
   2.10890165 10.55398168 13.81721681
[...]
  14.77172314  8.44098465  9.61024616
  12.66147698  8.44098465  7.50000000
  14.77172314 14.77172314  7.50000000
  12.66384110 14.77185866 13.86948536
  14.77480582  8.44433514 13.87050845
  12.66812748  8.44209748 11.71778984
  14.77278613 14.77164484 11.71921900
  12.66147698 10.55123082  9.61024616
  14.77172314 12.66147698  9.61024616
  12.66147698 12.66147698  7.50000000
  14.77172314 10.55123082  7.50000000
  12.66903950 10.55861742 13.86931473
  14.77454102 12.66397709 13.86956136
  12.66303113 12.66300371 11.71890209
  14.77372764 10.55268286 11.71890424

--------------------------------------- Iteration      FINAL  ---------------------------------------

--------------------OUTCAR has been truncated-------------------------

[...]

--------------------OUTCAR has been truncated-------------------------

  FORCE on cell =-STRESS in cart. coord.  units (eV):
  Direction    XX          YY          ZZ          XY          YZ          ZX
  Alpha Z  3597.19734  3597.19734  3597.19734
  Ewald  642833.07608642834.74099************    -0.11429   -11.62036    -1.06286
  Hartree683878.87215683880.56061************    -0.00539    -3.53077     0.35534
  E(xc)  -10240.71019-10240.70956-10253.17531    -0.00038    -0.08028    -0.01752
  Local  ************************************     0.04566    12.16206     0.03762
  n-local-11370.12126-11370.14048-11443.52486    -0.00243     0.00139     0.05836
  augment  4335.35748  4335.36777  4306.56904     0.00341     0.19584     0.04386
  Kinetic 29890.75693 29890.92943 30106.07158     0.08076     2.84379     0.49525
  Fock        0.00000     0.00000     0.00000     0.00000     0.00000     0.00000
  Total     -20.26038   -20.27247    70.33107     0.00735    -0.02833    -0.08994
  in kB      -5.33957    -5.34275    18.53556     0.00194    -0.00747    -0.02370

 VOLUME and BASIS-vectors are now :
  energy-cutoff  :      520.00
  volume of cell :     6079.28
      direct lattice vectors                 reciprocal lattice vectors
    16.881969308  0.000000000  0.000000000     0.059234796  0.000000000  0.000000000
     0.000000000 16.881969308  0.000000000     0.000000000  0.059234796  0.000000000
     0.000000000  0.000000000 21.330738491     0.000000000  0.000000000  0.046880702

  length of vectors
    16.881969308 16.881969308 21.330738491     0.059234796  0.059234796  0.046880702

 FORCES acting on ions:
    Electron-Ion                     Ewald-Force                    Non-Local-Force
   -.120E+02 -.671E+02 -.282E+03   0.165E+02 0.738E+02 0.283E+03   -.448E+01 -.668E+01 -.821E+00
   0.102E+03 -.167E+02 -.287E+03   -.111E+03 0.182E+02 0.290E+03   0.806E+01 -.148E+01 -.212E+01
   0.133E+02 0.653E+02 -.283E+03   -.179E+02 -.718E+02 0.284E+03   0.463E+01 0.652E+01 -.957E+00
   -.102E+03 0.186E+02 -.287E+03   0.110E+03 -.203E+02 0.290E+03   -.803E+01 0.167E+01 -.211E+01
   0.653E+02 -.132E+02 -.282E+03   -.718E+02 0.177E+02 0.283E+03   0.653E+01 -.462E+01 -.858E+00
   0.176E+02 0.101E+03 -.289E+03   -.191E+02 -.109E+03 0.292E+03   0.157E+01 0.795E+01 -.250E+01
   -.679E+02 0.114E+02 -.283E+03   0.746E+02 -.158E+02 0.284E+03   -.672E+01 0.442E+01 -.944E+00
   -.169E+02 -.104E+03 -.285E+03   0.184E+02 0.112E+03 0.286E+03   -.149E+01 -.818E+01 -.152E+01
   0.138E+03 0.325E+02 -.165E+04   -.121E+03 -.674E+02 0.164E+04   -.163E+02 0.350E+02 0.117E+02
   -.138E+03 -.345E+02 -.165E+04   0.123E+03 0.699E+02 0.163E+04   0.155E+02 -.354E+02 0.122E+02
   -.330E+02 0.139E+03 -.164E+04   0.678E+02 -.124E+03 0.163E+04   -.348E+02 -.152E+02 0.136E+02
   0.337E+02 -.136E+03 -.165E+04   -.691E+02 0.119E+03 0.164E+04   0.355E+02 0.170E+02 0.940E+01
   0.828E-02 0.386E-01 0.208E+04   -.970E-02 -.391E-01 -.208E+04   0.111E-02 0.316E-03 -.643E+01
   0.351E+01 0.347E+01 0.208E+04   -.351E+01 -.347E+01 -.207E+04   -.648E-02 -.704E-02 -.644E+01
   0.367E-01 0.487E+01 0.704E+03   -.373E-01 -.487E+01 -.705E+03   0.435E-03 -.425E-02 0.406E+00
   0.105E+02 0.164E+00 0.716E+03   -.104E+02 -.167E+00 -.716E+03   -.723E-01 0.222E-02 0.399E+00
   -.706E-01 0.108E+00 -.660E+03   0.650E-01 -.118E+00 0.661E+03   0.620E-02 0.736E-02 -.596E-01
   0.961E+01 0.945E+01 -.670E+03   -.959E+01 -.944E+01 0.670E+03   -.107E-01 -.904E-02 -.896E-01
   -.282E-01 0.105E+02 -.204E+04   0.260E-01 -.106E+02 0.204E+04   0.192E-02 0.146E-01 0.547E+01
   0.503E+02 0.499E+00 -.201E+04   -.500E+02 -.509E+00 0.201E+04   -.290E+00 0.782E-02 0.542E+01
   0.325E-02 0.453E+01 0.208E+04   -.413E-02 -.452E+01 -.207E+04   0.682E-03 -.748E-02 -.644E+01
   0.508E+01 0.357E+01 0.208E+04   -.505E+01 -.356E+01 -.208E+04   -.199E-01 -.891E-02 -.645E+01
   -.627E-01 0.502E+01 0.710E+03   0.649E-01 -.502E+01 -.711E+03   -.107E-02 -.662E-03 0.407E+00
   0.767E+01 0.819E+01 0.710E+03   -.766E+01 -.817E+01 -.710E+03   -.106E-01 -.118E-01 0.375E+00
   -.634E-01 0.112E+02 -.668E+03   0.657E-01 -.112E+02 0.668E+03   -.929E-03 0.154E-01 -.836E-01
   0.218E+02 0.110E+02 -.655E+03   -.216E+02 -.109E+02 0.655E+03   -.145E+00 -.282E-01 -.416E-01
   -.100E+00 0.128E+02 -.203E+04   0.105E+00 -.128E+02 0.203E+04   -.677E-02 0.524E-01 0.547E+01
   0.252E+02 0.230E+02 -.203E+04   -.251E+02 -.230E+02 0.203E+04   -.923E-01 -.122E-01 0.545E+01
   0.783E+01 0.723E-01 0.209E+04   -.779E+01 -.740E-01 -.208E+04   -.348E-01 0.119E-02 -.649E+01
   0.351E+01 0.505E+01 0.208E+04   -.350E+01 -.502E+01 -.208E+04   -.103E-01 -.208E-01 -.645E+01
   0.825E+01 0.760E+01 0.710E+03   -.823E+01 -.759E+01 -.710E+03   -.113E-01 -.110E-01 0.370E+00
   0.112E+02 0.199E+00 0.740E+03   -.111E+02 -.213E+00 -.740E+03   -.398E-01 0.102E-01 0.284E+00
   0.430E+02 0.498E+00 -.627E+03   -.425E+02 -.529E+00 0.627E+03   -.495E+00 0.302E-01 0.257E+00
   0.109E+02 0.219E+02 -.654E+03   -.109E+02 -.218E+02 0.654E+03   -.400E-01 -.137E+00 -.288E-01
   0.231E+02 0.252E+02 -.203E+04   -.231E+02 -.251E+02 0.203E+04   -.147E-01 -.100E+00 0.545E+01
   0.115E+03 0.353E+01 -.180E+04   -.114E+03 -.374E+01 0.180E+04   -.747E+00 0.207E+00 0.330E+01
   0.611E+01 0.610E+01 0.208E+04   -.608E+01 -.607E+01 -.208E+04   -.220E-01 -.215E-01 -.645E+01
   0.525E+01 0.531E+01 0.209E+04   -.522E+01 -.528E+01 -.208E+04   -.250E-01 -.222E-01 -.650E+01
   0.140E+02 0.822E+01 0.724E+03   -.139E+02 -.815E+01 -.724E+03   -.726E-01 -.534E-01 0.320E+00
   0.807E+01 0.139E+02 0.724E+03   -.799E+01 -.138E+02 -.725E+03   -.569E-01 -.709E-01 0.295E+00
   0.238E+02 0.236E+02 -.648E+03   -.238E+02 -.235E+02 0.648E+03   -.327E-01 -.456E-01 -.182E-01
   0.302E+02 0.306E+02 -.598E+03   -.299E+02 -.302E+02 0.599E+03   -.353E+00 -.350E+00 -.763E+00
   0.865E+02 0.457E+02 -.198E+04   -.860E+02 -.458E+02 0.197E+04   -.572E+00 0.102E+00 0.550E+01
   0.460E+02 0.867E+02 -.197E+04   -.460E+02 -.861E+02 0.197E+04   0.510E-01 -.578E+00 0.554E+01
   0.129E-01 -.320E-01 0.208E+04   -.136E-01 0.326E-01 -.207E+04   0.521E-03 -.478E-03 -.644E+01
   0.511E+01 -.351E+01 0.208E+04   -.508E+01 0.350E+01 -.208E+04   -.188E-01 0.975E-02 -.645E+01
   0.821E-01 -.494E+01 0.710E+03   -.865E-01 0.494E+01 -.711E+03   0.284E-02 0.517E-03 0.417E+00
   0.494E+01 -.364E-01 0.704E+03   -.494E+01 0.367E-01 -.705E+03   -.435E-02 -.375E-03 0.391E+00
   0.904E-01 -.690E-01 -.673E+03   -.965E-01 0.641E-01 0.674E+03   0.262E-02 0.168E-02 -.105E+00
   0.220E+02 -.108E+02 -.654E+03   -.219E+02 0.107E+02 0.654E+03   -.121E+00 0.300E-01 -.210E-01
   -.855E-01 -.126E+02 -.203E+04   0.665E-01 0.126E+02 0.203E+04   0.195E-01 -.482E-01 0.548E+01
   0.106E+02 -.188E+00 -.204E+04   -.106E+02 0.184E+00 0.204E+04   0.179E-01 0.295E-02 0.545E+01
   0.142E-01 -.454E+01 0.208E+04   -.153E-01 0.453E+01 -.207E+04   0.833E-03 0.750E-02 -.644E+01
   0.352E+01 -.353E+01 0.208E+04   -.351E+01 0.352E+01 -.207E+04   -.630E-02 0.608E-02 -.644E+01
   0.281E-01 -.495E+01 0.704E+03   -.284E-01 0.494E+01 -.705E+03   0.419E-03 0.243E-02 0.395E+00
   0.772E+01 -.831E+01 0.710E+03   -.771E+01 0.830E+01 -.710E+03   -.975E-02 0.834E-02 0.380E+00
   0.448E-01 -.112E+02 -.667E+03   -.508E-01 0.113E+02 0.667E+03   0.444E-02 -.211E-01 -.888E-01
   0.962E+01 -.962E+01 -.670E+03   -.963E+01 0.962E+01 0.670E+03   -.119E-02 0.636E-02 -.926E-01
   -.796E-01 -.107E+02 -.204E+04   0.755E-01 0.108E+02 0.204E+04   0.624E-02 -.185E-01 0.546E+01
   0.255E+02 -.233E+02 -.203E+04   -.255E+02 0.233E+02 0.203E+04   -.898E-01 0.924E-02 0.546E+01
[...]
   -.548E+01 -.326E+01 0.157E+04   0.545E+01 0.324E+01 -.157E+04   0.391E-01 0.265E-01 0.354E+01
   -.239E+01 -.289E-01 0.156E+04   0.238E+01 0.292E-01 -.157E+04   0.102E-01 0.284E-02 0.358E+01
   -.126E+02 -.217E+00 -.155E+04   0.126E+02 0.223E+00 0.156E+04   0.177E-01 -.678E-02 -.520E+01
   -.300E+02 -.147E+02 -.154E+04   0.299E+02 0.146E+02 0.155E+04   0.910E-01 0.751E-01 -.519E+01
   -.250E+02 -.135E+02 -.465E+03   0.247E+02 0.135E+02 0.465E+03   0.279E+00 0.403E-01 0.433E+00
   -.572E+01 -.111E+00 -.498E+03   0.571E+01 0.114E+00 0.498E+03   0.114E-01 -.160E-02 0.276E+00
   -.841E+01 -.837E+01 0.538E+03   0.837E+01 0.834E+01 -.538E+03   0.531E-01 0.459E-01 0.127E-01
   -.427E+01 -.430E+01 0.529E+03   0.426E+01 0.429E+01 -.529E+03   0.215E-01 0.133E-01 -.920E-02
   -.376E+01 -.324E+01 0.156E+04   0.375E+01 0.323E+01 -.157E+04   0.132E-01 0.125E-01 0.357E+01
   -.321E+01 -.375E+01 0.156E+04   0.320E+01 0.374E+01 -.157E+04   0.172E-01 0.107E-01 0.357E+01
   -.350E+02 -.344E+02 -.154E+04   0.349E+02 0.342E+02 0.154E+04   0.104E+00 0.130E+00 -.523E+01
   -.107E+02 -.108E+02 -.155E+04   0.107E+02 0.107E+02 0.156E+04   0.287E-01 0.392E-01 -.521E+01
   -.109E+02 -.110E+02 -.491E+03   0.109E+02 0.110E+02 0.491E+03   0.322E-01 0.439E-01 0.286E+00
   -.110E+02 -.107E+02 -.491E+03   0.109E+02 0.107E+02 0.491E+03   0.309E-01 0.429E-01 0.279E+00
   -.368E-01 -.110E+01 0.441E+02   0.846E-12 -.117E-11 -.246E-10   0.383E-01 0.108E+01 -.438E+02

 POSITION                                       TOTAL-FORCE (eV/Angst)
      6.99491      7.23757     16.25106        -0.067304     -0.041507      0.063916
      5.55296      6.60195     16.39048        -0.053665      0.007312      0.050811
      9.87776      5.47135     16.26959         0.070227      0.042938      0.060154
     11.33605      6.06979     16.39129         0.060287     -0.001749      0.051286
      7.56610      4.92473     16.26137         0.043749     -0.074108      0.063186
      8.17879      3.47745     16.43766        -0.009035     -0.066622      0.050950
      9.33709      7.82451     16.25811        -0.042149      0.066151      0.061553
      8.70117      9.27305     16.31724         0.006456      0.055406      0.057935
      6.47170      6.40747     16.13767        -0.044079      0.066190      0.055292
     10.42213      6.28583     16.13893         0.028072     -0.059452      0.055977
      8.38265      4.38044     16.14138        -0.060235     -0.032066      0.053989
      8.50367      8.33839     16.13200         0.062909      0.034400      0.056716
      0.00000      6.33074      7.50000        -0.000312     -0.000067      0.148331
      2.11025      0.00000      7.50000         0.001867      0.002049      0.148615
      0.00000      0.00000      9.61025        -0.000126      0.001377     -0.010100
      2.11025      6.33074      9.61025         0.026446     -0.000806      0.001923
      0.00002      6.33089     11.72444         0.000590     -0.002483      0.043101
      2.10989     16.88150     11.72422         0.000794      0.001209      0.040788
      0.00041     16.88059     13.81837        -0.000294      0.002400      0.263642
      2.10778      6.33094     13.81650        -0.003890     -0.001705      0.261856
      0.00000      2.11025      7.50000        -0.000206      0.002360      0.148961
      2.11025      4.22049      7.50000         0.005810      0.002812      0.152073
      0.00000      4.22049      9.61025         0.001132      0.000122     -0.012116
      2.11025      2.11025      9.61025         0.002371      0.003709     -0.011746
      0.00013      2.10943     11.72412         0.001357      0.002985      0.042566
      2.11024      4.22059     11.72341        -0.002589      0.002214      0.041721
      0.00060      4.21844     13.81750        -0.002012      0.000122      0.263578
      2.10928      2.10781     13.81677        -0.004489      0.000904      0.264476
      4.22049      6.33074      7.50000         0.010110     -0.000430      0.163079
      6.33074      0.00000      7.50000         0.003062      0.006030      0.151856
      4.22049      0.00000      9.61025         0.003377      0.002963     -0.012082
      6.33074      6.33074      9.61025         0.020769     -0.003534      0.063634
      4.22721      6.33021     11.72858        -0.005120     -0.000692      0.043394
      6.33120     16.88129     11.72267        -0.000675     -0.001932      0.040766
      4.21828     16.88066     13.81639         0.001511     -0.003106      0.265634
      6.33949      6.32167     13.87250        -0.035759     -0.002886      0.166571
      4.22049      2.11025      7.50000         0.006336      0.006455      0.152167
      6.33074      4.22049      7.50000         0.007094      0.006566      0.167937
      4.22049      4.22049      9.61025         0.030130      0.018716      0.012661
      6.33074      2.11025      9.61025         0.019962      0.029062      0.008378
      4.22005      2.11025     11.72204         0.000802      0.001309      0.037264
      6.33833      4.22675     11.73500         0.000260     -0.004519      0.035755
      4.21936      4.21565     13.80794        -0.016688     -0.007523      0.249733
      6.32607      2.10905     13.80091        -0.011219     -0.019582      0.242017
      0.00000     14.77172      7.50000        -0.000175      0.000152      0.147665
      2.11025      8.44098      7.50000         0.005440     -0.002895      0.151389
      0.00000      8.44098      9.61025        -0.001563      0.000304     -0.013279
      2.11025     14.77172      9.61025         0.001469      0.000095     -0.011411
      0.00048     14.77202     11.72444        -0.003391     -0.003080      0.041649
      2.10923      8.44116     11.72269         0.001132     -0.002312      0.040004
     16.88184      8.44339     13.81729         0.000506     -0.002179      0.265816
      2.10915     14.77188     13.81822         0.001950     -0.000898      0.264159
      0.00000     10.55123      7.50000        -0.000255     -0.002060      0.148763
      2.11025     12.66148      7.50000         0.001912     -0.001607      0.148734
      0.00000     12.66148      9.61025         0.000077     -0.000327     -0.008951
      2.11025     10.55123      9.61025         0.002769     -0.001781     -0.010942
      0.00027     10.55221     11.72411        -0.001523      0.000698      0.042405
      2.11018     12.66227     11.72449        -0.003366     -0.002247      0.040598
      0.00015     12.66321     13.81815         0.002198     -0.002320      0.263639
      2.10890     10.55398     13.81722        -0.003810      0.002688      0.261710
[...]
     14.77172      8.44098      9.61025         0.019844      0.005398      0.030279
     12.66148      8.44098      7.50000         0.011039      0.007585     -0.567297
     14.77172     14.77172      7.50000         0.005210      0.003216     -0.555229
     12.66384     14.77186     13.86949         0.000745     -0.000438      0.057412
     14.77481      8.44434     13.87051        -0.000102      0.000998      0.058498
     12.66813      8.44210     11.71779        -0.001636      0.001671      0.006979
     14.77279     14.77164     11.71922         0.001083      0.000882      0.007799
     12.66148     10.55123      9.61025         0.014708      0.011611      0.032313
     14.77172     12.66148      9.61025         0.007867      0.003909      0.037180
     12.66148     12.66148      7.50000         0.003703      0.003593     -0.558606
     14.77172     10.55123      7.50000         0.007176      0.000748     -0.556667
     12.66904     10.55862     13.86931        -0.002798     -0.000794      0.059501
     14.77454     12.66398     13.86956        -0.001368      0.000139      0.056788
     12.66303     12.66300     11.71890         0.000557     -0.000762      0.009196
     14.77373     10.55268     11.71890        -0.000977      0.000185      0.007415
    total drift:                                0.001578     -0.022342      0.276196

  FREE ENERGIE OF THE ION-ELECTRON SYSTEM (eV)
  free  energy   TOTEN  =      -960.58454296 eV

  energy  without entropy=     -960.58454296  energy(sigma->0) =     -960.58454296