 vasp.6.3.0 20Jan22 (build Apr  1 2022 16:44:48) gamma-only
 executed on        HPECrayEX_GCC date 2023.03.12  00:55:40

 INCAR:
   SYSTEM = MgO-rocksalt
   ISMEAR = 0
   SIGMA = 0.05
   EDIFF = 1E-6
   ALGO = ALL
   ISTART = 0
   IBRION = -1
   NSW = 0
   ISYM = 0
   DIPOL = 0.5 0.5 0.5
   IDIPOL = 3
   LDIPOL = .TRUE.
   GGA = MK
   LUSE_VDW = .TRUE.
   PARAM1 = 0.1234
   PARAM2 = 0.711357
   ZAB_VDW = -1.8867
   AGGAC = 0.0
   ENCUT = 520
   PREC = Accurate
   LASPH = .TRUE.
   LREAL = Auto
   ISPIN = 1
   NELM = 200
   NELMIN = 8
   NCORE = 8
   KPAR = 1
   LWAVE = .FALSE.
   LCHARG = .FALSE.

 POTCAR:    PAW_PBE C 08Apr2002
 POTCAR:    PAW_PBE O 08Apr2002
 POTCAR:    PAW_PBE H 15Jun2001
 POTCAR:    PAW_PBE Mg_pv 13Apr2007
 POTCAR:    PAW_PBE O 08Apr2002
|               ----> ADVICE to this user running VASP <----                  |
|     You have switched on vdW-DFT.                                           |
|     This routine was written and supplied by Jiri Klimes. We recommend      |
|     that you carefully read and cite the following publications:            |
|       J. Klimes, D.R. Bowler, A. Michelides                                 |
|          J. Phys.: Cond Matt. 22 022201 (2010)                              |
|       J. Klimes, D.R. Bowler, A. Michelides                                 |
|          Phys. Rev. B. 83, 195131 (2011)                                    |
|     and references therein.                                                 |

   TITEL  = PAW_PBE C 08Apr2002
   POMASS =   12.011; ZVAL   =    4.000    mass and valenz
   ENMAX  =  400.000; ENMIN  =  300.000 eV

[...]

   TITEL  = PAW_PBE H 15Jun2001
   POMASS =    1.000; ZVAL   =    1.000    mass and valenz
   ENMAX  =  250.000; ENMIN  =  200.000 eV

   TITEL  = PAW_PBE Mg_pv 13Apr2007
   POMASS =   24.305; ZVAL   =    8.000    mass and valenz
   ENMAX  =  403.929; ENMIN  =  302.947 eV

   TITEL  = PAW_PBE O 08Apr2002
   POMASS =   16.000; ZVAL   =    6.000    mass and valenz
   ENMAX  =  400.000; ENMIN  =  300.000 eV

 Optimization of the real space projectors (new method)

 maximal supplied QI-value         = 25.13
 optimisation between [QCUT,QGAM] = [ 11.56, 23.12] = [ 37.43,149.72] Ry
 Optimized for a Real-space Cutoff    1.04 Angstroem

   l    n(q)    QCUT    max X(q) W(low)/X(q) W(high)/X(q)  e(spline)
   0      7    11.561   115.676    0.20E-03    0.60E-03    0.21E-06
   0      7    11.561    87.132    0.20E-03    0.59E-03    0.21E-06
   1      7    11.561     4.429    0.23E-03    0.35E-03    0.15E-06
   1      7    11.561     2.733    0.18E-03    0.25E-03    0.12E-06
 Optimization of the real space projectors (new method)

[...]

   l    n(q)    QCUT    max X(q) W(low)/X(q) W(high)/X(q)  e(spline)
   1      8    11.527     2.974    0.44E-04    0.56E-04    0.12E-06
   1      8    11.527     4.279    0.12E-03    0.12E-03    0.26E-06
   0      9    11.527    16.381    0.46E-04    0.64E-04    0.78E-07
   0      9    11.527     5.611    0.26E-04    0.43E-04    0.55E-07
   2      8    11.527     4.652    0.22E-03    0.72E-04    0.47E-07
 Optimization of the real space projectors (new method)

 maximal supplied QI-value         = 24.76
 optimisation between [QCUT,QGAM] = [ 11.64, 23.27] = [ 37.91,151.63] Ry
 Optimized for a Real-space Cutoff    1.14 Angstroem

   l    n(q)    QCUT    max X(q) W(low)/X(q) W(high)/X(q)  e(spline)
   0      8    11.635    20.381    0.10E-03    0.33E-03    0.24E-06
   0      8    11.635    15.268    0.11E-03    0.35E-03    0.26E-06
   1      7    11.635     5.964    0.24E-03    0.31E-03    0.30E-06
   1      7    11.635     5.382    0.22E-03    0.25E-03    0.26E-06
|               ----> ADVICE to this user running VASP <----                  |
|     You enforced a specific xc type in the INCAR file but a different       |
|     type was found in the POTCAR file.                                      |
|     I HOPE YOU KNOW WHAT YOU ARE DOING!                                     |

  PAW_PBE C 08Apr2002                   :
  PAW_PBE O 08Apr2002                   :
  PAW_PBE H 15Jun2001                   :
  PAW_PBE Mg_pv 13Apr2007               :
  PAW_PBE O 08Apr2002                   :

 POSCAR:  C  O  H Mg  O
  positions in direct lattice
 exchange correlation table for  LEXCH =       43
   RHO(1)=    0.500       N(1)  =     2000
   RHO(2)=  100.500       N(2)  =     4000

 ion  position               nearest neighbor table
   1  0.528  0.556  0.792-  12 1.09  11 1.09   9 1.09   5 1.42
   2  0.318  0.400  0.792-  16 1.09  15 1.09  13 1.09   6 1.42
   3  0.474  0.191  0.792-  20 1.09  19 1.09  17 1.09   7 1.42
   4  0.683  0.345  0.791-  24 1.09  23 1.09  21 1.09   8 1.42
   5  0.508  0.488  0.755-  10 0.98   1 1.42 144 2.24
   6  0.386  0.382  0.755-  14 0.98   2 1.42  55 2.24
   7  0.492  0.260  0.755-  18 0.98   3 1.42 120 2.24
   8  0.614  0.365  0.755-  22 0.98   4 1.42 103 2.24
   9  0.520  0.544  0.842-   1 1.09
  10  0.552  0.449  0.757-   5 0.98
  11  0.590  0.574  0.783-   1 1.09
  12  0.489  0.605  0.777-   1 1.09
  13  0.331  0.391  0.842-   2 1.09
  14  0.425  0.426  0.757-   6 0.98
  15  0.299  0.462  0.785-   2 1.09
  16  0.270  0.360  0.778-   2 1.09
  17  0.483  0.204  0.842-   3 1.09
  18  0.447  0.298  0.757-   7 0.98
  19  0.412  0.172  0.785-   3 1.09
  20  0.513  0.143  0.777-   3 1.09
  21  0.671  0.353  0.841-   4 1.09
  22  0.575  0.321  0.756-   8 0.98
  23  0.700  0.283  0.783-   4 1.09
  24  0.732  0.384  0.776-   4 1.09
  25  0.125  0.000  0.353- 155 2.09 156 2.09 172 2.09 195 2.09 153 2.09
  26  0.250  0.125  0.353- 155 2.09 156 2.09 164 2.09 171 2.09 154 2.09
  27  0.125  0.125  0.451- 153 2.09 154 2.09 161 2.09 170 2.09 155 2.09 159 2.09
  28  0.250  0.000  0.451- 153 2.09 154 2.09 169 2.09 194 2.09 156 2.09 160 2.09
  29  0.125  1.000  0.549- 160 2.09 159 2.09 199 2.09 176 2.09 153 2.09 157 2.12
  30  0.250  0.125  0.549- 168 2.08 175 2.08 159 2.09 160 2.09 154 2.09 158 2.12
  31  0.125  0.125  0.647- 159 2.07 158 2.08 174 2.09 165 2.09 157 2.09
  32  0.250  1.000  0.647- 160 2.07 158 2.08 198 2.09 173 2.09 157 2.09
  33  0.125  0.250  0.353- 155 2.09 163 2.09 164 2.09 180 2.09 161 2.09
  34  0.250  0.375  0.353- 163 2.09 164 2.09 179 2.09 188 2.09 162 2.09
  35  0.125  0.375  0.451- 167 2.09 162 2.09 161 2.09 178 2.09 185 2.09 163 2.09
  36  0.250  0.250  0.451- 168 2.08 161 2.09 162 2.09 154 2.09 177 2.09 164 2.09
  37  0.125  0.250  0.549- 168 2.08 184 2.09 167 2.09 159 2.09 161 2.09 165 2.13
  38  0.250  0.375  0.550- 183 2.07 168 2.09 192 2.09 162 2.10 167 2.10 166 2.12
  39  0.125  0.375  0.646- 167 2.07 166 2.07 182 2.09 189 2.09 165 2.09
  40  0.250  0.250  0.646- 168 2.06 181 2.06 165 2.09 158 2.09 166 2.09
  41  0.375  0.000  0.353- 156 2.09 171 2.09 211 2.09 236 2.09 169 2.09
  42  0.000  0.125  0.353- 155 2.09 172 2.09 180 2.09 235 2.09 170 2.09
  43  0.375  0.125  0.451- 175 2.08 169 2.09 154 2.09 177 2.09 234 2.09 171 2.09
  44  0.000  0.000  0.451- 153 2.09 170 2.09 210 2.09 233 2.09 172 2.09 176 2.09
  45  0.375  1.000  0.549- 175 2.08 215 2.09 240 2.09 160 2.09 169 2.09 173 2.12
  46  0.000  0.125  0.549- 159 2.08 239 2.08 184 2.09 176 2.09 170 2.09 174 2.12
  47  0.375  0.125  0.646- 175 2.06 181 2.07 173 2.09 158 2.09 238 2.09
  48  0.000  1.000  0.647- 176 2.07 157 2.08 237 2.08 214 2.09 174 2.09
  49  0.375  0.250  0.353- 164 2.09 171 2.09 179 2.09 244 2.09 177 2.09
  50  0.000  0.375  0.353- 163 2.09 180 2.09 204 2.09 243 2.09 178 2.09
  51  0.375  0.375  0.451- 162 2.09 177 2.09 201 2.09 242 2.09 179 2.09 183 2.10
  52  0.000  0.250  0.451- 161 2.09 170 2.09 178 2.09 241 2.09 180 2.09 184 2.09
  53  0.375  0.250  0.550- 183 2.08 248 2.08 181 2.10 168 2.10 175 2.10 177 2.11
  54  0.000  0.375  0.549- 167 2.08 247 2.08 184 2.09 208 2.09 178 2.09 182 2.12
  55  0.375  0.375  0.650- 246 2.10 166 2.10 181 2.11 205 2.12 183 2.13   6 2.24
  56  0.000  0.250  0.647- 184 2.07 245 2.08 165 2.08 174 2.09 182 2.09
  57  0.125  0.500  0.353- 163 2.09 187 2.09 188 2.09 204 2.09 185 2.09
  58  0.250  0.625  0.353- 187 2.09 188 2.09 196 2.09 203 2.09 186 2.09
  59  0.125  0.625  0.451- 185 2.09 186 2.09 193 2.09 202 2.09 187 2.09 191 2.09
  60  0.250  0.500  0.451- 192 2.08 185 2.09 186 2.09 162 2.09 201 2.09 188 2.09
[...]
 266  0.500  0.625  0.451-  75 2.09 123 2.09 140 2.09 148 2.09 138 2.09 142 2.10
 267  0.875  0.625  0.353-  74 2.09 122 2.09 137 2.09 145 2.09 139 2.09
 268  0.500  0.500  0.353-  73 2.09 114 2.09 121 2.09 138 2.09 140 2.09
 269  0.875  0.500  0.649-  80 2.08 143 2.09 128 2.09 119 2.09 141 2.13
 270  0.500  0.626  0.649- 152 2.07  79 2.09 127 2.09 144 2.10 142 2.12
 271  0.875  0.625  0.549- 143 2.07  78 2.09 149 2.09 139 2.09 126 2.09 141 2.09
 272  0.500  0.500  0.550- 142 2.07 125 2.08  77 2.08 118 2.09 140 2.10 144 2.13
 273  0.875  0.750  0.451-  84 2.09 132 2.09 139 2.09 147 2.09 145 2.09 149 2.09
 274  0.500  0.875  0.451-  83 2.09 108 2.09 131 2.09 148 2.09 146 2.09 150 2.09
 275  0.875  0.875  0.353-  82 2.09 105 2.09 130 2.09 145 2.09 147 2.09
 276  0.500  0.750  0.353-  81 2.09 129 2.09 138 2.09 146 2.09 148 2.09
 277  0.875  0.750  0.649- 151 2.08  88 2.09 143 2.09 136 2.09 149 2.12
 278  0.500  0.875  0.649- 112 2.08 152 2.09 135 2.09  87 2.09 150 2.12
 279  0.875  0.875  0.549- 151 2.07  86 2.09 109 2.09 149 2.09 134 2.09 147 2.09
 280  0.500  0.750  0.549- 152 2.07 150 2.08 148 2.09 133 2.09  85 2.09 142 2.10

IMPORTANT INFORMATION: All symmetrisations will be switched off!
NOSYMM: (Re-)initialisation of all symmetry stuff for point group C_1.

                                     Primitive cell

  volume of cell :    5928.4515

  direct lattice vectors                    reciprocal lattice vectors
    16.698223653  0.000000000  0.000000000     0.059886610  0.000000000  0.000000000
     0.000000000 16.698223653  0.000000000     0.000000000  0.059886610  0.000000000
     0.000000000  0.000000000 21.261833870     0.000000000  0.000000000  0.047032632

  length of vectors
    16.698223653 16.698223653 21.261833870     0.059886610  0.059886610  0.047032632

  position of ions in fractional coordinates (direct lattice)
     0.528403631  0.556040337  0.791538803
     0.318033128  0.399848678  0.792206701
     0.474024500  0.191454627  0.792198793
     0.682635996  0.344973601  0.791194582
     0.508489194  0.487779148  0.754733055
     0.386158121  0.381892375  0.754693263
     0.491817131  0.259614419  0.754650756
     0.614244745  0.365225882  0.754638039
     0.520490626  0.543720016  0.841642331
     0.552418580  0.448539517  0.756739576
     0.590388997  0.573848958  0.782865169
     0.489420292  0.604837659  0.777053092
     0.331038355  0.390888288  0.842109584
     0.425078011  0.426064731  0.757169905
     0.298998497  0.461703004  0.784630230
     0.269680666  0.360386339  0.777543552
     0.483184051  0.204440076  0.842083523
     0.447481848  0.298375967  0.756964422
     0.412135012  0.172389847  0.784822974
     0.513404273  0.143092513  0.777435205
     0.670685499  0.353063360  0.841339575
     0.575012367  0.321270094  0.756456521
     0.700013504  0.282839100  0.782582318
     0.731604754  0.383580737  0.776467651
     0.125000000  0.000000000  0.352744737
[...]
   6.26934752  4.18275528 11.69328152
   0.00011222  6.26167622 11.67861804
   6.25349380  6.25805614 13.81913595
   0.00004036  4.17187922 13.74776028
   2.08727796  8.34911183  7.50000000
   4.17455591 10.43638978  7.50000000
   2.08727796 10.43638978  9.58727796
   4.17455591  8.34911183  9.58727796
[...]
   8.34911183 10.43638978  9.58727796
  14.61094570 10.43638978  7.50000000
   8.34911183  8.34911183  7.50000000
  14.61464251  8.35263168 13.80328868
   8.34882261 10.45734971 13.80292379
  14.61303175 10.43855653 11.67541621
   8.34982754  8.35503738 11.68788434
  14.61094570 12.52366774  9.58727796
   8.34911183 14.61094570  9.58727796
  14.61094570 14.61094570  7.50000000
   8.34911183 12.52366774  7.50000000
  14.61382482 12.52623803 13.80278155
   8.34911748 14.61051186 13.80255759
  14.61220484 14.61075342 11.67614313
   8.34917008 12.52700550 11.67398144

--------------------------------------- Iteration      FINAL  ---------------------------------------

--------------------OUTCAR has been truncated-------------------------

[...]

--------------------OUTCAR has been truncated-------------------------

  FORCE on cell =-STRESS in cart. coord.  units (eV):
  Direction    XX          YY          ZZ          XY          YZ          ZX
  Alpha Z  3768.93241  3768.93241  3768.93241
  Ewald  654440.02687654439.96389************    -1.61108    -8.76574    -3.33853
  Hartree695742.05288695742.36953************    -1.08338    -5.18083    -3.14385
  E(xc)  -10073.07888-10073.08047-10074.50862     0.00037     0.00167     0.00202
  Local  ************************************     2.60487    13.80528     6.52713
  n-local-11476.14322-11476.12690-11551.37203    -0.00816    -0.16990     0.01572
  augment  4229.16443  4229.17102  4195.32980    -0.00231    -0.00103    -0.00366
  Kinetic 30222.05235 30222.18458 30404.79696     0.10295     0.74868    -0.10398
  Fock        0.00000     0.00000     0.00000     0.00000     0.00000     0.00000
  Total     -22.40694   -22.40904    66.45151     0.00325     0.43814    -0.04514
  in kB      -6.05553    -6.05609    17.95867     0.00088     0.11841    -0.01220

 VOLUME and BASIS-vectors are now :
  energy-cutoff  :      520.00
  volume of cell :     5928.45
      direct lattice vectors                 reciprocal lattice vectors
    16.698223653  0.000000000  0.000000000     0.059886610  0.000000000  0.000000000
     0.000000000 16.698223653  0.000000000     0.000000000  0.059886610  0.000000000
     0.000000000  0.000000000 21.261833870     0.000000000  0.000000000  0.047032632

  length of vectors
    16.698223653 16.698223653 21.261833870     0.059886610  0.059886610  0.047032632

 FORCES acting on ions:
    Electron-Ion                     Ewald-Force                    Non-Local-Force
   -.399E+02 -.198E+03 -.106E+04   0.412E+02 0.204E+03 0.106E+04   -.122E+01 -.581E+01 -.335E+01
   0.198E+03 -.370E+02 -.105E+04   -.204E+03 0.381E+02 0.106E+04   0.580E+01 -.108E+01 -.342E+01
   0.367E+02 0.198E+03 -.105E+04   -.378E+02 -.204E+03 0.106E+04   0.105E+01 0.580E+01 -.343E+01
   -.198E+03 0.403E+02 -.106E+04   0.204E+03 -.416E+02 0.106E+04   -.583E+01 0.122E+01 -.332E+01
   0.416E+02 -.102E+03 -.159E+04   -.727E+02 0.977E+02 0.157E+04   0.305E+02 0.440E+01 0.187E+02
   0.102E+03 0.377E+02 -.159E+04   -.976E+02 -.682E+02 0.157E+04   -.457E+01 0.299E+02 0.195E+02
   -.372E+02 0.102E+03 -.159E+04   0.676E+02 -.976E+02 0.157E+04   -.298E+02 -.463E+01 0.194E+02
   -.102E+03 -.424E+02 -.159E+04   0.976E+02 0.735E+02 0.157E+04   0.444E+01 -.305E+02 0.184E+02
   0.222E+01 -.191E+02 -.262E+03   -.296E+01 0.180E+02 0.268E+03   0.697E+00 0.103E+01 -.565E+01
   -.592E+02 0.233E+02 -.274E+03   0.655E+02 -.291E+02 0.275E+03   -.585E+01 0.539E+01 -.168E+00
   -.655E+02 -.480E+02 -.251E+03   0.713E+02 0.497E+02 0.250E+03   -.549E+01 -.164E+01 0.966E+00
   0.331E+02 -.754E+02 -.250E+03   -.368E+02 0.802E+02 0.248E+03   0.351E+01 -.452E+01 0.175E+01
   0.185E+02 0.351E+01 -.262E+03   -.174E+02 -.433E+01 0.268E+03   -.108E+01 0.790E+00 -.562E+01
   -.227E+02 -.599E+02 -.275E+03   0.285E+02 0.663E+02 0.275E+03   -.535E+01 -.588E+01 -.240E+00
   0.489E+02 -.650E+02 -.250E+03   -.508E+02 0.708E+02 0.249E+03   0.175E+01 -.548E+01 0.841E+00
   0.750E+02 0.339E+02 -.249E+03   -.798E+02 -.376E+02 0.247E+03   0.448E+01 0.355E+01 0.177E+01
   -.375E+01 0.186E+02 -.262E+03   0.459E+01 -.174E+02 0.268E+03   -.809E+00 -.108E+01 -.561E+01
   0.600E+02 -.224E+02 -.275E+03   -.664E+02 0.282E+02 0.275E+03   0.590E+01 -.532E+01 -.211E+00
   0.649E+02 0.490E+02 -.250E+03   -.707E+02 -.509E+02 0.249E+03   0.548E+01 0.175E+01 0.815E+00
   -.338E+02 0.751E+02 -.249E+03   0.375E+02 -.798E+02 0.247E+03   -.354E+01 0.448E+01 0.178E+01
   -.195E+02 -.239E+01 -.262E+03   0.185E+02 0.314E+01 0.268E+03   0.993E+00 -.714E+00 -.565E+01
   0.233E+02 0.590E+02 -.274E+03   -.291E+02 -.653E+02 0.274E+03   0.538E+01 0.584E+01 -.135E+00
   -.477E+02 0.657E+02 -.251E+03   0.494E+02 -.715E+02 0.250E+03   -.160E+01 0.550E+01 0.954E+00
   -.756E+02 -.326E+02 -.250E+03   0.804E+02 0.363E+02 0.248E+03   -.454E+01 -.348E+01 0.179E+01
   0.558E+01 0.567E+01 0.214E+04   -.557E+01 -.566E+01 -.214E+04   -.797E-02 -.808E-02 -.681E+01
   0.935E+01 0.928E+01 0.215E+04   -.932E+01 -.925E+01 -.214E+04   -.233E-01 -.237E-01 -.683E+01
   0.116E+02 0.130E+02 0.745E+03   -.116E+02 -.130E+02 -.746E+03   -.171E-01 -.124E-01 0.434E+00
   0.132E+02 0.118E+02 0.745E+03   -.132E+02 -.118E+02 -.746E+03   -.104E-01 -.149E-01 0.423E+00
   0.156E+02 0.156E+02 -.669E+03   -.156E+02 -.156E+02 0.669E+03   -.115E-01 -.727E-02 -.954E-01
   0.363E+02 0.355E+02 -.634E+03   -.362E+02 -.354E+02 0.634E+03   -.874E-01 -.103E+00 0.247E-01
   0.403E+02 0.384E+02 -.206E+04   -.402E+02 -.384E+02 0.206E+04   -.103E+00 -.377E-02 0.580E+01
   0.403E+02 0.414E+02 -.206E+04   -.403E+02 -.412E+02 0.206E+04   -.120E-01 -.119E+00 0.579E+01
   0.749E+01 0.555E+01 0.215E+04   -.746E+01 -.553E+01 -.214E+04   -.228E-01 -.101E-01 -.683E+01
   0.112E+02 -.192E+00 0.215E+04   -.111E+02 0.192E+00 -.215E+04   -.440E-01 -.956E-04 -.687E+01
   0.147E+02 -.223E+00 0.755E+03   -.146E+02 0.220E+00 -.756E+03   -.648E-01 0.185E-02 0.374E+00
   0.196E+02 0.115E+02 0.767E+03   -.195E+02 -.114E+02 -.767E+03   -.853E-01 -.435E-01 0.287E+00
   0.319E+02 0.180E+02 -.644E+03   -.318E+02 -.179E+02 0.644E+03   -.153E+00 -.393E-01 0.212E-01
   0.561E+02 -.248E+00 -.596E+03   -.556E+02 0.240E+00 0.596E+03   -.501E+00 0.824E-02 -.265E+00
   0.795E+02 0.121E+01 -.203E+04   -.791E+02 -.121E+01 0.202E+04   -.452E+00 -.700E-02 0.581E+01
   0.121E+03 0.680E+02 -.197E+04   -.120E+03 -.680E+02 0.197E+04   -.650E+00 0.941E-02 0.586E+01
   0.571E+01 0.767E+01 0.215E+04   -.569E+01 -.764E+01 -.214E+04   -.100E-01 -.221E-01 -.682E+01
   -.575E-01 0.739E+01 0.214E+04   0.578E-01 -.738E+01 -.214E+04   -.243E-03 -.869E-02 -.681E+01
   0.119E+02 0.195E+02 0.767E+03   -.119E+02 -.193E+02 -.767E+03   -.434E-01 -.900E-01 0.287E+00
   -.785E-01 0.808E+01 0.736E+03   0.789E-01 -.807E+01 -.736E+03   -.260E-03 -.123E-02 0.448E+00
   0.184E+02 0.327E+02 -.642E+03   -.183E+02 -.326E+02 0.642E+03   -.325E-01 -.131E+00 0.140E-01
   -.351E+00 0.192E+02 -.665E+03   0.354E+00 -.192E+02 0.665E+03   -.261E-02 -.116E-02 -.841E-01
   0.724E+02 0.120E+03 -.196E+04   -.725E+02 -.120E+03 0.195E+04   0.513E-01 -.526E+00 0.591E+01
   -.256E+00 0.189E+02 -.208E+04   0.256E+00 -.189E+02 0.208E+04   -.686E-03 0.206E-01 0.580E+01
   0.757E+01 0.733E+01 0.216E+04   -.754E+01 -.729E+01 -.215E+04   -.297E-01 -.309E-01 -.689E+01
   -.575E-01 -.145E+00 0.215E+04   0.577E-01 0.146E+00 -.214E+04   -.157E-03 -.345E-03 -.682E+01
   0.145E+02 -.541E+00 0.785E+03   -.143E+02 0.546E+00 -.785E+03   -.107E+00 -.330E-02 0.359E+00
   -.174E+00 0.827E+01 0.747E+03   0.178E+00 -.827E+01 -.747E+03   -.282E-02 -.176E-02 0.452E+00
   0.392E+02 0.378E+02 -.566E+03   -.388E+02 -.374E+02 0.567E+03   -.405E+00 -.419E+00 -.785E+00
   -.218E+00 -.413E+00 -.651E+03   0.219E+00 0.414E+00 0.651E+03   -.133E-02 0.190E-03 -.254E-01
   0.131E+03 0.383E+01 -.176E+04   -.130E+03 -.387E+01 0.176E+04   -.300E+00 0.463E-01 0.320E+01
   -.135E+01 0.225E+02 -.206E+04   0.135E+01 -.226E+02 0.206E+04   -.328E-02 0.441E-01 0.581E+01
   0.744E+01 -.576E+01 0.215E+04   -.741E+01 0.574E+01 -.214E+04   -.229E-01 0.997E-02 -.682E+01
   0.922E+01 -.928E+01 0.215E+04   -.919E+01 0.925E+01 -.214E+04   -.243E-01 0.239E-01 -.683E+01
   0.114E+02 -.131E+02 0.745E+03   -.114E+02 0.131E+02 -.745E+03   -.193E-01 0.112E-01 0.427E+00
   0.193E+02 -.120E+02 0.766E+03   -.191E+02 0.119E+02 -.766E+03   -.948E-01 0.475E-01 0.301E+00
[...]
   -.491E+01 -.597E+01 0.161E+04   0.490E+01 0.595E+01 -.161E+04   0.177E-01 0.175E-01 0.361E+01
   0.435E-01 -.601E+01 0.162E+04   -.438E-01 0.597E+01 -.162E+04   0.406E-03 0.457E-01 0.351E+01
   -.467E+02 -.261E+02 -.156E+04   0.467E+02 0.260E+02 0.157E+04   0.776E-01 0.864E-01 -.530E+01
   0.514E+01 -.112E+03 -.147E+04   -.513E+01 0.112E+03 0.147E+04   -.420E-02 0.432E+00 -.515E+01
   -.167E+02 -.173E+02 -.487E+03   0.166E+02 0.173E+02 0.487E+03   0.529E-01 0.468E-01 0.333E+00
   0.297E+00 -.303E+02 -.410E+03   -.293E+00 0.300E+02 0.411E+03   -.400E-02 0.330E+00 -.419E+00
   -.672E+01 -.659E+01 0.553E+03   0.670E+01 0.658E+01 -.553E+03   0.233E-01 0.219E-01 -.596E-02
   0.523E-01 0.341E+00 0.562E+03   -.524E-01 -.335E+00 -.562E+03   0.189E-03 -.837E-02 0.415E-02
   -.390E+01 0.114E+00 0.161E+04   0.389E+01 -.114E+00 -.161E+04   0.731E-02 -.409E-04 0.362E+01
   0.381E-01 -.577E+01 0.161E+04   -.386E-01 0.574E+01 -.162E+04   0.732E-03 0.329E-01 0.359E+01
   -.182E+02 -.177E+02 -.158E+04   0.181E+02 0.176E+02 0.159E+04   0.419E-01 0.406E-01 -.530E+01
   0.133E+00 0.834E+00 -.157E+04   -.134E+00 -.845E+00 0.157E+04   0.792E-04 0.997E-02 -.530E+01
   -.960E+01 0.293E+00 -.499E+03   0.959E+01 -.290E+00 0.498E+03   0.138E-01 -.309E-02 0.321E+00
   0.418E+00 -.240E+02 -.470E+03   -.420E+00 0.238E+02 0.470E+03   0.264E-02 0.244E+00 0.405E+00
   -.249E+00 0.425E+00 0.326E+02   -.156E-12 -.501E-12 0.173E-10   0.252E+00 -.413E+00 -.327E+02

 POSITION                                       TOTAL-FORCE (eV/Angst)
      8.82340      9.28489     16.82957         0.036980      0.189053      0.194302
      5.31059      6.67676     16.84377        -0.201186      0.039437      0.200094
      7.91537      3.19695     16.84360        -0.034149     -0.186369      0.193054
     11.39881      5.76045     16.82225         0.177108     -0.038289      0.192905
      8.49087      8.14505     16.04701        -0.592494      0.002655     -0.335617
      6.44815      6.37692     16.04616         0.009068     -0.586032     -0.354854
      8.21247      4.33510     16.04526         0.591565      0.006372     -0.348254
     10.25680      6.09862     16.04499         0.008794      0.604944     -0.327004
      8.69127      9.07916     17.89486        -0.036280     -0.051890      0.316280
      9.22441      7.48981     16.08967         0.475660     -0.434476      0.060979
      9.85845      9.58226     16.64515         0.314809      0.099737     -0.050517
      8.17245     10.09971     16.52157        -0.196198      0.242195     -0.075265
      5.52775      6.52714     17.90479         0.054496     -0.036215      0.308467
      7.09805      7.11452     16.09882         0.438380      0.487627      0.067519
      4.99274      7.70962     16.68268        -0.101030      0.311621     -0.047820
      4.50319      6.01781     16.53200        -0.229803     -0.192060     -0.080594
      8.06832      3.41379     17.90424         0.038687      0.056671      0.307099
      7.47215      4.98235     16.09445        -0.485266      0.443865      0.065977
      6.88192      2.87860     16.68678        -0.312180     -0.097582     -0.050986
      8.57294      2.38939     16.52970         0.196099     -0.229841     -0.084430
     11.19926      5.89553     17.88842        -0.051188      0.038170      0.314037
      9.60169      5.36464     16.08365        -0.444423     -0.475836      0.059934
     11.68898      4.72291     16.63914         0.093116     -0.312958     -0.053840
     12.21650      6.40512     16.50913         0.243713      0.199211     -0.079768
      2.08728      0.00000      7.50000         0.002489      0.002298      0.151306
      4.17456      2.08728      7.50000         0.006834      0.007054      0.157862
      2.08728      2.08728      9.58728         0.003443      0.002834     -0.004570
      4.17456      0.00000      9.58728         0.002177      0.002670     -0.002647
      2.08633     16.69698     11.68055         0.000477      0.001167      0.026860
      4.17353      2.08633     11.67684         0.001082     -0.000628      0.024027
      2.08529      2.08363     13.74731        -0.003905     -0.000376      0.279010
      4.17124     16.69579     13.74708        -0.001348     -0.004926      0.274257
      2.08728      4.17456      7.50000         0.006607      0.003063      0.156394
      4.17456      6.26183      7.50000         0.012434     -0.000126      0.168547
      2.08728      6.26183      9.58728         0.026400     -0.000554      0.007039
      4.17456      4.17456      9.58728         0.035456      0.015516      0.022386
      2.08632      4.17422     11.67809        -0.001547      0.000716      0.027344
      4.18155      6.26101     11.68477        -0.009499      0.000543      0.021381
      2.08436      6.26184     13.74105        -0.007811     -0.001861      0.276491
      4.17026      4.16833     13.73082        -0.014777     -0.000490      0.272337
      6.26183      0.00000      7.50000         0.002824      0.006262      0.155980
      0.00000      2.08728      7.50000         0.000066      0.002761      0.151673
      6.26183      2.08728      9.58728         0.015713      0.037081      0.019621
      0.00000      0.00000      9.58728         0.000040      0.000024      0.000213
      6.26126     16.69665     11.67767         0.002830     -0.000570      0.027863
      0.00008      2.08583     11.68036        -0.000078     -0.000493      0.027464
      6.25654      2.08234     13.72869        -0.004754     -0.014562      0.269117
      0.00002     16.69603     13.74962         0.000001     -0.000138      0.272761
      6.26183      4.17456      7.50000         0.008344      0.008762      0.176440
      0.00000      6.26183      7.50000         0.000027     -0.000131      0.153653
      6.26183      6.26183      9.58728         0.046900      0.001620      0.096951
      0.00000      4.17456      9.58728         0.000918      0.000055     -0.004548
      6.26935      4.18276     11.69328        -0.007218     -0.008131      0.004824
      0.00011      6.26168     11.67862        -0.000177      0.001180      0.030390
      6.25349      6.25806     13.81914        -0.013212      0.000309      0.181396
      0.00004      4.17188     13.74776         0.001107      0.001342      0.273962
      2.08728      8.34911      7.50000         0.006637     -0.003072      0.155869
      4.17456     10.43639      7.50000         0.007134     -0.006866      0.157795
      2.08728     10.43639      9.58728         0.004334     -0.002849     -0.004007
      4.17456      8.34911      9.58728         0.039457     -0.017271      0.025528
[...]
      8.34911     10.43639      9.58728         0.000508      0.024289      0.046495
     14.61095     10.43639      7.50000         0.004836      0.004979     -0.546001
      8.34911      8.34911      7.50000         0.000120      0.012881     -0.573092
     14.61464      8.35263     13.80329         0.000215     -0.001016      0.036154
      8.34882     10.45735     13.80292         0.002652     -0.021977      0.043995
     14.61303     10.43856     11.67542        -0.000437     -0.002230     -0.011660
      8.34983      8.35504     11.68788         0.000131     -0.004283      0.005569
     14.61095     12.52367      9.58728         0.008668      0.006159      0.053265
      8.34911     14.61095      9.58728         0.000061     -0.002887      0.045757
     14.61095     14.61095      7.50000         0.001887     -0.000193     -0.543034
      8.34911     12.52367      7.50000         0.000196      0.009216     -0.552507
     14.61382     12.52624     13.80278        -0.001346     -0.001915      0.033455
      8.34912     14.61051     13.80256        -0.000186     -0.001368      0.035781
     14.61220     14.61075     11.67614        -0.001273     -0.001057     -0.011985
      8.34917     12.52701     11.67398         0.000343     -0.001148     -0.015786
    total drift:                                0.002331      0.011900     -0.037276

  FREE ENERGIE OF THE ION-ELECTRON SYSTEM (eV)
  free  energy   TOTEN  =     -1172.48418913 eV

  energy  without entropy=    -1172.48418913  energy(sigma->0) =    -1172.48418913