 vasp.6.3.0 20Jan22 (build Mar 11 2022 13:48:16) complex

 executed on             LinuxIFC date 2024.01.22  11:04:45

 INCAR:
   SYSTEM = TiO2
   ISMEAR = 0
   SIGMA = 0.05
   EDIFF = 1E-5
   ALGO = ALL
   ISTART = 0
   IBRION = -1
   NSW = 0
   ISYM = 0
   ISIF = 2
   EDIFFG = -0.01
   DIPOL = 0.5 0.5 0.5
   IDIPOL = 3
   LDIPOL = .TRUE.
   GGA = PE
   IVDW = 21
   LDAU = .TRUE.
   LDAUTYPE = 2
   LDAUL = -1 -1 2 -1
   LDAUU = 0.0 0.0 4.2 0.0
   LDAUPRINT = 1
   LMAXMIX = 4
   ENCUT = 600
   PREC = Accurate
   LASPH = .TRUE.
   LREAL = .FALSE.
   ISPIN = 1
   NELM = 200
   NELMIN = 8
   NCORE = 2
   KPAR = 1
   LWAVE = .FALSE.
   LCHARG = .FALSE.

 POTCAR:    PAW_PBE N 08Apr2002
 POTCAR:    PAW_PBE H 15Jun2001
 POTCAR:    PAW_PBE Ti_pv 07Sep2000
 POTCAR:    PAW_PBE O 08Apr2002
|           W    W    AA    RRRRR   N    N  II  N    N   GGGG   !!!           |
|           W    W   A  A   R    R  NN   N  II  NN   N  G    G  !!!           |
|           W    W  A    A  R    R  N N  N  II  N N  N  G       !!!           |
|           W WW W  AAAAAA  RRRRR   N  N N  II  N  N N  G  GGG   !            |
|           WW  WW  A    A  R   R   N   NN  II  N   NN  G    G                |
|           W    W  A    A  R    R  N    N  II  N    N   GGGG   !!!           |
|     For optimal performance we recommend to set                             |
|       NCORE = 2 up to number-of-cores-per-socket                            |
|     This setting can greatly improve the performance of VASP for DFT.       |
|     The default, NCORE=1 might be grossly inefficient on modern             |
|     multi-core architectures or massively parallel machines. Do your        |
|     Unfortunately you need to use the default for GW and RPA                |
|     calculations (for HF NCORE is supported but not extensively tested      |
|     yet).                                                                   |

   TITEL  = PAW_PBE N 08Apr2002
   POMASS =   14.001; ZVAL   =    5.000    mass and valenz
   ENMAX  =  400.000; ENMIN  =  300.000 eV

   TITEL  = PAW_PBE H 15Jun2001
   POMASS =    1.000; ZVAL   =    1.000    mass and valenz
   ENMAX  =  250.000; ENMIN  =  200.000 eV

   TITEL  = PAW_PBE Ti_pv 07Sep2000
   POMASS =   47.880; ZVAL   =   10.000    mass and valenz
   ENMAX  =  222.335; ENMIN  =  166.751 eV

   TITEL  = PAW_PBE O 08Apr2002
   POMASS =   16.000; ZVAL   =    6.000    mass and valenz
   ENMAX  =  400.000; ENMIN  =  300.000 eV

  PAW_PBE N 08Apr2002                   :
  PAW_PBE H 15Jun2001                   :
  PAW_PBE Ti_pv 07Sep2000               :
  PAW_PBE O 08Apr2002                   :

 POSCAR:  N  H Ti  O
  positions in direct lattice
 exchange correlation table for  LEXCH =        8
   RHO(1)=    0.500       N(1)  =     2000
   RHO(2)=  100.500       N(2)  =     4000

 ion  position               nearest neighbor table
   1  0.608  0.500  0.779-   2 1.02   3 1.02   4 1.02  52 2.27
   2  0.546  0.500  0.807-   1 1.02
   3  0.666  0.429  0.781-   1 1.02
   4  0.666  0.571  0.781-   1 1.02
   5  0.804  0.833  0.293-  89 1.97  55 1.97  57 1.97  54 2.01  56 2.01  22 3.09   8 3.09   6 3.09

   6  0.588  0.667  0.325-  53 1.97 120 1.97  56 1.97  58 1.97  57 2.01  59 2.01  37 3.09   7 3.09
                             5 3.09  11 3.11
   7  0.304  0.667  0.293- 125 1.97  59 1.97  61 1.97  53 2.01  60 2.01  40 3.09   6 3.09   8 3.09

   8  0.088  0.833  0.325-  54 1.97  92 1.97  60 1.97  62 1.97  61 2.01  55 2.01  23 3.09   5 3.09
                             7 3.09   9 3.11
   9  0.942  0.833  0.421-  63 1.97  65 1.97  97 1.97  55 2.00  64 2.01  62 2.01  12 3.07  10 3.09
                            26 3.09   8 3.11
  10  0.725  0.666  0.451-  58 1.95 128 1.97  64 1.97  66 1.98  67 2.01  65 2.02  11 3.07   9 3.09
                            41 3.10  15 3.13
  11  0.442  0.667  0.421-  67 1.97 133 1.97  69 1.97  59 1.99  68 2.01  58 2.02  10 3.07  12 3.10
                            44 3.10   6 3.11
  12  0.224  0.833  0.452-  62 1.95  68 1.97 100 1.97  70 1.98  63 2.01  69 2.02   9 3.07  11 3.10
                            27 3.10  13 3.12
  13  0.082  0.833  0.549- 105 1.97  73 1.97  71 1.98  72 2.00  63 2.01  70 2.01  16 3.03  14 3.09
                            30 3.09  12 3.12
  14  0.864  0.666  0.577-  66 1.93 136 1.97  72 1.97  75 1.99  74 2.00  73 2.02  15 3.05  13 3.09
                            45 3.10
  15  0.581  0.666  0.549- 141 1.97  77 1.97  75 1.98  67 2.00  76 2.00  66 2.02  14 3.05  16 3.09
                            48 3.10  10 3.13
  16  0.363  0.833  0.578-  70 1.93  76 1.97 108 1.97  71 1.99  78 1.99  77 2.02  13 3.03  15 3.09
                            31 3.09
  17  0.227  0.833  0.680-  79 1.91  81 1.97 113 1.98  80 2.04  71 2.08  78 2.09  20 2.92  34 3.11
                            18 3.13
  18  0.999  0.666  0.702-  74 1.84  82 1.87 144 2.00  80 2.01  81 2.05  19 2.93  17 3.13  49 3.14

[...]

  21  0.804  0.167  0.293-  89 1.97  87 1.97 121 1.97  86 2.01  88 2.01  22 3.09  24 3.09  38 3.09

[...]

  37  0.804  0.500  0.293-  57 1.97 121 1.97 119 1.97 118 2.01 120 2.01  38 3.09   6 3.09  40 3.09

  38  0.588  0.333  0.325- 117 1.97 120 1.97  88 1.97 122 1.97 121 2.01 123 2.01  37 3.09  39 3.09
                            21 3.09  43 3.11
  39  0.304  0.333  0.293- 125 1.97 123 1.97  93 1.97 117 2.01 124 2.01  40 3.09  38 3.09  24 3.09

  40  0.088  0.500  0.325- 118 1.97  60 1.97 124 1.97 126 1.97 125 2.01 119 2.01   7 3.09  39 3.09
                            37 3.09  41 3.10
  41  0.943  0.500  0.421- 127 1.97  65 1.97 129 1.97 119 2.00 126 2.00 128 2.01  44 3.07  10 3.10
                            42 3.10  40 3.10
  42  0.725  0.334  0.451- 122 1.95 128 1.97  96 1.97 130 1.98 131 2.01 129 2.02  43 3.07  25 3.09
                            41 3.10  47 3.13
  43  0.442  0.333  0.421- 131 1.97 133 1.97 101 1.97 123 1.99 132 2.01 122 2.02  42 3.07  28 3.10
                            44 3.10  38 3.11
  44  0.225  0.500  0.452- 126 1.97 132 1.97  68 1.97 134 1.99 127 2.00 133 2.02  41 3.07  43 3.10
                            11 3.10  45 3.10
  45  0.084  0.500  0.550- 135 1.97 137 1.97  73 1.97 134 2.00 127 2.01 136 2.02  48 3.04  14 3.10
                            46 3.10  44 3.10
  46  0.864  0.334  0.577- 130 1.93 136 1.97 104 1.97 139 1.99 138 2.00 137 2.02  47 3.05  29 3.09
                            45 3.10
  47  0.581  0.334  0.549- 141 1.97 109 1.97 139 1.98 131 2.00 140 2.00 130 2.02  46 3.05  32 3.09
                            48 3.10  42 3.13
  48  0.364  0.500  0.580- 134 1.97 140 1.98  76 1.98 135 1.98 142 1.98 141 2.03  45 3.04  47 3.10
                            15 3.10  49 3.15
  49  0.230  0.500  0.681- 143 1.90  81 1.98 145 1.98 142 2.04 144 2.07 135 2.09  52 2.95  18 3.14
                            50 3.14  48 3.15
  50  0.999  0.334  0.702- 138 1.84 146 1.87 144 2.00 112 2.01 145 2.05  51 2.93  33 3.13  49 3.14

  51  0.726  0.333  0.678- 146 1.93 148 1.97 116 1.98 147 2.03 139 2.05 138 2.08  50 2.93  36 3.12
                            52 3.12
  52  0.504  0.500  0.708- 143 1.87 142 1.94 147 2.02  83 2.02 148 2.06   1 2.27  49 2.95  19 3.12
                            51 3.12
  53  0.483  0.667  0.267-   6 1.97   7 2.01
  54  0.983  0.833  0.267-   8 1.97   5 2.01
  55  0.909  0.833  0.351-   5 1.97   9 2.00   8 2.01
  56  0.625  0.833  0.319-  22 1.97   6 1.97   5 2.01
  57  0.768  0.667  0.298-  37 1.97   5 1.97   6 2.01
  58  0.621  0.667  0.394-  10 1.95   6 1.97  11 2.02
  59  0.409  0.667  0.351-   7 1.97  11 1.99   6 2.01
  60  0.125  0.667  0.319-  40 1.97   8 1.97   7 2.01
  61  0.268  0.833  0.298-  23 1.97   7 1.97   8 2.01
  62  0.121  0.833  0.394-  12 1.95   8 1.97   9 2.01
  63  0.047  0.834  0.479-   9 1.97  12 2.01  13 2.01
  64  0.762  0.833  0.447-  26 1.97  10 1.97   9 2.01
  65  0.906  0.667  0.426-   9 1.97  41 1.97  10 2.02
  66  0.759  0.666  0.521-  14 1.93  10 1.98  15 2.02
  67  0.547  0.666  0.479-  11 1.97  15 2.00  10 2.01
  68  0.262  0.667  0.447-  12 1.97  44 1.97  11 2.01
  69  0.405  0.833  0.426-  27 1.97  11 1.97  12 2.02
  70  0.259  0.833  0.521-  16 1.93  12 1.98  13 2.01
  71  0.189  0.833  0.607-  13 1.98  16 1.99  17 2.08
  72  0.901  0.833  0.574-  30 1.97  14 1.97  13 2.00
  73  0.046  0.667  0.553-  13 1.97  45 1.97  14 2.02
  74  0.907  0.667  0.646-  18 1.84  14 2.00  19 2.08
  75  0.690  0.668  0.607-  15 1.98  14 1.99  19 2.05
  76  0.402  0.667  0.575-  16 1.97  48 1.98  15 2.00
  77  0.545  0.833  0.553-  31 1.97  15 1.97  16 2.02
  78  0.406  0.836  0.647-  20 1.84  16 1.99  17 2.09
  79  0.343  0.833  0.733-  20 1.86  17 1.91
  80  0.049  0.833  0.710-  34 2.01  18 2.01  17 2.04
  81  0.188  0.666  0.682-  17 1.97  49 1.98  18 2.05
  82  0.839  0.664  0.732-  18 1.87  19 1.93
  83  0.549  0.669  0.708-  20 1.99  52 2.02  19 2.03
  84  0.689  0.834  0.681-  35 1.97  19 1.98  20 2.05
  85  0.483  0.000  0.267-  22 1.97  23 2.01
  86  0.983  0.167  0.267-  24 1.97  21 2.01
  87  0.909  0.167  0.351-  21 1.97  25 2.00  24 2.01
  88  0.625  0.167  0.319-  22 1.97  38 1.97  21 2.01
  89  0.768  0.000  0.298-   5 1.97  21 1.97  22 2.01
  90  0.621  0.000  0.394-  26 1.95  22 1.97  27 2.02
  91  0.409  0.000  0.351-  23 1.97  27 1.99  22 2.01
  92  0.125  0.000  0.319-   8 1.97  24 1.97  23 2.01
  93  0.268  0.167  0.298-  23 1.97  39 1.97  24 2.01
  94  0.121  0.167  0.394-  28 1.95  24 1.97  25 2.01
  95  0.047  0.166  0.479-  25 1.97  28 2.01  29 2.01
  96  0.762  0.167  0.447-  26 1.97  42 1.97  25 2.01
  97  0.905  0.000  0.426-   9 1.97  25 1.97  26 2.02
  98  0.759  0.000  0.521-  30 1.93  26 1.98  31 2.02
  99  0.547  0.000  0.479-  27 1.97  31 2.00  26 2.01
 100  0.262  1.000  0.447-  28 1.97  12 1.97  27 2.01
 101  0.405  0.167  0.426-  27 1.97  43 1.97  28 2.02
 102  0.259  0.167  0.521-  32 1.93  28 1.98  29 2.01
 103  0.189  0.167  0.607-  29 1.98  32 1.99  33 2.08
 104  0.901  0.167  0.574-  30 1.97  46 1.97  29 2.00
 105  0.046  0.000  0.553-  13 1.97  29 1.97  30 2.02
 106  0.907  1.000  0.647-  34 1.85  30 2.00  35 2.08
 107  0.690  1.000  0.607-  31 1.98  30 1.99  35 2.08
 108  0.401  1.000  0.574-  32 1.97  16 1.97  31 2.00
 109  0.545  0.167  0.553-  31 1.97  47 1.97  32 2.02
 110  0.406  0.164  0.647-  36 1.84  32 1.99  33 2.09
 111  0.343  0.167  0.733-  36 1.86  33 1.91
 112  0.049  0.167  0.710-  34 2.01  50 2.01  33 2.04
[...]
 134  0.261  0.500  0.522-  48 1.97  44 1.99  45 2.00
 135  0.189  0.500  0.608-  45 1.97  48 1.98  49 2.09
 136  0.902  0.500  0.574-  14 1.97  46 1.97  45 2.02
 137  0.046  0.333  0.553-  29 1.97  45 1.97  46 2.02
 138  0.907  0.333  0.646-  50 1.84  46 2.00  51 2.08
 139  0.690  0.332  0.607-  47 1.98  46 1.99  51 2.05
 140  0.402  0.333  0.575-  32 1.97  48 1.98  47 2.00
 141  0.546  0.500  0.554-  47 1.97  15 1.97  48 2.03
 142  0.407  0.500  0.649-  52 1.94  48 1.98  49 2.04
 143  0.340  0.500  0.735-  52 1.87  49 1.90
 144  0.048  0.500  0.710-  18 2.00  50 2.00  49 2.07
 145  0.188  0.334  0.682-  33 1.97  49 1.98  50 2.05
 146  0.839  0.336  0.732-  50 1.87  51 1.93
 147  0.549  0.331  0.708-  36 1.99  52 2.02  51 2.03
 148  0.686  0.500  0.679-  51 1.97  19 1.97  52 2.06

IMPORTANT INFORMATION: All symmetrisations will be switched off!
[...]
   O          54.391          3.933         10.083          1.86724226
   O          55.850          3.950         10.217          1.89211215
   O          55.749          3.949         10.208          1.89039958
   O          57.069          3.964         10.328          1.91265295
   O          38.639          3.715          8.499          1.57380035
   O          55.117          3.941         10.150          1.87966272
   O          57.995          3.975         10.412          1.92810610
   O          39.872          3.734          8.633          1.59871669
   O          53.686          3.924         10.018          1.85509931
   O          56.129          3.953         10.243          1.89683431

  vdW correction parametrized for the method pbe

  IVDW =  21
  VDW_RADIUS =    50.000 A
  VDW_IDAMPF =  0
  VDW_S6 =     1.000
  VDW_SR =     0.950
  VDW_D =    20.000
  LVDW_ONECELL = F F F
  LVDW_SAMETYPE T T T T
  LVDW_EWALD = F

  Number of pair interactions contributing to vdW energy: 1693325
  Edisp (eV):  -17.19088

  FORCE on cell =-STRESS in cart. coord.  units (eV):
  Direction    XX          YY          ZZ          XY          YZ          ZX
  Alpha Z  2347.28813  2347.28813  2347.28813
  Ewald  467169.83638460335.86523************    -0.00141     0.00008 -2304.58723
  Hartree488372.33169484269.54089************    -0.00073     0.00006 -1453.82152
  E(xc)   -5156.69215 -5161.03291 -5166.87135    -0.00000     0.00000    -2.01121
  Local  ************************963468.86973     0.00209    -0.00012  3748.18046
  n-local -3140.57016 -3133.41990 -3173.31256    -0.00002    -0.00000    -2.32574
  augment  3166.08251  3160.08380  3152.14007    -0.00000    -0.00000    -1.38167
  Kinetic 17010.95042 17115.28302 17167.62097     0.00005     0.00000     8.95741
  Fock        0.00000     0.00000     0.00000     0.00000     0.00000     0.00000
  vdW       -22.25619   -25.50274   -20.88965    -0.00000     0.00000    -0.22369
  Total     -41.28436   -14.85225   -12.69076    -0.00002     0.00002    -7.21320
  in kB     -19.49102    -7.01199    -5.99151    -0.00001     0.00001    -3.40547

 VOLUME and BASIS-vectors are now :
  energy-cutoff  :      600.00
  volume of cell :     3393.61
      direct lattice vectors                 reciprocal lattice vectors
    10.417029087  0.000000000  0.000000000     0.095996660 -0.000000000  0.000000000
     0.000000000 11.576961846  0.000000000     0.000000000  0.086378448  0.000000000
     0.000000000  0.000000000 28.139937787     0.000000000  0.000000000  0.035536681

  length of vectors
    10.417029087 11.576961846 28.139937787     0.095996660  0.086378448  0.035536681

 FORCES acting on ions:
    Electron-Ion                     Ewald-Force                    Non-Local-Force
   -.157E+02 -.262E-04 -.169E+04   0.651E+01 0.436E-04 0.168E+04   0.918E+01 0.947E-05 0.168E+02
   0.424E+02 -.126E-04 -.360E+03   -.471E+02 0.134E-04 0.366E+03   0.472E+01 -.117E-05 -.561E+01
   -.422E+02 0.547E+02 -.342E+03   0.466E+02 -.606E+02 0.342E+03   -.437E+01 0.588E+01 -.266E+00
   -.422E+02 -.547E+02 -.342E+03   0.466E+02 0.606E+02 0.342E+03   -.437E+01 -.588E+01 -.266E+00
   0.642E+01 0.408E-01 0.324E+04   -.137E+01 -.442E-01 -.323E+04   -.153E+01 0.845E-03 -.431E+01
   0.316E+01 0.932E-02 0.266E+04   -.475E+01 -.116E-01 -.266E+04   0.938E-01 0.436E-03 0.139E+00
   0.656E+01 0.177E+00 0.324E+04   -.153E+01 -.185E+00 -.323E+04   -.153E+01 0.230E-02 -.431E+01
   0.242E+01 0.190E+00 0.266E+04   -.403E+01 -.199E+00 -.266E+04   0.982E-01 0.246E-02 0.138E+00
   -.521E+00 0.163E+00 0.122E+04   0.454E+00 -.164E+00 -.122E+04   0.728E-01 0.903E-03 -.122E+00
   0.128E+01 -.931E+00 0.763E+03   -.131E+01 0.903E+00 -.763E+03   0.274E-01 0.295E-01 0.152E-01
   0.112E+01 0.147E+00 0.122E+04   -.119E+01 -.163E+00 -.122E+04   0.782E-01 0.168E-01 -.129E+00
   -.111E+01 0.354E+00 0.758E+03   0.105E+01 -.355E+00 -.758E+03   0.615E-01 0.317E-02 0.174E-01
   -.588E+01 -.205E+01 -.736E+03   0.574E+01 0.204E+01 0.736E+03   0.160E+00 0.801E-02 0.442E-01
   -.469E+01 -.330E+01 -.114E+04   0.458E+01 0.330E+01 0.114E+04   0.130E+00 0.655E-02 0.678E-01
   0.411E+00 -.135E+01 -.717E+03   -.563E+00 0.133E+01 0.717E+03   0.168E+00 0.175E-01 0.247E-01
   0.643E+01 -.108E+01 -.115E+04   -.653E+01 0.109E+01 0.115E+04   0.118E+00 -.118E-01 -.466E-02
   0.273E+02 -.960E+01 -.266E+04   -.277E+02 0.958E+01 0.267E+04   0.469E+00 0.222E-01 -.528E+00
   -.726E+02 -.207E+02 -.307E+04   0.716E+02 0.205E+02 0.306E+04   0.111E+01 0.162E+00 0.190E+01
   -.838E+01 -.376E+02 -.259E+04   0.791E+01 0.376E+02 0.259E+04   0.511E+00 0.385E-02 -.341E+00
   -.470E+02 -.340E+02 -.306E+04   0.460E+02 0.339E+02 0.306E+04   0.119E+01 0.106E+00 0.184E+01
   0.642E+01 -.408E-01 0.324E+04   -.137E+01 0.442E-01 -.323E+04   -.153E+01 -.850E-03 -.431E+01
   0.308E+01 -.394E-05 0.266E+04   -.468E+01 0.704E-05 -.266E+04   0.956E-01 0.747E-06 0.138E+00
   0.647E+01 -.471E-05 0.324E+04   -.143E+01 0.124E-04 -.323E+04   -.153E+01 0.155E-05 -.431E+01
   0.242E+01 -.190E+00 0.266E+04   -.403E+01 0.199E+00 -.266E+04   0.982E-01 -.246E-02 0.138E+00
   -.521E+00 -.163E+00 0.122E+04   0.454E+00 0.164E+00 -.122E+04   0.728E-01 -.902E-03 -.122E+00
   -.438E-01 -.912E-05 0.760E+03   -.991E-02 0.175E-04 -.760E+03   0.601E-01 -.260E-05 0.229E-01
   0.825E+00 0.944E-05 0.122E+04   -.891E+00 0.494E-05 -.122E+04   0.689E-01 -.134E-05 -.131E+00
   -.111E+01 -.354E+00 0.758E+03   0.105E+01 0.355E+00 -.758E+03   0.615E-01 -.316E-02 0.174E-01
   -.588E+01 0.205E+01 -.736E+03   0.574E+01 -.204E+01 0.736E+03   0.160E+00 -.801E-02 0.442E-01
   -.217E+01 -.436E-04 -.115E+04   0.204E+01 0.424E-04 0.115E+04   0.159E+00 0.343E-05 0.603E-01
   -.442E+01 0.419E-04 -.730E+03   0.425E+01 -.280E-04 0.730E+03   0.189E+00 0.551E-05 0.883E-01
   0.643E+01 0.108E+01 -.115E+04   -.653E+01 -.109E+01 0.115E+04   0.118E+00 0.118E-01 -.466E-02
   0.273E+02 0.960E+01 -.266E+04   -.277E+02 -.958E+01 0.267E+04   0.469E+00 -.222E-01 -.528E+00
   -.638E+02 0.232E-04 -.308E+04   0.628E+02 -.122E-04 0.308E+04   0.114E+01 0.268E-05 0.190E+01
   0.114E+02 0.388E-04 -.266E+04   -.118E+02 -.449E-04 0.266E+04   0.429E+00 -.378E-05 -.495E+00
   -.470E+02 0.340E+02 -.306E+04   0.460E+02 -.339E+02 0.306E+04   0.119E+01 -.106E+00 0.184E+01
   0.636E+01 -.147E-04 0.324E+04   -.129E+01 -.528E-05 -.323E+04   -.154E+01 -.195E-05 -.431E+01
   0.316E+01 -.932E-02 0.266E+04   -.475E+01 0.116E-01 -.266E+04   0.938E-01 -.435E-03 0.139E+00
   0.656E+01 -.177E+00 0.324E+04   -.153E+01 0.185E+00 -.323E+04   -.153E+01 -.229E-02 -.431E+01
   0.189E+01 0.124E-04 0.266E+04   -.349E+01 -.122E-04 -.266E+04   0.935E-01 -.287E-05 0.127E+00
   -.479E+00 0.176E-05 0.122E+04   0.453E+00 -.176E-04 -.122E+04   0.292E-01 -.552E-06 -.699E-01
   0.128E+01 0.931E+00 0.763E+03   -.131E+01 -.903E+00 -.763E+03   0.274E-01 -.295E-01 0.152E-01
   0.112E+01 -.147E+00 0.122E+04   -.119E+01 0.163E+00 -.122E+04   0.782E-01 -.168E-01 -.129E+00
   -.302E+01 -.792E-05 0.745E+03   0.296E+01 0.220E-04 -.745E+03   0.618E-01 0.101E-05 0.623E-02
   -.512E+01 -.252E-04 -.739E+03   0.510E+01 0.172E-04 0.739E+03   0.177E-01 0.132E-05 0.596E-01
   -.469E+01 0.330E+01 -.114E+04   0.458E+01 -.330E+01 0.114E+04   0.130E+00 -.655E-02 0.678E-01
   0.411E+00 0.135E+01 -.717E+03   -.563E+00 -.133E+01 0.717E+03   0.168E+00 -.175E-01 0.247E-01
   0.556E+01 0.239E-04 -.119E+04   -.563E+01 -.203E-04 0.119E+04   0.835E-01 0.850E-06 -.129E+00
   0.430E+02 0.923E-04 -.266E+04   -.430E+02 -.997E-04 0.266E+04   0.318E-01 -.586E-07 -.435E+00
   -.726E+02 0.207E+02 -.307E+04   0.716E+02 -.205E+02 0.306E+04   0.111E+01 -.162E+00 0.190E+01
   -.838E+01 0.376E+02 -.259E+04   0.791E+01 -.376E+02 0.259E+04   0.511E+00 -.384E-02 -.341E+00
   0.287E+02 -.242E-04 -.301E+04   -.290E+02 0.302E-04 0.301E+04   0.326E+00 0.459E-06 0.117E+00
   -.340E+02 0.189E-02 0.219E+04   0.392E+02 -.324E-02 -.220E+04   -.693E+01 0.187E-02 0.177E+02
   -.342E+02 0.868E-02 0.219E+04   0.394E+02 -.114E-01 -.220E+04   -.693E+01 0.351E-02 0.177E+02
   0.829E+02 0.156E+00 0.133E+04   -.878E+02 -.154E+00 -.133E+04   0.411E+01 -.330E-02 -.397E+01
   0.751E+02 0.410E-01 0.162E+04   -.821E+02 -.418E-01 -.162E+04   0.740E+01 0.171E-02 -.280E+01
   -.866E+02 0.157E-01 0.186E+04   0.937E+02 -.197E-01 -.187E+04   -.692E+01 0.870E-02 -.283E+00
   -.751E+02 -.393E+00 0.101E+04   0.812E+02 0.423E+00 -.102E+04   -.617E+01 -.292E-01 0.380E+01
   0.834E+02 0.181E+00 0.133E+04   -.883E+02 -.170E+00 -.133E+04   0.410E+01 -.126E-01 -.390E+01
   0.746E+02 0.185E+00 0.162E+04   -.816E+02 -.197E+00 -.161E+04   0.742E+01 0.237E-01 -.282E+01
[...]
   0.892E+02 0.592E-04 -.102E+04   -.962E+02 -.558E-04 0.103E+04   0.701E+01 -.187E-05 -.620E+01
   0.728E+02 0.201E-04 -.686E+03   -.790E+02 -.234E-04 0.689E+03   0.617E+01 0.633E-05 -.284E+01
   -.841E+02 -.155E+00 -.438E+03   0.906E+02 0.230E+00 0.436E+03   -.649E+01 -.750E-01 0.278E+01
   -.752E+02 0.898E+01 -.125E+04   0.782E+02 -.925E+01 0.124E+04   -.297E+01 0.269E+00 0.796E+01
   0.825E+02 0.856E+01 -.995E+03   -.890E+02 -.886E+01 0.100E+04   0.652E+01 0.303E+00 -.487E+01
   0.822E+02 -.594E+00 -.695E+03   -.888E+02 0.704E+00 0.698E+03   0.654E+01 -.108E+00 -.290E+01
   -.758E+02 0.118E-04 -.442E+03   0.819E+02 0.167E-04 0.439E+03   -.614E+01 -.167E-04 0.242E+01
   -.672E+02 -.608E-05 -.127E+04   0.736E+02 0.119E-04 0.126E+04   -.631E+01 -.360E-05 0.461E+01
   0.107E+03 -.164E-04 -.217E+04   -.113E+03 0.196E-04 0.219E+04   0.637E+01 -.353E-05 -.203E+02
   0.463E+02 0.345E-04 -.193E+04   -.498E+02 -.459E-04 0.194E+04   0.355E+01 0.162E-04 -.738E+01
   -.575E+02 0.596E+01 -.159E+04   0.628E+02 -.575E+01 0.159E+04   -.526E+01 -.210E+00 0.282E+01
   0.143E+02 0.301E+02 -.217E+04   -.201E+02 -.300E+02 0.219E+04   0.578E+01 -.110E+00 -.195E+02
   0.796E+02 0.434E+02 -.187E+04   -.845E+02 -.429E+02 0.188E+04   0.498E+01 -.534E+00 -.625E+01
   -.724E+02 -.449E-04 -.150E+04   0.769E+02 0.516E-04 0.149E+04   -.446E+01 0.125E-06 0.450E+01
   -.111E+02 -.144E-04 0.569E+02   -.284E-13 0.512E-12 0.341E-11   0.111E+02 0.404E-04 -.569E+02

 POSITION                                       TOTAL-FORCE (eV/Angst)
      6.32949      5.78848     21.92482         0.008169      0.000027      0.002486
      5.68940      5.78848     22.72013        -0.000865     -0.000000      0.005935
      6.93919      4.96711     21.98575         0.000493      0.000940      0.000850
      6.93919      6.60986     21.98575         0.000482     -0.000957      0.000850
      8.37521      9.64747      8.24527         3.540667     -0.002511      1.509286
      6.12834      7.71797      9.14138        -1.503088     -0.001907     -1.574228
      3.16670      7.71797      8.24527         3.523891     -0.005836      1.504506
      0.91983      9.64747      9.14138        -1.517391     -0.007020     -1.574443
      9.81182      9.64750     11.85227         0.000123      0.000133      0.000070
      7.55050      7.71516     12.70250        -0.000493     -0.001542      0.002779
      4.59995      7.71617     11.85057         0.000990     -0.000556      0.000670
      2.33818      9.64704     12.70827         0.001303      0.001764      0.002493
      0.85542      9.64829     15.45903         0.002158     -0.000634      0.003466
      8.99625      7.71428     16.23926         0.000240     -0.001562      0.003231
      6.05438      7.71501     15.44759        -0.000009      0.000300      0.002319
      3.77866      9.64770     16.25724         0.000228     -0.000981      0.003576
      2.36510      9.64231     19.13552         0.002307     -0.000907      0.002135
     10.40916      7.70728     19.76328         0.003022     -0.000115      0.004262
      7.56134      7.71639     19.07934        -0.001504     -0.001744      0.001636
      5.21869      9.66076     19.75200        -0.000321     -0.001176      0.004857
      8.37521      1.92949      8.24527         3.540672      0.002519      1.509310
      6.12834      0.00000      9.14138        -1.508855      0.000004     -1.574484
      3.16670      0.00000      8.24527         3.533981      0.000009      1.505211
      0.91983      1.92949      9.14138        -1.517368      0.007016     -1.574448
      9.81182      1.92946     11.85227         0.000115     -0.000129      0.000076
      7.54873      0.00000     12.70451        -0.001158      0.000006      0.001538
      4.60163      0.00000     11.85165        -0.002627      0.000013      0.001926
      2.33818      1.92992     12.70828         0.001309     -0.001760      0.002492
      0.85542      1.92867     15.45903         0.002123      0.000631      0.003444
      8.98823      0.00000     16.25051         0.001187      0.000002      0.001283
      6.05951     11.57696     15.45222        -0.001769      0.000019      0.002191
      3.77866      1.92926     16.25724         0.000213      0.000964      0.003587
      2.36510      1.93465     19.13552         0.002322      0.000925      0.002145
      0.00841     11.57696     19.76595         0.002921      0.000013      0.004351
      7.58800      0.00000     19.12020        -0.002613     -0.000010      0.003134
      5.21869      1.91620     19.75200        -0.000277      0.001183      0.004876
      8.37521      5.78848      8.24527         3.555506     -0.000022      1.514953
      6.12834      3.85899      9.14138        -1.503055      0.001899     -1.574223
      3.16670      3.85899      8.24527         3.523792      0.005838      1.504388
      0.91983      5.78848      9.14138        -1.507345     -0.000003     -1.519633
      9.82172      5.78848     11.85140         0.000812     -0.000017      0.003859
      7.55050      3.86181     12.70250        -0.000477      0.001548      0.002797
      4.59995      3.86079     11.85057         0.000983      0.000534      0.000689
      2.34205      5.78848     12.73086        -0.000668      0.000015      0.002375
      0.87894      5.78848     15.46788        -0.000705     -0.000007      0.002088
      8.99625      3.86269     16.23926         0.000263      0.001579      0.003253
      6.05438      3.86195     15.44759         0.000006     -0.000295      0.002318
      3.79428      5.78848     16.33410         0.000400      0.000004      0.006677
      2.40071      5.78848     19.15556        -0.000411     -0.000007      0.000058
     10.40916      3.86968     19.76328         0.003047      0.000096      0.004246
      7.56134      3.86057     19.07934        -0.001502      0.001748      0.001604
      5.25382      5.78848     19.92108         0.001173      0.000006      0.004012
      5.03536      7.71797      7.50000        -1.755869      0.000525      0.965187
     10.24388      9.64747      7.50000        -1.755642      0.000826      0.963329
      9.46820      9.64747      9.88665        -0.828893     -0.001568     -0.111060
      6.50655      9.64747      8.99054         0.368769      0.000914     -0.103004
      7.99701      7.71797      8.39611         0.239352      0.004676     -1.061500
      6.46492      7.71797     11.08443        -0.088017      0.001717      0.332271
      4.25968      7.71797      9.88665        -0.832463     -0.001006     -0.110590
      1.29803      7.71797      8.99054         0.376120      0.012076     -0.109876
[...]
      2.71577      5.78848     14.68228         0.000342     -0.000002     -0.000906
      1.97049      5.78848     17.10847        -0.000001      0.000001     -0.001116
      9.39259      5.78848     16.14569        -0.000045      0.000003     -0.001065
      0.48083      3.85917     15.56862         0.000737      0.000115     -0.000024
      9.44651      3.85561     18.19114         0.000287      0.000712     -0.002874
      7.18810      3.84535     17.06839         0.001617      0.000451     -0.001567
      4.18420      3.85782     16.17029         0.000210      0.001592     -0.000324
      5.68459      5.78848     15.59026         0.000445      0.000012     -0.002221
      4.23667      5.78848     18.26553         0.000321      0.000002      0.001988
      3.54438      5.78848     20.67439         0.001654     -0.000000      0.001444
      0.50433      5.78848     19.97806         0.000768      0.000005      0.000646
      1.95803      3.86100     19.19333         0.000989     -0.000079      0.001984
      8.74053      3.89265     20.60525        -0.001086     -0.001832      0.000877
      5.72346      3.82817     19.93389         0.001276      0.000954      0.002470
      7.15094      5.78848     19.11455        -0.000309      0.000007      0.000814
    total drift:                               -0.006784      0.000026      0.050074

  FREE ENERGIE OF THE ION-ELECTRON SYSTEM (eV)
  free  energy   TOTEN  =     -1165.74280026 eV

  energy  without entropy=    -1165.74280026  energy(sigma->0) =    -1165.74280026