 vasp.6.3.0 20Jan22 (build Mar 11 2022 13:48:16) complex

 executed on             LinuxIFC date 2024.08.29  13:47:42

 INCAR:
   SYSTEM = MgO-rocksalt
   ISMEAR = 0
   SIGMA = 0.05
   EDIFF = 1E-7
   ALGO = ALL
   ISTART = 0
   IBRION = 2
   NSW = 1000
   ISYM = 0
   ISIF = 2
   EDIFFG = -0.01
   DIPOL = 0.5 0.5 0.5
   IDIPOL = 3
   LDIPOL = .TRUE.
   GGA = PE
   IVDW = 21
   ENCUT = 600
   PREC = Accurate
   LASPH = .TRUE.
   LREAL = .FALSE.
   ISPIN = 1
   NELM = 200
   NELMIN = 8
   NCORE = 8
   KPAR = 1
   LWAVE = .FALSE.
   LCHARG = .FALSE.

 POTCAR:    PAW_PBE Ti_pv 07Sep2000
 POTCAR:    PAW_PBE O 08Apr2002
|           W    W    AA    RRRRR   N    N  II  N    N   GGGG   !!!           |
|           W    W   A  A   R    R  NN   N  II  NN   N  G    G  !!!           |
|           W    W  A    A  R    R  N N  N  II  N N  N  G       !!!           |
|           W WW W  AAAAAA  RRRRR   N  N N  II  N  N N  G  GGG   !            |
|           WW  WW  A    A  R   R   N   NN  II  N   NN  G    G                |
|           W    W  A    A  R    R  N    N  II  N    N   GGGG   !!!           |
|     For optimal performance we recommend to set                             |
|       NCORE = 2 up to number-of-cores-per-socket                            |
|     This setting can greatly improve the performance of VASP for DFT.       |
|     The default, NCORE=1 might be grossly inefficient on modern             |
|     multi-core architectures or massively parallel machines. Do your        |
|     Unfortunately you need to use the default for GW and RPA                |
|     calculations (for HF NCORE is supported but not extensively tested      |
|     yet).                                                                   |

   TITEL  = PAW_PBE Ti_pv 07Sep2000
   POMASS =   47.880; ZVAL   =   10.000    mass and valenz
   ENMAX  =  222.335; ENMIN  =  166.751 eV

   TITEL  = PAW_PBE O 08Apr2002
   POMASS =   16.000; ZVAL   =    6.000    mass and valenz
   ENMAX  =  400.000; ENMIN  =  300.000 eV

  PAW_PBE Ti_pv 07Sep2000               :
  PAW_PBE O 08Apr2002                   :

 POSCAR: Ti  O
  positions in direct lattice
  velocities in cartesian coordinates
 exchange correlation table for  LEXCH =        8
   RHO(1)=    0.500       N(1)  =     2000
   RHO(2)=  100.500       N(2)  =     4000

 ion  position               nearest neighbor table
   1  0.817  0.833  0.295-  51 1.94  85 1.94  53 1.94  52 2.00  50 2.00  18 3.07   2 3.07   4 3.07

   2  0.600  0.667  0.326-  54 1.94 116 1.94  49 1.94  52 1.94  55 2.00  53 2.00  33 3.07   1 3.07
                             3 3.07   7 3.11
   3  0.317  0.667  0.295-  55 1.94 121 1.94  57 1.94  56 2.00  49 2.00  36 3.07   4 3.07   2 3.07

   4  0.100  0.833  0.326-  58 1.94  88 1.94  50 1.94  56 1.94  51 2.00  57 2.00  19 3.07   3 3.07
                             1 3.07   5 3.11
   5  0.949  0.833  0.422-  59 1.92  93 1.94  61 1.94  51 1.97  60 1.99  58 2.03   8 3.03  22 3.07
                             6 3.07   4 3.11
   6  0.730  0.667  0.452-  54 1.90 124 1.94  60 1.94  62 1.96  63 2.00  61 2.01   7 3.03   5 3.07
                            37 3.07  11 3.14
   7  0.449  0.667  0.422-  63 1.92  65 1.94 129 1.94  55 1.97  64 1.99  54 2.03   6 3.03  40 3.07
                             8 3.07   2 3.11
   8  0.230  0.833  0.452-  58 1.90  96 1.94  64 1.94  66 1.96  59 2.00  65 2.01   5 3.03  23 3.07
                             7 3.07   9 3.14
   9  0.082  0.833  0.550-  67 1.93 101 1.93  69 1.93  68 1.99  59 2.00  66 2.03  12 2.98  26 3.07
                            10 3.07   8 3.14
  10  0.860  0.667  0.577-  62 1.86  68 1.94 132 1.94  71 1.96  70 2.00  69 2.03  11 2.98   9 3.07
                            41 3.07
  11  0.582  0.667  0.550-  71 1.93  73 1.93 137 1.93  72 1.99  63 2.00  62 2.03  10 2.98  12 3.07
                            44 3.07   6 3.14
  12  0.360  0.833  0.577-  66 1.86  72 1.94 104 1.94  67 1.96  74 2.00  73 2.03   9 2.98  11 3.07
                            27 3.07
  13  0.222  0.833  0.680-  75 1.86  77 1.94 109 1.94  76 2.01  67 2.09  74 2.11  16 2.87  30 3.09
                            14 3.09
  14  0.993  0.667  0.701-  70 1.78  78 1.84  76 1.98 140 1.98  77 2.06  15 2.87  45 3.09  13 3.09

[...]

  17  0.817  0.167  0.295-  83 1.94  85 1.94 117 1.94  84 2.00  82 2.00  18 3.07  34 3.07  20 3.07

[...]

  36  0.100  0.500  0.326- 122 1.94 120 1.94  56 1.94 114 1.94 115 2.00 121 2.00   3 3.07  35 3.07
                            33 3.07  37 3.11
  37  0.949  0.500  0.422- 123 1.92 125 1.94  61 1.94 115 1.97 124 1.99 122 2.03  40 3.03   6 3.07
                            38 3.07  36 3.11
  38  0.730  0.333  0.452- 118 1.90  92 1.94 124 1.94 126 1.96 127 2.00 125 2.01  39 3.03  21 3.07
                            37 3.07  43 3.14
  39  0.449  0.333  0.422- 127 1.92  97 1.94 129 1.94 119 1.97 128 1.99 118 2.03  38 3.03  40 3.07
                            24 3.07  34 3.11
  40  0.230  0.500  0.452- 122 1.90 128 1.94  64 1.94 130 1.96 123 2.00 129 2.01  37 3.03  39 3.07
                             7 3.07  41 3.14
  41  0.082  0.500  0.550- 131 1.93  69 1.93 133 1.93 132 1.99 123 2.00 130 2.03  44 2.98  10 3.07
                            42 3.07  40 3.14
  42  0.860  0.333  0.577- 126 1.86 100 1.94 132 1.94 135 1.96 134 2.00 133 2.03  43 2.98  25 3.07
                            41 3.07
  43  0.582  0.333  0.550- 135 1.93 137 1.93 105 1.93 136 1.99 127 2.00 126 2.03  42 2.98  28 3.07
                            44 3.07  38 3.14
  44  0.360  0.500  0.577- 130 1.86  72 1.94 136 1.94 131 1.96 138 2.00 137 2.03  41 2.98  43 3.07
                            11 3.07
  45  0.222  0.500  0.680- 139 1.86  77 1.94 141 1.94 140 2.01 131 2.09 138 2.11  48 2.87  14 3.09
                            46 3.09
  46  0.993  0.333  0.701- 134 1.78 142 1.84 140 1.98 108 1.98 141 2.06  47 2.87  45 3.09  29 3.09

  47  0.722  0.333  0.680- 142 1.86 112 1.94 144 1.94 143 2.01 135 2.09 134 2.11  46 2.87  48 3.09
                            32 3.09
  48  0.493  0.500  0.701- 138 1.78 139 1.84 143 1.98  79 1.98 144 2.06  45 2.87  15 3.09  47 3.09

  49  0.496  0.667  0.269-   2 1.94   3 2.00
  50  0.996  0.833  0.269-   4 1.94   1 2.00
  51  0.920  0.833  0.352-   1 1.94   5 1.97   4 2.00
  52  0.637  0.833  0.321-  18 1.94   2 1.94   1 2.00
  53  0.779  0.667  0.300-  33 1.94   1 1.94   2 2.00
  54  0.629  0.667  0.395-   6 1.90   2 1.94   7 2.03
  55  0.420  0.667  0.352-   3 1.94   7 1.97   2 2.00
  56  0.137  0.667  0.321-  36 1.94   4 1.94   3 2.00
  57  0.279  0.833  0.300-  19 1.94   3 1.94   4 2.00
  58  0.129  0.833  0.395-   8 1.90   4 1.94   5 2.03
  59  0.052  0.833  0.479-   5 1.92   9 2.00   8 2.00
  60  0.770  0.833  0.448-  22 1.94   6 1.94   5 1.99
  61  0.911  0.667  0.426-  37 1.94   5 1.94   6 2.01
  62  0.761  0.667  0.521-  10 1.86   6 1.96  11 2.03
  63  0.552  0.667  0.479-   7 1.92  11 2.00   6 2.00
  64  0.270  0.667  0.448-  40 1.94   8 1.94   7 1.99
  65  0.411  0.833  0.426-   7 1.94  23 1.94   8 2.01
  66  0.261  0.833  0.521-  12 1.86   8 1.96   9 2.03
  67  0.189  0.833  0.606-   9 1.93  12 1.96  13 2.09
  68  0.902  0.833  0.574-  10 1.94  26 1.94   9 1.99
  69  0.045  0.667  0.553-  41 1.93   9 1.93  10 2.03
  70  0.905  0.667  0.646-  14 1.78  10 2.00  15 2.11
  71  0.689  0.667  0.606-  11 1.93  10 1.96  15 2.09
  72  0.402  0.667  0.574-  12 1.94  44 1.94  11 1.99
  73  0.545  0.833  0.553-  11 1.93  27 1.93  12 2.03
  74  0.405  0.833  0.646-  16 1.78  12 2.00  13 2.11
  75  0.336  0.833  0.731-  16 1.84  13 1.86
  76  0.045  0.833  0.709-  14 1.98  30 1.98  13 2.01
  77  0.184  0.667  0.680-  45 1.94  13 1.94  14 2.06
  78  0.836  0.667  0.731-  14 1.84  15 1.86
  79  0.545  0.667  0.709-  48 1.98  16 1.98  15 2.01
  80  0.684  0.833  0.680-  15 1.94  31 1.94  16 2.06
  81  0.496  0.000  0.269-  18 1.94  19 2.00
  82  0.996  0.167  0.269-  20 1.94  17 2.00
  83  0.920  0.167  0.352-  17 1.94  21 1.97  20 2.00
  84  0.637  0.167  0.321-  18 1.94  34 1.94  17 2.00
  85  0.779  0.000  0.300-   1 1.94  17 1.94  18 2.00
  86  0.629  0.000  0.395-  22 1.90  18 1.94  23 2.03
  87  0.420  0.000  0.352-  19 1.94  23 1.97  18 2.00
  88  0.137  0.000  0.321-   4 1.94  20 1.94  19 2.00
  89  0.279  0.167  0.300-  19 1.94  35 1.94  20 2.00
  90  0.129  0.167  0.395-  24 1.90  20 1.94  21 2.03
  91  0.052  0.167  0.479-  21 1.92  25 2.00  24 2.00
  92  0.770  0.167  0.448-  38 1.94  22 1.94  21 1.99
  93  0.911  0.000  0.426-   5 1.94  21 1.94  22 2.01
  94  0.761  0.000  0.521-  26 1.86  22 1.96  27 2.03
  95  0.552  1.000  0.479-  23 1.92  27 2.00  22 2.00
  96  0.270  1.000  0.448-   8 1.94  24 1.94  23 1.99
  97  0.411  0.167  0.426-  23 1.94  39 1.94  24 2.01
  98  0.261  0.167  0.521-  28 1.86  24 1.96  25 2.03
  99  0.189  0.167  0.606-  25 1.93  28 1.96  29 2.09
 100  0.902  0.167  0.574-  42 1.94  26 1.94  25 1.99
 101  0.045  1.000  0.553-   9 1.93  25 1.93  26 2.03
 102  0.905  1.000  0.646-  30 1.78  26 2.00  31 2.11
 103  0.689  1.000  0.606-  27 1.93  26 1.96  31 2.09
 104  0.402  1.000  0.574-  12 1.94  28 1.94  27 1.99
 105  0.545  0.167  0.553-  27 1.93  43 1.93  28 2.03
 106  0.405  0.167  0.646-  32 1.78  28 2.00  29 2.11
 107  0.336  0.167  0.731-  32 1.84  29 1.86
 108  0.045  0.167  0.709-  30 1.98  46 1.98  29 2.01
[...]
 130  0.261  0.500  0.521-  44 1.86  40 1.96  41 2.03
 131  0.189  0.500  0.606-  41 1.93  44 1.96  45 2.09
 132  0.902  0.500  0.574-  42 1.94  10 1.94  41 1.99
 133  0.045  0.333  0.553-  25 1.93  41 1.93  42 2.03
 134  0.905  0.333  0.646-  46 1.78  42 2.00  47 2.11
 135  0.689  0.333  0.606-  43 1.93  42 1.96  47 2.09
 136  0.402  0.333  0.574-  28 1.94  44 1.94  43 1.99
 137  0.545  0.500  0.553-  43 1.93  11 1.93  44 2.03
 138  0.405  0.500  0.646-  48 1.78  44 2.00  45 2.11
 139  0.336  0.500  0.731-  48 1.84  45 1.86
 140  0.045  0.500  0.709-  14 1.98  46 1.98  45 2.01
 141  0.184  0.333  0.680-  29 1.94  45 1.94  46 2.06
 142  0.836  0.333  0.731-  46 1.84  47 1.86
 143  0.545  0.333  0.709-  48 1.98  32 1.98  47 2.01
 144  0.684  0.500  0.680-  15 1.94  47 1.94  48 2.06

IMPORTANT INFORMATION: All symmetrisations will be switched off!
NOSYMM: (Re-)initialisation of all symmetry stuff for point group C_1.

                                     Primitive cell

  volume of cell :    3293.6692

  direct lattice vectors                    reciprocal lattice vectors
    10.375787277  0.000000000  0.000000000     0.096378229 -0.000000000  0.000000000
     0.000000000 11.367280081  0.000000000     0.000000000  0.087971792  0.000000000
     0.000000000  0.000000000 27.925590326     0.000000000  0.000000000  0.035809449

  length of vectors
    10.375787277 11.367280081 27.925590326     0.096378229  0.087971792  0.035809449

  position of ions in fractional coordinates (direct lattice)
     0.816577099  0.833333333  0.294739468
     0.599917322  0.666666667  0.326318011
     0.316577099  0.666666667  0.294739468
     0.099917322  0.833333333  0.326318011
     0.948770590  0.833333337  0.422346041
     0.729671999  0.666666653  0.451663135
     0.448770592  0.666666679  0.422346057
     0.229671998  0.833333345  0.451663145
     0.081807922  0.833333348  0.549856575
[...]
   O          53.016          3.916          9.955          1.84349141
   O          36.229          3.675          8.229          1.52391784
   O          50.011          3.878          9.669          1.79047773
   O          53.016          3.916          9.955          1.84349240

  Number of pair interactions contributing to vdW energy: 1649244
  Edisp (eV):  -17.84846

  FORCE on cell =-STRESS in cart. coord.  units (eV):
  Direction    XX          YY          ZZ          XY          YZ          ZX
  Alpha Z  2391.07430  2391.07430  2391.07430
  Ewald  483511.26101476793.75530************    -0.00001    -0.00024 -1851.14438
  Hartree504425.16645500337.43039************    -0.00003    -0.00012 -1265.83741
  E(xc)   -5145.22451 -5149.64303 -5156.56491     0.00000    -0.00000    -1.38597
  Local  ************************997201.89664     0.00005     0.00036  3127.29296
  n-local -3263.21317 -3231.75504 -3275.45305    -0.00000    -0.00000     2.31405
  augment  3132.94483  3128.87818  3119.74325     0.00000    -0.00000    -0.86321
  Kinetic 17005.29439 17068.53683 17122.38934     0.00001     0.00001   -19.25665
  Fock        0.00000     0.00000     0.00000     0.00000     0.00000     0.00000
  vdW       -19.41391   -25.97181   -21.24688     0.00000    -0.00000    -0.68122
  Total     -45.43849   -17.77462   -14.71820     0.00001     0.00000    -9.56183
  in kB     -22.10317    -8.64631    -7.15954     0.00000     0.00000    -4.65127

 VOLUME and BASIS-vectors are now :
  energy-cutoff  :      600.00
  volume of cell :     3293.67
      direct lattice vectors                 reciprocal lattice vectors
    10.375787277  0.000000000  0.000000000     0.096378229 -0.000000000  0.000000000
     0.000000000 11.367280081  0.000000000     0.000000000  0.087971792  0.000000000
     0.000000000  0.000000000 27.925590326     0.000000000  0.000000000  0.035809449

  length of vectors
    10.375787277 11.367280081 27.925590326     0.096378229  0.087971792  0.035809449

 FORCES acting on ions:
    Electron-Ion                     Ewald-Force                    Non-Local-Force
   0.439E+01 0.598E-05 0.333E+04   0.422E+00 -.535E-05 -.333E+04   -.104E+01 -.160E-06 -.338E+01
   0.443E+01 0.654E-05 0.274E+04   -.601E+01 -.570E-05 -.274E+04   -.952E-01 -.162E-06 -.490E-01
   0.439E+01 0.844E-05 0.333E+04   0.422E+00 -.761E-05 -.333E+04   -.104E+01 -.184E-06 -.338E+01
   0.443E+01 0.630E-05 0.274E+04   -.601E+01 -.560E-05 -.274E+04   -.952E-01 -.188E-06 -.490E-01
   0.115E+00 0.113E-04 0.123E+04   -.266E+00 -.107E-04 -.123E+04   0.167E+00 -.686E-06 0.178E-01
   -.288E+01 0.113E-03 0.765E+03   0.292E+01 -.114E-03 -.765E+03   -.283E-01 -.706E-06 -.140E+00
   0.115E+00 0.447E-05 0.123E+04   -.266E+00 -.208E-05 -.123E+04   0.167E+00 -.309E-06 0.177E-01
   -.288E+01 0.668E-05 0.765E+03   0.292E+01 -.442E-05 -.765E+03   -.283E-01 -.790E-06 -.140E+00
   -.366E+01 -.114E-03 -.798E+03   0.339E+01 0.119E-03 0.798E+03   0.307E+00 0.268E-06 0.136E+00
   -.552E+01 -.268E-05 -.121E+04   0.567E+01 0.343E-05 0.121E+04   -.104E+00 0.462E-06 -.277E+00
   -.366E+01 0.436E-04 -.798E+03   0.338E+01 -.338E-04 0.798E+03   0.307E+00 -.171E-05 0.136E+00
   -.552E+01 -.191E-03 -.121E+04   0.567E+01 0.199E-03 0.121E+04   -.104E+00 -.196E-06 -.277E+00
   0.169E+02 0.265E-03 -.278E+04   -.179E+02 -.272E-03 0.278E+04   0.981E+00 0.272E-06 -.123E+00
   -.704E+02 0.626E-04 -.317E+04   0.707E+02 -.601E-04 0.317E+04   -.389E-01 -.168E-05 0.740E+00
   0.169E+02 0.326E-04 -.278E+04   -.179E+02 -.348E-04 0.278E+04   0.981E+00 0.512E-06 -.123E+00
   -.704E+02 0.321E-04 -.317E+04   0.707E+02 -.321E-04 0.317E+04   -.388E-01 0.145E-05 0.740E+00
   0.439E+01 -.665E-05 0.333E+04   0.422E+00 0.600E-05 -.333E+04   -.104E+01 0.134E-06 -.338E+01
   0.443E+01 0.939E-05 0.274E+04   -.601E+01 -.955E-05 -.274E+04   -.952E-01 0.391E-07 -.490E-01
   0.439E+01 -.499E-06 0.333E+04   0.422E+00 0.450E-06 -.333E+04   -.104E+01 0.152E-07 -.338E+01
   0.443E+01 -.218E-04 0.274E+04   -.601E+01 0.215E-04 -.274E+04   -.952E-01 0.152E-07 -.490E-01
   0.115E+00 -.862E-04 0.123E+04   -.266E+00 0.900E-04 -.123E+04   0.167E+00 -.964E-06 0.178E-01
   -.288E+01 0.975E-04 0.765E+03   0.292E+01 -.969E-04 -.765E+03   -.283E-01 -.619E-06 -.140E+00
   0.115E+00 -.160E-04 0.123E+04   -.266E+00 0.132E-04 -.123E+04   0.167E+00 0.721E-06 0.177E-01
   -.288E+01 -.134E-04 0.765E+03   0.292E+01 0.960E-05 -.765E+03   -.283E-01 0.833E-06 -.140E+00
   -.366E+01 0.337E-04 -.798E+03   0.338E+01 -.458E-04 0.798E+03   0.307E+00 0.236E-05 0.136E+00
   -.552E+01 -.991E-04 -.121E+04   0.567E+01 0.102E-03 0.121E+04   -.104E+00 0.194E-06 -.277E+00
   -.366E+01 -.625E-05 -.798E+03   0.338E+01 0.266E-05 0.798E+03   0.307E+00 0.849E-06 0.136E+00
   -.552E+01 0.192E-03 -.121E+04   0.567E+01 -.211E-03 0.121E+04   -.104E+00 0.279E-05 -.277E+00
   0.169E+02 0.744E-05 -.278E+04   -.179E+02 -.330E-05 0.278E+04   0.981E+00 -.847E-06 -.123E+00
   -.704E+02 -.865E-04 -.317E+04   0.707E+02 0.846E-04 0.317E+04   -.389E-01 0.104E-05 0.740E+00
   0.169E+02 -.147E-03 -.278E+04   -.179E+02 0.153E-03 0.278E+04   0.981E+00 -.323E-06 -.123E+00
   -.704E+02 -.145E-03 -.317E+04   0.707E+02 0.150E-03 0.317E+04   -.388E-01 -.468E-06 0.740E+00
   0.439E+01 -.183E-05 0.333E+04   0.422E+00 0.182E-05 -.333E+04   -.104E+01 0.149E-07 -.338E+01
   0.443E+01 -.125E-04 0.274E+04   -.601E+01 0.116E-04 -.274E+04   -.952E-01 0.230E-06 -.490E-01
   0.439E+01 -.684E-05 0.333E+04   0.422E+00 0.609E-05 -.333E+04   -.104E+01 0.175E-06 -.338E+01
   0.443E+01 0.565E-05 0.274E+04   -.601E+01 -.542E-05 -.274E+04   -.952E-01 -.839E-07 -.490E-01
   0.115E+00 0.916E-04 0.123E+04   -.266E+00 -.912E-04 -.123E+04   0.167E+00 -.111E-05 0.178E-01
   -.288E+01 -.729E-04 0.765E+03   0.292E+01 0.746E-04 -.765E+03   -.283E-01 0.284E-06 -.140E+00
   0.115E+00 0.256E-04 0.123E+04   -.266E+00 -.264E-04 -.123E+04   0.167E+00 -.176E-08 0.178E-01
   -.288E+01 -.110E-04 0.765E+03   0.292E+01 0.117E-04 -.765E+03   -.283E-01 -.648E-07 -.140E+00
   -.366E+01 -.148E-04 -.798E+03   0.339E+01 0.203E-04 0.798E+03   0.307E+00 -.133E-05 0.136E+00
   -.552E+01 0.285E-05 -.121E+04   0.567E+01 -.106E-04 0.121E+04   -.104E+00 0.198E-05 -.277E+00
   -.366E+01 0.408E-04 -.798E+03   0.338E+01 -.511E-04 0.798E+03   0.307E+00 0.187E-05 0.136E+00
   -.552E+01 0.282E-04 -.121E+04   0.567E+01 -.222E-04 0.121E+04   -.104E+00 -.131E-05 -.277E+00
   0.169E+02 0.138E-03 -.278E+04   -.179E+02 -.140E-03 0.278E+04   0.981E+00 -.530E-06 -.123E+00
   -.704E+02 -.328E-04 -.317E+04   0.707E+02 0.335E-04 0.317E+04   -.389E-01 -.726E-06 0.740E+00
   0.169E+02 -.115E-03 -.278E+04   -.179E+02 0.115E-03 0.278E+04   0.981E+00 0.181E-06 -.123E+00
   -.704E+02 0.728E-04 -.317E+04   0.707E+02 -.783E-04 0.317E+04   -.388E-01 0.212E-05 0.740E+00
   -.315E+02 0.208E-05 0.225E+04   0.362E+02 -.170E-05 -.227E+04   -.646E+01 -.444E-06 0.170E+02
   -.315E+02 0.307E-05 0.225E+04   0.362E+02 -.278E-05 -.227E+04   -.646E+01 -.338E-06 0.170E+02
   0.797E+02 -.304E-05 0.136E+04   -.841E+02 0.569E-05 -.136E+04   0.337E+01 -.276E-05 -.412E+01
   0.725E+02 0.142E-05 0.167E+04   -.791E+02 -.668E-06 -.166E+04   0.694E+01 -.157E-05 -.248E+01
   -.845E+02 0.344E-05 0.192E+04   0.912E+02 -.318E-05 -.192E+04   -.641E+01 -.683E-06 -.354E+00
   -.697E+02 0.178E-04 0.104E+04   0.751E+02 -.184E-04 -.104E+04   -.547E+01 0.455E-06 0.407E+01
   0.797E+02 0.147E-04 0.136E+04   -.841E+02 -.145E-04 -.136E+04   0.337E+01 -.310E-06 -.412E+01
   0.725E+02 0.104E-04 0.167E+04   -.791E+02 -.102E-04 -.166E+04   0.694E+01 -.616E-06 -.248E+01
   -.845E+02 0.118E-05 0.192E+04   0.912E+02 -.775E-06 -.192E+04   -.641E+01 -.129E-05 -.354E+00
   -.697E+02 -.393E-05 0.104E+04   0.751E+02 0.542E-05 -.104E+04   -.547E+01 -.172E-05 0.407E+01
   0.777E+02 -.483E-04 0.147E+03   -.838E+02 0.546E-04 -.143E+03   0.608E+01 -.636E-05 -.452E+01
   0.761E+02 -.101E-03 0.468E+03   -.822E+02 0.109E-03 -.466E+03   0.605E+01 -.339E-05 -.278E+01
[...]
   0.823E+02 0.263E-04 -.108E+04   -.884E+02 -.264E-04 0.109E+04   0.612E+01 -.441E-06 -.682E+01
   0.757E+02 -.478E-04 -.731E+03   -.817E+02 0.561E-04 0.734E+03   0.604E+01 -.904E-05 -.293E+01
   -.766E+02 -.779E-04 -.477E+03   0.823E+02 0.840E-04 0.475E+03   -.578E+01 -.202E-05 0.244E+01
   -.527E+02 -.727E-05 -.130E+04   0.544E+02 0.118E-05 0.129E+04   -.176E+01 0.701E-05 0.932E+01
   0.823E+02 0.195E-04 -.108E+04   -.884E+02 -.250E-04 0.109E+04   0.612E+01 0.628E-05 -.682E+01
   0.757E+02 -.269E-03 -.731E+03   -.817E+02 0.289E-03 0.734E+03   0.604E+01 -.872E-05 -.293E+01
   -.766E+02 -.763E-04 -.477E+03   0.823E+02 0.886E-04 0.475E+03   -.578E+01 -.130E-04 0.244E+01
   -.527E+02 -.617E-05 -.130E+04   0.544E+02 0.855E-05 0.129E+04   -.176E+01 -.228E-05 0.932E+01
   0.468E+02 0.619E-04 -.228E+04   -.520E+02 -.655E-04 0.230E+04   0.527E+01 0.424E-05 -.210E+02
   0.586E+02 -.896E-04 -.201E+04   -.629E+02 0.973E-04 0.202E+04   0.430E+01 -.847E-06 -.789E+01
   -.577E+02 -.221E-03 -.165E+04   0.626E+02 0.240E-03 0.165E+04   -.497E+01 -.137E-04 0.314E+01
   0.468E+02 -.168E-04 -.228E+04   -.520E+02 0.165E-04 0.230E+04   0.527E+01 0.720E-06 -.210E+02
   0.586E+02 -.515E-04 -.201E+04   -.629E+02 0.565E-04 0.202E+04   0.430E+01 -.496E-05 -.789E+01
   -.577E+02 0.574E-04 -.165E+04   0.626E+02 -.675E-04 0.165E+04   -.497E+01 0.154E-04 0.314E+01
   -.158E+02 0.814E-05 0.745E+02   -.426E-13 -.580E-12 0.136E-11   0.158E+02 -.866E-05 -.745E+02

 POSITION                                       TOTAL-FORCE (eV/Angst)
      8.47263      9.47273      8.23077         3.811459      0.000000      1.758890
      6.22461      7.57819      9.11262        -1.676210      0.000001     -1.896011
      3.28474      7.57819      8.23077         3.811461      0.000001      1.758891
      1.03672      9.47273      9.11262        -1.676207      0.000001     -1.896013
      9.86328      9.47273     11.79696         0.002773     -0.000000      0.000666
      7.58713      7.57819     12.60981        -0.006524     -0.000001     -0.005412
      4.67539      7.57819     11.79696         0.002776      0.000002      0.000665
      2.39924      9.47273     12.60981        -0.006512      0.000002     -0.005391
      0.92427      9.47273     15.36086         0.005596      0.000005     -0.003132
      8.99656      7.57819     16.09937        -0.002952      0.000001     -0.006438
      6.11216      7.57819     15.36086         0.005526      0.000008     -0.003142
      3.80866      9.47273     16.09937        -0.002955      0.000008     -0.006429
      2.42331      9.47273     18.99696         0.004756     -0.000006      0.005548
      0.04613      7.57819     19.56276        -0.002052      0.000001     -0.009131
      7.61120      7.57819     18.99696         0.004760     -0.000002      0.005546
      5.23403      9.47273     19.56276        -0.002225      0.000001     -0.009202
      8.47263      1.89455      8.23077         3.811458     -0.000001      1.758890
      6.22461      0.00000      9.11262        -1.676211     -0.000000     -1.896008
      3.28474      0.00000      8.23077         3.811463     -0.000000      1.758893
      1.03672      1.89455      9.11262        -1.676207     -0.000000     -1.896013
      9.86328      1.89455     11.79696         0.002773      0.000002      0.000665
      7.58713     -0.00000     12.60981        -0.006528     -0.000000     -0.005415
      4.67539      0.00000     11.79696         0.002780     -0.000002      0.000662
      2.39924      1.89455     12.60981        -0.006511     -0.000003     -0.005391
      0.92427      1.89455     15.36086         0.005588     -0.000009     -0.003132
      8.99656      0.00000     16.09937        -0.002952      0.000003     -0.006434
      6.11216      0.00000     15.36086         0.005520     -0.000002     -0.003139
      3.80866      1.89455     16.09937        -0.002954     -0.000015     -0.006433
      2.42330      1.89455     18.99696         0.004757      0.000004      0.005551
      0.04613     -0.00000     19.56276        -0.002068     -0.000001     -0.009140
      7.61120     -0.00000     18.99696         0.004764      0.000005      0.005540
      5.23403      1.89455     19.56276        -0.002212      0.000004     -0.009196
      8.47263      5.68364      8.23077         3.811458      0.000000      1.758890
      6.22461      3.78909      9.11262        -1.676210     -0.000001     -1.896010
      3.28474      3.78909      8.23077         3.811462     -0.000001      1.758891
      1.03672      5.68364      9.11262        -1.676207      0.000000     -1.896013
      9.86328      5.68364     11.79696         0.002771     -0.000001      0.000664
      7.58713      3.78909     12.60981        -0.006522      0.000002     -0.005416
      4.67539      3.78909     11.79696         0.002777     -0.000001      0.000663
      2.39924      5.68364     12.60981        -0.006510      0.000000     -0.005398
      0.92426      5.68364     15.36086         0.005587      0.000004     -0.003132
      8.99656      3.78909     16.09937        -0.002954     -0.000006     -0.006433
      6.11216      3.78909     15.36086         0.005530     -0.000008     -0.003140
      3.80866      5.68364     16.09937        -0.002954      0.000005     -0.006426
      2.42331      5.68364     18.99696         0.004746     -0.000002      0.005548
      0.04613      3.78909     19.56276        -0.002069      0.000000     -0.009136
      7.61120      3.78909     18.99696         0.004767      0.000000      0.005555
      5.23403      5.68364     19.56276        -0.002188     -0.000003     -0.009182
      5.14763      7.57819      7.50000        -1.772829     -0.000000      0.988618
     10.33552      9.47273      7.50000        -1.772829     -0.000000      0.988618
      9.54962      9.47273      9.84340        -1.002559     -0.000000     -0.135661
      6.60974      9.47273      8.96155         0.382430     -0.000001     -0.068520
      8.08751      7.57819      8.38185         0.300038     -0.000000     -1.083558
      6.53135      7.57819     11.02740        -0.049472     -0.000000      0.458127
      4.36172      7.57819      9.84340        -1.002559     -0.000000     -0.135663
      1.42184      7.57819      8.96155         0.382428     -0.000000     -0.068519
      2.89961      9.47273      8.38185         0.300036     -0.000001     -1.083557
      1.34346      9.47273     11.02740        -0.049474     -0.000000      0.458127
      0.57391      9.47273     13.39145         0.002509     -0.000000     -0.000418
      7.99505      9.47273     12.49284         0.003936      0.000004     -0.001531
[...]
      2.76470      5.68364     14.54513        -0.002903     -0.000001      0.002384
      2.04534      5.68364     16.93824         0.001270     -0.000001     -0.003884
      9.42226      5.68364     16.01240         0.001184     -0.000001     -0.000187
      0.54437      3.78909     15.45489         0.004574      0.000004      0.006136
      9.48788      3.78909     18.04159        -0.006683      0.000001     -0.001192
      7.23323      3.78909     16.93824         0.001292      0.000001     -0.003860
      4.23437      3.78909     16.01240         0.001204      0.000011     -0.000198
      5.73226      5.68364     15.45489         0.004594     -0.000001      0.006131
      4.29999      5.68364     18.04159        -0.006633      0.000000     -0.001112
      3.61680      5.68364     20.42899         0.002711      0.000001      0.002056
      0.57947      5.68364     19.78951        -0.003307      0.000007     -0.005585
      2.03148      3.78909     19.00177        -0.001356      0.000005      0.000642
      8.80469      3.78909     20.42899         0.002654      0.000000      0.002061
      5.76736      3.78909     19.78951        -0.003289     -0.000000     -0.005584
      7.21937      5.68364     19.00177        -0.001347      0.000005      0.000641
    total drift:                               -0.007891     -0.000001      0.004679

  FREE ENERGIE OF THE ION-ELECTRON SYSTEM (eV)
  free  energy   TOTEN  =     -1293.55776056 eV

  energy  without entropy=    -1293.55776056  energy(sigma->0) =    -1293.55776056

 d Force = 0.1474947E-03[ 0.108E-03, 0.187E-03]  d Energy = 0.4962232E-04 0.979E-04
 d Force =-0.3044366E+02[-0.304E+02,-0.304E+02]  d Ewald  =-0.3044366E+02-0.221E-07

 Conjugate gradient step on ions:
 trial-energy change:   -0.000050  1 .order   -0.000147   -0.000187   -0.000108
  (g-gl).g = 0.272E-03      g.g   = 0.307E-03  gl.gl    = 0.716E-03
 g(Force)  = 0.307E-03   g(Stress)= 0.000E+00 ortho     = 0.549E-05
 gamma     =   0.38005
 trial     =   0.60437
 opt step  =   1.44026  (harmonic =   1.44026) maximal distance =0.00144036
 next E    = -1293.557933   (d E  =  -0.00022)

 reached required accuracy - stopping structural energy minimisation