 vasp.6.3.0 20Jan22 (build Apr  1 2022 16:44:48) complex
 executed on        HPECrayEX_GCC date 2022.10.10  23:18:31

 INCAR:
   SYSTEM = MgO-rocksalt
   ISMEAR = 0
   SIGMA = 0.05
   EDIFF = 1E-6
   ALGO = ALL
   ISTART = 0
   IBRION = -1
   NSW = 0
   ISYM = 0
   DIPOL = 0.5 0.5 0.5
   IDIPOL = 3
   LDIPOL = .TRUE.
   LHFCALC = .TRUE.
   GGA = B5
   AEXX = 0.2
   AGGAX = 0.72
   AGGAC = 0.81
   ALDAC = 0.19
   IVDW = 1
   VDW_S6 = 1.05
   VDW_C6 = 0.63 0.70
   VDW_R0 = 1.243 1.342
   ENCUT = 600
   PREC = Accurate
   LASPH = .TRUE.
   LREAL = .FALSE.
   ISPIN = 1
   NELM = 200
   NELMIN = 8
   NCORE = 8
   KPAR = 1
   LWAVE = .FALSE.
   LCHARG = .FALSE.

 POTCAR:    PAW_PBE Mg_pv 13Apr2007
 POTCAR:    PAW_PBE O 08Apr2002
 POTCAR:    PAW_PBE Mg_pv 13Apr2007
   VRHFIN =Mg: p6s2

   TITEL  = PAW_PBE Mg_pv 13Apr2007
   POMASS =   24.305; ZVAL   =    8.000    mass and valenz
   ENMAX  =  403.929; ENMIN  =  302.947 eV

   TITEL  = PAW_PBE O 08Apr2002
   POMASS =   16.000; ZVAL   =    6.000    mass and valenz
   ENMAX  =  400.000; ENMIN  =  300.000 eV

  PAW_PBE Mg_pv 13Apr2007               :
  PAW_PBE O 08Apr2002                   :

 POSCAR: Mg  O
  positions in direct lattice
 exchange correlation table for  LEXCH =       12
   RHO(1)=    0.500       N(1)  =     2000
   RHO(2)=  100.500       N(2)  =     4000

 ion  position               nearest neighbor table
   1  0.250  0.000  0.352-  33 2.11  35 2.11  36 2.11  43 2.11  52 2.11
   2  0.500  0.250  0.352-  34 2.11  35 2.11  36 2.11  44 2.11  51 2.11
   3  0.250  0.250  0.451-  35 2.11  34 2.11  33 2.11  41 2.11  50 2.11  39 2.11
   4  0.500  0.000  0.451-  36 2.11  34 2.11  33 2.11  42 2.11  49 2.11  40 2.12
   5  0.250  0.000  0.550-  39 2.11  40 2.11  47 2.11  56 2.11  33 2.12  37 2.14
   6  0.500  0.251  0.550-  48 2.11  39 2.11  55 2.11  40 2.12  34 2.12  38 2.13
   7  0.249  0.250  0.648-  54 2.10  39 2.11  37 2.11  45 2.11  38 2.12
   8  0.500  0.002  0.648-  38 2.07  46 2.09  40 2.10  37 2.12  53 2.12
   9  0.250  0.500  0.352-  41 2.11  35 2.11  43 2.11  44 2.11  60 2.11
  10  0.500  0.750  0.352-  42 2.11  36 2.11  43 2.11  44 2.11  59 2.11
  11  0.250  0.750  0.451-  43 2.11  41 2.11  42 2.11  33 2.11  58 2.11  47 2.12
  12  0.500  0.500  0.451-  44 2.11  41 2.11  42 2.11  34 2.11  57 2.11  48 2.14
  13  0.251  0.500  0.550-  48 2.10  45 2.10  39 2.11  47 2.11  64 2.12  41 2.13
  14  0.500  0.749  0.550-  48 2.10  47 2.10  63 2.11  40 2.11  42 2.13  46 2.19
  15  0.248  0.750  0.648-  62 2.09  47 2.09  45 2.11  37 2.11  46 2.14
  16  0.499  0.493  0.653-  38 2.07  45 2.12  61 2.14  48 2.19  46 2.21
  17  0.750  0.000  0.352-  49 2.11  36 2.11  51 2.11  52 2.11  59 2.11
  18  0.000  0.250  0.352-  50 2.11  35 2.11  51 2.11  52 2.11  60 2.11
  19  0.750  0.250  0.451-  51 2.11  49 2.11  50 2.11  34 2.11  57 2.11  55 2.11
  20  0.000  0.000  0.451-  52 2.11  49 2.11  50 2.11  33 2.11  58 2.11  56 2.11
  21  0.750  0.000  0.550-  55 2.11  40 2.11  56 2.11  63 2.11  49 2.12  53 2.14
  22  0.000  0.250  0.550-  39 2.11  64 2.11  55 2.11  56 2.11  50 2.11  54 2.14
  23  0.751  0.250  0.648-  55 2.10  54 2.10  53 2.11  61 2.12  38 2.12
  24  0.001  0.001  0.648-  37 2.10  56 2.10  54 2.10  53 2.11  62 2.11
  25  0.750  0.500  0.352-  57 2.11  51 2.11  44 2.11  59 2.11  60 2.11
  26  0.000  0.750  0.352-  58 2.11  52 2.11  43 2.11  59 2.11  60 2.11
  27  0.750  0.750  0.451-  59 2.11  49 2.11  57 2.11  58 2.11  42 2.11  63 2.12
  28  0.000  0.500  0.451-  64 2.11  60 2.11  57 2.11  58 2.11  41 2.11  50 2.11
  29  0.749  0.500  0.550-  48 2.10  55 2.11  63 2.11  64 2.12  57 2.13  61 2.13
  30  0.001  0.750  0.550-  64 2.11  56 2.11  58 2.11  47 2.11  63 2.12  62 2.14
  31  0.753  0.751  0.647-  63 2.08  62 2.09  53 2.11  61 2.12  46 2.14
  32  0.001  0.500  0.648-  45 2.09  61 2.10  64 2.10  54 2.11  62 2.12
  33  0.250  0.000  0.451-   1 2.11   3 2.11   4 2.11  11 2.11  20 2.11   5 2.12
  34  0.500  0.250  0.451-   2 2.11   3 2.11   4 2.11  12 2.11  19 2.11   6 2.12
  35  0.250  0.250  0.352-   3 2.11   2 2.11   1 2.11   9 2.11  18 2.11
  36  0.500  0.000  0.352-   4 2.11   2 2.11   1 2.11  10 2.11  17 2.11
  37  0.250  0.000  0.650-  24 2.10   7 2.11  15 2.11   8 2.12   5 2.14
  38  0.501  0.248  0.650-   8 2.07  16 2.07  23 2.12   7 2.12   6 2.13
  39  0.250  0.250  0.550-   5 2.11   7 2.11  22 2.11   6 2.11   3 2.11  13 2.11
  40  0.500  0.999  0.550-   8 2.10  21 2.11   5 2.11  14 2.11   4 2.12   6 2.12
  41  0.250  0.500  0.451-   9 2.11   3 2.11  11 2.11  12 2.11  28 2.11  13 2.13
  42  0.500  0.750  0.451-  10 2.11   4 2.11  11 2.11  12 2.11  27 2.11  14 2.13
  43  0.250  0.750  0.352-  11 2.11   9 2.11  10 2.11   1 2.11  26 2.11
  44  0.500  0.500  0.352-  12 2.11   9 2.11  10 2.11   2 2.11  25 2.11
  45  0.248  0.500  0.649-  32 2.09  13 2.10  15 2.11   7 2.11  16 2.12
  46  0.501  0.755  0.653-   8 2.09  31 2.14  15 2.14  14 2.19  16 2.21
  47  0.251  0.750  0.550-  15 2.09  14 2.10   5 2.11  30 2.11  13 2.11  11 2.12
  48  0.500  0.501  0.551-  14 2.10  29 2.10  13 2.10   6 2.11  12 2.14  16 2.19
  49  0.750  0.000  0.451-  17 2.11   4 2.11  19 2.11  20 2.11  27 2.11  21 2.12
  50  0.000  0.250  0.451-  18 2.11   3 2.11  19 2.11  20 2.11  28 2.11  22 2.11
  51  0.750  0.250  0.352-  19 2.11  17 2.11  18 2.11   2 2.11  25 2.11
  52  0.000  0.000  0.352-  20 2.11  17 2.11  18 2.11   1 2.11  26 2.11
  53  0.751  0.000  0.650-  31 2.11  24 2.11  23 2.11   8 2.12  21 2.14
  54  0.000  0.250  0.650-  23 2.10  24 2.10   7 2.10  32 2.11  22 2.14
  55  0.750  0.250  0.550-  23 2.10  21 2.11  29 2.11   6 2.11  22 2.11  19 2.11
  56  0.000  1.000  0.549-  24 2.10  20 2.11  30 2.11  21 2.11   5 2.11  22 2.11
  57  0.750  0.500  0.451-  25 2.11  19 2.11  12 2.11  27 2.11  28 2.11  29 2.13
  58  0.000  0.750  0.451-  26 2.11  20 2.11  11 2.11  27 2.11  28 2.11  30 2.11
  59  0.750  0.750  0.352-  27 2.11  17 2.11  25 2.11  26 2.11  10 2.11
  60  0.000  0.500  0.352-  28 2.11  18 2.11  25 2.11  26 2.11   9 2.11
  61  0.752  0.500  0.650-  32 2.10  31 2.12  23 2.12  29 2.13  16 2.14
  62  0.000  0.751  0.650-  31 2.09  15 2.09  24 2.11  32 2.12  30 2.14
  63  0.750  0.750  0.550-  31 2.08  14 2.11  21 2.11  29 2.11  27 2.12  30 2.12
  64  1.000  0.500  0.549-  32 2.10  30 2.11  28 2.11  22 2.11  29 2.12  13 2.12

IMPORTANT INFORMATION: All symmetrisations will be switched off!
NOSYMM: (Re-)initialisation of all symmetry stuff for point group C_1.

                                     Primitive cell

  volume of cell :    1519.6535

  direct lattice vectors                    reciprocal lattice vectors
     8.440582262  0.000000000  0.000000000     0.118475239  0.000000000  0.000000000
     0.000000000  8.440582262  0.000000000     0.000000000  0.118475239  0.000000000
     0.000000000  0.000000000 21.330436697     0.000000000  0.000000000  0.046881366

  length of vectors
     8.440582262  8.440582262 21.330436697     0.118475239  0.118475239  0.046881366

  position of ions in fractional coordinates (direct lattice)
     0.250000000  0.000000000  0.351610242
     0.500000000  0.250000000  0.351610242
     0.250000000  0.250000000  0.450536747
     0.500000000  0.000000000  0.450536747
     0.250443671  0.000234700  0.549863667
     0.500127418  0.250726857  0.550140190
     0.249370171  0.249928275  0.648256506
     0.500218927  0.002231511  0.648240720
     0.250000000  0.500000000  0.351610242
     0.500000000  0.750000000  0.351610242
     0.250000000  0.750000000  0.450536747
     0.500000000  0.500000000  0.450536747
     0.251172918  0.499809327  0.550275388
     0.500073628  0.748942861  0.550308960
     0.247902624  0.750078790  0.647985275
     0.498815322  0.492985253  0.653426090
     0.750000000  0.000000000  0.351610242
     0.000000000  0.250000000  0.351610242
     0.750000000  0.250000000  0.450536747
     0.000000000  0.000000000  0.450536747
     0.750058423  0.000380019  0.549745321
     0.000396353  0.250266217  0.549684030
     0.751379424  0.249603600  0.647940336
     0.000599586  0.000539546  0.648052127
     0.750000000  0.500000000  0.351610242
     0.000000000  0.750000000  0.351610242
     0.750000000  0.750000000  0.450536747
     0.000000000  0.500000000  0.450536747
     0.749211491  0.499736173  0.550345284
     0.000556679  0.749778358  0.549553159
     0.753229513  0.750753423  0.647099760
     0.000900244  0.499611865  0.647878654
     0.250000000  0.000000000  0.450536747
     0.500000000  0.250000000  0.450536747
     0.250000000  0.250000000  0.351610242
     0.500000000  0.000000000  0.351610242
     0.249634776  0.000068177  0.649965239
     0.500514592  0.247666295  0.649906933
     0.250257006  0.249639082  0.549524704
     0.500318584  0.999347322  0.549772013
     0.250000000  0.500000000  0.450536747
     0.500000000  0.750000000  0.450536747
     0.250000000  0.750000000  0.351610242
     0.500000000  0.500000000  0.351610242
     0.248443818  0.500103926  0.648918891
     0.500701594  0.754826085  0.652930165
     0.250960897  0.750325172  0.549844235
     0.500456640  0.500567019  0.550657647
     0.750000000  0.000000000  0.450536747
     0.000000000  0.250000000  0.450536747
     0.750000000  0.250000000  0.351610242
     0.000000000  0.000000000  0.351610242
     0.751185725  0.000051405  0.649974854
     0.000263684  0.249620988  0.649863965
     0.750220670  0.249895587  0.549601060
     0.000165847  0.999841486  0.549473429
     0.750000000  0.500000000  0.450536747
     0.000000000  0.750000000  0.450536747
     0.750000000  0.750000000  0.351610242
     0.000000000  0.500000000  0.351610242
     0.752363077  0.500240580  0.650180424
     0.000261912  0.750504440  0.649797873
     0.749595911  0.750117344  0.549777748
     0.999912299  0.500236878  0.549321759

  ion indices of the primitive-cell ions
   primitive index   ion index
                 1           1
                 2           2
                 3           3
                 4           4
                 5           5
                 6           6
                 7           7
                 8           8
                 9           9
                10          10
                11          11
                12          12
                13          13
                14          14
                15          15
                16          16
                17          17
                18          18
                19          19
                20          20
                21          21
                22          22
                23          23
                24          24
                25          25
                26          26
                27          27
                28          28
                29          29
                30          30
                31          31
                32          32
                33          33
                34          34
                35          35
                36          36
                37          37
                38          38
                39          39
                40          40
                41          41
                42          42
                43          43
                44          44
[...]
   0.50000000  0.75000000  0.45053675
   0.25000000  0.75000000  0.35161024
   0.50000000  0.50000000  0.35161024
   0.24844382  0.50010393  0.64891889
   0.50070159  0.75482609  0.65293017
   0.25096090  0.75032517  0.54984424
   0.50045664  0.50056702  0.55065765
   0.75000000  0.00000000  0.45053675
   0.00000000  0.25000000  0.45053675
   0.75000000  0.25000000  0.35161024
   0.00000000  0.00000000  0.35161024
   0.75118573  0.00005140  0.64997485
   0.00026368  0.24962099  0.64986396
   0.75022067  0.24989559  0.54960106
   0.00016585  0.99984149  0.54947343
   0.75000000  0.50000000  0.45053675
   0.00000000  0.75000000  0.45053675
   0.75000000  0.75000000  0.35161024
   0.00000000  0.50000000  0.35161024
   0.75236308  0.50024058  0.65018042
   0.00026191  0.75050444  0.64979787
   0.74959591  0.75011734  0.54977775
   0.99991230  0.50023688  0.54932176

 position of ions in cartesian coordinates  (Angst):
   2.11014557  0.00000000  7.50000000
   4.22029113  2.11014557  7.50000000
   2.11014557  2.11014557  9.61014557
   4.22029113  0.00000000  9.61014557
   2.11389041  0.00198100 11.72883214
   4.22136661  2.11628066 11.73473050
   2.10482944  2.10954016 13.82759436
   4.22213900  0.01883525 13.82725764
   2.11014557  4.22029113  7.50000000
   4.22029113  6.33043670  7.50000000
   2.11014557  6.33043670  9.61014557
   4.22029113  4.22029113  9.61014557
   2.12004568  4.21868174 11.73761434
   4.22091259  6.32151383 11.73833044
   2.09244249  6.33110173 13.82180889
   4.21029176  4.16108258 13.93786385
   6.33043670  0.00000000  7.50000000
   0.00000000  2.11014557  7.50000000
   6.33043670  2.11014557  9.61014557
   0.00000000  0.00000000  9.61014557
   6.33092982  0.00320759 11.72630776
   0.00334545  2.11239260 11.72500041
   6.34207984  2.10679972 13.82085031
   0.00506085  0.00455408 13.82323487
   6.33043670  4.22029113  7.50000000
   0.00000000  6.33043670  7.50000000
   6.33043670  6.33043670  9.61014557
   0.00000000  4.22029113  9.61014557
   6.32378122  4.21806427 11.73910524
   0.00469870  6.32856591 11.72220887
   6.35769567  6.33679602 13.80292046
   0.00759858  4.21701505 13.81953461
   2.11014557  0.00000000  9.61014557
   4.22029113  2.11014557  9.61014557
   2.11014557  2.11014557  7.50000000
   4.22029113  0.00000000  7.50000000
   2.10706286  0.00057545 13.86404240
   4.22463459  2.09044774 13.86279870
   2.11231485  2.10709920 11.72160191
   4.22298017  8.43507328 11.72687712
   2.11014557  4.22029113  9.61014557
   4.22029113  6.33043670  9.61014557
   2.11014557  6.33043670  7.50000000
   4.22029113  4.22029113  7.50000000
   2.09701048  4.22116833 13.84172333
   4.22621299  6.37117166 13.92728556
   2.11825610  6.33318134 11.72841765
   4.22414544  4.22507710 11.74576808
   6.33043670  0.00000000  9.61014557
   0.00000000  2.11014557  9.61014557
   6.33043670  2.11014557  7.50000000
   0.00000000  0.00000000  7.50000000
   6.34044491  0.00043389 13.86424747
   0.00222565  2.10694649 13.86188216
   6.33229928  2.10926426 11.72323062
   0.00139985  8.43924431 11.72050820
   6.33043670  4.22029113  9.61014557
   0.00000000  6.33043670  9.61014557
   6.33043670  6.33043670  7.50000000
   0.00000000  4.22029113  7.50000000
   6.35038245  4.22232176 13.86863237
   0.00221069  6.33469446 13.86047239
   6.32702595  6.33142715 11.72699944
   8.43984201  4.22229052 11.71727301

--------------------------------------- Iteration      FINAL  ---------------------------------------

--------------------OUTCAR has been truncated-------------------------

[...]

--------------------OUTCAR has been truncated-------------------------

  DFT-D2 method for vdW energy calculation

  Parameters of vdW forcefield:
         C6(Jnm^6/mol)     R0(A)
   Mg       0.630          1.243
   O        0.700          1.342

  vdW correction parametrized for the method /7þ      

  IVDW =   1
  VDW_RADIUS =    50.000 A
  VDW_S6 =     1.050
  VDW_SR =     1.000
  VDW_D =    20.000
  LVDW_EWALD = F

  Number of pair interactions contributing to vdW energy:  723304
  Edisp (eV):   -5.07901

 VOLUME and BASIS-vectors are now :
  energy-cutoff  :      600.00
  volume of cell :     1519.65
      direct lattice vectors                 reciprocal lattice vectors
     8.440582262  0.000000000  0.000000000     0.118475239  0.000000000  0.000000000
     0.000000000  8.440582262  0.000000000     0.000000000  0.118475239  0.000000000
     0.000000000  0.000000000 21.330436697     0.000000000  0.000000000  0.046881366

  length of vectors
     8.440582262  8.440582262 21.330436697     0.118475239  0.118475239  0.046881366

 FORCES acting on ions:
    Electron-Ion                     Ewald-Force                    Non-Local-Force
   -.356E+00 0.154E+00 0.207E+04   0.361E+00 -.156E+00 -.206E+04   -.386E-02 0.141E-02 -.640E+01
   -.199E-01 -.300E+00 0.207E+04   0.211E-01 0.305E+00 -.206E+04   -.780E-03 -.380E-02 -.638E+01
   -.155E+01 -.123E+01 0.686E+03   0.158E+01 0.123E+01 -.686E+03   -.164E-01 0.168E-03 0.393E+00
   0.542E-01 0.718E+00 0.684E+03   -.570E-01 -.792E+00 -.684E+03   0.213E-02 0.473E-01 0.370E+00
   -.227E+01 0.228E+01 -.687E+03   0.236E+01 -.235E+01 0.687E+03   -.719E-01 0.150E-01 -.267E+00
   -.483E+00 -.378E+01 -.689E+03   0.477E+00 0.395E+01 0.689E+03   0.137E-01 -.170E+00 -.924E-01
   -.205E+01 -.141E+01 -.206E+04   0.126E+01 0.753E+00 0.205E+04   0.610E+00 0.443E+00 0.581E+01
   -.489E+00 0.680E+01 -.205E+04   0.512E+00 -.788E+01 0.205E+04   0.201E-02 0.626E+00 0.524E+01
   -.438E+00 -.153E+00 0.207E+04   0.448E+00 0.155E+00 -.206E+04   -.615E-02 -.142E-02 -.639E+01
   -.131E-01 0.297E+00 0.207E+04   0.139E-01 -.303E+00 -.206E+04   -.536E-03 0.419E-02 -.642E+01
   -.180E+01 0.120E+01 0.684E+03   0.192E+01 -.120E+01 -.684E+03   -.787E-01 -.613E-03 0.454E+00
   -.761E-01 -.694E+00 0.680E+03   0.114E+00 0.755E+00 -.680E+03   -.246E-01 -.407E-01 0.625E+00
   -.529E+01 -.251E+01 -.689E+03   0.566E+01 0.260E+01 0.689E+03   -.313E+00 -.377E-01 -.579E+00
   -.430E+00 0.538E+01 -.706E+03   0.387E+00 -.558E+01 0.707E+03   0.455E-01 0.197E+00 0.534E-01
   -.125E+02 0.378E+01 -.205E+04   0.127E+02 -.322E+01 0.204E+04   0.135E+00 -.385E+00 0.555E+01
   -.478E+01 -.254E+02 -.210E+04   0.490E+01 0.251E+02 0.209E+04   0.665E-01 0.936E+00 0.633E+01
   0.357E+00 0.148E+00 0.207E+04   -.361E+00 -.150E+00 -.206E+04   0.314E-02 0.102E-02 -.639E+01
   0.219E-01 -.216E+00 0.207E+04   -.219E-01 0.218E+00 -.206E+04   0.680E-05 -.171E-02 -.638E+01
   0.158E+01 -.134E+01 0.686E+03   -.159E+01 0.139E+01 -.686E+03   0.341E-02 -.310E-01 0.416E+00
   -.399E-02 0.402E+00 0.687E+03   0.272E-01 -.386E+00 -.687E+03   -.146E-01 -.105E-01 0.320E+00
   0.229E+01 0.217E+01 -.685E+03   -.238E+01 -.219E+01 0.686E+03   0.712E-01 -.191E-01 -.251E+00
   0.463E+00 -.900E+00 -.685E+03   -.461E+00 0.873E+00 0.685E+03   -.148E-01 0.277E-03 -.737E-01
   0.244E+01 -.361E+01 -.205E+04   -.170E+01 0.319E+01 0.205E+04   -.582E+00 0.326E+00 0.567E+01
   0.385E+00 0.147E+01 -.205E+04   -.416E+00 -.138E+01 0.205E+04   0.403E-02 -.101E+00 0.556E+01
   0.439E+00 -.146E+00 0.207E+04   -.448E+00 0.148E+00 -.206E+04   0.566E-02 -.114E-02 -.641E+01
   0.159E-01 0.215E+00 0.207E+04   -.154E-01 -.217E+00 -.206E+04   -.396E-03 0.160E-02 -.637E+01
   0.183E+01 0.131E+01 0.684E+03   -.192E+01 -.135E+01 -.684E+03   0.626E-01 0.284E-01 0.435E+00
   0.105E+00 -.370E+00 0.686E+03   -.130E+00 0.356E+00 -.687E+03   0.167E-01 0.870E-02 0.275E+00
   0.561E+01 -.244E+01 -.695E+03   -.599E+01 0.249E+01 0.695E+03   0.313E+00 -.721E-02 -.373E+00
   0.323E+00 0.778E+00 -.683E+03   -.283E+00 -.761E+00 0.683E+03   -.472E-01 0.107E-01 -.824E-01
   0.134E+02 0.649E+01 -.204E+04   -.136E+02 -.614E+01 0.204E+04   -.148E+00 -.309E+00 0.533E+01
   0.207E+01 -.151E+01 -.205E+04   -.232E+01 0.143E+01 0.205E+04   0.124E+00 0.941E-01 0.556E+01
   -.101E+01 0.626E+00 0.514E+03   0.100E+01 -.632E+00 -.514E+03   0.968E-02 0.602E-02 -.946E-01
   -.935E-01 -.104E+01 0.512E+03   0.830E-01 0.993E+00 -.512E+03   0.132E-01 0.571E-01 -.736E-01
   -.283E+00 -.192E+00 0.155E+04   0.286E+00 0.193E+00 -.156E+04   -.318E-02 -.165E-02 0.313E+01
   -.531E-02 0.122E+00 0.155E+04   0.356E-02 -.130E+00 -.156E+04   0.221E-02 0.920E-02 0.312E+01
   -.242E+01 0.228E+01 -.156E+04   0.281E+01 -.268E+01 0.156E+04   -.397E+00 0.465E+00 -.446E+01
   -.759E+00 -.112E+01 -.155E+04   0.913E+00 0.385E+00 0.156E+04   -.188E+00 0.876E+00 -.357E+01
   -.188E+01 -.166E+01 -.509E+03   0.186E+01 0.163E+01 0.509E+03   0.392E-01 0.610E-01 0.382E+00
   -.312E-02 0.279E+01 -.512E+03   0.131E-01 -.300E+01 0.511E+03   -.149E-01 0.278E+00 0.248E+00
   -.150E+01 -.602E+00 0.512E+03   0.143E+01 0.607E+00 -.512E+03   0.800E-01 -.461E-02 -.125E+00
   -.518E-01 0.993E+00 0.511E+03   0.471E-01 -.930E+00 -.510E+03   0.606E-02 -.739E-01 -.195E+00
   -.312E+00 0.191E+00 0.155E+04   0.324E+00 -.192E+00 -.156E+04   -.147E-01 0.169E-02 0.313E+01
   -.175E-01 -.120E+00 0.155E+04   0.205E-01 0.128E+00 -.156E+04   -.372E-02 -.971E-02 0.312E+01
   -.657E+01 -.429E+01 -.155E+04   0.654E+01 0.476E+01 0.155E+04   0.182E+00 -.537E+00 -.346E+01
   -.804E+00 0.164E+02 -.157E+04   0.101E+01 -.168E+02 0.158E+04   -.246E+00 -.241E-01 -.473E+01
   -.411E+01 0.179E+01 -.513E+03   0.420E+01 -.175E+01 0.512E+03   -.138E+00 -.705E-01 0.334E+00
   -.791E+00 -.400E+01 -.534E+03   0.825E+00 0.419E+01 0.534E+03   -.545E-01 -.258E+00 -.698E+00
   0.105E+01 0.598E+00 0.514E+03   -.107E+01 -.616E+00 -.514E+03   0.198E-01 0.194E-01 -.590E-01
   0.144E+00 -.508E+00 0.515E+03   -.161E+00 0.511E+00 -.515E+03   0.184E-01 -.487E-02 -.304E-01
   0.282E+00 -.204E+00 0.155E+04   -.285E+00 0.210E+00 -.156E+04   0.411E-02 -.736E-02 0.313E+01
   0.483E-02 0.928E-01 0.155E+04   -.370E-02 -.913E-01 -.156E+04   -.139E-02 -.191E-02 0.313E+01
   0.248E+01 0.194E+01 -.156E+04   -.286E+01 -.232E+01 0.156E+04   0.388E+00 0.455E+00 -.462E+01
   0.356E+00 -.140E+01 -.156E+04   -.463E+00 0.137E+01 0.156E+04   0.135E+00 0.894E-01 -.437E+01
   0.183E+01 -.223E+01 -.509E+03   -.178E+01 0.222E+01 0.509E+03   -.633E-01 0.282E-01 0.427E+00
   -.234E-01 0.510E+00 -.509E+03   0.181E-01 -.526E+00 0.509E+03   0.104E-01 0.290E-01 0.181E+00
   0.153E+01 -.563E+00 0.511E+03   -.148E+01 0.575E+00 -.511E+03   -.606E-01 -.129E-01 -.176E+00
   0.120E+00 0.492E+00 0.515E+03   -.149E+00 -.499E+00 -.515E+03   0.328E-01 0.920E-02 0.180E-01
   0.310E+00 0.203E+00 0.155E+04   -.323E+00 -.209E+00 -.156E+04   0.159E-01 0.757E-02 0.312E+01
   0.172E-01 -.920E-01 0.155E+04   -.206E-01 0.903E-01 -.156E+04   0.420E-02 0.206E-02 0.313E+01
   0.880E+01 -.439E+01 -.156E+04   -.899E+01 0.491E+01 0.156E+04   -.257E-02 -.590E+00 -.405E+01
   -.171E-02 0.144E+01 -.156E+04   -.796E-01 -.140E+01 0.156E+04   0.120E+00 -.858E-01 -.448E+01
   0.411E+01 0.239E+01 -.510E+03   -.417E+01 -.237E+01 0.510E+03   0.111E+00 -.378E-01 0.536E+00
   0.536E+00 -.415E+00 -.507E+03   -.565E+00 0.430E+00 0.506E+03   0.494E-01 -.315E-01 0.419E+00
   -.224E+00 -.246E+01 0.138E+02   0.156E-12 -.339E-12 -.455E-12   0.211E+00 0.226E+01 -.121E+02

 POSITION                                       TOTAL-FORCE (eV/Angst)
      2.11015      0.00000      7.50000         0.001509     -0.000654      0.468843
      4.22029      2.11015      7.50000         0.000215      0.001241      0.465198
      2.11015      2.11015      9.61015         0.008674      0.001916      0.014027
      4.22029      0.00000      9.61015        -0.000461     -0.020440      0.059132
      2.11389      0.00198     11.72883         0.011659     -0.040992      0.011294
      4.22137      2.11628     11.73473         0.007582     -0.011031     -0.100790
      2.10483      2.10954     13.82759        -0.114831     -0.160286     -0.226804
      4.22214      0.01884     13.82726         0.023190     -0.367431     -0.017931
      2.11015      4.22029      7.50000         0.002091      0.000590      0.467867
      4.22029      6.33044      7.50000         0.000154     -0.001389      0.474959
      2.11015      6.33044      9.61015         0.033685     -0.001127      0.037971
      4.22029      4.22029      9.61015         0.010151      0.015779      0.058258
      2.12005      4.21868     11.73761         0.027384      0.039152     -0.100378
      4.22091      6.32151     11.73833         0.006419      0.020342      0.180164
      2.09244      6.33110     13.82181         0.299117      0.126090     -0.049017
      4.21029      4.16108     13.93786         0.170564      0.670115     -0.797959
      6.33044      0.00000      7.50000        -0.001473     -0.000541      0.466409
      0.00000      2.11015      7.50000        -0.000149      0.000697      0.466074
      6.33044      2.11015      9.61015        -0.001670      0.014619      0.017967
      0.00000      0.00000      9.61015         0.006686      0.004467      0.022932
      6.33093      0.00321     11.72631        -0.012083     -0.039704      0.029048
      0.00335      2.11239     11.72500        -0.012679     -0.024531     -0.021799
      6.34208      2.10680     13.82085         0.098396     -0.064363     -0.124275
      0.00506      0.00455     13.82323        -0.025393     -0.022544     -0.114450
      6.33044      4.22029      7.50000        -0.002123      0.000535      0.472097
      0.00000      6.33044      7.50000        -0.000045     -0.000718      0.462180
      6.33044      6.33044      9.61015        -0.024770     -0.012541      0.043011
      0.00000      4.22029      9.61015        -0.006366     -0.003724      0.030881
      6.32378      4.21806     11.73911        -0.028441      0.037928     -0.025576
      0.00470      6.32857     11.72221        -0.011154      0.025552     -0.004270
      6.35770      6.33680     13.80292        -0.335671      0.013966      0.147283
      0.00760      4.21702     13.81953        -0.108536      0.020828     -0.108562
      2.11015      0.00000      9.61015         0.002983     -0.000151      0.032187
      4.22029      2.11015      9.61015         0.004494      0.017593      0.070594
      2.11015      2.11015      7.50000        -0.001133     -0.000575     -0.433928
      4.22029      0.00000      7.50000         0.000687      0.003074     -0.435594
      2.10706      0.00058     13.86404        -0.060355      0.133362     -0.018519
      4.22463      2.09045     13.86280        -0.059503      0.260122      0.219411
      2.11231      2.10710     11.72160         0.015796      0.042962      0.067198
      4.22298      8.43507     11.72688        -0.007088      0.105728     -0.018771
      2.11015      4.22029      9.61015         0.024935      0.000153      0.066518
      4.22029      6.33044      9.61015         0.002173     -0.021926      0.044592
      2.11015      6.33044      7.50000        -0.005023      0.000546     -0.435078
      4.22029      4.22029      7.50000        -0.001332     -0.003335     -0.437913
      2.09701      4.22117     13.84172         0.189680     -0.141521      0.339069
      4.22621      6.37117     13.92729        -0.073650     -0.470340     -0.245954
      2.11826      6.33318     11.72842        -0.074051     -0.038067     -0.027572
      4.22415      4.22508     11.74577        -0.028244     -0.106235      0.000805
      6.33044      0.00000      9.61015         0.005500      0.003929      0.032537
      0.00000      2.11015      9.61015         0.004486     -0.002768      0.034563
      6.33044      2.11015      7.50000         0.001315     -0.002503     -0.434253
      0.00000      0.00000      7.50000        -0.000531     -0.000656     -0.432814
      6.34044      0.00043     13.86425         0.056970      0.142288     -0.064760
      0.00223      2.10695     13.86188         0.047401      0.065186      0.004749
      6.33230      2.10926     11.72323        -0.019644      0.021363      0.038080
      0.00140      8.43924     11.72051         0.006511      0.016267      0.000231
      6.33044      4.22029      9.61015        -0.019560     -0.002492      0.054852
      0.00000      6.33044      9.61015         0.008829      0.004174      0.039470
      6.33044      6.33044      7.50000         0.005314      0.002512     -0.435309
      0.00000      4.22029      7.50000         0.001348      0.000657     -0.434229
      6.35038      4.22232     13.86863        -0.202401     -0.153155      0.102187
      0.00221      6.33469     13.86047         0.056883     -0.060725     -0.024518
      6.32703      6.33143     11.72700         0.067977     -0.016379     -0.046785
      8.43984      4.22229     11.71727         0.027601     -0.020887      0.075167
    total drift:                                0.005130      0.001885      0.015580

  FREE ENERGIE OF THE ION-ELECTRON SYSTEM (eV)
  free  energy   TOTEN  =      -438.34563632 eV

  energy  without entropy=     -438.34563632  energy(sigma->0) =     -438.34563632