 vasp.6.3.0 20Jan22 (build Apr  1 2022 16:44:48) complex
 executed on        HPECrayEX_GCC date 2022.11.13  04:16:24

 INCAR:
   SYSTEM = MgO-rocksalt
   ISMEAR = 0
   SIGMA = 0.05
   EDIFF = 1E-6
   ALGO = ALL
   ISTART = 0
   IBRION = -1
   NSW = 0
   ISYM = 0
   DIPOL = 0.5 0.5 0.5
   IDIPOL = 3
   LDIPOL = .TRUE.
   LHFCALC = .TRUE.
   GGA = B5
   AEXX = 0.2
   AGGAX = 0.72
   AGGAC = 0.81
   ALDAC = 0.19
   IVDW = 1
   VDW_S6 = 1.05
   VDW_C6 = 1.75 0.70 0.63 0.70
   VDW_R0 = 1.452 1.342 1.243 1.342
   ENCUT = 600
   PREC = Accurate
   LASPH = .TRUE.
   LREAL = .FALSE.
   ISPIN = 1
   NELM = 200
   NELMIN = 8
   NCORE = 8
   KPAR = 1
   LWAVE = .FALSE.
   LCHARG = .FALSE.

 POTCAR:    PAW_PBE C 08Apr2002
 POTCAR:    PAW_PBE O 08Apr2002
 POTCAR:    PAW_PBE Mg_pv 13Apr2007
 POTCAR:    PAW_PBE O 08Apr2002
 POTCAR:    PAW_PBE C 08Apr2002
   VRHFIN =C: s2p2

   TITEL  = PAW_PBE C 08Apr2002
   POMASS =   12.011; ZVAL   =    4.000    mass and valenz
   ENMAX  =  400.000; ENMIN  =  300.000 eV

[...]

   TITEL  = PAW_PBE Mg_pv 13Apr2007
   POMASS =   24.305; ZVAL   =    8.000    mass and valenz
   ENMAX  =  403.929; ENMIN  =  302.947 eV

   TITEL  = PAW_PBE O 08Apr2002
   POMASS =   16.000; ZVAL   =    6.000    mass and valenz
   ENMAX  =  400.000; ENMIN  =  300.000 eV

  PAW_PBE C 08Apr2002                   :
  PAW_PBE O 08Apr2002                   :
  PAW_PBE Mg_pv 13Apr2007               :
  PAW_PBE O 08Apr2002                   :

 POSCAR:  C  O Mg  O
  positions in direct lattice
 exchange correlation table for  LEXCH =       12
   RHO(1)=    0.500       N(1)  =     2000
   RHO(2)=  100.500       N(2)  =     4000

 ion  position               nearest neighbor table
   1  0.625  0.625  0.771-   3 1.18   2 1.18
   2  0.526  0.526  0.773-   1 1.18
   3  0.724  0.724  0.773-   1 1.18
   4  0.000  0.750  0.352-  36 2.11  38 2.11  39 2.11  46 2.11  55 2.11
   5  0.250  0.000  0.352-  37 2.11  38 2.11  39 2.11  47 2.11  54 2.11
   6  0.000  0.000  0.451-  38 2.11  37 2.11  36 2.11  44 2.11  53 2.11  42 2.12
   7  0.250  0.750  0.451-  39 2.11  37 2.11  36 2.11  45 2.11  52 2.11  43 2.12
   8  0.000  0.750  0.550-  50 2.11  42 2.11  59 2.11  43 2.11  36 2.12  40 2.14
   9  0.250  1.000  0.550-  51 2.11  42 2.11  58 2.11  43 2.11  37 2.12  41 2.15
  10  0.000  0.000  0.649-  48 2.11  41 2.11  40 2.11  57 2.11  42 2.11
  11  0.250  0.750  0.649-  40 2.10  43 2.11  49 2.11  41 2.11  56 2.12
  12  0.000  0.250  0.352-  44 2.11  38 2.11  46 2.11  47 2.11  63 2.11
  13  0.250  0.500  0.352-  45 2.11  39 2.11  46 2.11  47 2.11  62 2.11
  14  0.000  0.500  0.451-  46 2.11  44 2.11  45 2.11  36 2.11  61 2.11  50 2.12
  15  0.250  0.250  0.451-  47 2.11  44 2.11  45 2.11  37 2.11  60 2.11  51 2.12
  16  1.000  0.250  0.550-  51 2.11  42 2.11  67 2.11  50 2.11  44 2.12  48 2.15
  17  0.250  0.500  0.550-  43 2.11  51 2.11  66 2.11  50 2.11  45 2.12  49 2.14
  18  0.000  0.500  0.649-  49 2.10  50 2.11  40 2.11  48 2.11  65 2.12
  19  0.250  0.250  0.649-  41 2.11  48 2.11  64 2.11  49 2.11  51 2.11
  20  0.500  0.750  0.352-  52 2.11  39 2.11  54 2.11  55 2.11  62 2.11
  21  0.750  0.000  0.352-  53 2.11  38 2.11  54 2.11  55 2.11  63 2.11
  22  0.500  0.000  0.451-  54 2.11  52 2.11  53 2.11  37 2.11  60 2.11  58 2.12
  23  0.750  0.750  0.451-  55 2.11  52 2.11  53 2.11  36 2.11  61 2.11  59 2.12
  24  0.500  0.750  0.550-  66 2.11  59 2.11  43 2.11  58 2.11  52 2.13  56 2.16
  25  0.750  0.000  0.550-  58 2.11  42 2.11  59 2.11  67 2.11  53 2.12  57 2.14
  26  0.500  0.000  0.649-  64 2.10  58 2.11  57 2.11  41 2.11  56 2.12
  27  0.752  0.752  0.649-  57 2.10  40 2.10  59 2.11  56 2.12  65 2.12
  28  0.500  0.250  0.352-  60 2.11  54 2.11  47 2.11  62 2.11  63 2.11
  29  0.750  0.500  0.352-  61 2.11  55 2.11  46 2.11  62 2.11  63 2.11
  30  0.500  0.500  0.451-  62 2.11  52 2.11  60 2.11  61 2.11  45 2.11  66 2.12
  31  0.750  0.250  0.451-  63 2.11  53 2.11  60 2.11  61 2.11  44 2.11  67 2.12
  32  0.500  0.250  0.550-  67 2.11  51 2.11  66 2.11  58 2.11  60 2.12  64 2.14
  33  0.750  0.500  0.550-  66 2.11  59 2.11  67 2.11  50 2.11  61 2.13  65 2.16
  34  0.498  0.498  0.649-  64 2.10  49 2.10  66 2.11  56 2.12  65 2.12
  35  0.750  0.250  0.649-  57 2.10  67 2.11  64 2.11  48 2.11  65 2.12
  36  0.000  0.750  0.451-   4 2.11   6 2.11   7 2.11  14 2.11  23 2.11   8 2.12
  37  0.250  0.000  0.451-   5 2.11   6 2.11   7 2.11  15 2.11  22 2.11   9 2.12
  38  0.000  0.000  0.352-   6 2.11   5 2.11   4 2.11  12 2.11  21 2.11
  39  0.250  0.750  0.352-   7 2.11   5 2.11   4 2.11  13 2.11  20 2.11
  40  0.001  0.750  0.651-  27 2.10  11 2.10  18 2.11  10 2.11   8 2.14
  41  0.250  1.000  0.651-  10 2.11  19 2.11  11 2.11  26 2.11   9 2.15
  42  0.000  0.000  0.550-  16 2.11   9 2.11   8 2.11  25 2.11  10 2.11   6 2.12
  43  0.250  0.750  0.550-  24 2.11  11 2.11   9 2.11  17 2.11   8 2.11   7 2.12
  44  0.000  0.250  0.451-  12 2.11   6 2.11  14 2.11  15 2.11  31 2.11  16 2.12
  45  0.250  0.500  0.451-  13 2.11   7 2.11  14 2.11  15 2.11  30 2.11  17 2.12
  46  0.000  0.500  0.352-  14 2.11  12 2.11  13 2.11   4 2.11  29 2.11
  47  0.250  0.250  0.352-  15 2.11  12 2.11  13 2.11   5 2.11  28 2.11
  48  1.000  0.250  0.651-  10 2.11  19 2.11  35 2.11  18 2.11  16 2.15
  49  0.249  0.500  0.651-  34 2.10  18 2.10  11 2.11  19 2.11  17 2.14
  50  1.000  0.500  0.550-  33 2.11  18 2.11  16 2.11   8 2.11  17 2.11  14 2.12
  51  0.250  0.250  0.550-   9 2.11  16 2.11  17 2.11  32 2.11  19 2.11  15 2.12
  52  0.500  0.750  0.451-  20 2.11   7 2.11  22 2.11  23 2.11  30 2.11  24 2.13
  53  0.750  0.000  0.451-  21 2.11   6 2.11  22 2.11  23 2.11  31 2.11  25 2.12
  54  0.500  0.000  0.352-  22 2.11  20 2.11  21 2.11   5 2.11  28 2.11
  55  0.750  0.750  0.352-  23 2.11  20 2.11  21 2.11   4 2.11  29 2.11
  56  0.500  0.750  0.652-  11 2.12  26 2.12  34 2.12  27 2.12  24 2.16
  57  0.750  0.001  0.651-  27 2.10  35 2.10  26 2.11  10 2.11  25 2.14
  58  0.500  1.000  0.550-  24 2.11  26 2.11   9 2.11  25 2.11  32 2.11  22 2.12
  59  0.750  0.750  0.550-  33 2.11  24 2.11   8 2.11  25 2.11  27 2.11  23 2.12
  60  0.500  0.250  0.451-  28 2.11  22 2.11  15 2.11  30 2.11  31 2.11  32 2.12
  61  0.750  0.500  0.451-  29 2.11  23 2.11  14 2.11  30 2.11  31 2.11  33 2.13
  62  0.500  0.500  0.352-  30 2.11  20 2.11  28 2.11  29 2.11  13 2.11
  63  0.750  0.250  0.352-  31 2.11  21 2.11  28 2.11  29 2.11  12 2.11
  64  0.500  0.249  0.651-  34 2.10  26 2.10  35 2.11  19 2.11  32 2.14
  65  0.750  0.500  0.652-  35 2.12  18 2.12  34 2.12  27 2.12  33 2.16
  66  0.500  0.500  0.550-  33 2.11  24 2.11  17 2.11  32 2.11  34 2.11  30 2.12
  67  0.750  0.250  0.550-  33 2.11  35 2.11  16 2.11  32 2.11  25 2.11  31 2.12

IMPORTANT INFORMATION: All symmetrisations will be switched off!
NOSYMM: (Re-)initialisation of all symmetry stuff for point group C_1.

                                     Primitive cell

  volume of cell :    1519.8199

  direct lattice vectors                    reciprocal lattice vectors
     8.440984654  0.000000000  0.000000000     0.118469591  0.000000000  0.000000000
     0.000000000  8.440984654  0.000000000     0.000000000  0.118469591  0.000000000
     0.000000000  0.000000000 21.330738491     0.000000000  0.000000000  0.046880702

  length of vectors
     8.440984654  8.440984654 21.330738491     0.118469591  0.118469591  0.046880702

  position of ions in fractional coordinates (direct lattice)
     0.625002899  0.625002901  0.771290819
     0.526143413  0.526143399  0.772694230
     0.723854540  0.723854548  0.772693667
     0.000000000  0.750000000  0.351605267
     0.250000000  0.000000000  0.351605267
     0.000000000  0.000000000  0.450535089
     0.250000000  0.750000000  0.450535089
     0.000170472  0.750065529  0.550134920
     0.250061573  0.999938530  0.550145492
     0.000200186  0.000200186  0.648841524
     0.249828182  0.749789003  0.648754906
     0.000000000  0.250000000  0.351605267
     0.250000000  0.500000000  0.351605267
     0.000000000  0.500000000  0.450535089
     0.250000000  0.250000000  0.450535089
     0.999938525  0.250061567  0.550145489
     0.249829706  0.499934572  0.550134937
     0.000171958  0.500211139  0.648754903
     0.249799949  0.249799949  0.648841577
     0.500000000  0.750000000  0.351605267
     0.750000000  0.000000000  0.351605267
     0.500000000  0.000000000  0.450535089
     0.750000000  0.750000000  0.450535089
     0.500270350  0.749729670  0.550330173
     0.750065521  0.000170473  0.550134923
     0.500211148  0.000171955  0.648754900
     0.751918702  0.751918715  0.649114650
     0.500000000  0.250000000  0.351605267
     0.750000000  0.500000000  0.351605267
     0.500000000  0.500000000  0.450535089
     0.750000000  0.250000000  0.450535089
     0.499934575  0.249829699  0.550134936
     0.749729660  0.500270350  0.550330171
     0.498081444  0.498081442  0.649114742
     0.749788996  0.249828183  0.648754905
     0.000000000  0.750000000  0.450535089
     0.250000000  0.000000000  0.450535089
     0.000000000  0.000000000  0.351605267
     0.250000000  0.750000000  0.351605267
     0.000660961  0.750176837  0.650529582
     0.250168661  0.999831464  0.651058193
     0.000114890  0.000114892  0.549832723
     0.250404141  0.749981448  0.549877119
     0.000000000  0.250000000  0.450535089
     0.250000000  0.500000000  0.450535089
     0.000000000  0.500000000  0.351605267
     0.250000000  0.250000000  0.351605267
     0.999831464  0.250168659  0.651058194
     0.249339233  0.499823327  0.650529652
     0.999595943  0.500018646  0.549877121
     0.249885200  0.249885199  0.549832736
     0.500000000  0.750000000  0.450535089
     0.750000000  0.000000000  0.450535089
     0.500000000  0.000000000  0.351605267
     0.750000000  0.750000000  0.351605267
     0.500320192  0.749679842  0.651810825
     0.750176827  0.000660961  0.650529580
     0.500018644  0.999595957  0.549877121
     0.749970659  0.749970656  0.550040631
     0.500000000  0.250000000  0.450535089
     0.750000000  0.500000000  0.450535089
     0.500000000  0.500000000  0.351605267
     0.750000000  0.250000000  0.351605267
     0.499823327  0.249339232  0.650529649
     0.749679851  0.500320189  0.651810830
     0.500029444  0.500029444  0.550040659
     0.749981448  0.250404145  0.549877121

  ion indices of the primitive-cell ions
   primitive index   ion index
                 1           1
                 2           2
                 3           3
                 4           4
                 5           5
                 6           6
                 7           7
                 8           8
                 9           9
                10          10
                11          11
                12          12
                13          13
                14          14
                15          15
                16          16
                17          17
                18          18
                19          19
                20          20
                21          21
                22          22
                23          23
                24          24
                25          25
                26          26
[...]
   0.49982333  0.24933923  0.65052965
   0.74967985  0.50032019  0.65181083
   0.50002944  0.50002944  0.55004066
   0.74998145  0.25040414  0.54987712

 position of ions in cartesian coordinates  (Angst):
   5.27563988  5.27563990 16.45220276
   4.44116847  4.44116835 16.48213855
   6.11004507  6.11004513 16.48212654
   0.00000000  6.33073849  7.50000000
   2.11024616  0.00000000  7.50000000
   0.00000000  0.00000000  9.61024616
   2.11024616  6.33073849  9.61024616
   0.00143895  6.33129162 11.73478412
   2.11076590  8.44046579 11.73500962
   0.00168977  0.00168977 13.84026887
   2.10879585  6.32895746 13.83842125
   0.00000000  2.11024616  7.50000000
   2.11024616  4.22049233  7.50000000
   0.00000000  4.22049233  9.61024616
   2.11024616  2.11024616  9.61024616
   8.44046574  2.11076585 11.73500956
   2.10880871  4.21994005 11.73478448
   0.00145150  4.22227455 13.83842119
   2.10855754  2.10855753 13.84026999
   4.22049233  6.33073849  7.50000000
   6.33073849  0.00000000  7.50000000
   4.22049233  0.00000000  9.61024616
   6.33073849  6.33073849  9.61024616
   4.22277435  6.32845664 11.73894901
   6.33129155  0.00143896 11.73478418
   4.22227462  0.00145147 13.83842113
   6.34693422  6.34693433 13.84609485
   4.22049233  2.11024616  7.50000000
   6.33073849  4.22049233  7.50000000
   4.22049233  4.22049233  9.61024616
   6.33073849  2.11024616  9.61024616
   4.21994007  2.10880865 11.73478446
   6.32845656  4.22277435 11.73894895
   4.20429783  4.20429781 13.84609682
   6.32895741  2.10879586 13.83842122
   0.00000000  6.33073849  9.61024616
   2.11024616  0.00000000  9.61024616
   0.00000000  0.00000000  7.50000000
   2.11024616  6.33073849  7.50000000
   0.00557916  6.33223117 13.87627639
   2.11166983  8.43956205 13.88755206
   0.00096978  0.00096980 11.72833803
   2.11365751  6.33058189 11.72928503
   0.00000000  2.11024616  9.61024616
   2.11024616  4.22049233  9.61024616
   0.00000000  4.22049233  7.50000000
   2.11024616  2.11024616  7.50000000
   8.43956205  2.11166981 13.88755208
   2.10466864  4.21900103 13.87627789
   8.43757402  4.22064972 11.72928508
   2.10927714  2.10927713 11.72833831
   4.22049233  6.33073849  9.61024616
   6.33073849  0.00000000  9.61024616
   4.22049233  0.00000000  7.50000000
   6.33073849  6.33073849  7.50000000
   4.22319506  6.32803605 13.90360625
   6.33223109  0.00557916 13.87627635
   4.22064970  8.43757413 11.72928507
   6.33049082  6.33049080 11.73277286
   4.22049233  2.11024616  9.61024616
   6.33073849  4.22049233  9.61024616
   4.22049233  4.22049233  7.50000000
   6.33073849  2.11024616  7.50000000
   4.21900103  2.10466863 13.87627782
   6.32803612  4.22319504 13.90360637
   4.22074086  4.22074086 11.73277345
   6.33058189  2.11365754 11.72928507

--------------------------------------- Iteration      FINAL  ---------------------------------------

--------------------OUTCAR has been truncated-------------------------

[...]

--------------------OUTCAR has been truncated-------------------------

  DFT-D2 method for vdW energy calculation

  Parameters of vdW forcefield:
         C6(Jnm^6/mol)     R0(A)
   C        1.750          1.452
   O        0.700          1.342
   Mg       0.630          1.243
   O        0.700          1.342

  vdW correction parametrized for the method        ,X

  IVDW =   1
  VDW_RADIUS =    50.000 A
  VDW_S6 =     1.050
  VDW_SR =     1.000
  VDW_D =    20.000
  LVDW_EWALD = F

  Number of pair interactions contributing to vdW energy:  791440
  Edisp (eV):   -5.27320

 VOLUME and BASIS-vectors are now :
  energy-cutoff  :      600.00
  volume of cell :     1519.82
      direct lattice vectors                 reciprocal lattice vectors
     8.440984654  0.000000000  0.000000000     0.118469591  0.000000000  0.000000000
     0.000000000  8.440984654  0.000000000     0.000000000  0.118469591  0.000000000
     0.000000000  0.000000000 21.330738491     0.000000000  0.000000000  0.046880702

  length of vectors
     8.440984654  8.440984654 21.330738491     0.118469591  0.118469591  0.046880702

 FORCES acting on ions:
    Electron-Ion                     Ewald-Force                    Non-Local-Force
   0.222E-01 0.222E-01 -.103E+04   -.281E-01 -.281E-01 0.103E+04   0.430E-03 0.429E-03 0.366E+00
   0.187E+03 0.187E+03 -.156E+04   -.232E+03 -.232E+03 0.156E+04   0.409E+02 0.409E+02 -.262E+01
   -.187E+03 -.187E+03 -.156E+04   0.232E+03 0.232E+03 0.156E+04   -.409E+02 -.409E+02 -.262E+01
   -.218E+00 -.194E+00 0.209E+04   0.218E+00 0.194E+00 -.209E+04   0.157E-03 0.110E-03 -.639E+01
   0.193E+00 -.193E+00 0.209E+04   -.193E+00 0.193E+00 -.209E+04   -.324E-03 0.326E-03 -.640E+01
   -.924E+00 -.924E+00 0.739E+03   0.945E+00 0.945E+00 -.740E+03   -.142E-01 -.142E-01 0.430E+00
   0.934E+00 -.951E+00 0.741E+03   -.884E+00 0.967E+00 -.741E+03   -.314E-01 -.105E-01 0.449E+00
   -.653E+01 -.388E+01 -.598E+03   0.653E+01 0.388E+01 0.599E+03   0.378E-02 -.230E-02 -.326E+00
   0.375E+01 -.375E+01 -.610E+03   -.376E+01 0.376E+01 0.611E+03   0.345E-02 -.347E-02 -.999E-01
   -.194E+02 -.194E+02 -.197E+04   0.194E+02 0.194E+02 0.196E+04   -.172E-02 -.172E-02 0.535E+01
   0.253E+02 -.210E+02 -.195E+04   -.256E+02 0.210E+02 0.194E+04   0.268E+00 0.400E-02 0.536E+01
   -.193E+00 0.193E+00 0.209E+04   0.193E+00 -.193E+00 -.209E+04   0.325E-03 -.321E-03 -.640E+01
   0.218E+00 0.194E+00 0.209E+04   -.218E+00 -.194E+00 -.209E+04   -.159E-03 -.113E-03 -.639E+01
   -.934E+00 0.951E+00 0.741E+03   0.884E+00 -.967E+00 -.741E+03   0.314E-01 0.105E-01 0.449E+00
   0.924E+00 0.924E+00 0.739E+03   -.945E+00 -.945E+00 -.740E+03   0.142E-01 0.142E-01 0.430E+00
   -.375E+01 0.375E+01 -.610E+03   0.376E+01 -.376E+01 0.611E+03   -.347E-02 0.345E-02 -.999E-01
   0.653E+01 0.388E+01 -.598E+03   -.653E+01 -.388E+01 0.599E+03   -.379E-02 0.232E-02 -.326E+00
   -.253E+02 0.210E+02 -.195E+04   0.256E+02 -.210E+02 0.194E+04   -.268E+00 -.393E-02 0.536E+01
   0.194E+02 0.194E+02 -.197E+04   -.194E+02 -.194E+02 0.196E+04   0.166E-02 0.166E-02 0.535E+01
   0.222E+00 -.222E+00 0.209E+04   -.221E+00 0.221E+00 -.209E+04   -.998E-03 0.997E-03 -.640E+01
   -.194E+00 -.218E+00 0.209E+04   0.194E+00 0.218E+00 -.209E+04   0.109E-03 0.159E-03 -.639E+01
   0.951E+00 -.934E+00 0.741E+03   -.967E+00 0.884E+00 -.741E+03   0.106E-01 0.314E-01 0.449E+00
   -.951E+00 -.951E+00 0.743E+03   0.927E+00 0.927E+00 -.743E+03   0.169E-01 0.169E-01 0.508E+00
   0.669E+01 -.670E+01 -.593E+03   -.669E+01 0.669E+01 0.593E+03   -.105E-01 0.105E-01 0.106E+00
   -.388E+01 -.653E+01 -.598E+03   0.388E+01 0.653E+01 0.599E+03   -.230E-02 0.377E-02 -.326E+00
   0.210E+02 -.253E+02 -.195E+04   -.210E+02 0.256E+02 0.194E+04   -.394E-02 -.268E+00 0.536E+01
   -.347E+02 -.347E+02 -.185E+04   0.353E+02 0.353E+02 0.184E+04   -.476E+00 -.476E+00 0.517E+01
   0.194E+00 0.218E+00 0.209E+04   -.194E+00 -.218E+00 -.209E+04   -.111E-03 -.155E-03 -.639E+01
   -.222E+00 0.222E+00 0.209E+04   0.221E+00 -.221E+00 -.209E+04   0.998E-03 -.998E-03 -.640E+01
   0.951E+00 0.951E+00 0.743E+03   -.927E+00 -.927E+00 -.743E+03   -.169E-01 -.169E-01 0.508E+00
   -.951E+00 0.934E+00 0.741E+03   0.967E+00 -.884E+00 -.741E+03   -.106E-01 -.314E-01 0.449E+00
   0.388E+01 0.653E+01 -.598E+03   -.388E+01 -.653E+01 0.599E+03   0.231E-02 -.378E-02 -.326E+00
   -.670E+01 0.669E+01 -.593E+03   0.669E+01 -.669E+01 0.593E+03   0.105E-01 -.105E-01 0.106E+00
   0.347E+02 0.347E+02 -.185E+04   -.353E+02 -.353E+02 0.184E+04   0.476E+00 0.476E+00 0.517E+01
   -.210E+02 0.253E+02 -.195E+04   0.210E+02 -.256E+02 0.194E+04   0.401E-02 0.268E+00 0.536E+01
   -.751E+00 -.602E+00 0.555E+03   0.744E+00 0.599E+00 -.555E+03   0.733E-02 0.286E-02 -.817E-01
   0.602E+00 -.602E+00 0.554E+03   -.606E+00 0.606E+00 -.554E+03   0.543E-02 -.543E-02 -.116E+00
   -.157E+00 -.157E+00 0.157E+04   0.158E+00 0.158E+00 -.158E+04   -.238E-02 -.238E-02 0.313E+01
   0.152E+00 -.157E+00 0.157E+04   -.149E+00 0.159E+00 -.158E+04   -.375E-02 -.260E-02 0.313E+01
   -.290E+02 -.111E+02 -.147E+04   0.291E+02 0.111E+02 0.148E+04   -.517E-01 0.113E-01 -.469E+01
   0.988E+01 -.988E+01 -.150E+04   -.985E+01 0.985E+01 0.150E+04   -.291E-01 0.291E-01 -.459E+01
   -.372E+01 -.372E+01 -.451E+03   0.371E+01 0.371E+01 0.451E+03   0.140E-01 0.140E-01 0.217E+00
   0.364E+01 -.384E+01 -.446E+03   -.366E+01 0.383E+01 0.445E+03   0.151E-01 0.938E-02 0.277E+00
   -.602E+00 0.602E+00 0.554E+03   0.606E+00 -.606E+00 -.554E+03   -.543E-02 0.543E-02 -.116E+00
   0.751E+00 0.602E+00 0.555E+03   -.744E+00 -.599E+00 -.555E+03   -.733E-02 -.286E-02 -.817E-01
   -.152E+00 0.157E+00 0.157E+04   0.149E+00 -.159E+00 -.158E+04   0.374E-02 0.260E-02 0.313E+01
   0.157E+00 0.157E+00 0.157E+04   -.158E+00 -.158E+00 -.158E+04   0.238E-02 0.238E-02 0.313E+01
   -.988E+01 0.988E+01 -.150E+04   0.985E+01 -.985E+01 0.150E+04   0.290E-01 -.291E-01 -.459E+01
   0.290E+02 0.111E+02 -.147E+04   -.291E+02 -.111E+02 0.148E+04   0.516E-01 -.113E-01 -.469E+01
   -.364E+01 0.384E+01 -.446E+03   0.366E+01 -.383E+01 0.445E+03   -.151E-01 -.937E-02 0.277E+00
   0.372E+01 0.372E+01 -.451E+03   -.371E+01 -.371E+01 0.451E+03   -.140E-01 -.140E-01 0.217E+00
   0.814E+00 -.814E+00 0.556E+03   -.836E+00 0.836E+00 -.556E+03   0.275E-01 -.274E-01 -.146E+00
   -.602E+00 -.751E+00 0.555E+03   0.599E+00 0.744E+00 -.555E+03   0.286E-02 0.733E-02 -.817E-01
   0.157E+00 -.152E+00 0.157E+04   -.159E+00 0.149E+00 -.158E+04   0.260E-02 0.375E-02 0.313E+01
   -.155E+00 -.155E+00 0.157E+04   0.152E+00 0.152E+00 -.158E+04   0.498E-02 0.498E-02 0.313E+01
   0.361E+02 -.361E+02 -.143E+04   -.360E+02 0.360E+02 0.143E+04   -.551E-01 0.553E-01 -.419E+01
   -.111E+02 -.290E+02 -.147E+04   0.111E+02 0.291E+02 0.148E+04   0.113E-01 -.517E-01 -.469E+01
   0.384E+01 -.364E+01 -.446E+03   -.384E+01 0.366E+01 0.445E+03   -.937E-02 -.151E-01 0.277E+00
   -.386E+01 -.386E+01 -.436E+03   0.389E+01 0.389E+01 0.436E+03   -.365E-01 -.365E-01 0.249E+00
   0.602E+00 0.751E+00 0.555E+03   -.599E+00 -.744E+00 -.555E+03   -.285E-02 -.732E-02 -.817E-01
   -.814E+00 0.814E+00 0.556E+03   0.836E+00 -.836E+00 -.556E+03   -.274E-01 0.274E-01 -.146E+00
   0.155E+00 0.155E+00 0.157E+04   -.152E+00 -.152E+00 -.158E+04   -.497E-02 -.498E-02 0.313E+01
   -.157E+00 0.152E+00 0.157E+04   0.159E+00 -.149E+00 -.158E+04   -.260E-02 -.375E-02 0.313E+01
   0.111E+02 0.290E+02 -.147E+04   -.111E+02 -.291E+02 0.148E+04   -.113E-01 0.516E-01 -.469E+01
   -.361E+02 0.361E+02 -.143E+04   0.360E+02 -.360E+02 0.143E+04   0.553E-01 -.551E-01 -.419E+01
   0.386E+01 0.386E+01 -.436E+03   -.389E+01 -.389E+01 0.436E+03   0.365E-01 0.365E-01 0.248E+00
   -.384E+01 0.364E+01 -.446E+03   0.383E+01 -.366E+01 0.445E+03   0.938E-02 0.151E-01 0.277E+00
   0.406E-02 0.402E-02 0.242E+02   0.995E-13 -.313E-12 -.171E-11   -.364E-02 -.361E-02 -.213E+02

 POSITION                                       TOTAL-FORCE (eV/Angst)
      5.27564      5.27564     16.45220        -0.005434     -0.005442      0.186312
      4.44117      4.44117     16.48214         1.072696      1.072682     -0.077125
      6.11005      6.11005     16.48213        -1.067268     -1.067271     -0.076847
      0.00000      6.33074      7.50000        -0.000071     -0.000088      0.465228
      2.11025      0.00000      7.50000         0.000103     -0.000106      0.468657
      0.00000      0.00000      9.61025         0.005618      0.005614      0.044816
      2.11025      6.33074      9.61025         0.014068      0.003845      0.047163
      0.00144      6.33129     11.73478         0.000291      0.001335      0.027661
      2.11077      8.44047     11.73501        -0.000115      0.000111      0.020557
      0.00169      0.00169     13.84027        -0.000256     -0.000261     -0.081935
      2.10880      6.32896     13.83842        -0.020642      0.003833     -0.090918
      0.00000      2.11025      7.50000        -0.000100      0.000109      0.468660
      2.11025      4.22049      7.50000         0.000072      0.000091      0.465231
      0.00000      4.22049      9.61025        -0.014065     -0.003843      0.047238
      2.11025      2.11025      9.61025        -0.005617     -0.005611      0.044754
      8.44047      2.11077     11.73501         0.000116     -0.000109      0.020549
      2.10881      4.21994     11.73478        -0.000268     -0.001346      0.027682
      0.00145      4.22227     13.83842         0.020658     -0.003868     -0.090901
      2.10856      2.10856     13.84027         0.000262      0.000255     -0.081888
      4.22049      6.33074      7.50000         0.000350     -0.000356      0.470073
      6.33074      0.00000      7.50000        -0.000080     -0.000080      0.465226
      4.22049      0.00000      9.61025        -0.003849     -0.014071      0.047243
      6.33074      6.33074      9.61025        -0.005001     -0.005003      0.048655
      4.22277      6.32846     11.73895        -0.001927      0.001937      0.014978
      6.33129      0.00144     11.73478         0.001344      0.000280      0.027656
      4.22227      0.00145     13.83842        -0.003884      0.020662     -0.090904
      6.34693      6.34693     13.84609         0.033355      0.033346     -0.066701
      4.22049      2.11025      7.50000         0.000083      0.000080      0.465227
      6.33074      4.22049      7.50000        -0.000352      0.000357      0.470067
      4.22049      4.22049      9.61025         0.005001      0.005007      0.048725
      6.33074      2.11025      9.61025         0.003849      0.014073      0.047172
      4.21994      2.10881     11.73478        -0.001356     -0.000258      0.027676
      6.32846      4.22277     11.73895         0.001946     -0.001921      0.014980
      4.20430      4.20430     13.84610        -0.033391     -0.033383     -0.066448
      6.32896      2.10880     13.83842         0.003841     -0.020635     -0.090909
      0.00000      6.33074      9.61025         0.001559      0.000595      0.068202
      2.11025      0.00000      9.61025         0.001902     -0.001909      0.056088
      0.00000      0.00000      7.50000        -0.000803     -0.000803     -0.434117
      2.11025      6.33074      7.50000        -0.001267     -0.000897     -0.434269
      0.00558      6.33223     13.87628         0.001015     -0.000577     -0.123983
      2.11167      8.43956     13.88755        -0.002286      0.002258     -0.118185
      0.00097      0.00097     11.72834         0.001431      0.001423      0.023481
      2.11366      6.33058     11.72929         0.000596      0.001124      0.026797
      0.00000      2.11025      9.61025        -0.001901      0.001907      0.056090
      2.11025      4.22049      9.61025        -0.001558     -0.000588      0.068203
      0.00000      4.22049      7.50000         0.001265      0.000898     -0.434268
      2.11025      2.11025      7.50000         0.000802      0.000803     -0.434111
      8.43956      2.11167     13.88755         0.002256     -0.002286     -0.118169
      2.10467      4.21900     13.87628        -0.001072      0.000572     -0.124047
      8.43757      4.22065     11.72929        -0.000588     -0.001118      0.026751
      2.10928      2.10928     11.72834        -0.001425     -0.001419      0.023499
      4.22049      6.33074      9.61025         0.008752     -0.008757      0.064379
      6.33074      0.00000      9.61025         0.000600      0.001552      0.068201
      4.22049      0.00000      7.50000         0.000891      0.001265     -0.434267
      6.33074      6.33074      7.50000         0.001707      0.001706     -0.434408
      4.22320      6.32804     13.90361         0.001033     -0.000949     -0.093161
      6.33223      0.00558     13.87628        -0.000570      0.001014     -0.123976
      4.22065      8.43757     11.72929        -0.001127     -0.000597      0.026754
      6.33049      6.33049     11.73277        -0.003501     -0.003507      0.028728
      4.22049      2.11025      9.61025        -0.000598     -0.001552      0.068201
      6.33074      4.22049      9.61025        -0.008751      0.008761      0.064382
      4.22049      4.22049      7.50000        -0.001703     -0.001703     -0.434402
      6.33074      2.11025      7.50000        -0.000894     -0.001262     -0.434270
      4.21900      2.10467     13.87628         0.000566     -0.001073     -0.124036
      6.32804      4.22320     13.90361        -0.000944      0.001037     -0.093155
      4.22074      4.22074     11.73277         0.003506      0.003513      0.028660
      6.33058      2.11366     11.72929         0.001129      0.000604      0.026797
    total drift:                               -0.000020     -0.000033      0.002637

  FREE ENERGIE OF THE ION-ELECTRON SYSTEM (eV)
  free  energy   TOTEN  =      -466.52049165 eV

  energy  without entropy=     -466.52049165  energy(sigma->0) =     -466.52049165