 vasp.6.4.2 20Jul23 (build Feb 22 2024 13:53:45) complex
 executed on              LinuxNV date 2024.08.28  03:54:11
 OpenACC runtime initialized ...    4 GPUs detected

 INCAR:
   SYSTEM = Oxide-Surface
   ISMEAR = 0
   SIGMA = 0.05
   EDIFF = 1E-5
   ALGO = Normal
   IBRION = -1
   NSW = 0
   ISYM = 0
   DIPOL = 0.5 0.5 0.5
   IDIPOL = 3
   LDIPOL = .TRUE.
   ISTART = 1
   LHFCALC = .TRUE.
   GGA = PE
   IVDW = 21
   VDW_SR = 0.96
   HFRCUT = -1
   ENCUT = 520
   PREC = Normal
   PRECFOCK = Normal
   LASPH = .TRUE.
   LREAL = Auto
   ISPIN = 1
   NELM = 200
   NELMIN = 8
   NCORE = 1
   KPAR = 1
   LWAVE = .FALSE.
   LCHARG = .FALSE.

 POTCAR:    PAW_PBE Ti_pv 07Sep2000
 POTCAR:    PAW_PBE O 08Apr2002
 POTCAR:    PAW_PBE Ti_pv 07Sep2000
   VRHFIN =Ti: d3 s1

   TITEL  = PAW_PBE Ti_pv 07Sep2000
   POMASS =   47.880; ZVAL   =   10.000    mass and valenz
   ENMAX  =  222.335; ENMIN  =  166.751 eV

   TITEL  = PAW_PBE O 08Apr2002
   POMASS =   16.000; ZVAL   =    6.000    mass and valenz
   ENMAX  =  400.000; ENMIN  =  300.000 eV

 Optimization of the real space projectors (new method)

 maximal supplied QI-value         = 15.12
 optimisation between [QCUT,QGAM] = [ 11.64, 23.28] = [ 37.95,151.78] Ry
 Optimized for a Real-space Cutoff    1.45 Angstroem

   l    n(q)    QCUT    max X(q) W(low)/X(q) W(high)/X(q)  e(spline)
   1     10    11.641     4.216    0.33E-04    0.72E-04    0.48E-07
   1     10    11.641     5.422    0.11E-03    0.20E-03    0.10E-06
   2      9    11.641    72.084    0.36E-03    0.27E-03    0.57E-06
   2      9    11.641    65.965    0.35E-03    0.27E-03    0.57E-06
   0     10    11.641    41.531    0.11E-03    0.93E-04    0.16E-06
   0     10    11.641    16.290    0.82E-04    0.72E-04    0.13E-06
 Optimization of the real space projectors (new method)

 maximal supplied QI-value         = 24.76
 optimisation between [QCUT,QGAM] = [ 11.64, 23.27] = [ 37.91,151.63] Ry
 Optimized for a Real-space Cutoff    1.04 Angstroem

   l    n(q)    QCUT    max X(q) W(low)/X(q) W(high)/X(q)  e(spline)
   0      7    11.635    20.381    0.14E-03    0.49E-03    0.18E-06
   0      7    11.635    15.268    0.16E-03    0.52E-03    0.19E-06
   1      7    11.635     5.964    0.30E-03    0.44E-03    0.22E-06
   1      7    11.635     5.382    0.27E-03    0.34E-03    0.19E-06
  PAW_PBE Ti_pv 07Sep2000               :
  PAW_PBE O 08Apr2002                   :

 POSCAR: Ti  O
  positions in direct lattice
 exchange correlation table for  LEXCH =        8
   RHO(1)=    0.500       N(1)  =     2000
   RHO(2)=  100.500       N(2)  =     4000

 ion  position               nearest neighbor table
   1  0.750  0.625  0.185-  82 1.95 142 1.95 141 1.95  81 1.95  84 1.98 163 1.98  11 2.96  31 2.96

   2  0.000  0.750  0.185-  83 1.95  84 1.95 103 1.95 104 1.95  85 1.98  32 2.96  12 2.96
   3  0.000  0.625  0.315-  85 1.95 145 1.95  86 1.95 146 1.95  88 1.98  87 1.98  13 2.96  33 2.96

[...]

  80  0.501  0.499  0.704- 234 1.91 240 1.93 180 1.94 239 1.96 179 1.99  70 2.96  50 2.97
  81  0.750  0.750  0.134-   1 1.95  11 1.95
  82  0.750  0.750  0.236-   1 1.95  11 1.95   4 1.98
  83  0.098  0.625  0.185-   2 1.95  32 1.95  41 1.98
  84  0.902  0.625  0.185-   2 1.95  32 1.95   1 1.98
  85  0.000  0.750  0.264-   3 1.95  13 1.95   2 1.98
  86  0.000  0.750  0.366-   3 1.95  13 1.95   6 1.98
  87  0.848  0.625  0.315-   4 1.95  34 1.95   3 1.98
  88  0.152  0.625  0.315-  44 1.95  74 1.95   3 1.98
  89  0.750  0.750  0.394-   5 1.95  15 1.95   4 1.98
  90  0.750  0.750  0.496-   5 1.95  15 1.95   8 2.09
  91  0.098  0.625  0.445-   6 1.95  36 1.95  45 1.98
  92  0.902  0.625  0.445-   6 1.95  36 1.95   5 1.98
  93  0.001  0.750  0.525-  17 1.90   7 1.90   6 2.00
  94  1.000  0.750  0.627-  10 1.81   7 2.02  17 2.02
  95  0.851  0.625  0.575-   8 1.93  38 1.93   7 2.03
  96  0.150  0.625  0.576-   7 1.87  78 2.02  48 2.02
  97  0.754  0.751  0.654-   8 1.87   9 2.08  19 2.09
  98  0.749  0.749  0.757-   9 1.83  19 1.84
  99  0.095  0.625  0.712-  40 1.94  10 1.95  49 2.03
 100  0.906  0.624  0.713-  40 1.95  10 1.96   9 2.02
 101  0.750  0.000  0.134-  11 1.95  21 1.95
 102  0.750  0.000  0.236-  11 1.95  21 1.95  14 1.98
 103  0.098  0.875  0.185-   2 1.95  12 1.95  51 1.98
 104  0.902  0.875  0.185-   2 1.95  12 1.95  11 1.98
 105  0.000  0.000  0.264-  13 1.95  23 1.95  12 1.98
 106  0.000  0.000  0.366-  13 1.95  23 1.95  16 1.98
 107  0.848  0.875  0.315-   4 1.95  14 1.95  13 1.98
 108  0.152  0.875  0.315-  44 1.95  54 1.95  13 1.98
 109  0.750  0.000  0.394-  15 1.95  25 1.95  14 1.98
 110  0.750  0.000  0.496-  15 1.95  25 1.95  18 2.10
 111  0.098  0.875  0.445-   6 1.95  16 1.95  55 1.98
 112  0.902  0.875  0.445-   6 1.95  16 1.95  15 1.98
 113  0.001  0.000  0.525-  27 1.90  17 1.90  16 2.00
 114  0.000  0.000  0.627-  20 1.81  27 2.02  17 2.02
 115  0.851  0.876  0.575-  18 1.93   8 1.93  17 2.04
 116  0.150  0.875  0.576-  17 1.87  48 2.02  58 2.02
 117  0.751  0.000  0.655-  18 1.87  29 2.09  19 2.09
 118  0.750  1.000  0.758-  29 1.83  19 1.84
 119  0.094  0.875  0.712-  10 1.94  20 1.95  59 2.04
 120  0.906  0.875  0.713-  10 1.94  20 1.95  19 2.04
 121  0.750  0.250  0.134-  21 1.95  31 1.95
 122  0.750  0.250  0.236-  21 1.95  31 1.95  24 1.98
 123  0.098  0.125  0.185-  12 1.95  22 1.95  61 1.98
 124  0.902  0.125  0.185-  12 1.95  22 1.95  21 1.98
 125  0.000  0.250  0.264-  23 1.95  33 1.95  22 1.98
 126  0.000  0.250  0.366-  23 1.95  33 1.95  26 1.98
 127  0.848  0.125  0.315-  14 1.95  24 1.95  23 1.98
 128  0.152  0.125  0.315-  54 1.95  64 1.95  23 1.98
 129  0.750  0.250  0.394-  25 1.95  35 1.95  24 1.98
 130  0.750  0.250  0.496-  25 1.95  35 1.95  28 2.09
 131  0.098  0.125  0.445-  16 1.95  26 1.95  65 1.98
 132  0.902  0.125  0.445-  16 1.95  26 1.95  25 1.98
 133  0.001  0.250  0.525-  37 1.90  27 1.90  26 2.00
 134  0.000  0.250  0.627-  30 1.81  37 2.02  27 2.02
 135  0.851  0.125  0.576-  18 1.93  28 1.93  27 2.04
 136  0.150  0.125  0.576-  27 1.86  58 2.02  68 2.02
 137  0.753  0.250  0.654-  28 1.87  39 2.06  29 2.10
 138  0.749  0.251  0.757-  39 1.83  29 1.84
 139  0.094  0.125  0.712-  30 1.94  20 1.95  69 2.04
[...]
 226  0.500  0.500  0.366-  43 1.95  73 1.95  76 1.98
 227  0.348  0.375  0.315-  64 1.95  74 1.95  73 1.98
 228  0.652  0.375  0.315-  24 1.95  34 1.95  73 1.98
 229  0.250  0.500  0.394-  45 1.95  75 1.95  74 1.98
 230  0.250  0.500  0.496-  45 1.95  75 1.95  78 2.11
 231  0.598  0.375  0.445-  66 1.95  76 1.95  35 1.98
 232  0.402  0.375  0.445-  66 1.95  76 1.95  75 1.98
 233  0.501  0.500  0.525-  47 1.90  77 1.90  76 2.00
 234  0.500  0.500  0.628-  80 1.91  47 1.98  77 1.98
 235  0.350  0.375  0.576-  68 1.92  78 1.93  77 2.04
 236  0.651  0.375  0.576-  77 1.88  28 2.01  38 2.02
 237  0.250  0.500  0.655-  78 1.86  49 2.09  79 2.10
 238  0.252  0.500  0.757-  79 1.84  49 1.84
 239  0.597  0.371  0.707-  70 1.92  80 1.96  39 2.02
 240  0.407  0.374  0.711-  80 1.93  70 1.94  79 2.03

IMPORTANT INFORMATION: All symmetrisations will be switched off!
NOSYMM: (Re-)initialisation of all symmetry stuff for point group C_1.

                                     Primitive cell

  volume of cell :    3846.0501

  direct lattice vectors                    reciprocal lattice vectors
    13.003980404  0.000000000  0.000000000     0.076899531  0.000000000  0.000000000
     0.000000000 11.830378115  0.000000000     0.000000000  0.084528152  0.000000000
     0.000000000  0.000000000 25.000000000     0.000000000  0.000000000  0.040000000

  length of vectors
    13.003980404 11.830378115 25.000000000     0.076899531  0.084528152  0.040000000

  position of ions in fractional coordinates (direct lattice)
     0.750010663  0.625004961  0.184773010
     0.000010663  0.750004961  0.184773010
     0.000010663  0.625004961  0.314812814
     0.750010663  0.750004961  0.314812814
     0.750010663  0.625004961  0.444852618
     0.000010663  0.750004961  0.444852618
     0.007004437  0.625078947  0.572008516
     0.756144220  0.750119383  0.579538884
     0.750770416  0.625802808  0.712619678
     0.999989337  0.750346962  0.699268567
     0.750010663  0.875004961  0.184773010
     0.000010663  0.000004961  0.184773010
     0.000010663  0.875004961  0.314812814
     0.750010663  0.000004961  0.314812814
     0.750010663  0.875004961  0.444852618
     0.000010663  0.000004961  0.444852618
     0.007115791  0.875054039  0.572076102
     0.755710742  0.000055089  0.579920543
     0.749639513  0.874945154  0.713922526
     0.000259023  0.999950542  0.699228467
     0.750010663  0.125004961  0.184773010
     0.000010663  0.250004961  0.184773010
     0.000010663  0.125004961  0.314812814
     0.750010663  0.250004961  0.314812814
     0.750010663  0.125004961  0.444852618
     0.000010663  0.250004961  0.444852618
     0.007282824  0.124972857  0.572087558
     0.756031323  0.249874285  0.579456177
     0.749601559  0.124221820  0.713929795
     0.000202769  0.249636124  0.699257736
     0.750010663  0.375004961  0.184773010
     0.000010663  0.500004961  0.184773010
     0.000010663  0.375004961  0.314812814
     0.750010663  0.500004961  0.314812814
     0.750010663  0.375004961  0.444852618
     0.000010663  0.500004961  0.444852618
     0.006995650  0.374987490  0.571986700
     0.756370748  0.500013538  0.579738455
     0.751452610  0.373227846  0.712661921
     0.000833076  0.500130655  0.699185531
     0.250010663  0.625004961  0.184773010
     0.500010663  0.750004961  0.184773010
     0.500010663  0.625004961  0.314812814
     0.250010663  0.750004961  0.314812814
     0.250010663  0.625004961  0.444852618
     0.500010663  0.750004961  0.444852618
     0.507173520  0.622679804  0.573626488
     0.256156716  0.749997173  0.579847416
     0.250347362  0.625327763  0.713801464
     0.500769269  0.750133312  0.697680947
     0.250010663  0.875004961  0.184773010
     0.500010663  0.000004961  0.184773010
     0.500010663  0.875004961  0.314812814
     0.250010663  0.000004961  0.314812814
     0.250010663  0.875004961  0.444852618
     0.500010663  0.000004961  0.444852618
     0.507094282  0.874032167  0.570763339
     0.256014811  0.999995039  0.579989833
     0.251050318  0.875168015  0.714037056
     0.499496718  0.999979059  0.697981859
[...]
     0.500010663  0.500004961  0.365788182
     0.348010212  0.375004961  0.314812814
     0.652011115  0.375004961  0.314812814
     0.250010663  0.500004961  0.393877250
     0.250010663  0.500004961  0.495827986
     0.598010212  0.375004961  0.444852618
     0.402011115  0.375004961  0.444852618
     0.500918371  0.499902299  0.524926019
     0.499956620  0.500356070  0.627589559
     0.350142348  0.375062356  0.575851124
     0.651274130  0.374994700  0.576261986
     0.250227622  0.500347526  0.654535532
     0.252078539  0.500251088  0.757395720
     0.596699290  0.371481052  0.707003926
     0.406538645  0.374101435  0.711108178

  ion indices of the primitive-cell ions
   primitive index   ion index
                 1           1
                 2           2
                 3           3
                 4           4
                 5           5
                 6           6
[...]
     0.000000000  0.000000000 25.000000000     0.000000000  0.000000000  0.040000000

  length of vectors
    13.003980404 11.830378115 25.000000000     0.076899531  0.084528152  0.040000000

 FORCES acting on ions
    electron-ion (+dipol)            ewald-force                    non-local-force                 convergence-correction
   0.179E-01 0.343E-01 0.282E+04   -.196E-01 -.335E-01 -.282E+04   -.116E-02 -.872E-02 0.615E+00   -.122E-03 -.277E-04 0.134E+00
   -.121E-02 0.296E-01 0.300E+04   0.165E-02 -.293E-01 -.299E+04   0.462E-03 0.259E-03 -.417E+01   0.640E-04 -.301E-04 0.135E+00
   -.770E-01 0.616E-01 0.144E+04   0.811E-01 -.611E-01 -.144E+04   -.325E-03 -.631E-02 -.895E-01   0.271E-04 -.749E-05 0.146E+00
   -.275E-01 0.169E+00 0.143E+04   0.206E-01 -.168E+00 -.143E+04   0.228E-02 0.158E-03 0.232E+00   -.303E-04 -.653E-05 0.146E+00
   0.371E+00 0.639E+00 -.216E+02   -.397E+00 -.657E+00 0.223E+02   0.650E-02 0.404E-02 -.157E+00   -.525E-04 -.865E-06 0.941E-01
   0.158E+01 -.558E-02 -.107E+02   -.159E+01 0.126E-01 0.942E+01   -.384E-03 -.295E-02 0.367E+00   0.395E-04 -.585E-05 0.935E-01
   0.154E+02 0.107E+00 -.142E+04   -.154E+02 -.982E-01 0.142E+04   -.984E-01 -.173E-01 0.228E+00   0.240E-03 0.101E-04 0.121E-02
   0.997E+01 -.168E+01 -.146E+04   -.982E+01 0.174E+01 0.146E+04   -.175E+00 -.134E-01 -.328E+00   -.289E-03 -.816E-05 -.564E-02
   -.145E+02 0.159E+02 -.279E+04   0.145E+02 -.165E+02 0.279E+04   0.143E+00 0.820E-01 -.449E+00   -.552E-03 -.995E-04 -.128E+00
   -.923E-01 0.501E+01 -.286E+04   0.625E-01 -.502E+01 0.286E+04   -.359E-01 -.217E-01 0.122E+01   0.140E-03 0.434E-04 -.117E+00
   0.343E-02 0.241E-01 0.282E+04   -.566E-02 -.241E-01 -.282E+04   -.102E-02 0.926E-02 0.615E+00   -.109E-03 -.181E-04 0.134E+00
   -.271E-02 -.586E-02 0.300E+04   0.323E-02 0.571E-02 -.299E+04   0.500E-03 0.350E-03 -.416E+01   0.609E-04 0.102E-04 0.135E+00
   -.539E-01 0.235E-01 0.144E+04   0.580E-01 -.239E-01 -.144E+04   -.338E-03 0.703E-02 -.896E-01   0.270E-04 0.128E-05 0.146E+00
   -.147E+00 -.324E-01 0.143E+04   0.140E+00 0.317E-01 -.143E+04   0.243E-02 0.347E-03 0.237E+00   -.268E-04 0.376E-05 0.146E+00
   -.143E+01 0.137E+00 -.212E+02   0.142E+01 -.109E+00 0.219E+02   0.239E-02 -.742E-02 -.159E+00   -.496E-04 0.116E-04 0.941E-01
   0.193E+01 -.746E-01 -.111E+02   -.194E+01 0.744E-01 0.989E+01   -.103E-02 -.493E-04 0.371E+00   0.412E-04 -.913E-06 0.935E-01
   0.176E+02 0.156E+00 -.143E+04   -.176E+02 -.149E+00 0.143E+04   -.103E+00 0.547E-02 0.233E+00   0.229E-03 0.105E-04 0.117E-02
   0.956E+01 -.218E+00 -.146E+04   -.945E+01 0.215E+00 0.147E+04   -.173E+00 -.358E-03 -.297E+00   -.255E-03 0.526E-05 -.600E-02
   -.378E+00 -.106E+01 -.279E+04   0.411E+00 0.910E+00 0.279E+04   0.406E-01 0.217E-01 -.478E+00   -.321E-03 -.284E-04 -.130E+00
   -.175E+01 0.248E+00 -.286E+04   0.167E+01 -.261E+00 0.286E+04   0.393E-01 -.327E-03 0.130E+01   0.132E-03 -.465E-06 -.117E+00
   0.573E-02 -.341E-01 0.282E+04   -.786E-02 0.334E-01 -.282E+04   -.106E-02 -.862E-02 0.615E+00   -.111E-03 0.284E-04 0.134E+00
   -.254E-02 -.296E-01 0.300E+04   0.306E-02 0.293E-01 -.299E+04   0.447E-03 0.327E-03 -.417E+01   0.605E-04 0.296E-04 0.135E+00
   -.585E-01 -.578E-01 0.144E+04   0.632E-01 0.577E-01 -.144E+04   -.466E-03 -.634E-02 -.896E-01   0.275E-04 0.184E-05 0.146E+00
   -.143E-02 -.168E+00 0.143E+04   -.498E-02 0.168E+00 -.143E+04   0.214E-02 0.326E-03 0.233E+00   -.264E-04 0.279E-05 0.146E+00
   -.135E+01 -.306E+00 -.213E+02   0.134E+01 0.260E+00 0.220E+02   0.409E-02 0.681E-02 -.159E+00   -.533E-04 -.964E-05 0.941E-01
   0.157E+01 0.353E-01 -.108E+02   -.157E+01 -.425E-01 0.956E+01   -.126E-02 0.310E-02 0.368E+00   0.420E-04 0.106E-04 0.935E-01
   0.189E+02 -.384E+00 -.143E+04   -.189E+02 0.373E+00 0.143E+04   -.107E+00 -.515E-02 0.240E+00   0.231E-03 0.719E-06 0.116E-02
   0.971E+01 0.120E+01 -.146E+04   -.956E+01 -.124E+01 0.146E+04   -.171E+00 0.172E-01 -.315E+00   -.284E-03 -.308E-05 -.560E-02
   0.316E+00 -.172E+01 -.279E+04   -.233E+00 0.180E+01 0.279E+04   0.232E-01 -.361E-02 -.475E+00   -.337E-03 0.471E-04 -.130E+00
   0.544E+00 -.533E+01 -.286E+04   -.591E+00 0.534E+01 0.286E+04   -.164E-01 0.208E-01 0.122E+01   0.142E-03 -.348E-04 -.117E+00
   0.202E-01 -.243E-01 0.282E+04   -.219E-01 0.242E-01 -.282E+04   -.119E-02 0.924E-02 0.615E+00   -.120E-03 0.170E-04 0.134E+00
   -.941E-03 0.586E-02 0.300E+04   0.137E-02 -.571E-02 -.299E+04   0.526E-03 0.313E-03 -.416E+01   0.648E-04 -.110E-04 0.135E+00
   -.826E-01 -.273E-01 0.144E+04   0.872E-01 0.273E-01 -.144E+04   -.445E-03 0.687E-02 -.895E-01   0.256E-04 0.606E-05 0.146E+00
   0.115E+00 0.319E-01 0.143E+04   -.121E+00 -.312E-01 -.143E+04   0.198E-02 0.238E-03 0.237E+00   -.322E-04 -.226E-07 0.146E+00
   0.481E+00 -.465E+00 -.217E+02   -.509E+00 0.500E+00 0.224E+02   0.610E-02 -.873E-02 -.153E+00   -.527E-04 0.777E-05 0.941E-01
   0.149E+01 0.882E-01 -.104E+02   -.150E+01 -.863E-01 0.915E+01   -.191E-02 -.322E-03 0.372E+00   0.416E-04 -.207E-05 0.935E-01
   0.158E+02 0.140E+00 -.142E+04   -.158E+02 -.141E+00 0.142E+04   -.102E+00 0.164E-01 0.230E+00   0.233E-03 -.351E-05 0.123E-02
   0.122E+02 0.133E+00 -.145E+04   -.119E+02 -.134E+00 0.145E+04   -.245E+00 0.489E-02 -.322E+00   -.306E-03 0.751E-06 -.571E-02
   -.117E+02 -.188E+02 -.279E+04   0.118E+02 0.195E+02 0.279E+04   0.557E-01 -.102E+00 -.469E+00   -.566E-03 0.585E-04 -.128E+00
   0.422E+00 0.140E+00 -.286E+04   -.612E+00 -.128E+00 0.286E+04   0.652E-01 0.488E-02 0.118E+01   0.154E-03 -.712E-05 -.117E+00
   -.233E-01 0.338E-01 0.282E+04   0.250E-01 -.331E-01 -.282E+04   -.227E-02 -.869E-02 0.614E+00   0.126E-03 -.377E-04 0.134E+00
   0.657E-02 0.522E-01 0.300E+04   -.700E-02 -.511E-01 -.299E+04   0.666E-03 0.133E-03 -.417E+01   -.645E-04 -.528E-04 0.134E+00
   0.202E+00 0.300E+00 0.144E+04   -.206E+00 -.283E+00 -.144E+04   0.105E-02 -.957E-02 -.917E-01   -.314E-04 -.139E-04 0.146E+00
   -.939E-01 0.200E+00 0.143E+04   0.100E+00 -.199E+00 -.143E+04   -.821E-03 0.110E-03 0.229E+00   0.334E-04 -.224E-05 0.146E+00
   -.173E+01 0.807E+00 -.230E+02   0.177E+01 -.819E+00 0.238E+02   -.840E-02 0.365E-02 -.166E+00   0.285E-04 0.860E-07 0.942E-01
   0.300E+01 0.248E+01 -.100E+02   -.302E+01 -.257E+01 0.895E+01   0.389E-03 0.393E-01 0.299E+00   -.323E-04 0.122E-04 0.935E-01
   0.196E+02 -.654E+01 -.143E+04   -.195E+02 0.694E+01 0.143E+04   -.103E+00 -.829E-01 0.209E+00   0.111E-03 -.425E-04 0.256E-03
   0.112E+02 -.120E+00 -.146E+04   -.112E+02 0.145E+00 0.146E+04   -.143E+00 0.417E-02 -.287E+00   0.361E-04 -.163E-04 -.584E-02
   0.508E-01 0.156E+01 -.278E+04   -.491E+00 -.148E+01 0.278E+04   0.193E+00 -.104E-01 -.493E+00   0.549E-03 -.127E-03 -.129E+00
   0.126E+02 -.669E+01 -.285E+04   -.123E+02 0.722E+01 0.285E+04   -.251E+00 -.900E-01 0.133E+01   -.135E-03 -.341E-03 -.115E+00
   -.882E-02 0.220E-01 0.282E+04   0.110E-01 -.216E-01 -.282E+04   -.241E-02 0.922E-02 0.615E+00   0.107E-03 -.201E-04 0.134E+00
   0.818E-02 -.952E-02 0.300E+04   -.868E-02 0.922E-02 -.299E+04   0.748E-03 0.375E-03 -.416E+01   -.608E-04 0.116E-04 0.134E+00
   0.184E+00 0.211E+00 0.144E+04   -.188E+00 -.209E+00 -.144E+04   0.122E-02 0.598E-02 -.925E-01   -.391E-04 0.885E-06 0.146E+00
   0.203E-01 -.428E-01 0.143E+04   -.131E-01 0.427E-01 -.143E+04   -.870E-03 0.372E-03 0.233E+00   0.334E-04 0.648E-06 0.146E+00
   -.202E+00 0.458E+00 -.222E+02   0.231E+00 -.439E+00 0.230E+02   -.565E-02 -.781E-02 -.164E+00   0.267E-04 0.578E-05 0.942E-01
   0.262E+01 -.290E+00 -.571E+01   -.266E+01 0.293E+00 0.441E+01   0.952E-02 -.271E-02 0.324E+00   -.297E-04 -.162E-05 0.936E-01
   0.170E+02 -.736E+01 -.140E+04   -.169E+02 0.742E+01 0.140E+04   -.132E+00 0.255E-01 0.779E-01   0.121E-03 -.481E-04 0.242E-02
   0.110E+02 -.575E+00 -.146E+04   -.110E+02 0.569E+00 0.146E+04   -.178E+00 0.254E-02 -.276E+00   0.102E-04 0.129E-04 -.600E-02
   0.402E+01 0.243E+01 -.279E+04   -.402E+01 -.243E+01 0.279E+04   -.708E-01 0.326E-02 -.495E+00   0.313E-03 -.740E-04 -.130E+00
   -.466E+01 -.373E+00 -.285E+04   0.465E+01 0.291E+00 0.285E+04   0.516E-01 0.228E-01 0.116E+01   -.969E-04 0.284E-04 -.115E+00
[...]
   -.532E+02 -.991E-01 0.859E+03   0.574E+02 0.976E-01 -.859E+03   -.336E+01 0.193E-02 0.168E+00   0.903E-04 0.426E-05 0.880E-01
   0.532E+02 -.948E-01 0.859E+03   -.574E+02 0.937E-01 -.859E+03   0.337E+01 0.125E-02 0.173E+00   -.114E-03 -.144E-06 0.880E-01
   -.578E+00 0.758E-01 0.381E+03   0.597E+00 -.777E-01 -.385E+03   -.226E-01 0.360E-02 0.396E+01   0.211E-04 -.169E-05 0.730E-01
   0.284E+00 0.347E+00 -.425E+03   -.595E+00 -.349E+00 0.432E+03   0.279E+00 0.967E-03 -.677E+01   0.122E-04 -.536E-05 0.367E-01
   -.538E+02 -.826E+00 -.737E+01   0.588E+02 0.817E+00 0.706E+01   -.490E+01 0.380E-01 0.278E+00   0.424E-04 -.204E-05 0.566E-01
   0.544E+02 -.850E+00 -.100E+02   -.595E+02 0.837E+00 0.978E+01   0.492E+01 0.451E-01 0.237E+00   -.862E-04 -.260E-05 0.566E-01
   0.118E+02 0.810E+00 -.462E+03   -.130E+02 -.889E+00 0.455E+03   0.106E+01 0.675E-01 0.669E+01   0.347E-04 -.237E-05 0.239E-01
   0.141E+02 -.478E+00 -.125E+04   -.151E+02 0.611E+00 0.125E+04   0.889E+00 -.143E+00 -.874E-01   0.992E-05 -.131E-04 -.276E-01
   -.552E+02 -.701E+00 -.856E+03   0.619E+02 0.625E+00 0.855E+03   -.577E+01 0.737E-01 0.130E+01   -.671E-04 0.246E-04 -.898E-03
   0.567E+01 0.836E+00 -.866E+03   -.549E+01 -.105E+01 0.865E+03   -.242E+00 0.206E+00 0.530E+00   -.969E-04 0.229E-04 -.115E-02
   0.471E+01 0.138E+00 -.136E+04   -.539E+01 -.169E+00 0.137E+04   0.644E+00 0.147E-01 -.211E+01   0.221E-03 -.778E-05 -.430E-01
   -.272E+01 0.117E+00 -.203E+04   0.285E+01 -.137E-01 0.205E+04   -.938E-01 -.145E+00 -.198E+02   0.496E-03 -.454E-05 -.104E+00
   -.232E+02 -.699E+01 -.172E+04   0.303E+02 0.740E+01 0.172E+04   -.690E+01 0.270E-01 -.176E+00   -.311E-03 0.231E-03 -.743E-01
   0.233E+02 0.222E+01 -.176E+04   -.305E+02 -.267E+01 0.176E+04   0.667E+01 0.700E+00 -.214E+01   0.112E-03 0.256E-03 -.769E-01
   0.271E+02 -.119E+01 0.884E+02   0.603E-11 0.868E-12 0.143E-10   -.249E+02 0.110E+01 -.859E+02   0.134E-03 0.264E-04 0.864E+01

 POSITION                                       TOTAL-FORCE (eV/Angst)
      9.75312      7.39405      4.61933        -0.001352     -0.000511     -3.970214
      0.00014      8.87284      4.61933         0.000601      0.000317      3.335201
      0.00014      7.39405      7.87032         0.003534      0.000300      0.573106
      9.75312      8.87284      7.87032        -0.004863      0.000871     -0.822946
      9.75312      7.39405     11.12132        -0.019412     -0.017000      0.703787
      0.00014      8.87284     11.12132        -0.007907      0.003653     -0.789492
      0.09109      7.39492     14.30021         0.029572      0.000116      0.070726
      9.83288      8.87420     14.48847         0.049294      0.032916      0.259665
      9.76300      7.40348     17.81549         0.168166     -0.542595      0.903029
     13.00384      8.87689     17.48171        -0.066982     -0.026415     -0.078013
      9.75312     10.35164      4.61933        -0.001678      0.001361     -3.970274
      0.00014      0.00006      4.61933         0.000780     -0.000021      3.335417
      0.00014     10.35164      7.87032         0.003567     -0.000019      0.573275
      9.75312      0.00006      7.87032        -0.005192     -0.000573     -0.824795
      9.75312     10.35164     11.12132        -0.003685      0.027386      0.713962
      0.00014      0.00006     11.12132        -0.006934     -0.000524     -0.785695
      0.09253     10.35222     14.30190         0.039170     -0.000417      0.064799
      9.82725      0.00065     14.49801         0.007810     -0.003406      0.243411
      9.74830     10.35093     17.84806         0.071814     -0.122684      0.459200
      0.00337     11.82979     17.48071        -0.038728     -0.012253     -0.097011
      9.75312      1.47886      4.61933        -0.001615     -0.001801     -3.970374
      0.00014      2.95765      4.61933         0.000654     -0.000197      3.335296
      0.00014      1.47886      7.87032         0.003962     -0.000252      0.573091
      9.75312      2.95765      7.87032        -0.004494     -0.000758     -0.825351
      9.75312      1.47886     11.12132        -0.003301     -0.043532      0.703482
      0.00014      2.95765     11.12132        -0.003922     -0.004036     -0.790101
      0.09471      1.47848     14.30219         0.036015     -0.003628      0.059852
      9.83142      2.95611     14.48640         0.045862     -0.026666      0.254989
      9.74780      1.46959     17.84824         0.102061      0.046850      0.428325
      0.00264      2.95329     17.48144        -0.070683      0.027100     -0.089794
      9.75312      4.43645      4.61933        -0.001288      0.001205     -3.970341
      0.00014      5.91525      4.61933         0.000715      0.000230      3.335655
      0.00014      4.43645      7.87032         0.003944      0.000230      0.572850
      9.75312      5.91525      7.87032        -0.004061      0.000765     -0.823885
      9.75312      4.43645     11.12132        -0.020218      0.032164      0.694851
      0.00014      5.91525     11.12132        -0.006171      0.001286     -0.794057
      0.09097      4.43624     14.29967         0.027514      0.005004      0.068389
      9.83583      5.91535     14.49346         0.078181      0.002719      0.307712
      9.77188      4.41543     17.81655         0.153722      0.595324      0.864171
      0.01083      5.91673     17.47964        -0.120997      0.012640     -0.045322
      3.25113      7.39405      4.61933         0.001224     -0.000539     -3.967692
      6.50213      8.87284      4.61933        -0.000198      0.000963      3.340214
      6.50213      7.39405      7.87032        -0.003185      0.013470      0.586781
      3.25113      8.87284      7.87032         0.005611      0.001099     -0.812778
      3.25113      7.39405     11.12132         0.034747     -0.011858      0.733766
      6.50213      8.87284     11.12132        -0.023697     -0.048673     -0.701700
      6.59527      7.36654     14.34066         0.109099      0.298525     -0.205882
      3.33106      8.87275     14.49619        -0.078868      0.027522      0.165171
      3.25551      7.39786     17.84504        -0.251657      0.083476      0.421214
      6.51199      8.87436     17.44202         0.068118      0.406243     -0.105823
      3.25113     10.35164      4.61933         0.001553      0.001726     -3.967941
      6.50213      0.00006      4.61933        -0.000113     -0.000146      3.340769
      6.50213     10.35164      7.87032        -0.003562      0.001193      0.591828
      3.25113      0.00006      7.87032         0.006185      0.000051     -0.812182
      3.25113     10.35164     11.12132         0.025136      0.018174      0.738305
      6.50213      0.00006     11.12132        -0.031212     -0.000348     -0.878381
      6.59424     10.34013     14.26908         0.084550      0.058200      0.024182
      3.32921     11.83032     14.49975        -0.064086     -0.003522      0.182968
      3.26465     10.35357     17.85093        -0.066304      0.004721      0.364332
      6.49545     11.83013     17.44955         0.039203     -0.058415     -0.104720
[...]
      6.50213      5.91525      9.14470         0.003434     -0.004459     -0.289898
      4.52552      4.43645      7.87032         0.289829      0.001348      0.068765
      8.47874      4.43645      7.87032        -0.284730      0.000992      0.070449
      3.25113      5.91525      9.84693        -0.007662      0.002339      0.072122
      3.25113      5.91525     12.39570         0.012337     -0.000529     -0.229424
      7.77651      4.43645     11.12132        -0.673648      0.034015      0.077761
      5.22774      4.43645     11.12132         0.706651      0.037173      0.093023
      6.51393      5.91403     13.12315         0.012505     -0.001169      0.333577
      6.50143      5.91940     15.68974        -0.059035     -0.036475      0.838132
      4.55324      4.43713     14.39628        -0.091222      0.014478      0.036990
      8.46916      4.43633     14.40655        -0.106073      0.026226      0.009466
      3.25396      5.91930     16.36339         0.069418     -0.014546     -0.097348
      3.27802      5.91816     18.93489         0.018953     -0.069129     -0.746469
      7.75947      4.39476     17.67510        -0.906852      0.466414      0.381695
      5.28662      4.42576     17.77770         0.619190      0.389919      0.215099
    total drift:                               -0.038482     -0.006945     -0.017789

  FREE ENERGIE OF THE ION-ELECTRON SYSTEM (eV)
  free  energy   TOTEN  =     -2819.50467467 eV

  energy  without entropy=    -2819.50467467  energy(sigma->0) =    -2819.50467467