 vasp.6.3.0 20Jan22 (build Mar 11 2022 13:48:16) complex

 executed on             LinuxIFC date 2024.01.23  08:12:05

 INCAR:
   SYSTEM = TiO2
   ISMEAR = 0
   SIGMA = 0.05
   EDIFF = 1E-5
   ALGO = ALL
   ISTART = 0
   IBRION = -1
   NSW = 0
   ISYM = 0
   ISIF = 2
   EDIFFG = -0.01
   DIPOL = 0.5 0.5 0.5
   IDIPOL = 3
   LDIPOL = .TRUE.
   GGA = RE
   IVDW = 13
   VDW_S8 = 1.7468
   VDW_A1 = 0.5363
   VDW_A2 = 3.0726
   ENCUT = 600
   PREC = Accurate
   LASPH = .TRUE.
   LREAL = .FALSE.
   ISPIN = 1
   NELM = 200
   NELMIN = 8
   NCORE = 2
   KPAR = 1
   LWAVE = .FALSE.
   LCHARG = .FALSE.

 POTCAR:    PAW_PBE H 15Jun2001
 POTCAR:    PAW_PBE O 08Apr2002
 POTCAR:    PAW_PBE Ti_pv 07Sep2000
 POTCAR:    PAW_PBE O 08Apr2002
|           W    W    AA    RRRRR   N    N  II  N    N   GGGG   !!!           |
|           W    W   A  A   R    R  NN   N  II  NN   N  G    G  !!!           |
|           W    W  A    A  R    R  N N  N  II  N N  N  G       !!!           |
|           W WW W  AAAAAA  RRRRR   N  N N  II  N  N N  G  GGG   !            |
|           WW  WW  A    A  R   R   N   NN  II  N   NN  G    G                |
|           W    W  A    A  R    R  N    N  II  N    N   GGGG   !!!           |
|     For optimal performance we recommend to set                             |
|       NCORE = 2 up to number-of-cores-per-socket                            |
|     This setting can greatly improve the performance of VASP for DFT.       |
|     The default, NCORE=1 might be grossly inefficient on modern             |
|     multi-core architectures or massively parallel machines. Do your        |
|     Unfortunately you need to use the default for GW and RPA                |
|     calculations (for HF NCORE is supported but not extensively tested      |
|     yet).                                                                   |

   TITEL  = PAW_PBE H 15Jun2001
   POMASS =    1.000; ZVAL   =    1.000    mass and valenz
   ENMAX  =  250.000; ENMIN  =  200.000 eV

   TITEL  = PAW_PBE O 08Apr2002
   POMASS =   16.000; ZVAL   =    6.000    mass and valenz
   ENMAX  =  400.000; ENMIN  =  300.000 eV

   TITEL  = PAW_PBE Ti_pv 07Sep2000
   POMASS =   47.880; ZVAL   =   10.000    mass and valenz
   ENMAX  =  222.335; ENMIN  =  166.751 eV

   TITEL  = PAW_PBE O 08Apr2002
   POMASS =   16.000; ZVAL   =    6.000    mass and valenz
   ENMAX  =  400.000; ENMIN  =  300.000 eV

  PAW_PBE H 15Jun2001                   :
  PAW_PBE O 08Apr2002                   :
  PAW_PBE Ti_pv 07Sep2000               :
  PAW_PBE O 08Apr2002                   :

 POSCAR:  H  O Ti  O
  positions in direct lattice
|           W    W    AA    RRRRR   N    N  II  N    N   GGGG   !!!           |
|           W    W   A  A   R    R  NN   N  II  NN   N  G    G  !!!           |
|           W    W  A    A  R    R  N N  N  II  N N  N  G       !!!           |
|           W WW W  AAAAAA  RRRRR   N  N N  II  N  N N  G  GGG   !            |
|           WW  WW  A    A  R   R   N   NN  II  N   NN  G    G                |
|           W    W  A    A  R    R  N    N  II  N    N   GGGG   !!!           |
|     Specifying the vdW parameters                                           |
|     VDW_S8 = 1.747                                                          |
|     VDW_A1 = 0.536                                                          |
|     VDW_A2 = 3.073                                                          |
|     in the INCAR file will overwrite the defaults for revpbe. Please        |
|     make sure that is what you intended.                                    |

 ion  position               nearest neighbor table
   1  0.524  0.548  0.802-   3 0.97
   2  0.625  0.496  0.779-   3 1.03
   3  0.547  0.491  0.782-   1 0.97   2 1.03  83 2.18
   4  0.750  0.625  0.286-  84 1.98  85 1.98 144 1.98 145 1.98 166 2.00  87 2.00  14 3.03  34 3.03

   5  0.000  0.750  0.286-  86 1.98  87 1.98 106 1.98 107 1.98  88 2.00  35 3.03  15 3.03
   6  0.000  0.625  0.393-  89 1.98 149 1.98 148 1.98  88 1.98  90 2.00  91 2.00  16 3.03  36 3.03

[...]

  84  0.750  0.750  0.244-   4 1.98  14 1.98
  85  0.750  0.750  0.328-   4 1.98  14 1.98   7 2.00
  86  0.098  0.625  0.286-   5 1.98  35 1.98  44 2.00
  87  0.902  0.625  0.286-   5 1.98  35 1.98   4 2.00
  88  0.000  0.750  0.351-   6 1.98  16 1.98   5 2.00
  89  0.000  0.750  0.435-   6 1.98  16 1.98   9 2.00
  90  0.848  0.625  0.393-   7 1.98  37 1.98   6 2.00
  91  0.152  0.625  0.393-  47 1.98  77 1.98   6 2.00
  92  0.750  0.750  0.458-   8 1.98  18 1.98   7 2.00
  93  0.750  0.750  0.542-   8 1.98  18 1.98  11 2.08
  94  0.098  0.625  0.500-   9 1.98  39 1.98  48 2.00
  95  0.902  0.625  0.500-   9 1.98  39 1.98   8 2.00
  96  0.000  0.750  0.565-  20 1.94  10 1.94   9 2.01
  97  0.999  0.750  0.649-  13 1.86  10 2.03  20 2.03
  98  0.850  0.625  0.607-  10 1.98  11 2.00  41 2.00
  99  0.150  0.625  0.607-  10 1.97  51 2.00  81 2.01
 100  0.754  0.751  0.672-  11 1.93  12 2.08  22 2.11
 101  0.748  0.749  0.756-  12 1.87  22 1.89
 102  0.094  0.625  0.719-  43 1.97  13 1.97  52 2.07
 103  0.906  0.624  0.721-  43 1.97  13 1.98  12 2.05
 104  0.750  0.000  0.244-  14 1.98  24 1.98
 105  0.750  0.000  0.328-  14 1.98  24 1.98  17 2.00
 106  0.098  0.875  0.286-   5 1.98  15 1.98  54 2.00
 107  0.902  0.875  0.286-   5 1.98  15 1.98  14 2.00
 108  0.000  0.000  0.351-  16 1.98  26 1.98  15 2.00
 109  0.000  0.000  0.435-  16 1.98  26 1.98  19 2.00
 110  0.848  0.875  0.393-   7 1.98  17 1.98  16 2.00
 111  0.152  0.875  0.393-  47 1.98  57 1.98  16 2.00
 112  0.750  0.000  0.458-  18 1.98  28 1.98  17 2.00
 113  0.750  0.000  0.542-  18 1.98  28 1.98  21 2.09
 114  0.098  0.875  0.500-   9 1.98  19 1.98  58 2.00
 115  0.902  0.875  0.500-   9 1.98  19 1.98  18 2.00
 116  0.000  1.000  0.565-  20 1.94  30 1.94  19 2.01
 117  0.999  0.000  0.649-  23 1.86  20 2.03  30 2.03
 118  0.849  0.875  0.607-  20 1.98  21 2.00  11 2.00
 119  0.150  0.875  0.607-  20 1.98  51 2.00  61 2.00
 120  0.750  1.000  0.672-  21 1.93  32 2.10  22 2.10
 121  0.750  1.000  0.756-  22 1.87  32 1.87
 122  0.093  0.875  0.719-  13 1.97  23 1.97  62 2.07
 123  0.907  0.875  0.720-  13 1.97  23 1.97  22 2.06
 124  0.750  0.250  0.244-  24 1.98  34 1.98
 125  0.750  0.250  0.328-  24 1.98  34 1.98  27 2.00
 126  0.098  0.125  0.286-  15 1.98  25 1.98  64 2.00
 127  0.902  0.125  0.286-  15 1.98  25 1.98  24 2.00
 128  0.000  0.250  0.351-  26 1.98  36 1.98  25 2.00
 129  0.000  0.250  0.435-  26 1.98  36 1.98  29 2.00
 130  0.848  0.125  0.393-  17 1.98  27 1.98  26 2.00
 131  0.152  0.125  0.393-  57 1.98  67 1.98  26 2.00
 132  0.750  0.250  0.458-  28 1.98  38 1.98  27 2.00
 133  0.750  0.250  0.542-  28 1.98  38 1.98  31 2.08
 134  0.098  0.125  0.500-  19 1.98  29 1.98  68 2.00
 135  0.902  0.125  0.500-  19 1.98  29 1.98  28 2.00
 136  0.000  0.250  0.565-  30 1.94  40 1.94  29 2.01
 137  0.999  0.250  0.649-  33 1.86  40 2.03  30 2.03
 138  0.849  0.125  0.607-  30 1.98  21 2.00  31 2.00
 139  0.150  0.125  0.607-  30 1.97  61 2.00  71 2.00
 140  0.753  0.249  0.672-  31 1.93  42 2.08  32 2.11
 141  0.749  0.251  0.756-  42 1.87  32 1.88
 142  0.093  0.125  0.719-  33 1.97  23 1.97  72 2.07
 143  0.907  0.125  0.720-  33 1.97  23 1.97  32 2.06
[...]
 229  0.500  0.500  0.435-  46 1.98  76 1.98  79 2.00
 230  0.348  0.375  0.393-  67 1.98  77 1.98  76 2.00
 231  0.652  0.375  0.393-  27 1.98  37 1.98  76 2.00
 232  0.250  0.500  0.458-  48 1.98  78 1.98  77 2.00
 233  0.250  0.500  0.542-  48 1.98  78 1.98  81 2.09
 234  0.598  0.375  0.500-  69 1.98  79 1.98  38 2.00
 235  0.402  0.375  0.500-  69 1.98  79 1.98  78 2.00
 236  0.500  0.500  0.566-  50 1.94  80 1.95  79 2.02
 237  0.498  0.500  0.650-  83 1.96  50 2.00  80 2.01
 238  0.349  0.375  0.607-  80 1.98  81 2.00  71 2.00
 239  0.651  0.375  0.608-  80 1.99  31 2.00  41 2.00
 240  0.250  0.500  0.672-  81 1.92  52 2.10  82 2.11
 241  0.251  0.500  0.756-  52 1.88  82 1.88
 242  0.596  0.371  0.714-  73 1.95  83 1.99  42 2.04
 243  0.407  0.374  0.719-  73 1.96  83 1.97  82 2.06

IMPORTANT INFORMATION: All symmetrisations will be switched off!
NOSYMM: (Re-)initialisation of all symmetry stuff for point group C_1.

                                     Primitive cell

  volume of cell :    4886.2662

  direct lattice vectors                    reciprocal lattice vectors
    13.143747607  0.000000000  0.000000000     0.076081802  0.000000000  0.000000000
     0.000000000 12.104894358  0.000000000     0.000000000  0.082611212  0.000000000
     0.000000000  0.000000000 30.711208800     0.000000000  0.000000000  0.032561401

  length of vectors
    13.143747607 12.104894358 30.711208800     0.076081802  0.082611212  0.032561401

  position of ions in fractional coordinates (direct lattice)
     0.523779667  0.547759811  0.802295717
     0.624561519  0.496000023  0.779406385
     0.546823706  0.491416395  0.781978444
     0.750000000  0.625000000  0.286010579
     0.000000000  0.750000000  0.286010579
     0.000000000  0.625000000  0.393005289
     0.750000000  0.750000000  0.393005289
     0.750000000  0.625000000  0.500000000
     0.000000000  0.750000000  0.500000000
     0.999945745  0.625041927  0.605118707
     0.750074996  0.750084069  0.609430702
     0.750276032  0.626431096  0.718728932
     0.999655801  0.749975851  0.709925787
     0.750000000  0.875000000  0.286010579
     0.000000000  0.000000000  0.286010579
     0.000000000  0.875000000  0.393005289
     0.750000000  0.000000000  0.393005289
     0.750000000  0.875000000  0.500000000
     0.000000000  0.000000000  0.500000000
     0.999781052  0.875022523  0.605194784
     0.749559362  0.000019231  0.609745203
     0.749779647  0.875346292  0.720004365
     0.999922868  0.000011941  0.709866274
     0.750000000  0.125000000  0.286010579
     0.000000000  0.250000000  0.286010579
     0.000000000  0.125000000  0.393005289
     0.750000000  0.250000000  0.393005289
     0.750000000  0.125000000  0.500000000
     0.000000000  0.250000000  0.500000000
     0.999776506  0.125005035  0.605179858
     0.750036161  0.249961080  0.609407189
     0.749727382  0.124536969  0.719987910
     0.999703669  0.250040866  0.709913436
     0.750000000  0.375000000  0.286010579
     0.000000000  0.500000000  0.286010579
     0.000000000  0.375000000  0.393005289
     0.750000000  0.500000000  0.393005289
     0.750000000  0.375000000  0.500000000
     0.000000000  0.500000000  0.500000000
     0.999938142  0.375018125  0.605122162
     0.750366203  0.500037334  0.609651467
     0.750536168  0.373378327  0.718723720
     0.000747012  0.500061093  0.709837374
     0.250000000  0.625000000  0.286010579
     0.500000000  0.750000000  0.286010579
     0.500000000  0.625000000  0.393005289
     0.250000000  0.750000000  0.393005289
     0.250000000  0.625000000  0.500000000
     0.500000000  0.750000000  0.500000000
     0.499718577  0.623125773  0.606155274
     0.250013493  0.749934616  0.609792094
     0.250876107  0.625118178  0.720144479
     0.499668055  0.750689342  0.708602357
     0.250000000  0.875000000  0.286010579
     0.500000000  0.000000000  0.286010579
     0.500000000  0.875000000  0.393005289
[...]
   6.57187380  0.00000000  8.78373060
   6.57187380 10.59178256 12.06966750
   3.28593690  0.00000000 12.06966750
   3.28593690 10.59178256 15.35560440
   6.57187380  0.00000000 15.35560440
   6.56411685 10.58519872 18.55873237
[...]
   6.57187380  6.05244718 13.35339810
   4.56966750  4.53933538 12.06966750
   8.57408011  4.53933538 12.06966750
   3.28593690  6.05244718 14.07187380
   3.28593690  6.05244718 16.63933500
   7.85560440  4.53933538 15.35560440
   5.28814321  4.53933538 15.35560440
   6.57616156  6.05068502 17.37080914
   6.55012828  6.05731091 19.95923615
   4.58557961  4.54014890 18.64999829
   8.55455861  4.53993793 18.67192633
   3.28894012  6.05678046 20.65131080
   3.29488023  6.05213983 23.22243310
   7.83433350  4.49014651 21.92091245
   5.35536086  4.52869163 22.08837318

--------------------------------------- Iteration      FINAL  ---------------------------------------

--------------------OUTCAR has been truncated-------------------------

[...]

--------------------OUTCAR has been truncated-------------------------

  FORCE on cell =-STRESS in cart. coord.  units (eV):
  Direction    XX          YY          ZZ          XY          YZ          ZX
  Alpha Z  4507.55820  4507.55820  4507.55820
  Ewald  942423.91489959535.45621************   -23.05213    40.58964   -65.21666
  Hartree983365.21566992784.63891************    -6.03767     7.35805   -31.97083
  E(xc)   -8624.06453 -8596.53054 -8638.31393    -0.08919     0.20697    -0.32390
  Local  ************************************    23.87154   -36.10532    91.15288
  n-local -5397.80376 -5323.88214 -5439.33168    -0.27949     0.03931    -0.12642
  augment  5226.60542  5218.74865  5231.33129     0.32780    -0.78428     0.10005
  Kinetic 28668.06325 28153.60866 28729.90544     5.28269   -11.35163     6.88901
  Fock        0.00000     0.00000     0.00000     0.00000     0.00000     0.00000
  vdW      -121.58802  -121.78053  -109.00748     0.00894     0.00264     0.05759
  Total    -106.85369  -249.12405  -148.09134     0.03249    -0.04463     0.56171
  in kB     -35.03668   -81.68628   -48.55826     0.01065    -0.01463     0.18418

 VOLUME and BASIS-vectors are now :
  energy-cutoff  :      600.00
  volume of cell :     4886.27
      direct lattice vectors                 reciprocal lattice vectors
    13.143747607  0.000000000  0.000000000     0.076081802  0.000000000  0.000000000
     0.000000000 12.104894358  0.000000000     0.000000000  0.082611212  0.000000000
     0.000000000  0.000000000 30.711208800     0.000000000  0.000000000  0.032561401

  length of vectors
    13.143747607 12.104894358 30.711208800     0.076081802  0.082611212  0.032561401

 FORCES acting on ions:
    Electron-Ion                     Ewald-Force                    Non-Local-Force
   0.317E+02 -.606E+02 -.443E+03   -.344E+02 0.664E+02 0.448E+03   0.279E+01 -.576E+01 -.546E+01
   -.536E+02 -.173E+01 -.421E+03   0.599E+02 0.191E+01 0.421E+03   -.658E+01 -.165E+00 0.508E+00
   0.576E+02 0.393E+02 -.250E+04   -.734E+02 -.708E+02 0.249E+04   0.159E+02 0.314E+02 0.121E+02
   -.101E+00 -.200E-01 0.365E+04   0.972E-01 0.202E-01 -.366E+04   0.990E-03 -.199E-04 0.447E+00
   -.618E-01 -.347E-01 0.383E+04   0.636E-01 0.348E-01 -.382E+04   -.363E-03 -.127E-04 -.403E+01
   -.257E+00 -.572E-01 0.187E+04   0.265E+00 0.567E-01 -.187E+04   -.122E-02 0.193E-03 -.569E-01
   -.244E+00 -.278E-01 0.186E+04   0.235E+00 0.285E-01 -.186E+04   0.207E-02 0.357E-04 0.221E+00
   -.285E-01 -.173E+00 0.723E+01   -.115E-01 0.153E+00 -.676E+01   0.659E-02 0.161E-02 -.831E-01
   -.142E+01 -.635E+00 0.145E+02   0.144E+01 0.638E+00 -.153E+02   -.567E-02 -.290E-02 0.224E+00
   -.685E+01 -.204E+01 -.181E+04   0.684E+01 0.204E+01 0.181E+04   0.245E-02 -.613E-02 0.961E-01
   -.284E+01 -.769E+01 -.185E+04   0.286E+01 0.770E+01 0.185E+04   -.266E-01 -.790E-02 -.217E+00
   -.733E+02 -.151E+02 -.359E+04   0.731E+02 0.150E+02 0.359E+04   0.234E+00 0.123E+00 -.783E-01
   -.559E+01 -.322E+01 -.367E+04   0.566E+01 0.325E+01 0.366E+04   -.741E-01 -.210E-01 0.137E+01
   -.111E+00 -.237E-01 0.365E+04   0.107E+00 0.240E-01 -.366E+04   0.104E-02 -.176E-04 0.447E+00
   -.585E-01 -.152E-02 0.383E+04   0.603E-01 0.160E-02 -.382E+04   -.348E-03 -.529E-06 -.403E+01
   -.217E+00 -.633E-01 0.187E+04   0.225E+00 0.627E-01 -.187E+04   -.114E-02 0.126E-03 -.568E-01
   -.330E+00 -.110E-01 0.186E+04   0.320E+00 0.107E-01 -.186E+04   0.197E-02 -.473E-06 0.221E+00
   -.126E+01 -.535E+00 0.608E+01   0.122E+01 0.568E+00 -.560E+01   0.654E-02 -.245E-02 -.843E-01
   -.993E+00 0.214E-01 0.136E+02   0.101E+01 -.232E-01 -.144E+02   -.565E-02 0.495E-03 0.222E+00
   -.389E+01 -.145E+01 -.182E+04   0.389E+01 0.146E+01 0.182E+04   0.793E-03 -.807E-02 0.108E+00
   -.161E+01 0.242E+00 -.186E+04   0.163E+01 -.243E+00 0.186E+04   -.333E-01 0.654E-03 -.220E+00
   -.143E+02 -.148E+02 -.363E+04   0.142E+02 0.148E+02 0.363E+04   0.345E-01 0.114E-02 -.211E+00
   -.539E+01 0.452E+00 -.367E+04   0.536E+01 -.452E+00 0.366E+04   0.316E-01 -.174E-02 0.140E+01
   -.109E+00 0.199E-01 0.365E+04   0.106E+00 -.203E-01 -.366E+04   0.104E-02 0.413E-04 0.447E+00
   -.620E-01 0.347E-01 0.383E+04   0.638E-01 -.348E-01 -.382E+04   -.362E-03 0.997E-05 -.403E+01
   -.218E+00 0.601E-01 0.187E+04   0.225E+00 -.597E-01 -.187E+04   -.118E-02 -.102E-03 -.568E-01
   -.224E+00 0.273E-01 0.186E+04   0.215E+00 -.280E-01 -.186E+04   0.200E-02 -.287E-04 0.222E+00
   -.117E+01 0.489E+00 0.612E+01   0.113E+01 -.528E+00 -.564E+01   0.705E-02 0.299E-02 -.838E-01
   -.141E+01 0.657E+00 0.146E+02   0.143E+01 -.658E+00 -.154E+02   -.577E-02 0.162E-02 0.224E+00
   -.344E+01 0.164E+01 -.182E+04   0.345E+01 -.165E+01 0.182E+04   0.115E-02 0.102E-01 0.107E+00
   -.312E+01 0.753E+01 -.185E+04   0.314E+01 -.754E+01 0.185E+04   -.278E-01 0.933E-02 -.221E+00
   -.143E+02 0.159E+02 -.363E+04   0.143E+02 -.159E+02 0.363E+04   0.339E-01 0.109E-01 -.217E+00
   -.547E+01 0.325E+01 -.367E+04   0.554E+01 -.329E+01 0.366E+04   -.707E-01 0.204E-01 0.137E+01
   -.991E-01 0.237E-01 0.365E+04   0.957E-01 -.239E-01 -.366E+04   0.985E-03 0.388E-05 0.447E+00
   -.652E-01 0.156E-02 0.383E+04   0.670E-01 -.163E-02 -.382E+04   -.360E-03 0.509E-05 -.403E+01
   -.258E+00 0.604E-01 0.187E+04   0.266E+00 -.597E-01 -.187E+04   -.124E-02 -.175E-03 -.568E-01
   -.142E+00 0.115E-01 0.186E+04   0.134E+00 -.113E-01 -.186E+04   0.178E-02 -.124E-04 0.221E+00
   0.777E-01 0.217E+00 0.719E+01   -.119E+00 -.191E+00 -.673E+01   0.677E-02 -.206E-02 -.823E-01
   -.156E+01 -.468E-02 0.155E+02   0.159E+01 0.534E-02 -.163E+02   -.717E-02 -.388E-03 0.220E+00
   -.657E+01 0.188E+01 -.181E+04   0.657E+01 -.188E+01 0.181E+04   0.162E-02 0.390E-02 0.998E-01
   -.385E+01 -.163E+00 -.184E+04   0.393E+01 0.165E+00 0.184E+04   -.747E-01 -.698E-03 -.228E+00
   -.747E+02 0.139E+02 -.359E+04   0.745E+02 -.139E+02 0.359E+04   0.203E+00 -.140E+00 -.777E-01
   -.926E+01 -.396E+00 -.366E+04   0.919E+01 0.399E+00 0.366E+04   0.705E-01 0.169E-02 0.133E+01
   0.102E+00 -.151E-01 0.365E+04   -.988E-01 0.150E-01 -.366E+04   -.986E-03 0.127E-04 0.446E+00
   0.602E-01 -.194E-01 0.383E+04   -.620E-01 0.197E-01 -.382E+04   0.363E-03 -.570E-04 -.404E+01
   0.219E+00 0.112E+00 0.187E+04   -.226E+00 -.101E+00 -.187E+04   0.112E-02 -.251E-02 -.586E-01
   0.282E+00 0.300E-01 0.186E+04   -.273E+00 -.297E-01 -.186E+04   -.195E-02 -.902E-04 0.215E+00
   0.115E+01 0.973E-01 0.461E+01   -.111E+01 -.112E+00 -.405E+01   -.952E-02 0.141E-02 -.957E-01
   0.774E+00 0.868E+00 0.176E+02   -.787E+00 -.931E+00 -.182E+02   -.825E-03 0.317E-01 0.153E+00
   0.184E+01 -.936E+01 -.181E+04   -.185E+01 0.924E+01 0.181E+04   0.204E-01 -.481E-01 0.752E-01
   0.101E+02 -.409E+01 -.186E+04   -.101E+02 0.408E+01 0.186E+04   -.182E-01 0.117E-01 -.216E+00
   0.333E+02 -.125E+02 -.362E+04   -.334E+02 0.125E+02 0.362E+04   0.584E-01 -.483E-02 -.272E+00
   0.214E+02 -.533E+02 -.362E+04   -.212E+02 0.533E+02 0.362E+04   -.179E+00 -.315E-01 0.151E+01
   0.112E+00 -.189E-01 0.365E+04   -.109E+00 0.190E-01 -.366E+04   -.106E-02 0.145E-05 0.446E+00
   0.570E-01 -.398E-02 0.383E+04   -.588E-01 0.402E-02 -.382E+04   0.342E-03 -.706E-05 -.404E+01
   0.182E+00 0.712E-01 0.187E+04   -.190E+00 -.702E-01 -.187E+04   0.102E-02 -.100E-02 -.594E-01
   0.364E+00 -.131E-01 0.186E+04   -.354E+00 0.129E-01 -.186E+04   -.212E-02 0.308E-04 0.215E+00
   0.215E+01 0.351E-01 0.447E+01   -.212E+01 -.352E-01 -.393E+01   -.514E-02 -.324E-03 -.930E-01
   0.329E+00 -.165E+00 0.207E+02   -.345E+00 0.166E+00 -.215E+02   0.301E-02 -.179E-02 0.174E+00
   -.126E+01 -.899E+01 -.179E+04   0.123E+01 0.892E+01 0.179E+04   0.254E-01 0.189E-01 -.413E-01
[...]
   -.496E+02 -.278E-01 0.112E+04   0.532E+02 0.270E-01 -.112E+04   -.323E+01 0.100E-02 0.152E+00
   0.498E+02 -.112E-01 0.112E+04   -.534E+02 0.103E-01 -.112E+04   0.324E+01 0.142E-02 0.162E+00
   0.249E+00 0.247E-01 0.487E+03   -.234E+00 -.249E-01 -.491E+03   -.211E-01 0.365E-03 0.392E+01
   0.159E+01 0.141E+00 -.493E+03   -.153E+01 -.142E+00 0.499E+03   -.828E-01 0.802E-03 -.599E+01
   -.506E+02 -.290E+00 0.826E+01   0.546E+02 0.286E+00 -.838E+01   -.447E+01 0.246E-01 0.159E+00
   0.515E+02 -.385E+00 0.791E+01   -.556E+02 0.379E+00 -.802E+01   0.453E+01 0.291E-01 0.151E+00
   -.496E+00 0.658E+00 -.604E+03   0.646E+00 -.748E+00 0.598E+03   -.157E+00 0.921E-01 0.586E+01
   0.149E+02 -.158E+01 -.156E+04   -.156E+02 0.160E+01 0.156E+04   0.728E+00 -.176E-01 -.216E+01
   -.247E+02 0.222E+01 -.109E+04   0.277E+02 -.233E+01 0.109E+04   -.296E+01 0.114E+00 0.804E+00
   0.298E+02 0.337E+01 -.110E+04   -.328E+02 -.342E+01 0.109E+04   0.305E+01 0.456E-01 0.225E+00
   0.129E+02 -.834E+00 -.174E+04   -.128E+02 0.842E+00 0.174E+04   -.548E-01 -.503E-02 -.152E+01
   0.358E+02 0.792E+00 -.262E+04   -.359E+02 -.875E+00 0.264E+04   0.899E-01 0.806E-01 -.201E+02
   -.428E+02 0.460E+02 -.213E+04   0.481E+02 -.460E+02 0.213E+04   -.548E+01 -.935E-01 0.511E+00
   0.646E+02 0.279E+02 -.223E+04   -.703E+02 -.275E+02 0.223E+04   0.579E+01 -.406E+00 -.308E+01
   -.922E+01 -.254E+02 0.772E+02   0.423E-11 0.291E-12 -.309E-10   0.922E+01 0.254E+02 -.772E+02

 POSITION                                       TOTAL-FORCE (eV/Angst)
      6.88443      6.63057     24.63947         0.052805     -0.009184     -0.045928
      8.20908      6.00403     23.93651        -0.221610      0.009071      0.046120
      7.18731      5.94854     24.01550         0.107945      0.014558     -0.048065
      9.85781      7.56556      8.78373        -0.002412      0.000240     -3.185612
      0.00000      9.07867      8.78373         0.001447      0.000110      3.084231
      0.00000      7.56556     12.06967         0.006791     -0.000337      0.544396
      9.85781      9.07867     12.06967        -0.007035      0.000738     -0.748471
      9.85781      7.56556     15.35560        -0.032657     -0.018585      0.387053
      0.00000      9.07867     15.35560         0.016539      0.000580     -0.576364
     13.14303      7.56607     18.58393        -0.001477     -0.001154     -0.429948
      9.85880      9.07969     18.71635        -0.005146     -0.003660      0.441020
      9.86144      7.58288     22.07303        -0.035389      0.127690      0.578026
     13.13922      9.07838     21.80268         0.006991      0.021819     -0.867050
      9.85781     10.59178      8.78373        -0.002535      0.000370     -3.185521
      0.00000      0.00000      8.78373         0.001438      0.000075      3.083994
      0.00000     10.59178     12.06967         0.006452     -0.000498      0.543983
      9.85781      0.00000     12.06967        -0.007467     -0.000277     -0.748394
      9.85781     10.59178     15.35560        -0.027586      0.030625      0.396544
      0.00000      0.00000     15.35560         0.015775     -0.001245     -0.573836
     13.14087     10.59206     18.58626         0.007929      0.000187     -0.435909
      9.85202      0.00023     18.72601        -0.004176      0.000103      0.456388
      9.85491     10.59597     22.11220        -0.019168      0.018339      0.619893
     13.14273      0.00014     21.80085        -0.006442     -0.000865     -0.872484
      9.85781      1.51311      8.78373        -0.002546     -0.000364     -3.185712
      0.00000      3.02622      8.78373         0.001473     -0.000091      3.084048
      0.00000      1.51311     12.06967         0.006532      0.000344      0.543813
      9.85781      3.02622     12.06967        -0.006846     -0.000733     -0.749336
      9.85781      1.51311     15.35560        -0.026943     -0.035888      0.393082
      0.00000      3.02622     15.35560         0.017586      0.000478     -0.577240
     13.14081      1.51317     18.58580         0.011131     -0.002046     -0.436982
      9.85829      3.02575     18.71563        -0.005680      0.001120      0.436084
      9.85423      1.50751     22.11170        -0.021751     -0.026482      0.620788
     13.13985      3.02672     21.80230         0.010105     -0.024719     -0.868679
      9.85781      4.53934      8.78373        -0.002392     -0.000236     -3.185767
      0.00000      6.05245      8.78373         0.001500     -0.000067      3.084254
      0.00000      4.53934     12.06967         0.006890      0.000482      0.544277
      9.85781      6.05245     12.06967        -0.006529      0.000259     -0.749774
      9.85781      4.53934     15.35560        -0.033426      0.023712      0.384060
      0.00000      6.05245     15.35560         0.017555      0.000299     -0.578046
     13.14293      4.53955     18.58403        -0.000701      0.002724     -0.431753
      9.86262      6.05290     18.72313         0.016784      0.000855      0.491905
      9.86486      4.51971     22.07287        -0.010131     -0.140944      0.585745
      0.00982      6.05319     21.79996         0.000685      0.003520     -0.852946
      3.28594      7.56556      8.78373         0.002448     -0.000070     -3.182625
      6.57187      9.07867      8.78373        -0.001460      0.000301      3.090152
      6.57187      7.56556     12.06967        -0.006527      0.009361      0.564441
      3.28594      9.07867     12.06967         0.006819      0.000226     -0.727967
      3.28594      7.56556     15.35560         0.032904     -0.013534      0.455296
      6.57187      9.07867     15.35560        -0.013469     -0.032376     -0.449710
      6.56817      7.54287     18.61576         0.001940     -0.190589     -0.286713
      3.28611      9.07788     18.72745         0.018865     -0.005520      0.478228
      3.29745      7.56699     22.11651        -0.027171      0.015454      0.634024
      6.56751      9.08702     21.76203         0.052247     -0.058549     -0.879369
      3.28594     10.59178      8.78373         0.002533      0.000133     -3.182856
      6.57187      0.00000      8.78373        -0.001453      0.000030      3.090287
      6.57187     10.59178     12.06967        -0.006287      0.000089      0.567275
      3.28594      0.00000     12.06967         0.007260     -0.000116     -0.728820
      3.28594     10.59178     15.35560         0.026570     -0.000096      0.445531
      6.57187      0.00000     15.35560        -0.012771     -0.000891     -0.623939
      6.56412     10.58520     18.55873        -0.012586     -0.070804     -0.456419
[...]
      6.57187      6.05245     13.35340         0.002428     -0.000549     -0.293471
      4.56967      4.53934     12.06967         0.301705      0.000209      0.047220
      8.57408      4.53934     12.06967        -0.294120      0.000526      0.049731
      3.28594      6.05245     14.07187        -0.005701      0.000232      0.076756
      3.28594      6.05245     16.63933        -0.023393     -0.000591     -0.179102
      7.85560      4.53934     15.35560        -0.410066      0.021305      0.039484
      5.28814      4.53934     15.35560         0.446124      0.023414      0.040522
      6.57616      6.05069     17.37081        -0.008374      0.003821      0.366407
      6.55013      6.05731     19.95924         0.031792      0.004645      0.167406
      4.58558      4.54015     18.65000        -0.028742     -0.000276      0.008758
      8.55456      4.53994     18.67193         0.026820     -0.009249     -0.004592
      3.28894      6.05678     20.65131         0.004475      0.002768     -0.494647
      3.29488      6.05214     23.22243         0.009931     -0.001971     -0.826296
      7.83433      4.49015     21.92091        -0.126199     -0.040674      0.008380
      5.35536      4.52869     22.08837         0.155423      0.026663     -0.061757
    total drift:                               -0.002318      0.000663     -0.045356

  FREE ENERGIE OF THE ION-ELECTRON SYSTEM (eV)
  free  energy   TOTEN  =     -2136.55921690 eV

  energy  without entropy=    -2136.55921690  energy(sigma->0) =    -2136.55921690