 vasp.6.3.0 20Jan22 (build Aug 21 2024 11:13:42) complex
 executed on        HPECrayEX_GCC date 2024.11.26  22:25:46

 INCAR:
   SYSTEM = TiO2
   ISMEAR = 0
   SIGMA = 0.05
   EDIFF = 1E-4
   ALGO = ALL
   ISTART = 0
   IBRION = -1
   NSW = 0
   ISYM = 0
   ISIF = 2
   EDIFFG = -0.01
   DIPOL = 0.5 0.5 0.5
   IDIPOL = 3
   LDIPOL = .TRUE.
   GGA = RE
   IVDW = 13
   VDW_S8 = 1.7468
   VDW_A1 = 0.5363
   VDW_A2 = 3.0726
   ENCUT = 600
   PREC = Accurate
   LASPH = .TRUE.
   LREAL = .FALSE.
   ISPIN = 1
   NELM = 200
   NELMIN = 8
   NCORE = 16
   KPAR = 1
   LWAVE = .FALSE.
   LCHARG = .FALSE.

 POTCAR:    PAW_PBE H 15Jun2001
 POTCAR:    PAW_PBE O 08Apr2002
 POTCAR:    PAW_PBE Ti_pv 07Sep2000
 POTCAR:    PAW_PBE O 08Apr2002
 POTCAR:    PAW_PBE H 15Jun2001
   VRHFIN =H: ultrasoft test

   TITEL  = PAW_PBE H 15Jun2001
   POMASS =    1.000; ZVAL   =    1.000    mass and valenz
   ENMAX  =  250.000; ENMIN  =  200.000 eV

   TITEL  = PAW_PBE O 08Apr2002
   POMASS =   16.000; ZVAL   =    6.000    mass and valenz
   ENMAX  =  400.000; ENMIN  =  300.000 eV

   TITEL  = PAW_PBE Ti_pv 07Sep2000
   POMASS =   47.880; ZVAL   =   10.000    mass and valenz
   ENMAX  =  222.335; ENMIN  =  166.751 eV

   TITEL  = PAW_PBE O 08Apr2002
   POMASS =   16.000; ZVAL   =    6.000    mass and valenz
   ENMAX  =  400.000; ENMIN  =  300.000 eV

  PAW_PBE H 15Jun2001                   :
  PAW_PBE O 08Apr2002                   :
  PAW_PBE Ti_pv 07Sep2000               :
  PAW_PBE O 08Apr2002                   :

 POSCAR:  H  O Ti  O
  positions in direct lattice
|           W    W    AA    RRRRR   N    N  II  N    N   GGGG   !!!           |
|           W    W   A  A   R    R  NN   N  II  NN   N  G    G  !!!           |
|           W    W  A    A  R    R  N N  N  II  N N  N  G       !!!           |
|           W WW W  AAAAAA  RRRRR   N  N N  II  N  N N  G  GGG   !            |
|           WW  WW  A    A  R   R   N   NN  II  N   NN  G    G                |
|           W    W  A    A  R    R  N    N  II  N    N   GGGG   !!!           |
|     Specifying the vdW parameters                                           |
|     VDW_S8 = 1.747                                                          |
|     VDW_A1 = 0.536                                                          |
|     VDW_A2 = 3.073                                                          |
|     in the INCAR file will overwrite the defaults for revpbe. Please        |
|     make sure that is what you intended.                                    |

 ion  position               nearest neighbor table
   1  0.688  0.568  0.771-   3 0.97
   2  0.688  0.432  0.771-   3 0.97
   3  0.630  0.500  0.772-   1 0.97   2 0.97  51 2.23
   4  0.807  0.833  0.295-  88 1.93  56 1.93  54 1.93  53 1.99  55 1.99   7 3.04  21 3.04   5 3.04

   5  0.591  0.667  0.327-  52 1.93 119 1.93  55 1.93  57 1.93  56 1.99  58 1.99   6 3.04  36 3.04
                             4 3.04  10 3.07
   6  0.307  0.667  0.295- 124 1.93  60 1.93  58 1.93  52 1.99  59 1.99   5 3.04  39 3.04   7 3.04

   7  0.091  0.833  0.327-  91 1.93  53 1.93  59 1.93  61 1.93  60 1.99  54 1.99  22 3.04   6 3.04
                             4 3.04   8 3.07
   8  0.945  0.833  0.422-  62 1.93  96 1.93  64 1.93  54 1.97  63 1.98  61 1.98  11 3.00   9 3.04
                            25 3.04   7 3.07
   9  0.727  0.666  0.451-  57 1.90 127 1.93  63 1.94  65 1.95  66 1.99  64 1.99  10 3.01   8 3.04
                            40 3.05  14 3.09
  10  0.444  0.666  0.422-  66 1.93 132 1.93  68 1.93  58 1.96  67 1.98  57 1.99   9 3.01  11 3.04
                            43 3.05   5 3.07
  11  0.226  0.833  0.452-  61 1.90  99 1.94  67 1.94  69 1.96  62 1.97  68 1.99   8 3.00  10 3.04
                            26 3.04  12 3.09
  12  0.086  0.834  0.550-  70 1.93 104 1.93  72 1.93  71 1.97  69 1.99  62 1.99  15 2.95  13 3.04
                            29 3.04  11 3.09
  13  0.866  0.666  0.575-  65 1.87 135 1.93  71 1.94  74 1.95  73 1.99  72 1.99  14 2.98  12 3.04
                            44 3.05  18 3.15
  14  0.585  0.667  0.549- 140 1.93  76 1.93  74 1.93  66 1.97  75 1.97  65 2.00  13 2.98  15 3.04
                            47 3.05   9 3.09
  15  0.365  0.833  0.577-  69 1.87 107 1.94  75 1.94  70 1.95  77 1.98  76 2.00  12 2.95  30 3.04
                            14 3.04
  16  0.231  0.833  0.680-  78 1.86  80 1.93 112 1.94  79 2.00  70 2.08  77 2.08  19 2.85  33 3.06
                            17 3.08
  17  0.001  0.666  0.700-  73 1.78  81 1.84 143 1.96  79 1.98  80 2.05  18 2.86  16 3.08  48 3.09

[...]

  20  0.807  0.167  0.295-  88 1.93 120 1.93  86 1.93  85 1.99  87 1.99  23 3.04  21 3.04  37 3.04

[...]

  36  0.807  0.500  0.295-  56 1.93 120 1.93 118 1.93 117 1.99 119 1.99  39 3.04   5 3.04  37 3.04

  37  0.591  0.333  0.327- 116 1.93 119 1.93  87 1.93 121 1.93 120 1.99 122 1.99  38 3.04  36 3.04
                            20 3.04  42 3.07
  38  0.307  0.333  0.295- 124 1.93  92 1.93 122 1.93 116 1.99 123 1.99  37 3.04  39 3.04  23 3.04

  39  0.091  0.500  0.327-  59 1.93 123 1.93 117 1.93 125 1.93 124 1.99 118 1.99   6 3.04  38 3.04
                            36 3.04  40 3.05
  40  0.946  0.500  0.422- 126 1.93  64 1.93 128 1.93 118 1.97 125 1.97 127 1.99  43 3.00   9 3.05
                            41 3.05  39 3.05
  41  0.727  0.334  0.451- 121 1.90 127 1.93  95 1.94 129 1.95 130 1.99 128 1.99  42 3.01  24 3.04
                            40 3.05  46 3.09
  42  0.444  0.334  0.422- 130 1.93 132 1.93 100 1.93 122 1.96 131 1.98 121 1.99  41 3.01  27 3.04
                            43 3.05  37 3.07
  43  0.226  0.500  0.453- 125 1.93 131 1.94  67 1.94 126 1.96 133 1.96 132 2.00  40 3.00  42 3.05
                            10 3.05  44 3.06
  44  0.089  0.500  0.550- 134 1.92 136 1.93  72 1.93 133 1.97 135 2.00 126 2.00  47 2.97  45 3.05
                            13 3.05  43 3.06
  45  0.866  0.334  0.575- 129 1.87 135 1.93 103 1.94 138 1.95 137 1.99 136 1.99  46 2.98  28 3.04
                            44 3.05  50 3.15
  46  0.585  0.333  0.549- 140 1.93 108 1.93 138 1.93 130 1.97 139 1.97 129 2.00  45 2.98  31 3.04
                            47 3.05  41 3.09
  47  0.367  0.500  0.580- 133 1.93  75 1.94 139 1.94 134 1.94 141 1.97 140 2.01  44 2.97  14 3.05
                            46 3.05  48 3.12
  48  0.235  0.500  0.680- 142 1.86 144 1.93  80 1.93 143 2.02 141 2.03 134 2.08  51 2.88  17 3.09
                            49 3.09  47 3.12
  49  0.001  0.334  0.700- 137 1.78 145 1.84 143 1.96 111 1.98 144 2.05  50 2.86  32 3.08  48 3.09

  50  0.729  0.334  0.676- 145 1.89 147 1.92 115 1.94 146 1.99 138 2.02 137 2.08  49 2.86  35 3.07
                            51 3.07  45 3.15
  51  0.506  0.500  0.706- 142 1.82 141 1.88  82 1.97 146 1.97 147 2.09   3 2.23  48 2.88  50 3.07
                            18 3.07
  52  0.487  0.667  0.269-   5 1.93   6 1.99
  53  0.987  0.833  0.269-   7 1.93   4 1.99
  54  0.911  0.833  0.353-   4 1.93   8 1.97   7 1.99
  55  0.627  0.833  0.321-  21 1.93   5 1.93   4 1.99
  56  0.771  0.667  0.300-  36 1.93   4 1.93   5 1.99
  57  0.623  0.667  0.395-   9 1.90   5 1.93  10 1.99
  58  0.411  0.667  0.353-   6 1.93  10 1.96   5 1.99
  59  0.127  0.667  0.321-  39 1.93   7 1.93   6 1.99
  60  0.271  0.833  0.300-  22 1.93   6 1.93   7 1.99
  61  0.123  0.833  0.395-  11 1.90   7 1.93   8 1.98
  62  0.050  0.834  0.480-   8 1.93  11 1.97  12 1.99
  63  0.764  0.833  0.447-  25 1.94   9 1.94   8 1.98
  64  0.909  0.667  0.427-   8 1.93  40 1.93   9 1.99
  65  0.763  0.666  0.520-  13 1.87   9 1.95  14 2.00
  66  0.549  0.666  0.480-  10 1.93  14 1.97   9 1.99
  67  0.264  0.667  0.448-  43 1.94  11 1.94  10 1.98
  68  0.408  0.833  0.427-  10 1.93  26 1.93  11 1.99
  69  0.263  0.833  0.521-  15 1.87  11 1.96  12 1.99
  70  0.193  0.833  0.607-  12 1.93  15 1.95  16 2.08
  71  0.904  0.833  0.572-  29 1.94  13 1.94  12 1.97
  72  0.051  0.667  0.553-  44 1.93  12 1.93  13 1.99
  73  0.912  0.668  0.645-  17 1.78  13 1.99  18 2.08
  74  0.694  0.670  0.605-  14 1.93  13 1.95  18 2.02
  75  0.405  0.667  0.574-  47 1.94  15 1.94  14 1.97
  76  0.549  0.833  0.553-  30 1.93  14 1.93  15 2.00
  77  0.411  0.834  0.646-  19 1.79  15 1.98  16 2.08
  78  0.347  0.833  0.731-  19 1.83  16 1.86
  79  0.051  0.833  0.708-  33 1.98  17 1.98  16 2.00
  80  0.194  0.666  0.681-  16 1.93  48 1.93  17 2.05
  81  0.842  0.660  0.730-  17 1.84  18 1.89
  82  0.554  0.668  0.707-  19 1.96  51 1.97  18 1.99
  83  0.694  0.834  0.679-  34 1.93  18 1.94  19 2.04
  84  0.487  0.000  0.269-  21 1.93  22 1.99
  85  0.987  0.167  0.269-  23 1.93  20 1.99
  86  0.911  0.167  0.353-  20 1.93  24 1.97  23 1.99
  87  0.627  0.167  0.321-  21 1.93  37 1.93  20 1.99
  88  0.771  0.000  0.300-   4 1.93  20 1.93  21 1.99
  89  0.623  0.000  0.395-  25 1.90  21 1.93  26 1.99
  90  0.411  0.000  0.353-  22 1.93  26 1.97  21 1.99
  91  0.127  0.000  0.321-   7 1.93  23 1.93  22 1.99
  92  0.271  0.167  0.300-  22 1.93  38 1.93  23 1.99
  93  0.123  0.167  0.395-  27 1.90  23 1.93  24 1.98
  94  0.050  0.166  0.480-  24 1.93  27 1.97  28 1.99
  95  0.764  0.167  0.447-  25 1.94  41 1.94  24 1.98
  96  0.909  1.000  0.427-   8 1.93  24 1.93  25 1.99
  97  0.763  1.000  0.520-  29 1.87  25 1.95  30 2.00
  98  0.549  1.000  0.479-  26 1.92  25 1.98  30 1.98
  99  0.264  1.000  0.448-  11 1.94  27 1.94  26 1.98
 100  0.408  0.167  0.427-  42 1.93  26 1.93  27 1.99
 101  0.263  0.167  0.521-  31 1.87  27 1.96  28 1.99
 102  0.193  0.167  0.607-  28 1.93  31 1.95  32 2.08
 103  0.904  0.167  0.572-  29 1.94  45 1.94  28 1.97
 104  0.051  1.000  0.553-  28 1.93  12 1.93  29 2.01
 105  0.912  1.000  0.645-  33 1.79  29 1.99  34 2.07
 106  0.693  1.000  0.606-  30 1.93  29 1.95  34 2.07
 107  0.404  1.000  0.574-  31 1.94  15 1.94  30 1.98
 108  0.549  0.167  0.553-  30 1.93  46 1.93  31 2.00
 109  0.411  0.166  0.646-  35 1.79  31 1.98  32 2.08
 110  0.347  0.167  0.731-  35 1.83  32 1.86
 111  0.051  0.167  0.708-  33 1.98  49 1.98  32 2.00
[...]
 133  0.265  0.500  0.522-  47 1.93  43 1.96  44 1.97
 134  0.193  0.500  0.607-  44 1.92  47 1.94  48 2.08
 135  0.905  0.500  0.573-  45 1.93  13 1.93  44 2.00
 136  0.051  0.333  0.553-  44 1.93  28 1.93  45 1.99
 137  0.912  0.332  0.645-  49 1.78  45 1.99  50 2.08
 138  0.694  0.330  0.605-  46 1.93  45 1.95  50 2.02
 139  0.405  0.333  0.574-  47 1.94  31 1.94  46 1.97
 140  0.550  0.500  0.554-  14 1.93  46 1.93  47 2.01
 141  0.413  0.500  0.648-  51 1.88  47 1.97  48 2.03
 142  0.345  0.500  0.733-  51 1.82  48 1.86
 143  0.052  0.500  0.707-  17 1.96  49 1.96  48 2.02
 144  0.194  0.334  0.681-  32 1.93  48 1.93  49 2.05
 145  0.842  0.340  0.730-  49 1.84  50 1.89
 146  0.554  0.332  0.707-  35 1.96  51 1.97  50 1.99
 147  0.691  0.500  0.675-  18 1.92  50 1.92  51 2.09

IMPORTANT INFORMATION: All symmetrisations will be switched off!
NOSYMM: (Re-)initialisation of all symmetry stuff for point group C_1.

                                     Primitive cell

  volume of cell :    3249.0644

  direct lattice vectors                    reciprocal lattice vectors
    10.255507753  0.000000000  0.000000000     0.097508580 -0.000000000  0.000000000
[...]
   6.43372108  9.46309174  8.96548189
   7.90926774  7.57047339  8.37949260
   6.39321924  7.57047339 11.01797039
   4.21912029  7.57047339  9.84497449
   1.30596721  7.57047339  8.96548189
   2.78151387  9.46309174  8.37949260
[...]
   2.71600795  5.67785493 14.55631337
   1.98390654  5.67785531 16.94635729
   9.27789691  5.67785504 15.98841206
   0.52244421  3.78707299 15.42841166
   9.35709831  3.76974321 17.98526906
   7.11808850  3.75243766 16.88274173
   4.15173683  3.78692881 16.02032498
   5.64377345  5.67785529 15.45351458
   4.23111097  5.67785412 18.08913682
   3.54029566  5.67785348 20.45361566
   0.52854606  5.67785599 19.73656038
   1.98576698  3.78983980 18.99900012
   8.63008742  3.85810458 20.36065747
   5.68594388  3.76587905 19.73139838
   7.08891743  5.67785687 18.82668010

--------------------------------------- Iteration      FINAL  ---------------------------------------

--------------------OUTCAR has been truncated-------------------------

[...]

--------------------OUTCAR has been truncated-------------------------

  FORCE on cell =-STRESS in cart. coord.  units (eV):
  Direction    XX          YY          ZZ          XY          YZ          ZX
  Alpha Z  2451.44277  2451.44277  2451.44277
  Ewald  490158.03591483422.22296************     0.01257     0.00176 -1968.23520
  Hartree511315.52100507208.99486************     0.00328     0.00040 -1306.73489
  E(xc)   -5199.24857 -5205.29948 -5215.87289    -0.00001     0.00002    -2.07671
  Local  ************************************    -0.01202    -0.00214  3284.13278
  n-local -3247.68971 -3220.16217 -3261.49331    -0.00069     0.00005     0.96703
  augment  3138.35898  3131.58769  3124.30227     0.00000    -0.00001    -2.08988
  Kinetic 17200.32472 17244.77346 17324.06465    -0.00001    -0.00039   -19.70502
  Fock        0.00000     0.00000     0.00000     0.00000     0.00000     0.00000
  vdW       -70.07009   -72.84511   -62.34272    -0.00001    -0.00000    -0.63697
  Total     -23.95592    -4.63902    -0.93011     0.00311    -0.00031   -14.37886
  in kB     -11.81313    -2.28759    -0.45865     0.00153    -0.00015    -7.09050

 VOLUME and BASIS-vectors are now :
  energy-cutoff  :      600.00
  volume of cell :     3249.06
      direct lattice vectors                 reciprocal lattice vectors
    10.255507753  0.000000000  0.000000000     0.097508580 -0.000000000  0.000000000
     0.000000000 11.355710084  0.000000000     0.000000000  0.088061424  0.000000000
     0.000000000  0.000000000 27.898885647     0.000000000  0.000000000  0.035843726

  length of vectors
    10.255507753 11.355710084 27.898885647     0.097508580  0.088061424  0.035843726

 FORCES acting on ions:
    Electron-Ion                     Ewald-Force                    Non-Local-Force
   -.517E+02 -.664E+02 -.364E+03   0.570E+02 0.734E+02 0.364E+03   -.508E+01 -.675E+01 0.134E+00
   -.517E+02 0.664E+02 -.364E+03   0.570E+02 -.733E+02 0.364E+03   -.508E+01 0.675E+01 0.134E+00
   0.977E+01 0.945E-02 -.220E+04   -.508E+02 -.174E-01 0.221E+04   0.408E+02 0.255E-02 -.909E+01
   0.622E+01 -.753E-01 0.339E+04   -.130E+01 0.771E-01 -.338E+04   -.111E+01 -.479E-03 -.347E+01
   0.443E+01 -.193E+00 0.279E+04   -.596E+01 0.195E+00 -.279E+04   -.925E-01 -.803E-03 -.189E-01
   0.632E+01 0.145E+00 0.339E+04   -.144E+01 -.148E+00 -.338E+04   -.111E+01 0.116E-02 -.347E+01
   0.296E+01 0.955E-01 0.279E+04   -.454E+01 -.102E+00 -.279E+04   -.838E-01 0.140E-02 -.231E-01
   0.216E+00 -.143E+00 0.127E+04   -.353E+00 0.143E+00 -.127E+04   0.149E+00 -.441E-03 0.205E-01
   0.204E+01 -.209E+01 0.808E+03   -.200E+01 0.207E+01 -.808E+03   -.489E-01 0.238E-01 -.143E+00
   0.236E+01 -.438E-01 0.127E+04   -.249E+01 0.388E-01 -.127E+04   0.137E+00 0.633E-02 -.501E-02
   -.432E+01 0.245E+00 0.797E+03   0.434E+01 -.242E+00 -.797E+03   -.285E-01 0.630E-03 -.133E+00
   -.675E+01 -.245E+01 -.782E+03   0.650E+01 0.244E+01 0.782E+03   0.279E+00 0.333E-02 0.152E+00
   -.107E+02 -.423E+01 -.117E+04   0.108E+02 0.427E+01 0.117E+04   -.909E-01 -.468E-01 -.245E+00
   0.290E+01 -.238E+01 -.748E+03   -.311E+01 0.238E+01 0.748E+03   0.230E+00 0.310E-02 0.955E-01
   0.354E+01 -.260E+01 -.121E+04   -.345E+01 0.261E+01 0.121E+04   -.105E+00 -.850E-02 -.283E+00
   0.296E+02 -.125E+02 -.280E+04   -.306E+02 0.125E+02 0.280E+04   0.948E+00 0.128E-01 -.106E+00
   -.878E+02 -.292E+02 -.320E+04   0.880E+02 0.290E+02 0.320E+04   -.363E-01 0.189E+00 0.869E+00
   -.111E+02 -.557E+02 -.270E+04   0.103E+02 0.558E+02 0.270E+04   0.771E+00 -.424E-01 0.121E-01
   -.553E+02 -.360E+02 -.319E+04   0.555E+02 0.360E+02 0.319E+04   0.726E-02 0.937E-02 0.900E+00
   0.622E+01 0.753E-01 0.339E+04   -.130E+01 -.771E-01 -.338E+04   -.111E+01 0.435E-03 -.347E+01
   0.430E+01 -.375E-04 0.279E+04   -.586E+01 -.988E-05 -.279E+04   -.857E-01 -.608E-06 -.251E-01
   0.618E+01 -.316E-04 0.339E+04   -.127E+01 -.976E-05 -.338E+04   -.111E+01 0.578E-05 -.347E+01
   0.296E+01 -.953E-01 0.279E+04   -.454E+01 0.102E+00 -.279E+04   -.838E-01 -.139E-02 -.232E-01
   0.216E+00 0.143E+00 0.127E+04   -.353E+00 -.143E+00 -.127E+04   0.149E+00 0.434E-03 0.205E-01
   -.748E+00 -.680E-04 0.803E+03   0.758E+00 0.684E-04 -.803E+03   -.158E-01 0.236E-05 -.141E+00
   0.242E+01 -.571E-04 0.127E+04   -.256E+01 0.284E-04 -.127E+04   0.139E+00 -.557E-05 0.231E-02
   -.432E+01 -.245E+00 0.797E+03   0.434E+01 0.242E+00 -.797E+03   -.285E-01 -.630E-03 -.133E+00
   -.675E+01 0.245E+01 -.782E+03   0.650E+01 -.244E+01 0.782E+03   0.279E+00 -.332E-02 0.152E+00
   -.692E+01 -.405E-03 -.120E+04   0.699E+01 0.396E-03 0.120E+04   -.692E-01 0.692E-05 -.263E+00
   -.163E+01 -.236E-03 -.771E+03   0.139E+01 0.240E-03 0.770E+03   0.262E+00 0.103E-04 0.169E+00
   0.354E+01 0.260E+01 -.121E+04   -.345E+01 -.261E+01 0.121E+04   -.105E+00 0.849E-02 -.283E+00
   0.296E+02 0.125E+02 -.280E+04   -.306E+02 -.125E+02 0.280E+04   0.948E+00 -.128E-01 -.106E+00
   -.742E+02 0.380E-03 -.321E+04   0.745E+02 -.372E-03 0.321E+04   -.508E-01 0.730E-05 0.866E+00
   0.117E+02 -.310E-03 -.279E+04   -.126E+02 0.258E-03 0.279E+04   0.877E+00 0.145E-04 -.533E-01
   -.553E+02 0.360E+02 -.319E+04   0.555E+02 -.360E+02 0.319E+04   0.727E-02 -.938E-02 0.900E+00
   0.619E+01 -.719E-05 0.339E+04   -.126E+01 -.477E-07 -.338E+04   -.111E+01 0.237E-04 -.347E+01
   0.443E+01 0.193E+00 0.279E+04   -.596E+01 -.195E+00 -.279E+04   -.925E-01 0.808E-03 -.189E-01
   0.632E+01 -.145E+00 0.339E+04   -.144E+01 0.148E+00 -.338E+04   -.111E+01 -.117E-02 -.347E+01
   0.202E+01 -.914E-04 0.279E+04   -.356E+01 0.673E-05 -.279E+04   -.996E-01 -.258E-04 -.221E-01
   0.343E+00 0.106E-03 0.127E+04   -.465E+00 -.149E-03 -.127E+04   0.138E+00 0.703E-05 0.601E-01
   0.204E+01 0.209E+01 0.808E+03   -.200E+01 -.207E+01 -.808E+03   -.489E-01 -.238E-01 -.143E+00
   0.236E+01 0.440E-01 0.127E+04   -.249E+01 -.390E-01 -.127E+04   0.137E+00 -.631E-02 -.500E-02
   -.669E+01 -.780E-05 0.779E+03   0.672E+01 0.645E-07 -.779E+03   -.416E-01 0.854E-05 -.395E-01
   -.446E+01 0.162E-03 -.785E+03   0.427E+01 -.159E-03 0.785E+03   0.206E+00 -.294E-05 0.167E+00
   -.107E+02 0.423E+01 -.117E+04   0.108E+02 -.427E+01 0.117E+04   -.909E-01 0.467E-01 -.245E+00
   0.290E+01 0.238E+01 -.748E+03   -.311E+01 -.238E+01 0.748E+03   0.230E+00 -.310E-02 0.955E-01
   0.315E+01 0.310E-03 -.125E+04   -.307E+01 -.324E-03 0.125E+04   -.101E+00 0.403E-06 -.142E+00
   0.442E+02 0.663E-04 -.280E+04   -.450E+02 -.207E-04 0.280E+04   0.732E+00 -.473E-05 -.152E-01
   -.878E+02 0.292E+02 -.320E+04   0.880E+02 -.290E+02 0.320E+04   -.364E-01 -.189E+00 0.869E+00
   -.111E+02 0.557E+02 -.270E+04   0.103E+02 -.558E+02 0.270E+04   0.771E+00 0.424E-01 0.121E-01
   0.400E+02 0.339E-02 -.315E+04   -.395E+02 -.330E-02 0.315E+04   -.472E+00 -.606E-04 0.472E+00
   -.334E+02 -.271E-01 0.229E+04   0.383E+02 0.275E-01 -.230E+04   -.663E+01 -.316E-03 0.171E+02
   -.337E+02 -.254E-01 0.229E+04   0.386E+02 0.240E-01 -.230E+04   -.662E+01 0.184E-02 0.170E+02
   0.834E+02 0.583E-01 0.139E+04   -.884E+02 -.629E-01 -.139E+04   0.390E+01 0.255E-02 -.436E+01
   0.759E+02 -.635E-01 0.169E+04   -.830E+02 0.660E-01 -.169E+04   0.736E+01 -.523E-02 -.271E+01
   -.876E+02 -.888E-01 0.195E+04   0.949E+02 0.877E-01 -.195E+04   -.693E+01 0.157E-02 -.147E+00
   -.724E+02 -.889E+00 0.106E+04   0.783E+02 0.931E+00 -.107E+04   -.589E+01 -.369E-01 0.406E+01
   0.841E+02 0.112E+00 0.139E+04   -.891E+02 -.972E-01 -.139E+04   0.387E+01 -.173E-01 -.418E+01
   0.750E+02 0.122E+00 0.169E+04   -.822E+02 -.130E+00 -.169E+04   0.738E+01 0.194E-01 -.273E+01
   -.877E+02 0.343E-01 0.195E+04   0.950E+02 -.327E-01 -.195E+04   -.690E+01 -.568E-02 -.152E+00
[...]
   0.896E+02 0.129E-03 -.108E+04   -.968E+02 -.116E-03 0.109E+04   0.709E+01 -.297E-04 -.689E+01
   0.704E+02 0.212E-03 -.716E+03   -.766E+02 -.205E-03 0.719E+03   0.606E+01 -.330E-04 -.305E+01
   -.852E+02 0.887E+00 -.462E+03   0.919E+02 -.929E+00 0.459E+03   -.650E+01 0.437E-01 0.271E+01
   -.739E+02 0.157E+02 -.129E+04   0.766E+02 -.163E+02 0.128E+04   -.257E+01 0.649E+00 0.924E+01
   0.822E+02 0.167E+02 -.104E+04   -.888E+02 -.174E+02 0.104E+04   0.643E+01 0.758E+00 -.524E+01
   0.833E+02 0.140E+01 -.730E+03   -.899E+02 -.146E+01 0.733E+03   0.650E+01 0.635E-01 -.306E+01
   -.745E+02 0.250E-03 -.466E+03   0.809E+02 -.256E-03 0.464E+03   -.621E+01 0.831E-05 0.216E+01
   -.571E+02 0.477E-03 -.132E+04   0.628E+02 -.489E-03 0.131E+04   -.549E+01 0.684E-05 0.619E+01
   0.112E+03 0.649E-03 -.228E+04   -.118E+03 -.653E-03 0.231E+04   0.619E+01 0.334E-05 -.206E+02
   0.424E+02 0.388E-03 -.201E+04   -.462E+02 -.392E-03 0.202E+04   0.375E+01 -.362E-04 -.706E+01
   -.537E+02 0.810E+01 -.167E+04   0.588E+02 -.800E+01 0.167E+04   -.501E+01 -.972E-01 0.272E+01
   0.322E+01 0.379E+02 -.227E+04   -.828E+01 -.376E+02 0.229E+04   0.501E+01 -.358E+00 -.188E+02
   0.853E+02 0.574E+02 -.197E+04   -.903E+02 -.574E+02 0.197E+04   0.483E+01 0.845E-02 -.662E+01
   -.595E+02 0.172E-02 -.152E+04   0.632E+02 -.177E-02 0.152E+04   -.352E+01 -.492E-04 0.533E+01
   -.374E+02 0.330E-03 0.731E+02   0.384E-12 -.192E-11 0.318E-11   0.374E+02 -.369E-03 -.732E+02

 POSITION                                       TOTAL-FORCE (eV/Angst)
      7.05869      6.44528     21.51717         0.179416      0.200759      0.005188
      7.05874      4.91038     21.51716         0.175417     -0.195521      0.005318
      6.45801      5.67790     21.53853        -0.235533     -0.005363      0.238530
      8.27879      9.46309      8.23274         3.844737      0.001289      1.636024
      6.06419      7.57047      9.11223        -1.622399      0.001373     -1.814305
      3.15104      7.57047      8.23274         3.809976     -0.002512      1.614780
      0.93644      9.46309      9.11223        -1.661883     -0.004928     -1.815027
      9.69021      9.46414     11.78484         0.013235      0.001913      0.061297
      7.45582      7.56632     12.59079        -0.018368     -0.003767     -0.040341
      4.55442      7.56832     11.78033         0.009247     -0.000995      0.052175
      2.31804      9.46274     12.60483        -0.032558      0.003663     -0.035982
      0.88536      9.46557     15.33951         0.011846      0.003509      0.056543
      8.88249      7.56675     16.05066        -0.066045     -0.013031     -0.105491
      5.99444      7.56883     15.31026         0.001998      0.002078      0.031876
      3.74178      9.46331     16.08886        -0.077809      0.004073     -0.099100
      2.37142      9.45552     18.96692        -0.028477     -0.003000     -0.032088
      0.00867      7.55877     19.52216        -0.101971      0.013448     -0.081413
      7.47658      7.55965     18.86513        -0.029223     -0.011398     -0.034551
      5.16775      9.47305     19.52626        -0.058876     -0.005943     -0.090148
      8.27879      1.89262      8.23274         3.844737     -0.001381      1.636242
      6.06419      0.00000      9.11223        -1.644356     -0.000048     -1.812620
      3.15104      0.00000      8.23274         3.834429     -0.000036      1.628804
      0.93644      1.89262      9.11223        -1.661968      0.005064     -1.815245
      9.69021      1.89157     11.78484         0.013227     -0.001904      0.061258
      7.44970     11.35571     12.59589        -0.029072      0.000003     -0.040431
      4.55731     11.35571     11.78391         0.009658     -0.000034      0.063178
      2.31804      1.89297     12.60483        -0.032567     -0.003682     -0.035998
      0.88536      1.89013     15.33951         0.011877     -0.003462      0.056548
      8.86914     11.35571     16.06715        -0.078765     -0.000002     -0.097772
      6.00055     11.35571     15.32574         0.010127      0.000015      0.053883
      3.74178      1.89240     16.08886        -0.077847     -0.004086     -0.099133
      2.37142      1.90019     18.96692        -0.028560      0.003049     -0.031982
      0.03296      0.00000     19.52054        -0.059456      0.000017     -0.090549
      7.50887      0.00000     18.93569        -0.030174     -0.000036     -0.028995
      5.16775      1.88266     19.52626        -0.058943      0.005875     -0.090163
      8.27879      5.67786      8.23274         3.855286      0.000017      1.631231
      6.06419      3.78524      9.11223        -1.622302     -0.001369     -1.814344
      3.15104      3.78524      8.23274         3.810104      0.002486      1.614834
      0.93644      5.67786      9.11223        -1.633008     -0.000111     -1.743051
      9.70375      5.67786     11.78023         0.029244     -0.000035      0.058432
      7.45582      3.78939     12.59079        -0.018365      0.003798     -0.040324
      4.55442      3.78739     11.78033         0.009283      0.001028      0.052235
      2.32218      5.67785     12.63414        -0.035840      0.000001     -0.013519
      0.91328      5.67785     15.34668         0.030669     -0.000000      0.049344
      8.88249      3.78896     16.05066        -0.066040      0.013052     -0.105520
      5.99445      3.78688     15.31026         0.002009     -0.002075      0.031858
      3.76345      5.67786     16.17407        -0.066592     -0.000013     -0.046530
      2.40609      5.67785     18.98145        -0.007478      0.000039     -0.034289
      0.00867      3.79694     19.52216        -0.101923     -0.013490     -0.081702
      7.47658      3.79606     18.86513        -0.029301      0.011479     -0.034699
      5.19267      5.67786     19.69976        -0.150712      0.000036     -0.166177
      4.99611      7.57047      7.50000        -1.715528      0.000051      0.857137
     10.12387      9.46309      7.50000        -1.710263      0.000414      0.850822
      9.34687      9.46309      9.84497        -1.108813     -0.002187     -0.136790
      6.43372      9.46309      8.96548         0.244583     -0.002720     -0.013650
      7.90927      7.57047      8.37949         0.377326      0.000426     -1.104609
      6.39322      7.57047     11.01797         0.026936      0.005639      0.357075
      4.21912      7.57047      9.84497        -1.115382     -0.001988     -0.128243
      1.30597      7.57047      8.96548         0.257584      0.011726     -0.022525
      2.78151      9.46309      8.37949         0.389709     -0.004174     -1.107447
[...]
      2.71601      5.67785     14.55631         0.103002     -0.000015     -0.034018
      1.98391      5.67786     16.94636        -0.099756     -0.000016     -0.004992
      9.27790      5.67786     15.98841        -0.102323     -0.000026      0.034100
      0.52244      3.78707     15.42841         0.105137      0.000839     -0.032461
      9.35710      3.76974     17.98527         0.165794     -0.002567      0.027433
      7.11809      3.75244     16.88274        -0.084326     -0.008024      0.006850
      4.15174      3.78693     16.02032        -0.091316      0.005194      0.036606
      5.64377      5.67786     15.45351         0.109307      0.000002     -0.042445
      4.23111      5.67785     18.08914         0.146606     -0.000005     -0.014087
      3.54030      5.67785     20.45362        -0.065805      0.000000      0.241108
      0.52855      5.67786     19.73656        -0.078293     -0.000039      0.086265
      1.98577      3.78984     18.99900         0.136907      0.003036     -0.063902
      8.63009      3.85810     20.36066        -0.060938      0.005914      0.232165
      5.68594      3.76588     19.73140        -0.081316      0.014305      0.062975
      7.08892      5.67786     18.82668         0.113228     -0.000102     -0.092242
    total drift:                                0.009427     -0.000038     -0.095339

  FREE ENERGIE OF THE ION-ELECTRON SYSTEM (eV)
  free  energy   TOTEN  =     -1289.42485536 eV

  energy  without entropy=    -1289.42485536  energy(sigma->0) =    -1289.42485536