 vasp.6.3.0 20Jan22 (build Mar 11 2022 13:48:16) complex

 executed on             LinuxIFC date 2023.12.26  18:08:52

 INCAR:
   SYSTEM = MgO-rocksalt
   ISMEAR = 0
   SIGMA = 0.05
   EDIFF = 1E-7
   ALGO = ALL
   ISTART = 0
   IBRION = -1
   NSW = 0
   ISYM = 2
   ISIF = 2
   EDIFFG = -0.01
   DIPOL = 0.5 0.5 0.5
   IDIPOL = 3
   LDIPOL = .TRUE.
   LHFCALC = .TRUE.
   GGA = B5
   AEXX = 0.2
   AGGAX = 0.72
   AGGAC = 0.81
   ALDAC = 0.19
   IVDW = 1
   VDW_S6 = 1.05
   VDW_C6 = 1.75 0.70 0.63 0.70
   VDW_R0 = 1.452 1.342 1.243 1.342
   ENCUT = 600
   PREC = Accurate
   LASPH = .TRUE.
   LREAL = .FALSE.
   ISPIN = 1
   NELM = 200
   NELMIN = 8
   NCORE = 8
   KPAR = 1
   LWAVE = .FALSE.
   LCHARG = .FALSE.

 POTCAR:    PAW_PBE C 08Apr2002
 POTCAR:    PAW_PBE O 08Apr2002
 POTCAR:    PAW_PBE Mg_pv 13Apr2007
 POTCAR:    PAW_PBE O 08Apr2002
|           W    W    AA    RRRRR   N    N  II  N    N   GGGG   !!!           |
|           W    W   A  A   R    R  NN   N  II  NN   N  G    G  !!!           |
|           W    W  A    A  R    R  N N  N  II  N N  N  G       !!!           |
|           W WW W  AAAAAA  RRRRR   N  N N  II  N  N N  G  GGG   !            |
|           WW  WW  A    A  R   R   N   NN  II  N   NN  G    G                |
|           W    W  A    A  R    R  N    N  II  N    N   GGGG   !!!           |
|     For optimal performance we recommend to set                             |
|       NCORE = 2 up to number-of-cores-per-socket                            |
|     This setting can greatly improve the performance of VASP for DFT.       |
|     The default, NCORE=1 might be grossly inefficient on modern             |
|     multi-core architectures or massively parallel machines. Do your        |
|     Unfortunately you need to use the default for GW and RPA                |
|     calculations (for HF NCORE is supported but not extensively tested      |
|     yet).                                                                   |

   TITEL  = PAW_PBE C 08Apr2002
   POMASS =   12.011; ZVAL   =    4.000    mass and valenz
   ENMAX  =  400.000; ENMIN  =  300.000 eV

[...]

   TITEL  = PAW_PBE Mg_pv 13Apr2007
   POMASS =   24.305; ZVAL   =    8.000    mass and valenz
   ENMAX  =  403.929; ENMIN  =  302.947 eV

   TITEL  = PAW_PBE O 08Apr2002
   POMASS =   16.000; ZVAL   =    6.000    mass and valenz
   ENMAX  =  400.000; ENMIN  =  300.000 eV

  PAW_PBE C 08Apr2002                   :
  PAW_PBE O 08Apr2002                   :
  PAW_PBE Mg_pv 13Apr2007               :
  PAW_PBE O 08Apr2002                   :

 POSCAR:  C  O Mg  O
  positions in direct lattice
  velocities in cartesian coordinates
 exchange correlation table for  LEXCH =       12
   RHO(1)=    0.500       N(1)  =     2000
   RHO(2)=  100.500       N(2)  =     4000

 ion  position               nearest neighbor table
   1  0.500  0.500  0.768-   2 1.13
   2  0.500  0.500  0.821-   1 1.13
   3  0.250  0.000  0.352-  37 2.10  38 2.10  45 2.10  54 2.10  35 2.10
   4  0.500  0.250  0.352-  37 2.10  38 2.10  46 2.10  53 2.10  36 2.10
   5  0.250  0.250  0.451-  35 2.10  36 2.10  43 2.10  52 2.10  37 2.10  41 2.11
   6  0.500  0.000  0.451-  35 2.10  36 2.10  44 2.10  51 2.10  38 2.10  42 2.11
   7  0.250  0.000  0.550-  42 2.10  41 2.10  49 2.10  58 2.10  35 2.11  39 2.13
   8  0.500  0.251  0.550-  50 2.10  41 2.10  57 2.10  42 2.11  36 2.12  40 2.13
   9  0.250  0.250  0.647-  41 2.09  39 2.10  56 2.10  47 2.10  40 2.10
  10  0.500  0.000  0.648-  42 2.09  40 2.09  48 2.09  39 2.10  55 2.10
  11  0.250  0.500  0.352-  37 2.10  45 2.10  46 2.10  62 2.10  43 2.10
  12  0.500  0.750  0.352-  38 2.10  45 2.10  46 2.10  61 2.10  44 2.10
  13  0.250  0.750  0.451-  35 2.10  43 2.10  44 2.10  60 2.10  45 2.10  49 2.11
  14  0.500  0.500  0.451-  36 2.10  43 2.10  44 2.10  59 2.10  46 2.10  50 2.12
  15  0.251  0.500  0.550-  50 2.10  49 2.10  41 2.10  66 2.11  43 2.12  47 2.13
  16  0.500  0.749  0.550-  50 2.10  49 2.10  65 2.10  42 2.11  44 2.12  48 2.13
  17  0.250  0.750  0.647-  49 2.09  39 2.10  64 2.10  47 2.10  48 2.10
  18  0.500  0.500  0.650-  40 2.11  47 2.11  48 2.11  63 2.11  50 2.13
  19  0.750  0.000  0.352-  38 2.10  53 2.10  54 2.10  61 2.10  51 2.10
  20  0.000  0.250  0.352-  37 2.10  53 2.10  54 2.10  62 2.10  52 2.10
  21  0.750  0.250  0.451-  36 2.10  51 2.10  52 2.10  59 2.10  53 2.10  57 2.11
  22  0.000  0.000  0.451-  35 2.10  51 2.10  52 2.10  60 2.10  54 2.10  58 2.11
  23  0.750  0.000  0.550-  42 2.10  57 2.10  65 2.10  58 2.10  51 2.11  55 2.13
  24  0.000  0.250  0.550-  66 2.10  57 2.10  41 2.10  58 2.10  52 2.11  56 2.13
  25  0.750  0.250  0.647-  57 2.09  56 2.10  55 2.10  40 2.10  63 2.10
  26  0.000  0.000  0.648-  58 2.09  55 2.10  56 2.10  39 2.10  64 2.10
  27  0.750  0.500  0.352-  46 2.10  53 2.10  61 2.10  62 2.10  59 2.10
  28  0.000  0.750  0.352-  45 2.10  54 2.10  61 2.10  62 2.10  60 2.10
  29  0.750  0.750  0.451-  44 2.10  51 2.10  59 2.10  60 2.10  61 2.10  65 2.11
  30  0.000  0.500  0.451-  43 2.10  52 2.10  59 2.10  60 2.10  62 2.10  66 2.11
  31  0.749  0.500  0.550-  50 2.10  57 2.10  65 2.10  66 2.11  59 2.12  63 2.13
  32  0.000  0.750  0.550-  66 2.10  65 2.10  49 2.10  58 2.10  60 2.11  64 2.13
  33  0.750  0.750  0.647-  65 2.09  64 2.10  55 2.10  48 2.10  63 2.10
  34  0.000  0.500  0.648-  66 2.09  63 2.09  47 2.09  64 2.10  56 2.10
  35  0.250  0.000  0.451-   5 2.10   6 2.10  13 2.10  22 2.10   3 2.10   7 2.11
  36  0.500  0.250  0.451-   5 2.10   6 2.10  14 2.10  21 2.10   4 2.10   8 2.12
  37  0.250  0.250  0.352-   3 2.10   4 2.10  11 2.10  20 2.10   5 2.10
  38  0.500  0.000  0.352-   3 2.10   4 2.10  12 2.10  19 2.10   6 2.10
  39  0.250  0.000  0.650-  26 2.10  17 2.10   9 2.10  10 2.10   7 2.13
  40  0.500  0.249  0.650-  10 2.09   9 2.10  25 2.10  18 2.11   8 2.13
  41  0.250  0.250  0.550-   9 2.09   7 2.10  24 2.10  15 2.10   8 2.10   5 2.11
  42  0.500  0.000  0.549-  10 2.09   7 2.10  23 2.10   6 2.11  16 2.11   8 2.11
  43  0.250  0.500  0.451-   5 2.10  13 2.10  14 2.10  30 2.10  11 2.10  15 2.12
  44  0.500  0.750  0.451-   6 2.10  13 2.10  14 2.10  29 2.10  12 2.10  16 2.12
  45  0.250  0.750  0.352-   3 2.10  11 2.10  12 2.10  28 2.10  13 2.10
  46  0.500  0.500  0.352-   4 2.10  11 2.10  12 2.10  27 2.10  14 2.10
  47  0.249  0.500  0.650-  34 2.09  17 2.10   9 2.10  18 2.11  15 2.13
  48  0.500  0.751  0.650-  10 2.09  17 2.10  33 2.10  18 2.11  16 2.13
  49  0.250  0.750  0.550-  17 2.09   7 2.10  32 2.10  15 2.10  16 2.10  13 2.11
  50  0.500  0.500  0.550-   8 2.10  15 2.10  16 2.10  31 2.10  14 2.12  18 2.13
  51  0.750  0.000  0.451-   6 2.10  21 2.10  22 2.10  29 2.10  19 2.10  23 2.11
  52  0.000  0.250  0.451-   5 2.10  21 2.10  22 2.10  30 2.10  20 2.10  24 2.11
  53  0.750  0.250  0.352-   4 2.10  19 2.10  20 2.10  27 2.10  21 2.10
  54  0.000  0.000  0.352-   3 2.10  19 2.10  20 2.10  28 2.10  22 2.10
  55  0.750  0.000  0.650-  26 2.10  25 2.10  33 2.10  10 2.10  23 2.13
  56  0.000  0.250  0.650-  26 2.10  25 2.10   9 2.10  34 2.10  24 2.13
  57  0.750  0.250  0.550-  25 2.09  24 2.10  23 2.10   8 2.10  31 2.10  21 2.11
  58  0.000  0.000  0.550-  26 2.09  23 2.10  24 2.10   7 2.10  32 2.10  22 2.11
  59  0.750  0.500  0.451-  14 2.10  21 2.10  29 2.10  30 2.10  27 2.10  31 2.12
  60  0.000  0.750  0.451-  13 2.10  22 2.10  29 2.10  30 2.10  28 2.10  32 2.11
  61  0.750  0.750  0.352-  12 2.10  19 2.10  27 2.10  28 2.10  29 2.10
  62  0.000  0.500  0.352-  11 2.10  20 2.10  27 2.10  28 2.10  30 2.10
  63  0.751  0.500  0.650-  34 2.09  33 2.10  25 2.10  18 2.11  31 2.13
  64  0.000  0.750  0.650-  26 2.10  17 2.10  33 2.10  34 2.10  32 2.13
  65  0.750  0.750  0.550-  33 2.09  32 2.10  23 2.10  16 2.10  31 2.10  29 2.11
  66  0.000  0.500  0.549-  34 2.09  32 2.10  24 2.10  30 2.11  15 2.11  31 2.11

  LATTYP: Found a simple tetragonal cell.
 ALAT       =     8.4048619950
 C/A-ratio  =     2.5346812963

  Lattice vectors:

 A1 = (   8.4048619950,   0.0000000000,   0.0000000000)
 A2 = (   0.0000000000,   8.4048619950,   0.0000000000)
 A3 = (   0.0000000000,   0.0000000000,  21.3036464962)

Analysis of symmetry for initial positions (statically):
 Subroutine PRICEL returns:
 Original cell was already a primitive cell.

 Routine SETGRP: Setting up the symmetry group for a
 simple tetragonal supercell.

 Subroutine GETGRP returns: Found  8 space group operations
 (whereof  8 operations were pure point group operations)
 out of a pool of 16 trial point group operations.

The static configuration has the point symmetry C_4v.

Analysis of symmetry for dynamics (positions and initial velocities):
 Subroutine PRICEL returns:
 Original cell was already a primitive cell.

[...]

The dynamic configuration has the point symmetry C_4v.

Analysis of constrained symmetry for selective dynamics:
 Subroutine PRICEL returns:
 Original cell was already a primitive cell.

 Routine SETGRP: Setting up the symmetry group for a
 simple tetragonal supercell.

 Subroutine GETGRP returns: Found  8 space group operations
 (whereof  8 operations were pure point group operations)
 out of a pool of 16 trial point group operations.

The constrained configuration has the point symmetry C_4v.

 Subroutine INISYM returns: Found  8 space group operations
 (whereof  8 operations are pure point group operations),
 and found     1 'primitive' translations

                                     Primitive cell

  volume of cell :    1504.9259

  direct lattice vectors                    reciprocal lattice vectors
     8.404861995  0.000000000  0.000000000     0.118978753  0.000000000  0.000000000
     0.000000000  8.404861995  0.000000000     0.000000000  0.118978753  0.000000000
     0.000000000  0.000000000 21.303646496     0.000000000  0.000000000  0.046940321

  length of vectors
     8.404861995  8.404861995 21.303646496     0.118978753  0.118978753  0.046940321

  position of ions in fractional coordinates (direct lattice)
     0.500000000  0.500000000  0.767731706
     0.500000000  0.500000000  0.820774347
     0.250000000  0.000000000  0.352052406
     0.500000000  0.250000000  0.352052406
     0.250000000  0.250000000  0.450684135
     0.500000000  0.000000000  0.450684135
     0.250107473  0.000000000  0.549739955
     0.500000000  0.250518132  0.550013704
     0.249743486  0.249743486  0.647447924
     0.500000000  0.000000000  0.647579443
     0.250000000  0.500000000  0.352052406
     0.500000000  0.750000000  0.352052406
     0.250000000  0.750000000  0.450684135
     0.500000000  0.500000000  0.450684135
     0.250518132  0.500000000  0.550013704
     0.500000000  0.749481868  0.550013704
     0.249743486  0.750256514  0.647447924
     0.500000000  0.500000000  0.650192045
     0.750000000  0.000000000  0.352052406
     0.000000000  0.250000000  0.352052406
     0.750000000  0.250000000  0.450684135
     0.000000000  0.000000000  0.450684135
     0.749892527  0.000000000  0.549739955
     0.000000000  0.250107473  0.549739955
     0.750256514  0.249743486  0.647447924
     0.000000000  0.000000000  0.647677188
     0.750000000  0.500000000  0.352052406
     0.000000000  0.750000000  0.352052406
     0.750000000  0.750000000  0.450684135
[...]
   4.20243100  4.20243100 13.85146147
   6.30364650  0.00000000  7.50000000
   0.00000000  2.10121550  7.50000000
   6.30364650  2.10121550  9.60121550
   0.00000000  0.00000000  9.60121550
   6.30274320  0.00000000 11.71146566
   0.00000000  2.10211880 11.71146566
   6.30580246  2.09905953 13.79300169
   0.00000000  0.00000000 13.79788585
   6.30364650  4.20243100  7.50000000
   0.00000000  6.30364650  7.50000000
   6.30364650  6.30364650  9.60121550
   0.00000000  4.20243100  9.60121550
   6.29929167  4.20243100 11.71729751
   0.00000000  6.30274320 11.71146566
   6.30580246  6.30580246 13.79300169
   0.00000000  4.20243100 13.79580352
   2.10121550  0.00000000  9.60121550
   4.20243100  2.10121550  9.60121550
   2.10121550  2.10121550  7.50000000
   4.20243100  0.00000000  7.50000000
   2.09905446  0.00000000 13.84324249
   4.20243100  2.09184713 13.84558474
   2.10089647  2.10089647 11.70745629
   4.20243100  0.00000000 11.70631278
   2.10121550  4.20243100  9.60121550
   4.20243100  6.30364650  9.60121550
   2.10121550  6.30364650  7.50000000
   4.20243100  4.20243100  7.50000000
   2.09184713  4.20243100 13.84558474
   4.20243100  6.31301486 13.84558474
   2.10089647  6.30396552 11.70745629
   4.20243100  4.20243100 11.71715660
   6.30364650  0.00000000  9.60121550
   0.00000000  2.10121550  9.60121550
   6.30364650  2.10121550  7.50000000
   0.00000000  0.00000000  7.50000000
   6.30580754  0.00000000 13.84324249
   0.00000000  2.09905446 13.84324249
   6.30396552  2.10089647 11.70745629
   0.00000000  0.00000000 11.70673204
   6.30364650  4.20243100  9.60121550
   0.00000000  6.30364650  9.60121550
   6.30364650  6.30364650  7.50000000
   0.00000000  4.20243100  7.50000000
   6.31301486  4.20243100 13.84558474
   0.00000000  6.30580754 13.84324249
   6.30396552  6.30396552 11.70745629
   0.00000000  4.20243100 11.70631278

--------------------------------------- Iteration      FINAL  ---------------------------------------

--------------------OUTCAR has been truncated-------------------------

[...]

--------------------OUTCAR has been truncated-------------------------

  DFT-D2 method for vdW energy calculation

  Parameters of vdW forcefield:
         C6(Jnm^6/mol)     R0(A)
   C        1.750          1.452
   O        0.700          1.342
   Mg       0.630          1.243
   O        0.700          1.342

  vdW correction parametrized for the method           

  IVDW =   1
  VDW_RADIUS =    50.000 A
  VDW_S6 =     1.050
  VDW_SR =     1.000
  VDW_D =    20.000
  LVDW_EWALD = F

  Number of pair interactions contributing to vdW energy:  776614
  Edisp (eV):   -5.27028

  FORCE on cell =-STRESS in cart. coord.  units (eV):
  Direction    XX          YY          ZZ          XY          YZ          ZX
  Alpha Z   916.95003   916.95003   916.95003
  Ewald  159730.93811159730.93811************    -0.00000    -0.00000     0.00000
  Hartree170179.48190170179.48190************    -0.00000    -0.00000    -0.00000
  E(xc)   -2038.11089 -2038.11089 -2040.12521    -0.00000    -0.00000     0.00000
  Local  ************************339583.20286    -0.00000     0.00000    -0.00000
  n-local -1184.47029 -1184.89421 -1216.41604     0.00000     0.00000     0.00000
  augment   902.87658   902.87658   892.03527    -0.00000     0.00000     0.00000
  Kinetic  7532.30330  7534.07715  7552.78482     0.00002    -0.00000    -0.00001
  Fock    -2009.07513 -2009.17966 -2008.43862    -0.00000     0.00000     0.00000
  vdW        -7.67555    -7.67555    -6.34539     0.00000    -0.00000    -0.00000
  Total     -30.51418   -30.51418    -2.53764     0.00000    -0.00000     0.00000
  in kB     -32.48607   -32.48607    -2.70163     0.00000    -0.00000     0.00000

 VOLUME and BASIS-vectors are now :
  energy-cutoff  :      600.00
  volume of cell :     1504.93
      direct lattice vectors                 reciprocal lattice vectors
     8.404861995  0.000000000  0.000000000     0.118978753  0.000000000  0.000000000
     0.000000000  8.404861995  0.000000000     0.000000000  0.118978753  0.000000000
     0.000000000  0.000000000 21.303646496     0.000000000  0.000000000  0.046940321

  length of vectors
     8.404861995  8.404861995 21.303646496     0.118978753  0.118978753  0.046940321

 FORCES acting on ions:
    Electron-Ion                     Ewald-Force                    Non-Local-Force
   0.975E-13 0.243E-12 -.827E+03   -.891E-14 -.450E-15 0.799E+03   0.108E-22 -.392E-22 0.268E+02
   0.453E-12 0.812E-12 -.145E+04   0.540E-14 -.851E-15 0.151E+04   0.458E-23 -.340E-23 -.560E+02
   0.787E-01 -.111E-11 0.210E+04   -.762E-01 -.279E-13 -.209E+04   -.158E-02 -.949E-22 -.641E+01
   0.642E-12 0.754E-01 0.210E+04   0.170E-13 -.711E-01 -.209E+04   -.568E-23 -.291E-02 -.642E+01
   0.230E+00 0.230E+00 0.723E+03   -.208E+00 -.208E+00 -.724E+03   -.134E-01 -.134E-01 0.419E+00
   0.591E-12 0.233E-12 0.723E+03   0.615E-13 -.425E-13 -.723E+03   0.140E-22 0.208E-22 0.366E+00
   0.253E+01 -.551E-12 -.648E+03   -.251E+01 0.904E-14 0.648E+03   -.260E-01 0.992E-23 -.157E+00
   0.601E-12 0.366E+01 -.644E+03   -.180E-12 -.353E+01 0.644E+03   0.333E-23 -.126E+00 -.290E+00
   0.170E+02 0.170E+02 -.201E+04   -.171E+02 -.171E+02 0.200E+04   0.923E-01 0.923E-01 0.556E+01
   0.695E-12 0.273E-11 -.201E+04   -.125E-12 -.247E-13 0.201E+04   0.145E-24 0.196E-22 0.548E+01
   0.754E-01 -.636E-12 0.210E+04   -.711E-01 -.973E-13 -.209E+04   -.291E-02 0.269E-22 -.642E+01
   0.655E-12 -.754E-01 0.210E+04   0.191E-13 0.711E-01 -.209E+04   -.311E-22 0.291E-02 -.642E+01
   0.230E+00 -.230E+00 0.723E+03   -.208E+00 0.208E+00 -.724E+03   -.134E-01 0.134E-01 0.419E+00
   0.645E-12 0.487E-12 0.723E+03   -.145E-11 -.157E-11 -.723E+03   -.522E-24 0.715E-24 0.499E+00
   0.366E+01 0.173E-12 -.644E+03   -.353E+01 0.155E-10 0.644E+03   -.126E+00 0.496E-23 -.290E+00
   0.617E-12 -.366E+01 -.644E+03   0.137E-11 0.353E+01 0.644E+03   0.260E-23 0.126E+00 -.290E+00
   0.170E+02 -.170E+02 -.201E+04   -.171E+02 0.171E+02 0.200E+04   0.923E-01 -.923E-01 0.556E+01
   0.694E-12 -.139E-12 -.195E+04   -.120E-10 -.710E-13 0.195E+04   -.488E-23 0.336E-25 0.410E+01
   -.787E-01 -.118E-11 0.210E+04   0.762E-01 -.443E-13 -.209E+04   0.158E-02 -.690E-22 -.641E+01
   -.580E-13 0.787E-01 0.210E+04   0.316E-13 -.762E-01 -.209E+04   -.309E-22 -.158E-02 -.641E+01
   -.230E+00 0.230E+00 0.723E+03   0.208E+00 -.208E+00 -.724E+03   0.134E-01 -.134E-01 0.419E+00
   -.616E-13 -.720E-12 0.722E+03   0.313E-11 -.451E-13 -.723E+03   0.136E-22 0.411E-22 0.396E+00
   -.253E+01 -.565E-12 -.648E+03   0.251E+01 0.282E-15 0.648E+03   0.260E-01 0.926E-23 -.157E+00
   -.556E-13 0.253E+01 -.648E+03   0.628E-13 -.251E+01 0.648E+03   0.790E-23 -.260E-01 -.157E+00
   -.170E+02 0.170E+02 -.201E+04   0.171E+02 -.171E+02 0.200E+04   -.923E-01 0.923E-01 0.556E+01
   -.516E-13 -.203E-12 -.203E+04   -.103E-12 -.586E-13 0.202E+04   0.131E-22 -.758E-24 0.550E+01
   -.754E-01 0.108E-11 0.210E+04   0.711E-01 -.809E-13 -.209E+04   0.291E-02 -.257E-22 -.642E+01
   -.655E-13 -.787E-01 0.210E+04   -.552E-14 0.762E-01 -.209E+04   0.273E-22 0.158E-02 -.641E+01
   -.230E+00 -.230E+00 0.723E+03   0.208E+00 0.208E+00 -.724E+03   0.134E-01 0.134E-01 0.419E+00
   -.658E-13 -.227E-12 0.723E+03   0.146E-11 -.159E-11 -.723E+03   -.962E-24 -.392E-23 0.366E+00
   -.366E+01 0.255E-11 -.644E+03   0.353E+01 0.155E-10 0.644E+03   0.126E+00 0.170E-22 -.290E+00
   -.628E-13 -.253E+01 -.648E+03   0.850E-13 0.251E+01 0.648E+03   -.151E-22 0.260E-01 -.157E+00
   -.170E+02 -.170E+02 -.201E+04   0.171E+02 0.171E+02 0.200E+04   -.923E-01 -.923E-01 0.556E+01
   -.531E-13 0.906E-12 -.201E+04   -.110E-12 -.354E-13 0.201E+04   -.229E-23 0.209E-23 0.548E+01
   0.257E+00 0.469E-12 0.542E+03   -.249E+00 -.838E-14 -.542E+03   -.100E-01 0.389E-23 -.652E-01
   0.272E-12 0.253E+00 0.542E+03   -.112E-12 -.280E+00 -.542E+03   -.165E-22 0.320E-01 -.119E+00
   0.561E-01 0.561E-01 0.158E+04   -.527E-01 -.527E-01 -.158E+04   -.413E-02 -.413E-02 0.312E+01
   0.311E-12 -.162E-12 0.158E+04   0.102E-13 -.219E-13 -.158E+04   0.287E-23 -.126E-22 0.312E+01
   0.692E+01 -.879E-12 -.154E+04   -.685E+01 0.765E-13 0.154E+04   -.641E-01 -.348E-23 -.456E+01
   0.337E-12 0.223E+02 -.151E+04   -.528E-13 -.220E+02 0.152E+04   -.974E-22 -.263E+00 -.454E+01
   0.219E+01 0.219E+01 -.478E+03   -.218E+01 -.218E+01 0.477E+03   -.804E-02 -.804E-02 0.382E+00
   0.284E-12 -.419E-12 -.478E+03   0.866E-11 -.849E-11 0.478E+03   0.132E-23 -.149E-23 0.320E+00
   0.253E+00 0.832E-12 0.542E+03   -.280E+00 -.444E-14 -.542E+03   0.320E-01 0.646E-23 -.119E+00
   0.282E-12 -.253E+00 0.542E+03   -.117E-12 0.280E+00 -.542E+03   0.124E-23 -.320E-01 -.119E+00
   0.561E-01 -.561E-01 0.158E+04   -.527E-01 0.527E-01 -.158E+04   -.413E-02 0.413E-02 0.312E+01
   0.297E-12 0.141E-11 0.158E+04   -.231E-13 0.302E-13 -.158E+04   -.684E-23 0.164E-22 0.311E+01
   0.223E+02 0.893E-12 -.151E+04   -.220E+02 -.270E-14 0.152E+04   -.263E+00 0.200E-22 -.454E+01
   0.352E-12 -.223E+02 -.151E+04   -.515E-14 0.220E+02 0.152E+04   0.558E-22 0.263E+00 -.454E+01
   0.219E+01 -.219E+01 -.478E+03   -.218E+01 0.218E+01 0.477E+03   -.804E-02 0.804E-02 0.382E+00
   0.280E-12 0.122E-12 -.480E+03   -.327E-14 -.497E-13 0.481E+03   0.296E-22 0.494E-22 -.243E+00
   -.257E+00 0.454E-12 0.542E+03   0.249E+00 0.381E-15 -.542E+03   0.100E-01 -.150E-22 -.652E-01
   -.369E-13 0.257E+00 0.542E+03   -.141E-13 -.249E+00 -.542E+03   -.129E-22 -.100E-01 -.652E-01
   -.561E-01 0.561E-01 0.158E+04   0.527E-01 -.527E-01 -.158E+04   0.413E-02 -.413E-02 0.312E+01
   -.486E-13 0.433E-12 0.158E+04   0.563E-15 0.344E-13 -.158E+04   0.108E-23 -.306E-23 0.312E+01
   -.692E+01 -.812E-12 -.154E+04   0.685E+01 0.639E-13 0.154E+04   0.641E-01 0.250E-22 -.456E+01
   -.313E-13 0.692E+01 -.154E+04   0.902E-13 -.685E+01 0.154E+04   -.556E-22 -.641E-01 -.456E+01
   -.219E+01 0.219E+01 -.478E+03   0.218E+01 -.218E+01 0.477E+03   0.804E-02 -.804E-02 0.382E+00
   -.255E-13 0.267E-12 -.483E+03   0.113E-15 0.377E-13 0.483E+03   0.220E-23 -.178E-23 0.266E+00
   -.253E+00 0.729E-11 0.542E+03   0.280E+00 0.639E-13 -.542E+03   -.320E-01 -.208E-22 -.119E+00
   -.460E-13 -.257E+00 0.542E+03   -.139E-13 0.249E+00 -.542E+03   -.141E-23 0.100E-01 -.652E-01
   -.561E-01 -.561E-01 0.158E+04   0.527E-01 0.527E-01 -.158E+04   0.413E-02 0.413E-02 0.312E+01
   -.349E-13 0.744E-12 0.158E+04   0.240E-13 0.843E-13 -.158E+04   -.375E-23 -.130E-22 0.312E+01
   -.223E+02 -.222E-11 -.151E+04   0.220E+02 0.356E-13 0.152E+04   0.263E+00 0.581E-23 -.454E+01
   -.479E-13 -.692E+01 -.154E+04   -.284E-13 0.685E+01 0.154E+04   0.388E-22 0.641E-01 -.456E+01
   -.219E+01 -.219E+01 -.478E+03   0.218E+01 0.218E+01 0.477E+03   0.804E-02 0.804E-02 0.382E+00
   -.455E-13 0.739E-12 -.478E+03   -.638E-13 0.187E-15 0.478E+03   0.586E-23 -.168E-23 0.320E+00
   0.282E-10 0.170E-10 0.541E+02   0.245E-12 -.467E-12 0.193E-11   0.586E-23 -.954E-16 -.462E+02

 POSITION                                       TOTAL-FORCE (eV/Angst)
      4.20243      4.20243     16.35548        -0.000000     -0.000000     -0.004039
      4.20243      4.20243     17.48549        -0.000000     -0.000000      0.015125
      2.10122      0.00000      7.50000         0.000688     -0.000000      0.404083
      4.20243      2.10122      7.50000        -0.000000      0.001083      0.406481
      2.10122      2.10122      9.60122         0.006341      0.006341      0.033726
      4.20243      0.00000      9.60122        -0.000000     -0.000000      0.044832
      2.10212      0.00000     11.71147        -0.001022     -0.000000     -0.001253
      4.20243      2.10557     11.71730        -0.000000     -0.001470     -0.001823
      2.09906      2.09906     13.79300        -0.000073     -0.000073     -0.000142
      4.20243      0.00000     13.79580        -0.000000     -0.000000     -0.001330
      2.10122      4.20243      7.50000         0.001083     -0.000000      0.406481
      4.20243      6.30365      7.50000        -0.000000     -0.001083      0.406481
      2.10122      6.30365      9.60122         0.006341     -0.006341      0.033726
      4.20243      4.20243      9.60122        -0.000000     -0.000000      0.052506
      2.10557      4.20243     11.71730        -0.001470     -0.000000     -0.001823
      4.20243      6.29929     11.71730        -0.000000      0.001470     -0.001823
      2.09906      6.30580     13.79300        -0.000073      0.000073     -0.000142
      4.20243      4.20243     13.85146        -0.000000     -0.000000     -0.000460
      6.30365      0.00000      7.50000        -0.000688     -0.000000      0.404083
      0.00000      2.10122      7.50000        -0.000000      0.000688      0.404083
      6.30365      2.10122      9.60122        -0.006341      0.006341      0.033726
      0.00000      0.00000      9.60122        -0.000000     -0.000000      0.030673
      6.30274      0.00000     11.71147         0.001022     -0.000000     -0.001253
      0.00000      2.10212     11.71147        -0.000000     -0.001022     -0.001253
      6.30580      2.09906     13.79300         0.000073     -0.000073     -0.000142
      0.00000      0.00000     13.79789        -0.000000     -0.000000     -0.004988
      6.30365      4.20243      7.50000        -0.001083     -0.000000      0.406481
      0.00000      6.30365      7.50000        -0.000000     -0.000688      0.404083
      6.30365      6.30365      9.60122        -0.006341     -0.006341      0.033726
      0.00000      4.20243      9.60122        -0.000000     -0.000000      0.044832
      6.29929      4.20243     11.71730         0.001470     -0.000000     -0.001823
      0.00000      6.30274     11.71147        -0.000000      0.001022     -0.001253
      6.30580      6.30580     13.79300         0.000073      0.000073     -0.000142
      0.00000      4.20243     13.79580        -0.000000     -0.000000     -0.001330
      2.10122      0.00000      9.60122        -0.003537     -0.000000      0.047906
      4.20243      2.10122      9.60122        -0.000000      0.009493      0.059635
      2.10122      2.10122      7.50000        -0.001375     -0.001375     -0.494246
      4.20243      0.00000      7.50000        -0.000000     -0.000000     -0.494305
      2.09905      0.00000     13.84324         0.000681     -0.000000     -0.001095
      4.20243      2.09185     13.84558        -0.000000      0.001009     -0.001573
      2.10090      2.10090     11.70746         0.001460      0.001460      0.000489
      4.20243      0.00000     11.70631        -0.000000     -0.000000     -0.000344
      2.10122      4.20243      9.60122         0.009493     -0.000000      0.059635
      4.20243      6.30365      9.60122        -0.000000     -0.009493      0.059635
      2.10122      6.30365      7.50000        -0.001375      0.001375     -0.494246
      4.20243      4.20243      7.50000        -0.000000     -0.000000     -0.496135
      2.09185      4.20243     13.84558         0.001009     -0.000000     -0.001573
      4.20243      6.31301     13.84558        -0.000000     -0.001009     -0.001573
      2.10090      6.30397     11.70746         0.001460     -0.001460      0.000489
      4.20243      4.20243     11.71716        -0.000000     -0.000000     -0.001727
      6.30365      0.00000      9.60122         0.003537     -0.000000      0.047906
      0.00000      2.10122      9.60122        -0.000000     -0.003537      0.047906
      6.30365      2.10122      7.50000         0.001375     -0.001375     -0.494246
      0.00000      0.00000      7.50000        -0.000000     -0.000000     -0.492930
      6.30581      0.00000     13.84324        -0.000681     -0.000000     -0.001095
      0.00000      2.09905     13.84324        -0.000000      0.000681     -0.001095
      6.30397      2.10090     11.70746        -0.001460      0.001460      0.000489
      0.00000      0.00000     11.70673        -0.000000     -0.000000     -0.004482
      6.30365      4.20243      9.60122        -0.009493     -0.000000      0.059635
      0.00000      6.30365      9.60122        -0.000000      0.003537      0.047906
      6.30365      6.30365      7.50000         0.001375      0.001375     -0.494246
      0.00000      4.20243      7.50000        -0.000000     -0.000000     -0.494305
      6.31301      4.20243     13.84558        -0.001009     -0.000000     -0.001573
      0.00000      6.30581     13.84324        -0.000000     -0.000681     -0.001095
      6.30397      6.30397     11.70746        -0.001460     -0.001460      0.000489
      0.00000      4.20243     11.70631        -0.000000     -0.000000     -0.000344
    total drift:                                0.000000      0.000000     -0.000722

  FREE ENERGIE OF THE ION-ELECTRON SYSTEM (eV)
  free  energy   TOTEN  =      -456.94495825 eV

  energy  without entropy=     -456.94495825  energy(sigma->0) =     -456.94495825