 vasp.6.3.0 20Jan22 (build Apr  1 2022 16:44:48) gamma-only
 executed on        HPECrayEX_GCC date 2023.02.22  13:24:37

 INCAR:
   SYSTEM = MgO-rocksalt
   ISMEAR = 0
   SIGMA = 0.05
   EDIFF = 1E-6
   ALGO = ALL
   ISTART = 0
   NSW = 0
   ISYM = 1
   ISIF = 2
   EDIFFG = -0.01
   DIPOL = 0.5 0.5 0.5
   IDIPOL = 3
   LDIPOL = .TRUE.
   GGA = RE
   IVDW = 13
   VDW_S8 = 1.7468
   VDW_A1 = 0.5363
   VDW_A2 = 3.0726
   ENCUT = 520
   PREC = Accurate
   LASPH = .TRUE.
   LREAL = Auto
   ISPIN = 1
   NELM = 200
   NELMIN = 8
   NCORE = 8
   KPAR = 1
   LWAVE = .FALSE.
   LCHARG = .FALSE.

 POTCAR:    PAW_PBE Mg_pv 13Apr2007
 POTCAR:    PAW_PBE O 08Apr2002
 POTCAR:    PAW_PBE Mg_pv 13Apr2007
   VRHFIN =Mg: p6s2

   TITEL  = PAW_PBE Mg_pv 13Apr2007
   POMASS =   24.305; ZVAL   =    8.000    mass and valenz
   ENMAX  =  403.929; ENMIN  =  302.947 eV

   TITEL  = PAW_PBE O 08Apr2002
   POMASS =   16.000; ZVAL   =    6.000    mass and valenz
   ENMAX  =  400.000; ENMIN  =  300.000 eV

 Optimization of the real space projectors (new method)

 maximal supplied QI-value         = 18.90
 optimisation between [QCUT,QGAM] = [ 11.53, 23.24] = [ 37.21,151.29] Ry
 Optimized for a Real-space Cutoff    1.28 Angstroem

   l    n(q)    QCUT    max X(q) W(low)/X(q) W(high)/X(q)  e(spline)
   1      8    11.527     2.974    0.44E-04    0.56E-04    0.12E-06
   1      8    11.527     4.279    0.12E-03    0.12E-03    0.26E-06
   0      9    11.527    16.381    0.46E-04    0.64E-04    0.78E-07
   0      9    11.527     5.611    0.26E-04    0.43E-04    0.55E-07
   2      8    11.527     4.652    0.22E-03    0.72E-04    0.47E-07
 Optimization of the real space projectors (new method)

 maximal supplied QI-value         = 24.76
 optimisation between [QCUT,QGAM] = [ 11.64, 23.27] = [ 37.91,151.63] Ry
 Optimized for a Real-space Cutoff    1.14 Angstroem

   l    n(q)    QCUT    max X(q) W(low)/X(q) W(high)/X(q)  e(spline)
   0      8    11.635    20.381    0.10E-03    0.33E-03    0.24E-06
   0      8    11.635    15.268    0.11E-03    0.35E-03    0.26E-06
   1      7    11.635     5.964    0.24E-03    0.31E-03    0.30E-06
   1      7    11.635     5.382    0.22E-03    0.25E-03    0.26E-06
|               ----> ADVICE to this user running VASP <----                  |
|     You enforced a specific xc type in the INCAR file but a different       |
|     type was found in the POTCAR file.                                      |
|     I HOPE YOU KNOW WHAT YOU ARE DOING!                                     |

  PAW_PBE Mg_pv 13Apr2007               :
  PAW_PBE O 08Apr2002                   :

 POSCAR: Mg  O
  positions in direct lattice
  velocities in cartesian coordinates
|           W    W    AA    RRRRR   N    N  II  N    N   GGGG   !!!           |
|           W    W   A  A   R    R  NN   N  II  NN   N  G    G  !!!           |
|           W    W  A    A  R    R  N N  N  II  N N  N  G       !!!           |
|           W WW W  AAAAAA  RRRRR   N  N N  II  N  N N  G  GGG   !            |
|           WW  WW  A    A  R   R   N   NN  II  N   NN  G    G                |
|           W    W  A    A  R    R  N    N  II  N    N   GGGG   !!!           |
|     Specifying the vdW parameters                                           |
|     VDW_S8 = 1.747                                                          |
|     VDW_A1 = 0.536                                                          |
|     VDW_A2 = 3.073                                                          |
|     in the INCAR file will overwrite the defaults for revpbe. Please        |
|     make sure that is what you intended.                                    |

 ion  position               nearest neighbor table
   1  0.000  0.375  0.352- 129 2.11 132 2.11 139 2.11 163 2.11 212 2.11
   2  0.125  0.000  0.352- 130 2.11 131 2.11 140 2.11 147 2.11 164 2.11
   3  0.000  0.000  0.451- 135 2.11 131 2.11 130 2.11 137 2.11 161 2.11 210 2.11
   4  0.125  0.375  0.451- 136 2.11 132 2.11 129 2.11 138 2.11 145 2.11 162 2.11
   5  0.000  0.375  0.550- 136 2.11 143 2.11 167 2.11 216 2.11 129 2.12 133 2.14
   6  0.125  0.000  0.550- 135 2.11 144 2.11 151 2.11 168 2.11 130 2.12 134 2.14
   7  0.000  0.000  0.648- 135 2.10 134 2.11 141 2.11 165 2.11 214 2.11
   8  0.125  0.375  0.648- 136 2.10 133 2.11 142 2.11 149 2.11 166 2.11
   9  0.000  0.125  0.352- 137 2.11 131 2.11 139 2.11 140 2.11 220 2.11
  10  0.125  0.250  0.352- 138 2.11 132 2.11 139 2.11 140 2.11 155 2.11
  11  0.000  0.250  0.451- 143 2.11 139 2.11 138 2.11 129 2.11 137 2.11 218 2.11
  12  0.125  0.125  0.451- 144 2.11 140 2.11 138 2.11 130 2.11 137 2.11 153 2.11
  13  0.000  0.125  0.550- 135 2.11 143 2.11 144 2.11 224 2.11 137 2.12 141 2.14
  14  0.125  0.250  0.550- 136 2.11 143 2.11 144 2.11 159 2.11 138 2.12 142 2.14
  15  0.000  0.250  0.648- 143 2.10 141 2.11 142 2.11 133 2.11 222 2.11
  16  0.125  0.125  0.648- 144 2.10 141 2.11 142 2.11 134 2.11 157 2.11
  17  0.250  0.375  0.352- 145 2.11 132 2.11 148 2.11 155 2.11 179 2.11
  18  0.375  0.000  0.352- 146 2.11 147 2.11 156 2.11 180 2.11 195 2.11
  19  0.250  0.000  0.451- 151 2.11 147 2.11 130 2.11 146 2.11 153 2.11 177 2.11
  20  0.375  0.375  0.451- 152 2.11 148 2.11 145 2.11 154 2.11 178 2.11 193 2.11
  21  0.250  0.375  0.550- 136 2.11 152 2.11 159 2.11 183 2.11 145 2.12 149 2.14
  22  0.375  0.000  0.550- 151 2.11 160 2.11 184 2.11 199 2.11 146 2.12 150 2.14
  23  0.250  0.000  0.648- 151 2.10 150 2.11 134 2.11 157 2.11 181 2.11
  24  0.375  0.375  0.648- 152 2.10 149 2.11 158 2.11 182 2.11 197 2.11
  25  0.250  0.125  0.352- 153 2.11 147 2.11 140 2.11 155 2.11 156 2.11
  26  0.375  0.250  0.352- 154 2.11 148 2.11 155 2.11 156 2.11 203 2.11
  27  0.250  0.250  0.451- 159 2.11 155 2.11 153 2.11 154 2.11 138 2.11 145 2.11
  28  0.375  0.125  0.451- 160 2.11 156 2.11 154 2.11 146 2.11 153 2.11 201 2.11
  29  0.250  0.125  0.550- 144 2.11 151 2.11 159 2.11 160 2.11 153 2.12 157 2.14
  30  0.375  0.250  0.550- 152 2.11 159 2.11 160 2.11 207 2.11 154 2.12 158 2.14
  31  0.250  0.250  0.648- 159 2.10 149 2.11 157 2.11 158 2.11 142 2.11
  32  0.375  0.125  0.648- 160 2.10 157 2.11 158 2.11 150 2.11 205 2.11
  33  0.000  0.875  0.352- 161 2.11 131 2.11 164 2.11 171 2.11 244 2.11
  34  0.125  0.500  0.352- 162 2.11 132 2.11 163 2.11 172 2.11 179 2.11
  35  0.000  0.500  0.451- 167 2.11 163 2.11 129 2.11 162 2.11 169 2.11 242 2.11
  36  0.125  0.875  0.451- 168 2.11 164 2.11 130 2.11 161 2.11 170 2.11 177 2.11
  37  0.000  0.875  0.550- 135 2.11 168 2.11 175 2.11 248 2.11 161 2.12 165 2.14
  38  0.125  0.500  0.550- 136 2.11 167 2.11 176 2.11 183 2.11 162 2.12 166 2.14
  39  0.000  0.500  0.648- 167 2.10 166 2.11 133 2.11 173 2.11 246 2.11
  40  0.125  0.875  0.648- 168 2.10 165 2.11 134 2.11 174 2.11 181 2.11
  41  0.000  0.625  0.352- 169 2.11 163 2.11 171 2.11 172 2.11 252 2.11
  42  0.125  0.750  0.352- 170 2.11 164 2.11 171 2.11 172 2.11 187 2.11
  43  0.000  0.750  0.451- 175 2.11 171 2.11 170 2.11 161 2.11 169 2.11 250 2.11
  44  0.125  0.625  0.451- 176 2.11 172 2.11 170 2.11 162 2.11 169 2.11 185 2.11
  45  0.000  0.625  0.550- 167 2.11 175 2.11 176 2.11 256 2.11 169 2.12 173 2.14
  46  0.125  0.750  0.550- 168 2.11 175 2.11 176 2.11 191 2.11 170 2.12 174 2.14
  47  0.000  0.750  0.648- 175 2.10 173 2.11 174 2.11 165 2.11 254 2.11
  48  0.125  0.625  0.648- 176 2.10 173 2.11 174 2.11 166 2.11 189 2.11
  49  0.250  0.875  0.352- 177 2.11 164 2.11 147 2.11 180 2.11 187 2.11
  50  0.375  0.500  0.352- 178 2.11 148 2.11 179 2.11 188 2.11 227 2.11
  51  0.250  0.500  0.451- 183 2.11 179 2.11 178 2.11 145 2.11 162 2.11 185 2.11
  52  0.375  0.875  0.451- 184 2.11 180 2.11 146 2.11 177 2.11 186 2.11 225 2.11
  53  0.250  0.875  0.550- 151 2.11 168 2.11 184 2.11 191 2.11 177 2.12 181 2.14
  54  0.375  0.500  0.550- 152 2.11 183 2.11 192 2.11 231 2.11 178 2.12 182 2.14
  55  0.250  0.500  0.648- 183 2.10 166 2.11 182 2.11 149 2.11 189 2.11
  56  0.375  0.875  0.648- 184 2.10 181 2.11 150 2.11 190 2.11 229 2.11
  57  0.250  0.625  0.352- 185 2.11 179 2.11 172 2.11 187 2.11 188 2.11
  58  0.375  0.750  0.352- 186 2.11 180 2.11 187 2.11 188 2.11 235 2.11
  59  0.250  0.750  0.451- 191 2.11 187 2.11 185 2.11 186 2.11 170 2.11 177 2.11
  60  0.375  0.625  0.451- 192 2.11 188 2.11 186 2.11 178 2.11 185 2.11 233 2.11
[...]
 242  0.875  0.500  0.451- 114 2.11  84 2.11  35 2.11 115 2.11 124 2.11 118 2.12
 243  0.750  0.500  0.352- 115 2.11  98 2.11 114 2.11  81 2.11 121 2.11
 244  0.875  0.875  0.352- 116 2.11  82 2.11 113 2.11  33 2.11 122 2.11
 245  0.750  0.875  0.650-  87 2.11 104 2.11 120 2.11 127 2.11 117 2.14
 246  0.875  0.500  0.650-  39 2.11  88 2.11 119 2.11 128 2.11 118 2.14
 247  0.750  0.500  0.549- 119 2.10 115 2.11  85 2.11 118 2.11 102 2.11 125 2.11
 248  0.875  0.875  0.549- 120 2.10 116 2.11  37 2.11 117 2.11  86 2.11 126 2.11
 249  0.750  0.625  0.451- 121 2.11 115 2.11 108 2.11 123 2.11 124 2.11 125 2.12
 250  0.875  0.750  0.451- 122 2.11 116 2.11  43 2.11 123 2.11 124 2.11 126 2.12
 251  0.750  0.750  0.352- 123 2.11 113 2.11 121 2.11 122 2.11 106 2.11
 252  0.875  0.625  0.352- 124 2.11 114 2.11 121 2.11 122 2.11  41 2.11
 253  0.750  0.625  0.650- 112 2.11 119 2.11 127 2.11 128 2.11 125 2.14
 254  0.875  0.750  0.650-  47 2.11 120 2.11 127 2.11 128 2.11 126 2.14
 255  0.750  0.750  0.549- 127 2.10 123 2.11 110 2.11 125 2.11 126 2.11 117 2.11
 256  0.875  0.625  0.549- 128 2.10 124 2.11  45 2.11 125 2.11 126 2.11 118 2.11

  LATTYP: Found a simple tetragonal cell.
 ALAT       =    16.8819693083
 C/A-ratio  =     1.2635219328

  Lattice vectors:

 A1 = (  16.8819693083,   0.0000000000,   0.0000000000)
 A2 = (   0.0000000000,  16.8819693083,   0.0000000000)
 A3 = (   0.0000000000,   0.0000000000,  21.3307384906)

Analysis of symmetry for initial positions (statically):
 Subroutine PRICEL returns following result:

[...]

  32 primitive cells build up your supercell.

 Routine SETGRP: Setting up the symmetry group for a
 simple tetragonal supercell.

 Subroutine GETGRP returns: Found  8 space group operations
 (whereof  8 operations were pure point group operations)
 out of a pool of 16 trial point group operations.

The static configuration has the point symmetry C_4v.

Analysis of symmetry for dynamics (positions and initial velocities):
 Subroutine PRICEL returns following result:

[...]

The dynamic configuration has the point symmetry C_4v.

Analysis of constrained symmetry for selective dynamics:
 Subroutine PRICEL returns following result:

  LATTYP: Found a simple tetragonal cell.
 ALAT       =     2.9843387444
 C/A-ratio  =     7.1475594151

  Lattice vectors:

 A1 = (   2.1102461635,  -2.1102461635,   0.0000000000)
 A2 = (   2.1102461635,   2.1102461635,   0.0000000000)
 A3 = (   0.0000000000,   0.0000000000,  21.3307384906)

  32 primitive cells build up your supercell.

 Routine SETGRP: Setting up the symmetry group for a
 simple tetragonal supercell.

 Subroutine GETGRP returns: Found  8 space group operations
 (whereof  8 operations were pure point group operations)
 out of a pool of 16 trial point group operations.

The constrained configuration has the point symmetry C_4v.

 Subroutine INISYM returns: Found  8 space group operations
[...]
   4.22049233  8.44098465 13.81986239
   6.33073849 14.77172314 13.81986239
   4.22049233 10.55123082  7.50000000
   6.33073849 12.66147698  7.50000000
   4.22049233 12.66147698  9.61024616
   6.33073849 10.55123082  9.61024616
[...]
  14.77172314  8.44098465  9.61024616
  12.66147698  8.44098465  7.50000000
  14.77172314 14.77172314  7.50000000
  12.66147698 14.77172314 13.86772204
  14.77172314  8.44098465 13.86772204
  12.66147698  8.44098465 11.71920212
  14.77172314 14.77172314 11.71920212
  12.66147698 10.55123082  9.61024616
  14.77172314 12.66147698  9.61024616
  12.66147698 12.66147698  7.50000000
  14.77172314 10.55123082  7.50000000
  12.66147698 10.55123082 13.86772204
  14.77172314 12.66147698 13.86772204
  12.66147698 12.66147698 11.71920212
  14.77172314 10.55123082 11.71920212

--------------------------------------- Iteration      FINAL  ---------------------------------------

--------------------OUTCAR has been truncated-------------------------

[...]

--------------------OUTCAR has been truncated-------------------------

  FORCE on cell =-STRESS in cart. coord.  units (eV):
  Direction    XX          YY          ZZ          XY          YZ          ZX
  Alpha Z  3501.03714  3501.03714  3501.03714
  Ewald  647018.98133647018.98133************    -0.00000     0.00000     0.00000
  Hartree687315.42876687315.42876************    -0.00000    -0.00000    -0.00000
  E(xc)   -9862.32415 -9862.32415 -9894.99075    -0.00000    -0.00000     0.00000
  Local  ************************************    -0.00000     0.00000     0.00000
  n-local-11170.81357-11170.81357-11251.99093    -0.00002    -0.00001    -0.00001
  augment  4184.25721  4184.25721  4146.95500     0.00000    -0.00000    -0.00000
  Kinetic 29235.07340 29235.07343 29397.12509     0.00002     0.00000    -0.00000
  Fock        0.00000     0.00000     0.00000     0.00000     0.00000     0.00000
  vdW       -86.18937   -86.18937   -64.94941    -0.00000     0.00000    -0.00000
  Total     -90.32149   -90.32149    14.81727     0.00000     0.00000     0.00000
  in kB     -23.80398   -23.80398     3.90505     0.00000     0.00000     0.00000

 VOLUME and BASIS-vectors are now :
  energy-cutoff  :      520.00
  volume of cell :     6079.28
      direct lattice vectors                 reciprocal lattice vectors
    16.881969308  0.000000000  0.000000000     0.059234796  0.000000000  0.000000000
     0.000000000 16.881969308  0.000000000     0.000000000  0.059234796  0.000000000
     0.000000000  0.000000000 21.330738491     0.000000000  0.000000000  0.046880702

  length of vectors
    16.881969308 16.881969308 21.330738491     0.059234796  0.059234796  0.046880702

 FORCES acting on ions:
    Electron-Ion                     Ewald-Force                    Non-Local-Force
   -.204E-15 0.471E-12 0.207E+04   -.626E-12 -.149E-12 -.206E+04   0.000E+00 0.000E+00 -.716E+01
   0.444E-12 -.337E-12 0.207E+04   -.334E-12 0.222E-13 -.206E+04   0.000E+00 0.000E+00 -.716E+01
   -.253E-15 0.404E-12 0.686E+03   -.156E-10 -.447E-12 -.687E+03   0.000E+00 0.000E+00 0.392E+00
   0.448E-12 0.106E-11 0.686E+03   0.155E-10 0.647E-12 -.687E+03   0.000E+00 0.000E+00 0.392E+00
   0.428E-15 0.593E-12 -.692E+03   -.161E-10 0.102E-11 0.692E+03   0.000E+00 0.000E+00 -.215E+00
   0.441E-12 0.350E-12 -.692E+03   0.155E-10 -.840E-12 0.692E+03   0.000E+00 0.000E+00 -.215E+00
   -.887E-14 -.943E-12 -.206E+04   -.168E-10 -.970E-12 0.205E+04   -.106E-21 0.000E+00 0.619E+01
   0.445E-12 -.364E-12 -.206E+04   0.165E-10 0.114E-11 0.205E+04   0.106E-21 0.000E+00 0.619E+01
   0.137E-14 -.808E-13 0.207E+04   0.112E-11 -.139E-10 -.206E+04   -.529E-22 0.000E+00 -.716E+01
   0.431E-12 0.135E-12 0.207E+04   -.159E-11 0.139E-10 -.206E+04   0.000E+00 0.000E+00 -.716E+01
   -.171E-14 0.902E-12 0.686E+03   -.159E-10 0.158E-10 -.687E+03   0.240E-22 0.707E-22 0.392E+00
   0.446E-12 0.593E-12 0.686E+03   0.155E-10 -.157E-10 -.687E+03   0.000E+00 0.000E+00 0.392E+00
   0.263E-16 0.444E-12 -.692E+03   -.158E-10 -.158E-10 0.692E+03   0.000E+00 0.000E+00 -.215E+00
   0.432E-12 0.646E-12 -.692E+03   0.157E-10 0.159E-10 0.692E+03   0.000E+00 0.132E-22 -.215E+00
   -.422E-14 -.256E-12 -.206E+04   -.181E-10 0.253E-11 0.205E+04   0.129E-21 -.146E-21 0.619E+01
   0.446E-12 -.714E-12 -.206E+04   0.179E-10 -.251E-11 0.205E+04   -.106E-21 0.000E+00 0.619E+01
   0.187E-12 -.178E-11 0.207E+04   -.210E-10 -.461E-11 -.206E+04   0.529E-22 0.000E+00 -.716E+01
   0.461E-12 -.350E-12 0.207E+04   -.467E-11 0.206E-11 -.206E+04   0.000E+00 0.000E+00 -.716E+01
   0.340E-12 0.431E-12 0.686E+03   -.158E-10 -.712E-12 -.687E+03   -.414E-22 -.438E-22 0.392E+00
   0.404E-12 0.286E-11 0.686E+03   0.156E-10 0.108E-11 -.687E+03   0.000E+00 0.000E+00 0.392E+00
   0.335E-12 0.189E-12 -.692E+03   -.159E-10 0.951E-12 0.692E+03   0.000E+00 0.000E+00 -.215E+00
   0.409E-12 0.364E-12 -.692E+03   0.158E-10 -.439E-12 0.692E+03   0.000E+00 0.000E+00 -.215E+00
   0.178E-12 -.862E-12 -.206E+04   0.441E-11 -.526E-11 0.205E+04   0.146E-21 -.529E-22 0.619E+01
   0.451E-12 0.741E-12 -.206E+04   0.214E-10 0.335E-11 0.205E+04   -.106E-21 0.000E+00 0.619E+01
   0.188E-12 0.194E-11 0.207E+04   -.218E-10 -.112E-10 -.206E+04   0.529E-22 0.000E+00 -.716E+01
   0.455E-12 -.593E-12 0.207E+04   -.842E-11 0.135E-10 -.206E+04   0.529E-22 0.414E-24 -.716E+01
   0.336E-12 0.902E-12 0.686E+03   -.156E-10 0.158E-10 -.687E+03   -.827E-24 0.000E+00 0.392E+00
   0.410E-12 0.221E-11 0.686E+03   0.162E-10 -.156E-10 -.687E+03   0.000E+00 0.000E+00 0.392E+00
   0.339E-12 0.296E-12 -.692E+03   -.159E-10 -.159E-10 0.692E+03   0.000E+00 0.132E-22 -.215E+00
   0.421E-12 0.224E-11 -.692E+03   0.155E-10 0.159E-10 0.692E+03   0.000E+00 0.000E+00 -.215E+00
   0.182E-12 -.687E-12 -.206E+04   0.519E-11 0.517E-11 0.205E+04   0.000E+00 0.000E+00 0.619E+01
   0.455E-12 0.264E-11 -.206E+04   0.248E-10 -.301E-11 0.205E+04   -.212E-21 0.000E+00 0.619E+01
   0.544E-14 0.875E-12 0.207E+04   0.506E-11 0.225E-10 -.206E+04   0.000E+00 0.000E+00 -.716E+01
   0.442E-12 0.364E-12 0.207E+04   0.279E-11 -.245E-10 -.206E+04   -.529E-22 0.000E+00 -.716E+01
   0.334E-14 0.123E-11 0.686E+03   -.158E-10 -.487E-12 -.687E+03   0.000E+00 0.000E+00 0.392E+00
   0.452E-12 0.222E-11 0.686E+03   0.157E-10 0.723E-12 -.687E+03   -.529E-22 0.000E+00 0.392E+00
   -.721E-15 0.148E-11 -.692E+03   -.157E-10 0.104E-11 0.692E+03   -.827E-24 0.000E+00 -.215E+00
   0.442E-12 0.566E-12 -.692E+03   0.156E-10 -.675E-12 0.692E+03   0.000E+00 0.000E+00 -.215E+00
   -.792E-14 -.296E-12 -.206E+04   -.219E-10 0.216E-10 0.205E+04   0.106E-21 0.000E+00 0.619E+01
   0.450E-12 0.129E-11 -.206E+04   0.137E-10 -.235E-10 0.205E+04   0.106E-21 0.000E+00 0.619E+01
   0.850E-15 0.566E-12 0.207E+04   0.401E-11 -.169E-10 -.206E+04   0.529E-22 0.000E+00 -.716E+01
   0.424E-12 0.193E-11 0.207E+04   -.645E-12 0.191E-10 -.206E+04   0.000E+00 0.000E+00 -.716E+01
   0.369E-14 0.137E-11 0.686E+03   -.157E-10 0.157E-10 -.687E+03   0.141E-22 -.744E-22 0.392E+00
   0.443E-12 0.179E-11 0.686E+03   0.158E-10 -.157E-10 -.687E+03   0.000E+00 0.000E+00 0.392E+00
   0.179E-15 0.114E-11 -.692E+03   -.158E-10 -.160E-10 0.692E+03   0.000E+00 0.000E+00 -.215E+00
   0.445E-12 0.124E-11 -.692E+03   0.157E-10 0.160E-10 0.692E+03   0.000E+00 0.000E+00 -.215E+00
   -.692E-14 0.135E-13 -.206E+04   -.211E-10 -.366E-12 0.205E+04   0.213E-22 0.761E-22 0.619E+01
   0.442E-12 0.673E-12 -.206E+04   0.171E-10 0.258E-11 0.205E+04   0.000E+00 -.212E-21 0.619E+01
   0.185E-12 -.135E-11 0.207E+04   -.239E-10 0.204E-10 -.206E+04   -.212E-21 0.000E+00 -.716E+01
   0.463E-12 0.808E-12 0.207E+04   -.993E-11 -.200E-10 -.206E+04   0.000E+00 0.000E+00 -.716E+01
   0.337E-12 0.112E-11 0.686E+03   -.155E-10 -.680E-12 -.687E+03   0.248E-23 -.120E-22 0.392E+00
   0.420E-12 0.193E-11 0.686E+03   0.156E-10 0.815E-12 -.687E+03   0.000E+00 0.000E+00 0.392E+00
   0.334E-12 0.255E-11 -.692E+03   -.156E-10 0.108E-11 0.692E+03   0.000E+00 0.000E+00 -.215E+00
   0.420E-12 0.525E-12 -.692E+03   0.155E-10 -.838E-12 0.692E+03   0.000E+00 0.000E+00 -.215E+00
   0.182E-12 -.310E-12 -.206E+04   0.739E-11 0.193E-10 0.205E+04   -.463E-22 0.112E-21 0.619E+01
   0.454E-12 -.714E-12 -.206E+04   0.265E-10 -.191E-10 0.205E+04   -.212E-21 0.000E+00 0.619E+01
   0.186E-12 0.246E-11 0.207E+04   -.226E-10 -.165E-10 -.206E+04   0.000E+00 0.000E+00 -.716E+01
   0.464E-12 0.245E-11 0.207E+04   -.111E-10 0.165E-10 -.206E+04   0.000E+00 -.212E-21 -.716E+01
   0.336E-12 0.125E-11 0.686E+03   -.158E-10 0.157E-10 -.687E+03   0.000E+00 -.529E-22 0.392E+00
   0.399E-12 0.105E-11 0.686E+03   0.161E-10 -.157E-10 -.687E+03   0.529E-22 0.000E+00 0.392E+00
[...]
   0.727E-12 0.124E-11 0.155E+04   0.743E-12 -.753E-11 -.156E+04   0.239E-20 -.188E-20 0.341E+01
   0.893E-12 -.673E-11 0.155E+04   -.611E-12 0.748E-11 -.156E+04   0.339E-20 0.000E+00 0.341E+01
   0.638E-12 0.754E-12 -.156E+04   -.816E-11 0.805E-11 0.157E+04   0.000E+00 0.000E+00 -.506E+01
   0.926E-12 0.154E-10 -.156E+04   0.809E-11 -.797E-11 0.157E+04   0.339E-20 0.000E+00 -.506E+01
   0.659E-12 -.174E-10 -.513E+03   -.632E-12 0.750E-11 0.513E+03   0.000E+00 -.200E-22 0.274E+00
   0.912E-12 0.132E-11 -.513E+03   0.192E-12 -.765E-11 0.513E+03   0.000E+00 0.000E+00 0.274E+00
   0.671E-12 0.132E-10 0.514E+03   0.783E-11 0.774E-11 -.514E+03   0.000E+00 -.127E-19 -.628E-01
   0.906E-12 0.546E-11 0.514E+03   -.753E-11 -.775E-11 -.514E+03   -.169E-20 -.136E-19 -.628E-01
   0.726E-12 -.620E-12 0.155E+04   0.117E-11 -.118E-11 -.156E+04   0.296E-20 -.169E-20 0.341E+01
   0.911E-12 0.189E-11 0.155E+04   -.118E-11 0.951E-12 -.156E+04   0.000E+00 -.169E-20 0.341E+01
   0.633E-12 0.369E-11 -.156E+04   -.851E-11 -.851E-11 0.157E+04   0.339E-20 0.000E+00 -.506E+01
   0.941E-12 -.283E-11 -.156E+04   0.860E-11 0.865E-11 0.157E+04   0.339E-20 0.000E+00 -.506E+01
   0.662E-12 0.126E-10 -.513E+03   -.114E-12 -.568E-13 0.513E+03   0.000E+00 0.000E+00 0.274E+00
   0.931E-12 -.573E-11 -.513E+03   -.504E-12 -.639E-13 0.513E+03   0.000E+00 0.000E+00 0.274E+00
   0.140E-09 0.177E-09 0.714E+02   -.271E-11 0.265E-11 0.582E-10   -.919E-20 -.931E-19 -.713E+02

 POSITION                                       TOTAL-FORCE (eV/Angst)
      0.00000      6.33074      7.50000         0.000000      0.000000      0.339978
      2.11025      0.00000      7.50000         0.000000     -0.000000      0.339978
      0.00000      0.00000      9.61025        -0.000000     -0.000000      0.038154
      2.11025      6.33074      9.61025         0.000000     -0.000000      0.038154
      0.00000      6.33074     11.72566         0.000000      0.000000      0.003914
      2.11025      0.00000     11.72566         0.000000     -0.000000      0.003914
      0.00000      0.00000     13.81986        -0.000000      0.000000      0.062147
      2.11025      6.33074     13.81986        -0.000000      0.000000      0.062147
      0.00000      2.11025      7.50000         0.000000      0.000000      0.339978
      2.11025      4.22049      7.50000         0.000000     -0.000000      0.339978
      0.00000      4.22049      9.61025         0.000000      0.000000      0.038154
      2.11025      2.11025      9.61025         0.000000     -0.000000      0.038154
      0.00000      2.11025     11.72566         0.000000      0.000000      0.003914
      2.11025      4.22049     11.72566         0.000000      0.000000      0.003914
      0.00000      4.22049     13.81986         0.000000      0.000000      0.062147
      2.11025      2.11025     13.81986        -0.000000     -0.000000      0.062147
      4.22049      6.33074      7.50000         0.000000      0.000000      0.339978
      6.33074      0.00000      7.50000        -0.000000     -0.000000      0.339978
      4.22049      0.00000      9.61025         0.000000      0.000000      0.038154
      6.33074      6.33074      9.61025        -0.000000     -0.000000      0.038154
      4.22049      6.33074     11.72566         0.000000      0.000000      0.003914
      6.33074      0.00000     11.72566        -0.000000      0.000000      0.003914
      4.22049      0.00000     13.81986        -0.000000      0.000000      0.062147
      6.33074      6.33074     13.81986        -0.000000     -0.000000      0.062147
      4.22049      2.11025      7.50000         0.000000     -0.000000      0.339978
      6.33074      4.22049      7.50000        -0.000000      0.000000      0.339978
      4.22049      4.22049      9.61025        -0.000000     -0.000000      0.038154
      6.33074      2.11025      9.61025         0.000000     -0.000000      0.038154
      4.22049      2.11025     11.72566         0.000000      0.000000      0.003914
      6.33074      4.22049     11.72566         0.000000      0.000000      0.003914
      4.22049      4.22049     13.81986        -0.000000     -0.000000      0.062147
      6.33074      2.11025     13.81986        -0.000000      0.000000      0.062147
      0.00000     14.77172      7.50000         0.000000     -0.000000      0.339978
      2.11025      8.44098      7.50000         0.000000      0.000000      0.339978
      0.00000      8.44098      9.61025        -0.000000      0.000000      0.038154
      2.11025     14.77172      9.61025        -0.000000      0.000000      0.038154
      0.00000     14.77172     11.72566         0.000000     -0.000000      0.003914
      2.11025      8.44098     11.72566         0.000000     -0.000000      0.003914
      0.00000      8.44098     13.81986        -0.000000     -0.000000      0.062147
      2.11025     14.77172     13.81986         0.000000      0.000000      0.062147
      0.00000     10.55123      7.50000         0.000000     -0.000000      0.339978
      2.11025     12.66148      7.50000         0.000000     -0.000000      0.339978
      0.00000     12.66148      9.61025         0.000000      0.000000      0.038154
      2.11025     10.55123      9.61025         0.000000      0.000000      0.038154
      0.00000     10.55123     11.72566         0.000000      0.000000      0.003914
      2.11025     12.66148     11.72566         0.000000     -0.000000      0.003914
      0.00000     12.66148     13.81986         0.000000      0.000000      0.062147
      2.11025     10.55123     13.81986        -0.000000      0.000000      0.062147
      4.22049     14.77172      7.50000        -0.000000      0.000000      0.339978
      6.33074      8.44098      7.50000         0.000000     -0.000000      0.339978
      4.22049      8.44098      9.61025        -0.000000      0.000000      0.038154
      6.33074     14.77172      9.61025        -0.000000      0.000000      0.038154
      4.22049     14.77172     11.72566         0.000000      0.000000      0.003914
      6.33074      8.44098     11.72566         0.000000     -0.000000      0.003914
      4.22049      8.44098     13.81986        -0.000000      0.000000      0.062147
      6.33074     14.77172     13.81986        -0.000000      0.000000      0.062147
      4.22049     10.55123      7.50000         0.000000      0.000000      0.339978
      6.33074     12.66148      7.50000        -0.000000      0.000000      0.339978
      4.22049     12.66148      9.61025        -0.000000      0.000000      0.038154
      6.33074     10.55123      9.61025        -0.000000      0.000000      0.038154
[...]
     14.77172      8.44098      9.61025         0.000000     -0.000000      0.039788
     12.66148      8.44098      7.50000         0.000000     -0.000000     -0.503297
     14.77172     14.77172      7.50000        -0.000000     -0.000000     -0.503297
     12.66148     14.77172     13.86772        -0.000000     -0.000000      0.016447
     14.77172      8.44098     13.86772         0.000000     -0.000000      0.016447
     12.66148      8.44098     11.71920        -0.000000      0.000000      0.002869
     14.77172     14.77172     11.71920        -0.000000      0.000000      0.002869
     12.66148     10.55123      9.61025         0.000000      0.000000      0.039788
     14.77172     12.66148      9.61025         0.000000     -0.000000      0.039788
     12.66148     12.66148      7.50000         0.000000      0.000000     -0.503297
     14.77172     10.55123      7.50000         0.000000      0.000000     -0.503297
     12.66148     10.55123     13.86772         0.000000      0.000000      0.016447
     14.77172     12.66148     13.86772         0.000000      0.000000      0.016447
     12.66148     12.66148     11.71920         0.000000     -0.000000      0.002869
     14.77172     10.55123     11.71920        -0.000000      0.000000      0.002869
    total drift:                                0.000000      0.000000      0.134837

  FREE ENERGIE OF THE ION-ELECTRON SYSTEM (eV)
  free  energy   TOTEN  =     -1484.41963965 eV

  energy  without entropy=    -1484.41963965  energy(sigma->0) =    -1484.41963965