 vasp.6.3.0 20Jan22 (build Apr  1 2022 16:44:48) gamma-only
 executed on        HPECrayEX_GCC date 2023.03.12  01:28:22

 INCAR:
   SYSTEM = MgO-rocksalt
   ISMEAR = 0
   SIGMA = 0.05
   EDIFF = 1E-6
   ALGO = ALL
   ISTART = 0
   IBRION = -1
   NSW = 0
   ISYM = 0
   DIPOL = 0.5 0.5 0.5
   IDIPOL = 3
   LDIPOL = .TRUE.
   LHFCALC = .TRUE.
   GGA = B5
   AEXX = 0.2
   AGGAX = 0.72
   AGGAC = 0.81
   ALDAC = 0.19
   IVDW = 1
   VDW_S6 = 1.05
   VDW_C6 = 1.75 0.70 0.14 0.63 0.70
   VDW_R0 = 1.452 1.342 1.001 1.243 1.342
   ENCUT = 520
   PREC = Accurate
   LASPH = .TRUE.
   LREAL = Auto
   ISPIN = 1
   NELM = 200
   NELMIN = 8
   NCORE = 8
   KPAR = 1
   LWAVE = .FALSE.
   LCHARG = .FALSE.

 POTCAR:    PAW_PBE C 08Apr2002
 POTCAR:    PAW_PBE O 08Apr2002
 POTCAR:    PAW_PBE H 15Jun2001
 POTCAR:    PAW_PBE Mg_pv 13Apr2007
 POTCAR:    PAW_PBE O 08Apr2002
 POTCAR:    PAW_PBE C 08Apr2002
   VRHFIN =C: s2p2

   TITEL  = PAW_PBE C 08Apr2002
   POMASS =   12.011; ZVAL   =    4.000    mass and valenz
   ENMAX  =  400.000; ENMIN  =  300.000 eV

[...]

   TITEL  = PAW_PBE H 15Jun2001
   POMASS =    1.000; ZVAL   =    1.000    mass and valenz
   ENMAX  =  250.000; ENMIN  =  200.000 eV

   TITEL  = PAW_PBE Mg_pv 13Apr2007
   POMASS =   24.305; ZVAL   =    8.000    mass and valenz
   ENMAX  =  403.929; ENMIN  =  302.947 eV

   TITEL  = PAW_PBE O 08Apr2002
   POMASS =   16.000; ZVAL   =    6.000    mass and valenz
   ENMAX  =  400.000; ENMIN  =  300.000 eV

 Optimization of the real space projectors (new method)

 maximal supplied QI-value         = 25.13
 optimisation between [QCUT,QGAM] = [ 11.56, 23.12] = [ 37.43,149.72] Ry
 Optimized for a Real-space Cutoff    1.04 Angstroem

   l    n(q)    QCUT    max X(q) W(low)/X(q) W(high)/X(q)  e(spline)
   0      7    11.561   115.676    0.20E-03    0.60E-03    0.21E-06
   0      7    11.561    87.132    0.20E-03    0.59E-03    0.21E-06
   1      7    11.561     4.429    0.23E-03    0.35E-03    0.15E-06
   1      7    11.561     2.733    0.18E-03    0.25E-03    0.12E-06
 Optimization of the real space projectors (new method)

[...]

   l    n(q)    QCUT    max X(q) W(low)/X(q) W(high)/X(q)  e(spline)
   1      8    11.527     2.974    0.44E-04    0.56E-04    0.12E-06
   1      8    11.527     4.279    0.12E-03    0.12E-03    0.26E-06
   0      9    11.527    16.381    0.46E-04    0.64E-04    0.78E-07
   0      9    11.527     5.611    0.26E-04    0.43E-04    0.55E-07
   2      8    11.527     4.652    0.22E-03    0.72E-04    0.47E-07
 Optimization of the real space projectors (new method)

 maximal supplied QI-value         = 24.76
 optimisation between [QCUT,QGAM] = [ 11.64, 23.27] = [ 37.91,151.63] Ry
 Optimized for a Real-space Cutoff    1.14 Angstroem

   l    n(q)    QCUT    max X(q) W(low)/X(q) W(high)/X(q)  e(spline)
   0      8    11.635    20.381    0.10E-03    0.33E-03    0.24E-06
   0      8    11.635    15.268    0.11E-03    0.35E-03    0.26E-06
   1      7    11.635     5.964    0.24E-03    0.31E-03    0.30E-06
   1      7    11.635     5.382    0.22E-03    0.25E-03    0.26E-06
|               ----> ADVICE to this user running VASP <----                  |
|     You enforced a specific xc type in the INCAR file but a different       |
|     type was found in the POTCAR file.                                      |
|     I HOPE YOU KNOW WHAT YOU ARE DOING!                                     |

  PAW_PBE C 08Apr2002                   :
  PAW_PBE O 08Apr2002                   :
  PAW_PBE H 15Jun2001                   :
  PAW_PBE Mg_pv 13Apr2007               :
  PAW_PBE O 08Apr2002                   :

 POSCAR:  C  O  H Mg  O
  positions in direct lattice
 exchange correlation table for  LEXCH =       12
   RHO(1)=    0.500       N(1)  =     2000
   RHO(2)=  100.500       N(2)  =     4000

 ion  position               nearest neighbor table
   1  0.528  0.556  0.792-  12 1.09  11 1.09   9 1.09   5 1.42
   2  0.318  0.400  0.792-  16 1.09  15 1.09  13 1.09   6 1.42
   3  0.474  0.191  0.792-  20 1.09  19 1.09  17 1.09   7 1.42
   4  0.683  0.345  0.791-  24 1.09  23 1.09  21 1.09   8 1.42
   5  0.508  0.488  0.755-  10 0.98   1 1.42 144 2.24
   6  0.386  0.382  0.755-  14 0.98   2 1.42  55 2.24
   7  0.492  0.260  0.755-  18 0.98   3 1.42 120 2.24
   8  0.614  0.365  0.755-  22 0.98   4 1.42 103 2.24
   9  0.520  0.544  0.842-   1 1.09
  10  0.552  0.449  0.757-   5 0.98
  11  0.590  0.574  0.783-   1 1.09
  12  0.489  0.605  0.777-   1 1.09
  13  0.331  0.391  0.842-   2 1.09
  14  0.425  0.426  0.757-   6 0.98
  15  0.299  0.462  0.785-   2 1.09
  16  0.270  0.360  0.778-   2 1.09
  17  0.483  0.204  0.842-   3 1.09
  18  0.447  0.298  0.757-   7 0.98
  19  0.412  0.172  0.785-   3 1.09
  20  0.513  0.143  0.777-   3 1.09
  21  0.671  0.353  0.841-   4 1.09
  22  0.575  0.321  0.756-   8 0.98
  23  0.700  0.283  0.783-   4 1.09
  24  0.732  0.384  0.776-   4 1.09
  25  0.125  0.000  0.353- 155 2.09 156 2.09 172 2.09 195 2.09 153 2.09
  26  0.250  0.125  0.353- 155 2.09 156 2.09 164 2.09 171 2.09 154 2.09
  27  0.125  0.125  0.451- 153 2.09 154 2.09 161 2.09 170 2.09 155 2.09 159 2.09
  28  0.250  0.000  0.451- 153 2.09 154 2.09 169 2.09 194 2.09 156 2.09 160 2.09
  29  0.125  1.000  0.549- 160 2.09 159 2.09 199 2.09 176 2.09 153 2.09 157 2.12
  30  0.250  0.125  0.549- 168 2.08 175 2.08 159 2.09 160 2.09 154 2.09 158 2.12
  31  0.125  0.125  0.647- 159 2.07 158 2.08 174 2.09 165 2.09 157 2.09
  32  0.250  1.000  0.647- 160 2.07 158 2.08 198 2.09 173 2.09 157 2.09
  33  0.125  0.250  0.353- 155 2.09 163 2.09 164 2.09 180 2.09 161 2.09
  34  0.250  0.375  0.353- 163 2.09 164 2.09 179 2.09 188 2.09 162 2.09
  35  0.125  0.375  0.451- 167 2.09 162 2.09 161 2.09 178 2.09 185 2.09 163 2.09
  36  0.250  0.250  0.451- 168 2.08 161 2.09 162 2.09 154 2.09 177 2.09 164 2.09
  37  0.125  0.250  0.549- 168 2.08 184 2.09 167 2.09 159 2.09 161 2.09 165 2.13
  38  0.250  0.375  0.550- 183 2.07 168 2.09 192 2.09 162 2.10 167 2.10 166 2.12
  39  0.125  0.375  0.646- 167 2.07 166 2.07 182 2.09 189 2.09 165 2.09
  40  0.250  0.250  0.646- 168 2.06 181 2.06 165 2.09 158 2.09 166 2.09
  41  0.375  0.000  0.353- 156 2.09 171 2.09 211 2.09 236 2.09 169 2.09
  42  0.000  0.125  0.353- 155 2.09 172 2.09 180 2.09 235 2.09 170 2.09
  43  0.375  0.125  0.451- 175 2.08 169 2.09 154 2.09 177 2.09 234 2.09 171 2.09
  44  0.000  0.000  0.451- 153 2.09 170 2.09 210 2.09 233 2.09 172 2.09 176 2.09
  45  0.375  1.000  0.549- 175 2.08 215 2.09 240 2.09 160 2.09 169 2.09 173 2.12
  46  0.000  0.125  0.549- 159 2.08 239 2.08 184 2.09 176 2.09 170 2.09 174 2.12
  47  0.375  0.125  0.646- 175 2.06 181 2.07 173 2.09 158 2.09 238 2.09
  48  0.000  1.000  0.647- 176 2.07 157 2.08 237 2.08 214 2.09 174 2.09
  49  0.375  0.250  0.353- 164 2.09 171 2.09 179 2.09 244 2.09 177 2.09
  50  0.000  0.375  0.353- 163 2.09 180 2.09 204 2.09 243 2.09 178 2.09
  51  0.375  0.375  0.451- 162 2.09 177 2.09 201 2.09 242 2.09 179 2.09 183 2.10
  52  0.000  0.250  0.451- 161 2.09 170 2.09 178 2.09 241 2.09 180 2.09 184 2.09
  53  0.375  0.250  0.550- 183 2.08 248 2.08 181 2.10 168 2.10 175 2.10 177 2.11
  54  0.000  0.375  0.549- 167 2.08 247 2.08 184 2.09 208 2.09 178 2.09 182 2.12
  55  0.375  0.375  0.650- 246 2.10 166 2.10 181 2.11 205 2.12 183 2.13   6 2.24
  56  0.000  0.250  0.647- 184 2.07 245 2.08 165 2.08 174 2.09 182 2.09
  57  0.125  0.500  0.353- 163 2.09 187 2.09 188 2.09 204 2.09 185 2.09
  58  0.250  0.625  0.353- 187 2.09 188 2.09 196 2.09 203 2.09 186 2.09
  59  0.125  0.625  0.451- 185 2.09 186 2.09 193 2.09 202 2.09 187 2.09 191 2.09
  60  0.250  0.500  0.451- 192 2.08 185 2.09 186 2.09 162 2.09 201 2.09 188 2.09
[...]
 266  0.500  0.625  0.451-  75 2.09 123 2.09 140 2.09 148 2.09 138 2.09 142 2.10
 267  0.875  0.625  0.353-  74 2.09 122 2.09 137 2.09 145 2.09 139 2.09
 268  0.500  0.500  0.353-  73 2.09 114 2.09 121 2.09 138 2.09 140 2.09
 269  0.875  0.500  0.649-  80 2.08 143 2.09 128 2.09 119 2.09 141 2.13
 270  0.500  0.626  0.649- 152 2.07  79 2.09 127 2.09 144 2.10 142 2.12
 271  0.875  0.625  0.549- 143 2.07  78 2.09 149 2.09 139 2.09 126 2.09 141 2.09
 272  0.500  0.500  0.550- 142 2.07 125 2.08  77 2.08 118 2.09 140 2.10 144 2.13
 273  0.875  0.750  0.451-  84 2.09 132 2.09 139 2.09 147 2.09 145 2.09 149 2.09
 274  0.500  0.875  0.451-  83 2.09 108 2.09 131 2.09 148 2.09 146 2.09 150 2.09
 275  0.875  0.875  0.353-  82 2.09 105 2.09 130 2.09 145 2.09 147 2.09
 276  0.500  0.750  0.353-  81 2.09 129 2.09 138 2.09 146 2.09 148 2.09
 277  0.875  0.750  0.649- 151 2.08  88 2.09 143 2.09 136 2.09 149 2.12
 278  0.500  0.875  0.649- 112 2.08 152 2.09 135 2.09  87 2.09 150 2.12
 279  0.875  0.875  0.549- 151 2.07  86 2.09 109 2.09 149 2.09 134 2.09 147 2.09
 280  0.500  0.750  0.549- 152 2.07 150 2.08 148 2.09 133 2.09  85 2.09 142 2.10

IMPORTANT INFORMATION: All symmetrisations will be switched off!
NOSYMM: (Re-)initialisation of all symmetry stuff for point group C_1.

                                     Primitive cell

  volume of cell :    5928.4515

  direct lattice vectors                    reciprocal lattice vectors
    16.698223653  0.000000000  0.000000000     0.059886610  0.000000000  0.000000000
     0.000000000 16.698223653  0.000000000     0.000000000  0.059886610  0.000000000
     0.000000000  0.000000000 21.261833870     0.000000000  0.000000000  0.047032632

  length of vectors
    16.698223653 16.698223653 21.261833870     0.059886610  0.059886610  0.047032632

  position of ions in fractional coordinates (direct lattice)
     0.528403631  0.556040337  0.791538803
     0.318033128  0.399848678  0.792206701
     0.474024500  0.191454627  0.792198793
     0.682635996  0.344973601  0.791194582
     0.508489194  0.487779148  0.754733055
     0.386158121  0.381892375  0.754693263
     0.491817131  0.259614419  0.754650756
     0.614244745  0.365225882  0.754638039
     0.520490626  0.543720016  0.841642331
     0.552418580  0.448539517  0.756739576
     0.590388997  0.573848958  0.782865169
     0.489420292  0.604837659  0.777053092
     0.331038355  0.390888288  0.842109584
     0.425078011  0.426064731  0.757169905
     0.298998497  0.461703004  0.784630230
     0.269680666  0.360386339  0.777543552
     0.483184051  0.204440076  0.842083523
     0.447481848  0.298375967  0.756964422
     0.412135012  0.172389847  0.784822974
     0.513404273  0.143092513  0.777435205
     0.670685499  0.353063360  0.841339575
     0.575012367  0.321270094  0.756456521
     0.700013504  0.282839100  0.782582318
     0.731604754  0.383580737  0.776467651
     0.125000000  0.000000000  0.352744737
     0.250000000  0.125000000  0.352744737
     0.125000000  0.125000000  0.450914912
     0.250000000  0.000000000  0.450914912
     0.124943058  0.999925251  0.549366778
     0.249938436  0.124943109  0.549192651
     0.124880922  0.124781382  0.646572128
     0.249801596  0.999854099  0.646561154
     0.125000000  0.250000000  0.352744737
     0.250000000  0.375000000  0.352744737
     0.125000000  0.375000000  0.450914912
     0.250000000  0.250000000  0.450914912
     0.124942521  0.249979771  0.549251213
     0.250418634  0.374950920  0.549565291
[...]
   6.26183387  0.00000000  7.50000000
   0.00000000  2.08727796  7.50000000
   6.26183387  2.08727796  9.58727796
   0.00000000  0.00000000  9.58727796
   6.26126188 16.69664853 11.67766590
   0.00008483  2.08582944 11.68036433
   6.25654187  2.08233729 13.72868755
   0.00002339 16.69602549 13.74961856
   6.26183387  4.17455591  7.50000000
   0.00000000  6.26183387  7.50000000
   6.26183387  6.26183387  9.58727796
   0.00000000  4.17455591  9.58727796
   6.26934752  4.18275528 11.69328152
   0.00011222  6.26167622 11.67861804
   6.25349380  6.25805614 13.81913595
   0.00004036  4.17187922 13.74776028
   2.08727796  8.34911183  7.50000000
   4.17455591 10.43638978  7.50000000
   2.08727796 10.43638978  9.58727796
   4.17455591  8.34911183  9.58727796
[...]
   8.34911183 10.43638978  9.58727796
  14.61094570 10.43638978  7.50000000
   8.34911183  8.34911183  7.50000000
  14.61464251  8.35263168 13.80328868
   8.34882261 10.45734971 13.80292379
  14.61303175 10.43855653 11.67541621
   8.34982754  8.35503738 11.68788434
  14.61094570 12.52366774  9.58727796
   8.34911183 14.61094570  9.58727796
  14.61094570 14.61094570  7.50000000
   8.34911183 12.52366774  7.50000000
  14.61382482 12.52623803 13.80278155
   8.34911748 14.61051186 13.80255759
  14.61220484 14.61075342 11.67614313
   8.34917008 12.52700550 11.67398144

--------------------------------------- Iteration      FINAL  ---------------------------------------

--------------------OUTCAR has been truncated-------------------------

[...]

--------------------OUTCAR has been truncated-------------------------

  DFT-D2 method for vdW energy calculation

  Parameters of vdW forcefield:
         C6(Jnm^6/mol)     R0(A)
   C        1.750          1.452
   O        0.700          1.342
   H        0.140          1.001
   Mg       0.630          1.243
   O        0.700          1.342

  vdW correction parametrized for the method ³Zü      

  IVDW =   1
  VDW_RADIUS =    50.000 A
  VDW_S6 =     1.050
  VDW_SR =     1.000
  VDW_D =    20.000
  LVDW_EWALD = F

  Number of pair interactions contributing to vdW energy: 3502943
  Edisp (eV):  -22.62458

 VOLUME and BASIS-vectors are now :
  energy-cutoff  :      520.00
  volume of cell :     5928.45
      direct lattice vectors                 reciprocal lattice vectors
    16.698223653  0.000000000  0.000000000     0.059886610  0.000000000  0.000000000
     0.000000000 16.698223653  0.000000000     0.000000000  0.059886610  0.000000000
     0.000000000  0.000000000 21.261833870     0.000000000  0.000000000  0.047032632

  length of vectors
    16.698223653 16.698223653 21.261833870     0.059886610  0.059886610  0.047032632

 FORCES acting on ions:
    Electron-Ion                     Ewald-Force                    Non-Local-Force
   -.399E+02 -.198E+03 -.106E+04   0.412E+02 0.204E+03 0.106E+04   -.114E+01 -.554E+01 -.313E+01
   0.198E+03 -.370E+02 -.105E+04   -.204E+03 0.381E+02 0.106E+04   0.552E+01 -.101E+01 -.320E+01
   0.367E+02 0.198E+03 -.105E+04   -.378E+02 -.204E+03 0.106E+04   0.975E+00 0.553E+01 -.320E+01
   -.198E+03 0.403E+02 -.106E+04   0.204E+03 -.416E+02 0.106E+04   -.556E+01 0.114E+01 -.310E+01
   0.412E+02 -.102E+03 -.159E+04   -.727E+02 0.977E+02 0.157E+04   0.280E+02 0.389E+01 0.172E+02
   0.102E+03 0.372E+02 -.159E+04   -.976E+02 -.682E+02 0.157E+04   -.404E+01 0.275E+02 0.178E+02
   -.367E+02 0.102E+03 -.159E+04   0.676E+02 -.976E+02 0.157E+04   -.274E+02 -.409E+01 0.177E+02
   -.102E+03 -.419E+02 -.159E+04   0.976E+02 0.735E+02 0.157E+04   0.392E+01 -.280E+02 0.169E+02
   0.224E+01 -.191E+02 -.262E+03   -.296E+01 0.180E+02 0.268E+03   0.690E+00 0.101E+01 -.558E+01
   -.595E+02 0.236E+02 -.275E+03   0.655E+02 -.291E+02 0.275E+03   -.577E+01 0.532E+01 -.164E+00
   -.657E+02 -.480E+02 -.251E+03   0.713E+02 0.497E+02 0.250E+03   -.544E+01 -.162E+01 0.961E+00
   0.332E+02 -.755E+02 -.249E+03   -.368E+02 0.802E+02 0.248E+03   0.347E+01 -.447E+01 0.174E+01
   0.185E+02 0.353E+01 -.262E+03   -.174E+02 -.433E+01 0.268E+03   -.107E+01 0.782E+00 -.555E+01
   -.230E+02 -.602E+02 -.275E+03   0.285E+02 0.663E+02 0.275E+03   -.528E+01 -.580E+01 -.236E+00
   0.490E+02 -.652E+02 -.250E+03   -.508E+02 0.708E+02 0.249E+03   0.173E+01 -.542E+01 0.837E+00
   0.752E+02 0.340E+02 -.249E+03   -.798E+02 -.376E+02 0.247E+03   0.443E+01 0.351E+01 0.176E+01
   -.377E+01 0.185E+02 -.262E+03   0.459E+01 -.174E+02 0.268E+03   -.800E+00 -.107E+01 -.555E+01
   0.604E+02 -.227E+02 -.275E+03   -.664E+02 0.282E+02 0.275E+03   0.581E+01 -.525E+01 -.206E+00
   0.651E+02 0.491E+02 -.250E+03   -.707E+02 -.509E+02 0.249E+03   0.542E+01 0.174E+01 0.811E+00
   -.339E+02 0.752E+02 -.249E+03   0.375E+02 -.798E+02 0.247E+03   -.351E+01 0.443E+01 0.177E+01
   -.195E+02 -.241E+01 -.263E+03   0.185E+02 0.314E+01 0.268E+03   0.981E+00 -.705E+00 -.558E+01
   0.235E+02 0.593E+02 -.274E+03   -.291E+02 -.653E+02 0.274E+03   0.531E+01 0.576E+01 -.132E+00
   -.478E+02 0.659E+02 -.251E+03   0.494E+02 -.715E+02 0.250E+03   -.158E+01 0.544E+01 0.950E+00
   -.757E+02 -.328E+02 -.250E+03   0.804E+02 0.363E+02 0.248E+03   -.449E+01 -.344E+01 0.178E+01
   0.558E+01 0.567E+01 0.214E+04   -.557E+01 -.566E+01 -.214E+04   -.851E-02 -.810E-02 -.641E+01
   0.936E+01 0.928E+01 0.215E+04   -.932E+01 -.925E+01 -.214E+04   -.235E-01 -.243E-01 -.643E+01
   0.116E+02 0.131E+02 0.745E+03   -.116E+02 -.130E+02 -.746E+03   -.169E-01 -.123E-01 0.396E+00
   0.132E+02 0.118E+02 0.745E+03   -.132E+02 -.118E+02 -.746E+03   -.106E-01 -.149E-01 0.386E+00
   0.156E+02 0.156E+02 -.669E+03   -.156E+02 -.156E+02 0.669E+03   -.130E-01 -.866E-02 -.559E-01
   0.363E+02 0.355E+02 -.634E+03   -.362E+02 -.354E+02 0.634E+03   -.854E-01 -.998E-01 0.581E-01
   0.403E+02 0.384E+02 -.206E+04   -.402E+02 -.384E+02 0.206E+04   -.103E+00 -.656E-02 0.540E+01
   0.403E+02 0.414E+02 -.206E+04   -.403E+02 -.412E+02 0.206E+04   -.132E-01 -.118E+00 0.539E+01
   0.749E+01 0.555E+01 0.215E+04   -.746E+01 -.553E+01 -.214E+04   -.235E-01 -.102E-01 -.642E+01
   0.112E+02 -.192E+00 0.215E+04   -.111E+02 0.192E+00 -.215E+04   -.439E-01 0.139E-03 -.646E+01
   0.147E+02 -.222E+00 0.755E+03   -.146E+02 0.220E+00 -.756E+03   -.639E-01 0.141E-02 0.340E+00
   0.196E+02 0.115E+02 0.767E+03   -.195E+02 -.114E+02 -.767E+03   -.842E-01 -.423E-01 0.256E+00
   0.319E+02 0.180E+02 -.644E+03   -.318E+02 -.179E+02 0.644E+03   -.148E+00 -.377E-01 0.543E-01
   0.561E+02 -.246E+00 -.596E+03   -.556E+02 0.240E+00 0.596E+03   -.494E+00 0.646E-02 -.216E+00
   0.796E+02 0.121E+01 -.203E+04   -.791E+02 -.121E+01 0.202E+04   -.430E+00 -.594E-02 0.543E+01
   0.121E+03 0.680E+02 -.197E+04   -.120E+03 -.680E+02 0.197E+04   -.622E+00 0.196E-01 0.552E+01
   0.571E+01 0.767E+01 0.215E+04   -.569E+01 -.764E+01 -.214E+04   -.965E-02 -.225E-01 -.642E+01
   -.575E-01 0.739E+01 0.214E+04   0.578E-01 -.738E+01 -.214E+04   -.218E-03 -.916E-02 -.641E+01
   0.120E+02 0.195E+02 0.767E+03   -.119E+02 -.193E+02 -.767E+03   -.422E-01 -.883E-01 0.254E+00
   -.785E-01 0.808E+01 0.736E+03   0.789E-01 -.807E+01 -.736E+03   -.252E-03 -.179E-02 0.411E+00
   0.184E+02 0.327E+02 -.642E+03   -.183E+02 -.326E+02 0.642E+03   -.311E-01 -.127E+00 0.466E-01
   -.351E+00 0.192E+02 -.665E+03   0.354E+00 -.192E+02 0.665E+03   -.257E-02 -.319E-02 -.453E-01
   0.724E+02 0.120E+03 -.196E+04   -.725E+02 -.120E+03 0.195E+04   0.629E-01 -.501E+00 0.557E+01
   -.256E+00 0.189E+02 -.208E+04   0.256E+00 -.189E+02 0.208E+04   -.721E-03 0.180E-01 0.539E+01
   0.758E+01 0.733E+01 0.216E+04   -.754E+01 -.729E+01 -.215E+04   -.290E-01 -.306E-01 -.649E+01
   -.574E-01 -.145E+00 0.215E+04   0.577E-01 0.146E+00 -.214E+04   -.168E-03 0.111E-03 -.642E+01
   0.145E+02 -.540E+00 0.785E+03   -.143E+02 0.546E+00 -.785E+03   -.105E+00 -.329E-02 0.328E+00
   -.174E+00 0.827E+01 0.747E+03   0.178E+00 -.827E+01 -.747E+03   -.253E-02 -.184E-02 0.414E+00
   0.393E+02 0.379E+02 -.566E+03   -.388E+02 -.374E+02 0.567E+03   -.403E+00 -.414E+00 -.742E+00
   -.218E+00 -.413E+00 -.651E+03   0.219E+00 0.414E+00 0.651E+03   -.136E-02 0.211E-03 0.932E-02
   0.131E+03 0.380E+01 -.176E+04   -.130E+03 -.387E+01 0.176E+04   -.291E+00 0.602E-01 0.303E+01
   -.135E+01 0.225E+02 -.206E+04   0.135E+01 -.226E+02 0.206E+04   -.267E-02 0.422E-01 0.541E+01
   0.745E+01 -.576E+01 0.215E+04   -.741E+01 0.574E+01 -.214E+04   -.237E-01 0.100E-01 -.642E+01
   0.923E+01 -.929E+01 0.215E+04   -.919E+01 0.925E+01 -.214E+04   -.245E-01 0.238E-01 -.643E+01
   0.114E+02 -.131E+02 0.745E+03   -.114E+02 0.131E+02 -.745E+03   -.190E-01 0.117E-01 0.390E+00
   0.193E+02 -.120E+02 0.766E+03   -.191E+02 0.119E+02 -.766E+03   -.931E-01 0.460E-01 0.267E+00
[...]
   -.491E+01 -.597E+01 0.161E+04   0.490E+01 0.595E+01 -.161E+04   0.169E-01 0.165E-01 0.313E+01
   0.435E-01 -.601E+01 0.162E+04   -.438E-01 0.597E+01 -.162E+04   0.384E-03 0.434E-01 0.303E+01
   -.467E+02 -.261E+02 -.156E+04   0.467E+02 0.260E+02 0.157E+04   0.704E-01 0.803E-01 -.474E+01
   0.514E+01 -.112E+03 -.147E+04   -.513E+01 0.112E+03 0.147E+04   -.471E-02 0.429E+00 -.463E+01
   -.167E+02 -.173E+02 -.487E+03   0.166E+02 0.173E+02 0.487E+03   0.519E-01 0.457E-01 0.324E+00
   0.297E+00 -.303E+02 -.410E+03   -.293E+00 0.300E+02 0.411E+03   -.410E-02 0.314E+00 -.378E+00
   -.672E+01 -.659E+01 0.553E+03   0.670E+01 0.658E+01 -.553E+03   0.226E-01 0.212E-01 -.204E-01
   0.522E-01 0.341E+00 0.562E+03   -.524E-01 -.335E+00 -.562E+03   0.206E-03 -.766E-02 -.991E-02
   -.390E+01 0.114E+00 0.161E+04   0.389E+01 -.114E+00 -.161E+04   0.700E-02 -.351E-04 0.314E+01
   0.381E-01 -.577E+01 0.161E+04   -.386E-01 0.574E+01 -.162E+04   0.647E-03 0.316E-01 0.311E+01
   -.182E+02 -.177E+02 -.158E+04   0.181E+02 0.176E+02 0.159E+04   0.396E-01 0.384E-01 -.474E+01
   0.133E+00 0.834E+00 -.157E+04   -.134E+00 -.845E+00 0.157E+04   0.613E-04 0.923E-02 -.473E+01
   -.961E+01 0.293E+00 -.499E+03   0.959E+01 -.290E+00 0.498E+03   0.142E-01 -.285E-02 0.315E+00
   0.418E+00 -.240E+02 -.470E+03   -.420E+00 0.238E+02 0.470E+03   0.228E-02 0.226E+00 0.393E+00
   -.251E+00 0.439E+00 0.378E+02   -.156E-12 -.501E-12 0.173E-10   0.204E+00 -.350E+00 -.350E+02

 POSITION                                       TOTAL-FORCE (eV/Angst)
      8.82340      9.28489     16.82957         0.054930      0.334503      0.193977
      5.31059      6.67676     16.84377        -0.347441      0.052045      0.203876
      7.91537      3.19695     16.84360        -0.046546     -0.333274      0.198164
     11.39881      5.76045     16.82225         0.323380     -0.057501      0.192849
      8.49087      8.14505     16.04701        -0.081338     -0.206558     -0.147072
      6.44815      6.37692     16.04616         0.214750     -0.077653     -0.159131
      8.21247      4.33510     16.04526         0.082741      0.211929     -0.155517
     10.25680      6.09862     16.04499        -0.201569      0.093118     -0.142873
      8.69127      9.07916     17.89486        -0.002720     -0.019082      0.025649
      9.22441      7.48981     16.08967         0.017594     -0.053278     -0.011363
      9.85845      9.58226     16.64515         0.001152     -0.015669     -0.001672
      8.17245     10.09971     16.52157        -0.000304     -0.007605      0.003334
      5.52775      6.52714     17.90479         0.018798      0.002683      0.018702
      7.09805      7.11452     16.09882         0.061027      0.027276     -0.010888
      4.99274      7.70962     16.68268         0.020231      0.000715     -0.005676
      4.50319      6.01781     16.53200         0.017945      0.006543     -0.000471
      8.06832      3.41379     17.90424        -0.001135      0.020987      0.016996
      7.47215      4.98235     16.09445        -0.023672      0.068527     -0.009823
      6.88192      2.87860     16.68678        -0.001304      0.023842     -0.010099
      8.57294      2.38939     16.52970        -0.002108      0.018539     -0.003811
     11.19926      5.89553     17.88842        -0.019910      0.004009      0.023030
      9.60169      5.36464     16.08365        -0.063450     -0.017740     -0.009431
     11.68898      4.72291     16.63914        -0.020355      0.001705     -0.005423
     12.21650      6.40512     16.50913        -0.007809      0.005047     -0.000131
      2.08728      0.00000      7.50000         0.002791      0.002577      0.300152
      4.17456      2.08728      7.50000         0.007865      0.008070      0.307309
      2.08728      2.08728      9.58728         0.004221      0.003422     -0.001373
      4.17456      0.00000      9.58728         0.002809      0.003399      0.000289
      2.08633     16.69698     11.68055         0.001352      0.002061      0.018754
      4.17353      2.08633     11.67684         0.003382      0.001514      0.015630
      2.08529      2.08363     13.74731        -0.001637      0.000338      0.168910
      4.17124     16.69579     13.74708        -0.000198     -0.002306      0.164180
      2.08728      4.17456      7.50000         0.007599      0.003494      0.305800
      4.17456      6.26183      7.50000         0.014118     -0.000112      0.319159
      2.08728      6.26183      9.58728         0.028584     -0.000502      0.011353
      4.17456      4.17456      9.58728         0.038168      0.016596      0.027934
      2.08632      4.17422     11.67809         0.000973      0.001382      0.018645
      4.18155      6.26101     11.68477         0.000324      0.000882      0.017072
      2.08436      6.26184     13.74105        -0.001786     -0.001510      0.164833
      4.17026      4.16833     13.73082        -0.002375      0.002594      0.156924
      6.26183      0.00000      7.50000         0.003274      0.007249      0.305430
      0.00000      2.08728      7.50000         0.000075      0.003047      0.300559
      6.26183      2.08728      9.58728         0.016820      0.039792      0.025616
      0.00000      0.00000      9.58728         0.000052      0.000339      0.002187
      6.26126     16.69665     11.67767         0.003323      0.002100      0.019364
      0.00008      2.08583     11.68036        -0.000042      0.000259      0.019308
      6.25654      2.08234     13.72869        -0.000587     -0.002467      0.157350
      0.00002     16.69603     13.74962         0.000035      0.000102      0.165900
      6.26183      4.17456      7.50000         0.009507      0.009906      0.327993
      0.00000      6.26183      7.50000         0.000038     -0.000100      0.302895
      6.26183      6.26183      9.58728         0.049782      0.001729      0.102447
      0.00000      4.17456      9.58728         0.000910      0.000189     -0.002048
      6.26935      4.18276     11.69328         0.001610      0.000007      0.011914
      0.00011      6.26168     11.67862        -0.000147      0.001200      0.022054
      6.25349      6.25806     13.81914         0.003211      0.001103      0.139922
      0.00004      4.17188     13.74776         0.001020      0.001138      0.163426
      2.08728      8.34911      7.50000         0.007673     -0.003469      0.305361
      4.17456     10.43639      7.50000         0.008123     -0.007950      0.307331
      2.08728     10.43639      9.58728         0.005149     -0.003518     -0.000720
      4.17456      8.34911      9.58728         0.042259     -0.018465      0.030834
[...]
      8.34911     10.43639      9.58728         0.000477      0.026098      0.038678
     14.61095     10.43639      7.50000         0.005423      0.005500     -0.586206
      8.34911      8.34911      7.50000         0.000127      0.014352     -0.616204
     14.61464      8.35263     13.80329         0.001455      0.001037      0.025560
      8.34882     10.45735     13.80292         0.003942     -0.013218      0.047820
     14.61303     10.43856     11.67542         0.001735     -0.000368      0.006307
      8.34983      8.35504     11.68788        -0.000051      0.005592      0.004193
     14.61095     12.52367      9.58728         0.009456      0.007006      0.047652
      8.34911     14.61095      9.58728         0.000080     -0.003050      0.040511
     14.61095     14.61095      7.50000         0.002150     -0.000185     -0.582870
      8.34911     12.52367      7.50000         0.000208      0.010363     -0.593359
     14.61382     12.52624     13.80278        -0.000126     -0.000636      0.023516
      8.34912     14.61051     13.80256        -0.000186     -0.001081      0.026199
     14.61220     14.61075     11.67614        -0.000488     -0.001180      0.006032
      8.34917     12.52701     11.67398         0.000298      0.003721      0.005135
    total drift:                                0.002368      0.011931     -0.006285

  FREE ENERGIE OF THE ION-ELECTRON SYSTEM (eV)
  free  energy   TOTEN  =     -1901.02320104 eV

  energy  without entropy=    -1901.02320104  energy(sigma->0) =    -1901.02320104