 vasp.6.3.0 20Jan22 (build Apr  1 2022 16:44:48) complex
 executed on        HPECrayEX_GCC date 2023.01.23  22:21:59

 INCAR:
   SYSTEM = MgO-rocksalt
   ISMEAR = 0
   SIGMA = 0.05
   EDIFF = 1E-8
   ALGO = ALL
   ISTART = 0
   IBRION = 5
   POTIM = 0.01
   NFREE = 2
   ISYM = 0
   DIPOL = 0.5 0.5 0.5
   IDIPOL = 3
   LDIPOL = .TRUE.
   GGA = MK
   LUSE_VDW = .TRUE.
   PARAM1 = 0.1234
   PARAM2 = 0.711357
   ZAB_VDW = -1.8867
   AGGAC = 0.0
   ENCUT = 600
   PREC = Accurate
   LASPH = .TRUE.
   LREAL = .FALSE.
   ISPIN = 2
   MAGMOM = 1.0 0.0 0.0 0.0 0.0 0.0 0.0 0.0 0.0 0.0 0.0 0.0 0.0 0.0 0.0 0.0 0.0 0.0 0.0 0.0 0.0 0.0 0.0 0.0 0.0 0.0 0.0 0.0 0.0 0.0 0.0 0.0 0.0 0.0 0.0 0.0 0.0 0.0 0.0 0.0 0.0 0.0 0.0 0.0 0.0 0.0 0.0 0.0 0.0 0.0 0.0 0.0 0.0 0.0 0.0 0.0 0.0 0.0 0.0 0.0 0.0 0.0 0.0 0.0 0.0 0.0
   NELM = 200
   NELMIN = 8
   NCORE = 8
   KPAR = 1
   LWAVE = .FALSE.
   LCHARG = .FALSE.

 POTCAR:    PAW_PBE N 08Apr2002
 POTCAR:    PAW_PBE O 08Apr2002
 POTCAR:    PAW_PBE Mg_pv 13Apr2007
 POTCAR:    PAW_PBE O 08Apr2002
|               ----> ADVICE to this user running VASP <----                  |
|     You have switched on vdW-DFT.                                           |
|     This routine was written and supplied by Jiri Klimes. We recommend      |
|     that you carefully read and cite the following publications:            |
|       J. Klimes, D.R. Bowler, A. Michelides                                 |
|          J. Phys.: Cond Matt. 22 022201 (2010)                              |
|       J. Klimes, D.R. Bowler, A. Michelides                                 |
|          Phys. Rev. B. 83, 195131 (2011)                                    |
|     and references therein.                                                 |

   TITEL  = PAW_PBE N 08Apr2002
   POMASS =   14.001; ZVAL   =    5.000    mass and valenz
   ENMAX  =  400.000; ENMIN  =  300.000 eV

[...]

   TITEL  = PAW_PBE Mg_pv 13Apr2007
   POMASS =   24.305; ZVAL   =    8.000    mass and valenz
   ENMAX  =  403.929; ENMIN  =  302.947 eV

   TITEL  = PAW_PBE O 08Apr2002
   POMASS =   16.000; ZVAL   =    6.000    mass and valenz
   ENMAX  =  400.000; ENMIN  =  300.000 eV

  PAW_PBE N 08Apr2002                   :
  PAW_PBE O 08Apr2002                   :
  PAW_PBE Mg_pv 13Apr2007               :
  PAW_PBE O 08Apr2002                   :

 POSCAR:  N  O Mg  O
  positions in direct lattice
 exchange correlation table for  LEXCH =       43
   RHO(1)=    0.500       N(1)  =     2000
   RHO(2)=  100.500       N(2)  =     4000

 ion  position               nearest neighbor table
   1  0.637  0.484  0.748-   2 1.18
   2  0.694  0.575  0.783-   1 1.18
   3  0.250  0.000  0.352-  35 2.11  37 2.11  38 2.11  45 2.11  54 2.11
   4  0.500  0.250  0.352-  36 2.11  37 2.11  38 2.11  46 2.11  53 2.11
   5  0.250  0.250  0.451-  37 2.11  36 2.11  35 2.11  43 2.11  52 2.11  41 2.11
   6  0.500  0.000  0.451-  42 2.11  38 2.11  35 2.11  36 2.11  44 2.11  51 2.11
   7  0.250  0.000  0.550-  42 2.11  41 2.11  49 2.11  58 2.11  35 2.12  39 2.14
   8  0.500  0.250  0.550-  50 2.11  40 2.11  57 2.11  41 2.11  42 2.11  36 2.13
   9  0.251  0.249  0.648-  41 2.10  39 2.10  40 2.11  56 2.11  47 2.12
  10  0.500  0.000  0.648-  40 2.10  42 2.11  48 2.11  39 2.11  55 2.12
  11  0.250  0.500  0.352-  43 2.11  37 2.11  45 2.11  46 2.11  62 2.11
  12  0.500  0.750  0.352-  44 2.11  38 2.11  45 2.11  46 2.11  61 2.11
  13  0.250  0.750  0.451-  45 2.11  43 2.11  44 2.11  35 2.11  60 2.11  49 2.11
  14  0.500  0.500  0.451-  46 2.11  43 2.11  44 2.11  36 2.11  59 2.11  50 2.12
  15  0.251  0.500  0.550-  50 2.11  41 2.11  49 2.11  66 2.12  43 2.12  47 2.14
  16  0.500  0.750  0.550-  50 2.11  49 2.11  42 2.11  65 2.11  48 2.12  44 2.13
  17  0.251  0.751  0.648-  39 2.10  49 2.11  48 2.11  64 2.11  47 2.12
  18  0.498  0.500  0.651-  47 2.09  40 2.12  48 2.12  50 2.15  63 2.15
  19  0.750  0.000  0.352-  51 2.11  38 2.11  53 2.11  54 2.11  61 2.11
  20  0.000  0.250  0.352-  52 2.11  37 2.11  53 2.11  54 2.11  62 2.11
  21  0.750  0.250  0.451-  53 2.11  51 2.11  52 2.11  36 2.11  59 2.11  57 2.12
  22  0.000  0.000  0.451-  54 2.11  51 2.11  52 2.11  35 2.11  60 2.11  58 2.11
  23  0.750  0.000  0.550-  42 2.11  58 2.11  57 2.11  65 2.12  51 2.12  55 2.13
  24  0.000  0.250  0.550-  57 2.11  41 2.11  58 2.11  66 2.11  52 2.12  56 2.14
  25  0.750  0.248  0.649-  55 2.09  40 2.11  57 2.11  56 2.11  63 2.13
  26  0.001  0.000  0.648-  39 2.10  58 2.11  56 2.11  64 2.11  55 2.11
  27  0.750  0.500  0.352-  59 2.11  53 2.11  46 2.11  61 2.11  62 2.11
  28  0.000  0.750  0.352-  60 2.11  54 2.11  45 2.11  61 2.11  62 2.11
  29  0.750  0.750  0.451-  61 2.11  51 2.11  59 2.11  60 2.11  44 2.11  65 2.12
  30  0.000  0.500  0.451-  62 2.11  52 2.11  59 2.11  60 2.11  43 2.11  66 2.12
  31  0.749  0.500  0.549-  50 2.10  57 2.10  65 2.11  59 2.11  66 2.11  63 2.16
  32  0.000  0.750  0.550-  49 2.11  65 2.11  58 2.11  66 2.11  60 2.12  64 2.14
  33  0.750  0.753  0.648-  55 2.08  65 2.10  48 2.11  64 2.11  63 2.13
  34  0.003  0.500  0.648-  47 2.08  66 2.10  56 2.11  64 2.11  63 2.12
  35  0.250  0.000  0.451-   3 2.11   5 2.11   6 2.11  13 2.11  22 2.11   7 2.12
  36  0.500  0.250  0.451-   4 2.11   5 2.11   6 2.11  14 2.11  21 2.11   8 2.13
  37  0.250  0.250  0.352-   5 2.11   4 2.11   3 2.11  11 2.11  20 2.11
  38  0.500  0.000  0.352-   6 2.11   4 2.11   3 2.11  12 2.11  19 2.11
  39  0.250  0.000  0.650-  26 2.10  17 2.10   9 2.10  10 2.11   7 2.14
  40  0.500  0.249  0.649-  10 2.10   9 2.11  25 2.11   8 2.11  18 2.12
  41  0.250  0.250  0.550-   9 2.10  24 2.11  15 2.11   7 2.11   5 2.11   8 2.11
  42  0.500  1.000  0.549-  10 2.11  23 2.11   6 2.11   7 2.11  16 2.11   8 2.11
  43  0.250  0.500  0.451-  11 2.11   5 2.11  13 2.11  14 2.11  30 2.11  15 2.12
  44  0.500  0.750  0.451-  12 2.11   6 2.11  13 2.11  14 2.11  29 2.11  16 2.13
  45  0.250  0.750  0.352-  13 2.11  11 2.11  12 2.11   3 2.11  28 2.11
  46  0.500  0.500  0.352-  14 2.11  11 2.11  12 2.11   4 2.11  27 2.11
  47  0.250  0.500  0.650-  34 2.08  18 2.09  17 2.12   9 2.12  15 2.14
  48  0.501  0.751  0.650-  10 2.11  33 2.11  17 2.11  18 2.12  16 2.12
  49  0.250  0.750  0.550-  17 2.11  32 2.11  15 2.11  16 2.11   7 2.11  13 2.11
  50  0.501  0.500  0.550-  31 2.10  16 2.11  15 2.11   8 2.11  14 2.12  18 2.15
  51  0.750  0.000  0.451-  19 2.11   6 2.11  21 2.11  22 2.11  29 2.11  23 2.12
  52  0.000  0.250  0.451-  20 2.11   5 2.11  21 2.11  22 2.11  30 2.11  24 2.12
  53  0.750  0.250  0.352-  21 2.11  19 2.11  20 2.11   4 2.11  27 2.11
  54  0.000  0.000  0.352-  22 2.11  19 2.11  20 2.11   3 2.11  28 2.11
  55  0.751  0.000  0.650-  33 2.08  25 2.09  26 2.11  10 2.12  23 2.13
  56  0.000  0.250  0.650-  34 2.11  26 2.11  25 2.11   9 2.11  24 2.14
  57  0.750  0.251  0.550-  31 2.10  24 2.11  25 2.11  23 2.11   8 2.11  21 2.12
  58  0.000  0.000  0.550-  26 2.11  32 2.11  23 2.11  24 2.11   7 2.11  22 2.11
  59  0.750  0.500  0.451-  31 2.11  27 2.11  14 2.11  29 2.11  30 2.11  21 2.11
  60  0.000  0.750  0.451-  28 2.11  22 2.11  13 2.11  29 2.11  30 2.11  32 2.12
  61  0.750  0.750  0.352-  29 2.11  19 2.11  27 2.11  28 2.11  12 2.11
  62  0.000  0.500  0.352-  30 2.11  20 2.11  27 2.11  28 2.11  11 2.11
  63  0.753  0.501  0.651-  34 2.12  33 2.13  25 2.13  18 2.15  31 2.16
  64  0.000  0.750  0.650-  33 2.11  34 2.11  26 2.11  17 2.11  32 2.14
  65  0.750  0.750  0.550-  33 2.10  31 2.11  32 2.11  16 2.11  23 2.12  29 2.12
  66  1.000  0.500  0.550-  34 2.10  32 2.11  24 2.11  31 2.11  30 2.12  15 2.12

IMPORTANT INFORMATION: All symmetrisations will be switched off!
NOSYMM: (Re-)initialisation of all symmetry stuff for point group C_1.

                                     Primitive cell

  volume of cell :    1519.6535

  direct lattice vectors                    reciprocal lattice vectors
     8.440582262  0.000000000  0.000000000     0.118475239  0.000000000  0.000000000
     0.000000000  8.440582262  0.000000000     0.000000000  0.118475239  0.000000000
     0.000000000  0.000000000 21.330436697     0.000000000  0.000000000  0.046881366

  length of vectors
     8.440582262  8.440582262 21.330436697     0.118475239  0.118475239  0.046881366

  position of ions in fractional coordinates (direct lattice)
     0.636957940  0.483676475  0.747954480
     0.694467758  0.575177366  0.783255464
     0.250000000  0.000000000  0.351610242
     0.500000000  0.250000000  0.351610242
     0.250000000  0.250000000  0.450536747
     0.500000000  0.000000000  0.450536747
     0.250202797  0.000056379  0.549834200
     0.500105005  0.250397111  0.550170429
     0.250643119  0.249392178  0.648262499
     0.499782007  0.000292357  0.648128290
     0.250000000  0.500000000  0.351610242
     0.500000000  0.750000000  0.351610242
     0.250000000  0.750000000  0.450536747
     0.500000000  0.500000000  0.450536747
     0.250883382  0.500001873  0.550060446
     0.500015870  0.749628557  0.550169583
     0.250635551  0.750749016  0.648415169
     0.497733801  0.499819334  0.650802095
     0.750000000  0.000000000  0.351610242
     0.000000000  0.250000000  0.351610242
     0.750000000  0.250000000  0.450536747
     0.000000000  0.000000000  0.450536747
     0.750023547  0.000427996  0.549804139
     0.000056232  0.250079478  0.550050991
     0.749868490  0.248085438  0.648824970
     0.000751136  0.000289921  0.648452710
     0.750000000  0.500000000  0.351610242
     0.000000000  0.750000000  0.351610242
     0.750000000  0.750000000  0.450536747
     0.000000000  0.500000000  0.450536747
     0.749358849  0.499910424  0.549430184
     0.000330768  0.750106973  0.549999636
     0.750375064  0.753363089  0.648031624
     0.003307770  0.500141658  0.648418152
     0.250000000  0.000000000  0.450536747
     0.500000000  0.250000000  0.450536747
     0.250000000  0.250000000  0.351610242
     0.500000000  0.000000000  0.351610242
     0.249990292  0.000048994  0.649941730
     0.500127753  0.249027000  0.649115670
     0.249759220  0.250169600  0.549598377
     0.500176793  0.999873324  0.549429788
     0.250000000  0.500000000  0.450536747
     0.500000000  0.750000000  0.450536747
     0.250000000  0.750000000  0.351610242
     0.500000000  0.500000000  0.351610242
     0.249966377  0.500095409  0.650175463
     0.500682045  0.750871012  0.649663604
     0.249940934  0.749894711  0.549680690
     0.500588350  0.500140380  0.550100805
     0.750000000  0.000000000  0.450536747
     0.000000000  0.250000000  0.450536747
     0.750000000  0.250000000  0.351610242
     0.000000000  0.000000000  0.351610242
     0.750530679  0.000321873  0.649873711
     0.000134487  0.250284506  0.650236667
     0.750394668  0.250605706  0.549838437
     0.000027824  0.000062978  0.549665360
     0.750000000  0.500000000  0.450536747
     0.000000000  0.750000000  0.450536747
     0.750000000  0.750000000  0.351610242
     0.000000000  0.500000000  0.351610242
     0.752738550  0.500800720  0.650522710
     0.000176142  0.750150692  0.650196492
     0.750403065  0.749660477  0.549775304
     0.999608944  0.500126347  0.549927728

  ion indices of the primitive-cell ions
   primitive index   ion index
[...]

 POSITION                                       TOTAL-FORCE (eV/Angst)
      5.37630      4.08251     15.95420        -0.226286     -0.368751     -0.344841
      5.86171      4.85483     16.69718         0.226338      0.358562      0.368600
      2.11015      0.00000      7.50000         0.000664      0.000155      0.320915
      4.22029      2.11015      7.50000        -0.001685     -0.001090      0.320600
      2.11015      2.11015      9.61015         0.001632     -0.000572      0.038182
      4.22029      0.00000      9.61015        -0.004880     -0.002300      0.042074
      2.11186      0.00048     11.72820         0.001248      0.000733      0.000176
      4.22118      2.11350     11.73538        -0.000515     -0.001437      0.001542
      2.11557      2.10502     13.82772        -0.002680      0.001880     -0.002266
      4.21845      0.00247     13.82486         0.002491     -0.000038     -0.000089
      2.11015      4.22029      7.50000         0.000993     -0.000111      0.317724
      4.22029      6.33044      7.50000        -0.001756      0.001041      0.321360
      2.11015      6.33044      9.61015         0.007783      0.001225      0.035119
      4.22029      4.22029      9.61015        -0.014901      0.001445      0.038373
      2.11760      4.22031     11.73303        -0.002662      0.001265     -0.003624
      4.22043      6.32730     11.73536         0.001827      0.000810      0.000544
      2.11551      6.33676     13.83098        -0.002607      0.000118     -0.006984
      4.20116      4.21877     13.88189         0.002646     -0.002855     -0.012281
      6.33044      0.00000      7.50000        -0.000697      0.000299      0.316414
      0.00000      2.11015      7.50000         0.001654     -0.001414      0.319365
      6.33044      2.11015      9.61015        -0.000120     -0.008600      0.025976
      0.00000      0.00000      9.61015         0.007515      0.003785      0.031696
      6.33064      0.00361     11.72756         0.000101     -0.000344     -0.002275
      0.00047      2.11082     11.73283        -0.000704      0.003242      0.003306
      6.32933      2.09399     13.83972        -0.001051      0.007092     -0.005435
      0.00634      0.00245     13.83178        -0.001325     -0.000017     -0.007303
      6.33044      4.22029      7.50000        -0.001097     -0.000180      0.310616
      0.00000      6.33044      7.50000         0.001843      0.001464      0.317551
      6.33044      6.33044      9.61015        -0.002650      0.013290      0.026226
      0.00000      4.22029      9.61015         0.016193     -0.001331      0.035749
      6.32503      4.21954     11.71959        -0.000933     -0.001915      0.004481
      0.00279      6.33134     11.73173        -0.002677     -0.002940      0.002895
      6.33360      6.35882     13.82280         0.000317     -0.005017     -0.004164
      0.02792      4.22149     13.83104        -0.007990     -0.000791     -0.000912
      2.11015      0.00000      9.61015        -0.006575     -0.002005      0.037541
      4.22029      2.11015      9.61015         0.011725      0.017443      0.053394
      2.11015      2.11015      7.50000        -0.000888      0.001419     -0.405106
      4.22029      0.00000      7.50000         0.002255      0.000078     -0.405475
      2.11006      0.00041     13.86354         0.001512     -0.001092      0.006828
      4.22137      2.10193     13.84592        -0.005240     -0.003446      0.002904
      2.10811      2.11158     11.72317        -0.001789      0.002219      0.000740
      4.22178      8.43951     11.71958         0.004045     -0.001074      0.000646
      2.11015      4.22029      9.61015         0.001319      0.002909      0.065194
      4.22029      6.33044      9.61015         0.010791     -0.018178      0.050696
      2.11015      6.33044      7.50000        -0.001494     -0.001383     -0.404703
      4.22029      4.22029      7.50000         0.003191     -0.000142     -0.402321
      2.10986      4.22110     13.86853         0.003372      0.002449      0.005537
      4.22605      6.33779     13.85761        -0.001336      0.001192      0.006663
      2.10965      6.32955     11.72493        -0.000891     -0.000221     -0.000015
      4.22526      4.22148     11.73389        -0.003298     -0.000084     -0.002131
      6.33044      0.00000      9.61015         0.010009      0.003143      0.051643
      0.00000      2.11015      9.61015        -0.009621      0.011011      0.049168
      6.33044      2.11015      7.50000         0.000869      0.002579     -0.400920
      0.00000      0.00000      7.50000        -0.002200     -0.000546     -0.403650
      6.33492      0.00272     13.86209         0.000014      0.001186      0.004744
      0.00114      2.11255     13.86983         0.000732     -0.000299      0.002524
      6.33377      2.11526     11.72829        -0.001148     -0.002097     -0.003768
      0.00023      0.00053     11.72460        -0.000065      0.000198      0.000525
      6.33044      4.22029      9.61015         0.000598      0.002236      0.039954
      0.00000      6.33044      9.61015        -0.004481     -0.007867      0.051963
      6.33044      6.33044      7.50000         0.001682     -0.002343     -0.400239
      0.00000      4.22029      7.50000        -0.003291      0.000668     -0.399885
      6.35355      4.22705     13.87593        -0.001735     -0.004005     -0.005192
      0.00149      6.33171     13.86898        -0.001975     -0.000570      0.000055
      6.33384      6.32757     11.72695        -0.001521     -0.000001     -0.002960
      8.43728      4.22136     11.73020        -0.000593     -0.000080     -0.003670
    total drift:                                0.003456      0.000135     -0.012823

  FREE ENERGIE OF THE ION-ELECTRON SYSTEM (eV)
  free  energy   TOTEN  =      -274.67398106 eV

  energy  without entropy=     -274.67398106  energy(sigma->0) =     -274.67398106

 d Force =-0.1102021E-03[-0.737E-02, 0.715E-02]  d Energy =-0.2335497E-04-0.868E-04
 d Force =-0.3358462E+02[-0.337E+02,-0.335E+02]  d Ewald  =-0.3358489E+02 0.276E-03

 Finite differences progress:
  Degree of freedom:   6/  6
  Displacement:        2/  2
  Total:              12/ 12

 SECOND DERIVATIVES (NOT SYMMETRIZED)
               1X          1Y          1Z          2X          2Y          2Z
  1X   -18.069815  -25.133952  -21.557081   16.240435   24.203093   22.288038
  1Y   -25.149871  -38.796976  -33.853343   23.691066   37.494540   35.159481
  1Z   -21.600670  -33.820039  -34.484933   21.177807   34.164205   34.469594
  2X    16.259484   23.675795   21.175914  -15.379224  -23.233977  -22.125451
  2Y    24.244607   37.489088   34.181450  -23.220420  -37.018992  -35.594453
  2Z    22.270466   35.168222   34.476473  -22.148944  -35.547527  -36.308981

 Eigenvectors and eigenvalues of the dynamical matrix

   1 f  =   53.107296 THz   333.682982 2PiTHz 1771.468712 cm-1   219.634029 meV
             X         Y         Z           dx          dy          dz
      5.376296  4.082511 15.954196     0.315288    0.482649    0.448272
      5.861712  4.854832 16.707181    -0.282421   -0.446158   -0.433448
      2.110146  0.000000  7.500000            0           0           0
      4.220291  2.110146  7.500000            0           0           0
      2.110146  2.110146  9.610146            0           0           0
      4.220291  0.000000  9.610146            0           0           0
      2.111857  0.000476 11.728204            0           0           0
      4.221177  2.113497 11.735376            0           0           0
      2.115574  2.105015 13.827722            0           0           0
      4.218451  0.002468 13.824859            0           0           0
      2.110146  4.220291  7.500000            0           0           0
      4.220291  6.330437  7.500000            0           0           0
      2.110146  6.330437  9.610146            0           0           0
      4.220291  4.220291  9.610146            0           0           0
      2.117602  4.220307 11.733030            0           0           0
      4.220425  6.327302 11.735357            0           0           0
      2.115510  6.336759 13.830979            0           0           0
      4.201163  4.218766 13.881893            0           0           0
      6.330437  0.000000  7.500000            0           0           0
      0.000000  2.110146  7.500000            0           0           0
      6.330437  2.110146  9.610146            0           0           0
      0.000000  0.000000  9.610146            0           0           0
      6.330635  0.003613 11.727562            0           0           0
      0.000475  2.110816 11.732828            0           0           0
      6.329327  2.093986 13.839720            0           0           0
      0.006340  0.002447 13.831779            0           0           0
      6.330437  4.220291  7.500000            0           0           0
      0.000000  6.330437  7.500000            0           0           0
      6.330437  6.330437  9.610146            0           0           0
      0.000000  4.220291  9.610146            0           0           0
      6.325025  4.219535 11.719586            0           0           0
      0.002792  6.331340 11.731732            0           0           0
      6.333602  6.358823 13.822798            0           0           0
      0.027920  4.221487 13.831042            0           0           0
      2.110146  0.000000  9.610146            0           0           0
      4.220291  2.110146  9.610146            0           0           0
      2.110146  2.110146  7.500000            0           0           0
      4.220291  0.000000  7.500000            0           0           0
      2.110064  0.000414 13.863541            0           0           0
      4.221369  2.101933 13.845921            0           0           0
      2.108113  2.111577 11.723173            0           0           0
      4.221783  8.439513 11.719577            0           0           0
      2.110146  4.220291  9.610146            0           0           0
      4.220291  6.330437  9.610146            0           0           0
      2.110146  6.330437  7.500000            0           0           0
      4.220291  4.220291  7.500000            0           0           0
      2.109862  4.221096 13.868527            0           0           0
      4.226048  6.337789 13.857608            0           0           0
      2.109647  6.329548 11.724929            0           0           0
      4.225257  4.221476 11.733890            0           0           0
      6.330437  0.000000  9.610146            0           0           0
      0.000000  2.110146  9.610146            0           0           0
      6.330437  2.110146  7.500000            0           0           0
      0.000000  0.000000  7.500000            0           0           0
      6.334916  0.002717 13.862090            0           0           0
      0.001135  2.112547 13.869832            0           0           0
      6.333768  2.115258 11.728294            0           0           0
      0.000235  0.000532 11.724602            0           0           0
      6.330437  4.220291  9.610146            0           0           0
      0.000000  6.330437  9.610146            0           0           0
      6.330437  6.330437  7.500000            0           0           0
      0.000000  4.220291  7.500000            0           0           0
      6.353552  4.227050 13.875933            0           0           0
      0.001487  6.331709 13.868975            0           0           0
      6.333839  6.327571 11.726947            0           0           0
      8.437282  4.221358 11.730199            0           0           0

[...]

   6 f  =    1.444829 THz     9.078129 2PiTHz   48.194312 cm-1     5.975330 meV
             X         Y         Z           dx          dy          dz
      5.376296  4.082511 15.954196     0.160303   -0.457933   -0.056884
      5.861712  4.854832 16.707181     0.321300   -0.795790    0.157636
      2.110146  0.000000  7.500000            0           0           0
      4.220291  2.110146  7.500000            0           0           0
      2.110146  2.110146  9.610146            0           0           0
      4.220291  0.000000  9.610146            0           0           0
      2.111857  0.000476 11.728204            0           0           0
      4.221177  2.113497 11.735376            0           0           0
      2.115574  2.105015 13.827722            0           0           0
      4.218451  0.002468 13.824859            0           0           0
      2.110146  4.220291  7.500000            0           0           0
      4.220291  6.330437  7.500000            0           0           0
      2.110146  6.330437  9.610146            0           0           0
      4.220291  4.220291  9.610146            0           0           0
      2.117602  4.220307 11.733030            0           0           0
      4.220425  6.327302 11.735357            0           0           0
      2.115510  6.336759 13.830979            0           0           0
      4.201163  4.218766 13.881893            0           0           0
      6.330437  0.000000  7.500000            0           0           0
      0.000000  2.110146  7.500000            0           0           0
      6.330437  2.110146  9.610146            0           0           0
      0.000000  0.000000  9.610146            0           0           0
      6.330635  0.003613 11.727562            0           0           0
      0.000475  2.110816 11.732828            0           0           0
      6.329327  2.093986 13.839720            0           0           0
      0.006340  0.002447 13.831779            0           0           0
      6.330437  4.220291  7.500000            0           0           0
      0.000000  6.330437  7.500000            0           0           0
      6.330437  6.330437  9.610146            0           0           0
      0.000000  4.220291  9.610146            0           0           0
      6.325025  4.219535 11.719586            0           0           0
      0.002792  6.331340 11.731732            0           0           0
      6.333602  6.358823 13.822798            0           0           0
      0.027920  4.221487 13.831042            0           0           0
      2.110146  0.000000  9.610146            0           0           0
      4.220291  2.110146  9.610146            0           0           0
      2.110146  2.110146  7.500000            0           0           0
      4.220291  0.000000  7.500000            0           0           0
      2.110064  0.000414 13.863541            0           0           0
      4.221369  2.101933 13.845921            0           0           0
      2.108113  2.111577 11.723173            0           0           0
      4.221783  8.439513 11.719577            0           0           0
      2.110146  4.220291  9.610146            0           0           0
      4.220291  6.330437  9.610146            0           0           0
      2.110146  6.330437  7.500000            0           0           0
      4.220291  4.220291  7.500000            0           0           0
      2.109862  4.221096 13.868527            0           0           0
      4.226048  6.337789 13.857608            0           0           0
      2.109647  6.329548 11.724929            0           0           0
      4.225257  4.221476 11.733890            0           0           0
      6.330437  0.000000  9.610146            0           0           0
      0.000000  2.110146  9.610146            0           0           0
      6.330437  2.110146  7.500000            0           0           0
      0.000000  0.000000  7.500000            0           0           0
      6.334916  0.002717 13.862090            0           0           0
      0.001135  2.112547 13.869832            0           0           0
      6.333768  2.115258 11.728294            0           0           0
      0.000235  0.000532 11.724602            0           0           0
      6.330437  4.220291  9.610146            0           0           0
      0.000000  6.330437  9.610146            0           0           0
      6.330437  6.330437  7.500000            0           0           0
      0.000000  4.220291  7.500000            0           0           0
      6.353552  4.227050 13.875933            0           0           0
      0.001487  6.331709 13.868975            0           0           0
      6.333839  6.327571 11.726947            0           0           0
      8.437282  4.221358 11.730199            0           0           0

 Finite differences POTIM=   1.0000000000000000E-002