 vasp.6.3.0 20Jan22 (build Apr  1 2022 16:44:48) complex
 executed on        HPECrayEX_GCC date 2022.11.13  07:32:04

 INCAR:
   SYSTEM = MgO-rocksalt
   ISMEAR = 0
   SIGMA = 0.05
   EDIFF = 1E-6
   ALGO = ALL
   ISTART = 0
   IBRION = -1
   NSW = 0
   ISYM = 0
   DIPOL = 0.5 0.5 0.5
   IDIPOL = 3
   LDIPOL = .TRUE.
   LHFCALC = .TRUE.
   GGA = PE
   IVDW = 13
   VDW_S8 = 1.2007
   VDW_A1 = 0.4009
   VDW_A2 = 5.0293
   ENCUT = 600
   PREC = Accurate
   LASPH = .TRUE.
   LREAL = .FALSE.
   ISPIN = 1
   NELM = 200
   NELMIN = 8
   NCORE = 8
   KPAR = 1
   LWAVE = .FALSE.
   LCHARG = .FALSE.

 POTCAR:    PAW_PBE C 08Apr2002
 POTCAR:    PAW_PBE O 08Apr2002
 POTCAR:    PAW_PBE Mg_pv 13Apr2007
 POTCAR:    PAW_PBE O 08Apr2002
 POTCAR:    PAW_PBE C 08Apr2002
   VRHFIN =C: s2p2

   TITEL  = PAW_PBE C 08Apr2002
   POMASS =   12.011; ZVAL   =    4.000    mass and valenz
   ENMAX  =  400.000; ENMIN  =  300.000 eV

[...]

   TITEL  = PAW_PBE Mg_pv 13Apr2007
   POMASS =   24.305; ZVAL   =    8.000    mass and valenz
   ENMAX  =  403.929; ENMIN  =  302.947 eV

   TITEL  = PAW_PBE O 08Apr2002
   POMASS =   16.000; ZVAL   =    6.000    mass and valenz
   ENMAX  =  400.000; ENMIN  =  300.000 eV

  PAW_PBE C 08Apr2002                   :
  PAW_PBE O 08Apr2002                   :
  PAW_PBE Mg_pv 13Apr2007               :
  PAW_PBE O 08Apr2002                   :

 POSCAR:  C  O Mg  O
  positions in direct lattice
|           W    W    AA    RRRRR   N    N  II  N    N   GGGG   !!!           |
|           W    W   A  A   R    R  NN   N  II  NN   N  G    G  !!!           |
|           W    W  A    A  R    R  N N  N  II  N N  N  G       !!!           |
|           W WW W  AAAAAA  RRRRR   N  N N  II  N  N N  G  GGG   !            |
|           WW  WW  A    A  R   R   N   NN  II  N   NN  G    G                |
|           W    W  A    A  R    R  N    N  II  N    N   GGGG   !!!           |
|     Specifying the vdW parameters                                           |
|     VDW_S8 = 1.201                                                          |
|     VDW_A1 = 0.401                                                          |
|     VDW_A2 = 5.029                                                          |
|     in the INCAR file will overwrite the defaults for pbe0. Please make     |
|     sure that is what you intended.                                         |

 ion  position               nearest neighbor table
   1  0.500  0.250  0.723-   2 1.25   3 1.25  41 1.46
   2  0.500  0.387  0.746-   1 1.25  19 2.15
   3  0.500  0.113  0.746-   1 1.25  11 2.15
   4  0.250  0.000  0.352-  36 2.11  38 2.11  39 2.11  46 2.11  55 2.11
   5  0.500  0.250  0.352-  37 2.11  38 2.11  39 2.11  47 2.11  54 2.11
   6  0.250  0.250  0.451-  38 2.11  37 2.11  36 2.11  44 2.11  53 2.11  42 2.12
   7  0.500  0.000  0.451-  39 2.11  37 2.11  36 2.11  45 2.11  52 2.11  43 2.14
   8  0.252  0.999  0.551-  43 2.09  40 2.10  50 2.10  42 2.12  59 2.13  36 2.13
   9  0.500  0.250  0.548-  37 2.07  58 2.09  42 2.09  51 2.09  43 2.09
  10  0.237  0.250  0.647-  57 2.00  42 2.07  48 2.10  40 2.10  41 2.23
  11  0.500  0.989  0.658-  49 2.02  40 2.14  56 2.14   3 2.15  41 2.21
  12  0.250  0.500  0.352-  44 2.11  38 2.11  46 2.11  47 2.11  63 2.11
  13  0.500  0.750  0.352-  45 2.11  39 2.11  46 2.11  47 2.11  62 2.11
  14  0.250  0.750  0.451-  46 2.11  44 2.11  45 2.11  36 2.11  61 2.11  50 2.12
  15  0.500  0.500  0.451-  47 2.11  44 2.11  45 2.11  37 2.11  60 2.11  51 2.14
  16  0.252  0.501  0.551-  51 2.09  48 2.10  50 2.10  42 2.12  67 2.13  44 2.13
  17  0.500  0.750  0.551-  50 2.11  66 2.11  51 2.13  43 2.13  49 2.13  45 2.14
  18  0.247  0.750  0.648-  65 2.09  50 2.11  48 2.12  40 2.12  49 2.13
  19  0.500  0.511  0.658-  49 2.02  48 2.14  64 2.14   2 2.15  41 2.21
  20  0.750  0.000  0.352-  52 2.11  39 2.11  54 2.11  55 2.11  62 2.11
  21  0.000  0.250  0.352-  53 2.11  38 2.11  54 2.11  55 2.11  63 2.11
  22  0.750  0.250  0.451-  54 2.11  52 2.11  53 2.11  37 2.11  60 2.11  58 2.12
  23  0.000  0.000  0.451-  59 2.10  55 2.11  53 2.11  36 2.11  52 2.11  61 2.11
  24  0.748  0.999  0.551-  43 2.09  56 2.10  66 2.10  58 2.12  59 2.13  52 2.13
  25  1.000  0.250  0.549-  53 2.09  59 2.11  67 2.11  58 2.13  42 2.13  57 2.13
  26  0.763  0.250  0.647-  57 2.00  58 2.07  64 2.10  56 2.10  41 2.23
  27  0.000  0.998  0.648-  65 2.09  40 2.09  56 2.09  59 2.11  57 2.13
  28  0.750  0.500  0.352-  60 2.11  54 2.11  47 2.11  62 2.11  63 2.11
  29  0.000  0.750  0.352-  61 2.11  55 2.11  46 2.11  62 2.11  63 2.11
  30  0.750  0.750  0.451-  62 2.11  52 2.11  60 2.11  61 2.11  45 2.11  66 2.12
  31  0.000  0.500  0.451-  67 2.10  63 2.11  60 2.11  61 2.11  44 2.11  53 2.11
  32  0.748  0.501  0.551-  51 2.09  64 2.10  66 2.10  58 2.12  67 2.13  60 2.13
  33  0.000  0.750  0.549-  61 2.11  59 2.11  67 2.11  50 2.12  66 2.12  65 2.13
  34  0.753  0.750  0.648-  65 2.09  66 2.11  64 2.12  56 2.12  49 2.13
  35  0.000  0.502  0.648-  65 2.09  48 2.09  64 2.09  67 2.11  57 2.13
  36  0.250  0.000  0.451-   4 2.11   6 2.11   7 2.11  14 2.11  23 2.11   8 2.13
  37  0.500  0.250  0.451-   9 2.07   5 2.11   7 2.11   6 2.11  15 2.11  22 2.11
  38  0.250  0.250  0.352-   6 2.11   5 2.11   4 2.11  12 2.11  21 2.11
  39  0.500  0.000  0.352-   7 2.11   5 2.11   4 2.11  13 2.11  20 2.11
  40  0.248  0.001  0.649-  27 2.09   8 2.10  10 2.10  18 2.12  11 2.14
  41  0.500  0.250  0.654-   1 1.46  19 2.21  11 2.21  10 2.23  26 2.23
  42  0.252  0.250  0.550-  10 2.07   9 2.09   8 2.12  16 2.12   6 2.12  25 2.13
  43  0.500  0.002  0.551-   8 2.09  24 2.09   9 2.09  17 2.13   7 2.14
  44  0.250  0.500  0.451-  12 2.11   6 2.11  14 2.11  15 2.11  31 2.11  16 2.13
  45  0.500  0.750  0.451-  13 2.11   7 2.11  14 2.11  15 2.11  30 2.11  17 2.14
  46  0.250  0.750  0.352-  14 2.11  12 2.11  13 2.11   4 2.11  29 2.11
  47  0.500  0.500  0.352-  15 2.11  12 2.11  13 2.11   5 2.11  28 2.11
  48  0.248  0.499  0.649-  35 2.09  16 2.10  10 2.10  18 2.12  19 2.14
  49  0.500  0.750  0.651-  11 2.02  19 2.02  18 2.13  34 2.13  17 2.13
  50  0.251  0.750  0.550-   8 2.10  16 2.10  17 2.11  18 2.11  33 2.12  14 2.12
  51  0.500  0.498  0.551-  32 2.09  16 2.09   9 2.09  17 2.13  15 2.14
  52  0.750  0.000  0.451-  20 2.11   7 2.11  22 2.11  23 2.11  30 2.11  24 2.13
  53  0.000  0.250  0.451-  25 2.09  21 2.11  22 2.11  23 2.11   6 2.11  31 2.11
  54  0.750  0.250  0.352-  22 2.11  20 2.11  21 2.11   5 2.11  28 2.11
  55  0.000  0.000  0.352-  23 2.11  20 2.11  21 2.11   4 2.11  29 2.11
  56  0.752  0.001  0.649-  27 2.09  24 2.10  26 2.10  34 2.12  11 2.14
  57  0.000  0.250  0.648-  10 2.00  26 2.00  25 2.13  27 2.13  35 2.13
  58  0.748  0.250  0.550-  26 2.07   9 2.09  24 2.12  32 2.12  22 2.12  25 2.13
  59  0.000  0.000  0.549-  23 2.10  25 2.11  27 2.11  33 2.11   8 2.13  24 2.13
  60  0.750  0.500  0.451-  28 2.11  22 2.11  15 2.11  30 2.11  31 2.11  32 2.13
  61  0.000  0.750  0.451-  33 2.11  29 2.11  14 2.11  30 2.11  31 2.11  23 2.11
  62  0.750  0.750  0.352-  30 2.11  20 2.11  28 2.11  29 2.11  13 2.11
  63  0.000  0.500  0.352-  31 2.11  21 2.11  28 2.11  29 2.11  12 2.11
  64  0.752  0.499  0.649-  35 2.09  32 2.10  26 2.10  34 2.12  19 2.14
  65  0.000  0.750  0.649-  34 2.09  18 2.09  27 2.09  35 2.09  33 2.13
  66  0.749  0.750  0.550-  24 2.10  32 2.10  17 2.11  34 2.11  33 2.12  30 2.12
  67  1.000  0.500  0.549-  31 2.10  25 2.11  35 2.11  33 2.11  16 2.13  32 2.13

IMPORTANT INFORMATION: All symmetrisations will be switched off!
NOSYMM: (Re-)initialisation of all symmetry stuff for point group C_1.

                                     Primitive cell

  volume of cell :    1519.6535

  direct lattice vectors                    reciprocal lattice vectors
     8.440582262  0.000000000  0.000000000     0.118475239  0.000000000  0.000000000
     0.000000000  8.440582262  0.000000000     0.000000000  0.118475239  0.000000000
     0.000000000  0.000000000 21.330436697     0.000000000  0.000000000  0.046881366

  length of vectors
     8.440582262  8.440582262 21.330436697     0.118475239  0.118475239  0.046881366

  position of ions in fractional coordinates (direct lattice)
     0.499999957  0.250002119  0.722582536
     0.499999948  0.386670212  0.745581232
     0.499999969  0.113327960  0.745581478
     0.250000000  0.000000000  0.351610242
     0.500000000  0.250000000  0.351610242
     0.250000000  0.250000000  0.450536747
     0.500000000  0.000000000  0.450536747
     0.252110093  0.999194651  0.550523647
     0.500000019  0.250000028  0.547680792
     0.236593161  0.250000052  0.646621164
     0.499999988  0.988553036  0.657670086
     0.250000000  0.500000000  0.351610242
     0.500000000  0.750000000  0.351610242
     0.250000000  0.750000000  0.450536747
     0.500000000  0.500000000  0.450536747
     0.252110073  0.500805351  0.550523613
     0.499999994  0.750000006  0.550931326
     0.247477629  0.750000013  0.648421986
     0.499999988  0.511447005  0.657670209
     0.750000000  0.000000000  0.351610242
     0.000000000  0.250000000  0.351610242
     0.750000000  0.250000000  0.450536747
     0.000000000  0.000000000  0.450536747
     0.747889908  0.999194672  0.550523683
     0.999999978  0.249999977  0.548541204
     0.763406859  0.250000052  0.646621236
     0.000000014  0.997526310  0.647939595
     0.750000000  0.500000000  0.351610242
     0.000000000  0.750000000  0.351610242
     0.750000000  0.750000000  0.450536747
     0.000000000  0.500000000  0.450536747
     0.747889926  0.500805328  0.550523649
     0.000000005  0.750000001  0.549381517
     0.752522377  0.750000007  0.648421958
     0.000000014  0.502473707  0.647939574
     0.250000000  0.000000000  0.450536747
     0.500000000  0.250000000  0.450536747
     0.250000000  0.250000000  0.351610242
     0.500000000  0.000000000  0.351610242
     0.247904609  0.001470942  0.648966220
     0.499999974  0.250000090  0.653939517
     0.252250631  0.249999994  0.549967438
     0.499999997  0.002150642  0.550851548
     0.250000000  0.500000000  0.450536747
     0.500000000  0.750000000  0.450536747
     0.250000000  0.750000000  0.351610242
     0.500000000  0.500000000  0.351610242
     0.247904500  0.498529147  0.648966208
     0.500000002  0.750000067  0.650988268
     0.250580846  0.750000011  0.549707959
     0.500000000  0.497849411  0.550851532
     0.750000000  0.000000000  0.450536747
     0.000000000  0.250000000  0.450536747
     0.750000000  0.250000000  0.351610242
     0.000000000  0.000000000  0.351610242
     0.752095399  0.001470963  0.648966225
     0.000000013  0.249999942  0.648414146
     0.747749370  0.249999994  0.549967470
     0.000000003  0.000495016  0.549081546
     0.750000000  0.500000000  0.450536747
     0.000000000  0.750000000  0.450536747
     0.750000000  0.750000000  0.351610242
     0.000000000  0.500000000  0.351610242
     0.752095500  0.498529121  0.648966213
     0.000000000  0.750000060  0.649242898
     0.749419155  0.750000004  0.549707974
     0.999999999  0.499504973  0.549081537

  ion indices of the primitive-cell ions
   primitive index   ion index
                 1           1
                 2           2
[...]
   0.50000000  0.49784941  0.55085153
   0.75000000  0.00000000  0.45053675
   0.00000000  0.25000000  0.45053675
   0.75000000  0.25000000  0.35161024
   0.00000000  0.00000000  0.35161024
   0.75209540  0.00147096  0.64896623
   0.00000001  0.24999994  0.64841415
   0.74774937  0.24999999  0.54996747
   0.00000000  0.00049502  0.54908155
   0.75000000  0.50000000  0.45053675
   0.00000000  0.75000000  0.45053675
   0.75000000  0.75000000  0.35161024
   0.00000000  0.50000000  0.35161024
   0.75209550  0.49852912  0.64896621
   0.00000000  0.75000006  0.64924290
   0.74941916  0.75000000  0.54970797
   1.00000000  0.49950497  0.54908154

 position of ions in cartesian coordinates  (Angst):
   4.22029077  2.11016345 15.41300104
   4.22029069  3.26372173 15.90357328
   4.22029087  0.95655397 15.90357851
   2.11014557  0.00000000  7.50000000
   4.22029113  2.11014557  7.50000000
   2.11014557  2.11014557  9.61014557
   4.22029113  0.00000000  9.61014557
   2.12795597  8.43378465 11.74290981
   4.22029129  2.11014580 11.68227047
   1.99698404  2.11014600 13.79271180
   4.22029103  8.34396322 14.02839014
   2.11014557  4.22029113  7.50000000
   4.22029113  6.33043670  7.50000000
   2.11014557  6.33043670  9.61014557
   4.22029113  4.22029113  9.61014557
   2.12795581  4.22708876 11.74290907
   4.22029108  6.33043675 11.75160577
   2.08885529  6.33043681 13.83112412
   4.22029103  4.31691052 14.02839275
   6.33043670  0.00000000  7.50000000
   0.00000000  2.11014557  7.50000000
   6.33043670  2.11014557  9.61014557
   0.00000000  0.00000000  9.61014557
   6.31262629  8.43378482 11.74291056
   8.44058208  2.11014537 11.70062342
   6.44359840  2.11014601 13.79271334
   0.00000012  8.41970288 13.82083452
   6.33043670  4.22029113  7.50000000
   0.00000000  6.33043670  7.50000000
   6.33043670  6.33043670  9.61014557
   0.00000000  4.22029113  9.61014557
   6.31262644  4.22708857 11.74290985
   0.00000004  6.33043671 11.71854766
   6.35172703  6.33043675 13.83112352
   0.00000011  4.24117066 13.82083408
   2.11014557  0.00000000  9.61014557
   4.22029113  2.11014557  9.61014557
   2.11014557  2.11014557  7.50000000
   4.22029113  0.00000000  7.50000000
   2.09245924  0.01241561 13.84273287
   4.22029091  2.11014633 13.94881546
   2.12914221  2.11014552 11.73104561
   4.22029110  0.01815267 11.74990408
   2.11014557  4.22029113  9.61014557
   4.22029113  6.33043670  9.61014557
   2.11014557  6.33043670  7.50000000
   4.22029113  4.22029113  7.50000000
   2.09245833  4.20787627 13.84273261
   4.22029115  6.33043726 13.88586403
   2.11504825  6.33043679 11.72551081
   4.22029113  4.20213891 11.74990373
   6.33043670  0.00000000  9.61014557
   0.00000000  2.11014557  9.61014557
   6.33043670  2.11014557  7.50000000
   0.00000000  0.00000000  7.50000000
   6.34812308  0.01241578 13.84273299
   0.00000011  2.11014508 13.83095689
   6.31144007  2.11014552 11.73104631
   0.00000003  0.00417822 11.71214916
   6.33043670  4.22029113  9.61014557
   0.00000000  6.33043670  9.61014557
   6.33043670  6.33043670  7.50000000
   0.00000000  4.22029113  7.50000000
   6.34812394  4.20787606 13.84273273
   0.00000000  6.33043720 13.84863454
   6.32553403  6.33043673 11.72551115
   8.44058225  4.21611282 11.71214896

--------------------------------------- Iteration      FINAL  ---------------------------------------

--------------------OUTCAR has been truncated-------------------------

[...]

--------------------OUTCAR has been truncated-------------------------

 VOLUME and BASIS-vectors are now :
  energy-cutoff  :      600.00
  volume of cell :     1519.65
      direct lattice vectors                 reciprocal lattice vectors
     8.440582262  0.000000000  0.000000000     0.118475239  0.000000000  0.000000000
     0.000000000  8.440582262  0.000000000     0.000000000  0.118475239  0.000000000
     0.000000000  0.000000000 21.330436697     0.000000000  0.000000000  0.046881366

  length of vectors
     8.440582262  8.440582262 21.330436697     0.118475239  0.118475239  0.046881366

 FORCES acting on ions:
    Electron-Ion                     Ewald-Force                    Non-Local-Force
   0.471E-04 0.120E-01 -.110E+04   -.484E-04 -.146E-01 0.111E+04   0.108E-05 0.126E-03 -.274E+01
   0.539E-04 -.222E+03 -.180E+04   -.602E-04 0.265E+03 0.183E+04   0.568E-05 -.381E+02 -.242E+02
   0.993E-05 0.222E+03 -.180E+04   -.778E-05 -.265E+03 0.183E+04   -.149E-05 0.381E+02 -.242E+02
   -.180E-02 0.789E+00 0.210E+04   0.132E-02 -.829E+00 -.210E+04   -.961E-04 0.250E-01 -.681E+01
   -.118E-04 0.864E-05 0.211E+04   0.125E-04 -.884E-05 -.210E+04   -.850E-06 -.761E-06 -.665E+01
   0.229E+01 0.357E-04 0.754E+03   -.232E+01 -.421E-04 -.754E+03   0.113E-01 0.379E-05 0.670E+00
   -.590E-04 0.608E+01 0.749E+03   0.619E-04 -.636E+01 -.749E+03   -.159E-05 0.168E+00 0.552E+00
   0.538E+01 0.872E+01 -.591E+03   -.478E+01 -.898E+01 0.592E+03   -.535E+00 0.225E+00 -.117E+01
   -.203E-04 -.382E-05 -.572E+03   0.249E-04 0.202E-05 0.567E+03   -.517E-05 0.755E-06 0.441E+01
   0.482E+02 0.100E-03 -.189E+04   -.542E+02 -.231E-03 0.188E+04   0.526E+01 0.787E-04 0.673E+01
   -.484E-04 0.874E+02 -.190E+04   0.425E-04 -.907E+02 0.189E+04   0.520E-05 0.296E+01 0.138E+01
   -.180E-02 -.789E+00 0.210E+04   0.132E-02 0.829E+00 -.210E+04   -.952E-04 -.250E-01 -.681E+01
   -.120E-04 -.823E-05 0.210E+04   0.128E-04 0.879E-05 -.210E+04   -.502E-06 -.335E-06 -.681E+01
   -.112E+01 -.354E-04 0.749E+03   0.121E+01 0.413E-04 -.750E+03   -.544E-01 -.318E-05 0.365E+00
   -.557E-04 -.608E+01 0.749E+03   0.592E-04 0.636E+01 -.749E+03   -.225E-05 -.168E+00 0.552E+00
   0.538E+01 -.872E+01 -.591E+03   -.478E+01 0.898E+01 0.592E+03   -.535E+00 -.225E+00 -.117E+01
   -.389E-04 0.547E-04 -.599E+03   0.370E-04 -.570E-04 0.599E+03   0.204E-05 0.385E-05 -.465E+00
   0.286E+02 0.614E-04 -.197E+04   -.295E+02 0.267E-04 0.196E+04   0.793E+00 -.553E-04 0.612E+01
   -.385E-04 -.874E+02 -.190E+04   0.326E-04 0.907E+02 0.189E+04   0.459E-05 -.296E+01 0.138E+01
   0.180E-02 0.789E+00 0.210E+04   -.132E-02 -.829E+00 -.210E+04   0.965E-04 0.250E-01 -.681E+01
   0.117E-04 0.921E-05 0.210E+04   -.123E-04 -.889E-05 -.210E+04   0.200E-06 -.950E-06 -.669E+01
   -.229E+01 0.375E-04 0.754E+03   0.232E+01 -.437E-04 -.754E+03   -.113E-01 0.372E-05 0.670E+00
   0.572E-04 0.268E+01 0.752E+03   -.599E-04 -.285E+01 -.752E+03   0.158E-05 0.103E+00 0.707E-01
   -.538E+01 0.872E+01 -.591E+03   0.478E+01 -.898E+01 0.592E+03   0.535E+00 0.225E+00 -.117E+01
   0.115E-04 -.309E-04 -.570E+03   -.171E-04 0.764E-05 0.570E+03   0.502E-05 0.159E-04 0.673E-01
   -.482E+02 0.111E-03 -.189E+04   0.542E+02 -.241E-03 0.188E+04   -.526E+01 0.775E-04 0.673E+01
   0.150E-04 0.179E+02 -.198E+04   -.106E-04 -.187E+02 0.197E+04   -.388E-05 0.731E+00 0.602E+01
   0.180E-02 -.789E+00 0.210E+04   -.132E-02 0.829E+00 -.210E+04   0.949E-04 -.250E-01 -.681E+01
   0.122E-04 -.889E-05 0.210E+04   -.128E-04 0.908E-05 -.210E+04   0.593E-06 0.145E-05 -.679E+01
   0.112E+01 -.398E-04 0.749E+03   -.121E+01 0.450E-04 -.750E+03   0.544E-01 -.286E-05 0.365E+00
   0.540E-04 -.268E+01 0.752E+03   -.573E-04 0.285E+01 -.752E+03   0.206E-05 -.103E+00 0.707E-01
   -.538E+01 -.872E+01 -.591E+03   0.478E+01 0.898E+01 0.592E+03   0.535E+00 -.225E+00 -.117E+01
   0.309E-04 0.852E-05 -.595E+03   -.290E-04 0.165E-04 0.595E+03   -.171E-05 -.145E-04 -.189E+00
   -.286E+02 0.447E-04 -.197E+04   0.295E+02 0.439E-04 0.196E+04   -.793E+00 -.559E-04 0.612E+01
   0.157E-04 -.179E+02 -.198E+04   -.956E-05 0.187E+02 0.197E+04   -.495E-05 -.731E+00 0.602E+01
   0.202E+00 0.221E+01 0.562E+03   -.327E+00 -.230E+01 -.561E+03   0.141E+00 0.117E+00 -.292E+00
   -.357E-04 0.251E-04 0.572E+03   0.343E-04 -.294E-04 -.573E+03   0.126E-05 0.442E-05 0.435E+00
   0.152E+00 0.656E-05 0.158E+04   -.161E+00 -.689E-05 -.158E+04   0.104E-01 0.131E-05 0.307E+01
   -.956E-05 0.762E+00 0.158E+04   0.984E-05 -.811E+00 -.158E+04   -.364E-06 0.592E-01 0.303E+01
   0.372E+02 0.292E+02 -.146E+04   -.363E+02 -.293E+02 0.146E+04   -.788E+00 0.105E+00 -.451E+01
   -.366E-04 0.153E-02 -.123E+04   0.433E-04 -.211E-02 0.121E+04   -.543E-05 0.598E-03 0.209E+02
   0.334E+01 -.346E-05 -.430E+03   -.363E+01 -.160E-04 0.429E+03   0.258E+00 0.233E-04 0.817E+00
   -.354E-04 0.851E+01 -.459E+03   0.345E-04 -.891E+01 0.461E+03   0.677E-06 0.370E+00 -.158E+01
   0.202E+00 -.221E+01 0.562E+03   -.327E+00 0.230E+01 -.561E+03   0.141E+00 -.117E+00 -.292E+00
   -.406E-04 -.252E-04 0.558E+03   0.411E-04 0.246E-04 -.558E+03   -.922E-07 -.874E-06 -.267E+00
   -.139E+00 -.532E-05 0.158E+04   0.144E+00 0.691E-05 -.158E+04   -.569E-02 -.152E-05 0.299E+01
   -.917E-05 -.762E+00 0.158E+04   0.966E-05 0.811E+00 -.158E+04   -.522E-06 -.592E-01 0.303E+01
   0.372E+02 -.292E+02 -.146E+04   -.363E+02 0.293E+02 0.146E+04   -.788E+00 -.105E+00 -.451E+01
   -.246E-04 0.282E-03 -.146E+04   0.261E-04 -.194E-03 0.147E+04   -.142E-05 -.109E-03 -.351E+01
   0.288E+01 0.306E-04 -.441E+03   -.301E+01 -.156E-04 0.441E+03   0.115E+00 -.189E-04 0.289E+00
   -.201E-04 -.851E+01 -.459E+03   0.194E-04 0.891E+01 0.461E+03   0.211E-06 -.370E+00 -.158E+01
   -.202E+00 0.221E+01 0.562E+03   0.327E+00 -.230E+01 -.561E+03   -.141E+00 0.117E+00 -.292E+00
   0.334E-04 0.181E-04 0.568E+03   -.323E-04 -.204E-04 -.568E+03   -.144E-05 0.366E-05 0.288E+00
   -.152E+00 0.741E-05 0.158E+04   0.161E+00 -.704E-05 -.158E+04   -.104E-01 0.108E-05 0.307E+01
   0.962E-05 0.470E+00 0.158E+04   -.976E-05 -.507E+00 -.158E+04   0.326E-06 0.431E-01 0.301E+01
   -.372E+02 0.292E+02 -.146E+04   0.363E+02 -.293E+02 0.146E+04   0.788E+00 0.105E+00 -.451E+01
   -.241E-04 -.880E-04 -.149E+04   0.262E-04 0.495E-04 0.149E+04   -.151E-05 0.496E-04 -.447E+01
   -.334E+01 0.435E-05 -.430E+03   0.363E+01 -.242E-04 0.429E+03   -.258E+00 0.231E-04 0.817E+00
   0.316E-04 0.625E+01 -.437E+03   -.323E-04 -.632E+01 0.437E+03   -.240E-06 0.652E-01 0.665E-01
   -.202E+00 -.221E+01 0.562E+03   0.327E+00 0.230E+01 -.561E+03   -.141E+00 -.117E+00 -.292E+00
   0.390E-04 -.236E-04 0.563E+03   -.399E-04 0.269E-04 -.563E+03   0.412E-06 -.463E-05 -.699E-01
   0.139E+00 -.592E-05 0.158E+04   -.144E+00 0.710E-05 -.158E+04   0.569E-02 -.152E-05 0.299E+01
   0.879E-05 -.470E+00 0.158E+04   -.959E-05 0.507E+00 -.158E+04   0.648E-06 -.431E-01 0.301E+01
   -.372E+02 -.292E+02 -.146E+04   0.363E+02 0.293E+02 0.146E+04   0.788E+00 -.105E+00 -.451E+01
   0.807E-05 0.105E-03 -.150E+04   -.738E-05 -.738E-04 0.151E+04   -.585E-07 -.405E-04 -.434E+01
   -.288E+01 0.117E-04 -.441E+03   0.301E+01 0.325E-05 0.441E+03   -.115E+00 -.181E-04 0.289E+00
   0.208E-04 -.625E+01 -.437E+03   -.214E-04 0.632E+01 0.437E+03   0.439E-06 -.652E-01 0.665E-01
   0.108E-04 0.228E-02 0.570E+02   0.239E-12 0.455E-12 -.728E-11   -.941E-05 -.199E-02 -.492E+02

 POSITION                                       TOTAL-FORCE (eV/Angst)
      4.22029      2.11016     15.41300        -0.000000     -0.002466     -0.176751
      4.22029      3.26372     15.90357         0.000000     -0.913779     -0.461565
      4.22029      0.95655     15.90358         0.000000      0.916101     -0.462534
      2.11015      0.00000      7.50000        -0.000606     -0.010914      0.593019
      4.22029      2.11015      7.50000        -0.000000     -0.000001      0.553207
      2.11015      2.11015      9.61015        -0.018577     -0.000002     -0.003435
      4.22029      0.00000      9.61015         0.000001     -0.090821      0.090472
      2.12796      8.43378     11.74291         0.003794     -0.007038      0.000235
      4.22029      2.11015     11.68227        -0.000001     -0.000001     -0.106574
      1.99698      2.11015     13.79271        -0.090405     -0.000039     -0.197066
      4.22029      8.34396     14.02839        -0.000000     -0.041313     -0.115589
      2.11015      4.22029      7.50000        -0.000606      0.010914      0.593013
      4.22029      6.33044      7.50000         0.000000     -0.000000      0.597767
      2.11015      6.33044      9.61015         0.024522      0.000002      0.078056
      4.22029      4.22029      9.61015         0.000001      0.090823      0.090468
      2.12796      4.22709     11.74291         0.003798      0.007040      0.000218
      4.22029      6.33044     11.75161         0.000000      0.000002     -0.005983
      2.08886      6.33044     13.83112        -0.003497      0.000024     -0.205615
      4.22029      4.31691     14.02839        -0.000001      0.041425     -0.115769
      6.33044      0.00000      7.50000         0.000606     -0.010914      0.593018
      0.00000      2.11015      7.50000        -0.000001     -0.000001      0.565962
      6.33044      2.11015      9.61015         0.018578     -0.000002     -0.003434
      0.00000      0.00000      9.61015        -0.000001     -0.047634      0.082117
      6.31263      8.43378     11.74291        -0.003793     -0.007039      0.000235
      8.44058      2.11015     11.70062         0.000000     -0.000005     -0.012449
      6.44360      2.11015     13.79271         0.090404     -0.000040     -0.197066
      0.00000      8.41970     13.82083         0.000000     -0.004161     -0.207964
      6.33044      4.22029      7.50000         0.000605      0.010914      0.593015
      0.00000      6.33044      7.50000         0.000000      0.000002      0.594157
      6.33044      6.33044      9.61015        -0.024522      0.000002      0.078057
      0.00000      4.22029      9.61015        -0.000001      0.047633      0.082112
      6.31263      4.22709     11.74291        -0.003798      0.007039      0.000218
      0.00000      6.33044     11.71855         0.000000      0.000008     -0.014279
      6.35173      6.33044     13.83112         0.003496      0.000024     -0.205603
      0.00000      4.24117     13.82083         0.000001      0.004166     -0.208028
      2.11015      0.00000      9.61015         0.041545      0.042355      0.039225
      4.22029      2.11015      9.61015         0.000000      0.000001     -0.030001
      2.11015      2.11015      7.50000         0.003543      0.000001     -0.399291
      4.22029      0.00000      7.50000        -0.000000      0.020223     -0.413565
      2.09246      0.01242     13.84273        -0.018173      0.002040     -0.055390
      4.22029      2.11015     13.94882         0.000000      0.000125      0.930852
      2.12914      2.11015     11.73105         0.017075      0.000008      0.017820
      4.22029      0.01815     11.74990        -0.000000      0.021522     -0.026961
      2.11015      4.22029      9.61015         0.041543     -0.042354      0.039224
      4.22029      6.33044      9.61015         0.000000     -0.000002      0.092289
      2.11015      6.33044      7.50000        -0.002088     -0.000000     -0.424436
      4.22029      4.22029      7.50000        -0.000000     -0.020223     -0.413562
      2.09246      4.20788     13.84273        -0.018123     -0.002058     -0.055331
      4.22029      6.33044     13.88586        -0.000000     -0.000042     -0.036791
      2.11505      6.33044     11.72551         0.003694     -0.000007      0.003119
      4.22029      4.20214     11.74990        -0.000000     -0.021521     -0.026948
      6.33044      0.00000      9.61015        -0.041545      0.042356      0.039225
      0.00000      2.11015      9.61015        -0.000001      0.000002      0.032573
      6.33044      2.11015      7.50000        -0.003542      0.000002     -0.399290
      0.00000      0.00000      7.50000         0.000000      0.014576     -0.417294
      6.34812      0.01242     13.84273         0.018173      0.002040     -0.055391
      0.00000      2.11015     13.83096         0.000000      0.000020     -0.048167
      6.31144      2.11015     11.73105        -0.017074      0.000007      0.017820
      0.00000      0.00418     11.71215        -0.000001      0.003284      0.000675
      6.33044      4.22029      9.61015        -0.041544     -0.042355      0.039225
      0.00000      6.33044      9.61015        -0.000000     -0.000002     -0.000872
      6.33044      6.33044      7.50000         0.002087     -0.000001     -0.424436
      0.00000      4.22029      7.50000        -0.000000     -0.014577     -0.417292
      6.34812      4.20788     13.84273         0.018125     -0.002059     -0.055331
      0.00000      6.33044     13.84863         0.000001     -0.000017     -0.041152
      6.32553      6.33044     11.72551        -0.003694     -0.000006      0.003119
      8.44058      4.21611     11.71215        -0.000000     -0.003285      0.000692
    total drift:                                0.000001      0.000006      0.001981

  FREE ENERGIE OF THE ION-ELECTRON SYSTEM (eV)
  free  energy   TOTEN  =      -502.31042725 eV

  energy  without entropy=     -502.31042725  energy(sigma->0) =     -502.31042725