 vasp.6.3.0 20Jan22 (build Aug 21 2024 11:13:42) complex
 executed on        HPECrayEX_GCC date 2024.11.27  01:46:18

 INCAR:
   SYSTEM = TiO2
   ISMEAR = 0
   SIGMA = 0.05
   EDIFF = 1E-4
   ALGO = ALL
   ISTART = 0
   IBRION = -1
   NSW = 0
   ISYM = 0
   ISIF = 2
   EDIFFG = -0.01
   DIPOL = 0.5 0.5 0.5
   IDIPOL = 3
   LDIPOL = .TRUE.
   METAGGA = R2SCAN
   LUSE_VDW = .TRUE.
   BPARAM = 11.95
   CPARAM = 0.0093
   LASPH = .TRUE.
   ENCUT = 600
   PREC = Accurate
   LASPH = .TRUE.
   LREAL = .FALSE.
   ISPIN = 1
   NELM = 200
   NELMIN = 8
   NCORE = 16
   KPAR = 1
   LWAVE = .FALSE.
   LCHARG = .FALSE.

 POTCAR:    PAW_PBE C 08Apr2002
 POTCAR:    PAW_PBE O 08Apr2002
 POTCAR:    PAW_PBE H 15Jun2001
 POTCAR:    PAW_PBE Ti_pv 07Sep2000
 POTCAR:    PAW_PBE O 08Apr2002
|               ----> ADVICE to this user running VASP <----                  |
|     You have switched on vdW-DFT.                                           |
|     This routine was written and supplied by Jiri Klimes. We recommend      |
|     that you carefully read and cite the following publications:            |
|       J. Klimes, D.R. Bowler, A. Michelides                                 |
|          J. Phys.: Cond Matt. 22 022201 (2010)                              |
|       J. Klimes, D.R. Bowler, A. Michelides                                 |
|          Phys. Rev. B. 83, 195131 (2011)                                    |
|     and references therein.                                                 |

   TITEL  = PAW_PBE C 08Apr2002
   POMASS =   12.011; ZVAL   =    4.000    mass and valenz
   ENMAX  =  400.000; ENMIN  =  300.000 eV

[...]

   TITEL  = PAW_PBE H 15Jun2001
   POMASS =    1.000; ZVAL   =    1.000    mass and valenz
   ENMAX  =  250.000; ENMIN  =  200.000 eV

   TITEL  = PAW_PBE Ti_pv 07Sep2000
   POMASS =   47.880; ZVAL   =   10.000    mass and valenz
   ENMAX  =  222.335; ENMIN  =  166.751 eV

   TITEL  = PAW_PBE O 08Apr2002
   POMASS =   16.000; ZVAL   =    6.000    mass and valenz
   ENMAX  =  400.000; ENMIN  =  300.000 eV

  PAW_PBE C 08Apr2002                   :
  PAW_PBE O 08Apr2002                   :
  PAW_PBE H 15Jun2001                   :
  PAW_PBE Ti_pv 07Sep2000               :
  PAW_PBE O 08Apr2002                   :

 POSCAR:  C  O  H Ti  O
  positions in direct lattice

 METAGGA = R2SCA    LMAXTAU =  6    LMIXTAU =  F

 ion  position               nearest neighbor table
   1  0.509  0.589  0.844-   3 1.09   5 1.09   6 1.09   2 1.43
   2  0.538  0.500  0.811-   4 0.99   1 1.43  86 2.13
   3  0.425  0.598  0.842-   1 1.09
   4  0.615  0.493  0.810-   2 0.99
   5  0.532  0.566  0.881-   1 1.09
   6  0.547  0.669  0.834-   1 1.09
   7  0.750  0.625  0.265-  87 1.94  88 1.94 147 1.94 148 1.94 169 1.96  90 1.96  17 2.94  37 2.94

   8  0.000  0.750  0.265-  90 1.94 110 1.94 109 1.94  89 1.94  91 1.96  38 2.94  18 2.94
   9  0.000  0.625  0.382-  91 1.94  92 1.94 151 1.94 152 1.94  93 1.96  94 1.96  19 2.94  39 2.94

[...]

  87  0.750  0.750  0.219-   7 1.94  17 1.94
  88  0.750  0.750  0.311-   7 1.94  17 1.94  10 1.96
  89  0.098  0.625  0.265-   8 1.94  38 1.94  47 1.96
  90  0.902  0.625  0.265-   8 1.94  38 1.94   7 1.96
  91  0.000  0.750  0.336-   9 1.94  19 1.94   8 1.96
  92  0.000  0.750  0.428-   9 1.94  19 1.94  12 1.96
  93  0.848  0.625  0.382-  10 1.94  40 1.94   9 1.96
  94  0.152  0.625  0.382-  50 1.94  80 1.94   9 1.96
  95  0.750  0.750  0.454-  11 1.94  21 1.94  10 1.96
  96  0.750  0.750  0.546-  11 1.94  21 1.94  14 2.07
  97  0.098  0.625  0.500-  12 1.94  42 1.94  51 1.96
  98  0.902  0.625  0.500-  12 1.94  42 1.94  11 1.96
  99  0.000  0.750  0.572-  23 1.89  13 1.89  12 1.98
 100  0.999  0.750  0.665-  16 1.81  13 2.00  23 2.00
 101  0.850  0.625  0.618-  13 1.94  14 1.96  44 1.96
 102  0.150  0.625  0.619-  13 1.93  54 1.96  84 1.96
 103  0.754  0.751  0.690-  14 1.87  15 2.05  25 2.07
 104  0.748  0.749  0.783-  15 1.83  25 1.84
 105  0.094  0.625  0.743-  46 1.93  16 1.93  55 2.02
 106  0.906  0.624  0.744-  46 1.93  16 1.94  15 2.01
 107  0.750  0.000  0.219-  17 1.94  27 1.94
 108  0.750  0.000  0.311-  17 1.94  27 1.94  20 1.96
 109  0.098  0.875  0.265-   8 1.94  18 1.94  57 1.96
 110  0.902  0.875  0.265-   8 1.94  18 1.94  17 1.96
 111  0.000  0.000  0.336-  19 1.94  29 1.94  18 1.96
 112  0.000  0.000  0.428-  19 1.94  29 1.94  22 1.96
 113  0.848  0.875  0.382-  10 1.94  20 1.94  19 1.96
 114  0.152  0.875  0.382-  50 1.94  60 1.94  19 1.96
 115  0.750  0.000  0.454-  21 1.94  31 1.94  20 1.96
 116  0.750  0.000  0.546-  21 1.94  31 1.94  24 2.09
 117  0.098  0.875  0.500-  12 1.94  22 1.94  61 1.96
 118  0.902  0.875  0.500-  12 1.94  22 1.94  21 1.96
 119  0.000  0.000  0.572-  33 1.89  23 1.89  22 1.98
 120  1.000  1.000  0.665-  26 1.81  23 2.00  33 2.00
 121  0.850  0.876  0.618-  23 1.94  24 1.96  14 1.96
 122  0.150  0.875  0.619-  23 1.93  64 1.96  54 1.96
 123  0.750  1.000  0.690-  24 1.87  35 2.06  25 2.07
 124  0.750  1.000  0.783-  35 1.83  25 1.83
 125  0.094  0.875  0.743-  16 1.92  26 1.93  65 2.02
 126  0.906  0.875  0.743-  16 1.93  26 1.93  25 2.02
 127  0.750  0.250  0.219-  27 1.94  37 1.94
 128  0.750  0.250  0.311-  27 1.94  37 1.94  30 1.96
 129  0.098  0.125  0.265-  18 1.94  28 1.94  67 1.96
 130  0.902  0.125  0.265-  18 1.94  28 1.94  27 1.96
 131  0.000  0.250  0.336-  29 1.94  39 1.94  28 1.96
 132  0.000  0.250  0.428-  29 1.94  39 1.94  32 1.96
 133  0.848  0.125  0.382-  20 1.94  30 1.94  29 1.96
 134  0.152  0.125  0.382-  60 1.94  70 1.94  29 1.96
 135  0.750  0.250  0.454-  31 1.94  41 1.94  30 1.96
 136  0.750  0.250  0.546-  31 1.94  41 1.94  34 2.07
 137  0.098  0.125  0.500-  22 1.94  32 1.94  71 1.96
 138  0.902  0.125  0.500-  22 1.94  32 1.94  31 1.96
 139  0.000  0.250  0.572-  33 1.89  43 1.89  32 1.98
 140  0.999  0.250  0.665-  36 1.81  43 2.00  33 2.00
 141  0.850  0.125  0.618-  33 1.94  24 1.96  34 1.96
 142  0.150  0.125  0.619-  33 1.93  64 1.96  74 1.96
 143  0.753  0.249  0.690-  34 1.88  45 2.04  35 2.08
 144  0.749  0.251  0.783-  45 1.82  35 1.84
 145  0.094  0.125  0.743-  36 1.92  26 1.93  75 2.02
 146  0.906  0.125  0.743-  36 1.93  26 1.93  35 2.02
[...]
 232  0.500  0.500  0.428-  49 1.94  79 1.94  82 1.96
 233  0.348  0.375  0.382-  70 1.94  80 1.94  79 1.96
 234  0.652  0.375  0.382-  30 1.94  40 1.94  79 1.96
 235  0.250  0.500  0.454-  51 1.94  81 1.94  80 1.96
 236  0.250  0.500  0.546-  51 1.94  81 1.94  84 2.09
 237  0.598  0.375  0.500-  72 1.94  82 1.94  41 1.96
 238  0.402  0.375  0.500-  72 1.94  82 1.94  81 1.96
 239  0.500  0.500  0.573-  53 1.89  83 1.89  82 1.99
 240  0.499  0.500  0.666-  86 1.92  53 1.96  83 1.96
 241  0.349  0.375  0.619-  83 1.95  74 1.95  84 1.95
 242  0.651  0.375  0.619-  83 1.94  34 1.95  44 1.96
 243  0.249  0.500  0.690-  84 1.87  55 2.07  85 2.07
 244  0.252  0.500  0.783-  55 1.83  85 1.83
 245  0.596  0.371  0.738-  76 1.91  86 1.94  45 2.00
 246  0.406  0.374  0.742-  76 1.92  86 1.93  85 2.01

IMPORTANT INFORMATION: All symmetrisations will be switched off!
NOSYMM: (Re-)initialisation of all symmetry stuff for point group C_1.

                                     Primitive cell

  volume of cell :    4157.1448

  direct lattice vectors                    reciprocal lattice vectors
    12.893495846  0.000000000  0.000000000     0.077558485  0.000000000  0.000000000
     0.000000000 11.761907618  0.000000000     0.000000000  0.085020222  0.000000000
     0.000000000  0.000000000 27.412377441     0.000000000  0.000000000  0.036479871

  length of vectors
    12.893495846 11.761907618 27.412377441     0.077558485  0.085020222  0.036479871

  position of ions in fractional coordinates (direct lattice)
     0.509027775  0.589067994  0.843865579
     0.538444254  0.499590277  0.811358094
     0.425238696  0.598191900  0.841865591
     0.615038446  0.493487990  0.810157546
     0.532078335  0.566361265  0.880841685
     0.547250826  0.668614091  0.833621934
     0.750000000  0.625000000  0.264823466
     0.000000000  0.750000000  0.264823466
     0.000000000  0.625000000  0.382411733
     0.750000000  0.750000000  0.382411733
     0.750000000  0.625000000  0.500000000
     0.000000000  0.750000000  0.500000000
     0.000304465  0.625070266  0.615606865
     0.750353063  0.750159723  0.621603665
     0.750765594  0.625919416  0.741989870
     0.999687943  0.750176404  0.731161418
     0.750000000  0.875000000  0.264823466
     0.000000000  0.000000000  0.264823466
     0.000000000  0.875000000  0.382411733
     0.750000000  0.000000000  0.382411733
     0.750000000  0.875000000  0.500000000
     0.000000000  0.000000000  0.500000000
     0.000089277  0.875045794  0.615705770
     0.749717307  0.000014340  0.622021512
     0.749557384  0.875022924  0.743354232
     0.000027649  0.999910797  0.731148500
     0.750000000  0.125000000  0.264823466
     0.000000000  0.250000000  0.264823466
     0.000000000  0.125000000  0.382411733
     0.750000000  0.250000000  0.382411733
     0.750000000  0.125000000  0.500000000
     0.000000000  0.250000000  0.500000000
     0.000079199  0.124942872  0.615710704
     0.750124479  0.249840259  0.621573653
     0.749514052  0.124408572  0.743370559
     0.999882900  0.249721784  0.731163762
     0.750000000  0.375000000  0.264823466
     0.000000000  0.500000000  0.264823466
     0.000000000  0.375000000  0.382411733
     0.750000000  0.500000000  0.382411733
     0.750000000  0.375000000  0.500000000
     0.000000000  0.500000000  0.500000000
     0.000238998  0.374950173  0.615605808
     0.750831018  0.499973620  0.621781720
     0.751230769  0.373380421  0.742120693
     0.000827188  0.500027722  0.731063232
     0.250000000  0.625000000  0.264823466
     0.500000000  0.750000000  0.264823466
     0.500000000  0.625000000  0.382411733
     0.250000000  0.750000000  0.382411733
     0.250000000  0.625000000  0.500000000
     0.500000000  0.750000000  0.500000000
     0.500323334  0.622546437  0.617078705
     0.250368305  0.749947859  0.621962278
     0.250302118  0.625146994  0.743224012
     0.499813019  0.750365502  0.729592281
     0.250000000  0.875000000  0.264823466
     0.500000000  0.000000000  0.264823466
     0.500000000  0.875000000  0.382411733
     0.250000000  0.000000000  0.382411733
[...]
     0.500000000  0.500000000  0.428355971
     0.347680320  0.375000000  0.382411733
     0.652319680  0.375000000  0.382411733
     0.250000000  0.500000000  0.454055762
     0.250000000  0.500000000  0.545944238
     0.597680320  0.375000000  0.500000000
     0.402319680  0.375000000  0.500000000
     0.500256384  0.499839431  0.572590603
     0.499344310  0.500172587  0.665638014
     0.349300095  0.375007941  0.618679817
     0.650800897  0.374969107  0.619094960
     0.249229851  0.500238244  0.690195753
     0.251837424  0.500192086  0.783078613
     0.596066485  0.371341033  0.737971974
     0.406490679  0.373990830  0.741670574

  ion indices of the primitive-cell ions
   primitive index   ion index
                 1           1
                 2           2
                 3           3
                 4           4
                 5           5
                 6           6
[...]
   6.45091683  7.32233368 16.91559436
   3.22812271  8.82081744 17.04946471
   3.22726932  7.35292119 20.37353715
   6.44433709  8.82572971 19.99985898
   3.22337396 10.29166917  7.25944080
   6.44674792  0.00000000  7.25944080
   6.44674792 10.29166917 10.48281476
   3.22337396  0.00000000 10.48281476
[...]
   6.44674792  5.88095381 11.74225556
   4.48281476  4.41071536 10.48281476
   8.41068109  4.41071536 10.48281476
   3.22337396  5.88095381 12.44674792
   3.22337396  5.88095381 14.96562952
   7.70618872  4.41071536 13.70618872
   5.18730713  4.41071536 13.70618872
   6.45005361  5.87906522 15.69606972
   6.43829379  5.88298377 18.24672049
   4.50369933  4.41080876 16.95948467
   8.39109866  4.41035200 16.97086472
   3.21344405  5.88375601 18.91990649
   3.24706478  5.88321311 21.46604650
   7.68538074  4.36767893 20.22956630
   5.24108588  4.39884559 20.33095371

--------------------------------------- Iteration      FINAL  ---------------------------------------

--------------------OUTCAR has been truncated-------------------------

[...]

--------------------OUTCAR has been truncated-------------------------

  FORCE on cell =-STRESS in cart. coord.  units (eV):
  Direction    XX          YY          ZZ          XY          YZ          ZX
  Alpha Z  5326.96165  5326.96165  5326.96165
  Ewald  670177.16167687856.60214************   -75.76016   135.67508   -79.63447
  Hartree712628.01290722083.24501************   -40.12006    78.21884   -50.16649
  E(xc)   -9203.85173 -9213.17354 -9201.98504     0.17708    -0.26136     0.01093
  Local  ************************************   109.47806  -204.39896   126.63734
  n-local -5196.44247 -5095.34698 -5241.44444    -1.06129     1.82611    -0.70106
  augment  5520.51084  5488.54111  5526.70745     0.50804    -0.78036     0.10879
  Kinetic 28961.79351 28482.71183 29013.01918     6.68451   -10.08476     3.89431
  Fock        0.00000     0.00000     0.00000     0.00000     0.00000     0.00000
  Total      78.77430    38.78426    18.28568    -0.09382     0.19458     0.14936
  in kB      30.35988    14.94758     7.04736    -0.03616     0.07499     0.05756

 VOLUME and BASIS-vectors are now :
  energy-cutoff  :      600.00
  volume of cell :     4157.14
      direct lattice vectors                 reciprocal lattice vectors
    12.893495846  0.000000000  0.000000000     0.077558485  0.000000000  0.000000000
     0.000000000 11.761907618  0.000000000     0.000000000  0.085020222  0.000000000
     0.000000000  0.000000000 27.412377441     0.000000000  0.000000000  0.036479871

  length of vectors
    12.893495846 11.761907618 27.412377441     0.077558485  0.085020222  0.036479871

 FORCES acting on ions:
    Electron-Ion                     Ewald-Force                    Non-Local-Force
   0.392E+02 -.939E+02 -.136E+04   -.419E+02 0.993E+02 0.137E+04   0.262E+01 -.517E+01 -.479E+01
   0.217E+02 0.127E+03 -.218E+04   -.445E+02 -.153E+03 0.217E+04   0.228E+02 0.257E+02 0.994E+01
   0.586E+02 -.156E+02 -.332E+03   -.648E+02 0.163E+02 0.332E+03   0.615E+01 -.648E+00 0.253E+00
   -.711E+02 0.175E+02 -.373E+03   0.791E+02 -.182E+02 0.373E+03   -.784E+01 0.758E+00 0.294E+00
   -.115E+02 0.579E+01 -.315E+03   0.131E+02 -.723E+01 0.321E+03   -.159E+01 0.143E+01 -.565E+01
   -.191E+02 -.620E+02 -.332E+03   0.218E+02 0.672E+02 0.331E+03   -.268E+01 -.506E+01 0.138E+01
   -.607E+00 -.110E+00 0.337E+04   0.604E+00 0.111E+00 -.337E+04   0.805E-03 0.429E-05 0.439E+00
   -.112E+00 -.238E+00 0.355E+04   0.114E+00 0.238E+00 -.355E+04   -.156E-03 -.810E-04 -.402E+01
   -.260E+00 -.651E-01 0.173E+04   0.268E+00 0.649E-01 -.173E+04   -.136E-02 0.131E-03 -.517E-01
   -.498E+00 -.122E+00 0.172E+04   0.487E+00 0.123E+00 -.172E+04   0.276E-02 0.677E-04 0.204E+00
   -.903E+00 -.134E+00 0.681E+01   0.848E+00 0.120E+00 -.608E+01   0.946E-02 0.391E-03 -.118E+00
   -.111E+01 -.986E+00 0.132E+02   0.114E+01 0.993E+00 -.142E+02   -.634E-02 -.374E-02 0.323E+00
   -.556E+01 -.192E+01 -.166E+04   0.556E+01 0.193E+01 0.166E+04   -.274E-02 -.785E-02 0.131E+00
   -.797E+01 -.972E+01 -.169E+04   0.799E+01 0.972E+01 0.169E+04   -.152E-01 -.702E-02 -.155E+00
   -.101E+03 -.175E+02 -.326E+04   0.101E+03 0.174E+02 0.326E+04   0.202E+00 0.118E+00 -.123E+00
   -.553E+01 -.648E+01 -.336E+04   0.559E+01 0.649E+01 0.336E+04   -.654E-01 -.171E-01 0.108E+01
   -.568E+00 -.279E+00 0.337E+04   0.565E+00 0.280E+00 -.337E+04   0.893E-03 0.245E-04 0.439E+00
   -.104E+00 -.100E+00 0.355E+04   0.106E+00 0.100E+00 -.355E+04   -.131E-03 -.402E-04 -.402E+01
   -.222E+00 -.198E+00 0.173E+04   0.230E+00 0.198E+00 -.173E+04   -.128E-02 0.111E-03 -.518E-01
   -.581E+00 -.111E+00 0.172E+04   0.570E+00 0.110E+00 -.172E+04   0.263E-02 -.122E-04 0.203E+00
   -.226E+01 -.110E+01 0.514E+01   0.223E+01 0.114E+01 -.439E+01   0.688E-02 -.177E-02 -.121E+00
   -.785E+00 -.329E+00 0.116E+02   0.808E+00 0.330E+00 -.126E+02   -.546E-02 -.295E-03 0.321E+00
   -.307E+01 -.311E+01 -.167E+04   0.307E+01 0.312E+01 0.167E+04   0.438E-03 -.102E-01 0.133E+00
   -.529E+01 -.200E+01 -.171E+04   0.531E+01 0.200E+01 0.171E+04   -.171E-01 0.226E-02 -.169E+00
   -.303E+02 -.291E+02 -.331E+04   0.302E+02 0.291E+02 0.331E+04   0.549E-01 0.138E-01 -.275E+00
   -.456E+01 -.227E+01 -.337E+04   0.454E+01 0.227E+01 0.337E+04   0.208E-01 -.312E-02 0.112E+01
   -.543E+00 0.110E+00 0.337E+04   0.540E+00 -.110E+00 -.337E+04   0.892E-03 0.326E-04 0.439E+00
   -.111E+00 0.237E+00 0.355E+04   0.113E+00 -.238E+00 -.355E+04   -.177E-03 0.761E-04 -.402E+01
   -.225E+00 0.681E-01 0.173E+04   0.234E+00 -.678E-01 -.173E+04   -.138E-02 -.107E-03 -.518E-01
   -.455E+00 0.122E+00 0.172E+04   0.444E+00 -.123E+00 -.172E+04   0.266E-02 -.720E-04 0.204E+00
   -.209E+01 0.437E+00 0.455E+01   0.205E+01 -.485E+00 -.380E+01   0.820E-02 0.246E-02 -.120E+00
   -.114E+01 0.982E+00 0.126E+02   0.117E+01 -.989E+00 -.136E+02   -.688E-02 0.396E-02 0.323E+00
   -.215E+01 0.159E+01 -.167E+04   0.214E+01 -.159E+01 0.167E+04   0.225E-02 0.862E-02 0.136E+00
   -.719E+01 0.945E+01 -.169E+04   0.720E+01 -.945E+01 0.169E+04   -.104E-01 0.100E-02 -.165E+00
   -.219E+02 0.158E+02 -.332E+04   0.219E+02 -.158E+02 0.332E+04   0.497E-01 0.415E-02 -.289E+00
   -.480E+01 0.620E+01 -.337E+04   0.485E+01 -.620E+01 0.337E+04   -.545E-01 0.138E-01 0.108E+01
   -.582E+00 0.280E+00 0.337E+04   0.579E+00 -.281E+00 -.337E+04   0.750E-03 -.335E-04 0.440E+00
   -.119E+00 0.100E+00 0.355E+04   0.121E+00 -.101E+00 -.355E+04   -.179E-03 0.326E-04 -.402E+01
   -.264E+00 0.195E+00 0.173E+04   0.272E+00 -.195E+00 -.173E+04   -.144E-02 -.131E-03 -.517E-01
   -.378E+00 0.110E+00 0.172E+04   0.367E+00 -.110E+00 -.172E+04   0.245E-02 -.900E-05 0.204E+00
   -.694E+00 0.795E+00 0.625E+01   0.637E+00 -.773E+00 -.553E+01   0.103E-01 -.101E-02 -.117E+00
   -.127E+01 0.335E+00 0.142E+02   0.130E+01 -.335E+00 -.152E+02   -.772E-02 0.698E-05 0.320E+00
   -.515E+01 0.356E+01 -.166E+04   0.515E+01 -.356E+01 0.166E+04   -.299E-02 0.772E-02 0.132E+00
   -.864E+01 0.202E+01 -.168E+04   0.869E+01 -.203E+01 0.168E+04   -.542E-01 0.450E-02 -.161E+00
   -.854E+02 0.285E+02 -.328E+04   0.853E+02 -.284E+02 0.328E+04   0.138E+00 -.143E+00 -.134E+00
   -.758E+01 0.287E+01 -.336E+04   0.755E+01 -.288E+01 0.336E+04   0.339E-01 0.352E-02 0.103E+01
   0.607E+00 -.100E+00 0.337E+04   -.604E+00 0.100E+00 -.337E+04   -.108E-02 -.448E-05 0.438E+00
   0.112E+00 -.298E+00 0.355E+04   -.114E+00 0.299E+00 -.354E+04   0.667E-03 -.221E-03 -.403E+01
   0.242E+00 0.136E+00 0.173E+04   -.250E+00 -.124E+00 -.173E+04   0.114E-02 -.239E-02 -.543E-01
   0.516E+00 -.649E-01 0.172E+04   -.505E+00 0.652E-01 -.172E+04   -.211E-02 -.303E-06 0.199E+00
   0.160E+01 0.171E+00 0.419E+01   -.154E+01 -.188E+00 -.338E+01   -.127E-01 0.108E-02 -.130E+00
   0.105E+01 0.699E+00 0.180E+02   -.106E+01 -.801E+00 -.188E+02   -.831E-03 0.460E-01 0.242E+00
   0.331E+01 -.126E+02 -.165E+04   -.333E+01 0.128E+02 0.164E+04   0.548E-02 -.990E-01 0.109E+00
   0.137E+02 -.690E+01 -.170E+04   -.137E+02 0.689E+01 0.170E+04   -.122E-01 0.959E-02 -.158E+00
   0.663E+02 -.157E+02 -.328E+04   -.663E+02 0.157E+02 0.328E+04   0.490E-01 0.263E-02 -.297E+00
   0.225E+02 -.834E+02 -.327E+04   -.224E+02 0.834E+02 0.327E+04   -.173E+00 -.447E-01 0.125E+01
   0.568E+00 -.267E+00 0.337E+04   -.565E+00 0.268E+00 -.337E+04   -.123E-02 0.146E-04 0.439E+00
   0.104E+00 -.138E+00 0.355E+04   -.106E+00 0.139E+00 -.354E+04   0.639E-03 -.438E-04 -.402E+01
   0.206E+00 -.647E-01 0.173E+04   -.213E+00 0.656E-01 -.173E+04   0.104E-02 -.111E-02 -.547E-01
   0.596E+00 -.118E+00 0.172E+04   -.585E+00 0.118E+00 -.172E+04   -.215E-02 0.526E-04 0.199E+00
[...]
   -.546E+02 0.575E-01 0.103E+04   0.588E+02 -.584E-01 -.103E+04   -.359E+01 0.130E-02 0.178E+00
   0.548E+02 0.720E-01 0.103E+04   -.590E+02 -.728E-01 -.103E+04   0.360E+01 0.136E-02 0.188E+00
   0.423E+00 0.175E+00 0.459E+03   -.402E+00 -.177E+00 -.463E+03   -.284E-01 0.445E-02 0.428E+01
   0.191E+01 0.686E+00 -.469E+03   -.186E+01 -.688E+00 0.476E+03   -.694E-01 0.121E-02 -.711E+01
   -.558E+02 0.383E-01 0.883E+01   0.608E+02 -.434E-01 -.898E+01   -.516E+01 0.275E-01 0.219E+00
   0.570E+02 -.209E-01 0.814E+01   -.619E+02 0.127E-01 -.827E+01   0.523E+01 0.325E-01 0.207E+00
   0.827E+00 0.160E+01 -.535E+03   -.807E+00 -.169E+01 0.527E+03   -.179E-01 0.878E-01 0.705E+01
   0.116E+02 0.363E+01 -.143E+04   -.121E+02 -.354E+01 0.143E+04   0.407E+00 -.853E-01 -.277E+01
   -.256E+02 0.513E+01 -.994E+03   0.291E+02 -.529E+01 0.993E+03   -.342E+01 0.159E+00 0.108E+01
   0.282E+02 0.559E+01 -.996E+03   -.316E+02 -.564E+01 0.996E+03   0.327E+01 0.483E-01 0.658E+00
   0.220E+02 0.327E+01 -.159E+04   -.221E+02 -.335E+01 0.159E+04   0.105E+00 0.788E-01 -.189E+01
   0.607E+02 0.112E+02 -.240E+04   -.605E+02 -.113E+02 0.242E+04   -.198E+00 0.767E-01 -.214E+02
   -.528E+02 0.630E+02 -.196E+04   0.591E+02 -.630E+02 0.196E+04   -.620E+01 -.349E-01 -.888E+00
   0.705E+02 0.479E+02 -.203E+04   -.770E+02 -.476E+02 0.203E+04   0.633E+01 -.298E+00 -.341E+01
   -.166E+02 -.175E+02 0.940E+02   0.327E-12 -.145E-11 -.455E-12   0.166E+02 0.175E+02 -.943E+02

 POSITION                                       TOTAL-FORCE (eV/Angst)
      6.56315      6.92856     23.13236        -0.102603      0.214953      0.240278
      6.94243      5.87613     22.24125        -0.091352     -0.267512     -0.190970
      5.48281      7.03588     23.07754        -0.048726     -0.015888     -0.017662
      7.93000      5.80436     22.20834         0.196185     -0.004683     -0.002178
      6.86035      6.66149     24.14596         0.014887     -0.013115      0.048474
      7.05598      7.86418     22.85156         0.051965      0.088799     -0.029758
      9.67012      7.35119      7.25944        -0.002322      0.000672     -3.843409
      0.00000      8.82143      7.25944         0.001659      0.000682      2.774222
      0.00000      7.35119     10.48281         0.006727     -0.000121      0.549367
      9.67012      8.82143     10.48281        -0.008834      0.000814     -0.797404
      9.67012      7.35119     13.70619        -0.045844     -0.013857      0.607705
      0.00000      8.82143     13.70619         0.017433      0.003037     -0.677629
      0.00393      7.35202     16.87525        -0.004849     -0.002973     -0.011839
      9.67467      8.82331     17.03963         0.003194     -0.006130     -0.043293
      9.67999      7.36201     20.33971        -0.002310      0.048053      0.212005
     12.88947      8.82351     20.04287         0.002952     -0.001186     -0.000920
      9.67012     10.29167      7.25944        -0.002490      0.001451     -3.844919
      0.00000      0.00000      7.25944         0.001588      0.000400      2.773397
      0.00000     10.29167     10.48281         0.006348     -0.000151      0.549165
      9.67012      0.00000     10.48281        -0.008978     -0.000278     -0.797176
      9.67012     10.29167     13.70619        -0.029748      0.037681      0.625224
      0.00000      0.00000     13.70619         0.017020      0.000596     -0.672618
      0.00115     10.29221     16.87796        -0.003262     -0.002312     -0.007673
      9.66648      0.00017     17.05109         0.001901     -0.000311     -0.057399
      9.66442     10.29194     20.37711        -0.001694      0.013220      0.251194
      0.00036     11.76086     20.04252         0.003792      0.001410     -0.002338
      9.67012      1.47024      7.25944        -0.002672     -0.000743     -3.845494
      0.00000      2.94048      7.25944         0.001660     -0.000656      2.773453
      0.00000      1.47024     10.48281         0.006653      0.000197      0.549083
      9.67012      2.94048     10.48281        -0.008525     -0.000842     -0.798445
      9.67012      1.47024     13.70619        -0.030505     -0.044516      0.620489
      0.00000      2.94048     13.70619         0.020695     -0.003307     -0.676834
      0.00102      1.46957     16.87809        -0.002572      0.002680     -0.007133
      9.67173      2.93860     17.03881         0.002335      0.005341     -0.043369
      9.66386      1.46328     20.37755        -0.002067     -0.006728      0.255152
     12.89199      2.93720     20.04294         0.003532      0.000540      0.000289
      9.67012      4.41072      7.25944        -0.002492     -0.001410     -3.844175
      0.00000      5.88095      7.25944         0.001719     -0.000474      2.774356
      0.00000      4.41072     10.48281         0.007049      0.000060      0.549238
      9.67012      5.88095     10.48281        -0.008477      0.000268     -0.798729
      9.67012      4.41072     13.70619        -0.046213      0.020587      0.603747
      0.00000      5.88095     13.70619         0.019749     -0.000388     -0.679834
      0.00308      4.41013     16.87522        -0.003801      0.001633     -0.011555
      9.68084      5.88064     17.04452        -0.002665      0.000182     -0.057222
      9.68599      4.39167     20.34329         0.005950     -0.050465      0.212322
      0.01067      5.88128     20.04018         0.006930     -0.001952     -0.002064
      3.22337      7.35119      7.25944         0.001893     -0.000019     -3.841985
      6.44675      8.82143      7.25944        -0.001926      0.001149      2.782673
      6.44675      7.35119     10.48281        -0.006885      0.009357      0.575730
      3.22337      8.82143     10.48281         0.008261      0.000274     -0.778489
      3.22337      7.35119     13.70619         0.043529     -0.016033      0.672085
      6.44675      8.82143     13.70619        -0.014145     -0.055504     -0.540839
      6.45092      7.32233     16.91559        -0.009248      0.023715      0.000045
      3.22812      8.82082     17.04946        -0.000880     -0.003955     -0.057070
      3.22727      7.35292     20.37354         0.015340      0.004548      0.245387
      6.44434      8.82573     19.99986        -0.001793     -0.015662     -0.003340
      3.22337     10.29167      7.25944         0.002151      0.001273     -3.842806
      6.44675      0.00000      7.25944        -0.001922      0.000542      2.781456
      6.44675     10.29167     10.48281        -0.006527     -0.000193      0.576909
      3.22337      0.00000     10.48281         0.008397      0.000221     -0.778183
[...]
      6.44675      5.88095     11.74226         0.002418     -0.000689      0.032916
      4.48281      4.41072     10.48281         0.624626      0.000417      0.058832
      8.41068      4.41072     10.48281        -0.617294      0.000515      0.061554
      3.22337      5.88095     12.44675        -0.007901      0.002416     -0.271170
      3.22337      5.88095     14.96563        -0.019424     -0.000218      0.372159
      7.70619      4.41072     13.70619        -0.231803      0.022382      0.068652
      5.18731      4.41072     13.70619         0.268754      0.024211      0.069416
      6.45005      5.87907     15.69607         0.001833     -0.000238     -0.130514
      6.43829      5.88298     18.24672        -0.005643      0.001982      0.093336
      4.50370      4.41081     16.95948         0.069456     -0.004428     -0.014316
      8.39110      4.41035     16.97086        -0.067696     -0.000087     -0.006017
      3.21344      5.88376     18.91991         0.003407     -0.000413     -0.019776
      3.24706      5.88321     21.46605        -0.001021     -0.001131      0.036663
      7.68538      4.36768     20.22957         0.115120     -0.029302     -0.000060
      5.24109      4.39885     20.33095        -0.106152     -0.035011      0.016238
    total drift:                                0.041959      0.001840     -0.306830

  FREE ENERGIE OF THE ION-ELECTRON SYSTEM (eV)
  free  energy   TOTEN  =     -2743.20839671 eV

  energy  without entropy=    -2743.20839671  energy(sigma->0) =    -2743.20839671