 vasp.6.3.0 20Jan22 (build Apr  1 2022 16:44:48) complex
 executed on        HPECrayEX_GCC date 2022.11.01  21:55:50

 INCAR:
   SYSTEM = MgO-rocksalt
   ISMEAR = 0
   SIGMA = 0.05
   EDIFF = 1E-9
   ALGO = ALL
   ISTART = 0
   IBRION = 2
   NSW = 1000
   ISYM = 0
   ISIF = 2
   EDIFFG = -0.01
   DIPOL = 0.5 0.5 0.5
   IDIPOL = 3
   LDIPOL = .TRUE.
   GGA = MK
   LUSE_VDW = .TRUE.
   PARAM1 = 0.1234
   PARAM2 = 0.711357
   ZAB_VDW = -1.8867
   AGGAC = 0.0
   ENCUT = 600
   PREC = Accurate
   LASPH = .TRUE.
   LREAL = .FALSE.
   ISPIN = 2
   MAGMOM = 1.0 0.0 0.0 0.0 0.0 0.0 0.0 0.0 0.0 0.0 0.0 0.0 0.0 0.0 0.0 0.0 0.0 0.0 0.0 0.0 0.0 0.0 0.0 0.0 0.0 0.0 0.0 0.0 0.0 0.0 0.0 0.0 0.0 0.0 0.0 0.0 0.0 0.0 0.0 0.0 0.0 0.0 0.0 0.0 0.0 0.0 0.0 0.0 0.0 0.0 0.0 0.0 0.0 0.0 0.0 0.0 0.0 0.0 0.0 0.0 0.0 0.0 0.0 0.0 0.0 0.0
   NELM = 200
   NELMIN = 8
   NCORE = 8
   KPAR = 1
   LWAVE = .FALSE.
   LCHARG = .FALSE.

 POTCAR:    PAW_PBE N 08Apr2002
 POTCAR:    PAW_PBE O 08Apr2002
 POTCAR:    PAW_PBE Mg_pv 13Apr2007
 POTCAR:    PAW_PBE O 08Apr2002
|               ----> ADVICE to this user running VASP <----                  |
|     You have switched on vdW-DFT.                                           |
|     This routine was written and supplied by Jiri Klimes. We recommend      |
|     that you carefully read and cite the following publications:            |
|       J. Klimes, D.R. Bowler, A. Michelides                                 |
|          J. Phys.: Cond Matt. 22 022201 (2010)                              |
|       J. Klimes, D.R. Bowler, A. Michelides                                 |
|          Phys. Rev. B. 83, 195131 (2011)                                    |
|     and references therein.                                                 |

   TITEL  = PAW_PBE N 08Apr2002
   POMASS =   14.001; ZVAL   =    5.000    mass and valenz
   ENMAX  =  400.000; ENMIN  =  300.000 eV

[...]

   TITEL  = PAW_PBE Mg_pv 13Apr2007
   POMASS =   24.305; ZVAL   =    8.000    mass and valenz
   ENMAX  =  403.929; ENMIN  =  302.947 eV

   TITEL  = PAW_PBE O 08Apr2002
   POMASS =   16.000; ZVAL   =    6.000    mass and valenz
   ENMAX  =  400.000; ENMIN  =  300.000 eV

  PAW_PBE N 08Apr2002                   :
  PAW_PBE O 08Apr2002                   :
  PAW_PBE Mg_pv 13Apr2007               :
  PAW_PBE O 08Apr2002                   :

 POSCAR:  N  O Mg  O
  positions in direct lattice
 exchange correlation table for  LEXCH =       43
   RHO(1)=    0.500       N(1)  =     2000
   RHO(2)=  100.500       N(2)  =     4000

 ion  position               nearest neighbor table
   1  0.643  0.500  0.745-   2 1.19
   2  0.705  0.588  0.781-   1 1.19
   3  0.250  0.000  0.352-  35 2.11  37 2.11  38 2.11  45 2.11  54 2.11
   4  0.500  0.250  0.352-  36 2.11  37 2.11  38 2.11  46 2.11  53 2.11
   5  0.250  0.250  0.451-  37 2.11  36 2.11  35 2.11  43 2.11  52 2.11  41 2.12
   6  0.500  0.000  0.451-  38 2.11  36 2.11  35 2.11  44 2.11  51 2.11  42 2.12
   7  0.250  0.000  0.550-  41 2.11  42 2.11  49 2.11  58 2.11  35 2.12  39 2.14
   8  0.500  0.250  0.550-  41 2.11  42 2.11  50 2.11  57 2.11  36 2.12  40 2.14
   9  0.250  0.250  0.648-  41 2.10  40 2.11  39 2.11  47 2.11  56 2.11
  10  0.500  0.000  0.648-  42 2.10  40 2.11  39 2.11  48 2.11  55 2.11
  11  0.250  0.500  0.352-  43 2.11  37 2.11  45 2.11  46 2.11  62 2.11
  12  0.500  0.750  0.352-  44 2.11  38 2.11  45 2.11  46 2.11  61 2.11
  13  0.250  0.750  0.451-  45 2.11  43 2.11  44 2.11  35 2.11  60 2.11  49 2.12
  14  0.500  0.500  0.451-  46 2.11  43 2.11  44 2.11  36 2.11  59 2.11  50 2.12
  15  0.250  0.500  0.550-  41 2.11  49 2.11  50 2.11  66 2.11  43 2.12  47 2.14
  16  0.500  0.750  0.550-  42 2.11  49 2.11  50 2.11  65 2.11  44 2.12  48 2.14
  17  0.250  0.750  0.648-  49 2.10  47 2.11  48 2.11  39 2.11  64 2.11
  18  0.500  0.500  0.648-  50 2.10  47 2.11  48 2.11  40 2.11  63 2.11
  19  0.750  0.000  0.352-  51 2.11  38 2.11  53 2.11  54 2.11  61 2.11
  20  0.000  0.250  0.352-  52 2.11  37 2.11  53 2.11  54 2.11  62 2.11
  21  0.750  0.250  0.451-  53 2.11  51 2.11  52 2.11  36 2.11  59 2.11  57 2.12
  22  0.000  0.000  0.451-  54 2.11  51 2.11  52 2.11  35 2.11  60 2.11  58 2.12
  23  0.750  0.000  0.550-  42 2.11  57 2.11  58 2.11  65 2.11  51 2.12  55 2.14
  24  0.000  0.250  0.550-  41 2.11  57 2.11  58 2.11  66 2.11  52 2.12  56 2.14
  25  0.750  0.250  0.648-  57 2.10  55 2.11  56 2.11  40 2.11  63 2.11
  26  0.000  0.000  0.648-  58 2.10  55 2.11  56 2.11  39 2.11  64 2.11
  27  0.750  0.500  0.352-  59 2.11  53 2.11  46 2.11  61 2.11  62 2.11
  28  0.000  0.750  0.352-  60 2.11  54 2.11  45 2.11  61 2.11  62 2.11
  29  0.750  0.750  0.451-  61 2.11  51 2.11  59 2.11  60 2.11  44 2.11  65 2.12
  30  0.000  0.500  0.451-  62 2.11  52 2.11  59 2.11  60 2.11  43 2.11  66 2.12
  31  0.750  0.500  0.550-  50 2.11  57 2.11  65 2.11  66 2.11  59 2.12  63 2.14
  32  0.000  0.750  0.550-  49 2.11  58 2.11  65 2.11  66 2.11  60 2.12  64 2.14
  33  0.750  0.750  0.648-  65 2.10  55 2.11  63 2.11  64 2.11  48 2.11
  34  0.000  0.500  0.648-  66 2.10  56 2.11  63 2.11  64 2.11  47 2.11
  35  0.250  0.000  0.451-   3 2.11   5 2.11   6 2.11  13 2.11  22 2.11   7 2.12
  36  0.500  0.250  0.451-   4 2.11   5 2.11   6 2.11  14 2.11  21 2.11   8 2.12
  37  0.250  0.250  0.352-   5 2.11   4 2.11   3 2.11  11 2.11  20 2.11
  38  0.500  0.000  0.352-   6 2.11   4 2.11   3 2.11  12 2.11  19 2.11
  39  0.250  0.000  0.650-   9 2.11  10 2.11  17 2.11  26 2.11   7 2.14
  40  0.500  0.250  0.650-   9 2.11  10 2.11  18 2.11  25 2.11   8 2.14
  41  0.250  0.250  0.550-   9 2.10   8 2.11   7 2.11  15 2.11  24 2.11   5 2.12
  42  0.500  0.000  0.550-  10 2.10   8 2.11   7 2.11  16 2.11  23 2.11   6 2.12
  43  0.250  0.500  0.451-  11 2.11   5 2.11  13 2.11  14 2.11  30 2.11  15 2.12
  44  0.500  0.750  0.451-  12 2.11   6 2.11  13 2.11  14 2.11  29 2.11  16 2.12
  45  0.250  0.750  0.352-  13 2.11  11 2.11  12 2.11   3 2.11  28 2.11
  46  0.500  0.500  0.352-  14 2.11  11 2.11  12 2.11   4 2.11  27 2.11
  47  0.250  0.500  0.650-   9 2.11  17 2.11  18 2.11  34 2.11  15 2.14
  48  0.500  0.750  0.650-  10 2.11  17 2.11  18 2.11  33 2.11  16 2.14
  49  0.250  0.750  0.550-  17 2.10  15 2.11  16 2.11   7 2.11  32 2.11  13 2.12
  50  0.500  0.500  0.550-  18 2.10  15 2.11  16 2.11   8 2.11  31 2.11  14 2.12
  51  0.750  0.000  0.451-  19 2.11   6 2.11  21 2.11  22 2.11  29 2.11  23 2.12
  52  0.000  0.250  0.451-  20 2.11   5 2.11  21 2.11  22 2.11  30 2.11  24 2.12
  53  0.750  0.250  0.352-  21 2.11  19 2.11  20 2.11   4 2.11  27 2.11
  54  0.000  0.000  0.352-  22 2.11  19 2.11  20 2.11   3 2.11  28 2.11
  55  0.750  0.000  0.650-  10 2.11  25 2.11  26 2.11  33 2.11  23 2.14
  56  0.000  0.250  0.650-   9 2.11  25 2.11  26 2.11  34 2.11  24 2.14
  57  0.750  0.250  0.550-  25 2.10  23 2.11  24 2.11   8 2.11  31 2.11  21 2.12
  58  0.000  0.000  0.550-  26 2.10  23 2.11  24 2.11   7 2.11  32 2.11  22 2.12
  59  0.750  0.500  0.451-  27 2.11  21 2.11  14 2.11  29 2.11  30 2.11  31 2.12
  60  0.000  0.750  0.451-  28 2.11  22 2.11  13 2.11  29 2.11  30 2.11  32 2.12
  61  0.750  0.750  0.352-  29 2.11  19 2.11  27 2.11  28 2.11  12 2.11
  62  0.000  0.500  0.352-  30 2.11  20 2.11  27 2.11  28 2.11  11 2.11
  63  0.750  0.500  0.650-  18 2.11  25 2.11  33 2.11  34 2.11  31 2.14
  64  0.000  0.750  0.650-  17 2.11  26 2.11  33 2.11  34 2.11  32 2.14
  65  0.750  0.750  0.550-  33 2.10  23 2.11  31 2.11  32 2.11  16 2.11  29 2.12
  66  0.000  0.500  0.550-  34 2.10  24 2.11  31 2.11  32 2.11  15 2.11  30 2.12

IMPORTANT INFORMATION: All symmetrisations will be switched off!
NOSYMM: (Re-)initialisation of all symmetry stuff for point group C_1.

                                     Primitive cell

  volume of cell :    1519.6535

  direct lattice vectors                    reciprocal lattice vectors
     8.440582262  0.000000000  0.000000000     0.118475239  0.000000000  0.000000000
     0.000000000  8.440582262  0.000000000     0.000000000  0.118475239  0.000000000
     0.000000000  0.000000000 21.330436697     0.000000000  0.000000000  0.046881366

  length of vectors
     8.440582262  8.440582262 21.330436697     0.118475239  0.118475239  0.046881366

  position of ions in fractional coordinates (direct lattice)
     0.642999613  0.500000000  0.745392786
     0.705115863  0.587651702  0.781427816
     0.250000000  0.000000000  0.351610242
     0.500000000  0.250000000  0.351610242
     0.250000000  0.250000000  0.450536747
     0.500000000  0.000000000  0.450536747
     0.250000000  0.000000000  0.549966382
     0.500000000  0.250000000  0.549966382
     0.250000000  0.250000000  0.648348359
     0.500000000  0.000000000  0.648348359
     0.250000000  0.500000000  0.351610242
     0.500000000  0.750000000  0.351610242
     0.250000000  0.750000000  0.450536747
     0.500000000  0.500000000  0.450536747
     0.250000000  0.500000000  0.549966382
     0.500000000  0.750000000  0.549966382
     0.250000000  0.750000000  0.648348359
     0.500000000  0.500000000  0.648348359
     0.750000000  0.000000000  0.351610242
     0.000000000  0.250000000  0.351610242
     0.750000000  0.250000000  0.450536747
     0.000000000  0.000000000  0.450536747
     0.750000000  0.000000000  0.549966382
     0.000000000  0.250000000  0.549966382
     0.750000000  0.250000000  0.648348359
     0.000000000  0.000000000  0.648348359
     0.750000000  0.500000000  0.351610242
     0.000000000  0.750000000  0.351610242
     0.750000000  0.750000000  0.450536747
     0.000000000  0.500000000  0.450536747
     0.750000000  0.500000000  0.549966382
     0.000000000  0.750000000  0.549966382
     0.750000000  0.750000000  0.648348359
     0.000000000  0.500000000  0.648348359
     0.250000000  0.000000000  0.450536747
     0.500000000  0.250000000  0.450536747
     0.250000000  0.250000000  0.351610242
     0.500000000  0.000000000  0.351610242
     0.250000000  0.000000000  0.650177506
     0.500000000  0.250000000  0.650177506
     0.250000000  0.250000000  0.549707339
     0.500000000  0.000000000  0.549707339
     0.250000000  0.500000000  0.450536747
     0.500000000  0.750000000  0.450536747
     0.250000000  0.750000000  0.351610242
     0.500000000  0.500000000  0.351610242
     0.250000000  0.500000000  0.650177506
     0.500000000  0.750000000  0.650177506
     0.250000000  0.750000000  0.549707339
     0.500000000  0.500000000  0.549707339
     0.750000000  0.000000000  0.450536747
     0.000000000  0.250000000  0.450536747
     0.750000000  0.250000000  0.351610242
     0.000000000  0.000000000  0.351610242
     0.750000000  0.000000000  0.650177506
     0.000000000  0.250000000  0.650177506
     0.750000000  0.250000000  0.549707339
     0.000000000  0.000000000  0.549707339
     0.750000000  0.500000000  0.450536747
     0.000000000  0.750000000  0.450536747
     0.750000000  0.750000000  0.351610242
     0.000000000  0.500000000  0.351610242
     0.750000000  0.500000000  0.650177506
     0.000000000  0.750000000  0.650177506
     0.750000000  0.750000000  0.549707339
     0.000000000  0.500000000  0.549707339

  ion indices of the primitive-cell ions
   primitive index   ion index
[...]
   2.11014557  2.11014557 13.82955363
   4.22029113  0.00000000 13.82955363
   2.11014557  4.22029113  7.50000000
   4.22029113  6.33043670  7.50000000
   2.11014557  6.33043670  9.61014557
   4.22029113  4.22029113  9.61014557
   2.11014557  4.22029113 11.73102311
   4.22029113  6.33043670 11.73102311
   2.11014557  6.33043670 13.82955363
   4.22029113  4.22029113 13.82955363
   6.33043670  0.00000000  7.50000000
   0.00000000  2.11014557  7.50000000
   6.33043670  2.11014557  9.61014557
   0.00000000  0.00000000  9.61014557
   6.33043670  0.00000000 11.73102311
   0.00000000  2.11014557 11.73102311
   6.33043670  2.11014557 13.82955363
   0.00000000  0.00000000 13.82955363
   6.33043670  4.22029113  7.50000000
   0.00000000  6.33043670  7.50000000
   6.33043670  6.33043670  9.61014557
   0.00000000  4.22029113  9.61014557
   6.33043670  4.22029113 11.73102311
   0.00000000  6.33043670 11.73102311
   6.33043670  6.33043670 13.82955363
   0.00000000  4.22029113 13.82955363
   2.11014557  0.00000000  9.61014557
   4.22029113  2.11014557  9.61014557
   2.11014557  2.11014557  7.50000000
   4.22029113  0.00000000  7.50000000
   2.11014557  0.00000000 13.86857013
   4.22029113  2.11014557 13.86857013
   2.11014557  2.11014557 11.72549760
   4.22029113  0.00000000 11.72549760
   2.11014557  4.22029113  9.61014557
   4.22029113  6.33043670  9.61014557
   2.11014557  6.33043670  7.50000000
   4.22029113  4.22029113  7.50000000
   2.11014557  4.22029113 13.86857013
   4.22029113  6.33043670 13.86857013
   2.11014557  6.33043670 11.72549760
   4.22029113  4.22029113 11.72549760
   6.33043670  0.00000000  9.61014557
   0.00000000  2.11014557  9.61014557
   6.33043670  2.11014557  7.50000000
   0.00000000  0.00000000  7.50000000
   6.33043670  0.00000000 13.86857013
   0.00000000  2.11014557 13.86857013
   6.33043670  2.11014557 11.72549760
   0.00000000  0.00000000 11.72549760
   6.33043670  4.22029113  9.61014557
   0.00000000  6.33043670  9.61014557
   6.33043670  6.33043670  7.50000000
   0.00000000  4.22029113  7.50000000
   6.33043670  4.22029113 13.86857013
   0.00000000  6.33043670 13.86857013
   6.33043670  6.33043670 11.72549760
   0.00000000  4.22029113 11.72549760

--------------------------------------- Iteration      FINAL  ---------------------------------------

--------------------OUTCAR has been truncated-------------------------

[...]

--------------------OUTCAR has been truncated-------------------------

  FORCE on cell =-STRESS in cart. coord.  units (eV):
  Direction    XX          YY          ZZ          XY          YZ          ZX
  Alpha Z   910.35202   910.35202   910.35202
  Ewald  159444.34296159519.82026************    95.59258   149.06743   105.55302
  Hartree169774.20330169804.76604************    36.15587    60.91922    47.04256
  E(xc)   -2506.70110 -2506.37407 -2506.55916     0.26198     0.48260     0.37943
  Local  ************************338875.67771  -117.47852  -195.08854  -149.70236
  n-local -2863.86307 -2867.54332 -2883.10368    -0.18830    -3.02707    -4.30602
  augment  1058.85115  1059.03089  1048.96291    -0.70041    -0.41330     0.44409
  Kinetic  7533.91612  7532.86056  7559.55205   -13.50709   -12.04515     0.49993
  Fock        0.00000     0.00000     0.00000     0.00000     0.00000     0.00000
  Total     -29.48397   -29.35021    -2.44315     0.13612    -0.10481    -0.08936
  in kB     -31.08508   -30.94405    -2.57582     0.14351    -0.11051    -0.09421

 VOLUME and BASIS-vectors are now :
  energy-cutoff  :      600.00
  volume of cell :     1519.65
      direct lattice vectors                 reciprocal lattice vectors
     8.440582262  0.000000000  0.000000000     0.118475239  0.000000000  0.000000000
     0.000000000  8.440582262  0.000000000     0.000000000  0.118475239  0.000000000
     0.000000000  0.000000000 21.330436697     0.000000000  0.000000000  0.046881366

  length of vectors
     8.440582262  8.440582262 21.330436697     0.118475239  0.118475239  0.046881366

 FORCES acting on ions:
    Electron-Ion                     Ewald-Force                    Non-Local-Force
   0.103E+03 0.172E+03 -.126E+04   -.121E+03 -.200E+03 0.124E+04   0.183E+02 0.284E+02 0.228E+02
   -.102E+03 -.162E+03 -.164E+04   0.126E+03 0.199E+03 0.168E+04   -.237E+02 -.375E+02 -.374E+02
   0.152E+00 -.343E-01 0.209E+04   -.149E+00 0.348E-01 -.208E+04   -.181E-02 -.296E-03 -.680E+01
   0.275E+00 0.189E+00 0.209E+04   -.280E+00 -.193E+00 -.208E+04   0.407E-02 0.218E-02 -.681E+01
   0.634E+00 0.453E+00 0.725E+03   -.631E+00 -.458E+00 -.725E+03   -.105E-02 0.379E-02 0.376E+00
   0.881E+00 -.179E+00 0.726E+03   -.900E+00 0.170E+00 -.726E+03   0.143E-01 0.678E-02 0.288E+00
   0.294E+01 -.410E+00 -.634E+03   -.291E+01 0.419E+00 0.634E+03   -.312E-01 -.845E-02 -.243E+00
   0.466E+01 0.550E+01 -.622E+03   -.467E+01 -.542E+01 0.623E+03   0.325E-02 -.829E-01 -.883E+00
   0.145E+02 0.146E+02 -.200E+04   -.143E+02 -.148E+02 0.199E+04   -.174E+00 0.223E+00 0.602E+01
   0.126E+02 -.280E+01 -.200E+04   -.128E+02 0.292E+01 0.199E+04   0.150E+00 -.122E+00 0.601E+01
   0.176E+00 0.345E-01 0.209E+04   -.172E+00 -.348E-01 -.208E+04   -.337E-02 0.198E-03 -.679E+01
   0.281E+00 -.190E+00 0.209E+04   -.287E+00 0.193E+00 -.208E+04   0.443E-02 -.213E-02 -.681E+01
   0.630E+00 -.444E+00 0.725E+03   -.605E+00 0.451E+00 -.725E+03   -.169E-01 -.519E-02 0.416E+00
   0.194E+01 0.188E+00 0.727E+03   -.198E+01 -.181E+00 -.727E+03   0.296E-01 -.582E-02 0.519E+00
   0.498E+01 0.434E+00 -.628E+03   -.476E+01 -.440E+00 0.628E+03   -.224E+00 0.666E-02 -.307E+00
   0.534E+01 -.555E+01 -.623E+03   -.539E+01 0.546E+01 0.623E+03   0.485E-01 0.857E-01 -.629E+00
   0.138E+02 -.149E+02 -.200E+04   -.138E+02 0.151E+02 0.199E+04   -.615E-01 -.226E+00 0.602E+01
   0.547E+02 0.375E+01 -.191E+04   -.559E+02 -.368E+01 0.191E+04   0.113E+01 -.645E-01 0.454E+01
   -.151E+00 -.390E-01 0.209E+04   0.149E+00 0.404E-01 -.208E+04   0.140E-02 -.110E-02 -.679E+01
   -.274E+00 0.166E+00 0.209E+04   0.280E+00 -.171E+00 -.208E+04   -.432E-02 0.355E-02 -.680E+01
   -.625E+00 0.148E+01 0.726E+03   0.628E+00 -.151E+01 -.727E+03   -.267E-02 0.171E-01 0.491E+00
   -.862E+00 -.177E+00 0.724E+03   0.889E+00 0.190E+00 -.725E+03   -.198E-01 -.926E-02 0.412E+00
   -.294E+01 -.929E+00 -.626E+03   0.292E+01 0.101E+01 0.626E+03   0.233E-01 -.821E-01 -.252E+00
   -.443E+01 0.394E+01 -.632E+03   0.443E+01 -.395E+01 0.633E+03   -.802E-04 0.974E-02 -.297E+00
   -.202E+02 0.377E+02 -.196E+04   0.201E+02 -.388E+02 0.196E+04   0.564E-01 0.110E+01 0.609E+01
   -.117E+02 -.337E+01 -.201E+04   0.119E+02 0.339E+01 0.200E+04   -.158E+00 -.170E-01 0.598E+01
   -.176E+00 0.413E-01 0.209E+04   0.172E+00 -.420E-01 -.208E+04   0.315E-02 0.509E-03 -.676E+01
   -.279E+00 -.166E+00 0.209E+04   0.286E+00 0.171E+00 -.208E+04   -.510E-02 -.388E-02 -.680E+01
   -.610E+00 -.149E+01 0.727E+03   0.601E+00 0.153E+01 -.727E+03   0.674E-02 -.262E-01 0.492E+00
   -.192E+01 0.200E+00 0.725E+03   0.197E+01 -.206E+00 -.725E+03   -.338E-01 0.435E-02 0.532E+00
   -.511E+01 0.998E+00 -.613E+03   0.489E+01 -.107E+01 0.612E+03   0.213E+00 0.727E-01 0.789E+00
   -.509E+01 -.397E+01 -.630E+03   0.513E+01 0.397E+01 0.630E+03   -.469E-01 -.958E-02 -.281E+00
   -.198E+02 -.390E+02 -.194E+04   0.198E+02 0.402E+02 0.193E+04   0.378E-02 -.116E+01 0.620E+01
   -.277E+02 0.412E+01 -.197E+04   0.286E+02 -.415E+01 0.197E+04   -.895E+00 0.258E-01 0.601E+01
   0.563E+00 -.720E-01 0.543E+03   -.550E+00 0.759E-01 -.543E+03   -.196E-01 -.588E-02 -.872E-01
   0.837E+00 0.641E+00 0.544E+03   -.867E+00 -.688E+00 -.544E+03   0.423E-01 0.646E-01 -.152E+00
   0.120E+00 0.925E-01 0.157E+04   -.117E+00 -.963E-01 -.157E+04   -.310E-02 0.527E-02 0.359E+01
   0.168E+00 -.281E-01 0.157E+04   -.174E+00 0.279E-01 -.157E+04   0.833E-02 0.287E-03 0.359E+01
   0.540E+01 -.141E+01 -.152E+04   -.534E+01 0.141E+01 0.153E+04   -.572E-01 -.138E-02 -.492E+01
   0.186E+02 0.281E+02 -.149E+04   -.185E+02 -.278E+02 0.149E+04   -.835E-01 -.279E+00 -.505E+01
   0.272E+01 0.277E+01 -.468E+03   -.266E+01 -.279E+01 0.467E+03   -.569E-01 0.284E-01 0.258E+00
   0.284E+01 -.463E+00 -.464E+03   -.285E+01 0.483E+00 0.464E+03   0.166E-01 -.211E-01 0.211E+00
   0.798E+00 0.758E-01 0.543E+03   -.815E+00 -.824E-01 -.543E+03   0.187E-01 0.946E-02 -.785E-01
   0.870E+00 -.641E+00 0.544E+03   -.896E+00 0.690E+00 -.544E+03   0.374E-01 -.671E-01 -.160E+00
   0.118E+00 -.926E-01 0.157E+04   -.114E+00 0.963E-01 -.157E+04   -.529E-02 -.516E-02 0.360E+01
   0.258E+00 0.287E-01 0.157E+04   -.266E+00 -.283E-01 -.157E+04   0.116E-01 -.517E-03 0.360E+01
   0.158E+02 0.159E+01 -.151E+04   -.156E+02 -.159E+01 0.151E+04   -.140E+00 0.100E-01 -.485E+01
   0.228E+02 -.290E+02 -.148E+04   -.227E+02 0.288E+02 0.149E+04   -.205E-01 0.261E+00 -.500E+01
   0.249E+01 -.277E+01 -.468E+03   -.245E+01 0.279E+01 0.468E+03   -.408E-01 -.193E-01 0.240E+00
   0.489E+01 0.552E+00 -.465E+03   -.494E+01 -.576E+00 0.466E+03   0.537E-01 0.238E-01 -.378E+00
   -.544E+00 -.638E-01 0.544E+03   0.519E+00 0.493E-01 -.544E+03   0.346E-01 0.176E-01 -.324E-01
   -.817E+00 0.468E+00 0.543E+03   0.841E+00 -.494E+00 -.543E+03   -.334E-01 0.375E-01 -.122E+00
   -.120E+00 0.182E+00 0.157E+04   0.117E+00 -.188E+00 -.157E+04   0.336E-02 0.921E-02 0.361E+01
   -.168E+00 -.298E-01 0.157E+04   0.174E+00 0.313E-01 -.157E+04   -.784E-02 -.195E-02 0.360E+01
   -.612E+01 -.510E+01 -.151E+04   0.606E+01 0.521E+01 0.152E+04   0.649E-01 -.109E+00 -.494E+01
   -.142E+02 0.135E+02 -.151E+04   0.142E+02 -.135E+02 0.152E+04   0.256E-01 -.352E-01 -.492E+01
   -.287E+01 0.454E+01 -.465E+03   0.281E+01 -.459E+01 0.464E+03   0.582E-01 0.434E-01 0.121E+00
   -.282E+01 -.669E+00 -.471E+03   0.283E+01 0.668E+00 0.471E+03   -.929E-02 0.477E-03 0.209E+00
   -.781E+00 0.112E+00 0.547E+03   0.791E+00 -.115E+00 -.547E+03   -.881E-02 0.532E-02 0.694E-01
   -.835E+00 -.457E+00 0.543E+03   0.842E+00 0.474E+00 -.543E+03   -.121E-01 -.251E-01 -.953E-01
   -.119E+00 -.183E+00 0.157E+04   0.114E+00 0.189E+00 -.157E+04   0.621E-02 -.840E-02 0.361E+01
   -.258E+00 0.298E-01 0.157E+04   0.266E+00 -.315E-01 -.157E+04   -.115E-01 0.234E-02 0.361E+01
   -.357E+02 0.597E+01 -.141E+04   0.358E+02 -.586E+01 0.142E+04   -.110E+00 -.116E+00 -.378E+01
   -.181E+02 -.141E+02 -.151E+04   0.181E+02 0.140E+02 0.151E+04   -.747E-04 0.666E-01 -.498E+01
   -.266E+01 -.454E+01 -.460E+03   0.263E+01 0.459E+01 0.460E+03   0.359E-01 -.485E-01 0.373E+00
   -.452E+01 0.709E+00 -.466E+03   0.455E+01 -.708E+00 0.466E+03   -.348E-01 -.988E-03 0.316E+00
   0.567E+01 0.955E+01 0.296E+02   0.163E-12 -.245E-12 -.290E-11   -.566E+01 -.954E+01 -.296E+02

 POSITION                                       TOTAL-FORCE (eV/Angst)
      5.37630      4.08251     15.95420         0.002428     -0.007711      0.005051
      5.86171      4.85483     16.70718        -0.001220     -0.006423      0.000472
      2.11015      0.00000      7.50000         0.000619      0.000131      0.320993
      4.22029      2.11015      7.50000        -0.001757     -0.001133      0.320578
      2.11015      2.11015      9.61015         0.001611     -0.000764      0.038376
      4.22029      0.00000      9.61015        -0.005091     -0.002352      0.042303
      2.11186      0.00048     11.72820         0.001452      0.000640      0.001337
      4.22118      2.11350     11.73538        -0.001186     -0.002105      0.001754
      2.11557      2.10502     13.82772        -0.003074      0.001993     -0.000134
      4.21845      0.00247     13.82486         0.003050     -0.001316      0.002423
      2.11015      4.22029      7.50000         0.000942     -0.000117      0.317670
      4.22029      6.33044      7.50000        -0.001830      0.001054      0.321365
      2.11015      6.33044      9.61015         0.007759      0.001388      0.035440
      4.22029      4.22029      9.61015        -0.015033      0.001467      0.038224
      2.11760      4.22031     11.73303        -0.002345      0.001560     -0.002571
      4.22043      6.32730     11.73536         0.001442      0.001553      0.001651
      2.11551      6.33676     13.83098        -0.002046      0.000325     -0.005107
      4.20116      4.21877     13.88189         0.000300      0.000146     -0.008700
      6.33044      0.00000      7.50000        -0.000753      0.000278      0.316371
      0.00000      2.11015      7.50000         0.001626     -0.001452      0.319325
      6.33044      2.11015      9.61015        -0.000195     -0.008691      0.025601
      0.00000      0.00000      9.61015         0.007630      0.003729      0.031988
      6.33064      0.00361     11.72756         0.000401     -0.000585     -0.001069
      0.00047      2.11082     11.73283         0.000282      0.002450      0.004168
      6.32933      2.09399     13.83972        -0.000426      0.002906     -0.003062
      0.00634      0.00245     13.83178        -0.000992     -0.000343     -0.005715
      6.33044      4.22029      7.50000        -0.001149     -0.000188      0.310510
      0.00000      6.33044      7.50000         0.001816      0.001472      0.317539
      6.33044      6.33044      9.61015        -0.002727      0.013359      0.026045
      0.00000      4.22029      9.61015         0.016183     -0.001307      0.035258
      6.32503      4.21954     11.71959        -0.001818     -0.001608     -0.001004
      0.00279      6.33134     11.73173        -0.001985     -0.002129      0.003912
      6.33360      6.35882     13.82280        -0.000443     -0.002867      0.001934
      0.02792      4.22149     13.83104        -0.003786     -0.000126      0.003413
      2.11015      0.00000      9.61015        -0.006620     -0.001972      0.037177
      4.22029      2.11015      9.61015         0.011871      0.017584      0.053329
      2.11015      2.11015      7.50000        -0.000945      0.001453     -0.405156
      4.22029      0.00000      7.50000         0.002251      0.000074     -0.405541
      2.11006      0.00041     13.86354         0.001546     -0.000574      0.005110
      4.22137      2.10193     13.84592        -0.003730     -0.001423      0.002473
      2.10811      2.11158     11.72317        -0.001707      0.002555      0.000010
      4.22178     -0.00107     11.71958         0.004305     -0.000661     -0.000161
      2.11015      4.22029      9.61015         0.001131      0.002846      0.065261
      4.22029      6.33044      9.61015         0.010921     -0.018345      0.050541
      2.11015      6.33044      7.50000        -0.001551     -0.001447     -0.404767
      4.22029      4.22029      7.50000         0.003165     -0.000169     -0.402312
      2.10986      4.22110     13.86853         0.003630      0.001903      0.003618
      4.22605      6.33779     13.85761        -0.001094      0.000476      0.003065
      2.10965      6.32955     11.72493        -0.001074     -0.000611     -0.001128
      4.22526      4.22148     11.73389        -0.001714     -0.000452     -0.001892
      6.33044      0.00000      9.61015         0.009954      0.003194      0.051681
      0.00000      2.11015      9.61015        -0.009851      0.011239      0.049157
      6.33044      2.11015      7.50000         0.000827      0.002596     -0.400907
      0.00000      0.00000      7.50000        -0.002295     -0.000549     -0.403702
      6.33492      0.00272     13.86209        -0.000121      0.001895      0.002696
      0.00114      2.11255     13.86983        -0.000722      0.001041      0.000494
      6.33377      2.11526     11.72829        -0.001224      0.000014     -0.003010
      0.00023      0.00053     11.72460        -0.000419      0.000331     -0.000474
      6.33044      4.22029      9.61015         0.000624      0.002165      0.040270
      0.00000      6.33044      9.61015        -0.004702     -0.008127      0.051855
      6.33044      6.33044      7.50000         0.001639     -0.002390     -0.400245
      0.00000      4.22029      7.50000        -0.003372      0.000641     -0.399875
      6.35355      4.22705     13.87593        -0.003165     -0.002705      0.004161
      0.00149      6.33171     13.86898        -0.002875     -0.001698     -0.002412
      6.33384      6.32757     11.72695        -0.001432     -0.001828     -0.002828
     -0.00330      4.22136     11.73020        -0.002937     -0.000288     -0.002826
    total drift:                                0.006776      0.001125     -0.011127

  FREE ENERGIE OF THE ION-ELECTRON SYSTEM (eV)
  free  energy   TOTEN  =      -274.67580635 eV

  energy  without entropy=     -274.67580635  energy(sigma->0) =     -274.67580635

 d Force = 0.1353874E-04[-0.797E-05, 0.350E-04]  d Energy = 0.1256289E-04 0.976E-06
 d Force = 0.4558513E+00[ 0.457E+00, 0.455E+00]  d Ewald  = 0.4558501E+00 0.116E-05

 reached required accuracy - stopping structural energy minimisation