 vasp.6.3.0 20Jan22 (build Apr  1 2022 16:44:48) complex
 executed on        HPECrayEX_GCC date 2022.11.13  07:31:48

 INCAR:
   SYSTEM = MgO-rocksalt
   ISMEAR = 0
   SIGMA = 0.05
   EDIFF = 1E-6
   ALGO = ALL
   ISTART = 0
   IBRION = -1
   NSW = 0
   ISYM = 0
   DIPOL = 0.5 0.5 0.5
   IDIPOL = 3
   LDIPOL = .TRUE.
   LHFCALC = .TRUE.
   GGA = B5
   AEXX = 0.2
   AGGAX = 0.72
   AGGAC = 0.81
   ALDAC = 0.19
   IVDW = 1
   VDW_S6 = 1.05
   VDW_C6 = 1.75 0.70 0.14 0.63 0.70
   VDW_R0 = 1.452 1.342 1.001 1.243 1.342
   ENCUT = 600
   PREC = Accurate
   LASPH = .TRUE.
   LREAL = .FALSE.
   ISPIN = 1
   NELM = 200
   NELMIN = 8
   NCORE = 8
   KPAR = 1
   LWAVE = .FALSE.
   LCHARG = .FALSE.

 POTCAR:    PAW_PBE C 08Apr2002
 POTCAR:    PAW_PBE O 08Apr2002
 POTCAR:    PAW_PBE H 15Jun2001
 POTCAR:    PAW_PBE Mg_pv 13Apr2007
 POTCAR:    PAW_PBE O 08Apr2002
 POTCAR:    PAW_PBE C 08Apr2002
   VRHFIN =C: s2p2

   TITEL  = PAW_PBE C 08Apr2002
   POMASS =   12.011; ZVAL   =    4.000    mass and valenz
   ENMAX  =  400.000; ENMIN  =  300.000 eV

[...]

   TITEL  = PAW_PBE H 15Jun2001
   POMASS =    1.000; ZVAL   =    1.000    mass and valenz
   ENMAX  =  250.000; ENMIN  =  200.000 eV

   TITEL  = PAW_PBE Mg_pv 13Apr2007
   POMASS =   24.305; ZVAL   =    8.000    mass and valenz
   ENMAX  =  403.929; ENMIN  =  302.947 eV

   TITEL  = PAW_PBE O 08Apr2002
   POMASS =   16.000; ZVAL   =    6.000    mass and valenz
   ENMAX  =  400.000; ENMIN  =  300.000 eV

  PAW_PBE C 08Apr2002                   :
  PAW_PBE O 08Apr2002                   :
  PAW_PBE H 15Jun2001                   :
  PAW_PBE Mg_pv 13Apr2007               :
  PAW_PBE O 08Apr2002                   :

 POSCAR:  C  O  H Mg  O
  positions in direct lattice
 exchange correlation table for  LEXCH =       12
   RHO(1)=    0.500       N(1)  =     2000
   RHO(2)=  100.500       N(2)  =     4000

 ion  position               nearest neighbor table
   1  0.417  0.625  0.795-   3 1.10   6 1.10   5 1.11   2 1.43
   2  0.416  0.494  0.753-   4 1.02   1 1.43  22 2.24
   3  0.521  0.612  0.826-   1 1.10
   4  0.319  0.500  0.725-   2 1.02
   5  0.427  0.739  0.770-   1 1.11
   6  0.310  0.625  0.825-   1 1.10
   7  0.250  0.000  0.351-  39 2.12  41 2.12  42 2.12  49 2.12  58 2.12
   8  0.500  0.250  0.351-  40 2.12  41 2.12  42 2.12  50 2.12  57 2.12
   9  0.250  0.250  0.450-  41 2.12  40 2.12  39 2.12  47 2.12  56 2.12  45 2.13
  10  0.500  0.000  0.450-  46 2.11  42 2.12  39 2.12  40 2.12  48 2.12  55 2.12
  11  0.250  0.000  0.550-  46 2.11  62 2.12  45 2.12  39 2.12  53 2.12  43 2.15
  12  0.500  0.251  0.551-  54 2.11  44 2.11  61 2.12  45 2.12  46 2.13  40 2.14
  13  0.250  0.247  0.648-  43 2.09  45 2.10  44 2.12  60 2.12  51 2.15
  14  0.500  0.000  0.648-  44 2.10  46 2.10  52 2.11  59 2.12  43 2.13
  15  0.250  0.500  0.351-  47 2.12  41 2.12  49 2.12  50 2.12  66 2.12
  16  0.500  0.750  0.351-  48 2.12  42 2.12  49 2.12  50 2.12  65 2.12
  17  0.250  0.750  0.450-  49 2.12  47 2.12  48 2.12  39 2.12  64 2.12  53 2.12
  18  0.500  0.500  0.450-  50 2.12  47 2.12  48 2.12  40 2.12  63 2.12  54 2.14
  19  0.251  0.500  0.550-  54 2.10  45 2.11  53 2.11  70 2.12  47 2.13  51 2.19
  20  0.500  0.749  0.551-  54 2.11  69 2.12  53 2.12  46 2.12  52 2.13  48 2.14
  21  0.249  0.753  0.647-  53 2.08  43 2.09  68 2.11  52 2.12  51 2.14
  22  0.508  0.499  0.654-  67 2.07  44 2.13  52 2.14  54 2.21  51 2.23   2 2.24
  23  0.750  0.000  0.351-  55 2.12  42 2.12  57 2.12  58 2.12  65 2.12
  24  0.000  0.250  0.351-  56 2.12  41 2.12  57 2.12  58 2.12  66 2.12
  25  0.750  0.250  0.450-  57 2.12  55 2.12  56 2.12  40 2.12  63 2.12  61 2.12
  26  0.000  0.000  0.450-  58 2.12  55 2.12  56 2.12  39 2.12  64 2.12  62 2.12
  27  0.750  0.000  0.550-  46 2.12  61 2.12  69 2.12  62 2.12  55 2.12  59 2.15
  28  1.000  0.250  0.550-  61 2.11  45 2.11  70 2.12  62 2.12  56 2.13  60 2.15
  29  0.750  0.249  0.648-  61 2.11  59 2.11  60 2.12  44 2.12  67 2.13
  30  0.999  0.000  0.648-  62 2.11  60 2.11  59 2.11  68 2.11  43 2.12
  31  0.750  0.500  0.351-  63 2.12  57 2.12  50 2.12  65 2.12  66 2.12
  32  0.000  0.750  0.351-  64 2.12  58 2.12  49 2.12  65 2.12  66 2.12
  33  0.750  0.750  0.450-  65 2.12  55 2.12  63 2.12  64 2.12  48 2.12  69 2.12
  34  0.000  0.500  0.450-  66 2.12  56 2.12  63 2.12  64 2.12  47 2.12  70 2.12
  35  0.749  0.500  0.550-  54 2.11  61 2.12  69 2.12  70 2.13  63 2.13  67 2.14
  36  1.000  0.750  0.550-  69 2.11  70 2.11  53 2.12  62 2.12  64 2.13  68 2.15
  37  0.750  0.751  0.648-  69 2.10  59 2.11  68 2.11  52 2.12  67 2.13
  38  0.997  0.500  0.648-  67 2.07  51 2.09  70 2.10  60 2.12  68 2.13
  39  0.250  0.000  0.450-   7 2.12   9 2.12  10 2.12  17 2.12  26 2.12  11 2.12
  40  0.500  0.250  0.450-   8 2.12   9 2.12  10 2.12  18 2.12  25 2.12  12 2.14
  41  0.250  0.250  0.351-   9 2.12   8 2.12   7 2.12  15 2.12  24 2.12
  42  0.500  0.000  0.351-  10 2.12   8 2.12   7 2.12  16 2.12  23 2.12
  43  0.250  1.000  0.650-  21 2.09  13 2.09  30 2.12  14 2.13  11 2.15
  44  0.500  0.248  0.650-  14 2.10  12 2.11  13 2.12  29 2.12  22 2.13
  45  0.250  0.251  0.550-  13 2.10  19 2.11  28 2.11  11 2.12  12 2.12   9 2.13
  46  0.500  1.000  0.549-  14 2.10  11 2.11  10 2.11  27 2.12  20 2.12  12 2.13
  47  0.250  0.500  0.450-  15 2.12   9 2.12  17 2.12  18 2.12  34 2.12  19 2.13
  48  0.500  0.750  0.450-  16 2.12  10 2.12  17 2.12  18 2.12  33 2.12  20 2.14
  49  0.250  0.750  0.351-  17 2.12  15 2.12  16 2.12   7 2.12  32 2.12
  50  0.500  0.500  0.351-  18 2.12  15 2.12  16 2.12   8 2.12  31 2.12
  51  0.244  0.500  0.653-  38 2.09  21 2.14  13 2.15  19 2.19  22 2.23
  52  0.500  0.752  0.650-  14 2.11  21 2.12  37 2.12  20 2.13  22 2.14
  53  0.250  0.749  0.550-  21 2.08  19 2.11  36 2.12  20 2.12  17 2.12  11 2.12
  54  0.499  0.500  0.551-  19 2.10  20 2.11  12 2.11  35 2.11  18 2.14  22 2.21
  55  0.750  0.000  0.450-  23 2.12  10 2.12  25 2.12  26 2.12  33 2.12  27 2.12
  56  0.000  0.250  0.450-  24 2.12   9 2.12  25 2.12  26 2.12  34 2.12  28 2.13
  57  0.750  0.250  0.351-  25 2.12  23 2.12  24 2.12   8 2.12  31 2.12
  58  0.000  0.000  0.351-  26 2.12  23 2.12  24 2.12   7 2.12  32 2.12
  59  0.750  1.000  0.651-  37 2.11  29 2.11  30 2.11  14 2.12  27 2.15
  60  1.000  0.249  0.651-  30 2.11  29 2.12  13 2.12  38 2.12  28 2.15
  61  0.750  0.250  0.550-  29 2.11  28 2.11  35 2.12  27 2.12  12 2.12  25 2.12
  62  0.000  1.000  0.550-  30 2.11  11 2.12  36 2.12  26 2.12  28 2.12  27 2.12
  63  0.750  0.500  0.450-  31 2.12  25 2.12  18 2.12  33 2.12  34 2.12  35 2.13
  64  0.000  0.750  0.450-  32 2.12  26 2.12  17 2.12  33 2.12  34 2.12  36 2.13
  65  0.750  0.750  0.351-  33 2.12  23 2.12  31 2.12  32 2.12  16 2.12
  66  0.000  0.500  0.351-  34 2.12  24 2.12  31 2.12  32 2.12  15 2.12
  67  0.752  0.500  0.651-  22 2.07  38 2.07  37 2.13  29 2.13  35 2.14
  68  1.000  0.751  0.651-  30 2.11  21 2.11  37 2.11  38 2.13  36 2.15
  69  0.750  0.750  0.550-  37 2.10  36 2.11  35 2.12  20 2.12  27 2.12  33 2.12
  70  0.001  0.500  0.550-  38 2.10  36 2.11  28 2.12  19 2.12  34 2.12  35 2.13

IMPORTANT INFORMATION: All symmetrisations will be switched off!
NOSYMM: (Re-)initialisation of all symmetry stuff for point group C_1.

                                     Primitive cell

  volume of cell :    1530.6606

  direct lattice vectors                    reciprocal lattice vectors
     8.467142631  0.000000000  0.000000000     0.118103597  0.000000000  0.000000000
     0.000000000  8.467142631  0.000000000     0.000000000  0.118103597  0.000000000
     0.000000000  0.000000000 21.350356973     0.000000000  0.000000000  0.046837624

  length of vectors
     8.467142631  8.467142631 21.350356973     0.118103597  0.118103597  0.046837624

  position of ions in fractional coordinates (direct lattice)
     0.417145731  0.625114314  0.795303178
     0.416243056  0.494284760  0.752737042
     0.520759118  0.612492048  0.825848349
     0.319024377  0.500476709  0.724771716
     0.426515024  0.738603189  0.769994501
     0.310123169  0.625357477  0.824736762
     0.250000000  0.000000000  0.351282183
     0.500000000  0.250000000  0.351282183
     0.250000000  0.250000000  0.450427394
     0.500000000  0.000000000  0.450427394
     0.250264722  0.000179902  0.549793077
     0.500125687  0.251070989  0.550545488
     0.250105550  0.247113388  0.648190854
     0.500497328  0.000424513  0.647948916
     0.250000000  0.500000000  0.351282183
     0.500000000  0.750000000  0.351282183
     0.250000000  0.750000000  0.450427394
     0.500000000  0.500000000  0.450427394
     0.251073756  0.499797192  0.550386800
     0.500184536  0.748846880  0.550541270
     0.249373373  0.752914129  0.647432335
     0.507533811  0.499240675  0.654115664
     0.750000000  0.000000000  0.351282183
     0.000000000  0.250000000  0.351282183
     0.750000000  0.250000000  0.450427394
     0.000000000  0.000000000  0.450427394
     0.749721423  0.000079796  0.549874252
     0.999836035  0.250139509  0.550088970
     0.749927135  0.248820074  0.648371929
     0.999422222  0.000106480  0.648224466
     0.750000000  0.500000000  0.351282183
     0.000000000  0.750000000  0.351282183
     0.750000000  0.750000000  0.450427394
     0.000000000  0.500000000  0.450427394
     0.749038345  0.499877441  0.550310009
     0.999712248  0.749776244  0.549993980
     0.750328273  0.751114337  0.648133803
     0.997197931  0.499753937  0.648253977
     0.250000000  0.000000000  0.450427394
     0.500000000  0.250000000  0.450427394
     0.250000000  0.250000000  0.351282183
     0.500000000  0.000000000  0.351282183
     0.249585705  0.999794051  0.650415851
     0.499887771  0.248315324  0.649562701
     0.249595584  0.250675159  0.549964277
     0.499770397  0.999748500  0.549441756
     0.250000000  0.500000000  0.450427394
     0.500000000  0.750000000  0.450427394
     0.250000000  0.750000000  0.351282183
     0.500000000  0.500000000  0.351282183
     0.243975175  0.500270639  0.653110089
     0.499755896  0.751671263  0.650354349
     0.249695542  0.749285646  0.549878961
     0.499469303  0.500158711  0.550804860
     0.750000000  0.000000000  0.450427394
     0.000000000  0.250000000  0.450427394
     0.750000000  0.250000000  0.351282183
     0.000000000  0.000000000  0.351282183
     0.750210766  0.999854473  0.650517997
     0.999885828  0.249221872  0.650631400
     0.750373023  0.250089999  0.549693431
     0.000178120  0.999903798  0.549631109
     0.750000000  0.500000000  0.450427394
     0.000000000  0.750000000  0.450427394
     0.750000000  0.750000000  0.351282183
     0.000000000  0.500000000  0.351282183
     0.752251552  0.500164108  0.650715413
     0.999902752  0.750713033  0.650595717
     0.750214129  0.749860014  0.549714451
     0.000506868  0.500023536  0.549879667

  ion indices of the primitive-cell ions
   primitive index   ion index
                 1           1
                 2           2
                 3           3
                 4           4
                 5           5
                 6           6
                 7           7
                 8           8
                 9           9
                10          10
[...]
   4.23778226  0.00359441 13.83394065
   2.11678566  4.23357132  7.50000000
   4.23357132  6.35035697  7.50000000
   2.11678566  6.35035697  9.61678566
   4.23357132  4.23357132  9.61678566
   2.12587730  4.23185411 11.75095466
   4.23513381  6.34059334 11.75425265
   2.11147992  6.37503132 13.82291147
   4.29736117  4.22714201 13.96560293
   6.35035697  0.00000000  7.50000000
   0.00000000  2.11678566  7.50000000
   6.35035697  2.11678566  9.61678566
   0.00000000  0.00000000  9.61678566
   6.34799822  0.00067564 11.74001158
   8.46575431  2.11796690 11.74459587
   6.34974001  2.10679505 13.84297213
   8.46225050  0.00090158 13.83982375
   6.35035697  4.23357132  7.50000000
   0.00000000  6.35035697  7.50000000
   6.35035697  6.35035697  9.61678566
   0.00000000  4.23357132  9.61678566
   6.34221450  4.23253359 11.74931515
   8.46470620  6.34846240 11.74256780
   6.35313650  6.35979222 13.83788806
   8.44341711  4.23148787 13.84045382
   2.11678566  0.00000000  9.61678566
   4.23357132  2.11678566  9.61678566
   2.11678566  2.11678566  7.50000000
   4.23357132  0.00000000  7.50000000
   2.11327776  8.46539883 13.88661060
   4.23262106  2.10252127 13.86839554
   2.11336141  2.12250233 11.74193363
   4.23162724  8.46501314 11.73077763
   2.11678566  4.23357132  9.61678566
   4.23357132  6.35035697  9.61678566
   2.11678566  6.35035697  7.50000000
   4.23357132  4.23357132  7.50000000
   2.06577261  4.23586285 13.94413354
   4.23150445  6.36450779 13.88529751
   2.11420777  6.34430844 11.74011212
   4.22907783  4.23491515 11.75988039
   6.35035697  0.00000000  9.61678566
   0.00000000  2.11678566  9.61678566
   6.35035697  2.11678566  7.50000000
   0.00000000  0.00000000  7.50000000
   6.35214156  8.46591043 13.88879145
   8.46617592  2.11019714 13.89121264
   6.35351541  2.11754769 11.73615097
   0.00150816  8.46632807 11.73482039
   6.35035697  4.23357132  9.61678566
   0.00000000  6.35035697  9.61678566
   6.35035697  6.35035697  7.50000000
   0.00000000  4.23357132  7.50000000
   6.36942118  4.23496084 13.89300636
   8.46631922  6.35639432 13.89045080
   6.35217003  6.34917169 11.73659977
   0.00429172  4.23377060 11.74012718

--------------------------------------- Iteration      FINAL  ---------------------------------------

--------------------OUTCAR has been truncated-------------------------

[...]

--------------------OUTCAR has been truncated-------------------------

  DFT-D2 method for vdW energy calculation

  Parameters of vdW forcefield:
         C6(Jnm^6/mol)     R0(A)
   C        1.750          1.452
   O        0.700          1.342
   H        0.140          1.001
   Mg       0.630          1.243
   O        0.700          1.342

  vdW correction parametrized for the method        \K½

  IVDW =   1
  VDW_RADIUS =    50.000 A
  VDW_S6 =     1.050
  VDW_SR =     1.000
  VDW_D =    20.000
  LVDW_EWALD = F

  Number of pair interactions contributing to vdW energy:  857511
  Edisp (eV):   -5.27275

 VOLUME and BASIS-vectors are now :
  energy-cutoff  :      600.00
  volume of cell :     1530.66
      direct lattice vectors                 reciprocal lattice vectors
     8.467142631  0.000000000  0.000000000     0.118103597  0.000000000  0.000000000
     0.000000000  8.467142631  0.000000000     0.000000000  0.118103597  0.000000000
     0.000000000  0.000000000 21.350356973     0.000000000  0.000000000  0.046837624

  length of vectors
     8.467142631  8.467142631 21.350356973     0.118103597  0.118103597  0.046837624

 FORCES acting on ions:
    Electron-Ion                     Ewald-Force                    Non-Local-Force
   -.228E+01 -.947E+02 -.101E+04   0.257E+01 0.994E+02 0.102E+04   -.231E+00 -.445E+01 -.340E+01
   -.292E+02 0.137E+03 -.159E+04   0.534E+02 -.169E+03 0.159E+04   -.219E+02 0.282E+02 -.110E+00
   -.486E+02 -.313E+01 -.244E+03   0.530E+02 0.259E+01 0.247E+03   -.452E+01 0.544E+00 -.337E+01
   0.671E+02 0.596E+01 -.250E+03   -.723E+02 -.591E+01 0.247E+03   0.541E+01 -.134E+00 0.392E+01
   -.457E+01 -.606E+02 -.238E+03   0.506E+01 0.652E+02 0.236E+03   -.488E+00 -.482E+01 0.272E+01
   0.488E+02 -.894E+01 -.243E+03   -.532E+02 0.895E+01 0.246E+03   0.454E+01 -.234E-01 -.321E+01
   0.932E-01 -.115E+00 0.207E+04   -.882E-01 0.116E+00 -.207E+04   -.319E-02 -.906E-03 -.635E+01
   -.795E-01 -.238E-01 0.207E+04   0.822E-01 0.304E-01 -.207E+04   -.172E-02 -.459E-02 -.639E+01
   0.158E+00 0.145E+00 0.729E+03   -.138E+00 -.611E-01 -.729E+03   -.110E-01 -.555E-01 0.510E+00
   -.467E+00 -.515E+00 0.730E+03   0.498E+00 0.499E+00 -.730E+03   -.200E-01 0.105E-01 0.240E+00
   0.444E+01 -.211E+01 -.605E+03   -.436E+01 0.217E+01 0.605E+03   -.738E-01 -.554E-01 -.681E-01
   -.209E+01 0.455E+01 -.602E+03   0.213E+01 -.421E+01 0.603E+03   -.432E-01 -.296E+00 -.100E+01
   0.267E+02 0.312E+02 -.193E+04   -.268E+02 -.324E+02 0.192E+04   -.838E-02 0.107E+01 0.561E+01
   -.928E+01 -.102E+02 -.195E+04   0.949E+01 0.103E+02 0.194E+04   -.190E+00 -.162E+00 0.545E+01
   0.607E-01 0.115E+00 0.207E+04   -.518E-01 -.117E+00 -.207E+04   -.601E-02 0.938E-03 -.639E+01
   -.912E-01 0.233E-01 0.207E+04   0.942E-01 -.302E-01 -.207E+04   -.195E-02 0.473E-02 -.640E+01
   0.199E+00 -.160E+00 0.730E+03   -.156E+00 0.751E-01 -.730E+03   -.270E-01 0.557E-01 0.506E+00
   -.522E+00 0.504E+00 0.727E+03   0.495E+00 -.493E+00 -.728E+03   0.188E-01 -.780E-02 0.622E+00
   0.396E+01 0.220E+01 -.608E+03   -.367E+01 -.226E+01 0.607E+03   -.262E+00 0.529E-01 0.868E+00
   -.275E+01 -.456E+01 -.601E+03   0.283E+01 0.422E+01 0.601E+03   -.708E-01 0.301E+00 -.630E+00
   0.334E+02 -.327E+02 -.190E+04   -.337E+02 0.339E+02 0.189E+04   0.216E+00 -.108E+01 0.573E+01
   -.407E+02 0.140E+02 -.185E+04   0.430E+02 -.142E+02 0.184E+04   -.215E+01 0.170E+00 0.241E+01
   -.925E-01 -.103E+00 0.207E+04   0.874E-01 0.104E+00 -.207E+04   0.324E-02 -.606E-03 -.638E+01
   0.789E-01 0.802E-02 0.207E+04   -.817E-01 -.533E-02 -.207E+04   0.180E-02 -.172E-02 -.638E+01
   -.153E+00 0.424E-02 0.729E+03   0.132E+00 0.869E-02 -.729E+03   0.117E-01 -.772E-02 0.375E+00
   0.440E+00 -.461E+00 0.728E+03   -.473E+00 0.472E+00 -.729E+03   0.210E-01 -.739E-02 0.367E+00
   -.429E+01 -.147E+01 -.612E+03   0.422E+01 0.150E+01 0.612E+03   0.679E-01 -.280E-01 -.808E-01
   0.210E+01 0.351E+01 -.613E+03   -.216E+01 -.344E+01 0.613E+03   0.492E-01 -.551E-01 -.210E+00
   -.227E+02 0.193E+02 -.196E+04   0.227E+02 -.197E+02 0.195E+04   -.779E-02 0.388E+00 0.547E+01
   0.800E+01 -.495E+01 -.197E+04   -.818E+01 0.501E+01 0.197E+04   0.163E+00 -.504E-01 0.541E+01
   -.601E-01 0.104E+00 0.207E+04   0.513E-01 -.105E+00 -.207E+04   0.594E-02 0.639E-03 -.638E+01
   0.902E-01 -.875E-02 0.207E+04   -.934E-01 0.586E-02 -.207E+04   0.211E-02 0.187E-02 -.637E+01
   -.197E+00 -.148E-01 0.729E+03   0.148E+00 0.534E-03 -.730E+03   0.300E-01 0.853E-02 0.401E+00
   0.518E+00 0.463E+00 0.728E+03   -.489E+00 -.478E+00 -.729E+03   -.197E-01 0.959E-02 0.416E+00
   -.526E+01 0.154E+01 -.605E+03   0.500E+01 -.157E+01 0.605E+03   0.237E+00 0.248E-01 -.301E+00
   0.274E+01 -.352E+01 -.609E+03   -.282E+01 0.346E+01 0.609E+03   0.770E-01 0.545E-01 -.153E+00
   -.274E+02 -.200E+02 -.195E+04   0.276E+02 0.204E+02 0.194E+04   -.161E+00 -.368E+00 0.550E+01
   0.180E+02 0.521E+01 -.195E+04   -.184E+02 -.527E+01 0.194E+04   0.376E+00 0.608E-01 0.531E+01
   0.463E+00 -.333E+00 0.547E+03   -.440E+00 0.329E+00 -.547E+03   -.294E-01 0.485E-02 0.250E-01
   -.170E+00 -.379E-01 0.545E+03   0.189E+00 -.313E-01 -.545E+03   -.253E-01 0.832E-01 -.178E+00
   0.515E-01 -.172E-02 0.156E+04   -.462E-01 0.101E-01 -.156E+04   -.654E-02 -.105E-01 0.314E+01
   -.649E-01 -.844E-01 0.156E+04   0.708E-01 0.840E-01 -.156E+04   -.726E-02 0.516E-03 0.313E+01
   0.119E+02 -.794E+01 -.149E+04   -.118E+02 0.799E+01 0.149E+04   -.830E-01 -.424E-01 -.474E+01
   -.120E+02 0.337E+02 -.145E+04   0.119E+02 -.332E+02 0.146E+04   0.105E+00 -.450E+00 -.492E+01
   0.315E+01 0.274E+01 -.448E+03   -.309E+01 -.281E+01 0.448E+03   -.536E-01 0.608E-01 0.514E+00
   -.209E+01 -.147E+01 -.445E+03   0.213E+01 0.150E+01 0.445E+03   -.282E-01 -.215E-01 0.363E+00
   0.285E+00 0.339E+00 0.546E+03   -.333E+00 -.334E+00 -.546E+03   0.560E-01 -.540E-02 -.128E+00
   -.240E+00 0.330E-01 0.546E+03   0.255E+00 0.415E-01 -.546E+03   -.199E-01 -.897E-01 -.191E+00
   0.543E-01 0.134E-02 0.156E+04   -.464E-01 -.977E-02 -.156E+04   -.988E-02 0.105E-01 0.314E+01
   -.696E-01 0.847E-01 0.156E+04   0.690E-01 -.842E-01 -.156E+04   0.850E-03 -.740E-03 0.312E+01
   0.449E+02 0.944E+01 -.141E+04   -.448E+02 -.950E+01 0.141E+04   -.140E+00 0.628E-01 -.130E+01
   -.172E+02 -.360E+02 -.143E+04   0.171E+02 0.355E+02 0.144E+04   0.855E-01 0.436E+00 -.462E+01
   0.330E+01 -.275E+01 -.442E+03   -.325E+01 0.282E+01 0.442E+03   -.441E-01 -.539E-01 0.735E+00
   -.691E+00 0.154E+01 -.457E+03   0.710E+00 -.157E+01 0.458E+03   -.155E-01 0.283E-01 -.824E+00
   -.448E+00 -.269E+00 0.546E+03   0.427E+00 0.272E+00 -.546E+03   0.275E-01 -.385E-02 -.546E-01
   0.162E+00 0.966E-01 0.546E+03   -.179E+00 -.937E-01 -.546E+03   0.232E-01 -.287E-02 -.991E-01
   -.511E-01 -.690E-02 0.156E+04   0.458E-01 0.867E-02 -.156E+04   0.648E-02 -.224E-02 0.313E+01
   0.643E-01 -.816E-01 0.156E+04   -.702E-01 0.838E-01 -.156E+04   0.719E-02 -.275E-02 0.314E+01
   -.109E+02 -.469E+01 -.150E+04   0.109E+02 0.471E+01 0.150E+04   0.765E-01 -.146E-01 -.472E+01
   0.880E+01 0.111E+02 -.150E+04   -.870E+01 -.109E+02 0.150E+04   -.950E-01 -.247E+00 -.473E+01
   -.314E+01 0.291E+01 -.451E+03   0.306E+01 -.292E+01 0.450E+03   0.637E-01 0.147E-02 0.338E+00
   0.196E+01 -.124E+01 -.455E+03   -.198E+01 0.125E+01 0.454E+03   0.185E-01 -.245E-02 0.302E+00
   -.275E+00 0.269E+00 0.546E+03   0.320E+00 -.270E+00 -.546E+03   -.525E-01 0.182E-02 -.949E-01
   0.225E+00 -.110E+00 0.546E+03   -.233E+00 0.111E+00 -.546E+03   0.127E-01 -.260E-02 -.650E-01
   -.536E-01 0.671E-02 0.156E+04   0.458E-01 -.847E-02 -.156E+04   0.966E-02 0.221E-02 0.313E+01
   0.692E-01 0.821E-01 0.156E+04   -.686E-01 -.842E-01 -.156E+04   -.787E-03 0.257E-02 0.313E+01
   -.324E+02 0.514E+01 -.147E+04   0.325E+02 -.516E+01 0.148E+04   -.120E+00 0.264E-01 -.455E+01
   0.118E+02 -.113E+02 -.149E+04   -.118E+02 0.110E+02 0.150E+04   -.522E-01 0.266E+00 -.473E+01
   -.329E+01 -.296E+01 -.448E+03   0.323E+01 0.296E+01 0.448E+03   0.527E-01 -.380E-03 0.424E+00
   0.163E+01 0.129E+01 -.449E+03   -.163E+01 -.130E+01 0.449E+03   -.529E-02 0.104E-01 0.439E+00
   0.220E+02 -.226E+02 0.218E+02   -.682E-12 0.142E-12 -.409E-11   -.192E+02 0.194E+02 -.195E+02

 POSITION                                       TOTAL-FORCE (eV/Angst)
      3.53203      5.29293     16.98001         0.062717      0.109099      0.103598
      3.52439      4.18518     16.07120        -0.422604      0.257122     -0.210412
      4.40934      5.18606     17.63216        -0.211111      0.018116     -0.163730
      2.70122      4.23761     15.47413         0.411100     -0.076337      0.279025
      3.61136      6.25386     16.43966        -0.020658     -0.299476      0.133379
      2.62586      5.29499     17.60842         0.221634     -0.020784     -0.164718
      2.11679      0.00000      7.50000         0.001428      0.000347      0.503959
      4.23357      2.11679      7.50000         0.000773      0.001532      0.514118
      2.11679      2.11679      9.61679         0.006598      0.021839      0.024241
      4.23357      0.00000      9.61679         0.008732     -0.003818      0.046349
      2.11903      0.00152     11.73828        -0.002327      0.002739     -0.025376
      4.23464      2.12585     11.75434        -0.000361      0.011840     -0.002410
      2.11768      2.09234     13.83911        -0.006516     -0.001402     -0.078158
      4.23778      0.00359     13.83394         0.003615      0.006428     -0.074941
      2.11679      4.23357      7.50000         0.002208     -0.000303      0.512961
      4.23357      6.35036      7.50000         0.000821     -0.001573      0.515740
      2.11679      6.35036      9.61679         0.012763     -0.021760      0.021292
      4.23357      4.23357      9.61679        -0.006211      0.002380      0.056429
      2.12588      4.23185     11.75095         0.000326     -0.000465     -0.012509
      4.23513      6.34059     11.75425         0.001288     -0.010075     -0.004721
      2.11148      6.37503     13.82291        -0.015164      0.008872     -0.101660
      4.29736      4.22714     13.96560         0.033040     -0.015400     -0.016831
      6.35036      0.00000      7.50000        -0.001412      0.000284      0.511216
      0.00000      2.11679      7.50000        -0.000782      0.000753      0.511024
      6.35036      2.11679      9.61679        -0.007308      0.003962      0.029620
      0.00000      0.00000      9.61679        -0.008968      0.003105      0.018261
      6.34800      0.00068     11.74001        -0.001290      0.000230     -0.020436
      8.46575      2.11797     11.74460        -0.000139      0.005358     -0.016170
      6.34974      2.10680     13.84297         0.001812     -0.005742     -0.066537
      8.46225      0.00090     13.83982        -0.004830      0.003992     -0.069279
      6.35036      4.23357      7.50000        -0.002160     -0.000250      0.509938
      0.00000      6.35036      7.50000        -0.000899     -0.000785      0.508487
      6.35036      6.35036      9.61679        -0.014690     -0.004351      0.025412
      0.00000      4.23357      9.61679         0.007336     -0.004415      0.047286
      6.34221      4.23253     11.74932        -0.002032      0.000096     -0.013661
      8.46471      6.34846     11.74257        -0.002304     -0.003640     -0.020736
      6.35314      6.35979     13.83789         0.004091      0.008968     -0.074450
      8.44342      4.23149     13.84045         0.010571     -0.000471     -0.076200
      2.11679      0.00000      9.61679        -0.011008      0.000909      0.055286
      4.23357      2.11679      9.61679        -0.009659      0.025875      0.062182
      2.11679      2.11679      7.50000        -0.002156     -0.003541     -0.391546
      4.23357      0.00000      7.50000        -0.002375      0.000205     -0.393826
      2.11328      8.46540     13.88661         0.002372     -0.004598     -0.133439
      4.23262      2.10252     13.86840         0.003593     -0.010146     -0.151186
      2.11336      2.12250     11.74193         0.001265     -0.006858      0.021496
      4.23163      8.46501     11.73078         0.001212      0.000433      0.023016
      2.11679      4.23357      9.61679         0.015814     -0.001089      0.061513
      4.23357      6.35036      9.61679        -0.008004     -0.027884      0.056076
      2.11679      6.35036      7.50000        -0.003272      0.003540     -0.391018
      4.23357      4.23357      7.50000         0.000336     -0.000242     -0.396063
      2.06577      4.23586     13.94413        -0.031888      0.013978     -0.113697
      4.23150      6.36451     13.88530        -0.004464      0.002729     -0.123596
      2.11421      6.34431     11.74011         0.001358      0.008275      0.027480
      4.22908      4.23492     11.75988         0.001280      0.000107     -0.020703
      6.35036      0.00000      9.61679         0.010287     -0.001726      0.034809
      0.00000      2.11679      9.61679         0.009159     -0.000495      0.041236
      6.35036      2.11679      7.50000         0.002172     -0.000777     -0.393694
      0.00000      0.00000      7.50000         0.002353     -0.000877     -0.390577
      6.35214      8.46591     13.88879         0.003364     -0.000891     -0.140581
      8.46618      2.11020     13.89121        -0.006327     -0.016329     -0.134926
      6.35352      2.11755     11.73615        -0.000068     -0.004288      0.020175
      0.00151      8.46633     11.73482        -0.001363      0.000753      0.013836
      6.35036      4.23357      9.61679        -0.015146      0.001128      0.067741
      0.00000      6.35036      9.61679         0.006007     -0.001049      0.043398
      6.35036      6.35036      7.50000         0.003220      0.000766     -0.393326
      0.00000      4.23357      7.50000        -0.000323      0.000862     -0.391839
      6.36942      4.23496     13.89301        -0.013138      0.001692     -0.133021
      8.46632      6.35639     13.89045        -0.003283      0.017301     -0.129780
      6.35217      6.34917     11.73660         0.000341      0.005455      0.022677
      0.00429      4.23377     11.74013        -0.010746      0.000766      0.012498
    total drift:                               -0.000485     -0.001013      0.011970

  FREE ENERGIE OF THE ION-ELECTRON SYSTEM (eV)
  free  energy   TOTEN  =      -474.34137447 eV

  energy  without entropy=     -474.34137447  energy(sigma->0) =     -474.34137447