 vasp.6.3.0 20Jan22 (build Apr  1 2022 16:44:48) complex
 executed on        HPECrayEX_GCC date 2022.11.13  04:35:32

 INCAR:
   SYSTEM = MgO-rocksalt
   ISMEAR = 0
   SIGMA = 0.05
   EDIFF = 1E-6
   ALGO = ALL
   ISTART = 0
   IBRION = -1
   NSW = 0
   ISYM = 0
   DIPOL = 0.5 0.5 0.5
   IDIPOL = 3
   LDIPOL = .TRUE.
   LHFCALC = .TRUE.
   GGA = B5
   AEXX = 0.2
   AGGAX = 0.72
   AGGAC = 0.81
   ALDAC = 0.19
   IVDW = 1
   VDW_S6 = 1.05
   VDW_C6 = 1.75 0.14 0.63 0.70
   VDW_R0 = 1.452 1.001 1.243 1.342
   ENCUT = 600
   PREC = Accurate
   LASPH = .TRUE.
   LREAL = .FALSE.
   ISPIN = 1
   NELM = 200
   NELMIN = 8
   NCORE = 8
   KPAR = 1
   LWAVE = .FALSE.
   LCHARG = .FALSE.

 POTCAR:    PAW_PBE C 08Apr2002
 POTCAR:    PAW_PBE H 15Jun2001
 POTCAR:    PAW_PBE Mg_pv 13Apr2007
 POTCAR:    PAW_PBE O 08Apr2002
 POTCAR:    PAW_PBE C 08Apr2002
   VRHFIN =C: s2p2

   TITEL  = PAW_PBE C 08Apr2002
   POMASS =   12.011; ZVAL   =    4.000    mass and valenz
   ENMAX  =  400.000; ENMIN  =  300.000 eV

   TITEL  = PAW_PBE H 15Jun2001
   POMASS =    1.000; ZVAL   =    1.000    mass and valenz
   ENMAX  =  250.000; ENMIN  =  200.000 eV

   TITEL  = PAW_PBE Mg_pv 13Apr2007
   POMASS =   24.305; ZVAL   =    8.000    mass and valenz
   ENMAX  =  403.929; ENMIN  =  302.947 eV

   TITEL  = PAW_PBE O 08Apr2002
   POMASS =   16.000; ZVAL   =    6.000    mass and valenz
   ENMAX  =  400.000; ENMIN  =  300.000 eV

  PAW_PBE C 08Apr2002                   :
  PAW_PBE H 15Jun2001                   :
  PAW_PBE Mg_pv 13Apr2007               :
  PAW_PBE O 08Apr2002                   :

 POSCAR:  C  H Mg  O
  positions in direct lattice
 exchange correlation table for  LEXCH =       12
   RHO(1)=    0.500       N(1)  =     2000
   RHO(2)=  100.500       N(2)  =     4000

 ion  position               nearest neighbor table
   1  0.441  0.509  0.812-   3 1.10   5 1.10   4 1.10   2 1.54
   2  0.300  0.426  0.841-   7 1.10   8 1.10   6 1.10   1 1.54
   3  0.405  0.612  0.785-   1 1.10
   4  0.505  0.430  0.780-   1 1.10
   5  0.524  0.548  0.847-   1 1.10
   6  0.217  0.387  0.805-   2 1.10
   7  0.237  0.504  0.873-   2 1.10
   8  0.336  0.323  0.868-   2 1.10
   9  0.000  0.750  0.350-  41 2.14  43 2.14  44 2.14  51 2.14  60 2.14
  10  0.250  0.000  0.350-  42 2.14  43 2.14  44 2.14  52 2.14  59 2.14
  11  0.000  0.000  0.450-  43 2.14  42 2.14  41 2.14  49 2.14  58 2.14  47 2.14
  12  0.250  0.750  0.450-  44 2.14  42 2.14  41 2.14  50 2.14  57 2.14  48 2.14
  13  1.000  0.750  0.550-  64 2.14  55 2.14  47 2.14  48 2.14  41 2.15  45 2.17
  14  0.250  0.000  0.550-  63 2.14  48 2.14  56 2.14  47 2.14  42 2.15  46 2.17
  15  0.000  0.000  0.649-  47 2.12  46 2.13  62 2.14  53 2.14  45 2.14
  16  0.250  0.750  0.649-  48 2.12  45 2.13  46 2.14  61 2.14  54 2.14
  17  0.000  0.250  0.350-  49 2.14  43 2.14  51 2.14  52 2.14  68 2.14
  18  0.250  0.500  0.350-  50 2.14  44 2.14  51 2.14  52 2.14  67 2.14
  19  0.000  0.500  0.450-  51 2.14  49 2.14  50 2.14  41 2.14  66 2.14  55 2.14
  20  0.250  0.250  0.450-  52 2.14  49 2.14  50 2.14  42 2.14  65 2.14  56 2.14
  21  1.000  0.250  0.550-  72 2.14  55 2.14  47 2.14  56 2.14  49 2.15  53 2.17
  22  0.250  0.500  0.550-  71 2.14  56 2.14  48 2.14  55 2.14  50 2.15  54 2.17
  23  0.000  0.500  0.649-  55 2.12  54 2.13  45 2.14  53 2.14  70 2.14
  24  0.250  0.250  0.649-  56 2.12  53 2.13  69 2.14  54 2.14  46 2.14
  25  0.500  0.750  0.350-  57 2.14  44 2.14  59 2.14  60 2.14  67 2.14
  26  0.750  0.000  0.350-  58 2.14  43 2.14  59 2.14  60 2.14  68 2.14
  27  0.500  0.000  0.450-  59 2.14  57 2.14  58 2.14  42 2.14  65 2.14  63 2.14
  28  0.750  0.750  0.450-  60 2.14  57 2.14  58 2.14  41 2.14  66 2.14  64 2.14
  29  0.500  0.750  0.551-  64 2.14  63 2.14  71 2.14  48 2.14  57 2.15  61 2.16
  30  0.750  0.000  0.551-  63 2.14  72 2.14  64 2.14  47 2.14  58 2.15  62 2.16
  31  0.500  0.000  0.650-  63 2.13  61 2.14  69 2.14  46 2.14  62 2.14
  32  0.750  0.750  0.650-  64 2.13  70 2.14  62 2.14  45 2.14  61 2.14
  33  0.500  0.250  0.350-  65 2.14  59 2.14  52 2.14  67 2.14  68 2.14
  34  0.750  0.500  0.350-  66 2.14  60 2.14  51 2.14  67 2.14  68 2.14
  35  0.500  0.500  0.450-  67 2.14  57 2.14  65 2.14  66 2.14  50 2.14  71 2.14
  36  0.750  0.250  0.450-  68 2.14  58 2.14  65 2.14  66 2.14  49 2.14  72 2.14
  37  0.500  0.250  0.551-  72 2.14  63 2.14  71 2.14  56 2.14  65 2.15  69 2.16
  38  0.750  0.500  0.551-  71 2.14  64 2.14  72 2.14  55 2.14  66 2.15  70 2.16
  39  0.500  0.500  0.650-  71 2.13  61 2.14  69 2.14  54 2.14  70 2.14
  40  0.750  0.250  0.650-  72 2.13  70 2.14  62 2.14  53 2.14  69 2.14
  41  0.000  0.750  0.450-   9 2.14  11 2.14  12 2.14  19 2.14  28 2.14  13 2.15
  42  0.250  0.000  0.450-  10 2.14  11 2.14  12 2.14  20 2.14  27 2.14  14 2.15
  43  0.000  0.000  0.350-  11 2.14  10 2.14   9 2.14  17 2.14  26 2.14
  44  0.250  0.750  0.350-  12 2.14  10 2.14   9 2.14  18 2.14  25 2.14
  45  0.000  0.750  0.652-  16 2.13  23 2.14  15 2.14  32 2.14  13 2.17
  46  0.250  0.000  0.652-  15 2.13  16 2.14  24 2.14  31 2.14  14 2.17
  47  1.000  0.000  0.550-  15 2.12  21 2.14  13 2.14  30 2.14  14 2.14  11 2.14
  48  0.250  0.750  0.550-  16 2.12  14 2.14  22 2.14  13 2.14  29 2.14  12 2.14
  49  0.000  0.250  0.450-  17 2.14  11 2.14  19 2.14  20 2.14  36 2.14  21 2.15
  50  0.250  0.500  0.450-  18 2.14  12 2.14  19 2.14  20 2.14  35 2.14  22 2.15
  51  0.000  0.500  0.350-  19 2.14  17 2.14  18 2.14   9 2.14  34 2.14
  52  0.250  0.250  0.350-  20 2.14  17 2.14  18 2.14  10 2.14  33 2.14
  53  0.000  0.250  0.652-  24 2.13  15 2.14  23 2.14  40 2.14  21 2.17
  54  0.250  0.500  0.652-  23 2.13  24 2.14  16 2.14  39 2.14  22 2.17
  55  1.000  0.500  0.550-  23 2.12  21 2.14  13 2.14  22 2.14  38 2.14  19 2.14
  56  0.250  0.250  0.550-  24 2.12  14 2.14  22 2.14  21 2.14  37 2.14  20 2.14
  57  0.500  0.750  0.450-  25 2.14  12 2.14  27 2.14  28 2.14  35 2.14  29 2.15
  58  0.750  0.000  0.450-  26 2.14  11 2.14  27 2.14  28 2.14  36 2.14  30 2.15
  59  0.500  0.000  0.350-  27 2.14  25 2.14  26 2.14  10 2.14  33 2.14
  60  0.750  0.750  0.350-  28 2.14  25 2.14  26 2.14   9 2.14  34 2.14
  61  0.500  0.750  0.652-  31 2.14  16 2.14  39 2.14  32 2.14  29 2.16
  62  0.750  0.000  0.652-  15 2.14  32 2.14  40 2.14  31 2.14  30 2.16
  63  0.500  0.000  0.550-  31 2.13  14 2.14  30 2.14  29 2.14  37 2.14  27 2.14
  64  0.750  0.750  0.550-  32 2.13  13 2.14  29 2.14  38 2.14  30 2.14  28 2.14
  65  0.500  0.250  0.450-  33 2.14  27 2.14  20 2.14  35 2.14  36 2.14  37 2.15
  66  0.750  0.500  0.450-  34 2.14  28 2.14  19 2.14  35 2.14  36 2.14  38 2.15
  67  0.500  0.500  0.350-  35 2.14  25 2.14  33 2.14  34 2.14  18 2.14
  68  0.750  0.250  0.350-  36 2.14  26 2.14  33 2.14  34 2.14  17 2.14
  69  0.500  0.250  0.652-  24 2.14  31 2.14  39 2.14  40 2.14  37 2.16
  70  0.750  0.500  0.652-  40 2.14  32 2.14  23 2.14  39 2.14  38 2.16
  71  0.500  0.500  0.550-  39 2.13  22 2.14  38 2.14  29 2.14  37 2.14  35 2.14
  72  0.750  0.250  0.550-  40 2.13  21 2.14  37 2.14  30 2.14  38 2.14  36 2.14

IMPORTANT INFORMATION: All symmetrisations will be switched off!
NOSYMM: (Re-)initialisation of all symmetry stuff for point group C_1.

                                     Primitive cell

  volume of cell :    1563.6717

  direct lattice vectors                    reciprocal lattice vectors
     8.546113626  0.000000000  0.000000000     0.117012252  0.000000000  0.000000000
     0.000000000  8.546113626  0.000000000     0.000000000  0.117012252  0.000000000
     0.000000000  0.000000000 21.409585219     0.000000000  0.000000000  0.046708051

  length of vectors
     8.546113626  8.546113626 21.409585219     0.117012252  0.117012252  0.046708051

  position of ions in fractional coordinates (direct lattice)
     0.441375799  0.509016279  0.811568336
     0.299971595  0.426062869  0.841061143
     0.405262874  0.612002648  0.784593509
     0.504684124  0.429755037  0.780057201
     0.524391248  0.548387937  0.847366611
     0.217123016  0.387287397  0.805067342
     0.236771707  0.504084336  0.873004512
     0.336428904  0.322744620  0.867792688
     0.000000000  0.750000000  0.350310383
     0.250000000  0.000000000  0.350310383
     0.000000000  0.000000000  0.450103461
     0.250000000  0.750000000  0.450103461
     0.999957845  0.750112429  0.550418299
     0.250041368  0.000142650  0.550407494
     0.000077236  0.000327530  0.649346663
     0.249831921  0.750295364  0.649332648
     0.000000000  0.250000000  0.350310383
     0.250000000  0.500000000  0.350310383
     0.000000000  0.500000000  0.450103461
     0.250000000  0.250000000  0.450103461
     0.999958040  0.250174880  0.550418847
     0.250074500  0.500144173  0.550411887
     0.000123523  0.500284282  0.649329324
     0.249873169  0.250295521  0.649332897
     0.500000000  0.750000000  0.350310383
     0.750000000  0.000000000  0.350310383
     0.500000000  0.000000000  0.450103461
     0.750000000  0.750000000  0.450103461
     0.500119448  0.750188735  0.550544161
     0.749921968  0.000191838  0.550547101
     0.499808910  0.000365844  0.649754402
     0.750142876  0.750383843  0.649792152
     0.500000000  0.250000000  0.350310383
     0.750000000  0.500000000  0.350310383
     0.500000000  0.500000000  0.450103461
     0.750000000  0.250000000  0.450103461
     0.500118682  0.250163429  0.550543530
     0.749883364  0.500191023  0.550542416
     0.499763848  0.500410116  0.649773803
     0.750101531  0.250420999  0.649792786
     0.000000000  0.750000000  0.450103461
     0.250000000  0.000000000  0.450103461
     0.000000000  0.000000000  0.350310383
     0.250000000  0.750000000  0.350310383
     0.000278687  0.750240793  0.651592155
     0.249627784  0.000265581  0.651554750
     0.999979812  0.000149411  0.550114881
     0.250012929  0.750151876  0.550108076
     0.000000000  0.250000000  0.450103461
     0.250000000  0.500000000  0.450103461
     0.000000000  0.500000000  0.350310383
     0.250000000  0.250000000  0.350310383
     0.000279634  0.250304096  0.651593181
     0.249683466  0.500267254  0.651558196
     0.999985290  0.500139799  0.550114255
     0.250020688  0.250137635  0.550108554
     0.500000000  0.750000000  0.450103461
     0.750000000  0.000000000  0.450103461
     0.500000000  0.000000000  0.350310383
     0.750000000  0.750000000  0.350310383
     0.499807649  0.750411890  0.651590185
     0.750146604  0.000394274  0.651576885
     0.499975254  0.000173696  0.550219147
     0.750048669  0.750186573  0.550221723
     0.500000000  0.250000000  0.450103461
     0.750000000  0.500000000  0.450103461
     0.500000000  0.500000000  0.350310383
     0.750000000  0.250000000  0.350310383
     0.499806576  0.250340854  0.651589790
     0.750082673  0.500392841  0.651588694
     0.499972465  0.500181469  0.550212711
     0.750040496  0.250190756  0.550222315

  ion indices of the primitive-cell ions
   primitive index   ion index
                 1           1
                 2           2
                 3           3
                 4           4
                 5           5
                 6           6
                 7           7
                 8           8
[...]
   4.27305681  6.40958522  7.50000000
   6.40958522  0.00000000  7.50000000
   4.27305681  0.00000000  9.63652841
   6.40958522  6.40958522  9.63652841
   4.27407763  6.41119817 11.78692214
   6.40891835  0.00163947 11.78698507
   4.27142374  0.00312655 13.91097224
   6.41080625  6.41286559 13.91178045
   4.27305681  2.13652841  7.50000000
   6.40958522  4.27305681  7.50000000
   4.27305681  4.27305681  9.63652841
   6.40958522  2.13652841  9.63652841
   4.27407108  2.13792509 11.78690863
   6.40858843  4.27468931 11.78688477
   4.27103863  4.27656171 13.91138761
   6.41045291  2.14012631 13.91179402
   0.00000000  6.40958522  9.63652841
   2.13652841  0.00000000  9.63652841
   0.00000000  0.00000000  7.50000000
   2.13652841  6.40958522  7.50000000
   0.00238169  6.41164306 13.95031777
   2.13334741  0.00226968 13.94951694
   8.54594110  0.00127689 11.77773143
   2.13663890  6.41088317 11.77758573
   0.00000000  2.13652841  9.63652841
   2.13652841  4.27305681  9.63652841
   0.00000000  4.27305681  7.50000000
   2.13652841  2.13652841  7.50000000
   0.00238979  2.13912725 13.95033974
   2.13382327  4.27534079 13.94959072
   8.54598791  4.27425155 11.77771803
   2.13670521  2.13770465 11.77759596
   4.27305681  6.40958522  9.63652841
   6.40958522  0.00000000  9.63652841
   4.27305681  0.00000000  7.50000000
   6.40958522  6.40958522  7.50000000
   4.27141296  6.41310528 13.95027559
   6.41083811  0.00336951 13.94999084
   4.27284533  0.00148443 11.77996372
   6.41000115  6.41117969 11.78001886
   4.27305681  2.13652841  9.63652841
   6.40958522  4.27305681  9.63652841
   4.27305681  4.27305681  7.50000000
   6.40958522  2.13652841  7.50000000
   4.27140379  2.13944138 13.95026713
   6.41029175  4.27641407 13.95024368
   4.27282150  4.27460767 11.77982592
   6.40993131  2.13815863 11.78003155

--------------------------------------- Iteration      FINAL  ---------------------------------------

--------------------OUTCAR has been truncated-------------------------

[...]

--------------------OUTCAR has been truncated-------------------------

  DFT-D2 method for vdW energy calculation

  Parameters of vdW forcefield:
         C6(Jnm^6/mol)     R0(A)
   C        1.750          1.452
   H        0.140          1.001
   Mg       0.630          1.243
   O        0.700          1.342

  vdW correction parametrized for the method Òÿ      

  IVDW =   1
  VDW_RADIUS =    50.000 A
  VDW_S6 =     1.050
  VDW_SR =     1.000
  VDW_D =    20.000
  LVDW_EWALD = F

  Number of pair interactions contributing to vdW energy:  888164
  Edisp (eV):   -5.04584

 VOLUME and BASIS-vectors are now :
  energy-cutoff  :      600.00
  volume of cell :     1563.67
      direct lattice vectors                 reciprocal lattice vectors
     8.546113626  0.000000000  0.000000000     0.117012252  0.000000000  0.000000000
     0.000000000  8.546113626  0.000000000     0.000000000  0.117012252  0.000000000
     0.000000000  0.000000000 21.409585219     0.000000000  0.000000000  0.046708051

  length of vectors
     8.546113626  8.546113626 21.409585219     0.117012252  0.117012252  0.046708051

 FORCES acting on ions:
    Electron-Ion                     Ewald-Force                    Non-Local-Force
   -.574E+02 -.342E+02 -.804E+03   0.571E+02 0.342E+02 0.804E+03   0.189E+00 -.905E-01 -.784E-01
   0.576E+02 0.340E+02 -.741E+03   -.576E+02 -.339E+02 0.741E+03   -.194E-01 -.135E-01 0.362E-01
   0.932E+01 -.500E+02 -.203E+03   -.108E+02 0.545E+02 0.200E+03   0.152E+01 -.444E+01 0.291E+01
   -.350E+02 0.314E+02 -.203E+03   0.378E+02 -.348E+02 0.200E+03   -.273E+01 0.340E+01 0.331E+01
   -.438E+02 -.218E+02 -.208E+03   0.474E+02 0.235E+02 0.211E+03   -.358E+01 -.170E+01 -.382E+01
   0.438E+02 0.215E+02 -.179E+03   -.473E+02 -.231E+02 0.175E+03   0.357E+01 0.166E+01 0.384E+01
   0.350E+02 -.308E+02 -.183E+03   -.377E+02 0.341E+02 0.187E+03   0.274E+01 -.331E+01 -.344E+01
   -.933E+01 0.501E+02 -.183E+03   0.108E+02 -.546E+02 0.186E+03   -.152E+01 0.443E+01 -.288E+01
   0.206E+00 -.213E+00 0.201E+04   -.207E+00 0.213E+00 -.201E+04   0.980E-03 -.574E-04 -.633E+01
   0.812E-01 0.427E-01 0.201E+04   -.798E-01 -.424E-01 -.201E+04   -.942E-03 -.211E-03 -.633E+01
   0.694E+00 0.123E+00 0.698E+03   -.708E+00 -.117E+00 -.698E+03   0.861E-02 -.335E-02 0.421E+00
   0.262E+00 -.774E+00 0.699E+03   -.250E+00 0.779E+00 -.700E+03   -.774E-02 -.308E-02 0.416E+00
   0.252E+01 -.301E+01 -.609E+03   -.256E+01 0.300E+01 0.610E+03   0.280E-01 0.698E-02 -.220E+00
   0.145E+01 0.565E+00 -.608E+03   -.142E+01 -.568E+00 0.608E+03   -.239E-01 0.212E-02 -.222E+00
   0.687E+01 0.236E+01 -.192E+04   -.679E+01 -.236E+01 0.192E+04   -.703E-01 -.461E-02 0.545E+01
   0.118E+02 -.199E+02 -.190E+04   -.119E+02 0.199E+02 0.189E+04   0.723E-01 0.660E-02 0.549E+01
   0.210E+00 0.214E+00 0.201E+04   -.212E+00 -.213E+00 -.201E+04   0.962E-03 -.331E-03 -.633E+01
   0.986E-01 -.419E-01 0.201E+04   -.972E-01 0.422E-01 -.201E+04   -.969E-03 -.178E-03 -.633E+01
   0.780E+00 -.929E-01 0.699E+03   -.793E+00 0.991E-01 -.699E+03   0.813E-02 -.374E-02 0.418E+00
   0.261E+00 0.804E+00 0.699E+03   -.248E+00 -.797E+00 -.700E+03   -.795E-02 -.399E-02 0.419E+00
   0.271E+01 0.300E+01 -.608E+03   -.275E+01 -.299E+01 0.609E+03   0.287E-01 -.932E-02 -.213E+00
   0.275E+01 -.607E+00 -.600E+03   -.272E+01 0.612E+00 0.600E+03   -.264E-01 -.269E-02 -.259E+00
   0.137E+02 -.264E+01 -.190E+04   -.136E+02 0.266E+01 0.190E+04   -.850E-01 -.110E-01 0.546E+01
   0.112E+02 0.207E+02 -.189E+04   -.113E+02 -.207E+02 0.188E+04   0.662E-01 -.205E-01 0.547E+01
   -.205E+00 -.230E+00 0.201E+04   0.207E+00 0.230E+00 -.201E+04   -.111E-02 -.136E-03 -.634E+01
   -.818E-01 0.387E-01 0.201E+04   0.802E-01 -.383E-01 -.201E+04   0.102E-02 -.282E-03 -.634E+01
   -.692E+00 0.120E+00 0.698E+03   0.702E+00 -.113E+00 -.698E+03   -.688E-02 -.417E-02 0.441E+00
   -.267E+00 -.691E+00 0.698E+03   0.258E+00 0.699E+00 -.698E+03   0.574E-02 -.470E-02 0.441E+00
   -.251E+01 -.414E+01 -.606E+03   0.254E+01 0.414E+01 0.606E+03   -.233E-01 -.434E-02 -.291E+00
   -.148E+01 0.404E+00 -.613E+03   0.145E+01 -.407E+00 0.613E+03   0.198E-01 0.150E-02 -.272E+00
   -.672E+01 0.199E+01 -.192E+04   0.669E+01 -.203E+01 0.191E+04   0.288E-01 0.281E-01 0.553E+01
   -.109E+02 -.126E+02 -.192E+04   0.109E+02 0.126E+02 0.191E+04   -.273E-01 0.278E-01 0.551E+01
   -.209E+00 0.231E+00 0.201E+04   0.211E+00 -.231E+00 -.201E+04   -.106E-02 -.360E-03 -.634E+01
   -.993E-01 -.374E-01 0.201E+04   0.976E-01 0.378E-01 -.201E+04   0.107E-02 -.278E-03 -.634E+01
   -.777E+00 -.860E-01 0.700E+03   0.787E+00 0.943E-01 -.700E+03   -.626E-02 -.501E-02 0.438E+00
   -.267E+00 0.722E+00 0.698E+03   0.258E+00 -.714E+00 -.698E+03   0.586E-02 -.513E-02 0.443E+00
   -.268E+01 0.414E+01 -.605E+03   0.271E+01 -.414E+01 0.605E+03   -.251E-01 0.276E-02 -.269E+00
   -.275E+01 -.416E+00 -.607E+03   0.272E+01 0.417E+00 0.607E+03   0.259E-01 -.782E-03 -.289E+00
   -.158E+02 -.243E+01 -.187E+04   0.158E+02 0.246E+01 0.186E+04   0.403E-01 -.232E-01 0.545E+01
   -.110E+02 0.128E+02 -.192E+04   0.110E+02 -.128E+02 0.191E+04   -.321E-01 -.110E-01 0.553E+01
   0.529E+00 -.509E+00 0.523E+03   -.530E+00 0.502E+00 -.523E+03   0.140E-03 0.849E-02 -.859E-01
   0.167E+00 0.965E-01 0.524E+03   -.166E+00 -.104E+00 -.523E+03   -.695E-03 0.921E-02 -.831E-01
   0.151E+00 0.298E-01 0.151E+04   -.153E+00 -.300E-01 -.152E+04   0.212E-02 0.319E-03 0.315E+01
   0.669E-01 -.172E+00 0.151E+04   -.653E-01 0.172E+00 -.152E+04   -.196E-02 0.538E-03 0.315E+01
   0.710E+01 -.865E+01 -.146E+04   -.710E+01 0.865E+01 0.146E+04   -.155E-01 0.571E-02 -.457E+01
   0.463E+01 0.225E+01 -.146E+04   -.463E+01 -.225E+01 0.146E+04   0.240E-01 0.359E-03 -.455E+01
   0.162E+01 0.400E+00 -.453E+03   -.163E+01 -.407E+00 0.452E+03   0.811E-02 0.680E-02 0.349E+00
   0.154E+01 -.293E+01 -.448E+03   -.152E+01 0.293E+01 0.447E+03   -.214E-01 0.985E-02 0.339E+00
   0.544E+00 0.531E+00 0.523E+03   -.545E+00 -.538E+00 -.523E+03   0.381E-03 0.833E-02 -.848E-01
   0.271E+00 -.749E-01 0.525E+03   -.272E+00 0.684E-01 -.525E+03   0.204E-03 0.771E-02 -.857E-01
   0.161E+00 -.302E-01 0.151E+04   -.163E+00 0.300E-01 -.152E+04   0.196E-02 0.182E-03 0.315E+01
   0.671E-01 0.172E+00 0.151E+04   -.655E-01 -.171E+00 -.152E+04   -.194E-02 -.305E-04 0.315E+01
   0.863E+01 0.886E+01 -.145E+04   -.864E+01 -.886E+01 0.146E+04   -.151E-01 -.539E-02 -.455E+01
   0.146E+02 -.288E+01 -.142E+04   -.145E+02 0.289E+01 0.143E+04   -.435E-01 -.113E-01 -.465E+01
   0.227E+01 -.383E+00 -.449E+03   -.228E+01 0.383E+00 0.448E+03   0.498E-02 -.280E-03 0.337E+00
   0.152E+01 0.298E+01 -.447E+03   -.150E+01 -.297E+01 0.446E+03   -.157E-01 -.689E-02 0.346E+00
   -.518E+00 -.597E+00 0.524E+03   0.513E+00 0.586E+00 -.523E+03   0.546E-02 0.123E-01 -.112E+00
   -.172E+00 0.875E-01 0.522E+03   0.174E+00 -.981E-01 -.522E+03   -.348E-02 0.125E-01 -.112E+00
   -.151E+00 0.298E-01 0.151E+04   0.152E+00 -.302E-01 -.152E+04   -.229E-02 0.426E-03 0.315E+01
   -.674E-01 -.162E+00 0.151E+04   0.657E-01 0.161E+00 -.152E+04   0.215E-02 0.529E-03 0.315E+01
   -.795E+01 -.176E+02 -.144E+04   0.798E+01 0.175E+02 0.144E+04   -.203E-01 0.484E-01 -.453E+01
   -.467E+01 0.111E+01 -.146E+04   0.466E+01 -.110E+01 0.147E+04   0.660E-02 -.113E-01 -.446E+01
   -.159E+01 0.348E+00 -.452E+03   0.159E+01 -.353E+00 0.452E+03   -.471E-03 0.731E-02 0.272E+00
   -.160E+01 -.233E+01 -.452E+03   0.160E+01 0.233E+01 0.452E+03   -.439E-03 0.169E-02 0.265E+00
   -.532E+00 0.624E+00 0.524E+03   0.528E+00 -.632E+00 -.523E+03   0.529E-02 0.963E-02 -.111E+00
   -.278E+00 -.555E-01 0.523E+03   0.281E+00 0.458E-01 -.523E+03   -.459E-02 0.114E-01 -.113E+00
   -.161E+00 -.305E-01 0.151E+04   0.163E+00 0.303E-01 -.152E+04   -.219E-02 0.231E-03 0.315E+01
   -.677E-01 0.161E+00 0.151E+04   0.659E-01 -.161E+00 -.152E+04   0.216E-02 0.185E-03 0.315E+01
   -.893E+01 0.178E+02 -.144E+04   0.893E+01 -.177E+02 0.144E+04   0.160E-01 -.593E-01 -.447E+01
   -.128E+02 -.136E+01 -.145E+04   0.128E+02 0.140E+01 0.145E+04   0.290E-01 -.463E-01 -.452E+01
   -.227E+01 -.344E+00 -.445E+03   0.227E+01 0.347E+00 0.445E+03   0.980E-04 -.331E-02 0.264E+00
   -.160E+01 0.233E+01 -.452E+03   0.161E+01 -.232E+01 0.452E+03   -.353E-02 -.770E-02 0.269E+00
   -.114E+00 0.120E+00 0.170E+02   0.185E-12 0.142E-12 0.227E-12   0.112E+00 -.113E+00 -.149E+02

 POSITION                                       TOTAL-FORCE (eV/Angst)
      3.77205      4.35011     17.37534         0.018444     -0.001250      0.004529
      2.56359      3.64118     18.00677        -0.020898     -0.010041     -0.033813
      3.46342      5.23024     16.79782         0.039546     -0.145700      0.080655
      4.31309      3.67274     16.70070        -0.085617      0.080747      0.099423
      4.48151      4.68659     18.14177        -0.104784     -0.053275     -0.111265
      1.85556      3.30980     17.23616         0.119429      0.062153      0.115765
      2.02348      4.30796     18.69066         0.091532     -0.086025     -0.110439
      2.87516      2.75821     18.57908        -0.034310      0.138355     -0.096373
      0.00000      6.40959      7.50000        -0.000417      0.000013      0.628054
      2.13653      0.00000      7.50000         0.000372      0.000073      0.627947
      0.00000      0.00000      9.63653        -0.004123      0.001708      0.022215
      2.13653      6.40959      9.63653         0.003871      0.001634      0.022689
      8.54575      6.41055     11.78423        -0.005948      0.001213     -0.009450
      2.13688      0.00122     11.78400         0.004873     -0.000576     -0.009997
      0.00066      0.00280     13.90224         0.004443     -0.004433     -0.212340
      2.13509      6.41211     13.90194        -0.003251     -0.006495     -0.228225
      0.00000      2.13653      7.50000        -0.000398      0.000105      0.627969
      2.13653      4.27306      7.50000         0.000401      0.000058      0.628203
      0.00000      4.27306      9.63653        -0.003875      0.001927      0.022669
      2.13653      2.13653      9.63653         0.003904      0.002056      0.022104
      8.54576      2.13802     11.78424        -0.006077      0.000488     -0.011842
      2.13717      4.27429     11.78409         0.002667      0.001250     -0.001187
      0.00106      4.27549     13.90187         0.002527      0.003180     -0.212684
      2.13544      2.13905     13.90195        -0.001715      0.004852     -0.217623
      4.27306      6.40959      7.50000         0.000434      0.000036      0.629602
      6.40959      0.00000      7.50000        -0.000426      0.000084      0.629472
      4.27306      0.00000      9.63653         0.002978      0.002287      0.027368
      6.40959      6.40959      9.63653        -0.002368      0.002716      0.027644
      4.27408      6.41120     11.78692         0.000497     -0.000037     -0.012297
      6.40892      0.00164     11.78699        -0.003180     -0.001219     -0.018990
      4.27142      0.00313     13.91097         0.000012     -0.009936     -0.277715
      6.41081      6.41287     13.91178        -0.004431     -0.013158     -0.267990
      4.27306      2.13653      7.50000         0.000459      0.000122      0.629442
      6.40959      4.27306      7.50000        -0.000434      0.000093      0.629461
      4.27306      4.27306      9.63653         0.002690      0.002627      0.027760
      6.40959      2.13653      9.63653        -0.002411      0.002786      0.027234
      4.27407      2.13793     11.78691         0.001199      0.001379     -0.017852
      6.40859      4.27469     11.78688        -0.001519      0.000010     -0.012375
      4.27104      4.27656     13.91139        -0.007286      0.009293     -0.199519
      6.41045      2.14013     13.91179         0.004600     -0.001148     -0.283216
      0.00000      6.40959      9.63653        -0.000039      0.002570      0.042139
      2.13653      0.00000      9.63653        -0.000126      0.002723      0.042103
      0.00000      0.00000      7.50000         0.000684      0.000104     -0.273587
      2.13653      6.40959      7.50000        -0.000674      0.000186     -0.273682
      0.00238      6.41164     13.95032        -0.023012      0.005042     -0.197275
      2.13335      0.00227     13.94952         0.028732      0.002064     -0.190727
      8.54594      0.00128     11.77773         0.002114      0.001580      0.017686
      2.13664      6.41088     11.77759        -0.004060      0.002213      0.015103
      0.00000      2.13653      9.63653         0.000035      0.002318      0.042553
      2.13653      4.27306      9.63653         0.000009      0.002202      0.041665
      0.00000      4.27306      7.50000         0.000599      0.000072     -0.273710
      2.13653      2.13653      7.50000        -0.000646     -0.000016     -0.273535
      0.00239      2.13913     13.95034        -0.022475     -0.000795     -0.190995
      2.13382      4.27534     13.94959         0.008277     -0.002164     -0.208978
      8.54599      4.27425     11.77772         0.000282     -0.000007      0.012377
      2.13671      2.13770     11.77760        -0.002825     -0.001736      0.017381
      4.27306      6.40959      9.63653         0.001637      0.003600      0.045160
      6.40959      0.00000      9.63653        -0.001157      0.003669      0.045631
      4.27306      0.00000      7.50000        -0.000763      0.000147     -0.274435
      6.40959      6.40959      7.50000         0.000728      0.000175     -0.274590
      4.27141      6.41311     13.95028         0.002123      0.008449     -0.175616
      6.41084      0.00337     13.94999        -0.011170     -0.002642     -0.163400
      4.27285      0.00148     11.77996         0.000083      0.002627      0.013187
      6.41000      6.41118     11.78002        -0.000741      0.000813      0.014396
      4.27306      2.13653      9.63653         0.001574      0.002824      0.045582
      6.40959      4.27306      9.63653        -0.001323      0.003304      0.044943
      4.27306      4.27306      7.50000        -0.000727      0.000067     -0.274473
      6.40959      2.13653      7.50000         0.000736      0.000059     -0.274454
      4.27140      2.13944     13.95027         0.015033     -0.009388     -0.157979
      6.41029      4.27641     13.95024        -0.003440     -0.014215     -0.178242
      4.27282      4.27461     11.77983         0.000240     -0.001608      0.014926
      6.40993      2.13816     11.78003        -0.001116     -0.002193      0.015830
    total drift:                                0.000242      0.001093     -0.001397

  FREE ENERGIE OF THE ION-ELECTRON SYSTEM (eV)
  free  energy   TOTEN  =      -483.50552807 eV

  energy  without entropy=     -483.50552807  energy(sigma->0) =     -483.50552807