 vasp.6.3.0 20Jan22 (build Mar 11 2022 13:48:16) complex

 executed on             LinuxIFC date 2024.02.13  20:05:18

 INCAR:
   SYSTEM = Oxide-Surface
   ISMEAR = 0
   SIGMA = 0.05
   EDIFF = 1E-5
   ALGO = ALL
   ISTART = 0
   IBRION = -1
   NSW = 0
   ISYM = 2
   DIPOL = 0.5 0.5 0.5
   IDIPOL = 3
   LDIPOL = .TRUE.
   GGA = PE
   IVDW = 263
   ENCUT = 600
   PREC = Accurate
   LASPH = .TRUE.
   LREAL = .FALSE.
   ISPIN = 1
   NELM = 200
   NELMIN = 8
   NCORE = 19
   KPAR = 1
   LWAVE = .FALSE.
   LCHARG = .FALSE.

 POTCAR:    PAW_PBE C 08Apr2002
 POTCAR:    PAW_PBE H 15Jun2001
 POTCAR:    PAW_PBE Ti_pv 07Sep2000
 POTCAR:    PAW_PBE O 08Apr2002
 POTCAR:    PAW_PBE C 08Apr2002
   VRHFIN =C: s2p2

   TITEL  = PAW_PBE C 08Apr2002
   POMASS =   12.011; ZVAL   =    4.000    mass and valenz
   ENMAX  =  400.000; ENMIN  =  300.000 eV

   TITEL  = PAW_PBE H 15Jun2001
   POMASS =    1.000; ZVAL   =    1.000    mass and valenz
   ENMAX  =  250.000; ENMIN  =  200.000 eV

   TITEL  = PAW_PBE Ti_pv 07Sep2000
   POMASS =   47.880; ZVAL   =   10.000    mass and valenz
   ENMAX  =  222.335; ENMIN  =  166.751 eV

   TITEL  = PAW_PBE O 08Apr2002
   POMASS =   16.000; ZVAL   =    6.000    mass and valenz
   ENMAX  =  400.000; ENMIN  =  300.000 eV

  PAW_PBE C 08Apr2002                   :
  PAW_PBE H 15Jun2001                   :
  PAW_PBE Ti_pv 07Sep2000               :
  PAW_PBE O 08Apr2002                   :

 POSCAR:  C  H Ti  O
  positions in direct lattice
 exchange correlation table for  LEXCH =        8
   RHO(1)=    0.500       N(1)  =     2000
   RHO(2)=  100.500       N(2)  =     4000

 ion  position               nearest neighbor table
   1  0.500  0.500  0.813-   2 1.10   3 1.10   4 1.10   5 1.10
   2  0.496  0.576  0.833-   1 1.10
   3  0.504  0.424  0.833-   1 1.10
   4  0.571  0.504  0.793-   1 1.10
   5  0.430  0.496  0.793-   1 1.10
   6  0.750  0.625  0.287-  87 1.95 147 1.95 146 1.95  86 1.95  89 1.98 168 1.98  16 2.96  36 2.96

   7  0.000  0.750  0.287-  88 1.95  89 1.95 108 1.95 109 1.95  90 1.98  37 2.96  17 2.96
   8  0.000  0.625  0.394-  90 1.95 150 1.95  91 1.95 151 1.95  92 1.98  93 1.98  18 2.96  38 2.96

[...]

  85  0.500  0.500  0.709- 239 1.82 244 1.95 185 1.95 184 1.95 245 1.95  75 2.96  55 2.96
  86  0.750  0.750  0.245-   6 1.95  16 1.95
  87  0.750  0.750  0.329-   6 1.95  16 1.95   9 1.98
  88  0.098  0.625  0.287-   7 1.95  37 1.95  46 1.98
  89  0.902  0.625  0.287-   7 1.95  37 1.95   6 1.98
  90  0.000  0.750  0.352-   8 1.95  18 1.95   7 1.98
  91  0.000  0.750  0.435-   8 1.95  18 1.95  11 1.98
  92  0.848  0.625  0.394-   9 1.95  39 1.95   8 1.98
  93  0.152  0.625  0.394-  49 1.95  79 1.95   8 1.98
  94  0.750  0.750  0.458-  10 1.95  20 1.95   9 1.98
  95  0.750  0.750  0.542-  10 1.95  20 1.95  13 2.11
  96  0.098  0.625  0.500-  11 1.95  41 1.95  50 1.98
  97  0.902  0.625  0.500-  11 1.95  41 1.95  10 1.98
  98  0.000  0.750  0.565-  22 1.90  12 1.90  11 2.00
  99  0.000  0.750  0.649-  15 1.81  12 2.02  22 2.02
 100  0.850  0.625  0.607-  12 1.95  13 1.97  43 1.97
 101  0.150  0.625  0.607-  12 1.95  53 1.97  83 1.97
 102  0.750  0.750  0.672-  13 1.86  14 2.10  24 2.10
 103  0.750  0.750  0.756-  14 1.83  24 1.83
 104  0.094  0.625  0.719-  45 1.95  15 1.95  54 2.03
 105  0.906  0.625  0.719-  45 1.95  15 1.95  14 2.03
 106  0.750  0.000  0.245-  16 1.95  26 1.95
 107  0.750  0.000  0.329-  16 1.95  26 1.95  19 1.98
 108  0.098  0.875  0.287-   7 1.95  17 1.95  56 1.98
 109  0.902  0.875  0.287-   7 1.95  17 1.95  16 1.98
 110  0.000  0.000  0.352-  18 1.95  28 1.95  17 1.98
 111  0.000  0.000  0.435-  18 1.95  28 1.95  21 1.98
 112  0.848  0.875  0.394-   9 1.95  19 1.95  18 1.98
 113  0.152  0.875  0.394-  49 1.95  59 1.95  18 1.98
 114  0.750  0.000  0.458-  20 1.95  30 1.95  19 1.98
 115  0.750  0.000  0.542-  20 1.95  30 1.95  23 2.11
 116  0.098  0.875  0.500-  11 1.95  21 1.95  60 1.98
 117  0.902  0.875  0.500-  11 1.95  21 1.95  20 1.98
 118  0.000  0.000  0.565-  32 1.89  22 1.89  21 2.00
 119  1.000  0.000  0.649-  25 1.81  32 2.02  22 2.02
 120  0.850  0.875  0.607-  22 1.95  13 1.97  23 1.97
 121  0.150  0.875  0.607-  22 1.95  53 1.97  63 1.97
 122  0.750  0.000  0.672-  23 1.86  24 2.10  34 2.10
 123  0.750  0.000  0.756-  24 1.83  34 1.83
 124  0.094  0.875  0.719-  15 1.95  25 1.95  64 2.03
 125  0.906  0.875  0.719-  15 1.95  25 1.95  24 2.03
 126  0.750  0.250  0.245-  26 1.95  36 1.95
 127  0.750  0.250  0.329-  26 1.95  36 1.95  29 1.98
 128  0.098  0.125  0.287-  17 1.95  27 1.95  66 1.98
 129  0.902  0.125  0.287-  17 1.95  27 1.95  26 1.98
 130  0.000  0.250  0.352-  28 1.95  38 1.95  27 1.98
 131  0.000  0.250  0.435-  28 1.95  38 1.95  31 1.98
 132  0.848  0.125  0.394-  19 1.95  29 1.95  28 1.98
 133  0.152  0.125  0.394-  59 1.95  69 1.95  28 1.98
 134  0.750  0.250  0.458-  30 1.95  40 1.95  29 1.98
 135  0.750  0.250  0.542-  30 1.95  40 1.95  33 2.11
 136  0.098  0.125  0.500-  21 1.95  31 1.95  70 1.98
 137  0.902  0.125  0.500-  21 1.95  31 1.95  30 1.98
 138  0.000  0.250  0.565-  32 1.90  42 1.90  31 2.00
 139  1.000  0.250  0.649-  35 1.81  42 2.02  32 2.02
 140  0.850  0.125  0.607-  32 1.95  33 1.97  23 1.97
 141  0.150  0.125  0.607-  32 1.95  73 1.97  63 1.97
 142  0.750  0.250  0.672-  33 1.86  44 2.10  34 2.10
 143  0.750  0.250  0.756-  44 1.83  34 1.83
 144  0.094  0.125  0.719-  35 1.95  25 1.95  74 2.03
[...]
 231  0.500  0.500  0.435-  48 1.95  78 1.95  81 1.98
 232  0.348  0.375  0.394-  69 1.95  79 1.95  78 1.98
 233  0.652  0.375  0.394-  29 1.95  39 1.95  78 1.98
 234  0.250  0.500  0.458-  50 1.95  80 1.95  79 1.98
 235  0.250  0.500  0.542-  50 1.95  80 1.95  83 2.11
 236  0.598  0.375  0.500-  71 1.95  81 1.95  40 1.98
 237  0.402  0.375  0.500-  71 1.95  81 1.95  80 1.98
 238  0.500  0.500  0.565-  52 1.90  82 1.90  81 2.00
 239  0.500  0.500  0.649-  85 1.82  82 2.02  52 2.02
 240  0.350  0.375  0.607-  82 1.95  83 1.97  73 1.97
 241  0.650  0.375  0.607-  82 1.95  43 1.97  33 1.97
 242  0.249  0.500  0.672-  83 1.86  84 2.10  54 2.10
 243  0.251  0.500  0.756-  54 1.83  84 1.84
 244  0.594  0.374  0.718-  75 1.94  85 1.95  44 2.03
 245  0.406  0.374  0.718-  75 1.94  85 1.95  84 2.03

  LATTYP: Found a simple orthorhombic cell.
 ALAT       =    11.8303781148
 B/A-ratio  =     1.0992024327
 C/A-ratio  =     2.5825673970

  Lattice vectors:

 A1 = (   0.0000000000, -11.8303781148,   0.0000000000)
 A2 = (  13.0039804036,   0.0000000000,   0.0000000000)
 A3 = (   0.0000000000,   0.0000000000,  30.5527488131)

Analysis of symmetry for initial positions (statically):
 Subroutine PRICEL returns:
 Original cell was already a primitive cell.

 Routine SETGRP: Setting up the symmetry group for a
 simple orthorhombic supercell.

 Subroutine GETGRP returns: Found  1 space group operations
 (whereof  1 operations were pure point group operations)
 out of a pool of  8 trial point group operations.

The static configuration has the point symmetry C_1 .

Analysis of symmetry for dynamics (positions and initial velocities):
 Subroutine PRICEL returns:
 Original cell was already a primitive cell.

[...]

The dynamic configuration has the point symmetry C_1 .

Analysis of constrained symmetry for selective dynamics:
 Subroutine PRICEL returns:
 Original cell was already a primitive cell.

 Routine SETGRP: Setting up the symmetry group for a
 simple orthorhombic supercell.

 Subroutine GETGRP returns: Found  1 space group operations
 (whereof  1 operations were pure point group operations)
 out of a pool of  8 trial point group operations.

The constrained configuration has the point symmetry C_1 .

 Subroutine INISYM returns: Found  1 space group operations
 (whereof  1 operations are pure point group operations),
 and found     1 'primitive' translations

                                     Primitive cell

  volume of cell :    4700.2961

  direct lattice vectors                    reciprocal lattice vectors
    13.003980404  0.000000000  0.000000000     0.076899531  0.000000000  0.000000000
     0.000000000 11.830378115  0.000000000     0.000000000  0.084528152  0.000000000
     0.000000000  0.000000000 30.552748813     0.000000000  0.000000000  0.032730279

  length of vectors
    13.003980404 11.830378115 30.552748813     0.076899531  0.084528152  0.032730279

  position of ions in fractional coordinates (direct lattice)
     0.500064745  0.500001964  0.812552324
     0.496116017  0.575765146  0.833149304
     0.504021047  0.424236385  0.833153143
     0.570575337  0.504286174  0.792850438
     0.429538212  0.495704170  0.792857062
     0.750000000  0.625000000  0.287188045
     0.000000000  0.750000000  0.287188045
     0.000000000  0.625000000  0.393594023
     0.750000000  0.750000000  0.393594023
     0.750000000  0.625000000  0.500000000
     0.000000000  0.750000000  0.500000000
     0.999998721  0.625016579  0.604133070
     0.750021371  0.750038293  0.610722288
     0.750117203  0.625133247  0.720287438
     0.000025088  0.750082327  0.708163002
     0.750000000  0.875000000  0.287188045
     0.000000000  0.000000000  0.287188045
     0.000000000  0.875000000  0.393594023
     0.750000000  0.000000000  0.393594023
     0.750000000  0.875000000  0.500000000
     0.000000000  0.000000000  0.500000000
     0.999995888  0.875019827  0.604149471
     0.749960154  0.000003634  0.610781080
     0.749868681  0.875032810  0.720490641
     0.999999839  0.999999986  0.708171277
     0.750000000  0.125000000  0.287188045
     0.000000000  0.250000000  0.287188045
     0.000000000  0.125000000  0.393594023
     0.750000000  0.250000000  0.393594023
     0.750000000  0.125000000  0.500000000
     0.000000000  0.250000000  0.500000000
     0.000004291  0.124980166  0.604149473
     0.750020909  0.249964332  0.610733868
     0.749849705  0.124984894  0.720495097
     0.999975957  0.249917704  0.708163011
     0.750000000  0.375000000  0.287188045
     0.000000000  0.500000000  0.287188045
     0.000000000  0.375000000  0.393594023
     0.750000000  0.500000000  0.393594023
     0.750000000  0.375000000  0.500000000
     0.000000000  0.500000000  0.500000000
     0.000001188  0.374983462  0.604133074
     0.750045959  0.499996868  0.610724841
     0.750061545  0.374909743  0.720323388
     0.000000688  0.500000006  0.708145396
     0.250000000  0.625000000  0.287188045
     0.500000000  0.750000000  0.287188045
     0.500000000  0.625000000  0.393594023
     0.250000000  0.750000000  0.393594023
     0.250000000  0.625000000  0.500000000
     0.500000000  0.750000000  0.500000000
     0.499999018  0.624688356  0.604436823
     0.249979186  0.750035519  0.610734113
     0.249940081  0.625089722  0.720324203
     0.500006823  0.749974613  0.708033504
     0.250000000  0.875000000  0.287188045
     0.500000000  0.000000000  0.287188045
     0.500000000  0.875000000  0.393594023
     0.250000000  0.000000000  0.393594023
     0.250000000  0.875000000  0.500000000
[...]
     0.500000000  0.500000000  0.435304973
     0.347999548  0.375000000  0.393594023
     0.652000452  0.375000000  0.393594023
     0.250000000  0.500000000  0.458289049
     0.250000000  0.500000000  0.541710951
[...]
   O          19.896          3.263          5.545          2.469          2.402          1.037
   O          20.099          3.268          5.573          2.458          2.370          1.042
   O          20.208          3.271          5.587          2.562          2.685          1.044
   O          20.208          3.271          5.587          2.562          2.685          1.044
   O          20.490          3.278          5.626          2.541          2.620          1.051
   O          18.712          3.232          5.391          2.708          3.169          1.011
   O          19.640          3.256          5.509          2.667          3.029          1.030
   O          19.640          3.256          5.509          2.667          3.028          1.030

  vdW correction parametrized for the method pbe

  IVDW = 263
  VDW_RADIUS =    50.000 A
  VDW_SR =     0.830
  VDW_D =     6.000
  SCSRAD =   120.000 A
  LVDWSCS = T
  LSCSGRAD = T
  LSCALER0 = T
  ITIM =  1
  Edisp (eV):  -67.12249

  FORCE on cell =-STRESS in cart. coord.  units (eV):
  Direction    XX          YY          ZZ          XY          YZ          ZX
  Alpha Z  4686.74880  4686.74880  4686.74880
  Ewald  975347.37252992940.88627************    -0.34174     0.00452    -0.05463
  Hartree************************************    -0.22199     0.00041    -0.04656
  E(xc)   -8621.71071 -8603.68094 -8631.11499    -0.00093     0.00000    -0.00004
  Local  ************************************     0.58774    -0.00325     0.10070
  n-local -5415.83652 -5340.77533 -5462.13485    -0.00208    -0.00012     0.00042
  augment  5220.45580  5202.01755  5223.87206    -0.00223    -0.00002    -0.00002
  Kinetic 28717.84978 28247.30071 28768.70745    -0.00241    -0.00020    -0.00174
  Fock        0.00000     0.00000     0.00000     0.00000     0.00000     0.00000
  vdW      -102.52624  -100.32551   -86.91121     0.00126     0.00000    -0.00000
  Total     -13.48574   -62.12148   -50.04520     0.01763     0.00133    -0.00186
  in kB      -4.59685   -21.17518   -17.05877     0.00601     0.00045    -0.00063

 VOLUME and BASIS-vectors are now :
  energy-cutoff  :      600.00
  volume of cell :     4700.30
      direct lattice vectors                 reciprocal lattice vectors
    13.003980404  0.000000000  0.000000000     0.076899531  0.000000000  0.000000000
     0.000000000 11.830378115  0.000000000     0.000000000  0.084528152  0.000000000
     0.000000000  0.000000000 30.552748813     0.000000000  0.000000000  0.032730279

  length of vectors
    13.003980404 11.830378115 30.552748813     0.076899531  0.084528152  0.032730279

 FORCES acting on ions:
    Electron-Ion                     Ewald-Force                    Non-Local-Force
   0.236E-01 0.123E-02 -.152E+04   -.224E-01 -.224E-02 0.152E+04   -.267E-02 -.176E-02 -.655E+00
   0.227E+01 -.434E+02 -.373E+03   -.252E+01 0.479E+02 0.376E+03   0.262E+00 -.452E+01 -.320E+01
   -.226E+01 0.434E+02 -.373E+03   0.252E+01 -.479E+02 0.376E+03   -.262E+00 0.452E+01 -.320E+01
   -.355E+02 -.243E+01 -.388E+03   0.403E+02 0.269E+01 0.386E+03   -.473E+01 -.256E+00 0.282E+01
   0.355E+02 0.244E+01 -.388E+03   -.403E+02 -.270E+01 0.386E+03   0.473E+01 0.257E+00 0.282E+01
   -.114E+00 -.366E-01 0.379E+04   0.114E+00 0.367E-01 -.380E+04   0.223E-05 -.721E-05 0.437E+00
   -.148E-03 -.495E-01 0.398E+04   0.153E-03 0.496E-01 -.397E+04   -.113E-05 -.896E-05 -.389E+01
   -.869E-03 -.565E-01 0.193E+04   0.896E-03 0.566E-01 -.193E+04   -.652E-05 0.135E-04 -.441E-01
   -.145E+00 -.652E-01 0.193E+04   0.145E+00 0.657E-01 -.193E+04   0.798E-04 -.740E-05 0.202E+00
   -.530E+00 -.266E+00 -.353E+01   0.526E+00 0.267E+00 0.438E+01   0.519E-03 -.773E-04 -.137E+00
   -.118E-01 -.423E+00 0.751E+01   0.121E-01 0.426E+00 -.860E+01   -.708E-04 -.878E-03 0.348E+00
   -.324E-01 -.131E+01 -.187E+04   0.325E-01 0.131E+01 0.187E+04   -.654E-04 -.103E-02 0.617E-02
   -.433E+01 -.338E+01 -.194E+04   0.433E+01 0.338E+01 0.194E+04   -.248E-02 -.224E-02 -.492E-01
   -.342E+02 -.140E+02 -.375E+04   0.342E+02 0.140E+02 0.375E+04   0.397E-03 0.343E-02 -.165E+00
   -.542E-01 -.477E+01 -.379E+04   0.536E-01 0.477E+01 0.379E+04   0.658E-03 -.128E-02 0.955E+00
   -.111E+00 -.366E-01 0.379E+04   0.111E+00 0.368E-01 -.380E+04   0.342E-04 -.156E-04 0.437E+00
   -.641E-04 -.692E-05 0.398E+04   0.689E-04 0.794E-06 -.397E+04   0.134E-05 -.614E-06 -.389E+01
   -.876E-03 -.569E-01 0.193E+04   0.904E-03 0.570E-01 -.193E+04   -.456E-05 0.742E-05 -.441E-01
   -.163E+00 -.103E-02 0.193E+04   0.162E+00 0.106E-02 -.193E+04   0.137E-03 0.582E-05 0.202E+00
   -.734E+00 -.304E+00 -.417E+01   0.732E+00 0.312E+00 0.503E+01   0.350E-03 -.464E-03 -.139E+00
   -.602E-03 0.210E-04 0.706E+01   0.615E-03 -.181E-04 -.814E+01   -.348E-05 -.859E-06 0.348E+00
   -.508E-01 -.124E+01 -.187E+04   0.510E-01 0.124E+01 0.187E+04   -.111E-03 -.143E-02 0.512E-02
   -.328E+01 -.167E-02 -.194E+04   0.328E+01 0.172E-02 0.194E+04   0.281E-03 -.102E-03 -.455E-01
   -.126E+02 -.996E+01 -.377E+04   0.126E+02 0.996E+01 0.377E+04   0.123E-01 -.395E-03 -.179E+00
   -.351E-02 -.315E-03 -.379E+04   0.352E-02 0.344E-03 0.379E+04   -.810E-05 -.382E-05 0.962E+00
   -.111E+00 0.365E-01 0.379E+04   0.111E+00 -.366E-01 -.380E+04   0.291E-04 0.125E-04 0.437E+00
   0.295E-05 0.495E-01 0.398E+04   -.774E-05 -.496E-01 -.397E+04   0.204E-05 0.865E-05 -.389E+01
   0.519E-03 0.569E-01 0.193E+04   -.536E-03 -.570E-01 -.193E+04   0.655E-05 -.848E-05 -.441E-01
   -.145E+00 0.653E-01 0.193E+04   0.145E+00 -.658E-01 -.193E+04   0.773E-04 0.689E-05 0.202E+00
   -.739E+00 0.289E+00 -.420E+01   0.737E+00 -.295E+00 0.505E+01   0.400E-03 0.354E-03 -.139E+00
   0.100E-01 0.423E+00 0.751E+01   -.103E-01 -.426E+00 -.860E+01   0.636E-04 0.877E-03 0.348E+00
   0.469E-01 0.124E+01 -.187E+04   -.471E-01 -.124E+01 0.187E+04   0.108E-03 0.142E-02 0.512E-02
   -.436E+01 0.338E+01 -.194E+04   0.436E+01 -.338E+01 0.194E+04   -.236E-02 0.154E-02 -.491E-01
   -.126E+02 0.989E+01 -.377E+04   0.126E+02 -.989E+01 0.377E+04   0.129E-01 0.592E-03 -.179E+00
   0.409E-01 0.477E+01 -.379E+04   -.403E-01 -.477E+01 0.379E+04   -.635E-03 0.128E-02 0.955E+00
   -.114E+00 0.367E-01 0.379E+04   0.114E+00 -.368E-01 -.380E+04   0.450E-06 0.101E-04 0.437E+00
   -.787E-04 -.333E-05 0.398E+04   0.763E-04 -.814E-06 -.397E+04   -.182E-05 -.116E-05 -.389E+01
   0.445E-03 0.565E-01 0.193E+04   -.461E-03 -.566E-01 -.193E+04   0.540E-05 -.127E-04 -.441E-01
   -.127E+00 0.961E-03 0.193E+04   0.127E+00 -.984E-03 -.193E+04   -.277E-04 -.835E-05 0.202E+00
   -.533E+00 0.282E+00 -.355E+01   0.530E+00 -.284E+00 0.439E+01   0.561E-03 0.196E-03 -.138E+00
   -.112E-02 0.234E-05 0.797E+01   0.114E-02 -.551E-05 -.905E+01   -.535E-05 0.277E-07 0.348E+00
   0.245E-01 0.131E+01 -.187E+04   -.246E-01 -.131E+01 0.187E+04   0.555E-04 0.103E-02 0.617E-02
   -.562E+01 0.305E-02 -.193E+04   0.562E+01 -.367E-02 0.193E+04   -.265E-02 0.747E-03 -.515E-01
   -.339E+02 0.142E+02 -.375E+04   0.340E+02 -.142E+02 0.375E+04   -.125E-03 -.305E-02 -.167E+00
   -.914E-02 0.213E-03 -.378E+04   0.916E-02 -.233E-03 0.378E+04   -.125E-04 0.251E-05 0.948E+00
   0.114E+00 -.366E-01 0.379E+04   -.114E+00 0.368E-01 -.380E+04   0.284E-05 -.123E-04 0.437E+00
   0.139E-03 -.538E-01 0.398E+04   -.149E-03 0.540E-01 -.397E+04   0.289E-05 -.275E-04 -.389E+01
   0.771E-03 -.248E-01 0.194E+04   -.797E-03 0.283E-01 -.193E+04   0.733E-05 -.721E-03 -.442E-01
   0.145E+00 -.652E-01 0.193E+04   -.145E+00 0.657E-01 -.193E+04   -.782E-04 -.730E-05 0.202E+00
   0.533E+00 -.281E+00 -.355E+01   -.530E+00 0.284E+00 0.440E+01   -.560E-03 -.192E-03 -.138E+00
   0.826E-02 -.214E+00 0.867E+01   -.849E-02 0.200E+00 -.972E+01   0.368E-04 0.909E-02 0.340E+00
   0.104E-01 -.313E+01 -.186E+04   -.104E-01 0.315E+01 0.186E+04   -.258E-04 -.221E-01 0.150E-01
   0.436E+01 -.338E+01 -.194E+04   -.437E+01 0.338E+01 0.194E+04   0.235E-02 -.153E-02 -.491E-01
   0.339E+02 -.142E+02 -.375E+04   -.339E+02 0.142E+02 0.375E+04   0.123E-03 0.305E-02 -.167E+00
   0.208E+00 -.341E+02 -.375E+04   -.206E+00 0.342E+02 0.375E+04   -.237E-02 -.190E-01 0.999E+00
   0.111E+00 -.365E-01 0.379E+04   -.111E+00 0.366E-01 -.380E+04   -.317E-04 -.105E-04 0.437E+00
   0.734E-04 -.608E-05 0.398E+04   -.688E-04 0.176E-05 -.397E+04   0.174E-05 0.325E-06 -.389E+01
   0.765E-03 -.269E-01 0.194E+04   -.792E-03 0.288E-01 -.193E+04   0.653E-05 -.509E-03 -.442E-01
   0.163E+00 0.102E-02 0.193E+04   -.162E+00 -.104E-02 -.193E+04   -.139E-03 -.331E-05 0.202E+00
   0.739E+00 -.288E+00 -.420E+01   -.737E+00 0.295E+00 0.505E+01   -.401E-03 -.352E-03 -.139E+00
[...]
   -.533E+02 0.214E-01 0.116E+04   0.572E+02 -.218E-01 -.116E+04   -.355E+01 0.679E-03 0.157E+00
   0.533E+02 0.221E-01 0.116E+04   -.572E+02 -.225E-01 -.116E+04   0.355E+01 0.731E-03 0.157E+00
   0.164E+00 -.200E-02 0.505E+03   -.163E+00 0.223E-02 -.510E+03   -.193E-02 -.516E-03 0.414E+01
   0.625E+00 -.646E-02 -.525E+03   -.620E+00 0.664E-02 0.533E+03   -.304E-02 -.443E-03 -.717E+01
   -.555E+02 0.275E-01 0.445E+01   0.602E+02 -.292E-01 -.470E+01   -.518E+01 0.890E-02 0.346E+00
   0.555E+02 0.228E-01 0.445E+01   -.602E+02 -.243E-01 -.470E+01   0.518E+01 0.860E-02 0.346E+00
   0.125E-02 0.428E-03 -.626E+03   -.124E-02 -.469E-03 0.619E+03   -.731E-06 0.334E-04 0.650E+01
   0.811E-02 -.385E-03 -.159E+04   -.848E-02 0.418E-03 0.159E+04   0.376E-03 -.251E-04 0.240E+01
   -.248E+02 0.181E+01 -.113E+04   0.277E+02 -.184E+01 0.113E+04   -.298E+01 0.225E-01 0.874E+00
   0.248E+02 0.184E+01 -.113E+04   -.277E+02 -.187E+01 0.113E+04   0.298E+01 0.250E-01 0.879E+00
   0.114E+02 -.132E+00 -.181E+04   -.114E+02 0.139E+00 0.181E+04   0.684E-01 -.649E-02 -.225E+01
   0.395E+02 -.122E-01 -.271E+04   -.395E+02 0.919E-02 0.273E+04   0.387E-01 0.274E-02 -.207E+02
   -.394E+02 0.217E+02 -.231E+04   0.453E+02 -.217E+02 0.231E+04   -.590E+01 -.280E-01 -.353E+01
   0.394E+02 0.216E+02 -.231E+04   -.453E+02 -.216E+02 0.231E+04   0.590E+01 -.354E-01 -.345E+01
   0.324E-02 0.242E-02 0.951E+02   -.259E-11 -.984E-12 0.346E-10   -.325E-02 -.243E-02 -.952E+02

 POSITION                                       TOTAL-FORCE (eV/Angst)
      6.50283      5.91521     24.82571        -0.001531     -0.002746      0.039232
      6.45148      6.81152     25.45500         0.002824     -0.014675     -0.009031
      6.55428      5.01888     25.45512        -0.002951      0.017118     -0.010588
      7.41975      5.96590     24.22376         0.050376      0.000368     -0.032679
      5.58571      5.86437     24.22396        -0.048947     -0.000076     -0.031795
      9.75299      7.39399      8.77438        -0.000010      0.000108     -3.381444
      0.00000      8.87278      8.77438         0.000002      0.000055      2.916546
      0.00000      7.39399     12.02538         0.000018      0.000127      0.525988
      9.75299      8.87278     12.02538        -0.000274      0.000460     -0.694986
      9.75299      7.39399     15.27637        -0.002693      0.000788      0.699695
      0.00000      8.87278     15.27637         0.000195      0.001863     -0.744337
     13.00396      7.39418     18.45793         0.000035     -0.000337      0.047953
      9.75326      8.87324     18.65924         0.001626     -0.002898     -0.059186
      9.75451      7.39556     22.00676         0.001236      0.004944     -0.034858
      0.00033      8.87376     21.63633         0.000067     -0.000169     -0.055431
      9.75299     10.35158      8.77438        -0.000053      0.000146     -3.381363
      0.00000      0.00000      8.77438         0.000004     -0.000007      2.916537
      0.00000     10.35158     12.02538         0.000022      0.000117      0.526149
      9.75299      0.00000     12.02538        -0.000484      0.000030     -0.694383
      9.75299     10.35158     15.27637        -0.001242      0.007427      0.704906
      0.00000      0.00000     15.27637         0.000008      0.000002     -0.743826
     13.00393     10.35182     18.45843        -0.000066     -0.000394      0.048155
      9.75247      0.00004     18.66104         0.003241      0.000037     -0.059033
      9.75128     10.35197     22.01297         0.000615      0.002480     -0.035487
     13.00398     11.83038     21.63658        -0.000005      0.000024     -0.055187
      9.75299      1.47880      8.77438        -0.000063     -0.000121     -3.381360
      0.00000      2.95759      8.77438        -0.000005     -0.000051      2.916538
      0.00000      1.47880     12.02538        -0.000012     -0.000118      0.526149
      9.75299      2.95759     12.02538        -0.000272     -0.000462     -0.694790
      9.75299      1.47880     15.27637        -0.001237     -0.005967      0.705886
      0.00000      2.95759     15.27637        -0.000172     -0.001863     -0.744332
      0.00006      1.47856     18.45843         0.000067      0.000410      0.048157
      9.75326      2.95717     18.65960         0.001626      0.002941     -0.059249
      9.75103      1.47862     22.01311         0.000337     -0.002262     -0.035404
     13.00367      2.95662     21.63633        -0.000065      0.000164     -0.055429
      9.75299      4.43639      8.77438        -0.000011     -0.000129     -3.381421
      0.00000      5.91519      8.77438        -0.000006     -0.000004      2.916555
      0.00000      4.43639     12.02538        -0.000013     -0.000124      0.525990
      9.75299      5.91519     12.02538        -0.000095     -0.000030     -0.695302
      9.75299      4.43639     15.27637        -0.002693     -0.002246      0.700728
      0.00000      5.91519     15.27637         0.000013     -0.000002     -0.745045
      0.00002      4.43620     18.45793        -0.000033      0.000321      0.047957
      9.75358      5.91515     18.65932         0.000816      0.000029     -0.061923
      9.75379      4.43532     22.00786         0.001483     -0.005013     -0.035225
      0.00001      5.91519     21.63579         0.000003     -0.000017     -0.054672
      3.25100      7.39399      8.77438         0.000015      0.000133     -3.381427
      6.50199      8.87278      8.77438        -0.000006      0.000188      2.916913
      6.50199      7.39399     12.02538        -0.000018      0.002858      0.526042
      3.25100      8.87278     12.02538         0.000273      0.000461     -0.694773
      3.25100      7.39399     15.27637         0.002698      0.002232      0.700783
      6.50199      8.87278     15.27637        -0.000186     -0.004995     -0.719257
      6.50198      7.39030     18.46721        -0.000046      0.002964      0.046852
      3.25072      8.87320     18.65961        -0.001615     -0.002935     -0.059274
      3.25022      7.39505     22.00788        -0.001439      0.005003     -0.035239
      6.50208      8.87248     21.63237        -0.000035      0.005492     -0.047942
      3.25100     10.35158      8.77438         0.000066      0.000119     -3.381358
      6.50199      0.00000      8.77438         0.000009     -0.000005      2.917124
      6.50199     10.35158     12.02538        -0.000018      0.001340      0.528035
      3.25100      0.00000     12.02538         0.000484     -0.000026     -0.694373
      3.25100     10.35158     15.27637         0.001238      0.005943      0.705909
[...]
      6.50199      5.91519     13.29976         0.000002     -0.000001     -0.032441
      4.52538      4.43639     12.02538         0.506372      0.000261      0.048354
      8.47860      4.43639     12.02538        -0.506381      0.000296      0.048345
      3.25100      5.91519     14.00199        -0.000595     -0.000296     -0.186572
      3.25100      5.91519     16.55076         0.001134     -0.000264      0.106700
      7.77637      4.43639     15.27637        -0.417525      0.007288      0.095861
      5.22761      4.43639     15.27637         0.417246      0.007214      0.095912
      6.50199      5.91519     17.27737         0.000000     -0.000007     -0.086910
      6.50199      5.91519     19.84135         0.000010      0.000006      0.004963
      4.55308      4.43637     18.55283         0.063696     -0.001272     -0.000203
      8.45091      4.43645     18.55268        -0.063684     -0.001291     -0.000288
      3.24438      5.91546     20.51904         0.000582      0.000143     -0.008045
      3.26188      5.91464     23.09198         0.001774     -0.000236     -0.052120
      7.72812      4.42967     21.94583         0.054583     -0.012096     -0.006178
      5.27493      4.42915     21.94273        -0.054430     -0.011955     -0.005462
    total drift:                               -0.000008     -0.000014     -0.084672

  FREE ENERGIE OF THE ION-ELECTRON SYSTEM (eV)
  free  energy   TOTEN  =     -2211.06205029 eV

  energy  without entropy=    -2211.06205029  energy(sigma->0) =    -2211.06205029