 vasp.6.3.0 20Jan22 (build Mar 11 2022 13:48:16) complex

 executed on             LinuxIFC date 2024.02.11  11:12:08

 INCAR:
   SYSTEM = Oxide-Surface
   ISMEAR = 0
   SIGMA = 0.05
   EDIFF = 1E-5
   ALGO = ALL
   ISTART = 0
   IBRION = -1
   NSW = 0
   ISYM = 2
   DIPOL = 0.5 0.5 0.5
   IDIPOL = 3
   LDIPOL = .TRUE.
   GGA = PE
   IVDW = 263
   ENCUT = 600
   PREC = Accurate
   LASPH = .TRUE.
   LREAL = .FALSE.
   ISPIN = 1
   NELM = 200
   NELMIN = 8
   NCORE = 19
   KPAR = 1
   LWAVE = .FALSE.
   LCHARG = .FALSE.

 POTCAR:    PAW_PBE C 08Apr2002
 POTCAR:    PAW_PBE H 15Jun2001
 POTCAR:    PAW_PBE Mg_pv 13Apr2007
 POTCAR:    PAW_PBE O 08Apr2002
 POTCAR:    PAW_PBE C 08Apr2002
   VRHFIN =C: s2p2

   TITEL  = PAW_PBE C 08Apr2002
   POMASS =   12.011; ZVAL   =    4.000    mass and valenz
   ENMAX  =  400.000; ENMIN  =  300.000 eV

   TITEL  = PAW_PBE H 15Jun2001
   POMASS =    1.000; ZVAL   =    1.000    mass and valenz
   ENMAX  =  250.000; ENMIN  =  200.000 eV

   TITEL  = PAW_PBE Mg_pv 13Apr2007
   POMASS =   24.305; ZVAL   =    8.000    mass and valenz
   ENMAX  =  403.929; ENMIN  =  302.947 eV

   TITEL  = PAW_PBE O 08Apr2002
   POMASS =   16.000; ZVAL   =    6.000    mass and valenz
   ENMAX  =  400.000; ENMIN  =  300.000 eV

  PAW_PBE C 08Apr2002                   :
  PAW_PBE H 15Jun2001                   :
  PAW_PBE Mg_pv 13Apr2007               :
  PAW_PBE O 08Apr2002                   :

 POSCAR:  C  H Mg  O
  positions in direct lattice
 exchange correlation table for  LEXCH =        8
   RHO(1)=    0.500       N(1)  =     2000
   RHO(2)=  100.500       N(2)  =     4000

 ion  position               nearest neighbor table
   1  0.504  0.498  0.793-   5 1.10   3 1.10   4 1.10   2 1.53
   2  0.675  0.499  0.817-   6 1.10   8 1.10   7 1.10   1 1.53
   3  0.482  0.392  0.764-   1 1.10
   4  0.479  0.604  0.765-   1 1.10
   5  0.418  0.495  0.832-   1 1.10
   6  0.759  0.502  0.778-   2 1.10
   7  0.701  0.394  0.846-   2 1.10
   8  0.698  0.604  0.847-   2 1.10
   9  0.000  0.750  0.352-  41 2.11  43 2.11  44 2.11  51 2.11  60 2.11
  10  0.250  0.000  0.352-  42 2.11  43 2.11  44 2.11  52 2.11  59 2.11
  11  0.000  0.000  0.451-  43 2.11  42 2.11  41 2.11  49 2.11  58 2.11  47 2.12
  12  0.250  0.750  0.451-  44 2.11  42 2.11  41 2.11  50 2.11  57 2.11  48 2.12
  13  1.000  0.750  0.550-  64 2.11  48 2.11  55 2.11  47 2.11  41 2.12  45 2.15
  14  0.250  1.000  0.550-  48 2.11  56 2.11  63 2.11  47 2.11  42 2.12  46 2.15
  15  1.000  1.000  0.649-  46 2.11  62 2.11  47 2.11  45 2.11  53 2.11
  16  0.250  0.750  0.649-  48 2.11  54 2.11  45 2.11  46 2.11  61 2.11
  17  0.000  0.250  0.352-  49 2.11  43 2.11  51 2.11  52 2.11  68 2.11
  18  0.250  0.500  0.352-  50 2.11  44 2.11  51 2.11  52 2.11  67 2.11
  19  0.000  0.500  0.451-  51 2.11  49 2.11  50 2.11  41 2.11  66 2.11  55 2.12
  20  0.250  0.250  0.451-  52 2.11  49 2.11  50 2.11  42 2.11  65 2.11  56 2.12
  21  1.000  0.250  0.550-  72 2.11  56 2.11  55 2.11  47 2.11  49 2.12  53 2.15
  22  0.250  0.500  0.550-  71 2.11  56 2.11  48 2.11  55 2.11  50 2.13  54 2.15
  23  0.000  0.500  0.649-  54 2.11  55 2.11  70 2.11  45 2.11  53 2.11
  24  0.250  0.250  0.649-  56 2.11  53 2.11  54 2.11  46 2.11  69 2.11
  25  0.500  0.750  0.352-  57 2.11  44 2.11  59 2.11  60 2.11  67 2.11
  26  0.750  0.000  0.352-  58 2.11  43 2.11  59 2.11  60 2.11  68 2.11
  27  0.500  0.000  0.451-  59 2.11  57 2.11  58 2.11  42 2.11  65 2.11  63 2.12
  28  0.750  0.750  0.451-  60 2.11  57 2.11  58 2.11  41 2.11  66 2.11  64 2.12
  29  0.500  0.750  0.550-  71 2.11  64 2.11  48 2.11  63 2.11  57 2.13  61 2.15
  30  0.750  1.000  0.550-  64 2.11  72 2.11  47 2.11  63 2.11  58 2.13  62 2.15
  31  0.500  1.000  0.649-  69 2.11  61 2.11  63 2.11  46 2.11  62 2.11
  32  0.750  0.750  0.649-  64 2.11  45 2.11  62 2.11  70 2.11  61 2.11
  33  0.500  0.250  0.352-  65 2.11  59 2.11  52 2.11  67 2.11  68 2.11
  34  0.750  0.500  0.352-  66 2.11  60 2.11  51 2.11  67 2.11  68 2.11
  35  0.500  0.500  0.451-  67 2.11  57 2.11  65 2.11  66 2.11  50 2.11  71 2.12
  36  0.750  0.250  0.451-  68 2.11  58 2.11  65 2.11  66 2.11  49 2.11  72 2.12
  37  0.500  0.250  0.550-  71 2.11  72 2.11  56 2.11  63 2.11  65 2.13  69 2.15
  38  0.750  0.500  0.550-  71 2.11  72 2.11  64 2.11  55 2.11  66 2.13  70 2.15
  39  0.500  0.500  0.649-  54 2.11  61 2.11  69 2.11  70 2.11  71 2.12
  40  0.750  0.250  0.649-  72 2.11  53 2.11  62 2.11  70 2.11  69 2.11
  41  0.000  0.750  0.451-   9 2.11  11 2.11  12 2.11  19 2.11  28 2.11  13 2.12
  42  0.250  0.000  0.451-  10 2.11  11 2.11  12 2.11  20 2.11  27 2.11  14 2.12
  43  0.000  0.000  0.352-  11 2.11  10 2.11   9 2.11  17 2.11  26 2.11
  44  0.250  0.750  0.352-  12 2.11  10 2.11   9 2.11  18 2.11  25 2.11
  45  1.000  0.750  0.651-  32 2.11  16 2.11  23 2.11  15 2.11  13 2.15
  46  0.250  1.000  0.651-  15 2.11  31 2.11  24 2.11  16 2.11  14 2.15
  47  1.000  1.000  0.550-  30 2.11  13 2.11  21 2.11  14 2.11  15 2.11  11 2.12
  48  0.250  0.750  0.550-  16 2.11  14 2.11  13 2.11  29 2.11  22 2.11  12 2.12
  49  0.000  0.250  0.451-  17 2.11  11 2.11  19 2.11  20 2.11  36 2.11  21 2.12
  50  0.250  0.500  0.451-  18 2.11  12 2.11  19 2.11  20 2.11  35 2.11  22 2.13
  51  0.000  0.500  0.352-  19 2.11  17 2.11  18 2.11   9 2.11  34 2.11
  52  0.250  0.250  0.352-  20 2.11  17 2.11  18 2.11  10 2.11  33 2.11
  53  1.000  0.250  0.651-  40 2.11  24 2.11  23 2.11  15 2.11  21 2.15
  54  0.250  0.500  0.651-  23 2.11  16 2.11  24 2.11  39 2.11  22 2.15
  55  1.000  0.500  0.550-  23 2.11  21 2.11  13 2.11  38 2.11  22 2.11  19 2.12
  56  0.250  0.250  0.550-  24 2.11  14 2.11  21 2.11  37 2.11  22 2.11  20 2.12
  57  0.500  0.750  0.451-  25 2.11  12 2.11  27 2.11  28 2.11  35 2.11  29 2.13
  58  0.750  0.000  0.451-  26 2.11  11 2.11  27 2.11  28 2.11  36 2.11  30 2.13
  59  0.500  0.000  0.352-  27 2.11  25 2.11  26 2.11  10 2.11  33 2.11
  60  0.750  0.750  0.352-  28 2.11  25 2.11  26 2.11   9 2.11  34 2.11
  61  0.500  0.750  0.651-  31 2.11  32 2.11  16 2.11  39 2.11  29 2.15
  62  0.750  1.000  0.651-  40 2.11  15 2.11  32 2.11  31 2.11  30 2.15
  63  0.500  1.000  0.550-  31 2.11  30 2.11  14 2.11  29 2.11  37 2.11  27 2.12
  64  0.750  0.750  0.550-  32 2.11  30 2.11  13 2.11  29 2.11  38 2.11  28 2.12
  65  0.500  0.250  0.451-  33 2.11  27 2.11  20 2.11  35 2.11  36 2.11  37 2.13
  66  0.750  0.500  0.451-  34 2.11  28 2.11  19 2.11  35 2.11  36 2.11  38 2.13
  67  0.500  0.500  0.352-  35 2.11  25 2.11  33 2.11  34 2.11  18 2.11
  68  0.750  0.250  0.352-  36 2.11  26 2.11  33 2.11  34 2.11  17 2.11
  69  0.500  0.250  0.651-  31 2.11  40 2.11  24 2.11  39 2.11  37 2.15
  70  0.750  0.500  0.651-  23 2.11  32 2.11  40 2.11  39 2.11  38 2.15
  71  0.500  0.500  0.550-  38 2.11  29 2.11  37 2.11  22 2.11  39 2.12  35 2.12
  72  0.750  0.250  0.550-  40 2.11  30 2.11  21 2.11  37 2.11  38 2.11  36 2.12

  LATTYP: Found a simple tetragonal cell.
 ALAT       =     8.4409846542
 C/A-ratio  =     2.5270438657

  Lattice vectors:

 A1 = (   8.4409846542,   0.0000000000,   0.0000000000)
 A2 = (   0.0000000000,   8.4409846542,   0.0000000000)
 A3 = (   0.0000000000,   0.0000000000,  21.3307384906)

Analysis of symmetry for initial positions (statically):
 Subroutine PRICEL returns:
 Original cell was already a primitive cell.

 Routine SETGRP: Setting up the symmetry group for a
 simple tetragonal supercell.

 Subroutine GETGRP returns: Found  1 space group operations
 (whereof  1 operations were pure point group operations)
 out of a pool of 16 trial point group operations.

The static configuration has the point symmetry C_1 .

Analysis of symmetry for dynamics (positions and initial velocities):
 Subroutine PRICEL returns:
 Original cell was already a primitive cell.

[...]

The dynamic configuration has the point symmetry C_1 .

Analysis of constrained symmetry for selective dynamics:
 Subroutine PRICEL returns:
 Original cell was already a primitive cell.

 Routine SETGRP: Setting up the symmetry group for a
 simple tetragonal supercell.

 Subroutine GETGRP returns: Found  1 space group operations
 (whereof  1 operations were pure point group operations)
 out of a pool of 16 trial point group operations.

The constrained configuration has the point symmetry C_1 .

 Subroutine INISYM returns: Found  1 space group operations
 (whereof  1 operations are pure point group operations),
 and found     1 'primitive' translations

                                     Primitive cell

  volume of cell :    1519.8199

  direct lattice vectors                    reciprocal lattice vectors
     8.440984654  0.000000000  0.000000000     0.118469591  0.000000000  0.000000000
     0.000000000  8.440984654  0.000000000     0.000000000  0.118469591  0.000000000
     0.000000000  0.000000000 21.330738491     0.000000000  0.000000000  0.046880702

  length of vectors
     8.440984654  8.440984654 21.330738491     0.118469591  0.118469591  0.046880702

  position of ions in fractional coordinates (direct lattice)
     0.504434876  0.497571925  0.793182562
     0.675419507  0.499339829  0.817254959
     0.481938651  0.392229692  0.763981212
     0.478802048  0.604112785  0.765085782
     0.417852208  0.495000411  0.831710663
     0.759152897  0.502002316  0.777764631
     0.701471206  0.393571335  0.845561462
     0.698192892  0.603729020  0.846776833
     0.000000000  0.750000000  0.351605267
     0.250000000  0.000000000  0.351605267
     0.000000000  0.000000000  0.450535089
     0.250000000  0.750000000  0.450535089
     0.999969335  0.749932564  0.550143009
     0.249979009  0.999932854  0.550153760
     0.999984729  0.999879620  0.648880782
     0.249865610  0.749814499  0.648764798
     0.000000000  0.250000000  0.351605267
     0.250000000  0.500000000  0.351605267
     0.000000000  0.500000000  0.450535089
     0.250000000  0.250000000  0.450535089
     0.999969716  0.249949331  0.550140365
     0.250119639  0.499932684  0.550205747
     0.000137590  0.499892464  0.648694835
     0.249861482  0.249941717  0.648759231
     0.500000000  0.750000000  0.351605267
     0.750000000  0.000000000  0.351605267
     0.500000000  0.000000000  0.450535089
     0.750000000  0.750000000  0.450535089
     0.499983604  0.749784240  0.550199518
     0.749978902  0.999929979  0.550160720
     0.499953859  0.999865553  0.648719052
     0.750035499  0.749892856  0.648802828
     0.500000000  0.250000000  0.351605267
     0.750000000  0.500000000  0.351605267
     0.500000000  0.500000000  0.450535089
     0.750000000  0.250000000  0.450535089
     0.499985367  0.250051482  0.550198962
     0.749853021  0.499929383  0.550227143
     0.499835929  0.499867681  0.649468757
     0.750050535  0.249858113  0.648796072
     0.000000000  0.750000000  0.450535089
     0.250000000  0.000000000  0.450535089
     0.000000000  0.000000000  0.351605267
     0.250000000  0.750000000  0.351605267
     0.999935709  0.749855480  0.651031248
     0.249938454  0.999880825  0.651034598
     0.999963400  0.999937428  0.549922155
     0.249957400  0.750009151  0.549898012
     0.000000000  0.250000000  0.450535089
     0.250000000  0.500000000  0.450535089
[...]
   O          22.316          3.320          5.843          2.775          3.412          1.085
   O          21.837          3.308          5.780          2.787          3.457          1.074
   O          22.372          3.321          5.849          2.800          3.504          1.086
   O          20.836          3.285          5.658          2.335          2.032          1.054
   O          20.872          3.286          5.663          2.336          2.034          1.055
   O          20.883          3.286          5.663          2.278          1.888          1.055
   O          20.879          3.286          5.663          2.276          1.883          1.055
   O          22.316          3.320          5.843          2.779          3.426          1.085
   O          22.316          3.320          5.843          2.775          3.413          1.085
   O          21.814          3.308          5.777          2.789          3.463          1.073
   O          21.610          3.303          5.751          2.785          3.447          1.068
   O          20.907          3.286          5.667          2.415          2.248          1.055
   O          20.872          3.286          5.663          2.336          2.035          1.055

  vdW correction parametrized for the method pbe

  IVDW = 263
  VDW_RADIUS =    50.000 A
  VDW_SR =     0.830
  VDW_D =     6.000
  SCSRAD =   120.000 A
  LVDWSCS = T
  LSCSGRAD = T
  LSCALER0 = T
  ITIM =  1
  Edisp (eV):  -17.96347

  FORCE on cell =-STRESS in cart. coord.  units (eV):
  Direction    XX          YY          ZZ          XY          YZ          ZX
  Alpha Z   919.54008   919.54008   919.54008
  Ewald  156080.39735155923.67114************     1.29653     0.04928    48.08590
  Hartree166374.47508166251.27052************     0.98753     0.11916    36.25072
  E(xc)   -2505.16847 -2505.21792 -2510.22261     0.00069     0.00047     0.02025
  Local  ************************331939.50857    -2.35350    -0.19745   -86.24565
  n-local -2836.81457 -2838.00192 -2858.79385     0.01154    -0.01140     0.44600
  augment  1047.88880  1047.83245  1038.57312     0.00061    -0.00242     0.01831
  Kinetic  7489.55627  7485.22383  7527.68406     0.05493     0.11277     1.47076
  Fock        0.00000     0.00000     0.00000     0.00000     0.00000     0.00000
  vdW       -23.42842   -23.38917   -16.63771    -0.00036    -0.00076    -0.01158
  Total     -42.60741   -42.49197   -12.12628    -0.00204     0.06965     0.03472
  in kB     -44.91626   -44.79457   -12.78339    -0.00215     0.07342     0.03660

 VOLUME and BASIS-vectors are now :
  energy-cutoff  :      600.00
  volume of cell :     1519.82
      direct lattice vectors                 reciprocal lattice vectors
     8.440984654  0.000000000  0.000000000     0.118469591  0.000000000  0.000000000
     0.000000000  8.440984654  0.000000000     0.000000000  0.118469591  0.000000000
     0.000000000  0.000000000 21.330738491     0.000000000  0.000000000  0.046880702

  length of vectors
     8.440984654  8.440984654 21.330738491     0.118469591  0.118469591  0.046880702

 FORCES acting on ions:
    Electron-Ion                     Ewald-Force                    Non-Local-Force
   0.690E+02 0.736E+00 -.916E+03   -.689E+02 -.748E+00 0.916E+03   -.307E-01 0.178E-01 -.149E+00
   -.692E+02 -.734E+00 -.862E+03   0.695E+02 0.746E+00 0.862E+03   -.419E+00 -.149E-01 0.209E+00
   0.181E+02 0.464E+02 -.231E+03   -.190E+02 -.508E+02 0.228E+03   0.973E+00 0.446E+01 0.301E+01
   0.194E+02 -.467E+02 -.231E+03   -.205E+02 0.512E+02 0.229E+03   0.110E+01 -.450E+01 0.289E+01
   0.456E+02 0.122E+01 -.234E+03   -.492E+02 -.133E+01 0.238E+03   0.366E+01 0.108E+00 -.406E+01
   -.448E+02 -.127E+01 -.211E+03   0.484E+02 0.138E+01 0.207E+03   -.353E+01 -.110E+00 0.424E+01
   -.195E+02 0.463E+02 -.213E+03   0.207E+02 -.507E+02 0.216E+03   -.113E+01 0.442E+01 -.301E+01
   -.181E+02 -.459E+02 -.213E+03   0.191E+02 0.503E+02 0.216E+03   -.993E+00 -.437E+01 -.314E+01
   -.911E-01 -.233E+00 0.208E+04   0.910E-01 0.233E+00 -.207E+04   0.106E-03 0.126E-03 -.704E+01
   0.158E+00 0.374E-02 0.208E+04   -.159E+00 -.390E-02 -.207E+04   0.179E-03 0.132E-03 -.704E+01
   -.291E+00 0.109E-01 0.723E+03   0.290E+00 -.132E-01 -.723E+03   0.477E-03 0.159E-02 0.540E+00
   0.641E+00 -.872E+00 0.724E+03   -.639E+00 0.869E+00 -.724E+03   -.131E-02 0.159E-02 0.529E+00
   -.161E+01 -.412E+01 -.624E+03   0.161E+01 0.411E+01 0.624E+03   0.169E-02 0.520E-02 -.197E+00
   0.282E+01 0.594E-01 -.627E+03   -.282E+01 -.598E-01 0.627E+03   -.207E-02 0.214E-03 -.200E+00
   -.460E+01 0.102E+00 -.198E+04   0.460E+01 -.100E+00 0.198E+04   -.267E-02 -.716E-03 0.599E+01
   0.170E+02 -.197E+02 -.196E+04   -.171E+02 0.197E+02 0.196E+04   0.549E-01 0.192E-01 0.603E+01
   -.912E-01 0.233E+00 0.208E+04   0.911E-01 -.233E+00 -.207E+04   0.115E-03 0.805E-04 -.704E+01
   0.166E+00 -.413E-02 0.208E+04   -.165E+00 0.400E-02 -.207E+04   -.821E-03 0.946E-04 -.704E+01
   -.355E+00 -.251E-01 0.725E+03   0.352E+00 0.228E-01 -.725E+03   0.245E-02 0.151E-02 0.502E+00
   0.635E+00 0.860E+00 0.724E+03   -.634E+00 -.862E+00 -.724E+03   -.922E-03 0.183E-02 0.528E+00
   -.162E+01 0.413E+01 -.624E+03   0.162E+01 -.413E+01 0.624E+03   0.166E-02 -.579E-02 -.198E+00
   0.436E+01 -.567E-01 -.617E+03   -.434E+01 0.572E-01 0.618E+03   -.287E-01 -.451E-03 -.360E+00
   -.113E+02 -.900E-01 -.196E+04   0.114E+02 0.912E-01 0.195E+04   -.880E-01 -.166E-02 0.602E+01
   0.172E+02 0.197E+02 -.196E+04   -.173E+02 -.197E+02 0.196E+04   0.625E-01 -.201E-01 0.603E+01
   0.909E-01 -.241E+00 0.208E+04   -.909E-01 0.239E+00 -.207E+04   -.205E-04 0.114E-02 -.704E+01
   -.159E+00 0.384E-02 0.208E+04   0.159E+00 -.400E-02 -.207E+04   -.937E-04 0.134E-03 -.704E+01
   0.284E+00 0.809E-02 0.724E+03   -.285E+00 -.118E-01 -.724E+03   0.622E-03 0.249E-02 0.513E+00
   -.644E+00 -.938E+00 0.724E+03   0.641E+00 0.932E+00 -.725E+03   0.262E-02 0.380E-02 0.537E+00
   0.163E+01 -.565E+01 -.617E+03   -.163E+01 0.563E+01 0.617E+03   -.134E-02 0.288E-01 -.240E+00
   -.281E+01 0.638E-01 -.624E+03   0.281E+01 -.642E-01 0.625E+03   0.407E-04 0.239E-03 -.197E+00
   0.465E+01 0.330E+00 -.197E+04   -.465E+01 -.328E+00 0.196E+04   0.231E-02 -.167E-02 0.599E+01
   -.172E+02 -.268E+02 -.195E+04   0.172E+02 0.269E+02 0.194E+04   -.500E-01 -.409E-01 0.603E+01
   0.910E-01 0.240E+00 0.208E+04   -.910E-01 -.239E+00 -.207E+04   -.207E-04 -.836E-03 -.704E+01
   -.166E+00 -.427E-02 0.208E+04   0.165E+00 0.413E-02 -.207E+04   0.856E-03 0.108E-03 -.705E+01
   0.352E+00 -.175E-01 0.726E+03   -.350E+00 0.149E-01 -.726E+03   -.179E-02 0.164E-02 0.560E+00
   -.639E+00 0.926E+00 0.725E+03   0.635E+00 -.925E+00 -.725E+03   0.213E-02 -.231E-03 0.536E+00
   0.163E+01 0.564E+01 -.617E+03   -.163E+01 -.561E+01 0.617E+03   -.147E-02 -.286E-01 -.246E+00
   -.440E+01 -.630E-01 -.613E+03   0.437E+01 0.641E-01 0.614E+03   0.309E-01 -.752E-03 -.296E+00
   0.120E+02 -.507E+00 -.189E+04   -.121E+02 0.521E+00 0.189E+04   0.747E-01 -.104E-01 0.579E+01
   -.174E+02 0.269E+02 -.195E+04   0.175E+02 -.269E+02 0.194E+04   -.574E-01 0.399E-01 0.604E+01
   -.239E+00 -.688E+00 0.542E+03   0.241E+00 0.686E+00 -.542E+03   -.304E-02 0.420E-02 -.963E-01
   0.472E+00 0.707E-02 0.542E+03   -.467E+00 -.371E-02 -.542E+03   -.752E-02 -.448E-02 -.102E+00
   -.649E-01 0.322E-02 0.156E+04   0.650E-01 -.314E-02 -.157E+04   -.132E-03 -.130E-03 0.349E+01
   0.122E+00 -.173E+00 0.156E+04   -.121E+00 0.173E+00 -.157E+04   -.688E-03 0.458E-03 0.349E+01
   -.594E+01 -.117E+02 -.150E+04   0.594E+01 0.117E+02 0.150E+04   -.208E-02 0.115E-01 -.501E+01
   0.731E+01 0.147E+00 -.151E+04   -.729E+01 -.150E+00 0.151E+04   -.173E-01 0.365E-02 -.501E+01
   -.964E+00 0.290E-01 -.466E+03   0.966E+00 -.272E-01 0.466E+03   -.579E-03 -.218E-02 0.251E+00
   0.264E+01 -.335E+01 -.461E+03   -.263E+01 0.333E+01 0.461E+03   -.446E-02 0.195E-01 0.274E+00
   -.240E+00 0.680E+00 0.542E+03   0.242E+00 -.672E+00 -.542E+03   -.298E-02 -.120E-01 -.963E-01
   0.518E+00 -.181E-01 0.543E+03   -.528E+00 0.213E-01 -.543E+03   0.132E-01 -.425E-02 -.110E+00
   -.717E-01 -.309E-02 0.156E+04   0.715E-01 0.317E-02 -.157E+04   0.317E-03 -.123E-03 0.349E+01
   0.121E+00 0.174E+00 0.156E+04   -.121E+00 -.173E+00 -.157E+04   -.599E-03 -.755E-03 0.349E+01
   -.595E+01 0.117E+02 -.150E+04   0.595E+01 -.117E+02 0.150E+04   -.293E-02 -.828E-02 -.501E+01
   0.211E+02 -.168E+00 -.148E+04   -.210E+02 0.166E+00 0.148E+04   -.102E+00 0.246E-02 -.509E+01
   -.144E+01 -.446E-01 -.459E+03   0.144E+01 0.447E-01 0.459E+03   -.101E-01 0.137E-03 0.275E+00
   0.264E+01 0.335E+01 -.461E+03   -.263E+01 -.333E+01 0.461E+03   -.355E-02 -.185E-01 0.275E+00
   0.235E+00 -.737E+00 0.543E+03   -.234E+00 0.750E+00 -.543E+03   -.295E-03 -.172E-01 -.107E+00
   -.474E+00 0.736E-02 0.542E+03   0.471E+00 -.386E-02 -.542E+03   0.459E-02 -.465E-02 -.101E+00
   0.649E-01 0.296E-02 0.156E+04   -.650E-01 -.290E-02 -.157E+04   0.338E-04 -.105E-03 0.349E+01
   -.121E+00 -.180E+00 0.156E+04   0.121E+00 0.180E+00 -.157E+04   0.564E-03 0.859E-03 0.349E+01
   0.603E+01 -.259E+02 -.147E+04   -.603E+01 0.259E+02 0.148E+04   -.145E-02 0.874E-01 -.497E+01
   -.736E+01 0.162E+00 -.150E+04   0.735E+01 -.165E+00 0.151E+04   0.145E-01 0.432E-02 -.501E+01
   0.957E+00 0.621E-01 -.461E+03   -.960E+00 -.644E-01 0.461E+03   0.299E-02 0.304E-02 0.291E+00
   -.264E+01 -.385E+01 -.459E+03   0.264E+01 0.383E+01 0.459E+03   0.361E-02 0.115E-01 0.278E+00
   0.236E+00 0.721E+00 0.543E+03   -.236E+00 -.725E+00 -.543E+03   -.142E-03 0.633E-02 -.106E+00
   -.520E+00 -.193E-01 0.544E+03   0.531E+00 0.228E-01 -.543E+03   -.147E-01 -.451E-02 -.115E+00
   0.718E-01 -.254E-02 0.156E+04   -.715E-01 0.272E-02 -.157E+04   -.354E-03 -.259E-03 0.349E+01
   -.121E+00 0.180E+00 0.156E+04   0.121E+00 -.180E+00 -.157E+04   0.477E-03 -.118E-02 0.349E+01
   0.606E+01 0.261E+02 -.147E+04   -.606E+01 -.260E+02 0.148E+04   -.731E-03 -.800E-01 -.497E+01
   -.216E+02 -.179E+00 -.145E+04   0.216E+02 0.176E+00 0.146E+04   0.755E-01 0.424E-02 -.500E+01
   0.146E+01 -.339E-01 -.455E+03   -.147E+01 0.307E-01 0.454E+03   0.830E-02 0.302E-02 0.950E-01
   -.265E+01 0.385E+01 -.459E+03   0.264E+01 -.384E+01 0.458E+03   0.310E-02 -.910E-02 0.279E+00
   0.414E+00 -.914E-02 0.171E+02   0.156E-12 0.107E-13 0.392E-11   -.415E+00 0.684E-02 -.171E+02

 POSITION                                       TOTAL-FORCE (eV/Angst)
      4.25793      4.20000     16.91917         0.104164      0.005130      0.062435
      5.70121      4.21492     17.43265        -0.110297     -0.003041     -0.001753
      4.06804      3.31080     16.29628        -0.004179     -0.020897     -0.017914
      4.04156      5.09931     16.31984        -0.004497      0.017257     -0.017682
      3.52708      4.17829     17.74100         0.014826      0.000902     -0.019228
      6.40800      4.23739     16.59029         0.012249      0.000773     -0.014836
      5.92111      3.32213     18.03645         0.000781      0.021719     -0.014812
      5.89344      5.09607     18.06238         0.003627     -0.021004     -0.017497
      0.00000      6.33074      7.50000        -0.000219     -0.001168      0.517913
      2.11025      0.00000      7.50000         0.000869      0.000032      0.518069
      0.00000      0.00000      9.61025        -0.000100     -0.000739      0.113524
      2.11025      6.33074      9.61025        -0.000520      0.000057      0.110644
      8.44073      6.33017     11.73496         0.000010     -0.003091     -0.046669
      2.11007      8.44042     11.73519         0.002169     -0.000131     -0.047897
      8.44086      8.43997     13.84111        -0.001492      0.001002     -0.169478
      2.10911      6.32917     13.83863        -0.000707     -0.004066     -0.155454
      0.00000      2.11025      7.50000        -0.000210      0.001198      0.517972
      2.11025      4.22049      7.50000         0.001886     -0.000012      0.519390
      0.00000      4.22049      9.61025        -0.000567     -0.000702      0.116125
      2.11025      2.11025      9.61025        -0.000640     -0.001690      0.110415
      8.44073      2.10982     11.73490         0.000118      0.002253     -0.046332
      2.11126      4.21992     11.73629        -0.001356      0.000096     -0.045175
      0.00116      4.21958     13.83714         0.002907     -0.000409     -0.156740
      2.10908      2.10975     13.83851        -0.001871      0.005405     -0.155145
      4.22049      6.33074      7.50000         0.000222     -0.002162      0.519070
      6.33074      0.00000      7.50000        -0.000839      0.000030      0.518098
      4.22049      0.00000      9.61025        -0.000480     -0.001206      0.116391
      6.33074      6.33074      9.61025        -0.000066     -0.000658      0.109877
      4.22035      6.32892     11.73616        -0.000262      0.001532     -0.046003
      6.33056      8.44039     11.73533        -0.001933     -0.000029     -0.047433
      4.22010      8.43985     13.83766         0.000855      0.000074     -0.161223
      6.33104      6.32983     13.83944         0.000884      0.001379     -0.150998
      4.22049      2.11025      7.50000         0.000219      0.002184      0.519055
      6.33074      4.22049      7.50000        -0.001840     -0.000004      0.519677
      4.22049      4.22049      9.61025         0.000168     -0.000933      0.113226
      6.33074      2.11025      9.61025         0.000080     -0.001080      0.109629
      4.22037      2.11068     11.73615        -0.000301     -0.000258     -0.046892
      6.32950      4.21990     11.73675         0.001336      0.000365     -0.048547
      4.21911      4.21938     13.85365        -0.008827      0.003015     -0.131668
      6.33117      2.10905     13.83930         0.002038      0.000326     -0.151176
      0.00000      6.33074      9.61025        -0.000498      0.001856      0.064003
      2.11025      0.00000      9.61025        -0.002422     -0.001076      0.063726
      0.00000      0.00000      7.50000        -0.000043     -0.000013     -0.474212
      2.11025      6.33074      7.50000        -0.000115      0.000090     -0.473966
      8.44044      6.32952     13.88698        -0.001372      0.003481     -0.021635
      2.10973      8.43998     13.88705        -0.000341      0.000873     -0.022010
      8.44068      8.44046     11.73025         0.000891     -0.000336      0.008868
      2.10989      6.33082     11.72973         0.000203      0.001376      0.006452
      0.00000      2.11025      9.61025        -0.000493     -0.003686      0.063667
      2.11025      4.22049      9.61025         0.002785     -0.000978      0.065971
      0.00000      4.22049      7.50000         0.000080     -0.000017     -0.474348
      2.11025      2.11025      7.50000        -0.000090     -0.000119     -0.473945
      8.44046      2.10952     13.88682        -0.001350     -0.002323     -0.021409
      2.10781      4.21948     13.88157        -0.006057      0.000373     -0.028780
      8.44068      4.21998     11.72868        -0.002599      0.000251      0.005193
      2.10982      2.10904     11.72965         0.001125     -0.001151      0.006715
      4.22049      6.33074      9.61025        -0.000152     -0.003422      0.066105
      6.33074      0.00000      9.61025         0.001558     -0.001110      0.064380
      4.22049      0.00000      7.50000         0.000042     -0.000015     -0.474254
      6.33074      6.33074      7.50000         0.000086      0.000187     -0.473931
      4.22034      6.33233     13.88613        -0.001830      0.008042     -0.017180
      6.33073      8.43995     13.88762         0.000131      0.001052     -0.023393
      4.22040      8.44028     11.72907         0.000168      0.000723      0.010235
      6.33072      6.33073     11.73011        -0.000442     -0.001030      0.007386
      4.22049      2.11025      9.61025        -0.000133      0.000877      0.066323
      6.33074      4.22049      9.61025        -0.003204     -0.001013      0.066247
      4.22049      4.22049      7.50000        -0.000076     -0.000053     -0.474613
      6.33074      2.11025      7.50000         0.000075     -0.000233     -0.473930
      4.22040      2.10623     13.88554        -0.001770     -0.006046     -0.016543
      6.33242      4.21947     13.88436         0.006993      0.000656     -0.024679
      4.22056      4.21990     11.73288         0.001900     -0.000178     -0.004981
      6.33080      2.10908     11.73003        -0.001255      0.001514      0.007581
    total drift:                               -0.000759     -0.002297     -0.003402

  FREE ENERGIE OF THE ION-ELECTRON SYSTEM (eV)
  free  energy   TOTEN  =      -430.66211313 eV

  energy  without entropy=     -430.66211313  energy(sigma->0) =     -430.66211313