 vasp.6.3.0 20Jan22 (build Mar 11 2022 13:48:16) complex

 executed on             LinuxIFC date 2023.12.26  17:18:07

 INCAR:
   SYSTEM = MgO-rocksalt
   ISMEAR = 0
   SIGMA = 0.05
   EDIFF = 1E-5
   ALGO = ALL
   ISTART = 0
   IBRION = -1
   NSW = 0
   ISYM = 2
   ISIF = 2
   DIPOL = 0.5 0.5 0.5
   IDIPOL = 3
   LDIPOL = .TRUE.
   GGA = RE
   IVDW = 13
   VDW_S8 = 1.7468
   VDW_A1 = 0.5363
   VDW_A2 = 3.0726
   ENCUT = 600
   PREC = Accurate
   LASPH = .TRUE.
   LREAL = .FALSE.
   ISPIN = 1
   NELM = 200
   NELMIN = 8
   NCORE = 2
   KPAR = 1
   LWAVE = .FALSE.
   LCHARG = .FALSE.

 POTCAR:    PAW_PBE Mg_pv 13Apr2007
 POTCAR:    PAW_PBE O 08Apr2002
|           W    W    AA    RRRRR   N    N  II  N    N   GGGG   !!!           |
|           W    W   A  A   R    R  NN   N  II  NN   N  G    G  !!!           |
|           W    W  A    A  R    R  N N  N  II  N N  N  G       !!!           |
|           W WW W  AAAAAA  RRRRR   N  N N  II  N  N N  G  GGG   !            |
|           WW  WW  A    A  R   R   N   NN  II  N   NN  G    G                |
|           W    W  A    A  R    R  N    N  II  N    N   GGGG   !!!           |
|     For optimal performance we recommend to set                             |
|       NCORE = 2 up to number-of-cores-per-socket                            |
|     This setting can greatly improve the performance of VASP for DFT.       |
|     The default, NCORE=1 might be grossly inefficient on modern             |
|     multi-core architectures or massively parallel machines. Do your        |
|     Unfortunately you need to use the default for GW and RPA                |
|     calculations (for HF NCORE is supported but not extensively tested      |
|     yet).                                                                   |

   TITEL  = PAW_PBE Mg_pv 13Apr2007
   POMASS =   24.305; ZVAL   =    8.000    mass and valenz
   ENMAX  =  403.929; ENMIN  =  302.947 eV

   TITEL  = PAW_PBE O 08Apr2002
   POMASS =   16.000; ZVAL   =    6.000    mass and valenz
   ENMAX  =  400.000; ENMIN  =  300.000 eV

  PAW_PBE Mg_pv 13Apr2007               :
  PAW_PBE O 08Apr2002                   :

 POSCAR: Mg  O
  positions in direct lattice
|           W    W    AA    RRRRR   N    N  II  N    N   GGGG   !!!           |
|           W    W   A  A   R    R  NN   N  II  NN   N  G    G  !!!           |
|           W    W  A    A  R    R  N N  N  II  N N  N  G       !!!           |
|           W WW W  AAAAAA  RRRRR   N  N N  II  N  N N  G  GGG   !            |
|           WW  WW  A    A  R   R   N   NN  II  N   NN  G    G                |
|           W    W  A    A  R    R  N    N  II  N    N   GGGG   !!!           |
|     Specifying the vdW parameters                                           |
|     VDW_S8 = 1.747                                                          |
|     VDW_A1 = 0.536                                                          |
|     VDW_A2 = 3.073                                                          |
|     in the INCAR file will overwrite the defaults for revpbe. Please        |
|     make sure that is what you intended.                                    |

 ion  position               nearest neighbor table
   1  0.250  0.000  0.351-  33 2.12  35 2.12  36 2.12  43 2.12  52 2.12
   2  0.500  0.250  0.351-  34 2.12  35 2.12  36 2.12  44 2.12  51 2.12
   3  0.250  0.250  0.450-  35 2.12  34 2.12  33 2.12  41 2.12  50 2.12  39 2.12
   4  0.500  0.000  0.450-  36 2.12  34 2.12  33 2.12  42 2.12  49 2.12  40 2.12
   5  0.250  0.000  0.550-  40 2.12  39 2.12  47 2.12  56 2.12  33 2.13  37 2.15
   6  0.500  0.251  0.550-  48 2.11  39 2.12  55 2.12  40 2.12  34 2.13  38 2.15
   7  0.250  0.250  0.648-  39 2.10  37 2.11  54 2.11  45 2.12  38 2.12
   8  0.500  0.000  0.648-  40 2.10  38 2.11  46 2.11  37 2.12  53 2.12
   9  0.250  0.500  0.351-  41 2.12  35 2.12  43 2.12  44 2.12  60 2.12
  10  0.500  0.750  0.351-  42 2.12  36 2.12  43 2.12  44 2.12  59 2.12
  11  0.250  0.750  0.450-  43 2.12  41 2.12  42 2.12  33 2.12  58 2.12  47 2.12
  12  0.500  0.500  0.450-  44 2.12  41 2.12  42 2.12  34 2.12  57 2.12  48 2.13
  13  0.251  0.500  0.550-  48 2.11  47 2.12  39 2.12  64 2.12  41 2.13  45 2.15
  14  0.500  0.749  0.550-  48 2.11  47 2.12  63 2.12  40 2.12  42 2.13  46 2.15
  15  0.250  0.750  0.648-  47 2.10  37 2.11  62 2.11  45 2.12  46 2.12
  16  0.500  0.500  0.651-  38 2.13  45 2.13  46 2.13  61 2.13  48 2.15
  17  0.750  0.000  0.351-  49 2.12  36 2.12  51 2.12  52 2.12  59 2.12
  18  0.000  0.250  0.351-  50 2.12  35 2.12  51 2.12  52 2.12  60 2.12
  19  0.750  0.250  0.450-  51 2.12  49 2.12  50 2.12  34 2.12  57 2.12  55 2.12
  20  0.000  0.000  0.450-  52 2.12  49 2.12  50 2.12  33 2.12  58 2.12  56 2.12
  21  0.750  0.000  0.550-  40 2.12  55 2.12  63 2.12  56 2.12  49 2.13  53 2.15
  22  0.000  0.250  0.550-  64 2.12  55 2.12  39 2.12  56 2.12  50 2.13  54 2.15
  23  0.750  0.250  0.648-  55 2.10  54 2.11  53 2.11  38 2.12  61 2.12
  24  0.000  0.000  0.648-  56 2.11  53 2.11  54 2.11  37 2.11  62 2.11
  25  0.750  0.500  0.351-  57 2.12  51 2.12  44 2.12  59 2.12  60 2.12
  26  0.000  0.750  0.351-  58 2.12  52 2.12  43 2.12  59 2.12  60 2.12
  27  0.750  0.750  0.450-  59 2.12  49 2.12  57 2.12  58 2.12  42 2.12  63 2.12
  28  0.000  0.500  0.450-  60 2.12  50 2.12  57 2.12  58 2.12  41 2.12  64 2.12
  29  0.749  0.500  0.550-  48 2.11  55 2.12  63 2.12  64 2.12  57 2.13  61 2.15
  30  0.000  0.750  0.550-  64 2.12  63 2.12  47 2.12  56 2.12  58 2.13  62 2.15
  31  0.750  0.750  0.648-  63 2.10  62 2.11  53 2.11  46 2.12  61 2.12
  32  0.000  0.500  0.648-  64 2.10  61 2.11  45 2.11  62 2.12  54 2.12
  33  0.250  0.000  0.450-   1 2.12   3 2.12   4 2.12  11 2.12  20 2.12   5 2.13
  34  0.500  0.250  0.450-   2 2.12   3 2.12   4 2.12  12 2.12  19 2.12   6 2.13
  35  0.250  0.250  0.351-   3 2.12   2 2.12   1 2.12   9 2.12  18 2.12
  36  0.500  0.000  0.351-   4 2.12   2 2.12   1 2.12  10 2.12  17 2.12
  37  0.250  0.000  0.651-   7 2.11  15 2.11  24 2.11   8 2.12   5 2.15
  38  0.500  0.249  0.651-   8 2.11   7 2.12  23 2.12  16 2.13   6 2.15
  39  0.250  0.250  0.550-   7 2.10   5 2.12  22 2.12  13 2.12   6 2.12   3 2.12
  40  0.500  0.000  0.550-   8 2.10   5 2.12  21 2.12   4 2.12  14 2.12   6 2.12
  41  0.250  0.500  0.450-   9 2.12   3 2.12  11 2.12  12 2.12  28 2.12  13 2.13
  42  0.500  0.750  0.450-  10 2.12   4 2.12  11 2.12  12 2.12  27 2.12  14 2.13
  43  0.250  0.750  0.351-  11 2.12   9 2.12  10 2.12   1 2.12  26 2.12
  44  0.500  0.500  0.351-  12 2.12   9 2.12  10 2.12   2 2.12  25 2.12
  45  0.249  0.500  0.651-  32 2.11  15 2.12   7 2.12  16 2.13  13 2.15
  46  0.500  0.751  0.651-   8 2.11  15 2.12  31 2.12  16 2.13  14 2.15
  47  0.250  0.750  0.550-  15 2.10   5 2.12  30 2.12  13 2.12  14 2.12  11 2.12
  48  0.500  0.500  0.550-   6 2.11  13 2.11  14 2.11  29 2.11  12 2.13  16 2.15
  49  0.750  0.000  0.450-  17 2.12   4 2.12  19 2.12  20 2.12  27 2.12  21 2.13
  50  0.000  0.250  0.450-  18 2.12   3 2.12  19 2.12  20 2.12  28 2.12  22 2.13
  51  0.750  0.250  0.351-  19 2.12  17 2.12  18 2.12   2 2.12  25 2.12
  52  0.000  0.000  0.351-  20 2.12  17 2.12  18 2.12   1 2.12  26 2.12
  53  0.750  0.000  0.651-  23 2.11  31 2.11  24 2.11   8 2.12  21 2.15
  54  0.000  0.250  0.651-   7 2.11  23 2.11  24 2.11  32 2.12  22 2.15
  55  0.750  0.250  0.550-  23 2.10  22 2.12  21 2.12   6 2.12  29 2.12  19 2.12
  56  0.000  0.000  0.550-  24 2.11  21 2.12  22 2.12   5 2.12  30 2.12  20 2.12
  57  0.750  0.500  0.450-  25 2.12  19 2.12  12 2.12  27 2.12  28 2.12  29 2.13
  58  0.000  0.750  0.450-  26 2.12  20 2.12  11 2.12  27 2.12  28 2.12  30 2.13
  59  0.750  0.750  0.351-  27 2.12  17 2.12  25 2.12  26 2.12  10 2.12
  60  0.000  0.500  0.351-  28 2.12  18 2.12  25 2.12  26 2.12   9 2.12
  61  0.751  0.500  0.651-  32 2.11  31 2.12  23 2.12  16 2.13  29 2.15
  62  0.000  0.750  0.651-  15 2.11  31 2.11  24 2.11  32 2.12  30 2.15
  63  0.750  0.750  0.550-  31 2.10  30 2.12  21 2.12  14 2.12  29 2.12  27 2.12
  64  0.000  0.500  0.550-  32 2.10  30 2.12  22 2.12  28 2.12  13 2.12  29 2.12

  LATTYP: Found a simple tetragonal cell.
 ALAT       =     8.4671426306
 C/A-ratio  =     2.5215539532

  Lattice vectors:

 A1 = (   8.4671426306,   0.0000000000,   0.0000000000)
 A2 = (   0.0000000000,   8.4671426306,   0.0000000000)
 A3 = (   0.0000000000,   0.0000000000,  21.3503569730)

Analysis of symmetry for initial positions (statically):
 Subroutine PRICEL returns:
 Original cell was already a primitive cell.

 Routine SETGRP: Setting up the symmetry group for a
 simple tetragonal supercell.

 Subroutine GETGRP returns: Found  8 space group operations
 (whereof  8 operations were pure point group operations)
 out of a pool of 16 trial point group operations.

The static configuration has the point symmetry C_4v.

Analysis of symmetry for dynamics (positions and initial velocities):
 Subroutine PRICEL returns:
 Original cell was already a primitive cell.

[...]

The dynamic configuration has the point symmetry C_4v.

Analysis of constrained symmetry for selective dynamics:
 Subroutine PRICEL returns:
 Original cell was already a primitive cell.

 Routine SETGRP: Setting up the symmetry group for a
 simple tetragonal supercell.

 Subroutine GETGRP returns: Found  8 space group operations
 (whereof  8 operations were pure point group operations)
 out of a pool of 16 trial point group operations.

The constrained configuration has the point symmetry C_4v.

 Subroutine INISYM returns: Found  8 space group operations
 (whereof  8 operations are pure point group operations),
 and found     1 'primitive' translations

                                     Primitive cell

  volume of cell :    1530.6606

  direct lattice vectors                    reciprocal lattice vectors
     8.467142631  0.000000000  0.000000000     0.118103597  0.000000000  0.000000000
     0.000000000  8.467142631  0.000000000     0.000000000  0.118103597  0.000000000
     0.000000000  0.000000000 21.350356973     0.000000000  0.000000000  0.046837624

  length of vectors
     8.467142631  8.467142631 21.350356973     0.118103597  0.118103597  0.046837624

  position of ions in fractional coordinates (direct lattice)
     0.250000000  0.000000000  0.351282183
     0.500000000  0.250000000  0.351282183
     0.250000000  0.250000000  0.450427394
     0.500000000  0.000000000  0.450427394
     0.250130675  0.000000000  0.550051025
     0.500000000  0.250549374  0.550337361
     0.249664725  0.249664725  0.648233062
     0.500000000  0.000000000  0.648327315
     0.250000000  0.500000000  0.351282183
     0.500000000  0.750000000  0.351282183
     0.250000000  0.750000000  0.450427394
     0.500000000  0.500000000  0.450427394
     0.250549374  0.500000000  0.550337361
     0.500000000  0.749450626  0.550337361
     0.249664725  0.750335275  0.648233062
     0.500000000  0.500000000  0.651025884
     0.750000000  0.000000000  0.351282183
     0.000000000  0.250000000  0.351282183
     0.750000000  0.250000000  0.450427394
     0.000000000  0.000000000  0.450427394
     0.749869325  0.000000000  0.550051025
     0.000000000  0.250130675  0.550051025
[...]
   0.75000000  0.75000000  0.35128218
   0.00000000  0.50000000  0.35128218
   0.75138363  0.50000000  0.65087487
   0.00000000  0.75032403  0.65069376
   0.75000437  0.75000437  0.54981502
   0.00000000  0.50000000  0.54974366

 position of ions in cartesian coordinates  (Angst):
   2.11678566  0.00000000  7.50000000
   4.23357132  2.11678566  7.50000000
   2.11678566  2.11678566  9.61678566
   4.23357132  0.00000000  9.61678566
   2.11789210  0.00000000 11.74378574
   4.23357132  2.12143728 11.74989911
   2.11394684  2.11394684 13.84000727
   4.23357132  0.00000000 13.84201961
   2.11678566  4.23357132  7.50000000
   4.23357132  6.35035697  7.50000000
   2.11678566  6.35035697  9.61678566
   4.23357132  4.23357132  9.61678566
   2.12143728  4.23357132 11.74989911
   4.23357132  6.34570535 11.74989911
   2.11394684  6.35319579 13.84000727
   4.23357132  4.23357132 13.89963502
   6.35035697  0.00000000  7.50000000
   0.00000000  2.11678566  7.50000000
   6.35035697  2.11678566  9.61678566
   0.00000000  0.00000000  9.61678566
   6.34925053  0.00000000 11.74378574
   0.00000000  2.11789210 11.74378574
   6.35319579  2.11394684 13.84000727
   0.00000000  0.00000000 13.84178315
   6.35035697  4.23357132  7.50000000
   0.00000000  6.35035697  7.50000000
   6.35035697  6.35035697  9.61678566
   0.00000000  4.23357132  9.61678566
   6.34570535  4.23357132 11.74989911
   0.00000000  6.34925053 11.74378574
   6.35319579  6.35319579 13.84000727
   0.00000000  4.23357132 13.84201961
   2.11678566  0.00000000  9.61678566
   4.23357132  2.11678566  9.61678566
   2.11678566  2.11678566  7.50000000
   4.23357132  0.00000000  7.50000000
   2.11404204  0.00000000 13.89254400
   4.23357132  2.10507030 13.89641088
   2.11674862  2.11674862 11.73874694
   4.23357132  0.00000000 11.73722335
   2.11678566  4.23357132  9.61678566
   4.23357132  6.35035697  9.61678566
   2.11678566  6.35035697  7.50000000
   4.23357132  4.23357132  7.50000000
   2.10507030  4.23357132 13.89641088
   4.23357132  6.36207233 13.89641088
   2.11674862  6.35039401 11.73874694
   4.23357132  4.23357132 11.75041252
   6.35035697  0.00000000  9.61678566
   0.00000000  2.11678566  9.61678566
   6.35035697  2.11678566  7.50000000
   0.00000000  0.00000000  7.50000000
   6.35310059  0.00000000 13.89254400
   0.00000000  2.11404204 13.89254400
   6.35039401  2.11674862 11.73874694
   0.00000000  0.00000000 11.73652345
   6.35035697  4.23357132  9.61678566
   0.00000000  6.35035697  9.61678566
   6.35035697  6.35035697  7.50000000
   0.00000000  4.23357132  7.50000000
   6.36207233  4.23357132 13.89641088
   0.00000000  6.35310059 13.89254400
   6.35039401  6.35039401 11.73874694
   0.00000000  4.23357132 11.73722335

--------------------------------------- Iteration      FINAL  ---------------------------------------

--------------------OUTCAR has been truncated-------------------------

[...]

--------------------OUTCAR has been truncated-------------------------

  FORCE on cell =-STRESS in cart. coord.  units (eV):
  Direction    XX          YY          ZZ          XY          YZ          ZX
  Alpha Z   869.06037   869.06037   869.06037
  Ewald  160117.10880160117.10880************     0.00000     0.00000     0.00000
  Hartree170209.31181170209.31181************    -0.00000    -0.00000    -0.00000
  E(xc)   -2464.36692 -2464.36692 -2472.56012     0.00000     0.00000    -0.00000
  Local  ************************340495.25146    -0.00000     0.00000    -0.00000
  n-local -2795.34121 -2796.16888 -2816.20000     0.00000     0.00000     0.00000
  augment  1046.65445  1046.65445  1037.31188     0.00000     0.00000     0.00000
  Kinetic  7303.07100  7305.71671  7345.67032     0.00001    -0.00000     0.00001
  Fock        0.00000     0.00000     0.00000     0.00000     0.00000     0.00000
  vdW       -21.21759   -21.21761   -15.97991    -0.00000    -0.00000    -0.00000
  Total     -31.23547   -31.23547    -4.22221     0.00000     0.00000     0.00000
  in kB     -32.69487   -32.69487    -4.41948     0.00000     0.00000     0.00000

 VOLUME and BASIS-vectors are now :
  energy-cutoff  :      600.00
  volume of cell :     1530.66
      direct lattice vectors                 reciprocal lattice vectors
     8.467142631  0.000000000  0.000000000     0.118103597  0.000000000  0.000000000
     0.000000000  8.467142631  0.000000000     0.000000000  0.118103597  0.000000000
     0.000000000  0.000000000 21.350356973     0.000000000  0.000000000  0.046837624

  length of vectors
     8.467142631  8.467142631 21.350356973     0.118103597  0.118103597  0.046837624

 FORCES acting on ions:
    Electron-Ion                     Ewald-Force                    Non-Local-Force
   -.136E+00 0.698E-12 0.205E+04   0.137E+00 0.123E-12 -.205E+04   -.569E-03 -.151E-21 -.714E+01
   0.702E-12 -.175E+00 0.205E+04   0.155E-12 0.179E+00 -.205E+04   -.192E-23 -.287E-02 -.714E+01
   -.709E+00 -.709E+00 0.679E+03   0.725E+00 0.725E+00 -.680E+03   -.112E-01 -.112E-01 0.505E+00
   0.605E-12 0.638E-12 0.680E+03   0.151E-10 -.149E-10 -.680E+03   -.193E-22 0.956E-23 0.450E+00
   -.592E+00 0.228E-12 -.683E+03   0.600E+00 -.146E-11 0.683E+03   -.163E-01 -.656E-23 -.281E+00
   0.621E-12 -.207E+01 -.687E+03   0.143E-11 0.219E+01 0.687E+03   0.193E-21 -.128E+00 -.323E+00
   -.201E+01 -.201E+01 -.204E+04   0.182E+01 0.182E+01 0.203E+04   0.178E+00 0.178E+00 0.619E+01
   0.691E-12 0.322E-12 -.204E+04   0.490E-12 -.432E-12 0.203E+04   0.366E-22 -.661E-22 0.610E+01
   -.175E+00 0.132E-11 0.205E+04   0.179E+00 -.168E-10 -.205E+04   -.287E-02 0.410E-23 -.714E+01
   0.707E-12 0.175E+00 0.205E+04   -.297E-11 -.179E+00 -.205E+04   0.260E-22 0.287E-02 -.714E+01
   -.709E+00 0.709E+00 0.679E+03   0.725E+00 -.725E+00 -.680E+03   -.112E-01 0.112E-01 0.505E+00
   0.602E-12 0.102E-11 0.677E+03   0.165E-10 0.245E-13 -.677E+03   -.662E-22 -.305E-22 0.641E+00
   -.207E+01 0.648E-12 -.687E+03   0.219E+01 -.252E-13 0.687E+03   -.128E+00 -.438E-22 -.323E+00
   0.605E-12 0.207E+01 -.687E+03   0.299E-11 -.219E+01 0.687E+03   0.121E-21 0.128E+00 -.323E+00
   -.201E+01 0.201E+01 -.204E+04   0.182E+01 -.182E+01 0.203E+04   0.178E+00 -.178E+00 0.619E+01
   0.697E-12 -.148E-12 -.206E+04   0.543E-13 0.720E-14 0.205E+04   0.101E-22 0.292E-22 0.658E+01
   0.136E+00 0.638E-12 0.205E+04   -.137E+00 0.281E-13 -.205E+04   0.569E-03 -.276E-23 -.714E+01
   -.493E-13 -.136E+00 0.205E+04   0.202E-10 0.137E+00 -.205E+04   0.610E-22 -.569E-03 -.714E+01
   0.709E+00 -.709E+00 0.679E+03   -.725E+00 0.725E+00 -.680E+03   0.112E-01 -.112E-01 0.505E+00
   -.571E-13 0.873E-13 0.680E+03   -.120E-11 -.149E-10 -.681E+03   0.103E-22 0.157E-22 0.444E+00
   0.592E+00 0.302E-12 -.683E+03   -.600E+00 -.151E-11 0.683E+03   0.163E-01 -.188E-22 -.281E+00
   -.622E-13 -.592E+00 -.683E+03   -.148E-11 0.600E+00 0.683E+03   -.453E-22 -.163E-01 -.281E+00
   0.201E+01 -.201E+01 -.204E+04   -.182E+01 0.182E+01 0.203E+04   -.178E+00 0.178E+00 0.619E+01
   -.299E-13 0.181E-12 -.204E+04   -.147E-13 0.557E-13 0.203E+04   0.224E-22 -.474E-23 0.615E+01
   0.175E+00 0.873E-12 0.205E+04   -.179E+00 -.168E-10 -.205E+04   0.287E-02 -.111E-22 -.714E+01
   -.483E-13 0.136E+00 0.205E+04   0.169E-10 -.137E+00 -.205E+04   -.459E-22 0.569E-03 -.714E+01
   0.709E+00 0.709E+00 0.679E+03   -.725E+00 -.725E+00 -.680E+03   0.112E-01 0.112E-01 0.505E+00
   -.635E-13 0.698E-12 0.680E+03   0.221E-12 0.430E-13 -.680E+03   -.543E-23 0.182E-23 0.450E+00
   0.207E+01 -.122E-11 -.687E+03   -.219E+01 -.573E-13 0.687E+03   0.128E+00 -.576E-22 -.323E+00
   -.478E-13 0.592E+00 -.683E+03   0.289E-13 -.600E+00 0.683E+03   0.797E-23 0.163E-01 -.281E+00
   0.201E+01 0.201E+01 -.204E+04   -.182E+01 -.182E+01 0.203E+04   -.178E+00 -.178E+00 0.619E+01
   -.698E-13 0.530E-12 -.204E+04   -.319E-13 -.249E-13 0.203E+04   -.528E-22 0.153E-21 0.610E+01
   -.355E+00 -.235E-12 0.510E+03   0.355E+00 -.520E-13 -.510E+03   0.674E-03 -.234E-22 -.724E-01
   0.271E-12 -.587E+00 0.508E+03   -.141E-12 0.553E+00 -.508E+03   0.947E-23 0.471E-01 -.119E+00
   -.118E+00 -.118E+00 0.154E+04   0.120E+00 0.120E+00 -.155E+04   -.279E-02 -.279E-02 0.341E+01
   0.332E-12 0.255E-12 0.154E+04   -.855E-11 0.834E-11 -.155E+04   0.355E-22 0.247E-22 0.341E+01
   -.727E+00 -.591E-12 -.155E+04   0.778E+00 -.232E-12 0.156E+04   -.352E-01 -.799E-22 -.516E+01
   0.317E-12 -.356E+01 -.155E+04   -.549E-13 0.350E+01 0.155E+04   0.620E-22 0.205E+00 -.483E+01
   -.103E+01 -.103E+01 -.506E+03   0.102E+01 0.102E+01 0.506E+03   0.247E-01 0.247E-01 0.433E+00
   0.273E-12 0.146E-12 -.506E+03   -.811E-12 0.832E-12 0.505E+03   0.120E-22 0.107E-22 0.398E+00
   -.587E+00 0.134E-12 0.508E+03   0.553E+00 0.828E-11 -.508E+03   0.471E-01 -.214E-22 -.119E+00
   0.259E-12 0.587E+00 0.508E+03   0.647E-12 -.553E+00 -.508E+03   0.119E-22 -.471E-01 -.119E+00
   -.118E+00 0.118E+00 0.154E+04   0.120E+00 -.120E+00 -.155E+04   -.279E-02 0.279E-02 0.341E+01
   0.333E-12 0.430E-12 0.154E+04   -.948E-11 -.396E-13 -.155E+04   -.150E-22 0.309E-23 0.341E+01
   -.356E+01 -.591E-12 -.155E+04   0.350E+01 -.211E-13 0.155E+04   0.205E+00 -.728E-22 -.483E+01
   0.330E-12 0.356E+01 -.155E+04   -.758E-14 -.350E+01 0.155E+04   0.337E-22 -.205E+00 -.483E+01
   -.103E+01 0.103E+01 -.506E+03   0.102E+01 -.102E+01 0.506E+03   0.247E-01 -.247E-01 0.433E+00
   0.277E-12 0.300E-12 -.518E+03   0.823E-11 -.141E-13 0.518E+03   0.336E-22 -.923E-24 -.165E+00
   0.355E+00 -.237E-12 0.510E+03   -.355E+00 -.546E-13 -.510E+03   -.674E-03 0.398E-23 -.724E-01
   -.529E-13 -.355E+00 0.510E+03   -.935E-11 0.355E+00 -.510E+03   0.133E-22 0.674E-03 -.724E-01
   0.118E+00 -.118E+00 0.154E+04   -.120E+00 0.120E+00 -.155E+04   0.279E-02 -.279E-02 0.341E+01
   -.363E-13 0.900E-12 0.154E+04   0.908E-12 0.838E-11 -.155E+04   0.117E-21 -.910E-23 0.341E+01
   0.727E+00 -.510E-12 -.155E+04   -.778E+00 -.220E-12 0.156E+04   0.352E-01 -.136E-21 -.516E+01
   -.372E-13 -.727E+00 -.155E+04   -.121E-12 0.778E+00 0.156E+04   -.217E-21 -.352E-01 -.516E+01
   0.103E+01 -.103E+01 -.506E+03   -.102E+01 0.102E+01 0.506E+03   -.247E-01 0.247E-01 0.433E+00
   -.293E-13 0.435E-12 -.506E+03   0.142E-13 -.576E-13 0.505E+03   0.325E-23 0.158E-23 0.303E+00
   0.587E+00 0.518E-11 0.508E+03   -.553E+00 0.838E-11 -.508E+03   -.471E-01 -.262E-22 -.119E+00
   -.406E-13 0.355E+00 0.510E+03   -.861E-11 -.355E+00 -.510E+03   -.279E-22 -.674E-03 -.724E-01
   0.118E+00 0.118E+00 0.154E+04   -.120E+00 -.120E+00 -.155E+04   0.279E-02 0.279E-02 0.341E+01
   -.353E-13 0.121E-11 0.154E+04   -.166E-12 -.246E-12 -.155E+04   -.201E-22 0.271E-22 0.341E+01
   0.356E+01 -.510E-11 -.155E+04   -.350E+01 -.498E-13 0.155E+04   -.205E+00 -.176E-21 -.483E+01
   -.392E-13 0.727E+00 -.155E+04   0.148E-13 -.778E+00 0.156E+04   0.122E-21 0.352E-01 -.516E+01
   0.103E+01 0.103E+01 -.506E+03   -.102E+01 -.102E+01 0.506E+03   -.247E-01 -.247E-01 0.433E+00
   -.636E-13 0.225E-12 -.506E+03   -.214E-13 0.213E-13 0.505E+03   -.884E-23 -.377E-23 0.398E+00
   0.201E-10 -.200E-11 0.167E+02   0.182E-12 -.332E-12 -.477E-11   0.111E-15 -.347E-17 -.166E+02

 POSITION                                       TOTAL-FORCE (eV/Angst)
      2.11679      0.00000      7.50000         0.000204      0.000000      0.379068
      4.23357      2.11679      7.50000        -0.000000      0.000790      0.380008
      2.11679      2.11679      9.61679         0.004626      0.004626      0.059493
      4.23357      0.00000      9.61679        -0.000000      0.000000      0.068458
      2.11789      0.00000     11.74379        -0.007707      0.000000     -0.027953
      4.23357      2.12144     11.74990        -0.000000     -0.007954     -0.044255
      2.11395      2.11395     13.84001        -0.015088     -0.015088      0.050275
      4.23357      0.00000     13.84202        -0.000000      0.000000      0.050701
      2.11679      4.23357      7.50000         0.000790     -0.000000      0.380008
      4.23357      6.35036      7.50000        -0.000000     -0.000790      0.380008
      2.11679      6.35036      9.61679         0.004626     -0.004626      0.059493
      4.23357      4.23357      9.61679        -0.000000     -0.000000      0.073771
      2.12144      4.23357     11.74990        -0.007954     -0.000000     -0.044255
      4.23357      6.34571     11.74990        -0.000000      0.007954     -0.044255
      2.11395      6.35320     13.84001        -0.015088      0.015088      0.050275
      4.23357      4.23357     13.89964        -0.000000      0.000000     -0.325055
      6.35036      0.00000      7.50000        -0.000204     -0.000000      0.379068
      0.00000      2.11679      7.50000        -0.000000      0.000204      0.379068
      6.35036      2.11679      9.61679        -0.004626      0.004626      0.059493
      0.00000      0.00000      9.61679        -0.000000     -0.000000      0.058274
      6.34925      0.00000     11.74379         0.007707      0.000000     -0.027953
      0.00000      2.11789     11.74379        -0.000000     -0.007707     -0.027953
      6.35320      2.11395     13.84001         0.015088     -0.015088      0.050275
      0.00000      0.00000     13.84178        -0.000000      0.000000      0.034555
      6.35036      4.23357      7.50000        -0.000790      0.000000      0.380008
      0.00000      6.35036      7.50000        -0.000000     -0.000204      0.379068
      6.35036      6.35036      9.61679        -0.004626     -0.004626      0.059493
      0.00000      4.23357      9.61679        -0.000000     -0.000000      0.068458
      6.34571      4.23357     11.74990         0.007954      0.000000     -0.044255
      0.00000      6.34925     11.74379        -0.000000      0.007707     -0.027953
      6.35320      6.35320     13.84001         0.015088      0.015088      0.050275
      0.00000      4.23357     13.84202        -0.000000      0.000000      0.050701
      2.11679      0.00000      9.61679        -0.000157      0.000000      0.063147
      4.23357      2.11679      9.61679        -0.000000      0.011974      0.079316
      2.11679      2.11679      7.50000        -0.000811     -0.000811     -0.461853
      4.23357      0.00000      7.50000        -0.000000      0.000000     -0.461740
      2.11404      0.00000     13.89254         0.015205      0.000000     -0.039070
      4.23357      2.10507     13.89641        -0.000000      0.151730      0.031403
      2.11675      2.11675     11.73875         0.006966      0.006966     -0.018071
      4.23357      0.00000     11.73722        -0.000000      0.000000     -0.006570
      2.11679      4.23357      9.61679         0.011974      0.000000      0.079316
      4.23357      6.35036      9.61679        -0.000000     -0.011974      0.079316
      2.11679      6.35036      7.50000        -0.000811      0.000811     -0.461853
      4.23357      4.23357      7.50000        -0.000000     -0.000000     -0.463290
      2.10507      4.23357     13.89641         0.151730      0.000000      0.031403
      4.23357      6.36207     13.89641        -0.000000     -0.151730      0.031403
      2.11675      6.35039     11.73875         0.006966     -0.006966     -0.018071
      4.23357      4.23357     11.75041        -0.000000     -0.000000     -0.001774
      6.35036      0.00000      9.61679         0.000157     -0.000000      0.063147
      0.00000      2.11679      9.61679        -0.000000     -0.000157      0.063147
      6.35036      2.11679      7.50000         0.000811     -0.000811     -0.461853
      0.00000      0.00000      7.50000        -0.000000     -0.000000     -0.461358
      6.35310      0.00000     13.89254        -0.015205      0.000000     -0.039070
      0.00000      2.11404     13.89254        -0.000000      0.015205     -0.039070
      6.35039      2.11675     11.73875        -0.006966      0.006966     -0.018071
      0.00000      0.00000     11.73652        -0.000000      0.000000     -0.022850
      6.35036      4.23357      9.61679        -0.011974     -0.000000      0.079316
      0.00000      6.35036      9.61679        -0.000000      0.000157      0.063147
      6.35036      6.35036      7.50000         0.000811      0.000811     -0.461853
      0.00000      4.23357      7.50000        -0.000000      0.000000     -0.461740
      6.36207      4.23357     13.89641        -0.151730     -0.000000      0.031403
      0.00000      6.35310     13.89254        -0.000000     -0.015205     -0.039070
      6.35039      6.35039     11.73875        -0.006966     -0.006966     -0.018071
      0.00000      4.23357     11.73722        -0.000000      0.000000     -0.006570
    total drift:                                0.000000     -0.000000      0.031534

  FREE ENERGIE OF THE ION-ELECTRON SYSTEM (eV)
  free  energy   TOTEN  =      -371.12943687 eV

  energy  without entropy=     -371.12943687  energy(sigma->0) =     -371.12943687