 vasp.6.3.0 20Jan22 (build Aug 21 2024 11:13:42) complex
 executed on        HPECrayEX_GCC date 2024.11.27  00:54:21

 INCAR:
   SYSTEM = TiO2
   ISMEAR = 0
   SIGMA = 0.05
   EDIFF = 1E-4
   ALGO = ALL
   ISTART = 0
   IBRION = -1
   NSW = 0
   ISYM = 0
   ISIF = 2
   EDIFFG = -0.01
   DIPOL = 0.5 0.5 0.5
   IDIPOL = 3
   LDIPOL = .TRUE.
   METAGGA = R2SCAN
   LUSE_VDW = .TRUE.
   BPARAM = 11.95
   CPARAM = 0.0093
   LASPH = .TRUE.
   ENCUT = 600
   PREC = Accurate
   LASPH = .TRUE.
   LREAL = .FALSE.
   ISPIN = 1
   NELM = 200
   NELMIN = 8
   NCORE = 16
   KPAR = 1
   LWAVE = .FALSE.
   LCHARG = .FALSE.

 POTCAR:    PAW_PBE H 15Jun2001
 POTCAR:    PAW_PBE O 08Apr2002
 POTCAR:    PAW_PBE Ti_pv 07Sep2000
 POTCAR:    PAW_PBE O 08Apr2002
|               ----> ADVICE to this user running VASP <----                  |
|     You have switched on vdW-DFT.                                           |
|     This routine was written and supplied by Jiri Klimes. We recommend      |
|     that you carefully read and cite the following publications:            |
|       J. Klimes, D.R. Bowler, A. Michelides                                 |
|          J. Phys.: Cond Matt. 22 022201 (2010)                              |
|       J. Klimes, D.R. Bowler, A. Michelides                                 |
|          Phys. Rev. B. 83, 195131 (2011)                                    |
|     and references therein.                                                 |

   TITEL  = PAW_PBE H 15Jun2001
   POMASS =    1.000; ZVAL   =    1.000    mass and valenz
   ENMAX  =  250.000; ENMIN  =  200.000 eV

   TITEL  = PAW_PBE O 08Apr2002
   POMASS =   16.000; ZVAL   =    6.000    mass and valenz
   ENMAX  =  400.000; ENMIN  =  300.000 eV

   TITEL  = PAW_PBE Ti_pv 07Sep2000
   POMASS =   47.880; ZVAL   =   10.000    mass and valenz
   ENMAX  =  222.335; ENMIN  =  166.751 eV

   TITEL  = PAW_PBE O 08Apr2002
   POMASS =   16.000; ZVAL   =    6.000    mass and valenz
   ENMAX  =  400.000; ENMIN  =  300.000 eV

  PAW_PBE H 15Jun2001                   :
  PAW_PBE O 08Apr2002                   :
  PAW_PBE Ti_pv 07Sep2000               :
  PAW_PBE O 08Apr2002                   :

 POSCAR:  H  O Ti  O
  positions in direct lattice

 METAGGA = R2SCA    LMAXTAU =  6    LMIXTAU =  F

 ion  position               nearest neighbor table
   1  0.688  0.568  0.771-   3 0.97
   2  0.688  0.432  0.771-   3 0.97
   3  0.630  0.500  0.772-   1 0.97   2 0.97  51 2.23
   4  0.807  0.833  0.295-  88 1.93  56 1.93  54 1.93  53 1.99  55 1.99   7 3.04  21 3.04   5 3.04

   5  0.591  0.667  0.327-  52 1.93 119 1.93  55 1.93  57 1.93  56 1.99  58 1.99   6 3.04  36 3.04
                             4 3.04  10 3.07
   6  0.307  0.667  0.295- 124 1.93  60 1.93  58 1.93  52 1.99  59 1.99   5 3.04  39 3.04   7 3.04

   7  0.091  0.833  0.327-  91 1.93  53 1.93  59 1.93  61 1.93  60 1.99  54 1.99  22 3.04   6 3.04
                             4 3.04   8 3.07
   8  0.945  0.833  0.422-  62 1.93  96 1.93  64 1.93  54 1.97  63 1.98  61 1.98  11 3.00   9 3.04
                            25 3.04   7 3.07
   9  0.727  0.666  0.451-  57 1.90 127 1.93  63 1.94  65 1.95  66 1.99  64 1.99  10 3.01   8 3.04
                            40 3.05  14 3.09
  10  0.444  0.666  0.422-  66 1.93 132 1.93  68 1.93  58 1.96  67 1.98  57 1.99   9 3.01  11 3.04
                            43 3.05   5 3.07
  11  0.226  0.833  0.452-  61 1.90  99 1.94  67 1.94  69 1.96  62 1.97  68 1.99   8 3.00  10 3.04
                            26 3.04  12 3.09
  12  0.086  0.834  0.550-  70 1.93 104 1.93  72 1.93  71 1.97  69 1.99  62 1.99  15 2.95  13 3.04
                            29 3.04  11 3.09
  13  0.866  0.666  0.575-  65 1.87 135 1.93  71 1.94  74 1.95  73 1.99  72 1.99  14 2.98  12 3.04
                            44 3.05  18 3.15
  14  0.585  0.667  0.549- 140 1.93  76 1.93  74 1.93  66 1.97  75 1.97  65 2.00  13 2.98  15 3.04
                            47 3.05   9 3.09
  15  0.365  0.833  0.577-  69 1.87 107 1.94  75 1.94  70 1.95  77 1.98  76 2.00  12 2.95  30 3.04
                            14 3.04
  16  0.231  0.833  0.680-  78 1.86  80 1.93 112 1.94  79 2.00  70 2.08  77 2.08  19 2.85  33 3.06
                            17 3.08
  17  0.001  0.666  0.700-  73 1.78  81 1.84 143 1.96  79 1.98  80 2.05  18 2.86  16 3.08  48 3.09

[...]

  20  0.807  0.167  0.295-  88 1.93 120 1.93  86 1.93  85 1.99  87 1.99  23 3.04  21 3.04  37 3.04

[...]

  36  0.807  0.500  0.295-  56 1.93 120 1.93 118 1.93 117 1.99 119 1.99  39 3.04   5 3.04  37 3.04

  37  0.591  0.333  0.327- 116 1.93 119 1.93  87 1.93 121 1.93 120 1.99 122 1.99  38 3.04  36 3.04
                            20 3.04  42 3.07
  38  0.307  0.333  0.295- 124 1.93  92 1.93 122 1.93 116 1.99 123 1.99  37 3.04  39 3.04  23 3.04

  39  0.091  0.500  0.327-  59 1.93 123 1.93 117 1.93 125 1.93 124 1.99 118 1.99   6 3.04  38 3.04
                            36 3.04  40 3.05
  40  0.946  0.500  0.422- 126 1.93  64 1.93 128 1.93 118 1.97 125 1.97 127 1.99  43 3.00   9 3.05
                            41 3.05  39 3.05
  41  0.727  0.334  0.451- 121 1.90 127 1.93  95 1.94 129 1.95 130 1.99 128 1.99  42 3.01  24 3.04
                            40 3.05  46 3.09
  42  0.444  0.334  0.422- 130 1.93 132 1.93 100 1.93 122 1.96 131 1.98 121 1.99  41 3.01  27 3.04
                            43 3.05  37 3.07
  43  0.226  0.500  0.453- 125 1.93 131 1.94  67 1.94 126 1.96 133 1.96 132 2.00  40 3.00  42 3.05
                            10 3.05  44 3.06
  44  0.089  0.500  0.550- 134 1.92 136 1.93  72 1.93 133 1.97 135 2.00 126 2.00  47 2.97  45 3.05
                            13 3.05  43 3.06
  45  0.866  0.334  0.575- 129 1.87 135 1.93 103 1.94 138 1.95 137 1.99 136 1.99  46 2.98  28 3.04
                            44 3.05  50 3.15
  46  0.585  0.333  0.549- 140 1.93 108 1.93 138 1.93 130 1.97 139 1.97 129 2.00  45 2.98  31 3.04
                            47 3.05  41 3.09
  47  0.367  0.500  0.580- 133 1.93  75 1.94 139 1.94 134 1.94 141 1.97 140 2.01  44 2.97  14 3.05
                            46 3.05  48 3.12
  48  0.235  0.500  0.680- 142 1.86 144 1.93  80 1.93 143 2.02 141 2.03 134 2.08  51 2.88  17 3.09
                            49 3.09  47 3.12
  49  0.001  0.334  0.700- 137 1.78 145 1.84 143 1.96 111 1.98 144 2.05  50 2.86  32 3.08  48 3.09

  50  0.729  0.334  0.676- 145 1.89 147 1.92 115 1.94 146 1.99 138 2.02 137 2.08  49 2.86  35 3.07
                            51 3.07  45 3.15
  51  0.506  0.500  0.706- 142 1.82 141 1.88  82 1.97 146 1.97 147 2.09   3 2.23  48 2.88  50 3.07
                            18 3.07
  52  0.487  0.667  0.269-   5 1.93   6 1.99
  53  0.987  0.833  0.269-   7 1.93   4 1.99
  54  0.911  0.833  0.353-   4 1.93   8 1.97   7 1.99
  55  0.627  0.833  0.321-  21 1.93   5 1.93   4 1.99
  56  0.771  0.667  0.300-  36 1.93   4 1.93   5 1.99
  57  0.623  0.667  0.395-   9 1.90   5 1.93  10 1.99
  58  0.411  0.667  0.353-   6 1.93  10 1.96   5 1.99
  59  0.127  0.667  0.321-  39 1.93   7 1.93   6 1.99
  60  0.271  0.833  0.300-  22 1.93   6 1.93   7 1.99
  61  0.123  0.833  0.395-  11 1.90   7 1.93   8 1.98
  62  0.050  0.834  0.480-   8 1.93  11 1.97  12 1.99
  63  0.764  0.833  0.447-  25 1.94   9 1.94   8 1.98
  64  0.909  0.667  0.427-   8 1.93  40 1.93   9 1.99
  65  0.763  0.666  0.520-  13 1.87   9 1.95  14 2.00
  66  0.549  0.666  0.480-  10 1.93  14 1.97   9 1.99
  67  0.264  0.667  0.448-  43 1.94  11 1.94  10 1.98
  68  0.408  0.833  0.427-  10 1.93  26 1.93  11 1.99
  69  0.263  0.833  0.521-  15 1.87  11 1.96  12 1.99
  70  0.193  0.833  0.607-  12 1.93  15 1.95  16 2.08
  71  0.904  0.833  0.572-  29 1.94  13 1.94  12 1.97
  72  0.051  0.667  0.553-  44 1.93  12 1.93  13 1.99
  73  0.912  0.668  0.645-  17 1.78  13 1.99  18 2.08
  74  0.694  0.670  0.605-  14 1.93  13 1.95  18 2.02
  75  0.405  0.667  0.574-  47 1.94  15 1.94  14 1.97
  76  0.549  0.833  0.553-  30 1.93  14 1.93  15 2.00
  77  0.411  0.834  0.646-  19 1.79  15 1.98  16 2.08
  78  0.347  0.833  0.731-  19 1.83  16 1.86
  79  0.051  0.833  0.708-  33 1.98  17 1.98  16 2.00
  80  0.194  0.666  0.681-  16 1.93  48 1.93  17 2.05
  81  0.842  0.660  0.730-  17 1.84  18 1.89
  82  0.554  0.668  0.707-  19 1.96  51 1.97  18 1.99
  83  0.694  0.834  0.679-  34 1.93  18 1.94  19 2.04
  84  0.487  0.000  0.269-  21 1.93  22 1.99
  85  0.987  0.167  0.269-  23 1.93  20 1.99
  86  0.911  0.167  0.353-  20 1.93  24 1.97  23 1.99
  87  0.627  0.167  0.321-  21 1.93  37 1.93  20 1.99
  88  0.771  0.000  0.300-   4 1.93  20 1.93  21 1.99
  89  0.623  0.000  0.395-  25 1.90  21 1.93  26 1.99
  90  0.411  0.000  0.353-  22 1.93  26 1.97  21 1.99
  91  0.127  0.000  0.321-   7 1.93  23 1.93  22 1.99
  92  0.271  0.167  0.300-  22 1.93  38 1.93  23 1.99
  93  0.123  0.167  0.395-  27 1.90  23 1.93  24 1.98
  94  0.050  0.166  0.480-  24 1.93  27 1.97  28 1.99
  95  0.764  0.167  0.447-  25 1.94  41 1.94  24 1.98
  96  0.909  1.000  0.427-   8 1.93  24 1.93  25 1.99
  97  0.763  1.000  0.520-  29 1.87  25 1.95  30 2.00
  98  0.549  1.000  0.479-  26 1.92  25 1.98  30 1.98
  99  0.264  1.000  0.448-  11 1.94  27 1.94  26 1.98
 100  0.408  0.167  0.427-  42 1.93  26 1.93  27 1.99
 101  0.263  0.167  0.521-  31 1.87  27 1.96  28 1.99
 102  0.193  0.167  0.607-  28 1.93  31 1.95  32 2.08
 103  0.904  0.167  0.572-  29 1.94  45 1.94  28 1.97
 104  0.051  1.000  0.553-  28 1.93  12 1.93  29 2.01
 105  0.912  1.000  0.645-  33 1.79  29 1.99  34 2.07
 106  0.693  1.000  0.606-  30 1.93  29 1.95  34 2.07
 107  0.404  1.000  0.574-  31 1.94  15 1.94  30 1.98
 108  0.549  0.167  0.553-  30 1.93  46 1.93  31 2.00
 109  0.411  0.166  0.646-  35 1.79  31 1.98  32 2.08
 110  0.347  0.167  0.731-  35 1.83  32 1.86
 111  0.051  0.167  0.708-  33 1.98  49 1.98  32 2.00
[...]
 133  0.265  0.500  0.522-  47 1.93  43 1.96  44 1.97
 134  0.193  0.500  0.607-  44 1.92  47 1.94  48 2.08
 135  0.905  0.500  0.573-  45 1.93  13 1.93  44 2.00
 136  0.051  0.333  0.553-  44 1.93  28 1.93  45 1.99
 137  0.912  0.332  0.645-  49 1.78  45 1.99  50 2.08
 138  0.694  0.330  0.605-  46 1.93  45 1.95  50 2.02
 139  0.405  0.333  0.574-  47 1.94  31 1.94  46 1.97
 140  0.550  0.500  0.554-  14 1.93  46 1.93  47 2.01
 141  0.413  0.500  0.648-  51 1.88  47 1.97  48 2.03
 142  0.345  0.500  0.733-  51 1.82  48 1.86
 143  0.052  0.500  0.707-  17 1.96  49 1.96  48 2.02
 144  0.194  0.334  0.681-  32 1.93  48 1.93  49 2.05
 145  0.842  0.340  0.730-  49 1.84  50 1.89
 146  0.554  0.332  0.707-  35 1.96  51 1.97  50 1.99
 147  0.691  0.500  0.675-  18 1.92  50 1.92  51 2.09

IMPORTANT INFORMATION: All symmetrisations will be switched off!
NOSYMM: (Re-)initialisation of all symmetry stuff for point group C_1.

                                     Primitive cell

  volume of cell :    3249.0644

  direct lattice vectors                    reciprocal lattice vectors
    10.255507753  0.000000000  0.000000000     0.097508580 -0.000000000  0.000000000
     0.000000000 11.355710084  0.000000000     0.000000000  0.088061424  0.000000000
     0.000000000  0.000000000 27.898885647     0.000000000  0.000000000  0.035843726

  length of vectors
[...]
  10.12386854  9.46309174  7.50000000
   9.34687417  9.46309174  9.84497449
   6.43372108  9.46309174  8.96548189
   7.90926774  7.57047339  8.37949260
   6.39321924  7.57047339 11.01797039
   4.21912029  7.57047339  9.84497449
   1.30596721  7.57047339  8.96548189
   2.78151387  9.46309174  8.37949260
[...]
   2.71600795  5.67785493 14.55631337
   1.98390654  5.67785531 16.94635729
   9.27789691  5.67785504 15.98841206
   0.52244421  3.78707299 15.42841166
   9.35709831  3.76974321 17.98526906
   7.11808850  3.75243766 16.88274173
   4.15173683  3.78692881 16.02032498
   5.64377345  5.67785529 15.45351458
   4.23111097  5.67785412 18.08913682
   3.54029566  5.67785348 20.45361566
   0.52854606  5.67785599 19.73656038
   1.98576698  3.78983980 18.99900012
   8.63008742  3.85810458 20.36065747
   5.68594388  3.76587905 19.73139838
   7.08891743  5.67785687 18.82668010

--------------------------------------- Iteration      FINAL  ---------------------------------------

--------------------OUTCAR has been truncated-------------------------

[...]

--------------------OUTCAR has been truncated-------------------------

  FORCE on cell =-STRESS in cart. coord.  units (eV):
  Direction    XX          YY          ZZ          XY          YZ          ZX
  Alpha Z  2451.44277  2451.44277  2451.44277
  Ewald  490158.03591483422.22296************     0.01257     0.00176 -1968.23520
  Hartree511212.62641507153.30911************     0.00323     0.00030 -1294.05705
  E(xc)   -5515.54329 -5515.54179 -5513.27614     0.00001    -0.00001    -1.36973
  Local  ************************************    -0.01177    -0.00191  3269.06836
  n-local -3142.00132 -3115.52224 -3159.91009    -0.00066     0.00009     2.42768
  augment  3312.52179  3308.83615  3305.69199    -0.00007    -0.00009    -2.25668
  Kinetic 17195.60490 17256.50209 17332.97451    -0.00021    -0.00044   -15.67335
  Fock        0.00000     0.00000     0.00000     0.00000     0.00000     0.00000
  Total     -50.59815   -21.08250   -16.15457     0.00311    -0.00029   -10.09596
  in kB     -24.95094   -10.39619    -7.96614     0.00153    -0.00014    -4.97852

 VOLUME and BASIS-vectors are now :
  energy-cutoff  :      600.00
  volume of cell :     3249.06
      direct lattice vectors                 reciprocal lattice vectors
    10.255507753  0.000000000  0.000000000     0.097508580 -0.000000000  0.000000000
     0.000000000 11.355710084  0.000000000     0.000000000  0.088061424  0.000000000
     0.000000000  0.000000000 27.898885647     0.000000000  0.000000000  0.035843726

  length of vectors
    10.255507753 11.355710084 27.898885647     0.097508580  0.088061424  0.035843726

 FORCES acting on ions:
    Electron-Ion                     Ewald-Force                    Non-Local-Force
   -.519E+02 -.666E+02 -.364E+03   0.570E+02 0.734E+02 0.364E+03   -.512E+01 -.679E+01 0.123E+00
   -.519E+02 0.666E+02 -.364E+03   0.570E+02 -.733E+02 0.364E+03   -.512E+01 0.678E+01 0.123E+00
   0.937E+01 0.952E-02 -.220E+04   -.508E+02 -.174E-01 0.221E+04   0.414E+02 0.251E-02 -.958E+01
   0.652E+01 -.750E-01 0.339E+04   -.130E+01 0.771E-01 -.338E+04   -.114E+01 -.450E-03 -.349E+01
   0.432E+01 -.192E+00 0.279E+04   -.596E+01 0.195E+00 -.279E+04   -.902E-01 -.899E-03 -.737E-01
   0.662E+01 0.144E+00 0.339E+04   -.144E+01 -.148E+00 -.338E+04   -.114E+01 0.120E-02 -.348E+01
   0.286E+01 0.952E-01 0.279E+04   -.454E+01 -.102E+00 -.279E+04   -.818E-01 0.142E-02 -.772E-01
   0.210E+00 -.141E+00 0.127E+04   -.353E+00 0.143E+00 -.127E+04   0.139E+00 -.209E-02 -.532E-02
   0.204E+01 -.210E+01 0.808E+03   -.200E+01 0.207E+01 -.808E+03   -.323E-01 0.270E-01 -.115E+00
   0.236E+01 -.475E-01 0.127E+04   -.249E+01 0.388E-01 -.127E+04   0.129E+00 0.826E-02 -.272E-01
   -.433E+01 0.244E+00 0.797E+03   0.434E+01 -.242E+00 -.797E+03   -.684E-02 0.683E-03 -.110E+00
   -.677E+01 -.244E+01 -.782E+03   0.650E+01 0.244E+01 0.782E+03   0.267E+00 -.880E-03 0.117E+00
   -.107E+02 -.423E+01 -.117E+04   0.108E+02 0.427E+01 0.117E+04   -.413E-01 -.374E-01 -.173E+00
   0.288E+01 -.238E+01 -.748E+03   -.311E+01 0.238E+01 0.748E+03   0.225E+00 0.497E-02 0.767E-01
   0.353E+01 -.260E+01 -.121E+04   -.345E+01 0.261E+01 0.121E+04   -.626E-01 -.928E-02 -.231E+00
   0.296E+02 -.125E+02 -.280E+04   -.306E+02 0.125E+02 0.280E+04   0.937E+00 0.212E-01 -.123E+00
   -.880E+02 -.292E+02 -.320E+04   0.880E+02 0.290E+02 0.320E+04   0.942E-01 0.183E+00 0.944E+00
   -.111E+02 -.558E+02 -.270E+04   0.103E+02 0.558E+02 0.270E+04   0.788E+00 -.259E-01 0.118E-01
   -.556E+02 -.360E+02 -.320E+04   0.555E+02 0.360E+02 0.319E+04   0.139E+00 0.171E-01 0.967E+00
   0.652E+01 0.750E-01 0.339E+04   -.130E+01 -.771E-01 -.338E+04   -.114E+01 0.450E-03 -.349E+01
   0.420E+01 -.464E-05 0.279E+04   -.586E+01 -.988E-05 -.279E+04   -.837E-01 0.297E-04 -.796E-01
   0.648E+01 0.258E-04 0.339E+04   -.127E+01 -.976E-05 -.338E+04   -.114E+01 0.280E-04 -.349E+01
   0.286E+01 -.952E-01 0.279E+04   -.454E+01 0.102E+00 -.279E+04   -.817E-01 -.140E-02 -.772E-01
   0.210E+00 0.141E+00 0.127E+04   -.353E+00 -.143E+00 -.127E+04   0.139E+00 0.208E-02 -.532E-02
   -.759E+00 -.134E-03 0.803E+03   0.758E+00 0.684E-04 -.803E+03   0.369E-02 -.430E-05 -.118E+00
   0.242E+01 -.786E-04 0.127E+04   -.256E+01 0.284E-04 -.127E+04   0.130E+00 -.266E-05 -.235E-01
   -.433E+01 -.244E+00 0.797E+03   0.434E+01 0.242E+00 -.797E+03   -.682E-02 -.681E-03 -.110E+00
   -.677E+01 0.244E+01 -.782E+03   0.650E+01 -.244E+01 0.782E+03   0.267E+00 0.878E-03 0.117E+00
   -.695E+01 -.452E-03 -.120E+04   0.699E+01 0.396E-03 0.120E+04   -.194E-01 -.347E-05 -.202E+00
   -.165E+01 -.263E-03 -.771E+03   0.139E+01 0.240E-03 0.770E+03   0.252E+00 -.856E-06 0.138E+00
   0.353E+01 0.260E+01 -.121E+04   -.345E+01 -.261E+01 0.121E+04   -.626E-01 0.927E-02 -.231E+00
   0.296E+02 0.125E+02 -.280E+04   -.306E+02 -.125E+02 0.280E+04   0.937E+00 -.213E-01 -.123E+00
   -.744E+02 0.394E-03 -.321E+04   0.745E+02 -.372E-03 0.321E+04   0.787E-01 0.101E-05 0.938E+00
   0.117E+02 -.299E-03 -.279E+04   -.126E+02 0.258E-03 0.279E+04   0.871E+00 0.488E-05 -.772E-01
   -.556E+02 0.360E+02 -.320E+04   0.555E+02 -.360E+02 0.319E+04   0.139E+00 -.171E-01 0.967E+00
   0.649E+01 0.293E-04 0.339E+04   -.126E+01 -.477E-07 -.338E+04   -.114E+01 0.630E-05 -.348E+01
   0.432E+01 0.192E+00 0.279E+04   -.596E+01 -.195E+00 -.279E+04   -.902E-01 0.899E-03 -.736E-01
   0.662E+01 -.144E+00 0.339E+04   -.144E+01 0.148E+00 -.338E+04   -.114E+01 -.120E-02 -.348E+01
   0.192E+01 0.573E-05 0.279E+04   -.356E+01 0.673E-05 -.279E+04   -.976E-01 -.943E-05 -.750E-01
   0.338E+00 0.156E-03 0.127E+04   -.465E+00 -.149E-03 -.127E+04   0.121E+00 0.259E-05 0.360E-01
   0.204E+01 0.210E+01 0.808E+03   -.200E+01 -.207E+01 -.808E+03   -.323E-01 -.270E-01 -.115E+00
   0.236E+01 0.476E-01 0.127E+04   -.249E+01 -.390E-01 -.127E+04   0.129E+00 -.825E-02 -.273E-01
   -.669E+01 -.656E-05 0.779E+03   0.672E+01 0.645E-07 -.779E+03   -.263E-01 -.470E-05 -.279E-01
   -.446E+01 0.182E-03 -.785E+03   0.427E+01 -.159E-03 0.785E+03   0.180E+00 0.110E-04 0.131E+00
   -.107E+02 0.423E+01 -.117E+04   0.108E+02 -.427E+01 0.117E+04   -.412E-01 0.374E-01 -.173E+00
   0.288E+01 0.238E+01 -.748E+03   -.311E+01 -.238E+01 0.748E+03   0.225E+00 -.499E-02 0.767E-01
   0.314E+01 0.352E-03 -.125E+04   -.307E+01 -.324E-03 0.125E+04   -.693E-01 0.648E-05 -.128E+00
   0.443E+02 0.280E-04 -.280E+04   -.450E+02 -.207E-04 0.280E+04   0.696E+00 0.523E-05 -.400E-01
   -.880E+02 0.292E+02 -.320E+04   0.880E+02 -.290E+02 0.320E+04   0.941E-01 -.183E+00 0.945E+00
   -.111E+02 0.558E+02 -.270E+04   0.103E+02 -.558E+02 0.270E+04   0.788E+00 0.259E-01 0.118E-01
   0.399E+02 0.345E-02 -.315E+04   -.395E+02 -.330E-02 0.315E+04   -.320E+00 -.556E-04 0.461E+00
   -.332E+02 -.272E-01 0.229E+04   0.383E+02 0.275E-01 -.230E+04   -.702E+01 -.301E-03 0.179E+02
   -.335E+02 -.255E-01 0.229E+04   0.386E+02 0.240E-01 -.230E+04   -.702E+01 0.195E-02 0.178E+02
   0.835E+02 0.590E-01 0.139E+04   -.884E+02 -.629E-01 -.139E+04   0.392E+01 0.181E-02 -.440E+01
   0.759E+02 -.632E-01 0.169E+04   -.830E+02 0.660E-01 -.169E+04   0.757E+01 -.562E-02 -.275E+01
   -.875E+02 -.887E-01 0.195E+04   0.949E+02 0.877E-01 -.195E+04   -.710E+01 0.129E-02 -.329E+00
   -.724E+02 -.889E+00 0.106E+04   0.783E+02 0.931E+00 -.107E+04   -.596E+01 -.374E-01 0.419E+01
   0.842E+02 0.113E+00 0.139E+04   -.891E+02 -.972E-01 -.139E+04   0.388E+01 -.179E-01 -.422E+01
   0.750E+02 0.121E+00 0.169E+04   -.822E+02 -.130E+00 -.169E+04   0.759E+01 0.208E-01 -.277E+01
   -.876E+02 0.348E-01 0.195E+04   0.950E+02 -.327E-01 -.195E+04   -.707E+01 -.607E-02 -.333E+00
[...]
   0.896E+02 0.144E-03 -.108E+04   -.968E+02 -.116E-03 0.109E+04   0.719E+01 -.383E-04 -.715E+01
   0.704E+02 0.215E-03 -.716E+03   -.766E+02 -.205E-03 0.719E+03   0.614E+01 -.312E-04 -.312E+01
   -.853E+02 0.889E+00 -.462E+03   0.919E+02 -.929E+00 0.459E+03   -.660E+01 0.396E-01 0.276E+01
   -.740E+02 0.156E+02 -.129E+04   0.766E+02 -.163E+02 0.128E+04   -.257E+01 0.672E+00 0.952E+01
   0.823E+02 0.167E+02 -.104E+04   -.888E+02 -.174E+02 0.104E+04   0.651E+01 0.775E+00 -.543E+01
   0.833E+02 0.140E+01 -.730E+03   -.899E+02 -.146E+01 0.733E+03   0.660E+01 0.621E-01 -.314E+01
   -.746E+02 0.258E-03 -.466E+03   0.809E+02 -.256E-03 0.464E+03   -.630E+01 0.129E-04 0.218E+01
   -.572E+02 0.481E-03 -.132E+04   0.628E+02 -.489E-03 0.131E+04   -.561E+01 0.752E-05 0.633E+01
   0.112E+03 0.659E-03 -.228E+04   -.118E+03 -.653E-03 0.231E+04   0.644E+01 -.138E-04 -.216E+02
   0.424E+02 0.362E-03 -.201E+04   -.462E+02 -.392E-03 0.202E+04   0.382E+01 -.162E-04 -.731E+01
   -.537E+02 0.811E+01 -.167E+04   0.588E+02 -.800E+01 0.167E+04   -.507E+01 -.118E+00 0.280E+01
   0.305E+01 0.380E+02 -.227E+04   -.828E+01 -.376E+02 0.229E+04   0.523E+01 -.387E+00 -.196E+02
   0.853E+02 0.574E+02 -.197E+04   -.903E+02 -.574E+02 0.197E+04   0.492E+01 -.189E-01 -.689E+01
   -.597E+02 0.174E-02 -.152E+04   0.632E+02 -.177E-02 0.152E+04   -.348E+01 -.597E-04 0.552E+01
   -.384E+02 0.105E-03 0.759E+02   0.384E-12 -.192E-11 0.318E-11   0.384E+02 -.328E-03 -.760E+02

 POSITION                                       TOTAL-FORCE (eV/Angst)
      7.05869      6.44528     21.51717         0.000027      0.005632      0.000799
      7.05874      4.91038     21.51716        -0.003930     -0.000407      0.000935
      6.45801      5.67790     21.53853        -0.000056     -0.005347     -0.001900
      8.27879      9.46309      8.23274         4.055085      0.001579      1.751149
      6.06419      7.57047      9.11223        -1.715203      0.001580     -1.988581
      3.15104      7.57047      8.23274         4.020308     -0.003061      1.730174
      0.93644      9.46309      9.11223        -1.754541     -0.005249     -1.989124
      9.69021      9.46414     11.78484        -0.000739      0.000767     -0.000998
      7.45582      7.56632     12.59079         0.001415     -0.001899      0.004326
      4.55442      7.56832     11.78033         0.000074     -0.001125     -0.002202
      2.31804      9.46274     12.60483         0.002023      0.002787      0.005024
      0.88536      9.46557     15.33951        -0.000489     -0.000050     -0.002581
      8.88249      7.56675     16.05066        -0.000253     -0.002288      0.001469
      5.99444      7.56883     15.31026        -0.000723      0.003248     -0.002386
      3.74178      9.46331     16.08886        -0.003816      0.000606      0.000312
      2.37142      9.45552     18.96692        -0.000033     -0.000930     -0.003828
      0.00867      7.55877     19.52216        -0.005609      0.001202     -0.003527
      7.47658      7.55965     18.86513        -0.001530      0.000159     -0.000708
      5.16775      9.47305     19.52626        -0.001664     -0.002834     -0.001808
      8.27879      1.89262      8.23274         4.055091     -0.001587      1.751119
      6.06419      0.00000      9.11223        -1.737634      0.000017     -1.985968
      3.15104      0.00000      8.23274         4.044891      0.000046      1.744111
      0.93644      1.89262      9.11223        -1.754588      0.005268     -1.989087
      9.69021      1.89157     11.78484        -0.000721     -0.000796     -0.000976
      7.44970     11.35571     12.59589        -0.003566     -0.000069      0.002136
      4.55731     11.35571     11.78391        -0.002015     -0.000052      0.002656
      2.31804      1.89297     12.60483         0.002034     -0.002803      0.005029
      0.88536      1.89013     15.33951        -0.000444      0.000022     -0.002550
      8.86914     11.35571     16.06715        -0.002162     -0.000058      0.002262
      6.00055     11.35571     15.32574        -0.003710     -0.000022     -0.003238
      3.74178      1.89240     16.08886        -0.003892     -0.000657      0.000249
      2.37142      1.90019     18.96692        -0.000023      0.000856     -0.003782
      0.03296      0.00000     19.52054         0.002017      0.000026      0.002037
      7.50887      0.00000     18.93569        -0.006853     -0.000033     -0.004667
      5.16775      1.88266     19.52626        -0.001757      0.002714     -0.001856
      8.27879      5.67786      8.23274         4.065489      0.000037      1.746405
      6.06419      3.78524      9.11223        -1.715407     -0.001597     -1.988695
      3.15104      3.78524      8.23274         4.020462      0.003069      1.730020
      0.93644      5.67786      9.11223        -1.724411      0.000004     -1.917312
      9.70375      5.67786     11.78023         0.001397      0.000011      0.002365
      7.45582      3.78939     12.59079         0.001399      0.001930      0.004291
      4.55442      3.78739     11.78033         0.000108      0.001142     -0.002145
      2.32218      5.67785     12.63414        -0.004020     -0.000010      0.003003
      0.91328      5.67785     15.34668        -0.001912      0.000035     -0.000944
      8.88249      3.78896     16.05066        -0.000225      0.002316      0.001402
      5.99445      3.78688     15.31026        -0.000735     -0.003239     -0.002422
      3.76345      5.67786     16.17407        -0.004121      0.000037     -0.000509
      2.40609      5.67785     18.98145         0.000578      0.000013     -0.003938
      0.00867      3.79694     19.52216        -0.005465     -0.001139     -0.003581
      7.47658      3.79606     18.86513        -0.001594     -0.000116     -0.000832
      5.19267      5.67786     19.69976        -0.002745      0.000100     -0.001638
      4.99611      7.57047      7.50000        -1.901981      0.000022      1.164409
     10.12387      9.46309      7.50000        -1.896847      0.000473      1.157934
      9.34687      9.46309      9.84497        -1.020184     -0.002114     -0.168844
      6.43372      9.46309      8.96548         0.386607     -0.002786     -0.069409
      7.90927      7.57047      8.37949         0.259446      0.000295     -1.108748
      6.39322      7.57047     11.01797        -0.079188      0.005343      0.372533
      4.21912      7.57047      9.84497        -1.028930     -0.002240     -0.163090
      1.30597      7.57047      8.96548         0.399499      0.011622     -0.078463
      2.78151      9.46309      8.37949         0.271715     -0.004023     -1.111246
[...]
      2.71601      5.67785     14.55631        -0.001816     -0.000003     -0.001121
      1.98391      5.67786     16.94636        -0.004251     -0.000008     -0.002145
      9.27790      5.67786     15.98841        -0.002118     -0.000020     -0.000813
      0.52244      3.78707     15.42841        -0.001297      0.000228     -0.002203
      9.35710      3.76974     17.98527         0.000192      0.000815     -0.001270
      7.11809      3.75244     16.88274        -0.000255     -0.000631      0.001019
      4.15174      3.78693     16.02032        -0.001880      0.000742     -0.000716
      5.64377      5.67786     15.45351        -0.001458      0.000016     -0.005174
      4.23111      5.67785     18.08914        -0.002651      0.000001      0.005107
      3.54030      5.67785     20.45362        -0.000755     -0.000006      0.000537
      0.52855      5.67786     19.73656         0.001170     -0.000045     -0.002673
      1.98577      3.78984     18.99900        -0.002810      0.000358     -0.001351
      8.63009      3.85810     20.36066        -0.004364      0.000014      0.001546
      5.68594      3.76588     19.73140         0.000282     -0.000710     -0.003045
      7.08892      5.67786     18.82668        -0.001393     -0.000088     -0.002930
    total drift:                               -0.008955     -0.000222     -0.041047

  FREE ENERGIE OF THE ION-ELECTRON SYSTEM (eV)
  free  energy   TOTEN  =     -1640.93243352 eV

  energy  without entropy=    -1640.93243352  energy(sigma->0) =    -1640.93243352