 vasp.6.3.0 20Jan22 (build Apr  1 2022 16:44:48) complex
 executed on        HPECrayEX_GCC date 2022.11.01  20:44:52

 INCAR:
   SYSTEM = MgO-rocksalt
   ISMEAR = 0
   SIGMA = 0.05
   EDIFF = 1E-7
   ALGO = ALL
   ISTART = 0
   IBRION = 2
   NSW = 1000
   ISYM = 0
   ISIF = 2
   EDIFFG = -0.01
   DIPOL = 0.5 0.5 0.5
   IDIPOL = 3
   LDIPOL = .TRUE.
   GGA = PE
   IVDW = 1
   VDW_C6 = 1.75 0.70 0.14 0.63 0.70
   VDW_R0 = 1.452 1.342 1.001 1.243 1.342
   ENCUT = 600
   PREC = Accurate
   LASPH = .TRUE.
   LREAL = .FALSE.
   ISPIN = 1
   NELM = 200
   NELMIN = 8
   NCORE = 8
   KPAR = 1
   LWAVE = .FALSE.
   LCHARG = .FALSE.

 POTCAR:    PAW_PBE C 08Apr2002
 POTCAR:    PAW_PBE O 08Apr2002
 POTCAR:    PAW_PBE H 15Jun2001
 POTCAR:    PAW_PBE Mg_pv 13Apr2007
 POTCAR:    PAW_PBE O 08Apr2002
 POTCAR:    PAW_PBE C 08Apr2002
   VRHFIN =C: s2p2

   TITEL  = PAW_PBE C 08Apr2002
   POMASS =   12.011; ZVAL   =    4.000    mass and valenz
   ENMAX  =  400.000; ENMIN  =  300.000 eV

[...]

   TITEL  = PAW_PBE H 15Jun2001
   POMASS =    1.000; ZVAL   =    1.000    mass and valenz
   ENMAX  =  250.000; ENMIN  =  200.000 eV

   TITEL  = PAW_PBE Mg_pv 13Apr2007
   POMASS =   24.305; ZVAL   =    8.000    mass and valenz
   ENMAX  =  403.929; ENMIN  =  302.947 eV

   TITEL  = PAW_PBE O 08Apr2002
   POMASS =   16.000; ZVAL   =    6.000    mass and valenz
   ENMAX  =  400.000; ENMIN  =  300.000 eV

  PAW_PBE C 08Apr2002                   :
  PAW_PBE O 08Apr2002                   :
  PAW_PBE H 15Jun2001                   :
  PAW_PBE Mg_pv 13Apr2007               :
  PAW_PBE O 08Apr2002                   :

 POSCAR:  C  O  H Mg  O
  positions in direct lattice
 exchange correlation table for  LEXCH =        8
   RHO(1)=    0.500       N(1)  =     2000
   RHO(2)=  100.500       N(2)  =     4000

 ion  position               nearest neighbor table
   1  0.500  0.454  0.772-   3 1.10   5 1.10   6 1.10   2 1.43
   2  0.500  0.285  0.772-   4 0.97   1 1.43
   3  0.500  0.491  0.821-   1 1.10
   4  0.500  0.250  0.729-   2 0.97
   5  0.606  0.503  0.749-   1 1.10
   6  0.394  0.503  0.749-   1 1.10
   7  0.250  0.000  0.351-  39 2.12  41 2.12  42 2.12  49 2.12  58 2.12
   8  0.500  0.250  0.351-  40 2.12  41 2.12  42 2.12  50 2.12  57 2.12
   9  0.250  0.250  0.450-  41 2.12  40 2.12  39 2.12  47 2.12  56 2.12  45 2.12
  10  0.500  0.000  0.450-  42 2.12  40 2.12  39 2.12  48 2.12  55 2.12  46 2.12
  11  0.250  0.000  0.550-  45 2.12  46 2.12  53 2.12  62 2.12  39 2.13  43 2.15
  12  0.500  0.250  0.550-  45 2.12  46 2.12  54 2.12  61 2.12  40 2.13  44 2.15
  13  0.250  0.250  0.649-  45 2.11  44 2.12  43 2.12  51 2.12  60 2.12
  14  0.500  0.000  0.649-  46 2.11  44 2.12  43 2.12  52 2.12  59 2.12
  15  0.250  0.500  0.351-  47 2.12  41 2.12  49 2.12  50 2.12  66 2.12
  16  0.500  0.750  0.351-  48 2.12  42 2.12  49 2.12  50 2.12  65 2.12
  17  0.250  0.750  0.450-  49 2.12  47 2.12  48 2.12  39 2.12  64 2.12  53 2.12
  18  0.500  0.500  0.450-  50 2.12  47 2.12  48 2.12  40 2.12  63 2.12  54 2.12
  19  0.250  0.500  0.550-  45 2.12  53 2.12  54 2.12  70 2.12  47 2.13  51 2.15
  20  0.500  0.750  0.550-  46 2.12  53 2.12  54 2.12  69 2.12  48 2.13  52 2.15
  21  0.250  0.750  0.649-  53 2.11  51 2.12  52 2.12  43 2.12  68 2.12
  22  0.500  0.500  0.649-  54 2.11  51 2.12  52 2.12  44 2.12  67 2.12
  23  0.750  0.000  0.351-  55 2.12  42 2.12  57 2.12  58 2.12  65 2.12
  24  0.000  0.250  0.351-  56 2.12  41 2.12  57 2.12  58 2.12  66 2.12
  25  0.750  0.250  0.450-  57 2.12  55 2.12  56 2.12  40 2.12  63 2.12  61 2.12
  26  0.000  0.000  0.450-  58 2.12  55 2.12  56 2.12  39 2.12  64 2.12  62 2.12
  27  0.750  0.000  0.550-  46 2.12  61 2.12  62 2.12  69 2.12  55 2.13  59 2.15
  28  0.000  0.250  0.550-  45 2.12  61 2.12  62 2.12  70 2.12  56 2.13  60 2.15
  29  0.750  0.250  0.649-  61 2.11  59 2.12  60 2.12  44 2.12  67 2.12
  30  0.000  0.000  0.649-  62 2.11  59 2.12  60 2.12  43 2.12  68 2.12
  31  0.750  0.500  0.351-  63 2.12  57 2.12  50 2.12  65 2.12  66 2.12
  32  0.000  0.750  0.351-  64 2.12  58 2.12  49 2.12  65 2.12  66 2.12
  33  0.750  0.750  0.450-  65 2.12  55 2.12  63 2.12  64 2.12  48 2.12  69 2.12
  34  0.000  0.500  0.450-  66 2.12  56 2.12  63 2.12  64 2.12  47 2.12  70 2.12
  35  0.750  0.500  0.550-  54 2.12  61 2.12  69 2.12  70 2.12  63 2.13  67 2.15
  36  0.000  0.750  0.550-  53 2.12  62 2.12  69 2.12  70 2.12  64 2.13  68 2.15
  37  0.750  0.750  0.649-  69 2.11  59 2.12  67 2.12  68 2.12  52 2.12
  38  0.000  0.500  0.649-  70 2.11  60 2.12  67 2.12  68 2.12  51 2.12
  39  0.250  0.000  0.450-   7 2.12   9 2.12  10 2.12  17 2.12  26 2.12  11 2.13
  40  0.500  0.250  0.450-   8 2.12   9 2.12  10 2.12  18 2.12  25 2.12  12 2.13
  41  0.250  0.250  0.351-   9 2.12   8 2.12   7 2.12  15 2.12  24 2.12
  42  0.500  0.000  0.351-  10 2.12   8 2.12   7 2.12  16 2.12  23 2.12
  43  0.250  0.000  0.651-  13 2.12  14 2.12  21 2.12  30 2.12  11 2.15
  44  0.500  0.250  0.651-  13 2.12  14 2.12  22 2.12  29 2.12  12 2.15
  45  0.250  0.250  0.550-  13 2.11  12 2.12  11 2.12  19 2.12  28 2.12   9 2.12
  46  0.500  0.000  0.550-  14 2.11  12 2.12  11 2.12  20 2.12  27 2.12  10 2.12
  47  0.250  0.500  0.450-  15 2.12   9 2.12  17 2.12  18 2.12  34 2.12  19 2.13
  48  0.500  0.750  0.450-  16 2.12  10 2.12  17 2.12  18 2.12  33 2.12  20 2.13
  49  0.250  0.750  0.351-  17 2.12  15 2.12  16 2.12   7 2.12  32 2.12
  50  0.500  0.500  0.351-  18 2.12  15 2.12  16 2.12   8 2.12  31 2.12
  51  0.250  0.500  0.651-  13 2.12  21 2.12  22 2.12  38 2.12  19 2.15
  52  0.500  0.750  0.651-  14 2.12  21 2.12  22 2.12  37 2.12  20 2.15
  53  0.250  0.750  0.550-  21 2.11  19 2.12  20 2.12  11 2.12  36 2.12  17 2.12
  54  0.500  0.500  0.550-  22 2.11  19 2.12  20 2.12  12 2.12  35 2.12  18 2.12
  55  0.750  0.000  0.450-  23 2.12  10 2.12  25 2.12  26 2.12  33 2.12  27 2.13
  56  0.000  0.250  0.450-  24 2.12   9 2.12  25 2.12  26 2.12  34 2.12  28 2.13
  57  0.750  0.250  0.351-  25 2.12  23 2.12  24 2.12   8 2.12  31 2.12
  58  0.000  0.000  0.351-  26 2.12  23 2.12  24 2.12   7 2.12  32 2.12
  59  0.750  0.000  0.651-  14 2.12  29 2.12  30 2.12  37 2.12  27 2.15
  60  0.000  0.250  0.651-  13 2.12  29 2.12  30 2.12  38 2.12  28 2.15
  61  0.750  0.250  0.550-  29 2.11  27 2.12  28 2.12  12 2.12  35 2.12  25 2.12
  62  0.000  0.000  0.550-  30 2.11  27 2.12  28 2.12  11 2.12  36 2.12  26 2.12
  63  0.750  0.500  0.450-  31 2.12  25 2.12  18 2.12  33 2.12  34 2.12  35 2.13
  64  0.000  0.750  0.450-  32 2.12  26 2.12  17 2.12  33 2.12  34 2.12  36 2.13
  65  0.750  0.750  0.351-  33 2.12  23 2.12  31 2.12  32 2.12  16 2.12
  66  0.000  0.500  0.351-  34 2.12  24 2.12  31 2.12  32 2.12  15 2.12
  67  0.750  0.500  0.651-  22 2.12  29 2.12  37 2.12  38 2.12  35 2.15
  68  0.000  0.750  0.651-  21 2.12  30 2.12  37 2.12  38 2.12  36 2.15
  69  0.750  0.750  0.550-  37 2.11  27 2.12  35 2.12  36 2.12  20 2.12  33 2.12
  70  0.000  0.500  0.550-  38 2.11  28 2.12  35 2.12  36 2.12  19 2.12  34 2.12

IMPORTANT INFORMATION: All symmetrisations will be switched off!
NOSYMM: (Re-)initialisation of all symmetry stuff for point group C_1.

                                     Primitive cell

  volume of cell :    1530.6606

  direct lattice vectors                    reciprocal lattice vectors
     8.467142631  0.000000000  0.000000000     0.118103597  0.000000000  0.000000000
     0.000000000  8.467142631  0.000000000     0.000000000  0.118103597  0.000000000
     0.000000000  0.000000000 21.350356973     0.000000000  0.000000000  0.046837624

  length of vectors
     8.467142631  8.467142631 21.350356973     0.118103597  0.118103597  0.046837624

  position of ions in fractional coordinates (direct lattice)
     0.500000087  0.454073216  0.772157869
     0.499999969  0.284882026  0.771868897
     0.499999977  0.490638986  0.821480463
     0.500000000  0.250000000  0.728536019
     0.606197296  0.503326337  0.749339937
     0.393802589  0.503326374  0.749339919
     0.250000000  0.000000000  0.351282183
     0.500000000  0.250000000  0.351282183
     0.250000000  0.250000000  0.450427394
     0.500000000  0.000000000  0.450427394
     0.250000000  0.000000000  0.550191116
     0.500000000  0.250000000  0.550191116
     0.250000000  0.250000000  0.648532086
     0.500000000  0.000000000  0.648532086
     0.250000000  0.500000000  0.351282183
     0.500000000  0.750000000  0.351282183
     0.250000000  0.750000000  0.450427394
     0.500000000  0.500000000  0.450427394
     0.250000000  0.500000000  0.550191116
     0.500000000  0.750000000  0.550191116
     0.250000000  0.750000000  0.648532086
     0.500000000  0.500000000  0.648532086
     0.750000000  0.000000000  0.351282183
     0.000000000  0.250000000  0.351282183
     0.750000000  0.250000000  0.450427394
     0.000000000  0.000000000  0.450427394
     0.750000000  0.000000000  0.550191116
     0.000000000  0.250000000  0.550191116
     0.750000000  0.250000000  0.648532086
     0.000000000  0.000000000  0.648532086
     0.750000000  0.500000000  0.351282183
     0.000000000  0.750000000  0.351282183
     0.750000000  0.750000000  0.450427394
     0.000000000  0.500000000  0.450427394
     0.750000000  0.500000000  0.550191116
     0.000000000  0.750000000  0.550191116
     0.750000000  0.750000000  0.648532086
     0.000000000  0.500000000  0.648532086
     0.250000000  0.000000000  0.450427394
     0.500000000  0.250000000  0.450427394
     0.250000000  0.250000000  0.351282183
     0.500000000  0.000000000  0.351282183
     0.250000000  0.000000000  0.650785562
     0.500000000  0.250000000  0.650785562
     0.250000000  0.250000000  0.549814593
     0.500000000  0.000000000  0.549814593
     0.250000000  0.500000000  0.450427394
     0.500000000  0.750000000  0.450427394
     0.250000000  0.750000000  0.351282183
     0.500000000  0.500000000  0.351282183
     0.250000000  0.500000000  0.650785562
     0.500000000  0.750000000  0.650785562
     0.250000000  0.750000000  0.549814593
     0.500000000  0.500000000  0.549814593
     0.750000000  0.000000000  0.450427394
     0.000000000  0.250000000  0.450427394
     0.750000000  0.250000000  0.351282183
     0.000000000  0.000000000  0.351282183
     0.750000000  0.000000000  0.650785562
     0.000000000  0.250000000  0.650785562
     0.750000000  0.250000000  0.549814593
     0.000000000  0.000000000  0.549814593
     0.750000000  0.500000000  0.450427394
     0.000000000  0.750000000  0.450427394
     0.750000000  0.750000000  0.351282183
     0.000000000  0.500000000  0.351282183
     0.750000000  0.500000000  0.650785562
     0.000000000  0.750000000  0.650785562
     0.750000000  0.750000000  0.549814593
     0.000000000  0.500000000  0.549814593

  ion indices of the primitive-cell ions
   primitive index   ion index
                 1           1
                 2           2
                 3           3
                 4           4
                 5           5
                 6           6
                 7           7
                 8           8
                 9           9
                10          10
                11          11
                12          12
[...]
   4.23357132  6.35035697  9.61678566
   2.11678566  6.35035697  7.50000000
   4.23357132  4.23357132  7.50000000
   2.11678566  4.23357132 13.89450407
   4.23357132  6.35035697 13.89450407
   2.11678566  6.35035697 11.73873783
   4.23357132  4.23357132 11.73873783
   6.35035697  0.00000000  9.61678566
   0.00000000  2.11678566  9.61678566
   6.35035697  2.11678566  7.50000000
   0.00000000  0.00000000  7.50000000
   6.35035697  0.00000000 13.89450407
   0.00000000  2.11678566 13.89450407
   6.35035697  2.11678566 11.73873783
   0.00000000  0.00000000 11.73873783
   6.35035697  4.23357132  9.61678566
   0.00000000  6.35035697  9.61678566
   6.35035697  6.35035697  7.50000000
   0.00000000  4.23357132  7.50000000
   6.35035697  4.23357132 13.89450407
   0.00000000  6.35035697 13.89450407
   6.35035697  6.35035697 11.73873783
   0.00000000  4.23357132 11.73873783

--------------------------------------- Iteration      FINAL  ---------------------------------------

--------------------OUTCAR has been truncated-------------------------

[...]

--------------------OUTCAR has been truncated-------------------------

  Number of pair interactions contributing to vdW energy:  857449
  Edisp (eV):   -3.77165

  FORCE on cell =-STRESS in cart. coord.  units (eV):
  Direction    XX          YY          ZZ          XY          YZ          ZX
  Alpha Z   912.34846   912.34846   912.34846
  Ewald  156509.84316156798.32300************     0.01876    70.44175    -0.00472
  Hartree166892.49824167064.93213************     0.00561    34.97327     0.00112
  E(xc)   -2513.60470 -2513.18327 -2517.84973     0.00002     0.13964    -0.00000
  Local  ************************333031.04027    -0.02067   -98.69715     0.00124
  n-local -2853.79177 -2850.46158 -2874.31768    -0.00002     0.90661     0.00025
  augment  1055.80514  1053.97090  1045.32566    -0.00015    -0.51031     0.00001
  Kinetic  7546.62232  7524.27340  7566.72179    -0.00177    -7.36474     0.00041
  Fock        0.00000     0.00000     0.00000     0.00000     0.00000     0.00000
  vdW        -5.34943    -5.37556    -4.66069    -0.00000    -0.01215     0.00001
  Total     -29.09547   -29.02129    -2.80125     0.00178    -0.12307    -0.00168
  in kB     -30.45489   -30.37725    -2.93214     0.00186    -0.12883    -0.00176

 VOLUME and BASIS-vectors are now :
  energy-cutoff  :      600.00
  volume of cell :     1530.66
      direct lattice vectors                 reciprocal lattice vectors
     8.467142631  0.000000000  0.000000000     0.118103597  0.000000000  0.000000000
     0.000000000  8.467142631  0.000000000     0.000000000  0.118103597  0.000000000
     0.000000000  0.000000000 21.350356973     0.000000000  0.000000000  0.046837624

  length of vectors
     8.467142631  8.467142631 21.350356973     0.118103597  0.118103597  0.046837624

 FORCES acting on ions:
    Electron-Ion                     Ewald-Force                    Non-Local-Force
   -.462E-02 -.121E+03 -.978E+03   0.232E-02 0.126E+03 0.979E+03   -.323E-02 -.476E+01 -.144E+01
   0.805E-02 0.167E+03 -.152E+04   -.112E-01 -.200E+03 0.155E+04   0.363E-02 0.330E+02 -.285E+02
   0.322E-02 -.197E+02 -.246E+03   -.345E-02 0.205E+02 0.251E+03   0.505E-03 -.812E+00 -.561E+01
   -.359E-03 0.245E+02 -.213E+03   0.429E-03 -.257E+02 0.206E+03   -.572E-04 0.117E+01 0.718E+01
   -.486E+02 -.372E+02 -.239E+03   0.530E+02 0.396E+02 0.238E+03   -.445E+01 -.242E+01 0.191E+01
   0.486E+02 -.372E+02 -.239E+03   -.530E+02 0.396E+02 0.238E+03   0.445E+01 -.242E+01 0.191E+01
   0.260E+00 0.122E+00 0.207E+04   -.262E+00 -.123E+00 -.207E+04   0.165E-02 0.452E-03 -.703E+01
   0.551E-05 0.149E+00 0.207E+04   -.579E-05 -.148E+00 -.207E+04   0.200E-06 -.505E-03 -.702E+01
   0.139E+01 0.607E+00 0.727E+03   -.137E+01 -.600E+00 -.728E+03   -.145E-01 -.456E-02 0.555E+00
   0.171E-04 0.758E+00 0.727E+03   -.186E-04 -.726E+00 -.728E+03   0.118E-05 -.235E-01 0.529E+00
   0.515E+01 0.354E+01 -.612E+03   -.516E+01 -.352E+01 0.612E+03   0.169E-01 -.145E-01 -.517E+00
   0.789E-04 0.422E+01 -.601E+03   -.936E-04 -.422E+01 0.601E+03   0.115E-04 0.263E-02 0.591E+00
   0.389E+02 0.166E+02 -.192E+04   -.399E+02 -.167E+02 0.192E+04   0.975E+00 0.106E+00 0.615E+01
   -.305E-04 0.252E+02 -.193E+04   0.324E-04 -.262E+02 0.193E+04   -.129E-05 0.100E+01 0.619E+01
   0.273E+00 -.123E+00 0.207E+04   -.275E+00 0.124E+00 -.207E+04   0.142E-02 -.522E-03 -.703E+01
   0.581E-05 -.147E+00 0.207E+04   -.605E-05 0.147E+00 -.207E+04   0.164E-06 -.596E-04 -.701E+01
   0.111E+01 -.592E+00 0.727E+03   -.114E+01 0.587E+00 -.727E+03   0.200E-01 0.362E-02 0.441E+00
   0.322E-04 -.760E+00 0.728E+03   -.320E-04 0.741E+00 -.729E+03   -.153E-06 0.154E-01 0.571E+00
   0.689E+01 -.359E+01 -.606E+03   -.692E+01 0.358E+01 0.606E+03   0.258E-01 0.143E-01 -.453E+00
   0.602E-04 -.419E+01 -.604E+03   -.688E-04 0.419E+01 0.605E+03   0.602E-05 -.795E-02 -.388E+00
   0.201E+02 -.146E+02 -.196E+04   -.202E+02 0.147E+02 0.195E+04   0.178E+00 -.106E+00 0.613E+01
   0.536E-03 -.312E+02 -.187E+04   -.710E-03 0.324E+02 0.186E+04   0.107E-03 -.122E+01 0.610E+01
   -.260E+00 0.122E+00 0.207E+04   0.262E+00 -.123E+00 -.207E+04   -.165E-02 0.452E-03 -.703E+01
   -.523E-05 0.134E+00 0.207E+04   0.566E-05 -.135E+00 -.207E+04   -.311E-06 0.569E-04 -.702E+01
   -.139E+01 0.607E+00 0.727E+03   0.137E+01 -.600E+00 -.728E+03   0.145E-01 -.456E-02 0.555E+00
   -.134E-04 0.486E+00 0.726E+03   0.168E-04 -.505E+00 -.726E+03   -.239E-05 0.139E-01 0.439E+00
   -.515E+01 0.354E+01 -.612E+03   0.516E+01 -.352E+01 0.612E+03   -.169E-01 -.145E-01 -.517E+00
   -.476E-04 0.244E+01 -.610E+03   0.616E-04 -.244E+01 0.611E+03   -.120E-04 0.376E-02 -.405E+00
   -.389E+02 0.166E+02 -.192E+04   0.399E+02 -.167E+02 0.192E+04   -.975E+00 0.106E+00 0.615E+01
   0.211E-04 0.992E+01 -.197E+04   -.192E-04 -.100E+02 0.197E+04   -.115E-05 0.116E+00 0.611E+01
   -.273E+00 -.123E+00 0.207E+04   0.275E+00 0.124E+00 -.207E+04   -.142E-02 -.522E-03 -.703E+01
   -.572E-05 -.134E+00 0.207E+04   0.607E-05 0.134E+00 -.207E+04   -.254E-06 -.610E-04 -.704E+01
   -.111E+01 -.592E+00 0.727E+03   0.114E+01 0.587E+00 -.727E+03   -.200E-01 0.362E-02 0.441E+00
   -.291E-04 -.493E+00 0.727E+03   0.312E-04 0.512E+00 -.727E+03   -.131E-05 -.139E-01 0.449E+00
   -.689E+01 -.359E+01 -.606E+03   0.692E+01 0.358E+01 0.606E+03   -.258E-01 0.143E-01 -.453E+00
   -.626E-04 -.235E+01 -.617E+03   0.705E-04 0.236E+01 0.617E+03   -.575E-05 -.109E-01 -.330E+00
   -.201E+02 -.146E+02 -.196E+04   0.202E+02 0.147E+02 0.195E+04   -.178E+00 -.107E+00 0.613E+01
   -.415E-03 -.103E+02 -.196E+04   0.502E-03 0.104E+02 0.195E+04   -.591E-04 -.122E+00 0.611E+01
   0.767E+00 0.375E+00 0.544E+03   -.781E+00 -.393E+00 -.544E+03   0.202E-01 0.259E-01 -.116E+00
   0.178E-04 0.497E+00 0.546E+03   -.201E-04 -.510E+00 -.546E+03   0.309E-05 0.170E-01 -.698E-01
   0.213E+00 0.106E+00 0.156E+04   -.213E+00 -.106E+00 -.156E+04   0.112E-03 -.491E-03 0.350E+01
   0.337E-05 0.103E+00 0.156E+04   -.386E-05 -.103E+00 -.156E+04   0.676E-06 -.139E-02 0.350E+01
   0.167E+02 0.139E+02 -.149E+04   -.167E+02 -.139E+02 0.149E+04   -.215E-01 -.266E-01 -.522E+01
   0.102E-03 0.243E+02 -.140E+04   -.128E-03 -.244E+02 0.140E+04   0.356E-04 0.735E-01 -.186E+01
   0.475E+01 0.245E+01 -.450E+03   -.481E+01 -.245E+01 0.449E+03   0.577E-01 0.433E-02 0.295E+00
   0.561E-05 0.269E+01 -.450E+03   -.651E-05 -.273E+01 0.450E+03   0.208E-05 0.437E-01 0.345E+00
   0.845E+00 -.375E+00 0.545E+03   -.862E+00 0.392E+00 -.545E+03   0.252E-01 -.236E-01 -.126E+00
   0.195E-04 -.460E+00 0.546E+03   -.222E-04 0.456E+00 -.545E+03   0.361E-05 0.437E-02 -.349E-01
   0.192E+00 -.106E+00 0.156E+04   -.197E+00 0.106E+00 -.156E+04   0.663E-02 0.513E-03 0.349E+01
   0.460E-05 -.105E+00 0.156E+04   -.497E-05 0.103E+00 -.156E+04   0.510E-06 0.224E-02 0.350E+01
   0.313E+02 -.154E+02 -.146E+04   -.312E+02 0.153E+02 0.147E+04   -.548E-01 0.381E-01 -.520E+01
   0.631E-04 -.193E+02 -.147E+04   -.123E-03 0.193E+02 0.148E+04   0.815E-04 -.370E-01 -.520E+01
   0.412E+01 -.238E+01 -.453E+03   -.412E+01 0.238E+01 0.453E+03   0.267E-02 -.185E-03 0.284E+00
   0.122E-03 -.273E+01 -.444E+03   -.139E-03 0.278E+01 0.443E+03   0.230E-04 -.545E-01 0.362E+00
   -.767E+00 0.375E+00 0.544E+03   0.781E+00 -.393E+00 -.544E+03   -.202E-01 0.259E-01 -.116E+00
   -.102E-04 0.396E+00 0.544E+03   0.948E-05 -.396E+00 -.544E+03   0.847E-06 -.370E-04 -.560E-01
   -.213E+00 0.106E+00 0.156E+04   0.213E+00 -.106E+00 -.156E+04   -.111E-03 -.491E-03 0.350E+01
   -.346E-05 0.835E-01 0.156E+04   0.388E-05 -.868E-01 -.156E+04   -.571E-06 0.467E-02 0.349E+01
   -.167E+02 0.139E+02 -.149E+04   0.167E+02 -.139E+02 0.149E+04   0.215E-01 -.266E-01 -.522E+01
   -.489E-04 0.650E+01 -.149E+04   0.721E-04 -.648E+01 0.149E+04   -.341E-04 -.106E-01 -.515E+01
   -.475E+01 0.245E+01 -.450E+03   0.481E+01 -.245E+01 0.449E+03   -.577E-01 0.435E-02 0.295E+00
   -.150E-04 0.224E+01 -.456E+03   0.183E-04 -.226E+01 0.456E+03   -.472E-05 0.176E-01 0.243E+00
   -.845E+00 -.375E+00 0.545E+03   0.862E+00 0.392E+00 -.545E+03   -.251E-01 -.236E-01 -.126E+00
   -.162E-04 -.387E+00 0.544E+03   0.165E-04 0.387E+00 -.544E+03   -.424E-06 0.252E-03 -.104E+00
   -.192E+00 -.106E+00 0.156E+04   0.197E+00 0.106E+00 -.156E+04   -.663E-02 0.513E-03 0.349E+01
   -.476E-05 -.837E-01 0.156E+04   0.503E-05 0.871E-01 -.156E+04   -.379E-06 -.468E-02 0.349E+01
   -.313E+02 -.154E+02 -.146E+04   0.312E+02 0.153E+02 0.147E+04   0.547E-01 0.381E-01 -.520E+01
   -.388E-04 -.625E+01 -.150E+04   0.655E-04 0.623E+01 0.150E+04   -.381E-04 0.232E-01 -.515E+01
   -.412E+01 -.238E+01 -.453E+03   0.412E+01 0.238E+01 0.453E+03   -.267E-02 -.204E-03 0.284E+00
   -.117E-03 -.229E+01 -.453E+03   0.136E-03 0.231E+01 0.453E+03   -.262E-04 -.132E-01 0.285E+00
   0.135E-02 -.236E+02 0.388E+02   -.483E-12 0.327E-12 0.125E-11   -.135E-02 0.236E+02 -.388E+02

 POSITION                                       TOTAL-FORCE (eV/Angst)
      4.23364      3.74935     16.86600        -0.005493     -0.001382      0.005001
      4.23356      2.34585     16.61896         0.000446     -0.002653      0.003557
      4.23356      3.90771     17.95337         0.000277     -0.003866     -0.005039
      4.23357      2.22229     15.62537         0.000012     -0.005170     -0.008332
      5.13612      4.24667     16.45353         0.003003     -0.004813     -0.003565
      3.33095      4.24671     16.45350         0.001804     -0.006776     -0.001668
      2.11679      0.00000      7.50000        -0.000692     -0.000281      0.394217
      4.23357      2.11679      7.50000        -0.000000      0.000134      0.392433
      2.11679      2.11679      9.61679         0.003482      0.001689      0.027744
      4.23357      0.00000      9.61679        -0.000000      0.007878      0.024474
      2.11649      0.00088     11.74719        -0.002508     -0.001858      0.002020
      4.23357      2.11796     11.74508        -0.000003      0.000093     -0.005094
      2.09645      2.11428     13.85425        -0.004798      0.002433      0.000407
      4.23357     -0.01995     13.84803         0.000001     -0.005663      0.000447
      2.11679      4.23357      7.50000        -0.000631      0.000283      0.394702
      4.23357      6.35036      7.50000        -0.000000      0.000044      0.390640
      2.11679      6.35036      9.61679        -0.007603     -0.001396      0.026931
      4.23357      4.23357      9.61679         0.000000     -0.003305      0.027467
      2.11623      4.23319     11.74846        -0.000059      0.002191     -0.000289
      4.23357      6.35162     11.74304        -0.000003     -0.000610      0.003086
      2.11193      6.35330     13.84625         0.004466     -0.001664      0.000918
      4.23357      4.26269     13.85043        -0.000067      0.004988     -0.001246
      6.35036      0.00000      7.50000         0.000692     -0.000281      0.394216
      0.00000      2.11679      7.50000         0.000000     -0.000009      0.391455
      6.35036      2.11679      9.61679        -0.003482      0.001690      0.027742
      0.00000      0.00000      9.61679         0.000001     -0.005236      0.026682
      6.35066      0.00088     11.74719         0.002508     -0.001858      0.002020
      0.00000      2.11671     11.74493         0.000002      0.000063      0.003991
      6.37070      2.11428     13.85425         0.004802      0.002398      0.000388
      0.00000     -0.00326     13.84899         0.000001      0.004034      0.001121
      6.35036      4.23357      7.50000         0.000631      0.000283      0.394701
      0.00000      6.35036      7.50000         0.000000      0.000016      0.396225
      6.35036      6.35036      9.61679         0.007603     -0.001396      0.026929
      0.00000      4.23357      9.61679         0.000001      0.005264      0.027794
      6.35091      4.23319     11.74846         0.000058      0.002190     -0.000313
      0.00000      6.35065     11.74439         0.000002      0.000152      0.001193
      6.35521      6.35330     13.84625        -0.004457     -0.001628      0.000879
     -0.00000      4.23696     13.84755         0.000028     -0.002118     -0.001440
      2.11679      0.00000      9.61679         0.006332      0.007593      0.055175
      4.23357      2.11679      9.61679         0.000001      0.004730      0.057734
      2.11679      2.11679      7.50000         0.000005     -0.000143     -0.475246
      4.23357      0.00000      7.50000         0.000000     -0.000405     -0.474796
      2.11776      0.00073     13.88508         0.002909      0.002513      0.000929
      4.23357      2.11632     13.91778         0.000011      0.001009      0.002084
      2.12069      2.11749     11.74292         0.002861      0.000106     -0.001456
      4.23357      0.00473     11.74094         0.000001      0.002782     -0.001479
      2.11679      4.23357      9.61679         0.008078     -0.007035      0.057994
      4.23357      6.35036      9.61679         0.000001      0.000456      0.060237
      2.11679      6.35036      7.50000         0.001868      0.000158     -0.476556
      4.23357      4.23357      7.50000         0.000000      0.000671     -0.475136
      2.11665      4.23322     13.89003         0.003556     -0.001605      0.000221
      4.23357      6.35342     13.88449         0.000022      0.000584     -0.001956
      2.11753      6.35013     11.73709        -0.001460      0.000621     -0.001864
      4.23357      4.23086     11.74337         0.000007     -0.004106     -0.002742
      6.35036      0.00000      9.61679        -0.006331      0.007593      0.055176
      0.00000      2.11679      9.61679         0.000000      0.000134      0.063056
      6.35036      2.11679      7.50000        -0.000005     -0.000143     -0.475246
      0.00000      0.00000      7.50000        -0.000000      0.001320     -0.476743
      6.34938      0.00073     13.88508        -0.002907      0.002511      0.000932
      0.00000      2.11659     13.88678        -0.000011      0.002834      0.001940
      6.34646      2.11749     11.74292        -0.002862      0.000111     -0.001448
      0.00000      0.00084     11.73714        -0.000001      0.000807     -0.002093
      6.35036      4.23357      9.61679        -0.008077     -0.007035      0.057995
      0.00000      6.35036      9.61679        -0.000000     -0.000199      0.044806
      6.35036      6.35036      7.50000        -0.001868      0.000158     -0.476556
      0.00000      4.23357      7.50000        -0.000000     -0.001313     -0.476968
      6.35049      4.23322     13.89003        -0.003593     -0.001599      0.000293
      0.00000      6.35061     13.88861        -0.000011      0.000485      0.001620
      6.34961      6.35013     11.73709         0.001460      0.000617     -0.001859
      0.00000      4.23276     11.73753        -0.000007      0.001933     -0.000439
    total drift:                                0.000002     -0.000205      0.007454

  FREE ENERGIE OF THE ION-ELECTRON SYSTEM (eV)
  free  energy   TOTEN  =      -406.33730540 eV

  energy  without entropy=     -406.33730540  energy(sigma->0) =     -406.33730540

 d Force = 0.1732617E-04[ 0.130E-04, 0.217E-04]  d Energy = 0.1880918E-04-0.148E-05
 d Force = 0.5309780E+01[ 0.531E+01, 0.531E+01]  d Ewald  = 0.5309780E+01-0.128E-08

 Conjugate gradient step on ions:
 trial-energy change:   -0.000019  1 .order   -0.000017   -0.000022   -0.000013
  (g-gl).g = 0.763E-04      g.g   = 0.457E-04  gl.gl    = 0.116E-03
 g(Force)  = 0.457E-04   g(Stress)= 0.000E+00 ortho     =-0.155E-05
 gamma     =   0.65987
 trial     =   0.48576
 opt step  =   0.76348  (harmonic =   1.20963) maximal distance =0.00081504
 next E    =  -406.337309   (d E  =  -0.00002)

 reached required accuracy - stopping structural energy minimisation