 vasp.6.3.0 20Jan22 (build Apr  1 2022 16:44:48) complex
 executed on        HPECrayEX_GCC date 2023.04.05  15:32:35

 INCAR:
   SYSTEM = MgO-rocksalt
   ISMEAR = 0
   SIGMA = 0.05
   EDIFF = 1E-7
   ALGO = ALL
   ISTART = 0
   IBRION = 2
   NSW = 1000
   ISYM = 2
   ISIF = 3
   EDIFFG = -0.005
   GGA = PE
   IVDW = 21
   LDAU = .TRUE.
   LDAUTYPE = 2
   LDAUL = 2 -1
   LDAUU = 4.2 0.0
   LDAUPRINT = 1
   LMAXMIX = 4
   ENCUT = 600
   PREC = Accurate
   LASPH = .TRUE.
   LREAL = .FALSE.
   ISPIN = 1
   NELM = 200
   NELMIN = 8
   NCORE = 8
   KPAR = 1
   LWAVE = .FALSE.
   LCHARG = .FALSE.

 POTCAR:    PAW_PBE Ti_pv 07Sep2000
 POTCAR:    PAW_PBE O 08Apr2002
 POTCAR:    PAW_PBE Ti_pv 07Sep2000
   VRHFIN =Ti: d3 s1

   TITEL  = PAW_PBE Ti_pv 07Sep2000
   POMASS =   47.880; ZVAL   =   10.000    mass and valenz
   ENMAX  =  222.335; ENMIN  =  166.751 eV

   TITEL  = PAW_PBE O 08Apr2002
   POMASS =   16.000; ZVAL   =    6.000    mass and valenz
   ENMAX  =  400.000; ENMIN  =  300.000 eV

  PAW_PBE Ti_pv 07Sep2000               :
  PAW_PBE O 08Apr2002                   :

 POSCAR: Ti4 O8
  positions in direct lattice
  velocities in cartesian coordinates
 exchange correlation table for  LEXCH =        8
   RHO(1)=    0.500       N(1)  =     2000
   RHO(2)=  100.500       N(2)  =     4000

 ion  position               nearest neighbor table
   1  0.500  0.500  0.500-   5 1.97   7 1.97   7 1.97   5 1.97   6 2.01  12 2.01   2 3.09   2 3.09
                             4 3.09   4 3.09
   2  0.500  0.000  0.750-   6 1.97   8 1.97   6 1.97   8 1.97   7 2.01   9 2.01   1 3.09   1 3.09
                             3 3.09   3 3.09
   3  0.000  0.000  0.000-   9 1.97  11 1.97  11 1.97   9 1.97  10 2.01   8 2.01   4 3.09   2 3.09
                             2 3.09   4 3.09
   4  0.000  0.500  0.250-  10 1.97  12 1.97  10 1.97  12 1.97  11 2.01   5 2.01   3 3.09   1 3.09
                             1 3.09   3 3.09
   5  0.000  0.500  0.458-   1 1.97   1 1.97   4 2.01
   6  0.500  0.500  0.708-   2 1.97   2 1.97   1 2.01
   7  0.500  0.000  0.542-   1 1.97   1 1.97   2 2.01
   8  0.000  0.000  0.792-   2 1.97   2 1.97   3 2.01
   9  0.500  0.000  0.958-   3 1.97   3 1.97   2 2.01
  10  0.000  0.000  0.208-   4 1.97   4 1.97   3 2.01
  11  0.000  0.500  0.042-   3 1.97   3 1.97   4 2.01
  12  0.500  0.500  0.292-   4 1.97   4 1.97   1 2.01

  LATTYP: Found a simple tetragonal cell.
 ALAT       =     3.8589872820
 C/A-ratio  =     2.5073632821

  Lattice vectors:

 A1 = (   3.8589872820,   0.0000000000,   0.0000000000)
 A2 = (   0.0000000000,   3.8589872820,   0.0000000000)
 A3 = (   0.0000000000,   0.0000000000,   9.6758830170)

Analysis of symmetry for initial positions (statically):
 Subroutine PRICEL returns following result:

  LATTYP: Found a body centered tetragonal cell.
 ALAT       =     3.8589872820
 C/A-ratio  =     2.5073632821

[...]

   2 primitive cells build up your supercell.

 Routine SETGRP: Setting up the symmetry group for a
 simple tetragonal supercell.

 Subroutine GETGRP returns: Found 16 space group operations
 (whereof  8 operations were pure point group operations)
 out of a pool of 16 trial point group operations.

The static configuration has the point symmetry D_2d.
 The point group associated with its full space group is D_4h.

Analysis of symmetry for dynamics (positions and initial velocities):
 Subroutine PRICEL returns following result:

  LATTYP: Found a body centered tetragonal cell.
 ALAT       =     3.8589872820
 C/A-ratio  =     2.5073632821

  Lattice vectors:

 A1 = (  -1.9294936410,   1.9294936410,   4.8379415085)
 A2 = (   1.9294936410,  -1.9294936410,   4.8379415085)
 A3 = (   1.9294936410,   1.9294936410,  -4.8379415085)

   2 primitive cells build up your supercell.

 Routine SETGRP: Setting up the symmetry group for a
 simple tetragonal supercell.

 Subroutine GETGRP returns: Found 16 space group operations
 (whereof  8 operations were pure point group operations)
 out of a pool of 16 trial point group operations.

The dynamic configuration has the point symmetry D_2d.
 The point group associated with its full space group is D_4h.

 Subroutine INISYM returns: Found 16 space group operations
 (whereof  8 operations are pure point group operations),
 and found     2 'primitive' translations

                                     Primitive cell

  volume of cell :      72.0456

  direct lattice vectors                    reciprocal lattice vectors
    -1.929493641  1.929493641  4.837941509     0.000000000  0.259135345  0.103349741
     1.929493641 -1.929493641  4.837941509     0.259135345 -0.000000000  0.103349741
     1.929493641  1.929493641 -4.837941509     0.259135345  0.259135345  0.000000000

  length of vectors
     5.554418913  5.554418913  5.554418913     0.278984401  0.278984401  0.366472719

  position of ions in fractional coordinates (direct lattice)
     0.000000000  0.000000000  0.000000000
     0.750000000  0.250000000  0.500000000
     0.957918834  0.457918834  0.500000000
     0.207918834  0.207918834  0.000000000
     0.542081166  0.042081166  0.500000000
     0.792081166  0.792081166  0.000000000

  ion indices of the primitive-cell ions
   primitive index   ion index
                 1           1
                 2           2
                 3           5
                 4           6
                 5           7
                 6          12

 KPOINTS: pymatgen v2020.8.13 with grid density =

Automatic generation of k-mesh.
 Grid dimensions read from file:
 generate k-points for:    6    6    2

 Generating k-lattice:

  Cartesian coordinates                     Fractional coordinates (reciprocal lattice)
     0.043189224 -0.000000000  0.000000000     0.166666667  0.000000000  0.000000000
     0.000000000  0.043189224  0.000000000     0.000000000  0.166666667  0.000000000
    -0.000000000 -0.000000000  0.051674870    -0.000000000 -0.000000000  0.500000000

  Length of vectors
     0.043189224  0.043189224  0.051674870

  Shift w.r.t. Gamma in fractional coordinates (k-lattice)
     0.000000000  0.000000000  0.000000000

 Subroutine IBZKPT returns following result:

 Found     20 irreducible k-points:

 Following reciprocal coordinates:
            Coordinates               Weight
  0.000000  0.000000  0.000000      1.000000
  0.166667  0.000000  0.000000      4.000000
  0.333333  0.000000  0.000000      4.000000
  0.500000  0.000000  0.000000      2.000000
  0.166667  0.166667  0.000000      4.000000
  0.333333  0.166667  0.000000      8.000000
  0.500000  0.166667  0.000000      4.000000
  0.333333  0.333333  0.000000      4.000000
  0.500000  0.333333  0.000000      4.000000
  0.500000  0.500000  0.000000      1.000000
  0.000000  0.000000  0.500000      1.000000
  0.166667  0.000000  0.500000      4.000000
  0.333333  0.000000  0.500000      4.000000
  0.500000  0.000000  0.500000      2.000000
  0.166667  0.166667  0.500000      4.000000
  0.333333  0.166667  0.500000      8.000000
  0.500000  0.166667  0.500000      4.000000
  0.333333  0.333333  0.500000      4.000000
  0.500000  0.333333  0.500000      4.000000
  0.500000  0.500000  0.500000      1.000000

 Following cartesian coordinates:
            Coordinates               Weight
  0.000000  0.000000  0.000000      1.000000
  0.043189  0.000000  0.000000      4.000000
  0.086378  0.000000  0.000000      4.000000
  0.129568  0.000000  0.000000      2.000000
  0.043189  0.043189  0.000000      4.000000
  0.086378  0.043189  0.000000      8.000000
  0.129568  0.043189  0.000000      4.000000
  0.086378  0.086378  0.000000      4.000000
  0.129568  0.086378  0.000000      4.000000
  0.129568  0.129568  0.000000      1.000000
  0.000000  0.000000  0.051675      1.000000
  0.043189  0.000000  0.051675      4.000000
  0.086378  0.000000  0.051675      4.000000
  0.129568  0.000000  0.051675      2.000000
  0.043189  0.043189  0.051675      4.000000
  0.086378  0.043189  0.051675      8.000000
  0.129568  0.043189  0.051675      4.000000
  0.086378  0.086378  0.051675      4.000000
  0.129568  0.086378  0.051675      4.000000
  0.129568  0.129568  0.051675      1.000000

 SYSTEM =  MgO-rocksalt
 POSCAR =  Ti4 O8

  energy-cutoff  :      600.00
  volume of cell :      144.09
      direct lattice vectors                 reciprocal lattice vectors
     3.858987282  0.000000000  0.000000000     0.259135345 -0.000000000  0.000000000
     0.000000000  3.858987282  0.000000000     0.000000000  0.259135345  0.000000000
     0.000000000  0.000000000  9.675883017    -0.000000000 -0.000000000  0.103349741

[...]

 k-points in units of 2pi/SCALE and weight: pymatgen v2020.8.13 with grid density =
   0.00000000  0.00000000  0.00000000       0.014
   0.04318922  0.00000000  0.00000000       0.056
   0.08637845  0.00000000  0.00000000       0.056
   0.12956767  0.00000000  0.00000000       0.028
   0.04318922  0.04318922  0.00000000       0.056
   0.08637845  0.04318922  0.00000000       0.111
   0.12956767  0.04318922  0.00000000       0.056
   0.08637845  0.08637845  0.00000000       0.056
   0.12956767  0.08637845  0.00000000       0.056
   0.12956767  0.12956767  0.00000000       0.014
   0.00000000  0.00000000  0.05167487       0.014
   0.04318922  0.00000000  0.05167487       0.056
   0.08637845  0.00000000  0.05167487       0.056
   0.12956767  0.00000000  0.05167487       0.028
   0.04318922  0.04318922  0.05167487       0.056
   0.08637845  0.04318922  0.05167487       0.111
   0.12956767  0.04318922  0.05167487       0.056
   0.08637845  0.08637845  0.05167487       0.056
   0.12956767  0.08637845  0.05167487       0.056
   0.12956767  0.12956767  0.05167487       0.014

 k-points in reciprocal lattice and weights: pymatgen v2020.8.13 with grid density =
   0.00000000  0.00000000  0.00000000       0.014
   0.16666667  0.00000000  0.00000000       0.056
   0.33333333  0.00000000  0.00000000       0.056
   0.50000000  0.00000000  0.00000000       0.028
   0.16666667  0.16666667  0.00000000       0.056
   0.33333333  0.16666667  0.00000000       0.111
   0.50000000  0.16666667  0.00000000       0.056
   0.33333333  0.33333333  0.00000000       0.056
   0.50000000  0.33333333  0.00000000       0.056
   0.50000000  0.50000000  0.00000000       0.014
   0.00000000  0.00000000  0.50000000       0.014
   0.16666667  0.00000000  0.50000000       0.056
   0.33333333  0.00000000  0.50000000       0.056
   0.50000000  0.00000000  0.50000000       0.028
   0.16666667  0.16666667  0.50000000       0.056
   0.33333333  0.16666667  0.50000000       0.111
   0.50000000  0.16666667  0.50000000       0.056
   0.33333333  0.33333333  0.50000000       0.056
   0.50000000  0.33333333  0.50000000       0.056
   0.50000000  0.50000000  0.50000000       0.014

 position of ions in fractional coordinates (direct lattice)
   0.50000000  0.50000000  0.50000000
   0.50000000  0.00000000  0.75000000
   0.00000000  0.00000000  0.00000000
   0.00000000  0.50000000  0.25000000
   0.00000000  0.50000000  0.45791883
   0.50000000  0.50000000  0.70791883
   0.50000000  0.00000000  0.54208117
   0.00000000  0.00000000  0.79208117
   0.50000000  0.00000000  0.95791883
   0.00000000  0.00000000  0.20791883
   0.00000000  0.50000000  0.04208117
   0.50000000  0.50000000  0.29208117

 position of ions in cartesian coordinates  (Angst):
   1.92949364  1.92949364  4.83794151
   1.92949364  0.00000000  7.25691226
   0.00000000  0.00000000  0.00000000
   0.00000000  1.92949364  2.41897075
   0.00000000  1.92949364  4.43076907
   1.92949364  1.92949364  6.84973983
   1.92949364  0.00000000  5.24511395
   0.00000000  0.00000000  7.66408470
   1.92949364  0.00000000  9.26871058
   0.00000000  0.00000000  2.01179832
   0.00000000  1.92949364  0.40717244
   1.92949364  1.92949364  2.82614319

--------------------------------------- Iteration      FINAL  ---------------------------------------

--------------------OUTCAR has been truncated-------------------------

[...]

--------------------OUTCAR has been truncated-------------------------

  Hirshfeld charges:
            ion         q(e)
      1     Ti          0.825
      2     Ti          0.825
      3     Ti          0.825
      4     Ti          0.825
      5     O          -0.412
      6     O          -0.412
      7     O          -0.412
      8     O          -0.412
      9     O          -0.412
     10     O          -0.412
     11     O          -0.412
     12     O          -0.412

  Hirshfeld-I charges:
            ion         q(e)        dq(e)
      1     Ti          2.260     -0.357E-04
      2     Ti          2.260     -0.357E-04
      3     Ti          2.260     -0.357E-04
      4     Ti          2.260     -0.357E-04
      5     O          -1.130      0.178E-04
      6     O          -1.130      0.178E-04
      7     O          -1.130      0.178E-04
      8     O          -1.130      0.178E-04
      9     O          -1.130      0.178E-04
     10     O          -1.130      0.178E-04
     11     O          -1.130      0.178E-04
     12     O          -1.130      0.178E-04

   Hirshfeld-I converged in  12 cycles. Convergence criterion |dq|< 0.500E-04 e

  Atomic reference data used in the T-S method for vdW correction:
            C6at              R0at           ALPHAat      REFSTATE
            (au)              (au)            (au)
   Ti       1044.000          4.516         98.000         0
   O          15.600          3.194          5.400         0

  Tkatchenko/Scheffler method for vdW energy calculation

  Parameters of vdW forcefield:
            C6ts              R0ts           ALPHAts        RELVOL
            (au)              (au)            (au)
   Ti         69.449          2.875         25.276          0.25791729
   Ti         69.449          2.875         25.276          0.25791729
   Ti         69.449          2.875         25.276          0.25791729
   Ti         69.449          2.875         25.276          0.25791729
   O          55.587          3.947         10.193          1.88765336
   O          55.587          3.947         10.193          1.88765336
   O          55.587          3.947         10.193          1.88765336
   O          55.587          3.947         10.193          1.88765336
   O          55.587          3.947         10.193          1.88765336
   O          55.587          3.947         10.193          1.88765336
   O          55.587          3.947         10.193          1.88765336
   O          55.587          3.947         10.193          1.88765336

  vdW correction parametrized for the method pbe

  IVDW =  21
  VDW_RADIUS =    50.000 A
  VDW_IDAMPF =  0
  VDW_S6 =     1.000
  VDW_SR =     0.950
  VDW_D =    20.000
  LVDW_ONECELL = F F F
  LVDW_SAMETYPE T T
  LVDW_EWALD = F

  Number of pair interactions contributing to vdW energy:  283064
  Edisp (eV):   -1.70026

  FORCE on cell =-STRESS in cart. coord.  units (eV):
  Direction    XX          YY          ZZ          XY          YZ          ZX
  Alpha Z   379.55372   379.55372   379.55372
  Ewald   -1978.30081 -1978.30081 -1362.88142     0.00000     0.00000     0.00000
  Hartree   576.70272   576.70272   951.26247    -0.00000    -0.00000    -0.00000
  E(xc)    -428.19143  -428.19143  -427.86639     0.00000     0.00000     0.00000
  Local      28.19971    28.19971  -952.26865    -0.00000     0.00000    -0.00000
  n-local  -260.73553  -257.53231  -259.66259    -0.02546     0.00000     0.00000
  augment   263.99036   263.99036   263.23190     0.00000    -0.00000    -0.00000
  Kinetic  1411.57098  1427.56475  1410.83572    -1.13019    -0.00000    -0.00000
  Fock        0.00000     0.00000     0.00000     0.00000     0.00000     0.00000
  vdW        -2.43967    -2.43967    -2.24914     0.00000     0.00000     0.00000
  Total      -0.05145    -0.05145    -0.04437    -0.00000    -0.00000    -0.00000
  in kB      -0.57204    -0.57204    -0.49332    -0.00000    -0.00000    -0.00000

 VOLUME and BASIS-vectors are now :
  energy-cutoff  :      600.00
  volume of cell :      144.09
      direct lattice vectors                 reciprocal lattice vectors
     3.858987282  0.000000000  0.000000000     0.259135345 -0.000000000  0.000000000
     0.000000000  3.858987282  0.000000000     0.000000000  0.259135345  0.000000000
     0.000000000  0.000000000  9.675883017    -0.000000000 -0.000000000  0.103349741

  length of vectors
     3.858987282  3.858987282  9.675883017     0.259135345  0.259135345  0.103349741

 FORCES acting on ions:
    Electron-Ion                     Ewald-Force                    Non-Local-Force
   0.872E-13 0.134E-11 -.929E-12   -.943E-16 -.276E-13 -.568E-13   0.000E+00 0.000E+00 -.211E-16
   0.141E-12 -.272E-13 0.107E-11   0.221E-14 -.778E-15 -.711E-14   -.331E-23 0.000E+00 -.457E-16
   0.585E-14 0.625E-13 0.126E-13   0.239E-14 -.282E-13 -.284E-13   0.165E-23 0.000E+00 0.143E-16
   -.808E-15 0.104E-12 -.190E-13   0.469E-14 -.666E-15 -.284E-13   -.331E-23 0.000E+00 0.449E-16
   -.119E-13 0.149E-12 -.864E+02   -.560E-14 0.894E-14 0.935E+02   0.000E+00 0.000E+00 -.706E+01
   0.131E-12 -.354E-12 -.864E+02   -.107E-13 0.145E-13 0.935E+02   -.827E-24 -.331E-23 -.706E+01
   0.117E-12 -.376E-13 0.864E+02   0.811E-14 0.846E-14 -.935E+02   0.000E+00 0.414E-23 0.706E+01
   -.115E-13 -.160E-13 0.864E+02   -.365E-14 -.103E-13 -.935E+02   0.000E+00 0.000E+00 0.706E+01
   0.870E-13 0.283E-13 -.864E+02   -.476E-14 0.105E-13 0.935E+02   0.000E+00 -.331E-23 -.706E+01
   -.726E-14 -.229E-13 -.864E+02   -.111E-13 0.159E-13 0.935E+02   0.165E-23 0.000E+00 -.706E+01
   -.687E-14 0.136E-12 0.864E+02   0.765E-14 0.106E-13 -.935E+02   0.331E-23 0.414E-24 0.706E+01
   0.831E-13 0.130E-11 0.864E+02   -.285E-14 -.822E-14 -.935E+02   0.000E+00 0.331E-23 0.706E+01
   0.616E-12 0.268E-11 0.358E-11   -.137E-13 -.680E-14 -.142E-12   -.827E-24 0.124E-23 0.178E-14

 POSITION                                       TOTAL-FORCE (eV/Angst)
      1.92949      1.92949      4.83794         0.000000      0.000000      0.000000
      1.92949      0.00000      7.25691        -0.000000     -0.000000      0.000000
      0.00000      0.00000      0.00000        -0.000000      0.000000      0.000000
      0.00000      1.92949      2.41897         0.000000     -0.000000      0.000000
      0.00000      1.92949      4.43077         0.000000     -0.000000      0.000072
      1.92949      1.92949      6.84974         0.000000      0.000000      0.000072
      1.92949      0.00000      5.24511        -0.000000      0.000000     -0.000072
      0.00000      0.00000      7.66408        -0.000000     -0.000000     -0.000072
      1.92949      0.00000      9.26871        -0.000000      0.000000      0.000072
      0.00000      0.00000      2.01180        -0.000000      0.000000      0.000072
      0.00000      1.92949      0.40717        -0.000000     -0.000000     -0.000072
      1.92949      1.92949      2.82614         0.000000     -0.000000     -0.000072
    total drift:                                0.000000      0.000000      0.000000

  FREE ENERGIE OF THE ION-ELECTRON SYSTEM (eV)
  free  energy   TOTEN  =       -96.86902796 eV

  energy  without entropy=      -96.86902796  energy(sigma->0) =      -96.86902796

 reached required accuracy - stopping structural energy minimisation