 vasp.6.3.0 20Jan22 (build Mar 11 2022 13:48:16) complex

 executed on             LinuxIFC date 2024.02.13  07:44:02

 INCAR:
   SYSTEM = Oxide-Surface
   ISMEAR = 0
   SIGMA = 0.05
   EDIFF = 1E-5
   ALGO = ALL
   ISTART = 0
   IBRION = -1
   NSW = 0
   ISYM = 2
   DIPOL = 0.5 0.5 0.5
   IDIPOL = 3
   LDIPOL = .TRUE.
   METAGGA = R2SCAN
   LUSE_VDW = .TRUE.
   BPARAM = 11.95
   CPARAM = 0.0093
   LASPH = .TRUE.
   ENCUT = 600
   PREC = Accurate
   LASPH = .TRUE.
   LREAL = .FALSE.
   ISPIN = 1
   NELM = 200
   NELMIN = 8
   NCORE = 19
   KPAR = 1
   LWAVE = .FALSE.
   LCHARG = .FALSE.

 POTCAR:    PAW_PBE N 08Apr2002
 POTCAR:    PAW_PBE H 15Jun2001
 POTCAR:    PAW_PBE Mg_pv 13Apr2007
 POTCAR:    PAW_PBE O 08Apr2002
|               ----> ADVICE to this user running VASP <----                  |
|     You have switched on vdW-DFT.                                           |
|     This routine was written and supplied by Jiri Klimes. We recommend      |
|     that you carefully read and cite the following publications:            |
|       J. Klimes, D.R. Bowler, A. Michelides                                 |
|          J. Phys.: Cond Matt. 22 022201 (2010)                              |
|       J. Klimes, D.R. Bowler, A. Michelides                                 |
|          Phys. Rev. B. 83, 195131 (2011)                                    |
|     and references therein.                                                 |

   TITEL  = PAW_PBE N 08Apr2002
   POMASS =   14.001; ZVAL   =    5.000    mass and valenz
   ENMAX  =  400.000; ENMIN  =  300.000 eV

   TITEL  = PAW_PBE H 15Jun2001
   POMASS =    1.000; ZVAL   =    1.000    mass and valenz
   ENMAX  =  250.000; ENMIN  =  200.000 eV

   TITEL  = PAW_PBE Mg_pv 13Apr2007
   POMASS =   24.305; ZVAL   =    8.000    mass and valenz
   ENMAX  =  403.929; ENMIN  =  302.947 eV

   TITEL  = PAW_PBE O 08Apr2002
   POMASS =   16.000; ZVAL   =    6.000    mass and valenz
   ENMAX  =  400.000; ENMIN  =  300.000 eV

  PAW_PBE N 08Apr2002                   :
  PAW_PBE H 15Jun2001                   :
  PAW_PBE Mg_pv 13Apr2007               :
  PAW_PBE O 08Apr2002                   :

 POSCAR:  N  H Mg  O
  positions in direct lattice

 METAGGA = R2SCA    LMAXTAU =  6    LMIXTAU =  F

 ion  position               nearest neighbor table
   1  0.500  0.516  0.760-   4 1.02   3 1.02   2 1.02
   2  0.500  0.635  0.768-   1 1.02
   3  0.402  0.469  0.782-   1 1.02
   4  0.598  0.469  0.782-   1 1.02
   5  0.000  0.750  0.352-  37 2.11  39 2.11  40 2.11  47 2.11  56 2.11
   6  0.250  0.000  0.352-  38 2.11  39 2.11  40 2.11  48 2.11  55 2.11
   7  0.000  0.000  0.451-  39 2.11  38 2.11  37 2.11  45 2.11  54 2.11  43 2.12
   8  0.250  0.750  0.451-  40 2.11  38 2.11  37 2.11  46 2.11  53 2.11  44 2.12
   9  0.000  0.750  0.550-  51 2.11  44 2.11  60 2.11  43 2.11  37 2.12  41 2.16
  10  0.250  1.000  0.550-  59 2.11  52 2.11  44 2.11  43 2.11  38 2.12  42 2.16
  11  0.000  1.000  0.648-  43 2.10  42 2.11  58 2.11  49 2.11  41 2.11
  12  0.250  0.750  0.648-  44 2.09  41 2.11  42 2.11  50 2.11  57 2.11
  13  0.000  0.250  0.352-  45 2.11  39 2.11  47 2.11  48 2.11  64 2.11
  14  0.250  0.500  0.352-  46 2.11  40 2.11  47 2.11  48 2.11  63 2.11
  15  0.000  0.500  0.451-  47 2.11  45 2.11  46 2.11  37 2.11  62 2.11  51 2.11
  16  0.250  0.250  0.451-  48 2.11  45 2.11  46 2.11  38 2.11  61 2.11  52 2.12
  17  1.000  0.250  0.550-  51 2.11  68 2.11  52 2.11  43 2.11  45 2.12  49 2.16
  18  0.251  0.500  0.551-  67 2.10  52 2.11  44 2.11  51 2.12  46 2.13  50 2.15
  19  0.000  0.500  0.648-  66 2.09  50 2.09  51 2.10  49 2.12  41 2.12
  20  0.250  0.250  0.648-  52 2.10  42 2.11  49 2.11  65 2.11  50 2.11
  21  0.500  0.750  0.352-  53 2.11  40 2.11  55 2.11  56 2.11  63 2.11
  22  0.750  0.000  0.352-  54 2.11  39 2.11  55 2.11  56 2.11  64 2.11
  23  0.500  0.000  0.451-  55 2.11  53 2.11  54 2.11  38 2.11  61 2.11  59 2.11
  24  0.750  0.750  0.451-  56 2.11  53 2.11  54 2.11  37 2.11  62 2.11  60 2.12
  25  0.500  0.749  0.551-  67 2.10  60 2.11  44 2.11  59 2.12  53 2.13  57 2.15
  26  0.750  1.000  0.550-  59 2.11  68 2.11  60 2.11  43 2.11  54 2.12  58 2.16
  27  0.500  0.000  0.648-  65 2.09  57 2.09  59 2.10  42 2.12  58 2.12
  28  0.750  0.750  0.648-  60 2.09  41 2.11  58 2.11  66 2.11  57 2.11
  29  0.500  0.250  0.352-  61 2.11  55 2.11  48 2.11  63 2.11  64 2.11
  30  0.750  0.500  0.352-  62 2.11  56 2.11  47 2.11  63 2.11  64 2.11
  31  0.500  0.500  0.451-  63 2.11  53 2.11  61 2.11  62 2.11  46 2.11  67 2.14
  32  0.750  0.250  0.451-  64 2.11  54 2.11  61 2.11  62 2.11  45 2.11  68 2.12
  33  0.500  0.251  0.551-  67 2.10  52 2.11  68 2.11  59 2.12  61 2.13  65 2.14
  34  0.749  0.500  0.551-  67 2.10  68 2.11  60 2.11  51 2.12  62 2.13  66 2.15
  35  0.500  0.499  0.655-  65 2.12  66 2.13  50 2.13  57 2.15  67 2.22
  36  0.750  0.250  0.648-  68 2.10  58 2.11  49 2.11  65 2.11  66 2.11
  37  0.000  0.750  0.451-   5 2.11   7 2.11   8 2.11  15 2.11  24 2.11   9 2.12
  38  0.250  0.000  0.451-   6 2.11   7 2.11   8 2.11  16 2.11  23 2.11  10 2.12
  39  0.000  0.000  0.352-   7 2.11   6 2.11   5 2.11  13 2.11  22 2.11
  40  0.250  0.750  0.352-   8 2.11   6 2.11   5 2.11  14 2.11  21 2.11
  41  1.000  0.750  0.651-  11 2.11  28 2.11  12 2.11  19 2.12   9 2.16
  42  0.249  1.000  0.651-  11 2.11  20 2.11  12 2.11  27 2.12  10 2.16
  43  1.000  1.000  0.550-  11 2.10   9 2.11  26 2.11  10 2.11  17 2.11   7 2.12
  44  0.250  0.750  0.550-  12 2.09  10 2.11   9 2.11  25 2.11  18 2.11   8 2.12
  45  0.000  0.250  0.451-  13 2.11   7 2.11  15 2.11  16 2.11  32 2.11  17 2.12
  46  0.250  0.500  0.451-  14 2.11   8 2.11  15 2.11  16 2.11  31 2.11  18 2.13
  47  0.000  0.500  0.352-  15 2.11  13 2.11  14 2.11   5 2.11  30 2.11
  48  0.250  0.250  0.352-  16 2.11  13 2.11  14 2.11   6 2.11  29 2.11
  49  0.000  0.249  0.651-  11 2.11  36 2.11  20 2.11  19 2.12  17 2.16
  50  0.247  0.500  0.651-  19 2.09  12 2.11  20 2.11  35 2.13  18 2.15
  51  0.000  0.500  0.550-  19 2.10   9 2.11  17 2.11  15 2.11  34 2.12  18 2.12
  52  0.250  0.250  0.550-  20 2.10  10 2.11  17 2.11  18 2.11  33 2.11  16 2.12
  53  0.500  0.750  0.451-  21 2.11   8 2.11  23 2.11  24 2.11  31 2.11  25 2.13
  54  0.750  0.000  0.451-  22 2.11   7 2.11  23 2.11  24 2.11  32 2.11  26 2.12
  55  0.500  0.000  0.352-  23 2.11  21 2.11  22 2.11   6 2.11  29 2.11
  56  0.750  0.750  0.352-  24 2.11  21 2.11  22 2.11   5 2.11  30 2.11
  57  0.500  0.753  0.651-  27 2.09  12 2.11  28 2.11  35 2.15  25 2.15
  58  0.751  1.000  0.651-  11 2.11  36 2.11  28 2.11  27 2.12  26 2.16
  59  0.500  1.000  0.550-  27 2.10  26 2.11  10 2.11  23 2.11  25 2.12  33 2.12
  60  0.750  0.750  0.550-  28 2.09  26 2.11   9 2.11  25 2.11  34 2.11  24 2.12
  61  0.500  0.250  0.451-  29 2.11  23 2.11  16 2.11  31 2.11  32 2.11  33 2.13
  62  0.750  0.500  0.451-  30 2.11  24 2.11  15 2.11  31 2.11  32 2.11  34 2.13
  63  0.500  0.500  0.352-  31 2.11  21 2.11  29 2.11  30 2.11  14 2.11
  64  0.750  0.250  0.352-  32 2.11  22 2.11  29 2.11  30 2.11  13 2.11
  65  0.500  0.247  0.651-  27 2.09  20 2.11  36 2.11  35 2.12  33 2.14
  66  0.753  0.500  0.651-  19 2.09  28 2.11  36 2.11  35 2.13  34 2.15
  67  0.500  0.500  0.551-  25 2.10  18 2.10  34 2.10  33 2.10  31 2.14  35 2.22
  68  0.750  0.250  0.550-  36 2.10  26 2.11  17 2.11  34 2.11  33 2.11  32 2.12

  LATTYP: Found a simple tetragonal cell.
 ALAT       =     8.4409846542
 C/A-ratio  =     2.5270438657

  Lattice vectors:

 A1 = (   8.4409846542,   0.0000000000,   0.0000000000)
 A2 = (   0.0000000000,   8.4409846542,   0.0000000000)
 A3 = (   0.0000000000,   0.0000000000,  21.3307384906)

Analysis of symmetry for initial positions (statically):
 Subroutine PRICEL returns:
 Original cell was already a primitive cell.

 Routine SETGRP: Setting up the symmetry group for a
 simple tetragonal supercell.

 Subroutine GETGRP returns: Found  2 space group operations
 (whereof  2 operations were pure point group operations)
 out of a pool of 16 trial point group operations.

The static configuration has the point symmetry C_1h.

Analysis of symmetry for dynamics (positions and initial velocities):
 Subroutine PRICEL returns:
 Original cell was already a primitive cell.

[...]

The dynamic configuration has the point symmetry C_1h.

Analysis of constrained symmetry for selective dynamics:
 Subroutine PRICEL returns:
 Original cell was already a primitive cell.

 Routine SETGRP: Setting up the symmetry group for a
 simple tetragonal supercell.

 Subroutine GETGRP returns: Found  2 space group operations
 (whereof  2 operations were pure point group operations)
 out of a pool of 16 trial point group operations.

The constrained configuration has the point symmetry C_1h.

 Subroutine INISYM returns: Found  2 space group operations
 (whereof  2 operations are pure point group operations),
 and found     1 'primitive' translations

                                     Primitive cell

  volume of cell :    1519.8199

  direct lattice vectors                    reciprocal lattice vectors
     8.440984654  0.000000000  0.000000000     0.118469591  0.000000000  0.000000000
     0.000000000  8.440984654  0.000000000     0.000000000  0.118469591  0.000000000
     0.000000000  0.000000000 21.330738491     0.000000000  0.000000000  0.046880702

  length of vectors
     8.440984654  8.440984654 21.330738491     0.118469591  0.118469591  0.046880702

  position of ions in fractional coordinates (direct lattice)
     0.500000238  0.515515988  0.760397415
     0.499999981  0.635067396  0.767938398
     0.402069061  0.469393035  0.781666100
     0.597931073  0.469393296  0.781666268
     0.000000000  0.750000000  0.351605267
     0.250000000  0.000000000  0.351605267
     0.000000000  0.000000000  0.450535089
     0.250000000  0.750000000  0.450535089
     0.000000002  0.749683926  0.549893410
     0.250263522  0.999989873  0.549908943
     0.000000001  0.999953889  0.648375512
     0.249680169  0.750035883  0.648043586
     0.000000000  0.250000000  0.351605267
     0.250000000  0.500000000  0.351605267
     0.000000000  0.500000000  0.450535089
     0.250000000  0.250000000  0.450535089
     0.999999995  0.250229246  0.549913058
     0.251264402  0.499907421  0.550551274
     0.000000017  0.499888939  0.648188279
     0.249874845  0.249731960  0.648151920
     0.500000000  0.750000000  0.351605267
     0.750000000  0.000000000  0.351605267
     0.500000000  0.000000000  0.450535089
     0.750000000  0.750000000  0.450535089
     0.499999996  0.748689127  0.550582001
     0.749736477  0.999989873  0.549908956
     0.499999995  0.000230885  0.648178485
     0.750319838  0.750035869  0.648043580
     0.500000000  0.250000000  0.351605267
     0.750000000  0.500000000  0.351605267
     0.500000000  0.500000000  0.450535089
     0.750000000  0.250000000  0.450535089
     0.499999999  0.251188744  0.550506166
     0.748735610  0.499907415  0.550551309
     0.500000034  0.498638580  0.654927800
     0.750125161  0.249731957  0.648151929
     0.000000000  0.750000000  0.450535089
     0.250000000  0.000000000  0.450535089
     0.000000000  0.000000000  0.351605267
[...]
   2.11024616  4.22049233  7.50000000
   0.00000000  4.22049233  9.61024616
   2.11024616  2.11024616  9.61024616
   8.44098461  2.11218123 11.73005164
   2.12091896  4.21971087 11.74366526
   0.00000015  4.21955487 13.82633468
   2.10918973  2.10798364 13.82555910
   4.22049233  6.33073849  7.50000000
   6.33073849  0.00000000  7.50000000
   4.22049233  0.00000000  9.61024616
   6.33073849  6.33073849  9.61024616
   4.22049230  6.31967343 11.74432068
   6.32851410  8.44089918 11.72996414
   4.22049228  0.00194889 13.82612576
   6.33343824  6.33104126 13.82324815
   4.22049233  2.11024616  7.50000000
   6.33073849  4.22049233  7.50000000
   4.22049233  4.22049233  9.61024616
   6.33073849  2.11024616  9.61024616
   4.22049232  2.12028034 11.74270306
   6.32006580  4.21971082 11.74366600
   4.22049261  4.20900061 13.97009364
   6.33179497  2.10798362 13.82555929
   0.00000000  6.33073849  9.61024616
   2.11024616  0.00000000  9.61024616
   0.00000000  0.00000000  7.50000000
   2.11024616  6.33073849  7.50000000
   8.44098464  6.33484746 13.88845160
   2.10521261  8.44019193 13.88915639
   8.44098463  8.44041337 11.72652157
   2.10968191  6.33155551 11.72945899
   0.00000000  2.11024616  9.61024616
   2.11024616  4.22049233  9.61024616
   0.00000000  4.22049233  7.50000000
   2.11024616  2.11024616  7.50000000
   0.00000002  2.10487242 13.88974081
   2.08807314  4.21988157 13.88907820
   0.00000005  4.22031084 11.72488410
   2.10871437  2.10856989 11.72879088
   4.22049233  6.33073849  9.61024616
   6.33073849  0.00000000  9.61024616
   4.22049233  0.00000000  7.50000000
   6.33073849  6.33073849  7.50000000
   4.22049229  6.35536681 13.89666358
   6.33577203  8.44019186 13.88915676
   4.22049233  8.43989696 11.72497634
   6.33130268  6.33155548 11.72945910
   4.22049233  2.11024616  9.61024616
   6.33073849  4.22049233  9.61024616
   4.22049233  4.22049233  7.50000000
   6.33073849  2.11024616  7.50000000
   4.22049234  2.08771283 13.88457177
   6.35291191  4.21988143 13.88907825
   4.22049237  4.22084386 11.74772465
   6.33227030  2.10856979 11.72879100

--------------------------------------- Iteration      FINAL  ---------------------------------------

--------------------OUTCAR has been truncated-------------------------

[...]

--------------------OUTCAR has been truncated-------------------------

  FORCE on cell =-STRESS in cart. coord.  units (eV):
  Direction    XX          YY          ZZ          XY          YZ          ZX
  Alpha Z   899.54725   899.54725   899.54725
  Ewald  159550.27078159547.74557************    -0.00005    -9.90923     0.00026
  Hartree169908.21104169908.37618************    -0.00001    -0.79699    -0.00001
  E(xc)   -2686.53879 -2686.50540 -2684.22473    -0.00001     0.10163    -0.00000
  Local  ************************339322.88327     0.00004     6.85034    -0.00015
  n-local -2807.86694 -2807.98104 -2829.86839     0.00001    -0.29439     0.00001
  augment  1178.57440  1178.60123  1170.15197    -0.00000     0.08477    -0.00000
  Kinetic  7439.53205  7440.85230  7493.96867    -0.00041     4.02907    -0.00015
  Fock        0.00000     0.00000     0.00000     0.00000     0.00000     0.00000
  Total     -44.70723   -44.66928   -14.79945     0.00000     0.06521     0.00000
  in kB     -47.12986   -47.08986   -15.60142     0.00000     0.06874     0.00000

 VOLUME and BASIS-vectors are now :
  energy-cutoff  :      600.00
  volume of cell :     1519.82
      direct lattice vectors                 reciprocal lattice vectors
     8.440984654  0.000000000  0.000000000     0.118469591  0.000000000  0.000000000
     0.000000000  8.440984654  0.000000000     0.000000000  0.118469591  0.000000000
     0.000000000  0.000000000 21.330738491     0.000000000  0.000000000  0.046880702

  length of vectors
     8.440984654  8.440984654 21.330738491     0.118469591  0.118469591  0.046880702

 FORCES acting on ions:
    Electron-Ion                     Ewald-Force                    Non-Local-Force
   -.164E-02 0.800E+01 -.133E+04   0.922E-04 -.130E+02 0.131E+04   -.176E-21 0.503E+01 0.251E+02
   0.257E-04 -.700E+02 -.273E+03   -.154E-03 0.771E+02 0.274E+03   0.133E-21 -.730E+01 -.890E+00
   0.580E+02 0.279E+02 -.279E+03   -.638E+02 -.307E+02 0.282E+03   0.605E+01 0.287E+01 -.307E+01
   -.580E+02 0.279E+02 -.279E+03   0.638E+02 -.307E+02 0.282E+03   -.605E+01 0.287E+01 -.307E+01
   0.282E-05 0.431E-01 0.208E+04   -.611E-05 -.498E-01 -.207E+04   0.809E-21 0.497E-02 -.714E+01
   -.403E-01 -.972E-04 0.208E+04   0.470E-01 -.817E-04 -.207E+04   -.480E-02 0.396E-04 -.714E+01
   0.928E-05 -.416E-01 0.712E+03   -.191E-04 0.468E-01 -.713E+03   0.586E-21 -.410E-02 0.391E+00
   -.354E+00 0.354E+00 0.713E+03   0.422E+00 -.412E+00 -.713E+03   -.483E-01 0.413E-01 0.450E+00
   -.302E-05 -.277E+01 -.645E+03   -.995E-05 0.267E+01 0.645E+03   0.162E-21 0.123E+00 0.778E-01
   0.280E+01 -.237E+00 -.646E+03   -.271E+01 0.251E+00 0.646E+03   -.113E+00 -.126E-01 0.843E-01
   -.875E-05 -.950E+00 -.201E+04   0.243E-04 0.961E+00 0.200E+04   -.130E-20 -.114E-01 0.594E+01
   0.208E+02 -.199E+02 -.198E+04   -.210E+02 0.200E+02 0.198E+04   0.115E+00 -.554E-01 0.601E+01
   0.264E-05 -.433E-01 0.208E+04   -.576E-05 0.499E-01 -.207E+04   0.794E-23 -.468E-02 -.714E+01
   -.735E-01 -.299E-03 0.208E+04   0.853E-01 0.166E-03 -.207E+04   -.907E-02 0.285E-03 -.717E+01
   0.186E-04 0.329E-01 0.713E+03   -.399E-04 -.415E-01 -.713E+03   0.134E-21 0.650E-02 0.284E+00
   -.321E+00 -.363E+00 0.713E+03   0.367E+00 0.417E+00 -.713E+03   -.319E-01 -.382E-01 0.430E+00
   0.890E-05 0.276E+01 -.647E+03   0.122E-04 -.267E+01 0.646E+03   -.597E-22 -.111E+00 0.970E-01
   0.273E+01 0.234E+00 -.643E+03   -.237E+01 -.246E+00 0.644E+03   -.478E+00 0.189E-01 -.383E+00
   -.554E-04 0.107E+01 -.200E+04   0.939E-04 -.108E+01 0.199E+04   -.693E-22 0.941E-02 0.587E+01
   0.188E+02 0.194E+02 -.199E+04   -.188E+02 -.194E+02 0.198E+04   0.476E-01 0.624E-01 0.602E+01
   -.287E-05 0.763E-01 0.208E+04   0.612E-05 -.881E-01 -.207E+04   -.132E-21 0.903E-02 -.718E+01
   0.403E-01 -.970E-04 0.208E+04   -.470E-01 -.820E-04 -.207E+04   0.480E-02 0.396E-04 -.714E+01
   -.987E-05 0.698E-02 0.713E+03   0.209E-04 -.220E-01 -.713E+03   0.814E-21 0.112E-01 0.286E+00
   0.354E+00 0.354E+00 0.713E+03   -.422E+00 -.412E+00 -.713E+03   0.483E-01 0.413E-01 0.450E+00
   0.610E-05 -.251E+01 -.644E+03   0.470E-06 0.215E+01 0.645E+03   -.877E-21 0.473E+00 -.236E+00
   -.280E+01 -.237E+00 -.646E+03   0.271E+01 0.251E+00 0.646E+03   0.113E+00 -.126E-01 0.843E-01
   0.135E-04 -.265E+01 -.200E+04   -.806E-05 0.268E+01 0.199E+04   -.275E-21 -.179E-01 0.586E+01
   -.208E+02 -.199E+02 -.198E+04   0.210E+02 0.200E+02 0.198E+04   -.115E+00 -.554E-01 0.601E+01
   -.273E-05 -.766E-01 0.208E+04   0.592E-05 0.883E-01 -.207E+04   -.326E-21 -.892E-02 -.717E+01
   0.735E-01 -.299E-03 0.208E+04   -.853E-01 0.166E-03 -.207E+04   0.907E-02 0.285E-03 -.717E+01
   -.213E-04 -.135E-01 0.711E+03   0.418E-04 0.246E-01 -.711E+03   0.551E-21 -.842E-02 0.534E+00
   0.321E+00 -.363E+00 0.713E+03   -.367E+00 0.417E+00 -.713E+03   0.319E-01 -.382E-01 0.430E+00
   -.123E-05 0.271E+01 -.643E+03   0.892E-05 -.235E+01 0.643E+03   -.177E-21 -.467E+00 -.446E+00
   -.273E+01 0.234E+00 -.643E+03   0.237E+01 -.246E+00 0.644E+03   0.478E+00 0.189E-01 -.383E+00
   -.449E-04 0.593E+01 -.192E+04   -.136E-03 -.624E+01 0.192E+04   0.187E-20 0.412E+00 0.784E+00
   -.188E+02 0.194E+02 -.199E+04   0.188E+02 -.194E+02 0.198E+04   -.476E-01 0.624E-01 0.602E+01
   0.780E-05 -.402E-01 0.535E+03   -.183E-04 0.181E-01 -.534E+03   -.437E-21 0.319E-01 -.115E-01
   0.445E-01 0.528E-02 0.534E+03   -.203E-01 -.149E-02 -.534E+03   -.348E-01 -.552E-02 -.235E-01
   0.172E-05 -.248E-02 0.156E+04   -.374E-05 0.350E-02 -.157E+04   0.235E-21 -.147E-02 0.343E+01
   -.488E-01 0.490E-01 0.156E+04   0.596E-01 -.585E-01 -.157E+04   -.150E-01 0.133E-01 0.342E+01
   0.771E-05 -.751E+01 -.153E+04   0.386E-04 0.736E+01 0.153E+04   -.394E-22 0.156E+00 -.508E+01
   0.758E+01 -.131E+01 -.153E+04   -.742E+01 0.129E+01 0.154E+04   -.169E+00 0.207E-01 -.507E+01
   0.332E-04 -.245E+00 -.481E+03   -.116E-05 0.249E+00 0.481E+03   0.702E-21 -.345E-02 0.337E+00
   0.186E+01 -.186E+01 -.475E+03   -.185E+01 0.184E+01 0.474E+03   -.138E-01 0.251E-01 0.576E+00
   0.585E-05 0.329E-01 0.534E+03   -.140E-04 -.656E-02 -.534E+03   -.273E-20 -.377E-01 -.303E-01
   -.108E+00 -.134E-01 0.533E+03   0.586E-01 0.150E-01 -.533E+03   0.648E-01 -.169E-02 -.183E+00
   0.267E-05 0.261E-02 0.156E+04   -.566E-05 -.352E-02 -.157E+04   -.117E-20 0.135E-02 0.341E+01
   -.443E-01 -.487E-01 0.156E+04   0.529E-01 0.585E-01 -.157E+04   -.119E-01 -.136E-01 0.342E+01
   -.283E-04 0.741E+01 -.153E+04   0.380E-04 -.726E+01 0.154E+04   0.107E-20 -.154E+00 -.506E+01
   0.256E+02 0.180E+01 -.149E+04   -.248E+02 -.179E+01 0.150E+04   -.767E+00 -.102E-01 -.498E+01
   -.574E-04 0.247E+00 -.475E+03   0.521E-05 -.251E+00 0.474E+03   0.672E-21 0.438E-02 0.424E+00
   0.194E+01 0.187E+01 -.476E+03   -.191E+01 -.184E+01 0.475E+03   -.308E-01 -.243E-01 0.515E+00
   -.849E-05 0.116E+00 0.533E+03   0.180E-04 -.639E-01 -.533E+03   0.564E-21 -.677E-01 -.193E+00
   -.445E-01 0.528E-02 0.534E+03   0.203E-01 -.150E-02 -.534E+03   0.348E-01 -.552E-02 -.235E-01
   -.175E-05 0.206E-02 0.156E+04   0.379E-05 -.332E-02 -.157E+04   0.257E-21 0.162E-02 0.341E+01
   0.488E-01 0.490E-01 0.156E+04   -.596E-01 -.585E-01 -.157E+04   0.150E-01 0.133E-01 0.342E+01
   0.432E-04 -.259E+02 -.149E+04   -.254E-04 0.250E+02 0.150E+04   0.318E-21 0.927E+00 -.485E+01
   -.758E+01 -.131E+01 -.153E+04   0.742E+01 0.129E+01 0.154E+04   0.169E+00 0.207E-01 -.507E+01
   -.480E-05 -.106E+00 -.474E+03   0.107E-04 0.109E+00 0.474E+03   0.363E-21 -.105E-02 0.428E+00
   -.186E+01 -.186E+01 -.475E+03   0.185E+01 0.184E+01 0.474E+03   0.138E-01 0.251E-01 0.576E+00
   -.767E-05 -.127E+00 0.533E+03   0.174E-04 0.798E-01 -.533E+03   0.131E-20 0.609E-01 -.168E+00
   0.108E+00 -.134E-01 0.533E+03   -.586E-01 0.150E-01 -.533E+03   -.648E-01 -.169E-02 -.183E+00
   -.275E-05 -.185E-02 0.156E+04   0.574E-05 0.323E-02 -.157E+04   -.104E-20 -.183E-02 0.339E+01
   0.443E-01 -.487E-01 0.156E+04   -.529E-01 0.585E-01 -.157E+04   0.119E-01 -.136E-01 0.342E+01
   -.841E-05 0.249E+02 -.150E+04   -.407E-04 -.243E+02 0.150E+04   0.126E-20 -.645E+00 -.503E+01
   -.256E+02 0.180E+01 -.149E+04   0.248E+02 -.179E+01 0.150E+04   0.767E+00 -.102E-01 -.498E+01
   -.509E-04 -.502E-01 -.489E+03   -.150E-05 0.439E-01 0.490E+03   -.371E-22 0.507E-02 -.118E+01
   -.194E+01 0.187E+01 -.476E+03   0.191E+01 -.184E+01 0.475E+03   0.308E-01 -.243E-01 0.515E+00
   -.220E-02 -.406E+01 0.493E+01   -.353E-13 -.711E-14 0.244E-11   0.739E-15 0.420E+01 -.592E+01

 POSITION                                       TOTAL-FORCE (eV/Angst)
      4.22049      4.35146     16.21984        -0.000000      0.035969      0.162202
      4.22049      5.36059     16.38069        -0.000000     -0.220542     -0.031959
      3.39386      3.96214     16.67352         0.182860      0.085541     -0.091972
      5.04713      3.96214     16.67352        -0.182860      0.085541     -0.091972
      0.00000      6.33074      7.50000        -0.000000     -0.003798      0.550907
      2.11025      0.00000      7.50000         0.001891     -0.002173      0.551506
      0.00000      0.00000      9.61025        -0.000000     -0.000979     -0.042190
      2.11025      6.33074      9.61025         0.019571     -0.018836     -0.028928
      0.00000      6.32807     11.72963        -0.000000      0.028050      0.035168
      2.11247      8.44090     11.72996        -0.023508     -0.000685      0.036409
      0.00000      8.44060     13.83033        -0.000000     -0.001756     -0.154141
      2.10755      6.33104     13.82325        -0.010618      0.003311     -0.230555
      0.00000      2.11025      7.50000        -0.000000     -0.000144      0.552460
      2.11025      4.22049      7.50000         0.002737     -0.001879      0.558879
      0.00000      4.22049      9.61025        -0.000000     -0.004116     -0.005817
      2.11025      2.11025      9.61025         0.013787      0.013658     -0.029185
      8.44098      2.11218     11.73005        -0.000000     -0.021888      0.036082
      2.12092      4.21971     11.74367        -0.117019      0.004278      0.032961
      0.00000      4.21955     13.82633        -0.000000     -0.003225     -0.210473
      2.10919      2.10798     13.82556        -0.002848     -0.008942     -0.217155
      4.22049      6.33074      7.50000        -0.000000     -0.004807      0.559615
      6.33074      0.00000      7.50000        -0.001891     -0.002173      0.551506
      4.22049      0.00000      9.61025        -0.000000     -0.005834     -0.006485
      6.33074      6.33074      9.61025        -0.019571     -0.018836     -0.028928
      4.22049      6.31967     11.74432        -0.000000      0.115796      0.035015
      6.32851      8.44090     11.72996         0.023508     -0.000685      0.036409
      4.22049      0.00195     13.82613        -0.000000      0.005345     -0.212973
      6.33344      6.33104     13.82325         0.010618      0.003311     -0.230555
      4.22049      2.11025      7.50000        -0.000000      0.000679      0.558255
      6.33074      4.22049      7.50000        -0.002737     -0.001879      0.558879
      4.22049      4.22049      9.61025        -0.000000      0.000556      0.017448
      6.33074      2.11025      9.61025        -0.013787      0.013658     -0.029185
      4.22049      2.12028     11.74270        -0.000000     -0.118123      0.033299
      6.32007      4.21971     11.74367         0.117019      0.004278      0.032961
      4.22049      4.20900     13.97009        -0.000000      0.100826      0.027268
      6.33179      2.10798     13.82556         0.002848     -0.008942     -0.217155
      0.00000      6.33074      9.61025        -0.000000      0.007751      0.087382
      2.11025      0.00000      9.61025        -0.010572     -0.003768      0.085342
      0.00000      0.00000      7.50000        -0.000000     -0.002491     -0.332639
      2.11025      6.33074      7.50000        -0.004253      0.001741     -0.336075
      8.44098      6.33485     13.88845        -0.000000      0.000487     -0.175859
      2.10521      8.44019     13.88916        -0.002389      0.000189     -0.175380
      8.44098      8.44041     11.72652        -0.000000     -0.001417      0.031958
      2.10968      6.33156     11.72946        -0.000130     -0.002248      0.033540
      0.00000      2.11025      9.61025        -0.000000     -0.013409      0.083696
      2.11025      4.22049      9.61025         0.014908     -0.002186      0.100697
      0.00000      4.22049      7.50000        -0.000000     -0.001607     -0.336723
      2.11025      2.11025      7.50000        -0.003296     -0.005899     -0.336334
      0.00000      2.10487     13.88974        -0.000000     -0.002902     -0.175400
      2.08807      4.21988     13.88908        -0.019836     -0.002135     -0.158831
      0.00000      4.22031     11.72488        -0.000000     -0.001519      0.034944
      2.10871      2.10857     11.72879         0.000849     -0.000555      0.032681
      4.22049      6.33074      9.61025        -0.000000     -0.017664      0.100173
      6.33074      0.00000      9.61025         0.010572     -0.003768      0.085342
      4.22049      0.00000      7.50000        -0.000000     -0.001682     -0.336647
      6.33074      6.33074      7.50000         0.004253      0.001741     -0.336075
      4.22049      6.35537     13.89666        -0.000000      0.024022     -0.158401
      6.33577      8.44019     13.88916         0.002389      0.000189     -0.175380
      4.22049      8.43990     11.72498        -0.000000      0.000371      0.034531
      6.33130      6.33156     11.72946         0.000130     -0.002248      0.033540
      4.22049      2.11025      9.61025        -0.000000      0.012044      0.101421
      6.33074      4.22049      9.61025        -0.014908     -0.002186      0.100697
      4.22049      4.22049      7.50000        -0.000000     -0.002493     -0.343044
      6.33074      2.11025      7.50000         0.003296     -0.005899     -0.336334
      4.22049      2.08771     13.88457        -0.000000     -0.017056     -0.160137
      6.35291      4.21988     13.88908         0.019836     -0.002135     -0.158831
      4.22049      4.22084     11.74772        -0.000000     -0.003269     -0.014140
      6.33227      2.10857     11.72879        -0.000849     -0.000555      0.032681
    total drift:                               -0.002200      0.138698     -0.986647

  FREE ENERGIE OF THE ION-ELECTRON SYSTEM (eV)
  free  energy   TOTEN  =      -512.07555774 eV

  energy  without entropy=     -512.07555774  energy(sigma->0) =     -512.07555774