 vasp.6.3.0 20Jan22 (build Aug 21 2024 11:13:42) complex
 executed on        HPECrayEX_GCC date 2024.08.27  13:55:24

 INCAR:
   SYSTEM = MgO-rocksalt
   ISMEAR = 0
   SIGMA = 0.05
   EDIFF = 1E-6
   ALGO = ALL
   ISTART = 0
   IBRION = -1
   NSW = 0
   ISYM = 0
   DIPOL = 0.5 0.5 0.5
   IDIPOL = 3
   LDIPOL = .TRUE.
   GGA = RE
   IVDW = 13
   VDW_S8 = 1.7468
   VDW_A1 = 0.5363
   VDW_A2 = 3.0726
   ENCUT = 600
   PREC = Accurate
   LASPH = .TRUE.
   LREAL = .FALSE.
   ISPIN = 1
   NELM = 200
   NELMIN = 8
   NCORE = 8
   KPAR = 1
   LWAVE = .FALSE.
   LCHARG = .FALSE.

 POTCAR:    PAW_PBE C 08Apr2002
 POTCAR:    PAW_PBE H 15Jun2001
 POTCAR:    PAW_PBE Mg_pv 13Apr2007
 POTCAR:    PAW_PBE O 08Apr2002
 POTCAR:    PAW_PBE C 08Apr2002
   VRHFIN =C: s2p2

   TITEL  = PAW_PBE C 08Apr2002
   POMASS =   12.011; ZVAL   =    4.000    mass and valenz
   ENMAX  =  400.000; ENMIN  =  300.000 eV

   TITEL  = PAW_PBE H 15Jun2001
   POMASS =    1.000; ZVAL   =    1.000    mass and valenz
   ENMAX  =  250.000; ENMIN  =  200.000 eV

   TITEL  = PAW_PBE Mg_pv 13Apr2007
   POMASS =   24.305; ZVAL   =    8.000    mass and valenz
   ENMAX  =  403.929; ENMIN  =  302.947 eV

   TITEL  = PAW_PBE O 08Apr2002
   POMASS =   16.000; ZVAL   =    6.000    mass and valenz
   ENMAX  =  400.000; ENMIN  =  300.000 eV

  PAW_PBE C 08Apr2002                   :
  PAW_PBE H 15Jun2001                   :
  PAW_PBE Mg_pv 13Apr2007               :
  PAW_PBE O 08Apr2002                   :

 POSCAR:  C  H Mg  O
  positions in direct lattice
|           W    W    AA    RRRRR   N    N  II  N    N   GGGG   !!!           |
|           W    W   A  A   R    R  NN   N  II  NN   N  G    G  !!!           |
|           W    W  A    A  R    R  N N  N  II  N N  N  G       !!!           |
|           W WW W  AAAAAA  RRRRR   N  N N  II  N  N N  G  GGG   !            |
|           WW  WW  A    A  R   R   N   NN  II  N   NN  G    G                |
|           W    W  A    A  R    R  N    N  II  N    N   GGGG   !!!           |
|     Specifying the vdW parameters                                           |
|     VDW_S8 = 1.747                                                          |
|     VDW_A1 = 0.536                                                          |
|     VDW_A2 = 3.073                                                          |
|     in the INCAR file will overwrite the defaults for revpbe. Please        |
|     make sure that is what you intended.                                    |

 ion  position               nearest neighbor table
   1  0.453  0.501  0.795-  11 1.09   9 1.09  10 1.09   2 1.53
   2  0.293  0.439  0.818-  12 1.09  14 1.09  13 1.09   1 1.53
   3  0.453  0.001  0.795-  17 1.09  15 1.09  16 1.09   4 1.53
   4  0.293  0.939  0.818-  18 1.09  20 1.09  19 1.09   3 1.53
   5  0.790  0.751  0.794-  23 1.09  22 1.09  21 1.09   6 1.53
   6  0.950  0.690  0.818-  24 1.09  25 1.09  26 1.09   5 1.53
   7  0.790  0.251  0.794-  29 1.09  28 1.09  27 1.09   8 1.53
   8  0.950  0.190  0.818-  30 1.09  31 1.09  32 1.09   7 1.53
   9  0.441  0.615  0.770-   1 1.09
  10  0.509  0.415  0.763-   1 1.09
  11  0.536  0.519  0.834-   1 1.09
  12  0.210  0.426  0.779-   2 1.09
  13  0.238  0.521  0.851-   2 1.09
  14  0.305  0.324  0.841-   2 1.09
  15  0.441  0.115  0.770-   3 1.09
  16  0.509  0.915  0.763-   3 1.09
  17  0.536  0.019  0.834-   3 1.09
  18  0.210  0.926  0.779-   4 1.09
  19  0.238  0.021  0.851-   4 1.09
  20  0.305  0.824  0.841-   4 1.09
  21  0.736  0.664  0.763-   5 1.09
  22  0.802  0.864  0.770-   5 1.09
  23  0.705  0.769  0.832-   5 1.09
  24  0.034  0.676  0.780-   6 1.09
  25  0.937  0.575  0.841-   6 1.09
  26  0.003  0.773  0.852-   6 1.09
  27  0.736  0.164  0.763-   7 1.09
  28  0.802  0.364  0.770-   7 1.09
  29  0.705  0.269  0.832-   7 1.09
  30  0.034  0.176  0.780-   8 1.09
  31  0.937  0.075  0.841-   8 1.09
  32  0.003  0.273  0.852-   8 1.09
  33  0.250  0.000  0.352-  67 2.10  68 2.10  75 2.10  84 2.10  65 2.10
  34  0.500  0.250  0.352-  67 2.10  68 2.10  76 2.10  83 2.10  66 2.10
  35  0.250  0.250  0.451-  71 2.10  66 2.10  65 2.10  73 2.10  82 2.10  67 2.10
  36  0.500  0.000  0.451-  65 2.10  66 2.10  74 2.10  81 2.10  68 2.10  72 2.11
  37  0.250  0.000  0.550-  72 2.10  71 2.10  79 2.10  88 2.10  65 2.11  69 2.13
  38  0.500  0.250  0.550-  87 2.10  72 2.10  80 2.10  71 2.10  66 2.11  70 2.13
  39  0.250  0.251  0.647-  71 2.08  86 2.10  77 2.10  70 2.10  69 2.10
  40  0.499  0.001  0.648-  72 2.10  70 2.10  69 2.10  78 2.10  85 2.11
  41  0.250  0.500  0.352-  67 2.10  75 2.10  76 2.10  92 2.10  73 2.10
  42  0.500  0.750  0.352-  68 2.10  75 2.10  76 2.10  91 2.10  74 2.10
  43  0.250  0.750  0.451-  79 2.10  73 2.10  74 2.10  65 2.10  90 2.10  75 2.10
  44  0.500  0.500  0.451-  66 2.10  73 2.10  74 2.10  89 2.10  76 2.10  80 2.11
  45  0.250  0.500  0.550-  80 2.10  79 2.10  71 2.10  96 2.10  73 2.11  77 2.13
  46  0.500  0.750  0.550-  95 2.10  72 2.10  80 2.10  79 2.10  74 2.11  78 2.13
  47  0.250  0.751  0.647-  79 2.08  94 2.10  78 2.10  77 2.10  69 2.10
  48  0.500  0.501  0.648-  80 2.10  78 2.10  70 2.10  77 2.10  93 2.11
  49  0.750  0.000  0.352-  68 2.10  83 2.10  84 2.10  91 2.10  81 2.10
  50  0.000  0.250  0.352-  67 2.10  83 2.10  84 2.10  92 2.10  82 2.10
  51  0.750  0.250  0.451-  66 2.10  81 2.10  82 2.10  89 2.10  83 2.10  87 2.11
  52  0.000  0.000  0.451-  88 2.10  81 2.10  82 2.10  65 2.10  90 2.10  84 2.10
  53  0.750  0.000  0.550-  72 2.10  87 2.10  95 2.10  88 2.10  81 2.11  85 2.13
  54  1.000  0.250  0.550-  87 2.10  96 2.10  88 2.10  71 2.10  82 2.11  86 2.13
  55  0.750  0.251  0.648-  87 2.10  93 2.10  85 2.10  86 2.10  70 2.11
  56  0.000  0.001  0.647-  88 2.08  69 2.10  86 2.10  85 2.10  94 2.10
  57  0.750  0.500  0.352-  76 2.10  83 2.10  91 2.10  92 2.10  89 2.10
  58  0.000  0.750  0.352-  75 2.10  84 2.10  91 2.10  92 2.10  90 2.10
  59  0.750  0.750  0.451-  74 2.10  81 2.10  89 2.10  90 2.10  91 2.10  95 2.11
  60  0.000  0.500  0.451-  96 2.10  82 2.10  89 2.10  90 2.10  73 2.10  92 2.10
[...]
  82  0.000  0.250  0.451-  35 2.10  51 2.10  52 2.10  60 2.10  50 2.10  54 2.11
  83  0.750  0.250  0.352-  34 2.10  49 2.10  50 2.10  57 2.10  51 2.10
  84  0.000  0.000  0.352-  33 2.10  49 2.10  50 2.10  58 2.10  52 2.10
  85  0.750  0.001  0.650-  63 2.10  56 2.10  55 2.10  40 2.11  53 2.13
  86  0.000  0.251  0.649-  39 2.10  56 2.10  64 2.10  55 2.10  54 2.13
  87  0.750  0.250  0.550-  38 2.10  54 2.10  55 2.10  53 2.10  61 2.10  51 2.11
  88  1.000  0.000  0.549-  56 2.08  52 2.10  62 2.10  54 2.10  53 2.10  37 2.10
  89  0.750  0.500  0.451-  44 2.10  51 2.10  59 2.10  60 2.10  57 2.10  61 2.11
  90  0.000  0.750  0.451-  43 2.10  52 2.10  59 2.10  60 2.10  58 2.10  62 2.11
  91  0.750  0.750  0.352-  42 2.10  49 2.10  57 2.10  58 2.10  59 2.10
  92  0.000  0.500  0.352-  41 2.10  50 2.10  57 2.10  58 2.10  60 2.10
  93  0.750  0.501  0.650-  64 2.10  55 2.10  63 2.10  48 2.11  61 2.13
  94  0.000  0.751  0.649-  47 2.10  64 2.10  56 2.10  63 2.10  62 2.13
  95  0.750  0.750  0.550-  46 2.10  62 2.10  63 2.10  53 2.10  61 2.10  59 2.11
  96  1.000  0.500  0.549-  64 2.08  60 2.10  54 2.10  62 2.10  61 2.10  45 2.10

IMPORTANT INFORMATION: All symmetrisations will be switched off!
NOSYMM: (Re-)initialisation of all symmetry stuff for point group C_1.

                                     Primitive cell

  volume of cell :    1504.9259

  direct lattice vectors                    reciprocal lattice vectors
     8.404861995  0.000000000  0.000000000     0.118978753  0.000000000  0.000000000
     0.000000000  8.404861995  0.000000000     0.000000000  0.118978753  0.000000000
     0.000000000  0.000000000 21.303646496     0.000000000  0.000000000  0.046940321

  length of vectors
     8.404861995  8.404861995 21.303646496     0.118978753  0.118978753  0.046940321

  position of ions in fractional coordinates (direct lattice)
     0.453194147  0.501174457  0.794945483
     0.292541327  0.439292675  0.817828426
     0.453199785  0.001176358  0.794948348
     0.292541394  0.939291288  0.817828311
     0.789926182  0.750709882  0.794321723
     0.950017814  0.690128011  0.818319480
     0.789926533  0.250711165  0.794324381
     0.950017419  0.190127019  0.818321115
     0.441131090  0.614671531  0.770465214
     0.508562997  0.415126488  0.763257185
     0.536027150  0.519329348  0.833706686
     0.209995794  0.425748983  0.778703469
     0.238041275  0.521056257  0.851324303
     0.304890581  0.323657524  0.840625228
     0.441114920  0.114682790  0.770475909
     0.508565671  0.915107314  0.763266029
     0.536087287  0.019356444  0.833689166
     0.210009058  0.925750209  0.778697834
     0.238019203  0.021042833  0.851324242
     0.304869741  0.823654124  0.840624779
     0.736152340  0.663634047  0.762633859
     0.802435786  0.863775870  0.769543755
     0.705483387  0.769391151  0.832480541
     0.033997810  0.676010906  0.779721090
     0.937341740  0.575007379  0.841497605
     0.002952482  0.772998921  0.851797778
     0.736160246  0.163636004  0.762631261
     0.802445806  0.363773894  0.769547374
     0.705473392  0.269406862  0.832478134
     0.033982122  0.176019658  0.779717359
     0.937351643  0.075003554  0.841497546
     0.002953050  0.273002481  0.851800245
     0.250000000  0.000000000  0.352052406
     0.500000000  0.250000000  0.352052406
     0.250000000  0.250000000  0.450684135
     0.500000000  0.000000000  0.450684135
     0.250254111  0.000347606  0.549611813
     0.500347921  0.250346800  0.549930243
     0.249689291  0.250801151  0.647036680
     0.499382131  0.000907927  0.648064099
     0.250000000  0.500000000  0.352052406
     0.500000000  0.750000000  0.352052406
     0.250000000  0.750000000  0.450684135
     0.500000000  0.500000000  0.450684135
     0.250218568  0.500350319  0.549602762
     0.500354917  0.750383312  0.549930339
     0.249706420  0.750647765  0.647037379
     0.499544487  0.500895917  0.648056715
     0.750000000  0.000000000  0.352052406
     0.000000000  0.250000000  0.352052406
     0.750000000  0.250000000  0.450684135
     0.000000000  0.000000000  0.450684135
     0.749616566  0.000366817  0.549958491
     0.999693471  0.250349361  0.549618119
     0.750261570  0.250824966  0.648222718
     0.000119592  0.000729231  0.646933621
     0.750000000  0.500000000  0.352052406
     0.000000000  0.750000000  0.352052406
     0.750000000  0.750000000  0.450684135
     0.000000000  0.500000000  0.450684135
[...]
     0.000000000  0.250000000  0.450684135
     0.750000000  0.250000000  0.352052406
     0.000000000  0.000000000  0.352052406
     0.750158529  0.000782645  0.649934131
     0.000426368  0.250679738  0.649469549
     0.749959532  0.250341235  0.549650651
     0.999866640  0.000340680  0.549289887
     0.750000000  0.500000000  0.450684135
     0.000000000  0.750000000  0.450684135
     0.750000000  0.750000000  0.352052406
     0.000000000  0.500000000  0.352052406
     0.750221366  0.500776101  0.649918417
     0.000424684  0.750720309  0.649469794
     0.749959514  0.750373809  0.549651148
     0.999845973  0.500344270  0.549295878

  ion indices of the primitive-cell ions
[...]
   6.30584496  2.10814922 13.80950762
   0.00100516  0.00612908 13.78204516
   6.30364650  4.20243100  7.50000000
   0.00000000  6.30364650  7.50000000
   6.30364650  6.30364650  9.60121550
   0.00000000  4.20243100  9.60121550
[...]
   0.00000000  2.10121550  9.60121550
   6.30364650  2.10121550  7.50000000
   0.00000000  0.00000000  7.50000000
   6.30497891  0.00657803 13.84596697
   0.00358356  2.10692860 13.83606968
   6.30330637  2.10408353 11.70956316
   8.40374113  0.00286337 11.70187757
   6.30364650  4.20243100  9.60121550
   0.00000000  6.30364650  9.60121550
   6.30364650  6.30364650  7.50000000
   0.00000000  4.20243100  7.50000000
   6.30550705  4.20895402 13.84563221
   0.00356941  6.30970059 13.83607489
   6.30330621  6.30678831 11.70957375
   8.40356742  4.20532454 11.70200521

--------------------------------------- Iteration      FINAL  ---------------------------------------

--------------------OUTCAR has been truncated-------------------------

[...]

--------------------OUTCAR has been truncated-------------------------

  FORCE on cell =-STRESS in cart. coord.  units (eV):
  Direction    XX          YY          ZZ          XY          YZ          ZX
  Alpha Z  1069.01459  1069.01459  1069.01459
  Ewald  146578.37517146351.54329************     1.22497   -36.46789     1.24524
  Hartree157500.03431157348.54957************     0.95038   -24.63233     0.91604
  E(xc)   -2663.83109 -2664.12996 -2671.49359    -0.00293    -0.08598    -0.00035
  Local  ************************313675.78412    -2.28912    63.90025    -2.34423
  n-local -2893.22624 -2896.66968 -2917.11513     0.01927    -0.42864     0.01864
  augment  1046.57042  1046.38663  1037.11597     0.00111    -0.00889    -0.00133
  Kinetic  8072.95807  8058.09316  8097.21490     0.07171    -2.97150     0.25390
  Fock        0.00000     0.00000     0.00000     0.00000     0.00000     0.00000
  vdW       -25.58832   -25.49425   -20.97613    -0.00223     0.00118     0.00002
  Total     -15.25176   -15.64935     8.02931    -0.02684    -0.69381     0.08792
  in kB     -16.23736   -16.66064     8.54818    -0.02857    -0.73865     0.09360

 VOLUME and BASIS-vectors are now :
  energy-cutoff  :      600.00
  volume of cell :     1504.93
      direct lattice vectors                 reciprocal lattice vectors
     8.404861995  0.000000000  0.000000000     0.118978753  0.000000000  0.000000000
     0.000000000  8.404861995  0.000000000     0.000000000  0.118978753  0.000000000
     0.000000000  0.000000000 21.303646496     0.000000000  0.000000000  0.046940321

  length of vectors
     8.404861995  8.404861995 21.303646496     0.118978753  0.118978753  0.046940321

 FORCES acting on ions:
    Electron-Ion                     Ewald-Force                    Non-Local-Force
   -.370E+02 -.169E+02 -.901E+03   0.368E+02 0.170E+02 0.901E+03   -.437E-01 -.214E+00 -.684E-01
   0.405E+02 0.164E+02 -.879E+03   -.407E+02 -.164E+02 0.879E+03   0.436E+00 0.802E-01 0.145E+00
   -.370E+02 -.169E+02 -.901E+03   0.368E+02 0.170E+02 0.901E+03   -.431E-01 -.213E+00 -.693E-01
   0.405E+02 0.164E+02 -.879E+03   -.407E+02 -.164E+02 0.879E+03   0.436E+00 0.801E-01 0.146E+00
   0.368E+02 -.166E+02 -.902E+03   -.366E+02 0.167E+02 0.902E+03   0.565E-01 -.203E+00 -.942E-01
   -.403E+02 0.162E+02 -.879E+03   0.406E+02 -.162E+02 0.879E+03   -.444E+00 0.819E-01 0.152E+00
   0.368E+02 -.166E+02 -.902E+03   -.366E+02 0.167E+02 0.902E+03   0.562E-01 -.203E+00 -.955E-01
   -.404E+02 0.162E+02 -.879E+03   0.406E+02 -.162E+02 0.879E+03   -.444E+00 0.831E-01 0.152E+00
   0.318E+01 -.407E+02 -.217E+03   -.368E+01 0.458E+02 0.214E+03   0.487E+00 -.494E+01 0.266E+01
   -.205E+02 0.287E+02 -.215E+03   0.230E+02 -.325E+02 0.211E+03   -.241E+01 0.376E+01 0.333E+01
   -.320E+02 -.760E+01 -.246E+03   0.357E+02 0.843E+01 0.251E+03   -.361E+01 -.798E+00 -.421E+01
   0.329E+02 0.615E+01 -.199E+03   -.366E+02 -.673E+01 0.194E+03   0.360E+01 0.558E+00 0.430E+01
   0.210E+02 -.273E+02 -.231E+03   -.235E+02 0.309E+02 0.234E+03   0.239E+01 -.351E+01 -.365E+01
   -.212E+01 0.415E+02 -.227E+03   0.262E+01 -.466E+02 0.230E+03   -.493E+00 0.499E+01 -.249E+01
   0.319E+01 -.407E+02 -.217E+03   -.369E+01 0.458E+02 0.214E+03   0.488E+00 -.494E+01 0.266E+01
   -.205E+02 0.287E+02 -.215E+03   0.230E+02 -.325E+02 0.211E+03   -.241E+01 0.376E+01 0.333E+01
   -.320E+02 -.761E+01 -.246E+03   0.357E+02 0.844E+01 0.251E+03   -.361E+01 -.800E+00 -.421E+01
   0.329E+02 0.614E+01 -.199E+03   -.366E+02 -.673E+01 0.194E+03   0.360E+01 0.558E+00 0.431E+01
   0.210E+02 -.273E+02 -.231E+03   -.235E+02 0.309E+02 0.234E+03   0.239E+01 -.350E+01 -.365E+01
   -.211E+01 0.415E+02 -.227E+03   0.262E+01 -.466E+02 0.230E+03   -.492E+00 0.499E+01 -.249E+01
   0.200E+02 0.291E+02 -.215E+03   -.224E+02 -.330E+02 0.212E+03   0.234E+01 0.380E+01 0.333E+01
   -.338E+01 -.406E+02 -.217E+03   0.391E+01 0.457E+02 0.214E+03   -.508E+00 -.492E+01 0.268E+01
   0.324E+02 -.774E+01 -.246E+03   -.363E+02 0.860E+01 0.251E+03   0.368E+01 -.822E+00 -.415E+01
   -.333E+02 0.635E+01 -.199E+03   0.371E+02 -.697E+01 0.194E+03   -.367E+01 0.584E+00 0.425E+01
   0.228E+01 0.413E+02 -.227E+03   -.280E+01 -.465E+02 0.230E+03   0.508E+00 0.496E+01 -.253E+01
   -.204E+02 -.277E+02 -.230E+03   0.228E+02 0.313E+02 0.234E+03   -.232E+01 -.355E+01 -.364E+01
   0.200E+02 0.291E+02 -.215E+03   -.224E+02 -.330E+02 0.212E+03   0.234E+01 0.380E+01 0.333E+01
   -.338E+01 -.406E+02 -.217E+03   0.391E+01 0.457E+02 0.214E+03   -.508E+00 -.492E+01 0.268E+01
   0.325E+02 -.775E+01 -.246E+03   -.363E+02 0.860E+01 0.251E+03   0.368E+01 -.823E+00 -.415E+01
   -.333E+02 0.635E+01 -.199E+03   0.371E+02 -.697E+01 0.194E+03   -.367E+01 0.584E+00 0.425E+01
   0.228E+01 0.413E+02 -.227E+03   -.280E+01 -.465E+02 0.230E+03   0.508E+00 0.496E+01 -.253E+01
   -.204E+02 -.277E+02 -.230E+03   0.228E+02 0.313E+02 0.234E+03   -.232E+01 -.355E+01 -.364E+01
   -.873E-01 0.123E-02 0.214E+04   0.904E-01 -.438E-03 -.214E+04   -.229E-02 -.613E-03 -.718E+01
   -.960E-01 -.256E-02 0.214E+04   0.997E-01 0.320E-02 -.214E+04   -.276E-02 -.500E-03 -.719E+01
   -.303E+00 0.282E-01 0.859E+03   0.331E+00 -.146E-01 -.859E+03   -.192E-01 -.920E-02 0.408E+00
   -.353E+00 0.331E-01 0.858E+03   0.379E+00 -.183E-01 -.859E+03   -.183E-01 -.993E-02 0.496E+00
   0.104E+01 -.164E-01 -.418E+03   -.975E+00 0.203E-01 0.418E+03   -.759E-01 -.285E-02 -.296E+00
   0.752E+00 -.107E+00 -.419E+03   -.679E+00 0.120E+00 0.419E+03   -.808E-01 -.670E-02 -.323E+00
   0.725E+01 0.118E+01 -.169E+04   -.737E+01 -.118E+01 0.169E+04   0.118E+00 -.107E-01 0.647E+01
   0.204E+01 -.616E+00 -.168E+04   -.213E+01 0.632E+00 0.167E+04   0.101E+00 -.149E-01 0.622E+01
   -.917E-01 0.100E-02 0.214E+04   0.947E-01 -.204E-03 -.214E+04   -.219E-02 -.632E-03 -.718E+01
   -.960E-01 0.501E-02 0.214E+04   0.997E-01 -.392E-02 -.214E+04   -.277E-02 -.837E-03 -.719E+01
   -.303E+00 0.353E-01 0.859E+03   0.330E+00 -.210E-01 -.859E+03   -.194E-01 -.956E-02 0.408E+00
   -.336E+00 0.316E-01 0.858E+03   0.363E+00 -.168E-01 -.859E+03   -.194E-01 -.991E-02 0.493E+00
   0.867E+00 -.112E-01 -.418E+03   -.802E+00 0.161E-01 0.418E+03   -.689E-01 -.382E-02 -.289E+00
   0.760E+00 0.113E+00 -.419E+03   -.687E+00 -.110E+00 0.419E+03   -.815E-01 -.337E-02 -.323E+00
   0.728E+01 0.934E+00 -.169E+04   -.739E+01 -.956E+00 0.169E+04   0.116E+00 0.221E-01 0.647E+01
   0.226E+01 -.633E+00 -.168E+04   -.232E+01 0.647E+00 0.167E+04   0.657E-01 -.118E-01 0.623E+01
   0.868E-01 0.134E-02 0.214E+04   -.903E-01 -.484E-03 -.214E+04   0.262E-02 -.665E-03 -.719E+01
   0.961E-01 0.181E-02 0.214E+04   -.997E-01 -.110E-02 -.214E+04   0.263E-02 -.562E-03 -.718E+01
   0.309E+00 0.286E-01 0.858E+03   -.334E+00 -.157E-01 -.858E+03   0.176E-01 -.847E-02 0.504E+00
   0.335E+00 0.311E-01 0.859E+03   -.369E+00 -.171E-01 -.859E+03   0.233E-01 -.939E-02 0.406E+00
   -.808E+00 0.571E-02 -.419E+03   0.736E+00 0.196E-02 0.419E+03   0.785E-01 -.503E-02 -.313E+00
   -.970E+00 -.250E-01 -.418E+03   0.891E+00 0.285E-01 0.418E+03   0.832E-01 -.245E-02 -.289E+00
   -.242E+01 -.844E+00 -.168E+04   0.249E+01 0.849E+00 0.167E+04   -.763E-01 0.162E-02 0.622E+01
   -.700E+01 0.944E+00 -.169E+04   0.715E+01 -.954E+00 0.169E+04   -.142E+00 0.569E-02 0.645E+01
   0.915E-01 0.108E-02 0.214E+04   -.948E-01 -.219E-03 -.214E+04   0.243E-02 -.670E-03 -.719E+01
   0.962E-01 0.520E-03 0.214E+04   -.997E-01 0.378E-03 -.214E+04   0.262E-02 -.688E-03 -.718E+01
   0.308E+00 0.363E-01 0.858E+03   -.333E+00 -.196E-01 -.858E+03   0.176E-01 -.113E-01 0.504E+00
   0.316E+00 0.310E-01 0.859E+03   -.349E+00 -.168E-01 -.859E+03   0.233E-01 -.955E-02 0.409E+00
[...]
   0.679E-01 -.132E-02 0.161E+04   -.714E-01 0.550E-03 -.161E+04   0.492E-02 0.112E-02 0.340E+01
   0.738E-01 -.600E-03 0.161E+04   -.775E-01 0.687E-04 -.161E+04   0.511E-02 0.784E-03 0.340E+01
   -.439E+01 0.293E+00 -.128E+04   0.428E+01 -.262E+00 0.129E+04   0.118E+00 -.318E-01 -.502E+01
   -.844E+01 -.942E+00 -.129E+04   0.832E+01 0.955E+00 0.129E+04   0.126E+00 -.865E-02 -.506E+01
   -.426E+00 -.455E-01 -.309E+03   0.443E+00 0.454E-01 0.309E+03   -.179E-01 0.227E-02 0.189E+00
   -.504E+00 0.871E-02 -.307E+03   0.518E+00 -.100E-01 0.306E+03   -.147E-01 0.263E-02 0.449E+00
   0.197E+00 0.304E-01 0.643E+03   -.183E+00 -.490E-01 -.643E+03   -.191E-01 0.246E-01 -.114E+00
   0.193E+00 0.280E-01 0.644E+03   -.182E+00 -.451E-01 -.644E+03   -.150E-01 0.226E-01 -.467E-01
   0.679E-01 -.126E-03 0.161E+04   -.714E-01 -.237E-03 -.161E+04   0.493E-02 0.541E-03 0.340E+01
   0.729E-01 -.772E-03 0.161E+04   -.765E-01 0.261E-03 -.161E+04   0.514E-02 0.755E-03 0.340E+01
   -.429E+01 0.284E+00 -.128E+04   0.417E+01 -.252E+00 0.129E+04   0.117E+00 -.323E-01 -.501E+01
   -.845E+01 -.893E+00 -.129E+04   0.833E+01 0.902E+00 0.129E+04   0.124E+00 -.614E-02 -.506E+01
   -.436E+00 0.731E-01 -.309E+03   0.454E+00 -.855E-01 0.309E+03   -.191E-01 0.148E-01 0.188E+00
   -.607E+00 0.149E-01 -.307E+03   0.629E+00 -.166E-01 0.306E+03   -.208E-01 0.275E-02 0.434E+00
   -.206E-01 0.330E+00 0.167E+02   0.682E-12 0.142E-13 -.455E-11   0.191E-01 -.317E+00 -.167E+02

 POSITION                                       TOTAL-FORCE (eV/Angst)
      3.80903      4.21230     16.93524        -0.230298     -0.075944      0.075434
      2.45877      3.69219     17.42273         0.216333      0.063377     -0.063592
      3.80908      0.00989     16.93530        -0.230103     -0.076371      0.074713
      2.45877      7.89461     17.42273         0.216687      0.063686     -0.061993
      6.63922      6.30961     16.92195         0.230070     -0.075764      0.071396
      7.98477      5.80043     17.43319        -0.216150      0.065795     -0.055213
      6.63922      2.10719     16.92201         0.229553     -0.076830      0.070498
      7.98477      1.59799     17.43322        -0.215958      0.066975     -0.054389
      3.70765      5.16623     16.41372        -0.015070      0.182509     -0.125368
      4.27440      3.48908     16.26016         0.104010     -0.127285     -0.156115
      4.50523      4.36489     17.76099         0.145866      0.036790      0.169932
      1.76499      3.57836     16.58922        -0.139678     -0.032862     -0.186741
      2.00070      4.37941     18.13631        -0.085378      0.115205      0.157723
      2.56256      2.72030     17.90838         0.011986     -0.188004      0.114034
      3.70751      0.96389     16.41395        -0.014547      0.181396     -0.127182
      4.27442      7.69135     16.26035         0.103229     -0.125349     -0.157335
      4.50574      0.16269     17.76062         0.143783      0.035858      0.172322
      1.76510      7.78080     16.58910        -0.139145     -0.032587     -0.186494
      2.00052      0.17686     18.13631        -0.084826      0.115430      0.157180
      2.56239      6.92270     17.90837         0.012639     -0.188293      0.113886
      6.18726      5.57775     16.24688        -0.101666     -0.126926     -0.156314
      6.74436      7.25992     16.39409         0.015857      0.181856     -0.127177
      5.92949      6.46663     17.73487        -0.144986      0.036152      0.174455
      0.28575      5.68178     16.61090         0.144647     -0.034095     -0.189245
      7.87823      4.83286     17.92697        -0.012544     -0.187701      0.114601
      0.02482      6.49695     18.14640         0.082108      0.113155      0.154430
      6.18733      1.37534     16.24683        -0.101521     -0.126111     -0.155202
      6.74445      3.05747     16.39417         0.015880      0.182581     -0.127853
      5.92941      2.26433     17.73482        -0.144932      0.035576      0.174777
      0.28562      1.47942     16.61082         0.145132     -0.034266     -0.188978
      7.87831      0.63039     17.92697        -0.012685     -0.187718      0.114579
      0.02482      2.29455     18.14645         0.081818      0.112215      0.153572
      2.10122      0.00000      7.50000         0.000771      0.000047      0.270362
      4.20243      2.10122      7.50000         0.000954      0.000005      0.272876
      2.10122      2.10122      9.60122         0.008109      0.004162      0.055118
      4.20243      0.00000      9.60122         0.006997      0.004700      0.066911
      2.10335      0.00292     11.70874        -0.006598      0.000857     -0.022821
      4.20536      2.10413     11.71552        -0.006637      0.005867     -0.031731
      2.09860      2.10795     13.78424         0.008256     -0.008011      0.140127
      4.19724      0.00763     13.80613         0.014804      0.001568      0.123308
      2.10122      4.20243      7.50000         0.000745      0.000035      0.270243
      4.20243      6.30365      7.50000         0.000956      0.000118      0.272875
      2.10122      6.30365      9.60122         0.008161      0.004475      0.055176
      4.20243      4.20243      9.60122         0.007366      0.004687      0.069025
      2.10305      4.20538     11.70854        -0.002366      0.000854     -0.020549
      4.20541      6.30687     11.71552        -0.006980     -0.000477     -0.031748
      2.09875      6.30909     13.78426         0.007320      0.000272      0.139979
      4.19860      4.20996     13.80597         0.008749      0.002070      0.121598
      6.30365      0.00000      7.50000        -0.000866      0.000059      0.273156
      0.00000      2.10122      7.50000        -0.000847      0.000014      0.270451
      6.30365      2.10122      9.60122        -0.006771      0.004223      0.070424
      0.00000      0.00000      9.60122        -0.009705      0.004344      0.053597
      6.30042      0.00308     11.71612         0.005030      0.002509     -0.035779
      8.40229      2.10415     11.70887         0.003305      0.000821     -0.022602
      6.30584      2.10815     13.80951        -0.009205      0.006344      0.108107
      0.00101      0.00613     13.78205        -0.006688     -0.003903      0.155706
      6.30365      4.20243      7.50000        -0.000819      0.000057      0.272989
      0.00000      6.30365      7.50000        -0.000849      0.000073      0.270453
      6.30365      6.30365      9.60122        -0.006716      0.005193      0.070462
      0.00000      4.20243      9.60122        -0.009370      0.004392      0.052733
[...]
      0.00000      2.10122      9.60122        -0.003581      0.005950      0.056265
      6.30365      2.10122      7.50000         0.001445      0.000214     -0.554518
      0.00000      0.00000      7.50000         0.001500      0.000120     -0.552753
      6.30498      0.00658     13.84597         0.001689     -0.001100      0.064252
      0.00358      2.10693     13.83607         0.001177      0.003234      0.086133
      6.30331      2.10408     11.70956        -0.000403      0.001947     -0.015637
      8.40374      0.00286     11.70188        -0.000839      0.001169     -0.017783
      6.30365      4.20243      9.60122        -0.004866      0.005984      0.072472
      0.00000      6.30365      9.60122        -0.003543      0.005393      0.056259
      6.30365      6.30365      7.50000         0.001455      0.000045     -0.554519
      0.00000      4.20243      7.50000         0.001506      0.000113     -0.552691
      6.30551      4.20895     13.84563        -0.001396     -0.000810      0.067586
      0.00357      6.30970     13.83607         0.001259      0.001330      0.086138
      6.30331      6.30679     11.70957        -0.000386      0.002324     -0.015670
      8.40357      4.20532     11.70201         0.001283      0.000892     -0.018317
    total drift:                               -0.001546      0.012632     -0.008186

  FREE ENERGIE OF THE ION-ELECTRON SYSTEM (eV)
  free  energy   TOTEN  =      -534.93385670 eV

  energy  without entropy=     -534.93385670  energy(sigma->0) =     -534.93385670