 vasp.6.3.0 20Jan22 (build Mar 11 2022 13:48:16) complex

 executed on             LinuxIFC date 2024.08.24  20:31:13

 INCAR:
   SYSTEM = MgO-rocksalt
   ISMEAR = 0
   SIGMA = 0.05
   EDIFF = 1E-7
   ALGO = ALL
   ISTART = 0
   IBRION = 2
   NSW = 1000
   ISYM = 0
   ISIF = 2
   EDIFFG = -0.01
   DIPOL = 0.5 0.5 0.5
   IDIPOL = 3
   LDIPOL = .TRUE.
   METAGGA = R2SCAN
   LUSE_VDW = .TRUE.
   BPARAM = 11.95
   CPARAM = 0.0093
   LASPH = .TRUE.
   ENCUT = 600
   PREC = Accurate
   LASPH = .TRUE.
   LREAL = .FALSE.
   ISPIN = 1
   NELM = 200
   NELMIN = 8
   NCORE = 8
   KPAR = 1
   LWAVE = .FALSE.
   LCHARG = .FALSE.

 POTCAR:    PAW_PBE Ti_pv 07Sep2000
 POTCAR:    PAW_PBE O 08Apr2002
|           W    W    AA    RRRRR   N    N  II  N    N   GGGG   !!!           |
|           W    W   A  A   R    R  NN   N  II  NN   N  G    G  !!!           |
|           W    W  A    A  R    R  N N  N  II  N N  N  G       !!!           |
|           W WW W  AAAAAA  RRRRR   N  N N  II  N  N N  G  GGG   !            |
|           WW  WW  A    A  R   R   N   NN  II  N   NN  G    G                |
|           W    W  A    A  R    R  N    N  II  N    N   GGGG   !!!           |
|     For optimal performance we recommend to set                             |
|       NCORE = 2 up to number-of-cores-per-socket                            |
|     This setting can greatly improve the performance of VASP for DFT.       |
|     The default, NCORE=1 might be grossly inefficient on modern             |
|     multi-core architectures or massively parallel machines. Do your        |
|     Unfortunately you need to use the default for GW and RPA                |
|     calculations (for HF NCORE is supported but not extensively tested      |
|     yet).                                                                   |

   TITEL  = PAW_PBE Ti_pv 07Sep2000
   POMASS =   47.880; ZVAL   =   10.000    mass and valenz
   ENMAX  =  222.335; ENMIN  =  166.751 eV

   TITEL  = PAW_PBE O 08Apr2002
   POMASS =   16.000; ZVAL   =    6.000    mass and valenz
   ENMAX  =  400.000; ENMIN  =  300.000 eV

  PAW_PBE Ti_pv 07Sep2000               :
  PAW_PBE O 08Apr2002                   :

 POSCAR: Ti  O
  positions in direct lattice

 METAGGA = R2SCA    LMAXTAU =  6    LMIXTAU =  F

 ion  position               nearest neighbor table
   1  0.750  0.625  0.287-  82 1.95 142 1.95 141 1.95  81 1.95  84 1.97 163 1.97  11 2.96  31 2.96

   2  0.000  0.750  0.287-  83 1.95  84 1.95 103 1.95 104 1.95  85 1.97  32 2.96  12 2.96
   3  0.000  0.625  0.394-  85 1.95  86 1.95 145 1.95 146 1.95  87 1.97  88 1.97  13 2.96  33 2.96

[...]

  80  0.500  0.500  0.713- 179 1.95 180 1.95 239 1.95 240 1.95 234 1.97  70 2.96  50 2.96
  81  0.750  0.750  0.246-   1 1.95  11 1.95
  82  0.750  0.750  0.329-   1 1.95  11 1.95   4 1.97
  83  0.098  0.625  0.287-   2 1.95  32 1.95  41 1.97
  84  0.902  0.625  0.287-   2 1.95  32 1.95   1 1.97
  85  0.000  0.750  0.352-   3 1.95  13 1.95   2 1.97
  86  0.000  0.750  0.435-   3 1.95  13 1.95   6 1.97
  87  0.848  0.625  0.394-   4 1.95  34 1.95   3 1.97
  88  0.152  0.625  0.394-  44 1.95  74 1.95   3 1.97
  89  0.750  0.750  0.458-   5 1.95  15 1.95   4 1.97
  90  0.750  0.750  0.542-   5 1.95  15 1.95   8 1.97
  91  0.098  0.625  0.500-   6 1.95  36 1.95  45 1.97
  92  0.902  0.625  0.500-   6 1.95  36 1.95   5 1.97
  93  0.000  0.750  0.565-   7 1.95  17 1.95   6 1.97
  94  0.000  0.750  0.648-   7 1.95  17 1.95  10 1.97
  95  0.848  0.625  0.606-   8 1.95  38 1.95   7 1.97
  96  0.152  0.625  0.606-  48 1.95  78 1.95   7 1.97
  97  0.750  0.750  0.671-   9 1.95  19 1.95   8 1.97
  98  0.750  0.750  0.754-   9 1.95  19 1.95
  99  0.098  0.625  0.713-  10 1.95  40 1.95  49 1.97
 100  0.902  0.625  0.713-  10 1.95  40 1.95   9 1.97
 101  0.750  0.000  0.246-  11 1.95  21 1.95
 102  0.750  0.000  0.329-  11 1.95  21 1.95  14 1.97
 103  0.098  0.875  0.287-   2 1.95  12 1.95  51 1.97
 104  0.902  0.875  0.287-   2 1.95  12 1.95  11 1.97
 105  0.000  0.000  0.352-  13 1.95  23 1.95  12 1.97
 106  0.000  0.000  0.435-  13 1.95  23 1.95  16 1.97
 107  0.848  0.875  0.394-   4 1.95  14 1.95  13 1.97
 108  0.152  0.875  0.394-  44 1.95  54 1.95  13 1.97
 109  0.750  0.000  0.458-  15 1.95  25 1.95  14 1.97
 110  0.750  0.000  0.542-  15 1.95  25 1.95  18 1.97
 111  0.098  0.875  0.500-   6 1.95  16 1.95  55 1.97
 112  0.902  0.875  0.500-   6 1.95  16 1.95  15 1.97
 113  0.000  0.000  0.565-  17 1.95  27 1.95  16 1.97
 114  0.000  0.000  0.648-  17 1.95  27 1.95  20 1.97
 115  0.848  0.875  0.606-   8 1.95  18 1.95  17 1.97
 116  0.152  0.875  0.606-  48 1.95  58 1.95  17 1.97
 117  0.750  0.000  0.671-  19 1.95  29 1.95  18 1.97
 118  0.750  0.000  0.754-  19 1.95  29 1.95
 119  0.098  0.875  0.713-  10 1.95  20 1.95  59 1.97
 120  0.902  0.875  0.713-  10 1.95  20 1.95  19 1.97
 121  0.750  0.250  0.246-  21 1.95  31 1.95
 122  0.750  0.250  0.329-  21 1.95  31 1.95  24 1.97
 123  0.098  0.125  0.287-  12 1.95  22 1.95  61 1.97
 124  0.902  0.125  0.287-  12 1.95  22 1.95  21 1.97
 125  0.000  0.250  0.352-  23 1.95  33 1.95  22 1.97
 126  0.000  0.250  0.435-  23 1.95  33 1.95  26 1.97
 127  0.848  0.125  0.394-  14 1.95  24 1.95  23 1.97
 128  0.152  0.125  0.394-  54 1.95  64 1.95  23 1.97
 129  0.750  0.250  0.458-  25 1.95  35 1.95  24 1.97
 130  0.750  0.250  0.542-  25 1.95  35 1.95  28 1.97
 131  0.098  0.125  0.500-  16 1.95  26 1.95  65 1.97
 132  0.902  0.125  0.500-  16 1.95  26 1.95  25 1.97
 133  0.000  0.250  0.565-  27 1.95  37 1.95  26 1.97
 134  0.000  0.250  0.648-  27 1.95  37 1.95  30 1.97
 135  0.848  0.125  0.606-  18 1.95  28 1.95  27 1.97
 136  0.152  0.125  0.606-  58 1.95  68 1.95  27 1.97
 137  0.750  0.250  0.671-  29 1.95  39 1.95  28 1.97
 138  0.750  0.250  0.754-  29 1.95  39 1.95
 139  0.098  0.125  0.713-  20 1.95  30 1.95  69 1.97
[...]
 226  0.500  0.500  0.435-  43 1.95  73 1.95  76 1.97
 227  0.348  0.375  0.394-  64 1.95  74 1.95  73 1.97
 228  0.652  0.375  0.394-  24 1.95  34 1.95  73 1.97
 229  0.250  0.500  0.458-  45 1.95  75 1.95  74 1.97
 230  0.250  0.500  0.542-  45 1.95  75 1.95  78 1.97
 231  0.598  0.375  0.500-  66 1.95  76 1.95  35 1.97
 232  0.402  0.375  0.500-  66 1.95  76 1.95  75 1.97
 233  0.500  0.500  0.565-  47 1.95  77 1.95  76 1.97
 234  0.500  0.500  0.648-  47 1.95  77 1.95  80 1.97
 235  0.348  0.375  0.606-  68 1.95  78 1.95  77 1.97
 236  0.652  0.375  0.606-  28 1.95  38 1.95  77 1.97
 237  0.250  0.500  0.671-  49 1.95  79 1.95  78 1.97
 238  0.250  0.500  0.754-  49 1.95  79 1.95
 239  0.598  0.375  0.713-  70 1.95  80 1.95  39 1.97
 240  0.402  0.375  0.713-  70 1.95  80 1.95  79 1.97

IMPORTANT INFORMATION: All symmetrisations will be switched off!
NOSYMM: (Re-)initialisation of all symmetry stuff for point group C_1.

                                     Primitive cell

  volume of cell :    4687.7932

  direct lattice vectors                    reciprocal lattice vectors
    12.981765453  0.000000000  0.000000000     0.077031125  0.000000000  0.000000000
     0.000000000 11.829918508  0.000000000     0.000000000  0.084531436  0.000000000
     0.000000000  0.000000000 30.524807391     0.000000000  0.000000000  0.032760239

  length of vectors
    12.981765453 11.829918508 30.524807391     0.077031125  0.084531436  0.032760239

  position of ions in fractional coordinates (direct lattice)
     0.750000000  0.625000000  0.287357127
     0.000000000  0.750000000  0.287357127
     0.000000000  0.625000000  0.393678564
     0.750000000  0.750000000  0.393678564
     0.750000000  0.625000000  0.500000000
     0.000000000  0.750000000  0.500000000
     0.000000000  0.625000000  0.606321436
     0.750000000  0.750000000  0.606321436
     0.750000000  0.625000000  0.712642873
     0.000000000  0.750000000  0.712642873
     0.750000000  0.875000000  0.287357127
     0.000000000  0.000000000  0.287357127
     0.000000000  0.875000000  0.393678564
     0.750000000  0.000000000  0.393678564
     0.750000000  0.875000000  0.500000000
     0.000000000  0.000000000  0.500000000
     0.000000000  0.875000000  0.606321436
     0.750000000  0.000000000  0.606321436
     0.750000000  0.875000000  0.712642873
     0.000000000  0.000000000  0.712642873
     0.750000000  0.125000000  0.287357127
     0.000000000  0.250000000  0.287357127
     0.000000000  0.125000000  0.393678564
     0.750000000  0.250000000  0.393678564
     0.750000000  0.125000000  0.500000000
     0.000000000  0.250000000  0.500000000
     0.000000000  0.125000000  0.606321436
     0.750000000  0.250000000  0.606321436
     0.750000000  0.125000000  0.712642873
     0.000000000  0.250000000  0.712642873
     0.750000000  0.375000000  0.287357127
     0.000000000  0.500000000  0.287357127
     0.000000000  0.375000000  0.393678564
     0.750000000  0.500000000  0.393678564
     0.750000000  0.375000000  0.500000000
     0.000000000  0.500000000  0.500000000
     0.000000000  0.375000000  0.606321436
     0.750000000  0.500000000  0.606321436
     0.750000000  0.375000000  0.712642873
     0.000000000  0.500000000  0.712642873
     0.250000000  0.625000000  0.287357127
     0.500000000  0.750000000  0.287357127
     0.500000000  0.625000000  0.393678564
     0.250000000  0.750000000  0.393678564
     0.250000000  0.625000000  0.500000000
     0.500000000  0.750000000  0.500000000
     0.500000000  0.625000000  0.606321436
     0.250000000  0.750000000  0.606321436
     0.250000000  0.625000000  0.712642873
     0.500000000  0.750000000  0.712642873
     0.250000000  0.875000000  0.287357127
     0.500000000  0.000000000  0.287357127
     0.500000000  0.875000000  0.393678564
     0.250000000  0.000000000  0.393678564
     0.250000000  0.875000000  0.500000000
     0.500000000  0.000000000  0.500000000
     0.500000000  0.875000000  0.606321436
     0.250000000  0.000000000  0.606321436
     0.250000000  0.875000000  0.712642873
     0.500000000  0.000000000  0.712642873
[...]
     0.500000000  0.500000000  0.435333895
     0.347946691  0.375000000  0.393678564
     0.652053309  0.375000000  0.393678564
     0.250000000  0.500000000  0.458344669
     0.250000000  0.500000000  0.541655331
     0.597946691  0.375000000  0.500000000
     0.402053309  0.375000000  0.500000000
     0.500000000  0.500000000  0.564666105
     0.500000000  0.500000000  0.647976768
     0.347946691  0.375000000  0.606321436
     0.652053309  0.375000000  0.606321436
     0.250000000  0.500000000  0.670987541
     0.250000000  0.500000000  0.754298204
     0.597946691  0.375000000  0.712642873
     0.402053309  0.375000000  0.712642873

  ion indices of the primitive-cell ions
   primitive index   ion index
                 1           1
                 2           2
                 3           3
                 4           4
                 5           5
                 6           6
                 7           7
                 8           8
                 9           9
                10          10
                11          11
                12          12
                13          13
                14          14
                15          15
                16          16
                17          17
[...]
   4.51696233  4.43621944 18.50784506
   8.46480312  4.43621944 18.50784506
   3.24544136  5.91495925 20.48176545
   3.24544136  5.91495925 23.02480739
   7.76240370  4.43621944 21.75328642
   5.21936176  4.43621944 21.75328642

--------------------------------------- Iteration      FINAL  ---------------------------------------

--------------------OUTCAR has been truncated-------------------------

[...]

--------------------OUTCAR has been truncated-------------------------

  FORCE on cell =-STRESS in cart. coord.  units (eV):
  Direction    XX          YY          ZZ          XY          YZ          ZX
  Alpha Z  4666.61647  4666.61647  4666.61647
  Ewald  985747.11754************************    -0.00006     0.00029    -0.00128
  Hartree************************************    -0.00002     0.00014    -0.00035
  E(xc)   -9129.65417 -9139.23056 -9127.49574    -0.00000    -0.00000     0.00000
  Local  ************************************     0.00009    -0.00042     0.00154
  n-local -5170.91681 -5075.63008 -5215.85301    -0.00000     0.00001    -0.00019
  augment  5516.50024  5483.69936  5520.23650    -0.00000    -0.00000    -0.00005
  Kinetic 28674.43428 28184.73619 28720.25063    -0.00001    -0.00002     0.00015
  Fock        0.00000     0.00000     0.00000     0.00000     0.00000     0.00000
  Total       4.68824   -45.29108   -35.54929    -0.00000    -0.00000    -0.00017
  in kB       1.60233   -15.47942   -12.14991    -0.00000    -0.00000    -0.00006

 VOLUME and BASIS-vectors are now :
  energy-cutoff  :      600.00
  volume of cell :     4687.79
      direct lattice vectors                 reciprocal lattice vectors
    12.981765453  0.000000000  0.000000000     0.077031125  0.000000000  0.000000000
     0.000000000 11.829918508  0.000000000     0.000000000  0.084531436  0.000000000
     0.000000000  0.000000000 30.524807391     0.000000000  0.000000000  0.032760239

  length of vectors
    12.981765453 11.829918508 30.524807391     0.077031125  0.084531436  0.032760239

 FORCES acting on ions:
    Electron-Ion                     Ewald-Force                    Non-Local-Force
   0.129E-03 0.325E-06 0.381E+04   -.381E-06 -.298E-06 -.381E+04   -.162E-03 -.187E-07 0.444E+00
   -.259E-03 -.510E-06 0.399E+04   0.940E-06 0.554E-06 -.398E+04   0.261E-03 -.227E-07 -.402E+01
   0.383E-04 0.222E-05 0.193E+04   0.648E-05 -.199E-05 -.193E+04   -.748E-04 -.231E-07 -.622E-01
   -.244E-03 -.292E-05 0.193E+04   -.370E-05 0.304E-05 -.193E+04   0.236E-03 0.529E-07 0.217E+00
   0.154E-03 0.978E-05 -.192E+02   -.288E-04 -.909E-05 0.200E+02   -.165E-03 -.821E-07 -.128E+00
   -.386E-03 -.685E-05 -.697E+01   0.135E-03 0.723E-05 0.590E+01   0.242E-03 0.586E-07 0.314E+00
   -.359E-03 0.293E-04 -.190E+04   0.303E-03 -.271E-04 0.190E+04   0.563E-04 -.911E-06 0.119E+00
   -.395E-03 -.370E-04 -.197E+04   0.198E-03 0.363E-04 0.197E+04   0.199E-03 0.358E-06 -.161E+00
   -.917E-03 -.535E-04 -.380E+04   0.948E-03 0.489E-04 0.380E+04   -.295E-04 0.891E-06 -.304E+00
   0.550E-04 -.323E-05 -.382E+04   -.341E-03 0.572E-05 0.382E+04   0.292E-03 -.484E-06 0.119E+01
   0.129E-03 -.920E-06 0.381E+04   -.369E-06 0.106E-05 -.381E+04   -.162E-03 -.288E-07 0.444E+00
   -.259E-03 -.994E-06 0.399E+04   0.900E-06 0.968E-06 -.398E+04   0.261E-03 0.118E-07 -.402E+01
   0.380E-04 -.653E-05 0.193E+04   0.679E-05 0.657E-05 -.193E+04   -.748E-04 -.251E-07 -.622E-01
   -.245E-03 -.588E-05 0.193E+04   -.297E-05 0.589E-05 -.193E+04   0.236E-03 0.211E-07 0.217E+00
   0.151E-03 -.394E-04 -.192E+02   -.257E-04 0.414E-04 0.200E+02   -.165E-03 -.926E-07 -.128E+00
   -.378E-03 -.404E-04 -.697E+01   0.127E-03 0.418E-04 0.590E+01   0.242E-03 -.437E-06 0.314E+00
   -.427E-03 -.592E-04 -.190E+04   0.373E-03 0.575E-04 0.190E+04   0.565E-04 0.122E-05 0.119E+00
   -.366E-03 -.572E-04 -.197E+04   0.171E-03 0.593E-04 0.197E+04   0.198E-03 -.772E-06 -.161E+00
   -.836E-03 -.174E-03 -.380E+04   0.866E-03 0.183E-03 0.380E+04   -.288E-04 -.171E-05 -.304E+00
   0.539E-05 0.185E-04 -.382E+04   -.287E-03 -.157E-04 0.382E+04   0.290E-03 -.423E-07 0.119E+01
   0.129E-03 -.366E-06 0.381E+04   -.278E-06 0.291E-06 -.381E+04   -.162E-03 0.137E-07 0.444E+00
   -.259E-03 0.528E-06 0.399E+04   0.818E-06 -.566E-06 -.398E+04   0.261E-03 0.231E-07 -.402E+01
   0.389E-04 -.185E-05 0.193E+04   0.590E-05 0.176E-05 -.193E+04   -.748E-04 0.310E-07 -.622E-01
   -.246E-03 0.330E-05 0.193E+04   -.239E-05 -.340E-05 -.193E+04   0.236E-03 0.133E-07 0.217E+00
   0.144E-03 -.660E-05 -.192E+02   -.188E-04 0.612E-05 0.200E+02   -.165E-03 0.808E-07 -.128E+00
   -.376E-03 0.198E-04 -.697E+01   0.125E-03 -.210E-04 0.590E+01   0.242E-03 0.192E-06 0.314E+00
   -.362E-03 -.384E-04 -.190E+04   0.307E-03 0.402E-04 0.190E+04   0.562E-04 -.479E-06 0.119E+00
   -.417E-03 -.615E-04 -.197E+04   0.220E-03 0.621E-04 0.197E+04   0.199E-03 -.931E-07 -.161E+00
   -.863E-03 0.702E-04 -.380E+04   0.892E-03 -.770E-04 0.380E+04   -.294E-04 0.699E-08 -.304E+00
   0.480E-04 0.122E-04 -.382E+04   -.334E-03 -.135E-04 0.382E+04   0.292E-03 -.248E-06 0.119E+01
   0.129E-03 0.908E-06 0.381E+04   -.289E-06 -.105E-05 -.381E+04   -.162E-03 0.222E-07 0.444E+00
   -.259E-03 0.980E-06 0.399E+04   0.860E-06 -.956E-06 -.398E+04   0.261E-03 -.126E-07 -.402E+01
   0.391E-04 0.616E-05 0.193E+04   0.561E-05 -.634E-05 -.193E+04   -.748E-04 0.127E-07 -.622E-01
   -.245E-03 0.550E-05 0.193E+04   -.312E-05 -.552E-05 -.193E+04   0.236E-03 -.914E-07 0.217E+00
   0.143E-03 0.372E-04 -.192E+02   -.181E-04 -.394E-04 0.200E+02   -.165E-03 0.549E-07 -.128E+00
   -.377E-03 0.261E-04 -.697E+01   0.126E-03 -.266E-04 0.590E+01   0.242E-03 0.165E-06 0.314E+00
   -.426E-03 0.659E-04 -.190E+04   0.371E-03 -.676E-04 0.190E+04   0.569E-04 -.164E-06 0.119E+00
   -.396E-03 0.871E-04 -.197E+04   0.200E-03 -.881E-04 0.197E+04   0.198E-03 0.396E-06 -.161E+00
   -.918E-03 -.241E-03 -.380E+04   0.945E-03 0.251E-03 0.380E+04   -.317E-04 -.248E-05 -.304E+00
   0.116E-03 0.805E-04 -.382E+04   -.403E-03 -.848E-04 0.382E+04   0.292E-03 -.101E-06 0.119E+01
   0.128E-03 0.274E-06 0.381E+04   0.191E-06 -.173E-06 -.381E+04   -.162E-03 -.583E-07 0.444E+00
   -.257E-03 -.495E-06 0.399E+04   -.750E-06 0.536E-06 -.398E+04   0.261E-03 -.192E-07 -.402E+01
   0.463E-04 0.131E-05 0.193E+04   -.196E-05 -.113E-05 -.193E+04   -.747E-04 -.662E-07 -.622E-01
   -.248E-03 -.338E-05 0.193E+04   -.576E-06 0.354E-05 -.193E+04   0.236E-03 0.127E-07 0.217E+00
   0.133E-03 0.443E-07 -.192E+02   -.840E-05 0.121E-05 0.200E+02   -.165E-03 -.959E-07 -.128E+00
   -.341E-03 -.831E-06 -.697E+01   0.881E-04 0.116E-05 0.590E+01   0.242E-03 0.155E-07 0.314E+00
   -.236E-03 0.290E-04 -.190E+04   0.180E-03 -.287E-04 0.190E+04   0.559E-04 -.477E-06 0.119E+00
   -.455E-03 0.193E-04 -.197E+04   0.259E-03 -.194E-04 0.197E+04   0.199E-03 -.426E-06 -.161E+00
   -.109E-02 0.108E-03 -.380E+04   0.112E-02 -.113E-03 0.380E+04   -.296E-04 -.694E-06 -.304E+00
   0.230E-03 -.745E-04 -.382E+04   -.518E-03 0.786E-04 0.382E+04   0.292E-03 -.596E-06 0.119E+01
   0.128E-03 -.855E-06 0.381E+04   0.180E-06 0.996E-06 -.381E+04   -.162E-03 -.183E-07 0.444E+00
   -.257E-03 -.824E-06 0.399E+04   -.709E-06 0.825E-06 -.398E+04   0.261E-03 0.571E-08 -.402E+01
   0.465E-04 -.544E-05 0.193E+04   -.227E-05 0.546E-05 -.193E+04   -.747E-04 0.478E-07 -.622E-01
   -.247E-03 -.448E-05 0.193E+04   -.129E-05 0.446E-05 -.193E+04   0.236E-03 0.181E-07 0.217E+00
   0.134E-03 -.358E-04 -.192E+02   -.897E-05 0.381E-04 0.200E+02   -.165E-03 -.100E-06 -.128E+00
   -.346E-03 -.238E-04 -.697E+01   0.929E-04 0.248E-04 0.590E+01   0.242E-03 -.340E-06 0.314E+00
   -.225E-03 -.882E-04 -.190E+04   0.166E-03 0.870E-04 0.190E+04   0.568E-04 0.106E-05 0.119E+00
   -.511E-03 -.449E-04 -.197E+04   0.315E-03 0.480E-04 0.197E+04   0.199E-03 -.631E-06 -.161E+00
   -.101E-02 0.154E-04 -.380E+04   0.104E-02 -.949E-05 0.380E+04   -.300E-04 -.163E-06 -.304E+00
   0.112E-03 -.856E-05 -.382E+04   -.398E-03 0.112E-04 0.382E+04   0.291E-03 0.255E-07 0.119E+01
[...]
   -.531E+02 0.302E-05 0.116E+04   0.572E+02 -.309E-05 -.116E+04   -.361E+01 0.142E-06 0.181E+00
   0.531E+02 0.341E-05 0.116E+04   -.572E+02 -.348E-05 -.116E+04   0.361E+01 0.157E-06 0.181E+00
   0.404E-05 0.597E-05 0.499E+03   -.544E-05 -.593E-05 -.503E+03   0.921E-06 0.118E-07 0.430E+01
   -.567E-04 0.119E-04 -.537E+03   0.638E-04 -.125E-04 0.544E+03   -.962E-05 0.670E-06 -.719E+01
   -.551E+02 0.174E-04 -.539E+01   0.599E+02 -.179E-04 0.513E+01   -.533E+01 0.722E-06 0.356E+00
   0.551E+02 0.114E-04 -.539E+01   -.599E+02 -.118E-04 0.513E+01   0.533E+01 0.612E-06 0.356E+00
   0.151E-03 -.174E-04 -.647E+03   -.180E-03 0.211E-04 0.641E+03   0.296E-04 -.279E-05 0.637E+01
   0.137E-03 0.695E-04 -.163E+04   -.122E-03 -.761E-04 0.163E+04   -.170E-04 0.649E-05 0.283E+01
   -.281E+02 -.409E-04 -.116E+04   0.311E+02 0.443E-04 0.116E+04   -.298E+01 -.184E-05 0.863E+00
   0.281E+02 0.222E-04 -.116E+04   -.311E+02 -.231E-04 0.116E+04   0.298E+01 0.107E-05 0.863E+00
   -.427E-03 -.457E-04 -.184E+04   0.437E-03 0.470E-04 0.184E+04   -.953E-05 0.499E-06 -.229E+01
   0.245E-03 0.444E-04 -.275E+04   -.301E-03 -.545E-04 0.277E+04   0.566E-04 0.941E-05 -.216E+02
   -.218E+02 -.285E-04 -.237E+04   0.281E+02 0.314E-04 0.238E+04   -.628E+01 -.456E-05 -.407E+01
   0.218E+02 -.767E-04 -.237E+04   -.281E+02 0.836E-04 0.238E+04   0.628E+01 -.758E-05 -.407E+01
   -.973E-02 -.400E-04 0.987E+02   -.204E-11 0.125E-11 -.427E-10   0.973E-02 0.448E-04 -.987E+02

 POSITION                                       TOTAL-FORCE (eV/Angst)
      9.73632      7.39370      8.77152        -0.000032     -0.000000     -3.754875
      0.00000      8.87244      8.77152        -0.000001      0.000000      2.942408
      0.00000      7.39370     12.01696        -0.000029      0.000000      0.544028
      9.73632      8.87244     12.01696        -0.000015      0.000000     -0.752373
      9.73632      7.39370     15.26240        -0.000038      0.000001      0.668966
      0.00000      8.87244     15.26240        -0.000012      0.000000     -0.750938
     -0.00000      7.39370     18.44106        -0.000000      0.000001     -0.001920
      9.73632      8.87244     18.62633        -0.000001     -0.000000     -0.007253
      9.73632      7.39370     21.96984         0.000002     -0.000004      0.001141
      0.00000      8.87244     21.61058         0.000002      0.000002      0.008419
      9.73632     10.35118      8.77152        -0.000032      0.000000     -3.754875
      0.00000      0.00000      8.77152        -0.000001     -0.000000      2.942408
      0.00000     10.35118     12.01696        -0.000029     -0.000000      0.544028
      9.73632      0.00000     12.01696        -0.000015      0.000000     -0.752372
      9.73632     10.35118     15.26240        -0.000038      0.000002      0.668967
      0.00000      0.00000     15.26240        -0.000012      0.000001     -0.750937
     -0.00000     10.35118     18.44106         0.000001     -0.000001     -0.001918
      9.73632     -0.00000     18.62633        -0.000001      0.000001     -0.007253
      9.73632     10.35118     21.96984         0.000001      0.000006      0.001144
     -0.00000     -0.00000     21.61058         0.000004      0.000003      0.008424
      9.73632      1.47874      8.77152        -0.000032     -0.000000     -3.754875
      0.00000      2.95748      8.77152        -0.000001     -0.000000      2.942408
      0.00000      1.47874     12.01696        -0.000029     -0.000000      0.544028
      9.73632      2.95748     12.01696        -0.000015     -0.000000     -0.752372
      9.73632      1.47874     15.26240        -0.000038     -0.000000      0.668969
      0.00000      2.95748     15.26240        -0.000013     -0.000001     -0.750936
     -0.00000      1.47874     18.44106         0.000001      0.000001     -0.001923
      9.73632      2.95748     18.62633        -0.000001      0.000000     -0.007253
      9.73632      1.47874     21.96984        -0.000001     -0.000007      0.001133
      0.00000      2.95748     21.61058         0.000002     -0.000001      0.008424
      9.73632      4.43622      8.77152        -0.000032     -0.000000     -3.754875
      0.00000      5.91496      8.77152        -0.000001     -0.000000      2.942408
      0.00000      4.43622     12.01696        -0.000029     -0.000000      0.544028
      9.73632      5.91496     12.01696        -0.000015     -0.000000     -0.752373
      9.73632      4.43622     15.26240        -0.000038     -0.000002      0.668967
      0.00000      5.91496     15.26240        -0.000013     -0.000000     -0.750937
     -0.00000      4.43622     18.44106         0.000001     -0.000002     -0.001921
      9.73632      5.91496     18.62633        -0.000001     -0.000001     -0.007248
      9.73633      4.43622     21.96984        -0.000004      0.000007      0.001137
      0.00000      5.91496     21.61058         0.000001     -0.000004      0.008426
      3.24544      7.39370      8.77152        -0.000032      0.000000     -3.754875
      6.49088      8.87244      8.77152        -0.000001      0.000000      2.942408
      6.49088      7.39370     12.01696        -0.000030      0.000000      0.544028
      3.24544      8.87244     12.01696        -0.000015      0.000000     -0.752372
      3.24544      7.39370     15.26240        -0.000039      0.000001      0.668968
      6.49088      8.87244     15.26240        -0.000014      0.000000     -0.750938
      6.49088      7.39370     18.44106        -0.000001     -0.000000     -0.001923
      3.24544      8.87244     18.62633        -0.000001     -0.000000     -0.007253
      3.24544      7.39370     21.96984         0.000000     -0.000006      0.001157
      6.49088      8.87244     21.61058        -0.000001      0.000003      0.008425
      3.24544     10.35118      8.77152        -0.000032      0.000000     -3.754875
      6.49088      0.00000      8.77152        -0.000001     -0.000000      2.942408
      6.49088     10.35118     12.01696        -0.000030      0.000000      0.544028
      3.24544      0.00000     12.01696        -0.000015     -0.000000     -0.752372
      3.24544     10.35118     15.26240        -0.000038      0.000002      0.668970
      6.49088      0.00000     15.26240        -0.000014      0.000001     -0.750938
      6.49088     10.35118     18.44106        -0.000003     -0.000000     -0.001919
      3.24544     -0.00000     18.62633        -0.000000      0.000002     -0.007249
      3.24544     10.35118     21.96984        -0.000001      0.000006      0.001129
      6.49088      0.00000     21.61058         0.000001      0.000003      0.008433
[...]
      6.49088      5.91496     13.28848        -0.000002     -0.000000     -0.134977
      4.51696      4.43622     12.01696         0.449317      0.000000      0.056909
      8.46480      4.43622     12.01696        -0.449271      0.000000      0.056908
      3.24544      5.91496     13.99088        -0.000000      0.000000     -0.084866
      3.24544      5.91496     16.53392        -0.000003      0.000000      0.044523
      7.76240      4.43622     15.26240        -0.465132      0.000000      0.090865
      5.21936      4.43622     15.26240         0.465185      0.000000      0.090862
      6.49088      5.91496     17.25066         0.000001      0.000001      0.005242
      6.49088      5.91496     19.79790        -0.000002     -0.000000      0.006227
      4.54426      4.43622     18.52485         0.000651      0.000002     -0.004109
      8.43751      4.43622     18.52485        -0.000647      0.000000     -0.004108
      3.24544      5.91496     20.49161         0.000001      0.000002      0.002256
      3.24544      5.91496     23.04502         0.000001     -0.000001     -0.005653
      7.70922      4.43622     21.92549        -0.005557     -0.000002      0.001312
      5.27255      4.43622     21.92549         0.005556     -0.000001      0.001311
    total drift:                                0.000001      0.000005     -0.029960

  FREE ENERGIE OF THE ION-ELECTRON SYSTEM (eV)
  free  energy   TOTEN  =     -2710.43220979 eV

  energy  without entropy=    -2710.43220979  energy(sigma->0) =    -2710.43220979

 d Force = 0.1350697E-03[ 0.102E-03, 0.168E-03]  d Energy = 0.1418560E-03-0.679E-05
 d Force = 0.1615575E+02[ 0.162E+02, 0.162E+02]  d Ewald  = 0.1615575E+02 0.505E-07

 Conjugate gradient step on ions:
 trial-energy change:   -0.000142  1 .order   -0.000135   -0.000168   -0.000102
  (g-gl).g = 0.354E-03      g.g   = 0.379E-03  gl.gl    = 0.344E-03
 g(Force)  = 0.379E-03   g(Stress)= 0.000E+00 ortho     = 0.305E-04
 gamma     =   1.02824
 trial     =   0.40964
 opt step  =   0.71362  (harmonic =   1.03851) maximal distance =0.00081803
 next E    = -2710.432250   (d E  =  -0.00018)

 reached required accuracy - stopping structural energy minimisation