 vasp.6.3.0 20Jan22 (build Apr  1 2022 16:44:48) complex
 executed on        HPECrayEX_GCC date 2023.04.06  22:17:59

 INCAR:
   SYSTEM = MgO-rocksalt
   ISMEAR = 0
   SIGMA = 0.05
   EDIFF = 1E-7
   ALGO = ALL
   ISTART = 0
   IBRION = 2
   NSW = 1000
   ISYM = 0
   ISIF = 2
   EDIFFG = -0.01
   DIPOL = 0.5 0.5 0.5
   IDIPOL = 3
   LDIPOL = .TRUE.
   METAGGA = R2SCAN
   LUSE_VDW = .TRUE.
   BPARAM = 11.95
   CPARAM = 0.0093
   LASPH = .TRUE.
   ENCUT = 600
   PREC = Accurate
   LASPH = .TRUE.
   LREAL = .FALSE.
   ISPIN = 1
   NELM = 200
   NELMIN = 8
   NCORE = 8
   KPAR = 1
   LWAVE = .FALSE.
   LCHARG = .FALSE.

 POTCAR:    PAW_PBE Ti_pv 07Sep2000
 POTCAR:    PAW_PBE O 08Apr2002
|               ----> ADVICE to this user running VASP <----                  |
|     You have switched on vdW-DFT.                                           |
|     This routine was written and supplied by Jiri Klimes. We recommend      |
|     that you carefully read and cite the following publications:            |
|       J. Klimes, D.R. Bowler, A. Michelides                                 |
|          J. Phys.: Cond Matt. 22 022201 (2010)                              |
|       J. Klimes, D.R. Bowler, A. Michelides                                 |
|          Phys. Rev. B. 83, 195131 (2011)                                    |
|     and references therein.                                                 |

   TITEL  = PAW_PBE Ti_pv 07Sep2000
   POMASS =   47.880; ZVAL   =   10.000    mass and valenz
   ENMAX  =  222.335; ENMIN  =  166.751 eV

   TITEL  = PAW_PBE O 08Apr2002
   POMASS =   16.000; ZVAL   =    6.000    mass and valenz
   ENMAX  =  400.000; ENMIN  =  300.000 eV

  PAW_PBE Ti_pv 07Sep2000               :
  PAW_PBE O 08Apr2002                   :

 POSCAR: Ti  O
  positions in direct lattice

 METAGGA = R2SCA    LMAXTAU =  6    LMIXTAU =  F

 ion  position               nearest neighbor table
   1  0.750  0.625  0.287-  82 1.95 142 1.95 141 1.95  81 1.95  84 1.97 163 1.97  11 2.96  31 2.96

   2  0.000  0.750  0.287-  83 1.95  84 1.95 103 1.95 104 1.95  85 1.97  32 2.96  12 2.96
   3  0.000  0.625  0.394-  85 1.95  86 1.95 145 1.95 146 1.95  87 1.97  88 1.97  13 2.96  33 2.96

[...]

  80  0.500  0.500  0.713- 179 1.95 180 1.95 239 1.95 240 1.95 234 1.97  70 2.96  50 2.96
  81  0.750  0.750  0.246-   1 1.95  11 1.95
  82  0.750  0.750  0.329-   1 1.95  11 1.95   4 1.97
  83  0.098  0.625  0.287-   2 1.95  32 1.95  41 1.97
  84  0.902  0.625  0.287-   2 1.95  32 1.95   1 1.97
  85  0.000  0.750  0.352-   3 1.95  13 1.95   2 1.97
  86  0.000  0.750  0.435-   3 1.95  13 1.95   6 1.97
  87  0.848  0.625  0.394-   4 1.95  34 1.95   3 1.97
  88  0.152  0.625  0.394-  44 1.95  74 1.95   3 1.97
  89  0.750  0.750  0.458-   5 1.95  15 1.95   4 1.97
  90  0.750  0.750  0.542-   5 1.95  15 1.95   8 1.97
  91  0.098  0.625  0.500-   6 1.95  36 1.95  45 1.97
  92  0.902  0.625  0.500-   6 1.95  36 1.95   5 1.97
  93  0.000  0.750  0.565-   7 1.95  17 1.95   6 1.97
  94  0.000  0.750  0.648-   7 1.95  17 1.95  10 1.97
  95  0.848  0.625  0.606-   8 1.95  38 1.95   7 1.97
  96  0.152  0.625  0.606-  48 1.95  78 1.95   7 1.97
  97  0.750  0.750  0.671-   9 1.95  19 1.95   8 1.97
  98  0.750  0.750  0.754-   9 1.95  19 1.95
  99  0.098  0.625  0.713-  10 1.95  40 1.95  49 1.97
 100  0.902  0.625  0.713-  10 1.95  40 1.95   9 1.97
 101  0.750  0.000  0.246-  11 1.95  21 1.95
 102  0.750  0.000  0.329-  11 1.95  21 1.95  14 1.97
 103  0.098  0.875  0.287-   2 1.95  12 1.95  51 1.97
 104  0.902  0.875  0.287-   2 1.95  12 1.95  11 1.97
 105  0.000  0.000  0.352-  13 1.95  23 1.95  12 1.97
 106  0.000  0.000  0.435-  13 1.95  23 1.95  16 1.97
 107  0.848  0.875  0.394-   4 1.95  14 1.95  13 1.97
 108  0.152  0.875  0.394-  44 1.95  54 1.95  13 1.97
 109  0.750  0.000  0.458-  15 1.95  25 1.95  14 1.97
 110  0.750  0.000  0.542-  15 1.95  25 1.95  18 1.97
 111  0.098  0.875  0.500-   6 1.95  16 1.95  55 1.97
 112  0.902  0.875  0.500-   6 1.95  16 1.95  15 1.97
 113  0.000  0.000  0.565-  17 1.95  27 1.95  16 1.97
 114  0.000  0.000  0.648-  17 1.95  27 1.95  20 1.97
 115  0.848  0.875  0.606-   8 1.95  18 1.95  17 1.97
 116  0.152  0.875  0.606-  48 1.95  58 1.95  17 1.97
 117  0.750  0.000  0.671-  19 1.95  29 1.95  18 1.97
 118  0.750  0.000  0.754-  19 1.95  29 1.95
 119  0.098  0.875  0.713-  10 1.95  20 1.95  59 1.97
 120  0.902  0.875  0.713-  10 1.95  20 1.95  19 1.97
 121  0.750  0.250  0.246-  21 1.95  31 1.95
 122  0.750  0.250  0.329-  21 1.95  31 1.95  24 1.97
 123  0.098  0.125  0.287-  12 1.95  22 1.95  61 1.97
 124  0.902  0.125  0.287-  12 1.95  22 1.95  21 1.97
 125  0.000  0.250  0.352-  23 1.95  33 1.95  22 1.97
 126  0.000  0.250  0.435-  23 1.95  33 1.95  26 1.97
 127  0.848  0.125  0.394-  14 1.95  24 1.95  23 1.97
 128  0.152  0.125  0.394-  54 1.95  64 1.95  23 1.97
 129  0.750  0.250  0.458-  25 1.95  35 1.95  24 1.97
 130  0.750  0.250  0.542-  25 1.95  35 1.95  28 1.97
 131  0.098  0.125  0.500-  16 1.95  26 1.95  65 1.97
 132  0.902  0.125  0.500-  16 1.95  26 1.95  25 1.97
 133  0.000  0.250  0.565-  27 1.95  37 1.95  26 1.97
 134  0.000  0.250  0.648-  27 1.95  37 1.95  30 1.97
 135  0.848  0.125  0.606-  18 1.95  28 1.95  27 1.97
 136  0.152  0.125  0.606-  58 1.95  68 1.95  27 1.97
 137  0.750  0.250  0.671-  29 1.95  39 1.95  28 1.97
 138  0.750  0.250  0.754-  29 1.95  39 1.95
 139  0.098  0.125  0.713-  20 1.95  30 1.95  69 1.97
[...]
 226  0.500  0.500  0.435-  43 1.95  73 1.95  76 1.97
 227  0.348  0.375  0.394-  64 1.95  74 1.95  73 1.97
 228  0.652  0.375  0.394-  24 1.95  34 1.95  73 1.97
 229  0.250  0.500  0.458-  45 1.95  75 1.95  74 1.97
 230  0.250  0.500  0.542-  45 1.95  75 1.95  78 1.97
 231  0.598  0.375  0.500-  66 1.95  76 1.95  35 1.97
 232  0.402  0.375  0.500-  66 1.95  76 1.95  75 1.97
 233  0.500  0.500  0.565-  47 1.95  77 1.95  76 1.97
 234  0.500  0.500  0.648-  47 1.95  77 1.95  80 1.97
 235  0.348  0.375  0.606-  68 1.95  78 1.95  77 1.97
 236  0.652  0.375  0.606-  28 1.95  38 1.95  77 1.97
 237  0.250  0.500  0.671-  49 1.95  79 1.95  78 1.97
 238  0.250  0.500  0.754-  49 1.95  79 1.95
 239  0.598  0.375  0.713-  70 1.95  80 1.95  39 1.97
 240  0.402  0.375  0.713-  70 1.95  80 1.95  79 1.97

IMPORTANT INFORMATION: All symmetrisations will be switched off!
NOSYMM: (Re-)initialisation of all symmetry stuff for point group C_1.

                                     Primitive cell

  volume of cell :    4687.8040

  direct lattice vectors                    reciprocal lattice vectors
    12.981773603  0.000000000  0.000000000     0.077031077  0.000000000  0.000000000
     0.000000000 11.829932295  0.000000000     0.000000000  0.084531338  0.000000000
     0.000000000  0.000000000 30.524823105     0.000000000  0.000000000  0.032760223

  length of vectors
    12.981773603 11.829932295 30.524823105     0.077031077  0.084531338  0.032760223

  position of ions in fractional coordinates (direct lattice)
     0.750000000  0.625000000  0.287357103
     0.000000000  0.750000000  0.287357103
     0.000000000  0.625000000  0.393678552
     0.750000000  0.750000000  0.393678552
     0.750000000  0.625000000  0.500000000
     0.000000000  0.750000000  0.500000000
     0.000000000  0.625000000  0.606321448
     0.750000000  0.750000000  0.606321448
     0.750000000  0.625000000  0.712642897
     0.000000000  0.750000000  0.712642897
     0.750000000  0.875000000  0.287357103
     0.000000000  0.000000000  0.287357103
     0.000000000  0.875000000  0.393678552
     0.750000000  0.000000000  0.393678552
     0.750000000  0.875000000  0.500000000
     0.000000000  0.000000000  0.500000000
     0.000000000  0.875000000  0.606321448
     0.750000000  0.000000000  0.606321448
     0.750000000  0.875000000  0.712642897
     0.000000000  0.000000000  0.712642897
     0.750000000  0.125000000  0.287357103
     0.000000000  0.250000000  0.287357103
     0.000000000  0.125000000  0.393678552
     0.750000000  0.250000000  0.393678552
     0.750000000  0.125000000  0.500000000
     0.000000000  0.250000000  0.500000000
     0.000000000  0.125000000  0.606321448
     0.750000000  0.250000000  0.606321448
     0.750000000  0.125000000  0.712642897
     0.000000000  0.250000000  0.712642897
     0.750000000  0.375000000  0.287357103
     0.000000000  0.500000000  0.287357103
     0.000000000  0.375000000  0.393678552
     0.750000000  0.500000000  0.393678552
     0.750000000  0.375000000  0.500000000
     0.000000000  0.500000000  0.500000000
     0.000000000  0.375000000  0.606321448
     0.750000000  0.500000000  0.606321448
     0.750000000  0.375000000  0.712642897
     0.000000000  0.500000000  0.712642897
     0.250000000  0.625000000  0.287357103
     0.500000000  0.750000000  0.287357103
     0.500000000  0.625000000  0.393678552
     0.250000000  0.750000000  0.393678552
     0.250000000  0.625000000  0.500000000
     0.500000000  0.750000000  0.500000000
     0.500000000  0.625000000  0.606321448
     0.250000000  0.750000000  0.606321448
     0.250000000  0.625000000  0.712642897
     0.500000000  0.750000000  0.712642897
     0.250000000  0.875000000  0.287357103
     0.500000000  0.000000000  0.287357103
     0.500000000  0.875000000  0.393678552
     0.250000000  0.000000000  0.393678552
     0.250000000  0.875000000  0.500000000
     0.500000000  0.000000000  0.500000000
     0.500000000  0.875000000  0.606321448
     0.250000000  0.000000000  0.606321448
     0.250000000  0.875000000  0.712642897
     0.500000000  0.000000000  0.712642897
[...]
     0.500000000  0.500000000  0.435333986
     0.347946921  0.375000000  0.393678552
     0.652053079  0.375000000  0.393678552
     0.250000000  0.500000000  0.458344566
     0.250000000  0.500000000  0.541655434
     0.597946921  0.375000000  0.500000000
     0.402053079  0.375000000  0.500000000
     0.500000000  0.500000000  0.564666014
     0.500000000  0.500000000  0.647976882
     0.347946921  0.375000000  0.606321448
     0.652053079  0.375000000  0.606321448
     0.250000000  0.500000000  0.670987463
     0.250000000  0.500000000  0.754298330
     0.597946921  0.375000000  0.712642897
     0.402053079  0.375000000  0.712642897

  ion indices of the primitive-cell ions
   primitive index   ion index
                 1           1
                 2           2
                 3           3
                 4           4
                 5           5
                 6           6
                 7           7
                 8           8
                 9           9
                10          10
                11          11
                12          12
                13          13
                14          14
                15          15
                16          16
                17          17
                18          18
                19          19
                20          20
                21          21
                22          22
                23          23
                24          24
                25          25
                26          26
                27          27
                28          28
                29          29
                30          30
[...]
   4.51696815  4.43622461 18.50785495
   8.46480545  4.43622461 18.50785495
   3.24544340  5.91496615 20.48177360
   3.24544340  5.91496615 23.02482310
   7.76241155  4.43622461 21.75329835
   5.21936205  4.43622461 21.75329835

--------------------------------------- Iteration      FINAL  ---------------------------------------

--------------------OUTCAR has been truncated-------------------------

[...]

--------------------OUTCAR has been truncated-------------------------

  FORCE on cell =-STRESS in cart. coord.  units (eV):
  Direction    XX          YY          ZZ          XY          YZ          ZX
  Alpha Z  4666.60570  4666.60570  4666.60570
  Ewald  985676.05909************************    -0.00007     0.00010    -0.00136
  Hartree************************************    -0.00003     0.00004    -0.00040
  E(xc)   -9129.63422 -9139.21216 -9127.47951    -0.00000     0.00000     0.00000
  Local  ************************************     0.00011    -0.00015     0.00167
  n-local -5170.92175 -5075.64368 -5215.88583    -0.00000     0.00000    -0.00019
  augment  5516.49545  5483.70136  5520.23701     0.00000    -0.00000    -0.00004
  Kinetic 28674.39013 28184.66967 28720.14324    -0.00000     0.00001     0.00015
  Fock        0.00000     0.00000     0.00000     0.00000     0.00000     0.00000
  Total       4.68192   -45.35849   -35.74259    -0.00000     0.00001    -0.00017
  in kB       1.60017   -15.50243   -12.21595    -0.00000     0.00000    -0.00006

 VOLUME and BASIS-vectors are now :
  energy-cutoff  :      600.00
  volume of cell :     4687.80
      direct lattice vectors                 reciprocal lattice vectors
    12.981773603  0.000000000  0.000000000     0.077031077  0.000000000  0.000000000
     0.000000000 11.829932295  0.000000000     0.000000000  0.084531338  0.000000000
     0.000000000  0.000000000 30.524823105     0.000000000  0.000000000  0.032760223

  length of vectors
    12.981773603 11.829932295 30.524823105     0.077031077  0.084531338  0.032760223

 FORCES acting on ions:
    Electron-Ion                     Ewald-Force                    Non-Local-Force
   0.129E-03 0.166E-06 0.381E+04   -.870E-06 -.772E-07 -.381E+04   -.162E-03 -.696E-07 0.444E+00
   -.259E-03 -.679E-06 0.399E+04   0.155E-05 0.726E-06 -.398E+04   0.261E-03 -.395E-07 -.402E+01
   0.356E-04 0.438E-06 0.193E+04   0.939E-05 -.581E-06 -.193E+04   -.748E-04 0.102E-07 -.622E-01
   -.242E-03 -.275E-05 0.193E+04   -.652E-05 0.285E-05 -.193E+04   0.237E-03 -.102E-06 0.216E+00
   0.183E-03 0.927E-05 -.193E+02   -.585E-04 -.917E-05 0.201E+02   -.165E-03 0.186E-06 -.128E+00
   -.394E-03 -.346E-04 -.710E+01   0.145E-03 0.364E-04 0.603E+01   0.242E-03 -.689E-07 0.314E+00
   -.252E-03 0.113E-03 -.190E+04   0.192E-03 -.118E-03 0.190E+04   0.564E-04 0.110E-05 0.120E+00
   -.490E-03 -.395E-04 -.197E+04   0.295E-03 0.388E-04 0.197E+04   0.199E-03 -.104E-06 -.162E+00
   -.908E-03 0.113E-03 -.380E+04   0.938E-03 -.119E-03 0.380E+04   -.321E-04 0.119E-05 -.305E+00
   0.141E-03 -.396E-04 -.382E+04   -.427E-03 0.437E-04 0.382E+04   0.292E-03 -.907E-06 0.119E+01
   0.129E-03 -.710E-06 0.381E+04   -.605E-06 0.808E-06 -.381E+04   -.162E-03 -.305E-07 0.444E+00
   -.259E-03 -.770E-06 0.399E+04   0.150E-05 0.774E-06 -.398E+04   0.261E-03 0.143E-07 -.402E+01
   0.355E-04 -.707E-05 0.193E+04   0.954E-05 0.740E-05 -.193E+04   -.749E-04 -.699E-08 -.622E-01
   -.246E-03 -.373E-05 0.193E+04   -.257E-05 0.393E-05 -.193E+04   0.236E-03 0.570E-07 0.216E+00
   0.146E-03 -.389E-04 -.193E+02   -.215E-04 0.452E-04 0.201E+02   -.165E-03 -.416E-06 -.128E+00
   -.392E-03 -.361E-04 -.710E+01   0.142E-03 0.374E-04 0.603E+01   0.242E-03 -.523E-06 0.314E+00
   -.417E-03 -.170E-03 -.190E+04   0.364E-03 0.177E-03 0.190E+04   0.568E-04 -.111E-05 0.120E+00
   -.497E-03 0.337E-04 -.197E+04   0.305E-03 -.351E-04 0.197E+04   0.198E-03 0.136E-06 -.162E+00
   -.999E-03 -.145E-03 -.380E+04   0.103E-02 0.150E-03 0.380E+04   -.309E-04 -.138E-05 -.305E+00
   0.143E-03 0.119E-03 -.382E+04   -.430E-03 -.123E-03 0.382E+04   0.292E-03 -.568E-06 0.119E+01
   0.129E-03 -.138E-06 0.381E+04   -.326E-06 0.678E-07 -.381E+04   -.162E-03 0.752E-07 0.444E+00
   -.259E-03 0.673E-06 0.399E+04   0.143E-05 -.721E-06 -.398E+04   0.261E-03 0.389E-07 -.402E+01
   0.362E-04 -.257E-06 0.193E+04   0.872E-05 0.364E-06 -.193E+04   -.748E-04 0.103E-07 -.622E-01
   -.246E-03 0.292E-05 0.193E+04   -.249E-05 -.302E-05 -.193E+04   0.236E-03 -.937E-07 0.216E+00
   0.128E-03 0.315E-05 -.193E+02   -.262E-05 -.507E-05 0.201E+02   -.165E-03 -.352E-06 -.128E+00
   -.395E-03 0.243E-04 -.710E+01   0.144E-03 -.261E-04 0.603E+01   0.242E-03 0.528E-07 0.314E+00
   -.270E-03 -.176E-03 -.190E+04   0.210E-03 0.181E-03 0.190E+04   0.562E-04 -.976E-06 0.120E+00
   -.510E-03 -.455E-04 -.197E+04   0.318E-03 0.445E-04 0.197E+04   0.199E-03 -.360E-06 -.162E+00
   -.907E-03 -.337E-04 -.380E+04   0.934E-03 0.377E-04 0.380E+04   -.306E-04 -.660E-06 -.305E+00
   0.511E-04 -.581E-04 -.382E+04   -.332E-03 0.584E-04 0.382E+04   0.290E-03 0.174E-06 0.119E+01
   0.129E-03 0.678E-06 0.381E+04   -.586E-06 -.798E-06 -.381E+04   -.162E-03 0.257E-07 0.444E+00
   -.259E-03 0.768E-06 0.399E+04   0.148E-05 -.778E-06 -.398E+04   0.260E-03 -.194E-07 -.402E+01
   0.362E-04 0.688E-05 0.193E+04   0.868E-05 -.719E-05 -.193E+04   -.748E-04 0.353E-07 -.622E-01
   -.242E-03 0.353E-05 0.193E+04   -.649E-05 -.376E-05 -.193E+04   0.236E-03 0.743E-07 0.216E+00
   0.151E-03 0.270E-04 -.193E+02   -.262E-04 -.315E-04 0.201E+02   -.165E-03 0.495E-06 -.128E+00
   -.399E-03 0.451E-04 -.710E+01   0.148E-03 -.468E-04 0.603E+01   0.242E-03 0.587E-06 0.314E+00
   -.326E-03 0.498E-04 -.190E+04   0.267E-03 -.529E-04 0.190E+04   0.568E-04 0.534E-06 0.120E+00
   -.381E-03 -.393E-04 -.197E+04   0.188E-03 0.412E-04 0.197E+04   0.198E-03 0.697E-06 -.162E+00
   -.842E-03 0.531E-04 -.380E+04   0.868E-03 -.560E-04 0.380E+04   -.310E-04 0.117E-05 -.305E+00
   -.361E-04 0.594E-04 -.382E+04   -.244E-03 -.610E-04 0.382E+04   0.290E-03 0.654E-06 0.119E+01
   0.128E-03 0.934E-07 0.381E+04   0.683E-06 0.335E-07 -.381E+04   -.162E-03 -.102E-06 0.444E+00
   -.257E-03 -.273E-06 0.399E+04   -.136E-05 0.316E-06 -.398E+04   0.261E-03 -.324E-07 -.402E+01
   0.489E-04 0.181E-06 0.193E+04   -.489E-05 -.341E-06 -.193E+04   -.746E-04 0.519E-07 -.622E-01
   -.250E-03 -.309E-05 0.193E+04   0.243E-05 0.329E-05 -.193E+04   0.236E-03 0.368E-07 0.216E+00
   0.106E-03 -.930E-06 -.193E+02   0.197E-04 0.451E-05 0.201E+02   -.166E-03 0.693E-07 -.128E+00
   -.327E-03 0.229E-04 -.710E+01   0.728E-04 -.225E-04 0.603E+01   0.242E-03 0.258E-06 0.314E+00
   -.173E-03 0.102E-03 -.190E+04   0.114E-03 -.106E-03 0.190E+04   0.567E-04 0.755E-06 0.120E+00
   -.517E-03 0.844E-04 -.197E+04   0.322E-03 -.812E-04 0.197E+04   0.199E-03 -.248E-06 -.162E+00
   -.913E-03 0.157E-03 -.380E+04   0.940E-03 -.162E-03 0.380E+04   -.301E-04 0.642E-06 -.305E+00
   0.187E-03 -.230E-03 -.382E+04   -.477E-03 0.238E-03 0.382E+04   0.293E-03 -.352E-06 0.119E+01
   0.128E-03 -.654E-06 0.381E+04   0.424E-06 0.743E-06 -.381E+04   -.162E-03 -.883E-08 0.444E+00
   -.257E-03 -.334E-06 0.399E+04   -.132E-05 0.341E-06 -.398E+04   0.261E-03 0.883E-08 -.402E+01
   0.492E-04 -.951E-06 0.193E+04   -.528E-05 0.128E-05 -.193E+04   -.747E-04 -.829E-07 -.622E-01
   -.247E-03 -.245E-05 0.193E+04   -.143E-05 0.253E-05 -.193E+04   0.236E-03 -.693E-07 0.216E+00
   0.129E-03 -.345E-04 -.193E+02   -.440E-05 0.388E-04 0.201E+02   -.165E-03 -.292E-06 -.128E+00
   -.326E-03 -.307E-05 -.710E+01   0.726E-04 0.331E-05 0.603E+01   0.242E-03 -.247E-06 0.314E+00
   -.228E-03 -.111E-03 -.190E+04   0.168E-03 0.115E-03 0.190E+04   0.565E-04 -.114E-05 0.120E+00
   -.427E-03 0.101E-05 -.197E+04   0.229E-03 -.641E-05 0.197E+04   0.199E-03 -.210E-07 -.162E+00
   -.104E-02 -.908E-04 -.380E+04   0.107E-02 0.938E-04 0.380E+04   -.298E-04 -.149E-05 -.305E+00
   0.163E-03 0.527E-04 -.382E+04   -.453E-03 -.538E-04 0.382E+04   0.293E-03 -.236E-06 0.119E+01
[...]
   -.531E+02 0.123E-05 0.116E+04   0.572E+02 -.131E-05 -.116E+04   -.361E+01 0.162E-06 0.181E+00
   0.531E+02 0.149E-05 0.116E+04   -.572E+02 -.164E-05 -.116E+04   0.361E+01 0.324E-06 0.181E+00
   -.171E-05 0.444E-05 0.499E+03   0.619E-06 -.396E-05 -.503E+03   0.560E-06 -.719E-06 0.430E+01
   -.604E-04 0.112E-04 -.537E+03   0.670E-04 -.978E-05 0.544E+03   -.938E-05 -.224E-05 -.719E+01
   -.550E+02 -.302E-05 -.544E+01   0.599E+02 0.224E-05 0.518E+01   -.533E+01 0.122E-05 0.356E+00
   0.550E+02 -.302E-05 -.544E+01   -.599E+02 0.288E-05 0.518E+01   0.533E+01 0.424E-06 0.356E+00
   0.171E-03 -.818E-04 -.647E+03   -.205E-03 0.910E-04 0.641E+03   0.359E-04 -.794E-05 0.638E+01
   0.109E-03 0.826E-04 -.163E+04   -.941E-04 -.873E-04 0.163E+04   -.162E-04 0.498E-05 0.283E+01
   -.281E+02 -.273E-04 -.116E+04   0.311E+02 0.326E-04 0.116E+04   -.298E+01 -.550E-05 0.861E+00
   0.281E+02 -.354E-04 -.116E+04   -.311E+02 0.382E-04 0.116E+04   0.298E+01 -.856E-06 0.861E+00
   -.344E-03 0.103E-03 -.184E+04   0.352E-03 -.108E-03 0.184E+04   -.623E-05 0.418E-05 -.229E+01
   0.260E-03 -.432E-04 -.275E+04   -.307E-03 0.468E-04 0.277E+04   0.471E-04 -.337E-05 -.216E+02
   -.219E+02 -.738E-05 -.237E+04   0.281E+02 0.816E-05 0.238E+04   -.628E+01 0.128E-05 -.408E+01
   0.219E+02 -.409E-04 -.237E+04   -.281E+02 0.474E-04 0.238E+04   0.628E+01 -.462E-05 -.408E+01
   -.965E-02 -.137E-04 0.989E+02   -.227E-12 0.158E-11 -.364E-11   0.964E-02 0.124E-04 -.989E+02

 POSITION                                       TOTAL-FORCE (eV/Angst)
      9.73633      7.39371      8.77152        -0.000032      0.000000     -3.754901
      0.00000      8.87245      8.77152        -0.000001      0.000000      2.942370
      0.00000      7.39371     12.01697        -0.000029     -0.000000      0.543910
      9.73633      8.87245     12.01697        -0.000015      0.000000     -0.752293
      9.73633      7.39371     15.26241        -0.000038      0.000000      0.669460
      0.00000      8.87245     15.26241        -0.000011      0.000002     -0.748687
     -0.00000      7.39371     18.44132        -0.000004     -0.000004     -0.000529
      9.73633      8.87245     18.62643         0.000001     -0.000001     -0.004861
      9.73633      7.39371     21.97012        -0.000002     -0.000004      0.000229
      0.00000      8.87245     21.61107         0.000002      0.000003      0.007157
      9.73633     10.35119      8.77152        -0.000032      0.000000     -3.754901
      0.00000      0.00000      8.77152        -0.000001      0.000000      2.942370
      0.00000     10.35119     12.01697        -0.000029      0.000000      0.543910
      9.73633      0.00000     12.01697        -0.000015      0.000000     -0.752293
      9.73633     10.35119     15.26241        -0.000039      0.000006      0.669463
      0.00000      0.00000     15.26241        -0.000012      0.000001     -0.748683
     -0.00000     10.35119     18.44132         0.000003      0.000005     -0.000532
      9.73633      0.00000     18.62643         0.000003     -0.000001     -0.004875
      9.73633     10.35119     21.97012         0.000001      0.000003      0.000232
      0.00000      0.00000     21.61107         0.000001     -0.000004      0.007160
      9.73633      1.47874      8.77152        -0.000032      0.000000     -3.754901
      0.00000      2.95748      8.77152        -0.000001     -0.000000      2.942370
      0.00000      1.47874     12.01697        -0.000029      0.000000      0.543910
      9.73633      2.95748     12.01697        -0.000015     -0.000000     -0.752292
      9.73633      1.47874     15.26241        -0.000038     -0.000002      0.669466
      0.00000      2.95748     15.26241        -0.000013     -0.000002     -0.748682
     -0.00000      1.47874     18.44132        -0.000004      0.000004     -0.000537
      9.73633      2.95748     18.62643         0.000004     -0.000001     -0.004869
      9.73633      1.47874     21.97012        -0.000003      0.000003      0.000240
      0.00000      2.95748     21.61107         0.000005      0.000000      0.007160
      9.73633      4.43622      8.77152        -0.000032     -0.000000     -3.754901
      0.00000      5.91497      8.77152        -0.000001     -0.000000      2.942370
      0.00000      4.43622     12.01697        -0.000029     -0.000000      0.543910
      9.73633      5.91497     12.01697        -0.000015     -0.000000     -0.752293
      9.73633      4.43622     15.26241        -0.000038     -0.000004      0.669462
      0.00000      5.91497     15.26241        -0.000012     -0.000001     -0.748684
     -0.00000      4.43622     18.44132        -0.000002     -0.000003     -0.000535
      9.73633      5.91497     18.62643         0.000001      0.000003     -0.004860
      9.73633      4.43622     21.97012        -0.000005     -0.000002      0.000235
     -0.00000      5.91497     21.61107         0.000006     -0.000001      0.007160
      3.24544      7.39371      8.77152        -0.000032      0.000000     -3.754901
      6.49089      8.87245      8.77152        -0.000001      0.000000      2.942370
      6.49089      7.39371     12.01697        -0.000030     -0.000000      0.543910
      3.24544      8.87245     12.01697        -0.000015      0.000000     -0.752291
      3.24544      7.39371     15.26241        -0.000038      0.000004      0.669465
      6.49089      8.87245     15.26241        -0.000015      0.000001     -0.748684
      6.49089      7.39371     18.44132        -0.000003     -0.000003     -0.000539
      3.24544      8.87245     18.62643         0.000001      0.000003     -0.004878
      3.24544      7.39371     21.97012        -0.000003     -0.000004      0.000239
      6.49089      8.87245     21.61107        -0.000002      0.000008      0.007161
      3.24544     10.35119      8.77152        -0.000032      0.000000     -3.754901
      6.49089      0.00000      8.77152        -0.000001      0.000000      2.942370
      6.49089     10.35119     12.01697        -0.000030      0.000000      0.543910
      3.24544      0.00000     12.01697        -0.000015      0.000000     -0.752291
      3.24544     10.35119     15.26241        -0.000038      0.000004      0.669471
      6.49089      0.00000     15.26241        -0.000014     -0.000000     -0.748684
      6.49089     10.35119     18.44132        -0.000003      0.000003     -0.000534
      3.24544      0.00000     18.62644        -0.000002     -0.000005     -0.004887
      3.24544     10.35119     21.97012         0.000001      0.000001      0.000241
      6.49089      0.00000     21.61107        -0.000001     -0.000001      0.007161
[...]
      6.49089      5.91497     13.28849        -0.000002     -0.000000     -0.134843
      4.51697      4.43622     12.01697         0.449282      0.000000      0.056829
      8.46481      4.43622     12.01697        -0.449235      0.000000      0.056829
      3.24544      5.91497     13.99089        -0.000001     -0.000000     -0.085003
      3.24544      5.91497     16.53394        -0.000003     -0.000001      0.045243
      7.76241      4.43622     15.26241        -0.465416      0.000000      0.090942
      5.21936      4.43622     15.26241         0.465470      0.000000      0.090939
      6.49089      5.91497     17.25087         0.000002      0.000001      0.004103
      6.49089      5.91497     19.79831        -0.000002      0.000000      0.005499
      4.54429      4.43622     18.52506        -0.000589     -0.000000     -0.004415
      8.43749      4.43622     18.52506         0.000586      0.000002     -0.004418
      3.24544      5.91497     20.49181         0.000002     -0.000001      0.001691
      3.24544      5.91497     23.04524         0.000000      0.000000     -0.004333
      7.70916      4.43622     21.92615        -0.004403      0.000002     -0.000200
      5.27261      4.43622     21.92616         0.004406      0.000002     -0.000203
    total drift:                               -0.000002     -0.000001     -0.006475

  FREE ENERGIE OF THE ION-ELECTRON SYSTEM (eV)
  free  energy   TOTEN  =     -2710.43210765 eV

  energy  without entropy=    -2710.43210765  energy(sigma->0) =    -2710.43210765

 d Force = 0.1384321E-03[ 0.873E-04, 0.190E-03]  d Energy = 0.1493192E-03-0.109E-04
 d Force = 0.1391167E+02[ 0.139E+02, 0.139E+02]  d Ewald  = 0.1391167E+02 0.530E-07

 Conjugate gradient step on ions:
 trial-energy change:   -0.000149  1 .order   -0.000138   -0.000190   -0.000087
  (g-gl).g = 0.351E-03      g.g   = 0.396E-03  gl.gl    = 0.339E-03
 g(Force)  = 0.396E-03   g(Stress)= 0.000E+00 ortho     = 0.385E-04
 gamma     =   1.03585
 trial     =   0.43515
 opt step  =   0.62835  (harmonic =   0.80654) maximal distance =0.00069959
 next E    = -2710.432128   (d E  =  -0.00017)

 reached required accuracy - stopping structural energy minimisation