 vasp.6.3.0 20Jan22 (build Dec 25 2023 18:06:01) complex
 executed on        HPECrayEX_GCC date 2024.01.24  06:02:17

 INCAR:
   SYSTEM = MgO-rocksalt
   ISMEAR = 0
   SIGMA = 0.05
   EDIFF = 1E-8
   ALGO = ALL
   ISTART = 0
   IBRION = 5
   POTIM = 0.01
   NFREE = 2
   ISYM = 0
   DIPOL = 0.5 0.5 0.5
   IDIPOL = 3
   LDIPOL = .TRUE.
   GGA = MK
   LUSE_VDW = .TRUE.
   PARAM1 = 0.1234
   PARAM2 = 0.711357
   ZAB_VDW = -1.8867
   AGGAC = 0.0
   ENCUT = 600
   PREC = Accurate
   LASPH = .TRUE.
   LREAL = .FALSE.
   ISPIN = 1
   NELM = 200
   NELMIN = 8
   NCORE = 8
   KPAR = 1
   LWAVE = .FALSE.
   LCHARG = .FALSE.

 POTCAR:    PAW_PBE C 08Apr2002
 POTCAR:    PAW_PBE O 08Apr2002
 POTCAR:    PAW_PBE Ti_pv 07Sep2000
 POTCAR:    PAW_PBE O 08Apr2002
|               ----> ADVICE to this user running VASP <----                  |
|     You have switched on vdW-DFT.                                           |
|     This routine was written and supplied by Jiri Klimes. We recommend      |
|     that you carefully read and cite the following publications:            |
|       J. Klimes, D.R. Bowler, A. Michelides                                 |
|          J. Phys.: Cond Matt. 22 022201 (2010)                              |
|       J. Klimes, D.R. Bowler, A. Michelides                                 |
|          Phys. Rev. B. 83, 195131 (2011)                                    |
|     and references therein.                                                 |

   TITEL  = PAW_PBE C 08Apr2002
   POMASS =   12.011; ZVAL   =    4.000    mass and valenz
   ENMAX  =  400.000; ENMIN  =  300.000 eV

[...]

   TITEL  = PAW_PBE Ti_pv 07Sep2000
   POMASS =   47.880; ZVAL   =   10.000    mass and valenz
   ENMAX  =  222.335; ENMIN  =  166.751 eV

   TITEL  = PAW_PBE O 08Apr2002
   POMASS =   16.000; ZVAL   =    6.000    mass and valenz
   ENMAX  =  400.000; ENMIN  =  300.000 eV

  PAW_PBE C 08Apr2002                   :
  PAW_PBE O 08Apr2002                   :
  PAW_PBE Ti_pv 07Sep2000               :
  PAW_PBE O 08Apr2002                   :

 POSCAR:  C  O Ti  O
  positions in direct lattice
 exchange correlation table for  LEXCH =       43
   RHO(1)=    0.500       N(1)  =     2000
   RHO(2)=  100.500       N(2)  =     4000

 ion  position               nearest neighbor table
   1  0.422  0.500  0.817-   2 1.17   3 1.18
   2  0.364  0.500  0.846-   1 1.17
   3  0.485  0.500  0.789-   1 1.18  83 2.42
   4  0.750  0.625  0.287-  84 1.96  85 1.96 144 1.96 145 1.96 166 1.99  87 1.99  14 2.96  34 2.96

   5  0.000  0.750  0.287-  87 1.96 107 1.96 106 1.96  86 1.96  88 1.99  35 2.96  15 2.96
   6  0.000  0.625  0.393-  88 1.96  89 1.96 148 1.96 149 1.96  90 1.99  91 1.99  16 2.96  36 2.96

[...]

  84  0.750  0.750  0.245-   4 1.96  14 1.96
  85  0.750  0.750  0.328-   4 1.96  14 1.96   7 1.99
  86  0.098  0.625  0.287-   5 1.96  35 1.96  44 1.99
  87  0.902  0.625  0.287-   5 1.96  35 1.96   4 1.99
  88  0.000  0.750  0.352-   6 1.96  16 1.96   5 1.99
  89  0.000  0.750  0.435-   6 1.96  16 1.96   9 1.99
  90  0.848  0.625  0.393-   7 1.96  37 1.96   6 1.99
  91  0.152  0.625  0.393-  47 1.96  77 1.96   6 1.99
  92  0.750  0.750  0.458-   8 1.96  18 1.96   7 1.99
  93  0.750  0.750  0.542-   8 1.96  18 1.96  11 2.11
  94  0.098  0.625  0.500-   9 1.96  39 1.96  48 1.99
  95  0.902  0.625  0.500-   9 1.96  39 1.96   8 1.99
  96  1.000  0.750  0.565-  20 1.90  10 1.90   9 2.01
  97  0.000  0.750  0.649-  13 1.82  10 2.02  20 2.02
  98  0.850  0.625  0.607-  10 1.96  11 1.98  41 1.98
  99  0.150  0.625  0.607-  10 1.96  51 1.98  81 1.98
 100  0.750  0.750  0.672-  11 1.87  22 2.10  12 2.10
 101  0.750  0.750  0.756-  12 1.83  22 1.83
 102  0.094  0.625  0.719-  43 1.95  13 1.95  52 2.03
 103  0.906  0.625  0.719-  43 1.95  13 1.95  12 2.04
 104  0.750  0.000  0.245-  14 1.96  24 1.96
 105  0.750  0.000  0.328-  14 1.96  24 1.96  17 1.99
 106  0.098  0.875  0.287-   5 1.96  15 1.96  54 1.99
 107  0.902  0.875  0.287-   5 1.96  15 1.96  14 1.99
 108  0.000  0.000  0.352-  16 1.96  26 1.96  15 1.99
 109  0.000  0.000  0.435-  16 1.96  26 1.96  19 1.99
 110  0.848  0.875  0.393-   7 1.96  17 1.96  16 1.99
 111  0.152  0.875  0.393-  47 1.96  57 1.96  16 1.99
 112  0.750  0.000  0.458-  18 1.96  28 1.96  17 1.99
 113  0.750  0.000  0.542-  18 1.96  28 1.96  21 2.11
 114  0.098  0.875  0.500-   9 1.96  19 1.96  58 1.99
 115  0.902  0.875  0.500-   9 1.96  19 1.96  18 1.99
 116  1.000  1.000  0.566-  30 1.90  20 1.90  19 2.01
 117  0.000  0.000  0.649-  23 1.82  30 2.02  20 2.02
 118  0.850  0.875  0.607-  20 1.96  21 1.98  11 1.98
 119  0.150  0.875  0.607-  20 1.96  61 1.98  51 1.98
 120  0.750  0.000  0.672-  21 1.87  32 2.10  22 2.10
 121  0.750  1.000  0.756-  32 1.83  22 1.83
 122  0.094  0.875  0.719-  13 1.95  23 1.95  62 2.04
 123  0.906  0.875  0.719-  13 1.95  23 1.95  22 2.04
 124  0.750  0.250  0.245-  24 1.96  34 1.96
 125  0.750  0.250  0.328-  24 1.96  34 1.96  27 1.99
 126  0.098  0.125  0.287-  15 1.96  25 1.96  64 1.99
 127  0.902  0.125  0.287-  15 1.96  25 1.96  24 1.99
 128  0.000  0.250  0.352-  26 1.96  36 1.96  25 1.99
 129  0.000  0.250  0.435-  26 1.96  36 1.96  29 1.99
 130  0.848  0.125  0.393-  17 1.96  27 1.96  26 1.99
 131  0.152  0.125  0.393-  57 1.96  67 1.96  26 1.99
 132  0.750  0.250  0.458-  28 1.96  38 1.96  27 1.99
 133  0.750  0.250  0.542-  28 1.96  38 1.96  31 2.11
 134  0.098  0.125  0.500-  19 1.96  29 1.96  68 1.99
 135  0.902  0.125  0.500-  19 1.96  29 1.96  28 1.99
 136  1.000  0.250  0.565-  30 1.90  40 1.90  29 2.01
 137  0.000  0.250  0.649-  33 1.82  40 2.02  30 2.02
 138  0.850  0.125  0.607-  30 1.96  21 1.98  31 1.98
 139  0.150  0.125  0.607-  30 1.96  61 1.98  71 1.98
 140  0.750  0.250  0.672-  31 1.87  32 2.10  42 2.10
 141  0.750  0.250  0.756-  42 1.83  32 1.83
 142  0.094  0.125  0.719-  33 1.95  23 1.95  72 2.04
 143  0.906  0.125  0.719-  33 1.95  23 1.95  32 2.04
[...]
 229  0.500  0.500  0.435-  46 1.96  76 1.96  79 1.99
 230  0.348  0.375  0.393-  67 1.96  77 1.96  76 1.99
 231  0.652  0.375  0.393-  27 1.96  37 1.96  76 1.99
 232  0.250  0.500  0.458-  48 1.96  78 1.96  77 1.99
 233  0.250  0.500  0.542-  48 1.96  78 1.96  81 2.11
 234  0.598  0.375  0.500-  69 1.96  79 1.96  38 1.99
 235  0.402  0.375  0.500-  69 1.96  79 1.96  78 1.99
 236  0.500  0.500  0.566-  50 1.90  80 1.90  79 2.01
 237  0.500  0.500  0.650-  83 1.85  50 2.01  80 2.01
 238  0.350  0.375  0.607-  80 1.96  81 1.98  71 1.98
 239  0.650  0.375  0.607-  80 1.96  31 1.98  41 1.98
 240  0.248  0.500  0.672-  81 1.87  82 2.09  52 2.09
 241  0.254  0.500  0.755-  82 1.84  52 1.84
 242  0.594  0.374  0.719-  73 1.94  83 1.95  42 2.04
 243  0.405  0.373  0.717-  73 1.94  83 1.95  82 2.04

IMPORTANT INFORMATION: All symmetrisations will be switched off!
NOSYMM: (Re-)initialisation of all symmetry stuff for point group C_1.

                                     Primitive cell

  volume of cell :    4737.1524

  direct lattice vectors                    reciprocal lattice vectors
    13.061127704  0.000000000  0.000000000     0.076563067  0.000000000  0.000000000
     0.000000000 11.845298948  0.000000000     0.000000000  0.084421677  0.000000000
     0.000000000  0.000000000 30.618975621     0.000000000  0.000000000  0.032659486

  length of vectors
    13.061127704 11.845298948 30.618975621     0.076563067  0.084421677  0.032659486

  position of ions in fractional coordinates (direct lattice)
     0.422175870  0.499999986  0.816949664
     0.363563192  0.500000061  0.845643463
     0.485403240  0.499999906  0.789255362
     0.750000000  0.625000000  0.286715143
     0.000000000  0.750000000  0.286715143
     0.000000000  0.625000000  0.393357571
     0.750000000  0.750000000  0.393357571
     0.750000000  0.625000000  0.500000000
     0.000000000  0.750000000  0.500000000
     0.000027548  0.625025336  0.604450387
     0.750022723  0.749965086  0.610702906
     0.749758820  0.625056871  0.720352708
     0.999968190  0.750179161  0.708641345
     0.750000000  0.875000000  0.286715143
     0.000000000  0.000000000  0.286715143
     0.000000000  0.875000000  0.393357571
     0.750000000  0.000000000  0.393357571
     0.750000000  0.875000000  0.500000000
     0.000000000  0.000000000  0.500000000
     0.999908607  0.875024860  0.604494416
     0.749942208  0.000000008  0.610710158
     0.749834210  0.875062410  0.720386643
     0.000234136  0.000000001  0.708641751
     0.750000000  0.125000000  0.286715143
     0.000000000  0.250000000  0.286715143
     0.000000000  0.125000000  0.393357571
     0.750000000  0.250000000  0.393357571
     0.750000000  0.125000000  0.500000000
     0.000000000  0.250000000  0.500000000
     0.999908664  0.124975140  0.604494413
     0.750022854  0.250034951  0.610702906
     0.749834221  0.124937582  0.720386640
     0.999968205  0.249820844  0.708641342
     0.750000000  0.375000000  0.286715143
     0.000000000  0.500000000  0.286715143
     0.000000000  0.375000000  0.393357571
     0.750000000  0.500000000  0.393357571
     0.750000000  0.375000000  0.500000000
     0.000000000  0.500000000  0.500000000
     0.000027669  0.374974670  0.604450385
     0.750116614  0.500000014  0.610759278
     0.749758832  0.374943128  0.720352706
     0.999430546  0.500000004  0.708617869
     0.250000000  0.625000000  0.286715143
     0.500000000  0.750000000  0.286715143
     0.500000000  0.625000000  0.393357571
     0.250000000  0.750000000  0.393357571
     0.250000000  0.625000000  0.500000000
     0.500000000  0.750000000  0.500000000
     0.500029807  0.624070893  0.605140566
     0.249943485  0.750124170  0.610547268
     0.249226001  0.625400004  0.719830523
     0.500245892  0.750163476  0.708131423
     0.250000000  0.875000000  0.286715143
     0.500000000  0.000000000  0.286715143
     0.500000000  0.875000000  0.393357571
     0.250000000  0.000000000  0.393357571
     0.250000000  0.875000000  0.500000000
     0.500000000  0.000000000  0.500000000
     0.500119505  0.874577051  0.604027267
[...]
     0.500000000  0.500000000  0.435126570
     0.347918341  0.375000000  0.393357571
     0.652081659  0.375000000  0.393357571
     0.250000000  0.500000000  0.458231001
     0.250000000  0.500000000  0.541768999
     0.597918341  0.375000000  0.500000000
     0.402081659  0.375000000  0.500000000
     0.499955897  0.499999990  0.565718168
     0.500160283  0.500000016  0.650042993
     0.349878947  0.375020416  0.607468681
     0.650117793  0.375067729  0.607387511
     0.248065470  0.500000005  0.671612318
     0.253940985  0.499999998  0.755422617
     0.593954752  0.374082287  0.718515363
     0.405061125  0.373010829  0.717372717

  ion indices of the primitive-cell ions
   primitive index   ion index
                 1           1
                 2           2
                 3           3
                 4           4
                 5           5
                 6           6
                 7           7
                 8           8
                 9           9
                10          10
                11          11
                12          12
                13          13
                14          14
[...]
      9.79614      2.96174     18.69910        -0.001401      0.000992      0.000016
      9.79368      1.47992     22.05750        -0.001150      0.000614     -0.000976
     13.06071      2.95920     21.69787        -0.000990     -0.000471      0.000064
      9.79585      4.44199      8.77892        -0.000551     -0.000067     -3.479479
      0.00000      5.92265      8.77892        -0.000531     -0.000000      2.774610
      0.00000      4.44199     12.04421        -0.002828     -0.000115      0.519231
      9.79585      5.92265     12.04421        -0.001597     -0.000000     -0.705534
      9.79585      4.44199     15.30949        -0.011354      0.004623      0.668091
      0.00000      5.92265     15.30949        -0.009091      0.000000     -0.707845
      0.00036      4.44169     18.50765         0.000164     -0.000399      0.000942
      9.79737      5.92265     18.70082        -0.002679     -0.000002     -0.001090
      9.79270      4.44131     22.05646        -0.002659     -0.000015     -0.000621
     13.05369      5.92265     21.69715        -0.001259      0.000000     -0.001814
      3.26528      7.40331      8.77892         0.000550      0.000259     -3.480972
      6.53056      8.88397      8.77892         0.000490      0.000312      2.776512
      6.53056      7.40331     12.04421         0.002732      0.005682      0.524134
      3.26528      8.88397     12.04421         0.002007      0.001018     -0.714640
      3.26528      7.40331     15.30949         0.011904      0.004469      0.633912
      6.53056      8.88397     15.30949         0.006153     -0.015930     -0.649676
      6.53095      7.39231     18.52878         0.000034      0.001043      0.003477
      3.26454      8.88545     18.69433         0.001350     -0.001035     -0.000232
      3.25517      7.40805     22.04047         0.002002     -0.000981     -0.000224
      6.53378      8.88591     21.68226        -0.000727     -0.002945     -0.000476
      3.26528     10.36464      8.77892         0.000664      0.000301     -3.480705
      6.53056      0.00000      8.77892         0.000469      0.000000      2.776899
      6.53056     10.36464     12.04421         0.002454      0.002454      0.527481
      3.26528      0.00000     12.04421         0.002426      0.000000     -0.713250
      3.26528     10.36464     15.30949         0.007694      0.020456      0.650304
      6.53056      0.00000     15.30949         0.004104      0.000000     -0.736920
      6.53212     10.35963     18.49470        -0.000012      0.001743      0.001594
[...]
      6.53056      5.92265     13.32313        -0.000949     -0.000000     -0.116449
      4.54421      4.44199     12.04421         0.418188      0.000607      0.050596
      8.51692      4.44199     12.04421        -0.421244      0.000283      0.049477
      3.26528      5.92265     14.03056        -0.002261     -0.000000     -0.087419
      3.26528      5.92265     16.58841         0.001594     -0.000000      0.007552
      7.80949      4.44199     15.30949        -0.459781      0.015192      0.083646
      5.25164      4.44199     15.30949         0.444751      0.015884      0.084615
      6.52999      5.92265     17.32171        -0.000116      0.000000      0.002791
      6.53266      5.92265     19.90365        -0.000025     -0.000001     -0.010494
      4.56981      4.44223     18.60007        -0.001583     -0.000562     -0.000839
      8.49127      4.44279     18.59758         0.001225     -0.000860     -0.001832
      3.24001      5.92265     20.56408         0.000923     -0.000000      0.000800
      3.31676      5.92265     23.13027        -0.002569     -0.000001      0.002203
      7.75772      4.43112     22.00020        -0.000077     -0.004631     -0.003281
      5.29056      4.41842     21.96522        -0.002958     -0.009971     -0.009274
    total drift:                                0.002393      0.000000     -0.029196

  FREE ENERGIE OF THE ION-ELECTRON SYSTEM (eV)
  free  energy   TOTEN  =     -1759.48143500 eV

  energy  without entropy=    -1759.48143500  energy(sigma->0) =    -1759.48143500

 d Force = 0.2041610E-03[-0.101E-01, 0.105E-01]  d Energy = 0.1013026E-03 0.103E-03
 d Force =-0.4567966E+02[-0.458E+02,-0.456E+02]  d Ewald  =-0.4567953E+02-0.128E-03

 Finite differences progress:
  Degree of freedom:   9/  9
  Displacement:        2/  2
  Total:              18/ 18

 SECOND DERIVATIVES (NOT SYMMETRIZED)
               1X          1Y          1Z          2X          2Y          2Z          3X          3Y          3Z
  1X   -86.261499    0.000102   83.641410   43.665167   -0.000121  -43.842710   42.235365   -0.000017  -38.439989
  1Y    -0.001464  -12.180841    0.001475   -0.000480    6.097324   -0.002836    0.000365    5.678765   -0.000379
  1Z    83.654798    0.001897 -104.488159  -43.676678   -0.003330   56.001589  -39.176300   -0.002744   47.403282
  2X    43.657346   -0.000084  -43.666609  -45.379545   -0.000087   48.074907    1.761923   -0.000003   -5.319724
  2Y    -0.005248    6.099861    0.001140    0.003876   -3.087600   -0.003706    0.001028   -2.863903   -0.003539
  2Z   -43.838267    0.000296   55.989546   48.089027    0.007822  -58.006370   -4.498039   -0.000996    2.407686
  3X    42.225925   -0.000031  -39.175999    1.760255   -0.000002   -4.494830  -44.515121    0.000086   43.068065
  3Y    -0.001578    5.677400    0.000372    0.000557   -2.865740   -0.000465    0.000673   -3.462910   -0.001007
  3Z   -38.433516   -0.000588   47.387584   -5.328934   -0.002739    2.401744   43.074547    0.001220  -51.276471

 Eigenvectors and eigenvalues of the dynamical matrix

   1 f  =   70.748801 THz   444.527826 2PiTHz 2359.925973 cm-1   292.593398 meV
             X         Y         Z           dx          dy          dz
      5.514093  5.922649 25.014162    -0.569880   -0.000008    0.635798
      4.748545  5.922650 25.892737     0.260211   -0.000005   -0.299654
      6.339914  5.922648 24.166191     0.230596    0.000000   -0.245604
      9.795846  7.403312  8.778924            0           0           0
      0.000000  8.883974  8.778924            0           0           0
      0.000000  7.403312 12.044206            0           0           0
      9.795846  8.883974 12.044206            0           0           0
      9.795846  7.403312 15.309488            0           0           0
      0.000000  8.883974 15.309488            0           0           0
      0.000360  7.403612 18.507652            0           0           0
      9.796143  8.883561 18.699097            0           0           0
      9.792696  7.403985 22.056462            0           0           0
     13.060712  8.886096 21.697872            0           0           0
      9.795846 10.364637  8.778924            0           0           0
      0.000000  0.000000  8.778924            0           0           0
      0.000000 10.364637 12.044206            0           0           0
      9.795846  0.000000 12.044206            0           0           0
      9.795846 10.364637 15.309488            0           0           0
      0.000000  0.000000 15.309488            0           0           0
     13.059934 10.364931 18.509000            0           0           0
      9.795091  0.000000 18.699319            0           0           0
      9.793680 10.365376 22.057501            0           0           0
      0.003058  0.000000 21.697885            0           0           0
      9.795846  1.480662  8.778924            0           0           0
      0.000000  2.961325  8.778924            0           0           0
      0.000000  1.480662 12.044206            0           0           0
      9.795846  2.961325 12.044206            0           0           0
      9.795846  1.480662 15.309488            0           0           0
      0.000000  2.961325 15.309488            0           0           0
     13.059935  1.480368 18.509000            0           0           0
      9.796144  2.961739 18.699097            0           0           0
      9.793681  1.479923 22.057501            0           0           0
     13.060712  2.959203 21.697872            0           0           0
      9.795846  4.441987  8.778924            0           0           0
      0.000000  5.922649  8.778924            0           0           0
      0.000000  4.441987 12.044206            0           0           0
      9.795846  5.922649 12.044206            0           0           0
      9.795846  4.441987 15.309488            0           0           0
      0.000000  5.922649 15.309488            0           0           0
      0.000361  4.441687 18.507652            0           0           0
      9.797369  5.922650 18.700823            0           0           0
      9.792696  4.441313 22.056462            0           0           0
     13.053690  5.922650 21.697153            0           0           0
      3.265282  7.403312  8.778924            0           0           0
      6.530564  8.883974  8.778924            0           0           0
      6.530564  7.403312 12.044206            0           0           0
      3.265282  8.883974 12.044206            0           0           0
      3.265282  7.403312 15.309488            0           0           0
      6.530564  8.883974 15.309488            0           0           0
      6.530953  7.392306 18.528784            0           0           0
      3.264544  8.885445 18.694332            0           0           0
      3.255173  7.408050 22.040473            0           0           0
      6.533775  8.885911 21.682259            0           0           0
      3.265282 10.364637  8.778924            0           0           0
      6.530564  0.000000  8.778924            0           0           0
      6.530564 10.364637 12.044206            0           0           0
      3.265282  0.000000 12.044206            0           0           0
      3.265282 10.364637 15.309488            0           0           0
      6.530564  0.000000 15.309488            0           0           0
      6.532125 10.359627 18.494696            0           0           0
[...]
      6.530564  5.922649 13.323130            0           0           0
      4.544206  4.441987 12.044206            0           0           0
      8.516922  4.441987 12.044206            0           0           0
      3.265282  5.922649 14.030564            0           0           0
      3.265282  5.922649 16.588412            0           0           0
      7.809488  4.441987 15.309488            0           0           0
      5.251640  4.441987 15.309488            0           0           0
      6.529988  5.922649 17.321711            0           0           0
      6.532657  5.922650 19.903651            0           0           0
      4.569814  4.442229 18.600069            0           0           0
      8.491272  4.442789 18.597583            0           0           0
      3.240015  5.922650 20.564081            0           0           0
      3.316756  5.922649 23.130267            0           0           0
      7.757719  4.431117 22.000204            0           0           0
      5.290555  4.418425 21.965218            0           0           0

[...]

   9 f  =    0.659435 THz     4.143351 2PiTHz   21.996379 cm-1     2.727202 meV
             X         Y         Z           dx          dy          dz
      5.514093  5.922649 25.014162    -0.000917   -0.391669    0.000105
      4.748545  5.922650 25.892737    -0.002919   -0.919882   -0.001494
      6.339914  5.922648 24.166191     0.000394    0.019947    0.001530
      9.795846  7.403312  8.778924            0           0           0
      0.000000  8.883974  8.778924            0           0           0
      0.000000  7.403312 12.044206            0           0           0
      9.795846  8.883974 12.044206            0           0           0
      9.795846  7.403312 15.309488            0           0           0
      0.000000  8.883974 15.309488            0           0           0
      0.000360  7.403612 18.507652            0           0           0
      9.796143  8.883561 18.699097            0           0           0
      9.792696  7.403985 22.056462            0           0           0
     13.060712  8.886096 21.697872            0           0           0
      9.795846 10.364637  8.778924            0           0           0
      0.000000  0.000000  8.778924            0           0           0
      0.000000 10.364637 12.044206            0           0           0
      9.795846  0.000000 12.044206            0           0           0
      9.795846 10.364637 15.309488            0           0           0
      0.000000  0.000000 15.309488            0           0           0
     13.059934 10.364931 18.509000            0           0           0
      9.795091  0.000000 18.699319            0           0           0
      9.793680 10.365376 22.057501            0           0           0
      0.003058  0.000000 21.697885            0           0           0
      9.795846  1.480662  8.778924            0           0           0
      0.000000  2.961325  8.778924            0           0           0
      0.000000  1.480662 12.044206            0           0           0
      9.795846  2.961325 12.044206            0           0           0
      9.795846  1.480662 15.309488            0           0           0
      0.000000  2.961325 15.309488            0           0           0
     13.059935  1.480368 18.509000            0           0           0
      9.796144  2.961739 18.699097            0           0           0
      9.793681  1.479923 22.057501            0           0           0
     13.060712  2.959203 21.697872            0           0           0
      9.795846  4.441987  8.778924            0           0           0
      0.000000  5.922649  8.778924            0           0           0
      0.000000  4.441987 12.044206            0           0           0
      9.795846  5.922649 12.044206            0           0           0
      9.795846  4.441987 15.309488            0           0           0
      0.000000  5.922649 15.309488            0           0           0
      0.000361  4.441687 18.507652            0           0           0
      9.797369  5.922650 18.700823            0           0           0
      9.792696  4.441313 22.056462            0           0           0
     13.053690  5.922650 21.697153            0           0           0
      3.265282  7.403312  8.778924            0           0           0
      6.530564  8.883974  8.778924            0           0           0
      6.530564  7.403312 12.044206            0           0           0
      3.265282  8.883974 12.044206            0           0           0
      3.265282  7.403312 15.309488            0           0           0
      6.530564  8.883974 15.309488            0           0           0
      6.530953  7.392306 18.528784            0           0           0
      3.264544  8.885445 18.694332            0           0           0
      3.255173  7.408050 22.040473            0           0           0
      6.533775  8.885911 21.682259            0           0           0
      3.265282 10.364637  8.778924            0           0           0
      6.530564  0.000000  8.778924            0           0           0
      6.530564 10.364637 12.044206            0           0           0
      3.265282  0.000000 12.044206            0           0           0
      3.265282 10.364637 15.309488            0           0           0
      6.530564  0.000000 15.309488            0           0           0
      6.532125 10.359627 18.494696            0           0           0
[...]
      6.530564  5.922649 13.323130            0           0           0
      4.544206  4.441987 12.044206            0           0           0
      8.516922  4.441987 12.044206            0           0           0
      3.265282  5.922649 14.030564            0           0           0
      3.265282  5.922649 16.588412            0           0           0
      7.809488  4.441987 15.309488            0           0           0
      5.251640  4.441987 15.309488            0           0           0
      6.529988  5.922649 17.321711            0           0           0
      6.532657  5.922650 19.903651            0           0           0
      4.569814  4.442229 18.600069            0           0           0
      8.491272  4.442789 18.597583            0           0           0
      3.240015  5.922650 20.564081            0           0           0
      3.316756  5.922649 23.130267            0           0           0
      7.757719  4.431117 22.000204            0           0           0
      5.290555  4.418425 21.965218            0           0           0

 Finite differences POTIM=   1.0000000000000000E-002