 vasp.6.3.0 20Jan22 (build Mar 11 2022 13:48:16) complex

 executed on             LinuxIFC date 2024.01.23  03:43:20

 INCAR:
   SYSTEM = TiO2
   ISMEAR = 0
   SIGMA = 0.05
   EDIFF = 1E-5
   ALGO = ALL
   ISTART = 0
   IBRION = -1
   NSW = 0
   ISYM = 0
   ISIF = 2
   EDIFFG = -0.01
   DIPOL = 0.5 0.5 0.5
   IDIPOL = 3
   LDIPOL = .TRUE.
   GGA = RE
   AGGAC = 0.0
   LUSE_VDW = .TRUE.
   LASPH = .TRUE.
   ENCUT = 600
   PREC = Accurate
   LASPH = .TRUE.
   LREAL = .FALSE.
   ISPIN = 1
   NELM = 200
   NELMIN = 8
   NCORE = 2
   KPAR = 1
   LWAVE = .FALSE.
   LCHARG = .FALSE.

 POTCAR:    PAW_PBE C 08Apr2002
 POTCAR:    PAW_PBE O 08Apr2002
 POTCAR:    PAW_PBE Ti_pv 07Sep2000
 POTCAR:    PAW_PBE O 08Apr2002
|           W    W    AA    RRRRR   N    N  II  N    N   GGGG   !!!           |
|           W    W   A  A   R    R  NN   N  II  NN   N  G    G  !!!           |
|           W    W  A    A  R    R  N N  N  II  N N  N  G       !!!           |
|           W WW W  AAAAAA  RRRRR   N  N N  II  N  N N  G  GGG   !            |
|           WW  WW  A    A  R   R   N   NN  II  N   NN  G    G                |
|           W    W  A    A  R    R  N    N  II  N    N   GGGG   !!!           |
|     For optimal performance we recommend to set                             |
|       NCORE = 2 up to number-of-cores-per-socket                            |
|     This setting can greatly improve the performance of VASP for DFT.       |
|     The default, NCORE=1 might be grossly inefficient on modern             |
|     multi-core architectures or massively parallel machines. Do your        |
|     Unfortunately you need to use the default for GW and RPA                |
|     calculations (for HF NCORE is supported but not extensively tested      |
|     yet).                                                                   |

   TITEL  = PAW_PBE C 08Apr2002
   POMASS =   12.011; ZVAL   =    4.000    mass and valenz
   ENMAX  =  400.000; ENMIN  =  300.000 eV

[...]

   TITEL  = PAW_PBE Ti_pv 07Sep2000
   POMASS =   47.880; ZVAL   =   10.000    mass and valenz
   ENMAX  =  222.335; ENMIN  =  166.751 eV

   TITEL  = PAW_PBE O 08Apr2002
   POMASS =   16.000; ZVAL   =    6.000    mass and valenz
   ENMAX  =  400.000; ENMIN  =  300.000 eV

  PAW_PBE C 08Apr2002                   :
  PAW_PBE O 08Apr2002                   :
  PAW_PBE Ti_pv 07Sep2000               :
  PAW_PBE O 08Apr2002                   :

 POSCAR:  C  O Ti  O
  positions in direct lattice
 exchange correlation table for  LEXCH =       40
   RHO(1)=    0.500       N(1)  =     2000
   RHO(2)=  100.500       N(2)  =     4000

 ion  position               nearest neighbor table
   1  0.422  0.500  0.817-   2 1.17   3 1.18
   2  0.364  0.500  0.846-   1 1.17
   3  0.485  0.500  0.789-   1 1.18  83 2.42
   4  0.750  0.625  0.287-  84 1.96  85 1.96 144 1.96 145 1.96 166 1.99  87 1.99  14 2.96  34 2.96

   5  0.000  0.750  0.287-  87 1.96 107 1.96 106 1.96  86 1.96  88 1.99  35 2.96  15 2.96
   6  0.000  0.625  0.393-  88 1.96  89 1.96 148 1.96 149 1.96  90 1.99  91 1.99  16 2.96  36 2.96

[...]

  84  0.750  0.750  0.245-   4 1.96  14 1.96
  85  0.750  0.750  0.328-   4 1.96  14 1.96   7 1.99
  86  0.098  0.625  0.287-   5 1.96  35 1.96  44 1.99
  87  0.902  0.625  0.287-   5 1.96  35 1.96   4 1.99
  88  0.000  0.750  0.352-   6 1.96  16 1.96   5 1.99
  89  0.000  0.750  0.435-   6 1.96  16 1.96   9 1.99
  90  0.848  0.625  0.393-   7 1.96  37 1.96   6 1.99
  91  0.152  0.625  0.393-  47 1.96  77 1.96   6 1.99
  92  0.750  0.750  0.458-   8 1.96  18 1.96   7 1.99
  93  0.750  0.750  0.542-   8 1.96  18 1.96  11 2.11
  94  0.098  0.625  0.500-   9 1.96  39 1.96  48 1.99
  95  0.902  0.625  0.500-   9 1.96  39 1.96   8 1.99
  96  1.000  0.750  0.565-  20 1.90  10 1.90   9 2.01
  97  0.000  0.750  0.649-  13 1.82  10 2.02  20 2.02
  98  0.850  0.625  0.607-  10 1.96  11 1.98  41 1.98
  99  0.150  0.625  0.607-  10 1.96  51 1.98  81 1.98
 100  0.750  0.750  0.672-  11 1.87  22 2.10  12 2.10
 101  0.750  0.750  0.756-  12 1.83  22 1.83
 102  0.094  0.625  0.719-  43 1.95  13 1.95  52 2.03
 103  0.906  0.625  0.719-  43 1.95  13 1.95  12 2.04
 104  0.750  0.000  0.245-  14 1.96  24 1.96
 105  0.750  0.000  0.328-  14 1.96  24 1.96  17 1.99
 106  0.098  0.875  0.287-   5 1.96  15 1.96  54 1.99
 107  0.902  0.875  0.287-   5 1.96  15 1.96  14 1.99
 108  0.000  0.000  0.352-  16 1.96  26 1.96  15 1.99
 109  0.000  0.000  0.435-  16 1.96  26 1.96  19 1.99
 110  0.848  0.875  0.393-   7 1.96  17 1.96  16 1.99
 111  0.152  0.875  0.393-  47 1.96  57 1.96  16 1.99
 112  0.750  0.000  0.458-  18 1.96  28 1.96  17 1.99
 113  0.750  0.000  0.542-  18 1.96  28 1.96  21 2.11
 114  0.098  0.875  0.500-   9 1.96  19 1.96  58 1.99
 115  0.902  0.875  0.500-   9 1.96  19 1.96  18 1.99
 116  1.000  1.000  0.566-  30 1.90  20 1.90  19 2.01
 117  0.000  0.000  0.649-  23 1.82  30 2.02  20 2.02
 118  0.850  0.875  0.607-  20 1.96  21 1.98  11 1.98
 119  0.150  0.875  0.607-  20 1.96  61 1.98  51 1.98
 120  0.750  0.000  0.672-  21 1.87  32 2.10  22 2.10
 121  0.750  1.000  0.756-  32 1.83  22 1.83
 122  0.094  0.875  0.719-  13 1.95  23 1.95  62 2.04
 123  0.906  0.875  0.719-  13 1.95  23 1.95  22 2.04
 124  0.750  0.250  0.245-  24 1.96  34 1.96
 125  0.750  0.250  0.328-  24 1.96  34 1.96  27 1.99
 126  0.098  0.125  0.287-  15 1.96  25 1.96  64 1.99
 127  0.902  0.125  0.287-  15 1.96  25 1.96  24 1.99
 128  0.000  0.250  0.352-  26 1.96  36 1.96  25 1.99
 129  0.000  0.250  0.435-  26 1.96  36 1.96  29 1.99
 130  0.848  0.125  0.393-  17 1.96  27 1.96  26 1.99
 131  0.152  0.125  0.393-  57 1.96  67 1.96  26 1.99
 132  0.750  0.250  0.458-  28 1.96  38 1.96  27 1.99
 133  0.750  0.250  0.542-  28 1.96  38 1.96  31 2.11
 134  0.098  0.125  0.500-  19 1.96  29 1.96  68 1.99
 135  0.902  0.125  0.500-  19 1.96  29 1.96  28 1.99
 136  1.000  0.250  0.565-  30 1.90  40 1.90  29 2.01
 137  0.000  0.250  0.649-  33 1.82  40 2.02  30 2.02
 138  0.850  0.125  0.607-  30 1.96  21 1.98  31 1.98
 139  0.150  0.125  0.607-  30 1.96  61 1.98  71 1.98
 140  0.750  0.250  0.672-  31 1.87  32 2.10  42 2.10
 141  0.750  0.250  0.756-  42 1.83  32 1.83
 142  0.094  0.125  0.719-  33 1.95  23 1.95  72 2.04
 143  0.906  0.125  0.719-  33 1.95  23 1.95  32 2.04
[...]
 229  0.500  0.500  0.435-  46 1.96  76 1.96  79 1.99
 230  0.348  0.375  0.393-  67 1.96  77 1.96  76 1.99
 231  0.652  0.375  0.393-  27 1.96  37 1.96  76 1.99
 232  0.250  0.500  0.458-  48 1.96  78 1.96  77 1.99
 233  0.250  0.500  0.542-  48 1.96  78 1.96  81 2.11
 234  0.598  0.375  0.500-  69 1.96  79 1.96  38 1.99
 235  0.402  0.375  0.500-  69 1.96  79 1.96  78 1.99
 236  0.500  0.500  0.566-  50 1.90  80 1.90  79 2.01
 237  0.500  0.500  0.650-  83 1.85  50 2.01  80 2.01
 238  0.350  0.375  0.607-  80 1.96  81 1.98  71 1.98
 239  0.650  0.375  0.607-  80 1.96  31 1.98  41 1.98
 240  0.248  0.500  0.672-  81 1.87  82 2.09  52 2.09
 241  0.254  0.500  0.755-  82 1.84  52 1.84
 242  0.594  0.374  0.719-  73 1.94  83 1.95  42 2.04
 243  0.405  0.373  0.717-  73 1.94  83 1.95  82 2.04

IMPORTANT INFORMATION: All symmetrisations will be switched off!
NOSYMM: (Re-)initialisation of all symmetry stuff for point group C_1.

                                     Primitive cell

  volume of cell :    4737.1524

  direct lattice vectors                    reciprocal lattice vectors
    13.061127704  0.000000000  0.000000000     0.076563067  0.000000000  0.000000000
     0.000000000 11.845298948  0.000000000     0.000000000  0.084421677  0.000000000
     0.000000000  0.000000000 30.618975621     0.000000000  0.000000000  0.032659486

  length of vectors
    13.061127704 11.845298948 30.618975621     0.076563067  0.084421677  0.032659486

  position of ions in fractional coordinates (direct lattice)
     0.422175870  0.499999986  0.816949664
     0.363563192  0.500000061  0.845643463
     0.485403240  0.499999906  0.789255362
     0.750000000  0.625000000  0.286715143
     0.000000000  0.750000000  0.286715143
     0.000000000  0.625000000  0.393357571
     0.750000000  0.750000000  0.393357571
     0.750000000  0.625000000  0.500000000
     0.000000000  0.750000000  0.500000000
     0.000027548  0.625025336  0.604450387
     0.750022723  0.749965086  0.610702906
     0.749758820  0.625056871  0.720352708
     0.999968190  0.750179161  0.708641345
     0.750000000  0.875000000  0.286715143
     0.000000000  0.000000000  0.286715143
     0.000000000  0.875000000  0.393357571
     0.750000000  0.000000000  0.393357571
     0.750000000  0.875000000  0.500000000
     0.000000000  0.000000000  0.500000000
     0.999908607  0.875024860  0.604494416
     0.749942208  0.000000008  0.610710158
     0.749834210  0.875062410  0.720386643
     0.000234136  0.000000001  0.708641751
     0.750000000  0.125000000  0.286715143
     0.000000000  0.250000000  0.286715143
     0.000000000  0.125000000  0.393357571
     0.750000000  0.250000000  0.393357571
     0.750000000  0.125000000  0.500000000
     0.000000000  0.250000000  0.500000000
     0.999908664  0.124975140  0.604494413
     0.750022854  0.250034951  0.610702906
     0.749834221  0.124937582  0.720386640
     0.999968205  0.249820844  0.708641342
     0.750000000  0.375000000  0.286715143
     0.000000000  0.500000000  0.286715143
     0.000000000  0.375000000  0.393357571
     0.750000000  0.500000000  0.393357571
     0.750000000  0.375000000  0.500000000
     0.000000000  0.500000000  0.500000000
     0.000027669  0.374974670  0.604450385
     0.750116614  0.500000014  0.610759278
     0.749758832  0.374943128  0.720352706
     0.999430546  0.500000004  0.708617869
     0.250000000  0.625000000  0.286715143
     0.500000000  0.750000000  0.286715143
     0.500000000  0.625000000  0.393357571
     0.250000000  0.750000000  0.393357571
     0.250000000  0.625000000  0.500000000
     0.500000000  0.750000000  0.500000000
     0.500029807  0.624070893  0.605140566
     0.249943485  0.750124170  0.610547268
     0.249226001  0.625400004  0.719830523
     0.500245892  0.750163476  0.708131423
     0.250000000  0.875000000  0.286715143
     0.500000000  0.000000000  0.286715143
     0.500000000  0.875000000  0.393357571
     0.250000000  0.000000000  0.393357571
     0.250000000  0.875000000  0.500000000
     0.500000000  0.000000000  0.500000000
     0.500119505  0.874577051  0.604027267
[...]
     0.500000000  0.500000000  0.435126570
     0.347918341  0.375000000  0.393357571
     0.652081659  0.375000000  0.393357571
     0.250000000  0.500000000  0.458231001
     0.250000000  0.500000000  0.541768999
     0.597918341  0.375000000  0.500000000
     0.402081659  0.375000000  0.500000000
     0.499955897  0.499999990  0.565718168
     0.500160283  0.500000016  0.650042993
     0.349878947  0.375020416  0.607468681
     0.650117793  0.375067729  0.607387511
     0.248065470  0.500000005  0.671612318
     0.253940985  0.499999998  0.755422617
     0.593954752  0.374082287  0.718515363
     0.405061125  0.373010829  0.717372717

  ion indices of the primitive-cell ions
   primitive index   ion index
                 1           1
                 2           2
                 3           3
[...]
   6.53377548  8.88591063 21.68225877
   3.26528193 10.36463658  8.77892396
   6.53056385  0.00000000  8.77892396
   6.53056385 10.36463658 12.04420588
   3.26528193  0.00000000 12.04420588
   3.26528193 10.36463658 15.30948781
   6.53056385  0.00000000 15.30948781
   6.53212472 10.35962662 18.49469618
[...]
   6.53056385  5.92264947 13.32312984
   4.54420588  4.44198711 12.04420588
   8.51692182  4.44198711 12.04420588
   3.26528193  5.92264947 14.03056385
   3.26528193  5.92264947 16.58841177
   7.80948781  4.44198711 15.30948781
   5.25163989  4.44198711 15.30948781
   6.52998782  5.92264935 17.32171081
   6.53265733  5.92264967 19.90365057
   4.56981361  4.44222894 18.60006872
   8.49127152  4.44278937 18.59758338
   3.24001478  5.92264954 20.56408120
   3.31675563  5.92264944 23.13026668
   7.75771887  4.43111652 22.00020439
   5.29055508  4.41842479 21.96521773

--------------------------------------- Iteration      FINAL  ---------------------------------------

--------------------OUTCAR has been truncated-------------------------

[...]

--------------------OUTCAR has been truncated-------------------------

  FORCE on cell =-STRESS in cart. coord.  units (eV):
  Direction    XX          YY          ZZ          XY          YZ          ZX
  Alpha Z  4685.03840  4685.03840  4685.03840
  Ewald  962172.15159979544.64254************    -0.00046     0.00029  -289.48012
  Hartree************************************    -0.00022     0.00012   -95.76134
  E(xc)   -8891.19871 -8866.90748 -8890.85508    -0.00000     0.00000    -1.81735
  Local  ************************************     0.00065    -0.00037   348.87752
  n-local -5462.03400 -5382.14423 -5504.73230     0.00000    -0.00002     2.73418
  augment  5314.71585  5293.37861  5318.69122    -0.00000    -0.00000     1.48724
  Kinetic 29016.23897 28581.91067 29044.42230     0.00004    -0.00001    33.56209
  Fock        0.00000     0.00000     0.00000     0.00000     0.00000     0.00000
  Total     136.43122   120.47096    85.35212     0.00000     0.00001    -0.39779
  in kB      46.14312    40.74512    28.86739     0.00000     0.00000    -0.13454

 VOLUME and BASIS-vectors are now :
  energy-cutoff  :      600.00
  volume of cell :     4737.15
      direct lattice vectors                 reciprocal lattice vectors
    13.061127704  0.000000000  0.000000000     0.076563067  0.000000000  0.000000000
     0.000000000 11.845298948  0.000000000     0.000000000  0.084421677  0.000000000
     0.000000000  0.000000000 30.618975621     0.000000000  0.000000000  0.032659486

  length of vectors
    13.061127704 11.845298948 30.618975621     0.076563067  0.084421677  0.032659486

 FORCES acting on ions:
    Electron-Ion                     Ewald-Force                    Non-Local-Force
   -.196E+02 0.113E-04 -.148E+04   0.187E+02 -.812E-05 0.148E+04   0.948E+00 -.368E-05 0.130E+00
   0.162E+03 -.204E-03 -.213E+04   -.206E+03 0.253E-03 0.218E+04   0.438E+02 -.502E-04 -.492E+02
   -.197E+03 0.249E-03 -.232E+04   0.241E+03 -.304E-03 0.228E+04   -.435E+02 0.557E-04 0.389E+02
   -.213E+00 -.754E-01 0.376E+04   0.212E+00 0.755E-01 -.377E+04   0.226E-03 0.267E-05 0.400E+00
   0.143E+00 -.112E+00 0.394E+04   -.144E+00 0.112E+00 -.394E+04   0.121E-03 -.723E-05 -.368E+01
   0.221E+00 -.111E+00 0.193E+04   -.224E+00 0.111E+00 -.193E+04   0.552E-03 0.572E-04 -.439E-01
   -.301E+00 -.922E-01 0.192E+04   0.298E+00 0.928E-01 -.192E+04   0.551E-03 -.729E-04 0.196E+00
   -.106E+01 -.344E+00 0.147E+02   0.105E+01 0.339E+00 -.139E+02   0.289E-02 0.303E-03 -.125E+00
   0.885E+00 -.867E+00 0.251E+02   -.894E+00 0.872E+00 -.261E+02   0.232E-02 -.185E-02 0.338E+00
   0.439E+01 -.261E+01 -.184E+04   -.439E+01 0.261E+01 0.184E+04   -.161E-03 -.390E-02 0.972E-01
   -.817E+01 -.569E+01 -.190E+04   0.817E+01 0.569E+01 0.190E+04   -.158E-02 -.506E-03 -.131E+00
   -.501E+02 -.199E+02 -.370E+04   0.500E+02 0.199E+02 0.370E+04   0.196E-01 -.678E-02 -.278E+00
   0.959E+01 -.100E+02 -.374E+04   -.961E+01 0.100E+02 0.374E+04   0.150E-01 -.394E-02 0.928E+00
   -.209E+00 -.753E-01 0.376E+04   0.208E+00 0.754E-01 -.377E+04   0.294E-03 -.196E-05 0.400E+00
   0.136E+00 -.532E-05 0.394E+04   -.136E+00 -.159E-06 -.394E+04   0.115E-03 -.120E-05 -.368E+01
   0.192E+00 -.112E+00 0.193E+04   -.195E+00 0.112E+00 -.193E+04   0.433E-03 0.588E-04 -.440E-01
   -.349E+00 -.233E-05 0.192E+04   0.346E+00 -.668E-06 -.192E+04   0.715E-03 0.162E-05 0.196E+00
   -.162E+01 -.346E+00 0.139E+02   0.161E+01 0.347E+00 -.131E+02   0.177E-02 -.346E-05 -.124E+00
   0.676E+00 0.345E-05 0.241E+02   -.682E+00 -.655E-05 -.251E+02   0.117E-02 0.863E-06 0.338E+00
   0.229E+01 -.252E+01 -.184E+04   -.229E+01 0.252E+01 0.184E+04   -.923E-03 -.405E-02 0.980E-01
   -.644E+01 0.104E-04 -.190E+04   0.643E+01 -.615E-05 0.190E+04   0.961E-02 -.112E-05 -.125E+00
   -.205E+02 -.142E+02 -.372E+04   0.205E+02 0.142E+02 0.372E+04   0.310E-01 0.112E-02 -.281E+00
   0.631E+01 -.713E-05 -.375E+04   -.631E+01 -.447E-05 0.374E+04   0.406E-02 -.188E-06 0.947E+00
   -.209E+00 0.753E-01 0.376E+04   0.208E+00 -.754E-01 -.377E+04   0.296E-03 0.131E-05 0.400E+00
   0.143E+00 0.112E+00 0.394E+04   -.144E+00 -.112E+00 -.394E+04   0.118E-03 0.156E-05 -.368E+01
   0.192E+00 0.112E+00 0.193E+04   -.195E+00 -.112E+00 -.193E+04   0.433E-03 -.589E-04 -.440E-01
   -.301E+00 0.922E-01 0.192E+04   0.298E+00 -.928E-01 -.192E+04   0.551E-03 0.711E-04 0.196E+00
   -.162E+01 0.346E+00 0.139E+02   0.161E+01 -.347E+00 -.131E+02   0.177E-02 0.271E-05 -.124E+00
   0.885E+00 0.867E+00 0.251E+02   -.894E+00 -.872E+00 -.261E+02   0.232E-02 0.186E-02 0.338E+00
   0.229E+01 0.252E+01 -.184E+04   -.229E+01 -.252E+01 0.184E+04   -.922E-03 0.405E-02 0.980E-01
   -.817E+01 0.569E+01 -.190E+04   0.817E+01 -.569E+01 0.190E+04   -.158E-02 0.508E-03 -.131E+00
   -.205E+02 0.142E+02 -.372E+04   0.205E+02 -.142E+02 0.372E+04   0.310E-01 -.112E-02 -.281E+00
   0.959E+01 0.100E+02 -.374E+04   -.961E+01 -.100E+02 0.374E+04   0.150E-01 0.394E-02 0.928E+00
   -.213E+00 0.754E-01 0.376E+04   0.212E+00 -.755E-01 -.377E+04   0.226E-03 -.102E-05 0.400E+00
   0.151E+00 -.814E-05 0.394E+04   -.151E+00 0.157E-06 -.394E+04   0.121E-03 0.450E-05 -.368E+01
   0.221E+00 0.111E+00 0.193E+04   -.224E+00 -.111E+00 -.193E+04   0.552E-03 -.568E-04 -.439E-01
   -.254E+00 -.527E-05 0.192E+04   0.252E+00 0.476E-06 -.192E+04   0.341E-03 0.378E-06 0.196E+00
   -.106E+01 0.344E+00 0.147E+02   0.105E+01 -.339E+00 -.139E+02   0.289E-02 -.302E-03 -.125E+00
   0.107E+01 0.339E-05 0.260E+02   -.108E+01 0.358E-05 -.271E+02   0.327E-02 -.138E-05 0.338E+00
   0.439E+01 0.261E+01 -.184E+04   -.439E+01 -.261E+01 0.184E+04   -.159E-03 0.390E-02 0.972E-01
   -.104E+02 0.124E-05 -.189E+04   0.104E+02 -.640E-05 0.189E+04   0.615E-02 0.873E-06 -.140E+00
   -.501E+02 0.199E+02 -.370E+04   0.500E+02 -.199E+02 0.370E+04   0.196E-01 0.678E-02 -.278E+00
   0.141E+02 -.973E-06 -.373E+04   -.140E+02 0.749E-05 0.373E+04   -.177E-01 0.259E-06 0.908E+00
   0.213E+00 -.870E-01 0.376E+04   -.213E+00 0.872E-01 -.377E+04   -.237E-03 -.275E-04 0.400E+00
   -.143E+00 -.117E+00 0.394E+04   0.144E+00 0.118E+00 -.394E+04   -.118E-03 -.395E-04 -.368E+01
   -.216E+00 -.289E-01 0.193E+04   0.220E+00 0.363E-01 -.193E+04   -.520E-03 -.157E-02 -.446E-01
   0.297E+00 -.137E+00 0.192E+04   -.294E+00 0.138E+00 -.192E+04   -.575E-03 0.297E-04 0.199E+00
   0.911E+00 -.630E+00 0.169E+02   -.896E+00 0.635E+00 -.161E+02   -.242E-02 -.489E-03 -.119E+00
   -.858E+00 -.218E+00 0.276E+02   0.865E+00 0.179E+00 -.286E+02   -.808E-03 0.226E-01 0.312E+00
   -.384E+01 -.684E+01 -.182E+04   0.384E+01 0.691E+01 0.182E+04   -.211E-02 -.559E-01 0.105E+00
   0.735E+01 -.760E+01 -.189E+04   -.736E+01 0.760E+01 0.189E+04   0.544E-02 -.600E-02 -.137E+00
   0.718E+02 -.355E+02 -.365E+04   -.718E+02 0.355E+02 0.365E+04   -.259E-01 0.310E-01 -.210E+00
   -.175E+02 -.647E+02 -.368E+04   0.175E+02 0.647E+02 0.368E+04   0.436E-01 -.220E-01 0.102E+01
   0.210E+00 -.868E-01 0.376E+04   -.209E+00 0.871E-01 -.377E+04   -.289E-03 -.301E-04 0.400E+00
   -.136E+00 0.774E-05 0.394E+04   0.136E+00 -.844E-07 -.394E+04   -.115E-03 0.348E-06 -.368E+01
   -.188E+00 -.303E-01 0.193E+04   0.191E+00 0.340E-01 -.193E+04   -.398E-03 -.113E-02 -.447E-01
   0.346E+00 -.481E-05 0.192E+04   -.343E+00 -.104E-05 -.192E+04   -.682E-03 0.110E-05 0.198E+00
   0.152E+01 -.705E+00 0.153E+02   -.151E+01 0.727E+00 -.145E+02   -.215E-02 -.123E-02 -.122E+00
   -.620E+00 -.139E-04 0.292E+02   0.625E+00 0.154E-05 -.302E+02   -.578E-03 0.127E-05 0.315E+00
   -.177E+01 -.869E+01 -.182E+04   0.177E+01 0.871E+01 0.182E+04   -.337E-02 -.640E-02 0.171E-01
[...]
   -.543E+02 0.411E-01 0.115E+04   0.584E+02 -.420E-01 -.115E+04   -.361E+01 0.154E-02 0.164E+00
   0.542E+02 0.263E-01 0.115E+04   -.583E+02 -.271E-01 -.115E+04   0.361E+01 0.104E-02 0.159E+00
   0.304E+00 0.124E-05 0.512E+03   -.298E+00 0.223E-05 -.516E+03   -.788E-02 -.166E-05 0.425E+01
   0.853E+00 -.768E-05 -.505E+03   -.834E+00 0.717E-05 0.512E+03   -.154E-01 0.252E-05 -.702E+01
   -.568E+02 -.656E-01 0.154E+02   0.617E+02 0.630E-01 -.156E+02   -.521E+01 0.183E-01 0.301E+00
   0.559E+02 0.245E-01 0.161E+02   -.607E+02 -.287E-01 -.163E+02   0.518E+01 0.206E-01 0.307E+00
   -.131E+01 0.305E-04 -.603E+03   0.130E+01 -.329E-04 0.596E+03   0.130E-01 0.586E-05 0.669E+01
   -.773E+01 -.476E-04 -.156E+04   0.788E+01 0.523E-04 0.156E+04   -.150E+00 -.429E-05 0.114E+01
   -.270E+02 0.414E+01 -.110E+04   0.302E+02 -.421E+01 0.110E+04   -.310E+01 0.683E-01 0.807E+00
   0.238E+02 0.297E+01 -.111E+04   -.270E+02 -.302E+01 0.111E+04   0.309E+01 0.539E-01 0.937E+00
   0.238E+02 -.808E-04 -.176E+04   -.241E+02 0.897E-04 0.176E+04   0.265E+00 -.662E-05 -.208E+01
   0.869E+02 0.422E-04 -.262E+04   -.866E+02 -.350E-04 0.264E+04   -.270E+00 -.277E-05 -.197E+02
   -.686E+02 0.359E+02 -.226E+04   0.747E+02 -.356E+02 0.227E+04   -.598E+01 -.247E+00 -.340E+01
   0.451E+02 0.500E+02 -.222E+04   -.513E+02 -.501E+02 0.222E+04   0.610E+01 0.299E-01 -.258E+01
   -.196E+01 0.328E-04 0.998E+02   0.121E-11 0.419E-12 0.682E-11   0.196E+01 -.240E-04 -.999E+02

 POSITION                                       TOTAL-FORCE (eV/Angst)
      5.51409      5.92265     25.01416         0.062584     -0.000000      0.032918
      4.74855      5.92265     25.89274        -0.259277     -0.000001      0.311577
      6.33991      5.92265     24.16619         0.234150      0.000000     -0.021704
      9.79585      7.40331      8.77892        -0.000561      0.000056     -3.576799
      0.00000      8.88397      8.77892        -0.000495      0.000052      2.446253
      0.00000      7.40331     12.04421        -0.002861      0.000086      0.523613
      9.79585      8.88397     12.04421        -0.002003      0.000493     -0.720864
      9.79585      7.40331     15.30949        -0.011465     -0.004643      0.680574
      0.00000      8.88397     15.30949        -0.007164      0.002504     -0.715126
      0.00036      7.40361     18.50765        -0.000049      0.000099      0.018965
      9.79614      8.88356     18.69910        -0.000878      0.000036     -0.040779
      9.79270      7.40399     22.05646         0.002775      0.000508      0.007150
     13.06071      8.88610     21.69787         0.000724     -0.002612      0.263356
      9.79585     10.36464      8.77892        -0.000677      0.000079     -3.576822
      0.00000      0.00000      8.77892        -0.000489     -0.000007      2.446261
      0.00000     10.36464     12.04421        -0.002542     -0.000001      0.523710
      9.79585      0.00000     12.04421        -0.002417     -0.000001     -0.721233
      9.79585     10.36464     15.30949        -0.006961      0.001311      0.677689
      0.00000      0.00000     15.30949        -0.004994     -0.000002     -0.712949
     13.05993     10.36493     18.50900         0.001051      0.000203      0.017980
      9.79509      0.00000     18.69932         0.001289      0.000003     -0.040775
      9.79368     10.36538     22.05750         0.001427     -0.000007      0.008753
      0.00306      0.00000     21.69788        -0.000789     -0.000012      0.265138
      9.79585      1.48066      8.77892        -0.000689     -0.000078     -3.576815
      0.00000      2.96132      8.77892        -0.000505     -0.000050      2.446247
      0.00000      1.48066     12.04421        -0.002546      0.000015      0.523704
      9.79585      2.96132     12.04421        -0.002000     -0.000479     -0.720871
      9.79585      1.48066     15.30949        -0.006964     -0.001326      0.677689
      0.00000      2.96132     15.30949        -0.007160     -0.002506     -0.715136
     13.05993      1.48037     18.50900         0.001049     -0.000205      0.017987
      9.79614      2.96174     18.69910        -0.000880     -0.000032     -0.040769
      9.79368      1.47992     22.05750         0.001418     -0.000004      0.008743
     13.06071      2.95920     21.69787         0.000714      0.002618      0.263336
      9.79585      4.44199      8.77892        -0.000570     -0.000057     -3.576812
      0.00000      5.92265      8.77892        -0.000530     -0.000004      2.446326
      0.00000      4.44199     12.04421        -0.002869     -0.000097      0.523609
      9.79585      5.92265     12.04421        -0.001581     -0.000004     -0.720315
      9.79585      4.44199     15.30949        -0.011464      0.004660      0.680573
      0.00000      5.92265     15.30949        -0.009148      0.000006     -0.717315
      0.00036      4.44169     18.50765        -0.000050     -0.000099      0.018971
      9.79737      5.92265     18.70082        -0.001253     -0.000004     -0.042770
      9.79270      4.44131     22.05646         0.002776     -0.000511      0.007154
     13.05369      5.92265     21.69715         0.000567      0.000007      0.260531
      3.26528      7.40331      8.77892         0.000553      0.000252     -3.578290
      6.53056      8.88397      8.77892         0.000487      0.000322      2.448206
      6.53056      7.40331     12.04421         0.002775      0.005922      0.528054
      3.26528      8.88397     12.04421         0.002017      0.001026     -0.729562
      3.26528      7.40331     15.30949         0.012046      0.004337      0.646013
      6.53056      8.88397     15.30949         0.006259     -0.016178     -0.658611
      6.53095      7.39231     18.52878        -0.001192      0.005147      0.017653
      3.26454      8.88545     18.69433         0.001534     -0.001283     -0.039076
      3.25517      7.40805     22.04047        -0.017922     -0.015447      0.004170
      6.53378      8.88591     21.68226         0.002734      0.011745      0.253815
      3.26528     10.36464      8.77892         0.000677      0.000291     -3.578095
      6.53056      0.00000      8.77892         0.000465      0.000008      2.448536
      6.53056     10.36464     12.04421         0.002499      0.002574      0.532036
      3.26528      0.00000     12.04421         0.002463     -0.000005     -0.728151
      3.26528     10.36464     15.30949         0.007571      0.020717      0.662419
      6.53056      0.00000     15.30949         0.004142     -0.000011     -0.750051
      6.53212     10.35963     18.49470        -0.001144      0.007019      0.014213
[...]
      6.53056      5.92265     13.32313        -0.000948     -0.000009     -0.020864
      4.54421      4.44199     12.04421         0.521349      0.000621      0.051658
      8.51692      4.44199     12.04421        -0.524433      0.000300      0.050501
      3.26528      5.92265     14.03056        -0.002268      0.000002     -0.182146
      3.26528      5.92265     16.58841         0.002934      0.000002      0.144691
      7.80949      4.44199     15.30949        -0.375630      0.015693      0.089016
      5.25164      4.44199     15.30949         0.360400      0.016375      0.089910
      6.52999      5.92265     17.32171        -0.000508      0.000003     -0.119605
      6.53266      5.92265     19.90365         0.003614      0.000000      0.038487
      4.56981      4.44223     18.60007         0.072894     -0.000227     -0.009444
      8.49127      4.44279     18.59758        -0.072584     -0.000268     -0.012387
      3.24001      5.92265     20.56408        -0.003684      0.000002      0.009555
      3.31676      5.92265     23.13027        -0.020939      0.000004      0.473863
      7.75772      4.43112     22.00020         0.103380     -0.005821      0.099836
      5.29056      4.41842     21.96522        -0.106775     -0.011640      0.076553
    total drift:                                0.002149      0.000009     -0.077890

  FREE ENERGIE OF THE ION-ELECTRON SYSTEM (eV)
  free  energy   TOTEN  =     -1581.22895712 eV

  energy  without entropy=    -1581.22895712  energy(sigma->0) =    -1581.22895712