 vasp.6.4.2 20Jul23 (build Nov 17 2023 15:39:20) complex
 executed on              LinuxNV date 2024.02.24  21:24:19
 OpenACC runtime initialized ...    4 GPUs detected

 INCAR:
   SYSTEM = Oxide-Surface
   ISMEAR = 0
   SIGMA = 0.05
   EDIFF = 1E-4
   ALGO = Normal
   ISTART = 2
   IBRION = -1
   NSW = 0
   ISYM = 0
   DIPOL = 0.5 0.5 0.5
   IDIPOL = 3
   LDIPOL = .TRUE.
   LHFCALC = .TRUE.
   HFSCREEN = 0.2
   GGA = PE
   ENCUT = 450
   PREC = Normal
   LASPH = .TRUE.
   LREAL = Auto
   ISPIN = 1
   NELM = 200
   NELMIN = 8
   NCORE = 1
   KPAR = 1
   LWAVE = .FALSE.
   LCHARG = .FALSE.

 POTCAR:    PAW_PBE C 08Apr2002
 POTCAR:    PAW_PBE H 15Jun2001
 POTCAR:    PAW_PBE Ti_pv 07Sep2000
 POTCAR:    PAW_PBE O 08Apr2002
 POTCAR:    PAW_PBE C 08Apr2002
   VRHFIN =C: s2p2

   TITEL  = PAW_PBE C 08Apr2002
   POMASS =   12.011; ZVAL   =    4.000    mass and valenz
   ENMAX  =  400.000; ENMIN  =  300.000 eV

   TITEL  = PAW_PBE H 15Jun2001
   POMASS =    1.000; ZVAL   =    1.000    mass and valenz
   ENMAX  =  250.000; ENMIN  =  200.000 eV

   TITEL  = PAW_PBE Ti_pv 07Sep2000
   POMASS =   47.880; ZVAL   =   10.000    mass and valenz
   ENMAX  =  222.335; ENMIN  =  166.751 eV

   TITEL  = PAW_PBE O 08Apr2002
   POMASS =   16.000; ZVAL   =    6.000    mass and valenz
   ENMAX  =  400.000; ENMIN  =  300.000 eV

 Optimization of the real space projectors (new method)

 maximal supplied QI-value         = 25.13
 optimisation between [QCUT,QGAM] = [ 10.81, 21.61] = [ 32.71,130.83] Ry
 Optimized for a Real-space Cutoff    1.23 Angstroem

   l    n(q)    QCUT    max X(q) W(low)/X(q) W(high)/X(q)  e(spline)
   0      8    10.807   115.676    0.36E-03    0.72E-03    0.24E-06
   0      8    10.807    87.132    0.35E-03    0.71E-03    0.24E-06
   1      7    10.807     4.429    0.19E-03    0.39E-03    0.11E-06
   1      7    10.807     2.733    0.14E-03    0.28E-03    0.13E-06
 Optimization of the real space projectors (new method)

[...]

   l    n(q)    QCUT    max X(q) W(low)/X(q) W(high)/X(q)  e(spline)
   1      9    10.734     4.216    0.90E-04    0.17E-04    0.73E-07
   1      9    10.734     5.422    0.20E-03    0.95E-04    0.21E-06
   2      9    10.734    72.084    0.40E-03    0.60E-03    0.19E-06
   2      9    10.734    65.965    0.40E-03    0.59E-03    0.19E-06
   0      9    10.734    41.531    0.93E-04    0.36E-04    0.17E-06
   0      9    10.734    16.290    0.71E-04    0.26E-04    0.13E-06
 Optimization of the real space projectors (new method)

 maximal supplied QI-value         = 24.76
 optimisation between [QCUT,QGAM] = [ 10.64, 21.54] = [ 31.73,129.89] Ry
 Optimized for a Real-space Cutoff    1.23 Angstroem

   l    n(q)    QCUT    max X(q) W(low)/X(q) W(high)/X(q)  e(spline)
   0      8    10.645    20.381    0.38E-03    0.60E-03    0.15E-06
   0      8    10.645    15.268    0.40E-03    0.65E-03    0.17E-06
   1      7    10.645     5.964    0.30E-03    0.63E-03    0.18E-06
   1      7    10.645     5.382    0.24E-03    0.53E-03    0.16E-06
  PAW_PBE C 08Apr2002                   :
  PAW_PBE H 15Jun2001                   :
  PAW_PBE Ti_pv 07Sep2000               :
  PAW_PBE O 08Apr2002                   :

 POSCAR:  C  H Ti  O
  positions in direct lattice
 exchange correlation table for  LEXCH =        8
   RHO(1)=    0.500       N(1)  =     2000
   RHO(2)=  100.500       N(2)  =     4000

 ion  position               nearest neighbor table
   1  0.500  0.500  0.813-   2 1.10   3 1.10   4 1.10   5 1.10
   2  0.496  0.576  0.833-   1 1.10
   3  0.504  0.424  0.833-   1 1.10
   4  0.571  0.504  0.793-   1 1.10
   5  0.430  0.496  0.793-   1 1.10
   6  0.750  0.625  0.287-  87 1.95 147 1.95 146 1.95  86 1.95  89 1.98 168 1.98  16 2.96  36 2.96

   7  0.000  0.750  0.287-  88 1.95  89 1.95 108 1.95 109 1.95  90 1.98  37 2.96  17 2.96
   8  0.000  0.625  0.394-  90 1.95 150 1.95  91 1.95 151 1.95  92 1.98  93 1.98  18 2.96  38 2.96

[...]

  85  0.500  0.500  0.709- 239 1.82 244 1.95 185 1.95 184 1.95 245 1.95  75 2.96  55 2.96
  86  0.750  0.750  0.245-   6 1.95  16 1.95
  87  0.750  0.750  0.329-   6 1.95  16 1.95   9 1.98
  88  0.098  0.625  0.287-   7 1.95  37 1.95  46 1.98
  89  0.902  0.625  0.287-   7 1.95  37 1.95   6 1.98
  90  0.000  0.750  0.352-   8 1.95  18 1.95   7 1.98
  91  0.000  0.750  0.435-   8 1.95  18 1.95  11 1.98
  92  0.848  0.625  0.394-   9 1.95  39 1.95   8 1.98
  93  0.152  0.625  0.394-  49 1.95  79 1.95   8 1.98
  94  0.750  0.750  0.458-  10 1.95  20 1.95   9 1.98
  95  0.750  0.750  0.542-  10 1.95  20 1.95  13 2.11
  96  0.098  0.625  0.500-  11 1.95  41 1.95  50 1.98
  97  0.902  0.625  0.500-  11 1.95  41 1.95  10 1.98
  98  0.000  0.750  0.565-  22 1.90  12 1.90  11 2.00
  99  0.000  0.750  0.649-  15 1.81  12 2.02  22 2.02
 100  0.850  0.625  0.607-  12 1.95  13 1.97  43 1.97
 101  0.150  0.625  0.607-  12 1.95  53 1.97  83 1.97
 102  0.750  0.750  0.672-  13 1.86  14 2.10  24 2.10
 103  0.750  0.750  0.756-  14 1.83  24 1.83
 104  0.094  0.625  0.719-  45 1.95  15 1.95  54 2.03
 105  0.906  0.625  0.719-  45 1.95  15 1.95  14 2.03
 106  0.750  0.000  0.245-  16 1.95  26 1.95
 107  0.750  0.000  0.329-  16 1.95  26 1.95  19 1.98
 108  0.098  0.875  0.287-   7 1.95  17 1.95  56 1.98
 109  0.902  0.875  0.287-   7 1.95  17 1.95  16 1.98
 110  0.000  0.000  0.352-  18 1.95  28 1.95  17 1.98
 111  0.000  0.000  0.435-  18 1.95  28 1.95  21 1.98
 112  0.848  0.875  0.394-   9 1.95  19 1.95  18 1.98
 113  0.152  0.875  0.394-  49 1.95  59 1.95  18 1.98
 114  0.750  0.000  0.458-  20 1.95  30 1.95  19 1.98
 115  0.750  0.000  0.542-  20 1.95  30 1.95  23 2.11
 116  0.098  0.875  0.500-  11 1.95  21 1.95  60 1.98
 117  0.902  0.875  0.500-  11 1.95  21 1.95  20 1.98
 118  0.000  0.000  0.565-  32 1.89  22 1.89  21 2.00
 119  1.000  0.000  0.649-  25 1.81  32 2.02  22 2.02
 120  0.850  0.875  0.607-  22 1.95  13 1.97  23 1.97
 121  0.150  0.875  0.607-  22 1.95  53 1.97  63 1.97
 122  0.750  0.000  0.672-  23 1.86  24 2.10  34 2.10
 123  0.750  0.000  0.756-  24 1.83  34 1.83
 124  0.094  0.875  0.719-  15 1.95  25 1.95  64 2.03
 125  0.906  0.875  0.719-  15 1.95  25 1.95  24 2.03
 126  0.750  0.250  0.245-  26 1.95  36 1.95
 127  0.750  0.250  0.329-  26 1.95  36 1.95  29 1.98
 128  0.098  0.125  0.287-  17 1.95  27 1.95  66 1.98
 129  0.902  0.125  0.287-  17 1.95  27 1.95  26 1.98
 130  0.000  0.250  0.352-  28 1.95  38 1.95  27 1.98
 131  0.000  0.250  0.435-  28 1.95  38 1.95  31 1.98
 132  0.848  0.125  0.394-  19 1.95  29 1.95  28 1.98
 133  0.152  0.125  0.394-  59 1.95  69 1.95  28 1.98
 134  0.750  0.250  0.458-  30 1.95  40 1.95  29 1.98
 135  0.750  0.250  0.542-  30 1.95  40 1.95  33 2.11
 136  0.098  0.125  0.500-  21 1.95  31 1.95  70 1.98
 137  0.902  0.125  0.500-  21 1.95  31 1.95  30 1.98
 138  0.000  0.250  0.565-  32 1.90  42 1.90  31 2.00
 139  1.000  0.250  0.649-  35 1.81  42 2.02  32 2.02
 140  0.850  0.125  0.607-  32 1.95  33 1.97  23 1.97
 141  0.150  0.125  0.607-  32 1.95  73 1.97  63 1.97
 142  0.750  0.250  0.672-  33 1.86  44 2.10  34 2.10
 143  0.750  0.250  0.756-  44 1.83  34 1.83
 144  0.094  0.125  0.719-  35 1.95  25 1.95  74 2.03
[...]
 231  0.500  0.500  0.435-  48 1.95  78 1.95  81 1.98
 232  0.348  0.375  0.394-  69 1.95  79 1.95  78 1.98
 233  0.652  0.375  0.394-  29 1.95  39 1.95  78 1.98
 234  0.250  0.500  0.458-  50 1.95  80 1.95  79 1.98
 235  0.250  0.500  0.542-  50 1.95  80 1.95  83 2.11
 236  0.598  0.375  0.500-  71 1.95  81 1.95  40 1.98
 237  0.402  0.375  0.500-  71 1.95  81 1.95  80 1.98
 238  0.500  0.500  0.565-  52 1.90  82 1.90  81 2.00
 239  0.500  0.500  0.649-  85 1.82  82 2.02  52 2.02
 240  0.350  0.375  0.607-  82 1.95  83 1.97  73 1.97
 241  0.650  0.375  0.607-  82 1.95  43 1.97  33 1.97
 242  0.249  0.500  0.672-  83 1.86  84 2.10  54 2.10
 243  0.251  0.500  0.756-  54 1.83  84 1.84
 244  0.594  0.374  0.718-  75 1.94  85 1.95  44 2.03
 245  0.406  0.374  0.718-  75 1.94  85 1.95  84 2.03

IMPORTANT INFORMATION: All symmetrisations will be switched off!
NOSYMM: (Re-)initialisation of all symmetry stuff for point group C_1.

                                     Primitive cell

  volume of cell :    4700.2961

  direct lattice vectors                    reciprocal lattice vectors
    13.003980404  0.000000000  0.000000000     0.076899531  0.000000000  0.000000000
     0.000000000 11.830378115  0.000000000     0.000000000  0.084528152  0.000000000
     0.000000000  0.000000000 30.552748813     0.000000000  0.000000000  0.032730279

  length of vectors
    13.003980404 11.830378115 30.552748813     0.076899531  0.084528152  0.032730279

  position of ions in fractional coordinates (direct lattice)
     0.500064745  0.500001964  0.812552324
     0.496116017  0.575765146  0.833149304
     0.504021047  0.424236385  0.833153143
     0.570575337  0.504286174  0.792850438
     0.429538212  0.495704170  0.792857062
     0.750000000  0.625000000  0.287188045
     0.000000000  0.750000000  0.287188045
     0.000000000  0.625000000  0.393594023
     0.750000000  0.750000000  0.393594023
     0.750000000  0.625000000  0.500000000
     0.000000000  0.750000000  0.500000000
     0.999998721  0.625016579  0.604133070
     0.750021371  0.750038293  0.610722288
     0.750117203  0.625133247  0.720287438
     0.000025088  0.750082327  0.708163002
     0.750000000  0.875000000  0.287188045
     0.000000000  0.000000000  0.287188045
     0.000000000  0.875000000  0.393594023
     0.750000000  0.000000000  0.393594023
     0.750000000  0.875000000  0.500000000
     0.000000000  0.000000000  0.500000000
     0.999995888  0.875019827  0.604149471
     0.749960154  0.000003634  0.610781080
     0.749868681  0.875032810  0.720490641
     0.999999839  0.999999986  0.708171277
     0.750000000  0.125000000  0.287188045
     0.000000000  0.250000000  0.287188045
     0.000000000  0.125000000  0.393594023
     0.750000000  0.250000000  0.393594023
     0.750000000  0.125000000  0.500000000
     0.000000000  0.250000000  0.500000000
     0.000004291  0.124980166  0.604149473
     0.750020909  0.249964332  0.610733868
     0.749849705  0.124984894  0.720495097
     0.999975957  0.249917704  0.708163011
     0.750000000  0.375000000  0.287188045
     0.000000000  0.500000000  0.287188045
     0.000000000  0.375000000  0.393594023
     0.750000000  0.500000000  0.393594023
     0.750000000  0.375000000  0.500000000
     0.000000000  0.500000000  0.500000000
     0.000001188  0.374983462  0.604133074
     0.750045959  0.499996868  0.610724841
     0.750061545  0.374909743  0.720323388
     0.000000688  0.500000006  0.708145396
     0.250000000  0.625000000  0.287188045
     0.500000000  0.750000000  0.287188045
     0.500000000  0.625000000  0.393594023
     0.250000000  0.750000000  0.393594023
     0.250000000  0.625000000  0.500000000
     0.500000000  0.750000000  0.500000000
     0.499999018  0.624688356  0.604436823
     0.249979186  0.750035519  0.610734113
     0.249940081  0.625089722  0.720324203
     0.500006823  0.749974613  0.708033504
     0.250000000  0.875000000  0.287188045
     0.500000000  0.000000000  0.287188045
     0.500000000  0.875000000  0.393594023
     0.250000000  0.000000000  0.393594023
[...]
   0.227E+01 -.436E+02 -.373E+03   -.252E+01 0.479E+02 0.376E+03   0.255E+00 -.439E+01 -.311E+01   -.528E-04 0.758E-03 -.316E-01
   -.227E+01 0.435E+02 -.373E+03   0.252E+01 -.479E+02 0.376E+03   -.255E+00 0.439E+01 -.311E+01   0.536E-04 -.758E-03 -.316E-01
   -.356E+02 -.244E+01 -.388E+03   0.403E+02 0.269E+01 0.386E+03   -.461E+01 -.249E+00 0.274E+01   0.107E-02 0.441E-04 -.369E-01
   0.356E+02 0.245E+01 -.388E+03   -.403E+02 -.270E+01 0.386E+03   0.461E+01 0.250E+00 0.273E+01   -.107E-02 -.440E-04 -.369E-01
   -.114E+00 -.366E-01 0.379E+04   0.114E+00 0.367E-01 -.380E+04   -.458E-05 -.212E-04 0.584E+00   0.620E-04 0.458E-04 0.334E+00
   -.151E-03 -.495E-01 0.398E+04   0.153E-03 0.496E-01 -.397E+04   -.113E-05 -.118E-04 -.420E+01   0.207E-05 -.221E-04 0.334E+00
   -.840E-03 -.564E-01 0.193E+04   0.896E-03 0.566E-01 -.193E+04   -.649E-05 -.155E-04 -.105E+00   -.252E-04 0.269E-04 0.219E+00
   -.145E+00 -.650E-01 0.193E+04   0.145E+00 0.657E-01 -.193E+04   0.966E-04 -.532E-04 0.231E+00   0.150E-03 -.832E-04 0.225E+00
   -.531E+00 -.266E+00 -.349E+01   0.526E+00 0.267E+00 0.438E+01   0.854E-03 -.120E-03 -.163E+00   0.469E-03 0.111E-03 0.456E-01
   -.118E-01 -.423E+00 0.733E+01   0.121E-01 0.426E+00 -.860E+01   -.789E-04 -.100E-02 0.391E+00   0.357E-04 0.997E-04 0.456E-01
   -.324E-01 -.131E+01 -.187E+04   0.325E-01 0.131E+01 0.187E+04   -.693E-04 -.352E-03 0.168E+00   -.726E-05 0.295E-03 -.150E+00
   -.433E+01 -.338E+01 -.194E+04   0.433E+01 0.338E+01 0.194E+04   -.106E-02 -.434E-03 -.262E+00   0.137E-02 0.663E-03 -.165E+00
   -.342E+02 -.140E+02 -.375E+04   0.342E+02 0.140E+02 0.375E+04   0.302E-02 -.314E-02 -.467E+00   0.430E-02 0.186E-02 -.321E+00
   -.542E-01 -.476E+01 -.379E+04   0.536E-01 0.477E+01 0.379E+04   0.183E-02 -.481E-02 0.125E+01   -.169E-04 0.919E-03 -.308E+00
   -.111E+00 -.366E-01 0.379E+04   0.111E+00 0.368E-01 -.380E+04   0.331E-04 -.200E-04 0.584E+00   0.230E-04 0.211E-05 0.334E+00
   -.546E-04 -.155E-04 0.398E+04   0.689E-04 0.794E-06 -.397E+04   -.184E-06 0.856E-07 -.420E+01   -.154E-04 0.166E-04 0.334E+00
   -.926E-03 -.568E-01 0.193E+04   0.904E-03 0.570E-01 -.193E+04   -.122E-04 -.107E-04 -.105E+00   0.649E-04 0.207E-04 0.219E+00
   -.163E+00 -.110E-02 0.193E+04   0.162E+00 0.106E-02 -.193E+04   0.165E-03 -.394E-05 0.231E+00   0.115E-03 0.950E-04 0.225E+00
   -.734E+00 -.304E+00 -.413E+01   0.732E+00 0.312E+00 0.503E+01   0.412E-03 -.842E-03 -.164E+00   0.417E-03 0.103E-03 0.458E-01
   -.625E-03 0.364E-05 0.688E+01   0.615E-03 -.181E-04 -.814E+01   -.560E-05 -.240E-05 0.391E+00   0.267E-04 0.220E-04 0.457E-01
   -.511E-01 -.124E+01 -.187E+04   0.510E-01 0.124E+01 0.187E+04   -.766E-04 -.893E-03 0.169E+00   -.790E-05 0.269E-03 -.150E+00
   -.328E+01 -.137E-02 -.194E+04   0.328E+01 0.172E-02 0.194E+04   -.121E-02 -.757E-04 -.258E+00   0.111E-02 -.383E-04 -.164E+00
   -.126E+02 -.996E+01 -.377E+04   0.126E+02 0.996E+01 0.377E+04   0.129E-01 0.147E-02 -.468E+00   0.248E-02 0.124E-02 -.319E+00
   -.350E-02 -.305E-03 -.379E+04   0.352E-02 0.344E-03 0.379E+04   -.102E-04 -.209E-05 0.126E+01   -.187E-04 -.146E-04 -.308E+00
   -.111E+00 0.365E-01 0.379E+04   0.111E+00 -.366E-01 -.380E+04   0.334E-04 0.174E-04 0.584E+00   0.511E-04 -.808E-05 0.334E+00
   0.129E-04 0.495E-01 0.398E+04   -.774E-05 -.496E-01 -.397E+04   0.234E-06 0.115E-04 -.420E+01   -.788E-05 -.318E-04 0.334E+00
   0.505E-03 0.568E-01 0.193E+04   -.536E-03 -.570E-01 -.193E+04   0.594E-05 0.141E-04 -.105E+00   0.776E-05 0.109E-04 0.219E+00
   -.145E+00 0.653E-01 0.193E+04   0.145E+00 -.658E-01 -.193E+04   0.954E-04 0.618E-04 0.231E+00   0.146E-03 -.139E-03 0.225E+00
   -.739E+00 0.288E+00 -.415E+01   0.737E+00 -.295E+00 0.505E+01   0.447E-03 0.656E-03 -.164E+00   0.455E-03 -.809E-04 0.458E-01
   0.998E-02 0.423E+00 0.733E+01   -.103E-01 -.426E+00 -.860E+01   0.690E-04 0.100E-02 0.391E+00   0.415E-05 -.128E-03 0.456E-01
   0.472E-01 0.124E+01 -.187E+04   -.471E-01 -.124E+01 0.187E+04   0.780E-04 0.887E-03 0.169E+00   0.183E-04 -.255E-03 -.150E+00
   -.436E+01 0.338E+01 -.194E+04   0.436E+01 -.338E+01 0.194E+04   -.108E-02 -.102E-03 -.260E+00   0.138E-02 -.626E-03 -.165E+00
   -.126E+02 0.989E+01 -.377E+04   0.126E+02 -.989E+01 0.377E+04   0.126E-01 -.138E-03 -.468E+00   0.247E-02 -.118E-02 -.319E+00
   0.409E-01 0.476E+01 -.379E+04   -.403E-01 -.477E+01 0.379E+04   -.175E-02 0.481E-02 0.125E+01   -.426E-05 -.925E-03 -.308E+00
   -.114E+00 0.367E-01 0.379E+04   0.114E+00 -.368E-01 -.380E+04   -.552E-05 0.237E-04 0.584E+00   0.321E-04 -.393E-04 0.334E+00
   -.769E-04 -.314E-04 0.398E+04   0.763E-04 -.814E-06 -.397E+04   0.309E-06 0.258E-06 -.420E+01   0.165E-05 0.362E-04 0.334E+00
   0.416E-03 0.565E-01 0.193E+04   -.461E-03 -.566E-01 -.193E+04   0.363E-05 0.116E-04 -.105E+00   0.257E-04 -.569E-04 0.219E+00
   -.128E+00 0.844E-03 0.193E+04   0.127E+00 -.984E-03 -.193E+04   -.772E-05 -.436E-05 0.232E+00   0.167E-03 0.128E-03 0.225E+00
   -.535E+00 0.282E+00 -.351E+01   0.530E+00 -.284E+00 0.439E+01   0.882E-03 0.313E-03 -.163E+00   0.479E-03 -.132E-03 0.456E-01
   -.113E-02 -.528E-05 0.779E+01   0.114E-02 -.551E-05 -.905E+01   -.718E-05 0.979E-06 0.391E+00   0.193E-04 0.714E-05 0.454E-01
   0.245E-01 0.131E+01 -.187E+04   -.246E-01 -.131E+01 0.187E+04   0.659E-04 0.360E-03 0.168E+00   -.866E-06 -.310E-03 -.150E+00
   -.562E+01 0.267E-02 -.193E+04   0.562E+01 -.367E-02 0.193E+04   0.897E-03 0.686E-03 -.266E+00   0.164E-02 0.123E-06 -.165E+00
   -.340E+02 0.142E+02 -.375E+04   0.340E+02 -.142E+02 0.375E+04   0.670E-02 -.943E-03 -.470E+00   0.425E-02 -.192E-02 -.321E+00
   -.912E-02 0.197E-03 -.378E+04   0.916E-02 -.233E-03 0.378E+04   0.186E-04 -.358E-06 0.124E+01   -.174E-04 0.199E-04 -.309E+00
   0.114E+00 -.367E-01 0.379E+04   -.114E+00 0.368E-01 -.380E+04   0.401E-05 -.262E-04 0.584E+00   -.486E-04 0.686E-04 0.334E+00
   0.145E-03 -.538E-01 0.398E+04   -.149E-03 0.540E-01 -.397E+04   0.136E-05 -.429E-04 -.420E+01   -.245E-05 0.290E-04 0.334E+00
   0.746E-03 -.244E-01 0.193E+04   -.797E-03 0.283E-01 -.193E+04   0.501E-05 -.761E-03 -.105E+00   0.223E-04 -.774E-04 0.219E+00
   0.145E+00 -.651E-01 0.193E+04   -.145E+00 0.657E-01 -.193E+04   -.929E-04 -.590E-04 0.231E+00   -.201E-03 -.109E-05 0.225E+00
   0.535E+00 -.281E+00 -.351E+01   -.530E+00 0.284E+00 0.440E+01   -.885E-03 -.306E-03 -.163E+00   -.466E-03 0.923E-04 0.456E-01
   0.821E-02 -.217E+00 0.849E+01   -.849E-02 0.200E+00 -.972E+01   0.411E-04 0.880E-02 0.383E+00   0.492E-05 0.117E-03 0.450E-01
   0.103E-01 -.313E+01 -.186E+04   -.104E-01 0.315E+01 0.186E+04   0.389E-04 -.120E-01 0.208E+00   -.103E-04 0.615E-03 -.153E+00
   0.436E+01 -.338E+01 -.194E+04   -.437E+01 0.338E+01 0.194E+04   0.107E-02 0.108E-03 -.260E+00   -.135E-02 0.657E-03 -.165E+00
   0.339E+02 -.142E+02 -.375E+04   -.339E+02 0.142E+02 0.375E+04   -.544E-02 0.363E-02 -.472E+00   -.424E-02 0.196E-02 -.321E+00
   0.209E+00 -.342E+02 -.375E+04   -.206E+00 0.342E+02 0.375E+04   -.252E-02 -.404E-02 0.128E+01   -.399E-04 0.352E-02 -.311E+00
   0.111E+00 -.365E-01 0.379E+04   -.111E+00 0.366E-01 -.380E+04   -.337E-04 -.106E-04 0.584E+00   -.353E-04 -.399E-04 0.334E+00
   0.402E-04 0.273E-04 0.398E+04   -.688E-04 0.176E-05 -.397E+04   -.208E-06 -.146E-05 -.420E+01   0.299E-04 -.297E-04 0.334E+00
   0.739E-03 -.269E-01 0.193E+04   -.792E-03 0.288E-01 -.193E+04   0.623E-05 -.482E-03 -.106E+00   0.233E-04 0.819E-04 0.219E+00
   0.163E+00 0.992E-03 0.193E+04   -.162E+00 -.104E-02 -.193E+04   -.160E-03 -.119E-05 0.231E+00   -.209E-03 0.211E-04 0.225E+00
   0.739E+00 -.288E+00 -.415E+01   -.737E+00 0.295E+00 0.505E+01   -.446E-03 -.655E-03 -.164E+00   -.483E-03 0.102E-03 0.458E-01
[...]
   -.530E+02 0.213E-01 0.116E+04   0.572E+02 -.218E-01 -.116E+04   -.341E+01 0.712E-03 0.166E+00   0.176E-03 -.817E-05 0.133E+00
   0.530E+02 0.220E-01 0.116E+04   -.572E+02 -.225E-01 -.116E+04   0.341E+01 0.775E-03 0.166E+00   -.181E-03 -.141E-04 0.133E+00
   0.165E+00 -.194E-02 0.505E+03   -.163E+00 0.223E-02 -.510E+03   -.204E-02 -.510E-03 0.400E+01   -.176E-03 -.144E-05 0.704E-01
   0.625E+00 -.634E-02 -.525E+03   -.620E+00 0.664E-02 0.533E+03   -.249E-02 -.519E-03 -.698E+01   -.464E-03 -.727E-06 -.194E-01
   -.551E+02 0.263E-01 0.438E+01   0.602E+02 -.292E-01 -.470E+01   -.509E+01 0.926E-02 0.340E+00   0.528E-03 -.822E-04 0.267E-01
   0.551E+02 0.216E-01 0.439E+01   -.602E+02 -.243E-01 -.470E+01   0.509E+01 0.895E-02 0.340E+00   -.541E-03 -.771E-04 0.267E-01
   0.125E-02 0.424E-03 -.626E+03   -.124E-02 -.469E-03 0.619E+03   0.269E-05 0.302E-04 0.630E+01   -.535E-05 0.388E-05 -.484E-01
   0.808E-02 -.384E-03 -.159E+04   -.848E-02 0.418E-03 0.159E+04   0.375E-03 -.236E-04 0.220E+01   -.170E-05 0.936E-06 -.137E+00
   -.246E+02 0.181E+01 -.113E+04   0.277E+02 -.184E+01 0.113E+04   -.279E+01 0.219E-01 0.864E+00   -.941E-03 -.321E-03 -.948E-01
   0.246E+02 0.184E+01 -.113E+04   -.277E+02 -.187E+01 0.113E+04   0.279E+01 0.242E-01 0.870E+00   0.947E-03 -.328E-03 -.947E-01
   0.114E+02 -.132E+00 -.181E+04   -.114E+02 0.139E+00 0.181E+04   0.610E-01 -.580E-02 -.228E+01   -.185E-02 0.719E-05 -.158E+00
   0.395E+02 -.127E-01 -.271E+04   -.395E+02 0.919E-02 0.273E+04   0.250E-01 0.383E-02 -.200E+02   -.405E-02 0.182E-04 -.216E+00
   -.388E+02 0.217E+02 -.231E+04   0.453E+02 -.217E+02 0.231E+04   -.584E+01 -.184E-01 -.356E+01   0.712E-03 -.209E-02 -.197E+00
   0.389E+02 0.216E+02 -.231E+04   -.453E+02 -.216E+02 0.231E+04   0.584E+01 -.264E-01 -.348E+01   -.688E-03 -.208E-02 -.197E+00
   0.344E-02 0.251E-02 0.101E+03   -.278E-11 0.526E-12 -.123E-10   -.142E-01 0.457E-03 -.952E+02   0.675E-05 0.140E-05 0.415E+01

 POSITION                                       TOTAL-FORCE (eV/Angst)
      6.50283      5.91521     24.82571        -0.002359     -0.002842      0.086059
      6.45148      6.81152     25.45500         0.013287     -0.203280     -0.133205
      6.55428      5.01888     25.45512        -0.013371      0.205822     -0.134780
      7.41975      5.96590     24.22376        -0.136439     -0.010008      0.137223
      5.58571      5.86437     24.22396         0.137878      0.010397      0.138058
      9.75299      7.39399      8.77438         0.000021      0.000128     -4.027387
      0.00000      8.87278      8.77438         0.000017      0.000079      3.245968
      0.00000      7.39399     12.02538         0.000038      0.000160      0.565491
      9.75299      8.87278     12.02538        -0.000298      0.000528     -0.795339
      9.75299      7.39399     15.27637        -0.003493      0.000823      0.786076
      0.00000      8.87278     15.27637         0.000262      0.002322     -0.833307
     13.00396      7.39418     18.45793         0.000067      0.000478     -0.003598
      9.75326      8.87324     18.65924         0.001648     -0.001947      0.156949
      9.75451      7.39556     22.00676         0.004190      0.017904      0.370945
      0.00033      8.87376     21.63633         0.000473      0.003670     -0.097052
      9.75299     10.35158      8.77438        -0.000044      0.000163     -4.027296
      0.00000      0.00000      8.77438         0.000012     -0.000001      3.245971
      0.00000     10.35158     12.02538         0.000045      0.000174      0.565725
      9.75299      0.00000     12.02538        -0.000523      0.000042     -0.794668
      9.75299     10.35158     15.27637        -0.001152      0.008270      0.791919
      0.00000      0.00000     15.27637         0.000025      0.000002     -0.832477
     13.00393     10.35182     18.45843        -0.000183      0.000513     -0.002772
      9.75247      0.00004     18.66104         0.002500      0.000153      0.156768
      9.75128     10.35197     22.01297        -0.000031      0.004393      0.384438
     13.00398     11.83038     21.63658         0.000008      0.000019     -0.097174
      9.75299      1.47880      8.77438        -0.000043     -0.000146     -4.027279
      0.00000      2.95759      8.77438         0.000011     -0.000092      3.245964
      0.00000      1.47880     12.02538        -0.000004     -0.000176      0.565728
      9.75299      2.95759     12.02538        -0.000298     -0.000561     -0.795106
      9.75299      1.47880     15.27637        -0.001152     -0.006617      0.793012
      0.00000      2.95759     15.27637        -0.000204     -0.002330     -0.833303
      0.00006      1.47856     18.45843         0.000217     -0.000502     -0.002767
      9.75326      2.95717     18.65960         0.001594      0.002105      0.157293
      9.75103      1.47862     22.01311        -0.000334     -0.003899      0.384570
     13.00367      2.95662     21.63633        -0.000428     -0.003681     -0.097051
      9.75299      4.43639      8.77438         0.000019     -0.000158     -4.027370
      0.00000      5.91519      8.77438         0.000015      0.000002      3.245963
      0.00000      4.43639     12.02538        -0.000002     -0.000171      0.565491
      9.75299      5.91519     12.02538        -0.000076     -0.000021     -0.795693
      9.75299      4.43639     15.27637        -0.003496     -0.002492      0.787219
      0.00000      5.91519     15.27637         0.000033     -0.000006     -0.834117
      0.00002      4.43620     18.45793        -0.000040     -0.000501     -0.003596
      9.75358      5.91515     18.65932        -0.000101     -0.000203      0.157843
      9.75379      4.43532     22.00786         0.005840     -0.018639      0.370881
      0.00001      5.91519     21.63579         0.000035     -0.000020     -0.096857
      3.25100      7.39399      8.77438         0.000007      0.000160     -4.027369
      6.50199      8.87278      8.77438         0.000009      0.000227      3.246390
      6.50199      7.39399     12.02538        -0.000010      0.003145      0.565576
      3.25100      8.87278     12.02538         0.000319      0.000539     -0.795087
      3.25100      7.39399     15.27637         0.003528      0.002456      0.787273
      6.50199      8.87278     15.27637        -0.000222     -0.007678     -0.806201
      6.50198      7.39030     18.46721        -0.000021      0.000422      0.006660
      3.25072      8.87320     18.65961        -0.001549     -0.002108      0.157283
      3.25022      7.39505     22.00788        -0.005458      0.019254      0.370434
      6.50208      8.87248     21.63237         0.000634      0.011706     -0.106869
      3.25100     10.35158      8.77438         0.000071      0.000132     -4.027278
      6.50199      0.00000      8.77438         0.000015     -0.000006      3.246614
      6.50199     10.35158     12.02538        -0.000010      0.001498      0.567716
      3.25100      0.00000     12.02538         0.000542     -0.000034     -0.794662
      3.25100     10.35158     15.27637         0.001179      0.006587      0.793037
[...]
      6.50199      5.91519     13.29976         0.000015     -0.000005     -0.289360
      4.52538      4.43639     12.02538         0.302031      0.000289      0.061390
      8.47860      4.43639     12.02538        -0.302018      0.000331      0.061404
      3.25100      5.91519     14.00199        -0.000679     -0.000319      0.041844
      3.25100      5.91519     16.55076         0.001235     -0.000317     -0.231405
      7.77637      4.43639     15.27637        -0.735270      0.007914      0.108201
      5.22761      4.43639     15.27637         0.734978      0.007829      0.108310
      6.50199      5.91519     17.27737         0.000015     -0.000011      0.195634
      6.50199      5.91519     19.84135         0.000035      0.000004      0.005720
      4.55308      4.43637     18.55283        -0.103175      0.000393      0.026114
      8.45091      4.43645     18.55268         0.103151      0.000328      0.026358
      3.24438      5.91546     20.51904        -0.002968      0.000407     -0.048046
      3.26188      5.91464     23.09198        -0.012628      0.000696     -0.604857
      7.72812      4.42967     21.94583        -0.306002     -0.012780     -0.059106
      5.27493      4.42915     21.94273         0.304093     -0.012826     -0.058030
    total drift:                               -0.003406      0.000775     -0.469159

  FREE ENERGIE OF THE ION-ELECTRON SYSTEM (eV)
  free  energy   TOTEN  =     -2646.86655149 eV

  energy  without entropy=    -2646.86655149  energy(sigma->0) =    -2646.86655149

     |            E. Caldeweyher, S. Ehlert & S. Grimme          |
     |          Mulliken Center for Theoretical Chemistry        |
     |                    University of Bonn                     |

Rational (Becke-Johnson) damping: hse06-D4-ATM
  s6         1.0000
  s8         1.1953
  s9         1.0000
  a1         0.3866
  a2         5.1913
 alp        16.0000

Dispersion energy:      -1.4408487376080E+00 Eh