 vasp.6.3.0 20Jan22 (build Apr  1 2022 16:44:48) complex
 executed on        HPECrayEX_GCC date 2022.10.25  00:55:40

 INCAR:
   SYSTEM = MgO-rocksalt
   ISMEAR = 0
   SIGMA = 0.05
   EDIFF = 1E-6
   ALGO = ALL
   ISTART = 0
   IBRION = -1
   NSW = 0
   ISYM = 0
   DIPOL = 0.5 0.5 0.5
   IDIPOL = 3
   LDIPOL = .TRUE.
   GGA = MK
   LUSE_VDW = .TRUE.
   PARAM1 = 0.1234
   PARAM2 = 0.711357
   ZAB_VDW = -1.8867
   AGGAC = 0.0
   ENCUT = 600
   PREC = Accurate
   LASPH = .TRUE.
   LREAL = .FALSE.
   ISPIN = 1
   NELM = 200
   NELMIN = 8
   NCORE = 8
   KPAR = 1
   LWAVE = .FALSE.
   LCHARG = .FALSE.

 POTCAR:    PAW_PBE H 15Jun2001
 POTCAR:    PAW_PBE O 08Apr2002
 POTCAR:    PAW_PBE Mg_pv 13Apr2007
 POTCAR:    PAW_PBE O 08Apr2002
|               ----> ADVICE to this user running VASP <----                  |
|     You have switched on vdW-DFT.                                           |
|     This routine was written and supplied by Jiri Klimes. We recommend      |
|     that you carefully read and cite the following publications:            |
|       J. Klimes, D.R. Bowler, A. Michelides                                 |
|          J. Phys.: Cond Matt. 22 022201 (2010)                              |
|       J. Klimes, D.R. Bowler, A. Michelides                                 |
|          Phys. Rev. B. 83, 195131 (2011)                                    |
|     and references therein.                                                 |

   TITEL  = PAW_PBE H 15Jun2001
   POMASS =    1.000; ZVAL   =    1.000    mass and valenz
   ENMAX  =  250.000; ENMIN  =  200.000 eV

   TITEL  = PAW_PBE O 08Apr2002
   POMASS =   16.000; ZVAL   =    6.000    mass and valenz
   ENMAX  =  400.000; ENMIN  =  300.000 eV

   TITEL  = PAW_PBE Mg_pv 13Apr2007
   POMASS =   24.305; ZVAL   =    8.000    mass and valenz
   ENMAX  =  403.929; ENMIN  =  302.947 eV

   TITEL  = PAW_PBE O 08Apr2002
   POMASS =   16.000; ZVAL   =    6.000    mass and valenz
   ENMAX  =  400.000; ENMIN  =  300.000 eV

  PAW_PBE H 15Jun2001                   :
  PAW_PBE O 08Apr2002                   :
  PAW_PBE Mg_pv 13Apr2007               :
  PAW_PBE O 08Apr2002                   :

 POSCAR:  H  O Mg  O
  positions in direct lattice
 exchange correlation table for  LEXCH =       43
   RHO(1)=    0.500       N(1)  =     2000
   RHO(2)=  100.500       N(2)  =     4000

 ion  position               nearest neighbor table
   1  0.605  0.554  0.771-   3 0.97
   2  0.508  0.673  0.728-   3 1.01
   3  0.501  0.571  0.752-   1 0.97   2 1.01  19 2.21
   4  0.250  0.000  0.352-  36 2.11  38 2.11  39 2.11  46 2.11  55 2.11
   5  0.500  0.250  0.352-  37 2.11  38 2.11  39 2.11  47 2.11  54 2.11
   6  0.250  0.250  0.451-  38 2.11  37 2.11  36 2.11  44 2.11  53 2.11  42 2.11
   7  0.500  0.000  0.451-  39 2.11  37 2.11  36 2.11  45 2.11  52 2.11  43 2.12
   8  0.250  0.000  0.550-  42 2.11  43 2.11  50 2.11  59 2.11  36 2.12  40 2.14
   9  0.500  0.251  0.550-  51 2.11  42 2.11  58 2.11  43 2.12  37 2.12  41 2.13
  10  0.249  0.250  0.648-  57 2.10  42 2.11  40 2.11  48 2.11  41 2.12
  11  0.500  0.002  0.648-  41 2.07  49 2.09  43 2.10  40 2.12  56 2.12
  12  0.250  0.500  0.352-  44 2.11  38 2.11  46 2.11  47 2.11  63 2.11
  13  0.500  0.750  0.352-  45 2.11  39 2.11  46 2.11  47 2.11  62 2.11
  14  0.250  0.750  0.451-  46 2.11  44 2.11  45 2.11  36 2.11  61 2.11  50 2.12
  15  0.500  0.500  0.451-  47 2.11  44 2.11  45 2.11  37 2.11  60 2.11  51 2.14
  16  0.251  0.500  0.550-  51 2.10  48 2.10  42 2.11  50 2.11  67 2.12  44 2.13
  17  0.500  0.749  0.550-  51 2.10  50 2.10  66 2.11  43 2.11  45 2.13  49 2.19
  18  0.248  0.750  0.648-  65 2.09  50 2.09  48 2.11  40 2.11  49 2.14
  19  0.499  0.493  0.653-  41 2.07  48 2.12  64 2.14  51 2.19   3 2.21  49 2.21
  20  0.750  0.000  0.352-  52 2.11  39 2.11  54 2.11  55 2.11  62 2.11
  21  0.000  0.250  0.352-  53 2.11  38 2.11  54 2.11  55 2.11  63 2.11
  22  0.750  0.250  0.451-  54 2.11  52 2.11  53 2.11  37 2.11  60 2.11  58 2.11
  23  0.000  0.000  0.451-  55 2.11  52 2.11  53 2.11  36 2.11  61 2.11  59 2.11
  24  0.750  0.000  0.550-  58 2.11  43 2.11  59 2.11  66 2.11  52 2.12  56 2.14
  25  0.000  0.250  0.550-  42 2.11  67 2.11  58 2.11  59 2.11  53 2.11  57 2.14
  26  0.751  0.250  0.648-  58 2.10  57 2.10  56 2.11  64 2.12  41 2.12
  27  0.001  0.001  0.648-  40 2.10  59 2.10  57 2.10  56 2.11  65 2.11
  28  0.750  0.500  0.352-  60 2.11  54 2.11  47 2.11  62 2.11  63 2.11
  29  0.000  0.750  0.352-  61 2.11  55 2.11  46 2.11  62 2.11  63 2.11
  30  0.750  0.750  0.451-  62 2.11  52 2.11  60 2.11  61 2.11  45 2.11  66 2.12
  31  0.000  0.500  0.451-  67 2.11  63 2.11  60 2.11  61 2.11  44 2.11  53 2.11
  32  0.749  0.500  0.550-  51 2.10  58 2.11  66 2.11  67 2.12  60 2.13  64 2.13
  33  0.001  0.750  0.550-  67 2.11  59 2.11  61 2.11  50 2.11  66 2.12  65 2.14
  34  0.753  0.751  0.647-  66 2.08  65 2.09  56 2.11  64 2.12  49 2.14
  35  0.001  0.500  0.648-  48 2.09  64 2.10  67 2.10  57 2.11  65 2.12
  36  0.250  0.000  0.451-   4 2.11   6 2.11   7 2.11  14 2.11  23 2.11   8 2.12
  37  0.500  0.250  0.451-   5 2.11   6 2.11   7 2.11  15 2.11  22 2.11   9 2.12
  38  0.250  0.250  0.352-   6 2.11   5 2.11   4 2.11  12 2.11  21 2.11
  39  0.500  0.000  0.352-   7 2.11   5 2.11   4 2.11  13 2.11  20 2.11
  40  0.250  0.000  0.650-  27 2.10  10 2.11  18 2.11  11 2.12   8 2.14
  41  0.501  0.248  0.650-  11 2.07  19 2.07  26 2.12  10 2.12   9 2.13
  42  0.250  0.250  0.550-   8 2.11  10 2.11  25 2.11   9 2.11   6 2.11  16 2.11
  43  0.500  0.999  0.550-  11 2.10  24 2.11   8 2.11  17 2.11   7 2.12   9 2.12
  44  0.250  0.500  0.451-  12 2.11   6 2.11  14 2.11  15 2.11  31 2.11  16 2.13
  45  0.500  0.750  0.451-  13 2.11   7 2.11  14 2.11  15 2.11  30 2.11  17 2.13
  46  0.250  0.750  0.352-  14 2.11  12 2.11  13 2.11   4 2.11  29 2.11
  47  0.500  0.500  0.352-  15 2.11  12 2.11  13 2.11   5 2.11  28 2.11
  48  0.248  0.500  0.649-  35 2.09  16 2.10  18 2.11  10 2.11  19 2.12
  49  0.501  0.755  0.653-  11 2.09  34 2.14  18 2.14  17 2.19  19 2.21
  50  0.251  0.750  0.550-  18 2.09  17 2.10   8 2.11  33 2.11  16 2.11  14 2.12
  51  0.500  0.501  0.551-  17 2.10  32 2.10  16 2.10   9 2.11  15 2.14  19 2.19
  52  0.750  0.000  0.451-  20 2.11   7 2.11  22 2.11  23 2.11  30 2.11  24 2.12
  53  0.000  0.250  0.451-  21 2.11   6 2.11  22 2.11  23 2.11  31 2.11  25 2.11
  54  0.750  0.250  0.352-  22 2.11  20 2.11  21 2.11   5 2.11  28 2.11
  55  0.000  0.000  0.352-  23 2.11  20 2.11  21 2.11   4 2.11  29 2.11
  56  0.751  0.000  0.650-  34 2.11  27 2.11  26 2.11  11 2.12  24 2.14
  57  0.000  0.250  0.650-  26 2.10  27 2.10  10 2.10  35 2.11  25 2.14
  58  0.750  0.250  0.550-  26 2.10  24 2.11  32 2.11   9 2.11  25 2.11  22 2.11
  59  0.000  1.000  0.549-  27 2.10  23 2.11  33 2.11  24 2.11   8 2.11  25 2.11
  60  0.750  0.500  0.451-  28 2.11  22 2.11  15 2.11  30 2.11  31 2.11  32 2.13
  61  0.000  0.750  0.451-  29 2.11  23 2.11  14 2.11  30 2.11  31 2.11  33 2.11
  62  0.750  0.750  0.352-  30 2.11  20 2.11  28 2.11  29 2.11  13 2.11
  63  0.000  0.500  0.352-  31 2.11  21 2.11  28 2.11  29 2.11  12 2.11
  64  0.752  0.500  0.650-  35 2.10  34 2.12  26 2.12  32 2.13  19 2.14
  65  0.000  0.751  0.650-  34 2.09  18 2.09  27 2.11  35 2.12  33 2.14
  66  0.750  0.750  0.550-  34 2.08  17 2.11  24 2.11  32 2.11  30 2.12  33 2.12
  67  1.000  0.500  0.549-  35 2.10  33 2.11  31 2.11  25 2.11  32 2.12  16 2.12

IMPORTANT INFORMATION: All symmetrisations will be switched off!
NOSYMM: (Re-)initialisation of all symmetry stuff for point group C_1.

                                     Primitive cell

  volume of cell :    1519.6535

  direct lattice vectors                    reciprocal lattice vectors
     8.440582262  0.000000000  0.000000000     0.118475239  0.000000000  0.000000000
     0.000000000  8.440582262  0.000000000     0.000000000  0.118475239  0.000000000
     0.000000000  0.000000000 21.330436697     0.000000000  0.000000000  0.046881366

  length of vectors
     8.440582262  8.440582262 21.330436697     0.118475239  0.118475239  0.046881366

  position of ions in fractional coordinates (direct lattice)
     0.605158999  0.554067465  0.771204868
     0.508013591  0.673270021  0.727731706
     0.501310769  0.570779158  0.752330931
     0.250000000  0.000000000  0.351610242
     0.500000000  0.250000000  0.351610242
     0.250000000  0.250000000  0.450536747
     0.500000000  0.000000000  0.450536747
     0.250443671  0.000234700  0.549863667
     0.500127418  0.250726857  0.550140190
     0.249370171  0.249928275  0.648256506
     0.500218927  0.002231511  0.648240720
     0.250000000  0.500000000  0.351610242
     0.500000000  0.750000000  0.351610242
     0.250000000  0.750000000  0.450536747
     0.500000000  0.500000000  0.450536747
     0.251172918  0.499809327  0.550275388
     0.500073628  0.748942861  0.550308960
     0.247902624  0.750078790  0.647985275
     0.498815322  0.492985253  0.653426090
     0.750000000  0.000000000  0.351610242
     0.000000000  0.250000000  0.351610242
     0.750000000  0.250000000  0.450536747
     0.000000000  0.000000000  0.450536747
     0.750058423  0.000380019  0.549745321
     0.000396353  0.250266217  0.549684030
     0.751379424  0.249603600  0.647940336
     0.000599586  0.000539546  0.648052127
     0.750000000  0.500000000  0.351610242
     0.000000000  0.750000000  0.351610242
     0.750000000  0.750000000  0.450536747
     0.000000000  0.500000000  0.450536747
     0.749211491  0.499736173  0.550345284
     0.000556679  0.749778358  0.549553159
     0.753229513  0.750753423  0.647099760
     0.000900244  0.499611865  0.647878654
     0.250000000  0.000000000  0.450536747
     0.500000000  0.250000000  0.450536747
     0.250000000  0.250000000  0.351610242
     0.500000000  0.000000000  0.351610242
     0.249634776  0.000068177  0.649965239
     0.500514592  0.247666295  0.649906933
     0.250257006  0.249639082  0.549524704
     0.500318584  0.999347322  0.549772013
     0.250000000  0.500000000  0.450536747
     0.500000000  0.750000000  0.450536747
     0.250000000  0.750000000  0.351610242
     0.500000000  0.500000000  0.351610242
     0.248443818  0.500103926  0.648918891
     0.500701594  0.754826085  0.652930165
     0.250960897  0.750325172  0.549844235
     0.500456640  0.500567019  0.550657647
     0.750000000  0.000000000  0.450536747
     0.000000000  0.250000000  0.450536747
     0.750000000  0.250000000  0.351610242
     0.000000000  0.000000000  0.351610242
     0.751185725  0.000051405  0.649974854
     0.000263684  0.249620988  0.649863965
     0.750220670  0.249895587  0.549601060
     0.000165847  0.999841486  0.549473429
     0.750000000  0.500000000  0.450536747
     0.000000000  0.750000000  0.450536747
     0.750000000  0.750000000  0.351610242
     0.000000000  0.500000000  0.351610242
     0.752363077  0.500240580  0.650180424
     0.000261912  0.750504440  0.649797873
     0.749595911  0.750117344  0.549777748
     0.999912299  0.500236878  0.549321759

  ion indices of the primitive-cell ions
   primitive index   ion index
                 1           1
                 2           2
[...]
   4.22136661  2.11628066 11.73473050
   2.10482944  2.10954016 13.82759436
   4.22213900  0.01883525 13.82725764
   2.11014557  4.22029113  7.50000000
   4.22029113  6.33043670  7.50000000
   2.11014557  6.33043670  9.61014557
   4.22029113  4.22029113  9.61014557
   2.12004568  4.21868174 11.73761434
   4.22091259  6.32151383 11.73833044
   2.09244249  6.33110173 13.82180889
   4.21029176  4.16108258 13.93786385
   6.33043670  0.00000000  7.50000000
   0.00000000  2.11014557  7.50000000
   6.33043670  2.11014557  9.61014557
   0.00000000  0.00000000  9.61014557
   6.33092982  0.00320759 11.72630776
   0.00334545  2.11239260 11.72500041
   6.34207984  2.10679972 13.82085031
   0.00506085  0.00455408 13.82323487
   6.33043670  4.22029113  7.50000000
   0.00000000  6.33043670  7.50000000
   6.33043670  6.33043670  9.61014557
   0.00000000  4.22029113  9.61014557
   6.32378122  4.21806427 11.73910524
   0.00469870  6.32856591 11.72220887
   6.35769567  6.33679602 13.80292046
   0.00759858  4.21701505 13.81953461
   2.11014557  0.00000000  9.61014557
   4.22029113  2.11014557  9.61014557
   2.11014557  2.11014557  7.50000000
   4.22029113  0.00000000  7.50000000
   2.10706286  0.00057545 13.86404240
   4.22463459  2.09044774 13.86279870
   2.11231485  2.10709920 11.72160191
   4.22298017  8.43507328 11.72687712
   2.11014557  4.22029113  9.61014557
   4.22029113  6.33043670  9.61014557
   2.11014557  6.33043670  7.50000000
   4.22029113  4.22029113  7.50000000
   2.09701048  4.22116833 13.84172333
   4.22621299  6.37117166 13.92728556
   2.11825610  6.33318134 11.72841765
   4.22414544  4.22507710 11.74576808
   6.33043670  0.00000000  9.61014557
   0.00000000  2.11014557  9.61014557
   6.33043670  2.11014557  7.50000000
   0.00000000  0.00000000  7.50000000
   6.34044491  0.00043389 13.86424747
   0.00222565  2.10694649 13.86188216
   6.33229928  2.10926426 11.72323062
   0.00139985  8.43924431 11.72050820
   6.33043670  4.22029113  9.61014557
   0.00000000  6.33043670  9.61014557
   6.33043670  6.33043670  7.50000000
   0.00000000  4.22029113  7.50000000
   6.35038245  4.22232176 13.86863237
   0.00221069  6.33469446 13.86047239
   6.32702595  6.33142715 11.72699944
   8.43984201  4.22229052 11.71727301

--------------------------------------- Iteration      FINAL  ---------------------------------------

--------------------OUTCAR has been truncated-------------------------

[...]

--------------------OUTCAR has been truncated-------------------------

  FORCE on cell =-STRESS in cart. coord.  units (eV):
  Direction    XX          YY          ZZ          XY          YZ          ZX
  Alpha Z   899.39781   899.39781   899.39781
  Ewald  160653.23573160679.79806************   -10.10466   -23.76325    38.61568
  Hartree170886.62254170907.47039************    -2.19717     0.78690     8.33866
  E(xc)   -2492.53623 -2492.52458 -2492.59801    -0.03979    -0.24871     0.12711
  Local  ************************341410.02985     9.71510    12.72816   -36.77009
  n-local -2863.09394 -2862.82075 -2881.52819    -0.21255     0.26190     0.40316
  augment  1058.30758  1058.50228  1049.84888     0.16489     0.65722    -0.68415
  Kinetic  7453.07370  7455.76932  7498.08170     2.71368     9.62483   -10.26382
  Fock        0.00000     0.00000     0.00000     0.00000     0.00000     0.00000
  Total     -28.76547   -28.59365    -2.55078     0.03948     0.04705    -0.23344
  in kB     -30.32756   -30.14641    -2.68930     0.04163     0.04960    -0.24612

 VOLUME and BASIS-vectors are now :
  energy-cutoff  :      600.00
  volume of cell :     1519.65
      direct lattice vectors                 reciprocal lattice vectors
     8.440582262  0.000000000  0.000000000     0.118475239  0.000000000  0.000000000
     0.000000000  8.440582262  0.000000000     0.000000000  0.118475239  0.000000000
     0.000000000  0.000000000 21.330436697     0.000000000  0.000000000  0.046881366

  length of vectors
     8.440582262  8.440582262 21.330436697     0.118475239  0.118475239  0.046881366

 FORCES acting on ions:
    Electron-Ion                     Ewald-Force                    Non-Local-Force
   -.774E+02 0.146E+02 -.299E+03   0.847E+02 -.160E+02 0.302E+03   -.733E+01 0.138E+01 -.351E+01
   -.229E+01 -.678E+02 -.267E+03   0.243E+01 0.738E+02 0.263E+03   -.139E+00 -.599E+01 0.358E+01
   0.480E+02 0.272E+02 -.170E+04   -.850E+02 -.477E+02 0.171E+04   0.370E+02 0.205E+02 -.539E+01
   -.881E-01 0.943E-02 0.208E+04   0.915E-01 -.716E-02 -.208E+04   -.253E-02 -.160E-02 -.680E+01
   -.606E-03 -.237E-01 0.208E+04   0.232E-03 0.327E-01 -.208E+04   0.216E-03 -.678E-02 -.679E+01
   -.344E+00 -.980E-01 0.718E+03   0.357E+00 0.113E+00 -.718E+03   -.778E-02 -.868E-02 0.370E+00
   0.129E+00 -.848E-01 0.716E+03   -.140E+00 0.339E-01 -.717E+03   0.843E-02 0.372E-01 0.440E+00
   0.225E+01 -.632E+00 -.644E+03   -.220E+01 0.706E+00 0.645E+03   -.478E-01 -.776E-01 -.263E+00
   -.107E+00 0.356E+01 -.638E+03   0.639E-01 -.336E+01 0.639E+03   0.399E-01 -.195E+00 -.472E+00
   0.166E+02 0.185E+02 -.201E+04   -.170E+02 -.186E+02 0.200E+04   0.351E+00 0.346E-01 0.604E+01
   0.558E+00 -.105E+02 -.200E+04   -.624E+00 0.109E+02 0.200E+04   0.644E-01 -.418E+00 0.585E+01
   -.121E+00 -.712E-02 0.208E+04   0.129E+00 0.487E-02 -.208E+04   -.634E-02 0.157E-02 -.681E+01
   0.773E-02 0.198E-01 0.208E+04   -.863E-02 -.294E-01 -.208E+04   0.633E-03 0.722E-02 -.681E+01
   -.310E+00 0.475E-01 0.717E+03   0.423E+00 -.614E-01 -.717E+03   -.805E-01 0.848E-02 0.534E+00
   0.308E-01 0.141E+00 0.715E+03   -.800E-03 -.101E+00 -.715E+03   -.219E-01 -.306E-01 0.647E+00
   0.323E+01 0.826E+00 -.635E+03   -.300E+01 -.880E+00 0.636E+03   -.234E+00 0.547E-01 -.105E+01
   0.125E+00 -.285E+01 -.647E+03   -.196E+00 0.259E+01 0.646E+03   0.692E-01 0.257E+00 0.918E+00
   0.246E+02 -.217E+02 -.199E+04   -.256E+02 0.217E+02 0.198E+04   0.985E+00 -.165E-01 0.612E+01
   0.135E+01 0.299E+02 -.191E+04   -.168E+01 -.318E+02 0.191E+04   0.330E+00 0.192E+01 0.241E+01
   0.891E-01 0.186E-02 0.208E+04   -.915E-01 0.117E-02 -.208E+04   0.165E-02 -.221E-02 -.678E+01
   0.270E-02 0.107E-01 0.208E+04   -.119E-02 -.622E-02 -.208E+04   -.115E-02 -.321E-02 -.680E+01
   0.374E+00 -.177E+00 0.717E+03   -.368E+00 0.239E+00 -.718E+03   -.546E-02 -.436E-01 0.426E+00
   -.795E-01 -.127E+00 0.717E+03   0.109E+00 0.170E+00 -.717E+03   -.210E-01 -.307E-01 0.367E+00
   -.224E+01 -.867E+00 -.642E+03   0.219E+01 0.972E+00 0.643E+03   0.479E-01 -.109E+00 -.189E+00
   0.131E+00 0.273E+01 -.644E+03   -.904E-01 -.266E+01 0.644E+03   -.427E-01 -.665E-01 -.154E+00
   -.165E+02 0.178E+02 -.200E+04   0.169E+02 -.179E+02 0.200E+04   -.335E+00 0.164E+00 0.604E+01
   -.450E+00 -.402E+01 -.202E+04   0.503E+00 0.419E+01 0.202E+04   -.559E-01 -.166E+00 0.597E+01
   0.122E+00 0.105E-02 0.208E+04   -.129E+00 -.387E-02 -.208E+04   0.575E-02 0.204E-02 -.682E+01
   -.471E-02 -.123E-01 0.208E+04   0.701E-02 0.794E-02 -.208E+04   -.178E-02 0.307E-02 -.676E+01
   0.333E+00 0.122E+00 0.717E+03   -.419E+00 -.180E+00 -.717E+03   0.642E-01 0.412E-01 0.544E+00
   0.608E-03 0.168E+00 0.718E+03   -.188E-01 -.208E+00 -.718E+03   0.139E-01 0.287E-01 0.246E+00
   -.301E+01 0.107E+01 -.640E+03   0.277E+01 -.115E+01 0.641E+03   0.241E+00 0.826E-01 -.493E+00
   -.124E+00 -.295E+01 -.639E+03   0.193E+00 0.287E+01 0.639E+03   -.717E-01 0.787E-01 -.121E+00
   -.247E+02 -.210E+02 -.197E+04   0.257E+02 0.212E+02 0.197E+04   -.104E+01 -.210E+00 0.619E+01
   0.950E-01 0.485E+01 -.201E+04   0.632E-01 -.501E+01 0.200E+04   -.160E+00 0.156E+00 0.598E+01
   -.159E+00 0.140E+00 0.537E+03   0.144E+00 -.122E+00 -.537E+03   0.203E-01 -.270E-01 -.824E-01
   -.324E-01 -.784E-02 0.537E+03   0.148E-01 -.242E-01 -.537E+03   0.247E-01 0.422E-01 -.782E-01
   -.763E-01 -.394E-02 0.157E+04   0.768E-01 0.845E-02 -.157E+04   -.643E-03 -.626E-02 0.360E+01
   0.786E-02 0.366E-02 0.157E+04   -.114E-01 -.582E-02 -.157E+04   0.501E-02 0.307E-02 0.361E+01
   0.803E+01 -.559E+01 -.153E+04   -.778E+01 0.553E+01 0.153E+04   -.245E+00 0.626E-01 -.495E+01
   0.374E+00 0.268E+02 -.151E+04   -.369E+00 -.269E+02 0.151E+04   -.706E-02 0.642E-01 -.482E+01
   0.204E+01 0.227E+01 -.476E+03   -.204E+01 -.219E+01 0.475E+03   -.806E-03 -.719E-01 0.235E+00
   0.226E+00 -.225E+00 -.476E+03   -.238E+00 0.263E+00 0.476E+03   0.137E-01 -.372E-01 0.353E+00
   -.318E+00 -.102E+00 0.537E+03   0.244E+00 0.837E-01 -.537E+03   0.100E+00 0.282E-01 -.154E+00
   0.211E-01 -.632E-01 0.537E+03   -.330E-01 0.109E+00 -.536E+03   0.169E-01 -.602E-01 -.146E+00
   -.819E-01 0.220E-02 0.157E+04   0.918E-01 -.673E-02 -.157E+04   -.138E-01 0.630E-02 0.361E+01
   -.169E-02 -.787E-03 0.157E+04   0.291E-02 0.336E-02 -.157E+04   -.172E-02 -.368E-02 0.359E+01
   0.295E+02 0.792E+01 -.149E+04   -.291E+02 -.782E+01 0.150E+04   -.447E+00 -.988E-01 -.510E+01
   0.203E+01 -.370E+02 -.147E+04   -.211E+01 0.367E+02 0.147E+04   0.738E-01 0.296E+00 -.198E+01
   0.156E+01 -.246E+01 -.475E+03   -.164E+01 0.240E+01 0.474E+03   0.774E-01 0.616E-01 0.472E+00
   -.375E+00 -.303E+00 -.485E+03   0.339E+00 0.248E+00 0.486E+03   0.344E-01 0.469E-01 -.831E+00
   0.199E+00 0.101E+00 0.538E+03   -.208E+00 -.946E-01 -.538E+03   0.118E-01 -.123E-01 -.246E-01
   0.853E-01 0.203E+00 0.538E+03   -.938E-01 -.184E+00 -.538E+03   0.979E-02 -.281E-01 -.542E-01
   0.749E-01 -.138E-01 0.157E+04   -.762E-01 0.229E-01 -.157E+04   0.184E-02 -.127E-01 0.360E+01
   -.837E-02 -.296E-02 0.157E+04   0.112E-01 0.986E-02 -.157E+04   -.397E-02 -.960E-02 0.361E+01
   -.811E+01 -.647E+01 -.153E+04   0.788E+01 0.645E+01 0.153E+04   0.227E+00 0.174E-01 -.497E+01
   -.520E+00 0.636E+01 -.153E+04   0.531E+00 -.624E+01 0.154E+04   -.103E-01 -.118E+00 -.493E+01
   -.212E+01 0.185E+01 -.475E+03   0.214E+01 -.181E+01 0.475E+03   -.231E-01 -.447E-01 0.371E+00
   -.239E+00 -.994E+00 -.480E+03   0.256E+00 0.103E+01 0.479E+03   -.200E-01 -.355E-01 0.207E+00
   0.354E+00 -.518E-01 0.537E+03   -.296E+00 0.397E-01 -.536E+03   -.789E-01 0.191E-01 -.189E+00
   0.506E-01 -.225E+00 0.538E+03   -.710E-01 0.203E+00 -.538E+03   0.256E-01 0.329E-01 0.599E-01
   0.799E-01 0.116E-01 0.157E+04   -.908E-01 -.209E-01 -.157E+04   0.153E-01 0.130E-01 0.361E+01
   0.151E-02 0.413E-02 0.157E+04   -.315E-02 -.112E-01 -.157E+04   0.233E-02 0.979E-02 0.360E+01
   -.300E+02 0.935E+01 -.149E+04   0.293E+02 -.925E+01 0.150E+04   0.631E+00 -.958E-01 -.481E+01
   -.139E+01 -.698E+01 -.153E+04   0.145E+01 0.686E+01 0.153E+04   -.606E-01 0.116E+00 -.497E+01
   -.161E+01 -.202E+01 -.472E+03   0.171E+01 0.199E+01 0.471E+03   -.101E+00 0.343E-01 0.771E+00
   0.176E+00 0.116E+01 -.473E+03   -.137E+00 -.120E+01 0.473E+03   -.385E-01 0.324E-01 0.254E+00
   -.298E+02 -.177E+02 0.199E+02   0.369E-12 -.568E-13 -.222E-11   0.298E+02 0.177E+02 -.199E+02

 POSITION                                       TOTAL-FORCE (eV/Angst)
      5.10789      4.67665     16.45014        -0.002807      0.009188     -0.002167
      4.28793      5.68279     15.52284        -0.002155     -0.001847     -0.000337
      4.23135      4.81771     16.04755        -0.003246      0.002517     -0.000921
      2.11015      0.00000      7.50000         0.000787      0.000652      0.318868
      4.22029      2.11015      7.50000        -0.000224      0.002126      0.316939
      2.11015      2.11015      9.61015         0.005615      0.006113      0.027029
      4.22029      0.00000      9.61015        -0.002726     -0.013632      0.046083
      2.11389      0.00198     11.72883        -0.000696     -0.003156      0.000348
      4.22137      2.11628     11.73473        -0.002941      0.000069     -0.002605
      2.10483      2.10954     13.82759        -0.004872     -0.000054     -0.004214
      4.22214      0.01884     13.82726        -0.001840     -0.001889     -0.006966
      2.11015      4.22029      7.50000         0.001711     -0.000686      0.320578
      4.22029      6.33044      7.50000        -0.000335     -0.002308      0.321776
      2.11015      6.33044      9.61015         0.031036     -0.005384      0.025908
      4.22029      4.22029      9.61015         0.007887      0.009082      0.062738
      2.12005      4.21868     11.73761        -0.003811      0.000892     -0.003078
      4.22091      6.32151     11.73833        -0.001858      0.002253     -0.000180
      2.09244      6.33110     13.82181        -0.003132     -0.000858     -0.008011
      4.21029      4.16108     13.93786        -0.000881      0.006959     -0.006937
      6.33044      0.00000      7.50000        -0.000766      0.000802      0.315107
      0.00000      2.11015      7.50000         0.000292      0.001264      0.320110
      6.33044      2.11015      9.61015         0.001057      0.018726      0.023495
      0.00000      0.00000      9.61015         0.008640      0.011636      0.015749
      6.33093      0.00321     11.72631        -0.000066     -0.003392      0.003865
      0.00335      2.11239     11.72500        -0.001713      0.001634      0.001048
      6.34208      2.10680     13.82085         0.000301     -0.000811     -0.002607
      0.00506      0.00455     13.82323        -0.002845      0.000518     -0.002760
      6.33044      4.22029      7.50000        -0.001754     -0.000797      0.323563
      0.00000      6.33044      7.50000         0.000448     -0.001296      0.311374
      6.33044      6.33044      9.61015        -0.022347     -0.016747      0.023164
      0.00000      4.22029      9.61015        -0.004310     -0.010915      0.042432
      6.32378      4.21806     11.73911         0.001724      0.001133     -0.002710
      0.00470      6.32857     11.72221        -0.001776     -0.000543      0.006497
      6.35770      6.33680     13.80292        -0.002930     -0.000339     -0.006133
      0.00760      4.21702     13.81953        -0.001598     -0.003139     -0.008782
      2.11015      0.00000      9.61015         0.005323     -0.009530      0.040766
      4.22029      2.11015      9.61015         0.006996      0.010220      0.072921
      2.11015      2.11015      7.50000        -0.000240     -0.001779     -0.403943
      4.22029      0.00000      7.50000         0.001359      0.000885     -0.402079
      2.10706      0.00058     13.86404         0.000204     -0.000747      0.005936
      4.22463      2.09045     13.86280        -0.001539     -0.001810      0.002342
      2.11231      2.10710     11.72160         0.002860      0.002519      0.006385
      4.22298      8.43507     11.72688         0.001651      0.000820     -0.002127
      2.11015      4.22029      9.61015         0.026084      0.009437      0.064120
      4.22029      6.33044      9.61015         0.004888     -0.014119      0.067322
      2.11015      6.33044      7.50000        -0.004026      0.001744     -0.401978
      4.22029      4.22029      7.50000        -0.000576     -0.001125     -0.406551
      2.09701      4.22117     13.84172        -0.004577     -0.002579      0.006613
      4.22621      6.37117     13.92729        -0.001118      0.000746     -0.000584
      2.11826      6.33318     11.72842        -0.004162      0.002490     -0.003342
      4.22415      4.22508     11.74577        -0.000817     -0.008012     -0.002174
      6.33044      0.00000      9.61015         0.002371     -0.005803      0.045877
      0.00000      2.11015      9.61015         0.001180     -0.008941      0.030098
      6.33044      2.11015      7.50000         0.000467     -0.003631     -0.403446
      0.00000      0.00000      7.50000        -0.001183     -0.002725     -0.400879
      6.34044      0.00043     13.86425        -0.005718     -0.001588      0.002793
      0.00223      2.10695     13.86188         0.000696      0.003398      0.005025
      6.33230      2.10926     11.72323        -0.005265     -0.000235      0.000970
      0.00140      8.43924     11.72051        -0.002427     -0.003154     -0.003507
      6.33044      4.22029      9.61015        -0.021151      0.007028      0.059326
      0.00000      6.33044      9.61015         0.005159      0.010269      0.051600
      6.33044      6.33044      7.50000         0.004347      0.003659     -0.401228
      0.00000      4.22029      7.50000         0.000621      0.002731     -0.403855
      6.35038      4.22232     13.86863        -0.000958     -0.001666      0.002940
      0.00221      6.33469     13.86047         0.000778     -0.000400      0.003403
      6.32703      6.33143     11.72700         0.000726      0.005387     -0.004611
      8.43984      4.22229     11.71727         0.000179     -0.001257      0.003609
    total drift:                                0.004931      0.001641     -0.010148

  FREE ENERGIE OF THE ION-ELECTRON SYSTEM (eV)
  free  energy   TOTEN  =      -277.95320935 eV

  energy  without entropy=     -277.95320935  energy(sigma->0) =     -277.95320935