 vasp.6.3.0 20Jan22 (build Apr  1 2022 16:44:48) complex
 executed on        HPECrayEX_GCC date 2022.11.03  12:18:51

 INCAR:
   SYSTEM = MgO-rocksalt
   ISMEAR = 0
   SIGMA = 0.05
   EDIFF = 1E-7
   ALGO = ALL
   ISTART = 0
   IBRION = 2
   NSW = 1000
   ISYM = 0
   ISIF = 2
   EDIFFG = -0.01
   DIPOL = 0.5 0.5 0.5
   IDIPOL = 3
   LDIPOL = .TRUE.
   GGA = PE
   IVDW = 1
   VDW_C6 = 1.75 0.14 0.63 0.70
   VDW_R0 = 1.452 1.001 1.243 1.342
   ENCUT = 600
   PREC = Accurate
   LASPH = .TRUE.
   LREAL = .FALSE.
   ISPIN = 1
   NELM = 200
   NELMIN = 8
   NCORE = 8
   KPAR = 1
   LWAVE = .FALSE.
   LCHARG = .FALSE.

 POTCAR:    PAW_PBE C 08Apr2002
 POTCAR:    PAW_PBE H 15Jun2001
 POTCAR:    PAW_PBE Mg_pv 13Apr2007
 POTCAR:    PAW_PBE O 08Apr2002
 POTCAR:    PAW_PBE C 08Apr2002
   VRHFIN =C: s2p2

   TITEL  = PAW_PBE C 08Apr2002
   POMASS =   12.011; ZVAL   =    4.000    mass and valenz
   ENMAX  =  400.000; ENMIN  =  300.000 eV

   TITEL  = PAW_PBE H 15Jun2001
   POMASS =    1.000; ZVAL   =    1.000    mass and valenz
   ENMAX  =  250.000; ENMIN  =  200.000 eV

   TITEL  = PAW_PBE Mg_pv 13Apr2007
   POMASS =   24.305; ZVAL   =    8.000    mass and valenz
   ENMAX  =  403.929; ENMIN  =  302.947 eV

   TITEL  = PAW_PBE O 08Apr2002
   POMASS =   16.000; ZVAL   =    6.000    mass and valenz
   ENMAX  =  400.000; ENMIN  =  300.000 eV

  PAW_PBE C 08Apr2002                   :
  PAW_PBE H 15Jun2001                   :
  PAW_PBE Mg_pv 13Apr2007               :
  PAW_PBE O 08Apr2002                   :

 POSCAR:  C  H Mg  O
  positions in direct lattice
 exchange correlation table for  LEXCH =        8
   RHO(1)=    0.500       N(1)  =     2000
   RHO(2)=  100.500       N(2)  =     4000

 ion  position               nearest neighbor table
   1  0.500  0.500  0.790-   6 1.10   5 1.10   7 1.10   8 1.10
   2  0.000  0.500  0.790-  10 1.10   9 1.10  11 1.10  12 1.10
   3  0.500  1.000  0.790-  14 1.10  13 1.10  15 1.10  16 1.10
   4  0.000  1.000  0.790-  18 1.10  17 1.10  19 1.10  20 1.10
   5  0.500  0.606  0.819-   1 1.10
   6  0.500  0.394  0.819-   1 1.10
   7  0.607  0.500  0.761-   1 1.10
   8  0.393  0.500  0.761-   1 1.10
   9  0.894  0.500  0.819-   2 1.10
  10  0.106  0.500  0.819-   2 1.10
  11  1.000  0.607  0.761-   2 1.10
  12  1.000  0.393  0.761-   2 1.10
  13  0.394  1.000  0.819-   3 1.10
  14  0.606  1.000  0.819-   3 1.10
  15  0.500  0.107  0.761-   3 1.10
  16  0.500  0.893  0.761-   3 1.10
  17  0.000  0.106  0.819-   4 1.10
  18  0.000  0.894  0.819-   4 1.10
  19  0.107  1.000  0.761-   4 1.10
  20  0.893  0.000  0.761-   4 1.10
  21  0.250  0.000  0.351-  53 2.12  55 2.12  56 2.12  63 2.12  72 2.12
  22  0.500  0.250  0.351-  54 2.12  55 2.12  56 2.12  64 2.12  71 2.12
  23  0.250  0.250  0.450-  55 2.12  54 2.12  53 2.12  61 2.12  70 2.12  59 2.12
  24  0.500  0.000  0.450-  56 2.12  54 2.12  53 2.12  62 2.12  69 2.12  60 2.12
  25  0.250  0.000  0.550-  60 2.12  59 2.12  67 2.12  76 2.12  53 2.13  57 2.15
  26  0.500  0.250  0.550-  68 2.12  75 2.12  59 2.12  60 2.12  54 2.13  58 2.14
  27  0.250  0.250  0.648-  59 2.10  57 2.12  58 2.12  74 2.12  65 2.12
  28  0.500  1.000  0.648-  60 2.11  66 2.11  58 2.11  57 2.12  73 2.12
  29  0.250  0.500  0.351-  61 2.12  55 2.12  63 2.12  64 2.12  80 2.12
  30  0.500  0.750  0.351-  62 2.12  56 2.12  63 2.12  64 2.12  79 2.12
  31  0.250  0.750  0.450-  63 2.12  61 2.12  62 2.12  53 2.12  78 2.12  67 2.12
  32  0.500  0.500  0.450-  64 2.12  61 2.12  62 2.12  54 2.12  77 2.12  68 2.13
  33  0.250  0.500  0.550-  68 2.12  59 2.12  67 2.12  84 2.12  61 2.13  65 2.15
  34  0.500  0.750  0.550-  68 2.12  83 2.12  67 2.12  60 2.12  62 2.13  66 2.14
  35  0.250  0.750  0.648-  67 2.10  57 2.12  66 2.12  82 2.12  65 2.12
  36  0.500  0.500  0.649-  68 2.12  58 2.12  66 2.12  65 2.12  81 2.12
  37  0.750  0.000  0.351-  69 2.12  56 2.12  71 2.12  72 2.12  79 2.12
  38  0.000  0.250  0.351-  70 2.12  55 2.12  71 2.12  72 2.12  80 2.12
  39  0.750  0.250  0.450-  71 2.12  69 2.12  70 2.12  54 2.12  77 2.12  75 2.12
  40  0.000  0.000  0.450-  72 2.12  69 2.12  70 2.12  53 2.12  78 2.12  76 2.12
  41  0.750  0.000  0.550-  60 2.12  75 2.12  83 2.12  76 2.12  69 2.13  73 2.15
  42  1.000  0.250  0.550-  75 2.12  59 2.12  84 2.12  76 2.12  70 2.13  74 2.15
  43  0.750  0.250  0.648-  75 2.10  73 2.12  58 2.12  74 2.12  81 2.12
  44  0.000  1.000  0.649-  76 2.11  82 2.12  74 2.12  57 2.12  73 2.12
  45  0.750  0.500  0.351-  77 2.12  71 2.12  64 2.12  79 2.12  80 2.12
  46  0.000  0.750  0.351-  78 2.12  72 2.12  63 2.12  79 2.12  80 2.12
  47  0.750  0.750  0.450-  79 2.12  69 2.12  77 2.12  78 2.12  62 2.12  83 2.12
  48  0.000  0.500  0.450-  80 2.12  70 2.12  77 2.12  78 2.12  61 2.12  84 2.12
  49  0.750  0.500  0.550-  68 2.12  75 2.12  83 2.12  84 2.12  77 2.13  81 2.15
  50  1.000  0.750  0.550-  83 2.12  67 2.12  84 2.12  76 2.12  78 2.13  82 2.15
  51  0.750  0.750  0.648-  83 2.10  73 2.12  66 2.12  82 2.12  81 2.12
  52  0.000  0.500  0.648-  84 2.11  65 2.11  81 2.11  82 2.12  74 2.12
  53  0.250  0.000  0.450-  21 2.12  23 2.12  24 2.12  31 2.12  40 2.12  25 2.13
  54  0.500  0.250  0.450-  22 2.12  23 2.12  24 2.12  32 2.12  39 2.12  26 2.13
  55  0.250  0.250  0.351-  23 2.12  22 2.12  21 2.12  29 2.12  38 2.12
  56  0.500  0.000  0.351-  24 2.12  22 2.12  21 2.12  30 2.12  37 2.12
  57  0.250  0.000  0.651-  27 2.12  35 2.12  44 2.12  28 2.12  25 2.15
  58  0.500  0.250  0.651-  28 2.11  43 2.12  27 2.12  36 2.12  26 2.14
  59  0.250  0.250  0.550-  27 2.10  42 2.12  25 2.12  33 2.12  26 2.12  23 2.12
  60  0.500  0.000  0.550-  28 2.11  25 2.12  41 2.12  26 2.12  34 2.12  24 2.12
[...]
  70  0.000  0.250  0.450-  38 2.12  23 2.12  39 2.12  40 2.12  48 2.12  42 2.13
  71  0.750  0.250  0.351-  39 2.12  37 2.12  38 2.12  22 2.12  45 2.12
  72  0.000  0.000  0.351-  40 2.12  37 2.12  38 2.12  21 2.12  46 2.12
  73  0.750  0.000  0.651-  43 2.12  51 2.12  44 2.12  28 2.12  41 2.15
  74  1.000  0.250  0.651-  44 2.12  43 2.12  27 2.12  52 2.12  42 2.15
  75  0.750  0.250  0.550-  43 2.10  42 2.12  41 2.12  49 2.12  26 2.12  39 2.12
  76  0.000  0.000  0.550-  44 2.11  42 2.12  50 2.12  25 2.12  41 2.12  40 2.12
  77  0.750  0.500  0.450-  45 2.12  39 2.12  32 2.12  47 2.12  48 2.12  49 2.13
  78  0.000  0.750  0.450-  46 2.12  40 2.12  31 2.12  47 2.12  48 2.12  50 2.13
  79  0.750  0.750  0.351-  47 2.12  37 2.12  45 2.12  46 2.12  30 2.12
  80  0.000  0.500  0.351-  48 2.12  38 2.12  45 2.12  46 2.12  29 2.12
  81  0.750  0.500  0.651-  52 2.11  43 2.12  51 2.12  36 2.12  49 2.15
  82  1.000  0.750  0.651-  44 2.12  51 2.12  35 2.12  52 2.12  50 2.15
  83  0.750  0.750  0.550-  51 2.10  50 2.12  41 2.12  49 2.12  34 2.12  47 2.12
  84  0.000  0.500  0.550-  52 2.11  50 2.12  42 2.12  33 2.12  49 2.12  48 2.12

IMPORTANT INFORMATION: All symmetrisations will be switched off!
NOSYMM: (Re-)initialisation of all symmetry stuff for point group C_1.

                                     Primitive cell

  volume of cell :    1530.6606

  direct lattice vectors                    reciprocal lattice vectors
     8.467142631  0.000000000  0.000000000     0.118103597  0.000000000  0.000000000
     0.000000000  8.467142631  0.000000000     0.000000000  0.118103597  0.000000000
     0.000000000  0.000000000 21.350356973     0.000000000  0.000000000  0.046837624

  length of vectors
     8.467142631  8.467142631 21.350356973     0.118103597  0.118103597  0.046837624

  position of ions in fractional coordinates (direct lattice)
     0.500000003  0.499999993  0.789964752
     0.000000005  0.499999995  0.789964752
     0.500000005  0.999999995  0.789964752
     0.000000003  0.999999993  0.789964752
     0.500000002  0.606243309  0.819392312
     0.500000002  0.393756697  0.819392311
     0.607192698  0.500000000  0.760738792
     0.392807307  0.500000000  0.760738792
     0.893756689  0.499999994  0.819392312
     0.106243301  0.499999994  0.819392311
     0.999999998  0.607192689  0.760738792
     0.999999998  0.392807299  0.760738792
     0.393756689  0.999999994  0.819392312
     0.606243301  0.999999994  0.819392311
     0.499999998  0.107192689  0.760738792
     0.499999998  0.892807299  0.760738792
     0.000000002  0.106243309  0.819392312
     0.000000002  0.893756697  0.819392311
     0.107192698  1.000000000  0.760738792
     0.892807307  0.000000000  0.760738792
     0.250000000  0.000000000  0.351282183
     0.500000000  0.250000000  0.351282183
     0.250000000  0.250000000  0.450427394
     0.500000000  0.000000000  0.450427394
     0.250024517  0.000000002  0.550149152
     0.500000003  0.250118833  0.550222711
     0.250032565  0.249769713  0.648390872
     0.500000000  0.999999999  0.648414742
     0.250000000  0.500000000  0.351282183
     0.500000000  0.750000000  0.351282183
     0.250000000  0.750000000  0.450427394
     0.500000000  0.500000000  0.450427394
     0.250145110  0.499999999  0.550197164
     0.500000002  0.749881167  0.550222710
     0.250032566  0.750230287  0.648390860
     0.499999997  0.499999999  0.649224842
     0.750000000  0.000000000  0.351282183
     0.000000000  0.250000000  0.351282183
     0.750000000  0.250000000  0.450427394
     0.000000000  0.000000000  0.450427394
     0.749975483  0.000000002  0.550149155
     0.999999998  0.250002890  0.550178729
     0.749967435  0.249769715  0.648390880
     0.000000001  0.999999999  0.648516315
     0.750000000  0.500000000  0.351282183
     0.000000000  0.750000000  0.351282183
     0.750000000  0.750000000  0.450427394
     0.000000000  0.500000000  0.450427394
     0.749854889  0.499999998  0.550197166
     0.999999997  0.749997109  0.550178728
     0.749967435  0.750230285  0.648390869
     0.000000002  0.500000001  0.648385268
     0.250000000  0.000000000  0.450427394
     0.500000000  0.250000000  0.450427394
     0.250000000  0.250000000  0.351282183
     0.500000000  0.000000000  0.351282183
     0.249946407  0.000000001  0.650815760
     0.500000000  0.249647339  0.650538565
     0.249901312  0.249983413  0.549818940
     0.499999999  0.000000001  0.549759977
[...]
     0.000000000  0.250000000  0.450427394
     0.750000000  0.250000000  0.351282183
     0.000000000  0.000000000  0.351282183
     0.750053593  0.000000000  0.650815762
     1.000000000  0.249941936  0.650831691
     0.750098688  0.249983413  0.549818939
     0.000000000  0.000000000  0.549837714
     0.750000000  0.500000000  0.450427394
     0.000000000  0.750000000  0.450427394
     0.750000000  0.750000000  0.351282183
     0.000000000  0.500000000  0.351282183
     0.750384290  0.500000000  0.650862590
     0.999999999  0.750058064  0.650831689
     0.750098689  0.750016587  0.549818938
     0.000000001  0.500000000  0.549780274

  ion indices of the primitive-cell ions
   primitive index   ion index
                 1           1
                 2           2
                 3           3
                 4           4
                 5           5
                 6           6
                 7           7
                 8           8
                 9           9
                10          10
                11          11
                12          12
[...]
   0.00000001  4.23357132 11.73800510

--------------------------------------- Iteration      FINAL  ---------------------------------------

--------------------OUTCAR has been truncated-------------------------

[...]

--------------------OUTCAR has been truncated-------------------------

  Number of pair interactions contributing to vdW energy: 1228152
  Edisp (eV):   -4.25546

  FORCE on cell =-STRESS in cart. coord.  units (eV):
  Direction    XX          YY          ZZ          XY          YZ          ZX
  Alpha Z   969.11984   969.11984   969.11984
  Ewald  151782.18168151782.14602************    -0.00000    -0.00002     0.00002
  Hartree162407.86026162407.83821************    -0.00000     0.00000     0.00000
  E(xc)   -2565.19336 -2565.19345 -2569.53513     0.00000    -0.00000     0.00000
  Local  ************************323796.74827     0.00000     0.00001    -0.00002
  n-local -2875.65669 -2875.65682 -2895.60099     0.00000     0.00000    -0.00000
  augment  1048.32022  1048.32017  1039.46181    -0.00000     0.00000    -0.00000
  Kinetic  7704.53654  7704.54020  7746.82829    -0.00000    -0.00000    -0.00000
  Fock        0.00000     0.00000     0.00000     0.00000     0.00000     0.00000
  vdW        -5.77418    -5.77419    -5.53749    -0.00000     0.00000    -0.00000
  Total     -29.34130   -29.33979    -2.34771    -0.00000    -0.00001     0.00001
  in kB     -30.71221   -30.71063    -2.45740    -0.00000    -0.00001     0.00001

 VOLUME and BASIS-vectors are now :
  energy-cutoff  :      600.00
  volume of cell :     1530.66
      direct lattice vectors                 reciprocal lattice vectors
     8.467142631  0.000000000  0.000000000     0.118103597  0.000000000  0.000000000
     0.000000000  8.467142631  0.000000000     0.000000000  0.118103597  0.000000000
     0.000000000  0.000000000 21.350356973     0.000000000  0.000000000  0.046837624

  length of vectors
     8.467142631  8.467142631 21.350356973     0.118103597  0.118103597  0.046837624

 FORCES acting on ions:
    Electron-Ion                     Ewald-Force                    Non-Local-Force
   -.162E-05 -.853E-05 -.951E+03   0.149E-05 0.122E-04 0.951E+03   -.271E-06 0.410E-05 -.975E-02
   0.554E-05 -.184E-05 -.951E+03   -.692E-05 0.152E-05 0.951E+03   -.193E-05 0.950E-07 -.123E-01
   0.431E-05 0.411E-05 -.951E+03   -.740E-05 -.491E-05 0.951E+03   -.417E-05 -.160E-05 -.102E-01
   0.168E-05 -.241E-05 -.951E+03   -.174E-05 0.458E-05 0.951E+03   0.309E-06 0.307E-05 -.104E-01
   -.752E-07 -.376E+02 -.242E+03   0.719E-07 0.420E+02 0.245E+03   0.371E-07 -.451E+01 -.313E+01
   -.135E-05 0.376E+02 -.242E+03   0.125E-05 -.420E+02 0.245E+03   -.151E-06 0.451E+01 -.313E+01
   -.377E+02 -.550E-05 -.234E+03   0.422E+02 0.580E-05 0.231E+03   -.458E+01 -.684E-06 0.302E+01
   0.377E+02 -.493E-05 -.234E+03   -.422E+02 0.537E-05 0.231E+03   0.458E+01 -.569E-06 0.302E+01
   0.375E+02 -.863E-06 -.242E+03   -.420E+02 0.832E-06 0.245E+03   0.451E+01 -.706E-07 -.313E+01
   -.375E+02 -.261E-06 -.242E+03   0.420E+02 0.266E-06 0.245E+03   -.451E+01 0.172E-07 -.313E+01
   0.227E-05 -.377E+02 -.234E+03   -.232E-05 0.422E+02 0.231E+03   0.224E-06 -.458E+01 0.302E+01
   0.298E-05 0.377E+02 -.234E+03   -.315E-05 -.422E+02 0.231E+03   0.309E-06 0.458E+01 0.302E+01
   0.375E+02 0.170E-05 -.242E+03   -.420E+02 -.179E-05 0.245E+03   0.451E+01 0.211E-06 -.313E+01
   -.375E+02 0.325E-05 -.242E+03   0.420E+02 -.341E-05 0.245E+03   -.451E+01 0.403E-06 -.313E+01
   0.155E-05 -.377E+02 -.234E+03   -.168E-05 0.422E+02 0.231E+03   0.385E-06 -.457E+01 0.302E+01
   0.340E-05 0.377E+02 -.234E+03   -.370E-05 -.422E+02 0.231E+03   0.617E-06 0.457E+01 0.302E+01
   -.425E-06 -.375E+02 -.242E+03   0.460E-06 0.420E+02 0.245E+03   -.863E-07 -.451E+01 -.313E+01
   0.682E-06 0.375E+02 -.242E+03   -.707E-06 -.420E+02 0.245E+03   0.377E-07 0.451E+01 -.313E+01
   -.377E+02 -.118E-05 -.234E+03   0.422E+02 0.116E-05 0.231E+03   -.458E+01 -.312E-06 0.302E+01
   0.377E+02 -.224E-05 -.234E+03   -.422E+02 0.246E-05 0.231E+03   0.458E+01 -.455E-06 0.302E+01
   -.367E-02 -.814E-06 0.209E+04   0.437E-02 0.956E-06 -.209E+04   -.509E-03 -.117E-06 -.703E+01
   0.297E-06 -.118E-01 0.209E+04   -.332E-06 0.123E-01 -.209E+04   0.113E-06 -.366E-03 -.703E+01
   -.155E-01 -.499E-01 0.784E+03   0.206E-01 0.556E-01 -.784E+03   -.369E-02 -.413E-02 0.502E+00
   0.518E-05 -.364E-05 0.783E+03   -.534E-05 0.431E-05 -.784E+03   -.644E-07 -.488E-06 0.481E+00
   0.317E-02 0.167E-04 -.517E+03   -.859E-02 -.163E-04 0.517E+03   0.399E-02 -.938E-06 -.314E+00
   -.201E-04 -.347E-01 -.517E+03   0.199E-04 0.405E-01 0.517E+03   0.151E-05 -.417E-02 -.304E+00
   0.630E-01 0.904E-01 -.182E+04   -.679E-01 -.908E-01 0.181E+04   0.199E-02 0.119E-03 0.623E+01
   0.647E-05 -.340E-05 -.180E+04   -.690E-05 0.319E-05 0.179E+04   0.227E-06 0.555E-06 0.590E+01
   -.126E-02 0.106E-05 0.209E+04   0.178E-02 -.118E-05 -.209E+04   -.362E-03 0.113E-06 -.703E+01
   0.107E-05 0.118E-01 0.209E+04   -.849E-06 -.123E-01 -.209E+04   -.116E-06 0.366E-03 -.703E+01
   -.155E-01 0.499E-01 0.784E+03   0.206E-01 -.556E-01 -.784E+03   -.369E-02 0.413E-02 0.502E+00
   0.287E-06 0.103E-04 0.783E+03   0.465E-06 -.108E-04 -.784E+03   -.601E-06 0.320E-06 0.481E+00
   0.323E-02 0.152E-04 -.517E+03   -.355E-02 -.138E-04 0.518E+03   0.575E-03 -.105E-05 -.310E+00
   0.226E-04 0.347E-01 -.517E+03   -.238E-04 -.405E-01 0.517E+03   0.918E-06 0.417E-02 -.304E+00
   0.629E-01 -.904E-01 -.182E+04   -.679E-01 0.908E-01 0.181E+04   0.199E-02 -.120E-03 0.623E+01
   -.125E-04 0.529E-05 -.180E+04   0.135E-04 -.506E-05 0.179E+04   -.525E-06 -.402E-06 0.589E+01
   0.367E-02 -.154E-05 0.209E+04   -.437E-02 0.146E-05 -.209E+04   0.509E-03 0.627E-07 -.703E+01
   -.628E-06 -.141E-01 0.209E+04   0.473E-06 0.148E-01 -.209E+04   0.816E-07 -.535E-03 -.702E+01
   0.155E-01 -.499E-01 0.784E+03   -.206E-01 0.556E-01 -.784E+03   0.369E-02 -.413E-02 0.502E+00
   -.714E-05 -.242E-05 0.783E+03   0.738E-05 0.248E-05 -.784E+03   -.144E-06 0.142E-06 0.476E+00
   -.316E-02 -.742E-05 -.517E+03   0.858E-02 0.103E-04 0.517E+03   -.399E-02 -.200E-05 -.314E+00
   -.370E-05 0.373E-01 -.517E+03   0.264E-05 -.310E-01 0.517E+03   0.255E-06 -.636E-02 -.315E+00
   -.629E-01 0.904E-01 -.182E+04   0.679E-01 -.907E-01 0.181E+04   -.199E-02 0.123E-03 0.623E+01
   -.987E-05 -.140E-04 -.180E+04   0.976E-05 0.142E-04 0.179E+04   0.807E-07 0.653E-06 0.590E+01
   0.126E-02 0.164E-05 0.209E+04   -.178E-02 -.163E-05 -.209E+04   0.362E-03 -.225E-07 -.703E+01
   -.110E-05 0.141E-01 0.209E+04   0.935E-06 -.148E-01 -.209E+04   0.975E-07 0.535E-03 -.702E+01
   0.155E-01 0.499E-01 0.784E+03   -.206E-01 -.556E-01 -.784E+03   0.369E-02 0.413E-02 0.502E+00
   -.388E-05 0.339E-05 0.783E+03   0.312E-05 -.384E-05 -.784E+03   0.599E-06 0.222E-06 0.494E+00
   -.320E-02 0.380E-04 -.517E+03   0.353E-02 -.392E-04 0.518E+03   -.578E-03 -.406E-06 -.310E+00
   -.315E-04 -.373E-01 -.517E+03   0.325E-04 0.310E-01 0.517E+03   -.229E-06 0.636E-02 -.315E+00
   -.629E-01 -.904E-01 -.182E+04   0.679E-01 0.907E-01 0.181E+04   -.199E-02 -.121E-03 0.623E+01
   -.122E-04 -.213E-06 -.180E+04   0.101E-04 -.348E-06 0.179E+04   0.201E-05 0.485E-06 0.591E+01
   -.116E-01 -.236E-06 0.587E+03   0.124E-01 -.229E-06 -.587E+03   -.107E-02 0.626E-06 -.872E-01
   -.175E-05 -.325E-01 0.587E+03   0.249E-05 0.341E-01 -.587E+03   -.961E-06 -.211E-02 -.961E-01
   -.208E-02 -.960E-02 0.157E+04   0.286E-02 0.104E-01 -.158E+04   -.109E-02 -.108E-02 0.349E+01
   0.654E-06 -.103E-05 0.157E+04   -.718E-06 0.109E-05 -.158E+04   0.639E-08 0.794E-08 0.349E+01
   -.648E+00 -.162E-04 -.138E+04   0.680E+00 0.172E-04 0.138E+04   -.283E-01 -.513E-06 -.516E+01
   0.616E-06 -.578E+00 -.138E+04   0.299E-06 0.614E+00 0.138E+04   -.124E-05 -.361E-01 -.518E+01
   0.182E-01 0.226E-01 -.380E+03   -.215E-01 -.247E-01 0.380E+03   0.327E-02 0.120E-03 0.497E+00
   0.671E-05 0.411E-05 -.382E+03   -.551E-05 -.482E-05 0.382E+03   -.130E-05 -.648E-06 0.215E+00
[...]
   0.208E-02 -.960E-02 0.157E+04   -.286E-02 0.104E-01 -.158E+04   0.109E-02 -.108E-02 0.349E+01
   -.886E-06 -.713E-06 0.157E+04   0.801E-06 0.729E-06 -.158E+04   -.370E-07 -.887E-07 0.349E+01
   0.648E+00 0.166E-04 -.138E+04   -.680E+00 -.161E-04 0.138E+04   0.283E-01 -.956E-06 -.516E+01
   -.139E-04 0.734E+00 -.138E+04   0.130E-04 -.767E+00 0.138E+04   0.212E-05 0.301E-01 -.515E+01
   -.181E-01 0.226E-01 -.380E+03   0.215E-01 -.247E-01 0.380E+03   -.327E-02 0.120E-03 0.497E+00
   -.159E-04 -.787E-06 -.382E+03   0.173E-04 0.220E-06 0.382E+03   -.605E-06 0.424E-06 0.196E+00
   -.695E-02 0.780E-05 0.587E+03   0.405E-02 -.848E-05 -.587E+03   0.414E-02 0.812E-06 -.994E-01
   -.460E-05 0.454E-01 0.587E+03   0.501E-05 -.441E-01 -.587E+03   -.545E-06 -.183E-02 -.852E-01
   0.208E-02 0.960E-02 0.157E+04   -.286E-02 -.104E-01 -.158E+04   0.109E-02 0.108E-02 0.349E+01
   -.355E-06 0.785E-06 0.157E+04   0.303E-06 -.824E-06 -.158E+04   -.193E-07 0.114E-06 0.349E+01
   -.626E+00 0.336E-05 -.138E+04   0.664E+00 -.560E-05 0.138E+04   -.388E-01 0.236E-05 -.517E+01
   -.298E-05 -.733E+00 -.138E+04   0.343E-05 0.767E+00 0.138E+04   -.206E-06 -.301E-01 -.515E+01
   -.182E-01 -.227E-01 -.380E+03   0.215E-01 0.248E-01 0.380E+03   -.327E-02 -.120E-03 0.497E+00
   -.221E-04 0.240E-05 -.383E+03   0.211E-04 -.341E-05 0.383E+03   0.133E-05 0.161E-05 0.190E+00
   0.125E-04 -.107E-04 0.185E+02   0.171E-12 -.199E-12 0.455E-11   -.133E-04 0.644E-05 -.185E+02

 POSITION                                       TOTAL-FORCE (eV/Angst)
      4.23357      4.23357     16.86825        -0.000000      0.000008      0.008819
      0.00000      4.23357     16.86831        -0.000003     -0.000000      0.008558
      4.23357     -0.00000     16.86829        -0.000007     -0.000002      0.007993
      0.00000     -0.00000     16.86826         0.000000      0.000005      0.008833
      4.23357      5.13409     17.49609         0.000000     -0.003583      0.004190
      4.23357      3.33305     17.49609        -0.000000      0.003576      0.004194
      5.14040      4.23357     16.24329         0.001416     -0.000000      0.005176
      3.32675      4.23357     16.24329        -0.001415     -0.000000      0.005176
      7.56672      4.23357     17.49626         0.002477     -0.000000      0.003257
      0.90043      4.23357     17.49626        -0.002473      0.000000      0.003259
     -0.00000      5.14029     16.24322         0.000000      0.002678      0.006216
     -0.00000      3.32685     16.24322         0.000000     -0.002678      0.006216
      3.33318      8.46714     17.49627         0.002162      0.000000      0.003285
      5.13397      8.46714     17.49627        -0.002155      0.000000      0.003290
      4.23357      0.90665     16.24311         0.000000      0.003114      0.006415
      4.23357      7.56049     16.24311         0.000000     -0.003111      0.006416
      0.00000      0.90041     17.49622        -0.000000     -0.002358      0.003599
     -0.00000      7.56673     17.49622         0.000000      0.002353      0.003602
      0.90675     -0.00000     16.24323         0.002208     -0.000000      0.005579
      7.56039     -0.00000     16.24323        -0.002209     -0.000000      0.005579
      2.11679      0.00000      7.50000         0.000199      0.000000      0.393078
      4.23357      2.11679      7.50000         0.000000      0.000151      0.393630
      2.11679      2.11679      9.61679         0.001397      0.001561      0.015725
      4.23357      0.00000      9.61679        -0.000000      0.000000      0.026931
      2.11675      0.00000     11.74582        -0.001412     -0.000000     -0.001924
      4.23357      2.11677     11.74642         0.000001      0.001564     -0.006981
      2.11691      2.11676     13.83351        -0.002903     -0.000219     -0.001738
      4.23357      8.46714     13.85455        -0.000000      0.000000     -0.001594
      2.11679      4.23357      7.50000         0.000149      0.000000      0.393682
      4.23357      6.35036      7.50000         0.000000     -0.000151      0.393630
      2.11679      6.35036      9.61679         0.001397     -0.001560      0.015725
      4.23357      4.23357      9.61679         0.000000     -0.000000      0.029062
      2.11679      4.23357     11.74678         0.000241      0.000000     -0.007205
      4.23357      6.35037     11.74642        -0.000000     -0.001564     -0.006980
      2.11691      6.35038     13.83351        -0.002904      0.000218     -0.001736
      4.23357      4.23357     13.85544         0.000000     -0.000000     -0.002998
      6.35036      0.00000      7.50000        -0.000199      0.000000      0.393078
      0.00000      2.11679      7.50000        -0.000000      0.000185      0.392974
      6.35036      2.11679      9.61679        -0.001397      0.001561      0.015725
      0.00000      0.00000      9.61679         0.000000      0.000000      0.027111
      6.35039     -0.00000     11.74582         0.001412      0.000001     -0.001924
      0.00000      2.11697     11.74570        -0.000001     -0.000060      0.001579
      6.35023      2.11676     13.83351         0.002903     -0.000216     -0.001739
      0.00000      8.46714     13.85477        -0.000000      0.000001     -0.006000
      6.35036      4.23357      7.50000        -0.000149      0.000000      0.393682
      0.00000      6.35036      7.50000        -0.000000     -0.000185      0.392974
      6.35036      6.35036      9.61679        -0.001397     -0.001561      0.015725
      0.00000      4.23357      9.61679        -0.000000     -0.000000      0.029127
      6.35036      4.23357     11.74678        -0.000242     -0.000001     -0.007203
     -0.00000      6.35017     11.74570         0.000001      0.000060      0.001578
      6.35023      6.35038     13.83351         0.002903      0.000217     -0.001736
     -0.00000      4.23357     13.85579        -0.000000     -0.000000     -0.007225
      2.11679      0.00000      9.61679        -0.000250      0.000000      0.057041
      4.23357      2.11679      9.61679        -0.000000     -0.000537      0.057213
      2.11679      2.11679      7.50000        -0.000309     -0.000306     -0.475620
      4.23357      0.00000      7.50000        -0.000000      0.000000     -0.476071
      2.11666     -0.00000     13.89170         0.002436      0.000001      0.000181
      4.23357      2.11686     13.89285        -0.000000     -0.001516     -0.005353
      2.11692      2.11705     11.73761        -0.000087     -0.001984     -0.003467
      4.23357      0.00000     11.73942        -0.000000     -0.000001      0.003245
[...]
      0.00000      2.11679      9.61679         0.000000      0.000558      0.057176
      6.35036      2.11679      7.50000         0.000309     -0.000306     -0.475620
      0.00000      0.00000      7.50000        -0.000000     -0.000000     -0.475653
      6.35048      0.00000     13.89170        -0.002437     -0.000000      0.000181
     -0.00000      2.11678     13.89188         0.000001     -0.001334      0.001066
      6.35023      2.11705     11.73761         0.000086     -0.001984     -0.003466
      0.00000     -0.00000     11.73935         0.000001     -0.000000      0.000241
      6.35036      4.23357      9.61679         0.001251      0.000000      0.057961
      0.00000      6.35036      9.61679        -0.000000     -0.000558      0.057176
      6.35036      6.35036      7.50000         0.000309      0.000306     -0.475620
      0.00000      4.23357      7.50000        -0.000000      0.000000     -0.476016
      6.35049      4.23357     13.89321        -0.002613      0.000000     -0.005007
     -0.00000      6.35036     13.89188         0.000000      0.001334      0.001066
      6.35023      6.35009     11.73761         0.000087      0.001984     -0.003468
     -0.00000      4.23357     11.74050         0.000000      0.000001     -0.006915
    total drift:                               -0.000001     -0.000004      0.016377

  FREE ENERGIE OF THE ION-ELECTRON SYSTEM (eV)
  free  energy   TOTEN  =      -472.53952320 eV

  energy  without entropy=     -472.53952320  energy(sigma->0) =     -472.53952320

 d Force = 0.1259862E-03[ 0.692E-04, 0.183E-03]  d Energy = 0.1272022E-03-0.122E-05
 d Force =-0.5063608E+01[-0.506E+01,-0.506E+01]  d Ewald  =-0.5063608E+01 0.382E-07

 Conjugate gradient step on ions:
 trial-energy change:   -0.000127  1 .order   -0.000126   -0.000183   -0.000069
  (g-gl).g = 0.171E-03      g.g   = 0.194E-03  gl.gl    = 0.656E-03
 g(Force)  = 0.194E-03   g(Stress)= 0.000E+00 ortho     = 0.872E-05
 gamma     =   0.26088
 trial     =   0.93251
 opt step  =   1.44903  (harmonic =   1.50058) maximal distance =0.00109967
 next E    =  -472.539543   (d E  =  -0.00015)

 reached required accuracy - stopping structural energy minimisation