 vasp.6.3.0 20Jan22 (build Apr  1 2022 16:44:48) complex
 executed on        HPECrayEX_GCC date 2022.11.13  03:26:31

 INCAR:
   SYSTEM = MgO-rocksalt
   ISMEAR = 0
   SIGMA = 0.05
   EDIFF = 1E-6
   ALGO = ALL
   ISTART = 0
   IBRION = -1
   NSW = 0
   ISYM = 0
   DIPOL = 0.5 0.5 0.5
   IDIPOL = 3
   LDIPOL = .TRUE.
   LHFCALC = .TRUE.
   GGA = B5
   AEXX = 0.2
   AGGAX = 0.72
   AGGAC = 0.81
   ALDAC = 0.19
   IVDW = 1
   VDW_S6 = 1.05
   VDW_C6 = 1.75 0.70 0.63 0.70
   VDW_R0 = 1.452 1.342 1.243 1.342
   ENCUT = 600
   PREC = Accurate
   LASPH = .TRUE.
   LREAL = .FALSE.
   ISPIN = 1
   NELM = 200
   NELMIN = 8
   NCORE = 8
   KPAR = 1
   LWAVE = .FALSE.
   LCHARG = .FALSE.

 POTCAR:    PAW_PBE C 08Apr2002
 POTCAR:    PAW_PBE O 08Apr2002
 POTCAR:    PAW_PBE Mg_pv 13Apr2007
 POTCAR:    PAW_PBE O 08Apr2002
 POTCAR:    PAW_PBE C 08Apr2002
   VRHFIN =C: s2p2

   TITEL  = PAW_PBE C 08Apr2002
   POMASS =   12.011; ZVAL   =    4.000    mass and valenz
   ENMAX  =  400.000; ENMIN  =  300.000 eV

[...]

   TITEL  = PAW_PBE Mg_pv 13Apr2007
   POMASS =   24.305; ZVAL   =    8.000    mass and valenz
   ENMAX  =  403.929; ENMIN  =  302.947 eV

   TITEL  = PAW_PBE O 08Apr2002
   POMASS =   16.000; ZVAL   =    6.000    mass and valenz
   ENMAX  =  400.000; ENMIN  =  300.000 eV

  PAW_PBE C 08Apr2002                   :
  PAW_PBE O 08Apr2002                   :
  PAW_PBE Mg_pv 13Apr2007               :
  PAW_PBE O 08Apr2002                   :

 POSCAR:  C  O Mg  O
  positions in direct lattice
 exchange correlation table for  LEXCH =       12
   RHO(1)=    0.500       N(1)  =     2000
   RHO(2)=  100.500       N(2)  =     4000

 ion  position               nearest neighbor table
   1  0.500  0.250  0.723-   3 1.26   2 1.26  41 1.46
   2  0.500  0.386  0.746-   1 1.26  19 2.16
   3  0.500  0.114  0.746-   1 1.26  11 2.16
   4  0.250  0.000  0.351-  36 2.12  38 2.12  39 2.12  46 2.12  55 2.12
   5  0.500  0.250  0.351-  37 2.12  38 2.12  39 2.12  47 2.12  54 2.12
   6  0.250  0.250  0.450-  38 2.12  37 2.12  36 2.12  44 2.12  53 2.12  42 2.13
   7  0.500  0.000  0.450-  39 2.12  37 2.12  36 2.12  45 2.12  52 2.12  43 2.15
   8  0.252  0.999  0.551-  43 2.10  40 2.11  50 2.11  42 2.12  59 2.14  36 2.14
   9  0.500  0.250  0.548-  37 2.08  58 2.10  42 2.10  43 2.10  51 2.10
  10  0.236  0.250  0.647-  57 2.00  42 2.07  40 2.11  48 2.11  41 2.24
  11  0.500  0.988  0.658-  49 2.02  40 2.15  56 2.15   3 2.16  41 2.22
  12  0.250  0.500  0.351-  44 2.12  38 2.12  46 2.12  47 2.12  63 2.12
  13  0.500  0.750  0.351-  45 2.12  39 2.12  46 2.12  47 2.12  62 2.12
  14  0.250  0.750  0.450-  46 2.12  44 2.12  45 2.12  36 2.12  61 2.12  50 2.12
  15  0.500  0.500  0.450-  47 2.12  44 2.12  45 2.12  37 2.12  60 2.12  51 2.15
  16  0.252  0.501  0.551-  51 2.10  48 2.11  50 2.11  42 2.12  67 2.14  44 2.14
  17  0.500  0.750  0.551-  50 2.11  66 2.11  51 2.14  43 2.14  49 2.14  45 2.15
  18  0.247  0.750  0.649-  65 2.09  50 2.11  40 2.13  48 2.13  49 2.14
  19  0.500  0.512  0.658-  49 2.02  48 2.15  64 2.15   2 2.16  41 2.22
  20  0.750  0.000  0.351-  52 2.12  39 2.12  54 2.12  55 2.12  62 2.12
  21  0.000  0.250  0.351-  53 2.12  38 2.12  54 2.12  55 2.12  63 2.12
  22  0.750  0.250  0.450-  54 2.12  52 2.12  53 2.12  37 2.12  60 2.12  58 2.13
  23  0.000  0.000  0.450-  59 2.11  55 2.12  53 2.12  36 2.12  52 2.12  61 2.12
  24  0.748  0.999  0.551-  43 2.10  56 2.11  66 2.11  58 2.12  59 2.14  52 2.14
  25  1.000  0.250  0.549-  53 2.10  59 2.11  67 2.11  58 2.14  42 2.14  57 2.14
  26  0.764  0.250  0.647-  57 2.00  58 2.07  56 2.11  64 2.11  41 2.24
  27  0.000  0.997  0.648-  65 2.10  40 2.10  56 2.10  59 2.11  57 2.14
  28  0.750  0.500  0.351-  60 2.12  54 2.12  47 2.12  62 2.12  63 2.12
  29  0.000  0.750  0.351-  61 2.12  55 2.12  46 2.12  62 2.12  63 2.12
  30  0.750  0.750  0.450-  62 2.12  52 2.12  60 2.12  61 2.12  45 2.12  66 2.12
  31  0.000  0.500  0.450-  67 2.11  63 2.12  60 2.12  61 2.12  44 2.12  53 2.12
  32  0.748  0.501  0.551-  51 2.10  64 2.11  66 2.11  58 2.12  67 2.14  60 2.14
  33  0.000  0.750  0.550-  61 2.12  67 2.12  59 2.12  66 2.12  50 2.12  65 2.14
  34  0.753  0.750  0.649-  65 2.09  66 2.11  56 2.13  64 2.13  49 2.14
  35  0.000  0.503  0.648-  65 2.10  48 2.10  64 2.10  67 2.11  57 2.14
  36  0.250  0.000  0.450-   4 2.12   6 2.12   7 2.12  14 2.12  23 2.12   8 2.14
  37  0.500  0.250  0.450-   9 2.08   5 2.12   7 2.12   6 2.12  15 2.12  22 2.12
  38  0.250  0.250  0.351-   6 2.12   5 2.12   4 2.12  12 2.12  21 2.12
  39  0.500  0.000  0.351-   7 2.12   5 2.12   4 2.12  13 2.12  20 2.12
  40  0.248  0.001  0.650-  27 2.10  10 2.11   8 2.11  18 2.13  11 2.15
  41  0.500  0.250  0.655-   1 1.46  19 2.22  11 2.22  10 2.24  26 2.24
  42  0.252  0.250  0.550-  10 2.07   9 2.10  16 2.12   8 2.12   6 2.13  25 2.14
  43  0.500  0.002  0.551-   8 2.10  24 2.10   9 2.10  17 2.14   7 2.15
  44  0.250  0.500  0.450-  12 2.12   6 2.12  14 2.12  15 2.12  31 2.12  16 2.14
  45  0.500  0.750  0.450-  13 2.12   7 2.12  14 2.12  15 2.12  30 2.12  17 2.15
  46  0.250  0.750  0.351-  14 2.12  12 2.12  13 2.12   4 2.12  29 2.12
  47  0.500  0.500  0.351-  15 2.12  12 2.12  13 2.12   5 2.12  28 2.12
  48  0.248  0.499  0.650-  35 2.10  10 2.11  16 2.11  18 2.13  19 2.15
  49  0.500  0.750  0.652-  11 2.02  19 2.02  34 2.14  18 2.14  17 2.14
  50  0.251  0.750  0.550-  18 2.11  16 2.11   8 2.11  17 2.11  33 2.12  14 2.12
  51  0.500  0.498  0.551-  32 2.10  16 2.10   9 2.10  17 2.14  15 2.15
  52  0.750  0.000  0.450-  20 2.12   7 2.12  22 2.12  23 2.12  30 2.12  24 2.14
  53  0.000  0.250  0.450-  25 2.10  21 2.12  22 2.12  23 2.12   6 2.12  31 2.12
  54  0.750  0.250  0.351-  22 2.12  20 2.12  21 2.12   5 2.12  28 2.12
  55  0.000  0.000  0.351-  23 2.12  20 2.12  21 2.12   4 2.12  29 2.12
  56  0.752  0.001  0.650-  27 2.10  26 2.11  24 2.11  34 2.13  11 2.15
  57  0.000  0.250  0.649-  10 2.00  26 2.00  27 2.14  35 2.14  25 2.14
  58  0.748  0.250  0.550-  26 2.07   9 2.10  32 2.12  24 2.12  22 2.13  25 2.14
  59  1.000  0.001  0.549-  23 2.11  27 2.11  25 2.11  33 2.12  24 2.14   8 2.14
  60  0.750  0.500  0.450-  28 2.12  22 2.12  15 2.12  30 2.12  31 2.12  32 2.14
  61  0.000  0.750  0.450-  33 2.12  29 2.12  14 2.12  30 2.12  31 2.12  23 2.12
  62  0.750  0.750  0.351-  30 2.12  20 2.12  28 2.12  29 2.12  13 2.12
  63  0.000  0.500  0.351-  31 2.12  21 2.12  28 2.12  29 2.12  12 2.12
  64  0.752  0.499  0.650-  35 2.10  26 2.11  32 2.11  34 2.13  19 2.15
  65  0.000  0.750  0.650-  34 2.09  18 2.09  27 2.10  35 2.10  33 2.14
  66  0.749  0.750  0.550-  34 2.11  32 2.11  24 2.11  17 2.11  33 2.12  30 2.12
  67  1.000  0.499  0.549-  31 2.11  35 2.11  25 2.11  33 2.12  32 2.14  16 2.14

IMPORTANT INFORMATION: All symmetrisations will be switched off!
NOSYMM: (Re-)initialisation of all symmetry stuff for point group C_1.

                                     Primitive cell

  volume of cell :    1530.6606

  direct lattice vectors                    reciprocal lattice vectors
     8.467142631  0.000000000  0.000000000     0.118103597  0.000000000  0.000000000
     0.000000000  8.467142631  0.000000000     0.000000000  0.118103597  0.000000000
     0.000000000  0.000000000 21.350356973     0.000000000  0.000000000  0.046837624

  length of vectors
     8.467142631  8.467142631 21.350356973     0.118103597  0.118103597  0.046837624

  position of ions in fractional coordinates (direct lattice)
     0.499999973  0.249998338  0.723301383
     0.499999978  0.386293640  0.746433379
     0.499999986  0.113708370  0.746433085
     0.250000000  0.000000000  0.351282183
     0.500000000  0.250000000  0.351282183
     0.250000000  0.250000000  0.450427394
     0.500000000  0.000000000  0.450427394
     0.252187456  0.999218129  0.550776630
     0.500000019  0.250000048  0.547670370
     0.236442556  0.250000023  0.646937147
     0.499999992  0.988273313  0.658107625
     0.250000000  0.500000000  0.351282183
     0.500000000  0.750000000  0.351282183
     0.250000000  0.750000000  0.450427394
     0.500000000  0.500000000  0.450427394
     0.252187462  0.500781858  0.550776642
     0.499999997  0.749999966  0.551136952
     0.247339422  0.750000035  0.648542901
     0.499999992  0.511727061  0.658107679
     0.750000000  0.000000000  0.351282183
     0.000000000  0.250000000  0.351282183
     0.750000000  0.250000000  0.450427394
     0.000000000  0.000000000  0.450427394
     0.747812555  0.999218137  0.550776662
     0.999999975  0.250000030  0.548752998
     0.763557474  0.250000016  0.646937212
     0.000000020  0.997451597  0.648096925
     0.750000000  0.500000000  0.351282183
     0.000000000  0.750000000  0.351282183
     0.750000000  0.750000000  0.450427394
     0.000000000  0.500000000  0.450427394
     0.747812541  0.500781842  0.550776680
     0.000000000  0.750000043  0.549551587
     0.752660595  0.750000046  0.648542879
     0.000000014  0.502548437  0.648096886
     0.250000000  0.000000000  0.450427394
     0.500000000  0.250000000  0.450427394
     0.250000000  0.250000000  0.351282183
     0.500000000  0.000000000  0.351282183
     0.247818729  0.001374993  0.649534958
     0.499999964  0.250000536  0.654792646
     0.252367363  0.250000006  0.550147124
     0.500000004  0.002265069  0.551004725
     0.250000000  0.500000000  0.450427394
     0.500000000  0.750000000  0.450427394
     0.250000000  0.750000000  0.351282183
     0.500000000  0.500000000  0.351282183
     0.247818680  0.498625074  0.649534986
     0.500000012  0.750000239  0.651561266
     0.250608859  0.749999972  0.549825607
     0.500000003  0.497735035  0.551004670
     0.750000000  0.000000000  0.450427394
     0.000000000  0.250000000  0.450427394
     0.750000000  0.250000000  0.351282183
     0.000000000  0.000000000  0.351282183
     0.752181285  0.001375014  0.649534966
     0.000000021  0.249999978  0.649054700
     0.747632638  0.250000003  0.550147159
     0.999999995  0.000528640  0.549208773
     0.750000000  0.500000000  0.450427394
     0.000000000  0.750000000  0.450427394
     0.750000000  0.750000000  0.351282183
     0.000000000  0.500000000  0.351282183
     0.752181328  0.498625046  0.649534989
     0.000000000  0.750000049  0.649806245
     0.749391149  0.749999976  0.549825628
     0.999999997  0.499471449  0.549208773

  ion indices of the primitive-cell ions
   primitive index   ion index
                 1           1
                 2           2
                 3           3
                 4           4
                 5           5
                 6           6
                 7           7
                 8           8
                 9           9
                10          10
                11          11
                12          12
                13          13
                14          14
                15          15
                16          16
                17          17
                18          18
                19          19
                20          20
                21          21
                22          22
                23          23
                24          24
                25          25
                26          26
[...]
   0.75218133  0.49862505  0.64953499
   0.00000000  0.75000005  0.64980625
   0.74939115  0.74999998  0.54982563
   1.00000000  0.49947145  0.54920877

 position of ions in cartesian coordinates  (Angst):
   4.23357109  2.11677159 15.44274272
   4.23357113  3.27080334 15.93661910
   4.23357120  0.96278499 15.93661283
   2.11678566  0.00000000  7.50000000
   4.23357132  2.11678566  7.50000000
   2.11678566  2.11678566  9.61678566
   4.23357132  0.00000000  9.61678566
   2.13530716  8.46052242 11.75927767
   4.23357148  2.11678606 11.69295789
   2.00199285  2.11678585 13.81233902
   4.23357125  8.36785110 14.05083273
   2.11678566  4.23357132  7.50000000
   4.23357132  6.35035697  7.50000000
   2.11678566  6.35035697  9.61678566
   4.23357132  4.23357132  9.61678566
   2.13530721  4.24019142 11.75927792
   4.23357129  6.35035668 11.76697066
   2.09425816  6.35035727 13.84662245
   4.23357125  4.33286601 14.05083388
   6.35035697  0.00000000  7.50000000
   0.00000000  2.11678566  7.50000000
   6.35035697  2.11678566  9.61678566
   0.00000000  0.00000000  9.61678566
   6.33183557  8.46052248 11.75927836
   8.46714242  2.11678591 11.71607240
   6.46515004  2.11678579 13.81234042
   0.00000017  8.44556494 13.83710070
   6.35035697  4.23357132  7.50000000
   0.00000000  6.35035697  7.50000000
   6.35035697  6.35035697  9.61678566
   0.00000000  4.23357132  9.61678566
   6.33183545  4.24019128 11.75927872
   0.00000000  6.35035733 11.73312257
   6.37288461  6.35035736 13.84662199
   0.00000012  4.25514930 13.83709988
   2.11678566  0.00000000  9.61678566
   4.23357132  2.11678566  9.61678566
   2.11678566  2.11678566  7.50000000
   4.23357132  0.00000000  7.50000000
   2.09831652  0.01164227 13.86780323
   4.23357101  2.11679019 13.98005673
   2.13683045  2.11678571 11.74583748
   4.23357135  0.01917867 11.76414758
   2.11678566  4.23357132  9.61678566
   4.23357132  6.35035697  9.61678566
   2.11678566  6.35035697  7.50000000
   4.23357132  4.23357132  7.50000000
   2.09831611  4.22192962 13.86780382
   4.23357142  6.35035900 13.91106562
   2.12194095  6.35035674 11.73897299
   4.23357134  4.21439353 11.76414640
   6.35035697  0.00000000  9.61678566
   0.00000000  2.11678566  9.61678566
   6.35035697  2.11678566  7.50000000
   0.00000000  0.00000000  7.50000000
   6.36882623  0.01164244 13.86780339
   0.00000018  2.11678547 13.85754955
   6.33031218  2.11678568 11.74583823
   8.46714259  0.00447607 11.72580336
   6.35035697  4.23357132  9.61678566
   0.00000000  6.35035697  9.61678566
   6.35035697  6.35035697  7.50000000
   0.00000000  4.23357132  7.50000000
   6.36882659  4.22192939 13.86780389
   0.00000000  6.35035739 13.87359530
   6.34520175  6.35035677 11.73897343
   8.46714260  4.22909600 11.72580336

--------------------------------------- Iteration      FINAL  ---------------------------------------

--------------------OUTCAR has been truncated-------------------------

[...]

--------------------OUTCAR has been truncated-------------------------

  DFT-D2 method for vdW energy calculation

  Parameters of vdW forcefield:
         C6(Jnm^6/mol)     R0(A)
   C        1.750          1.452
   O        0.700          1.342
   Mg       0.630          1.243
   O        0.700          1.342

  vdW correction parametrized for the method        L`ñ

  IVDW =   1
  VDW_RADIUS =    50.000 A
  VDW_S6 =     1.050
  VDW_SR =     1.000
  VDW_D =    20.000
  LVDW_EWALD = F

  Number of pair interactions contributing to vdW energy:  787009
  Edisp (eV):   -5.25957

 VOLUME and BASIS-vectors are now :
  energy-cutoff  :      600.00
  volume of cell :     1530.66
      direct lattice vectors                 reciprocal lattice vectors
     8.467142631  0.000000000  0.000000000     0.118103597  0.000000000  0.000000000
     0.000000000  8.467142631  0.000000000     0.000000000  0.118103597  0.000000000
     0.000000000  0.000000000 21.350356973     0.000000000  0.000000000  0.046837624

  length of vectors
     8.467142631  8.467142631 21.350356973     0.118103597  0.118103597  0.046837624

 FORCES acting on ions:
    Electron-Ion                     Ewald-Force                    Non-Local-Force
   0.485E-04 -.103E-01 -.109E+04   -.488E-04 0.127E-01 0.110E+04   0.924E-06 -.158E-03 -.255E+01
   0.150E-04 -.222E+03 -.179E+04   -.200E-04 0.265E+03 0.182E+04   0.485E-05 -.392E+02 -.250E+02
   0.462E-06 0.222E+03 -.179E+04   -.361E-05 -.265E+03 0.182E+04   0.614E-05 0.392E+02 -.250E+02
   0.119E-01 0.779E+00 0.209E+04   -.136E-01 -.820E+00 -.208E+04   0.677E-03 0.265E-01 -.642E+01
   -.132E-04 0.858E-05 0.209E+04   0.118E-04 -.888E-05 -.208E+04   -.993E-06 0.520E-05 -.625E+01
   0.250E+01 0.257E-04 0.747E+03   -.256E+01 -.186E-04 -.748E+03   0.258E-01 -.709E-05 0.688E+00
   -.506E-04 0.619E+01 0.743E+03   0.533E-04 -.650E+01 -.743E+03   -.294E-05 0.188E+00 0.559E+00
   0.520E+01 0.833E+01 -.587E+03   -.454E+01 -.856E+01 0.588E+03   -.591E+00 0.210E+00 -.120E+01
   -.173E-04 0.602E-04 -.568E+03   0.223E-04 -.565E-04 0.563E+03   -.498E-05 -.756E-05 0.445E+01
   0.465E+02 -.413E-05 -.187E+04   -.525E+02 0.115E-03 0.186E+04   0.534E+01 -.658E-04 0.630E+01
   -.281E-04 0.850E+02 -.188E+04   0.171E-04 -.885E+02 0.188E+04   0.999E-05 0.316E+01 0.968E+00
   0.119E-01 -.779E+00 0.209E+04   -.136E-01 0.820E+00 -.208E+04   0.679E-03 -.265E-01 -.642E+01
   -.148E-04 -.131E-04 0.209E+04   0.119E-04 0.956E-05 -.208E+04   0.405E-07 0.761E-05 -.642E+01
   -.116E+01 -.322E-04 0.743E+03   0.125E+01 0.260E-04 -.743E+03   -.591E-01 0.603E-05 0.361E+00
   -.572E-04 -.619E+01 0.743E+03   0.595E-04 0.650E+01 -.743E+03   -.128E-05 -.188E+00 0.559E+00
   0.520E+01 -.833E+01 -.587E+03   -.454E+01 0.856E+01 0.588E+03   -.591E+00 -.210E+00 -.120E+01
   -.295E-04 -.192E-03 -.595E+03   0.248E-04 0.176E-03 0.595E+03   0.371E-05 0.169E-04 -.455E+00
   0.277E+02 -.756E-04 -.195E+04   -.286E+02 0.457E-05 0.194E+04   0.852E+00 0.520E-04 0.557E+01
   -.309E-04 -.850E+02 -.188E+04   0.248E-04 0.885E+02 0.188E+04   0.596E-05 -.316E+01 0.967E+00
   -.119E-01 0.779E+00 0.209E+04   0.136E-01 -.820E+00 -.208E+04   -.675E-03 0.265E-01 -.642E+01
   0.103E-04 0.800E-05 0.209E+04   -.116E-04 -.146E-05 -.208E+04   0.178E-05 -.608E-05 -.630E+01
   -.250E+01 0.193E-04 0.747E+03   0.256E+01 -.122E-04 -.748E+03   -.258E-01 -.508E-05 0.688E+00
   0.401E-04 0.254E+01 0.746E+03   -.453E-04 -.271E+01 -.746E+03   0.746E-05 0.104E+00 0.617E-01
   -.520E+01 0.833E+01 -.587E+03   0.454E+01 -.856E+01 0.588E+03   0.591E+00 0.210E+00 -.120E+01
   -.575E-05 -.264E-04 -.566E+03   0.158E-05 0.281E-04 0.566E+03   0.447E-05 0.152E-05 0.131E+00
   -.465E+02 -.509E-05 -.187E+04   0.525E+02 0.120E-03 0.186E+04   -.534E+01 -.692E-04 0.630E+01
   0.254E-05 0.173E+02 -.196E+04   0.892E-05 -.182E+02 0.196E+04   -.104E-04 0.768E+00 0.545E+01
   -.119E-01 -.779E+00 0.209E+04   0.136E-01 0.820E+00 -.208E+04   -.680E-03 -.265E-01 -.642E+01
   0.142E-04 -.814E-06 0.209E+04   -.116E-04 0.145E-05 -.208E+04   -.268E-05 0.161E-05 -.639E+01
   0.116E+01 -.208E-04 0.743E+03   -.125E+01 0.156E-04 -.743E+03   0.590E-01 0.326E-05 0.361E+00
   0.495E-04 -.254E+01 0.746E+03   -.548E-04 0.271E+01 -.746E+03   0.333E-05 -.104E+00 0.617E-01
   -.520E+01 -.833E+01 -.587E+03   0.454E+01 0.856E+01 0.588E+03   0.591E+00 -.210E+00 -.120E+01
   -.972E-05 -.436E-04 -.590E+03   0.112E-04 0.278E-04 0.590E+03   -.808E-06 0.665E-05 -.140E+00
   -.277E+02 -.327E-04 -.195E+04   0.286E+02 -.371E-04 0.194E+04   -.852E+00 0.461E-04 0.557E+01
   0.979E-06 -.173E+02 -.196E+04   0.506E-05 0.182E+02 0.196E+04   -.860E-05 -.768E+00 0.545E+01
   0.237E+00 0.216E+01 0.557E+03   -.363E+00 -.226E+01 -.556E+03   0.149E+00 0.125E+00 -.309E+00
   -.350E-04 0.489E-04 0.568E+03   0.335E-04 -.482E-04 -.568E+03   0.410E-06 -.276E-05 0.490E+00
   0.176E+00 0.692E-05 0.157E+04   -.186E+00 -.375E-05 -.157E+04   0.131E-01 -.153E-05 0.318E+01
   -.835E-05 0.768E+00 0.157E+04   0.876E-05 -.819E+00 -.157E+04   0.101E-05 0.632E-01 0.313E+01
   0.366E+02 0.285E+02 -.145E+04   -.357E+02 -.286E+02 0.145E+04   -.813E+00 0.972E-01 -.490E+01
   -.271E-04 -.102E-02 -.122E+04   0.291E-04 0.162E-02 0.120E+04   -.324E-05 -.653E-03 0.215E+02
   0.325E+01 0.389E-04 -.427E+03   -.351E+01 -.384E-04 0.426E+03   0.230E+00 -.576E-05 0.848E+00
   -.253E-04 0.831E+01 -.455E+03   0.224E-04 -.869E+01 0.457E+03   0.723E-06 0.351E+00 -.165E+01
   0.237E+00 -.216E+01 0.557E+03   -.364E+00 0.226E+01 -.556E+03   0.149E+00 -.125E+00 -.309E+00
   -.413E-04 -.625E-04 0.554E+03   0.384E-04 0.612E-04 -.553E+03   0.616E-06 0.898E-05 -.270E+00
   -.139E+00 0.161E-05 0.157E+04   0.143E+00 0.400E-05 -.157E+04   -.595E-02 0.120E-05 0.310E+01
   -.885E-05 -.768E+00 0.157E+04   0.943E-05 0.819E+00 -.157E+04   -.545E-06 -.632E-01 0.313E+01
   0.366E+02 -.285E+02 -.145E+04   -.357E+02 0.286E+02 0.145E+04   -.813E+00 -.972E-01 -.490E+01
   -.628E-05 0.310E-04 -.145E+04   0.732E-05 -.856E-04 0.146E+04   -.310E-05 0.532E-04 -.384E+01
   0.269E+01 -.604E-04 -.436E+03   -.282E+01 0.457E-04 0.436E+03   0.114E+00 0.250E-04 0.378E+00
   -.178E-04 -.831E+01 -.455E+03   0.176E-04 0.869E+01 0.457E+03   -.494E-07 -.351E+00 -.165E+01
   -.237E+00 0.216E+01 0.557E+03   0.363E+00 -.226E+01 -.556E+03   -.149E+00 0.125E+00 -.309E+00
   0.285E-04 -.219E-05 0.563E+03   -.292E-04 -.221E-05 -.563E+03   -.904E-06 -.973E-06 0.304E+00
   -.176E+00 0.729E-05 0.157E+04   0.186E+00 -.308E-05 -.157E+04   -.131E-01 0.504E-07 0.318E+01
   0.837E-05 0.454E+00 0.157E+04   -.851E-05 -.490E+00 -.157E+04   0.233E-06 0.442E-01 0.312E+01
   -.366E+02 0.285E+02 -.145E+04   0.357E+02 -.286E+02 0.145E+04   0.813E+00 0.972E-01 -.490E+01
   -.183E-04 -.301E-04 -.148E+04   0.266E-04 0.718E-04 0.148E+04   -.317E-05 -.369E-04 -.487E+01
   -.325E+01 0.404E-04 -.427E+03   0.351E+01 -.390E-04 0.426E+03   -.230E+00 -.699E-05 0.848E+00
   -.860E-05 0.599E+01 -.433E+03   0.113E-04 -.606E+01 0.432E+03   -.950E-06 0.667E-01 0.143E+00
   -.237E+00 -.216E+01 0.557E+03   0.364E+00 0.226E+01 -.556E+03   -.149E+00 -.125E+00 -.309E+00
   0.338E-04 0.217E-05 0.558E+03   -.335E-04 -.565E-05 -.558E+03   -.888E-06 0.367E-05 -.551E-01
   0.139E+00 0.603E-05 0.157E+04   -.143E+00 0.324E-05 -.157E+04   0.596E-02 0.190E-05 0.310E+01
   0.859E-05 -.454E+00 0.157E+04   -.926E-05 0.490E+00 -.157E+04   -.719E-06 -.441E-01 0.312E+01
   -.366E+02 -.285E+02 -.145E+04   0.357E+02 0.286E+02 0.145E+04   0.813E+00 -.972E-01 -.490E+01
   -.185E-04 0.411E-04 -.149E+04   0.200E-04 -.758E-04 0.150E+04   -.187E-05 0.513E-04 -.477E+01
   -.269E+01 -.367E-04 -.436E+03   0.282E+01 0.182E-04 0.436E+03   -.114E+00 0.269E-04 0.378E+00
   0.698E-05 -.599E+01 -.433E+03   -.665E-05 0.606E+01 0.432E+03   0.312E-06 -.667E-01 0.143E+00
   -.290E-05 -.220E-02 0.588E+02   -.334E-12 0.341E-12 0.284E-12   0.309E-05 0.198E-02 -.524E+02

 POSITION                                       TOTAL-FORCE (eV/Angst)
      4.23357      2.11677     15.44274         0.000001      0.002116      0.212258
      4.23357      3.27080     15.93662         0.000000     -0.722492     -0.429518
      4.23357      0.96278     15.93661         0.000004      0.720518     -0.428720
      2.11679      0.00000      7.50000        -0.000879     -0.011242      0.517307
      4.23357      2.11679      7.50000        -0.000003      0.000006      0.475840
      2.11679      2.11679      9.61679        -0.023919     -0.000001     -0.017788
      4.23357      0.00000      9.61679        -0.000001     -0.095234      0.072401
      2.13531      8.46052     11.75928         0.013370     -0.003620      0.010279
      4.23357      2.11679     11.69296        -0.000001     -0.000004     -0.088024
      2.00199      2.11679     13.81234        -0.124156      0.000037     -0.102654
      4.23357      8.36785     14.05083        -0.000000     -0.097562      0.020989
      2.11679      4.23357      7.50000        -0.000878      0.011238      0.517315
      4.23357      6.35036      7.50000        -0.000003      0.000004      0.522262
      2.11679      6.35036      9.61679         0.025124      0.000001      0.062908
      4.23357      4.23357      9.61679         0.000001      0.095235      0.072401
      2.13531      4.24019     11.75928         0.013364      0.003625      0.010287
      4.23357      6.35036     11.76697        -0.000001      0.000003      0.000853
      2.09426      6.35036     13.84662        -0.009370     -0.000013     -0.049764
      4.23357      4.33287     14.05083         0.000001      0.097449      0.021174
      6.35036      0.00000      7.50000         0.000882     -0.011247      0.517305
      0.00000      2.11679      7.50000         0.000000      0.000000      0.490467
      6.35036      2.11679      9.61679         0.023920      0.000002     -0.017785
      0.00000      0.00000      9.61679         0.000003     -0.046095      0.070634
      6.33184      8.46052     11.75928        -0.013370     -0.003618      0.010281
      8.46714      2.11679     11.71607         0.000001      0.000003     -0.020189
      6.46515      2.11679     13.81234         0.124152      0.000037     -0.102641
      0.00000      8.44556     13.83710         0.000000     -0.011820     -0.052746
      6.35036      4.23357      7.50000         0.000880      0.011232      0.517308
      0.00000      6.35036      7.50000        -0.000000      0.000003      0.517296
      6.35036      6.35036      9.61679        -0.025123     -0.000001      0.062906
      0.00000      4.23357      9.61679        -0.000002      0.046102      0.070638
      6.33184      4.24019     11.75928        -0.013365      0.003625      0.010288
      0.00000      6.35036     11.73312         0.000001     -0.000007     -0.015328
      6.37288      6.35036     13.84662         0.009374     -0.000017     -0.049766
      0.00000      4.25515     13.83710        -0.000003      0.011812     -0.052808
      2.11679      0.00000      9.61679         0.043762      0.044257      0.039277
      4.23357      2.11679      9.61679        -0.000001     -0.000002     -0.030078
      2.11679      2.11679      7.50000         0.004333      0.000001     -0.377966
      4.23357      0.00000      7.50000         0.000002      0.020937     -0.392155
      2.09832      0.01164     13.86780        -0.008449      0.014806     -0.147270
      4.23357      2.11679     13.98006        -0.000002     -0.000143      0.538147
      2.13683      2.11679     11.74584         0.002993     -0.000006      0.023442
      4.23357      0.01918     11.76415        -0.000002      0.010107     -0.046494
      2.11679      4.23357      9.61679         0.043760     -0.044259      0.039272
      4.23357      6.35036      9.61679        -0.000002      0.000009      0.091712
      2.11679      6.35036      7.50000        -0.002092      0.000007     -0.403852
      4.23357      4.23357      7.50000         0.000000     -0.020939     -0.392144
      2.09832      4.22193     13.86780        -0.008483     -0.014788     -0.147313
      4.23357      6.35036     13.91107        -0.000003      0.000006     -0.128531
      2.12194      6.35036     11.73897         0.002693      0.000014      0.013687
      4.23357      4.21439     11.76415        -0.000000     -0.010115     -0.046482
      6.35036      0.00000      9.61679        -0.043761      0.044258      0.039279
      0.00000      2.11679      9.61679        -0.000002     -0.000006      0.043222
      6.35036      2.11679      7.50000        -0.004332      0.000005     -0.377973
      0.00000      0.00000      7.50000         0.000000      0.014519     -0.396675
      6.36883      0.01164     13.86780         0.008445      0.014804     -0.147272
      0.00000      2.11679     13.85755         0.000005      0.000000     -0.150762
      6.33031      2.11679     11.74584        -0.002993     -0.000007      0.023437
      8.46714      0.00448     11.72580         0.000002      0.003092      0.008966
      6.35036      4.23357      9.61679        -0.043757     -0.044260      0.039274
      0.00000      6.35036      9.61679        -0.000001      0.000001      0.003805
      6.35036      6.35036      7.50000         0.002092      0.000012     -0.403846
      0.00000      4.23357      7.50000        -0.000002     -0.014528     -0.396665
      6.36883      4.22193     13.86780         0.008482     -0.014788     -0.147321
      0.00000      6.35036     13.87360        -0.000000      0.000024     -0.149038
      6.34520      6.35036     11.73897        -0.002692      0.000012      0.013687
      8.46714      4.22910     11.72580         0.000001     -0.003102      0.008964
    total drift:                               -0.000003     -0.000006      0.020135

  FREE ENERGIE OF THE ION-ELECTRON SYSTEM (eV)
  free  energy   TOTEN  =      -466.58707602 eV

  energy  without entropy=     -466.58707602  energy(sigma->0) =     -466.58707602