 vasp.6.3.0 20Jan22 (build Apr  1 2022 16:44:48) gamma-only
 executed on        HPECrayEX_GCC date 2023.02.21  01:58:42

 INCAR:
   SYSTEM = MgO-rocksalt
   ISMEAR = 0
   SIGMA = 0.05
   EDIFF = 1E-6
   ALGO = ALL
   ISTART = 0
   IBRION = -1
   NSW = 0
   ISYM = 0
   DIPOL = 0.5 0.5 0.5
   IDIPOL = 3
   LDIPOL = .TRUE.
   GGA = RE
   AGGAC = 0.0
   LUSE_VDW = .TRUE.
   LASPH = .TRUE.
   ENCUT = 520
   PREC = Accurate
   LASPH = .TRUE.
   LREAL = Auto
   ISPIN = 1
   NELM = 200
   NELMIN = 8
   NCORE = 8
   KPAR = 1
   LWAVE = .FALSE.
   LCHARG = .FALSE.

 POTCAR:    PAW_PBE C 08Apr2002
 POTCAR:    PAW_PBE O 08Apr2002
 POTCAR:    PAW_PBE H 15Jun2001
 POTCAR:    PAW_PBE Mg_pv 13Apr2007
 POTCAR:    PAW_PBE O 08Apr2002
|               ----> ADVICE to this user running VASP <----                  |
|     You have switched on vdW-DFT.                                           |
|     This routine was written and supplied by Jiri Klimes. We recommend      |
|     that you carefully read and cite the following publications:            |
|       J. Klimes, D.R. Bowler, A. Michelides                                 |
|          J. Phys.: Cond Matt. 22 022201 (2010)                              |
|       J. Klimes, D.R. Bowler, A. Michelides                                 |
|          Phys. Rev. B. 83, 195131 (2011)                                    |
|     and references therein.                                                 |

   TITEL  = PAW_PBE C 08Apr2002
   POMASS =   12.011; ZVAL   =    4.000    mass and valenz
   ENMAX  =  400.000; ENMIN  =  300.000 eV

[...]

   TITEL  = PAW_PBE H 15Jun2001
   POMASS =    1.000; ZVAL   =    1.000    mass and valenz
   ENMAX  =  250.000; ENMIN  =  200.000 eV

   TITEL  = PAW_PBE Mg_pv 13Apr2007
   POMASS =   24.305; ZVAL   =    8.000    mass and valenz
   ENMAX  =  403.929; ENMIN  =  302.947 eV

   TITEL  = PAW_PBE O 08Apr2002
   POMASS =   16.000; ZVAL   =    6.000    mass and valenz
   ENMAX  =  400.000; ENMIN  =  300.000 eV

 Optimization of the real space projectors (new method)

 maximal supplied QI-value         = 25.13
 optimisation between [QCUT,QGAM] = [ 11.56, 23.12] = [ 37.43,149.72] Ry
 Optimized for a Real-space Cutoff    1.04 Angstroem

   l    n(q)    QCUT    max X(q) W(low)/X(q) W(high)/X(q)  e(spline)
   0      7    11.561   115.676    0.20E-03    0.60E-03    0.21E-06
   0      7    11.561    87.132    0.20E-03    0.59E-03    0.21E-06
   1      7    11.561     4.429    0.23E-03    0.35E-03    0.15E-06
   1      7    11.561     2.733    0.18E-03    0.25E-03    0.12E-06
 Optimization of the real space projectors (new method)

[...]

   l    n(q)    QCUT    max X(q) W(low)/X(q) W(high)/X(q)  e(spline)
   1      8    11.527     2.974    0.44E-04    0.56E-04    0.12E-06
   1      8    11.527     4.279    0.12E-03    0.12E-03    0.26E-06
   0      9    11.527    16.381    0.46E-04    0.64E-04    0.78E-07
   0      9    11.527     5.611    0.26E-04    0.43E-04    0.55E-07
   2      8    11.527     4.652    0.22E-03    0.72E-04    0.47E-07
 Optimization of the real space projectors (new method)

 maximal supplied QI-value         = 24.76
 optimisation between [QCUT,QGAM] = [ 11.64, 23.27] = [ 37.91,151.63] Ry
 Optimized for a Real-space Cutoff    1.14 Angstroem

   l    n(q)    QCUT    max X(q) W(low)/X(q) W(high)/X(q)  e(spline)
   0      8    11.635    20.381    0.10E-03    0.33E-03    0.24E-06
   0      8    11.635    15.268    0.11E-03    0.35E-03    0.26E-06
   1      7    11.635     5.964    0.24E-03    0.31E-03    0.30E-06
   1      7    11.635     5.382    0.22E-03    0.25E-03    0.26E-06
|               ----> ADVICE to this user running VASP <----                  |
|     You enforced a specific xc type in the INCAR file but a different       |
|     type was found in the POTCAR file.                                      |
|     I HOPE YOU KNOW WHAT YOU ARE DOING!                                     |

  PAW_PBE C 08Apr2002                   :
  PAW_PBE O 08Apr2002                   :
  PAW_PBE H 15Jun2001                   :
  PAW_PBE Mg_pv 13Apr2007               :
  PAW_PBE O 08Apr2002                   :

 POSCAR:  C  O  H Mg  O
  positions in direct lattice
 exchange correlation table for  LEXCH =       40
   RHO(1)=    0.500       N(1)  =     2000
   RHO(2)=  100.500       N(2)  =     4000

 ion  position               nearest neighbor table
   1  0.526  0.555  0.795-  12 1.10   9 1.10  11 1.10   5 1.44
   2  0.321  0.400  0.796-  16 1.10  15 1.10  13 1.10   6 1.44
   3  0.474  0.195  0.796-  20 1.10  19 1.10  17 1.10   7 1.44
   4  0.679  0.348  0.795-  24 1.10  23 1.10  21 1.10   8 1.44
   5  0.508  0.488  0.756-  10 1.00   1 1.44 144 2.25
   6  0.388  0.383  0.756-  14 1.00   2 1.44  55 2.25
   7  0.492  0.262  0.756-  18 1.00   3 1.44 120 2.25
   8  0.613  0.367  0.756-  22 1.00   4 1.44 103 2.25
   9  0.519  0.539  0.845-   1 1.10
  10  0.553  0.448  0.759-   5 1.00
  11  0.587  0.575  0.787-   1 1.10
  12  0.485  0.602  0.783-   1 1.10
  13  0.337  0.393  0.845-   2 1.10
  14  0.427  0.427  0.759-   6 1.00
  15  0.300  0.461  0.787-   2 1.10
  16  0.273  0.359  0.783-   2 1.10
  17  0.482  0.211  0.845-   3 1.10
  18  0.448  0.301  0.758-   7 1.00
  19  0.413  0.175  0.787-   3 1.10
  20  0.515  0.147  0.783-   3 1.10
  21  0.664  0.355  0.845-   4 1.10
  22  0.573  0.322  0.758-   8 1.00
  23  0.699  0.286  0.787-   4 1.10
  24  0.728  0.388  0.782-   4 1.10
  25  0.125  0.000  0.352- 153 2.11 155 2.11 156 2.11 172 2.11 195 2.11
  26  0.250  0.125  0.352- 154 2.11 155 2.11 156 2.11 164 2.11 171 2.11
  27  0.125  0.125  0.451- 159 2.11 155 2.11 153 2.11 154 2.11 161 2.11 170 2.11
  28  0.250  0.000  0.451- 160 2.11 156 2.11 153 2.11 154 2.11 169 2.11 194 2.11
  29  0.125  1.000  0.550- 160 2.11 159 2.11 199 2.11 176 2.11 153 2.11 157 2.14
  30  0.250  0.125  0.549- 168 2.11 175 2.11 154 2.11 159 2.11 160 2.11 158 2.14
  31  0.125  0.125  0.648- 159 2.10 158 2.10 174 2.11 165 2.11 157 2.11
  32  0.250  1.000  0.648- 160 2.10 158 2.10 198 2.11 173 2.11 157 2.11
  33  0.125  0.250  0.352- 161 2.11 155 2.11 163 2.11 164 2.11 180 2.11
  34  0.250  0.375  0.352- 162 2.11 163 2.11 164 2.11 179 2.11 188 2.11
  35  0.125  0.375  0.451- 167 2.11 163 2.11 161 2.11 162 2.11 178 2.11 185 2.11
  36  0.250  0.250  0.451- 168 2.11 164 2.11 162 2.11 154 2.11 161 2.11 177 2.11
  37  0.125  0.250  0.550- 168 2.10 184 2.11 167 2.11 161 2.11 159 2.11 165 2.14
  38  0.250  0.375  0.550- 183 2.10 168 2.11 192 2.11 162 2.12 167 2.12 166 2.14
  39  0.125  0.375  0.647- 166 2.09 167 2.09 182 2.11 189 2.11 165 2.12
  40  0.250  0.250  0.647- 168 2.08 181 2.09 165 2.11 158 2.12 166 2.12
  41  0.375  0.000  0.352- 169 2.11 156 2.11 171 2.11 211 2.11 236 2.11
  42  0.000  0.125  0.352- 170 2.11 155 2.11 172 2.11 180 2.11 235 2.11
  43  0.375  0.125  0.451- 175 2.11 171 2.11 154 2.11 169 2.11 177 2.11 234 2.11
  44  0.000  0.000  0.451- 172 2.11 170 2.11 153 2.11 210 2.11 233 2.11 176 2.11
  45  0.375  1.000  0.550- 175 2.10 215 2.11 240 2.11 169 2.11 160 2.11 173 2.14
  46  0.000  0.125  0.550- 159 2.11 239 2.11 176 2.11 184 2.11 170 2.11 174 2.14
  47  0.375  0.125  0.647- 175 2.08 181 2.09 173 2.11 158 2.11 238 2.12
  48  0.000  1.000  0.648- 176 2.10 157 2.11 237 2.11 214 2.11 174 2.11
  49  0.375  0.250  0.352- 177 2.11 171 2.11 164 2.11 179 2.11 244 2.11
  50  0.000  0.375  0.352- 178 2.11 163 2.11 180 2.11 204 2.11 243 2.11
  51  0.375  0.375  0.451- 179 2.11 177 2.11 162 2.11 201 2.11 242 2.11 183 2.12
  52  0.000  0.250  0.451- 180 2.11 170 2.11 178 2.11 161 2.11 241 2.11 184 2.11
  53  0.375  0.251  0.550- 248 2.10 183 2.10 181 2.12 168 2.13 175 2.13 177 2.13
  54  1.000  0.375  0.550- 247 2.11 167 2.11 208 2.11 184 2.11 178 2.11 182 2.14
  55  0.374  0.375  0.651- 246 2.12 166 2.12 181 2.13 205 2.14 183 2.16   6 2.25
  56  0.000  0.250  0.648- 184 2.10 165 2.11 245 2.11 174 2.11 182 2.11
  57  0.125  0.500  0.352- 185 2.11 163 2.11 187 2.11 188 2.11 204 2.11
  58  0.250  0.625  0.352- 186 2.11 187 2.11 188 2.11 196 2.11 203 2.11
  59  0.125  0.625  0.451- 191 2.11 187 2.11 185 2.11 186 2.11 193 2.11 202 2.11
  60  0.250  0.500  0.451- 192 2.11 188 2.11 186 2.11 162 2.11 185 2.11 201 2.11
[...]
 266  0.500  0.625  0.451- 138 2.11 123 2.11  75 2.11 140 2.11 148 2.11 142 2.12
 267  0.875  0.625  0.352- 139 2.11 122 2.11 137 2.11  74 2.11 145 2.11
 268  0.500  0.500  0.352- 140 2.11 114 2.11 121 2.11 138 2.11  73 2.11
 269  0.875  0.500  0.650-  80 2.11 143 2.11 128 2.11 119 2.12 141 2.14
 270  0.500  0.626  0.650- 152 2.09  79 2.12 127 2.12 144 2.12 142 2.14
 271  0.875  0.625  0.549- 143 2.10  78 2.11 149 2.11 139 2.11 126 2.11 141 2.11
 272  0.500  0.500  0.550- 142 2.10 125 2.10  77 2.10 118 2.12 140 2.12 144 2.16
 273  0.875  0.750  0.451- 145 2.11 132 2.11 139 2.11  84 2.11 147 2.11 149 2.11
 274  0.500  0.875  0.451- 146 2.11 108 2.11 131 2.11  83 2.11 148 2.11 150 2.11
 275  0.875  0.875  0.352- 147 2.11 105 2.11 130 2.11 145 2.11  82 2.11
 276  0.500  0.750  0.352- 148 2.11 129 2.11 138 2.11 146 2.11  81 2.11
 277  0.875  0.750  0.650-  88 2.11 151 2.11 143 2.11 136 2.11 149 2.14
 278  0.500  0.875  0.650- 152 2.11 112 2.11  87 2.11 135 2.11 150 2.14
 279  0.875  0.875  0.549- 151 2.10  86 2.11 109 2.11 149 2.11 147 2.11 134 2.11
 280  0.500  0.750  0.549- 152 2.09 150 2.11 148 2.11 133 2.11  85 2.11 142 2.12

IMPORTANT INFORMATION: All symmetrisations will be switched off!
NOSYMM: (Re-)initialisation of all symmetry stuff for point group C_1.

                                     Primitive cell

  volume of cell :    6078.6138

  direct lattice vectors                    reciprocal lattice vectors
    16.881164524  0.000000000  0.000000000     0.059237619  0.000000000  0.000000000
     0.000000000 16.881164524  0.000000000     0.000000000  0.059237619  0.000000000
     0.000000000  0.000000000 21.330436697     0.000000000  0.000000000  0.046881366

  length of vectors
    16.881164524 16.881164524 21.330436697     0.059237619  0.059237619  0.046881366

  position of ions in fractional coordinates (direct lattice)
     0.526251138  0.554619132  0.795476403
     0.320791485  0.400044856  0.795632972
     0.474379516  0.195306248  0.795513868
     0.679489584  0.347747743  0.795205347
     0.508115329  0.487561152  0.756178187
     0.387574255  0.382588434  0.755873838
     0.492144125  0.262082545  0.755834157
     0.612646061  0.366701967  0.755919315
     0.519185076  0.539265451  0.845381925
     0.552524269  0.448128242  0.758678933
     0.587399819  0.574710773  0.786830118
     0.485413431  0.602478876  0.782641696
     0.336756975  0.392856759  0.845423445
     0.426939889  0.427040256  0.758554543
     0.300162361  0.461091651  0.787328629
     0.273102312  0.358905802  0.783029892
     0.481645595  0.211153193  0.845303395
     0.447693318  0.301496628  0.758296378
     0.413238551  0.174989365  0.787182694
     0.515306168  0.147439184  0.782845590
     0.664159631  0.354873597  0.845116281
     0.572943036  0.322484934  0.758249543
     0.698836889  0.286366208  0.786508830
     0.727838024  0.388034317  0.782450633
     0.125000000  0.000000000  0.351610242
     0.250000000  0.125000000  0.351610242
[...]
   6.33826514  4.22935804 11.73865242
  16.88113666  6.33072747 11.72364061
   6.32132129  6.33038872 13.89100960
   0.00011522  4.21815037 13.81577044
   2.11014557  8.44058226  7.50000000
   4.22029113 10.55072783  7.50000000
   2.11014557 10.55072783  9.61014557
   4.22029113  8.44058226  9.61014557
[...]
   8.44058226 10.55072783  9.61014557
  14.77101896 10.55072783  7.50000000
   8.44058226  8.44058226  7.50000000
  14.77452581  8.44455354 13.86402930
   8.44110955 10.57383848 13.86643238
  14.77343202 10.55262597 11.71935334
   8.44143621  8.44726945 11.73338450
  14.77101896 12.66087339  9.61014557
   8.44058226 14.77101896  9.61014557
  14.77101896 14.77101896  7.50000000
   8.44058226 12.66087339  7.50000000
  14.77411412 12.66408943 13.86114513
   8.44054094 14.77069509 13.86393360
  14.77233545 14.77130209 11.71978334
   8.44075009 12.66463089 11.71857389

--------------------------------------- Iteration      FINAL  ---------------------------------------

--------------------OUTCAR has been truncated-------------------------

[...]

--------------------OUTCAR has been truncated-------------------------

  FORCE on cell =-STRESS in cart. coord.  units (eV):
  Direction    XX          YY          ZZ          XY          YZ          ZX
  Alpha Z  3675.82701  3675.82701  3675.82701
  Ewald  635259.41859635266.11817************    -1.05401    -1.89585    -1.92729
  Hartree676876.76731676882.93659************    -0.72823    -0.76438    -1.66009
  E(xc)  -10328.71278-10328.71370-10340.67554     0.00076     0.00240     0.00337
  Local  ************************************     1.73617     2.56294     3.61175
  n-local-11407.44030-11407.40147-11480.21324    -0.00882    -0.04887    -0.00600
  augment  4335.93156  4335.93393  4304.39872    -0.00380     0.00802    -0.00046
  Kinetic 30238.48895 30238.56800 30413.27086     0.05330     0.18300    -0.05640
  Fock        0.00000     0.00000     0.00000     0.00000     0.00000     0.00000
  Total     -19.31100   -19.30490    73.87041    -0.00461     0.04727    -0.03512
  in kB      -5.08992    -5.08831    19.47047    -0.00122     0.01246    -0.00926

 VOLUME and BASIS-vectors are now :
  energy-cutoff  :      520.00
  volume of cell :     6078.61
      direct lattice vectors                 reciprocal lattice vectors
    16.881164524  0.000000000  0.000000000     0.059237619  0.000000000  0.000000000
     0.000000000 16.881164524  0.000000000     0.000000000  0.059237619  0.000000000
     0.000000000  0.000000000 21.330436697     0.000000000  0.000000000  0.046881366

  length of vectors
    16.881164524 16.881164524 21.330436697     0.059237619  0.059237619  0.046881366

 FORCES acting on ions:
    Electron-Ion                     Ewald-Force                    Non-Local-Force
   -.364E+02 -.194E+03 -.102E+04   0.376E+02 0.200E+03 0.102E+04   -.109E+01 -.545E+01 -.339E+01
   0.194E+03 -.354E+02 -.102E+04   -.200E+03 0.366E+02 0.102E+04   0.544E+01 -.105E+01 -.344E+01
   0.359E+02 0.194E+03 -.102E+04   -.371E+02 -.200E+03 0.102E+04   0.107E+01 0.543E+01 -.343E+01
   -.194E+03 0.376E+02 -.102E+04   0.200E+03 -.388E+02 0.103E+04   -.544E+01 0.114E+01 -.338E+01
   0.355E+02 -.109E+03 -.154E+04   -.644E+02 0.105E+03 0.152E+04   0.290E+02 0.353E+01 0.198E+02
   0.109E+03 0.339E+02 -.154E+04   -.105E+03 -.625E+02 0.152E+04   -.348E+01 0.287E+02 0.202E+02
   -.346E+02 0.109E+03 -.154E+04   0.633E+02 -.106E+03 0.152E+04   -.288E+02 -.347E+01 0.200E+02
   -.109E+03 -.372E+02 -.154E+04   0.106E+03 0.662E+02 0.152E+04   0.336E+01 -.291E+02 0.196E+02
   0.168E+01 -.164E+02 -.253E+03   -.229E+01 0.152E+02 0.259E+03   0.621E+00 0.129E+01 -.556E+01
   -.577E+02 0.202E+02 -.267E+03   0.630E+02 -.250E+02 0.267E+03   -.549E+01 0.503E+01 -.212E+00
   -.638E+02 -.495E+02 -.241E+03   0.690E+02 0.513E+02 0.240E+03   -.539E+01 -.183E+01 0.956E+00
   0.349E+02 -.741E+02 -.241E+03   -.385E+02 0.784E+02 0.239E+03   0.367E+01 -.442E+01 0.153E+01
   0.159E+02 0.189E+01 -.253E+03   -.146E+02 -.251E+01 0.259E+03   -.134E+01 0.631E+00 -.554E+01
   -.202E+02 -.578E+02 -.267E+03   0.250E+02 0.631E+02 0.267E+03   -.503E+01 -.550E+01 -.238E+00
   0.500E+02 -.635E+02 -.241E+03   -.518E+02 0.688E+02 0.240E+03   0.188E+01 -.538E+01 0.918E+00
   0.740E+02 0.353E+02 -.240E+03   -.783E+02 -.389E+02 0.239E+03   0.441E+01 0.369E+01 0.150E+01
   -.192E+01 0.161E+02 -.254E+03   0.254E+01 -.147E+02 0.259E+03   -.639E+00 -.133E+01 -.555E+01
   0.576E+02 -.201E+02 -.267E+03   -.629E+02 0.249E+02 0.267E+03   0.549E+01 -.502E+01 -.202E+00
   0.637E+02 0.498E+02 -.241E+03   -.689E+02 -.516E+02 0.241E+03   0.539E+01 0.185E+01 0.920E+00
   -.350E+02 0.741E+02 -.241E+03   0.386E+02 -.785E+02 0.239E+03   -.367E+01 0.442E+01 0.151E+01
   -.165E+02 -.162E+01 -.254E+03   0.152E+02 0.224E+01 0.259E+03   0.128E+01 -.626E+00 -.556E+01
   0.205E+02 0.569E+02 -.266E+03   -.254E+02 -.622E+02 0.267E+03   0.505E+01 0.545E+01 -.185E+00
   -.490E+02 0.641E+02 -.242E+03   0.508E+02 -.694E+02 0.241E+03   -.176E+01 0.541E+01 0.961E+00
   -.745E+02 -.342E+02 -.241E+03   0.789E+02 0.377E+02 0.239E+03   -.447E+01 -.362E+01 0.152E+01
   0.552E+01 0.553E+01 0.209E+04   -.551E+01 -.552E+01 -.208E+04   -.807E-02 -.815E-02 -.643E+01
   0.924E+01 0.918E+01 0.209E+04   -.921E+01 -.914E+01 -.208E+04   -.238E-01 -.240E-01 -.644E+01
   0.113E+02 0.127E+02 0.725E+03   -.113E+02 -.126E+02 -.726E+03   -.159E-01 -.175E-01 0.401E+00
   0.128E+02 0.113E+02 0.725E+03   -.128E+02 -.113E+02 -.726E+03   -.149E-01 -.155E-01 0.399E+00
   0.152E+02 0.150E+02 -.651E+03   -.152E+02 -.150E+02 0.651E+03   -.114E-01 -.503E-02 -.117E+00
   0.353E+02 0.346E+02 -.617E+03   -.352E+02 -.345E+02 0.617E+03   -.856E-01 -.967E-01 -.532E-02
   0.396E+02 0.376E+02 -.201E+04   -.395E+02 -.376E+02 0.201E+04   -.116E+00 -.122E-01 0.565E+01
   0.393E+02 0.402E+02 -.201E+04   -.393E+02 -.401E+02 0.201E+04   -.112E-01 -.120E+00 0.565E+01
   0.745E+01 0.553E+01 0.209E+04   -.742E+01 -.551E+01 -.208E+04   -.224E-01 -.107E-01 -.644E+01
   0.111E+02 -.614E-01 0.210E+04   -.111E+02 0.613E-01 -.209E+04   -.438E-01 -.990E-04 -.649E+01
   0.144E+02 -.489E-01 0.735E+03   -.144E+02 0.466E-01 -.735E+03   -.625E-01 0.167E-02 0.361E+00
   0.192E+02 0.113E+02 0.746E+03   -.190E+02 -.113E+02 -.746E+03   -.889E-01 -.516E-01 0.281E+00
   0.312E+02 0.176E+02 -.627E+03   -.310E+02 -.175E+02 0.627E+03   -.148E+00 -.431E-01 -.315E-02
   0.554E+02 0.212E+00 -.580E+03   -.549E+02 -.221E+00 0.581E+03   -.516E+00 0.953E-02 -.266E+00
   0.780E+02 0.155E+01 -.198E+04   -.775E+02 -.154E+01 0.197E+04   -.470E+00 -.919E-02 0.564E+01
   0.119E+03 0.670E+02 -.192E+04   -.118E+03 -.670E+02 0.192E+04   -.683E+00 0.513E-02 0.571E+01
   0.560E+01 0.749E+01 0.209E+04   -.558E+01 -.746E+01 -.208E+04   -.109E-01 -.219E-01 -.644E+01
   -.268E-01 0.727E+01 0.209E+04   0.269E-01 -.725E+01 -.208E+04   -.706E-04 -.945E-02 -.643E+01
   0.115E+02 0.190E+02 0.746E+03   -.115E+02 -.189E+02 -.746E+03   -.514E-01 -.924E-01 0.290E+00
   -.351E-01 0.775E+01 0.716E+03   0.348E-01 -.775E+01 -.717E+03   0.229E-03 -.260E-02 0.434E+00
   0.178E+02 0.316E+02 -.625E+03   -.178E+02 -.315E+02 0.625E+03   -.458E-01 -.131E+00 -.833E-02
   -.198E+00 0.185E+02 -.647E+03   0.201E+00 -.185E+02 0.647E+03   -.376E-02 -.258E-03 -.101E+00
   0.705E+02 0.119E+03 -.191E+04   -.705E+02 -.118E+03 0.191E+04   0.354E-01 -.541E+00 0.579E+01
   -.131E+00 0.182E+02 -.203E+04   0.133E+00 -.182E+02 0.202E+04   -.170E-02 0.169E-01 0.567E+01
   0.749E+01 0.738E+01 0.210E+04   -.745E+01 -.734E+01 -.209E+04   -.302E-01 -.308E-01 -.651E+01
   -.190E-01 -.550E-01 0.209E+04   0.188E-01 0.550E-01 -.208E+04   0.186E-03 -.976E-04 -.644E+01
   0.142E+02 -.173E+00 0.764E+03   -.140E+02 0.181E+00 -.764E+03   -.112E+00 -.534E-02 0.364E+00
   -.909E-01 0.805E+01 0.727E+03   0.950E-01 -.803E+01 -.727E+03   -.308E-02 -.930E-02 0.429E+00
   0.385E+02 0.377E+02 -.551E+03   -.381E+02 -.373E+02 0.551E+03   -.405E+00 -.432E+00 -.789E+00
   -.120E+00 -.107E+00 -.635E+03   0.120E+00 0.104E+00 0.635E+03   0.135E-02 -.583E-04 -.399E-01
   0.133E+03 0.536E+01 -.171E+04   -.133E+03 -.537E+01 0.171E+04   -.268E+00 -.255E-02 0.332E+01
   -.101E+01 0.222E+02 -.201E+04   0.102E+01 -.222E+02 0.200E+04   -.237E-02 0.419E-01 0.566E+01
   0.744E+01 -.560E+01 0.209E+04   -.741E+01 0.558E+01 -.208E+04   -.225E-01 0.106E-01 -.644E+01
   0.919E+01 -.918E+01 0.209E+04   -.916E+01 0.915E+01 -.208E+04   -.246E-01 0.236E-01 -.645E+01
   0.113E+02 -.127E+02 0.725E+03   -.112E+02 0.127E+02 -.726E+03   -.172E-01 0.135E-01 0.400E+00
   0.190E+02 -.115E+02 0.746E+03   -.189E+02 0.114E+02 -.746E+03   -.979E-01 0.500E-01 0.294E+00
[...]
   -.487E+01 -.587E+01 0.157E+04   0.486E+01 0.586E+01 -.157E+04   0.210E-01 0.142E-01 0.358E+01
   0.151E-01 -.588E+01 0.158E+04   -.150E-01 0.584E+01 -.158E+04   -.781E-04 0.470E-01 0.347E+01
   -.458E+02 -.252E+02 -.152E+04   0.457E+02 0.251E+02 0.152E+04   0.773E-01 0.834E-01 -.495E+01
   0.429E+01 -.111E+03 -.143E+04   -.429E+01 0.110E+03 0.144E+04   0.433E-02 0.431E+00 -.488E+01
   -.162E+02 -.168E+02 -.475E+03   0.162E+02 0.167E+02 0.475E+03   0.564E-01 0.477E-01 0.306E+00
   0.149E+00 -.297E+02 -.399E+03   -.147E+00 0.293E+02 0.400E+03   -.251E-02 0.344E+00 -.455E+00
   -.660E+01 -.647E+01 0.539E+03   0.658E+01 0.646E+01 -.539E+03   0.239E-01 0.207E-01 0.121E-01
   0.262E-01 0.894E-01 0.547E+03   -.257E-01 -.927E-01 -.547E+03   -.732E-03 0.312E-02 0.468E-02
   -.385E+01 0.380E-01 0.157E+04   0.384E+01 -.381E-01 -.157E+04   0.109E-01 0.347E-02 0.359E+01
   0.178E-01 -.582E+01 0.157E+04   -.182E-01 0.579E+01 -.157E+04   0.510E-03 0.325E-01 0.356E+01
   -.177E+02 -.174E+02 -.154E+04   0.177E+02 0.174E+02 0.155E+04   0.435E-01 0.433E-01 -.495E+01
   0.431E-01 0.151E+00 -.153E+04   -.432E-01 -.150E+00 0.153E+04   0.399E-03 -.694E-03 -.496E+01
   -.925E+01 0.101E+00 -.486E+03   0.923E+01 -.100E+00 0.486E+03   0.195E-01 -.201E-02 0.292E+00
   0.313E+00 -.239E+02 -.459E+03   -.312E+00 0.237E+02 0.458E+03   -.966E-03 0.238E+00 0.386E+00
   -.251E-01 0.219E+00 0.136E+02   0.243E-11 0.257E-11 0.282E-10   0.312E-01 -.242E+00 -.133E+02

 POSITION                                       TOTAL-FORCE (eV/Angst)
      8.88373      9.36262     16.96786         0.110317      0.409492      0.284986
      5.41533      6.75322     16.97120        -0.406889      0.105249      0.296013
      8.00808      3.29700     16.96866        -0.097849     -0.409968      0.289053
     11.47058      5.87039     16.96208         0.403025     -0.110570      0.295168
      8.57758      8.23060     16.12961         0.140109     -0.306939     -0.088267
      6.54270      6.45854     16.12312         0.299370      0.145079     -0.084947
      8.30797      4.42426     16.12227        -0.143192      0.298570     -0.082771
     10.34218      6.19036     16.12409        -0.303111     -0.138256     -0.084167
      8.76445      9.10343     18.03237         0.012827      0.018957     -0.075331
      9.32725      7.56493     16.18295        -0.207107      0.230623      0.042780
      9.91599      9.70179     16.78343        -0.097351     -0.024298      0.043189
      8.19434     10.17055     16.69409         0.067728     -0.093083      0.058668
      5.68485      6.63188     18.03325        -0.025641      0.013679     -0.081894
      7.20724      7.20894     16.18030        -0.228419     -0.205232      0.041073
      5.06709      7.78376     16.79406         0.023906     -0.099687      0.039903
      4.61029      6.05875     16.70237         0.091141      0.066640      0.053359
      8.13074      3.56451     18.03069        -0.013314     -0.023701     -0.071196
      7.55758      5.08961     16.17479         0.206328     -0.227551      0.046953
      6.97595      2.95402     16.79095         0.097289      0.021584      0.039970
      8.69897      2.48895     16.69844        -0.072255      0.097057      0.056743
     11.21179      5.99068     18.02670         0.022174     -0.011400     -0.077195
      9.67195      5.44392     16.17379         0.233338      0.211232      0.044775
     11.79718      4.83420     16.77658        -0.020915      0.098989      0.042128
     12.28675      6.55047     16.69001        -0.092588     -0.063643      0.056718
      2.11015      0.00000      7.50000         0.002298      0.002339      0.144505
      4.22029      2.11015      7.50000         0.006845      0.007216      0.151090
      2.11015      2.11015      9.61015         0.003528      0.005301     -0.015275
      4.22029      0.00000      9.61015         0.004028      0.003520     -0.015262
      2.10937     16.88052     11.72383         0.000487      0.000034      0.010050
      4.21969      2.11006     11.72057         0.001044      0.000039      0.007940
      2.10827      2.10706     13.81496        -0.002430     -0.001134      0.212745
      4.21694     16.87902     13.81452        -0.000001     -0.001637      0.215415
      2.11015      4.22029      7.50000         0.006432      0.003354      0.150416
      4.22029      6.33044      7.50000         0.012435     -0.000079      0.162452
      2.11015      6.33044      9.61015         0.025468     -0.000525     -0.000988
      4.22029      4.22029      9.61015         0.036681      0.018862      0.015180
      2.10960      4.22073     11.72224        -0.000811      0.000251      0.006827
      4.22742      6.33042     11.72979         0.000946      0.000200      0.010650
      2.10815      6.33109     13.81108        -0.003192     -0.001576      0.204650
      4.21658      4.21524     13.80076        -0.007940     -0.000996      0.190591
      6.33044      0.00000      7.50000         0.003225      0.006268      0.149677
      0.00000      2.11015      7.50000         0.000003      0.002883      0.145138
      6.33044      2.11015      9.61015         0.018472      0.038530      0.015595
      0.00000      0.00000      9.61015        -0.000123      0.000628     -0.012644
      6.33057     16.88021     11.72214        -0.000933      0.000933      0.006981
      0.00011      2.10923     11.72381        -0.000444      0.001080      0.010356
      6.32466      2.10603     13.79843        -0.007892     -0.011098      0.182660
      0.00010     16.87937     13.81712        -0.000208      0.002800      0.210644
      6.33044      4.22029      7.50000         0.008734      0.009171      0.170368
      0.00000      6.33044      7.50000        -0.000078      0.000026      0.147971
      6.33044      6.33044      9.61015         0.048742      0.002366      0.093895
      0.00000      4.22029      9.61015         0.001017      0.003071     -0.015719
      6.33827      4.22936     11.73865         0.001097     -0.000243      0.006667
     16.88114      6.33073     11.72364         0.001073     -0.002281      0.005491
      6.32132      6.33039     13.89101        -0.019219     -0.005834      0.052965
      0.00012      4.21815     13.81577        -0.000002      0.000840      0.214787
      2.11015      8.44058      7.50000         0.006374     -0.003154      0.149431
      4.22029     10.55073      7.50000         0.007122     -0.006584      0.151184
      2.11015     10.55073      9.61015         0.004074     -0.003174     -0.014657
      4.22029      8.44058      9.61015         0.040274     -0.018019      0.016603
[...]
      8.44058     10.55073      9.61015         0.000506      0.025433      0.034956
     14.77102     10.55073      7.50000         0.008225      0.001709     -0.555430
      8.44058      8.44058      7.50000        -0.000047      0.013379     -0.587252
     14.77453      8.44455     13.86403         0.000362      0.000180      0.148763
      8.44111     10.57384     13.86643         0.000823     -0.002515      0.116259
     14.77343     10.55263     11.71935        -0.001512     -0.000276     -0.001382
      8.44144      8.44727     11.73338        -0.000278     -0.001488      0.006295
     14.77102     12.66087      9.61015         0.008339      0.005927      0.041482
      8.44058     14.77102      9.61015        -0.000242     -0.000181      0.036694
     14.77102     14.77102      7.50000         0.005356      0.003410     -0.552375
      8.44058     12.66087      7.50000         0.000118      0.009224     -0.561503
     14.77411     12.66409     13.86115         0.000112     -0.000958      0.149520
      8.44054     14.77070     13.86393         0.000228     -0.000235      0.145017
     14.77234     14.77130     11.71978        -0.002221     -0.001593     -0.003606
      8.44075     12.66463     11.71857        -0.000387      0.000910     -0.000735
    total drift:                                0.006111     -0.023411      0.254394

  FREE ENERGIE OF THE ION-ELECTRON SYSTEM (eV)
  free  energy   TOTEN  =     -1018.58427555 eV

  energy  without entropy=    -1018.58427555  energy(sigma->0) =    -1018.58427555