 vasp.6.3.0 20Jan22 (build Apr  1 2022 16:44:48) complex
 executed on        HPECrayEX_GCC date 2022.10.25  01:20:43

 INCAR:
   SYSTEM = MgO-rocksalt
   ISMEAR = 0
   SIGMA = 0.05
   EDIFF = 1E-6
   ALGO = ALL
   ISTART = 0
   IBRION = -1
   NSW = 0
   ISYM = 0
   DIPOL = 0.5 0.5 0.5
   IDIPOL = 3
   LDIPOL = .TRUE.
   LHFCALC = .TRUE.
   GGA = B5
   AEXX = 0.2
   AGGAX = 0.72
   AGGAC = 0.81
   ALDAC = 0.19
   IVDW = 1
   VDW_S6 = 1.05
   VDW_C6 = 0.63 0.70
   VDW_R0 = 1.243 1.342
   ENCUT = 600
   PREC = Accurate
   LASPH = .TRUE.
   LREAL = .FALSE.
   ISPIN = 1
   NELM = 200
   NELMIN = 8
   NCORE = 8
   KPAR = 1
   LWAVE = .FALSE.
   LCHARG = .FALSE.

 POTCAR:    PAW_PBE Mg_pv 13Apr2007
 POTCAR:    PAW_PBE O 08Apr2002
 POTCAR:    PAW_PBE Mg_pv 13Apr2007
   VRHFIN =Mg: p6s2

   TITEL  = PAW_PBE Mg_pv 13Apr2007
   POMASS =   24.305; ZVAL   =    8.000    mass and valenz
   ENMAX  =  403.929; ENMIN  =  302.947 eV

   TITEL  = PAW_PBE O 08Apr2002
   POMASS =   16.000; ZVAL   =    6.000    mass and valenz
   ENMAX  =  400.000; ENMIN  =  300.000 eV

  PAW_PBE Mg_pv 13Apr2007               :
  PAW_PBE O 08Apr2002                   :

 POSCAR: Mg  O
  positions in direct lattice
 exchange correlation table for  LEXCH =       12
   RHO(1)=    0.500       N(1)  =     2000
   RHO(2)=  100.500       N(2)  =     4000

 ion  position               nearest neighbor table
   1  0.250  0.000  0.352-  35 2.10  36 2.10  43 2.10  52 2.10  33 2.10
   2  0.500  0.250  0.352-  35 2.10  36 2.10  44 2.10  51 2.10  34 2.10
   3  0.250  0.250  0.451-  33 2.10  34 2.10  41 2.10  50 2.10  35 2.10  39 2.11
   4  0.500  0.000  0.451-  33 2.10  34 2.10  42 2.10  49 2.10  36 2.10  40 2.11
   5  0.250  1.000  0.550-  47 2.10  39 2.10  40 2.10  56 2.10  33 2.11  37 2.13
   6  0.500  0.250  0.550-  48 2.10  39 2.10  55 2.10  40 2.10  34 2.11  38 2.13
   7  0.250  0.250  0.648-  39 2.09  54 2.10  45 2.10  37 2.10  38 2.10
   8  0.500  1.000  0.648-  40 2.09  38 2.10  46 2.10  37 2.10  53 2.10
   9  0.250  0.500  0.352-  35 2.10  43 2.10  44 2.10  60 2.10  41 2.10
  10  0.500  0.750  0.352-  36 2.10  43 2.10  44 2.10  59 2.10  42 2.10
  11  0.250  0.750  0.451-  33 2.10  41 2.10  42 2.10  58 2.10  43 2.10  47 2.11
  12  0.500  0.500  0.451-  34 2.10  41 2.10  42 2.10  57 2.10  44 2.10  48 2.11
  13  0.250  0.500  0.550-  48 2.10  39 2.10  47 2.10  64 2.10  41 2.11  45 2.12
  14  0.500  0.750  0.550-  48 2.10  47 2.10  63 2.10  40 2.10  42 2.11  46 2.13
  15  0.250  0.750  0.648-  47 2.09  62 2.10  45 2.10  37 2.10  46 2.10
  16  0.500  0.500  0.649-  45 2.10  46 2.10  38 2.10  61 2.11  48 2.11
  17  0.750  0.000  0.352-  36 2.10  51 2.10  52 2.10  59 2.10  49 2.10
  18  0.000  0.250  0.352-  35 2.10  51 2.10  52 2.10  60 2.10  50 2.10
  19  0.750  0.250  0.451-  34 2.10  49 2.10  50 2.10  57 2.10  51 2.10  55 2.11
  20  0.000  0.000  0.451-  33 2.10  49 2.10  50 2.10  58 2.10  52 2.10  56 2.11
  21  0.750  1.000  0.550-  40 2.10  63 2.10  55 2.10  56 2.10  49 2.11  53 2.13
  22  1.000  0.250  0.550-  64 2.10  55 2.10  39 2.10  56 2.10  50 2.11  54 2.13
  23  0.750  0.250  0.648-  55 2.09  54 2.10  53 2.10  61 2.10  38 2.10
  24  1.000  1.000  0.648-  56 2.09  37 2.10  62 2.10  54 2.10  53 2.10
  25  0.750  0.500  0.352-  44 2.10  51 2.10  59 2.10  60 2.10  57 2.10
  26  0.000  0.750  0.352-  43 2.10  52 2.10  59 2.10  60 2.10  58 2.10
  27  0.750  0.750  0.451-  42 2.10  49 2.10  57 2.10  58 2.10  59 2.10  63 2.11
  28  0.000  0.500  0.451-  41 2.10  50 2.10  57 2.10  58 2.10  60 2.10  64 2.11
  29  0.750  0.500  0.550-  48 2.10  63 2.10  55 2.10  64 2.10  57 2.11  61 2.13
  30  1.000  0.750  0.550-  64 2.10  63 2.10  47 2.10  56 2.10  58 2.11  62 2.13
  31  0.750  0.750  0.648-  63 2.09  62 2.10  53 2.10  61 2.10  46 2.10
  32  0.000  0.500  0.648-  64 2.09  45 2.10  61 2.10  54 2.10  62 2.10
  33  0.250  0.000  0.451-   3 2.10   4 2.10  11 2.10  20 2.10   1 2.10   5 2.11
  34  0.500  0.250  0.451-   3 2.10   4 2.10  12 2.10  19 2.10   2 2.10   6 2.11
  35  0.250  0.250  0.352-   1 2.10   2 2.10   9 2.10  18 2.10   3 2.10
  36  0.500  0.000  0.352-   1 2.10   2 2.10  10 2.10  17 2.10   4 2.10
  37  0.250  1.000  0.650-  24 2.10   7 2.10  15 2.10   8 2.10   5 2.13
  38  0.500  0.250  0.650-   8 2.10  23 2.10   7 2.10  16 2.10   6 2.13
  39  0.250  0.250  0.550-   7 2.09   5 2.10   6 2.10  22 2.10  13 2.10   3 2.11
  40  0.500  1.000  0.550-   8 2.09  21 2.10   5 2.10  14 2.10   6 2.10   4 2.11
  41  0.250  0.500  0.451-   3 2.10  11 2.10  12 2.10  28 2.10   9 2.10  13 2.11
  42  0.500  0.750  0.451-   4 2.10  11 2.10  12 2.10  27 2.10  10 2.10  14 2.11
  43  0.250  0.750  0.352-   1 2.10   9 2.10  10 2.10  26 2.10  11 2.10
  44  0.500  0.500  0.352-   2 2.10   9 2.10  10 2.10  25 2.10  12 2.10
  45  0.250  0.500  0.650-  32 2.10   7 2.10  15 2.10  16 2.10  13 2.12
  46  0.500  0.750  0.650-   8 2.10  31 2.10  16 2.10  15 2.10  14 2.13
  47  0.250  0.750  0.550-  15 2.09   5 2.10  14 2.10  30 2.10  13 2.10  11 2.11
  48  0.500  0.500  0.550-  29 2.10  14 2.10   6 2.10  13 2.10  16 2.11  12 2.11
  49  0.750  0.000  0.451-   4 2.10  19 2.10  20 2.10  27 2.10  17 2.10  21 2.11
  50  0.000  0.250  0.451-   3 2.10  19 2.10  20 2.10  28 2.10  18 2.10  22 2.11
  51  0.750  0.250  0.352-   2 2.10  17 2.10  18 2.10  25 2.10  19 2.10
  52  0.000  0.000  0.352-   1 2.10  17 2.10  18 2.10  26 2.10  20 2.10
  53  0.750  1.000  0.650-  23 2.10  31 2.10  24 2.10   8 2.10  21 2.13
  54  1.000  0.250  0.650-   7 2.10  23 2.10  24 2.10  32 2.10  22 2.13
  55  0.750  0.250  0.550-  23 2.09  21 2.10   6 2.10  22 2.10  29 2.10  19 2.11
  56  1.000  1.000  0.550-  24 2.09  22 2.10  30 2.10  21 2.10   5 2.10  20 2.11
  57  0.750  0.500  0.451-  12 2.10  19 2.10  27 2.10  28 2.10  25 2.10  29 2.11
  58  0.000  0.750  0.451-  11 2.10  20 2.10  27 2.10  28 2.10  26 2.10  30 2.11
  59  0.750  0.750  0.352-  10 2.10  17 2.10  25 2.10  26 2.10  27 2.10
  60  0.000  0.500  0.352-   9 2.10  18 2.10  25 2.10  26 2.10  28 2.10
  61  0.750  0.500  0.650-  32 2.10  31 2.10  23 2.10  16 2.11  29 2.13
  62  1.000  0.750  0.650-  15 2.10  31 2.10  24 2.10  32 2.10  30 2.13
  63  0.750  0.750  0.550-  31 2.09  21 2.10  14 2.10  30 2.10  29 2.10  27 2.11
  64  1.000  0.500  0.549-  32 2.09  30 2.10  22 2.10  29 2.10  13 2.10  28 2.11

IMPORTANT INFORMATION: All symmetrisations will be switched off!
NOSYMM: (Re-)initialisation of all symmetry stuff for point group C_1.

                                     Primitive cell

  volume of cell :    1504.9259

  direct lattice vectors                    reciprocal lattice vectors
     8.404861995  0.000000000  0.000000000     0.118978753  0.000000000  0.000000000
     0.000000000  8.404861995  0.000000000     0.000000000  0.118978753  0.000000000
     0.000000000  0.000000000 21.303646496     0.000000000  0.000000000  0.046940321

  length of vectors
     8.404861995  8.404861995 21.303646496     0.118978753  0.118978753  0.046940321

  position of ions in fractional coordinates (direct lattice)
     0.250000000  0.000000000  0.352052406
     0.500000000  0.250000000  0.352052406
     0.250000000  0.250000000  0.450684135
     0.500000000  0.000000000  0.450684135
     0.249988551  0.999973557  0.549801888
     0.499945928  0.250159205  0.549915381
     0.249703366  0.249969230  0.647634472
     0.499891150  0.999951978  0.647704672
     0.250000000  0.500000000  0.352052406
     0.500000000  0.750000000  0.352052406
     0.250000000  0.750000000  0.450684135
     0.500000000  0.500000000  0.450684135
     0.250144256  0.499974938  0.549890876
     0.499944840  0.749785289  0.549915873
     0.249704909  0.749948419  0.647637507
     0.499691815  0.499965301  0.648605873
     0.750000000  0.000000000  0.352052406
     0.000000000  0.250000000  0.352052406
     0.750000000  0.250000000  0.450684135
     0.000000000  0.000000000  0.450684135
     0.749916197  0.999971624  0.549811524
     0.999948569  0.249996484  0.549783941
     0.750081856  0.249877651  0.647655787
     0.999936033  0.999958284  0.647750327
     0.750000000  0.500000000  0.352052406
     0.000000000  0.750000000  0.352052406
     0.750000000  0.750000000  0.450684135
     0.000000000  0.500000000  0.450684135
     0.749750428  0.499976582  0.549933064
     0.999945466  0.749951560  0.549786349
     0.750067721  0.750037951  0.647666494
     0.000115406  0.499957392  0.647601214
     0.250000000  0.000000000  0.450684135
     0.500000000  0.250000000  0.450684135
     0.250000000  0.250000000  0.352052406
     0.500000000  0.000000000  0.352052406
     0.249857271  0.999961397  0.649809432
     0.499902563  0.249700756  0.649943171
     0.249960359  0.249898658  0.549536859
     0.499969456  0.999969297  0.549562060
     0.250000000  0.500000000  0.450684135
     0.500000000  0.750000000  0.450684135
     0.250000000  0.750000000  0.352052406
     0.500000000  0.500000000  0.352052406
     0.249629061  0.499958562  0.649599599
     0.499892269  0.750197032  0.649957344
     0.249959895  0.750052018  0.549538676
     0.500005239  0.499976189  0.549725035
     0.750000000  0.000000000  0.450684135
     0.000000000  0.250000000  0.450684135
     0.750000000  0.250000000  0.352052406
     0.000000000  0.000000000  0.352052406
     0.749973059  0.999960825  0.649820337
     0.999894548  0.249923451  0.649777804
     0.749937136  0.249946631  0.549570217
     0.999938969  0.999974263  0.549543976
     0.750000000  0.500000000  0.450684135
     0.000000000  0.750000000  0.450684135
     0.750000000  0.750000000  0.352052406
     0.000000000  0.500000000  0.352052406
     0.750181984  0.499958908  0.649895632
     0.999892901  0.749996542  0.649782748
     0.749933275  0.750003836  0.549573492
     0.999892105  0.499976937  0.549498595

  ion indices of the primitive-cell ions
   primitive index   ion index
                 1           1
                 2           2
                 3           3
                 4           4
                 5           5
                 6           6
                 7           7
                 8           8
                 9           9
                10          10
                11          11
                12          12
                13          13
                14          14
                15          15
                16          16
                17          17
                18          18
                19          19
                20          20
                21          21
                22          22
                23          23
                24          24
                25          25
                26          26
                27          27
                28          28
                29          29
                30          30
                31          31
                32          32
                33          33
                34          34
                35          35
                36          36
                37          37
                38          38
                39          39
                40          40
                41          41
                42          42
                43          43
                44          44
[...]
   0.50000000  0.75000000  0.45068414
   0.25000000  0.75000000  0.35205241
   0.50000000  0.50000000  0.35205241
   0.24962906  0.49995856  0.64959960
   0.49989227  0.75019703  0.64995734
   0.24995989  0.75005202  0.54953868
   0.50000524  0.49997619  0.54972504
   0.75000000  0.00000000  0.45068414
   0.00000000  0.25000000  0.45068414
   0.75000000  0.25000000  0.35205241
   0.00000000  0.00000000  0.35205241
   0.74997306  0.99996083  0.64982034
   0.99989455  0.24992345  0.64977780
   0.74993714  0.24994663  0.54957022
   0.99993897  0.99997426  0.54954398
   0.75000000  0.50000000  0.45068414
   0.00000000  0.75000000  0.45068414
   0.75000000  0.75000000  0.35205241
   0.00000000  0.50000000  0.35205241
   0.75018198  0.49995891  0.64989563
   0.99989290  0.74999654  0.64978275
   0.74993327  0.75000384  0.54957349
   0.99989211  0.49997694  0.54949860

 position of ions in cartesian coordinates  (Angst):
   2.10121550  0.00000000  7.50000000
   4.20243100  2.10121550  7.50000000
   2.10121550  2.10121550  9.60121550
   4.20243100  0.00000000  9.60121550
   2.10111927  8.40463974 11.71278506
   4.20197653  2.10255360 11.71520289
   2.09872233  2.10095688 13.79697585
   4.20151613  8.40445838 13.79847137
   2.10121550  4.20243100  7.50000000
   4.20243100  6.30364650  7.50000000
   2.10121550  6.30364650  9.60121550
   4.20243100  4.20243100  9.60121550
   2.10242795  4.20222035 11.71468084
   4.20196739  6.30184188 11.71521335
   2.09873530  6.30321296 13.79704051
   4.19984074  4.20213935 13.81767023
   6.30364650  0.00000000  7.50000000
   0.00000000  2.10121550  7.50000000
   6.30364650  2.10121550  9.60121550
   0.00000000  0.00000000  9.60121550
   6.30294214  8.40462350 11.71299034
   8.40442973  2.10118595 11.71240273
   6.30433449  2.10018717 13.79742994
   8.40432436  8.40451138 13.79944399
   6.30364650  4.20243100  7.50000000
   0.00000000  6.30364650  7.50000000
   6.30364650  6.30364650  9.60121550
   0.00000000  4.20243100  9.60121550
   6.30154888  4.20223417 11.71557959
   8.40440364  6.30323936 11.71245402
   6.30421568  6.30396547 13.79765803
   0.00096998  4.20207288 13.79626732
   2.10121550  0.00000000  9.60121550
   4.20243100  2.10121550  9.60121550
   2.10121550  2.10121550  7.50000000
   4.20243100  0.00000000  7.50000000
   2.10001588  8.40453755 13.84331042
   4.20161206  2.09870039 13.84615955
   2.10088232  2.10036374 11.70713898
   4.20217428  8.40460394 11.70767585
   2.10121550  4.20243100  9.60121550
   4.20243100  6.30364650  9.60121550
   2.10121550  6.30364650  7.50000000
   4.20243100  4.20243100  7.50000000
   2.09809781  4.20208271 13.83884022
   4.20152553  6.30530252 13.84646150
   2.10087842  6.30408370 11.70717769
   4.20247503  4.20223087 11.71114782
   6.30364650  0.00000000  9.60121550
   0.00000000  2.10121550  9.60121550
   6.30364650  2.10121550  7.50000000
   0.00000000  0.00000000  7.50000000
   6.30342006  8.40453274 13.84354275
   8.40397568  2.10057211 13.84263664
   6.30311814  2.10076694 11.70784964
   8.40434904  8.40464568 11.70729060
   6.30364650  4.20243100  9.60121550
   0.00000000  6.30364650  9.60121550
   6.30364650  6.30364650  7.50000000
   0.00000000  4.20243100  7.50000000
   6.30517604  4.20208562 13.84514681
   8.40396184  6.30361743 13.84274196
   6.30308568  6.30367874 11.70791940
   8.40395515  4.20223716 11.70632382

--------------------------------------- Iteration      FINAL  ---------------------------------------

--------------------OUTCAR has been truncated-------------------------

[...]

--------------------OUTCAR has been truncated-------------------------

  DFT-D2 method for vdW energy calculation

  Parameters of vdW forcefield:
         C6(Jnm^6/mol)     R0(A)
   Mg       0.630          1.243
   O        0.700          1.342

  vdW correction parametrized for the method ½6ÿ      

  IVDW =   1
  VDW_RADIUS =    50.000 A
  VDW_S6 =     1.050
  VDW_SR =     1.000
  VDW_D =    20.000
  LVDW_EWALD = F

  Number of pair interactions contributing to vdW energy:  731243
  Edisp (eV):   -5.17084

 VOLUME and BASIS-vectors are now :
  energy-cutoff  :      600.00
  volume of cell :     1504.93
      direct lattice vectors                 reciprocal lattice vectors
     8.404861995  0.000000000  0.000000000     0.118978753  0.000000000  0.000000000
     0.000000000  8.404861995  0.000000000     0.000000000  0.118978753  0.000000000
     0.000000000  0.000000000 21.303646496     0.000000000  0.000000000  0.046940321

  length of vectors
     8.404861995  8.404861995 21.303646496     0.118978753  0.118978753  0.046940321

 FORCES acting on ions:
    Electron-Ion                     Ewald-Force                    Non-Local-Force
   -.587E-01 0.599E-03 0.209E+04   0.597E-01 -.658E-03 -.208E+04   -.654E-03 0.393E-04 -.641E+01
   -.173E-01 -.464E-01 0.209E+04   0.176E-01 0.477E-01 -.208E+04   -.163E-03 -.917E-03 -.642E+01
   -.300E+00 -.199E+00 0.692E+03   0.309E+00 0.200E+00 -.693E+03   -.567E-02 -.249E-03 0.403E+00
   -.603E-01 -.226E-02 0.692E+03   0.583E-01 0.863E-03 -.693E+03   0.128E-02 0.857E-03 0.401E+00
   -.273E+00 0.141E-02 -.697E+03   0.276E+00 -.144E-02 0.697E+03   -.462E-02 0.131E-03 -.222E+00
   -.144E+00 -.418E+00 -.698E+03   0.150E+00 0.475E+00 0.699E+03   -.379E-02 -.513E-01 -.228E+00
   -.721E+00 0.378E-01 -.208E+04   0.676E+00 -.118E+00 0.207E+04   0.488E-01 0.522E-01 0.550E+01
   -.176E-01 -.835E-03 -.208E+04   0.932E-02 0.507E-02 0.207E+04   0.724E-02 -.308E-02 0.545E+01
   -.711E-01 -.746E-03 0.209E+04   0.728E-01 0.700E-03 -.208E+04   -.110E-02 0.321E-04 -.641E+01
   -.174E-01 0.462E-01 0.209E+04   0.176E-01 -.477E-01 -.208E+04   -.162E-03 0.100E-02 -.642E+01
   -.296E+00 0.195E+00 0.692E+03   0.305E+00 -.198E+00 -.693E+03   -.561E-02 0.154E-02 0.404E+00
   -.818E-01 -.252E-02 0.691E+03   0.881E-01 0.149E-02 -.692E+03   -.421E-02 0.589E-03 0.443E+00
   -.662E+00 -.153E-02 -.697E+03   0.733E+00 0.172E-02 0.697E+03   -.608E-01 -.138E-03 -.296E+00
   -.146E+00 0.411E+00 -.698E+03   0.153E+00 -.467E+00 0.699E+03   -.411E-02 0.509E-01 -.223E+00
   -.686E+00 -.478E-01 -.208E+04   0.640E+00 0.128E+00 0.207E+04   0.483E-01 -.522E-01 0.550E+01
   -.685E+00 0.640E-01 -.208E+04   0.710E+00 -.613E-01 0.208E+04   0.375E-02 -.347E-02 0.560E+01
   0.584E-01 0.658E-03 0.209E+04   -.596E-01 -.721E-03 -.208E+04   0.788E-03 0.504E-04 -.641E+01
   0.170E-01 -.340E-01 0.209E+04   -.175E-01 0.347E-01 -.208E+04   0.325E-03 -.449E-03 -.641E+01
   0.291E+00 -.218E+00 0.692E+03   -.304E+00 0.228E+00 -.693E+03   0.844E-02 -.611E-02 0.412E+00
   0.520E-01 0.237E-02 0.693E+03   -.538E-01 -.362E-02 -.693E+03   0.110E-02 0.755E-03 0.398E+00
   0.263E+00 0.270E-02 -.697E+03   -.267E+00 -.327E-02 0.697E+03   0.544E-02 0.630E-03 -.226E+00
   0.148E+00 -.371E-01 -.696E+03   -.154E+00 0.257E-01 0.697E+03   0.408E-02 0.569E-02 -.213E+00
   0.703E+00 -.467E+00 -.208E+04   -.652E+00 0.437E+00 0.207E+04   -.507E-01 0.286E-01 0.548E+01
   0.233E-01 -.662E-03 -.208E+04   -.167E-01 0.532E-03 0.207E+04   -.653E-02 0.211E-03 0.549E+01
   0.708E-01 -.806E-03 0.209E+04   -.727E-01 0.764E-03 -.208E+04   0.127E-02 0.337E-04 -.642E+01
   0.170E-01 0.338E-01 0.209E+04   -.175E-01 -.346E-01 -.208E+04   0.335E-03 0.527E-03 -.641E+01
   0.287E+00 0.214E+00 0.692E+03   -.300E+00 -.225E+00 -.693E+03   0.854E-02 0.740E-02 0.413E+00
   0.722E-01 -.627E-02 0.692E+03   -.830E-01 0.536E-02 -.693E+03   0.690E-02 0.542E-03 0.384E+00
   0.651E+00 -.214E-02 -.698E+03   -.722E+00 0.285E-02 0.699E+03   0.610E-01 -.627E-03 -.253E+00
   0.152E+00 0.335E-01 -.696E+03   -.159E+00 -.219E-01 0.697E+03   0.425E-02 -.558E-02 -.213E+00
   0.667E+00 0.452E+00 -.208E+04   -.615E+00 -.422E+00 0.207E+04   -.510E-01 -.283E-01 0.548E+01
   0.709E+00 -.440E-02 -.208E+04   -.731E+00 0.506E-02 0.207E+04   -.535E-02 -.236E-03 0.547E+01
   -.166E+00 -.183E-03 0.519E+03   0.169E+00 0.155E-02 -.519E+03   -.446E-02 -.163E-02 -.835E-01
   -.636E-01 -.145E+00 0.518E+03   0.663E-01 0.138E+00 -.518E+03   -.304E-02 0.896E-02 -.101E+00
   -.492E-01 -.301E-01 0.157E+04   0.507E-01 0.307E-01 -.157E+04   -.192E-02 -.744E-03 0.312E+01
   -.114E-01 0.399E-03 0.157E+04   0.115E-01 -.371E-03 -.157E+04   -.106E-03 -.369E-04 0.312E+01
   -.239E+00 -.135E-02 -.158E+04   0.268E+00 0.851E-03 0.158E+04   -.281E-01 0.433E-03 -.460E+01
   -.767E-01 -.500E+00 -.158E+04   0.928E-01 0.464E+00 0.158E+04   -.196E-01 0.623E-01 -.453E+01
   -.412E+00 -.172E+00 -.517E+03   0.411E+00 0.169E+00 0.516E+03   0.170E-02 0.939E-02 0.317E+00
   -.365E-01 -.122E-03 -.517E+03   0.354E-01 0.461E-03 0.517E+03   0.212E-03 -.227E-03 0.308E+00
   -.234E+00 -.432E-02 0.519E+03   0.227E+00 0.553E-02 -.518E+03   0.929E-02 -.142E-02 -.927E-01
   -.641E-01 0.141E+00 0.518E+03   0.668E-01 -.130E+00 -.518E+03   -.310E-02 -.124E-01 -.101E+00
   -.488E-01 0.302E-01 0.157E+04   0.503E-01 -.307E-01 -.157E+04   -.193E-02 0.659E-03 0.312E+01
   -.136E-01 -.287E-03 0.157E+04   0.146E-01 0.339E-03 -.157E+04   -.123E-02 -.652E-04 0.312E+01
   -.667E+00 0.125E-01 -.158E+04   0.660E+00 -.130E-01 0.158E+04   0.300E-01 0.634E-03 -.445E+01
   -.821E-01 0.459E+00 -.158E+04   0.970E-01 -.423E+00 0.158E+04   -.179E-01 -.598E-01 -.454E+01
   -.404E+00 0.175E+00 -.517E+03   0.402E+00 -.172E+00 0.516E+03   0.268E-02 -.835E-02 0.317E+00
   -.198E+00 0.940E-02 -.521E+03   0.201E+00 -.113E-01 0.520E+03   -.727E-02 0.187E-02 0.109E+00
   0.157E+00 0.384E-05 0.519E+03   -.156E+00 0.149E-02 -.519E+03   -.109E-02 -.177E-02 -.823E-01
   0.545E-01 -.777E-01 0.519E+03   -.517E-01 0.819E-01 -.519E+03   -.346E-02 -.512E-02 -.758E-01
   0.493E-01 -.323E-01 0.157E+04   -.507E-01 0.338E-01 -.157E+04   0.173E-02 -.186E-02 0.312E+01
   0.116E-01 0.737E-03 0.157E+04   -.115E-01 -.714E-03 -.157E+04   -.461E-04 -.292E-04 0.312E+01
   0.236E+00 0.123E-02 -.158E+04   -.262E+00 -.134E-02 0.158E+04   0.260E-01 -.673E-04 -.460E+01
   0.116E+00 -.676E-01 -.158E+04   -.143E+00 0.673E-01 0.158E+04   0.314E-01 0.426E-02 -.460E+01
   0.411E+00 -.307E+00 -.517E+03   -.410E+00 0.306E+00 0.517E+03   -.126E-02 0.408E-02 0.315E+00
   0.424E-01 0.702E-02 -.517E+03   -.413E-01 -.740E-02 0.517E+03   -.450E-03 0.412E-03 0.258E+00
   0.225E+00 -.454E-02 0.518E+03   -.212E+00 0.564E-02 -.518E+03   -.156E-01 -.129E-02 -.108E+00
   0.548E-01 0.728E-01 0.519E+03   -.517E-01 -.743E-01 -.519E+03   -.375E-02 0.203E-02 -.762E-01
   0.490E-01 0.324E-01 0.157E+04   -.504E-01 -.338E-01 -.157E+04   0.173E-02 0.177E-02 0.312E+01
   0.138E-01 -.633E-03 0.157E+04   -.146E-01 0.677E-03 -.157E+04   0.105E-02 -.582E-04 0.312E+01
   0.656E+00 0.142E-01 -.158E+04   -.649E+00 -.157E-01 0.158E+04   -.291E-01 0.155E-02 -.454E+01
   0.126E+00 0.769E-01 -.158E+04   -.154E+00 -.789E-01 0.158E+04   0.324E-01 -.192E-02 -.460E+01
   0.403E+00 0.309E+00 -.517E+03   -.401E+00 -.309E+00 0.517E+03   -.199E-02 -.306E-02 0.313E+00
   0.208E+00 -.114E-02 -.516E+03   -.213E+00 0.256E-03 0.516E+03   0.872E-02 0.842E-03 0.328E+00
   -.122E-01 0.563E-03 0.181E+02   -.187E-12 -.102E-12 -.568E-11   0.871E-02 -.177E-02 -.160E+02

 POSITION                                       TOTAL-FORCE (eV/Angst)
      2.10122      0.00000      7.50000         0.000327      0.000004      0.404919
      4.20243      2.10122      7.50000         0.000124      0.000325      0.405553
      2.10122      2.10122      9.60122         0.002511      0.000484      0.034145
      4.20243      0.00000      9.60122        -0.000570     -0.000401      0.039552
      2.10112      8.40464     11.71279        -0.001899      0.000131      0.006584
      4.20198      2.10255     11.71520         0.001878      0.000564      0.000432
      2.09872      2.10096     13.79698         0.007386     -0.021280      0.019601
      4.20152      8.40446     13.79847        -0.000271      0.000832      0.029937
      2.10122      4.20243      7.50000         0.000438      0.000010      0.404974
      4.20243      6.30365      7.50000         0.000125     -0.000315      0.405558
      2.10122      6.30365      9.60122         0.002456     -0.001115      0.034197
      4.20243      4.20243      9.60122         0.001589     -0.000330      0.042103
      2.10243      4.20222     11.71468         0.003818      0.000054     -0.015813
      4.20197      6.30184     11.71521         0.001897     -0.000272      0.000217
      2.09874      6.30321     13.79704         0.006629      0.021511      0.019706
      4.19984      4.20214     13.81767         0.026259     -0.000914     -0.118269
      6.30365      0.00000      7.50000        -0.000284      0.000012      0.404669
      0.00000      2.10122      7.50000        -0.000086      0.000226      0.404480
      6.30365      2.10122      9.60122        -0.003884      0.002798      0.036244
      0.00000      0.00000      9.60122        -0.000548     -0.000373      0.034521
      6.30294      8.40462     11.71299         0.001812      0.000134      0.006414
      8.40443      2.10119     11.71240        -0.002007     -0.004777      0.003477
      6.30433      2.10019     13.79743        -0.004690      0.000467      0.028164
      8.40432      8.40451     13.79944        -0.000441      0.000119      0.007116
      6.30365      4.20243      7.50000        -0.000388      0.000014      0.406010
      0.00000      6.30365      7.50000        -0.000085     -0.000205      0.404490
      6.30365      6.30365      9.60122        -0.003912     -0.003432      0.036261
      0.00000      4.20243      9.60122        -0.002907     -0.000276      0.036530
      6.30155      4.20223     11.71558        -0.003466      0.000044     -0.003039
      8.40440      6.30324     11.71245        -0.002001      0.005060      0.003539
      6.30422      6.30397     13.79766        -0.003310     -0.000095      0.027045
      0.00097      4.20207     13.79627        -0.026130      0.000398      0.029391
      2.10122      0.00000      9.60122        -0.001331     -0.000465      0.047870
      4.20243      2.10122      9.60122        -0.000729      0.002588      0.054606
      2.10122      2.10122      7.50000        -0.000612     -0.000228     -0.494625
      4.20243      0.00000      7.50000         0.000006      0.000006     -0.494697
      2.10002      8.40454     13.84331        -0.003041      0.000008     -0.016460
      4.20161      2.09870     13.84616        -0.006247      0.036160     -0.002565
      2.10088      2.10036     11.70714         0.000355      0.007386     -0.000363
      4.20217      8.40460     11.70768        -0.000864      0.000114     -0.000071
      2.10122      4.20243      9.60122         0.002919     -0.000390      0.054794
      4.20243      6.30365      9.60122        -0.000747     -0.003567      0.054580
      2.10122      6.30365      7.50000        -0.000614      0.000235     -0.494627
      4.20243      4.20243      7.50000        -0.000383     -0.000003     -0.495377
      2.09810      4.20208     13.83884         0.028419      0.000167      0.041650
      4.20153      6.30530     13.84646        -0.005485     -0.033767     -0.004044
      2.10088      6.30408     11.70718         0.000521     -0.007182     -0.000269
      4.20248      4.20223     11.71115        -0.004914      0.000271      0.000146
      6.30365      0.00000      9.60122        -0.000214     -0.000505      0.049556
      0.00000      2.10122      9.60122        -0.001110     -0.001745      0.048689
      6.30365      2.10122      7.50000         0.000622     -0.000611     -0.494814
      0.00000      0.00000      7.50000         0.000019      0.000010     -0.494097
      6.30342      8.40453     13.84354         0.002499     -0.000183     -0.016299
      8.40398      2.10057     13.84264         0.008980      0.004780     -0.012992
      6.30312      2.10077     11.70785        -0.000319      0.003241     -0.004613
      8.40435      8.40465     11.70729         0.000632      0.000112     -0.005866
      6.30365      4.20243      9.60122        -0.004714     -0.000353      0.053877
      0.00000      6.30365      9.60122        -0.001198      0.000886      0.048847
      6.30365      6.30365      7.50000         0.000619      0.000619     -0.494812
      0.00000      4.20243      7.50000         0.000397     -0.000002     -0.494550
      6.30518      4.20209     13.84515        -0.027476      0.000306     -0.000303
      8.40396      6.30362     13.84274         0.008958     -0.004322     -0.013261
      6.30309      6.30368     11.70792        -0.000405     -0.003055     -0.004539
      8.40396      4.20224     11.70632         0.005088      0.000082      0.005920
    total drift:                               -0.002663     -0.001260      0.003366

  FREE ENERGIE OF THE ION-ELECTRON SYSTEM (eV)
  free  energy   TOTEN  =      -438.72158610 eV

  energy  without entropy=     -438.72158610  energy(sigma->0) =     -438.72158610