 vasp.6.3.0 20Jan22 (build Apr  1 2022 16:44:48) complex
 executed on        HPECrayEX_GCC date 2023.02.23  07:15:30

 INCAR:
   SYSTEM = MgO-rocksalt
   ISMEAR = 0
   SIGMA = 0.05
   EDIFF = 1E-6
   ALGO = ALL
   ISTART = 0
   IBRION = -1
   NSW = 0
   ISYM = 0
   DIPOL = 0.5 0.5 0.5
   IDIPOL = 3
   LDIPOL = .TRUE.
   LHFCALC = .TRUE.
   GGA = PE
   IVDW = 13
   VDW_S8 = 1.2007
   VDW_A1 = 0.4009
   VDW_A2 = 5.0293
   ENCUT = 600
   PREC = Accurate
   LASPH = .TRUE.
   LREAL = .FALSE.
   ISPIN = 1
   NELM = 200
   NELMIN = 8
   NCORE = 8
   KPAR = 1
   LWAVE = .FALSE.
   LCHARG = .FALSE.

 POTCAR:    PAW_PBE N 08Apr2002
 POTCAR:    PAW_PBE H 15Jun2001
 POTCAR:    PAW_PBE Mg_pv 13Apr2007
 POTCAR:    PAW_PBE O 08Apr2002
 POTCAR:    PAW_PBE N 08Apr2002
   VRHFIN =N: s2p3

   TITEL  = PAW_PBE N 08Apr2002
   POMASS =   14.001; ZVAL   =    5.000    mass and valenz
   ENMAX  =  400.000; ENMIN  =  300.000 eV

   TITEL  = PAW_PBE H 15Jun2001
   POMASS =    1.000; ZVAL   =    1.000    mass and valenz
   ENMAX  =  250.000; ENMIN  =  200.000 eV

   TITEL  = PAW_PBE Mg_pv 13Apr2007
   POMASS =   24.305; ZVAL   =    8.000    mass and valenz
   ENMAX  =  403.929; ENMIN  =  302.947 eV

   TITEL  = PAW_PBE O 08Apr2002
   POMASS =   16.000; ZVAL   =    6.000    mass and valenz
   ENMAX  =  400.000; ENMIN  =  300.000 eV

  PAW_PBE N 08Apr2002                   :
  PAW_PBE H 15Jun2001                   :
  PAW_PBE Mg_pv 13Apr2007               :
  PAW_PBE O 08Apr2002                   :

 POSCAR:  N  H Mg  O
  positions in direct lattice
|           W    W    AA    RRRRR   N    N  II  N    N   GGGG   !!!           |
|           W    W   A  A   R    R  NN   N  II  NN   N  G    G  !!!           |
|           W    W  A    A  R    R  N N  N  II  N N  N  G       !!!           |
|           W WW W  AAAAAA  RRRRR   N  N N  II  N  N N  G  GGG   !            |
|           WW  WW  A    A  R   R   N   NN  II  N   NN  G    G                |
|           W    W  A    A  R    R  N    N  II  N    N   GGGG   !!!           |
|     Specifying the vdW parameters                                           |
|     VDW_S8 = 1.201                                                          |
|     VDW_A1 = 0.401                                                          |
|     VDW_A2 = 5.029                                                          |
|     in the INCAR file will overwrite the defaults for pbe0. Please make     |
|     sure that is what you intended.                                         |

 ion  position               nearest neighbor table
   1  0.500  0.502  0.759-   3 1.01   4 1.01   2 1.01
   2  0.500  0.617  0.773-   1 1.01
   3  0.402  0.447  0.777-   1 1.01
   4  0.598  0.447  0.777-   1 1.01
   5  0.250  0.000  0.353-  39 2.09  40 2.09  47 2.09  56 2.09  37 2.09
   6  0.500  0.250  0.353-  39 2.09  40 2.09  48 2.09  55 2.09  38 2.09
   7  0.250  0.250  0.451-  37 2.09  38 2.09  45 2.09  54 2.09  39 2.09  43 2.09
   8  0.500  0.000  0.451-  37 2.09  38 2.09  46 2.09  53 2.09  40 2.09  44 2.09
   9  0.250  1.000  0.549-  44 2.09  51 2.09  43 2.09  60 2.09  37 2.09  41 2.13
  10  0.500  0.251  0.550-  52 2.08  43 2.09  59 2.09  44 2.10  38 2.11  42 2.12
  11  0.250  0.250  0.646-  43 2.07  41 2.09  58 2.09  42 2.09  49 2.09
  12  0.500  1.000  0.647-  42 2.06  50 2.06  44 2.07  41 2.09  57 2.09
  13  0.250  0.500  0.353-  39 2.09  47 2.09  48 2.09  64 2.09  45 2.09
  14  0.500  0.750  0.353-  40 2.09  47 2.09  48 2.09  63 2.09  46 2.09
  15  0.250  0.750  0.451-  37 2.09  45 2.09  46 2.09  62 2.09  47 2.09  51 2.09
  16  0.500  0.500  0.451-  38 2.09  45 2.09  46 2.09  61 2.09  48 2.09  52 2.11
  17  0.251  0.500  0.550-  52 2.08  51 2.09  43 2.09  68 2.10  45 2.11  49 2.12
  18  0.500  0.749  0.550-  52 2.08  51 2.09  67 2.09  44 2.10  46 2.11  50 2.12
  19  0.250  0.750  0.647-  51 2.07  66 2.09  41 2.09  49 2.09  50 2.09
  20  0.500  0.499  0.654-  42 2.11  49 2.11  65 2.11  50 2.12  52 2.20
  21  0.750  0.000  0.353-  40 2.09  55 2.09  56 2.09  63 2.09  53 2.09
  22  0.000  0.250  0.353-  39 2.09  55 2.09  56 2.09  64 2.09  54 2.09
  23  0.750  0.250  0.451-  38 2.09  53 2.09  54 2.09  61 2.09  55 2.09  59 2.09
  24  0.000  0.000  0.451-  37 2.09  53 2.09  54 2.09  62 2.09  56 2.09  60 2.09
  25  0.750  1.000  0.549-  44 2.09  67 2.09  59 2.09  60 2.09  53 2.09  57 2.13
  26  0.000  0.250  0.549-  68 2.09  43 2.09  59 2.09  60 2.09  54 2.09  58 2.13
  27  0.750  0.250  0.646-  59 2.07  57 2.09  58 2.09  42 2.09  65 2.09
  28  0.000  1.000  0.647-  60 2.08  41 2.08  57 2.08  66 2.08  58 2.08
  29  0.750  0.500  0.353-  48 2.09  55 2.09  63 2.09  64 2.09  61 2.09
  30  0.000  0.750  0.353-  47 2.09  56 2.09  63 2.09  64 2.09  62 2.09
  31  0.750  0.750  0.451-  46 2.09  53 2.09  61 2.09  62 2.09  63 2.09  67 2.09
  32  0.000  0.500  0.451-  45 2.09  54 2.09  61 2.09  62 2.09  64 2.09  68 2.09
  33  0.749  0.500  0.550-  52 2.08  67 2.09  59 2.09  68 2.10  61 2.11  65 2.12
  34  0.000  0.750  0.549-  68 2.09  51 2.09  67 2.09  60 2.09  62 2.09  66 2.13
  35  0.750  0.750  0.647-  67 2.07  66 2.09  57 2.09  65 2.09  50 2.09
  36  0.000  0.500  0.647-  49 2.06  65 2.06  68 2.07  58 2.09  66 2.09
  37  0.250  0.000  0.451-   7 2.09   8 2.09  15 2.09  24 2.09   5 2.09   9 2.09
  38  0.500  0.250  0.451-   7 2.09   8 2.09  16 2.09  23 2.09   6 2.09  10 2.11
  39  0.250  0.250  0.353-   5 2.09   6 2.09  13 2.09  22 2.09   7 2.09
  40  0.500  0.000  0.353-   5 2.09   6 2.09  14 2.09  21 2.09   8 2.09
  41  0.249  1.000  0.650-  28 2.08  11 2.09  19 2.09  12 2.09   9 2.13
  42  0.500  0.247  0.650-  12 2.06  11 2.09  27 2.09  20 2.11  10 2.12
  43  0.250  0.250  0.549-  11 2.07  26 2.09   9 2.09  17 2.09  10 2.09   7 2.09
  44  0.500  1.000  0.549-  12 2.07   9 2.09  25 2.09   8 2.09  18 2.10  10 2.10
  45  0.250  0.500  0.451-   7 2.09  15 2.09  16 2.09  32 2.09  13 2.09  17 2.11
  46  0.500  0.750  0.451-   8 2.09  15 2.09  16 2.09  31 2.09  14 2.09  18 2.11
  47  0.250  0.750  0.353-   5 2.09  13 2.09  14 2.09  30 2.09  15 2.09
  48  0.500  0.500  0.353-   6 2.09  13 2.09  14 2.09  29 2.09  16 2.09
  49  0.247  0.500  0.650-  36 2.06  11 2.09  19 2.09  20 2.11  17 2.12
  50  0.500  0.753  0.650-  12 2.06  19 2.09  35 2.09  20 2.12  18 2.12
  51  0.250  0.750  0.549-  19 2.07   9 2.09  34 2.09  18 2.09  17 2.09  15 2.09
  52  0.500  0.500  0.550-  18 2.08  17 2.08  33 2.08  10 2.08  16 2.11  20 2.20
  53  0.750  0.000  0.451-   8 2.09  23 2.09  24 2.09  31 2.09  21 2.09  25 2.09
  54  0.000  0.250  0.451-   7 2.09  23 2.09  24 2.09  32 2.09  22 2.09  26 2.09
  55  0.750  0.250  0.353-   6 2.09  21 2.09  22 2.09  29 2.09  23 2.09
  56  0.000  0.000  0.353-   5 2.09  21 2.09  22 2.09  30 2.09  24 2.09
  57  0.751  1.000  0.650-  28 2.08  27 2.09  35 2.09  12 2.09  25 2.13
  58  1.000  0.249  0.650-  28 2.08  27 2.09  11 2.09  36 2.09  26 2.13
  59  0.750  0.250  0.549-  27 2.07  26 2.09  25 2.09  33 2.09  10 2.09  23 2.09
  60  1.000  1.000  0.549-  28 2.08  34 2.09  25 2.09   9 2.09  26 2.09  24 2.09
  61  0.750  0.500  0.451-  16 2.09  23 2.09  31 2.09  32 2.09  29 2.09  33 2.11
  62  0.000  0.750  0.451-  15 2.09  24 2.09  31 2.09  32 2.09  30 2.09  34 2.09
  63  0.750  0.750  0.353-  14 2.09  21 2.09  29 2.09  30 2.09  31 2.09
  64  0.000  0.500  0.353-  13 2.09  22 2.09  29 2.09  30 2.09  32 2.09
  65  0.753  0.500  0.650-  36 2.06  27 2.09  35 2.09  20 2.11  33 2.12
  66  0.000  0.750  0.650-  28 2.08  19 2.09  35 2.09  36 2.09  34 2.13
  67  0.750  0.750  0.549-  35 2.07  25 2.09  34 2.09  18 2.09  33 2.09  31 2.09
  68  1.000  0.500  0.549-  36 2.07  34 2.09  26 2.09  32 2.09  17 2.10  33 2.10

IMPORTANT INFORMATION: All symmetrisations will be switched off!
NOSYMM: (Re-)initialisation of all symmetry stuff for point group C_1.

                                     Primitive cell

  volume of cell :    1482.1129

  direct lattice vectors                    reciprocal lattice vectors
     8.349111827  0.000000000  0.000000000     0.119773219  0.000000000  0.000000000
     0.000000000  8.349111827  0.000000000     0.000000000  0.119773219  0.000000000
     0.000000000  0.000000000 21.261833870     0.000000000  0.000000000  0.047032632

  length of vectors
     8.349111827  8.349111827 21.261833870     0.119773219  0.119773219  0.047032632

  position of ions in fractional coordinates (direct lattice)
     0.499999972  0.501598849  0.759019787
     0.500000002  0.617210162  0.773343135
     0.401560268  0.447183855  0.776670553
     0.598439832  0.447183886  0.776670525
     0.250000000  0.000000000  0.352744737
     0.500000000  0.250000000  0.352744737
     0.250000000  0.250000000  0.450914912
     0.500000000  0.000000000  0.450914912
     0.250241521  0.999852019  0.549425689
     0.499999991  0.251173336  0.550064705
     0.249816100  0.249518696  0.646453322
     0.499999995  0.999947057  0.646640786
     0.250000000  0.500000000  0.352744737
     0.500000000  0.750000000  0.352744737
     0.250000000  0.750000000  0.450914912
     0.500000000  0.500000000  0.450914912
     0.251294837  0.499902807  0.550101292
     0.499999987  0.748589101  0.550136386
     0.249725120  0.749964047  0.646594566
     0.499999990  0.499299627  0.653718045
     0.750000000  0.000000000  0.352744737
     0.000000000  0.250000000  0.352744737
     0.750000000  0.250000000  0.450914912
     0.000000000  0.000000000  0.450914912
     0.749758481  0.999852019  0.549425694
     0.000000001  0.250139739  0.549410008
     0.750183928  0.249518656  0.646453330
     0.000000011  0.999812331  0.646859903
     0.750000000  0.500000000  0.352744737
     0.000000000  0.750000000  0.352744737
     0.750000000  0.750000000  0.450914912
     0.000000000  0.500000000  0.450914912
     0.748705147  0.499902799  0.550101320
     0.000000007  0.749653645  0.549440778
     0.750274880  0.749964037  0.646594565
     0.000000004  0.499808807  0.646641937
     0.250000000  0.000000000  0.450914912
     0.500000000  0.250000000  0.450914912
     0.250000000  0.250000000  0.352744737
     0.500000000  0.000000000  0.352744737
     0.249341906  0.999821562  0.649647230
     0.500000001  0.246907488  0.649538072
     0.249823383  0.249736854  0.549326585
     0.500000001  0.999820557  0.549201932
     0.250000000  0.500000000  0.450914912
     0.500000000  0.750000000  0.450914912
     0.250000000  0.750000000  0.352744737
     0.500000000  0.500000000  0.352744737
     0.247100965  0.499711860  0.649718488
     0.499999994  0.752763448  0.649929994
     0.249896948  0.750024345  0.549391267
     0.499999991  0.499944311  0.550314141
     0.750000000  0.000000000  0.450914912
     0.000000000  0.250000000  0.450914912
     0.750000000  0.250000000  0.352744737
     0.000000000  0.000000000  0.352744737
     0.750658103  0.999821557  0.649647233
     1.000000000  0.249161556  0.649662430
     0.750176605  0.249736847  0.549326583
     0.999999999  0.999889355  0.549259896
     0.750000000  0.500000000  0.450914912
     0.000000000  0.750000000  0.450914912
     0.750000000  0.750000000  0.352744737
     0.000000000  0.500000000  0.352744737
     0.752899038  0.499711846  0.649718504
     0.000000004  0.750465346  0.649634572
[...]
   0.75065810  0.99982156  0.64964723
   1.00000000  0.24916156  0.64966243
   0.75017660  0.24973685  0.54932658
   1.00000000  0.99988935  0.54925990
   0.75000000  0.50000000  0.45091491
   0.00000000  0.75000000  0.45091491
   0.75000000  0.75000000  0.35274474
   0.00000000  0.50000000  0.35274474
   0.75289904  0.49971185  0.64971850
   0.00000000  0.75046535  0.64963457
   0.75010304  0.75002435  0.54939126
   1.00000000  0.49990550  0.54920059

 position of ions in cartesian coordinates  (Angst):
   4.17455568  4.18790488 16.13815261
   4.17455593  5.15315666 16.44269326
   3.35267158  3.73358801 16.51344027
   4.99644108  3.73358827 16.51343967
   2.08727796  0.00000000  7.50000000
   4.17455591  2.08727796  7.50000000
   2.08727796  2.08727796  9.58727796
   4.17455591  0.00000000  9.58727796
   2.08929444  8.34787632 11.68179773
   4.17455584  2.09707427 11.69538437
   2.08574255  2.08325950 13.74478314
   4.17455587  8.34866980 13.74876896
   2.08727796  4.17455591  7.50000000
   4.17455591  6.26183387  7.50000000
   2.08727796  6.26183387  9.58727796
   4.17455591  4.17455591  9.58727796
   2.09808870  4.17374444 11.69616229
   4.17455581  6.25005412 11.69690844
   2.08498295  6.26153370 13.74778625
   4.17455583  4.16870842 13.89924448
   6.26183387  0.00000000  7.50000000
   0.00000000  2.08727796  7.50000000
   6.26183387  2.08727796  9.58727796
   0.00000000  0.00000000  9.58727796
   6.25981740  8.34787632 11.68179782
   0.00000001  2.08844466 11.68146432
   6.26336951  2.08325916 13.74478331
   0.00000010  8.34754496 13.75342779
   6.26183387  4.17455591  7.50000000
   0.00000000  6.26183387  7.50000000
   6.26183387  6.26183387  9.58727796
   0.00000000  4.17455591  9.58727796
   6.25102299  4.17374437 11.69616288
   0.00000006  6.25894212 11.68211855
   6.26412888  6.26153361 13.74778622
   0.00000003  4.17295962 13.74879344
   2.08727796  0.00000000  9.58727796
   4.17455591  2.08727796  9.58727796
   2.08727796  2.08727796  7.50000000
   4.17455591  0.00000000  7.50000000
   2.08178345  8.34762203 13.81269148
   4.17455592  2.06145823 13.81037057
   2.08580336  2.08508092 11.67969058
   4.17455592  8.34761364 11.67704024
   2.08727796  4.17455591  9.58727796
   4.17455591  6.26183387  9.58727796
   2.08727796  6.26183387  7.50000000
   4.17455591  4.17455591  7.50000000
   2.06307359  4.17215020 13.81420656
   4.17455586  6.28490620 13.81870356
   2.08641756  6.26203713 11.68106585
   4.17455584  4.17409096 11.70068783
   6.26183387  0.00000000  9.58727796
   0.00000000  2.08727796  9.58727796
   6.26183387  2.08727796  7.50000000
   0.00000000  0.00000000  7.50000000
   6.26732844  8.34762199 13.81269153
   8.34911183  2.08027770 13.81301467
   6.26330836  2.08508086 11.67969056
   8.34911182  8.34818804 11.67827267
   6.26183387  4.17455591  9.58727796
   0.00000000  6.26183387  9.58727796
   6.26183387  6.26183387  7.50000000
   0.00000000  4.17455591  7.50000000
   6.28603826  4.17215008 13.81420688
   0.00000004  6.26571909 13.81242234
   6.26269420  6.26203713 11.68106579
   8.34911179  4.17376691 11.67701162

--------------------------------------- Iteration      FINAL  ---------------------------------------

--------------------OUTCAR has been truncated-------------------------

[...]

--------------------OUTCAR has been truncated-------------------------

 VOLUME and BASIS-vectors are now :
  energy-cutoff  :      600.00
  volume of cell :     1482.11
      direct lattice vectors                 reciprocal lattice vectors
     8.349111827  0.000000000  0.000000000     0.119773219  0.000000000  0.000000000
     0.000000000  8.349111827  0.000000000     0.000000000  0.119773219  0.000000000
     0.000000000  0.000000000 21.261833870     0.000000000  0.000000000  0.047032632

  length of vectors
     8.349111827  8.349111827 21.261833870     0.119773219  0.119773219  0.047032632

 FORCES acting on ions:
    Electron-Ion                     Ewald-Force                    Non-Local-Force
   -.106E-05 0.226E+01 -.137E+04   0.116E-04 -.349E+01 0.134E+04   0.152E-04 0.112E+01 0.228E+02
   -.154E-04 -.689E+02 -.284E+03   0.158E-04 0.762E+02 0.286E+03   -.237E-05 -.694E+01 -.194E+01
   0.589E+02 0.328E+02 -.285E+03   -.651E+02 -.362E+02 0.288E+03   0.593E+01 0.327E+01 -.247E+01
   -.589E+02 0.328E+02 -.285E+03   0.651E+02 -.362E+02 0.288E+03   -.593E+01 0.327E+01 -.247E+01
   -.740E-01 0.293E-01 0.214E+04   0.816E-01 -.300E-01 -.213E+04   -.470E-02 0.448E-03 -.681E+01
   -.519E-05 -.111E+00 0.214E+04   0.522E-05 0.124E+00 -.213E+04   -.226E-05 -.784E-02 -.684E+01
   -.495E+00 -.512E+00 0.734E+03   0.551E+00 0.569E+00 -.734E+03   -.334E-01 -.344E-01 0.459E+00
   -.104E-04 0.115E+00 0.734E+03   0.146E-04 -.131E+00 -.734E+03   0.376E-06 0.981E-02 0.340E+00
   0.254E+01 0.209E+00 -.663E+03   -.245E+01 -.217E+00 0.663E+03   -.728E-01 0.687E-02 0.434E-01
   -.312E-04 0.219E+01 -.661E+03   0.392E-04 -.181E+01 0.661E+03   -.956E-05 -.338E+00 -.416E+00
   0.195E+02 0.195E+02 -.204E+04   -.196E+02 -.196E+02 0.203E+04   0.728E-01 0.913E-01 0.590E+01
   -.333E-04 0.226E-01 -.205E+04   0.315E-04 0.242E-01 0.205E+04   0.501E-05 -.413E-01 0.573E+01
   -.111E+00 -.303E-01 0.214E+04   0.123E+00 0.304E-01 -.213E+04   -.803E-02 -.694E-04 -.684E+01
   -.685E-05 0.111E+00 0.214E+04   0.565E-05 -.124E+00 -.213E+04   0.325E-05 0.820E-02 -.684E+01
   -.504E+00 0.493E+00 0.733E+03   0.573E+00 -.561E+00 -.734E+03   -.418E-01 0.407E-01 0.481E+00
   -.394E-04 -.144E+00 0.731E+03   0.424E-04 0.149E+00 -.731E+03   -.377E-05 -.397E-02 0.576E+00
   0.217E+01 -.224E+00 -.662E+03   -.179E+01 0.230E+00 0.662E+03   -.340E+00 -.593E-02 -.365E+00
   -.527E-04 -.211E+01 -.663E+03   0.540E-04 0.173E+01 0.663E+03   0.330E-05 0.340E+00 -.298E+00
   0.195E+02 -.194E+02 -.204E+04   -.196E+02 0.195E+02 0.203E+04   0.108E+00 -.846E-01 0.589E+01
   -.419E-04 0.455E-02 -.198E+04   0.374E-04 -.160E+00 0.198E+04   0.353E-05 0.138E+00 0.980E+00
   0.740E-01 0.293E-01 0.214E+04   -.816E-01 -.300E-01 -.213E+04   0.470E-02 0.446E-03 -.681E+01
   0.532E-05 -.746E-01 0.214E+04   -.524E-05 0.820E-01 -.213E+04   0.168E-05 -.456E-02 -.681E+01
   0.495E+00 -.512E+00 0.734E+03   -.551E+00 0.569E+00 -.734E+03   0.334E-01 -.344E-01 0.459E+00
   0.998E-05 0.105E+00 0.733E+03   -.139E-04 -.108E+00 -.734E+03   0.232E-05 0.158E-02 0.431E+00
   -.254E+01 0.209E+00 -.663E+03   0.245E+01 -.217E+00 0.663E+03   0.728E-01 0.688E-02 0.434E-01
   0.365E-04 0.253E+01 -.663E+03   -.368E-04 -.245E+01 0.663E+03   -.313E-05 -.729E-01 0.624E-01
   -.195E+02 0.195E+02 -.204E+04   0.196E+02 -.196E+02 0.203E+04   -.728E-01 0.913E-01 0.590E+01
   0.111E-04 -.294E-01 -.207E+04   -.126E-04 0.309E-01 0.206E+04   0.239E-06 -.122E-02 0.576E+01
   0.111E+00 -.303E-01 0.214E+04   -.123E+00 0.304E-01 -.213E+04   0.802E-02 -.642E-04 -.684E+01
   0.574E-05 0.741E-01 0.214E+04   -.568E-05 -.819E-01 -.213E+04   0.703E-06 0.485E-02 -.681E+01
   0.504E+00 0.493E+00 0.733E+03   -.573E+00 -.561E+00 -.734E+03   0.418E-01 0.407E-01 0.481E+00
   0.413E-04 -.126E+00 0.734E+03   -.431E-04 0.121E+00 -.734E+03   -.259E-08 0.345E-02 0.339E+00
   -.217E+01 -.224E+00 -.662E+03   0.179E+01 0.230E+00 0.662E+03   0.340E+00 -.593E-02 -.365E+00
   0.573E-04 -.253E+01 -.663E+03   -.595E-04 0.245E+01 0.663E+03   0.869E-07 0.736E-01 0.264E-01
   -.195E+02 -.194E+02 -.204E+04   0.196E+02 0.195E+02 0.203E+04   -.108E+00 -.846E-01 0.589E+01
   0.115E-04 -.112E-01 -.205E+04   -.794E-05 0.851E-02 0.205E+04   -.487E-05 0.228E-02 0.573E+01
   -.603E-01 0.861E-01 0.550E+03   0.864E-01 -.768E-01 -.550E+03   -.315E-01 -.108E-01 -.327E-01
   -.240E-04 -.236E+00 0.549E+03   0.162E-04 0.191E+00 -.548E+03   0.552E-06 0.497E-01 -.167E+00
   -.729E-01 -.738E-01 0.161E+04   0.823E-01 0.840E-01 -.161E+04   -.112E-01 -.122E-01 0.300E+01
   -.244E-05 0.232E-01 0.161E+04   0.299E-05 -.241E-01 -.161E+04   -.304E-06 0.109E-02 0.300E+01
   0.738E+01 0.636E-01 -.157E+04   -.721E+01 -.864E-01 0.158E+04   -.150E+00 0.198E-01 -.452E+01
   -.405E-04 0.250E+02 -.154E+04   0.424E-04 -.243E+02 0.154E+04   -.366E-05 -.614E+00 -.443E+01
   0.171E+01 0.165E+01 -.487E+03   -.168E+01 -.162E+01 0.487E+03   -.304E-01 -.248E-01 0.543E+00
   -.138E-04 0.226E+00 -.487E+03   0.216E-04 -.215E+00 0.487E+03   -.311E-05 -.895E-02 0.426E+00
   -.227E+00 -.109E+00 0.548E+03   0.175E+00 0.113E+00 -.548E+03   0.568E-01 -.412E-02 -.177E+00
   -.191E-04 0.222E+00 0.548E+03   0.196E-04 -.164E+00 -.548E+03   -.381E-05 -.635E-01 -.186E+00
   -.746E-01 0.744E-01 0.161E+04   0.852E-01 -.842E-01 -.161E+04   -.127E-01 0.117E-01 0.300E+01
   -.656E-05 -.230E-01 0.161E+04   0.555E-05 0.242E-01 -.161E+04   -.168E-05 -.149E-02 0.298E+01
   0.250E+02 -.127E+00 -.154E+04   -.243E+02 0.142E+00 0.154E+04   -.642E+00 -.131E-01 -.439E+01
   -.422E-04 -.249E+02 -.154E+04   0.347E-04 0.241E+02 0.154E+04   0.426E-05 0.677E+00 -.434E+01
   0.159E+01 -.164E+01 -.488E+03   -.157E+01 0.161E+01 0.487E+03   -.178E-01 0.251E-01 0.532E+00
   -.396E-04 -.297E+00 -.504E+03   0.355E-04 0.286E+00 0.505E+03   0.210E-05 0.935E-02 -.105E+01
   0.603E-01 0.861E-01 0.550E+03   -.864E-01 -.768E-01 -.550E+03   0.315E-01 -.108E-01 -.327E-01
   0.155E-04 -.699E-01 0.550E+03   -.156E-04 0.101E+00 -.550E+03   0.191E-05 -.375E-01 -.338E-01
   0.729E-01 -.738E-01 0.161E+04   -.823E-01 0.840E-01 -.161E+04   0.112E-01 -.122E-01 0.300E+01
   0.263E-05 0.215E-01 0.161E+04   -.298E-05 -.212E-01 -.161E+04   0.164E-05 -.372E-03 0.302E+01
   -.738E+01 0.636E-01 -.157E+04   0.721E+01 -.865E-01 0.158E+04   0.150E+00 0.198E-01 -.452E+01
   -.284E-04 0.738E+01 -.157E+04   0.333E-04 -.720E+01 0.158E+04   -.399E-05 -.149E+00 -.452E+01
   -.171E+01 0.165E+01 -.487E+03   0.168E+01 -.162E+01 0.487E+03   0.304E-01 -.248E-01 0.543E+00
   0.103E-04 0.769E-01 -.494E+03   -.146E-04 -.741E-01 0.494E+03   0.140E-05 -.248E-02 0.324E+00
   0.227E+00 -.109E+00 0.548E+03   -.175E+00 0.113E+00 -.548E+03   -.568E-01 -.412E-02 -.177E+00
   0.244E-04 0.526E-01 0.550E+03   -.196E-04 -.736E-01 -.550E+03   0.822E-06 0.258E-01 -.312E-01
   0.746E-01 0.744E-01 0.161E+04   -.852E-01 -.842E-01 -.161E+04   0.127E-01 0.118E-01 0.300E+01
   0.683E-05 -.212E-01 0.161E+04   -.560E-05 0.212E-01 -.161E+04   0.662E-06 0.503E-04 0.300E+01
   -.250E+02 -.127E+00 -.154E+04   0.243E+02 0.142E+00 0.154E+04   0.642E+00 -.131E-01 -.439E+01
   0.302E-04 -.735E+01 -.157E+04   -.271E-04 0.718E+01 0.158E+04   -.194E-05 0.147E+00 -.452E+01
   -.159E+01 -.164E+01 -.488E+03   0.157E+01 0.161E+01 0.487E+03   0.178E-01 0.251E-01 0.532E+00
   0.474E-04 -.833E-01 -.487E+03   -.469E-04 0.814E-01 0.487E+03   0.402E-05 0.151E-02 0.425E+00
   -.778E-05 -.101E+01 0.628E+01   0.171E-12 0.369E-12 0.364E-11   -.418E-05 0.895E+00 -.482E+01

 POSITION                                       TOTAL-FORCE (eV/Angst)
      4.17456      4.18790     16.13815         0.000027      0.009645      0.013001
      4.17456      5.15316     16.44269        -0.000002     -0.003928     -0.010343
      3.35267      3.73359     16.51344         0.006382      0.012665      0.001277
      4.99644      3.73359     16.51344        -0.006409      0.012677      0.001265
      2.08728      0.00000      7.50000         0.002148     -0.000126      0.424301
      4.17456      2.08728      7.50000        -0.000002      0.003068      0.431367
      2.08728      2.08728      9.58728         0.016715      0.016623      0.049040
      4.17456      0.00000      9.58728         0.000005     -0.004384      0.074978
      2.08929      8.34788     11.68180         0.002599     -0.000026      0.000021
      4.17456      2.09707     11.69538         0.000000      0.001954     -0.001867
      2.08574      2.08326     13.74478         0.001793      0.001576     -0.001459
      4.17456      8.34867     13.74877         0.000005      0.000340      0.002981
      2.08728      4.17456      7.50000         0.003081      0.000063      0.432015
      4.17456      6.26183      7.50000         0.000002     -0.003112      0.432567
      2.08728      6.26183      9.58728         0.020006     -0.020114      0.051456
      4.17456      4.17456      9.58728        -0.000000      0.001273      0.104934
      2.09809      4.17374     11.69616         0.001873      0.000069     -0.001806
      4.17456      6.25005     11.69691         0.000005     -0.001781     -0.001795
      2.08498      6.26153     13.74779         0.001796     -0.002105     -0.001174
      4.17456      4.16871     13.89924        -0.000002     -0.000615      0.001345
      6.26183      0.00000      7.50000        -0.002149     -0.000130      0.424305
      0.00000      2.08728      7.50000         0.000003      0.002123      0.424596
      6.26183      2.08728      9.58728        -0.016717      0.016628      0.049038
      0.00000      0.00000      9.58728        -0.000001     -0.001040      0.034843
      6.25982      8.34788     11.68180        -0.002598     -0.000021      0.000029
      0.00000      2.08844     11.68146        -0.000004      0.002471     -0.000215
      6.26337      2.08326     13.74478        -0.001802      0.001582     -0.001300
      0.00000      8.34754     13.75343        -0.000001      0.000196      0.001344
      6.26183      4.17456      7.50000        -0.003085      0.000067      0.432013
      0.00000      6.26183      7.50000         0.000001     -0.002178      0.423986
      6.26183      6.26183      9.58728        -0.020009     -0.020114      0.051467
      0.00000      4.17456      9.58728        -0.000001     -0.001594      0.075027
      6.25102      4.17374     11.69616        -0.001874      0.000071     -0.001802
      0.00000      6.25894     11.68212        -0.000004     -0.002772      0.000162
      6.26413      6.26153     13.74779        -0.001787     -0.002096     -0.001233
      0.00000      4.17296     13.74879        -0.000001     -0.000069      0.003067
      2.08728      0.00000      9.58728        -0.011320     -0.003368      0.060332
      4.17456      2.08728      9.58728        -0.000007      0.013523      0.086074
      2.08728      2.08728      7.50000        -0.003860     -0.004199     -0.563872
      4.17456      0.00000      7.50000         0.000001      0.000385     -0.564503
      2.08178      8.34762     13.81269         0.002712      0.000070      0.004173
      4.17456      2.06146     13.81037        -0.000002      0.003428     -0.002175
      2.08580      2.08508     11.67969         0.000404      0.000397      0.002070
      4.17456      8.34761     11.67704         0.000005     -0.000202      0.000770
      2.08728      4.17456      9.58728         0.015627     -0.001030      0.086469
      4.17456      6.26183      9.58728        -0.000004     -0.017627      0.086921
      2.08728      6.26183      7.50000        -0.004382      0.004070     -0.563984
      4.17456      4.17456      7.50000        -0.000003     -0.000501     -0.570752
      2.06307      4.17215     13.81421         0.003297     -0.000206     -0.001794
      4.17456      6.28491     13.81870        -0.000002     -0.003078     -0.001164
      2.08642      6.26204     11.68107         0.000469     -0.000403      0.002422
      4.17456      4.17409     11.70069        -0.000001      0.000161     -0.011089
      6.26183      0.00000      9.58728         0.011320     -0.003372      0.060336
      0.00000      2.08728      9.58728         0.000002     -0.013077      0.057972
      6.26183      2.08728      7.50000         0.003863     -0.004196     -0.563871
      0.00000      0.00000      7.50000         0.000002     -0.000106     -0.559706
      6.26733      8.34762     13.81269        -0.002712      0.000064      0.004170
      8.34911      2.08028     13.81301         0.000000      0.002783      0.003668
      6.26331      2.08508     11.67969        -0.000404      0.000397      0.002071
      8.34911      8.34819     11.67827        -0.000003     -0.000076      0.000906
      6.26183      4.17456      9.58728        -0.015628     -0.001024      0.086473
      0.00000      6.26183      9.58728         0.000006      0.009643      0.062812
      6.26183      6.26183      7.50000         0.004386      0.004071     -0.563986
      0.00000      4.17456      7.50000         0.000002      0.000026     -0.564487
      6.28604      4.17215     13.81421        -0.003298     -0.000202     -0.001797
      0.00000      6.26572     13.81242         0.000001     -0.002688      0.004729
      6.26269      6.26204     11.68107        -0.000469     -0.000399      0.002422
      8.34911      4.17377     11.67701         0.000006     -0.000152      0.000961
    total drift:                               -0.000019     -0.001621     -0.000942

  FREE ENERGIE OF THE ION-ELECTRON SYSTEM (eV)
  free  energy   TOTEN  =      -497.16760452 eV

  energy  without entropy=     -497.16760452  energy(sigma->0) =     -497.16760452