 vasp.6.3.0 20Jan22 (build Mar 11 2022 13:48:16) complex

 executed on             LinuxIFC date 2023.12.27  02:28:32

 INCAR:
   SYSTEM = MgO-rocksalt
   ISMEAR = 0
   SIGMA = 0.05
   EDIFF = 1E-6
   ALGO = ALL
   ISTART = 0
   IBRION = -1
   NSW = 0
   ISYM = 0
   DIPOL = 0.5 0.5 0.5
   IDIPOL = 3
   LDIPOL = .TRUE.
   LHFCALC = .TRUE.
   GGA = B5
   AEXX = 0.2
   AGGAX = 0.72
   AGGAC = 0.81
   ALDAC = 0.19
   IVDW = 1
   VDW_S6 = 1.05
   VDW_C6 = 0.63 0.70
   VDW_R0 = 1.243 1.342
   ENCUT = 520
   PREC = Accurate
   LASPH = .TRUE.
   LREAL = Auto
   ISPIN = 1
   NELM = 200
   NELMIN = 8
   NCORE = 2
   KPAR = 1
   LWAVE = .FALSE.
   LCHARG = .FALSE.

 POTCAR:    PAW_PBE Mg_pv 13Apr2007
 POTCAR:    PAW_PBE O 08Apr2002
|           W    W    AA    RRRRR   N    N  II  N    N   GGGG   !!!           |
|           W    W   A  A   R    R  NN   N  II  NN   N  G    G  !!!           |
|           W    W  A    A  R    R  N N  N  II  N N  N  G       !!!           |
|           W WW W  AAAAAA  RRRRR   N  N N  II  N  N N  G  GGG   !            |
|           WW  WW  A    A  R   R   N   NN  II  N   NN  G    G                |
|           W    W  A    A  R    R  N    N  II  N    N   GGGG   !!!           |
|     For optimal performance we recommend to set                             |
|       NCORE = 2 up to number-of-cores-per-socket                            |
|     This setting can greatly improve the performance of VASP for DFT.       |
|     The default, NCORE=1 might be grossly inefficient on modern             |
|     multi-core architectures or massively parallel machines. Do your        |
|     Unfortunately you need to use the default for GW and RPA                |
|     calculations (for HF NCORE is supported but not extensively tested      |
|     yet).                                                                   |

   TITEL  = PAW_PBE Mg_pv 13Apr2007
   POMASS =   24.305; ZVAL   =    8.000    mass and valenz
   ENMAX  =  403.929; ENMIN  =  302.947 eV

   TITEL  = PAW_PBE O 08Apr2002
   POMASS =   16.000; ZVAL   =    6.000    mass and valenz
   ENMAX  =  400.000; ENMIN  =  300.000 eV

 Optimization of the real space projectors (new method)

 maximal supplied QI-value         = 18.90
 optimisation between [QCUT,QGAM] = [ 11.53, 23.24] = [ 37.21,151.29] Ry
 Optimized for a Real-space Cutoff    1.28 Angstroem

   l    n(q)    QCUT    max X(q) W(low)/X(q) W(high)/X(q)  e(spline)
   1      8    11.527     2.974    0.44E-04    0.56E-04    0.12E-06
   1      8    11.527     4.279    0.12E-03    0.12E-03    0.26E-06
   0      9    11.527    16.381    0.46E-04    0.64E-04    0.78E-07
   0      9    11.527     5.611    0.26E-04    0.43E-04    0.55E-07
   2      8    11.527     4.652    0.22E-03    0.72E-04    0.47E-07
 Optimization of the real space projectors (new method)

 maximal supplied QI-value         = 24.76
 optimisation between [QCUT,QGAM] = [ 11.64, 23.27] = [ 37.91,151.63] Ry
 Optimized for a Real-space Cutoff    1.14 Angstroem

   l    n(q)    QCUT    max X(q) W(low)/X(q) W(high)/X(q)  e(spline)
   0      8    11.635    20.381    0.10E-03    0.33E-03    0.24E-06
   0      8    11.635    15.268    0.11E-03    0.35E-03    0.26E-06
   1      7    11.635     5.964    0.24E-03    0.31E-03    0.30E-06
   1      7    11.635     5.382    0.22E-03    0.25E-03    0.26E-06
|               ----> ADVICE to this user running VASP <----                  |
|     You enforced a specific xc type in the INCAR file but a different       |
|     type was found in the POTCAR file.                                      |
|     I HOPE YOU KNOW WHAT YOU ARE DOING!                                     |

  PAW_PBE Mg_pv 13Apr2007               :
  PAW_PBE O 08Apr2002                   :

 POSCAR: Mg  O
  positions in direct lattice
 exchange correlation table for  LEXCH =       12
   RHO(1)=    0.500       N(1)  =     2000
   RHO(2)=  100.500       N(2)  =     4000

 ion  position               nearest neighbor table
   1  0.125  0.000  0.351- 129 2.12 131 2.12 132 2.12 148 2.12 171 2.12
   2  0.250  0.125  0.351- 130 2.12 131 2.12 132 2.12 140 2.12 147 2.12
   3  0.125  0.125  0.450- 135 2.11 131 2.12 129 2.12 130 2.12 137 2.12 146 2.12
   4  0.250  0.000  0.450- 136 2.11 132 2.12 129 2.12 130 2.12 145 2.12 170 2.12
   5  0.125  0.000  0.550- 135 2.12 152 2.12 175 2.12 136 2.12 129 2.12 133 2.14
   6  0.250  0.125  0.550- 151 2.12 144 2.12 136 2.12 135 2.12 130 2.12 134 2.14
   7  0.125  0.125  0.648- 135 2.10 134 2.12 141 2.12 133 2.12 150 2.12
   8  0.250  0.000  0.648- 136 2.10 134 2.12 149 2.12 174 2.12 133 2.12
   9  0.125  0.250  0.351- 137 2.12 131 2.12 139 2.12 140 2.12 156 2.12
  10  0.250  0.375  0.351- 138 2.12 139 2.12 140 2.12 155 2.12 164 2.12
  11  0.125  0.375  0.450- 143 2.11 139 2.12 137 2.12 138 2.12 154 2.12 161 2.12
  12  0.250  0.250  0.450- 144 2.11 140 2.12 138 2.12 130 2.12 137 2.12 153 2.12
  13  0.125  0.250  0.550- 144 2.12 143 2.12 160 2.12 135 2.12 137 2.12 141 2.14
  14  0.250  0.375  0.550- 159 2.11 168 2.12 144 2.12 143 2.12 138 2.12 142 2.15
  15  0.125  0.375  0.648- 143 2.10 165 2.12 141 2.12 142 2.12 158 2.12
  16  0.250  0.250  0.648- 144 2.10 157 2.12 142 2.12 141 2.12 134 2.12
  17  0.375  0.000  0.351- 145 2.12 132 2.12 147 2.12 187 2.12 212 2.12
  18  0.000  0.125  0.351- 146 2.12 131 2.12 148 2.12 156 2.12 211 2.12
  19  0.375  0.125  0.450- 151 2.11 147 2.12 130 2.12 145 2.12 153 2.12 210 2.12
  20  0.000  0.000  0.450- 152 2.12 148 2.12 129 2.12 146 2.12 186 2.12 209 2.12
  21  0.375  0.000  0.550- 151 2.12 216 2.12 191 2.12 136 2.12 145 2.12 149 2.14
  22  0.000  0.125  0.550- 152 2.12 215 2.12 135 2.12 160 2.12 146 2.12 150 2.14
  23  0.375  0.125  0.648- 151 2.10 157 2.11 214 2.12 134 2.12 149 2.12
  24  0.000  0.000  0.648- 152 2.10 150 2.12 190 2.12 133 2.12 213 2.12
  25  0.375  0.250  0.351- 153 2.12 147 2.12 140 2.12 155 2.12 220 2.12
  26  0.000  0.375  0.351- 154 2.12 139 2.12 156 2.12 180 2.12 219 2.12
  27  0.375  0.375  0.450- 159 2.11 155 2.12 138 2.12 153 2.12 177 2.12 218 2.12
  28  0.000  0.250  0.450- 160 2.11 156 2.12 154 2.12 137 2.12 146 2.12 217 2.12
  29  0.375  0.250  0.550- 159 2.11 224 2.11 144 2.12 151 2.12 153 2.12 157 2.14
  30  0.000  0.375  0.550- 184 2.12 160 2.12 143 2.12 223 2.12 154 2.12 158 2.14
  31  0.376  0.375  0.648- 222 2.11 159 2.11 181 2.12 157 2.12 142 2.13
  32  0.000  0.250  0.648- 160 2.10 158 2.12 150 2.12 221 2.12 141 2.12
  33  0.125  0.500  0.351- 161 2.12 139 2.12 163 2.12 164 2.12 180 2.12
  34  0.250  0.625  0.351- 162 2.12 163 2.12 164 2.12 172 2.12 179 2.12
  35  0.125  0.625  0.450- 167 2.11 163 2.12 161 2.12 162 2.12 169 2.12 178 2.12
  36  0.250  0.500  0.450- 168 2.11 164 2.12 162 2.12 138 2.12 161 2.12 177 2.12
  37  0.125  0.500  0.550- 168 2.12 143 2.12 184 2.12 167 2.12 161 2.12 165 2.14
  38  0.250  0.625  0.550- 168 2.12 183 2.12 167 2.12 176 2.12 162 2.12 166 2.14
  39  0.125  0.625  0.648- 167 2.10 166 2.12 165 2.12 182 2.12 173 2.12
  40  0.250  0.500  0.647- 168 2.09 181 2.11 142 2.12 165 2.12 166 2.12
  41  0.125  0.750  0.351- 169 2.12 163 2.12 171 2.12 172 2.12 188 2.12
  42  0.250  0.875  0.351- 170 2.12 132 2.12 171 2.12 172 2.12 187 2.12
  43  0.125  0.875  0.450- 175 2.11 171 2.12 170 2.12 129 2.12 169 2.12 186 2.12
  44  0.250  0.750  0.450- 176 2.11 172 2.12 170 2.12 162 2.12 169 2.12 185 2.12
  45  0.125  0.750  0.550- 176 2.12 192 2.12 167 2.12 175 2.12 169 2.12 173 2.14
  46  0.250  0.875  0.550- 136 2.12 176 2.12 191 2.12 175 2.12 170 2.12 174 2.14
  47  0.125  0.875  0.648- 175 2.10 173 2.12 133 2.12 174 2.12 190 2.12
  48  0.250  0.750  0.648- 176 2.10 166 2.12 189 2.12 173 2.12 174 2.12
  49  0.375  0.500  0.351- 177 2.12 164 2.12 155 2.12 179 2.12 244 2.12
  50  0.000  0.625  0.351- 178 2.12 163 2.12 180 2.12 188 2.12 243 2.12
  51  0.375  0.625  0.450- 183 2.11 179 2.12 162 2.12 177 2.12 185 2.12 242 2.12
  52  0.000  0.500  0.450- 184 2.11 180 2.12 178 2.12 154 2.12 161 2.12 241 2.12
  53  0.375  0.500  0.550- 248 2.11 159 2.12 183 2.12 168 2.12 177 2.12 181 2.14
  54  0.000  0.625  0.550- 167 2.12 247 2.12 184 2.12 192 2.12 178 2.12 182 2.14
  55  0.375  0.625  0.647- 183 2.09 181 2.11 246 2.12 166 2.12 189 2.12
  56  0.000  0.500  0.648- 184 2.10 165 2.12 158 2.12 245 2.12 182 2.12
  57  0.375  0.750  0.351- 185 2.12 179 2.12 172 2.12 187 2.12 252 2.12
  58  0.000  0.875  0.351- 186 2.12 171 2.12 148 2.12 188 2.12 251 2.12
  59  0.375  0.875  0.450- 191 2.11 187 2.12 185 2.12 145 2.12 170 2.12 250 2.12
  60  0.000  0.750  0.450- 192 2.11 188 2.12 186 2.12 169 2.12 178 2.12 249 2.12
[...]
 242  0.500  0.625  0.450- 114 2.12  99 2.12  51 2.12 116 2.12 124 2.12 118 2.12
 243  0.875  0.625  0.351- 115 2.12  98 2.12 113 2.12  50 2.12 121 2.12
 244  0.500  0.500  0.351- 116 2.12  90 2.12  97 2.12 114 2.12  49 2.12
 245  0.875  0.500  0.650- 119 2.12  56 2.12  95 2.12 104 2.12 117 2.14
 246  0.500  0.625  0.650- 128 2.12 103 2.12  55 2.12 120 2.13 118 2.15
 247  0.875  0.625  0.549- 119 2.10 115 2.11  54 2.12 125 2.12 102 2.12 117 2.12
 248  0.500  0.500  0.549- 118 2.11 116 2.11  53 2.11 101 2.11 120 2.12  94 2.12
 249  0.875  0.750  0.450- 121 2.12 108 2.12 115 2.12  60 2.12 123 2.12 125 2.12
 250  0.500  0.875  0.450- 122 2.12  84 2.12 107 2.12  59 2.12 124 2.12 126 2.12
 251  0.875  0.875  0.351- 123 2.12  81 2.12 106 2.12 121 2.12  58 2.12
 252  0.500  0.750  0.351- 124 2.12 105 2.12 114 2.12 122 2.12  57 2.12
 253  0.875  0.750  0.650-  64 2.12 127 2.12 119 2.12 112 2.12 125 2.14
 254  0.500  0.875  0.650-  63 2.12 111 2.12 128 2.12  88 2.12 126 2.14
 255  0.875  0.875  0.549- 127 2.10 123 2.11  85 2.12  62 2.12 125 2.12 110 2.12
 256  0.500  0.750  0.549- 128 2.10 124 2.11  61 2.12 109 2.12 126 2.12 118 2.12

IMPORTANT INFORMATION: All symmetrisations will be switched off!
NOSYMM: (Re-)initialisation of all symmetry stuff for point group C_1.

                                     Primitive cell

  volume of cell :    6122.6422

  direct lattice vectors                    reciprocal lattice vectors
    16.934285261  0.000000000  0.000000000     0.059051798  0.000000000  0.000000000
     0.000000000 16.934285261  0.000000000     0.000000000  0.059051798  0.000000000
     0.000000000  0.000000000 21.350356973     0.000000000  0.000000000  0.046837624

  length of vectors
    16.934285261 16.934285261 21.350356973     0.059051798  0.059051798  0.046837624

  position of ions in fractional coordinates (direct lattice)
     0.125000000  0.000000000  0.351282183
     0.250000000  0.125000000  0.351282183
     0.125000000  0.125000000  0.450427394
     0.250000000  0.000000000  0.450427394
     0.125004042  0.000020434  0.549801351
     0.250028827  0.125029374  0.549784929
     0.125035931  0.125033884  0.647708193
     0.250031231  0.000035488  0.647695026
     0.125000000  0.250000000  0.351282183
     0.250000000  0.375000000  0.351282183
     0.125000000  0.375000000  0.450427394
     0.250000000  0.250000000  0.450427394
     0.125025442  0.250018872  0.549793535
     0.250157755  0.375022846  0.549797669
     0.125049235  0.375016777  0.647697132
     0.250097749  0.250085291  0.647615664
     0.375000000  0.000000000  0.351282183
[...]
   4.23361847 10.58382867 11.73721228
   2.11694994 10.58418441 13.82805410
   4.23454300  8.46712713 13.82389907
   2.11678566 12.70071395  7.50000000
   4.23357132 14.81749960  7.50000000
   2.11678566 14.81749960  9.61678566
   4.23357132 12.70071395  9.61678566
   2.11681534 12.70098031 11.73813739
   4.23373866 14.81785119 11.73828486
   2.11710822 14.81788456 13.82883287
   4.23362775 12.70078202 13.82815618
   6.35035697  8.46714263  7.50000000
   0.00000000 10.58392829  7.50000000
   6.35035697 10.58392829  9.61678566
   0.00000000  8.46714263  9.61678566
   6.35339272  8.46548284 11.73899334
   0.00017256 10.58401848 11.73801367
   6.35040409 10.58288550 13.82327014
   0.00016984  8.46721495 13.82813923
   6.35035697 12.70071395  7.50000000
   0.00000000 14.81749960  7.50000000
   6.35035697 14.81749960  9.61678566
   0.00000000 12.70071395  9.61678566
[...]
   8.46714263 10.58392829  9.61678566
  14.81749960 10.58392829  7.50000000
   8.46714263  8.46714263  7.50000000
  14.81759179  8.46756868 13.87927720
   8.46733918 10.58393790 13.88684581
  14.81815988 10.58444689 11.73011230
   8.46696291  8.47244708 11.72976043
  14.81749960 12.70071395  9.61678566
   8.46714263 14.81749960  9.61678566
  14.81749960 14.81749960  7.50000000
   8.46714263 12.70071395  7.50000000
  14.81825369 12.70143515 13.87950151
   8.46722505 14.81743474 13.87999378
  14.81791888 14.81798347 11.73050523
   8.46710930 12.70039554 11.73085358

--------------------------------------- Iteration      FINAL  ---------------------------------------

--------------------OUTCAR has been truncated-------------------------

[...]

--------------------OUTCAR has been truncated-------------------------

  DFT-D2 method for vdW energy calculation

  Parameters of vdW forcefield:
         C6(Jnm^6/mol)     R0(A)
   Mg       0.630          1.243
   O        0.700          1.342

  vdW correction parametrized for the method           

  IVDW =   1
  VDW_RADIUS =    50.000 A
  VDW_S6 =     1.050
  VDW_SR =     1.000
  VDW_D =    20.000
  LVDW_EWALD = F

  Number of pair interactions contributing to vdW energy: 2843204
  Edisp (eV):  -20.12513

 VOLUME and BASIS-vectors are now :
  energy-cutoff  :      520.00
  volume of cell :     6122.64
      direct lattice vectors                 reciprocal lattice vectors
    16.934285261  0.000000000  0.000000000     0.059051798  0.000000000  0.000000000
     0.000000000 16.934285261  0.000000000     0.000000000  0.059051798  0.000000000
     0.000000000  0.000000000 21.350356973     0.000000000  0.000000000  0.046837624

  length of vectors
    16.934285261 16.934285261 21.350356973     0.059051798  0.059051798  0.046837624

 FORCES acting on ions:
    Electron-Ion                     Ewald-Force                    Non-Local-Force
   0.114E-01 -.203E-01 0.206E+04   -.140E-01 0.181E-01 -.205E+04   0.136E-02 0.156E-02 -.638E+01
   0.718E-01 0.544E-01 0.206E+04   -.754E-01 -.578E-01 -.205E+04   0.246E-02 0.209E-02 -.638E+01
   0.485E-01 0.137E-02 0.682E+03   -.543E-01 -.524E-02 -.683E+03   0.405E-02 0.283E-02 0.316E+00
   0.303E-01 0.440E-02 0.682E+03   -.354E-01 -.989E-02 -.683E+03   0.343E-02 0.387E-02 0.306E+00
   -.852E-01 -.851E-01 -.686E+03   0.832E-01 0.802E-01 0.687E+03   0.223E-02 0.262E-02 -.234E+00
   0.232E+00 0.858E-01 -.687E+03   -.240E+00 -.990E-01 0.687E+03   -.142E-02 0.420E-02 -.209E+00
   0.257E-02 -.780E-01 -.204E+04   0.262E-02 0.868E-01 0.204E+04   -.615E-02 -.754E-02 0.543E+01
   -.696E-01 0.358E-01 -.204E+04   0.778E-01 -.291E-01 0.204E+04   -.707E-02 -.771E-02 0.542E+01
   0.598E-01 0.440E-01 0.206E+04   -.627E-01 -.458E-01 -.205E+04   0.180E-02 0.128E-02 -.638E+01
   0.152E+00 0.551E-01 0.206E+04   -.159E+00 -.556E-01 -.205E+04   0.533E-02 0.485E-03 -.638E+01
   0.137E+00 0.160E+00 0.682E+03   -.128E+00 -.162E+00 -.682E+03   -.503E-02 0.132E-02 0.321E+00
   0.259E+00 0.191E+00 0.682E+03   -.265E+00 -.188E+00 -.683E+03   0.469E-02 -.205E-02 0.335E+00
   0.149E+00 -.225E-01 -.687E+03   -.161E+00 0.255E-01 0.687E+03   0.375E-02 -.415E-02 -.223E+00
   0.160E+01 0.284E+00 -.688E+03   -.153E+01 -.291E+00 0.688E+03   -.977E-01 0.374E-02 -.134E+00
   -.745E-01 0.402E-01 -.204E+04   0.518E-01 -.384E-01 0.204E+04   0.143E-01 -.121E-02 0.542E+01
   0.432E+00 -.681E-02 -.204E+04   -.498E+00 0.266E-01 0.204E+04   0.306E-01 -.234E-01 0.541E+01
   0.273E-01 0.427E-01 0.206E+04   -.286E-01 -.459E-01 -.205E+04   0.130E-02 0.219E-02 -.638E+01
   -.167E-01 0.182E-02 0.206E+04   0.167E-01 -.483E-02 -.205E+04   0.171E-05 0.175E-02 -.638E+01
   0.196E+00 0.226E+00 0.682E+03   -.196E+00 -.231E+00 -.683E+03   -.384E-03 0.378E-02 0.326E+00
   -.403E-01 -.676E-01 0.682E+03   0.411E-01 0.656E-01 -.682E+03   -.468E-03 0.144E-02 0.331E+00
   0.178E-01 0.226E+00 -.686E+03   -.150E-01 -.235E+00 0.687E+03   -.559E-02 0.398E-03 -.231E+00
   -.407E-01 -.192E+00 -.686E+03   0.402E-01 0.187E+00 0.687E+03   0.564E-03 0.604E-02 -.235E+00
   -.178E-01 0.461E+00 -.204E+04   0.383E-01 -.524E+00 0.203E+04   -.224E-01 0.291E-01 0.540E+01
   -.150E-01 -.995E-01 -.204E+04   0.144E-01 0.985E-01 0.204E+04   0.258E-03 0.164E-03 0.545E+01
   0.129E+00 0.129E+00 0.206E+04   -.135E+00 -.135E+00 -.205E+04   0.388E-02 0.355E-02 -.638E+01
   -.715E-02 0.603E-01 0.206E+04   0.681E-02 -.603E-01 -.205E+04   0.228E-03 0.391E-03 -.638E+01
   0.164E+00 0.238E-01 0.683E+03   -.218E+00 -.240E-01 -.684E+03   0.363E-01 0.184E-03 0.296E+00
   -.148E-01 0.165E-01 0.682E+03   0.170E-01 -.204E-01 -.683E+03   -.128E-02 0.260E-02 0.306E+00
   0.115E+01 0.108E+01 -.687E+03   -.116E+01 -.107E+01 0.687E+03   -.160E-01 -.302E-01 -.113E+00
   0.758E-02 0.186E+00 -.687E+03   -.574E-02 -.191E+00 0.687E+03   -.122E-02 0.292E-02 -.243E+00
   0.338E+01 0.214E+00 -.205E+04   -.377E+01 -.271E+00 0.204E+04   0.158E+00 0.300E-01 0.566E+01
   0.278E-01 -.267E-01 -.204E+04   -.311E-01 0.313E-01 0.204E+04   0.215E-02 -.380E-02 0.542E+01
   0.620E-01 0.367E-01 0.206E+04   -.655E-01 -.353E-01 -.205E+04   0.212E-02 -.101E-02 -.638E+01
   0.431E-01 -.645E-01 0.206E+04   -.463E-01 0.686E-01 -.205E+04   0.220E-02 -.297E-02 -.638E+01
   0.671E-01 -.462E-01 0.682E+03   -.766E-01 0.555E-01 -.683E+03   0.648E-02 -.605E-02 0.308E+00
   0.930E-01 0.154E-03 0.683E+03   -.994E-01 -.329E-02 -.683E+03   0.547E-02 0.189E-02 0.304E+00
   0.383E+00 0.213E+00 -.686E+03   -.386E+00 -.219E+00 0.686E+03   -.538E-02 0.640E-02 -.223E+00
   0.162E+00 -.351E+00 -.686E+03   -.189E+00 0.365E+00 0.686E+03   0.142E-01 -.204E-02 -.195E+00
   0.107E+00 0.823E-01 -.204E+04   -.980E-01 -.908E-01 0.204E+04   -.102E-01 0.699E-02 0.543E+01
   0.961E+00 0.152E+00 -.204E+04   -.103E+01 -.169E+00 0.203E+04   0.192E-01 0.191E-01 0.540E+01
   0.845E-04 -.602E-01 0.206E+04   -.251E-02 0.630E-01 -.205E+04   0.149E-02 -.192E-02 -.638E+01
   0.649E-02 -.446E-01 0.206E+04   -.921E-02 0.447E-01 -.205E+04   0.188E-02 0.954E-04 -.638E+01
   -.198E-01 -.982E-01 0.682E+03   0.176E-01 0.998E-01 -.683E+03   0.171E-02 -.107E-02 0.310E+00
   0.637E-02 -.175E+00 0.682E+03   -.130E-01 0.187E+00 -.683E+03   0.451E-02 -.761E-02 0.316E+00
   -.788E-01 -.156E+00 -.686E+03   0.699E-01 0.158E+00 0.687E+03   0.594E-02 -.864E-04 -.225E+00
   -.995E-01 -.711E-01 -.687E+03   0.930E-01 0.720E-01 0.687E+03   0.449E-02 -.672E-03 -.225E+00
   -.119E+00 -.280E-01 -.204E+04   0.116E+00 0.268E-01 0.204E+04   0.147E-02 0.106E-02 0.543E+01
   -.134E+00 -.203E+00 -.204E+04   0.144E+00 0.186E+00 0.204E+04   -.739E-02 0.178E-01 0.543E+01
   0.906E-01 -.768E-01 0.206E+04   -.951E-01 0.822E-01 -.205E+04   0.331E-02 -.364E-02 -.638E+01
   -.206E-01 -.433E-02 0.206E+04   0.204E-01 0.735E-02 -.205E+04   0.112E-03 -.242E-02 -.638E+01
   0.280E-01 -.149E+00 0.683E+03   -.215E-01 0.160E+00 -.683E+03   -.433E-02 -.757E-02 0.318E+00
   -.407E-01 0.158E+00 0.682E+03   0.420E-01 -.154E+00 -.683E+03   -.575E-03 -.233E-02 0.327E+00
   0.802E+00 -.825E+00 -.687E+03   -.762E+00 0.823E+00 0.687E+03   -.614E-01 0.242E-01 -.189E+00
   -.456E-01 0.599E-01 -.686E+03   0.439E-01 -.470E-01 0.687E+03   0.108E-02 -.871E-02 -.231E+00
   -.446E+00 -.778E+00 -.204E+04   0.432E+00 0.869E+00 0.203E+04   0.705E-02 -.380E-01 0.540E+01
   0.234E-01 0.565E-01 -.204E+04   -.286E-01 -.611E-01 0.204E+04   0.315E-02 0.433E-02 0.545E+01
   0.132E-01 -.948E-01 0.206E+04   -.144E-01 0.982E-01 -.205E+04   0.109E-02 -.235E-02 -.638E+01
   -.209E-01 -.574E-01 0.206E+04   0.207E-01 0.576E-01 -.205E+04   0.186E-03 0.166E-03 -.638E+01
   -.183E-01 -.836E-01 0.682E+03   0.153E-01 0.854E-01 -.683E+03   0.191E-02 -.101E-02 0.313E+00
   -.376E-01 -.993E-01 0.682E+03   0.385E-01 0.105E+00 -.683E+03   -.505E-03 -.369E-02 0.301E+00
[...]
   -.447E-01 -.147E-01 0.154E+04   0.468E-01 0.168E-01 -.155E+04   -.213E-03 -.507E-02 0.314E+01
   0.670E-02 -.650E-01 0.154E+04   -.671E-02 0.725E-01 -.155E+04   0.200E-04 -.924E-02 0.314E+01
   0.772E-01 0.717E-01 -.155E+04   -.812E-01 -.668E-01 0.156E+04   0.368E-03 -.669E-02 -.488E+01
   0.544E-02 0.105E+01 -.156E+04   -.711E-02 -.105E+01 0.156E+04   0.163E-02 -.427E-01 -.488E+01
   -.454E-01 -.139E-02 -.508E+03   0.470E-01 -.142E-02 0.508E+03   -.515E-02 -.436E-03 0.318E+00
   -.217E-01 -.561E+00 -.510E+03   0.278E-01 0.554E+00 0.509E+03   -.404E-02 -.379E-01 0.197E+00
   -.305E-01 -.101E+00 0.511E+03   0.325E-01 0.101E+00 -.511E+03   -.585E-03 0.517E-03 -.703E-01
   0.497E-01 -.661E-01 0.511E+03   -.491E-01 0.627E-01 -.511E+03   -.676E-03 0.164E-02 -.687E-01
   -.223E-01 -.404E-01 0.154E+04   0.236E-01 0.403E-01 -.155E+04   0.797E-03 0.253E-02 0.313E+01
   0.227E-01 -.765E-01 0.154E+04   -.227E-01 0.774E-01 -.155E+04   -.538E-04 -.110E-02 0.313E+01
   0.130E+00 0.620E-01 -.155E+04   -.137E+00 -.683E-01 0.156E+04   0.621E-02 0.511E-02 -.484E+01
   -.150E-01 -.140E-01 -.155E+04   0.162E-01 0.151E-01 0.156E+04   -.121E-02 -.721E-03 -.485E+01
   0.592E-01 -.198E-01 -.508E+03   -.584E-01 0.185E-01 0.508E+03   -.135E-02 0.158E-02 0.322E+00
   0.769E-01 0.347E+00 -.508E+03   -.736E-01 -.369E+00 0.508E+03   -.329E-02 0.103E-01 0.343E+00
   -.585E-01 -.987E-01 0.809E+02   -.156E-11 0.568E-12 0.949E-11   0.536E-01 0.962E-01 -.713E+02

 POSITION                                       TOTAL-FORCE (eV/Angst)
      2.11679      0.00000      7.50000        -0.000635     -0.000520      0.506884
      4.23357      2.11679      7.50000        -0.000833     -0.000533      0.506873
      2.11679      2.11679      9.61679        -0.001366     -0.000915      0.003380
      4.23357      0.00000      9.61679        -0.001213     -0.001202      0.002326
      2.11685      0.00035     11.73846         0.000484     -0.001952      0.002386
      4.23406      2.11728     11.73810        -0.008268     -0.007785      0.002775
      2.11739      2.11736     13.82880        -0.001896      0.000038      0.000964
      4.23410      0.00060     13.82852         0.000130     -0.001725      0.000704
      2.11679      4.23357      7.50000        -0.000325     -0.000362      0.507261
      4.23357      6.35036      7.50000        -0.001599     -0.000461      0.507111
      2.11679      6.35036      9.61679         0.002316     -0.000653      0.004113
      4.23357      4.23357      9.61679        -0.000946      0.001003      0.000555
      2.11722      4.23389     11.73829        -0.007206     -0.001441      0.003540
      4.23624      6.35074     11.73838        -0.028010     -0.002730      0.000459
      2.11762      6.35064     13.82856        -0.006888      0.000765      0.008499
      4.23523      4.23502     13.82683        -0.030278     -0.005594      0.020451
      6.35036      0.00000      7.50000        -0.000286     -0.000720      0.507406
      0.00000      2.11679      7.50000         0.000006     -0.000726      0.507738
      6.35036      2.11679      9.61679         0.000225     -0.000394      0.000190
      0.00000      0.00000      9.61679         0.000271     -0.000396      0.003241
      6.35079      0.00056     11.73824        -0.003119     -0.008317      0.003932
      0.00017      2.11681     11.73849         0.000130      0.001506      0.002350
      6.35165      2.11844     13.82635        -0.003303     -0.029634      0.021927
      0.00023      0.00044     13.82900        -0.000176     -0.000649     -0.002685
      6.35036      4.23357      7.50000        -0.001658     -0.001282      0.506348
      0.00000      6.35036      7.50000        -0.000082     -0.000017      0.507026
      6.35036      6.35036      9.61679        -0.012580      0.000063     -0.013905
      0.00000      4.23357      9.61679         0.000670     -0.001021      0.002581
      6.35238      4.23604     11.73848        -0.023604     -0.024604     -0.024286
      0.00011      6.35043     11.73857         0.000508     -0.001951      0.004158
      6.36051      6.35235     13.83395        -0.196816     -0.021706     -0.131730
      0.00018      4.23390     13.82862        -0.000866      0.000254      0.000174
      2.11679      8.46714      7.50000        -0.000790      0.000268      0.507277
      4.23357     10.58393      7.50000        -0.000768      0.001235      0.506603
      2.11679     10.58393      9.61679        -0.002398      0.002340      0.001386
      4.23357      8.46714      9.61679        -0.000434     -0.001040     -0.001992
      2.11685      8.46707     11.73760        -0.007738      0.001270      0.005964
      4.23362     10.58383     11.73721        -0.011103      0.011041      0.002049
      2.11695     10.58418     13.82805        -0.002695     -0.001110      0.001726
      4.23454      8.46713     13.82390        -0.044719      0.003450      0.031289
      2.11679     12.70071      7.50000        -0.000260      0.000607      0.506900
      4.23357     14.81750      7.50000        -0.000626     -0.000341      0.507612
      2.11679     14.81750      9.61679        -0.000448      0.000564      0.003782
      4.23357     12.70071      9.61679        -0.001607      0.003091      0.002230
      2.11682     12.70098     11.73814        -0.002131      0.002139      0.001887
      4.23374     14.81785     11.73828        -0.001420      0.000060      0.001937
      2.11711     14.81788     13.82883        -0.000989      0.000313     -0.003511
      4.23363     12.70078     13.82816         0.001426      0.002110      0.002491
      6.35036      8.46714      7.50000        -0.001083      0.001297      0.506379
      0.00000     10.58393      7.50000        -0.000040      0.000648      0.507817
      6.35036     10.58393      9.61679         0.001859      0.001892     -0.002334
      0.00000      8.46714      9.61679         0.000593      0.000787      0.000618
      6.35339      8.46548     11.73899        -0.024798      0.022302     -0.036628
      0.00017     10.58402     11.73801        -0.000389      0.003228      0.003554
      6.35040     10.58289     13.82327        -0.005257      0.044905      0.034470
      0.00017      8.46721     13.82814        -0.001595      0.000121      0.002362
      6.35036     12.70071      7.50000        -0.000546      0.000704      0.507267
      0.00000     14.81750      7.50000        -0.000029      0.000016      0.508053
      6.35036     14.81750      9.61679        -0.000695      0.000776      0.002831
      0.00000     12.70071      9.61679         0.000280      0.001466      0.002508
[...]
      8.46714     10.58393      9.61679        -0.000938      0.001533      0.014928
     14.81750     10.58393      7.50000         0.001517     -0.003351     -0.391943
      8.46714      8.46714      7.50000         0.000009     -0.003095     -0.392265
     14.81759      8.46757     13.87928        -0.003603     -0.002659     -0.154052
      8.46734     10.58394     13.88685         0.000175     -0.054527     -0.171570
     14.81816     10.58445     11.73011        -0.004507     -0.003376      0.003694
      8.46696      8.47245     11.72976         0.001618     -0.051727      0.054304
     14.81750     12.70071      9.61679         0.000930      0.000161      0.018299
      8.46714     14.81750      9.61679        -0.000230     -0.001174      0.019931
     14.81750     14.81750      7.50000         0.001876      0.002400     -0.392487
      8.46714     12.70071      7.50000        -0.000040     -0.000353     -0.394028
     14.81825     12.70144     13.87950         0.000041     -0.000688     -0.142538
      8.46723     14.81743     13.87999        -0.000177      0.000459     -0.146146
     14.81792     14.81798     11.73051        -0.001134      0.000094      0.005063
      8.46711     12.70040     11.73085        -0.000485     -0.011153      0.007002
    total drift:                                0.000466      0.006610     -0.176148

  FREE ENERGIE OF THE ION-ELECTRON SYSTEM (eV)
  free  energy   TOTEN  =     -1752.91230296 eV

  energy  without entropy=    -1752.91230296  energy(sigma->0) =    -1752.91230296