 vasp.6.3.0 20Jan22 (build Apr  1 2022 16:44:48) complex
 executed on        HPECrayEX_GCC date 2023.01.23  22:16:59

 INCAR:
   SYSTEM = MgO-rocksalt
   ISMEAR = 0
   SIGMA = 0.05
   EDIFF = 1E-8
   ALGO = ALL
   ISTART = 0
   IBRION = 5
   POTIM = 0.01
   NFREE = 2
   ISYM = 0
   DIPOL = 0.5 0.5 0.5
   IDIPOL = 3
   LDIPOL = .TRUE.
   GGA = MK
   LUSE_VDW = .TRUE.
   PARAM1 = 0.1234
   PARAM2 = 0.711357
   ZAB_VDW = -1.8867
   AGGAC = 0.0
   ENCUT = 600
   PREC = Accurate
   LASPH = .TRUE.
   LREAL = .FALSE.
   ISPIN = 1
   NELM = 200
   NELMIN = 8
   NCORE = 8
   KPAR = 1
   LWAVE = .FALSE.
   LCHARG = .FALSE.

 POTCAR:    PAW_PBE C 08Apr2002
 POTCAR:    PAW_PBE O 08Apr2002
 POTCAR:    PAW_PBE H 15Jun2001
 POTCAR:    PAW_PBE Mg_pv 13Apr2007
 POTCAR:    PAW_PBE O 08Apr2002
|               ----> ADVICE to this user running VASP <----                  |
|     You have switched on vdW-DFT.                                           |
|     This routine was written and supplied by Jiri Klimes. We recommend      |
|     that you carefully read and cite the following publications:            |
|       J. Klimes, D.R. Bowler, A. Michelides                                 |
|          J. Phys.: Cond Matt. 22 022201 (2010)                              |
|       J. Klimes, D.R. Bowler, A. Michelides                                 |
|          Phys. Rev. B. 83, 195131 (2011)                                    |
|     and references therein.                                                 |

   TITEL  = PAW_PBE C 08Apr2002
   POMASS =   12.011; ZVAL   =    4.000    mass and valenz
   ENMAX  =  400.000; ENMIN  =  300.000 eV

[...]

   TITEL  = PAW_PBE H 15Jun2001
   POMASS =    1.000; ZVAL   =    1.000    mass and valenz
   ENMAX  =  250.000; ENMIN  =  200.000 eV

   TITEL  = PAW_PBE Mg_pv 13Apr2007
   POMASS =   24.305; ZVAL   =    8.000    mass and valenz
   ENMAX  =  403.929; ENMIN  =  302.947 eV

   TITEL  = PAW_PBE O 08Apr2002
   POMASS =   16.000; ZVAL   =    6.000    mass and valenz
   ENMAX  =  400.000; ENMIN  =  300.000 eV

  PAW_PBE C 08Apr2002                   :
  PAW_PBE O 08Apr2002                   :
  PAW_PBE H 15Jun2001                   :
  PAW_PBE Mg_pv 13Apr2007               :
  PAW_PBE O 08Apr2002                   :

 POSCAR:  C  O  H Mg  O
  positions in direct lattice
 exchange correlation table for  LEXCH =       43
   RHO(1)=    0.500       N(1)  =     2000
   RHO(2)=  100.500       N(2)  =     4000

 ion  position               nearest neighbor table
   1  0.500  0.424  0.797-   3 1.10   5 1.11   6 1.11   2 1.43
   2  0.500  0.261  0.779-   4 1.00   1 1.43
   3  0.500  0.428  0.849-   1 1.10
   4  0.500  0.257  0.732-   2 1.00
   5  0.607  0.487  0.781-   1 1.11
   6  0.393  0.487  0.781-   1 1.11
   7  0.250  0.000  0.352-  39 2.11  41 2.11  42 2.11  49 2.11  58 2.11
   8  0.500  0.250  0.352-  40 2.11  41 2.11  42 2.11  50 2.11  57 2.11
   9  0.250  0.250  0.451-  41 2.11  40 2.11  39 2.11  47 2.11  56 2.11  45 2.12
  10  0.500  0.000  0.451-  42 2.11  40 2.11  39 2.11  48 2.11  55 2.11  46 2.12
  11  0.250  0.000  0.550-  62 2.11  46 2.11  53 2.11  45 2.11  39 2.12  43 2.13
  12  0.500  0.250  0.550-  46 2.11  45 2.11  61 2.11  54 2.11  40 2.12  44 2.16
  13  0.248  0.250  0.649-  60 2.09  43 2.11  45 2.11  51 2.11  44 2.13
  14  0.500  0.998  0.649-  52 2.09  46 2.11  59 2.11  43 2.11  44 2.13
  15  0.250  0.500  0.352-  47 2.11  41 2.11  49 2.11  50 2.11  66 2.11
  16  0.500  0.750  0.352-  48 2.11  42 2.11  49 2.11  50 2.11  65 2.11
  17  0.250  0.750  0.451-  49 2.11  47 2.11  48 2.11  39 2.11  64 2.11  53 2.11
  18  0.500  0.500  0.451-  50 2.11  47 2.11  48 2.11  40 2.11  63 2.11  54 2.12
  19  0.250  0.500  0.550-  70 2.11  45 2.11  53 2.11  54 2.11  47 2.12  51 2.13
  20  0.500  0.750  0.550-  53 2.11  69 2.11  46 2.11  54 2.11  48 2.12  52 2.13
  21  0.250  0.750  0.649-  68 2.11  53 2.11  43 2.11  51 2.11  52 2.11
  22  0.500  0.503  0.648-  52 2.08  54 2.10  51 2.11  67 2.11  44 2.14
  23  0.750  0.000  0.352-  55 2.11  42 2.11  57 2.11  58 2.11  65 2.11
  24  0.000  0.250  0.352-  56 2.11  41 2.11  57 2.11  58 2.11  66 2.11
  25  0.750  0.250  0.451-  57 2.11  55 2.11  56 2.11  40 2.11  63 2.11  61 2.12
  26  0.000  0.000  0.451-  58 2.11  55 2.11  56 2.11  39 2.11  64 2.11  62 2.11
  27  0.750  0.000  0.550-  62 2.11  46 2.11  69 2.11  61 2.11  55 2.12  59 2.13
  28  0.000  0.250  0.550-  70 2.11  62 2.11  45 2.11  61 2.11  56 2.12  60 2.13
  29  0.752  0.250  0.649-  60 2.09  59 2.11  61 2.11  67 2.11  44 2.13
  30  1.000  1.000  0.649-  68 2.11  62 2.11  59 2.11  43 2.11  60 2.11
  31  0.750  0.500  0.352-  63 2.11  57 2.11  50 2.11  65 2.11  66 2.11
  32  0.000  0.750  0.352-  64 2.11  58 2.11  49 2.11  65 2.11  66 2.11
  33  0.750  0.750  0.451-  65 2.11  55 2.11  63 2.11  64 2.11  48 2.11  69 2.11
  34  0.000  0.500  0.451-  66 2.11  56 2.11  63 2.11  64 2.11  47 2.11  70 2.12
  35  0.750  0.500  0.550-  70 2.11  61 2.11  69 2.11  54 2.11  63 2.12  67 2.13
  36  0.000  0.750  0.550-  62 2.11  53 2.11  69 2.11  70 2.11  64 2.12  68 2.14
  37  0.750  0.750  0.649-  68 2.11  69 2.11  59 2.11  67 2.11  52 2.11
  38  0.000  0.501  0.649-  68 2.11  70 2.11  51 2.11  67 2.11  60 2.11
  39  0.250  0.000  0.451-   7 2.11   9 2.11  10 2.11  17 2.11  26 2.11  11 2.12
  40  0.500  0.250  0.451-   8 2.11   9 2.11  10 2.11  18 2.11  25 2.11  12 2.12
  41  0.250  0.250  0.352-   9 2.11   8 2.11   7 2.11  15 2.11  24 2.11
  42  0.500  0.000  0.352-  10 2.11   8 2.11   7 2.11  16 2.11  23 2.11
  43  0.250  0.000  0.650-  13 2.11  14 2.11  21 2.11  30 2.11  11 2.13
  44  0.500  0.250  0.651-  13 2.13  29 2.13  14 2.13  22 2.14  12 2.16
  45  0.250  0.250  0.550-  12 2.11  13 2.11  19 2.11  11 2.11  28 2.11   9 2.12
  46  0.500  0.001  0.550-  14 2.11  12 2.11  11 2.11  27 2.11  20 2.11  10 2.12
  47  0.250  0.500  0.451-  15 2.11   9 2.11  17 2.11  18 2.11  34 2.11  19 2.12
  48  0.500  0.750  0.451-  16 2.11  10 2.11  17 2.11  18 2.11  33 2.11  20 2.12
  49  0.250  0.750  0.352-  17 2.11  15 2.11  16 2.11   7 2.11  32 2.11
  50  0.500  0.500  0.352-  18 2.11  15 2.11  16 2.11   8 2.11  31 2.11
  51  0.250  0.500  0.650-  22 2.11  13 2.11  38 2.11  21 2.11  19 2.13
  52  0.500  0.750  0.650-  22 2.08  14 2.09  37 2.11  21 2.11  20 2.13
  53  0.250  0.750  0.550-  21 2.11  19 2.11  20 2.11  36 2.11  11 2.11  17 2.11
  54  0.500  0.500  0.550-  22 2.10  12 2.11  35 2.11  19 2.11  20 2.11  18 2.12
  55  0.750  0.000  0.451-  23 2.11  10 2.11  25 2.11  26 2.11  33 2.11  27 2.12
  56  0.000  0.250  0.451-  24 2.11   9 2.11  25 2.11  26 2.11  34 2.11  28 2.12
  57  0.750  0.250  0.352-  25 2.11  23 2.11  24 2.11   8 2.11  31 2.11
  58  0.000  0.000  0.352-  26 2.11  23 2.11  24 2.11   7 2.11  32 2.11
  59  0.750  0.000  0.650-  29 2.11  14 2.11  37 2.11  30 2.11  27 2.13
  60  1.000  0.250  0.650-  29 2.09  13 2.09  38 2.11  30 2.11  28 2.13
  61  0.750  0.250  0.550-  12 2.11  29 2.11  35 2.11  27 2.11  28 2.11  25 2.12
  62  0.000  0.000  0.550-  11 2.11  27 2.11  28 2.11  30 2.11  36 2.11  26 2.11
  63  0.750  0.500  0.451-  31 2.11  25 2.11  18 2.11  33 2.11  34 2.11  35 2.12
  64  0.000  0.750  0.451-  32 2.11  26 2.11  17 2.11  33 2.11  34 2.11  36 2.12
  65  0.750  0.750  0.352-  33 2.11  23 2.11  31 2.11  32 2.11  16 2.11
  66  0.000  0.500  0.352-  34 2.11  24 2.11  31 2.11  32 2.11  15 2.11
  67  0.750  0.500  0.650-  22 2.11  29 2.11  38 2.11  37 2.11  35 2.13
  68  1.000  0.750  0.650-  37 2.11  21 2.11  38 2.11  30 2.11  36 2.14
  69  0.750  0.750  0.550-  37 2.11  35 2.11  20 2.11  36 2.11  27 2.11  33 2.11
  70  1.000  0.500  0.550-  35 2.11  19 2.11  38 2.11  28 2.11  36 2.11  34 2.12

IMPORTANT INFORMATION: All symmetrisations will be switched off!
NOSYMM: (Re-)initialisation of all symmetry stuff for point group C_1.

                                     Primitive cell

  volume of cell :    1519.6535

  direct lattice vectors                    reciprocal lattice vectors
     8.440582262  0.000000000  0.000000000     0.118475239  0.000000000  0.000000000
     0.000000000  8.440582262  0.000000000     0.000000000  0.118475239  0.000000000
     0.000000000  0.000000000 21.330436697     0.000000000  0.000000000  0.046881366

  length of vectors
     8.440582262  8.440582262 21.330436697     0.118475239  0.118475239  0.046881366

  position of ions in fractional coordinates (direct lattice)
     0.500007950  0.423538946  0.797305998
     0.499997293  0.261322271  0.778749189
     0.499999098  0.427712657  0.848792037
     0.499999728  0.257003410  0.731858941
     0.606865213  0.487367829  0.780560956
     0.393128610  0.487371186  0.780560438
     0.250000000  0.000000000  0.351610242
     0.500000000  0.250000000  0.351610242
     0.250000000  0.250000000  0.450536747
     0.500000000  0.000000000  0.450536747
     0.249947257  0.000140630  0.550034656
     0.499999962  0.250114921  0.549873617
     0.247651587  0.249886623  0.648653702
     0.500000010  0.997796352  0.648513959
     0.250000000  0.500000000  0.351610242
     0.500000000  0.750000000  0.351610242
     0.250000000  0.750000000  0.450536747
     0.500000000  0.500000000  0.450536747
     0.249818180  0.500105696  0.550057229
     0.499999954  0.750344835  0.549815484
     0.249550492  0.750422058  0.648546005
     0.500000003  0.503365070  0.647999862
     0.750000000  0.000000000  0.351610242
     0.000000000  0.250000000  0.351610242
     0.750000000  0.250000000  0.450536747
     0.000000000  0.000000000  0.450536747
     0.750052717  0.000140607  0.550034637
     0.000000043  0.250149466  0.549909637
     0.752348417  0.249886561  0.648653600
     0.999999966  0.999884218  0.648582637
     0.750000000  0.500000000  0.351610242
     0.000000000  0.750000000  0.351610242
     0.750000000  0.750000000  0.450536747
     0.000000000  0.500000000  0.450536747
     0.750181805  0.500105729  0.550057181
     0.000000004  0.750147592  0.549979124
     0.750449460  0.750422116  0.648545999
     0.000000041  0.500549134  0.648586276
     0.250000000  0.000000000  0.450536747
     0.500000000  0.250000000  0.450536747
     0.250000000  0.250000000  0.351610242
     0.500000000  0.000000000  0.351610242
     0.250216116  0.000284277  0.649751112
     0.499999995  0.250475063  0.651274809
     0.250424837  0.250246866  0.549841910
     0.499999947  0.000573106  0.549787672
     0.250000000  0.500000000  0.450536747
     0.500000000  0.750000000  0.450536747
     0.250000000  0.750000000  0.351610242
     0.500000000  0.500000000  0.351610242
     0.250194782  0.500035773  0.650078286
     0.499999992  0.750297672  0.649771502
     0.250039447  0.750036329  0.549674223
     0.500000007  0.499790244  0.549780438
     0.750000000  0.000000000  0.450536747
     0.000000000  0.250000000  0.450536747
     0.750000000  0.250000000  0.351610242
     0.000000000  0.000000000  0.351610242
     0.749783882  0.000284228  0.649751073
     0.999999991  0.250260896  0.649879826
     0.749575172  0.250246927  0.549841906
     0.000000042  0.000172639  0.549660549
     0.750000000  0.500000000  0.450536747
     0.000000000  0.750000000  0.450536747
     0.750000000  0.750000000  0.351610242
[...]
  5Z    -5.994393   -3.290455    7.249803    0.872523    0.760790   -0.632737   -2.543874   -1.230793    0.899014    0.122537    0.007665   -0.054525    6.589075    3.342819   -7.040471    0.966468    0.406489   -0.434264
  6X    19.371498   -7.500759    6.201974   -0.738893   -0.514651   -0.523363   -0.014163    0.082230   -0.015817   -0.073435   -0.041943    0.123189    2.006783   -0.944790    0.967542  -20.688233    8.937183   -6.585383
  6Y    -7.305781    8.027826   -3.173861   -2.460739    3.270388   -0.153256   -0.100243   -0.109415   -0.140830    0.044209   -0.087708   -0.353641    0.944112   -0.781403    0.406018    8.931222  -10.351083    3.338482
  6Z     5.985251   -3.284948    7.248624   -0.872283    0.760834   -0.632824    2.543730   -1.230703    0.899013   -0.122551    0.007726   -0.054549   -0.966207    0.406561   -0.434451   -6.580136    3.337286   -7.039511

 Eigenvectors and eigenvalues of the dynamical matrix

   1 f  =   94.744677 THz   595.298364 2PiTHz 3160.342256 cm-1   391.832325 meV
             X         Y         Z           dx          dy          dz
      4.220358  3.574915 17.006885    -0.000048   -0.011737   -0.020474
      4.220268  2.205712 16.611060     0.000008   -0.018003   -0.250615
      4.220284  3.610144 18.105105    -0.000001    0.013439    0.088662
      4.220289  2.169258 15.610871    -0.000012    0.050897    0.960628
      5.122296  4.113668 16.649706     0.027655    0.024480   -0.009003
      3.318234  4.113697 16.649695    -0.027460    0.024388   -0.008927
      2.110146  0.000000  7.500000            0           0           0
      4.220291  2.110146  7.500000            0           0           0
      2.110146  2.110146  9.610146            0           0           0
      4.220291  0.000000  9.610146            0           0           0
      2.109700  0.001187 11.732479            0           0           0
      4.220291  2.111116 11.729044            0           0           0
      2.090324  2.109189 13.836067            0           0           0
      4.220291  8.421982 13.833086            0           0           0
      2.110146  4.220291  7.500000            0           0           0
      4.220291  6.330437  7.500000            0           0           0
      2.110146  6.330437  9.610146            0           0           0
      4.220291  4.220291  9.610146            0           0           0
      2.108611  4.221183 11.732961            0           0           0
      4.220291  6.333347 11.727804            0           0           0
      2.106351  6.333999 13.833769            0           0           0
      4.220291  4.248694 13.822120            0           0           0
      6.330437  0.000000  7.500000            0           0           0
      0.000000  2.110146  7.500000            0           0           0
      6.330437  2.110146  9.610146            0           0           0
      0.000000  0.000000  9.610146            0           0           0
      6.330882  0.001187 11.732479            0           0           0
      0.000000  2.111407 11.729813            0           0           0
      6.350259  2.109188 13.836065            0           0           0
      8.440582  8.439605 13.834551            0           0           0
      6.330437  4.220291  7.500000            0           0           0
      0.000000  6.330437  7.500000            0           0           0
      6.330437  6.330437  9.610146            0           0           0
      0.000000  4.220291  9.610146            0           0           0
      6.331971  4.221184 11.732960            0           0           0
      0.000000  6.331682 11.731295            0           0           0
      6.334230  6.334000 13.833769            0           0           0
      0.000000  4.224926 13.834628            0           0           0
      2.110146  0.000000  9.610146            0           0           0
      4.220291  2.110146  9.610146            0           0           0
      2.110146  2.110146  7.500000            0           0           0
      4.220291  0.000000  7.500000            0           0           0
      2.111970  0.002399 13.859475            0           0           0
      4.220291  2.114155 13.891976            0           0           0
      2.113731  2.112229 11.728368            0           0           0
      4.220291  0.004837 11.727211            0           0           0
      2.110146  4.220291  9.610146            0           0           0
      4.220291  6.330437  9.610146            0           0           0
      2.110146  6.330437  7.500000            0           0           0
      4.220291  4.220291  7.500000            0           0           0
      2.111790  4.220593 13.866454            0           0           0
      4.220291  6.332949 13.859910            0           0           0
      2.110479  6.330743 11.724791            0           0           0
      4.220291  4.218521 11.727057            0           0           0
      6.330437  0.000000  9.610146            0           0           0
      0.000000  2.110146  9.610146            0           0           0
      6.330437  2.110146  7.500000            0           0           0
      0.000000  0.000000  7.500000            0           0           0
      6.328613  0.002399 13.859474            0           0           0
      8.440582  2.112348 13.862220            0           0           0
      6.326851  2.112230 11.728368            0           0           0
      0.000000  0.001457 11.724500            0           0           0
      6.330437  4.220291  9.610146            0           0           0
      0.000000  6.330437  9.610146            0           0           0
      6.330437  6.330437  7.500000            0           0           0
      0.000000  4.220291  7.500000            0           0           0
      6.328793  4.220594 13.866452            0           0           0
      8.440582  6.332032 13.866882            0           0           0
      6.330103  6.330743 11.724792            0           0           0
      8.440582  4.221032 11.725708            0           0           0

[...]

  17 f  =    1.092076 THz     6.861717 2PiTHz   36.427739 cm-1     4.516462 meV
             X         Y         Z           dx          dy          dz
      4.220358  3.574915 17.006885    -0.008997   -0.609778    0.349148
      4.220268  2.205712 16.611060     0.005064   -0.581772   -0.020382
      4.220284  3.610144 18.105105    -0.000247   -0.261084    0.103452
      4.220289  2.169258 15.610871     0.000430   -0.067867   -0.008302
      5.122296  4.113668 16.649706    -0.006221   -0.144910    0.139329
      3.318234  4.113697 16.649695    -0.004004   -0.151053    0.143037
      2.110146  0.000000  7.500000            0           0           0
      4.220291  2.110146  7.500000            0           0           0
      2.110146  2.110146  9.610146            0           0           0
      4.220291  0.000000  9.610146            0           0           0
      2.109700  0.001187 11.732479            0           0           0
      4.220291  2.111116 11.729044            0           0           0
      2.090324  2.109189 13.836067            0           0           0
      4.220291  8.421982 13.833086            0           0           0
      2.110146  4.220291  7.500000            0           0           0
      4.220291  6.330437  7.500000            0           0           0
      2.110146  6.330437  9.610146            0           0           0
      4.220291  4.220291  9.610146            0           0           0
      2.108611  4.221183 11.732961            0           0           0
      4.220291  6.333347 11.727804            0           0           0
      2.106351  6.333999 13.833769            0           0           0
      4.220291  4.248694 13.822120            0           0           0
      6.330437  0.000000  7.500000            0           0           0
      0.000000  2.110146  7.500000            0           0           0
      6.330437  2.110146  9.610146            0           0           0
      0.000000  0.000000  9.610146            0           0           0
      6.330882  0.001187 11.732479            0           0           0
      0.000000  2.111407 11.729813            0           0           0
      6.350259  2.109188 13.836065            0           0           0
      8.440582  8.439605 13.834551            0           0           0
      6.330437  4.220291  7.500000            0           0           0
      0.000000  6.330437  7.500000            0           0           0
      6.330437  6.330437  9.610146            0           0           0
      0.000000  4.220291  9.610146            0           0           0
      6.331971  4.221184 11.732960            0           0           0
      0.000000  6.331682 11.731295            0           0           0
      6.334230  6.334000 13.833769            0           0           0
      0.000000  4.224926 13.834628            0           0           0
      2.110146  0.000000  9.610146            0           0           0
      4.220291  2.110146  9.610146            0           0           0
      2.110146  2.110146  7.500000            0           0           0
      4.220291  0.000000  7.500000            0           0           0
      2.111970  0.002399 13.859475            0           0           0
      4.220291  2.114155 13.891976            0           0           0
      2.113731  2.112229 11.728368            0           0           0
      4.220291  0.004837 11.727211            0           0           0
      2.110146  4.220291  9.610146            0           0           0
      4.220291  6.330437  9.610146            0           0           0
      2.110146  6.330437  7.500000            0           0           0
      4.220291  4.220291  7.500000            0           0           0
      2.111790  4.220593 13.866454            0           0           0
      4.220291  6.332949 13.859910            0           0           0
      2.110479  6.330743 11.724791            0           0           0
      4.220291  4.218521 11.727057            0           0           0
      6.330437  0.000000  9.610146            0           0           0
      0.000000  2.110146  9.610146            0           0           0
      6.330437  2.110146  7.500000            0           0           0
      0.000000  0.000000  7.500000            0           0           0
      6.328613  0.002399 13.859474            0           0           0
      8.440582  2.112348 13.862220            0           0           0
      6.326851  2.112230 11.728368            0           0           0
      0.000000  0.001457 11.724500            0           0           0
      6.330437  4.220291  9.610146            0           0           0
      0.000000  6.330437  9.610146            0           0           0
      6.330437  6.330437  7.500000            0           0           0
      0.000000  4.220291  7.500000            0           0           0
      6.328793  4.220594 13.866452            0           0           0
      8.440582  6.332032 13.866882            0           0           0
      6.330103  6.330743 11.724792            0           0           0
      8.440582  4.221032 11.725708            0           0           0

  18 f/i=    1.324896 THz     8.324567 2PiTHz   44.193771 cm-1     5.479327 meV
             X         Y         Z           dx          dy          dz
      4.220358  3.574915 17.006885     0.212540    0.002836   -0.001104
      4.220268  2.205712 16.611060     0.929539    0.002731    0.000614
      4.220284  3.610144 18.105105     0.159150    0.001223   -0.000335
      4.220289  2.169258 15.610871     0.102159    0.000337    0.000169
      5.122296  4.113668 16.649706    -0.050673    0.135511   -0.082760
      3.318234  4.113697 16.649695    -0.050624   -0.134083    0.081729
      2.110146  0.000000  7.500000            0           0           0
      4.220291  2.110146  7.500000            0           0           0
      2.110146  2.110146  9.610146            0           0           0
      4.220291  0.000000  9.610146            0           0           0
      2.109700  0.001187 11.732479            0           0           0
      4.220291  2.111116 11.729044            0           0           0
      2.090324  2.109189 13.836067            0           0           0
      4.220291  8.421982 13.833086            0           0           0
      2.110146  4.220291  7.500000            0           0           0
      4.220291  6.330437  7.500000            0           0           0
      2.110146  6.330437  9.610146            0           0           0
      4.220291  4.220291  9.610146            0           0           0
      2.108611  4.221183 11.732961            0           0           0
      4.220291  6.333347 11.727804            0           0           0
      2.106351  6.333999 13.833769            0           0           0
      4.220291  4.248694 13.822120            0           0           0
      6.330437  0.000000  7.500000            0           0           0
      0.000000  2.110146  7.500000            0           0           0
      6.330437  2.110146  9.610146            0           0           0
      0.000000  0.000000  9.610146            0           0           0
      6.330882  0.001187 11.732479            0           0           0
      0.000000  2.111407 11.729813            0           0           0
      6.350259  2.109188 13.836065            0           0           0
      8.440582  8.439605 13.834551            0           0           0
      6.330437  4.220291  7.500000            0           0           0
      0.000000  6.330437  7.500000            0           0           0
      6.330437  6.330437  9.610146            0           0           0
      0.000000  4.220291  9.610146            0           0           0
      6.331971  4.221184 11.732960            0           0           0
      0.000000  6.331682 11.731295            0           0           0
      6.334230  6.334000 13.833769            0           0           0
      0.000000  4.224926 13.834628            0           0           0
      2.110146  0.000000  9.610146            0           0           0
      4.220291  2.110146  9.610146            0           0           0
      2.110146  2.110146  7.500000            0           0           0
      4.220291  0.000000  7.500000            0           0           0
      2.111970  0.002399 13.859475            0           0           0
      4.220291  2.114155 13.891976            0           0           0
      2.113731  2.112229 11.728368            0           0           0
      4.220291  0.004837 11.727211            0           0           0
      2.110146  4.220291  9.610146            0           0           0
      4.220291  6.330437  9.610146            0           0           0
      2.110146  6.330437  7.500000            0           0           0
      4.220291  4.220291  7.500000            0           0           0
      2.111790  4.220593 13.866454            0           0           0
      4.220291  6.332949 13.859910            0           0           0
      2.110479  6.330743 11.724791            0           0           0
      4.220291  4.218521 11.727057            0           0           0
      6.330437  0.000000  9.610146            0           0           0
      0.000000  2.110146  9.610146            0           0           0
      6.330437  2.110146  7.500000            0           0           0
      0.000000  0.000000  7.500000            0           0           0
      6.328613  0.002399 13.859474            0           0           0
      8.440582  2.112348 13.862220            0           0           0
      6.326851  2.112230 11.728368            0           0           0
      0.000000  0.001457 11.724500            0           0           0
      6.330437  4.220291  9.610146            0           0           0
      0.000000  6.330437  9.610146            0           0           0
      6.330437  6.330437  7.500000            0           0           0
      0.000000  4.220291  7.500000            0           0           0
      6.328793  4.220594 13.866452            0           0           0
      8.440582  6.332032 13.866882            0           0           0
      6.330103  6.330743 11.724792            0           0           0
      8.440582  4.221032 11.725708            0           0           0

 Finite differences POTIM=   1.0000000000000000E-002