 vasp.6.3.0 20Jan22 (build Dec 25 2023 18:06:01) complex
 executed on        HPECrayEX_GCC date 2024.02.05  09:12:54

 INCAR:
   SYSTEM = MgO-rocksalt
   ISMEAR = 0
   SIGMA = 0.05
   EDIFF = 1E-4
   ALGO = ALL
   ISTART = 0
   IBRION = -1
   NSW = 0
   ISYM = 0
   DIPOL = 0.5 0.5 0.5
   IDIPOL = 3
   LDIPOL = .TRUE.
   LHFCALC = .TRUE.
   GGA = B5
   AEXX = 0.2
   AGGAX = 0.72
   AGGAC = 0.81
   ALDAC = 0.19
   IVDW = 1
   VDW_S6 = 1.05
   VDW_C6 = 0.63 0.70
   VDW_R0 = 1.243 1.342
   ENCUT = 520
   PREC = Accurate
   LASPH = .TRUE.
   LREAL = Auto
   ISPIN = 1
   NELM = 200
   NELMIN = 8
   NCORE = 2
   KPAR = 1
   LWAVE = .FALSE.
   LCHARG = .FALSE.

 POTCAR:    PAW_PBE Mg_pv 13Apr2007
 POTCAR:    PAW_PBE O 08Apr2002
 POTCAR:    PAW_PBE Mg_pv 13Apr2007
   VRHFIN =Mg: p6s2

   TITEL  = PAW_PBE Mg_pv 13Apr2007
   POMASS =   24.305; ZVAL   =    8.000    mass and valenz
   ENMAX  =  403.929; ENMIN  =  302.947 eV

   TITEL  = PAW_PBE O 08Apr2002
   POMASS =   16.000; ZVAL   =    6.000    mass and valenz
   ENMAX  =  400.000; ENMIN  =  300.000 eV

 Optimization of the real space projectors (new method)

 maximal supplied QI-value         = 18.90
 optimisation between [QCUT,QGAM] = [ 11.53, 23.24] = [ 37.21,151.29] Ry
 Optimized for a Real-space Cutoff    1.28 Angstroem

   l    n(q)    QCUT    max X(q) W(low)/X(q) W(high)/X(q)  e(spline)
   1      8    11.527     2.974    0.44E-04    0.56E-04    0.12E-06
   1      8    11.527     4.279    0.12E-03    0.12E-03    0.26E-06
   0      9    11.527    16.381    0.46E-04    0.64E-04    0.78E-07
   0      9    11.527     5.611    0.26E-04    0.43E-04    0.55E-07
   2      8    11.527     4.652    0.22E-03    0.72E-04    0.47E-07
 Optimization of the real space projectors (new method)

 maximal supplied QI-value         = 24.76
 optimisation between [QCUT,QGAM] = [ 11.64, 23.27] = [ 37.91,151.63] Ry
 Optimized for a Real-space Cutoff    1.14 Angstroem

   l    n(q)    QCUT    max X(q) W(low)/X(q) W(high)/X(q)  e(spline)
   0      8    11.635    20.381    0.10E-03    0.33E-03    0.24E-06
   0      8    11.635    15.268    0.11E-03    0.35E-03    0.26E-06
   1      7    11.635     5.964    0.24E-03    0.31E-03    0.30E-06
   1      7    11.635     5.382    0.22E-03    0.25E-03    0.26E-06
|               ----> ADVICE to this user running VASP <----                  |
|     You enforced a specific xc type in the INCAR file but a different       |
|     type was found in the POTCAR file.                                      |
|     I HOPE YOU KNOW WHAT YOU ARE DOING!                                     |

  PAW_PBE Mg_pv 13Apr2007               :
  PAW_PBE O 08Apr2002                   :

 POSCAR: Mg  O
  positions in direct lattice
 exchange correlation table for  LEXCH =       12
   RHO(1)=    0.500       N(1)  =     2000
   RHO(2)=  100.500       N(2)  =     4000

 ion  position               nearest neighbor table
   1  0.000  0.375  0.352- 129 2.11 132 2.11 139 2.11 163 2.11 212 2.11
   2  0.125  0.000  0.352- 130 2.11 131 2.11 140 2.11 147 2.11 164 2.11
   3  0.000  0.000  0.451- 131 2.11 130 2.11 137 2.11 161 2.11 210 2.11 135 2.11
   4  0.125  0.375  0.451- 132 2.11 129 2.11 138 2.11 145 2.11 162 2.11 136 2.11
   5  0.000  0.375  0.550- 143 2.11 167 2.11 136 2.11 216 2.11 129 2.12 133 2.14
   6  0.125  0.000  0.550- 144 2.11 151 2.11 168 2.11 135 2.11 130 2.12 134 2.14
   7  0.000  0.000  0.648- 135 2.10 141 2.11 214 2.11 134 2.11 165 2.11
   8  0.125  0.375  0.648- 136 2.10 166 2.11 142 2.11 133 2.11 149 2.11
   9  0.000  0.125  0.352- 137 2.11 131 2.11 139 2.11 140 2.11 220 2.11
  10  0.125  0.250  0.352- 138 2.11 132 2.11 139 2.11 140 2.11 155 2.11
  11  0.000  0.250  0.451- 139 2.11 137 2.11 138 2.11 129 2.11 218 2.11 143 2.11
  12  0.125  0.125  0.451- 144 2.11 140 2.11 138 2.11 130 2.11 137 2.11 153 2.11
  13  0.000  0.125  0.550- 143 2.11 135 2.11 224 2.11 144 2.11 137 2.12 141 2.14
  14  0.125  0.250  0.550- 159 2.11 136 2.11 144 2.11 143 2.11 138 2.12 142 2.14
  15  0.000  0.250  0.648- 143 2.10 133 2.11 141 2.11 142 2.11 222 2.11
  16  0.125  0.125  0.648- 144 2.10 142 2.11 157 2.11 134 2.11 141 2.11
  17  0.250  0.375  0.352- 145 2.11 132 2.11 148 2.11 155 2.11 179 2.11
  18  0.375  0.000  0.352- 146 2.11 147 2.11 156 2.11 180 2.11 195 2.11
  19  0.250  0.000  0.451- 147 2.11 146 2.11 130 2.11 153 2.11 177 2.11 151 2.11
  20  0.375  0.375  0.451- 152 2.11 148 2.11 145 2.11 154 2.11 178 2.11 193 2.11
  21  0.250  0.375  0.550- 152 2.10 183 2.11 159 2.11 136 2.11 145 2.12 149 2.15
  22  0.375  0.000  0.550- 160 2.11 199 2.11 151 2.11 184 2.11 146 2.12 150 2.14
  23  0.250  0.000  0.648- 151 2.10 150 2.11 157 2.11 134 2.11 181 2.11
  24  0.376  0.375  0.648- 197 2.10 152 2.11 182 2.11 158 2.11 149 2.12
  25  0.250  0.125  0.352- 153 2.11 147 2.11 140 2.11 155 2.11 156 2.11
  26  0.375  0.250  0.352- 154 2.11 148 2.11 155 2.11 156 2.11 203 2.11
  27  0.250  0.250  0.451- 155 2.11 145 2.11 153 2.11 154 2.11 138 2.11 159 2.11
  28  0.375  0.125  0.451- 156 2.11 153 2.11 154 2.11 146 2.11 201 2.11 160 2.11
  29  0.250  0.125  0.550- 159 2.11 160 2.11 151 2.11 144 2.11 153 2.12 157 2.14
  30  0.375  0.250  0.550- 152 2.11 207 2.11 159 2.11 160 2.11 154 2.12 158 2.15
  31  0.250  0.250  0.648- 159 2.10 158 2.11 149 2.11 157 2.11 142 2.11
  32  0.375  0.125  0.648- 160 2.10 158 2.11 205 2.11 157 2.11 150 2.11
  33  0.000  0.875  0.352- 161 2.11 131 2.11 164 2.11 171 2.11 244 2.11
  34  0.125  0.500  0.352- 162 2.11 132 2.11 163 2.11 172 2.11 179 2.11
  35  0.000  0.500  0.451- 163 2.11 162 2.11 129 2.11 169 2.11 242 2.11 167 2.11
  36  0.125  0.875  0.451- 168 2.11 164 2.11 130 2.11 161 2.11 170 2.11 177 2.11
  37  0.000  0.875  0.550- 168 2.11 135 2.11 248 2.11 175 2.11 161 2.12 165 2.14
  38  0.125  0.500  0.550- 183 2.11 136 2.11 167 2.11 176 2.11 162 2.12 166 2.14
  39  0.000  0.500  0.648- 167 2.10 133 2.11 173 2.11 166 2.11 246 2.11
  40  0.125  0.875  0.648- 168 2.10 181 2.11 174 2.11 134 2.11 165 2.11
  41  0.000  0.625  0.352- 169 2.11 163 2.11 171 2.11 172 2.11 252 2.11
  42  0.125  0.750  0.352- 170 2.11 164 2.11 171 2.11 172 2.11 187 2.11
  43  0.000  0.750  0.451- 175 2.11 171 2.11 170 2.11 161 2.11 169 2.11 250 2.11
  44  0.125  0.625  0.451- 176 2.11 172 2.11 170 2.11 162 2.11 169 2.11 185 2.11
  45  0.000  0.625  0.550- 256 2.11 176 2.11 167 2.11 175 2.11 169 2.12 173 2.14
  46  0.125  0.750  0.550- 191 2.11 176 2.11 175 2.11 168 2.11 170 2.12 174 2.14
  47  0.000  0.750  0.648- 175 2.10 174 2.11 254 2.11 173 2.11 165 2.11
  48  0.125  0.625  0.648- 176 2.10 189 2.11 166 2.11 173 2.11 174 2.11
  49  0.250  0.875  0.352- 177 2.11 164 2.11 147 2.11 180 2.11 187 2.11
  50  0.375  0.500  0.352- 178 2.11 148 2.11 179 2.11 188 2.11 227 2.11
  51  0.250  0.500  0.451- 183 2.11 179 2.11 178 2.11 145 2.11 162 2.11 185 2.11
  52  0.375  0.875  0.451- 184 2.11 180 2.11 146 2.11 177 2.11 186 2.11 225 2.11
  53  0.250  0.875  0.550- 191 2.11 184 2.11 168 2.11 151 2.11 177 2.12 181 2.14
  54  0.375  0.500  0.550- 231 2.11 152 2.11 192 2.11 183 2.11 178 2.12 182 2.14
  55  0.250  0.500  0.648- 183 2.10 182 2.10 149 2.11 189 2.11 166 2.11
  56  0.375  0.875  0.648- 184 2.10 229 2.11 181 2.11 190 2.11 150 2.11
  57  0.250  0.625  0.352- 185 2.11 179 2.11 172 2.11 187 2.11 188 2.11
  58  0.375  0.750  0.352- 186 2.11 180 2.11 187 2.11 188 2.11 235 2.11
  59  0.250  0.750  0.451- 191 2.11 187 2.11 185 2.11 186 2.11 170 2.11 177 2.11
  60  0.375  0.625  0.451- 192 2.11 188 2.11 186 2.11 178 2.11 185 2.11 233 2.11
[...]
 242  0.875  0.500  0.451- 114 2.11  84 2.11  35 2.11 115 2.11 124 2.11 118 2.11
 243  0.750  0.500  0.352- 115 2.11  98 2.11 114 2.11  81 2.11 121 2.11
 244  0.875  0.875  0.352- 116 2.11  82 2.11 113 2.11  33 2.11 122 2.11
 245  0.750  0.875  0.650- 104 2.11 120 2.11  87 2.11 127 2.11 117 2.14
 246  0.875  0.500  0.650-  88 2.11 128 2.11  39 2.11 119 2.11 118 2.14
 247  0.750  0.500  0.549- 119 2.09 115 2.11 118 2.11 125 2.11  85 2.11 102 2.12
 248  0.875  0.875  0.549- 120 2.10 116 2.11  37 2.11  86 2.11 117 2.11 126 2.11
 249  0.750  0.625  0.451- 121 2.11 115 2.11 108 2.11 123 2.11 124 2.11 125 2.11
 250  0.875  0.750  0.451- 122 2.11 116 2.11  43 2.11 123 2.11 124 2.11 126 2.12
 251  0.750  0.750  0.352- 123 2.11 113 2.11 121 2.11 122 2.11 106 2.11
 252  0.875  0.625  0.352- 124 2.11 114 2.11 121 2.11 122 2.11  41 2.11
 253  0.750  0.625  0.650- 127 2.11 128 2.11 119 2.11 112 2.11 125 2.15
 254  0.875  0.750  0.650-  47 2.11 120 2.11 127 2.11 128 2.11 126 2.14
 255  0.750  0.750  0.549- 127 2.10 123 2.11 126 2.11 117 2.11 125 2.11 110 2.11
 256  0.875  0.625  0.549- 128 2.10 124 2.11  45 2.11 126 2.11 125 2.11 118 2.11

IMPORTANT INFORMATION: All symmetrisations will be switched off!
NOSYMM: (Re-)initialisation of all symmetry stuff for point group C_1.

                                     Primitive cell

  volume of cell :    6079.2794

  direct lattice vectors                    reciprocal lattice vectors
    16.881969308  0.000000000  0.000000000     0.059234796  0.000000000  0.000000000
     0.000000000 16.881969308  0.000000000     0.000000000  0.059234796  0.000000000
     0.000000000  0.000000000 21.330738491     0.000000000  0.000000000  0.046880702

  length of vectors
    16.881969308 16.881969308 21.330738491     0.059234796  0.059234796  0.046880702

  position of ions in fractional coordinates (direct lattice)
     0.000000000  0.375000000  0.351605267
     0.125000000  0.000000000  0.351605267
     0.000000000  0.000000000  0.450535089
     0.125000000  0.375000000  0.450535089
     0.000021303  0.375006277  0.549743315
     0.125022666  0.000028567  0.549734060
     0.000025841  0.000057001  0.647911681
     0.125099153  0.375031247  0.647929647
     0.000000000  0.125000000  0.351605267
     0.125000000  0.250000000  0.351605267
     0.000000000  0.250000000  0.450535089
     0.125000000  0.125000000  0.450535089
     0.000016865  0.125024360  0.549732431
     0.125055348  0.250032711  0.549737631
     0.000025904  0.250046822  0.647911662
     0.125074038  0.125080973  0.647912606
     0.250000000  0.375000000  0.351605267
     0.375000000  0.000000000  0.351605267
     0.250000000  0.000000000  0.450535089
     0.375000000  0.375000000  0.450535089
     0.250187662  0.375029646  0.549734865
     0.375038792  0.000056013  0.549733804
     0.250075494  0.000077359  0.647909092
     0.375801259  0.375181760  0.648072846
     0.250000000  0.125000000  0.351605267
     0.375000000  0.250000000  0.351605267
     0.250000000  0.250000000  0.450535089
     0.375000000  0.125000000  0.450535089
     0.250058062  0.125058661  0.549734755
     0.375150377  0.250177771  0.549742060
     0.250190609  0.250159005  0.647853754
     0.375146999  0.125188727  0.647832074
     0.000000000  0.875000000  0.351605267
     0.125000000  0.500000000  0.351605267
     0.000000000  0.500000000  0.450535089
     0.125000000  0.875000000  0.450535089
     0.000019830  0.875024488  0.549732406
     0.125028450  0.499998832  0.549701326
     0.000026788  0.500000587  0.647903077
     0.125051853  0.875029588  0.647902682
     0.000000000  0.625000000  0.351605267
     0.125000000  0.750000000  0.351605267
[...]
   2.11072645  8.44096494 11.72553523
   0.00045223  8.44099456 13.82025110
   2.11112155 14.77222265 13.82024269
   0.00000000 10.55123082  7.50000000
   2.11024616 12.66147698  7.50000000
   0.00000000 12.66147698  9.61024616
   2.11024616 10.55123082  9.61024616
   0.00026418 10.55131375 11.72607639
   2.11066377 12.66159969 11.72622240
   0.00034351 12.66162497 13.82022980
   2.11112886 10.55102759 13.82017561
   4.22049233 14.77172314  7.50000000
   6.33073849  8.44098465  7.50000000
   4.22049233  8.44098465  9.61024616
   6.33073849 14.77172314  9.61024616
   4.22095173 14.77186194 11.72630111
   6.33410430  8.43924166 11.72654376
   4.22323704  8.44035230 13.81590938
   6.33135510 14.77198596 13.82036080
   4.22049233 10.55123082  7.50000000
   6.33073849 12.66147698  7.50000000
   4.22049233 12.66147698  9.61024616
   6.33073849 10.55123082  9.61024616
[...]
  14.77172314  8.44098465  9.61024616
  12.66147698  8.44098465  7.50000000
  14.77172314 14.77172314  7.50000000
  12.66137889 14.77209514 13.86920319
  14.77119526  8.44117934 13.86902214
  12.66464345  8.44184479 11.71753089
  14.77197439 14.77211418 11.72009913
  12.66147698 10.55123082  9.61024616
  14.77172314 12.66147698  9.61024616
  12.66147698 12.66147698  7.50000000
  14.77172314 10.55123082  7.50000000
  12.66198443 10.55179790 13.87009544
  14.77210175 12.66194361 13.86906818
  12.66193193 12.66202689 11.71995390
  14.77231780 10.55172724 11.71991500

--------------------------------------- Iteration      FINAL  ---------------------------------------

--------------------OUTCAR has been truncated-------------------------

[...]

--------------------OUTCAR has been truncated-------------------------

  DFT-D2 method for vdW energy calculation

  Parameters of vdW forcefield:
         C6(Jnm^6/mol)     R0(A)
   Mg       0.630          1.243
   O        0.700          1.342

  vdW correction parametrized for the method   h
      

  IVDW =   1
  VDW_RADIUS =    50.000 A
  VDW_S6 =     1.050
  VDW_SR =     1.000
  VDW_D =    20.000
  LVDW_EWALD = F

  Number of pair interactions contributing to vdW energy: 2859883
  Edisp (eV):  -20.34409

 VOLUME and BASIS-vectors are now :
  energy-cutoff  :      520.00
  volume of cell :     6079.28
      direct lattice vectors                 reciprocal lattice vectors
    16.881969308  0.000000000  0.000000000     0.059234796  0.000000000  0.000000000
     0.000000000 16.881969308  0.000000000     0.000000000  0.059234796  0.000000000
     0.000000000  0.000000000 21.330738491     0.000000000  0.000000000  0.046880702

  length of vectors
    16.881969308 16.881969308 21.330738491     0.059234796  0.059234796  0.046880702

 FORCES acting on ions:
    Electron-Ion                     Ewald-Force                    Non-Local-Force
   -.454E-01 0.794E-01 0.207E+04   0.448E-01 -.793E-01 -.206E+04   0.364E-03 -.960E-04 -.639E+01
   0.271E-01 0.116E-01 0.207E+04   -.295E-01 -.137E-01 -.206E+04   0.163E-02 0.151E-02 -.639E+01
   -.532E-01 -.115E-01 0.686E+03   0.542E-01 0.103E-01 -.686E+03   -.552E-03 0.922E-03 0.343E+00
   0.301E+00 0.192E+00 0.686E+03   -.287E+00 -.194E+00 -.686E+03   -.866E-02 0.627E-03 0.344E+00
   -.997E-01 0.162E+00 -.692E+03   0.992E-01 -.170E+00 0.692E+03   0.225E-03 0.553E-02 -.176E+00
   -.672E-02 -.125E-01 -.692E+03   0.950E-02 0.119E-01 0.692E+03   -.208E-02 -.205E-03 -.174E+00
   -.720E-01 0.365E-01 -.205E+04   0.697E-01 -.373E-01 0.205E+04   0.203E-02 -.151E-02 0.538E+01
   0.224E-01 0.950E-01 -.205E+04   -.596E-01 -.882E-01 0.205E+04   0.270E-01 -.560E-02 0.535E+01
   -.359E-01 0.545E-01 0.207E+04   0.356E-01 -.572E-01 -.206E+04   0.189E-03 0.186E-02 -.639E+01
   0.117E+00 0.101E+00 0.207E+04   -.119E+00 -.102E+00 -.206E+04   0.152E-02 0.876E-03 -.639E+01
   -.687E-01 0.811E-01 0.686E+03   0.698E-01 -.844E-01 -.686E+03   -.475E-03 0.227E-02 0.335E+00
   0.955E-01 0.103E+00 0.686E+03   -.974E-01 -.105E+00 -.686E+03   0.190E-02 0.193E-02 0.328E+00
   -.896E-01 0.201E-01 -.692E+03   0.872E-01 -.178E-01 0.692E+03   0.190E-02 -.127E-02 -.176E+00
   0.365E+00 0.864E-01 -.692E+03   -.370E+00 -.825E-01 0.692E+03   -.282E-02 -.516E-02 -.166E+00
   -.242E-01 0.111E+00 -.205E+04   0.208E-01 -.103E+00 0.205E+04   0.160E-02 -.658E-02 0.536E+01
   0.139E+00 0.210E+00 -.205E+04   -.131E+00 -.192E+00 0.205E+04   -.863E-02 -.162E-01 0.536E+01
   0.306E+00 0.839E-01 0.207E+04   -.313E+00 -.842E-01 -.206E+04   0.480E-02 0.110E-03 -.640E+01
   0.757E-01 0.989E-01 0.207E+04   -.772E-01 -.101E+00 -.206E+04   0.999E-03 0.144E-02 -.639E+01
   0.881E-01 0.759E-01 0.686E+03   -.921E-01 -.790E-01 -.686E+03   0.281E-02 0.230E-02 0.332E+00
   0.557E+00 0.135E+00 0.688E+03   -.616E+00 -.135E+00 -.688E+03   0.395E-01 0.320E-03 0.299E+00
   0.236E+01 0.408E+00 -.693E+03   -.227E+01 -.414E+00 0.694E+03   -.110E+00 0.300E-02 -.551E-01
   0.706E-01 0.358E+00 -.692E+03   -.690E-01 -.364E+00 0.692E+03   -.422E-02 -.274E-02 -.170E+00
   0.148E+00 0.153E+00 -.205E+04   -.132E+00 -.146E+00 0.205E+04   -.152E-01 -.931E-02 0.537E+01
   0.436E+01 0.489E+00 -.206E+04   -.481E+01 -.547E+00 0.205E+04   0.177E+00 0.260E-01 0.562E+01
   0.142E+00 0.149E+00 0.207E+04   -.145E+00 -.152E+00 -.206E+04   0.198E-02 0.166E-02 -.639E+01
   0.251E+00 0.276E+00 0.207E+04   -.256E+00 -.280E+00 -.206E+04   0.316E-02 0.303E-02 -.639E+01
   0.514E+00 0.399E+00 0.686E+03   -.515E+00 -.393E+00 -.686E+03   0.958E-03 -.382E-02 0.358E+00
   0.360E+00 0.529E+00 0.686E+03   -.356E+00 -.526E+00 -.686E+03   -.284E-02 -.461E-03 0.350E+00
   0.382E+00 0.397E+00 -.692E+03   -.390E+00 -.403E+00 0.692E+03   -.191E-02 -.204E-02 -.153E+00
   0.173E+01 0.183E+01 -.693E+03   -.174E+01 -.183E+01 0.693E+03   -.178E-01 -.335E-01 -.234E-01
   0.718E+00 0.316E+00 -.205E+04   -.801E+00 -.281E+00 0.205E+04   0.405E-01 -.384E-01 0.534E+01
   0.286E+00 0.796E+00 -.205E+04   -.242E+00 -.876E+00 0.205E+04   -.436E-01 0.391E-01 0.533E+01
   -.373E-01 -.656E-01 0.207E+04   0.371E-01 0.655E-01 -.206E+04   0.108E-03 0.212E-04 -.639E+01
   0.129E+00 -.139E-02 0.207E+04   -.132E+00 0.267E-02 -.206E+04   0.192E-02 -.895E-03 -.639E+01
   -.125E+00 0.102E+00 0.686E+03   0.126E+00 -.969E-01 -.686E+03   -.481E-03 -.341E-02 0.347E+00
   0.140E-01 -.109E+00 0.686E+03   -.143E-01 0.110E+00 -.686E+03   0.748E-03 -.852E-03 0.325E+00
   -.518E-01 -.109E+00 -.692E+03   0.515E-01 0.104E+00 0.692E+03   -.547E-03 0.253E-02 -.172E+00
   0.685E+00 0.157E+00 -.692E+03   -.681E+00 -.160E+00 0.692E+03   -.124E-01 0.346E-02 -.159E+00
   -.358E-02 -.672E-01 -.205E+04   -.145E-02 0.554E-01 0.205E+04   0.263E-02 0.994E-02 0.538E+01
   0.431E-01 -.104E+00 -.205E+04   -.426E-01 0.101E+00 0.205E+04   -.240E-02 0.238E-02 0.537E+01
   -.562E-01 -.680E-01 0.207E+04   0.560E-01 0.709E-01 -.206E+04   0.135E-03 -.197E-02 -.639E+01
   0.357E-01 -.111E+00 0.207E+04   -.380E-01 0.113E+00 -.206E+04   0.169E-02 -.166E-02 -.639E+01
   -.821E-01 -.159E+00 0.686E+03   0.826E-01 0.164E+00 -.686E+03   -.253E-03 -.289E-02 0.329E+00
   0.179E+00 -.175E+00 0.686E+03   -.185E+00 0.184E+00 -.686E+03   0.492E-02 -.521E-02 0.328E+00
   -.131E+00 -.692E-01 -.692E+03   0.128E+00 0.801E-01 0.692E+03   0.232E-02 -.764E-02 -.168E+00
   0.706E-01 -.232E+00 -.692E+03   -.767E-01 0.232E+00 0.692E+03   0.252E-02 0.150E-02 -.169E+00
   -.253E-01 -.118E+00 -.205E+04   0.255E-01 0.119E+00 0.205E+04   -.324E-03 0.105E-02 0.537E+01
   0.226E+00 -.125E+00 -.205E+04   -.219E+00 0.110E+00 0.205E+04   -.863E-02 0.126E-01 0.536E+01
   0.502E-01 -.713E-01 0.207E+04   -.532E-01 0.712E-01 -.206E+04   0.211E-02 -.276E-04 -.639E+01
   0.242E+00 -.165E+00 0.207E+04   -.247E+00 0.170E+00 -.206E+04   0.307E-02 -.330E-02 -.639E+01
   0.426E+00 -.143E+00 0.686E+03   -.429E+00 0.139E+00 -.687E+03   0.312E-02 0.290E-02 0.327E+00
   0.409E-01 -.157E+00 0.686E+03   -.461E-01 0.158E+00 -.686E+03   0.315E-02 -.676E-03 0.332E+00
   0.292E-01 -.225E+00 -.692E+03   -.309E-01 0.224E+00 0.692E+03   0.158E-03 0.333E-02 -.170E+00
   0.154E+01 -.134E+01 -.692E+03   -.150E+01 0.135E+01 0.692E+03   -.671E-01 0.222E-01 -.110E+00
   0.145E+01 -.106E+00 -.205E+04   -.154E+01 0.741E-01 0.205E+04   0.301E-01 0.334E-01 0.533E+01
   0.109E+00 -.532E-01 -.205E+04   -.952E-01 0.500E-01 0.205E+04   -.111E-01 0.225E-02 0.536E+01
   0.152E+00 -.162E+00 0.207E+04   -.155E+00 0.165E+00 -.206E+04   0.184E-02 -.206E-02 -.639E+01
   0.795E-01 -.209E+00 0.207E+04   -.807E-01 0.211E+00 -.206E+04   0.794E-03 -.154E-02 -.639E+01
   0.135E+00 -.305E+00 0.686E+03   -.140E+00 0.314E+00 -.686E+03   0.338E-02 -.593E-02 0.333E+00
   0.280E+00 -.483E+00 0.686E+03   -.272E+00 0.491E+00 -.687E+03   -.612E-02 -.578E-02 0.339E+00
[...]
   -.189E+00 -.332E-01 0.155E+04   0.192E+00 0.329E-01 -.156E+04   -.376E-02 0.262E-03 0.313E+01
   -.586E-01 -.584E-01 0.155E+04   0.598E-01 0.582E-01 -.156E+04   0.190E-02 0.360E-02 0.313E+01
   -.258E-01 -.190E-01 -.156E+04   0.281E-01 0.201E-01 0.157E+04   -.224E-02 -.159E-03 -.474E+01
   -.142E+00 -.563E-01 -.156E+04   0.133E+00 0.643E-01 0.157E+04   0.682E-02 -.848E-02 -.478E+01
   -.202E+00 0.201E+00 -.511E+03   0.186E+00 -.193E+00 0.511E+03   -.143E-01 -.151E-01 0.340E+00
   -.100E+00 -.118E+00 -.513E+03   0.104E+00 0.119E+00 0.513E+03   -.393E-02 -.850E-03 0.243E+00
   -.274E+00 -.292E+00 0.515E+03   0.274E+00 0.292E+00 -.515E+03   0.690E-03 -.170E-02 -.579E-01
   -.173E+00 -.187E+00 0.514E+03   0.174E+00 0.188E+00 -.514E+03   0.202E-02 -.147E-03 -.791E-01
   -.745E-01 -.143E+00 0.155E+04   0.766E-01 0.145E+00 -.156E+04   -.260E-02 -.226E-02 0.313E+01
   -.128E+00 -.772E-01 0.155E+04   0.130E+00 0.792E-01 -.156E+04   0.114E-02 -.573E-02 0.313E+01
   -.158E+00 -.228E+00 -.156E+04   0.163E+00 0.234E+00 0.157E+04   -.160E-01 -.176E-01 -.482E+01
   -.508E-02 -.442E-01 -.156E+04   0.232E-02 0.402E-01 0.157E+04   0.240E-02 0.197E-02 -.474E+01
   -.117E+00 -.333E+00 -.513E+03   0.112E+00 0.334E+00 0.513E+03   0.171E-02 -.396E-02 0.236E+00
   -.313E+00 -.160E+00 -.513E+03   0.316E+00 0.157E+00 0.513E+03   -.599E-02 0.433E-04 0.234E+00
   -.770E-01 -.912E-01 0.800E+02   0.862E-12 -.111E-11 -.364E-11   0.700E-01 0.824E-01 -.705E+02

 POSITION                                       TOTAL-FORCE (eV/Angst)
      0.00000      6.33074      7.50000        -0.000143     -0.000003      0.458617
      2.11025      0.00000      7.50000        -0.000479     -0.000474      0.459871
      0.00000      0.00000      9.61025         0.000362     -0.000091      0.015266
      2.11025      6.33074      9.61025         0.003968     -0.000486      0.015972
      0.00036      6.33084     11.72643        -0.000246     -0.001432      0.045725
      2.11063      0.00048     11.72623         0.000838     -0.000668      0.041542
      0.00044      0.00096     13.82043        -0.000067     -0.002293     -0.001668
      2.11192      6.33127     13.82082        -0.007213      0.000676      0.007752
      0.00000      2.11025      7.50000        -0.000065     -0.000548      0.459592
      2.11025      4.22049      7.50000        -0.000305     -0.000261      0.459346
      0.00000      4.22049      9.61025         0.000491     -0.000776      0.015732
      2.11025      2.11025      9.61025        -0.000070     -0.000233      0.015275
      0.00028      2.11066     11.72620        -0.000220      0.001181      0.042456
      2.11118      4.22104     11.72631        -0.007990     -0.001541      0.042906
      0.00044      4.22128     13.82043        -0.001556      0.000941      0.001975
      2.11150      2.11161     13.82045        -0.001801     -0.000122      0.000717
      4.22049      6.33074      7.50000        -0.001437     -0.000191      0.460544
      6.33074      0.00000      7.50000        -0.000337     -0.000446      0.458898
      4.22049      0.00000      9.61025        -0.000802     -0.000555      0.015697
      6.33074      6.33074      9.61025        -0.014172     -0.000113     -0.006430
      4.22366      6.33124     11.72625        -0.031600     -0.002922      0.038283
      6.33139      0.00095     11.72623        -0.003005     -0.008091      0.044601
      4.22177      0.00131     13.82038        -0.000592     -0.002847      0.001443
      6.34427      6.33381     13.82387        -0.232913     -0.027348     -0.131578
      4.22049      2.11025      7.50000        -0.000694     -0.000472      0.459164
      6.33074      4.22049      7.50000        -0.001316     -0.001140      0.459098
      4.22049      4.22049      9.61025         0.000541      0.001698      0.012985
      6.33074      2.11025      9.61025         0.001148      0.001562      0.012286
      4.22147      2.11124     11.72625        -0.009009     -0.008417      0.040681
      6.33328      4.22349     11.72640        -0.025906     -0.029171      0.007962
      4.22371      4.22318     13.81920        -0.035919     -0.006736      0.021083
      6.33322      2.11343     13.81874        -0.003540     -0.034627      0.023528
      0.00000     14.77172      7.50000        -0.000045     -0.000078      0.460502
      2.11025      8.44098      7.50000        -0.000538      0.000290      0.459121
      0.00000      8.44098      9.61025         0.000852      0.001276      0.013020
      2.11025     14.77172      9.61025         0.000267      0.000208      0.015311
      0.00033     14.77214     11.72620        -0.000786     -0.001665      0.041544
      2.11073      8.44096     11.72554        -0.008379      0.000457      0.046155
      0.00045      8.44099     13.82025        -0.002067     -0.000952      0.001272
      2.11112     14.77222     13.82024        -0.002046     -0.000296     -0.000733
      0.00000     10.55123      7.50000        -0.000065      0.000715      0.459693
      2.11025     12.66148      7.50000        -0.000418      0.000590      0.460284
      0.00000     12.66148      9.61025         0.000255      0.001126      0.015652
      2.11025     10.55123      9.61025        -0.001462      0.002307      0.013615
      0.00026     10.55131     11.72608        -0.000215      0.002674      0.042350
      2.11066     12.66160     11.72622        -0.003261      0.001501      0.039894
      0.00034     12.66162     13.82023        -0.000089      0.001161     -0.000975
      2.11113     10.55103     13.82018        -0.002656     -0.000958      0.001603
      4.22049     14.77172      7.50000        -0.000700     -0.000161      0.460064
      6.33074      8.44098      7.50000        -0.001160      0.001241      0.458543
      4.22049      8.44098      9.61025         0.000318     -0.001378      0.009211
      6.33074     14.77172      9.61025        -0.001352      0.000529      0.014894
      4.22095     14.77186     11.72630        -0.001408      0.002896      0.039904
      6.33410      8.43924     11.72654        -0.027513      0.025528     -0.007777
      4.22324      8.44035     13.81591        -0.055653      0.004593      0.030907
      6.33136     14.77199     13.82036         0.001477     -0.000684      0.002289
      4.22049     10.55123      7.50000        -0.000686      0.000842      0.459127
      6.33074     12.66148      7.50000        -0.000408      0.000488      0.459514
      4.22049     12.66148      9.61025        -0.001071      0.002441      0.014535
      6.33074     10.55123      9.61025         0.002340      0.001617      0.008385
[...]
     14.77172      8.44098      9.61025         0.004112     -0.000990      0.020362
     12.66148      8.44098      7.50000        -0.001279      0.000058     -0.435515
     14.77172     14.77172      7.50000         0.002915      0.003440     -0.434597
     12.66138     14.77210     13.86920        -0.000201      0.000734     -0.117088
     14.77120      8.44118     13.86902        -0.001424     -0.001611     -0.129865
     12.66464      8.44184     11.71753        -0.033838     -0.009774      0.027887
     14.77197     14.77211     11.72010        -0.001134     -0.000321      0.014025
     12.66148     10.55123      9.61025         0.000550     -0.001740      0.019883
     14.77172     12.66148      9.61025         0.002482      0.000030      0.022457
     12.66148     12.66148      7.50000        -0.000847     -0.000684     -0.436094
     14.77172     10.55123      7.50000         0.002616     -0.004069     -0.433985
     12.66198     10.55180     13.87010        -0.012393     -0.013409     -0.144220
     14.77210     12.66194     13.86907        -0.000352     -0.001827     -0.116446
     12.66193     12.66203     11.71995        -0.002848     -0.003677      0.012002
     14.77232     10.55173     11.71992        -0.004126     -0.002843      0.012283
    total drift:                               -0.001946     -0.002662     -0.095589

  FREE ENERGIE OF THE ION-ELECTRON SYSTEM (eV)
  free  energy   TOTEN  =     -1753.84841664 eV

  energy  without entropy=    -1753.84841664  energy(sigma->0) =    -1753.84841664