 vasp.6.3.0 20Jan22 (build Apr  1 2022 16:44:48) complex
 executed on        HPECrayEX_GCC date 2022.11.02  12:09:18

 INCAR:
   SYSTEM = MgO-rocksalt
   ISMEAR = 0
   SIGMA = 0.05
   EDIFF = 1E-7
   ALGO = ALL
   ISTART = 0
   IBRION = 2
   NSW = 1000
   ISYM = 0
   ISIF = 2
   EDIFFG = -0.01
   DIPOL = 0.5 0.5 0.5
   IDIPOL = 3
   LDIPOL = .TRUE.
   GGA = RE
   IVDW = 13
   VDW_S8 = 1.7468
   VDW_A1 = 0.5363
   VDW_A2 = 3.0726
   ENCUT = 600
   PREC = Accurate
   LASPH = .TRUE.
   LREAL = .FALSE.
   ISPIN = 1
   NELM = 200
   NELMIN = 8
   NCORE = 8
   KPAR = 1
   LWAVE = .FALSE.
   LCHARG = .FALSE.

 POTCAR:    PAW_PBE C 08Apr2002
 POTCAR:    PAW_PBE O 08Apr2002
 POTCAR:    PAW_PBE H 15Jun2001
 POTCAR:    PAW_PBE Mg_pv 13Apr2007
 POTCAR:    PAW_PBE O 08Apr2002
 POTCAR:    PAW_PBE C 08Apr2002
   VRHFIN =C: s2p2

   TITEL  = PAW_PBE C 08Apr2002
   POMASS =   12.011; ZVAL   =    4.000    mass and valenz
   ENMAX  =  400.000; ENMIN  =  300.000 eV

[...]

   TITEL  = PAW_PBE H 15Jun2001
   POMASS =    1.000; ZVAL   =    1.000    mass and valenz
   ENMAX  =  250.000; ENMIN  =  200.000 eV

   TITEL  = PAW_PBE Mg_pv 13Apr2007
   POMASS =   24.305; ZVAL   =    8.000    mass and valenz
   ENMAX  =  403.929; ENMIN  =  302.947 eV

   TITEL  = PAW_PBE O 08Apr2002
   POMASS =   16.000; ZVAL   =    6.000    mass and valenz
   ENMAX  =  400.000; ENMIN  =  300.000 eV

  PAW_PBE C 08Apr2002                   :
  PAW_PBE O 08Apr2002                   :
  PAW_PBE H 15Jun2001                   :
  PAW_PBE Mg_pv 13Apr2007               :
  PAW_PBE O 08Apr2002                   :

 POSCAR:  C  O  H Mg  O
  positions in direct lattice
|           W    W    AA    RRRRR   N    N  II  N    N   GGGG   !!!           |
|           W    W   A  A   R    R  NN   N  II  NN   N  G    G  !!!           |
|           W    W  A    A  R    R  N N  N  II  N N  N  G       !!!           |
|           W WW W  AAAAAA  RRRRR   N  N N  II  N  N N  G  GGG   !            |
|           WW  WW  A    A  R   R   N   NN  II  N   NN  G    G                |
|           W    W  A    A  R    R  N    N  II  N    N   GGGG   !!!           |
|     Specifying the vdW parameters                                           |
|     VDW_S8 = 1.747                                                          |
|     VDW_A1 = 0.536                                                          |
|     VDW_A2 = 3.073                                                          |
|     in the INCAR file will overwrite the defaults for revpbe. Please        |
|     make sure that is what you intended.                                    |

 ion  position               nearest neighbor table
   1  0.412  0.625  0.791-   3 1.10   6 1.10   5 1.10   2 1.44
   2  0.410  0.494  0.748-   4 1.02   1 1.44
   3  0.516  0.610  0.822-   1 1.10
   4  0.313  0.501  0.720-   2 1.02
   5  0.423  0.739  0.767-   1 1.10
   6  0.305  0.626  0.821-   1 1.10
   7  0.000  0.750  0.352-  39 2.11  41 2.11  42 2.11  49 2.11  58 2.11
   8  0.250  0.000  0.352-  40 2.11  41 2.11  42 2.11  50 2.11  57 2.11
   9  0.000  0.000  0.451-  41 2.11  40 2.11  39 2.11  47 2.11  56 2.11  45 2.12
  10  0.250  0.750  0.451-  42 2.11  40 2.11  39 2.11  48 2.11  55 2.11  46 2.12
  11  0.000  0.750  0.550-  45 2.11  46 2.11  53 2.11  62 2.11  39 2.13  43 2.15
  12  0.250  0.000  0.550-  45 2.11  46 2.11  54 2.11  61 2.11  40 2.13  44 2.15
  13  0.000  0.000  0.649-  43 2.11  44 2.11  51 2.11  60 2.11  45 2.11
  14  0.250  0.750  0.649-  43 2.11  44 2.11  52 2.11  59 2.11  46 2.11
  15  0.000  0.250  0.352-  47 2.11  41 2.11  49 2.11  50 2.11  66 2.11
  16  0.250  0.500  0.352-  48 2.11  42 2.11  49 2.11  50 2.11  65 2.11
  17  0.000  0.500  0.451-  49 2.11  47 2.11  48 2.11  39 2.11  64 2.11  53 2.12
  18  0.250  0.250  0.451-  50 2.11  47 2.11  48 2.11  40 2.11  63 2.11  54 2.12
  19  0.000  0.250  0.550-  45 2.11  53 2.11  54 2.11  70 2.11  47 2.13  51 2.15
  20  0.250  0.500  0.550-  46 2.11  53 2.11  54 2.11  69 2.11  48 2.13  52 2.15
  21  0.000  0.500  0.649-  43 2.11  51 2.11  52 2.11  68 2.11  53 2.11
  22  0.250  0.250  0.649-  44 2.11  51 2.11  52 2.11  67 2.11  54 2.11
  23  0.500  0.750  0.352-  55 2.11  42 2.11  57 2.11  58 2.11  65 2.11
  24  0.750  0.000  0.352-  56 2.11  41 2.11  57 2.11  58 2.11  66 2.11
  25  0.500  0.000  0.451-  57 2.11  55 2.11  56 2.11  40 2.11  63 2.11  61 2.12
  26  0.750  0.750  0.451-  58 2.11  55 2.11  56 2.11  39 2.11  64 2.11  62 2.12
  27  0.500  0.750  0.550-  46 2.11  61 2.11  62 2.11  69 2.11  55 2.13  59 2.15
  28  0.750  0.000  0.550-  45 2.11  61 2.11  62 2.11  70 2.11  56 2.13  60 2.15
  29  0.500  0.000  0.649-  44 2.11  59 2.11  60 2.11  67 2.11  61 2.11
  30  0.750  0.750  0.649-  43 2.11  59 2.11  60 2.11  68 2.11  62 2.11
  31  0.500  0.250  0.352-  63 2.11  57 2.11  50 2.11  65 2.11  66 2.11
  32  0.750  0.500  0.352-  64 2.11  58 2.11  49 2.11  65 2.11  66 2.11
  33  0.500  0.500  0.451-  65 2.11  55 2.11  63 2.11  64 2.11  48 2.11  69 2.12
  34  0.750  0.250  0.451-  66 2.11  56 2.11  63 2.11  64 2.11  47 2.11  70 2.12
  35  0.500  0.250  0.550-  54 2.11  61 2.11  69 2.11  70 2.11  63 2.13  67 2.15
  36  0.750  0.500  0.550-  53 2.11  62 2.11  69 2.11  70 2.11  64 2.13  68 2.15
  37  0.500  0.500  0.649-  52 2.11  59 2.11  67 2.11  68 2.11  69 2.11
  38  0.750  0.250  0.649-  51 2.11  60 2.11  67 2.11  68 2.11  70 2.11
  39  0.000  0.750  0.451-   7 2.11   9 2.11  10 2.11  17 2.11  26 2.11  11 2.13
  40  0.250  0.000  0.451-   8 2.11   9 2.11  10 2.11  18 2.11  25 2.11  12 2.13
  41  0.000  0.000  0.352-   9 2.11   8 2.11   7 2.11  15 2.11  24 2.11
  42  0.250  0.750  0.352-  10 2.11   8 2.11   7 2.11  16 2.11  23 2.11
  43  0.000  0.750  0.651-  13 2.11  14 2.11  21 2.11  30 2.11  11 2.15
  44  0.250  0.000  0.651-  13 2.11  14 2.11  22 2.11  29 2.11  12 2.15
  45  0.000  0.000  0.550-  11 2.11  12 2.11  19 2.11  28 2.11  13 2.11   9 2.12
  46  0.250  0.750  0.550-  11 2.11  12 2.11  20 2.11  27 2.11  14 2.11  10 2.12
  47  0.000  0.250  0.451-  15 2.11   9 2.11  17 2.11  18 2.11  34 2.11  19 2.13
  48  0.250  0.500  0.451-  16 2.11  10 2.11  17 2.11  18 2.11  33 2.11  20 2.13
  49  0.000  0.500  0.352-  17 2.11  15 2.11  16 2.11   7 2.11  32 2.11
  50  0.250  0.250  0.352-  18 2.11  15 2.11  16 2.11   8 2.11  31 2.11
  51  0.000  0.250  0.651-  13 2.11  21 2.11  22 2.11  38 2.11  19 2.15
  52  0.250  0.500  0.651-  14 2.11  21 2.11  22 2.11  37 2.11  20 2.15
  53  0.000  0.500  0.550-  11 2.11  19 2.11  20 2.11  36 2.11  21 2.11  17 2.12
  54  0.250  0.250  0.550-  12 2.11  19 2.11  20 2.11  35 2.11  22 2.11  18 2.12
  55  0.500  0.750  0.451-  23 2.11  10 2.11  25 2.11  26 2.11  33 2.11  27 2.13
  56  0.750  0.000  0.451-  24 2.11   9 2.11  25 2.11  26 2.11  34 2.11  28 2.13
  57  0.500  0.000  0.352-  25 2.11  23 2.11  24 2.11   8 2.11  31 2.11
  58  0.750  0.750  0.352-  26 2.11  23 2.11  24 2.11   7 2.11  32 2.11
  59  0.500  0.750  0.651-  14 2.11  29 2.11  30 2.11  37 2.11  27 2.15
  60  0.750  0.000  0.651-  13 2.11  29 2.11  30 2.11  38 2.11  28 2.15
  61  0.500  0.000  0.550-  12 2.11  27 2.11  28 2.11  35 2.11  29 2.11  25 2.12
  62  0.750  0.750  0.550-  11 2.11  27 2.11  28 2.11  36 2.11  30 2.11  26 2.12
  63  0.500  0.250  0.451-  31 2.11  25 2.11  18 2.11  33 2.11  34 2.11  35 2.13
  64  0.750  0.500  0.451-  32 2.11  26 2.11  17 2.11  33 2.11  34 2.11  36 2.13
  65  0.500  0.500  0.352-  33 2.11  23 2.11  31 2.11  32 2.11  16 2.11
  66  0.750  0.250  0.352-  34 2.11  24 2.11  31 2.11  32 2.11  15 2.11
  67  0.500  0.250  0.651-  22 2.11  29 2.11  37 2.11  38 2.11  35 2.15
  68  0.750  0.500  0.651-  21 2.11  30 2.11  37 2.11  38 2.11  36 2.15
  69  0.500  0.500  0.550-  20 2.11  27 2.11  35 2.11  36 2.11  37 2.11  33 2.12
  70  0.750  0.250  0.550-  19 2.11  28 2.11  35 2.11  36 2.11  38 2.11  34 2.12

IMPORTANT INFORMATION: All symmetrisations will be switched off!
NOSYMM: (Re-)initialisation of all symmetry stuff for point group C_1.

                                     Primitive cell

  volume of cell :    1519.8199

  direct lattice vectors                    reciprocal lattice vectors
     8.440984654  0.000000000  0.000000000     0.118469591  0.000000000  0.000000000
     0.000000000  8.440984654  0.000000000     0.000000000  0.118469591  0.000000000
     0.000000000  0.000000000 21.330738491     0.000000000  0.000000000  0.046880702

  length of vectors
     8.440984654  8.440984654 21.330738491     0.118469591  0.118469591  0.046880702

  position of ions in fractional coordinates (direct lattice)
     0.412164312  0.624618019  0.791442476
     0.410437262  0.493901342  0.748399864
     0.515622032  0.610130059  0.822084635
     0.313165091  0.501223388  0.720449482
     0.423158258  0.738890275  0.766626078
     0.304728220  0.625585042  0.820779759
     0.000000000  0.750000000  0.351605267
     0.250000000  0.000000000  0.351605267
     0.000000000  0.000000000  0.450535089
     0.250000000  0.750000000  0.450535089
     0.000000000  0.750000000  0.550171424
     0.250000000  0.000000000  0.550171424
     0.000000000  0.000000000  0.648861363
     0.250000000  0.750000000  0.648861363
     0.000000000  0.250000000  0.351605267
     0.250000000  0.500000000  0.351605267
     0.000000000  0.500000000  0.450535089
     0.250000000  0.250000000  0.450535089
     0.000000000  0.250000000  0.550171424
     0.250000000  0.500000000  0.550171424
     0.000000000  0.500000000  0.648861363
     0.250000000  0.250000000  0.648861363
     0.500000000  0.750000000  0.351605267
     0.750000000  0.000000000  0.351605267
     0.500000000  0.000000000  0.450535089
     0.750000000  0.750000000  0.450535089
     0.500000000  0.750000000  0.550171424
     0.750000000  0.000000000  0.550171424
     0.500000000  0.000000000  0.648861363
     0.750000000  0.750000000  0.648861363
     0.500000000  0.250000000  0.351605267
     0.750000000  0.500000000  0.351605267
     0.500000000  0.500000000  0.450535089
     0.750000000  0.250000000  0.450535089
     0.500000000  0.250000000  0.550171424
     0.750000000  0.500000000  0.550171424
     0.500000000  0.500000000  0.648861363
     0.750000000  0.250000000  0.648861363
     0.000000000  0.750000000  0.450535089
     0.250000000  0.000000000  0.450535089
     0.000000000  0.000000000  0.351605267
     0.250000000  0.750000000  0.351605267
     0.000000000  0.750000000  0.651006323
     0.250000000  0.000000000  0.651006323
     0.000000000  0.000000000  0.549890244
     0.250000000  0.750000000  0.549890244
     0.000000000  0.250000000  0.450535089
     0.250000000  0.500000000  0.450535089
     0.000000000  0.500000000  0.351605267
     0.250000000  0.250000000  0.351605267
     0.000000000  0.250000000  0.651006323
     0.250000000  0.500000000  0.651006323
     0.000000000  0.500000000  0.549890244
     0.250000000  0.250000000  0.549890244
     0.500000000  0.750000000  0.450535089
     0.750000000  0.000000000  0.450535089
     0.500000000  0.000000000  0.351605267
     0.750000000  0.750000000  0.351605267
     0.500000000  0.750000000  0.651006323
     0.750000000  0.000000000  0.651006323
     0.500000000  0.000000000  0.549890244
     0.750000000  0.750000000  0.549890244
[...]
   0.00000000  0.00000000 11.72956500
   2.11024616  6.33073849 11.72956500
   0.00000000  2.11024616  9.61024616
   2.11024616  4.22049233  9.61024616
   0.00000000  4.22049233  7.50000000
   2.11024616  2.11024616  7.50000000
   0.00000000  2.11024616 13.88644563
   2.11024616  4.22049233 13.88644563
   0.00000000  4.22049233 11.72956500
   2.11024616  2.11024616 11.72956500
   4.22049233  6.33073849  9.61024616
   6.33073849  0.00000000  9.61024616
   4.22049233  0.00000000  7.50000000
   6.33073849  6.33073849  7.50000000
   4.22049233  6.33073849 13.88644563
   6.33073849  0.00000000 13.88644563
   4.22049233  0.00000000 11.72956500
   6.33073849  6.33073849 11.72956500
   4.22049233  2.11024616  9.61024616
   6.33073849  4.22049233  9.61024616
   4.22049233  4.22049233  7.50000000
   6.33073849  2.11024616  7.50000000
   4.22049233  2.11024616 13.88644563
   6.33073849  4.22049233 13.88644563
   4.22049233  4.22049233 11.72956500
   6.33073849  2.11024616 11.72956500

--------------------------------------- Iteration      FINAL  ---------------------------------------

--------------------OUTCAR has been truncated-------------------------

[...]

--------------------OUTCAR has been truncated-------------------------

  FORCE on cell =-STRESS in cart. coord.  units (eV):
  Direction    XX          YY          ZZ          XY          YZ          ZX
  Alpha Z   918.85614   918.85614   918.85614
  Ewald  157991.70600158067.67902************     2.72155   135.58717    25.14501
  Hartree168397.56440168465.26157************     2.17175    78.51856     0.63098
  E(xc)   -2523.51463 -2523.60077 -2530.99139    -0.01485     0.23714     0.31796
  Local  ************************335885.53038    -5.58504  -204.61524   -16.38482
  n-local -2835.68364 -2833.85642 -2855.10718     0.15957     1.92191    -0.28477
  augment  1053.42874  1053.41036  1043.85954     0.05676    -0.84837    -0.59978
  Kinetic  7544.67969  7546.69558  7580.55026     0.52039   -10.71554    -8.72322
  Fock        0.00000     0.00000     0.00000     0.00000     0.00000     0.00000
  vdW       -21.85089   -21.90477   -17.13203    -0.01141    -0.02543     0.01256
  Total     -25.25616   -25.52246    -2.00422     0.01873     0.06020     0.11393
  in kB     -26.62476   -26.90549    -2.11283     0.01975     0.06346     0.12010

 VOLUME and BASIS-vectors are now :
  energy-cutoff  :      600.00
  volume of cell :     1519.82
      direct lattice vectors                 reciprocal lattice vectors
     8.440984654  0.000000000  0.000000000     0.118469591  0.000000000  0.000000000
     0.000000000  8.440984654  0.000000000     0.000000000  0.118469591  0.000000000
     0.000000000  0.000000000 21.330738491     0.000000000  0.000000000  0.046880702

  length of vectors
     8.440984654  8.440984654 21.330738491     0.118469591  0.118469591  0.046880702

 FORCES acting on ions:
    Electron-Ion                     Ewald-Force                    Non-Local-Force
   -.103E+01 -.951E+02 -.101E+04   0.119E+01 0.997E+02 0.102E+04   -.152E+00 -.462E+01 -.339E+01
   -.318E+02 0.138E+03 -.160E+04   0.561E+02 -.169E+03 0.160E+04   -.244E+02 0.311E+02 -.724E+00
   -.482E+02 -.392E+01 -.245E+03   0.527E+02 0.344E+01 0.248E+03   -.451E+01 0.474E+00 -.342E+01
   0.666E+02 0.663E+01 -.251E+03   -.721E+02 -.652E+01 0.247E+03   0.548E+01 -.108E+00 0.406E+01
   -.445E+01 -.602E+02 -.239E+03   0.493E+01 0.650E+02 0.237E+03   -.484E+00 -.480E+01 0.278E+01
   0.489E+02 -.913E+01 -.244E+03   -.535E+02 0.918E+01 0.247E+03   0.456E+01 -.385E-01 -.318E+01
   0.105E+00 0.611E-03 0.209E+04   -.109E+00 -.279E-02 -.208E+04   0.266E-02 0.157E-02 -.715E+01
   0.111E+00 -.117E+00 0.209E+04   -.108E+00 0.118E+00 -.208E+04   -.258E-02 -.101E-02 -.713E+01
   0.489E+00 -.493E+00 0.732E+03   -.527E+00 0.504E+00 -.732E+03   0.269E-01 -.791E-02 0.474E+00
   0.315E+00 -.152E+00 0.733E+03   -.277E+00 0.706E-01 -.734E+03   -.260E-01 0.595E-01 0.620E+00
   0.276E+01 -.339E+01 -.614E+03   -.286E+01 0.335E+01 0.614E+03   0.104E+00 0.366E-01 -.127E+00
   0.442E+01 -.209E+01 -.610E+03   -.435E+01 0.215E+01 0.610E+03   -.662E-01 -.600E-01 -.801E-01
   0.831E+01 -.498E+01 -.198E+04   -.849E+01 0.503E+01 0.198E+04   0.186E+00 -.480E-01 0.609E+01
   0.342E+02 -.332E+02 -.191E+04   -.344E+02 0.344E+02 0.190E+04   0.207E+00 -.118E+01 0.640E+01
   0.962E-01 -.141E-02 0.209E+04   -.991E-01 0.316E-02 -.208E+04   0.209E-02 -.123E-02 -.716E+01
   0.101E+00 0.117E+00 0.209E+04   -.916E-01 -.119E+00 -.208E+04   -.690E-02 0.130E-02 -.717E+01
   0.598E+00 0.481E+00 0.732E+03   -.573E+00 -.499E+00 -.732E+03   -.189E-01 0.127E-01 0.540E+00
   0.303E+00 0.127E+00 0.732E+03   -.289E+00 -.516E-01 -.733E+03   -.808E-02 -.556E-01 0.627E+00
   0.224E+01 0.338E+01 -.618E+03   -.231E+01 -.334E+01 0.618E+03   0.731E-01 -.374E-01 -.196E+00
   0.498E+01 0.219E+01 -.612E+03   -.470E+01 -.224E+01 0.611E+03   -.288E+00 0.581E-01 0.969E+00
   0.183E+02 0.539E+01 -.196E+04   -.188E+02 -.543E+01 0.195E+04   0.509E+00 0.415E-01 0.602E+01
   0.273E+02 0.319E+02 -.194E+04   -.273E+02 -.330E+02 0.193E+04   -.183E-01 0.118E+01 0.634E+01
   -.107E+00 0.120E-01 0.209E+04   0.110E+00 -.197E-01 -.208E+04   -.227E-02 0.594E-02 -.718E+01
   -.112E+00 -.108E+00 0.209E+04   0.108E+00 0.109E+00 -.208E+04   0.281E-02 -.493E-03 -.716E+01
   -.491E+00 -.514E+00 0.734E+03   0.524E+00 0.498E+00 -.734E+03   -.236E-01 0.122E-01 0.336E+00
   -.303E+00 0.449E-01 0.733E+03   0.257E+00 -.588E-01 -.733E+03   0.316E-01 0.884E-02 0.517E+00
   -.289E+01 -.485E+01 -.604E+03   0.298E+01 0.458E+01 0.605E+03   -.934E-01 0.273E+00 -.686E+00
   -.446E+01 -.156E+01 -.617E+03   0.439E+01 0.159E+01 0.617E+03   0.770E-01 -.311E-01 -.105E+00
   -.994E+01 -.104E+02 -.196E+04   0.101E+02 0.106E+02 0.196E+04   -.169E+00 -.177E+00 0.621E+01
   -.282E+02 -.205E+02 -.196E+04   0.283E+02 0.208E+02 0.195E+04   -.126E+00 -.340E+00 0.622E+01
   -.976E-01 -.126E-01 0.209E+04   0.100E+00 0.198E-01 -.208E+04   -.183E-02 -.550E-02 -.717E+01
   -.987E-01 0.107E+00 0.209E+04   0.894E-01 -.109E+00 -.208E+04   0.699E-02 0.805E-03 -.716E+01
   -.667E+00 0.486E+00 0.731E+03   0.640E+00 -.479E+00 -.732E+03   0.208E-01 -.604E-02 0.705E+00
   -.297E+00 -.583E-01 0.732E+03   0.278E+00 0.656E-01 -.732E+03   0.116E-01 -.442E-02 0.489E+00
   -.230E+01 0.486E+01 -.606E+03   0.237E+01 -.460E+01 0.608E+03   -.653E-01 -.272E+00 -.106E+01
   -.565E+01 0.158E+01 -.611E+03   0.542E+01 -.161E+01 0.611E+03   0.233E+00 0.292E-01 -.355E+00
   -.421E+02 0.142E+02 -.186E+04   0.442E+02 -.143E+02 0.186E+04   -.208E+01 0.105E+00 0.302E+01
   -.232E+02 0.199E+02 -.197E+04   0.232E+02 -.202E+02 0.197E+04   0.289E-01 0.346E+00 0.621E+01
   0.245E+00 -.565E-01 0.549E+03   -.248E+00 0.626E-01 -.549E+03   0.704E-02 -.900E-02 -.657E-01
   0.474E+00 -.343E+00 0.550E+03   -.448E+00 0.342E+00 -.550E+03   -.376E-01 0.650E-03 0.228E-01
   0.746E-01 -.851E-01 0.157E+04   -.809E-01 0.876E-01 -.157E+04   0.871E-02 -.343E-02 0.341E+01
   0.752E-01 -.404E-03 0.157E+04   -.673E-01 -.758E-02 -.157E+04   -.110E-01 0.112E-01 0.341E+01
   0.124E+02 -.115E+02 -.150E+04   -.124E+02 0.113E+02 0.151E+04   -.145E-01 0.215E+00 -.499E+01
   0.122E+02 -.804E+01 -.150E+04   -.121E+02 0.808E+01 0.150E+04   -.815E-01 -.323E-01 -.500E+01
   0.205E+01 -.125E+01 -.460E+03   -.208E+01 0.126E+01 0.459E+03   0.280E-01 -.694E-02 0.214E+00
   0.366E+01 -.282E+01 -.447E+03   -.361E+01 0.291E+01 0.446E+03   -.586E-01 -.861E-01 0.701E+00
   0.201E+00 0.381E-01 0.548E+03   -.213E+00 -.348E-01 -.548E+03   0.197E-01 -.337E-02 -.107E+00
   0.467E+00 0.336E+00 0.549E+03   -.503E+00 -.328E+00 -.549E+03   0.468E-01 -.108E-01 -.137E+00
   0.839E-01 0.856E-01 0.157E+04   -.836E-01 -.878E-01 -.157E+04   -.446E-03 0.301E-02 0.341E+01
   0.751E-01 0.463E-03 0.157E+04   -.700E-01 0.773E-02 -.157E+04   -.711E-02 -.115E-01 0.341E+01
   0.935E+01 0.112E+02 -.151E+04   -.931E+01 -.110E+02 0.151E+04   -.483E-01 -.205E+00 -.497E+01
   0.461E+02 0.941E+01 -.142E+04   -.461E+02 -.942E+01 0.142E+04   -.276E-01 0.915E-02 -.121E+01
   0.178E+01 0.129E+01 -.454E+03   -.181E+01 -.130E+01 0.454E+03   0.277E-01 0.114E-01 0.405E+00
   0.345E+01 0.280E+01 -.453E+03   -.338E+01 -.289E+01 0.452E+03   -.742E-01 0.925E-01 0.461E+00
   -.282E+00 -.417E-01 0.549E+03   0.296E+00 0.112E+00 -.549E+03   -.219E-01 -.948E-01 -.200E+00
   -.494E+00 -.297E+00 0.549E+03   0.474E+00 0.304E+00 -.549E+03   0.288E-01 -.975E-02 -.748E-01
   -.745E-01 -.851E-01 0.157E+04   0.809E-01 0.849E-01 -.157E+04   -.896E-02 0.268E-03 0.340E+01
   -.738E-01 0.102E-01 0.157E+04   0.663E-01 -.115E-01 -.157E+04   0.105E-01 0.179E-02 0.340E+01
   -.176E+02 -.362E+02 -.144E+04   0.175E+02 0.358E+02 0.145E+04   0.985E-01 0.458E+00 -.484E+01
   -.110E+02 -.481E+01 -.151E+04   0.109E+02 0.484E+01 0.151E+04   0.735E-01 -.227E-01 -.492E+01
   -.203E+01 -.151E+01 -.450E+03   0.205E+01 0.154E+01 0.450E+03   -.258E-01 -.288E-01 0.257E+00
   -.356E+01 -.286E+01 -.453E+03   0.349E+01 0.288E+01 0.453E+03   0.694E-01 -.175E-01 0.321E+00
   -.226E+00 0.309E-01 0.548E+03   0.245E+00 -.897E-01 -.548E+03   -.293E-01 0.793E-01 -.187E+00
   -.423E+00 0.279E+00 0.548E+03   0.460E+00 -.277E+00 -.548E+03   -.491E-01 -.164E-02 -.112E+00
   -.854E-01 0.855E-01 0.157E+04   0.852E-01 -.849E-01 -.157E+04   0.292E-03 -.845E-03 0.339E+01
   -.741E-01 -.982E-02 0.157E+04   0.692E-01 0.113E-01 -.157E+04   0.679E-02 -.214E-02 0.340E+01
   -.125E+02 0.339E+02 -.146E+04   0.124E+02 -.335E+02 0.147E+04   0.956E-01 -.456E+00 -.512E+01
   -.323E+02 0.518E+01 -.148E+04   0.324E+02 -.521E+01 0.148E+04   -.658E-01 0.311E-01 -.481E+01
   -.133E+01 0.156E+01 -.460E+03   0.137E+01 -.159E+01 0.461E+03   -.413E-01 0.344E-01 -.918E+00
   -.338E+01 0.287E+01 -.456E+03   0.330E+01 -.289E+01 0.456E+03   0.844E-01 0.263E-01 0.230E+00
   0.209E+02 -.220E+02 0.198E+02   0.600E-12 -.497E-13 -.142E-11   -.209E+02 0.220E+02 -.198E+02

 POSITION                                       TOTAL-FORCE (eV/Angst)
      3.50744      5.28836     16.97375         0.004725     -0.005331     -0.000341
      3.51419      4.16627     16.07700        -0.005453      0.007278     -0.000992
      4.38089      5.19444     17.63249         0.005994     -0.003176      0.000329
      2.69786      4.21434     15.47318        -0.003102      0.001921      0.002793
      3.58621      6.24257     16.42380        -0.000871     -0.001889      0.007302
      2.59763      5.29350     17.59700         0.009398      0.000765     -0.000366
      0.00000      6.33074      7.50000        -0.000980     -0.000524      0.336368
      2.11025      0.00000      7.50000         0.001187      0.000379      0.332445
      0.00000      0.00000      9.61025        -0.010643      0.003037      0.066338
      2.11025      6.33074      9.61025         0.011500     -0.021041      0.073328
     -0.00368      6.32875     11.73161         0.002703     -0.000064      0.000528
      2.11133      0.00099     11.72762         0.005702      0.000862     -0.004519
     -0.00538     -0.00013     13.83626         0.000140     -0.000245     -0.003381
      2.10496      6.35319     13.81664         0.001336     -0.002215     -0.002091
      0.00000      2.11025      7.50000        -0.000843      0.000476      0.338683
      2.11025      4.22049      7.50000         0.002283     -0.000369      0.339541
      0.00000      4.22049      9.61025         0.005703     -0.005437      0.096554
      2.11025      2.11025      9.61025         0.005184      0.019115      0.076750
     -0.00244      2.11068     11.73402         0.001060      0.000438     -0.000824
      2.11889      4.21816     11.74058        -0.002317      0.000213     -0.006166
     -0.02220      4.21808     13.83581         0.003557      0.000569     -0.001603
      2.11040      2.08567     13.83297         0.003093      0.003110     -0.003808
      4.22049      6.33074      7.50000         0.000957     -0.001642      0.342389
      6.33074      0.00000      7.50000        -0.001116      0.000255      0.339806
      4.22049      0.00000      9.61025         0.009078     -0.004063      0.095513
      6.33074      6.33074      9.61025        -0.014685     -0.004583      0.075674
      4.22229      6.32090     11.74268        -0.002854      0.004500     -0.001886
      6.32827     -0.00001     11.72998        -0.003432      0.002632      0.002175
      4.22349      0.00202     13.82923        -0.000249      0.001933     -0.003974
      6.33120      6.33725     13.83479         0.001021      0.005557     -0.004666
      4.22049      2.11025      7.50000         0.000841      0.001611      0.341003
      6.33074      4.22049      7.50000        -0.002207     -0.000242      0.337642
      4.22049      4.22049      9.61025        -0.005419      0.001197      0.110562
      6.33074      2.11025      9.61025        -0.007305      0.002484      0.081240
      4.22165      2.11835     11.74261        -0.001560     -0.004234      0.001487
      6.32263      4.21892     11.73992         0.000102     -0.000460     -0.009102
      4.27630      4.21424     13.95274        -0.000952     -0.001733     -0.007209
      6.32835      2.10161     13.83984        -0.000877     -0.004938     -0.005108
      0.00000      6.33074      9.61025         0.004306     -0.002567      0.073359
      2.11025      0.00000      9.61025        -0.011318     -0.000388      0.081246
      0.00000      0.00000      7.50000         0.002497     -0.000950     -0.498617
      2.11025      6.33074      7.50000        -0.003098      0.003289     -0.498707
     -0.00058      6.33495     13.88515        -0.001015     -0.003024     -0.004257
      2.10678     -0.00301     13.87964         0.000499      0.000729      0.000248
      0.00082     -0.00122     11.72599         0.000766     -0.000258      0.005003
      2.10700      6.32509     11.73113        -0.000683     -0.001689     -0.002187
      0.00000      2.11025      9.61025         0.007374     -0.000396      0.072950
      2.11025      4.22049      9.61025         0.009668     -0.002120      0.095178
      0.00000      4.22049      7.50000        -0.000127      0.000882     -0.499553
      2.11025      2.11025      7.50000        -0.001978     -0.003323     -0.499393
     -0.00080      2.10344     13.88533        -0.000292      0.006075     -0.003370
      2.06581      4.22145     13.93288         0.001769      0.002021      0.001694
      0.00377      4.22019     11.73152        -0.000569      0.000983      0.003324
      2.10629      2.11439     11.73321        -0.001541      0.002878     -0.004107
      4.22049      6.33074      9.61025        -0.007655     -0.023993      0.088721
      6.33074      0.00000      9.61025         0.009464     -0.002923      0.062451
      4.22049      0.00000      7.50000        -0.002479      0.000118     -0.501421
      6.33074      6.33074      7.50000         0.003031      0.000581     -0.501137
      4.21737      6.34216     13.87350         0.001103     -0.003476      0.000137
      6.33222     -0.00223     13.88186        -0.005632      0.000327      0.003840
      4.21878     -0.00243     11.72226        -0.004014     -0.000950     -0.003442
      6.33248      6.32971     11.72836         0.000335     -0.004117     -0.001088
      4.22049      2.11025      9.61025        -0.009491      0.020073      0.093273
      6.33074      4.22049      9.61025        -0.010954      0.000213      0.102499
      4.22049      4.22049      7.50000         0.000179     -0.000233     -0.504430
      6.33074      2.11025      7.50000         0.001976     -0.000626     -0.501552
      4.21809      2.09598     13.85854         0.000925      0.006013     -0.000074
      6.34706      4.22082     13.88494        -0.000313      0.002819     -0.001075
      4.21522      4.22096     11.74881         0.005045      0.002105      0.000458
      6.33357      2.10977     11.72809         0.001526      0.005782     -0.002390
    total drift:                               -0.003468     -0.002382      0.004752

  FREE ENERGIE OF THE ION-ELECTRON SYSTEM (eV)
  free  energy   TOTEN  =      -402.10246969 eV

  energy  without entropy=     -402.10246969  energy(sigma->0) =     -402.10246969

 d Force = 0.4009941E-04[ 0.213E-04, 0.589E-04]  d Energy = 0.3987212E-04 0.227E-06
 d Force =-0.1490830E+01[-0.149E+01,-0.149E+01]  d Ewald  =-0.1490830E+01-0.790E-07

 Conjugate gradient step on ions:
 trial-energy change:   -0.000040  1 .order   -0.000040   -0.000059   -0.000021
  (g-gl).g = 0.129E-03      g.g   = 0.142E-03  gl.gl    = 0.931E-04
 g(Force)  = 0.142E-03   g(Stress)= 0.000E+00 ortho     = 0.393E-05
 gamma     =   1.38536
 trial     =   0.39957
 opt step  =   0.62677  (harmonic =   0.62677) maximal distance =0.00178398
 next E    =  -402.102476   (d E  =  -0.00005)

 reached required accuracy - stopping structural energy minimisation