 vasp.6.3.0 20Jan22 (build Apr  1 2022 16:44:48) complex
 executed on        HPECrayEX_GCC date 2022.10.10  23:17:41

 INCAR:
   SYSTEM = MgO-rocksalt
   ISMEAR = 0
   SIGMA = 0.05
   EDIFF = 1E-6
   ALGO = ALL
   ISTART = 0
   IBRION = -1
   NSW = 0
   ISYM = 0
   DIPOL = 0.5 0.5 0.5
   IDIPOL = 3
   LDIPOL = .TRUE.
   LHFCALC = .TRUE.
   GGA = B5
   AEXX = 0.2
   AGGAX = 0.72
   AGGAC = 0.81
   ALDAC = 0.19
   IVDW = 1
   VDW_S6 = 1.05
   VDW_C6 = 0.63 0.70
   VDW_R0 = 1.243 1.342
   ENCUT = 600
   PREC = Accurate
   LASPH = .TRUE.
   LREAL = .FALSE.
   ISPIN = 1
   NELM = 200
   NELMIN = 8
   NCORE = 8
   KPAR = 1
   LWAVE = .FALSE.
   LCHARG = .FALSE.

 POTCAR:    PAW_PBE Mg_pv 13Apr2007
 POTCAR:    PAW_PBE O 08Apr2002
 POTCAR:    PAW_PBE Mg_pv 13Apr2007
   VRHFIN =Mg: p6s2

   TITEL  = PAW_PBE Mg_pv 13Apr2007
   POMASS =   24.305; ZVAL   =    8.000    mass and valenz
   ENMAX  =  403.929; ENMIN  =  302.947 eV

   TITEL  = PAW_PBE O 08Apr2002
   POMASS =   16.000; ZVAL   =    6.000    mass and valenz
   ENMAX  =  400.000; ENMIN  =  300.000 eV

  PAW_PBE Mg_pv 13Apr2007               :
  PAW_PBE O 08Apr2002                   :

 POSCAR: Mg  O
  positions in direct lattice
 exchange correlation table for  LEXCH =       12
   RHO(1)=    0.500       N(1)  =     2000
   RHO(2)=  100.500       N(2)  =     4000

 ion  position               nearest neighbor table
   1  0.250  0.000  0.351-  33 2.12  35 2.12  36 2.12  43 2.12  52 2.12
   2  0.500  0.250  0.351-  34 2.12  35 2.12  36 2.12  44 2.12  51 2.12
   3  0.250  0.250  0.450-  35 2.12  34 2.12  33 2.12  41 2.12  50 2.12  39 2.12
   4  0.500  0.000  0.450-  36 2.12  34 2.12  33 2.12  42 2.12  49 2.12  40 2.12
   5  0.250  0.000  0.550-  39 2.11  47 2.12  40 2.12  56 2.12  33 2.13  37 2.14
   6  0.500  0.251  0.550-  39 2.12  48 2.12  55 2.12  40 2.13  34 2.13  38 2.14
   7  0.249  0.250  0.648-  39 2.11  54 2.11  37 2.11  45 2.12  38 2.13
   8  0.500  0.002  0.648-  38 2.08  46 2.09  40 2.10  37 2.12  53 2.13
   9  0.250  0.500  0.351-  41 2.12  35 2.12  43 2.12  44 2.12  60 2.12
  10  0.500  0.750  0.351-  42 2.12  36 2.12  43 2.12  44 2.12  59 2.12
  11  0.250  0.750  0.450-  43 2.12  41 2.12  42 2.12  33 2.12  58 2.12  47 2.12
  12  0.500  0.500  0.450-  44 2.12  41 2.12  42 2.12  34 2.12  57 2.12  48 2.14
  13  0.251  0.500  0.550-  48 2.11  45 2.12  39 2.12  47 2.12  64 2.13  41 2.14
  14  0.500  0.749  0.550-  48 2.10  47 2.11  63 2.11  40 2.12  42 2.14  46 2.19
  15  0.247  0.750  0.648-  47 2.10  62 2.10  37 2.12  45 2.12  46 2.14
  16  0.498  0.493  0.653-  38 2.08  45 2.12  61 2.15  48 2.19  46 2.22
  17  0.750  0.000  0.351-  49 2.12  36 2.12  51 2.12  52 2.12  59 2.12
  18  0.000  0.250  0.351-  50 2.12  35 2.12  51 2.12  52 2.12  60 2.12
  19  0.750  0.250  0.450-  51 2.12  49 2.12  50 2.12  34 2.12  57 2.12  55 2.12
  20  0.000  0.000  0.450-  56 2.12  52 2.12  50 2.12  33 2.12  49 2.12  58 2.12
  21  0.750  0.000  0.550-  55 2.11  40 2.11  56 2.12  63 2.12  49 2.12  53 2.15
  22  0.000  0.250  0.550-  39 2.12  64 2.12  55 2.12  56 2.12  50 2.12  54 2.15
  23  0.751  0.249  0.648-  55 2.10  54 2.11  53 2.11  38 2.13  61 2.13
  24  0.000  0.000  0.648-  56 2.11  37 2.11  54 2.11  53 2.11  62 2.12
  25  0.750  0.500  0.351-  57 2.12  51 2.12  44 2.12  59 2.12  60 2.12
  26  0.000  0.750  0.351-  58 2.12  52 2.12  43 2.12  59 2.12  60 2.12
  27  0.750  0.750  0.450-  59 2.12  49 2.12  57 2.12  58 2.12  42 2.12  63 2.12
  28  0.000  0.500  0.450-  64 2.12  60 2.12  57 2.12  58 2.12  41 2.12  50 2.12
  29  0.749  0.500  0.551-  48 2.11  55 2.11  63 2.12  64 2.12  57 2.14  61 2.15
  30  0.000  0.750  0.550-  64 2.11  56 2.12  47 2.12  58 2.12  63 2.12  62 2.15
  31  0.753  0.751  0.647-  63 2.08  62 2.09  53 2.11  61 2.12  46 2.14
  32  0.000  0.499  0.648-  45 2.10  64 2.10  61 2.11  54 2.12  62 2.13
  33  0.250  0.000  0.450-   1 2.12   3 2.12   4 2.12  11 2.12  20 2.12   5 2.13
  34  0.500  0.250  0.450-   2 2.12   3 2.12   4 2.12  12 2.12  19 2.12   6 2.13
  35  0.250  0.250  0.351-   3 2.12   2 2.12   1 2.12   9 2.12  18 2.12
  36  0.500  0.000  0.351-   4 2.12   2 2.12   1 2.12  10 2.12  17 2.12
  37  0.249  0.000  0.650-  24 2.11   7 2.11  15 2.12   8 2.12   5 2.14
  38  0.500  0.247  0.650-  16 2.08   8 2.08  23 2.13   7 2.13   6 2.14
  39  0.250  0.250  0.550-   7 2.11   5 2.11   6 2.12  22 2.12  13 2.12   3 2.12
  40  0.500  0.999  0.550-   8 2.10  21 2.11   5 2.12  14 2.12   4 2.12   6 2.13
  41  0.250  0.500  0.450-   9 2.12   3 2.12  11 2.12  12 2.12  28 2.12  13 2.14
  42  0.500  0.750  0.450-  10 2.12   4 2.12  11 2.12  12 2.12  27 2.12  14 2.14
  43  0.250  0.750  0.351-  11 2.12   9 2.12  10 2.12   1 2.12  26 2.12
  44  0.500  0.500  0.351-  12 2.12   9 2.12  10 2.12   2 2.12  25 2.12
  45  0.248  0.500  0.650-  32 2.10  13 2.12  16 2.12  15 2.12   7 2.12
  46  0.500  0.755  0.653-   8 2.09  15 2.14  31 2.14  14 2.19  16 2.22
  47  0.251  0.750  0.550-  15 2.10  14 2.11   5 2.12  30 2.12  13 2.12  11 2.12
  48  0.500  0.500  0.551-  14 2.10  29 2.11  13 2.11   6 2.12  12 2.14  16 2.19
  49  0.750  0.000  0.450-  17 2.12   4 2.12  19 2.12  20 2.12  27 2.12  21 2.12
  50  0.000  0.250  0.450-  18 2.12   3 2.12  19 2.12  20 2.12  28 2.12  22 2.12
  51  0.750  0.250  0.351-  19 2.12  17 2.12  18 2.12   2 2.12  25 2.12
  52  0.000  0.000  0.351-  20 2.12  17 2.12  18 2.12   1 2.12  26 2.12
  53  0.751  1.000  0.650-  31 2.11  23 2.11  24 2.11   8 2.13  21 2.15
  54  1.000  0.250  0.650-  23 2.11   7 2.11  24 2.11  32 2.12  22 2.15
  55  0.750  0.250  0.550-  23 2.10  21 2.11  29 2.11   6 2.12  22 2.12  19 2.12
  56  1.000  1.000  0.550-  24 2.11  20 2.12  30 2.12  21 2.12   5 2.12  22 2.12
  57  0.750  0.500  0.450-  25 2.12  19 2.12  12 2.12  27 2.12  28 2.12  29 2.14
  58  0.000  0.750  0.450-  26 2.12  20 2.12  11 2.12  27 2.12  28 2.12  30 2.12
  59  0.750  0.750  0.351-  27 2.12  17 2.12  25 2.12  26 2.12  10 2.12
  60  0.000  0.500  0.351-  28 2.12  18 2.12  25 2.12  26 2.12   9 2.12
  61  0.752  0.500  0.651-  32 2.11  31 2.12  23 2.13  29 2.15  16 2.15
  62  1.000  0.750  0.650-  31 2.09  15 2.10  24 2.12  32 2.13  30 2.15
  63  0.749  0.750  0.550-  31 2.08  14 2.11  29 2.12  21 2.12  27 2.12  30 2.12
  64  0.999  0.500  0.549-  32 2.10  30 2.11  28 2.12  22 2.12  29 2.12  13 2.13

IMPORTANT INFORMATION: All symmetrisations will be switched off!
NOSYMM: (Re-)initialisation of all symmetry stuff for point group C_1.

                                     Primitive cell

  volume of cell :    1530.6606

  direct lattice vectors                    reciprocal lattice vectors
     8.467142631  0.000000000  0.000000000     0.118103597  0.000000000  0.000000000
     0.000000000  8.467142631  0.000000000     0.000000000  0.118103597  0.000000000
     0.000000000  0.000000000 21.350356973     0.000000000  0.000000000  0.046837624

  length of vectors
     8.467142631  8.467142631 21.350356973     0.118103597  0.118103597  0.046837624

  position of ions in fractional coordinates (direct lattice)
     0.250000000  0.000000000  0.351282183
     0.500000000  0.250000000  0.351282183
     0.250000000  0.250000000  0.450427394
     0.500000000  0.000000000  0.450427394
     0.250032233  0.000133176  0.550031420
     0.499751878  0.250569241  0.550283616
     0.248672518  0.249650048  0.648388025
     0.499592784  0.002211166  0.648337588
     0.250000000  0.500000000  0.351282183
     0.500000000  0.750000000  0.351282183
     0.250000000  0.750000000  0.450427394
     0.500000000  0.500000000  0.450427394
     0.250696861  0.499748779  0.550441205
     0.499693114  0.748975423  0.550434071
     0.247439825  0.750092154  0.648133305
     0.497686110  0.492583364  0.653325299
     0.750000000  0.000000000  0.351282183
     0.000000000  0.250000000  0.351282183
     0.750000000  0.250000000  0.450427394
     0.000000000  0.000000000  0.450427394
     0.749735738  0.000299530  0.549942025
     0.000003631  0.250160781  0.549883029
     0.750847309  0.249343149  0.648140532
     0.000047818  0.000439009  0.648231609
     0.750000000  0.500000000  0.351282183
     0.000000000  0.750000000  0.351282183
     0.750000000  0.750000000  0.450427394
     0.000000000  0.500000000  0.450427394
     0.748910228  0.499694347  0.550551900
     0.000184533  0.749747611  0.549795373
     0.752611674  0.750917130  0.647281604
     0.000424038  0.499481760  0.648066458
     0.250000000  0.000000000  0.450427394
     0.500000000  0.250000000  0.450427394
     0.250000000  0.250000000  0.351282183
     0.500000000  0.000000000  0.351282183
     0.249014116  0.000010190  0.650472934
     0.499930575  0.247495821  0.650345530
     0.249900408  0.249635554  0.549642234
     0.499989938  0.999335000  0.549799547
     0.250000000  0.500000000  0.450427394
     0.500000000  0.750000000  0.450427394
     0.250000000  0.750000000  0.351282183
     0.500000000  0.500000000  0.351282183
     0.247893604  0.499985578  0.649532219
     0.500000792  0.755258911  0.653170866
     0.250565688  0.750219015  0.549915226
     0.500143332  0.500447476  0.550800906
     0.750000000  0.000000000  0.450427394
     0.000000000  0.250000000  0.450427394
     0.750000000  0.250000000  0.351282183
     0.000000000  0.000000000  0.351282183
     0.750648718  0.999982229  0.650470985
     0.999705839  0.249538050  0.650444717
     0.749852917  0.249946874  0.549742972
     0.999788896  0.999773291  0.549544039
     0.750000000  0.500000000  0.450427394
     0.000000000  0.750000000  0.450427394
     0.750000000  0.750000000  0.351282183
     0.000000000  0.500000000  0.351282183
     0.751818255  0.500235192  0.651098599
     0.999754283  0.750403351  0.650334969
     0.749261569  0.749988074  0.549879739
     0.999492757  0.500135764  0.549490413

  ion indices of the primitive-cell ions
   primitive index   ion index
                 1           1
                 2           2
                 3           3
                 4           4
                 5           5
                 6           6
                 7           7
                 8           8
                 9           9
                10          10
                11          11
                12          12
                13          13
                14          14
                15          15
                16          16
                17          17
                18          18
                19          19
                20          20
                21          21
                22          22
                23          23
                24          24
                25          25
                26          26
                27          27
                28          28
                29          29
                30          30
                31          31
                32          32
                33          33
                34          34
                35          35
                36          36
                37          37
                38          38
                39          39
                40          40
                41          41
                42          42
                43          43
                44          44
[...]
   0.50000000  0.75000000  0.45042739
   0.25000000  0.75000000  0.35128218
   0.50000000  0.50000000  0.35128218
   0.24789360  0.49998558  0.64953222
   0.50000079  0.75525891  0.65317087
   0.25056569  0.75021902  0.54991523
   0.50014333  0.50044748  0.55080091
   0.75000000  0.00000000  0.45042739
   0.00000000  0.25000000  0.45042739
   0.75000000  0.25000000  0.35128218
   0.00000000  0.00000000  0.35128218
   0.75064872  0.99998223  0.65047098
   0.99970584  0.24953805  0.65044472
   0.74985292  0.24994687  0.54974297
   0.99978890  0.99977329  0.54954404
   0.75000000  0.50000000  0.45042739
   0.00000000  0.75000000  0.45042739
   0.75000000  0.75000000  0.35128218
   0.00000000  0.50000000  0.35128218
   0.75181826  0.50023519  0.65109860
   0.99975428  0.75040335  0.65033497
   0.74926157  0.74998807  0.54987974
   0.99949276  0.50013576  0.54949041

 position of ions in cartesian coordinates  (Angst):
   2.11678566  0.00000000  7.50000000
   4.23357132  2.11678566  7.50000000
   2.11678566  2.11678566  9.61678566
   4.23357132  0.00000000  9.61678566
   2.11705858  0.00112762 11.74336716
   4.23147043  2.12160550 11.74875163
   2.10554568  2.11382256 13.84331578
   4.23012336  0.01872226 13.84223893
   2.11678566  4.23357132  7.50000000
   4.23357132  6.35035697  7.50000000
   2.11678566  6.35035697  9.61678566
   4.23357132  4.23357132  9.61678566
   2.12268608  4.23144419 11.75211622
   4.23097286  6.34168173 11.75196390
   2.09510829  6.35113726 13.83787743
   4.21397928  4.17077360 13.94872836
   6.35035697  0.00000000  7.50000000
   0.00000000  2.11678566  7.50000000
   6.35035697  2.11678566  9.61678566
   0.00000000  0.00000000  9.61678566
   6.34811943  0.00253616 11.74145856
   0.00003075  2.11814701 11.74019896
   6.35753126  2.11122401 13.83803173
   0.00040488  0.00371715 13.83997625
   6.35035697  4.23357132  7.50000000
   0.00000000  6.35035697  7.50000000
   6.35035697  6.35035697  9.61678566
   0.00000000  4.23357132  9.61678566
   6.34112972  4.23098331 11.75447959
   0.00156247  6.34821996 11.73832749
   6.37247039  6.35812244 13.81969330
   0.00359039  4.22918330 13.83645022
   2.11678566  0.00000000  9.61678566
   4.23357132  2.11678566  9.61678566
   2.11678566  2.11678566  7.50000000
   4.23357132  0.00000000  7.50000000
   2.10843804  0.00008628 13.88782934
   4.23298348  2.09558242 13.88510922
   2.11594240  2.11369984 11.73505790
   4.23348612  8.46151198 11.73841660
   2.11678566  4.23357132  9.61678566
   4.23357132  6.35035697  9.61678566
   2.11678566  6.35035697  7.50000000
   4.23357132  4.23357132  7.50000000
   2.09895050  4.23344920 13.86774475
   4.23357802  6.39488493 13.94543115
   2.12157542  6.35221141 11.74088637
   4.23478493  4.23736016 11.75979597
   6.35035697  0.00000000  9.61678566
   0.00000000  2.11678566  9.61678566
   6.35035697  2.11678566  7.50000000
   0.00000000  0.00000000  7.50000000
   6.35584976  8.46699216 13.88778773
   8.46465193  2.11287426 13.88722690
   6.34911160  2.11633583 11.73720869
   8.46535518  8.46522305 11.73296141
   6.35035697  4.23357132  9.61678566
   0.00000000  6.35035697  9.61678566
   6.35035697  6.35035697  7.50000000
   0.00000000  4.23357132  7.50000000
   6.36575240  4.23556272 13.90118751
   8.46506211  6.35377220 13.88488375
   6.34410457  6.35025599 11.74012872
   8.46284773  4.23472085 11.73181647

--------------------------------------- Iteration      FINAL  ---------------------------------------

--------------------OUTCAR has been truncated-------------------------

[...]

--------------------OUTCAR has been truncated-------------------------

  DFT-D2 method for vdW energy calculation

  Parameters of vdW forcefield:
         C6(Jnm^6/mol)     R0(A)
   Mg       0.630          1.243
   O        0.700          1.342

  vdW correction parametrized for the method 1æý      

  IVDW =   1
  VDW_RADIUS =    50.000 A
  VDW_S6 =     1.050
  VDW_SR =     1.000
  VDW_D =    20.000
  LVDW_EWALD = F

  Number of pair interactions contributing to vdW energy:  719211
  Edisp (eV):   -5.01441

 VOLUME and BASIS-vectors are now :
  energy-cutoff  :      600.00
  volume of cell :     1530.66
      direct lattice vectors                 reciprocal lattice vectors
     8.467142631  0.000000000  0.000000000     0.118103597  0.000000000  0.000000000
     0.000000000  8.467142631  0.000000000     0.000000000  0.118103597  0.000000000
     0.000000000  0.000000000 21.350356973     0.000000000  0.000000000  0.046837624

  length of vectors
     8.467142631  8.467142631 21.350356973     0.118103597  0.118103597  0.046837624

 FORCES acting on ions:
    Electron-Ion                     Ewald-Force                    Non-Local-Force
   -.326E+00 0.147E+00 0.205E+04   0.330E+00 -.150E+00 -.205E+04   -.267E-02 0.184E-02 -.638E+01
   -.402E-01 -.339E+00 0.205E+04   0.413E-01 0.343E+00 -.205E+04   -.638E-03 -.326E-02 -.637E+01
   -.146E+01 -.134E+01 0.681E+03   0.147E+01 0.133E+01 -.681E+03   -.552E-02 0.373E-02 0.411E+00
   -.484E-01 0.690E+00 0.679E+03   0.340E-01 -.761E+00 -.680E+03   0.897E-02 0.454E-01 0.354E+00
   -.214E+01 0.219E+01 -.682E+03   0.223E+01 -.225E+01 0.682E+03   -.678E-01 0.237E-01 -.263E+00
   -.747E+00 -.417E+01 -.683E+03   0.755E+00 0.432E+01 0.683E+03   0.530E-02 -.147E+00 -.112E+00
   -.228E+01 -.185E+01 -.204E+04   0.148E+01 0.115E+01 0.203E+04   0.628E+00 0.484E+00 0.566E+01
   -.691E+00 0.642E+01 -.203E+04   0.703E+00 -.756E+01 0.203E+04   0.130E-01 0.680E+00 0.510E+01
   -.415E+00 -.147E+00 0.205E+04   0.423E+00 0.150E+00 -.205E+04   -.493E-02 -.166E-02 -.638E+01
   -.342E-01 0.336E+00 0.205E+04   0.349E-01 -.342E+00 -.204E+04   -.398E-03 0.381E-02 -.640E+01
   -.169E+01 0.132E+01 0.679E+03   0.178E+01 -.132E+01 -.679E+03   -.599E-01 -.865E-03 0.454E+00
   -.195E+00 -.696E+00 0.674E+03   0.225E+00 0.750E+00 -.675E+03   -.204E-01 -.359E-01 0.652E+00
   -.524E+01 -.261E+01 -.684E+03   0.560E+01 0.270E+01 0.684E+03   -.292E+00 -.370E-01 -.546E+00
   -.716E+00 0.612E+01 -.700E+03   0.683E+00 -.628E+01 0.701E+03   0.405E-01 0.162E+00 -.299E-01
   -.123E+02 0.433E+01 -.203E+04   0.125E+02 -.374E+01 0.203E+04   0.953E-01 -.415E+00 0.541E+01
   -.658E+01 -.268E+02 -.208E+04   0.666E+01 0.264E+02 0.207E+04   0.139E+00 0.104E+01 0.615E+01
   0.325E+00 0.142E+00 0.205E+04   -.329E+00 -.144E+00 -.205E+04   0.301E-02 0.142E-02 -.637E+01
   0.397E-01 -.248E+00 0.205E+04   -.412E-01 0.250E+00 -.205E+04   0.986E-03 -.113E-02 -.637E+01
   0.143E+01 -.146E+01 0.680E+03   -.145E+01 0.151E+01 -.681E+03   0.115E-01 -.313E-01 0.439E+00
   0.347E-01 0.394E+00 0.682E+03   -.304E-01 -.389E+00 -.682E+03   -.302E-02 -.365E-02 0.325E+00
   0.215E+01 0.204E+01 -.681E+03   -.224E+01 -.206E+01 0.681E+03   0.667E-01 -.114E-01 -.261E+00
   0.653E+00 -.113E+01 -.680E+03   -.659E+00 0.111E+01 0.680E+03   -.751E-02 -.387E-02 -.757E-01
   0.271E+01 -.459E+01 -.203E+04   -.197E+01 0.420E+01 0.203E+04   -.588E+00 0.326E+00 0.551E+01
   0.549E+00 0.159E+01 -.204E+04   -.554E+00 -.151E+01 0.203E+04   -.155E-01 -.961E-01 0.539E+01
   0.414E+00 -.141E+00 0.205E+04   -.422E+00 0.144E+00 -.205E+04   0.556E-02 -.143E-02 -.640E+01
   0.346E-01 0.247E+00 0.205E+04   -.355E-01 -.249E+00 -.205E+04   0.562E-03 0.127E-02 -.636E+01
   0.165E+01 0.144E+01 0.678E+03   -.175E+01 -.149E+01 -.679E+03   0.626E-01 0.308E-01 0.443E+00
   0.158E+00 -.399E+00 0.681E+03   -.207E+00 0.390E+00 -.681E+03   0.316E-01 0.599E-02 0.312E+00
   0.566E+01 -.252E+01 -.692E+03   -.602E+01 0.257E+01 0.692E+03   0.296E+00 -.645E-02 -.307E+00
   0.536E+00 0.117E+01 -.678E+03   -.495E+00 -.115E+01 0.678E+03   -.477E-01 0.268E-02 -.112E+00
   0.137E+02 0.769E+01 -.202E+04   -.139E+02 -.738E+01 0.202E+04   -.142E+00 -.305E+00 0.518E+01
   0.259E+01 -.175E+01 -.203E+04   -.288E+01 0.167E+01 0.203E+04   0.144E+00 0.938E-01 0.538E+01
   -.944E+00 0.576E+00 0.510E+03   0.957E+00 -.582E+00 -.510E+03   -.149E-01 0.540E-02 -.976E-01
   -.190E+00 -.121E+01 0.508E+03   0.199E+00 0.117E+01 -.508E+03   -.106E-01 0.590E-01 -.740E-01
   -.262E+00 -.216E+00 0.154E+04   0.265E+00 0.217E+00 -.155E+04   -.334E-02 -.722E-03 0.314E+01
   -.184E-01 0.117E+00 0.154E+04   0.176E-01 -.125E+00 -.155E+04   0.943E-03 0.894E-02 0.313E+01
   -.241E+01 0.245E+01 -.155E+04   0.281E+01 -.287E+01 0.155E+04   -.402E+00 0.489E+00 -.474E+01
   -.103E+01 -.125E+01 -.154E+04   0.120E+01 0.511E+00 0.155E+04   -.203E+00 0.869E+00 -.386E+01
   -.170E+01 -.173E+01 -.504E+03   0.168E+01 0.170E+01 0.504E+03   0.332E-01 0.615E-01 0.442E+00
   -.420E-01 0.277E+01 -.506E+03   0.459E-01 -.300E+01 0.506E+03   -.104E-01 0.297E+00 0.294E+00
   -.148E+01 -.586E+00 0.508E+03   0.144E+01 0.597E+00 -.508E+03   0.550E-01 -.122E-01 -.120E+00
   -.153E+00 0.117E+01 0.507E+03   0.168E+00 -.110E+01 -.507E+03   -.168E-01 -.833E-01 -.189E+00
   -.288E+00 0.216E+00 0.154E+04   0.299E+00 -.217E+00 -.155E+04   -.133E-01 0.547E-03 0.313E+01
   -.320E-01 -.116E+00 0.154E+04   0.365E-01 0.124E+00 -.154E+04   -.568E-02 -.968E-02 0.313E+01
   -.611E+01 -.451E+01 -.154E+04   0.599E+01 0.498E+01 0.154E+04   0.259E+00 -.535E+00 -.378E+01
   -.138E+01 0.178E+02 -.156E+04   0.162E+01 -.183E+02 0.157E+04   -.273E+00 0.425E-01 -.496E+01
   -.393E+01 0.202E+01 -.508E+03   0.402E+01 -.198E+01 0.507E+03   -.140E+00 -.663E-01 0.386E+00
   -.111E+01 -.423E+01 -.529E+03   0.114E+01 0.444E+01 0.529E+03   -.595E-01 -.267E+00 -.585E+00
   0.920E+00 0.556E+00 0.510E+03   -.921E+00 -.574E+00 -.510E+03   0.648E-03 0.194E-01 -.682E-01
   0.169E+00 -.629E+00 0.511E+03   -.167E+00 0.632E+00 -.511E+03   -.346E-02 -.461E-02 -.351E-01
   0.263E+00 -.230E+00 0.154E+04   -.265E+00 0.236E+00 -.155E+04   0.297E-02 -.704E-02 0.313E+01
   0.191E-01 0.906E-01 0.154E+04   -.180E-01 -.900E-01 -.155E+04   -.136E-02 -.691E-03 0.314E+01
   0.258E+01 0.196E+01 -.155E+04   -.299E+01 -.233E+01 0.155E+04   0.423E+00 0.455E+00 -.488E+01
   0.647E+00 -.155E+01 -.155E+04   -.789E+00 0.154E+01 0.155E+04   0.172E+00 0.592E-01 -.467E+01
   0.176E+01 -.249E+01 -.505E+03   -.173E+01 0.248E+01 0.505E+03   -.343E-01 0.250E-01 0.480E+00
   0.573E-01 0.484E+00 -.504E+03   -.705E-01 -.508E+00 0.504E+03   0.202E-01 0.385E-01 0.251E+00
   0.146E+01 -.550E+00 0.507E+03   -.139E+01 0.566E+00 -.507E+03   -.814E-01 -.182E-01 -.186E+00
   0.153E+00 0.619E+00 0.510E+03   -.163E+00 -.618E+00 -.510E+03   0.108E-01 -.955E-03 -.326E-02
   0.288E+00 0.230E+00 0.154E+04   -.299E+00 -.235E+00 -.155E+04   0.132E-01 0.712E-02 0.313E+01
   0.331E-01 -.902E-01 0.154E+04   -.369E-01 0.898E-01 -.155E+04   0.483E-02 0.523E-03 0.313E+01
   0.948E+01 -.458E+01 -.155E+04   -.970E+01 0.510E+01 0.155E+04   0.290E-01 -.596E+00 -.445E+01
   0.203E+00 0.170E+01 -.155E+04   -.311E+00 -.170E+01 0.155E+04   0.148E+00 -.382E-01 -.478E+01
   0.404E+01 0.281E+01 -.506E+03   -.413E+01 -.279E+01 0.505E+03   0.136E+00 -.303E-01 0.591E+00
   0.813E+00 -.493E+00 -.503E+03   -.857E+00 0.512E+00 0.502E+03   0.682E-01 -.333E-01 0.481E+00
   -.436E+00 -.277E+01 0.171E+02   0.215E-12 0.204E-12 -.455E-12   0.397E+00 0.254E+01 -.150E+02

 POSITION                                       TOTAL-FORCE (eV/Angst)
      2.11679      0.00000      7.50000         0.001215     -0.000775      0.511984
      4.23357      2.11679      7.50000         0.000359      0.001067      0.507976
      2.11679      2.11679      9.61679         0.003044      0.000110      0.010370
      4.23357      0.00000      9.61679        -0.004168     -0.019967      0.053240
      2.11706      0.00113     11.74337         0.016631     -0.038804     -0.000465
      4.23147      2.12161     11.74875         0.012695     -0.008643     -0.105537
      2.10555      2.11382     13.84332        -0.108409     -0.152859     -0.182224
      4.23012      0.01872     13.84224         0.024798     -0.363036      0.014194
      2.11679      4.23357      7.50000         0.001825      0.000741      0.510125
      4.23357      6.35036      7.50000         0.000304     -0.001214      0.517614
      2.11679      6.35036      9.61679         0.024820     -0.001183      0.033149
      4.23357      4.23357      9.61679         0.007282      0.013814      0.053149
      2.12269      4.23144     11.75212         0.032542      0.040006     -0.100140
      4.23097      6.34168     11.75196         0.010372      0.018512      0.176977
      2.09511      6.35114     13.83788         0.291957      0.125041     -0.014581
      4.21398      4.17077     13.94873         0.214651      0.664859     -0.723257
      6.35036      0.00000      7.50000        -0.001220     -0.000667      0.509828
      0.00000      2.11679      7.50000        -0.000348      0.000483      0.508876
      6.35036      2.11679      9.61679        -0.005888      0.014401      0.016222
      0.00000      0.00000      9.61679         0.001007      0.001319      0.018406
      6.34812      0.00254     11.74146        -0.014671     -0.036789      0.012129
      0.00003      2.11815     11.74020        -0.012416     -0.020227     -0.032224
      6.35753      2.11122     13.83803         0.096864     -0.037052     -0.078682
      0.00040      0.00372     13.83998        -0.020803     -0.022791     -0.078645
      6.35036      4.23357      7.50000        -0.001920      0.000683      0.515603
      0.00000      6.35036      7.50000        -0.000239     -0.000506      0.506300
      6.35036      6.35036      9.61679        -0.025695     -0.013514      0.040173
      0.00000      4.23357      9.61679        -0.013357     -0.002621      0.029430
      6.34113      4.23098     11.75448        -0.030517      0.038280     -0.015218
      0.00156      6.34822     11.73833        -0.010211      0.021362     -0.022972
      6.37247      6.35812     13.81969        -0.328605     -0.013779      0.186532
      0.00359      4.22918     13.83645        -0.122514      0.025921     -0.054330
      2.11679      0.00000      9.61679        -0.004154      0.000196      0.035332
      4.23357      2.11679      9.61679        -0.002353      0.019150      0.071368
      2.11679      2.11679      7.50000        -0.001088     -0.000264     -0.391350
      4.23357      0.00000      7.50000         0.000347      0.003021     -0.393414
      2.10844      0.00009     13.88783        -0.061252      0.135575     -0.137052
      4.23298      2.09558     13.88511        -0.062954      0.251446      0.102662
      2.11594      2.11370     11.73506         0.012053      0.038480      0.064373
      4.23349      8.46151     11.73842        -0.007978      0.108906     -0.014144
      2.11679      4.23357      9.61679         0.017924     -0.002338      0.071280
      4.23357      6.35036      9.61679        -0.004352     -0.025607      0.045536
      2.11679      6.35036      7.50000        -0.004455      0.000200     -0.392899
      4.23357      4.23357      7.50000        -0.001900     -0.003277     -0.395163
      2.09895      4.23345     13.86774         0.188743     -0.139540      0.198070
      4.23358      6.39488     13.94543        -0.069652     -0.475829     -0.333516
      2.12158      6.35221     11.74089        -0.073312     -0.036342     -0.022441
      4.23478      4.23736     11.75980        -0.032606     -0.101789     -0.003399
      6.35036      0.00000      9.61679         0.000115      0.004397      0.037000
      0.00000      2.11679      9.61679        -0.001713     -0.002044      0.041173
      6.35036      2.11679      7.50000         0.001055     -0.002385     -0.392038
      0.00000      0.00000      7.50000        -0.000409     -0.000203     -0.391152
      6.35585      8.46699     13.88779         0.065752      0.143343     -0.176692
      8.46465      2.11287     13.88723         0.053757      0.053729     -0.121680
      6.34911      2.11634     11.73721        -0.011786      0.014580      0.036367
      8.46536      8.46522     11.73296         0.009945      0.019620      0.012269
      6.35036      4.23357      9.61679        -0.025704     -0.004280      0.058085
      0.00000      6.35036      9.61679         0.002484      0.000475      0.044980
      6.35036      6.35036      7.50000         0.004522      0.002430     -0.393417
      0.00000      4.23357      7.50000         0.001674      0.000162     -0.392015
      6.36575      4.23556     13.90119        -0.200604     -0.155544     -0.073549
      8.46506      6.35377     13.88488         0.062123     -0.047353     -0.145514
      6.34410      6.35026     11.74013         0.072440     -0.012282     -0.041869
      8.46285      4.23472     11.73182         0.033950     -0.018808      0.068808
    total drift:                               -0.003329     -0.000431      0.020838

  FREE ENERGIE OF THE ION-ELECTRON SYSTEM (eV)
  free  energy   TOTEN  =      -438.08974756 eV

  energy  without entropy=     -438.08974756  energy(sigma->0) =     -438.08974756