 vasp.6.3.0 20Jan22 (build Apr  1 2022 16:44:48) complex
 executed on        HPECrayEX_GCC date 2022.10.15  15:56:05

 INCAR:
   SYSTEM = MgO-rocksalt
   ISMEAR = 0
   SIGMA = 0.05
   EDIFF = 1E-7
   ALGO = ALL
   ISTART = 0
   IBRION = 2
   NSW = 1000
   ISYM = 0
   ISIF = 2
   EDIFFG = -0.01
   DIPOL = 0.5 0.5 0.5
   IDIPOL = 3
   LDIPOL = .TRUE.
   GGA = RE
   AGGAC = 0.0
   LUSE_VDW = .TRUE.
   LASPH = .TRUE.
   ENCUT = 600
   PREC = Accurate
   LASPH = .TRUE.
   LREAL = .FALSE.
   ISPIN = 1
   NELM = 200
   NELMIN = 8
   NCORE = 8
   KPAR = 1
   LWAVE = .FALSE.
   LCHARG = .FALSE.

 POTCAR:    PAW_PBE H 15Jun2001
 POTCAR:    PAW_PBE O 08Apr2002
 POTCAR:    PAW_PBE Mg_pv 13Apr2007
 POTCAR:    PAW_PBE O 08Apr2002
|               ----> ADVICE to this user running VASP <----                  |
|     You have switched on vdW-DFT.                                           |
|     This routine was written and supplied by Jiri Klimes. We recommend      |
|     that you carefully read and cite the following publications:            |
|       J. Klimes, D.R. Bowler, A. Michelides                                 |
|          J. Phys.: Cond Matt. 22 022201 (2010)                              |
|       J. Klimes, D.R. Bowler, A. Michelides                                 |
|          Phys. Rev. B. 83, 195131 (2011)                                    |
|     and references therein.                                                 |

   TITEL  = PAW_PBE H 15Jun2001
   POMASS =    1.000; ZVAL   =    1.000    mass and valenz
   ENMAX  =  250.000; ENMIN  =  200.000 eV

   TITEL  = PAW_PBE O 08Apr2002
   POMASS =   16.000; ZVAL   =    6.000    mass and valenz
   ENMAX  =  400.000; ENMIN  =  300.000 eV

   TITEL  = PAW_PBE Mg_pv 13Apr2007
   POMASS =   24.305; ZVAL   =    8.000    mass and valenz
   ENMAX  =  403.929; ENMIN  =  302.947 eV

   TITEL  = PAW_PBE O 08Apr2002
   POMASS =   16.000; ZVAL   =    6.000    mass and valenz
   ENMAX  =  400.000; ENMIN  =  300.000 eV

  PAW_PBE H 15Jun2001                   :
  PAW_PBE O 08Apr2002                   :
  PAW_PBE Mg_pv 13Apr2007               :
  PAW_PBE O 08Apr2002                   :

 POSCAR:  H  O Mg  O
  positions in direct lattice
 exchange correlation table for  LEXCH =       40
   RHO(1)=    0.500       N(1)  =     2000
   RHO(2)=  100.500       N(2)  =     4000

 ion  position               nearest neighbor table
   1  0.612  0.552  0.763-   3 0.97
   2  0.510  0.670  0.727-   3 0.97
   3  0.506  0.570  0.749-   1 0.97   2 0.97  34 2.21
   4  0.000  0.750  0.350-  36 2.14  38 2.14  39 2.14  46 2.14  55 2.14
   5  0.250  0.000  0.350-  37 2.14  38 2.14  39 2.14  47 2.14  54 2.14
   6  0.000  0.000  0.450-  38 2.14  37 2.14  36 2.14  44 2.14  53 2.14  42 2.14
   7  0.250  0.750  0.450-  39 2.14  37 2.14  36 2.14  45 2.14  52 2.14  43 2.14
   8  0.000  0.750  0.550-  42 2.14  43 2.14  50 2.14  59 2.14  36 2.15  40 2.16
   9  0.250  0.000  0.550-  42 2.14  43 2.14  51 2.14  58 2.14  37 2.15  41 2.16
  10  0.000  0.000  0.650-  42 2.13  41 2.14  40 2.14  48 2.14  57 2.14
  11  0.250  0.750  0.650-  43 2.13  41 2.14  40 2.14  49 2.14  56 2.14
  12  0.000  0.250  0.350-  44 2.14  38 2.14  46 2.14  47 2.14  63 2.14
  13  0.250  0.500  0.350-  45 2.14  39 2.14  46 2.14  47 2.14  62 2.14
  14  0.000  0.500  0.450-  46 2.14  44 2.14  45 2.14  36 2.14  61 2.14  50 2.14
  15  0.250  0.250  0.450-  47 2.14  44 2.14  45 2.14  37 2.14  60 2.14  51 2.14
  16  0.000  0.250  0.550-  42 2.14  50 2.14  51 2.14  67 2.14  44 2.15  48 2.16
  17  0.250  0.500  0.550-  43 2.14  50 2.14  51 2.14  66 2.14  45 2.15  49 2.16
  18  0.000  0.500  0.650-  50 2.13  48 2.14  49 2.14  40 2.14  65 2.14
  19  0.250  0.250  0.650-  51 2.13  48 2.14  49 2.14  41 2.14  64 2.14
  20  0.500  0.750  0.350-  52 2.14  39 2.14  54 2.14  55 2.14  62 2.14
  21  0.750  0.000  0.350-  53 2.14  38 2.14  54 2.14  55 2.14  63 2.14
  22  0.500  0.000  0.450-  54 2.14  52 2.14  53 2.14  37 2.14  60 2.14  58 2.14
  23  0.750  0.750  0.450-  55 2.14  52 2.14  53 2.14  36 2.14  61 2.14  59 2.14
  24  0.500  0.750  0.550-  43 2.14  58 2.14  59 2.14  66 2.14  52 2.15  56 2.16
  25  0.750  0.000  0.550-  42 2.14  58 2.14  59 2.14  67 2.14  53 2.15  57 2.16
  26  0.500  0.000  0.650-  58 2.13  56 2.14  57 2.14  41 2.14  64 2.14
  27  0.750  0.750  0.650-  59 2.13  56 2.14  57 2.14  40 2.14  65 2.14
  28  0.500  0.250  0.350-  60 2.14  54 2.14  47 2.14  62 2.14  63 2.14
  29  0.750  0.500  0.350-  61 2.14  55 2.14  46 2.14  62 2.14  63 2.14
  30  0.500  0.500  0.450-  62 2.14  52 2.14  60 2.14  61 2.14  45 2.14  66 2.14
  31  0.750  0.250  0.450-  63 2.14  53 2.14  60 2.14  61 2.14  44 2.14  67 2.14
  32  0.500  0.250  0.550-  51 2.14  58 2.14  66 2.14  67 2.14  60 2.15  64 2.16
  33  0.750  0.500  0.550-  50 2.14  59 2.14  66 2.14  67 2.14  61 2.15  65 2.16
  34  0.500  0.500  0.650-  66 2.13  56 2.14  64 2.14  65 2.14  49 2.14   3 2.21
  35  0.750  0.250  0.650-  67 2.13  57 2.14  64 2.14  65 2.14  48 2.14
  36  0.000  0.750  0.450-   4 2.14   6 2.14   7 2.14  14 2.14  23 2.14   8 2.15
  37  0.250  0.000  0.450-   5 2.14   6 2.14   7 2.14  15 2.14  22 2.14   9 2.15
  38  0.000  0.000  0.350-   6 2.14   5 2.14   4 2.14  12 2.14  21 2.14
  39  0.250  0.750  0.350-   7 2.14   5 2.14   4 2.14  13 2.14  20 2.14
  40  0.000  0.750  0.651-  10 2.14  11 2.14  18 2.14  27 2.14   8 2.16
  41  0.250  0.000  0.651-  10 2.14  11 2.14  19 2.14  26 2.14   9 2.16
  42  0.000  0.000  0.550-  10 2.13   9 2.14   8 2.14  16 2.14  25 2.14   6 2.14
  43  0.250  0.750  0.550-  11 2.13   9 2.14   8 2.14  17 2.14  24 2.14   7 2.14
  44  0.000  0.250  0.450-  12 2.14   6 2.14  14 2.14  15 2.14  31 2.14  16 2.15
  45  0.250  0.500  0.450-  13 2.14   7 2.14  14 2.14  15 2.14  30 2.14  17 2.15
  46  0.000  0.500  0.350-  14 2.14  12 2.14  13 2.14   4 2.14  29 2.14
  47  0.250  0.250  0.350-  15 2.14  12 2.14  13 2.14   5 2.14  28 2.14
  48  0.000  0.250  0.651-  10 2.14  18 2.14  19 2.14  35 2.14  16 2.16
  49  0.250  0.500  0.651-  11 2.14  18 2.14  19 2.14  34 2.14  17 2.16
  50  0.000  0.500  0.550-  18 2.13  16 2.14  17 2.14   8 2.14  33 2.14  14 2.14
  51  0.250  0.250  0.550-  19 2.13  16 2.14  17 2.14   9 2.14  32 2.14  15 2.14
  52  0.500  0.750  0.450-  20 2.14   7 2.14  22 2.14  23 2.14  30 2.14  24 2.15
  53  0.750  0.000  0.450-  21 2.14   6 2.14  22 2.14  23 2.14  31 2.14  25 2.15
  54  0.500  0.000  0.350-  22 2.14  20 2.14  21 2.14   5 2.14  28 2.14
  55  0.750  0.750  0.350-  23 2.14  20 2.14  21 2.14   4 2.14  29 2.14
  56  0.500  0.750  0.651-  11 2.14  26 2.14  27 2.14  34 2.14  24 2.16
  57  0.750  0.000  0.651-  10 2.14  26 2.14  27 2.14  35 2.14  25 2.16
  58  0.500  0.000  0.550-  26 2.13  24 2.14  25 2.14   9 2.14  32 2.14  22 2.14
  59  0.750  0.750  0.550-  27 2.13  24 2.14  25 2.14   8 2.14  33 2.14  23 2.14
  60  0.500  0.250  0.450-  28 2.14  22 2.14  15 2.14  30 2.14  31 2.14  32 2.15
  61  0.750  0.500  0.450-  29 2.14  23 2.14  14 2.14  30 2.14  31 2.14  33 2.15
  62  0.500  0.500  0.350-  30 2.14  20 2.14  28 2.14  29 2.14  13 2.14
  63  0.750  0.250  0.350-  31 2.14  21 2.14  28 2.14  29 2.14  12 2.14
  64  0.500  0.250  0.651-  19 2.14  26 2.14  34 2.14  35 2.14  32 2.16
  65  0.750  0.500  0.651-  18 2.14  27 2.14  34 2.14  35 2.14  33 2.16
  66  0.500  0.500  0.550-  34 2.13  24 2.14  32 2.14  33 2.14  17 2.14  30 2.14
  67  0.750  0.250  0.550-  35 2.13  25 2.14  32 2.14  33 2.14  16 2.14  31 2.14

IMPORTANT INFORMATION: All symmetrisations will be switched off!
NOSYMM: (Re-)initialisation of all symmetry stuff for point group C_1.

                                     Primitive cell

  volume of cell :    1563.6717

  direct lattice vectors                    reciprocal lattice vectors
     8.546113626  0.000000000  0.000000000     0.117012252  0.000000000  0.000000000
     0.000000000  8.546113626  0.000000000     0.000000000  0.117012252  0.000000000
     0.000000000  0.000000000 21.409585219     0.000000000  0.000000000  0.046708051

  length of vectors
     8.546113626  8.546113626 21.409585219     0.117012252  0.117012252  0.046708051

  position of ions in fractional coordinates (direct lattice)
     0.611564739  0.552044051  0.763491581
     0.509731637  0.669520646  0.726743557
     0.505530944  0.570288526  0.748827792
     0.000000000  0.750000000  0.350310383
     0.250000000  0.000000000  0.350310383
     0.000000000  0.000000000  0.450103461
     0.250000000  0.750000000  0.450103461
     0.000000000  0.750000000  0.550423065
     0.250000000  0.000000000  0.550423065
     0.000000000  0.000000000  0.649678241
     0.250000000  0.750000000  0.649678241
     0.000000000  0.250000000  0.350310383
     0.250000000  0.500000000  0.350310383
     0.000000000  0.500000000  0.450103461
     0.250000000  0.250000000  0.450103461
     0.000000000  0.250000000  0.550423065
     0.250000000  0.500000000  0.550423065
     0.000000000  0.500000000  0.649678241
     0.250000000  0.250000000  0.649678241
     0.500000000  0.750000000  0.350310383
     0.750000000  0.000000000  0.350310383
     0.500000000  0.000000000  0.450103461
     0.750000000  0.750000000  0.450103461
     0.500000000  0.750000000  0.550423065
     0.750000000  0.000000000  0.550423065
     0.500000000  0.000000000  0.649678241
     0.750000000  0.750000000  0.649678241
     0.500000000  0.250000000  0.350310383
     0.750000000  0.500000000  0.350310383
     0.500000000  0.500000000  0.450103461
     0.750000000  0.250000000  0.450103461
     0.500000000  0.250000000  0.550423065
     0.750000000  0.500000000  0.550423065
     0.500000000  0.500000000  0.649678241
     0.750000000  0.250000000  0.649678241
     0.000000000  0.750000000  0.450103461
     0.250000000  0.000000000  0.450103461
     0.000000000  0.000000000  0.350310383
     0.250000000  0.750000000  0.350310383
     0.000000000  0.750000000  0.651489980
     0.250000000  0.000000000  0.651489980
     0.000000000  0.000000000  0.550159231
     0.250000000  0.750000000  0.550159231
     0.000000000  0.250000000  0.450103461
     0.250000000  0.500000000  0.450103461
     0.000000000  0.500000000  0.350310383
     0.250000000  0.250000000  0.350310383
     0.000000000  0.250000000  0.651489980
     0.250000000  0.500000000  0.651489980
     0.000000000  0.500000000  0.550159231
     0.250000000  0.250000000  0.550159231
     0.500000000  0.750000000  0.450103461
     0.750000000  0.000000000  0.450103461
     0.500000000  0.000000000  0.350310383
     0.750000000  0.750000000  0.350310383
     0.500000000  0.750000000  0.651489980
     0.750000000  0.000000000  0.651489980
     0.500000000  0.000000000  0.550159231
     0.750000000  0.750000000  0.550159231
     0.500000000  0.250000000  0.450103461
     0.750000000  0.500000000  0.450103461
     0.500000000  0.500000000  0.350310383
     0.750000000  0.250000000  0.350310383
     0.500000000  0.250000000  0.651489980
     0.750000000  0.500000000  0.651489980
     0.500000000  0.500000000  0.550159231
     0.750000000  0.250000000  0.550159231

  ion indices of the primitive-cell ions
   primitive index   ion index
                 1           1
                 2           2
                 3           3
[...]
   4.27305681  0.00000000 13.90934166
   6.40958522  6.40958522 13.90934166
   4.27305681  2.13652841  7.50000000
   6.40958522  4.27305681  7.50000000
   4.27305681  4.27305681  9.63652841
   6.40958522  2.13652841  9.63652841
   4.27305681  2.13652841 11.78432951
   6.40958522  4.27305681 11.78432951
   4.27305681  4.27305681 13.90934166
   6.40958522  2.13652841 13.90934166
   0.00000000  6.40958522  9.63652841
   2.13652841  0.00000000  9.63652841
   0.00000000  0.00000000  7.50000000
   2.13652841  6.40958522  7.50000000
   0.00000000  6.40958522 13.94813025
   2.13652841  0.00000000 13.94813025
   0.00000000  0.00000000 11.77868095
   2.13652841  6.40958522 11.77868095
   0.00000000  2.13652841  9.63652841
   2.13652841  4.27305681  9.63652841
   0.00000000  4.27305681  7.50000000
   2.13652841  2.13652841  7.50000000
   0.00000000  2.13652841 13.94813025
   2.13652841  4.27305681 13.94813025
   0.00000000  4.27305681 11.77868095
   2.13652841  2.13652841 11.77868095
   4.27305681  6.40958522  9.63652841
   6.40958522  0.00000000  9.63652841
   4.27305681  0.00000000  7.50000000
   6.40958522  6.40958522  7.50000000
   4.27305681  6.40958522 13.94813025
   6.40958522  0.00000000 13.94813025
   4.27305681  0.00000000 11.77868095
   6.40958522  6.40958522 11.77868095
   4.27305681  2.13652841  9.63652841
   6.40958522  4.27305681  9.63652841
   4.27305681  4.27305681  7.50000000
   6.40958522  2.13652841  7.50000000
   4.27305681  2.13652841 13.94813025
   6.40958522  4.27305681 13.94813025
   4.27305681  4.27305681 11.77868095
   6.40958522  2.13652841 11.77868095

--------------------------------------- Iteration      FINAL  ---------------------------------------

--------------------OUTCAR has been truncated-------------------------

[...]

--------------------OUTCAR has been truncated-------------------------

  FORCE on cell =-STRESS in cart. coord.  units (eV):
  Direction    XX          YY          ZZ          XY          YZ          ZX
  Alpha Z   874.07924   874.07924   874.07924
  Ewald  155220.67733155246.52881************   -11.81704   -22.12521    37.62536
  Hartree165532.95894165550.27668************    -2.44545     0.55391     8.21168
  E(xc)   -2555.91886 -2555.84596 -2558.43305    -0.07986    -0.37591     0.21253
  Local  ************************330241.07579    11.10530    11.69221   -35.86519
  n-local -2846.76576 -2846.52717 -2864.66941    -0.25431     0.18680     0.38146
  augment  1085.13485  1085.16450  1077.50686     0.20256     0.63544    -0.67318
  Kinetic  7454.92367  7455.24182  7501.99506     3.29811     9.40147   -10.08269
  Fock        0.00000     0.00000     0.00000     0.00000     0.00000     0.00000
  Total     -29.58669   -29.52165    -2.42679     0.00932    -0.03128    -0.19004
  in kB     -30.31527   -30.24863    -2.48655     0.00954    -0.03205    -0.19472

 VOLUME and BASIS-vectors are now :
  energy-cutoff  :      600.00
  volume of cell :     1563.67
      direct lattice vectors                 reciprocal lattice vectors
     8.546113626  0.000000000  0.000000000     0.117012252  0.000000000  0.000000000
     0.000000000  8.546113626  0.000000000     0.000000000  0.117012252  0.000000000
     0.000000000  0.000000000 21.409585219     0.000000000  0.000000000  0.046708051

  length of vectors
     8.546113626  8.546113626 21.409585219     0.117012252  0.117012252  0.046708051

 FORCES acting on ions:
    Electron-Ion                     Ewald-Force                    Non-Local-Force
   -.782E+02 0.163E+02 -.286E+03   0.856E+02 -.179E+02 0.290E+03   -.749E+01 0.156E+01 -.339E+01
   -.159E+01 -.746E+02 -.255E+03   0.169E+01 0.815E+02 0.251E+03   -.105E+00 -.691E+01 0.342E+01
   0.480E+02 0.307E+02 -.163E+04   -.852E+02 -.544E+02 0.163E+04   0.372E+02 0.237E+02 -.396E+01
   -.607E-02 0.460E-03 0.202E+04   0.809E-02 -.575E-02 -.201E+04   -.159E-02 0.377E-02 -.637E+01
   -.888E-01 0.616E-03 0.202E+04   0.935E-01 0.154E-02 -.201E+04   -.348E-02 -.157E-02 -.640E+01
   -.800E-01 -.105E+00 0.695E+03   0.103E+00 0.140E+00 -.696E+03   -.164E-01 -.249E-01 0.359E+00
   -.311E+00 0.117E+00 0.695E+03   0.413E+00 -.140E+00 -.695E+03   -.734E-01 0.152E-01 0.517E+00
   -.171E+00 -.279E+01 -.620E+03   0.233E+00 0.271E+01 0.620E+03   -.622E-01 0.808E-01 -.133E+00
   0.209E+01 -.724E+00 -.625E+03   -.204E+01 0.794E+00 0.625E+03   -.565E-01 -.700E-01 -.243E+00
   -.505E+00 -.345E+01 -.196E+04   0.560E+00 0.359E+01 0.195E+04   -.569E-01 -.143E+00 0.560E+01
   0.229E+02 -.204E+02 -.193E+04   -.237E+02 0.204E+02 0.192E+04   0.793E+00 -.442E-01 0.575E+01
   -.314E-02 -.157E-02 0.202E+04   0.468E-02 0.725E-02 -.201E+04   -.118E-02 -.408E-02 -.640E+01
   -.103E+00 0.930E-03 0.202E+04   0.112E+00 -.285E-02 -.201E+04   -.694E-02 0.134E-02 -.642E+01
   -.390E-01 0.163E+00 0.696E+03   0.244E-01 -.191E+00 -.696E+03   0.112E-01 0.203E-01 0.259E+00
   -.361E+00 -.134E+00 0.695E+03   0.388E+00 0.162E+00 -.696E+03   -.177E-01 -.179E-01 0.379E+00
   -.121E-01 0.252E+01 -.625E+03   0.530E-01 -.246E+01 0.625E+03   -.404E-01 -.559E-01 -.144E+00
   0.318E+01 0.764E+00 -.618E+03   -.293E+01 -.818E+00 0.619E+03   -.251E+00 0.544E-01 -.989E+00
   -.424E+00 0.392E+01 -.195E+04   0.555E+00 -.407E+01 0.194E+04   -.132E+00 0.153E+00 0.561E+01
   0.158E+02 0.180E+02 -.195E+04   -.161E+02 -.180E+02 0.194E+04   0.315E+00 0.409E-01 0.567E+01
   0.800E-02 0.147E-01 0.202E+04   -.910E-02 -.246E-01 -.201E+04   0.782E-03 0.750E-02 -.642E+01
   0.894E-01 -.247E-02 0.202E+04   -.934E-01 0.507E-02 -.201E+04   0.288E-02 -.195E-02 -.639E+01
   0.116E+00 -.128E+00 0.694E+03   -.127E+00 0.908E-01 -.695E+03   0.816E-02 0.275E-01 0.430E+00
   0.328E+00 0.154E+00 0.695E+03   -.414E+00 -.213E+00 -.695E+03   0.630E-01 0.418E-01 0.540E+00
   0.137E+00 -.290E+01 -.627E+03   -.198E+00 0.264E+01 0.627E+03   0.598E-01 0.261E+00 0.694E+00
   -.211E+01 -.872E+00 -.623E+03   0.205E+01 0.965E+00 0.624E+03   0.592E-01 -.937E-01 -.183E+00
   0.556E+00 -.971E+01 -.194E+04   -.625E+00 0.998E+01 0.194E+04   0.702E-01 -.261E+00 0.551E+01
   -.231E+02 -.201E+02 -.191E+04   0.240E+02 0.204E+02 0.191E+04   -.844E+00 -.239E+00 0.584E+01
   0.436E-02 -.161E-01 0.202E+04   -.514E-02 0.258E-01 -.201E+04   0.521E-03 -.733E-02 -.640E+01
   0.103E+00 0.438E-02 0.202E+04   -.112E+00 -.667E-02 -.201E+04   0.652E-02 0.165E-02 -.643E+01
   0.585E-01 0.139E+00 0.693E+03   -.363E-01 -.107E+00 -.694E+03   -.163E-01 -.246E-01 0.603E+00
   0.389E+00 -.177E+00 0.695E+03   -.402E+00 0.242E+00 -.696E+03   0.884E-02 -.453E-01 0.427E+00
   -.215E-01 0.380E+01 -.621E+03   -.205E-01 -.357E+01 0.621E+03   0.402E-01 -.233E+00 -.479E+00
   -.297E+01 0.912E+00 -.622E+03   0.271E+01 -.986E+00 0.622E+03   0.259E+00 0.749E-01 -.466E+00
   0.217E+01 0.252E+02 -.186E+04   -.251E+01 -.268E+02 0.185E+04   0.332E+00 0.163E+01 0.279E+01
   -.159E+02 0.176E+02 -.194E+04   0.162E+02 -.178E+02 0.194E+04   -.291E+00 0.160E+00 0.568E+01
   0.376E-01 -.152E+00 0.522E+03   -.496E-01 0.128E+00 -.522E+03   0.147E-01 0.350E-01 0.619E-01
   -.188E+00 0.912E-01 0.521E+03   0.179E+00 -.791E-01 -.521E+03   0.127E-01 -.194E-01 -.582E-01
   -.862E-02 -.523E-02 0.152E+04   0.113E-01 0.107E-01 -.152E+04   -.374E-02 -.765E-02 0.359E+01
   -.739E-01 0.713E-02 0.152E+04   0.843E-01 -.133E-01 -.152E+04   -.146E-01 0.857E-02 0.358E+01
   -.142E+01 -.666E+01 -.148E+04   0.147E+01 0.653E+01 0.149E+04   -.480E-01 0.128E+00 -.495E+01
   0.746E+01 -.499E+01 -.148E+04   -.724E+01 0.494E+01 0.149E+04   -.221E+00 0.484E-01 -.494E+01
   -.250E+00 -.873E+00 -.465E+03   0.263E+00 0.897E+00 0.465E+03   -.140E-01 -.259E-01 0.216E+00
   0.151E+01 -.226E+01 -.460E+03   -.158E+01 0.220E+01 0.460E+03   0.715E-01 0.580E-01 0.495E+00
   0.461E-01 0.131E+00 0.521E+03   -.507E-01 -.114E+00 -.521E+03   0.494E-02 -.238E-01 -.279E-01
   -.225E+00 -.647E-01 0.520E+03   0.162E+00 0.467E-01 -.520E+03   0.853E-01 0.269E-01 -.155E+00
   -.272E-02 0.610E-02 0.152E+04   0.177E-02 -.119E-01 -.152E+04   0.135E-02 0.806E-02 0.357E+01
   -.721E-01 -.826E-02 0.152E+04   0.752E-01 0.142E-01 -.152E+04   -.435E-02 -.832E-02 0.357E+01
   -.624E+00 0.633E+01 -.149E+04   0.629E+00 -.620E+01 0.149E+04   -.478E-02 -.127E+00 -.493E+01
   0.278E+02 0.676E+01 -.145E+04   -.274E+02 -.668E+01 0.145E+04   -.396E+00 -.875E-01 -.505E+01
   0.996E-01 0.108E+01 -.459E+03   -.649E-01 -.110E+01 0.459E+03   -.353E-01 0.201E-01 0.282E+00
   0.195E+01 0.220E+01 -.462E+03   -.195E+01 -.214E+01 0.461E+03   -.767E-03 -.638E-01 0.265E+00
   0.651E-02 -.982E-01 0.520E+03   -.158E-01 0.136E+00 -.520E+03   0.136E-01 -.493E-01 -.142E+00
   0.211E+00 0.796E-01 0.521E+03   -.217E+00 -.740E-01 -.521E+03   0.853E-02 -.108E-01 -.858E-02
   0.832E-02 -.320E-02 0.152E+04   -.115E-01 0.172E-02 -.152E+04   0.440E-02 0.211E-02 0.358E+01
   0.726E-01 0.128E-01 0.152E+04   -.837E-01 -.227E-01 -.152E+04   0.156E-01 0.139E-01 0.358E+01
   0.213E+01 -.338E+02 -.143E+04   -.217E+01 0.333E+02 0.144E+04   0.400E-01 0.500E+00 -.289E+01
   -.748E+01 -.578E+01 -.148E+04   0.726E+01 0.577E+01 0.149E+04   0.216E+00 0.124E-01 -.495E+01
   0.263E+00 -.423E+00 -.462E+03   -.275E+00 0.466E+00 0.462E+03   0.118E-01 -.412E-01 0.361E+00
   -.151E+01 -.186E+01 -.458E+03   0.159E+01 0.183E+01 0.457E+03   -.825E-01 0.305E-01 0.748E+00
   -.175E-01 0.815E-01 0.520E+03   0.470E-02 -.113E+00 -.520E+03   0.184E-01 0.413E-01 -.922E-01
   0.248E+00 -.446E-01 0.520E+03   -.195E+00 0.312E-01 -.520E+03   -.717E-01 0.207E-01 -.179E+00
   0.255E-02 0.426E-02 0.152E+04   -.187E-02 -.258E-02 -.152E+04   -.966E-03 -.241E-02 0.356E+01
   0.713E-01 -.142E-01 0.152E+04   -.750E-01 0.239E-01 -.152E+04   0.515E-02 -.135E-01 0.357E+01
   0.641E+00 0.262E+02 -.146E+04   -.641E+00 -.262E+02 0.147E+04   -.107E-02 0.351E-01 -.482E+01
   -.284E+02 0.804E+01 -.145E+04   0.278E+02 -.795E+01 0.145E+04   0.585E+00 -.956E-01 -.477E+01
   -.274E+00 -.262E+00 -.470E+03   0.239E+00 0.216E+00 0.471E+03   0.348E-01 0.459E-01 -.823E+00
   -.196E+01 0.182E+01 -.461E+03   0.196E+01 -.178E+01 0.461E+03   -.971E-02 -.363E-01 0.406E+00
   -.300E+02 -.201E+02 0.185E+02   0.217E-12 0.156E-12 -.296E-11   0.300E+02 0.201E+02 -.185E+02

 POSITION                                       TOTAL-FORCE (eV/Angst)
      5.18246      4.65738     16.59489        -0.005911      0.003538     -0.000710
      4.34985      5.70851     15.77667        -0.004656     -0.007308      0.000397
      4.30106      4.81415     16.21211        -0.002957      0.001836     -0.000843
      0.00000      6.40959      7.50000         0.000387     -0.001542      0.317166
      2.13653      0.00000      7.50000         0.001177      0.000533      0.323439
      0.00000      0.00000      9.63653         0.006696      0.009501      0.007309
      2.13653      6.40959      9.63653         0.028077     -0.007687      0.015811
      0.00353      6.40805     11.77458        -0.000160     -0.000112      0.002347
      2.13989      0.00218     11.78008        -0.001050     -0.000288      0.001768
      0.00416      0.00499     13.89902        -0.002549     -0.001297     -0.001512
      2.12037      6.41182     13.89538        -0.002289     -0.000717     -0.003815
      0.00000      2.13653      7.50000         0.000314      0.001529      0.324140
      2.13653      4.27306      7.50000         0.001979     -0.000589      0.326503
      0.00000      4.27306      9.63653        -0.003319     -0.007651      0.035937
      2.13653      2.13653      9.63653         0.008937      0.009478      0.018951
      0.00254      2.13902     11.77651         0.000471      0.001753      0.002376
      2.14643      4.27191     11.79067        -0.002834      0.000491     -0.001967
      0.00656      4.27009     13.89513        -0.000739      0.001849     -0.003190
      2.13093      2.13629     13.90292        -0.003152     -0.001939      0.000772
      4.27306      6.40959      7.50000        -0.000355     -0.002445      0.326976
      6.40959      0.00000      7.50000        -0.001171      0.000606      0.320247
      4.27306      0.00000      9.63653        -0.002812     -0.009837      0.036980
      6.40959      6.40959      9.63653        -0.022023     -0.016734      0.013087
      4.27305      6.40075     11.79064        -0.001093      0.000499      0.000691
      6.40899      0.00305     11.77802         0.000719     -0.000871      0.002164
      4.27352      0.01527     13.90271         0.000838      0.002047     -0.003044
      6.43271      6.41708     13.87946         0.000032     -0.000173     -0.005057
      4.27306      2.13653      7.50000        -0.000289      0.002307      0.323639
      6.40959      4.27306      7.50000        -0.002038     -0.000659      0.328591
      4.27306      4.27306      9.63653         0.005666      0.007551      0.047881
      6.40959      2.13653      9.63653        -0.004406      0.019191      0.014788
      4.27341      2.14426     11.78810        -0.001816     -0.002916     -0.000925
      6.40177      4.27136     11.79148         0.001909      0.000911     -0.001001
      4.26273      4.22480     14.01641         0.000228      0.004782     -0.000051
      6.41968      2.13313     13.89529         0.001453     -0.002875      0.000190
      0.00000      6.40959      9.63653         0.002622      0.010642      0.048411
      2.13653      0.00000      9.63653         0.003508     -0.007308      0.037158
      0.00000      0.00000      7.50000        -0.001088     -0.002181     -0.393914
      2.13653      6.40959      7.50000        -0.004198      0.002389     -0.395776
      0.00135      6.41493     13.93861        -0.000023     -0.001241      0.004230
      2.13262      0.00121     13.94207        -0.001770      0.002027      0.003250
      0.00073     -0.00073     11.77219        -0.001279     -0.002625     -0.002295
      2.14304      6.41265     11.77970        -0.000309      0.001616     -0.002911
      0.00000      2.13653      9.63653         0.000236     -0.007531      0.029383
      2.13653      4.27306      9.63653         0.022105      0.008900      0.058814
      0.00000      4.27306      7.50000         0.000367      0.002245     -0.397512
      2.13653      2.13653      7.50000        -0.001263     -0.002366     -0.397533
      0.00155      2.13362     13.94033         0.000155     -0.000764      0.000122
      2.12217      4.27443     13.92275        -0.000857     -0.001373      0.001479
     -0.00113      4.27547     11.77000        -0.000654     -0.005010      0.000250
      2.13827      2.13413     11.77409        -0.000406      0.000806      0.003975
      4.27306      6.40959      9.63653         0.004236     -0.011206      0.060058
      6.40959      0.00000      9.63653         0.001743     -0.005197      0.042684
      4.27306      0.00000      7.50000         0.001214      0.000597     -0.396066
      6.40959      6.40959      7.50000         0.004428      0.003913     -0.395105
      4.27738      6.44498     14.00034        -0.001465     -0.002080      0.001809
      6.41848      0.00090     13.94215        -0.002405      0.001715      0.003320
      4.27515     -0.00457     11.77862         0.000177      0.001535     -0.002075
      6.40626      6.41097     11.77920        -0.001660      0.001824     -0.004858
      4.27306      2.13653      9.63653         0.005503      0.009370      0.065937
      6.40959      4.27306      9.63653        -0.018804      0.007304      0.053823
      4.27306      4.27306      7.50000        -0.000325     -0.000753     -0.401146
      6.40959      2.13653      7.50000         0.001432     -0.003864     -0.396939
      4.27667      2.11996     13.94241        -0.001529     -0.003810      0.000538
      6.42995      4.27469     13.94815        -0.001894     -0.000938      0.000220
      4.27630      4.27745     11.79573         0.000269     -0.000028     -0.000677
      6.41068      2.13593     11.77533        -0.001332      0.000632      0.001311
    total drift:                                0.002740      0.001931      0.012087

  FREE ENERGIE OF THE ION-ELECTRON SYSTEM (eV)
  free  energy   TOTEN  =      -239.81849675 eV

  energy  without entropy=     -239.81849675  energy(sigma->0) =     -239.81849675

 d Force = 0.6650230E-05[ 0.557E-05, 0.773E-05]  d Energy = 0.6867122E-05-0.217E-06
 d Force =-0.3908541E+00[-0.391E+00,-0.391E+00]  d Ewald  =-0.3908541E+00-0.596E-09

 Conjugate gradient step on ions:
 trial-energy change:   -0.000007  1 .order   -0.000007   -0.000008   -0.000006
  (g-gl).g = 0.219E-04      g.g   = 0.442E-04  gl.gl    = 0.267E-03
 g(Force)  = 0.442E-04   g(Stress)= 0.000E+00 ortho     = 0.599E-05
 gamma     =   0.08218
 trial     =   0.17314
 opt step  =   0.61771  (harmonic =   0.61771) maximal distance =0.00019225
 next E    =  -239.818504   (d E  =  -0.00001)

 reached required accuracy - stopping structural energy minimisation