 vasp.6.4.2 20Jul23 (build Nov 17 2023 15:39:20) complex
 executed on              LinuxNV date 2024.02.28  00:01:13
 OpenACC runtime initialized ...    4 GPUs detected

 INCAR:
   SYSTEM = Oxide-Surface
   ISMEAR = 0
   SIGMA = 0.05
   EDIFF = 1E-4
   ALGO = Normal
   ISTART = 2
   IBRION = -1
   NSW = 0
   ISYM = 0
   DIPOL = 0.5 0.5 0.5
   IDIPOL = 3
   LDIPOL = .TRUE.
   LHFCALC = .TRUE.
   GGA = PE
   IVDW = 21
   VDW_SR = 0.96
   ENCUT = 450
   PREC = Normal
   LASPH = .TRUE.
   LREAL = Auto
   ISPIN = 1
   NELM = 200
   NELMIN = 8
   NCORE = 1
   KPAR = 1
   LWAVE = .FALSE.
   LCHARG = .FALSE.

 POTCAR:    PAW_PBE Mg_pv 13Apr2007
 POTCAR:    PAW_PBE O 08Apr2002
 POTCAR:    PAW_PBE Mg_pv 13Apr2007
   VRHFIN =Mg: p6s2

   TITEL  = PAW_PBE Mg_pv 13Apr2007
   POMASS =   24.305; ZVAL   =    8.000    mass and valenz
   ENMAX  =  403.929; ENMIN  =  302.947 eV

   TITEL  = PAW_PBE O 08Apr2002
   POMASS =   16.000; ZVAL   =    6.000    mass and valenz
   ENMAX  =  400.000; ENMIN  =  300.000 eV

 Optimization of the real space projectors (new method)

 maximal supplied QI-value         = 18.90
 optimisation between [QCUT,QGAM] = [ 10.77, 21.73] = [ 32.49,132.25] Ry
 Optimized for a Real-space Cutoff    1.23 Angstroem

   l    n(q)    QCUT    max X(q) W(low)/X(q) W(high)/X(q)  e(spline)
   1      7    10.771     2.974    0.18E-03    0.56E-05    0.13E-06
   1      7    10.771     4.279    0.39E-03    0.94E-04    0.28E-06
   0      8    10.771    16.381    0.27E-03    0.38E-03    0.44E-07
   0      8    10.771     5.611    0.18E-03    0.26E-03    0.32E-07
   2      7    10.771     4.652    0.12E-03    0.23E-03    0.45E-07
 Optimization of the real space projectors (new method)

 maximal supplied QI-value         = 24.76
 optimisation between [QCUT,QGAM] = [ 10.64, 21.54] = [ 31.73,129.89] Ry
 Optimized for a Real-space Cutoff    1.23 Angstroem

   l    n(q)    QCUT    max X(q) W(low)/X(q) W(high)/X(q)  e(spline)
   0      8    10.645    20.381    0.38E-03    0.60E-03    0.15E-06
   0      8    10.645    15.268    0.40E-03    0.65E-03    0.17E-06
   1      7    10.645     5.964    0.30E-03    0.63E-03    0.18E-06
   1      7    10.645     5.382    0.24E-03    0.53E-03    0.16E-06
  PAW_PBE Mg_pv 13Apr2007               :
  PAW_PBE O 08Apr2002                   :

 POSCAR: Mg  O
  positions in direct lattice
 exchange correlation table for  LEXCH =        8
   RHO(1)=    0.500       N(1)  =     2000
   RHO(2)=  100.500       N(2)  =     4000

 ion  position               nearest neighbor table
   1  0.000  0.750  0.352-  33 2.11  35 2.11  36 2.11  43 2.11  52 2.11
   2  0.250  0.000  0.352-  34 2.11  35 2.11  36 2.11  44 2.11  51 2.11
   3  0.000  0.000  0.451-  35 2.11  34 2.11  33 2.11  41 2.11  50 2.11  39 2.12
   4  0.250  0.750  0.451-  36 2.11  34 2.11  33 2.11  42 2.11  49 2.11  40 2.12
   5  0.000  0.750  0.550-  47 2.11  40 2.11  56 2.11  39 2.11  33 2.12  37 2.16
   6  0.250  1.000  0.550-  55 2.11  48 2.11  40 2.11  39 2.11  34 2.12  38 2.16
   7  0.000  1.000  0.648-  39 2.10  38 2.11  54 2.11  45 2.11  37 2.11
   8  0.250  0.750  0.648-  40 2.09  37 2.11  38 2.11  46 2.11  53 2.11
   9  0.000  0.250  0.352-  41 2.11  35 2.11  43 2.11  44 2.11  60 2.11
  10  0.250  0.500  0.352-  42 2.11  36 2.11  43 2.11  44 2.11  59 2.11
  11  0.000  0.500  0.451-  43 2.11  41 2.11  42 2.11  33 2.11  58 2.11  47 2.11
  12  0.250  0.250  0.451-  44 2.11  41 2.11  42 2.11  34 2.11  57 2.11  48 2.12
  13  1.000  0.250  0.550-  47 2.11  64 2.11  48 2.11  39 2.11  41 2.12  45 2.16
  14  0.251  0.500  0.551-  63 2.10  48 2.11  40 2.11  47 2.12  42 2.13  46 2.15
  15  0.000  0.500  0.648-  62 2.09  46 2.09  47 2.10  45 2.12  37 2.12
  16  0.250  0.250  0.648-  48 2.10  38 2.11  45 2.11  61 2.11  46 2.11
  17  0.500  0.750  0.352-  49 2.11  36 2.11  51 2.11  52 2.11  59 2.11
  18  0.750  0.000  0.352-  50 2.11  35 2.11  51 2.11  52 2.11  60 2.11
  19  0.500  0.000  0.451-  51 2.11  49 2.11  50 2.11  34 2.11  57 2.11  55 2.11
  20  0.750  0.750  0.451-  52 2.11  49 2.11  50 2.11  33 2.11  58 2.11  56 2.12
  21  0.500  0.749  0.551-  63 2.10  56 2.11  40 2.11  55 2.12  49 2.13  53 2.15
  22  0.750  1.000  0.550-  55 2.11  64 2.11  56 2.11  39 2.11  50 2.12  54 2.16
  23  0.500  0.000  0.648-  61 2.09  53 2.09  55 2.10  38 2.12  54 2.12
  24  0.750  0.750  0.648-  56 2.09  37 2.11  54 2.11  62 2.11  53 2.11
  25  0.500  0.250  0.352-  57 2.11  51 2.11  44 2.11  59 2.11  60 2.11
  26  0.750  0.500  0.352-  58 2.11  52 2.11  43 2.11  59 2.11  60 2.11
  27  0.500  0.500  0.451-  59 2.11  49 2.11  57 2.11  58 2.11  42 2.11  63 2.14
  28  0.750  0.250  0.451-  60 2.11  50 2.11  57 2.11  58 2.11  41 2.11  64 2.12
  29  0.500  0.251  0.551-  63 2.10  48 2.11  64 2.11  55 2.12  57 2.13  61 2.14
  30  0.749  0.500  0.551-  63 2.10  64 2.11  56 2.11  47 2.12  58 2.13  62 2.15
  31  0.500  0.499  0.655-  61 2.12  62 2.13  46 2.13  53 2.15  63 2.22
  32  0.750  0.250  0.648-  64 2.10  54 2.11  45 2.11  61 2.11  62 2.11
  33  0.000  0.750  0.451-   1 2.11   3 2.11   4 2.11  11 2.11  20 2.11   5 2.12
  34  0.250  0.000  0.451-   2 2.11   3 2.11   4 2.11  12 2.11  19 2.11   6 2.12
  35  0.000  0.000  0.352-   3 2.11   2 2.11   1 2.11   9 2.11  18 2.11
  36  0.250  0.750  0.352-   4 2.11   2 2.11   1 2.11  10 2.11  17 2.11
  37  1.000  0.750  0.651-   7 2.11  24 2.11   8 2.11  15 2.12   5 2.16
  38  0.249  1.000  0.651-   7 2.11  16 2.11   8 2.11  23 2.12   6 2.16
  39  1.000  1.000  0.550-   7 2.10   5 2.11  22 2.11   6 2.11  13 2.11   3 2.12
  40  0.250  0.750  0.550-   8 2.09   6 2.11   5 2.11  21 2.11  14 2.11   4 2.12
  41  0.000  0.250  0.451-   9 2.11   3 2.11  11 2.11  12 2.11  28 2.11  13 2.12
  42  0.250  0.500  0.451-  10 2.11   4 2.11  11 2.11  12 2.11  27 2.11  14 2.13
  43  0.000  0.500  0.352-  11 2.11   9 2.11  10 2.11   1 2.11  26 2.11
  44  0.250  0.250  0.352-  12 2.11   9 2.11  10 2.11   2 2.11  25 2.11
  45  0.000  0.249  0.651-   7 2.11  32 2.11  16 2.11  15 2.12  13 2.16
  46  0.247  0.500  0.651-  15 2.09   8 2.11  16 2.11  31 2.13  14 2.15
  47  0.000  0.500  0.550-  15 2.10   5 2.11  13 2.11  11 2.11  30 2.12  14 2.12
  48  0.250  0.250  0.550-  16 2.10   6 2.11  13 2.11  14 2.11  29 2.11  12 2.12
  49  0.500  0.750  0.451-  17 2.11   4 2.11  19 2.11  20 2.11  27 2.11  21 2.13
  50  0.750  0.000  0.451-  18 2.11   3 2.11  19 2.11  20 2.11  28 2.11  22 2.12
  51  0.500  0.000  0.352-  19 2.11  17 2.11  18 2.11   2 2.11  25 2.11
  52  0.750  0.750  0.352-  20 2.11  17 2.11  18 2.11   1 2.11  26 2.11
  53  0.500  0.753  0.651-  23 2.09   8 2.11  24 2.11  31 2.15  21 2.15
  54  0.751  1.000  0.651-   7 2.11  32 2.11  24 2.11  23 2.12  22 2.16
  55  0.500  1.000  0.550-  23 2.10  22 2.11   6 2.11  19 2.11  21 2.12  29 2.12
  56  0.750  0.750  0.550-  24 2.09  22 2.11   5 2.11  21 2.11  30 2.11  20 2.12
  57  0.500  0.250  0.451-  25 2.11  19 2.11  12 2.11  27 2.11  28 2.11  29 2.13
  58  0.750  0.500  0.451-  26 2.11  20 2.11  11 2.11  27 2.11  28 2.11  30 2.13
  59  0.500  0.500  0.352-  27 2.11  17 2.11  25 2.11  26 2.11  10 2.11
  60  0.750  0.250  0.352-  28 2.11  18 2.11  25 2.11  26 2.11   9 2.11
  61  0.500  0.247  0.651-  23 2.09  16 2.11  32 2.11  31 2.12  29 2.14
  62  0.753  0.500  0.651-  15 2.09  24 2.11  32 2.11  31 2.13  30 2.15
  63  0.500  0.500  0.551-  21 2.10  14 2.10  30 2.10  29 2.10  27 2.14  31 2.22
  64  0.750  0.250  0.550-  32 2.10  22 2.11  13 2.11  30 2.11  29 2.11  28 2.12

IMPORTANT INFORMATION: All symmetrisations will be switched off!
NOSYMM: (Re-)initialisation of all symmetry stuff for point group C_1.

                                     Primitive cell

  volume of cell :    1519.8199

  direct lattice vectors                    reciprocal lattice vectors
     8.440984654  0.000000000  0.000000000     0.118469591  0.000000000  0.000000000
     0.000000000  8.440984654  0.000000000     0.000000000  0.118469591  0.000000000
     0.000000000  0.000000000 21.330738491     0.000000000  0.000000000  0.046880702

  length of vectors
     8.440984654  8.440984654 21.330738491     0.118469591  0.118469591  0.046880702

  position of ions in fractional coordinates (direct lattice)
     0.000000000  0.750000000  0.351605267
     0.250000000  0.000000000  0.351605267
     0.000000000  0.000000000  0.450535089
     0.250000000  0.750000000  0.450535089
     0.000000002  0.749683926  0.549893410
     0.250263522  0.999989873  0.549908943
     0.000000001  0.999953889  0.648375512
     0.249680169  0.750035883  0.648043586
     0.000000000  0.250000000  0.351605267
     0.250000000  0.500000000  0.351605267
     0.000000000  0.500000000  0.450535089
     0.250000000  0.250000000  0.450535089
     0.999999995  0.250229246  0.549913058
     0.251264402  0.499907421  0.550551274
     0.000000017  0.499888939  0.648188279
     0.249874845  0.249731960  0.648151920
     0.500000000  0.750000000  0.351605267
     0.750000000  0.000000000  0.351605267
     0.500000000  0.000000000  0.450535089
     0.750000000  0.750000000  0.450535089
     0.499999996  0.748689127  0.550582001
     0.749736477  0.999989873  0.549908956
     0.499999995  0.000230885  0.648178485
     0.750319838  0.750035869  0.648043580
     0.500000000  0.250000000  0.351605267
     0.750000000  0.500000000  0.351605267
     0.500000000  0.500000000  0.450535089
     0.750000000  0.250000000  0.450535089
     0.499999999  0.251188744  0.550506166
     0.748735610  0.499907415  0.550551309
     0.500000034  0.498638580  0.654927800
     0.750125161  0.249731957  0.648151929
     0.000000000  0.750000000  0.450535089
     0.250000000  0.000000000  0.450535089
     0.000000000  0.000000000  0.351605267
     0.250000000  0.750000000  0.351605267
     0.999999998  0.750486788  0.651100364
     0.249403677  0.999906086  0.651133405
     0.999999997  0.999932321  0.549747566
     0.249933154  0.750096792  0.549885275
     0.000000000  0.250000000  0.450535089
     0.250000000  0.500000000  0.450535089
     0.000000000  0.500000000  0.351605267
     0.250000000  0.250000000  0.351605267
     0.000000002  0.249363374  0.651160803
     0.247373170  0.499927644  0.651129740
     0.000000005  0.499978499  0.549670801
     0.249818529  0.249801412  0.549853953
     0.500000000  0.750000000  0.450535089
     0.750000000  0.000000000  0.450535089
     0.500000000  0.000000000  0.351605267
     0.750000000  0.750000000  0.351605267
     0.499999996  0.752917707  0.651485348
     0.750596322  0.999906078  0.651133423
     0.500000000  0.999871141  0.549675125
     0.750066839  0.750096789  0.549885280
     0.500000000  0.250000000  0.450535089
     0.750000000  0.500000000  0.450535089
     0.500000000  0.500000000  0.351605267
     0.750000000  0.250000000  0.351605267
     0.500000002  0.247330485  0.650918475
     0.752626876  0.499927627  0.651129742
     0.500000005  0.500041645  0.550741581
     0.750181473  0.249801401  0.549853959

  ion indices of the primitive-cell ions
   primitive index   ion index
                 1           1
                 2           2
                 3           3
                 4           4
                 5           5
                 6           6
                 7           7
[...]
   O         195.558          4.868         19.119          3.54057954
   O         195.584          4.868         19.120          3.54081726
   O         188.634          4.838         18.778          3.47733557
   O         192.141          4.853         18.951          3.50950964
   O         242.201          5.044         21.277          3.94025150
   O         243.326          5.048         21.327          3.94939657
   O         238.562          5.032         21.117          3.91054099
   O         238.233          5.030         21.102          3.90784783
   O         195.622          4.868         19.122          3.54115758
   O         195.649          4.868         19.124          3.54140446
   O         190.778          4.848         18.884          3.49704319
   O         188.544          4.838         18.773          3.47650788
   O         242.192          5.044         21.277          3.94018050
   O         243.319          5.048         21.326          3.94933897
   O         238.731          5.032         21.124          3.91192597
   O         238.638          5.032         21.120          3.91116678
   O         195.473          4.867         19.115          3.53981127
   O         195.584          4.868         19.120          3.54081697
   O         192.838          4.856         18.986          3.51586620
   O         192.141          4.853         18.951          3.50950723
   O         235.802          5.022         20.994          3.88785609
   O         243.326          5.048         21.327          3.94939639

  vdW correction parametrized for the method ÃÔZ    þ

  IVDW =  21
  VDW_RADIUS =    50.000 A
  VDW_IDAMPF =  0
  VDW_S6 =     1.000
  VDW_SR =     0.960
  VDW_D =    20.000
  LVDW_ONECELL = F F F
  LVDW_SAMETYPE T T
  LVDW_EWALD = F

  Number of pair interactions contributing to vdW energy:  723206
  Edisp (eV):   -3.83775

 VOLUME and BASIS-vectors are now :
  energy-cutoff  :      450.00
  volume of cell :     1519.82
      direct lattice vectors                 reciprocal lattice vectors
     8.440984654  0.000000000  0.000000000     0.118469591  0.000000000  0.000000000
     0.000000000  8.440984654  0.000000000     0.000000000  0.118469591  0.000000000
     0.000000000  0.000000000 21.330738491     0.000000000  0.000000000  0.046880702

  length of vectors
     8.440984654  8.440984654 21.330738491     0.118469591  0.118469591  0.046880702

 FORCES acting on ions
    electron-ion (+dipol)            ewald-force                    non-local-force                 convergence-correction
   0.612E-05 0.255E+00 0.207E+04   -.634E-05 -.259E+00 -.206E+04   -.190E-06 0.286E-02 -.673E+01   0.475E-06 -.199E-04 -.250E+00
   -.254E+00 0.278E-01 0.207E+04   0.259E+00 -.285E-01 -.206E+04   -.289E-02 0.455E-03 -.673E+01   0.178E-04 0.346E-05 -.250E+00
   0.179E-04 0.597E-01 0.684E+03   -.199E-04 -.583E-01 -.685E+03   0.959E-06 -.101E-02 0.435E+00   0.533E-06 0.789E-05 -.106E+00
   -.144E+01 0.140E+01 0.683E+03   0.149E+01 -.145E+01 -.683E+03   -.332E-01 0.268E-01 0.531E+00   0.477E-04 -.499E-04 -.106E+00
   0.168E-04 0.746E+00 -.687E+03   -.147E-04 -.733E+00 0.687E+03   -.141E-05 0.113E-01 -.101E+00   -.461E-06 -.173E-03 0.758E-01
   -.762E+00 0.339E+00 -.687E+03   0.752E+00 -.341E+00 0.687E+03   -.134E-01 -.232E-02 -.102E+00   0.167E-03 0.148E-04 0.758E-01
   -.149E-04 0.159E+00 -.205E+04   0.151E-04 -.151E+00 0.204E+04   -.336E-06 -.776E-02 0.552E+01   0.184E-06 0.478E-04 0.229E+00
   -.329E+01 0.254E+01 -.204E+04   0.292E+01 -.209E+01 0.204E+04   0.267E+00 -.310E+00 0.561E+01   0.409E-03 -.431E-03 0.229E+00
   0.538E-05 -.255E+00 0.207E+04   -.599E-05 0.259E+00 -.206E+04   -.107E-06 -.273E-02 -.673E+01   0.718E-06 0.205E-04 -.250E+00
   -.328E+00 -.282E-01 0.207E+04   0.337E+00 0.287E-01 -.206E+04   -.581E-02 -.308E-03 -.675E+01   0.145E-04 -.508E-05 -.250E+00
   0.373E-04 -.700E-01 0.683E+03   -.411E-04 0.649E-01 -.684E+03   0.230E-05 0.314E-02 0.413E+00   0.739E-07 -.897E-05 -.106E+00
   -.136E+01 -.141E+01 0.683E+03   0.139E+01 0.145E+01 -.683E+03   -.199E-01 -.243E-01 0.525E+00   0.436E-04 0.499E-04 -.106E+00
   -.846E-05 -.735E+00 -.687E+03   0.784E-05 0.723E+00 0.687E+03   0.102E-05 -.132E-01 -.854E-01   0.298E-07 0.172E-03 0.759E-01
   -.414E+01 -.415E+00 -.695E+03   0.449E+01 0.420E+00 0.695E+03   -.315E+00 0.101E-02 -.227E+00   -.340E-04 -.135E-04 0.773E-01
   -.677E-04 -.159E+00 -.204E+04   0.701E-04 0.148E+00 0.204E+04   -.116E-05 0.101E-01 0.544E+01   -.814E-07 -.497E-04 0.229E+00
   -.169E+01 -.216E+01 -.204E+04   0.115E+01 0.168E+01 0.204E+04   0.357E+00 0.322E+00 0.567E+01   0.414E-03 0.430E-03 0.229E+00
   -.552E-05 0.328E+00 0.207E+04   0.635E-05 -.337E+00 -.206E+04   -.219E-06 0.574E-02 -.676E+01   -.565E-06 -.154E-04 -.250E+00
   0.254E+00 0.278E-01 0.207E+04   -.259E+00 -.285E-01 -.206E+04   0.289E-02 0.455E-03 -.673E+01   -.173E-04 0.339E-05 -.250E+00
   -.200E-04 0.158E+00 0.683E+03   0.217E-04 -.176E+00 -.684E+03   -.382E-06 0.110E-01 0.412E+00   -.807E-06 0.558E-05 -.106E+00
   0.144E+01 0.140E+01 0.683E+03   -.149E+01 -.145E+01 -.683E+03   0.332E-01 0.268E-01 0.531E+00   -.479E-04 -.507E-04 -.106E+00
   -.595E-05 0.437E+01 -.697E+03   0.617E-05 -.471E+01 0.697E+03   -.588E-06 0.309E+00 -.193E+00   0.629E-06 0.334E-04 0.773E-01
   0.762E+00 0.339E+00 -.687E+03   -.752E+00 -.341E+00 0.687E+03   0.134E-01 -.232E-02 -.102E+00   -.167E-03 0.139E-04 0.758E-01
   -.244E-05 0.918E+00 -.204E+04   0.285E-05 -.110E+01 0.204E+04   0.793E-06 0.110E+00 0.542E+01   -.769E-06 0.523E-04 0.229E+00
   0.329E+01 0.254E+01 -.204E+04   -.292E+01 -.209E+01 0.204E+04   -.267E+00 -.310E+00 0.561E+01   -.409E-03 -.431E-03 0.229E+00
   -.533E-05 -.328E+00 0.207E+04   0.614E-05 0.337E+00 -.206E+04   0.361E-06 -.565E-02 -.675E+01   -.103E-05 0.174E-04 -.250E+00
   0.328E+00 -.282E-01 0.207E+04   -.337E+00 0.287E-01 -.206E+04   0.581E-02 -.308E-03 -.675E+01   -.147E-04 -.381E-05 -.250E+00
   -.388E-04 -.170E+00 0.678E+03   0.430E-04 0.183E+00 -.679E+03   -.260E-05 -.843E-02 0.672E+00   -.168E-06 -.421E-05 -.106E+00
   0.136E+01 -.141E+01 0.683E+03   -.139E+01 0.145E+01 -.683E+03   0.199E-01 -.243E-01 0.525E+00   -.431E-04 0.505E-04 -.106E+00
   -.127E-04 -.404E+01 -.693E+03   0.137E-04 0.438E+01 0.693E+03   -.216E-07 -.303E+00 -.227E+00   -.537E-06 -.292E-04 0.772E-01
   0.414E+01 -.415E+00 -.695E+03   -.449E+01 0.420E+00 0.695E+03   0.315E+00 0.101E-02 -.227E+00   0.343E-04 -.122E-04 0.773E-01
   0.638E-04 -.443E+01 -.210E+04   -.702E-04 0.436E+01 0.209E+04   0.320E-05 0.180E+00 0.659E+01   -.575E-06 -.757E-04 0.239E+00
   0.169E+01 -.216E+01 -.204E+04   -.115E+01 0.168E+01 0.204E+04   -.357E+00 0.322E+00 0.567E+01   -.413E-03 0.430E-03 0.229E+00
   0.191E-04 0.622E+00 0.513E+03   -.191E-04 -.627E+00 -.513E+03   0.466E-06 0.582E-02 -.192E-01   -.374E-06 -.482E-04 -.772E-01
   -.626E+00 0.987E-01 0.513E+03   0.634E+00 -.983E-01 -.513E+03   -.939E-02 -.751E-03 -.267E-01   0.489E-04 0.351E-05 -.772E-01
   0.333E-05 0.160E-01 0.155E+04   -.389E-05 -.157E-01 -.156E+04   0.286E-06 -.352E-03 0.310E+01   0.439E-06 0.530E-05 -.187E+00
   -.228E+00 0.224E+00 0.155E+04   0.235E+00 -.230E+00 -.156E+04   -.915E-02 0.750E-02 0.310E+01   0.121E-04 -.129E-04 -.187E+00
   -.236E-04 0.743E+00 -.156E+04   0.240E-04 -.744E+00 0.157E+04   -.630E-07 -.476E-01 -.492E+01   0.357E-07 -.325E-03 0.175E+00
   -.789E+00 0.369E+00 -.156E+04   0.820E+00 -.440E+00 0.157E+04   0.180E-01 0.802E-01 -.492E+01   0.318E-03 0.348E-04 0.175E+00
   0.306E-05 0.485E-01 -.510E+03   -.358E-05 -.501E-01 0.510E+03   0.530E-06 0.394E-02 0.157E+00   0.210E-07 0.115E-04 0.557E-01
   -.212E+01 0.194E+01 -.510E+03   0.208E+01 -.189E+01 0.509E+03   0.520E-01 -.670E-01 0.464E+00   0.847E-04 -.900E-04 0.560E-01
   0.153E-04 -.629E+00 0.513E+03   -.147E-04 0.637E+00 -.513E+03   0.332E-06 -.109E-01 -.282E-01   -.335E-06 0.496E-04 -.772E-01
   -.104E+01 -.109E+00 0.510E+03   0.980E+00 0.114E+00 -.510E+03   0.677E-01 -.532E-02 -.133E+00   0.325E-04 -.452E-05 -.771E-01
   0.489E-05 -.160E-01 0.155E+04   -.584E-05 0.158E-01 -.156E+04   0.290E-06 0.209E-03 0.310E+01   0.731E-06 -.508E-05 -.187E+00
   -.219E+00 -.224E+00 0.155E+04   0.225E+00 0.230E+00 -.156E+04   -.658E-02 -.769E-02 0.310E+01   0.117E-04 0.147E-04 -.187E+00
   -.260E-04 -.745E+00 -.156E+04   0.267E-04 0.749E+00 0.157E+04   0.898E-08 0.435E-01 -.491E+01   -.388E-06 0.328E-03 0.175E+00
   -.666E+01 -.653E+00 -.156E+04   0.643E+01 0.725E+00 0.156E+04   0.484E+00 -.800E-01 -.411E+01   0.647E-04 -.312E-04 0.175E+00
   -.416E-06 -.576E-01 -.508E+03   0.877E-06 0.595E-01 0.507E+03   0.912E-07 -.637E-02 0.429E+00   -.629E-06 -.116E-04 0.558E-01
   -.172E+01 -.189E+01 -.510E+03   0.167E+01 0.184E+01 0.509E+03   0.691E-01 0.652E-01 0.446E+00   0.833E-04 0.891E-04 0.560E-01
   -.188E-04 0.104E+01 0.510E+03   0.188E-04 -.978E+00 -.509E+03   -.721E-06 -.714E-01 -.147E+00   0.365E-06 -.361E-04 -.771E-01
   0.626E+00 0.987E-01 0.513E+03   -.634E+00 -.983E-01 -.513E+03   0.939E-02 -.751E-03 -.267E-01   -.478E-04 0.245E-05 -.772E-01
   -.247E-05 0.249E-01 0.155E+04   0.395E-05 -.267E-01 -.156E+04   0.623E-06 0.215E-02 0.310E+01   -.157E-05 -.231E-06 -.187E+00
   0.228E+00 0.224E+00 0.155E+04   -.235E+00 -.230E+00 -.156E+04   0.915E-02 0.750E-02 0.310E+01   -.123E-04 -.136E-04 -.187E+00
   -.137E-05 0.830E+01 -.156E+04   0.230E-07 -.818E+01 0.156E+04   0.213E-05 -.416E+00 -.425E+01   0.185E-06 -.804E-04 0.176E+00
   0.789E+00 0.369E+00 -.156E+04   -.820E+00 -.440E+00 0.157E+04   -.180E-01 0.802E-01 -.492E+01   -.317E-03 0.348E-04 0.175E+00
   -.132E-04 0.475E+00 -.508E+03   0.132E-04 -.502E+00 0.507E+03   0.943E-06 0.320E-01 0.423E+00   -.821E-06 0.698E-05 0.558E-01
   0.212E+01 0.194E+01 -.510E+03   -.208E+01 -.189E+01 0.509E+03   -.520E-01 -.670E-01 0.464E+00   -.853E-04 -.904E-04 0.560E-01
   -.171E-04 -.105E+01 0.510E+03   0.181E-04 0.990E+00 -.510E+03   -.611E-06 0.651E-01 -.117E+00   -.429E-06 0.367E-04 -.771E-01
   0.104E+01 -.109E+00 0.510E+03   -.980E+00 0.114E+00 -.510E+03   -.677E-01 -.532E-02 -.133E+00   -.328E-04 -.355E-05 -.771E-01
   -.554E-05 -.248E-01 0.155E+04   0.593E-05 0.268E-01 -.156E+04   -.160E-06 -.235E-02 0.309E+01   -.383E-06 -.237E-05 -.187E+00
   0.219E+00 -.224E+00 0.155E+04   -.225E+00 0.230E+00 -.156E+04   0.658E-02 -.769E-02 0.310E+01   -.112E-04 0.139E-04 -.187E+00
   0.231E-04 -.546E+01 -.155E+04   -.241E-04 0.511E+01 0.156E+04   0.233E-05 0.579E+00 -.401E+01   -.826E-06 0.716E-04 0.175E+00
   0.666E+01 -.653E+00 -.156E+04   -.643E+01 0.725E+00 0.156E+04   -.484E+00 -.800E-01 -.411E+01   -.639E-04 -.313E-04 0.175E+00
   -.420E-05 -.735E+00 -.534E+03   0.383E-05 0.767E+00 0.535E+03   0.137E-05 -.399E-01 -.845E+00   -.522E-06 -.928E-05 0.572E-01
   0.172E+01 -.189E+01 -.510E+03   -.167E+01 0.184E+01 0.509E+03   -.691E-01 0.652E-01 0.446E+00   -.826E-04 0.896E-04 0.560E-01
   0.385E-05 -.507E+00 0.191E+02   0.117E-12 -.291E-12 -.625E-12   -.746E-06 0.449E+00 -.157E+02   -.167E-05 -.227E-04 -.658E+00

 POSITION                                       TOTAL-FORCE (eV/Angst)
      0.00000      6.33074      7.50000         0.000000     -0.001163      0.500075
      2.11025      0.00000      7.50000         0.001290     -0.000107      0.500662
      0.00000      0.00000      9.61025        -0.000000      0.000380      0.022009
      2.11025      6.33074      9.61025         0.015826     -0.013255      0.020820
      0.00000      6.32807     11.72963        -0.000000      0.024124      0.080030
      2.11247      8.44090     11.72996        -0.023577     -0.004601      0.081328
      0.00000      8.44060     13.83033        -0.000000     -0.001207     -0.017583
      2.10755      6.33104     13.82325        -0.056357      0.098565      0.007525
      0.00000      2.11025      7.50000        -0.000000      0.001321      0.500881
      2.11025      4.22049      7.50000         0.002219      0.000238      0.505969
      0.00000      4.22049      9.61025        -0.000001     -0.001329      0.037407
      2.11025      2.11025      9.61025         0.010281      0.012071      0.017806
      8.44098      2.11218     11.73005         0.000000     -0.025456      0.079433
      2.12092      4.21971     11.74367        -0.006978      0.005413      0.004534
      0.00000      4.21955     13.82633         0.000001     -0.000054      0.015964
      2.10919      2.10798     13.82556        -0.123162     -0.102157     -0.031878
      4.22049      6.33074      7.50000        -0.000000     -0.002126      0.507174
      6.33074      0.00000      7.50000        -0.001290     -0.000107      0.500663
      4.22049      0.00000      9.61025         0.000000     -0.004932      0.038178
      6.33074      6.33074      9.61025        -0.015826     -0.013256      0.020820
      4.22049      6.31967     11.74432         0.000000      0.008738      0.028974
      6.32851      8.44090     11.72996         0.023577     -0.004601      0.081341
      4.22049      0.00195     13.82613         0.000000     -0.052424      0.024652
      6.33344      6.33104     13.82325         0.056357      0.098568      0.007511
      4.22049      2.11025      7.50000         0.000000      0.002210      0.504832
      6.33074      4.22049      7.50000        -0.002219      0.000238      0.505970
      4.22049      4.22049      9.61025         0.000001      0.003653      0.045548
      6.33074      2.11025      9.61025        -0.010281      0.012072      0.017808
      4.22049      2.12028     11.74270         0.000000     -0.008986     -0.009075
      6.32007      4.21971     11.74367         0.006978      0.005413      0.004594
      4.22049      4.20900     13.97009        -0.000003      0.118134     -0.977646
      6.33179      2.10798     13.82556         0.123162     -0.102158     -0.031885
      0.00000      6.33074      9.61025         0.000000      0.002764      0.079256
      2.11025      0.00000      9.61025        -0.003724     -0.000397      0.078099
      0.00000      0.00000      7.50000         0.000000     -0.000051     -0.418509
      2.11025      6.33074      7.50000        -0.002983      0.002488     -0.419569
      8.44098      6.33485     13.88845         0.000000     -0.059437     -0.249169
      2.10521      8.44019     13.88916         0.053783      0.023330     -0.252144
      8.44098      8.44041     11.72652         0.000000      0.003068     -0.032287
      2.10968      6.33156     11.72946         0.020525     -0.029767      0.000566
      0.00000      2.11025      9.61025         0.000001     -0.004093      0.077884
      2.11025      4.22049      9.61025         0.019405     -0.001242      0.106499
      0.00000      4.22049      7.50000         0.000000      0.000172     -0.420722
      2.11025      2.11025      7.50000        -0.002070     -0.002380     -0.419468
      0.00000      2.10487     13.88974         0.000000      0.058138     -0.249328
      2.08807      4.21988     13.88908         0.355096     -0.022581     -0.010323
      0.00000      4.22031     11.72488        -0.000000     -0.004801      0.038852
      2.10871      2.10857     11.72879         0.030724      0.028051      0.010927
      4.22049      6.33074      9.61025        -0.000001     -0.020432      0.104436
      6.33074      0.00000      9.61025         0.003724     -0.000396      0.078100
      4.22049      0.00000      7.50000         0.000001      0.000837     -0.420822
      6.33074      6.33074      7.50000         0.002982      0.002489     -0.419569
      4.22049      6.35537     13.89666         0.000001     -0.387961     -0.059782
      6.33577      8.44019     13.88916        -0.053784      0.023330     -0.252148
      4.22049      8.43990     11.72498         0.000000      0.011743      0.035106
      6.33130      6.33156     11.72946        -0.020524     -0.029767      0.000565
      4.22049      2.11025      9.61025        -0.000000      0.018767      0.107506
      6.33074      4.22049      9.61025        -0.019403     -0.001242      0.106500
      4.22049      4.22049      7.50000        -0.000000     -0.000747     -0.424902
      6.33074      2.11025      7.50000         0.002070     -0.002379     -0.419469
      4.22049      2.08771     13.88457         0.000001      0.349739      0.025643
      6.35291      4.21988     13.88908        -0.355100     -0.022582     -0.010327
      4.22049      4.22084     11.74772         0.000001     -0.015929      0.023231
      6.33227      2.10857     11.72879        -0.030725      0.028052      0.010926
    total drift:                                0.000002     -0.006029     -0.001709

  FREE ENERGIE OF THE ION-ELECTRON SYSTEM (eV)
  free  energy   TOTEN  =      -467.69459450 eV

  energy  without entropy=     -467.69459450  energy(sigma->0) =     -467.69459450