 vasp.6.3.0 20Jan22 (build Apr  1 2022 16:44:48) complex
 executed on        HPECrayEX_GCC date 2022.09.24  12:35:27

 INCAR:
   SYSTEM = MgO-rocksalt
   ISMEAR = 0
   SIGMA = 0.05
   EDIFF = 1E-7
   ALGO = ALL
   ISTART = 0
   IBRION = 2
   NSW = 1000
   ISYM = 2
   ISIF = 3
   EDIFFG = -0.005
   GGA = MK
   LUSE_VDW = .TRUE.
   PARAM1 = 0.1234
   PARAM2 = 0.711357
   ZAB_VDW = -1.8867
   AGGAC = 0.0
   ENCUT = 600
   PREC = Normal
   LASPH = .TRUE.
   LREAL = .FALSE.
   ISPIN = 1
   NELM = 200
   NELMIN = 8
   NCORE = 4
   KPAR = 2
   LWAVE = .FALSE.
   LCHARG = .FALSE.

 POTCAR:    PAW_PBE Mg_pv 13Apr2007
 POTCAR:    PAW_PBE O 08Apr2002
|               ----> ADVICE to this user running VASP <----                  |
|     You have switched on vdW-DFT.                                           |
|     This routine was written and supplied by Jiri Klimes. We recommend      |
|     that you carefully read and cite the following publications:            |
|       J. Klimes, D.R. Bowler, A. Michelides                                 |
|          J. Phys.: Cond Matt. 22 022201 (2010)                              |
|       J. Klimes, D.R. Bowler, A. Michelides                                 |
|          Phys. Rev. B. 83, 195131 (2011)                                    |
|     and references therein.                                                 |

   TITEL  = PAW_PBE Mg_pv 13Apr2007
   POMASS =   24.305; ZVAL   =    8.000    mass and valenz
   ENMAX  =  403.929; ENMIN  =  302.947 eV

   TITEL  = PAW_PBE O 08Apr2002
   POMASS =   16.000; ZVAL   =    6.000    mass and valenz
   ENMAX  =  400.000; ENMIN  =  300.000 eV

  PAW_PBE Mg_pv 13Apr2007               :
  PAW_PBE O 08Apr2002                   :

 POSCAR: Mg4 O4
  positions in direct lattice
  velocities in cartesian coordinates
 exchange correlation table for  LEXCH =       43
   RHO(1)=    0.500       N(1)  =     2000
   RHO(2)=  100.500       N(2)  =     4000

 ion  position               nearest neighbor table
   1  0.000  0.000  0.000-   5 2.11   7 2.11   8 2.11   7 2.11   8 2.11   5 2.11
   2  0.000  0.500  0.500-   6 2.11   7 2.11   8 2.11   8 2.11   7 2.11   6 2.11
   3  0.500  0.000  0.500-   5 2.11   6 2.11   7 2.11   5 2.11   6 2.11   7 2.11
   4  0.500  0.500  0.000-   5 2.11   6 2.11   8 2.11   6 2.11   5 2.11   8 2.11
   5  0.500  0.000  0.000-   1 2.11   3 2.11   4 2.11   3 2.11   4 2.11   1 2.11
   6  0.500  0.500  0.500-   2 2.11   3 2.11   4 2.11   4 2.11   3 2.11   2 2.11
   7  0.000  0.000  0.500-   1 2.11   2 2.11   3 2.11   1 2.11   2 2.11   3 2.11
   8  0.000  0.500  0.000-   1 2.11   2 2.11   4 2.11   2 2.11   1 2.11   4 2.11

  LATTYP: Found a simple cubic cell.
 ALAT       =     4.2202911310

  Lattice vectors:

 A1 = (   4.2202911310,   0.0000000000,   0.0000000000)
 A2 = (   0.0000000000,   4.2202911310,  -0.0000000000)
 A3 = (  -0.0000000000,   0.0000000000,   4.2202911310)

Analysis of symmetry for initial positions (statically):
 Subroutine PRICEL returns following result:

  LATTYP: Found a face centered cubic cell.
 ALAT       =     4.2202911310

[...]

   4 primitive cells build up your supercell.

 Routine SETGRP: Setting up the symmetry group for a
 simple cubic supercell.

 Subroutine GETGRP returns: Found 48 space group operations
 (whereof 48 operations were pure point group operations)
 out of a pool of 48 trial point group operations.

The static configuration has the point symmetry O_h .

Analysis of symmetry for dynamics (positions and initial velocities):
 Subroutine PRICEL returns following result:

  LATTYP: Found a face centered cubic cell.
 ALAT       =     4.2202911310

  Lattice vectors:

 A1 = (   2.1101455655,  -2.1101455655,   0.0000000000)
 A2 = (   2.1101455655,   0.0000000000,   2.1101455655)
 A3 = (   0.0000000000,  -2.1101455655,   2.1101455655)

   4 primitive cells build up your supercell.

 Routine SETGRP: Setting up the symmetry group for a
 simple cubic supercell.

 Subroutine GETGRP returns: Found 48 space group operations
 (whereof 48 operations were pure point group operations)
 out of a pool of 48 trial point group operations.

The dynamic configuration has the point symmetry O_h .

 Subroutine INISYM returns: Found 48 space group operations
 (whereof 48 operations are pure point group operations),
 and found     4 'primitive' translations

                                     Primitive cell

  volume of cell :      18.7918

  direct lattice vectors                    reciprocal lattice vectors
     2.110145566 -2.110145566  0.000000000     0.236950478 -0.236950478 -0.236950478
     2.110145566  0.000000000  2.110145566     0.236950478  0.236950478  0.236950478
     0.000000000 -2.110145566  2.110145566    -0.236950478 -0.236950478  0.236950478

  length of vectors
     2.984196477  2.984196477  2.984196477     0.410410266  0.410410266  0.410410266

  position of ions in fractional coordinates (direct lattice)
     0.000000000  0.000000000  0.000000000
     0.500000000  0.500000000  0.500000000

  ion indices of the primitive-cell ions
   primitive index   ion index
                 1           1
                 2           5

 KPOINTS: pymatgen v2020.8.13 with grid density =

Automatic generation of k-mesh.
 Grid dimensions read from file:
 generate k-points for:    8    8    8

 Generating k-lattice:

  Cartesian coordinates                     Fractional coordinates (reciprocal lattice)
     0.029618810  0.000000000  0.000000000     0.125000000  0.000000000  0.000000000
     0.000000000  0.029618810 -0.000000000     0.000000000  0.125000000  0.000000000
    -0.000000000  0.000000000  0.029618810     0.000000000  0.000000000  0.125000000

  Length of vectors
     0.029618810  0.029618810  0.029618810

  Shift w.r.t. Gamma in fractional coordinates (k-lattice)
     0.000000000  0.000000000  0.000000000

 Subroutine IBZKPT returns following result:

 Found     35 irreducible k-points:

 Following reciprocal coordinates:
            Coordinates               Weight
  0.000000  0.000000  0.000000      1.000000
  0.125000  0.000000  0.000000      6.000000
  0.250000  0.000000  0.000000      6.000000
  0.375000  0.000000  0.000000      6.000000
  0.500000  0.000000  0.000000      3.000000
  0.125000  0.125000  0.000000     12.000000
  0.250000  0.125000  0.000000     24.000000
  0.375000  0.125000  0.000000     24.000000
  0.500000  0.125000  0.000000     12.000000
  0.250000  0.250000  0.000000     12.000000
  0.375000  0.250000  0.000000     24.000000
  0.500000  0.250000  0.000000     12.000000
  0.375000  0.375000  0.000000     12.000000
  0.500000  0.375000  0.000000     12.000000
  0.500000  0.500000  0.000000      3.000000
  0.125000  0.125000  0.125000      8.000000
  0.250000  0.125000  0.125000     24.000000
  0.375000  0.125000  0.125000     24.000000
  0.500000  0.125000  0.125000     12.000000
  0.250000  0.250000  0.125000     24.000000
  0.375000  0.250000  0.125000     48.000000
  0.500000  0.250000  0.125000     24.000000
  0.375000  0.375000  0.125000     24.000000
  0.500000  0.375000  0.125000     24.000000
  0.500000  0.500000  0.125000      6.000000
  0.250000  0.250000  0.250000      8.000000
  0.375000  0.250000  0.250000     24.000000
  0.500000  0.250000  0.250000     12.000000
  0.375000  0.375000  0.250000     24.000000
  0.500000  0.375000  0.250000     24.000000
  0.500000  0.500000  0.250000      6.000000
  0.375000  0.375000  0.375000      8.000000
  0.500000  0.375000  0.375000     12.000000
  0.500000  0.500000  0.375000      6.000000
  0.500000  0.500000  0.500000      1.000000

 Following cartesian coordinates:
            Coordinates               Weight
  0.000000  0.000000  0.000000      1.000000
  0.029619  0.000000  0.000000      6.000000
  0.059238  0.000000  0.000000      6.000000
  0.088856  0.000000  0.000000      6.000000
  0.118475  0.000000  0.000000      3.000000
  0.029619  0.029619  0.000000     12.000000
  0.059238  0.029619  0.000000     24.000000
  0.088856  0.029619  0.000000     24.000000
  0.118475  0.029619  0.000000     12.000000
  0.059238  0.059238  0.000000     12.000000
  0.088856  0.059238  0.000000     24.000000
  0.118475  0.059238  0.000000     12.000000
  0.088856  0.088856  0.000000     12.000000
  0.118475  0.088856  0.000000     12.000000
  0.118475  0.118475  0.000000      3.000000
  0.029619  0.029619  0.029619      8.000000
  0.059238  0.029619  0.029619     24.000000
  0.088856  0.029619  0.029619     24.000000
  0.118475  0.029619  0.029619     12.000000
  0.059238  0.059238  0.029619     24.000000
  0.088856  0.059238  0.029619     48.000000
  0.118475  0.059238  0.029619     24.000000
  0.088856  0.088856  0.029619     24.000000
  0.118475  0.088856  0.029619     24.000000
  0.118475  0.118475  0.029619      6.000000
  0.059238  0.059238  0.059238      8.000000
  0.088856  0.059238  0.059238     24.000000
  0.118475  0.059238  0.059238     12.000000
  0.088856  0.088856  0.059238     24.000000
  0.118475  0.088856  0.059238     24.000000
  0.118475  0.118475  0.059238      6.000000
  0.088856  0.088856  0.088856      8.000000
  0.118475  0.088856  0.088856     12.000000
  0.118475  0.118475  0.088856      6.000000
  0.118475  0.118475  0.118475      1.000000

 SYSTEM =  MgO-rocksalt
 POSCAR =  Mg4 O4

  energy-cutoff  :      600.00
  volume of cell :       75.17
      direct lattice vectors                 reciprocal lattice vectors
     4.220291131  0.000000000  0.000000000     0.236950478  0.000000000  0.000000000
     0.000000000  4.220291131 -0.000000000     0.000000000  0.236950478 -0.000000000
    -0.000000000  0.000000000  4.220291131    -0.000000000  0.000000000  0.236950478

[...]

 k-points in units of 2pi/SCALE and weight: pymatgen v2020.8.13 with grid density =
   0.00000000  0.00000000  0.00000000       0.002
   0.02961881  0.00000000  0.00000000       0.012
   0.05923762  0.00000000  0.00000000       0.012
   0.08885643  0.00000000  0.00000000       0.012
   0.11847524  0.00000000  0.00000000       0.006
   0.02961881  0.02961881  0.00000000       0.023
   0.05923762  0.02961881  0.00000000       0.047
   0.08885643  0.02961881  0.00000000       0.047
   0.11847524  0.02961881  0.00000000       0.023
   0.05923762  0.05923762  0.00000000       0.023
   0.08885643  0.05923762  0.00000000       0.047
   0.11847524  0.05923762  0.00000000       0.023
   0.08885643  0.08885643  0.00000000       0.023
   0.11847524  0.08885643  0.00000000       0.023
   0.11847524  0.11847524  0.00000000       0.006
   0.02961881  0.02961881  0.02961881       0.016
   0.05923762  0.02961881  0.02961881       0.047
   0.08885643  0.02961881  0.02961881       0.047
   0.11847524  0.02961881  0.02961881       0.023
   0.05923762  0.05923762  0.02961881       0.047
   0.08885643  0.05923762  0.02961881       0.094
   0.11847524  0.05923762  0.02961881       0.047
   0.08885643  0.08885643  0.02961881       0.047
   0.11847524  0.08885643  0.02961881       0.047
   0.11847524  0.11847524  0.02961881       0.012
   0.05923762  0.05923762  0.05923762       0.016
   0.08885643  0.05923762  0.05923762       0.047
   0.11847524  0.05923762  0.05923762       0.023
   0.08885643  0.08885643  0.05923762       0.047
   0.11847524  0.08885643  0.05923762       0.047
   0.11847524  0.11847524  0.05923762       0.012
   0.08885643  0.08885643  0.08885643       0.016
   0.11847524  0.08885643  0.08885643       0.023
   0.11847524  0.11847524  0.08885643       0.012
   0.11847524  0.11847524  0.11847524       0.002

 k-points in reciprocal lattice and weights: pymatgen v2020.8.13 with grid density =
   0.00000000  0.00000000  0.00000000       0.002
   0.12500000  0.00000000  0.00000000       0.012
   0.25000000  0.00000000  0.00000000       0.012
   0.37500000  0.00000000  0.00000000       0.012
   0.50000000  0.00000000  0.00000000       0.006
   0.12500000  0.12500000  0.00000000       0.023
   0.25000000  0.12500000  0.00000000       0.047
   0.37500000  0.12500000  0.00000000       0.047
   0.50000000  0.12500000  0.00000000       0.023
   0.25000000  0.25000000  0.00000000       0.023
   0.37500000  0.25000000  0.00000000       0.047
   0.50000000  0.25000000  0.00000000       0.023
   0.37500000  0.37500000  0.00000000       0.023
   0.50000000  0.37500000  0.00000000       0.023
   0.50000000  0.50000000  0.00000000       0.006
   0.12500000  0.12500000  0.12500000       0.016
   0.25000000  0.12500000  0.12500000       0.047
   0.37500000  0.12500000  0.12500000       0.047
   0.50000000  0.12500000  0.12500000       0.023
   0.25000000  0.25000000  0.12500000       0.047
   0.37500000  0.25000000  0.12500000       0.094
   0.50000000  0.25000000  0.12500000       0.047
   0.37500000  0.37500000  0.12500000       0.047
   0.50000000  0.37500000  0.12500000       0.047
   0.50000000  0.50000000  0.12500000       0.012
   0.25000000  0.25000000  0.25000000       0.016
   0.37500000  0.25000000  0.25000000       0.047
   0.50000000  0.25000000  0.25000000       0.023
   0.37500000  0.37500000  0.25000000       0.047
   0.50000000  0.37500000  0.25000000       0.047
   0.50000000  0.50000000  0.25000000       0.012
   0.37500000  0.37500000  0.37500000       0.016
   0.50000000  0.37500000  0.37500000       0.023
   0.50000000  0.50000000  0.37500000       0.012
   0.50000000  0.50000000  0.50000000       0.002

 position of ions in fractional coordinates (direct lattice)
   0.00000000  0.00000000  0.00000000
   0.00000000  0.50000000  0.50000000
   0.50000000  0.00000000  0.50000000
   0.50000000  0.50000000  0.00000000
   0.50000000  0.00000000  0.00000000
   0.50000000  0.50000000  0.50000000
   0.00000000  0.00000000  0.50000000
   0.00000000  0.50000000  0.00000000

 position of ions in cartesian coordinates  (Angst):
   0.00000000  0.00000000  0.00000000
   0.00000000  2.11014557  2.11014557
   2.11014557  0.00000000  2.11014557
   2.11014557  2.11014557  0.00000000
   2.11014557  0.00000000  0.00000000
   2.11014557  2.11014557  2.11014557
   0.00000000  0.00000000  2.11014557
   0.00000000  2.11014557  0.00000000

--------------------------------------- Iteration      FINAL  ---------------------------------------

--------------------OUTCAR has been truncated-------------------------

[...]

--------------------OUTCAR has been truncated-------------------------

  FORCE on cell =-STRESS in cart. coord.  units (eV):
  Direction    XX          YY          ZZ          XY          YZ          ZX
  Alpha Z   276.51687   276.51687   276.51687
  Ewald   -1280.88177 -1280.88177 -1280.88177     0.00000    -0.00000     0.00000
  Hartree   408.57197   408.57197   408.57197    -0.00000    -0.00000    -0.00000
  E(xc)    -307.97423  -307.97423  -307.97423     0.00000     0.00000     0.00000
  Local     209.13518   209.13518   209.13518    -0.00000    -0.00000     0.00000
  n-local  -354.06959  -355.55830  -355.36134     0.17967     0.16747     0.10179
  augment   131.02068   131.02068   131.02068    -0.00000    -0.00000     0.00000
  Kinetic   911.79847   920.61005   923.43407    -2.95813    -2.89774    -1.78116
  Fock        0.00000     0.00000     0.00000     0.00000     0.00000     0.00000
  Total       0.00648     0.00648     0.00648     0.00000     0.00000    -0.00000
  in kB       0.13805     0.13805     0.13805     0.00000     0.00000    -0.00000

 VOLUME and BASIS-vectors are now :
  energy-cutoff  :      600.00
  volume of cell :       75.17
      direct lattice vectors                 reciprocal lattice vectors
     4.220291131  0.000000000  0.000000000     0.236950478  0.000000000  0.000000000
     0.000000000  4.220291131 -0.000000000     0.000000000  0.236950478 -0.000000000
    -0.000000000  0.000000000  4.220291131    -0.000000000  0.000000000  0.236950478

  length of vectors
     4.220291131  4.220291131  4.220291131     0.236950478  0.236950478  0.236950478

 FORCES acting on ions:
    Electron-Ion                     Ewald-Force                    Non-Local-Force
   -.376E-13 -.301E-13 -.310E-13   -.532E-14 -.594E-14 -.876E-14   -.103E-24 0.207E-24 0.352E-24
   -.374E-13 0.401E-12 0.398E-12   -.525E-14 -.213E-14 -.338E-14   0.000E+00 0.258E-24 -.129E-24
   0.401E-12 -.303E-13 0.293E-11   -.531E-14 -.579E-14 -.343E-14   -.517E-25 0.775E-25 -.304E-24
   0.399E-12 0.975E-12 -.342E-12   -.524E-14 -.198E-14 -.134E-13   0.103E-24 0.000E+00 0.171E-24
   0.173E-12 -.238E-13 -.155E-11   0.105E-13 0.254E-14 0.303E-14   0.207E-24 0.310E-24 0.230E-24
   0.171E-12 0.127E-12 0.732E-12   0.107E-13 0.384E-14 0.101E-13   0.517E-24 0.000E+00 0.509E-25
   -.292E-13 -.280E-13 0.166E-12   0.313E-15 0.398E-14 0.101E-13   -.207E-24 0.000E+00 0.283E-25
   -.293E-13 0.172E-12 -.244E-13   0.576E-15 0.528E-14 0.569E-14   0.103E-24 0.000E+00 0.101E-24
   0.102E-11 0.159E-11 0.233E-11   0.945E-15 -.205E-15 -.477E-17   0.569E-24 0.853E-24 0.499E-24

 POSITION                                       TOTAL-FORCE (eV/Angst)
      0.00000      0.00000      0.00000         0.000000      0.000000      0.000000
      0.00000      2.11015      2.11015         0.000000      0.000000     -0.000000
      2.11015      0.00000      2.11015         0.000000      0.000000     -0.000000
      2.11015      2.11015      0.00000        -0.000000     -0.000000      0.000000
      2.11015      0.00000      0.00000        -0.000000     -0.000000     -0.000000
      2.11015      2.11015      2.11015        -0.000000     -0.000000      0.000000
      0.00000      0.00000      2.11015        -0.000000     -0.000000      0.000000
      0.00000      2.11015      0.00000        -0.000000      0.000000     -0.000000
    total drift:                                0.000000      0.000000      0.000000

  FREE ENERGIE OF THE ION-ELECTRON SYSTEM (eV)
  free  energy   TOTEN  =       -34.33430492 eV

  energy  without entropy=      -34.33430492  energy(sigma->0) =      -34.33430492

 reached required accuracy - stopping structural energy minimisation