 vasp.6.3.0 20Jan22 (build Apr  1 2022 16:44:48) complex
 executed on        HPECrayEX_GCC date 2022.11.07  01:35:43

 INCAR:
   SYSTEM = MgO-rocksalt
   ISMEAR = 0
   SIGMA = 0.05
   EDIFF = 1E-6
   ALGO = ALL
   ISTART = 0
   IBRION = -1
   NSW = 0
   ISYM = 0
   DIPOL = 0.5 0.5 0.5
   IDIPOL = 3
   LDIPOL = .TRUE.
   LHFCALC = .TRUE.
   GGA = B5
   AEXX = 0.2
   AGGAX = 0.72
   AGGAC = 0.81
   ALDAC = 0.19
   IVDW = 1
   VDW_S6 = 1.05
   VDW_C6 = 1.75 0.14 0.63 0.70
   VDW_R0 = 1.452 1.001 1.243 1.342
   ENCUT = 600
   PREC = Accurate
   LASPH = .TRUE.
   LREAL = .FALSE.
   ISPIN = 1
   NELM = 200
   NELMIN = 8
   NCORE = 8
   KPAR = 1
   LWAVE = .FALSE.
   LCHARG = .FALSE.

 POTCAR:    PAW_PBE C 08Apr2002
 POTCAR:    PAW_PBE H 15Jun2001
 POTCAR:    PAW_PBE Mg_pv 13Apr2007
 POTCAR:    PAW_PBE O 08Apr2002
 POTCAR:    PAW_PBE C 08Apr2002
   VRHFIN =C: s2p2

   TITEL  = PAW_PBE C 08Apr2002
   POMASS =   12.011; ZVAL   =    4.000    mass and valenz
   ENMAX  =  400.000; ENMIN  =  300.000 eV

   TITEL  = PAW_PBE H 15Jun2001
   POMASS =    1.000; ZVAL   =    1.000    mass and valenz
   ENMAX  =  250.000; ENMIN  =  200.000 eV

   TITEL  = PAW_PBE Mg_pv 13Apr2007
   POMASS =   24.305; ZVAL   =    8.000    mass and valenz
   ENMAX  =  403.929; ENMIN  =  302.947 eV

   TITEL  = PAW_PBE O 08Apr2002
   POMASS =   16.000; ZVAL   =    6.000    mass and valenz
   ENMAX  =  400.000; ENMIN  =  300.000 eV

  PAW_PBE C 08Apr2002                   :
  PAW_PBE H 15Jun2001                   :
  PAW_PBE Mg_pv 13Apr2007               :
  PAW_PBE O 08Apr2002                   :

 POSCAR:  C  H Mg  O
  positions in direct lattice
 exchange correlation table for  LEXCH =       12
   RHO(1)=    0.500       N(1)  =     2000
   RHO(2)=  100.500       N(2)  =     4000

 ion  position               nearest neighbor table
   1  0.500  0.500  0.790-   3 1.10   2 1.10   4 1.10   5 1.10
   2  0.500  0.606  0.819-   1 1.10
   3  0.500  0.394  0.819-   1 1.10
   4  0.607  0.500  0.761-   1 1.10
   5  0.393  0.500  0.761-   1 1.10
   6  0.250  0.000  0.351-  38 2.12  40 2.12  41 2.12  48 2.12  57 2.12
   7  0.500  0.250  0.351-  39 2.12  40 2.12  41 2.12  49 2.12  56 2.12
   8  0.250  0.250  0.450-  40 2.12  39 2.12  38 2.12  46 2.12  55 2.12  44 2.12
   9  0.500  0.000  0.450-  41 2.12  39 2.12  38 2.12  47 2.12  54 2.12  45 2.12
  10  0.250  0.000  0.550-  61 2.12  45 2.12  44 2.12  52 2.12  38 2.13  42 2.15
  11  0.500  0.250  0.550-  44 2.12  60 2.12  45 2.12  53 2.12  39 2.13  43 2.15
  12  0.250  0.250  0.648-  44 2.10  43 2.12  42 2.12  50 2.12  59 2.12
  13  0.500  1.000  0.649-  45 2.12  51 2.12  43 2.12  58 2.12  42 2.12
  14  0.250  0.500  0.351-  46 2.12  40 2.12  48 2.12  49 2.12  65 2.12
  15  0.500  0.750  0.351-  47 2.12  41 2.12  48 2.12  49 2.12  64 2.12
  16  0.250  0.750  0.450-  48 2.12  46 2.12  47 2.12  38 2.12  63 2.12  52 2.12
  17  0.500  0.500  0.450-  49 2.12  46 2.12  47 2.12  39 2.12  62 2.12  53 2.12
  18  0.250  0.500  0.550-  52 2.12  44 2.12  53 2.12  69 2.12  46 2.13  50 2.15
  19  0.500  0.750  0.550-  68 2.12  52 2.12  45 2.12  53 2.12  47 2.13  51 2.15
  20  0.250  0.750  0.648-  52 2.10  51 2.12  42 2.12  50 2.12  67 2.12
  21  0.500  0.500  0.649-  53 2.12  51 2.12  43 2.12  50 2.12  66 2.12
  22  0.750  0.000  0.351-  54 2.12  41 2.12  56 2.12  57 2.12  64 2.12
  23  0.000  0.250  0.351-  55 2.12  40 2.12  56 2.12  57 2.12  65 2.12
  24  0.750  0.250  0.450-  56 2.12  54 2.12  55 2.12  39 2.12  62 2.12  60 2.12
  25  0.000  0.000  0.450-  57 2.12  54 2.12  55 2.12  38 2.12  63 2.12  61 2.12
  26  0.750  1.000  0.550-  61 2.12  45 2.12  60 2.12  68 2.12  54 2.13  58 2.15
  27  0.000  0.250  0.550-  69 2.12  44 2.12  60 2.12  61 2.12  55 2.13  59 2.15
  28  0.750  0.250  0.648-  60 2.10  43 2.12  58 2.12  66 2.12  59 2.12
  29  0.000  1.000  0.649-  61 2.12  42 2.12  58 2.12  67 2.12  59 2.12
  30  0.750  0.500  0.351-  62 2.12  56 2.12  49 2.12  64 2.12  65 2.12
  31  0.000  0.750  0.351-  63 2.12  57 2.12  48 2.12  64 2.12  65 2.12
  32  0.750  0.750  0.450-  64 2.12  54 2.12  62 2.12  63 2.12  47 2.12  68 2.12
  33  0.000  0.500  0.450-  65 2.12  55 2.12  62 2.12  63 2.12  46 2.12  69 2.12
  34  0.750  0.500  0.550-  68 2.12  60 2.12  53 2.12  69 2.12  62 2.13  66 2.15
  35  1.000  0.750  0.550-  69 2.12  68 2.12  52 2.12  61 2.12  63 2.13  67 2.15
  36  0.750  0.750  0.648-  68 2.10  51 2.12  58 2.12  66 2.12  67 2.12
  37  1.000  0.500  0.649-  69 2.12  66 2.12  50 2.12  59 2.12  67 2.12
  38  0.250  0.000  0.450-   6 2.12   8 2.12   9 2.12  16 2.12  25 2.12  10 2.13
  39  0.500  0.250  0.450-   7 2.12   8 2.12   9 2.12  17 2.12  24 2.12  11 2.13
  40  0.250  0.250  0.351-   8 2.12   7 2.12   6 2.12  14 2.12  23 2.12
  41  0.500  0.000  0.351-   9 2.12   7 2.12   6 2.12  15 2.12  22 2.12
  42  0.250  1.000  0.651-  29 2.12  13 2.12  20 2.12  12 2.12  10 2.15
  43  0.500  0.250  0.651-  21 2.12  13 2.12  28 2.12  12 2.12  11 2.15
  44  0.250  0.250  0.550-  12 2.10  18 2.12  11 2.12  27 2.12  10 2.12   8 2.12
  45  0.500  0.000  0.550-  13 2.12  11 2.12  19 2.12  26 2.12  10 2.12   9 2.12
  46  0.250  0.500  0.450-  14 2.12   8 2.12  16 2.12  17 2.12  33 2.12  18 2.13
  47  0.500  0.750  0.450-  15 2.12   9 2.12  16 2.12  17 2.12  32 2.12  19 2.13
  48  0.250  0.750  0.351-  16 2.12  14 2.12  15 2.12   6 2.12  31 2.12
  49  0.500  0.500  0.351-  17 2.12  14 2.12  15 2.12   7 2.12  30 2.12
  50  0.250  0.500  0.651-  37 2.12  21 2.12  20 2.12  12 2.12  18 2.15
  51  0.500  0.750  0.651-  21 2.12  13 2.12  20 2.12  36 2.12  19 2.15
  52  0.250  0.750  0.550-  20 2.10  18 2.12  19 2.12  35 2.12  10 2.12  16 2.12
  53  0.500  0.500  0.550-  21 2.12  34 2.12  18 2.12  19 2.12  11 2.12  17 2.12
  54  0.750  0.000  0.450-  22 2.12   9 2.12  24 2.12  25 2.12  32 2.12  26 2.13
  55  0.000  0.250  0.450-  23 2.12   8 2.12  24 2.12  25 2.12  33 2.12  27 2.13
  56  0.750  0.250  0.351-  24 2.12  22 2.12  23 2.12   7 2.12  30 2.12
  57  0.000  0.000  0.351-  25 2.12  22 2.12  23 2.12   6 2.12  31 2.12
  58  0.750  0.000  0.651-  29 2.12  13 2.12  28 2.12  36 2.12  26 2.15
  59  1.000  0.250  0.651-  37 2.12  29 2.12  28 2.12  12 2.12  27 2.15
  60  0.750  0.250  0.550-  28 2.10  34 2.12  11 2.12  27 2.12  26 2.12  24 2.12
  61  0.000  1.000  0.550-  29 2.12  26 2.12  10 2.12  27 2.12  35 2.12  25 2.12
  62  0.750  0.500  0.450-  30 2.12  24 2.12  17 2.12  32 2.12  33 2.12  34 2.13
  63  0.000  0.750  0.450-  31 2.12  25 2.12  16 2.12  32 2.12  33 2.12  35 2.13
  64  0.750  0.750  0.351-  32 2.12  22 2.12  30 2.12  31 2.12  15 2.12
  65  0.000  0.500  0.351-  33 2.12  23 2.12  30 2.12  31 2.12  14 2.12
  66  0.750  0.500  0.651-  37 2.12  21 2.12  36 2.12  28 2.12  34 2.15
  67  1.000  0.750  0.651-  37 2.12  29 2.12  36 2.12  20 2.12  35 2.15
  68  0.750  0.750  0.550-  36 2.10  34 2.12  19 2.12  35 2.12  26 2.12  32 2.12
  69  1.000  0.500  0.550-  37 2.12  27 2.12  35 2.12  34 2.12  18 2.12  33 2.12

IMPORTANT INFORMATION: All symmetrisations will be switched off!
NOSYMM: (Re-)initialisation of all symmetry stuff for point group C_1.

                                     Primitive cell

  volume of cell :    1530.6606

  direct lattice vectors                    reciprocal lattice vectors
     8.467142631  0.000000000  0.000000000     0.118103597  0.000000000  0.000000000
     0.000000000  8.467142631  0.000000000     0.000000000  0.118103597  0.000000000
     0.000000000  0.000000000 21.350356973     0.000000000  0.000000000  0.046837624

  length of vectors
     8.467142631  8.467142631 21.350356973     0.118103597  0.118103597  0.046837624

  position of ions in fractional coordinates (direct lattice)
     0.500000003  0.499999989  0.790068847
     0.500000002  0.606355066  0.819475378
     0.500000005  0.393644947  0.819475376
     0.607099412  0.500000002  0.760797077
     0.392900592  0.500000001  0.760797077
     0.250000000  0.000000000  0.351282183
     0.500000000  0.250000000  0.351282183
     0.250000000  0.250000000  0.450427394
     0.500000000  0.000000000  0.450427394
     0.249996012  0.000000009  0.550146106
     0.499999989  0.249997928  0.550174483
     0.250014511  0.249997006  0.647928579
     0.500000003  0.999999999  0.648914127
     0.250000000  0.500000000  0.351282183
     0.500000000  0.750000000  0.351282183
     0.250000000  0.750000000  0.450427394
     0.500000000  0.500000000  0.450427394
     0.250000190  0.500000004  0.550191111
     0.500000004  0.750002078  0.550174479
     0.250014510  0.750003006  0.647928569
     0.499999995  0.500000005  0.648955709
     0.750000000  0.000000000  0.351282183
     0.000000000  0.250000000  0.351282183
     0.750000000  0.250000000  0.450427394
     0.000000000  0.000000000  0.450427394
     0.750003995  0.999999999  0.550146103
     0.000000008  0.250022097  0.550140869
     0.749985485  0.249996987  0.647928564
     0.000000004  0.999999996  0.648924405
     0.750000000  0.500000000  0.351282183
     0.000000000  0.750000000  0.351282183
     0.750000000  0.750000000  0.450427394
     0.000000000  0.500000000  0.450427394
     0.749999809  0.500000007  0.550191114
     0.999999996  0.749977901  0.550140868
     0.749985489  0.750003010  0.647928563
     0.999999995  0.500000001  0.648972281
     0.250000000  0.000000000  0.450427394
     0.500000000  0.250000000  0.450427394
     0.250000000  0.250000000  0.351282183
     0.500000000  0.000000000  0.351282183
     0.249985264  0.999999997  0.650654172
     0.500000000  0.250008786  0.650708207
     0.250015431  0.250031130  0.549761565
     0.500000004  0.000000010  0.549846634
     0.250000000  0.500000000  0.450427394
     0.500000000  0.750000000  0.450427394
     0.250000000  0.750000000  0.351282183
     0.500000000  0.500000000  0.351282183
     0.249984636  0.500000008  0.650725015
     0.499999998  0.749991220  0.650708198
     0.250015432  0.749968870  0.549761559
     0.500000000  0.500000006  0.549857885
     0.750000000  0.000000000  0.450427394
     0.000000000  0.250000000  0.450427394
     0.750000000  0.250000000  0.351282183
     0.000000000  0.000000000  0.351282183
     0.750014742  0.000000007  0.650654168
     0.999999991  0.249999673  0.650662442
     0.749984573  0.250031130  0.549761561
     0.000000001  1.000000000  0.549843355
     0.750000000  0.500000000  0.450427394
     0.000000000  0.750000000  0.450427394
     0.750000000  0.750000000  0.351282183
     0.000000000  0.500000000  0.351282183
     0.750015361  0.499999999  0.650725012
     0.999999999  0.750000329  0.650662439
     0.749984569  0.749968868  0.549761563
     0.999999992  0.499999995  0.549897117

  ion indices of the primitive-cell ions
   primitive index   ion index
                 1           1
                 2           2
                 3           3
                 4           4
                 5           5
                 6           6
                 7           7
                 8           8
                 9           9
                10          10
                11          11
                12          12
                13          13
                14          14
                15          15
                16          16
[...]
   4.23357132  2.11678566  7.50000000
   2.11678566  2.11678566  9.61678566
   4.23357132  0.00000000  9.61678566
   2.11675189  0.00000008 11.74581576
   4.23357123  2.11676811 11.74642161
   2.11690852  2.11676031 13.83350645
   4.23357134  8.46714262 13.85454825
   2.11678566  4.23357132  7.50000000
   4.23357132  6.35035697  7.50000000
   2.11678566  6.35035697  9.61678566
   4.23357132  4.23357132  9.61678566
   2.11678726  4.23357135 11.74677662
   4.23357135  6.35037457 11.74642153
   2.11690852  6.35038243 13.83350623
   4.23357128  4.23357136 13.85543604
   6.35035697  0.00000000  7.50000000
   0.00000000  2.11678566  7.50000000
   6.35035697  2.11678566  9.61678566
   0.00000000  0.00000000  9.61678566
   6.35039080  8.46714262 11.74581569
   0.00000007  2.11697275 11.74570393
   6.35023407  2.11676014 13.83350613
   0.00000003  8.46714259 13.85476769
   6.35035697  4.23357132  7.50000000
   0.00000000  6.35035697  7.50000000
   6.35035697  6.35035697  9.61678566
   0.00000000  4.23357132  9.61678566
   6.35035536  4.23357138 11.74677668
   8.46714260  6.35016986 11.74570391
   6.35023411  6.35038246 13.83350611
   8.46714259  4.23357132 13.85578987
   2.11678566  0.00000000  9.61678566
   4.23357132  2.11678566  9.61678566
   2.11678566  2.11678566  7.50000000
   4.23357132  0.00000000  7.50000000
   2.11666088  8.46714261 13.89169884
   4.23357132  2.11686005 13.89285251
   2.11691632  2.11704924 11.73760567
   4.23357135  0.00000009 11.73942191
   2.11678566  4.23357132  9.61678566
   4.23357132  6.35035697  9.61678566
   2.11678566  6.35035697  7.50000000
   4.23357132  4.23357132  7.50000000
   2.11665557  4.23357138 13.89321136
   4.23357130  6.35028263 13.89285230
   2.11691633  6.35009339 11.73760554
   4.23357131  4.23357137 11.73966213
   6.35035697  0.00000000  9.61678566
   0.00000000  2.11678566  9.61678566
   6.35035697  2.11678566  7.50000000
   0.00000000  0.00000000  7.50000000
   6.35048180  0.00000006 13.89169876
   8.46714255  2.11678289 13.89187540
   6.35022635  2.11704924 11.73760558
   0.00000001  8.46714263 11.73935192
   6.35035697  4.23357132  9.61678566
   0.00000000  6.35035697  9.61678566
   6.35035697  6.35035697  7.50000000
   0.00000000  4.23357132  7.50000000
   6.35048704  4.23357130 13.89321129
   8.46714262  6.35035976 13.89187534
   6.35022631  6.35009337 11.73760561
   8.46714256  4.23357127 11.74049975

--------------------------------------- Iteration      FINAL  ---------------------------------------

--------------------OUTCAR has been truncated-------------------------

[...]

--------------------OUTCAR has been truncated-------------------------

  DFT-D2 method for vdW energy calculation

  Parameters of vdW forcefield:
         C6(Jnm^6/mol)     R0(A)
   C        1.750          1.452
   H        0.140          1.001
   Mg       0.630          1.243
   O        0.700          1.342

  vdW correction parametrized for the method ÿ      

  IVDW =   1
  VDW_RADIUS =    50.000 A
  VDW_S6 =     1.050
  VDW_SR =     1.000
  VDW_D =    20.000
  LVDW_EWALD = F

  Number of pair interactions contributing to vdW energy:  833333
  Edisp (eV):   -5.20151

 VOLUME and BASIS-vectors are now :
  energy-cutoff  :      600.00
  volume of cell :     1530.66
      direct lattice vectors                 reciprocal lattice vectors
     8.467142631  0.000000000  0.000000000     0.118103597  0.000000000  0.000000000
     0.000000000  8.467142631  0.000000000     0.000000000  0.118103597  0.000000000
     0.000000000  0.000000000 21.350356973     0.000000000  0.000000000  0.046837624

  length of vectors
     8.467142631  8.467142631 21.350356973     0.118103597  0.118103597  0.046837624

 FORCES acting on ions:
    Electron-Ion                     Ewald-Force                    Non-Local-Force
   -.155E-05 -.150E-04 -.951E+03   0.229E-05 0.104E-04 0.951E+03   0.218E-06 0.340E-05 -.714E-01
   -.436E-07 -.430E+02 -.235E+03   0.220E-06 0.474E+02 0.239E+03   0.367E-06 -.450E+01 -.313E+01
   -.578E-06 0.430E+02 -.235E+03   0.151E-05 -.474E+02 0.239E+03   0.110E-07 0.450E+01 -.313E+01
   -.432E+02 -.649E-05 -.240E+03   0.477E+02 0.596E-05 0.237E+03   -.458E+01 -.679E-06 0.301E+01
   0.432E+02 -.656E-05 -.240E+03   -.477E+02 0.547E-05 0.237E+03   0.458E+01 -.771E-06 0.301E+01
   0.156E+00 -.213E-05 0.206E+04   -.155E+00 0.953E-06 -.206E+04   -.838E-03 0.254E-05 -.638E+01
   -.413E-05 0.180E+00 0.206E+04   -.331E-06 -.180E+00 -.206E+04   0.590E-05 -.442E-03 -.638E+01
   0.711E+00 0.713E+00 0.706E+03   -.703E+00 -.707E+00 -.706E+03   -.543E-02 -.370E-02 0.425E+00
   0.145E-05 -.271E-05 0.705E+03   -.534E-05 0.429E-05 -.706E+03   0.532E-05 -.230E-06 0.403E+00
   0.252E+01 0.183E-04 -.647E+03   -.251E+01 -.166E-04 0.647E+03   -.124E-01 -.383E-05 -.232E+00
   -.234E-04 0.469E+01 -.640E+03   0.197E-04 -.470E+01 0.640E+03   0.803E-05 0.986E-02 -.291E+00
   0.156E+02 0.165E+02 -.198E+04   -.155E+02 -.165E+02 0.197E+04   -.538E-01 0.331E-01 0.544E+01
   0.318E-05 -.163E-05 -.200E+04   -.685E-05 0.277E-05 0.199E+04   0.715E-05 -.980E-06 0.546E+01
   0.185E+00 0.124E-05 0.206E+04   -.183E+00 -.118E-05 -.206E+04   -.860E-03 -.118E-05 -.638E+01
   -.242E-05 -.180E+00 0.206E+04   -.848E-06 0.180E+00 -.206E+04   0.673E-05 0.439E-03 -.638E+01
   0.711E+00 -.713E+00 0.706E+03   -.703E+00 0.707E+00 -.706E+03   -.543E-02 0.370E-02 0.425E+00
   -.138E-05 0.698E-05 0.707E+03   0.469E-06 -.107E-04 -.708E+03   0.259E-05 0.276E-05 0.411E+00
   0.456E+01 0.140E-04 -.640E+03   -.456E+01 -.137E-04 0.640E+03   0.305E-02 -.678E-06 -.228E+00
   0.199E-04 -.469E+01 -.640E+03   -.237E-04 0.470E+01 0.640E+03   0.736E-05 -.986E-02 -.291E+00
   0.156E+02 -.165E+02 -.198E+04   -.155E+02 0.165E+02 0.197E+04   -.538E-01 -.331E-01 0.544E+01
   -.122E-04 0.287E-05 -.193E+04   0.131E-04 -.403E-05 0.192E+04   0.535E-05 0.871E-06 0.525E+01
   -.156E+00 -.191E-05 0.206E+04   0.155E+00 0.145E-05 -.206E+04   0.833E-03 0.213E-05 -.638E+01
   0.250E-05 0.152E+00 0.206E+04   0.472E-06 -.152E+00 -.206E+04   -.345E-05 -.441E-03 -.638E+01
   -.711E+00 0.713E+00 0.706E+03   0.703E+00 -.707E+00 -.706E+03   0.543E-02 -.370E-02 0.425E+00
   -.272E-05 -.301E-05 0.704E+03   0.738E-05 0.247E-05 -.705E+03   -.552E-05 0.129E-06 0.416E+00
   -.252E+01 -.562E-05 -.647E+03   0.251E+01 0.102E-04 0.647E+03   0.124E-01 -.326E-05 -.232E+00
   -.332E-05 0.271E+01 -.646E+03   0.242E-05 -.270E+01 0.647E+03   -.116E-06 -.958E-02 -.216E+00
   -.156E+02 0.165E+02 -.198E+04   0.155E+02 -.165E+02 0.197E+04   0.538E-01 0.332E-01 0.544E+01
   -.449E-05 -.126E-04 -.201E+04   0.931E-05 0.143E-04 0.200E+04   0.100E-05 -.225E-05 0.546E+01
   -.185E+00 0.380E-05 0.206E+04   0.183E+00 -.163E-05 -.206E+04   0.857E-03 -.522E-05 -.638E+01
   0.318E-05 -.152E+00 0.206E+04   0.934E-06 0.152E+00 -.206E+04   -.182E-05 0.443E-03 -.638E+01
   -.711E+00 -.713E+00 0.706E+03   0.703E+00 0.707E+00 -.706E+03   0.543E-02 0.370E-02 0.425E+00
   0.129E-05 0.374E-05 0.705E+03   0.312E-05 -.384E-05 -.706E+03   -.300E-05 0.526E-06 0.429E+00
   -.456E+01 0.371E-04 -.640E+03   0.456E+01 -.390E-04 0.640E+03   -.305E-02 -.995E-06 -.228E+00
   -.299E-04 -.271E+01 -.646E+03   0.326E-04 0.270E+01 0.647E+03   0.140E-05 0.959E-02 -.216E+00
   -.156E+02 -.165E+02 -.198E+04   0.155E+02 0.165E+02 0.197E+04   0.538E-01 -.331E-01 0.544E+01
   -.957E-05 -.408E-05 -.200E+04   0.112E-04 -.732E-06 0.199E+04   -.351E-05 0.393E-05 0.551E+01
   0.454E+00 -.131E-05 0.528E+03   -.448E+00 -.240E-06 -.528E+03   -.632E-02 -.956E-06 -.903E-01
   -.362E-05 0.622E+00 0.529E+03   0.249E-05 -.622E+00 -.529E+03   -.854E-06 0.490E-04 -.103E+00
   0.128E+00 0.125E+00 0.155E+04   -.126E+00 -.124E+00 -.155E+04   -.186E-02 -.936E-03 0.313E+01
   0.347E-05 0.643E-05 0.155E+04   -.717E-06 0.108E-05 -.155E+04   0.235E-05 0.853E-06 0.313E+01
   0.629E+01 -.201E-04 -.152E+04   -.625E+01 0.171E-04 0.152E+04   -.413E-01 -.332E-05 -.466E+01
   -.644E-06 0.211E+02 -.150E+04   0.454E-06 -.211E+02 0.150E+04   -.476E-06 -.112E+00 -.487E+01
   0.262E+01 0.275E+01 -.474E+03   -.260E+01 -.275E+01 0.474E+03   -.223E-01 0.144E-02 0.461E+00
   0.563E-05 0.730E-05 -.478E+03   -.545E-05 -.514E-05 0.478E+03   -.151E-05 0.172E-06 0.194E+00
   0.636E+00 0.473E-05 0.529E+03   -.631E+00 -.508E-05 -.529E+03   -.628E-02 0.268E-06 -.101E+00
   0.163E-05 -.622E+00 0.529E+03   -.387E-05 0.622E+00 -.529E+03   -.687E-07 -.476E-04 -.103E+00
   0.128E+00 -.125E+00 0.155E+04   -.126E+00 0.124E+00 -.155E+04   -.186E-02 0.935E-03 0.313E+01
   -.489E-05 -.508E-06 0.155E+04   -.209E-06 -.126E-05 -.155E+04   0.195E-05 -.822E-06 0.313E+01
   0.213E+02 -.243E-05 -.149E+04   -.212E+02 0.770E-06 0.150E+04   -.146E+00 0.318E-05 -.470E+01
   -.714E-05 -.211E+02 -.150E+04   0.339E-05 0.211E+02 0.150E+04   0.653E-08 0.112E+00 -.487E+01
   0.262E+01 -.275E+01 -.474E+03   -.260E+01 0.275E+01 0.474E+03   -.223E-01 -.145E-02 0.461E+00
   0.560E-05 0.200E-04 -.471E+03   -.253E-05 -.206E-04 0.471E+03   -.230E-05 -.791E-06 0.217E+00
   -.454E+00 -.384E-05 0.528E+03   0.448E+00 0.476E-05 -.528E+03   0.632E-02 -.150E-06 -.903E-01
   0.147E-05 0.445E+00 0.528E+03   0.153E-06 -.446E+00 -.528E+03   0.764E-06 0.866E-03 -.856E-01
   -.128E+00 0.125E+00 0.155E+04   0.126E+00 -.124E+00 -.155E+04   0.186E-02 -.922E-03 0.313E+01
   0.104E-06 -.125E-04 0.155E+04   0.800E-06 0.727E-06 -.155E+04   0.583E-06 -.189E-05 0.313E+01
   -.629E+01 0.183E-04 -.152E+04   0.625E+01 -.174E-04 0.152E+04   0.413E-01 -.358E-05 -.466E+01
   -.115E-04 0.683E+01 -.152E+04   0.141E-04 -.683E+01 0.152E+04   0.526E-05 0.113E-01 -.463E+01
   -.262E+01 0.275E+01 -.474E+03   0.260E+01 -.275E+01 0.474E+03   0.223E-01 0.144E-02 0.461E+00
   -.143E-04 -.674E-06 -.482E+03   0.173E-04 0.181E-06 0.481E+03   -.306E-06 0.263E-06 0.224E+00
   -.636E+00 0.667E-05 0.529E+03   0.631E+00 -.847E-05 -.529E+03   0.628E-02 0.100E-05 -.101E+00
   -.252E-05 -.445E+00 0.528E+03   0.501E-05 0.446E+00 -.528E+03   -.871E-06 -.867E-03 -.856E-01
   -.128E+00 -.125E+00 0.155E+04   0.126E+00 0.124E+00 -.155E+04   0.186E-02 0.922E-03 0.313E+01
   0.218E-05 0.742E-05 0.155E+04   0.303E-06 -.822E-06 -.155E+04   -.104E-05 0.460E-06 0.313E+01
   -.213E+02 0.357E-05 -.149E+04   0.212E+02 -.565E-05 0.150E+04   0.146E+00 0.301E-05 -.470E+01
   0.476E-05 -.683E+01 -.152E+04   0.351E-05 0.683E+01 0.152E+04   0.980E-06 -.113E-01 -.463E+01
   -.262E+01 -.275E+01 -.474E+03   0.260E+01 0.275E+01 0.474E+03   0.223E-01 -.144E-02 0.461E+00
   -.238E-04 0.325E-05 -.479E+03   0.213E-04 -.344E-05 0.478E+03   0.250E-05 0.172E-05 0.207E+00
   -.177E-05 -.876E-05 0.196E+02   0.156E-12 -.227E-12 -.341E-12   0.362E-05 0.109E-04 -.172E+02

 POSITION                                       TOTAL-FORCE (eV/Angst)
      4.23357      4.23357     16.86825         0.000001     -0.000001     -0.033795
      4.23357      5.13409     17.49609         0.000001     -0.213895     -0.124770
      4.23357      3.33305     17.49609         0.000001      0.213888     -0.124771
      5.14040      4.23357     16.24329        -0.236867     -0.000001      0.157772
      3.32675      4.23357     16.24329         0.236863     -0.000002      0.157774
      2.11679      0.00000      7.50000         0.000347      0.000001      0.508623
      4.23357      2.11679      7.50000         0.000003      0.000175      0.509877
      2.11679      2.11679      9.61679         0.002395      0.001568      0.024254
      4.23357      0.00000      9.61679         0.000003      0.000001      0.036627
      2.11675      0.00000     11.74582         0.005620     -0.000003     -0.014314
      4.23357      2.11677     11.74642         0.000006     -0.002919     -0.002334
      2.11691      2.11676     13.83351         0.018047     -0.013446     -0.013087
      4.23357      8.46714     13.85455         0.000004      0.000001     -0.136471
      2.11679      4.23357      7.50000         0.000364     -0.000001      0.509339
      4.23357      6.35036      7.50000         0.000004     -0.000178      0.509878
      2.11679      6.35036      9.61679         0.002391     -0.001565      0.024253
      4.23357      4.23357      9.61679         0.000004     -0.000000      0.036676
      2.11679      4.23357     11.74678         0.000310      0.000000     -0.019944
      4.23357      6.35037     11.74642         0.000005      0.002920     -0.002332
      2.11691      6.35038     13.83351         0.018047      0.013450     -0.013139
      4.23357      4.23357     13.85544         0.000008     -0.000001     -0.014261
      6.35036      0.00000      7.50000        -0.000354      0.000003      0.508631
      0.00000      2.11679      7.50000        -0.000002      0.000173      0.508262
      6.35036      2.11679      9.61679        -0.002394      0.001567      0.024254
      0.00000      0.00000      9.61679        -0.000002     -0.000001      0.031662
      6.35039      8.46714     11.74582        -0.005623      0.000001     -0.014308
      0.00000      2.11697     11.74570        -0.000003      0.001005     -0.016292
      6.35023      2.11676     13.83351        -0.018057     -0.013440     -0.013214
      0.00000      8.46714     13.85477         0.000005      0.000000     -0.137411
      6.35036      4.23357      7.50000        -0.000368     -0.000004      0.509389
      0.00000      6.35036      7.50000         0.000003     -0.000167      0.508244
      6.35036      6.35036      9.61679        -0.002392     -0.001566      0.024252
      0.00000      4.23357      9.61679        -0.000001      0.000000      0.034609
      6.35036      4.23357     11.74678        -0.000313     -0.000003     -0.019941
      8.46714      6.35017     11.74570         0.000002     -0.001004     -0.016299
      6.35023      6.35038     13.83351        -0.018056      0.013443     -0.013175
      8.46714      4.23357     13.85579        -0.000001     -0.000000     -0.164526
      2.11679      0.00000      9.61679        -0.001988     -0.000003      0.050638
      4.23357      2.11679      9.61679        -0.000002      0.000102      0.049126
      2.11679      2.11679      7.50000        -0.000600     -0.000303     -0.392764
      4.23357      0.00000      7.50000         0.000006      0.000008     -0.393494
      2.11666      8.46714     13.89170        -0.011717     -0.000007     -0.118413
      4.23357      2.11686     13.89285        -0.000000     -0.029114     -0.177162
      2.11692      2.11705     11.73761        -0.007743     -0.000707      0.006274
      4.23357      0.00000     11.73942        -0.000002      0.000003      0.005619
      2.11679      4.23357      9.61679        -0.002123     -0.000000      0.051525
      4.23357      6.35036      9.61679        -0.000003     -0.000097      0.049127
      2.11679      6.35036      7.50000        -0.000615      0.000302     -0.392768
      4.23357      4.23357      7.50000        -0.000003     -0.000003     -0.393676
      2.11666      4.23357     13.89321        -0.043719      0.000002     -0.127385
      4.23357      6.35028     13.89285        -0.000004      0.029116     -0.177163
      2.11692      6.35009     11.73761        -0.007743      0.000706      0.006278
      4.23357      4.23357     11.73966         0.000001     -0.000002      0.017228
      6.35036      0.00000      9.61679         0.001991      0.000001      0.050638
      0.00000      2.11679      9.61679         0.000002      0.000382      0.051746
      6.35036      2.11679      7.50000         0.000601     -0.000300     -0.392765
      0.00000      0.00000      7.50000         0.000001     -0.000014     -0.392658
      6.35048      0.00000     13.89170         0.011710     -0.000003     -0.118430
      8.46714      2.11678     13.89188         0.000008      0.004321     -0.109616
      6.35023      2.11705     11.73761         0.007743     -0.000705      0.006273
      0.00000      8.46714     11.73935         0.000003     -0.000000      0.017890
      6.35036      4.23357      9.61679         0.002118     -0.000001      0.051522
      0.00000      6.35036      9.61679         0.000001     -0.000383      0.051739
      6.35036      6.35036      7.50000         0.000613      0.000303     -0.392769
      0.00000      4.23357      7.50000         0.000001      0.000007     -0.392908
      6.35049      4.23357     13.89321         0.043715      0.000001     -0.127389
      8.46714      6.35036     13.89188         0.000009     -0.004316     -0.109597
      6.35023      6.35009     11.73761         0.007739      0.000705      0.006276
      8.46714      4.23357     11.74050         0.000000      0.000002      0.007065
    total drift:                                0.000001      0.000007      0.010358

  FREE ENERGIE OF THE ION-ELECTRON SYSTEM (eV)
  free  energy   TOTEN  =      -465.78569930 eV

  energy  without entropy=     -465.78569930  energy(sigma->0) =     -465.78569930