 vasp.6.3.0 20Jan22 (build Apr  1 2022 16:44:48) complex
 executed on        HPECrayEX_GCC date 2023.02.07  22:55:49

 INCAR:
   SYSTEM = MgO-rocksalt
   ISMEAR = 0
   SIGMA = 0.05
   EDIFF = 1E-7
   ALGO = ALL
   ISTART = 0
   IBRION = 5
   POTIM = 0.01
   NFREE = 2
   ISYM = 0
   DIPOL = 0.5 0.5 0.5
   IDIPOL = 3
   LDIPOL = .TRUE.
   GGA = PE
   IVDW = 1
   VDW_C6 = 1.75 0.14 0.63 0.70
   VDW_R0 = 1.452 1.001 1.243 1.342
   ENCUT = 600
   PREC = Accurate
   LASPH = .TRUE.
   LREAL = .FALSE.
   ISPIN = 1
   NELM = 200
   NELMIN = 8
   NCORE = 8
   KPAR = 1
   LWAVE = .FALSE.
   LCHARG = .FALSE.

 POTCAR:    PAW_PBE C 08Apr2002
 POTCAR:    PAW_PBE H 15Jun2001
 POTCAR:    PAW_PBE Mg_pv 13Apr2007
 POTCAR:    PAW_PBE O 08Apr2002
 POTCAR:    PAW_PBE C 08Apr2002
   VRHFIN =C: s2p2

   TITEL  = PAW_PBE C 08Apr2002
   POMASS =   12.011; ZVAL   =    4.000    mass and valenz
   ENMAX  =  400.000; ENMIN  =  300.000 eV

   TITEL  = PAW_PBE H 15Jun2001
   POMASS =    1.000; ZVAL   =    1.000    mass and valenz
   ENMAX  =  250.000; ENMIN  =  200.000 eV

   TITEL  = PAW_PBE Mg_pv 13Apr2007
   POMASS =   24.305; ZVAL   =    8.000    mass and valenz
   ENMAX  =  403.929; ENMIN  =  302.947 eV

   TITEL  = PAW_PBE O 08Apr2002
   POMASS =   16.000; ZVAL   =    6.000    mass and valenz
   ENMAX  =  400.000; ENMIN  =  300.000 eV

  PAW_PBE C 08Apr2002                   :
  PAW_PBE H 15Jun2001                   :
  PAW_PBE Mg_pv 13Apr2007               :
  PAW_PBE O 08Apr2002                   :

 POSCAR:  C  H Mg  O
  positions in direct lattice
 exchange correlation table for  LEXCH =        8
   RHO(1)=    0.500       N(1)  =     2000
   RHO(2)=  100.500       N(2)  =     4000

 ion  position               nearest neighbor table
   1  0.454  0.486  0.795-  11 1.10   9 1.10  10 1.10   2 1.53
   2  0.299  0.413  0.816-  14 1.10  13 1.10  12 1.10   1 1.53
   3  0.454  0.986  0.795-  17 1.10  15 1.10  16 1.10   4 1.53
   4  0.299  0.913  0.816-  20 1.10  19 1.10  18 1.10   3 1.53
   5  0.795  0.737  0.795-  23 1.10  22 1.10  21 1.10   6 1.53
   6  0.950  0.663  0.816-  25 1.10  26 1.10  24 1.10   5 1.53
   7  0.795  0.237  0.795-  29 1.10  28 1.10  27 1.10   8 1.53
   8  0.950  0.163  0.816-  31 1.10  32 1.10  30 1.10   7 1.53
   9  0.435  0.598  0.770-   1 1.10
  10  0.519  0.405  0.764-   1 1.10
  11  0.533  0.512  0.834-   1 1.10
  12  0.220  0.392  0.776-   2 1.10
  13  0.235  0.491  0.849-   2 1.10
  14  0.318  0.299  0.840-   2 1.10
  15  0.435  0.098  0.770-   3 1.10
  16  0.519  0.905  0.764-   3 1.10
  17  0.533  0.012  0.834-   3 1.10
  18  0.220  0.892  0.776-   4 1.10
  19  0.235  0.991  0.849-   4 1.10
  20  0.318  0.799  0.840-   4 1.10
  21  0.730  0.655  0.764-   5 1.10
  22  0.814  0.849  0.770-   5 1.10
  23  0.716  0.762  0.834-   5 1.10
  24  0.029  0.642  0.776-   6 1.10
  25  0.931  0.549  0.840-   6 1.10
  26  0.014  0.741  0.849-   6 1.10
  27  0.730  0.155  0.764-   7 1.10
  28  0.814  0.349  0.770-   7 1.10
  29  0.716  0.262  0.834-   7 1.10
  30  0.029  0.142  0.776-   8 1.10
  31  0.931  0.049  0.840-   8 1.10
  32  0.014  0.241  0.849-   8 1.10
  33  0.250  0.000  0.351-  65 2.12  67 2.12  68 2.12  75 2.12  84 2.12
  34  0.500  0.250  0.351-  66 2.12  67 2.12  68 2.12  76 2.12  83 2.12
  35  0.250  0.250  0.450-  67 2.12  66 2.12  65 2.12  73 2.12  82 2.12  71 2.12
  36  0.500  0.000  0.450-  68 2.12  66 2.12  65 2.12  74 2.12  81 2.12  72 2.13
  37  0.250  0.000  0.550-  72 2.11  71 2.12  79 2.12  88 2.12  65 2.13  69 2.15
  38  0.500  0.250  0.550-  87 2.11  80 2.12  72 2.12  71 2.12  66 2.13  70 2.15
  39  0.250  0.250  0.648-  71 2.10  86 2.11  70 2.12  69 2.12  77 2.12
  40  0.500  0.001  0.649-  70 2.12  72 2.12  78 2.12  69 2.12  85 2.12
  41  0.250  0.500  0.351-  73 2.12  67 2.12  75 2.12  76 2.12  92 2.12
  42  0.500  0.750  0.351-  74 2.12  68 2.12  75 2.12  76 2.12  91 2.12
  43  0.250  0.750  0.450-  75 2.12  73 2.12  74 2.12  65 2.12  90 2.12  79 2.12
  44  0.500  0.500  0.450-  76 2.12  73 2.12  74 2.12  66 2.12  89 2.12  80 2.13
  45  0.250  0.500  0.550-  80 2.11  79 2.12  71 2.12  96 2.12  73 2.13  77 2.15
  46  0.500  0.750  0.550-  95 2.11  72 2.12  80 2.12  79 2.12  74 2.13  78 2.15
  47  0.250  0.750  0.648-  79 2.10  94 2.11  78 2.12  77 2.12  69 2.12
  48  0.500  0.501  0.649-  78 2.12  80 2.12  70 2.12  77 2.12  93 2.12
  49  0.750  0.000  0.351-  81 2.12  68 2.12  83 2.12  84 2.12  91 2.12
  50  0.000  0.250  0.351-  82 2.12  67 2.12  83 2.12  84 2.12  92 2.12
  51  0.750  0.250  0.450-  83 2.12  81 2.12  82 2.12  66 2.12  89 2.12  87 2.13
  52  0.000  0.000  0.450-  84 2.12  81 2.12  82 2.12  65 2.12  90 2.12  88 2.12
  53  0.750  0.000  0.550-  72 2.11  87 2.12  95 2.12  88 2.12  81 2.13  85 2.15
  54  1.000  0.250  0.550-  87 2.11  96 2.12  88 2.12  71 2.12  82 2.13  86 2.15
  55  0.750  0.251  0.649-  93 2.12  87 2.12  85 2.12  86 2.12  70 2.12
  56  0.000  0.000  0.648-  88 2.10  69 2.11  85 2.12  94 2.12  86 2.12
  57  0.750  0.500  0.351-  89 2.12  83 2.12  76 2.12  91 2.12  92 2.12
  58  0.000  0.750  0.351-  90 2.12  84 2.12  75 2.12  91 2.12  92 2.12
  59  0.750  0.750  0.450-  91 2.12  81 2.12  89 2.12  90 2.12  74 2.12  95 2.13
  60  0.000  0.500  0.450-  92 2.12  82 2.12  89 2.12  90 2.12  73 2.12  96 2.12
[...]
  82  0.000  0.250  0.450-  50 2.12  35 2.12  51 2.12  52 2.12  60 2.12  54 2.13
  83  0.750  0.250  0.351-  51 2.12  49 2.12  50 2.12  34 2.12  57 2.12
  84  0.000  0.000  0.351-  52 2.12  49 2.12  50 2.12  33 2.12  58 2.12
  85  0.750  0.000  0.651-  63 2.12  56 2.12  55 2.12  40 2.12  53 2.15
  86  0.001  0.251  0.651-  39 2.11  64 2.12  56 2.12  55 2.12  54 2.15
  87  0.750  0.250  0.550-  38 2.11  54 2.11  55 2.12  53 2.12  61 2.12  51 2.13
  88  1.000  0.000  0.550-  56 2.10  62 2.12  54 2.12  53 2.12  52 2.12  37 2.12
  89  0.750  0.500  0.450-  57 2.12  51 2.12  44 2.12  59 2.12  60 2.12  61 2.13
  90  0.000  0.750  0.450-  58 2.12  52 2.12  43 2.12  59 2.12  60 2.12  62 2.13
  91  0.750  0.750  0.351-  59 2.12  49 2.12  57 2.12  58 2.12  42 2.12
  92  0.000  0.500  0.351-  60 2.12  50 2.12  57 2.12  58 2.12  41 2.12
  93  0.750  0.500  0.651-  55 2.12  64 2.12  63 2.12  48 2.12  61 2.15
  94  0.001  0.751  0.651-  47 2.11  56 2.12  64 2.12  63 2.12  62 2.15
  95  0.750  0.750  0.550-  46 2.11  62 2.11  63 2.12  61 2.12  53 2.12  59 2.13
  96  1.000  0.500  0.550-  64 2.10  54 2.12  62 2.12  61 2.12  60 2.12  45 2.12

IMPORTANT INFORMATION: All symmetrisations will be switched off!
NOSYMM: (Re-)initialisation of all symmetry stuff for point group C_1.

                                     Primitive cell

  volume of cell :    1530.6606

  direct lattice vectors                    reciprocal lattice vectors
     8.467142631  0.000000000  0.000000000     0.118103597  0.000000000  0.000000000
     0.000000000  8.467142631  0.000000000     0.000000000  0.118103597  0.000000000
     0.000000000  0.000000000 21.350356973     0.000000000  0.000000000  0.046837624

  length of vectors
     8.467142631  8.467142631 21.350356973     0.118103597  0.118103597  0.046837624

  position of ions in fractional coordinates (direct lattice)
     0.454366383  0.486444805  0.794812910
     0.298785143  0.412822977  0.816130818
     0.454363170  0.986441499  0.794815116
     0.298772773  0.912816657  0.816134131
     0.794624585  0.736517698  0.794818678
     0.950173585  0.662983006  0.816207338
     0.794623035  0.236519023  0.794819010
     0.950170556  0.162984633  0.816208118
     0.434649143  0.598444450  0.769736445
     0.518837644  0.404974914  0.763659825
     0.533096409  0.512369816  0.834469928
     0.220206081  0.392026240  0.775914974
     0.235056871  0.490714841  0.848712192
     0.318242626  0.299000456  0.839734881
     0.434645617  0.098446181  0.769733326
     0.518840120  0.904973867  0.763656304
     0.533117999  0.012378831  0.834470898
     0.220227239  0.892038876  0.775916681
     0.235054377  0.990707721  0.848708727
     0.318234154  0.799007308  0.839733433
     0.730272364  0.655021301  0.763637206
     0.814365108  0.848514106  0.769747350
     0.715780028  0.762418097  0.834441114
     0.028867427  0.642180005  0.776019567
     0.930733008  0.549170957  0.839828323
     0.013806581  0.740952092  0.848798994
     0.730270742  0.155020284  0.763637789
     0.814374503  0.348513612  0.769746469
     0.715773240  0.262419632  0.834440626
     0.028861972  0.142185196  0.776020125
     0.930738632  0.049171085  0.839828152
     0.013808109  0.240948734  0.848799295
     0.250000000  0.000000000  0.351282183
     0.500000000  0.250000000  0.351282183
     0.250000000  0.250000000  0.450427394
     0.500000000  0.000000000  0.450427394
     0.250195989  0.000308010  0.550051103
     0.500272872  0.250300984  0.550323828
     0.249770286  0.250475304  0.647954190
     0.499537478  0.000598045  0.649126830
     0.250000000  0.500000000  0.351282183
     0.500000000  0.750000000  0.351282183
     0.250000000  0.750000000  0.450427394
     0.500000000  0.500000000  0.450427394
     0.250193499  0.500310578  0.550065055
     0.500272650  0.750282626  0.550325024
     0.249770538  0.750493375  0.647956872
     0.499535170  0.500596582  0.649134699
     0.750000000  0.000000000  0.351282183
     0.000000000  0.250000000  0.351282183
     0.750000000  0.250000000  0.450427394
     0.000000000  0.000000000  0.450427394
     0.749652039  0.000291244  0.550314905
     0.999722126  0.250314530  0.550057191
     0.750317764  0.250587722  0.649129217
     0.000080038  0.000484824  0.647951289
     0.750000000  0.500000000  0.351282183
     0.000000000  0.750000000  0.351282183
     0.750000000  0.750000000  0.450427394
     0.000000000  0.500000000  0.450427394
[...]
     0.000000000  0.250000000  0.450427394
     0.750000000  0.250000000  0.351282183
     0.000000000  0.000000000  0.351282183
     0.750246358  0.000422654  0.650949191
     0.000534344  0.250539981  0.650534290
     0.749951352  0.250280360  0.550004062
     0.999863737  0.000306218  0.549688291
     0.750000000  0.500000000  0.450427394
     0.000000000  0.750000000  0.450427394
     0.750000000  0.750000000  0.351282183
     0.000000000  0.500000000  0.351282183
     0.750228308  0.500420714  0.650968409
     0.000534262  0.750584491  0.650536022
     0.749951053  0.750275177  0.550005687
     0.999860149  0.500306847  0.549695907

  ion indices of the primitive-cell ions
   primitive index   ion index
                 1           1
                 2           2
                 3           3
                 4           4
                 5           5
                 6           6
                 7           7
                 8           8
                 9           9
                10          10
                11          11
                12          12
                13          13
                14          14
                15          15
                16          16
                17          17
                18          18
                19          19
                20          20
                21          21
                22          22
                23          23
                24          24
                25          25
[...]
 31Z    -0.001627   -0.002437   -0.002997    0.017533    0.002604    0.009871    0.000885   -0.009132    0.004796    0.023106    0.002492   -0.008782    0.001987    0.019311   -0.070961   -0.031858   -0.012101    0.005142   -0.123118   -0.718625    0.471197   -1.860465   -9.569038    9.241243    0.003862   -0.000786    0.003152   -0.001025   -0.001259   -0.004901   -0.001260    0.004905   -0.001514   -0.004839    0.007657   -0.001160   -0.004970   -0.008677   -0.012443   -0.002780   -0.000613   -0.000305   -0.002510    0.003538   -0.002475    0.007798    0.003547    0.004010    0.010381   -0.002695   -0.005096   -0.010217    0.006937    0.026559   -0.005315   -0.013041   -0.021104    0.006375   -0.002143   -0.000403   -0.006525   -0.029276    0.014249    0.021252   -0.001073    0.063949   -0.000966    0.005541   -0.000670    0.006602    0.003567   -0.000172    0.009924   -0.018406    0.001219   -0.005265    0.013546   -0.017779   -0.045340   -0.000097   -0.008083    0.185384   -0.044361   -0.032976    0.016988    0.042600   -0.051580   -0.307017   -2.038128    0.975119    1.834416   10.699952   -9.719319    0.266585    1.689221   -0.915322
 32X     0.023398    0.002157    0.013532    0.027793    0.044071   -0.019750    0.014882   -0.000992    0.007828   -0.009205    0.001494   -0.023669    0.005224    0.012133   -0.001594   -0.006730   -0.026040    0.021231    1.380187    1.600670    1.710162    9.522151    7.048137    7.305894   -0.005779   -0.005185    0.000245   -0.005028    0.005082   -0.003565   -0.004046   -0.002206   -0.003197    0.000525    0.004344   -0.004018   -0.002060   -0.005220   -0.003401    0.026241   -0.006505    0.005566   -0.007999    0.006425   -0.007363   -0.000086   -0.003362   -0.001750   -0.001688   -0.003247    0.006934    0.004024    0.003185    0.004662   -0.001847   -0.003970    0.010918   -0.000695    0.009092    0.005477   -0.003992    0.000499   -0.001555    0.004252    0.003964   -0.007010   -0.001102   -0.005258    0.003986    0.000306    0.007343   -0.007015    0.007335   -0.003571   -0.004605   -0.002813    0.006887   -0.003483    0.405804   -0.313421    0.159200   -0.126930   -0.000909   -0.042114   -0.095787    0.054040   -0.064124   -0.816804   -1.131530   -1.091708    0.285956    0.248249    0.265650  -10.618684   -7.592231   -8.219064
 32Y     0.003963    0.029702   -0.005182    0.075209   -0.013924   -0.014490   -0.008786   -0.011925   -0.010888   -0.013373    0.012095    0.048201    0.000809   -0.010405    0.046837    0.012782    0.023430   -0.019303   -0.712941   -0.876465   -0.951352    7.107810   13.287196    9.419641    0.005204    0.005844   -0.000865   -0.001595   -0.009533   -0.000046   -0.002104   -0.000485    0.004509    0.011361   -0.002996    0.001613    0.003748    0.006734    0.010929   -0.026151    0.022668   -0.012207    0.005423   -0.000581    0.005209    0.004183    0.001428   -0.006306   -0.008145    0.003879    0.003620    0.004120   -0.009530   -0.020272    0.005709    0.006910   -0.011948    0.004905   -0.007372   -0.008463   -0.000781    0.020988   -0.006956   -0.005942    0.009846   -0.032306   -0.002038   -0.005267   -0.002223   -0.000428   -0.001595    0.003062   -0.008769   -0.005240    0.013431    0.007421   -0.017596    0.010089   -0.292832    0.037527   -0.132578    0.068189   -0.069341    0.006415    0.077506   -0.047917    0.022375    0.206995    0.326022    0.158540    1.080062    1.446612    1.691311   -7.593643  -14.142845  -10.198881
 32Z    -0.006834    0.007843    0.023647    0.072933    0.017388   -0.048683    0.002387    0.005246   -0.009240   -0.003131    0.001058    0.023686    0.005984   -0.002088   -0.007614   -0.018055   -0.004277    0.009404    0.373247    0.465190    0.572674    7.282055    9.309047   13.830495    0.009623    0.006844   -0.003509    0.005401    0.000483   -0.008250    0.015648    0.009658   -0.002599   -0.008446   -0.015555    0.062559   -0.010410   -0.012665   -0.011684   -0.027829    0.018175   -0.020589   -0.007203    0.005447    0.004319    0.002483   -0.006450    0.002467   -0.000765   -0.003829    0.001882    0.000122   -0.009675   -0.004080    0.003832    0.010591   -0.011155   -0.000789   -0.002980   -0.012095   -0.003442   -0.005137    0.000999   -0.005447    0.006080    0.009020   -0.000182    0.005151   -0.005140    0.001265   -0.009884    0.007960    0.019146   -0.008272   -0.017813   -0.003652    0.009580   -0.002805    0.136802   -0.122527   -0.053721   -0.028169    0.014513    0.002181   -0.014112   -0.037404   -0.074521    1.148751    1.439050    1.423769   -0.721322   -0.859185   -0.916261   -8.219930  -10.199080  -14.769501

 Eigenvectors and eigenvalues of the dynamical matrix

   1 f  =   91.029909 THz   571.957788 2PiTHz 3036.430929 cm-1   376.469285 meV
             X         Y         Z           dx          dy          dz
      3.847185  4.118798 16.969539    -0.047086    0.007280   -0.089468
      2.529856  3.495431 17.424684    -0.040532    0.026641   -0.091939
      3.847158  8.352341 16.969586    -0.054584    0.016433   -0.097658
      2.529752  7.728949 17.424755    -0.057799    0.052280   -0.109220
      6.728200  6.236200 16.969662     0.046978    0.008981   -0.087996
      8.045255  5.613572 17.426318     0.039071    0.027328   -0.086196
      6.728187  2.002640 16.969670     0.046558    0.008581   -0.087294
      8.045230  1.380014 17.426335     0.038991    0.026206   -0.087216
      3.680236  5.067115 16.434148     0.020070   -0.119618    0.060255
      4.393072  3.428980 16.304410    -0.030550    0.036223    0.027443
      4.513803  4.338308 17.816231     0.172797    0.057705    0.221899
      1.864516  3.319342 16.566062     0.149494    0.041918    0.192505
      1.990260  4.154953 18.120308    -0.037046    0.044499    0.038612
      2.694606  2.531680 17.928639     0.030242   -0.178615    0.087981
      3.680206  0.833558 16.434081     0.025462   -0.149929    0.077082
      4.393093  7.662543 16.304335    -0.024865    0.028843    0.019673
      4.513986  0.104813 17.816252     0.187613    0.063315    0.240935
      1.864695  7.553020 16.566098     0.180528    0.052252    0.233661
      1.990239  8.388464 18.120234    -0.021646    0.025197    0.015670
      2.694534  6.765309 17.928609     0.044354   -0.258913    0.129682
      6.183320  5.546159 16.303927     0.028435    0.033480    0.024963
      6.895346  7.184490 16.434381    -0.020564   -0.122069    0.061858
      6.060612  6.455503 17.815616    -0.169738    0.056761    0.217735
      0.244425  5.437430 16.568295    -0.140441    0.039599    0.180537
      7.880649  4.649909 17.930634    -0.029405   -0.173234    0.085698
      0.116902  6.273747 18.122162     0.032203    0.038884    0.032927
      6.183307  1.312579 16.303939     0.028419    0.033562    0.025039
      6.895425  2.950914 16.434362    -0.020350   -0.120461    0.060997
      6.060554  2.221944 17.815605    -0.168647    0.056404    0.216126
      0.244378  1.203902 16.568307    -0.142242    0.039902    0.183077
      7.880697  0.416339 17.930631    -0.028925   -0.171340    0.084568
      0.116915  2.040147 18.122168     0.033863    0.040718    0.034960
      2.116786  0.000000  7.500000            0           0           0
      4.233571  2.116786  7.500000            0           0           0
      2.116786  2.116786  9.616786            0           0           0
      4.233571  0.000000  9.616786            0           0           0
      2.118445  0.002608 11.743787            0           0           0
      4.235882  2.119334 11.749610            0           0           0
      2.114841  2.120810 13.834053            0           0           0
      4.229655  0.005064 13.859090            0           0           0
      2.116786  4.233571  7.500000            0           0           0
      4.233571  6.350357  7.500000            0           0           0
      2.116786  6.350357  9.616786            0           0           0
      4.233571  4.233571  9.616786            0           0           0
      2.118424  4.236201 11.744085            0           0           0
      4.235880  6.352750 11.749636            0           0           0
      2.114843  6.354534 13.834111            0           0           0
      4.229636  4.238623 13.859258            0           0           0
      6.350357  0.000000  7.500000            0           0           0
      0.000000  2.116786  7.500000            0           0           0
      6.350357  2.116786  9.616786            0           0           0
      0.000000  0.000000  9.616786            0           0           0
      6.347411  0.002466 11.749420            0           0           0
      8.464790  2.119449 11.743917            0           0           0
      6.353048  2.121762 13.859141            0           0           0
      0.000678  0.004105 13.833991            0           0           0
      6.350357  4.233571  7.500000            0           0           0
      0.000000  6.350357  7.500000            0           0           0
      6.350357  6.350357  9.616786            0           0           0
      0.000000  4.233571  9.616786            0           0           0
[...]
      0.000000  2.116786  9.616786            0           0           0
      6.350357  2.116786  7.500000            0           0           0
      0.000000  0.000000  7.500000            0           0           0
      6.352443  0.003579 13.897998            0           0           0
      0.004524  2.121358 13.889139            0           0           0
      6.349945  2.119160 11.742783            0           0           0
      8.465989  0.002593 11.736041            0           0           0
      6.350357  4.233571  9.616786            0           0           0
      0.000000  6.350357  9.616786            0           0           0
      6.350357  6.350357  7.500000            0           0           0
      0.000000  4.233571  7.500000            0           0           0
      6.352290  4.237134 13.898408            0           0           0
      0.004524  6.355306 13.889176            0           0           0
      6.349943  6.352687 11.742818            0           0           0
      8.465958  4.236169 11.736204            0           0           0

[...]

  96 f  =    0.573486 THz     3.603320 2PiTHz   19.129440 cm-1     2.371747 meV
             X         Y         Z           dx          dy          dz
      3.847185  4.118798 16.969539    -0.286308   -0.119081    0.039742
      2.529856  3.495431 17.424684    -0.292884   -0.146580   -0.015293
      3.847158  8.352341 16.969586    -0.291406   -0.128219    0.039009
      2.529752  7.728949 17.424755    -0.301912   -0.148499   -0.017170
      6.728200  6.236200 16.969662    -0.280602   -0.078240   -0.045473
      8.045255  5.613572 17.426318    -0.303026   -0.088463    0.004536
      6.728187  2.002640 16.969670    -0.285629   -0.076946   -0.048743
      8.045230  1.380014 17.426335    -0.302782   -0.077570   -0.000879
      3.680236  5.067115 16.434148    -0.082157   -0.031359    0.017257
      4.393072  3.428980 16.304410    -0.075921   -0.027409    0.009863
      4.513803  4.338308 17.816231    -0.090719   -0.038935    0.019169
      1.864516  3.319342 16.566062    -0.075510   -0.042492   -0.011475
      1.990260  4.154953 18.120308    -0.094916   -0.047638   -0.007387
      2.694606  2.531680 17.928639    -0.085412   -0.043534   -0.006521
      3.680206  0.833558 16.434081    -0.082128   -0.033878    0.016765
      4.393093  7.662543 16.304335    -0.078200   -0.030965    0.009938
      4.513986  0.104813 17.816252    -0.092181   -0.042274    0.019147
      1.864695  7.553020 16.566098    -0.077982   -0.042503   -0.012251
      1.990239  8.388464 18.120234    -0.096929   -0.047100   -0.008501
      2.694534  6.765309 17.928609    -0.089629   -0.044088   -0.006543
      6.183320  5.546159 16.303927    -0.074004   -0.019912   -0.021468
      6.895346  7.184490 16.434381    -0.072790   -0.020618   -0.007738
      6.060612  6.455503 17.815616    -0.090988   -0.023403   -0.020945
      0.244425  5.437430 16.568295    -0.075895   -0.021540    0.009491
      7.880649  4.649909 17.930634    -0.094858   -0.027741   -0.005384
      0.116902  6.273747 18.122162    -0.096215   -0.029036    0.011469
      6.183307  1.312579 16.303939    -0.074667   -0.020898   -0.021652
      6.895425  2.950914 16.434362    -0.076380   -0.020190   -0.009279
      6.060554  2.221944 17.815605    -0.092243   -0.023753   -0.021543
      0.244378  1.203902 16.568307    -0.076246   -0.017646    0.007450
      7.880697  0.416339 17.930631    -0.092577   -0.024577   -0.006193
      0.116915  2.040147 18.122168    -0.096803   -0.024436    0.009041
      2.116786  0.000000  7.500000            0           0           0
      4.233571  2.116786  7.500000            0           0           0
      2.116786  2.116786  9.616786            0           0           0
      4.233571  0.000000  9.616786            0           0           0
      2.118445  0.002608 11.743787            0           0           0
      4.235882  2.119334 11.749610            0           0           0
      2.114841  2.120810 13.834053            0           0           0
      4.229655  0.005064 13.859090            0           0           0
      2.116786  4.233571  7.500000            0           0           0
      4.233571  6.350357  7.500000            0           0           0
      2.116786  6.350357  9.616786            0           0           0
      4.233571  4.233571  9.616786            0           0           0
      2.118424  4.236201 11.744085            0           0           0
      4.235880  6.352750 11.749636            0           0           0
      2.114843  6.354534 13.834111            0           0           0
      4.229636  4.238623 13.859258            0           0           0
      6.350357  0.000000  7.500000            0           0           0
      0.000000  2.116786  7.500000            0           0           0
      6.350357  2.116786  9.616786            0           0           0
      0.000000  0.000000  9.616786            0           0           0
      6.347411  0.002466 11.749420            0           0           0
      8.464790  2.119449 11.743917            0           0           0
      6.353048  2.121762 13.859141            0           0           0
      0.000678  0.004105 13.833991            0           0           0
      6.350357  4.233571  7.500000            0           0           0
      0.000000  6.350357  7.500000            0           0           0
      6.350357  6.350357  9.616786            0           0           0
      0.000000  4.233571  9.616786            0           0           0
[...]
      0.000000  2.116786  9.616786            0           0           0
      6.350357  2.116786  7.500000            0           0           0
      0.000000  0.000000  7.500000            0           0           0
      6.352443  0.003579 13.897998            0           0           0
      0.004524  2.121358 13.889139            0           0           0
      6.349945  2.119160 11.742783            0           0           0
      8.465989  0.002593 11.736041            0           0           0
      6.350357  4.233571  9.616786            0           0           0
      0.000000  6.350357  9.616786            0           0           0
      6.350357  6.350357  7.500000            0           0           0
      0.000000  4.233571  7.500000            0           0           0
      6.352290  4.237134 13.898408            0           0           0
      0.004524  6.355306 13.889176            0           0           0
      6.349943  6.352687 11.742818            0           0           0
      8.465958  4.236169 11.736204            0           0           0

 Finite differences POTIM=   1.0000000000000000E-002