 vasp.6.3.0 20Jan22 (build Apr  1 2022 16:44:48) complex
 executed on        HPECrayEX_GCC date 2023.03.02  02:37:03

 INCAR:
   SYSTEM = MgO-rocksalt
   ISMEAR = 0
   SIGMA = 0.05
   EDIFF = 1E-8
   ALGO = ALL
   ISTART = 0
   IBRION = 5
   POTIM = 0.01
   NFREE = 2
   ISYM = 0
   DIPOL = 0.5 0.5 0.5
   IDIPOL = 3
   LDIPOL = .TRUE.
   GGA = MK
   LUSE_VDW = .TRUE.
   PARAM1 = 0.1234
   PARAM2 = 0.711357
   ZAB_VDW = -1.8867
   AGGAC = 0.0
   ENCUT = 600
   PREC = Accurate
   LASPH = .TRUE.
   LREAL = .FALSE.
   ISPIN = 1
   NELM = 200
   NELMIN = 8
   NCORE = 8
   KPAR = 1
   LWAVE = .FALSE.
   LCHARG = .FALSE.

 POTCAR:    PAW_PBE C 08Apr2002
 POTCAR:    PAW_PBE H 15Jun2001
 POTCAR:    PAW_PBE Mg_pv 13Apr2007
 POTCAR:    PAW_PBE O 08Apr2002
|               ----> ADVICE to this user running VASP <----                  |
|     You have switched on vdW-DFT.                                           |
|     This routine was written and supplied by Jiri Klimes. We recommend      |
|     that you carefully read and cite the following publications:            |
|       J. Klimes, D.R. Bowler, A. Michelides                                 |
|          J. Phys.: Cond Matt. 22 022201 (2010)                              |
|       J. Klimes, D.R. Bowler, A. Michelides                                 |
|          Phys. Rev. B. 83, 195131 (2011)                                    |
|     and references therein.                                                 |

   TITEL  = PAW_PBE C 08Apr2002
   POMASS =   12.011; ZVAL   =    4.000    mass and valenz
   ENMAX  =  400.000; ENMIN  =  300.000 eV

   TITEL  = PAW_PBE H 15Jun2001
   POMASS =    1.000; ZVAL   =    1.000    mass and valenz
   ENMAX  =  250.000; ENMIN  =  200.000 eV

   TITEL  = PAW_PBE Mg_pv 13Apr2007
   POMASS =   24.305; ZVAL   =    8.000    mass and valenz
   ENMAX  =  403.929; ENMIN  =  302.947 eV

   TITEL  = PAW_PBE O 08Apr2002
   POMASS =   16.000; ZVAL   =    6.000    mass and valenz
   ENMAX  =  400.000; ENMIN  =  300.000 eV

  PAW_PBE C 08Apr2002                   :
  PAW_PBE H 15Jun2001                   :
  PAW_PBE Mg_pv 13Apr2007               :
  PAW_PBE O 08Apr2002                   :

 POSCAR:  C  H Mg  O
  positions in direct lattice
 exchange correlation table for  LEXCH =       43
   RHO(1)=    0.500       N(1)  =     2000
   RHO(2)=  100.500       N(2)  =     4000

 ion  position               nearest neighbor table
   1  0.500  0.500  0.797-   2 1.10   3 1.10   5 1.10   4 1.10
   2  0.500  0.606  0.827-   1 1.10
   3  0.500  0.394  0.827-   1 1.10
   4  0.607  0.500  0.768-   1 1.10
   5  0.393  0.500  0.768-   1 1.10
   6  0.250  0.000  0.352-  38 2.11  40 2.11  41 2.11  48 2.11  57 2.11
   7  0.500  0.250  0.352-  39 2.11  40 2.11  41 2.11  49 2.11  56 2.11
   8  0.250  0.250  0.451-  40 2.11  39 2.11  38 2.11  46 2.11  55 2.11  44 2.12
   9  0.500  0.000  0.451-  41 2.11  39 2.11  38 2.11  47 2.11  54 2.11  45 2.11
  10  0.250  0.000  0.550-  45 2.11  44 2.11  52 2.11  61 2.11  38 2.12  42 2.14
  11  0.500  0.250  0.550-  53 2.11  45 2.11  60 2.11  44 2.11  39 2.12  43 2.13
  12  0.250  0.250  0.648-  44 2.10  42 2.11  43 2.11  59 2.11  50 2.11
  13  0.500  0.000  0.648-  45 2.10  43 2.11  51 2.11  42 2.11  58 2.11
  14  0.250  0.500  0.352-  46 2.11  40 2.11  48 2.11  49 2.11  65 2.11
  15  0.500  0.750  0.352-  47 2.11  41 2.11  48 2.11  49 2.11  64 2.11
  16  0.250  0.750  0.451-  48 2.11  46 2.11  47 2.11  38 2.11  63 2.11  52 2.12
  17  0.500  0.500  0.451-  49 2.11  46 2.11  47 2.11  39 2.11  62 2.11  53 2.12
  18  0.250  0.500  0.550-  53 2.11  52 2.11  44 2.11  69 2.11  46 2.12  50 2.14
  19  0.500  0.750  0.550-  53 2.11  45 2.11  68 2.11  52 2.11  47 2.12  51 2.13
  20  0.250  0.750  0.648-  52 2.10  42 2.11  51 2.11  67 2.11  50 2.11
  21  0.500  0.500  0.649-  43 2.11  51 2.11  53 2.11  50 2.11  66 2.11
  22  0.750  0.000  0.352-  54 2.11  41 2.11  56 2.11  57 2.11  64 2.11
  23  0.000  0.250  0.352-  55 2.11  40 2.11  56 2.11  57 2.11  65 2.11
  24  0.750  0.250  0.451-  56 2.11  54 2.11  55 2.11  39 2.11  62 2.11  60 2.12
  25  0.000  0.000  0.451-  57 2.11  54 2.11  55 2.11  38 2.11  63 2.11  61 2.12
  26  0.750  0.000  0.550-  45 2.11  60 2.11  68 2.11  61 2.11  54 2.12  58 2.14
  27  1.000  0.250  0.550-  60 2.11  44 2.11  61 2.11  69 2.11  55 2.12  59 2.14
  28  0.750  0.250  0.648-  60 2.10  58 2.11  43 2.11  59 2.11  66 2.11
  29  1.000  0.000  0.648-  61 2.10  58 2.11  42 2.11  59 2.11  67 2.11
  30  0.750  0.500  0.352-  62 2.11  56 2.11  49 2.11  64 2.11  65 2.11
  31  0.000  0.750  0.352-  63 2.11  57 2.11  48 2.11  64 2.11  65 2.11
  32  0.750  0.750  0.451-  64 2.11  54 2.11  62 2.11  63 2.11  47 2.11  68 2.12
  33  0.000  0.500  0.451-  65 2.11  55 2.11  62 2.11  63 2.11  46 2.11  69 2.12
  34  0.750  0.500  0.550-  53 2.11  60 2.11  68 2.11  69 2.11  62 2.12  66 2.14
  35  1.000  0.750  0.550-  68 2.11  52 2.11  61 2.11  69 2.11  63 2.12  67 2.14
  36  0.750  0.750  0.648-  68 2.10  58 2.11  51 2.11  67 2.11  66 2.11
  37  1.000  0.500  0.648-  69 2.10  50 2.11  66 2.11  59 2.11  67 2.11
  38  0.250  0.000  0.451-   6 2.11   8 2.11   9 2.11  16 2.11  25 2.11  10 2.12
  39  0.500  0.250  0.451-   7 2.11   8 2.11   9 2.11  17 2.11  24 2.11  11 2.12
  40  0.250  0.250  0.352-   8 2.11   7 2.11   6 2.11  14 2.11  23 2.11
  41  0.500  0.000  0.352-   9 2.11   7 2.11   6 2.11  15 2.11  22 2.11
  42  0.250  0.000  0.650-  12 2.11  20 2.11  29 2.11  13 2.11  10 2.14
  43  0.500  0.250  0.650-  13 2.11  28 2.11  12 2.11  21 2.11  11 2.13
  44  0.250  0.250  0.550-  12 2.10  27 2.11  18 2.11  10 2.11  11 2.11   8 2.12
  45  0.500  0.000  0.550-  13 2.10  10 2.11  26 2.11  19 2.11  11 2.11   9 2.11
  46  0.250  0.500  0.451-  14 2.11   8 2.11  16 2.11  17 2.11  33 2.11  18 2.12
  47  0.500  0.750  0.451-  15 2.11   9 2.11  16 2.11  17 2.11  32 2.11  19 2.12
  48  0.250  0.750  0.352-  16 2.11  14 2.11  15 2.11   6 2.11  31 2.11
  49  0.500  0.500  0.352-  17 2.11  14 2.11  15 2.11   7 2.11  30 2.11
  50  0.250  0.500  0.650-  37 2.11  12 2.11  20 2.11  21 2.11  18 2.14
  51  0.500  0.750  0.650-  13 2.11  36 2.11  20 2.11  21 2.11  19 2.13
  52  0.250  0.750  0.550-  20 2.10  35 2.11  18 2.11  10 2.11  19 2.11  16 2.12
  53  0.500  0.500  0.550-  18 2.11  34 2.11  11 2.11  19 2.11  21 2.11  17 2.12
  54  0.750  0.000  0.451-  22 2.11   9 2.11  24 2.11  25 2.11  32 2.11  26 2.12
  55  0.000  0.250  0.451-  23 2.11   8 2.11  24 2.11  25 2.11  33 2.11  27 2.12
  56  0.750  0.250  0.352-  24 2.11  22 2.11  23 2.11   7 2.11  30 2.11
  57  0.000  0.000  0.352-  25 2.11  22 2.11  23 2.11   6 2.11  31 2.11
  58  0.750  0.000  0.650-  28 2.11  36 2.11  29 2.11  13 2.11  26 2.14
  59  1.000  0.250  0.650-  29 2.11  37 2.11  12 2.11  28 2.11  27 2.14
  60  0.750  0.250  0.550-  28 2.10  27 2.11  34 2.11  26 2.11  11 2.11  24 2.12
  61  1.000  0.000  0.550-  29 2.10  27 2.11  35 2.11  10 2.11  26 2.11  25 2.12
  62  0.750  0.500  0.451-  30 2.11  24 2.11  17 2.11  32 2.11  33 2.11  34 2.12
  63  0.000  0.750  0.451-  31 2.11  25 2.11  16 2.11  32 2.11  33 2.11  35 2.12
  64  0.750  0.750  0.352-  32 2.11  22 2.11  30 2.11  31 2.11  15 2.11
  65  0.000  0.500  0.352-  33 2.11  23 2.11  30 2.11  31 2.11  14 2.11
  66  0.750  0.500  0.650-  37 2.11  36 2.11  28 2.11  21 2.11  34 2.14
  67  1.000  0.750  0.650-  29 2.11  37 2.11  36 2.11  20 2.11  35 2.14
  68  0.750  0.750  0.550-  36 2.10  35 2.11  34 2.11  26 2.11  19 2.11  32 2.12
  69  1.000  0.500  0.550-  37 2.10  27 2.11  35 2.11  34 2.11  18 2.11  33 2.12

IMPORTANT INFORMATION: All symmetrisations will be switched off!
NOSYMM: (Re-)initialisation of all symmetry stuff for point group C_1.

                                     Primitive cell

  volume of cell :    1519.6535

  direct lattice vectors                    reciprocal lattice vectors
     8.440582262  0.000000000  0.000000000     0.118475239  0.000000000  0.000000000
     0.000000000  8.440582262  0.000000000     0.000000000  0.118475239  0.000000000
     0.000000000  0.000000000 21.330436697     0.000000000  0.000000000  0.046881366

  length of vectors
     8.440582262  8.440582262 21.330436697     0.118475239  0.118475239  0.046881366

  position of ions in fractional coordinates (direct lattice)
     0.500000043  0.500000039  0.797447370
     0.500000077  0.606464350  0.826971269
     0.500000031  0.393535593  0.826971251
     0.607143184  0.500000005  0.768077853
     0.392856886  0.500000051  0.768077864
     0.250000000  0.000000000  0.351610242
     0.500000000  0.250000000  0.351610242
     0.250000000  0.250000000  0.450536747
     0.500000000  0.000000000  0.450536747
     0.250020383  0.000000002  0.549964511
     0.499999995  0.250059851  0.550024624
     0.250059453  0.249849588  0.648270450
     0.499999989  0.000000005  0.648330813
     0.250000000  0.500000000  0.351610242
     0.500000000  0.750000000  0.351610242
     0.250000000  0.750000000  0.450536747
     0.500000000  0.500000000  0.450536747
     0.250073483  0.500000003  0.550017913
     0.499999994  0.749940154  0.550024627
     0.250059451  0.750150420  0.648270445
     0.499999985  0.500000002  0.648823829
     0.750000000  0.000000000  0.351610242
     0.000000000  0.250000000  0.351610242
     0.750000000  0.250000000  0.450536747
     0.000000000  0.000000000  0.450536747
     0.749979604  0.000000004  0.549964510
     0.999999993  0.249994039  0.549974874
     0.749940525  0.249849582  0.648270453
     0.999999988  0.000000003  0.648413763
     0.750000000  0.500000000  0.351610242
     0.000000000  0.750000000  0.351610242
     0.750000000  0.750000000  0.450536747
     0.000000000  0.500000000  0.450536747
     0.749926503  0.500000000  0.550017911
     0.999999993  0.750005964  0.549974872
     0.749940526  0.750150423  0.648270447
     0.999999993  0.500000001  0.648293177
     0.250000000  0.000000000  0.450536747
     0.500000000  0.250000000  0.450536747
     0.250000000  0.250000000  0.351610242
     0.500000000  0.000000000  0.351610242
     0.249967574  0.000000004  0.650232023
     0.499999992  0.249790432  0.650054103
     0.249935855  0.250001082  0.549704381
     0.499999991  0.000000000  0.549674093
     0.250000000  0.500000000  0.450536747
     0.500000000  0.750000000  0.450536747
     0.250000000  0.750000000  0.351610242
     0.500000000  0.500000000  0.351610242
     0.249741506  0.500000004  0.650297624
     0.499999994  0.750209573  0.650054100
     0.249935854  0.749998920  0.549704382
     0.499999993  0.500000002  0.549802910
     0.750000000  0.000000000  0.450536747
     0.000000000  0.250000000  0.450536747
     0.750000000  0.250000000  0.351610242
     0.000000000  0.000000000  0.351610242
     0.750032406  0.000000003  0.650232024
     0.999999991  0.249978599  0.650229220
     0.750064135  0.250001085  0.549704379
     0.999999996  0.000000003  0.549734307
     0.750000000  0.500000000  0.450536747
     0.000000000  0.750000000  0.450536747
     0.750000000  0.750000000  0.351610242
     0.000000000  0.500000000  0.351610242
     0.750258474  0.500000004  0.650297619
     0.999999985  0.750021408  0.650229221
     0.750064133  0.749998918  0.549704381
[...]
      8.44058      4.22029     13.82838        -0.000554      0.000000      0.001566
      2.11015      0.00000      9.61015        -0.002308     -0.000000      0.054204
      4.22029      2.11015      9.61015        -0.000014      0.002113      0.055362
      2.11015      2.11015      7.50000        -0.000335     -0.000246     -0.402971
      4.22029      0.00000      7.50000        -0.000003      0.000000     -0.403118
      2.10987      0.00000     13.86973        -0.002848     -0.000000     -0.002140
      4.22029      2.10838     13.86594        -0.000154      0.001818     -0.000705
      2.10960      2.11015     11.72543        -0.001178     -0.000244      0.000017
      4.22029      0.00000     11.72479        -0.000017      0.000000     -0.002761
      2.11015      4.22029      9.61015         0.000846      0.000000      0.056545
      4.22029      6.33044      9.61015        -0.000014     -0.002113      0.055362
      2.11015      6.33044      7.50000        -0.000335      0.000246     -0.402971
      4.22029      4.22029      7.50000        -0.000002     -0.000000     -0.403408
      2.10796      4.22029     13.87113         0.001430     -0.000000     -0.000379
      4.22029      6.33221     13.86594        -0.000154     -0.001817     -0.000705
      2.10960      6.33043     11.72543        -0.001178      0.000244      0.000016
      4.22029      4.22029     11.72754        -0.000140     -0.000000      0.000920
      6.33044      0.00000      9.61015         0.002308     -0.000000      0.054177
      0.00000      2.11015      9.61015         0.000014     -0.001104      0.054083
      6.33044      2.11015      7.50000         0.000335     -0.000246     -0.402976
      0.00000      0.00000      7.50000         0.000003     -0.000000     -0.402609
      6.33071      0.00000     13.86973         0.002850      0.000000     -0.002058
      8.44058      2.10996     13.86967         0.000157     -0.001580      0.000751
      6.33098      2.11015     11.72543         0.001178     -0.000381     -0.000107
      8.44058      0.00000     11.72607         0.000016     -0.000000     -0.001107
      6.33044      4.22029      9.61015        -0.000845      0.000000      0.056522
      0.00000      6.33044      9.61015         0.000014      0.001104      0.054083
      6.33044      6.33044      7.50000         0.000335      0.000246     -0.402976
      0.00000      4.22029      7.50000         0.000003      0.000000     -0.402754
      6.33262      4.22029     13.87113        -0.001276     -0.000000     -0.000979
      8.44058      6.33062     13.86967         0.000158      0.001580      0.000750
      6.33098      6.33043     11.72543         0.001178      0.000381     -0.000108
      8.44058      4.22029     11.72558         0.000171      0.000000     -0.001810
    total drift:                               -0.000004      0.000001     -0.008316

  FREE ENERGIE OF THE ION-ELECTRON SYSTEM (eV)
  free  energy   TOTEN  =      -287.59353807 eV

  energy  without entropy=     -287.59353807  energy(sigma->0) =     -287.59353807

 d Force =-0.1341377E-04[-0.259E-02, 0.256E-02]  d Energy =-0.1947922E-04 0.607E-05
 d Force =-0.4609231E+01[-0.462E+01,-0.460E+01]  d Ewald  =-0.4609166E+01-0.641E-04

 Finite differences progress:
  Degree of freedom:  15/ 15
  Displacement:        2/  2
  Total:              30/ 30

 SECOND DERIVATIVES (NOT SYMMETRIZED)
               1X          1Y          1Z          2X          2Y          2Z          3X          3Y          3Z          4X          4Y          4Z          5X          5Y          5Z
  1X   -48.862154    0.000031    0.000086    3.926701    0.000152    0.000077    3.926697   -0.000152    0.000076   20.644805   -0.000000  -11.239679   20.644985   -0.000010   11.239989
  1Y     0.000827  -49.532186    0.000150    0.000558   20.791416   11.787218    0.000664   20.791602  -11.787455   -0.000117    3.908985    0.000371   -0.000670    3.909045   -0.000632
  1Z     0.000012   -0.000330  -48.590271    0.000004   11.735072   12.274441   -0.000006  -11.735325   12.275400  -11.370840    0.000299   11.940078   11.370851    0.000298   11.940070
  2X     3.927020   -0.000294    0.000392   -4.016782   -0.000776   -0.000110    0.178829    0.000568   -0.000003   -0.089256   -2.090604   -1.339054   -0.092498    2.090566    1.338963
  2Y     0.000788   20.792357   11.739766   -0.000909  -22.444214  -12.948143   -0.000357    1.762753    1.469325   -0.014969   -0.049758   -0.154156    0.014056   -0.049468   -0.153989
  2Z    -0.000025   11.781405   12.273798   -0.000013  -12.943998  -13.076054   -0.000008   -1.467165   -1.130886    0.163798    1.297192    0.987470   -0.163807    1.297182    0.987487
  3X     3.927579   -0.000350    0.000171    0.178659   -0.000045   -0.000837   -4.017833    0.000686   -0.000494   -0.091187    2.090931   -1.339025   -0.091139   -2.090130    1.338774
  3Y     0.000390   20.792663  -11.739449   -0.000301    1.762978   -1.469367    0.000055  -22.444966   12.948450    0.014130   -0.049438    0.153831   -0.015000   -0.049768    0.154003
  3Z     0.000007  -11.781886   12.274748    0.000012    1.467846   -1.131132   -0.000004   12.941516  -13.073710    0.164607   -1.297069    0.986438   -0.164591   -1.297081    0.986438
  4X    20.646194    0.000227  -11.375720   -0.089694   -0.014430    0.163430   -0.089703    0.014516    0.162149  -22.303736   -0.000492   12.340399    1.710028   -0.000508   -1.491929
  4Y     0.000439    3.909158    0.000624   -2.090570   -0.051883    1.295226    2.090677   -0.051123   -1.296368   -0.001421   -4.039558    0.000407    0.000536    0.218737   -0.000252
  4Z   -11.233229    0.000585   11.940385   -1.340057   -0.155069    0.987149   -1.339744    0.154051    0.987219   12.333748    0.000080  -12.862515    1.490407   -0.000264   -1.196087
  5X    20.645984    0.000023   11.376059   -0.090070    0.014474   -0.163649   -0.090072   -0.014473   -0.163642    1.709762    0.000012    1.491912  -22.302162   -0.000001  -12.340300
  5Y     0.000127    3.908771   -0.000767    2.090741   -0.051276    1.296024   -2.090609   -0.051333   -1.295686    0.000252    0.218937    0.000360    0.000351   -4.038677    0.000129
  5Z    11.233189    0.000430   11.940412    1.340095   -0.155098    0.987128    1.339785    0.154023    0.987180   -1.490360   -0.000306   -1.196184  -12.333779    0.000058  -12.862647

 Eigenvectors and eigenvalues of the dynamical matrix

   1 f  =   91.814387 THz   576.886807 2PiTHz 3062.598289 cm-1   379.713623 meV
             X         Y         Z           dx          dy          dz
      4.220291  4.220291 17.009901    -0.000025   -0.302467   -0.000314
      4.220292  5.118912 17.639658     0.000013    0.545342    0.396623
      4.220291  3.321670 17.639658    -0.000002    0.544280   -0.395876
      5.124642  4.220291 16.383436    -0.000271   -0.020578    0.000173
      3.315941  4.220292 16.383436     0.000358   -0.020584    0.000225
      2.110146  0.000000  7.500000            0           0           0
      4.220291  2.110146  7.500000            0           0           0
      2.110146  2.110146  9.610146            0           0           0
      4.220291  0.000000  9.610146            0           0           0
      2.110318  0.000000 11.730983            0           0           0
      4.220291  2.110651 11.732265            0           0           0
      2.110647  2.108876 13.827892            0           0           0
      4.220291  0.000000 13.829179            0           0           0
      2.110146  4.220291  7.500000            0           0           0
      4.220291  6.330437  7.500000            0           0           0
      2.110146  6.330437  9.610146            0           0           0
      4.220291  4.220291  9.610146            0           0           0
      2.110766  4.220291 11.732122            0           0           0
      4.220291  6.329932 11.732265            0           0           0
      2.110647  6.331706 13.827892            0           0           0
      4.220291  4.220291 13.839696            0           0           0
      6.330437  0.000000  7.500000            0           0           0
      0.000000  2.110146  7.500000            0           0           0
      6.330437  2.110146  9.610146            0           0           0
      0.000000  0.000000  9.610146            0           0           0
      6.330265  0.000000 11.730983            0           0           0
      8.440582  2.110095 11.731204            0           0           0
      6.329935  2.108876 13.827892            0           0           0
      8.440582  0.000000 13.830949            0           0           0
      6.330437  4.220291  7.500000            0           0           0
      0.000000  6.330437  7.500000            0           0           0
      6.330437  6.330437  9.610146            0           0           0
      0.000000  4.220291  9.610146            0           0           0
      6.329816  4.220291 11.732122            0           0           0
      8.440582  6.330487 11.731204            0           0           0
      6.329935  6.331706 13.827892            0           0           0
      8.440582  4.220291 13.828377            0           0           0
      2.110146  0.000000  9.610146            0           0           0
      4.220291  2.110146  9.610146            0           0           0
      2.110146  2.110146  7.500000            0           0           0
      4.220291  0.000000  7.500000            0           0           0
      2.109872  0.000000 13.869733            0           0           0
      4.220291  2.108377 13.865938            0           0           0
      2.109604  2.110155 11.725434            0           0           0
      4.220291  0.000000 11.724788            0           0           0
      2.110146  4.220291  9.610146            0           0           0
      4.220291  6.330437  9.610146            0           0           0
      2.110146  6.330437  7.500000            0           0           0
      4.220291  4.220291  7.500000            0           0           0
      2.107964  4.220291 13.871132            0           0           0
      4.220291  6.332206 13.865938            0           0           0
      2.109604  6.330428 11.725435            0           0           0
      4.220291  4.220291 11.727536            0           0           0
      6.330437  0.000000  9.610146            0           0           0
      0.000000  2.110146  9.610146            0           0           0
      6.330437  2.110146  7.500000            0           0           0
      0.000000  0.000000  7.500000            0           0           0
      6.330710  0.000000 13.869733            0           0           0
      8.440582  2.109965 13.869673            0           0           0
      6.330978  2.110155 11.725434            0           0           0
      8.440582  0.000000 11.726073            0           0           0
      6.330437  4.220291  9.610146            0           0           0
      0.000000  6.330437  9.610146            0           0           0
      6.330437  6.330437  7.500000            0           0           0
      0.000000  4.220291  7.500000            0           0           0
      6.332618  4.220291 13.871132            0           0           0
      8.440582  6.330617 13.869673            0           0           0
      6.330978  6.330428 11.725435            0           0           0
      8.440582  4.220291 11.725580            0           0           0

[...]

  15 f  =    0.274030 THz     1.721782 2PiTHz    9.140662 cm-1     1.133297 meV
             X         Y         Z           dx          dy          dz
      4.220291  4.220291 17.009901     0.010234   -0.731758    0.001524
      4.220292  5.118912 17.639658     0.005307   -0.399389    0.269065
      4.220291  3.321670 17.639658     0.001302   -0.399349   -0.268160
      5.124642  4.220291 16.383436     0.002572   -0.025134   -0.000100
      3.315941  4.220292 16.383436     0.002560   -0.021210    0.001030
      2.110146  0.000000  7.500000            0           0           0
      4.220291  2.110146  7.500000            0           0           0
      2.110146  2.110146  9.610146            0           0           0
      4.220291  0.000000  9.610146            0           0           0
      2.110318  0.000000 11.730983            0           0           0
      4.220291  2.110651 11.732265            0           0           0
      2.110647  2.108876 13.827892            0           0           0
      4.220291  0.000000 13.829179            0           0           0
      2.110146  4.220291  7.500000            0           0           0
      4.220291  6.330437  7.500000            0           0           0
      2.110146  6.330437  9.610146            0           0           0
      4.220291  4.220291  9.610146            0           0           0
      2.110766  4.220291 11.732122            0           0           0
      4.220291  6.329932 11.732265            0           0           0
      2.110647  6.331706 13.827892            0           0           0
      4.220291  4.220291 13.839696            0           0           0
      6.330437  0.000000  7.500000            0           0           0
      0.000000  2.110146  7.500000            0           0           0
      6.330437  2.110146  9.610146            0           0           0
      0.000000  0.000000  9.610146            0           0           0
      6.330265  0.000000 11.730983            0           0           0
      8.440582  2.110095 11.731204            0           0           0
      6.329935  2.108876 13.827892            0           0           0
      8.440582  0.000000 13.830949            0           0           0
      6.330437  4.220291  7.500000            0           0           0
      0.000000  6.330437  7.500000            0           0           0
      6.330437  6.330437  9.610146            0           0           0
      0.000000  4.220291  9.610146            0           0           0
      6.329816  4.220291 11.732122            0           0           0
      8.440582  6.330487 11.731204            0           0           0
      6.329935  6.331706 13.827892            0           0           0
      8.440582  4.220291 13.828377            0           0           0
      2.110146  0.000000  9.610146            0           0           0
      4.220291  2.110146  9.610146            0           0           0
      2.110146  2.110146  7.500000            0           0           0
      4.220291  0.000000  7.500000            0           0           0
      2.109872  0.000000 13.869733            0           0           0
      4.220291  2.108377 13.865938            0           0           0
      2.109604  2.110155 11.725434            0           0           0
      4.220291  0.000000 11.724788            0           0           0
      2.110146  4.220291  9.610146            0           0           0
      4.220291  6.330437  9.610146            0           0           0
      2.110146  6.330437  7.500000            0           0           0
      4.220291  4.220291  7.500000            0           0           0
      2.107964  4.220291 13.871132            0           0           0
      4.220291  6.332206 13.865938            0           0           0
      2.109604  6.330428 11.725435            0           0           0
      4.220291  4.220291 11.727536            0           0           0
      6.330437  0.000000  9.610146            0           0           0
      0.000000  2.110146  9.610146            0           0           0
      6.330437  2.110146  7.500000            0           0           0
      0.000000  0.000000  7.500000            0           0           0
      6.330710  0.000000 13.869733            0           0           0
      8.440582  2.109965 13.869673            0           0           0
      6.330978  2.110155 11.725434            0           0           0
      8.440582  0.000000 11.726073            0           0           0
      6.330437  4.220291  9.610146            0           0           0
      0.000000  6.330437  9.610146            0           0           0
      6.330437  6.330437  7.500000            0           0           0
      0.000000  4.220291  7.500000            0           0           0
      6.332618  4.220291 13.871132            0           0           0
      8.440582  6.330617 13.869673            0           0           0
      6.330978  6.330428 11.725435            0           0           0
      8.440582  4.220291 11.725580            0           0           0

 Finite differences POTIM=   1.0000000000000000E-002