 vasp.6.3.0 20Jan22 (build Mar 11 2022 13:48:16) complex

 executed on             LinuxIFC date 2024.08.21  21:31:02

 INCAR:
   SYSTEM = MgO-rocksalt
   ISMEAR = 0
   SIGMA = 0.05
   EDIFF = 1E-7
   ALGO = Normal
   ISTART = 0
   IBRION = 2
   NSW = 1000
   ISYM = 2
   ISIF = 3
   EDIFFG = -0.005
   GGA = RE
   AGGAC = 0.0
   LUSE_VDW = .TRUE.
   LASPH = .TRUE.
   ENCUT = 600
   PREC = Accurate
   LASPH = .TRUE.
   LREAL = .FALSE.
   ISPIN = 1
   NELM = 200
   NELMIN = 8
   NCORE = 8
   KPAR = 1
   LWAVE = .FALSE.
   LCHARG = .FALSE.

 POTCAR:    PAW_PBE Ti_pv 07Sep2000
 POTCAR:    PAW_PBE O 08Apr2002
|           W    W    AA    RRRRR   N    N  II  N    N   GGGG   !!!           |
|           W    W   A  A   R    R  NN   N  II  NN   N  G    G  !!!           |
|           W    W  A    A  R    R  N N  N  II  N N  N  G       !!!           |
|           W WW W  AAAAAA  RRRRR   N  N N  II  N  N N  G  GGG   !            |
|           WW  WW  A    A  R   R   N   NN  II  N   NN  G    G                |
|           W    W  A    A  R    R  N    N  II  N    N   GGGG   !!!           |
|     For optimal performance we recommend to set                             |
|       NCORE = 2 up to number-of-cores-per-socket                            |
|     This setting can greatly improve the performance of VASP for DFT.       |
|     The default, NCORE=1 might be grossly inefficient on modern             |
|     multi-core architectures or massively parallel machines. Do your        |
|     Unfortunately you need to use the default for GW and RPA                |
|     calculations (for HF NCORE is supported but not extensively tested      |
|     yet).                                                                   |

   TITEL  = PAW_PBE Ti_pv 07Sep2000
   POMASS =   47.880; ZVAL   =   10.000    mass and valenz
   ENMAX  =  222.335; ENMIN  =  166.751 eV

   TITEL  = PAW_PBE O 08Apr2002
   POMASS =   16.000; ZVAL   =    6.000    mass and valenz
   ENMAX  =  400.000; ENMIN  =  300.000 eV

  PAW_PBE Ti_pv 07Sep2000               :
  PAW_PBE O 08Apr2002                   :

 POSCAR: Ti2 O4
  positions in direct lattice
  velocities in cartesian coordinates
 exchange correlation table for  LEXCH =       40
   RHO(1)=    0.500       N(1)  =     2000
   RHO(2)=  100.500       N(2)  =     4000

 ion  position               nearest neighbor table
   1  0.500  0.500  0.000-   6 1.98   3 1.98   3 1.98   6 1.98   5 2.02   4 2.02
   2  0.000  0.000  0.500-   4 1.98   5 1.98   4 1.98   5 1.98   3 2.02   6 2.02
   3  0.695  0.695  0.500-   1 1.98   1 1.98   2 2.02
   4  0.195  0.805  0.000-   2 1.98   2 1.98   1 2.02
   5  0.805  0.195  0.000-   2 1.98   2 1.98   1 2.02
   6  0.305  0.305  0.500-   1 1.98   1 1.98   2 2.02

  LATTYP: Found a simple tetragonal cell.
 ALAT       =     4.6852217255
 C/A-ratio  =     0.6393216869

  Lattice vectors:

 A1 = (   4.6852217255,   0.0000000000,   0.0000000000)
 A2 = (   0.0000000000,   4.6852217255,   0.0000000000)
 A3 = (   0.0000000000,   0.0000000000,   2.9953638570)

Analysis of symmetry for initial positions (statically):
 Subroutine PRICEL returns:
 Original cell was already a primitive cell.

 Routine SETGRP: Setting up the symmetry group for a
 simple tetragonal supercell.

 Subroutine GETGRP returns: Found 16 space group operations
 (whereof  8 operations were pure point group operations)
 out of a pool of 16 trial point group operations.

The static configuration has the point symmetry D_2h.
 The point group associated with its full space group is D_4h.

Analysis of symmetry for dynamics (positions and initial velocities):
 Subroutine PRICEL returns:
 Original cell was already a primitive cell.

 Routine SETGRP: Setting up the symmetry group for a
 simple tetragonal supercell.

 Subroutine GETGRP returns: Found 16 space group operations
 (whereof  8 operations were pure point group operations)
 out of a pool of 16 trial point group operations.

The dynamic configuration has the point symmetry D_2h.
 The point group associated with its full space group is D_4h.

 Subroutine INISYM returns: Found 16 space group operations
 (whereof  8 operations are pure point group operations),
 and found     1 'primitive' translations

                                     Primitive cell

  volume of cell :      65.7521

  direct lattice vectors                    reciprocal lattice vectors
     4.685221725  0.000000000  0.000000000     0.213437071 -0.000000000  0.000000000
     0.000000000  4.685221725  0.000000000     0.000000000  0.213437071  0.000000000
     0.000000000  0.000000000  2.995363857    -0.000000000 -0.000000000  0.333849258

  length of vectors
     4.685221725  4.685221725  2.995363857     0.213437071  0.213437071  0.333849258

  position of ions in fractional coordinates (direct lattice)
     0.500000000  0.500000000  0.000000000
     0.000000000  0.000000000  0.500000000
     0.695016571  0.695016571  0.500000000
     0.195016571  0.804983429  0.000000000
     0.804983429  0.195016571  0.000000000
     0.304983429  0.304983429  0.500000000

  ion indices of the primitive-cell ions
   primitive index   ion index
                 1           1
                 2           2
                 3           3
                 4           4
                 5           5
                 6           6

 KPOINTS: pymatgen v2020.8.13 with grid density =

Automatic generation of k-mesh.
 Grid dimensions read from file:
 generate k-points for:    5    5    8

 Generating k-lattice:

  Cartesian coordinates                     Fractional coordinates (reciprocal lattice)
     0.042687414 -0.000000000  0.000000000     0.200000000 -0.000000000  0.000000000
     0.000000000  0.042687414  0.000000000     0.000000000  0.200000000  0.000000000
    -0.000000000 -0.000000000  0.041731157     0.000000000  0.000000000  0.125000000

  Length of vectors
     0.042687414  0.042687414  0.041731157

  Shift w.r.t. Gamma in fractional coordinates (k-lattice)
     0.000000000  0.000000000  0.000000000

 Subroutine IBZKPT returns following result:

 Found     30 irreducible k-points:

 Following reciprocal coordinates:
            Coordinates               Weight
  0.000000  0.000000  0.000000      1.000000
  0.200000 -0.000000  0.000000      4.000000
  0.400000 -0.000000  0.000000      4.000000
  0.200000  0.200000  0.000000      4.000000
  0.400000  0.200000  0.000000      8.000000
  0.400000  0.400000  0.000000      4.000000
 -0.000000 -0.000000  0.125000      2.000000
  0.200000 -0.000000  0.125000      8.000000
  0.400000  0.000000  0.125000      8.000000
  0.200000  0.200000  0.125000      8.000000
  0.400000  0.200000  0.125000     16.000000
  0.400000  0.400000  0.125000      8.000000
 -0.000000 -0.000000  0.250000      2.000000
  0.200000 -0.000000  0.250000      8.000000
  0.400000  0.000000  0.250000      8.000000
  0.200000  0.200000  0.250000      8.000000
  0.400000  0.200000  0.250000     16.000000
  0.400000  0.400000  0.250000      8.000000
  0.000000 -0.000000  0.375000      2.000000
  0.200000  0.000000  0.375000      8.000000
  0.400000 -0.000000  0.375000      8.000000
  0.200000  0.200000  0.375000      8.000000
  0.400000  0.200000  0.375000     16.000000
  0.400000  0.400000  0.375000      8.000000
 -0.000000 -0.000000  0.500000      1.000000
  0.200000 -0.000000  0.500000      4.000000
  0.400000 -0.000000  0.500000      4.000000
  0.200000  0.200000  0.500000      4.000000
  0.400000  0.200000  0.500000      8.000000
  0.400000  0.400000  0.500000      4.000000

 Following cartesian coordinates:
            Coordinates               Weight
  0.000000  0.000000  0.000000      1.000000
  0.042687 -0.000000  0.000000      4.000000
  0.085375 -0.000000  0.000000      4.000000
  0.042687  0.042687  0.000000      4.000000
  0.085375  0.042687  0.000000      8.000000
  0.085375  0.085375  0.000000      4.000000
 -0.000000 -0.000000  0.041731      2.000000
  0.042687 -0.000000  0.041731      8.000000
  0.085375 -0.000000  0.041731      8.000000
  0.042687  0.042687  0.041731      8.000000
  0.085375  0.042687  0.041731     16.000000
  0.085375  0.085375  0.041731      8.000000
 -0.000000 -0.000000  0.083462      2.000000
  0.042687 -0.000000  0.083462      8.000000
  0.085375 -0.000000  0.083462      8.000000
  0.042687  0.042687  0.083462      8.000000
  0.085375  0.042687  0.083462     16.000000
  0.085375  0.085375  0.083462      8.000000
 -0.000000 -0.000000  0.125193      2.000000
  0.042687 -0.000000  0.125193      8.000000
  0.085375 -0.000000  0.125193      8.000000
  0.042687  0.042687  0.125193      8.000000
  0.085375  0.042687  0.125193     16.000000
  0.085375  0.085375  0.125193      8.000000
 -0.000000 -0.000000  0.166925      1.000000
  0.042687 -0.000000  0.166925      4.000000
  0.085375 -0.000000  0.166925      4.000000
  0.042687  0.042687  0.166925      4.000000
  0.085375  0.042687  0.166925      8.000000
  0.085375  0.085375  0.166925      4.000000

 SYSTEM =  MgO-rocksalt
 POSCAR =  Ti2 O4

  energy-cutoff  :      600.00
  volume of cell :       65.75
      direct lattice vectors                 reciprocal lattice vectors
     4.685221725  0.000000000  0.000000000     0.213437071 -0.000000000  0.000000000
     0.000000000  4.685221725  0.000000000     0.000000000  0.213437071  0.000000000
     0.000000000  0.000000000  2.995363857    -0.000000000 -0.000000000  0.333849258

[...]

 k-points in units of 2pi/SCALE and weight: pymatgen v2020.8.13 with grid density =
   0.00000000  0.00000000  0.00000000       0.005
   0.04268741 -0.00000000  0.00000000       0.020
   0.08537483 -0.00000000  0.00000000       0.020
   0.04268741  0.04268741  0.00000000       0.020
   0.08537483  0.04268741  0.00000000       0.040
   0.08537483  0.08537483  0.00000000       0.020
  -0.00000000 -0.00000000  0.04173116       0.010
   0.04268741 -0.00000000  0.04173116       0.040
   0.08537483 -0.00000000  0.04173116       0.040
   0.04268741  0.04268741  0.04173116       0.040
   0.08537483  0.04268741  0.04173116       0.080
   0.08537483  0.08537483  0.04173116       0.040
  -0.00000000 -0.00000000  0.08346231       0.010
   0.04268741 -0.00000000  0.08346231       0.040
   0.08537483 -0.00000000  0.08346231       0.040
   0.04268741  0.04268741  0.08346231       0.040
   0.08537483  0.04268741  0.08346231       0.080
   0.08537483  0.08537483  0.08346231       0.040
  -0.00000000 -0.00000000  0.12519347       0.010
   0.04268741 -0.00000000  0.12519347       0.040
   0.08537483 -0.00000000  0.12519347       0.040
   0.04268741  0.04268741  0.12519347       0.040
   0.08537483  0.04268741  0.12519347       0.080
   0.08537483  0.08537483  0.12519347       0.040
  -0.00000000 -0.00000000  0.16692463       0.005
   0.04268741 -0.00000000  0.16692463       0.020
   0.08537483 -0.00000000  0.16692463       0.020
   0.04268741  0.04268741  0.16692463       0.020
   0.08537483  0.04268741  0.16692463       0.040
   0.08537483  0.08537483  0.16692463       0.020

 k-points in reciprocal lattice and weights: pymatgen v2020.8.13 with grid density =
   0.00000000  0.00000000  0.00000000       0.005
   0.20000000 -0.00000000  0.00000000       0.020
   0.40000000 -0.00000000  0.00000000       0.020
   0.20000000  0.20000000  0.00000000       0.020
   0.40000000  0.20000000  0.00000000       0.040
   0.40000000  0.40000000  0.00000000       0.020
  -0.00000000 -0.00000000  0.12500000       0.010
   0.20000000 -0.00000000  0.12500000       0.040
   0.40000000  0.00000000  0.12500000       0.040
   0.20000000  0.20000000  0.12500000       0.040
   0.40000000  0.20000000  0.12500000       0.080
   0.40000000  0.40000000  0.12500000       0.040
  -0.00000000 -0.00000000  0.25000000       0.010
   0.20000000 -0.00000000  0.25000000       0.040
   0.40000000  0.00000000  0.25000000       0.040
   0.20000000  0.20000000  0.25000000       0.040
   0.40000000  0.20000000  0.25000000       0.080
   0.40000000  0.40000000  0.25000000       0.040
   0.00000000 -0.00000000  0.37500000       0.010
   0.20000000  0.00000000  0.37500000       0.040
   0.40000000 -0.00000000  0.37500000       0.040
   0.20000000  0.20000000  0.37500000       0.040
   0.40000000  0.20000000  0.37500000       0.080
   0.40000000  0.40000000  0.37500000       0.040
  -0.00000000 -0.00000000  0.50000000       0.005
   0.20000000 -0.00000000  0.50000000       0.020
   0.40000000 -0.00000000  0.50000000       0.020
   0.20000000  0.20000000  0.50000000       0.020
   0.40000000  0.20000000  0.50000000       0.040
   0.40000000  0.40000000  0.50000000       0.020

 position of ions in fractional coordinates (direct lattice)
   0.50000000  0.50000000  0.00000000
   0.00000000  0.00000000  0.50000000
   0.69501657  0.69501657  0.50000000
   0.19501657  0.80498343  0.00000000
   0.80498343  0.19501657  0.00000000
   0.30498343  0.30498343  0.50000000

 position of ions in cartesian coordinates  (Angst):
   2.34261086  2.34261086  0.00000000
   0.00000000  0.00000000  1.49768193
   3.25630674  3.25630674  1.49768193
   0.91369588  3.77152585  0.00000000
   3.77152585  0.91369588  0.00000000
   1.42891499  1.42891499  1.49768193

--------------------------------------- Iteration      FINAL  ---------------------------------------

--------------------OUTCAR has been truncated-------------------------

[...]

--------------------OUTCAR has been truncated-------------------------

  FORCE on cell =-STRESS in cart. coord.  units (eV):
  Direction    XX          YY          ZZ          XY          YZ          ZX
  Alpha Z   207.94127   207.94127   207.94127
  Ewald   -1106.01601 -1106.01601  -671.08550    -0.00000    -0.00000    -0.00000
  Hartree   223.11860   223.11860   452.76361    -0.00000    -0.00000    -0.00000
  E(xc)    -219.89587  -219.89587  -219.27656     0.00000     0.00000     0.00000
  Local     181.58410   181.58410  -472.37715    -0.00000    -0.00000     0.00000
  n-local  -135.27826  -136.18721  -133.73942     0.10253     0.11241     0.00743
  augment   133.13060   133.13060   132.09460    -0.00000     0.00000    -0.00000
  Kinetic   716.24367   715.53553   703.70658    -1.12461    -0.60978    -1.33806
  Fock        0.00000     0.00000     0.00000     0.00000     0.00000     0.00000
  Total       0.01955     0.01955     0.02744     0.00000    -0.00000     0.00000
  in kB       0.47626     0.47626     0.66864     0.00000    -0.00000     0.00000

 VOLUME and BASIS-vectors are now :
  energy-cutoff  :      600.00
  volume of cell :       65.75
      direct lattice vectors                 reciprocal lattice vectors
     4.685221725  0.000000000  0.000000000     0.213437071 -0.000000000  0.000000000
     0.000000000  4.685221725  0.000000000     0.000000000  0.213437071  0.000000000
     0.000000000  0.000000000  2.995363857    -0.000000000 -0.000000000  0.333849258

  length of vectors
     4.685221725  4.685221725  2.995363857     0.213437071  0.213437071  0.333849258

 FORCES acting on ions
    electron-ion (+dipol)            ewald-force                    non-local-force                 convergence-correction
   -.825E-12 -.103E-11 -.157E-11   -.568E-13 -.284E-13 -.106E-13   0.112E-25 -.640E-27 -.292E-26   -.651E-13 -.282E-13 0.342E-13
   -.451E-14 0.369E-14 -.162E-12   0.711E-13 0.853E-13 -.448E-14   0.836E-28 0.159E-25 -.422E-26   -.370E-13 -.156E-13 0.335E-13
   -.384E+02 -.384E+02 0.615E-07   0.415E+02 0.415E+02 -.234E-13   -.318E+01 -.318E+01 -.403E-15   0.700E-04 0.700E-04 0.152E-13
   -.384E+02 0.384E+02 -.322E-11   0.415E+02 -.415E+02 0.148E-13   -.318E+01 0.318E+01 0.256E-17   0.700E-04 -.700E-04 0.752E-14
   0.384E+02 -.384E+02 0.514E-11   -.415E+02 0.415E+02 -.130E-13   0.318E+01 -.318E+01 -.102E-17   -.700E-04 0.700E-04 0.314E-13
   0.384E+02 0.384E+02 -.615E-07   -.415E+02 -.415E+02 0.313E-13   0.318E+01 0.318E+01 0.405E-15   -.700E-04 -.700E-04 0.216E-13
   0.389E-11 0.145E-11 -.417E-11   -.142E-13 -.213E-13 -.542E-14   0.444E-15 0.000E+00 0.375E-17   -.131E-12 -.109E-12 0.143E-12

 POSITION                                       TOTAL-FORCE (eV/Angst)
      2.34261      2.34261      0.00000        -0.000000     -0.000000     -0.000000
      0.00000      0.00000      1.49768        -0.000000     -0.000000     -0.000000
      3.25631      3.25631      1.49768         0.001924      0.001924      0.000000
      0.91370      3.77153      0.00000         0.001924     -0.001924      0.000000
      3.77153      0.91370      0.00000        -0.001924      0.001924      0.000000
      1.42891      1.42891      1.49768        -0.001924     -0.001924     -0.000000
    total drift:                                0.000000      0.000000     -0.000000

  FREE ENERGIE OF THE ION-ELECTRON SYSTEM (eV)
  free  energy   TOTEN  =       -39.68477994 eV

  energy  without entropy=      -39.68477994  energy(sigma->0) =      -39.68477994

 reached required accuracy - stopping structural energy minimisation