 vasp.6.3.0 20Jan22 (build Apr  1 2022 16:44:48) complex
 executed on        HPECrayEX_GCC date 2022.11.14  05:01:06

 INCAR:
   SYSTEM = MgO-rocksalt
   ISMEAR = 0
   SIGMA = 0.05
   EDIFF = 1E-6
   ALGO = ALL
   ISTART = 0
   IBRION = -1
   NSW = 0
   ISYM = 0
   DIPOL = 0.5 0.5 0.5
   IDIPOL = 3
   LDIPOL = .TRUE.
   LHFCALC = .TRUE.
   GGA = B5
   AEXX = 0.2
   AGGAX = 0.72
   AGGAC = 0.81
   ALDAC = 0.19
   IVDW = 1
   VDW_S6 = 1.05
   VDW_C6 = 0.63 0.70
   VDW_R0 = 1.243 1.342
   ENCUT = 600
   PREC = Accurate
   LASPH = .TRUE.
   LREAL = .FALSE.
   ISPIN = 2
   MAGMOM = 0.0 0.0 0.0 0.0 0.0 0.0 0.0 0.0 0.0 0.0 0.0 0.0 0.0 0.0 0.0 0.0 0.0 0.0 0.0 0.0 0.0 0.0 0.0 0.0 0.0 0.0 0.0 0.0 0.0 0.0 0.0 0.0 0.0 0.0 0.0 0.0 0.0 0.0 0.0 0.0 0.0 0.0 0.0 0.0 0.0 0.0 0.0 0.0 0.0 0.0 0.0 0.0 0.0 0.0 0.0 0.0 0.0 0.0 0.0 0.0 0.0 0.0 0.0 0.0
   NELM = 200
   NELMIN = 8
   NCORE = 8
   KPAR = 1
   LWAVE = .FALSE.
   LCHARG = .FALSE.

 POTCAR:    PAW_PBE Mg_pv 13Apr2007
 POTCAR:    PAW_PBE O 08Apr2002
 POTCAR:    PAW_PBE Mg_pv 13Apr2007
   VRHFIN =Mg: p6s2

   TITEL  = PAW_PBE Mg_pv 13Apr2007
   POMASS =   24.305; ZVAL   =    8.000    mass and valenz
   ENMAX  =  403.929; ENMIN  =  302.947 eV

   TITEL  = PAW_PBE O 08Apr2002
   POMASS =   16.000; ZVAL   =    6.000    mass and valenz
   ENMAX  =  400.000; ENMIN  =  300.000 eV

  PAW_PBE Mg_pv 13Apr2007               :
  PAW_PBE O 08Apr2002                   :

 POSCAR: Mg  O
  positions in direct lattice
 exchange correlation table for  LEXCH =       12
   RHO(1)=    0.500       N(1)  =     2000
   RHO(2)=  100.500       N(2)  =     4000

 ion  position               nearest neighbor table
   1  0.250  0.000  0.352-  35 2.10  36 2.10  43 2.10  52 2.10  33 2.10
   2  0.500  0.250  0.352-  35 2.10  36 2.10  44 2.10  51 2.10  34 2.10
   3  0.250  0.250  0.451-  33 2.10  34 2.10  41 2.10  50 2.10  35 2.10  39 2.10
   4  0.500  0.000  0.451-  33 2.10  34 2.10  42 2.10  49 2.10  36 2.10  40 2.10
   5  0.250  0.000  0.550-  39 2.10  40 2.10  56 2.10  47 2.10  33 2.11  37 2.12
   6  0.500  0.250  0.549-  39 2.10  40 2.10  48 2.10  55 2.10  34 2.10  38 2.14
   7  0.250  0.250  0.648-  39 2.09  54 2.10  45 2.10  37 2.10  38 2.11
   8  0.500  0.999  0.647-  40 2.09  46 2.10  37 2.10  53 2.10  38 2.11
   9  0.250  0.500  0.352-  35 2.10  43 2.10  44 2.10  60 2.10  41 2.10
  10  0.500  0.750  0.352-  36 2.10  43 2.10  44 2.10  59 2.10  42 2.10
  11  0.250  0.750  0.451-  47 2.10  41 2.10  42 2.10  33 2.10  58 2.10  43 2.10
  12  0.500  0.500  0.451-  34 2.10  41 2.10  42 2.10  57 2.10  44 2.10  48 2.10
  13  0.250  0.500  0.550-  39 2.10  48 2.10  64 2.10  47 2.10  41 2.11  45 2.12
  14  0.500  0.750  0.550-  47 2.10  63 2.10  40 2.10  48 2.10  42 2.11  46 2.12
  15  0.250  0.750  0.647-  47 2.09  62 2.10  45 2.10  37 2.10  46 2.10
  16  0.500  0.501  0.647-  48 2.09  46 2.10  45 2.10  61 2.10  38 2.11
  17  0.750  0.000  0.352-  36 2.10  51 2.10  52 2.10  59 2.10  49 2.10
  18  0.000  0.250  0.352-  35 2.10  51 2.10  52 2.10  60 2.10  50 2.10
  19  0.750  0.250  0.451-  55 2.10  49 2.10  50 2.10  34 2.10  57 2.10  51 2.10
  20  0.000  0.000  0.451-  56 2.10  49 2.10  50 2.10  33 2.10  58 2.10  52 2.10
  21  0.750  1.000  0.550-  63 2.10  40 2.10  56 2.10  55 2.10  49 2.11  53 2.12
  22  0.000  0.250  0.549-  56 2.10  64 2.10  39 2.10  55 2.10  50 2.11  54 2.12
  23  0.751  0.250  0.647-  55 2.08  54 2.09  61 2.10  53 2.10  38 2.11
  24  0.000  1.000  0.647-  56 2.09  62 2.10  37 2.10  53 2.10  54 2.10
  25  0.750  0.500  0.352-  44 2.10  51 2.10  59 2.10  60 2.10  57 2.10
  26  0.000  0.750  0.352-  43 2.10  52 2.10  59 2.10  60 2.10  58 2.10
  27  0.750  0.750  0.451-  63 2.10  49 2.10  57 2.10  58 2.10  42 2.10  59 2.10
  28  0.000  0.500  0.451-  64 2.10  50 2.10  57 2.10  58 2.10  41 2.10  60 2.10
  29  0.750  0.500  0.550-  63 2.10  48 2.10  64 2.10  55 2.10  57 2.11  61 2.12
  30  1.000  0.750  0.549-  56 2.10  64 2.10  47 2.10  63 2.10  58 2.10  62 2.12
  31  0.750  0.750  0.647-  63 2.09  62 2.10  61 2.10  53 2.10  46 2.10
  32  0.000  0.500  0.647-  64 2.09  62 2.10  45 2.10  61 2.10  54 2.10
  33  0.250  0.000  0.451-   3 2.10   4 2.10  11 2.10  20 2.10   1 2.10   5 2.11
  34  0.500  0.250  0.451-   3 2.10   4 2.10  12 2.10  19 2.10   2 2.10   6 2.10
  35  0.250  0.250  0.352-   1 2.10   2 2.10   9 2.10  18 2.10   3 2.10
  36  0.500  0.000  0.352-   1 2.10   2 2.10  10 2.10  17 2.10   4 2.10
  37  0.250  0.000  0.649-   8 2.10  24 2.10   7 2.10  15 2.10   5 2.12
  38  0.501  0.250  0.650-   8 2.11  16 2.11  23 2.11   7 2.11   6 2.14
  39  0.250  0.250  0.549-   7 2.09   6 2.10  13 2.10   5 2.10  22 2.10   3 2.10
  40  0.500  0.000  0.549-   8 2.09   6 2.10  21 2.10   5 2.10   4 2.10  14 2.10
  41  0.250  0.500  0.451-   3 2.10  11 2.10  12 2.10  28 2.10   9 2.10  13 2.11
  42  0.500  0.750  0.451-   4 2.10  11 2.10  12 2.10  27 2.10  10 2.10  14 2.11
  43  0.250  0.750  0.352-   1 2.10   9 2.10  10 2.10  26 2.10  11 2.10
  44  0.500  0.500  0.352-   2 2.10   9 2.10  10 2.10  25 2.10  12 2.10
  45  0.250  0.500  0.649-  16 2.10  32 2.10   7 2.10  15 2.10  13 2.12
  46  0.500  0.750  0.649-   8 2.10  16 2.10  31 2.10  15 2.10  14 2.12
  47  0.250  0.750  0.549-  15 2.09  11 2.10  14 2.10  30 2.10   5 2.10  13 2.10
  48  0.500  0.500  0.549-  16 2.09   6 2.10  29 2.10  13 2.10  12 2.10  14 2.10
  49  0.750  0.000  0.451-   4 2.10  19 2.10  20 2.10  27 2.10  17 2.10  21 2.11
  50  0.000  0.250  0.451-   3 2.10  19 2.10  20 2.10  28 2.10  18 2.10  22 2.11
  51  0.750  0.250  0.352-   2 2.10  17 2.10  18 2.10  25 2.10  19 2.10
  52  0.000  0.000  0.352-   1 2.10  17 2.10  18 2.10  26 2.10  20 2.10
  53  0.750  0.000  0.649-  23 2.10   8 2.10  31 2.10  24 2.10  21 2.12
  54  0.000  0.250  0.649-  23 2.09   7 2.10  24 2.10  32 2.10  22 2.12
  55  0.750  0.250  0.549-  23 2.08  19 2.10   6 2.10  21 2.10  29 2.10  22 2.10
  56  1.000  0.000  0.549-  24 2.09  20 2.10  22 2.10  21 2.10   5 2.10  30 2.10
  57  0.750  0.500  0.451-  12 2.10  19 2.10  27 2.10  28 2.10  25 2.10  29 2.11
  58  0.000  0.750  0.451-  11 2.10  20 2.10  27 2.10  28 2.10  26 2.10  30 2.10
  59  0.750  0.750  0.352-  10 2.10  17 2.10  25 2.10  26 2.10  27 2.10
  60  0.000  0.500  0.352-   9 2.10  18 2.10  25 2.10  26 2.10  28 2.10
  61  0.750  0.500  0.649-  23 2.10  16 2.10  31 2.10  32 2.10  29 2.12
  62  1.000  0.750  0.649-  15 2.10  24 2.10  32 2.10  31 2.10  30 2.12
  63  0.750  0.750  0.549-  31 2.09  27 2.10  21 2.10  29 2.10  14 2.10  30 2.10
  64  1.000  0.500  0.549-  32 2.09  28 2.10  22 2.10  29 2.10  13 2.10  30 2.10

IMPORTANT INFORMATION: All symmetrisations will be switched off!
NOSYMM: (Re-)initialisation of all symmetry stuff for point group C_1.

                                     Primitive cell

  volume of cell :    1504.9259

  direct lattice vectors                    reciprocal lattice vectors
     8.404861995  0.000000000  0.000000000     0.118978753  0.000000000  0.000000000
     0.000000000  8.404861995  0.000000000     0.000000000  0.118978753  0.000000000
     0.000000000  0.000000000 21.303646496     0.000000000  0.000000000  0.046940321

  length of vectors
     8.404861995  8.404861995 21.303646496     0.118978753  0.118978753  0.046940321

  position of ions in fractional coordinates (direct lattice)
     0.250000000  0.000000000  0.352052406
     0.500000000  0.250000000  0.352052406
     0.250000000  0.250000000  0.450684135
     0.500000000  0.000000000  0.450684135
     0.249985449  0.000058100  0.549587328
     0.499956777  0.249999905  0.549449910
     0.249528210  0.250000020  0.647650215
     0.499829180  0.999263264  0.647418908
     0.250000000  0.500000000  0.352052406
     0.500000000  0.750000000  0.352052406
     0.250000000  0.750000000  0.450684135
     0.500000000  0.500000000  0.450684135
     0.249985420  0.499941859  0.549587342
     0.499919692  0.750000022  0.549529040
     0.249767977  0.749999952  0.647273519
     0.499829221  0.500736488  0.647419031
     0.750000000  0.000000000  0.352052406
     0.000000000  0.250000000  0.352052406
     0.750000000  0.250000000  0.450684135
     0.000000000  0.000000000  0.450684135
     0.749971121  0.999920942  0.549558473
     0.000249671  0.249999982  0.549493800
     0.751395963  0.250000111  0.647017190
     0.000064360  0.999831930  0.647296337
     0.750000000  0.500000000  0.352052406
     0.000000000  0.750000000  0.352052406
     0.750000000  0.750000000  0.450684135
     0.000000000  0.500000000  0.450684135
     0.749971160  0.500079030  0.549558494
     0.999988013  0.749999993  0.549468416
     0.750111721  0.749999918  0.647301516
     0.000064317  0.500168022  0.647296356
     0.250000000  0.000000000  0.450684135
     0.500000000  0.250000000  0.450684135
     0.250000000  0.250000000  0.352052406
     0.500000000  0.000000000  0.352052406
     0.250007368  0.000025060  0.649165493
     0.500563850  0.249999333  0.649698472
     0.250289601  0.249999985  0.549362104
     0.500005115  0.000193867  0.549336011
     0.250000000  0.500000000  0.450684135
     0.500000000  0.750000000  0.450684135
     0.250000000  0.750000000  0.352052406
     0.500000000  0.500000000  0.352052406
     0.250007318  0.499974917  0.649165509
     0.499956354  0.750000050  0.649233290
     0.250031315  0.749999984  0.549215034
     0.500005091  0.499806044  0.549336032
     0.750000000  0.000000000  0.450684135
     0.000000000  0.250000000  0.450684135
     0.750000000  0.250000000  0.352052406
     0.000000000  0.000000000  0.352052406
     0.749929062  0.000124083  0.649242088
     0.000110394  0.249999924  0.649132851
     0.749885109  0.249999977  0.549267092
     0.999959735  0.000043092  0.549215459
     0.750000000  0.500000000  0.450684135
     0.000000000  0.750000000  0.450684135
     0.750000000  0.750000000  0.352052406
     0.000000000  0.500000000  0.352052406
     0.749929132  0.499875950  0.649241999
     0.999944835  0.750000039  0.649116864
     0.749892009  0.750000003  0.549235220
     0.999959767  0.499956881  0.549215466

  ion indices of the primitive-cell ions
   primitive index   ion index
                 1           1
                 2           2
                 3           3
                 4           4
                 5           5
                 6           6
                 7           7
                 8           8
                 9           9
                10          10
                11          11
                12          12
                13          13
                14          14
                15          15
                16          16
                17          17
                18          18
                19          19
                20          20
                21          21
                22          22
                23          23
                24          24
                25          25
                26          26
                27          27
                28          28
                29          29
                30          30
                31          31
                32          32
                33          33
                34          34
                35          35
[...]
   0.50000000  0.75000000  0.45068414
   0.25000000  0.75000000  0.35205241
   0.50000000  0.50000000  0.35205241
   0.25000732  0.49997492  0.64916551
   0.49995635  0.75000005  0.64923329
   0.25003132  0.74999998  0.54921503
   0.50000509  0.49980604  0.54933603
   0.75000000  0.00000000  0.45068414
   0.00000000  0.25000000  0.45068414
   0.75000000  0.25000000  0.35205241
   0.00000000  0.00000000  0.35205241
   0.74992906  0.00012408  0.64924209
   0.00011039  0.24999992  0.64913285
   0.74988511  0.24999998  0.54926709
   0.99995974  0.00004309  0.54921546
   0.75000000  0.50000000  0.45068414
   0.00000000  0.75000000  0.45068414
   0.75000000  0.75000000  0.35205241
   0.00000000  0.50000000  0.35205241
   0.74992913  0.49987595  0.64924200
   0.99994483  0.75000004  0.64911686
   0.74989201  0.75000000  0.54923522
   0.99995977  0.49995688  0.54921547

 position of ions in cartesian coordinates  (Angst):
   2.10121550  0.00000000  7.50000000
   4.20243100  2.10121550  7.50000000
   2.10121550  2.10121550  9.60121550
   4.20243100  0.00000000  9.60121550
   2.10109320  0.00048832 11.70821416
   4.20206772  2.10121470 11.70528664
   2.09725016  2.10121566 13.79731123
   4.20099528  8.39866983 13.79238356
   2.10121550  4.20243100  7.50000000
   4.20243100  6.30364650  7.50000000
   2.10121550  6.30364650  9.60121550
   4.20243100  4.20243100  9.60121550
   2.10109295  4.20194233 11.70821445
   4.20175602  6.30364668 11.70697241
   2.09926537  6.30364610 13.78928623
   4.20099562  4.20862108 13.79238618
   6.30364650  0.00000000  7.50000000
   0.00000000  2.10121550  7.50000000
   6.30364650  2.10121550  9.60121550
   0.00000000  0.00000000  9.60121550
   6.30340377  8.40419752 11.70759944
   0.00209845  2.10121535 11.70622168
   6.31537937  2.10121643 13.78382548
   0.00054093  8.40344939 13.78977235
   6.30364650  4.20243100  7.50000000
   0.00000000  6.30364650  7.50000000
   6.30364650  6.30364650  9.60121550
   0.00000000  4.20243100  9.60121550
   6.30340410  4.20309523 11.70759989
   8.40476125  6.30364644 11.70568090
   6.30458549  6.30364581 13.78988268
   0.00054058  4.20384320 13.78977274
   2.10121550  0.00000000  9.60121550
   4.20243100  2.10121550  9.60121550
   2.10121550  2.10121550  7.50000000
   4.20243100  0.00000000  7.50000000
   2.10127743  0.00021063 13.82959219
   4.20717008  2.10120989 13.84094659
   2.10364955  2.10121537 11.70341605
   4.20247399  0.00162943 11.70286018
   2.10121550  4.20243100  9.60121550
   4.20243100  6.30364650  9.60121550
   2.10121550  6.30364650  7.50000000
   4.20243100  4.20243100  7.50000000
   2.10127701  4.20222018 13.82959253
   4.20206416  6.30364692 13.83103651
   2.10147870  6.30364636 11.70028293
   4.20247379  4.20080083 11.70286064
   6.30364650  0.00000000  9.60121550
   0.00000000  2.10121550  9.60121550
   6.30364650  2.10121550  7.50000000
   0.00000000  0.00000000  7.50000000
   6.30305027  0.00104290 13.83122393
   0.00092785  2.10121486 13.82889679
   6.30268085  2.10121531 11.70139196
   8.40452358  0.00036219 11.70029199
   6.30364650  4.20243100  9.60121550
   0.00000000  6.30364650  9.60121550
   6.30364650  6.30364650  7.50000000
   0.00000000  4.20243100  7.50000000
   6.30305086  4.20138838 13.83122203
   8.40439834  6.30364682 13.82855621
   6.30273885  6.30364652 11.70071298
   8.40452385  4.20206859 11.70029214

--------------------------------------- Iteration      FINAL  ---------------------------------------

--------------------OUTCAR has been truncated-------------------------

[...]

--------------------OUTCAR has been truncated-------------------------

  DFT-D2 method for vdW energy calculation

  Parameters of vdW forcefield:
         C6(Jnm^6/mol)     R0(A)
   Mg       0.630          1.243
   O        0.700          1.342

  vdW correction parametrized for the method oºþ      

  IVDW =   1
  VDW_RADIUS =    50.000 A
  VDW_S6 =     1.050
  VDW_SR =     1.000
  VDW_D =    20.000
  LVDW_EWALD = F

  Number of pair interactions contributing to vdW energy:  731110
  Edisp (eV):   -5.18160

 VOLUME and BASIS-vectors are now :
  energy-cutoff  :      600.00
  volume of cell :     1504.93
      direct lattice vectors                 reciprocal lattice vectors
     8.404861995  0.000000000  0.000000000     0.118978753  0.000000000  0.000000000
     0.000000000  8.404861995  0.000000000     0.000000000  0.118978753  0.000000000
     0.000000000  0.000000000 21.303646496     0.000000000  0.000000000  0.046940321

  length of vectors
     8.404861995  8.404861995 21.303646496     0.118978753  0.118978753  0.046940321

 FORCES acting on ions:
    Electron-Ion                     Ewald-Force                    Non-Local-Force
   -.404E-01 -.229E-01 0.209E+04   0.410E-01 0.234E-01 -.209E+04   -.401E-03 -.322E-03 -.641E+01
   0.124E-01 -.256E-04 0.209E+04   -.123E-01 0.235E-04 -.209E+04   0.461E-05 0.682E-06 -.641E+01
   -.681E-01 -.757E-04 0.694E+03   0.822E-01 0.768E-04 -.694E+03   -.905E-02 0.875E-07 0.345E+00
   0.506E-01 0.171E-01 0.694E+03   -.514E-01 -.128E-01 -.694E+03   0.399E-03 -.319E-02 0.334E+00
   -.438E+00 -.370E+00 -.698E+03   0.486E+00 0.428E+00 0.699E+03   -.315E-01 -.424E-01 -.248E+00
   0.658E-01 -.646E-03 -.700E+03   -.919E-01 0.624E-03 0.700E+03   0.285E-01 0.186E-04 -.179E+00
   -.310E+01 -.388E-03 -.208E+04   0.319E+01 0.283E-03 0.208E+04   0.854E-02 0.666E-04 0.563E+01
   -.423E+00 -.287E+01 -.208E+04   0.482E+00 0.302E+01 0.207E+04   -.233E-01 -.297E-01 0.558E+01
   -.404E-01 0.230E-01 0.209E+04   0.410E-01 -.234E-01 -.209E+04   -.400E-03 0.316E-03 -.641E+01
   0.769E-02 0.249E-04 0.209E+04   -.761E-02 -.235E-04 -.209E+04   -.434E-04 0.863E-06 -.641E+01
   -.183E+00 0.779E-04 0.694E+03   0.190E+00 -.784E-04 -.695E+03   -.409E-02 -.152E-06 0.314E+00
   0.505E-01 -.171E-01 0.694E+03   -.514E-01 0.128E-01 -.694E+03   0.400E-03 0.320E-02 0.334E+00
   -.438E+00 0.370E+00 -.698E+03   0.487E+00 -.428E+00 0.699E+03   -.315E-01 0.424E-01 -.248E+00
   -.113E+00 0.562E-03 -.698E+03   0.116E+00 -.548E-03 0.698E+03   0.194E-02 -.156E-04 -.179E+00
   -.174E+00 0.199E-03 -.208E+04   0.131E+00 -.135E-03 0.207E+04   0.446E-01 -.451E-04 0.561E+01
   -.423E+00 0.287E+01 -.208E+04   0.482E+00 -.302E+01 0.207E+04   -.234E-01 0.296E-01 0.558E+01
   0.398E-01 -.194E-01 0.209E+04   -.406E-01 0.194E-01 -.209E+04   0.499E-03 0.198E-04 -.641E+01
   -.108E-01 -.150E-04 0.209E+04   0.113E-01 0.128E-04 -.209E+04   -.400E-03 0.280E-05 -.641E+01
   0.686E-01 -.867E-04 0.694E+03   -.703E-01 0.875E-04 -.694E+03   0.192E-02 -.115E-05 0.314E+00
   -.481E-01 -.103E+00 0.694E+03   0.460E-01 0.107E+00 -.695E+03   0.120E-02 -.248E-02 0.313E+00
   0.487E+00 -.236E+00 -.698E+03   -.532E+00 0.257E+00 0.699E+03   0.297E-01 -.684E-02 -.235E+00
   -.150E+00 -.518E-04 -.697E+03   0.184E+00 0.393E-04 0.697E+03   -.345E-01 0.713E-05 -.185E+00
   0.370E+01 -.740E-04 -.208E+04   -.386E+01 0.173E-04 0.207E+04   -.117E-02 0.300E-04 0.553E+01
   0.247E+00 0.327E-02 -.208E+04   -.271E+00 -.620E-01 0.207E+04   0.927E-02 0.531E-01 0.561E+01
   0.399E-01 0.194E-01 0.209E+04   -.406E-01 -.194E-01 -.209E+04   0.497E-03 -.233E-04 -.641E+01
   -.812E-02 0.866E-05 0.209E+04   0.784E-02 -.129E-04 -.209E+04   0.189E-03 0.450E-05 -.641E+01
   0.182E+00 0.867E-04 0.694E+03   -.193E+00 -.887E-04 -.695E+03   0.653E-02 0.117E-05 0.321E+00
   -.481E-01 0.103E+00 0.694E+03   0.460E-01 -.107E+00 -.695E+03   0.120E-02 0.248E-02 0.313E+00
   0.487E+00 0.236E+00 -.698E+03   -.533E+00 -.257E+00 0.699E+03   0.297E-01 0.684E-02 -.235E+00
   0.844E-01 0.652E-04 -.697E+03   -.821E-01 -.558E-04 0.697E+03   -.380E-02 -.502E-05 -.189E+00
   0.181E+00 -.107E-03 -.208E+04   -.133E+00 0.132E-03 0.207E+04   -.456E-01 -.937E-05 0.560E+01
   0.247E+00 -.327E-02 -.208E+04   -.270E+00 0.621E-01 0.207E+04   0.930E-02 -.531E-01 0.561E+01
   -.152E+00 -.947E-01 0.520E+03   0.154E+00 0.906E-01 -.520E+03   -.147E-02 0.512E-02 -.764E-01
   0.371E-01 -.108E-03 0.520E+03   -.352E-01 0.114E-03 -.520E+03   -.203E-02 -.335E-05 -.623E-01
   -.239E-01 -.126E-04 0.157E+04   0.247E-01 0.130E-04 -.158E+04   -.947E-03 0.172E-06 0.312E+01
   0.802E-02 -.904E-02 0.157E+04   -.786E-02 0.954E-02 -.158E+04   -.187E-03 -.617E-03 0.312E+01
   -.366E+00 -.445E+00 -.158E+04   0.426E+00 0.508E+00 0.158E+04   -.759E-01 -.769E-01 -.443E+01
   -.148E+00 -.129E-02 -.158E+04   0.289E+00 0.125E-02 0.159E+04   -.171E+00 0.889E-04 -.456E+01
   -.584E+00 -.156E-03 -.520E+03   0.639E+00 0.138E-03 0.520E+03   -.767E-01 0.237E-04 0.160E+00
   -.492E-02 -.431E+00 -.519E+03   0.115E-01 0.481E+00 0.519E+03   -.887E-02 -.724E-01 0.212E+00
   -.152E+00 0.947E-01 0.520E+03   0.154E+00 -.906E-01 -.520E+03   -.147E-02 -.512E-02 -.764E-01
   0.204E-02 0.108E-03 0.520E+03   0.709E-03 -.105E-03 -.520E+03   -.306E-02 -.326E-05 -.584E-01
   -.330E-01 0.994E-05 0.157E+04   0.339E-01 -.131E-04 -.158E+04   -.112E-02 0.269E-06 0.312E+01
   0.801E-02 0.904E-02 0.157E+04   -.786E-02 -.954E-02 -.158E+04   -.187E-03 0.616E-03 0.312E+01
   -.367E+00 0.445E+00 -.158E+04   0.427E+00 -.508E+00 0.158E+04   -.759E-01 0.769E-01 -.443E+01
   -.168E+00 0.577E-03 -.158E+04   0.186E+00 -.570E-03 0.158E+04   -.221E-01 -.213E-04 -.447E+01
   -.115E+00 0.164E-03 -.517E+03   0.111E+00 -.149E-03 0.517E+03   -.645E-03 -.163E-04 0.299E+00
   -.489E-02 0.431E+00 -.519E+03   0.115E-01 -.481E+00 0.519E+03   -.889E-02 0.724E-01 0.212E+00
   0.146E+00 -.830E-01 0.520E+03   -.144E+00 0.881E-01 -.520E+03   -.252E-02 -.569E-02 -.748E-01
   -.122E-01 -.324E-04 0.520E+03   -.349E-02 0.317E-04 -.520E+03   0.184E-01 0.117E-05 -.507E-01
   0.227E-01 -.163E-04 0.157E+04   -.239E-01 0.139E-04 -.158E+04   0.151E-02 0.889E-06 0.312E+01
   -.761E-02 -.189E-01 0.157E+04   0.758E-02 0.192E-01 -.158E+04   0.265E-04 -.407E-03 0.312E+01
   0.624E+00 -.210E+00 -.158E+04   -.753E+00 0.309E+00 0.159E+04   0.152E+00 -.126E+00 -.454E+01
   -.660E+00 -.608E-04 -.158E+04   0.715E+00 0.424E-04 0.158E+04   -.363E-01 0.289E-04 -.445E+01
   0.629E+00 -.870E-04 -.518E+03   -.683E+00 0.802E-04 0.517E+03   0.783E-01 0.112E-04 0.296E+00
   0.296E-02 -.288E-01 -.518E+03   -.169E-01 0.330E-01 0.517E+03   0.171E-01 -.759E-02 0.279E+00
   0.146E+00 0.830E-01 0.520E+03   -.144E+00 -.880E-01 -.520E+03   -.252E-02 0.569E-02 -.748E-01
   -.138E-01 0.326E-04 0.521E+03   0.161E-01 -.299E-04 -.521E+03   -.291E-02 -.259E-05 -.454E-01
   0.333E-01 0.119E-04 0.157E+04   -.340E-01 -.140E-04 -.158E+04   0.950E-03 0.508E-06 0.312E+01
   -.761E-02 0.189E-01 0.157E+04   0.758E-02 -.192E-01 -.158E+04   0.257E-04 0.407E-03 0.312E+01
   0.624E+00 0.210E+00 -.158E+04   -.753E+00 -.309E+00 0.159E+04   0.152E+00 0.126E+00 -.454E+01
   0.177E+00 0.101E-03 -.158E+04   -.206E+00 -.827E-04 0.158E+04   0.346E-01 -.315E-04 -.445E+01
   0.160E+00 0.977E-04 -.518E+03   -.167E+00 -.925E-04 0.518E+03   0.119E-01 -.726E-05 0.274E+00
   0.291E-02 0.288E-01 -.518E+03   -.169E-01 -.329E-01 0.517E+03   0.171E-01 0.759E-02 0.279E+00
   0.499E-01 0.120E-03 0.171E+02   -.407E-12 0.896E-14 -.523E-11   -.456E-01 -.112E-03 -.151E+02

 POSITION                                       TOTAL-FORCE (eV/Angst)
      2.10122      0.00000      7.50000         0.000159      0.000108      0.407600
      4.20243      2.10122      7.50000         0.000025     -0.000002      0.407687
      2.10122      2.10122      9.60122         0.003907      0.000001      0.016501
      4.20243      0.00000      9.60122        -0.000399      0.000762      0.018949
      2.10109      0.00049     11.70821         0.013053      0.011193     -0.002531
      4.20207      2.10121     11.70529         0.004698     -0.000000      0.093934
      2.09725      2.10122     13.79731         0.097362     -0.000030     -0.051333
      4.20100      8.39867     13.79238         0.031224      0.112137     -0.006055
      2.10122      4.20243      7.50000         0.000157     -0.000109      0.407596
      4.20243      6.30365      7.50000         0.000028      0.000002      0.407014
      2.10122      6.30365      9.60122         0.001543     -0.000000      0.010403
      4.20243      4.20243      9.60122        -0.000399     -0.000763      0.018953
      2.10109      4.20194     11.70821         0.013058     -0.011193     -0.002557
      4.20176      6.30365     11.70697         0.004781     -0.000003     -0.004797
      2.09927      6.30365     13.78929         0.004730      0.000014     -0.010906
      4.20100      4.20862     13.79239         0.031233     -0.112130     -0.006078
      6.30365      0.00000      7.50000        -0.000204      0.000032      0.407827
      0.00000      2.10122      7.50000         0.000086      0.000001      0.406570
      6.30365      2.10122      9.60122         0.000288      0.000000      0.018349
      0.00000      0.00000      9.60122        -0.000731      0.001105      0.009818
      6.30340      8.40420     11.70760        -0.011883      0.012327      0.006873
      0.00210      2.10122     11.70622        -0.002784     -0.000005     -0.007084
      6.31538      2.10122     13.78383        -0.152585     -0.000022      0.057820
      0.00054      8.40345     13.78977        -0.012118     -0.000680     -0.014175
      6.30365      4.20243      7.50000        -0.000202     -0.000029      0.407836
      0.00000      6.30365      7.50000        -0.000070      0.000000      0.406361
      6.30365      6.30365      9.60122        -0.002996     -0.000001      0.009688
      0.00000      4.20243      9.60122        -0.000729     -0.001106      0.009813
      6.30340      4.20310     11.70760        -0.011889     -0.012325      0.006855
      8.40476      6.30365     11.70568        -0.001720      0.000004      0.002062
      6.30459      6.30365     13.78988        -0.002038      0.000013     -0.008522
      0.00054      4.20384     13.78977        -0.012115      0.000688     -0.014155
      2.10122      0.00000      9.60122        -0.000095      0.001779      0.024209
      4.20243      2.10122      9.60122        -0.000457      0.000003      0.013931
      2.10122      2.10122      7.50000        -0.000301      0.000001     -0.493911
      4.20243      0.00000      7.50000        -0.000064     -0.000199     -0.493909
      2.10128      0.00021     13.82959        -0.026497     -0.024087      0.063736
      4.20717      2.10121     13.84095        -0.054972      0.000067     -0.019551
      2.10365      2.10122     11.70342        -0.033708      0.000009     -0.005463
      4.20247      0.00163     11.70286        -0.003484     -0.033310     -0.009395
      2.10122      4.20243      9.60122        -0.000092     -0.001781      0.024211
      4.20243      6.30365      9.60122        -0.000710     -0.000002      0.024304
      2.10122      6.30365      7.50000        -0.000391     -0.000003     -0.493741
      4.20243      4.20243      7.50000        -0.000067      0.000198     -0.493912
      2.10128      4.20222     13.82959        -0.026490      0.024079      0.063768
      4.20206      6.30365     13.83104        -0.006929     -0.000018      0.046534
      2.10148      6.30365     11.70028        -0.004631     -0.000004      0.023706
      4.20247      4.20080     11.70286        -0.003487      0.033303     -0.009376
      6.30365      0.00000      9.60122        -0.001093     -0.001361      0.021466
      0.00000      2.10122      9.60122         0.005295      0.000001      0.023027
      6.30365      2.10122      7.50000         0.000502     -0.000001     -0.493889
      0.00000      0.00000      7.50000        -0.000007     -0.000144     -0.493586
      6.30305      0.00104     13.83122         0.044111     -0.044687      0.029896
      0.00093      2.10121     13.82890         0.015557      0.000015      0.055817
      6.30268      2.10122     11.70139         0.035028      0.000006     -0.013922
      8.40452      0.00036     11.70029         0.005407     -0.004488      0.020532
      6.30365      4.20243      9.60122        -0.001095      0.001361      0.021467
      0.00000      6.30365      9.60122        -0.001021     -0.000000      0.021506
      6.30365      6.30365      7.50000         0.000317     -0.000002     -0.493864
      0.00000      4.20243      7.50000        -0.000003      0.000147     -0.493584
      6.30305      4.20139     13.83122         0.044093      0.044668      0.029918
      8.40440      6.30365     13.82856         0.009547     -0.000019      0.053266
      6.30274      6.30365     11.70071         0.006858     -0.000003      0.015956
      8.40452      4.20207     11.70029         0.005409      0.004486      0.020540
    total drift:                                0.000330     -0.000001     -0.000587

  FREE ENERGIE OF THE ION-ELECTRON SYSTEM (eV)
  free  energy   TOTEN  =      -438.71795952 eV

  energy  without entropy=     -438.71795952  energy(sigma->0) =     -438.71795952