 vasp.6.3.0 20Jan22 (build Apr  1 2022 16:44:48) complex
 executed on        HPECrayEX_GCC date 2023.02.26  11:41:28

 INCAR:
   SYSTEM = MgO-rocksalt
   ISMEAR = 0
   SIGMA = 0.05
   EDIFF = 1E-7
   ALGO = ALL
   ISTART = 0
   IBRION = 2
   NSW = 1000
   ISYM = 0
   ISIF = 2
   EDIFFG = -0.01
   DIPOL = 0.5 0.5 0.5
   IDIPOL = 3
   LDIPOL = .TRUE.
   GGA = PE
   IVDW = 1
   VDW_C6 = 1.23 0.70 0.63 0.70
   VDW_R0 = 1.397 1.342 1.243 1.342
   ENCUT = 600
   PREC = Accurate
   LASPH = .TRUE.
   LREAL = .FALSE.
   ISPIN = 1
   NELM = 200
   NELMIN = 8
   NCORE = 8
   KPAR = 1
   LWAVE = .FALSE.
   LCHARG = .FALSE.

 POTCAR:    PAW_PBE N 08Apr2002
 POTCAR:    PAW_PBE O 08Apr2002
 POTCAR:    PAW_PBE Mg_pv 13Apr2007
 POTCAR:    PAW_PBE O 08Apr2002
 POTCAR:    PAW_PBE N 08Apr2002
   VRHFIN =N: s2p3

   TITEL  = PAW_PBE N 08Apr2002
   POMASS =   14.001; ZVAL   =    5.000    mass and valenz
   ENMAX  =  400.000; ENMIN  =  300.000 eV

[...]

   TITEL  = PAW_PBE Mg_pv 13Apr2007
   POMASS =   24.305; ZVAL   =    8.000    mass and valenz
   ENMAX  =  403.929; ENMIN  =  302.947 eV

   TITEL  = PAW_PBE O 08Apr2002
   POMASS =   16.000; ZVAL   =    6.000    mass and valenz
   ENMAX  =  400.000; ENMIN  =  300.000 eV

  PAW_PBE N 08Apr2002                   :
  PAW_PBE O 08Apr2002                   :
  PAW_PBE Mg_pv 13Apr2007               :
  PAW_PBE O 08Apr2002                   :

 POSCAR:  N  O Mg  O
  positions in direct lattice
 exchange correlation table for  LEXCH =        8
   RHO(1)=    0.500       N(1)  =     2000
   RHO(2)=  100.500       N(2)  =     4000

 ion  position               nearest neighbor table
   1  0.493  0.519  0.766-   2 1.14
   2  0.471  0.594  0.810-   1 1.14   3 1.20
   3  0.448  0.672  0.855-   2 1.20
   4  0.250  0.000  0.351-  36 2.12  38 2.12  39 2.12  46 2.12  55 2.12
   5  0.500  0.250  0.351-  37 2.12  38 2.12  39 2.12  47 2.12  54 2.12
   6  0.250  0.250  0.450-  38 2.12  37 2.12  36 2.12  44 2.12  53 2.12  42 2.12
   7  0.500  0.000  0.450-  39 2.12  37 2.12  36 2.12  45 2.12  52 2.12  43 2.12
   8  0.250  0.000  0.550-  42 2.12  43 2.12  50 2.12  59 2.12  36 2.13  40 2.15
   9  0.500  0.250  0.550-  42 2.12  43 2.12  51 2.12  58 2.12  37 2.13  41 2.15
  10  0.250  0.250  0.649-  42 2.11  41 2.12  40 2.12  48 2.12  57 2.12
  11  0.500  0.000  0.649-  43 2.11  41 2.12  40 2.12  49 2.12  56 2.12
  12  0.250  0.500  0.351-  44 2.12  38 2.12  46 2.12  47 2.12  63 2.12
  13  0.500  0.750  0.351-  45 2.12  39 2.12  46 2.12  47 2.12  62 2.12
  14  0.250  0.750  0.450-  46 2.12  44 2.12  45 2.12  36 2.12  61 2.12  50 2.12
  15  0.500  0.500  0.450-  47 2.12  44 2.12  45 2.12  37 2.12  60 2.12  51 2.12
  16  0.250  0.500  0.550-  42 2.12  50 2.12  51 2.12  67 2.12  44 2.13  48 2.15
  17  0.500  0.750  0.550-  43 2.12  50 2.12  51 2.12  66 2.12  45 2.13  49 2.15
  18  0.250  0.750  0.649-  50 2.11  48 2.12  49 2.12  40 2.12  65 2.12
  19  0.500  0.500  0.649-  51 2.11  48 2.12  49 2.12  41 2.12  64 2.12
  20  0.750  0.000  0.351-  52 2.12  39 2.12  54 2.12  55 2.12  62 2.12
  21  0.000  0.250  0.351-  53 2.12  38 2.12  54 2.12  55 2.12  63 2.12
  22  0.750  0.250  0.450-  54 2.12  52 2.12  53 2.12  37 2.12  60 2.12  58 2.12
  23  0.000  0.000  0.450-  55 2.12  52 2.12  53 2.12  36 2.12  61 2.12  59 2.12
  24  0.750  0.000  0.550-  43 2.12  58 2.12  59 2.12  66 2.12  52 2.13  56 2.15
  25  0.000  0.250  0.550-  42 2.12  58 2.12  59 2.12  67 2.12  53 2.13  57 2.15
  26  0.750  0.250  0.649-  58 2.11  56 2.12  57 2.12  41 2.12  64 2.12
  27  0.000  0.000  0.649-  59 2.11  56 2.12  57 2.12  40 2.12  65 2.12
  28  0.750  0.500  0.351-  60 2.12  54 2.12  47 2.12  62 2.12  63 2.12
  29  0.000  0.750  0.351-  61 2.12  55 2.12  46 2.12  62 2.12  63 2.12
  30  0.750  0.750  0.450-  62 2.12  52 2.12  60 2.12  61 2.12  45 2.12  66 2.12
  31  0.000  0.500  0.450-  63 2.12  53 2.12  60 2.12  61 2.12  44 2.12  67 2.12
  32  0.750  0.500  0.550-  51 2.12  58 2.12  66 2.12  67 2.12  60 2.13  64 2.15
  33  0.000  0.750  0.550-  50 2.12  59 2.12  66 2.12  67 2.12  61 2.13  65 2.15
  34  0.750  0.750  0.649-  66 2.11  56 2.12  64 2.12  65 2.12  49 2.12
  35  0.000  0.500  0.649-  67 2.11  57 2.12  64 2.12  65 2.12  48 2.12
  36  0.250  0.000  0.450-   4 2.12   6 2.12   7 2.12  14 2.12  23 2.12   8 2.13
  37  0.500  0.250  0.450-   5 2.12   6 2.12   7 2.12  15 2.12  22 2.12   9 2.13
  38  0.250  0.250  0.351-   6 2.12   5 2.12   4 2.12  12 2.12  21 2.12
  39  0.500  0.000  0.351-   7 2.12   5 2.12   4 2.12  13 2.12  20 2.12
  40  0.250  0.000  0.651-  10 2.12  11 2.12  18 2.12  27 2.12   8 2.15
  41  0.500  0.250  0.651-  10 2.12  11 2.12  19 2.12  26 2.12   9 2.15
  42  0.250  0.250  0.550-  10 2.11   9 2.12   8 2.12  16 2.12  25 2.12   6 2.12
  43  0.500  0.000  0.550-  11 2.11   9 2.12   8 2.12  17 2.12  24 2.12   7 2.12
  44  0.250  0.500  0.450-  12 2.12   6 2.12  14 2.12  15 2.12  31 2.12  16 2.13
  45  0.500  0.750  0.450-  13 2.12   7 2.12  14 2.12  15 2.12  30 2.12  17 2.13
  46  0.250  0.750  0.351-  14 2.12  12 2.12  13 2.12   4 2.12  29 2.12
  47  0.500  0.500  0.351-  15 2.12  12 2.12  13 2.12   5 2.12  28 2.12
  48  0.250  0.500  0.651-  10 2.12  18 2.12  19 2.12  35 2.12  16 2.15
  49  0.500  0.750  0.651-  11 2.12  18 2.12  19 2.12  34 2.12  17 2.15
  50  0.250  0.750  0.550-  18 2.11  16 2.12  17 2.12   8 2.12  33 2.12  14 2.12
  51  0.500  0.500  0.550-  19 2.11  16 2.12  17 2.12   9 2.12  32 2.12  15 2.12
  52  0.750  0.000  0.450-  20 2.12   7 2.12  22 2.12  23 2.12  30 2.12  24 2.13
  53  0.000  0.250  0.450-  21 2.12   6 2.12  22 2.12  23 2.12  31 2.12  25 2.13
  54  0.750  0.250  0.351-  22 2.12  20 2.12  21 2.12   5 2.12  28 2.12
  55  0.000  0.000  0.351-  23 2.12  20 2.12  21 2.12   4 2.12  29 2.12
  56  0.750  0.000  0.651-  11 2.12  26 2.12  27 2.12  34 2.12  24 2.15
  57  0.000  0.250  0.651-  10 2.12  26 2.12  27 2.12  35 2.12  25 2.15
  58  0.750  0.250  0.550-  26 2.11  24 2.12  25 2.12   9 2.12  32 2.12  22 2.12
  59  0.000  0.000  0.550-  27 2.11  24 2.12  25 2.12   8 2.12  33 2.12  23 2.12
  60  0.750  0.500  0.450-  28 2.12  22 2.12  15 2.12  30 2.12  31 2.12  32 2.13
  61  0.000  0.750  0.450-  29 2.12  23 2.12  14 2.12  30 2.12  31 2.12  33 2.13
  62  0.750  0.750  0.351-  30 2.12  20 2.12  28 2.12  29 2.12  13 2.12
  63  0.000  0.500  0.351-  31 2.12  21 2.12  28 2.12  29 2.12  12 2.12
  64  0.750  0.500  0.651-  19 2.12  26 2.12  34 2.12  35 2.12  32 2.15
  65  0.000  0.750  0.651-  18 2.12  27 2.12  34 2.12  35 2.12  33 2.15
  66  0.750  0.750  0.550-  34 2.11  24 2.12  32 2.12  33 2.12  17 2.12  30 2.12
  67  0.000  0.500  0.550-  35 2.11  25 2.12  32 2.12  33 2.12  16 2.12  31 2.12

IMPORTANT INFORMATION: All symmetrisations will be switched off!
NOSYMM: (Re-)initialisation of all symmetry stuff for point group C_1.

                                     Primitive cell

  volume of cell :    1530.6606

  direct lattice vectors                    reciprocal lattice vectors
     8.467142631  0.000000000  0.000000000     0.118103597  0.000000000  0.000000000
     0.000000000  8.467142631  0.000000000     0.000000000  0.118103597  0.000000000
     0.000000000  0.000000000 21.350356973     0.000000000  0.000000000  0.046837624

  length of vectors
     8.467142631  8.467142631 21.350356973     0.118103597  0.118103597  0.046837624

  position of ions in fractional coordinates (direct lattice)
     0.493231139  0.519441314  0.765629629
     0.471170868  0.593765819  0.809550423
     0.447848944  0.672307516  0.855447014
     0.250000000  0.000000000  0.351282183
     0.500000000  0.250000000  0.351282183
     0.250000000  0.250000000  0.450427394
     0.500000000  0.000000000  0.450427394
     0.250000000  0.000000000  0.550191116
     0.500000000  0.250000000  0.550191116
     0.250000000  0.250000000  0.648532086
     0.500000000  0.000000000  0.648532086
     0.250000000  0.500000000  0.351282183
     0.500000000  0.750000000  0.351282183
     0.250000000  0.750000000  0.450427394
     0.500000000  0.500000000  0.450427394
     0.250000000  0.500000000  0.550191116
     0.500000000  0.750000000  0.550191116
     0.250000000  0.750000000  0.648532086
     0.500000000  0.500000000  0.648532086
     0.750000000  0.000000000  0.351282183
     0.000000000  0.250000000  0.351282183
     0.750000000  0.250000000  0.450427394
     0.000000000  0.000000000  0.450427394
     0.750000000  0.000000000  0.550191116
     0.000000000  0.250000000  0.550191116
     0.750000000  0.250000000  0.648532086
     0.000000000  0.000000000  0.648532086
     0.750000000  0.500000000  0.351282183
     0.000000000  0.750000000  0.351282183
     0.750000000  0.750000000  0.450427394
     0.000000000  0.500000000  0.450427394
     0.750000000  0.500000000  0.550191116
     0.000000000  0.750000000  0.550191116
     0.750000000  0.750000000  0.648532086
     0.000000000  0.500000000  0.648532086
     0.250000000  0.000000000  0.450427394
     0.500000000  0.250000000  0.450427394
     0.250000000  0.250000000  0.351282183
     0.500000000  0.000000000  0.351282183
     0.250000000  0.000000000  0.650785562
     0.500000000  0.250000000  0.650785562
     0.250000000  0.250000000  0.549814593
     0.500000000  0.000000000  0.549814593
     0.250000000  0.500000000  0.450427394
     0.500000000  0.750000000  0.450427394
     0.250000000  0.750000000  0.351282183
     0.500000000  0.500000000  0.351282183
     0.250000000  0.500000000  0.650785562
     0.500000000  0.750000000  0.650785562
     0.250000000  0.750000000  0.549814593
     0.500000000  0.500000000  0.549814593
     0.750000000  0.000000000  0.450427394
     0.000000000  0.250000000  0.450427394
     0.750000000  0.250000000  0.351282183
     0.000000000  0.000000000  0.351282183
     0.750000000  0.000000000  0.650785562
     0.000000000  0.250000000  0.650785562
     0.750000000  0.250000000  0.549814593
     0.000000000  0.000000000  0.549814593
     0.750000000  0.500000000  0.450427394
     0.000000000  0.750000000  0.450427394
     0.750000000  0.750000000  0.351282183
     0.000000000  0.500000000  0.351282183
     0.750000000  0.500000000  0.650785562
     0.000000000  0.750000000  0.650785562
     0.750000000  0.750000000  0.549814593
     0.000000000  0.500000000  0.549814593

  ion indices of the primitive-cell ions
   primitive index   ion index
                 1           1
                 2           2
                 3           3
                 4           4
                 5           5
                 6           6
                 7           7
                 8           8
                 9           9
                10          10
                11          11
                12          12
                13          13
                14          14
                15          15
                16          16
                17          17
                18          18
                19          19
                20          20
                21          21
                22          22
                23          23
                24          24
                25          25
                26          26
                27          27
                28          28
[...]
   4.23357132  4.23357132 13.84639155
   6.35035697  0.00000000  7.50000000
   0.00000000  2.11678566  7.50000000
   6.35035697  2.11678566  9.61678566
   0.00000000  0.00000000  9.61678566
   6.35035697  0.00000000 11.74677673
   0.00000000  2.11678566 11.74677673
   6.35035697  2.11678566 13.84639155
   0.00000000  0.00000000 13.84639155
   6.35035697  4.23357132  7.50000000
   0.00000000  6.35035697  7.50000000
   6.35035697  6.35035697  9.61678566
   0.00000000  4.23357132  9.61678566
   6.35035697  4.23357132 11.74677673
   0.00000000  6.35035697 11.74677673
   6.35035697  6.35035697 13.84639155
   0.00000000  4.23357132 13.84639155
   2.11678566  0.00000000  9.61678566
   4.23357132  2.11678566  9.61678566
   2.11678566  2.11678566  7.50000000
   4.23357132  0.00000000  7.50000000
   2.11678566  0.00000000 13.89450407
   4.23357132  2.11678566 13.89450407
   2.11678566  2.11678566 11.73873783
   4.23357132  0.00000000 11.73873783
   2.11678566  4.23357132  9.61678566
   4.23357132  6.35035697  9.61678566
   2.11678566  6.35035697  7.50000000
   4.23357132  4.23357132  7.50000000
   2.11678566  4.23357132 13.89450407
   4.23357132  6.35035697 13.89450407
   2.11678566  6.35035697 11.73873783
   4.23357132  4.23357132 11.73873783
   6.35035697  0.00000000  9.61678566
   0.00000000  2.11678566  9.61678566
   6.35035697  2.11678566  7.50000000
   0.00000000  0.00000000  7.50000000
   6.35035697  0.00000000 13.89450407
   0.00000000  2.11678566 13.89450407
   6.35035697  2.11678566 11.73873783
   0.00000000  0.00000000 11.73873783
   6.35035697  4.23357132  9.61678566
   0.00000000  6.35035697  9.61678566
   6.35035697  6.35035697  7.50000000
   0.00000000  4.23357132  7.50000000
   6.35035697  4.23357132 13.89450407
   0.00000000  6.35035697 13.89450407
   6.35035697  6.35035697 11.73873783
   0.00000000  4.23357132 11.73873783

--------------------------------------- Iteration      FINAL  ---------------------------------------

--------------------OUTCAR has been truncated-------------------------

[...]

--------------------OUTCAR has been truncated-------------------------

  Number of pair interactions contributing to vdW energy:  786517
  Edisp (eV):   -3.66285

  FORCE on cell =-STRESS in cart. coord.  units (eV):
  Direction    XX          YY          ZZ          XY          YZ          ZX
  Alpha Z   920.18334   920.18334   920.18334
  Ewald  153447.89315153714.20380************   -82.96057   388.67534  -117.78696
  Hartree164115.20049164243.95147************   -37.23118   176.91902   -53.97975
  E(xc)   -2528.53930 -2527.83310 -2532.09809    -0.23428     1.07736    -0.32531
  Local  ************************326645.36825   111.57675  -526.09971   159.88248
  n-local -2858.25499 -2859.88522 -2881.51230     0.53669    -2.50924     0.75562
  augment  1056.75058  1055.83924  1045.93441     0.30448    -1.36251     0.40855
  Kinetic  7645.90554  7621.93731  7638.85155     7.99538   -36.63627    11.04837
  Fock        0.00000     0.00000     0.00000     0.00000     0.00000     0.00000
  vdW        -5.30972    -5.30281    -4.41862    -0.00255     0.01711    -0.00510
  Total     -29.26376   -29.26059    -2.67157    -0.01529     0.08111    -0.00211
  in kB     -30.63105   -30.62772    -2.79640    -0.01600     0.08490    -0.00221

 VOLUME and BASIS-vectors are now :
  energy-cutoff  :      600.00
  volume of cell :     1530.66
      direct lattice vectors                 reciprocal lattice vectors
     8.467142631  0.000000000  0.000000000     0.118103597  0.000000000  0.000000000
     0.000000000  8.467142631  0.000000000     0.000000000  0.118103597  0.000000000
     0.000000000  0.000000000 21.350356973     0.000000000  0.000000000  0.046837624

  length of vectors
     8.467142631  8.467142631 21.350356973     0.118103597  0.118103597  0.046837624

 FORCES acting on ions:
    Electron-Ion                     Ewald-Force                    Non-Local-Force
   -.510E+02 0.169E+03 -.106E+04   0.597E+02 -.197E+03 0.102E+04   -.863E+01 0.287E+02 0.393E+02
   -.464E+01 0.152E+02 -.104E+04   0.452E+01 -.148E+02 0.104E+04   0.113E+00 -.428E+00 -.215E+00
   0.533E+02 -.176E+03 -.123E+04   -.647E+02 0.214E+03 0.128E+04   0.114E+02 -.377E+02 -.521E+02
   0.215E+00 -.141E+00 0.206E+04   -.214E+00 0.141E+00 -.206E+04   -.604E-03 0.357E-04 -.702E+01
   -.467E-01 0.170E+00 0.206E+04   0.466E-01 -.167E+00 -.206E+04   0.594E-04 -.207E-02 -.703E+01
   0.656E+00 0.569E+00 0.723E+03   -.655E+00 -.559E+00 -.723E+03   0.483E-04 -.637E-02 0.495E+00
   -.143E+00 -.505E+00 0.723E+03   0.144E+00 0.488E+00 -.724E+03   -.117E-02 0.121E-01 0.449E+00
   0.397E+01 -.189E+01 -.613E+03   -.395E+01 0.191E+01 0.613E+03   -.154E-01 -.255E-01 -.210E+00
   -.534E+00 0.510E+01 -.606E+03   0.537E+00 -.500E+01 0.607E+03   -.361E-02 -.105E+00 -.540E+00
   0.210E+02 0.206E+02 -.194E+04   -.209E+02 -.206E+02 0.193E+04   -.102E-01 0.468E-01 0.611E+01
   -.238E+01 -.108E+02 -.194E+04   0.239E+01 0.109E+02 0.193E+04   -.637E-02 -.131E+00 0.606E+01
   0.227E+00 0.141E+00 0.206E+04   -.224E+00 -.141E+00 -.206E+04   -.261E-02 0.101E-03 -.703E+01
   -.520E-01 -.171E+00 0.206E+04   0.520E-01 0.168E+00 -.206E+04   -.692E-05 0.247E-02 -.703E+01
   0.764E+00 -.584E+00 0.724E+03   -.746E+00 0.572E+00 -.724E+03   -.125E-01 0.830E-02 0.502E+00
   -.169E+00 0.494E+00 0.724E+03   0.166E+00 -.487E+00 -.724E+03   0.229E-02 -.649E-02 0.554E+00
   0.589E+01 0.198E+01 -.605E+03   -.578E+01 -.200E+01 0.605E+03   -.111E+00 0.232E-01 -.346E+00
   -.774E+00 -.517E+01 -.604E+03   0.783E+00 0.506E+01 0.604E+03   -.916E-02 0.107E+00 -.225E+00
   0.281E+02 -.223E+02 -.192E+04   -.282E+02 0.224E+02 0.191E+04   0.922E-01 -.529E-01 0.612E+01
   -.516E+01 0.164E+02 -.186E+04   0.520E+01 -.166E+02 0.185E+04   -.420E-01 0.151E+00 0.536E+01
   -.215E+00 -.136E+00 0.206E+04   0.214E+00 0.136E+00 -.206E+04   0.625E-03 0.157E-03 -.702E+01
   0.466E-01 0.158E+00 0.206E+04   -.466E-01 -.158E+00 -.206E+04   -.619E-04 -.227E-03 -.703E+01
   -.654E+00 0.542E+00 0.723E+03   0.653E+00 -.538E+00 -.723E+03   -.112E-03 -.191E-02 0.488E+00
   0.140E+00 -.393E+00 0.722E+03   -.142E+00 0.397E+00 -.722E+03   0.149E-02 -.250E-02 0.489E+00
   -.395E+01 -.167E+01 -.614E+03   0.394E+01 0.169E+01 0.614E+03   0.148E-01 -.187E-01 -.213E+00
   0.514E+00 0.323E+01 -.616E+03   -.517E+00 -.322E+01 0.616E+03   0.364E-02 -.147E-01 -.224E+00
   -.206E+02 0.192E+02 -.194E+04   0.206E+02 -.192E+02 0.194E+04   0.107E-01 0.164E-01 0.611E+01
   0.214E+01 -.543E+01 -.196E+04   -.214E+01 0.546E+01 0.196E+04   0.658E-02 -.297E-01 0.606E+01
   -.227E+00 0.136E+00 0.206E+04   0.224E+00 -.136E+00 -.206E+04   0.255E-02 0.330E-04 -.703E+01
   0.517E-01 -.159E+00 0.206E+04   -.518E-01 0.158E+00 -.206E+04   0.626E-04 0.396E-03 -.702E+01
   -.762E+00 -.556E+00 0.723E+03   0.743E+00 0.549E+00 -.724E+03   0.133E-01 0.462E-02 0.504E+00
   0.169E+00 0.389E+00 0.723E+03   -.165E+00 -.396E+00 -.723E+03   -.320E-02 0.483E-02 0.449E+00
   -.586E+01 0.174E+01 -.606E+03   0.576E+01 -.176E+01 0.606E+03   0.110E+00 0.174E-01 -.440E+00
   0.728E+00 -.327E+01 -.612E+03   -.738E+00 0.325E+01 0.613E+03   0.101E-01 0.159E-01 -.195E+00
   -.271E+02 -.205E+02 -.193E+04   0.272E+02 0.205E+02 0.192E+04   -.887E-01 -.191E-01 0.612E+01
   0.322E+01 0.578E+01 -.195E+04   -.326E+01 -.581E+01 0.194E+04   0.397E-01 0.287E-01 0.607E+01
   0.568E+00 -.298E+00 0.542E+03   -.561E+00 0.298E+00 -.541E+03   -.999E-02 0.300E-03 -.725E-01
   -.917E-01 0.531E+00 0.542E+03   0.920E-01 -.548E+00 -.542E+03   -.489E-03 0.225E-01 -.103E+00
   0.158E+00 0.123E+00 0.155E+04   -.157E+00 -.121E+00 -.155E+04   -.138E-02 -.262E-02 0.349E+01
   -.359E-01 -.110E+00 0.155E+04   0.362E-01 0.110E+00 -.155E+04   -.345E-03 0.123E-02 0.349E+01
   0.110E+02 -.719E+01 -.149E+04   -.110E+02 0.720E+01 0.149E+04   -.484E-01 -.162E-01 -.515E+01
   -.192E+01 0.253E+02 -.146E+04   0.192E+01 -.252E+02 0.147E+04   0.599E-03 -.163E+00 -.518E+01
   0.333E+01 0.298E+01 -.451E+03   -.330E+01 -.297E+01 0.451E+03   -.183E-01 -.765E-02 0.383E+00
   -.458E+00 -.156E+01 -.450E+03   0.459E+00 0.157E+01 0.450E+03   -.239E-03 -.162E-01 0.395E+00
   0.655E+00 0.295E+00 0.542E+03   -.678E+00 -.290E+00 -.542E+03   0.306E-01 -.522E-02 -.111E+00
   -.116E+00 -.550E+00 0.543E+03   0.115E+00 0.578E+00 -.542E+03   0.720E-03 -.372E-01 -.118E+00
   0.170E+00 -.123E+00 0.155E+04   -.167E+00 0.122E+00 -.155E+04   -.399E-02 0.249E-02 0.349E+01
   -.387E-01 0.111E+00 0.155E+04   0.383E-01 -.110E+00 -.155E+04   0.523E-03 -.181E-02 0.349E+01
   0.303E+02 0.863E+01 -.145E+04   -.301E+02 -.863E+01 0.146E+04   -.205E+00 0.817E-02 -.512E+01
   -.367E+01 -.291E+02 -.144E+04   0.368E+01 0.289E+02 0.144E+04   -.447E-02 0.237E+00 -.505E+01
   0.372E+01 -.304E+01 -.447E+03   -.371E+01 0.303E+01 0.447E+03   -.202E-02 0.949E-02 0.498E+00
   -.541E+00 0.164E+01 -.448E+03   0.547E+00 -.166E+01 0.449E+03   -.517E-02 0.191E-01 -.146E+00
   -.568E+00 -.278E+00 0.541E+03   0.561E+00 0.280E+00 -.541E+03   0.918E-02 -.300E-02 -.786E-01
   0.911E-01 0.451E+00 0.541E+03   -.915E-01 -.443E+00 -.541E+03   0.589E-03 -.120E-01 -.836E-01
   -.158E+00 0.121E+00 0.155E+04   0.157E+00 -.119E+00 -.155E+04   0.138E-02 -.186E-02 0.349E+01
   0.359E-01 -.987E-01 0.155E+04   -.361E-01 0.995E-01 -.155E+04   0.321E-03 -.115E-02 0.349E+01
   -.108E+02 -.596E+01 -.149E+04   0.108E+02 0.596E+01 0.149E+04   0.485E-01 -.829E-02 -.514E+01
   0.164E+01 0.823E+01 -.149E+04   -.164E+01 -.819E+01 0.150E+04   0.121E-02 -.421E-01 -.514E+01
   -.331E+01 0.292E+01 -.452E+03   0.329E+01 -.290E+01 0.452E+03   0.189E-01 -.129E-01 0.371E+00
   0.447E+00 -.120E+01 -.457E+03   -.448E+00 0.121E+01 0.456E+03   0.108E-02 -.341E-02 0.339E+00
   -.652E+00 0.271E+00 0.542E+03   0.673E+00 -.268E+00 -.542E+03   -.282E-01 -.392E-02 -.106E+00
   0.111E+00 -.462E+00 0.542E+03   -.109E+00 0.459E+00 -.542E+03   -.275E-02 0.581E-02 -.653E-01
   -.170E+00 -.121E+00 0.155E+04   0.167E+00 0.119E+00 -.155E+04   0.390E-02 0.165E-02 0.349E+01
   0.385E-01 0.990E-01 0.155E+04   -.382E-01 -.997E-01 -.155E+04   -.414E-03 0.936E-03 0.349E+01
   -.290E+02 0.701E+01 -.146E+04   0.288E+02 -.701E+01 0.146E+04   0.186E+00 0.460E-02 -.516E+01
   0.281E+01 -.850E+01 -.149E+04   -.282E+01 0.846E+01 0.149E+04   0.103E-01 0.451E-01 -.515E+01
   -.369E+01 -.296E+01 -.449E+03   0.368E+01 0.295E+01 0.449E+03   0.237E-02 0.145E-01 0.452E+00
   0.508E+00 0.123E+01 -.451E+03   -.514E+00 -.124E+01 0.451E+03   0.508E-02 0.419E-02 0.392E+00
   -.285E+01 0.945E+01 0.310E+02   0.151E-12 -.373E-12 0.398E-12   0.285E+01 -.945E+01 -.309E+02

 POSITION                                       TOTAL-FORCE (eV/Angst)
      4.18720      4.38441     16.42899        -0.000453      0.002476     -0.000816
      3.98980      5.03930     17.34315        -0.000367      0.003951      0.004531
      3.78148      5.72934     18.29799        -0.000682      0.003801      0.002865
      2.11679      0.00000      7.50000         0.000312      0.000001      0.392656
      4.23357      2.11679      7.50000        -0.000027      0.000649      0.393326
      2.11679      2.11679      9.61679         0.001048      0.003019      0.019007
      4.23357      0.00000      9.61679         0.000444     -0.004233      0.027087
      2.11729      0.00053     11.74413        -0.000765     -0.002032      0.000711
      4.23373      2.11974     11.74823        -0.000620     -0.003105      0.005771
      2.11725      2.11546     13.84162        -0.000389      0.000303      0.004421
      4.23365      0.00192     13.84004         0.000130     -0.000008      0.003468
      2.11679      4.23357      7.50000         0.000790      0.000030      0.394066
      4.23357      6.35036      7.50000        -0.000019     -0.000711      0.394480
      2.11679      6.35036      9.61679         0.005061     -0.003805      0.017974
      4.23357      4.23357      9.61679        -0.000562      0.001309      0.032631
      2.12073      4.23228     11.74801        -0.002564      0.002618      0.004560
      4.23382      6.34578     11.74820        -0.000682      0.002780      0.004080
      2.11437      6.35104     13.83521         0.001257     -0.000789      0.001667
      4.23533      4.22680     13.88691        -0.000016      0.000146      0.008234
      6.35036      0.00000      7.50000        -0.000292     -0.000016      0.393113
      0.00000      2.11679      7.50000         0.000005      0.000164      0.393575
      6.35036      2.11679      9.61679        -0.001025      0.001477      0.019534
      0.00000      0.00000      9.61679        -0.000607      0.000952      0.016609
      6.34975      0.00023     11.74439         0.000963     -0.001965      0.001789
     -0.00014      2.11694     11.74460         0.000587     -0.000989      0.002960
      6.34997      2.11586     13.84191         0.000954     -0.000380      0.005617
     -0.00024      0.00009     13.84456        -0.000151      0.000864     -0.007687
      6.35036      4.23357      7.50000        -0.000780      0.000068      0.393715
      0.00000      6.35036      7.50000         0.000004     -0.000171      0.392200
      6.35036      6.35036      9.61679        -0.005519     -0.002684      0.018267
      0.00000      4.23357      9.61679         0.001059     -0.002037      0.026860
      6.34660      4.23238     11.74806         0.002860      0.002561      0.005146
     -0.00045      6.34938     11.74385         0.000652      0.000979     -0.000382
      6.35204      6.34986     13.83822        -0.001053     -0.000441      0.002636
     -0.00078      4.23218     13.84005         0.000088     -0.000146      0.003445
      2.11679      0.00000      9.61679        -0.002961     -0.000243      0.052266
      4.23357      2.11679      9.61679        -0.000239      0.005434      0.063935
      2.11679      2.11679      7.50000        -0.000384     -0.000708     -0.476103
      4.23357      0.00000      7.50000        -0.000100      0.000383     -0.475990
      2.11529     -0.00131     13.89491        -0.000237      0.000388     -0.002981
      4.23348      2.10879     13.88583        -0.000013     -0.002892      0.000423
      2.11547      2.11567     11.73831         0.003509      0.003736     -0.004989
      4.23341     -0.00229     11.73688         0.000564      0.002212     -0.000455
      2.11679      4.23357      9.61679         0.007363     -0.000884      0.060076
      4.23357      6.35036      9.61679         0.000084     -0.009039      0.058433
      2.11679      6.35036      7.50000        -0.001127      0.000729     -0.475746
      4.23357      4.23357      7.50000         0.000150     -0.000501     -0.477299
      2.11041      4.23402     13.89410        -0.001939      0.000883      0.000854
      4.23292      6.35613     13.90024        -0.000313      0.001893      0.001873
      2.11638      6.35069     11.73792         0.002931     -0.002842     -0.000316
      4.23323      4.23427     11.74577         0.000801     -0.002354     -0.002019
      6.35036      0.00000      9.61679         0.002754     -0.001072      0.051695
      0.00000      2.11679      9.61679         0.000256     -0.003376      0.051154
      6.35036      2.11679      7.50000         0.000377     -0.000492     -0.476191
      0.00000      0.00000      7.50000         0.000087     -0.000297     -0.475467
      6.35170     -0.00141     13.89525         0.000182      0.000446     -0.003206
      0.00018      2.11487     13.89515        -0.000018      0.000194     -0.003901
      6.35169      2.11527     11.73809        -0.003486      0.003789     -0.005915
      0.00007     -0.00086     11.73801        -0.000294      0.001279      0.002811
      6.35036      4.23357      9.61679        -0.006764     -0.000544      0.061858
      0.00000      6.35036      9.61679        -0.000587      0.001963      0.053091
      6.35036      6.35036      7.50000         0.001095      0.000488     -0.475903
      0.00000      4.23357      7.50000        -0.000122      0.000288     -0.476024
      6.35702      4.23352     13.88988         0.002439      0.000598      0.000722
      0.00010      6.35099     13.89513         0.000037      0.000561     -0.002149
      6.35060      6.35092     11.73830        -0.003112     -0.003106     -0.001654
      0.00054      4.23364     11.73688        -0.000577     -0.001550     -0.000995
    total drift:                                0.000168     -0.002070      0.019029

  FREE ENERGIE OF THE ION-ELECTRON SYSTEM (eV)
  free  energy   TOTEN  =      -397.20950970 eV

  energy  without entropy=     -397.20950970  energy(sigma->0) =     -397.20950970

 d Force = 0.5442707E-05[ 0.496E-05, 0.592E-05]  d Energy = 0.5865137E-05-0.422E-06
 d Force = 0.6321024E+00[ 0.632E+00, 0.632E+00]  d Ewald  = 0.6321028E+00-0.409E-06

 reached required accuracy - stopping structural energy minimisation