 vasp.6.3.0 20Jan22 (build Apr  1 2022 16:44:48) complex
 executed on        HPECrayEX_GCC date 2022.10.10  23:52:00

 INCAR:
   SYSTEM = MgO-rocksalt
   ISMEAR = 0
   SIGMA = 0.05
   EDIFF = 1E-6
   ALGO = ALL
   ISTART = 0
   IBRION = -1
   NSW = 0
   ISYM = 0
   DIPOL = 0.5 0.5 0.5
   IDIPOL = 3
   LDIPOL = .TRUE.
   LHFCALC = .TRUE.
   GGA = B5
   AEXX = 0.2
   AGGAX = 0.72
   AGGAC = 0.81
   ALDAC = 0.19
   IVDW = 1
   VDW_S6 = 1.05
   VDW_C6 = 1.75 0.14 0.63 0.70
   VDW_R0 = 1.452 1.001 1.243 1.342
   ENCUT = 600
   PREC = Accurate
   LASPH = .TRUE.
   LREAL = .FALSE.
   ISPIN = 1
   NELM = 200
   NELMIN = 8
   NCORE = 8
   KPAR = 1
   LWAVE = .FALSE.
   LCHARG = .FALSE.

 POTCAR:    PAW_PBE C 08Apr2002
 POTCAR:    PAW_PBE H 15Jun2001
 POTCAR:    PAW_PBE Mg_pv 13Apr2007
 POTCAR:    PAW_PBE O 08Apr2002
 POTCAR:    PAW_PBE C 08Apr2002
   VRHFIN =C: s2p2

   TITEL  = PAW_PBE C 08Apr2002
   POMASS =   12.011; ZVAL   =    4.000    mass and valenz
   ENMAX  =  400.000; ENMIN  =  300.000 eV

   TITEL  = PAW_PBE H 15Jun2001
   POMASS =    1.000; ZVAL   =    1.000    mass and valenz
   ENMAX  =  250.000; ENMIN  =  200.000 eV

   TITEL  = PAW_PBE Mg_pv 13Apr2007
   POMASS =   24.305; ZVAL   =    8.000    mass and valenz
   ENMAX  =  403.929; ENMIN  =  302.947 eV

   TITEL  = PAW_PBE O 08Apr2002
   POMASS =   16.000; ZVAL   =    6.000    mass and valenz
   ENMAX  =  400.000; ENMIN  =  300.000 eV

  PAW_PBE C 08Apr2002                   :
  PAW_PBE H 15Jun2001                   :
  PAW_PBE Mg_pv 13Apr2007               :
  PAW_PBE O 08Apr2002                   :

 POSCAR:  C  H Mg  O
  positions in direct lattice
 exchange correlation table for  LEXCH =       12
   RHO(1)=    0.500       N(1)  =     2000
   RHO(2)=  100.500       N(2)  =     4000

 ion  position               nearest neighbor table
   1  0.500  0.500  0.791-   3 1.09   2 1.09   4 1.09   5 1.09
   2  0.500  0.606  0.820-   1 1.09
   3  0.500  0.394  0.820-   1 1.09
   4  0.607  0.500  0.762-   1 1.09
   5  0.393  0.500  0.762-   1 1.09
   6  0.250  0.000  0.352-  40 2.10  41 2.10  48 2.10  57 2.10  38 2.10
   7  0.500  0.250  0.352-  40 2.10  41 2.10  49 2.10  56 2.10  39 2.10
   8  0.250  0.250  0.451-  38 2.10  39 2.10  46 2.10  55 2.10  40 2.10  44 2.11
   9  0.500  0.000  0.451-  38 2.10  39 2.10  47 2.10  54 2.10  41 2.10  45 2.10
  10  0.250  1.000  0.550-  45 2.10  44 2.10  52 2.10  61 2.10  38 2.11  42 2.13
  11  0.500  0.250  0.550-  53 2.10  60 2.10  44 2.10  45 2.10  39 2.11  43 2.12
  12  0.250  0.250  0.648-  44 2.09  42 2.10  43 2.10  59 2.10  50 2.10
  13  0.500  1.000  0.648-  45 2.09  51 2.10  43 2.10  58 2.10  42 2.10
  14  0.250  0.500  0.352-  40 2.10  48 2.10  49 2.10  65 2.10  46 2.10
  15  0.500  0.750  0.352-  41 2.10  48 2.10  49 2.10  64 2.10  47 2.10
  16  0.250  0.750  0.451-  38 2.10  46 2.10  47 2.10  63 2.10  48 2.10  52 2.11
  17  0.500  0.500  0.451-  39 2.10  46 2.10  47 2.10  62 2.10  49 2.10  53 2.11
  18  0.250  0.500  0.550-  53 2.10  44 2.10  52 2.10  69 2.10  46 2.11  50 2.13
  19  0.500  0.750  0.550-  53 2.10  68 2.10  52 2.10  45 2.10  47 2.11  51 2.12
  20  0.250  0.750  0.648-  52 2.09  42 2.10  51 2.10  67 2.10  50 2.10
  21  0.500  0.500  0.648-  43 2.10  51 2.10  50 2.10  66 2.10  53 2.10
  22  0.750  0.000  0.352-  41 2.10  56 2.10  57 2.10  64 2.10  54 2.10
  23  0.000  0.250  0.352-  40 2.10  56 2.10  57 2.10  65 2.10  55 2.10
  24  0.750  0.250  0.451-  39 2.10  54 2.10  55 2.10  62 2.10  56 2.10  60 2.11
  25  0.000  0.000  0.451-  38 2.10  54 2.10  55 2.10  63 2.10  57 2.10  61 2.11
  26  0.750  1.000  0.550-  45 2.10  60 2.10  68 2.10  61 2.10  54 2.11  58 2.13
  27  0.000  0.250  0.550-  44 2.10  60 2.10  69 2.10  61 2.10  55 2.11  59 2.13
  28  0.750  0.250  0.648-  60 2.09  58 2.10  43 2.10  59 2.10  66 2.10
  29  1.000  0.000  0.648-  61 2.09  58 2.10  42 2.10  59 2.10  67 2.10
  30  0.750  0.500  0.352-  49 2.10  56 2.10  64 2.10  65 2.10  62 2.10
  31  0.000  0.750  0.352-  48 2.10  57 2.10  64 2.10  65 2.10  63 2.10
  32  0.750  0.750  0.451-  47 2.10  54 2.10  62 2.10  63 2.10  64 2.10  68 2.11
  33  0.000  0.500  0.451-  46 2.10  55 2.10  62 2.10  63 2.10  65 2.10  69 2.11
  34  0.750  0.500  0.550-  53 2.10  60 2.10  68 2.10  69 2.10  62 2.11  66 2.13
  35  0.000  0.750  0.550-  52 2.10  68 2.10  69 2.10  61 2.10  63 2.11  67 2.13
  36  0.750  0.750  0.648-  68 2.09  58 2.10  51 2.10  67 2.10  66 2.10
  37  0.000  0.500  0.648-  69 2.09  50 2.10  66 2.10  59 2.10  67 2.10
  38  0.250  0.000  0.451-   8 2.10   9 2.10  16 2.10  25 2.10   6 2.10  10 2.11
  39  0.500  0.250  0.451-   8 2.10   9 2.10  17 2.10  24 2.10   7 2.10  11 2.11
  40  0.250  0.250  0.352-   6 2.10   7 2.10  14 2.10  23 2.10   8 2.10
  41  0.500  0.000  0.352-   6 2.10   7 2.10  15 2.10  22 2.10   9 2.10
  42  0.250  1.000  0.650-  20 2.10  12 2.10  29 2.10  13 2.10  10 2.13
  43  0.500  0.250  0.650-  13 2.10  12 2.10  28 2.10  21 2.10  11 2.12
  44  0.250  0.250  0.550-  12 2.09  27 2.10  18 2.10  10 2.10  11 2.10   8 2.11
  45  0.500  0.000  0.549-  13 2.09  26 2.10  10 2.10  11 2.10  19 2.10   9 2.10
  46  0.250  0.500  0.451-   8 2.10  16 2.10  17 2.10  33 2.10  14 2.10  18 2.11
  47  0.500  0.750  0.451-   9 2.10  16 2.10  17 2.10  32 2.10  15 2.10  19 2.11
  48  0.250  0.750  0.352-   6 2.10  14 2.10  15 2.10  31 2.10  16 2.10
  49  0.500  0.500  0.352-   7 2.10  14 2.10  15 2.10  30 2.10  17 2.10
  50  0.250  0.500  0.650-  37 2.10  21 2.10  20 2.10  12 2.10  18 2.13
  51  0.500  0.750  0.650-  13 2.10  20 2.10  36 2.10  21 2.10  19 2.12
  52  0.250  0.750  0.550-  20 2.09  35 2.10  18 2.10  10 2.10  19 2.10  16 2.11
  53  0.500  0.500  0.550-  18 2.10  34 2.10  11 2.10  19 2.10  21 2.10  17 2.11
  54  0.750  0.000  0.451-   9 2.10  24 2.10  25 2.10  32 2.10  22 2.10  26 2.11
  55  0.000  0.250  0.451-   8 2.10  24 2.10  25 2.10  33 2.10  23 2.10  27 2.11
  56  0.750  0.250  0.352-   7 2.10  22 2.10  23 2.10  30 2.10  24 2.10
  57  0.000  0.000  0.352-   6 2.10  22 2.10  23 2.10  31 2.10  25 2.10
  58  0.750  1.000  0.650-  36 2.10  28 2.10  29 2.10  13 2.10  26 2.13
  59  1.000  0.250  0.650-  29 2.10  28 2.10  12 2.10  37 2.10  27 2.13
  60  0.750  0.250  0.550-  28 2.09  27 2.10  34 2.10  26 2.10  11 2.10  24 2.11
  61  0.000  0.000  0.550-  29 2.09  27 2.10  35 2.10  10 2.10  26 2.10  25 2.11
  62  0.750  0.500  0.451-  17 2.10  24 2.10  32 2.10  33 2.10  30 2.10  34 2.11
  63  0.000  0.750  0.451-  16 2.10  25 2.10  32 2.10  33 2.10  31 2.10  35 2.11
  64  0.750  0.750  0.352-  15 2.10  22 2.10  30 2.10  31 2.10  32 2.10
  65  0.000  0.500  0.352-  14 2.10  23 2.10  30 2.10  31 2.10  33 2.10
  66  0.750  0.500  0.650-  37 2.10  21 2.10  36 2.10  28 2.10  34 2.13
  67  0.000  0.750  0.650-  29 2.10  36 2.10  20 2.10  37 2.10  35 2.13
  68  0.750  0.750  0.550-  36 2.09  35 2.10  34 2.10  26 2.10  19 2.10  32 2.11
  69  0.000  0.500  0.550-  37 2.09  27 2.10  35 2.10  34 2.10  18 2.10  33 2.11

IMPORTANT INFORMATION: All symmetrisations will be switched off!
NOSYMM: (Re-)initialisation of all symmetry stuff for point group C_1.

                                     Primitive cell

  volume of cell :    1504.9259

  direct lattice vectors                    reciprocal lattice vectors
     8.404861995  0.000000000  0.000000000     0.118978753  0.000000000  0.000000000
     0.000000000  8.404861995  0.000000000     0.000000000  0.118978753  0.000000000
     0.000000000  0.000000000 21.303646496     0.000000000  0.000000000  0.046940321

  length of vectors
     8.404861995  8.404861995 21.303646496     0.118978753  0.118978753  0.046940321

  position of ions in fractional coordinates (direct lattice)
     0.500004386  0.499989967  0.791043301
     0.499999825  0.606227586  0.820409750
     0.499999765  0.393785687  0.820406796
     0.606910546  0.500001361  0.761885727
     0.393083231  0.500001337  0.761884491
     0.250000000  0.000000000  0.352052406
     0.500000000  0.250000000  0.352052406
     0.250000000  0.250000000  0.450684135
     0.500000000  0.000000000  0.450684135
     0.250043199  0.999999918  0.549725061
     0.500000085  0.250159571  0.549852836
     0.250051584  0.249754850  0.647552537
     0.500000097  0.999999780  0.647560896
     0.250000000  0.500000000  0.352052406
     0.500000000  0.750000000  0.352052406
     0.250000000  0.750000000  0.450684135
     0.500000000  0.500000000  0.450684135
     0.250169332  0.499999894  0.549858041
     0.500000093  0.749840404  0.549852830
     0.250051899  0.750244941  0.647552425
     0.499999782  0.499999870  0.648412252
     0.750000000  0.000000000  0.352052406
     0.000000000  0.250000000  0.352052406
     0.750000000  0.250000000  0.450684135
     0.000000000  0.000000000  0.450684135
     0.749956456  0.999999939  0.549725121
     0.000000020  0.250038579  0.549757268
     0.749948451  0.249754553  0.647552496
     0.999999867  0.000000162  0.647643108
     0.750000000  0.500000000  0.352052406
     0.000000000  0.750000000  0.352052406
     0.750000000  0.750000000  0.450684135
     0.000000000  0.500000000  0.450684135
     0.749831476  0.499999890  0.549858178
     0.000000032  0.749961254  0.549757188
     0.749948165  0.750245215  0.647552385
     0.000000026  0.499999738  0.647604791
     0.250000000  0.000000000  0.450684135
     0.500000000  0.250000000  0.450684135
     0.250000000  0.250000000  0.352052406
     0.500000000  0.000000000  0.352052406
     0.249909655  0.999999827  0.649710822
     0.499999975  0.249746272  0.649555862
     0.249903387  0.250021089  0.549504847
     0.500000116  0.000000006  0.549435457
     0.250000000  0.500000000  0.450684135
     0.500000000  0.750000000  0.450684135
     0.250000000  0.750000000  0.352052406
     0.500000000  0.500000000  0.352052406
     0.249737426  0.499999986  0.649903413
     0.499999969  0.750253468  0.649555893
     0.249903461  0.749978717  0.549504850
     0.500000001  0.499999846  0.549664849
     0.750000000  0.000000000  0.450684135
     0.000000000  0.250000000  0.450684135
     0.750000000  0.250000000  0.352052406
     0.000000000  0.000000000  0.352052406
     0.750090209  0.999999879  0.649710738
     0.999999998  0.249934171  0.649755467
     0.750096622  0.250021004  0.549504838
     0.000000002  0.000000075  0.549502891
     0.750000000  0.500000000  0.450684135
     0.000000000  0.750000000  0.450684135
     0.750000000  0.750000000  0.352052406
     0.000000000  0.500000000  0.352052406
     0.750262592  0.499999965  0.649903405
     0.000000014  0.750065601  0.649755421
     0.750096575  0.749978818  0.549504849
     0.000000054  0.499999760  0.549525334

  ion indices of the primitive-cell ions
   primitive index   ion index
                 1           1
                 2           2
                 3           3
                 4           4
                 5           5
                 6           6
                 7           7
                 8           8
                 9           9
                10          10
                11          11
                12          12
                13          13
                14          14
                15          15
                16          16
[...]
   4.20243100  2.10121550  7.50000000
   2.10121550  2.10121550  9.60121550
   4.20243100  0.00000000  9.60121550
   2.10157858  8.40486131 11.71114837
   4.20243171  2.10255667 11.71387044
   2.10164905  2.09915505 13.79523034
   4.20243182  8.40486014 13.79540841
   2.10121550  4.20243100  7.50000000
   4.20243100  6.30364650  7.50000000
   2.10121550  6.30364650  9.60121550
   4.20243100  4.20243100  9.60121550
   2.10263871  4.20243011 11.71398132
   4.20243178  6.30230511 11.71387032
   2.10165171  6.30570519 13.79522795
   4.20242917  4.20242990 13.81354540
   6.30364650  0.00000000  7.50000000
   0.00000000  2.10121550  7.50000000
   6.30364650  2.10121550  9.60121550
   0.00000000  0.00000000  9.60121550
   6.30328052  8.40486148 11.71114966
   0.00000016  2.10153975 11.71183449
   6.30321323  2.09915255 13.79522946
   8.40486088  0.00000136 13.79715982
   6.30364650  4.20243100  7.50000000
   0.00000000  6.30364650  7.50000000
   6.30364650  6.30364650  9.60121550
   0.00000000  4.20243100  9.60121550
   6.30223008  4.20243007 11.71398425
   0.00000026  6.30332084 11.71183280
   6.30321083  6.30570750 13.79522710
   0.00000022  4.20242880 13.79634354
   2.10121550  0.00000000  9.60121550
   4.20243100  2.10121550  9.60121550
   2.10121550  2.10121550  7.50000000
   4.20243100  0.00000000  7.50000000
   2.10045616  8.40486054 13.84120969
   4.20243079  2.09908295 13.83790846
   2.10040348  2.10139275 11.70645701
   4.20243197  0.00000005 11.70497875
   2.10121550  4.20243100  9.60121550
   4.20243100  6.30364650  9.60121550
   2.10121550  6.30364650  7.50000000
   4.20243100  4.20243100  7.50000000
   2.09900860  4.20243088 13.84531256
   4.20243074  6.30577686 13.83790913
   2.10040410  6.30346761 11.70645706
   4.20243101  4.20242970 11.70986564
   6.30364650  0.00000000  9.60121550
   0.00000000  2.10121550  9.60121550
   6.30364650  2.10121550  7.50000000
   0.00000000  0.00000000  7.50000000
   6.30440469  8.40486098 13.84120789
   8.40486197  2.10066222 13.84216077
   6.30445859  2.10139203 11.70645682
   0.00000002  0.00000063 11.70641533
   6.30364650  4.20243100  9.60121550
   0.00000000  6.30364650  9.60121550
   6.30364650  6.30364650  7.50000000
   0.00000000  4.20243100  7.50000000
   6.30585354  4.20243070 13.84531240
   0.00000012  6.30419786 13.84215979
   6.30445819  6.30346846 11.70645705
   0.00000045  4.20242898 11.70689345

--------------------------------------- Iteration      FINAL  ---------------------------------------

--------------------OUTCAR has been truncated-------------------------

[...]

--------------------OUTCAR has been truncated-------------------------

  DFT-D2 method for vdW energy calculation

  Parameters of vdW forcefield:
         C6(Jnm^6/mol)     R0(A)
   C        1.750          1.452
   H        0.140          1.001
   Mg       0.630          1.243
   O        0.700          1.342

  vdW correction parametrized for the method Á-ü      

  IVDW =   1
  VDW_RADIUS =    50.000 A
  VDW_S6 =     1.050
  VDW_SR =     1.000
  VDW_D =    20.000
  LVDW_EWALD = F

  Number of pair interactions contributing to vdW energy:  847421
  Edisp (eV):   -5.35177

 VOLUME and BASIS-vectors are now :
  energy-cutoff  :      600.00
  volume of cell :     1504.93
      direct lattice vectors                 reciprocal lattice vectors
     8.404861995  0.000000000  0.000000000     0.118978753  0.000000000  0.000000000
     0.000000000  8.404861995  0.000000000     0.000000000  0.118978753  0.000000000
     0.000000000  0.000000000 21.303646496     0.000000000  0.000000000  0.046940321

  length of vectors
     8.404861995  8.404861995 21.303646496     0.118978753  0.118978753  0.046940321

 FORCES acting on ions:
    Electron-Ion                     Ewald-Force                    Non-Local-Force
   0.253E-02 -.505E-02 -.960E+03   -.394E-02 0.823E-02 0.961E+03   -.185E-02 0.431E-02 -.524E-01
   0.162E-02 -.433E+02 -.238E+03   -.173E-02 0.480E+02 0.241E+03   0.239E-03 -.458E+01 -.320E+01
   0.164E-02 0.433E+02 -.238E+03   -.175E-02 -.480E+02 0.241E+03   0.242E-03 0.458E+01 -.320E+01
   -.436E+02 -.405E-02 -.243E+03   0.484E+02 0.433E-02 0.239E+03   -.467E+01 -.592E-03 0.309E+01
   0.436E+02 -.404E-02 -.243E+03   -.484E+02 0.432E-02 0.239E+03   0.466E+01 -.590E-03 0.309E+01
   0.131E+00 0.105E-04 0.210E+04   -.130E+00 -.935E-05 -.209E+04   -.639E-03 -.233E-05 -.641E+01
   -.642E-05 0.112E+00 0.210E+04   0.790E-05 -.110E+00 -.209E+04   0.151E-05 -.119E-02 -.642E+01
   0.522E+00 0.442E+00 0.719E+03   -.516E+00 -.430E+00 -.719E+03   -.318E-02 -.727E-02 0.395E+00
   0.160E-03 0.332E-04 0.719E+03   -.151E-03 -.272E-04 -.719E+03   -.567E-05 -.502E-05 0.358E+00
   0.249E+01 0.200E-03 -.658E+03   -.248E+01 -.168E-03 0.658E+03   -.748E-02 -.215E-04 -.188E+00
   0.285E-03 0.390E+01 -.652E+03   -.278E-03 -.385E+01 0.652E+03   -.100E-04 -.398E-01 -.350E+00
   0.152E+02 0.152E+02 -.202E+04   -.152E+02 -.153E+02 0.201E+04   -.117E-01 0.803E-01 0.554E+01
   0.992E-03 0.645E-04 -.203E+04   -.102E-02 -.105E-04 0.202E+04   0.356E-05 -.277E-04 0.552E+01
   0.141E+00 -.112E-04 0.210E+04   -.139E+00 0.104E-04 -.209E+04   -.108E-02 -.451E-06 -.641E+01
   -.102E-04 -.112E+00 0.210E+04   0.993E-05 0.110E+00 -.209E+04   0.661E-06 0.119E-02 -.642E+01
   0.522E+00 -.442E+00 0.719E+03   -.516E+00 0.430E+00 -.719E+03   -.319E-02 0.727E-02 0.395E+00
   -.285E-03 -.977E-04 0.720E+03   0.307E-03 0.895E-04 -.720E+03   -.125E-04 0.636E-05 0.424E+00
   0.407E+01 -.205E-03 -.653E+03   -.403E+01 0.192E-03 0.653E+03   -.398E-01 0.841E-05 -.206E+00
   0.218E-03 -.390E+01 -.652E+03   -.213E-03 0.385E+01 0.652E+03   -.812E-05 0.398E-01 -.350E+00
   0.152E+02 -.152E+02 -.202E+04   -.152E+02 0.153E+02 0.201E+04   -.117E-01 -.803E-01 0.554E+01
   -.808E-03 -.803E-03 -.197E+04   0.769E-03 0.723E-03 0.196E+04   0.490E-04 0.478E-04 0.546E+01
   -.131E+00 0.139E-04 0.210E+04   0.130E+00 -.114E-04 -.209E+04   0.643E-03 -.238E-05 -.641E+01
   0.525E-05 0.103E+00 0.210E+04   -.722E-05 -.102E+00 -.209E+04   0.200E-05 -.735E-03 -.641E+01
   -.522E+00 0.441E+00 0.719E+03   0.516E+00 -.430E+00 -.719E+03   0.318E-02 -.727E-02 0.395E+00
   0.403E-04 0.107E-03 0.718E+03   -.560E-04 -.844E-04 -.718E+03   0.807E-05 -.157E-04 0.392E+00
   -.249E+01 0.284E-03 -.658E+03   0.248E+01 -.253E-03 0.658E+03   0.757E-02 -.232E-04 -.188E+00
   -.184E-03 0.233E+01 -.658E+03   0.201E-03 -.233E+01 0.658E+03   -.132E-04 -.846E-02 -.196E+00
   -.152E+02 0.152E+02 -.202E+04   0.152E+02 -.153E+02 0.201E+04   0.117E-01 0.803E-01 0.554E+01
   -.546E-03 0.146E-02 -.204E+04   0.607E-03 -.150E-02 0.203E+04   -.213E-04 -.371E-05 0.551E+01
   -.141E+00 -.137E-04 0.210E+04   0.139E+00 0.124E-04 -.209E+04   0.108E-02 0.170E-05 -.641E+01
   0.656E-05 -.103E+00 0.210E+04   -.924E-05 0.102E+00 -.209E+04   0.246E-05 0.739E-03 -.641E+01
   -.522E+00 -.441E+00 0.719E+03   0.516E+00 0.430E+00 -.719E+03   0.319E-02 0.727E-02 0.395E+00
   0.101E-04 -.118E-03 0.718E+03   -.126E-04 0.916E-04 -.719E+03   0.330E-05 0.161E-04 0.393E+00
   -.407E+01 -.270E-03 -.653E+03   0.403E+01 0.254E-03 0.653E+03   0.397E-01 0.128E-04 -.206E+00
   -.152E-03 -.234E+01 -.658E+03   0.165E-03 0.233E+01 0.658E+03   -.947E-05 0.846E-02 -.196E+00
   -.152E+02 -.152E+02 -.202E+04   0.152E+02 0.153E+02 0.201E+04   0.117E-01 -.803E-01 0.554E+01
   -.322E-04 -.107E-02 -.203E+04   0.238E-04 0.113E-02 0.202E+04   0.640E-05 -.257E-04 0.551E+01
   0.418E+00 0.337E-04 0.538E+03   -.412E+00 -.226E-04 -.538E+03   -.720E-02 -.126E-04 -.700E-01
   0.108E-04 0.385E+00 0.539E+03   -.923E-05 -.396E+00 -.539E+03   -.140E-05 0.131E-01 -.983E-01
   0.101E+00 0.802E-01 0.158E+04   -.994E-01 -.787E-01 -.158E+04   -.155E-02 -.189E-02 0.312E+01
   0.622E-05 0.802E-05 0.158E+04   -.306E-05 -.691E-05 -.158E+04   -.266E-05 -.210E-05 0.312E+01
   0.608E+01 0.251E-03 -.155E+04   -.606E+01 -.270E-03 0.155E+04   -.993E-02 0.151E-04 -.456E+01
   0.439E-04 0.196E+02 -.152E+04   -.512E-04 -.195E+02 0.153E+04   0.127E-04 -.882E-01 -.463E+01
   0.234E+01 0.223E+01 -.485E+03   -.232E+01 -.223E+01 0.485E+03   -.127E-01 -.191E-02 0.312E+00
   0.993E-03 0.951E-05 -.486E+03   -.105E-02 0.233E-04 0.485E+03   0.345E-04 -.401E-04 0.285E+00
   0.486E+00 -.561E-04 0.539E+03   -.493E+00 0.572E-04 -.539E+03   0.821E-02 0.931E-06 -.950E-01
   -.377E-05 -.385E+00 0.539E+03   0.299E-05 0.395E+00 -.539E+03   -.244E-06 -.131E-01 -.983E-01
   0.101E+00 -.802E-01 0.158E+04   -.994E-01 0.787E-01 -.158E+04   -.155E-02 0.189E-02 0.312E+01
   -.195E-04 -.663E-05 0.158E+04   0.200E-04 0.826E-05 -.158E+04   -.212E-05 0.123E-05 0.311E+01
   0.201E+02 -.365E-03 -.152E+04   -.201E+02 0.352E-03 0.153E+04   -.597E-01 0.328E-05 -.455E+01
   -.446E-04 -.196E+02 -.152E+04   0.386E-04 0.195E+02 0.153E+04   0.135E-04 0.882E-01 -.463E+01
   0.234E+01 -.223E+01 -.485E+03   -.232E+01 0.223E+01 0.485E+03   -.127E-01 0.194E-02 0.312E+00
   -.106E-02 -.343E-03 -.482E+03   0.116E-02 0.349E-03 0.482E+03   -.797E-04 0.492E-05 0.116E+00
   -.418E+00 0.505E-04 0.538E+03   0.412E+00 -.397E-04 -.538E+03   0.719E-02 -.117E-04 -.700E-01
   0.176E-05 0.317E+00 0.538E+03   -.458E-05 -.316E+00 -.538E+03   0.322E-05 -.218E-02 -.793E-01
   -.101E+00 0.802E-01 0.158E+04   0.994E-01 -.787E-01 -.158E+04   0.155E-02 -.189E-02 0.312E+01
   0.990E-06 0.110E-04 0.158E+04   -.168E-05 -.835E-05 -.158E+04   0.223E-05 -.397E-05 0.312E+01
   -.608E+01 0.433E-03 -.155E+04   0.606E+01 -.444E-03 0.155E+04   0.994E-02 0.152E-04 -.456E+01
   -.207E-03 0.631E+01 -.155E+04   0.220E-03 -.629E+01 0.155E+04   -.171E-04 -.226E-01 -.457E+01
   -.234E+01 0.223E+01 -.485E+03   0.232E+01 -.223E+01 0.485E+03   0.127E-01 -.192E-02 0.312E+00
   0.131E-03 0.635E-03 -.490E+03   -.167E-03 -.650E-03 0.489E+03   0.280E-04 0.494E-05 0.272E+00
   -.486E+00 -.701E-04 0.539E+03   0.493E+00 0.709E-04 -.539E+03   -.818E-02 0.165E-05 -.950E-01
   0.139E-04 -.318E+00 0.538E+03   -.181E-04 0.316E+00 -.538E+03   0.417E-05 0.217E-02 -.793E-01
   -.101E+00 -.802E-01 0.158E+04   0.994E-01 0.787E-01 -.158E+04   0.155E-02 0.189E-02 0.312E+01
   0.992E-05 -.110E-04 0.158E+04   -.130E-04 0.837E-05 -.158E+04   0.314E-05 0.413E-05 0.312E+01
   -.201E+02 -.407E-03 -.152E+04   0.201E+02 0.392E-03 0.153E+04   0.597E-01 0.907E-05 -.455E+01
   -.150E-03 -.631E+01 -.155E+04   0.181E-03 0.629E+01 0.155E+04   -.230E-04 0.226E-01 -.457E+01
   -.234E+01 -.223E+01 -.485E+03   0.232E+01 0.223E+01 0.485E+03   0.127E-01 0.194E-02 0.312E+00
   -.759E-03 -.567E-03 -.486E+03   0.853E-03 0.577E-03 0.486E+03   -.830E-04 0.531E-05 0.308E+00
   0.298E-02 -.632E-02 0.185E+02   -.428E-13 -.196E-15 -.483E-11   -.277E-02 0.601E-02 -.163E+02

 POSITION                                       TOTAL-FORCE (eV/Angst)
      4.20247      4.20235     16.85211        -0.003338      0.007674      0.001220
      4.20243      5.09526     17.47772         0.000140     -0.004350      0.001525
      4.20243      3.30971     17.47766         0.000144     -0.002605      0.005919
      5.10100      4.20244     16.23094        -0.001619     -0.000340      0.005058
      3.30381      4.20244     16.23092         0.004712     -0.000339      0.006960
      2.10122      0.00000      7.50000         0.000280     -0.000002      0.404910
      4.20243      2.10122      7.50000         0.000002      0.000469      0.406290
      2.10122      2.10122      9.60122         0.001927      0.003355      0.031800
      4.20243      0.00000      9.60122         0.000002      0.000001      0.033954
      2.10158      8.40486     11.71115        -0.001678      0.000007      0.003849
      4.20243      2.10256     11.71387        -0.000005      0.000418      0.002476
      2.10165      2.09916     13.79523        -0.001925      0.001126      0.004031
      4.20243      8.40486     13.79541        -0.000021      0.000022      0.005122
      2.10122      4.20243      7.50000         0.000449     -0.000002      0.406008
      4.20243      6.30365      7.50000        -0.000001     -0.000471      0.406289
      2.10122      6.30365      9.60122         0.001934     -0.003357      0.031796
      4.20243      4.20243      9.60122         0.000007     -0.000002      0.039119
      2.10264      4.20243     11.71398        -0.000539     -0.000004      0.003570
      4.20243      6.30231     11.71387        -0.000005     -0.000434      0.002461
      2.10165      6.30571     13.79523        -0.001989     -0.001113      0.004042
      4.20243      4.20243     13.81355         0.000013     -0.000027      0.006113
      6.30365      0.00000      7.50000        -0.000278     -0.000001      0.404916
      0.00000      2.10122      7.50000        -0.000000      0.000301      0.405262
      6.30365      2.10122      9.60122        -0.001928      0.003355      0.031799
      0.00000      0.00000      9.60122        -0.000007      0.000005      0.029978
      6.30328      8.40486     11.71115         0.001711      0.000004      0.003818
      0.00000      2.10154     11.71183         0.000002     -0.000861      0.004245
      6.30321      2.09915     13.79523         0.001918      0.001161      0.004026
      8.40486      0.00000     13.79716         0.000035     -0.000048      0.006486
      6.30365      4.20243      7.50000        -0.000448      0.000000      0.406015
      0.00000      6.30365      7.50000        -0.000001     -0.000298      0.405258
      6.30365      6.30365      9.60122        -0.001934     -0.003357      0.031797
      0.00000      4.20243      9.60122         0.000000     -0.000009      0.035757
      6.30223      4.20243     11.71398         0.000473     -0.000003      0.003550
      0.00000      6.30332     11.71183         0.000001      0.000862      0.004281
      6.30321      6.30571     13.79523         0.001969     -0.001158      0.004040
      0.00000      4.20243     13.79634        -0.000002      0.000026      0.005885
      2.10122      0.00000      9.60122        -0.002659     -0.000004      0.044088
      4.20243      2.10122      9.60122        -0.000001      0.004253      0.048493
      2.10122      2.10122      7.50000        -0.000519     -0.000639     -0.494303
      4.20243      0.00000      7.50000        -0.000000     -0.000002     -0.494323
      2.10046      8.40486     13.84121         0.004047     -0.000002     -0.000088
      4.20243      2.09908     13.83791         0.000007     -0.003448     -0.001534
      2.10040      2.10139     11.70646         0.001938     -0.000212     -0.001673
      4.20243      0.00000     11.70498        -0.000016     -0.000014      0.001180
      2.10122      4.20243      9.60122         0.002302      0.000002      0.050123
      4.20243      6.30365      9.60122        -0.000002     -0.004256      0.048495
      2.10122      6.30365      7.50000        -0.000521      0.000640     -0.494296
      4.20243      4.20243      7.50000        -0.000003      0.000003     -0.495082
      2.09901      4.20243     13.84531        -0.000718     -0.000010     -0.000348
      4.20243      6.30578     13.83791         0.000009      0.003432     -0.001531
      2.10040      6.30347     11.70646         0.001939      0.000218     -0.001685
      4.20243      4.20243     11.70987         0.000009      0.000012     -0.002912
      6.30365      0.00000      9.60122         0.002656     -0.000003      0.044084
      0.00000      2.10122      9.60122         0.000000     -0.000682      0.044247
      6.30365      2.10122      7.50000         0.000519     -0.000641     -0.494297
      0.00000      0.00000      7.50000         0.000001     -0.000002     -0.493582
      6.30440      8.40486     13.84121        -0.004047      0.000005     -0.000096
      8.40486      2.10066     13.84216        -0.000007      0.001059     -0.000934
      6.30446      2.10139     11.70646        -0.001933     -0.000202     -0.001668
      0.00000      0.00000     11.70642        -0.000006     -0.000011     -0.003045
      6.30365      4.20243      9.60122        -0.002297      0.000002      0.050131
      0.00000      6.30365      9.60122        -0.000000      0.000679      0.044254
      6.30365      6.30365      7.50000         0.000521      0.000639     -0.494297
      0.00000      4.20243      7.50000        -0.000000      0.000002     -0.494153
      6.30585      4.20243     13.84531         0.000705     -0.000006     -0.000333
      0.00000      6.30420     13.84216         0.000004     -0.001039     -0.000923
      6.30446      6.30347     11.70646        -0.001933      0.000209     -0.001680
      0.00000      4.20243     11.70689         0.000001      0.000017     -0.001938
    total drift:                                0.000043      0.000032      0.003111

  FREE ENERGIE OF THE ION-ELECTRON SYSTEM (eV)
  free  energy   TOTEN  =      -466.32173976 eV

  energy  without entropy=     -466.32173976  energy(sigma->0) =     -466.32173976