 vasp.6.3.0 20Jan22 (build Mar 11 2022 13:48:16) complex

 executed on             LinuxIFC date 2024.01.22  15:59:33

 INCAR:
   SYSTEM = TiO2
   ISMEAR = 0
   SIGMA = 0.05
   EDIFF = 1E-5
   ALGO = ALL
   ISTART = 0
   IBRION = -1
   NSW = 0
   ISYM = 0
   ISIF = 2
   EDIFFG = -0.01
   DIPOL = 0.5 0.5 0.5
   IDIPOL = 3
   LDIPOL = .TRUE.
   GGA = RE
   IVDW = 13
   VDW_S8 = 1.7468
   VDW_A1 = 0.5363
   VDW_A2 = 3.0726
   ENCUT = 600
   PREC = Accurate
   LASPH = .TRUE.
   LREAL = .FALSE.
   ISPIN = 1
   NELM = 200
   NELMIN = 8
   NCORE = 2
   KPAR = 1
   LWAVE = .FALSE.
   LCHARG = .FALSE.

 POTCAR:    PAW_PBE C 08Apr2002
 POTCAR:    PAW_PBE O 08Apr2002
 POTCAR:    PAW_PBE Ti_pv 07Sep2000
 POTCAR:    PAW_PBE O 08Apr2002
|           W    W    AA    RRRRR   N    N  II  N    N   GGGG   !!!           |
|           W    W   A  A   R    R  NN   N  II  NN   N  G    G  !!!           |
|           W    W  A    A  R    R  N N  N  II  N N  N  G       !!!           |
|           W WW W  AAAAAA  RRRRR   N  N N  II  N  N N  G  GGG   !            |
|           WW  WW  A    A  R   R   N   NN  II  N   NN  G    G                |
|           W    W  A    A  R    R  N    N  II  N    N   GGGG   !!!           |
|     For optimal performance we recommend to set                             |
|       NCORE = 2 up to number-of-cores-per-socket                            |
|     This setting can greatly improve the performance of VASP for DFT.       |
|     The default, NCORE=1 might be grossly inefficient on modern             |
|     multi-core architectures or massively parallel machines. Do your        |
|     Unfortunately you need to use the default for GW and RPA                |
|     calculations (for HF NCORE is supported but not extensively tested      |
|     yet).                                                                   |

   TITEL  = PAW_PBE C 08Apr2002
   POMASS =   12.011; ZVAL   =    4.000    mass and valenz
   ENMAX  =  400.000; ENMIN  =  300.000 eV

[...]

   TITEL  = PAW_PBE Ti_pv 07Sep2000
   POMASS =   47.880; ZVAL   =   10.000    mass and valenz
   ENMAX  =  222.335; ENMIN  =  166.751 eV

   TITEL  = PAW_PBE O 08Apr2002
   POMASS =   16.000; ZVAL   =    6.000    mass and valenz
   ENMAX  =  400.000; ENMIN  =  300.000 eV

  PAW_PBE C 08Apr2002                   :
  PAW_PBE O 08Apr2002                   :
  PAW_PBE Ti_pv 07Sep2000               :
  PAW_PBE O 08Apr2002                   :

 POSCAR:  C  O Ti  O
  positions in direct lattice
|           W    W    AA    RRRRR   N    N  II  N    N   GGGG   !!!           |
|           W    W   A  A   R    R  NN   N  II  NN   N  G    G  !!!           |
|           W    W  A    A  R    R  N N  N  II  N N  N  G       !!!           |
|           W WW W  AAAAAA  RRRRR   N  N N  II  N  N N  G  GGG   !            |
|           WW  WW  A    A  R   R   N   NN  II  N   NN  G    G                |
|           W    W  A    A  R    R  N    N  II  N    N   GGGG   !!!           |
|     Specifying the vdW parameters                                           |
|     VDW_S8 = 1.747                                                          |
|     VDW_A1 = 0.536                                                          |
|     VDW_A2 = 3.073                                                          |
|     in the INCAR file will overwrite the defaults for revpbe. Please        |
|     make sure that is what you intended.                                    |

 ion  position               nearest neighbor table
   1  0.500  0.609  0.799-   2 1.16   3 1.17
   2  0.500  0.706  0.805-   1 1.16
   3  0.500  0.512  0.791-   1 1.17  83 2.50
   4  0.750  0.625  0.287-  85 1.95 145 1.95 144 1.95  84 1.95  87 1.97 166 1.97  14 2.96  34 2.96

   5  0.000  0.750  0.287-  86 1.95  87 1.95 106 1.95 107 1.95  88 1.97  35 2.96  15 2.96
   6  0.000  0.625  0.394-  88 1.95  89 1.95 148 1.95 149 1.95  90 1.97  91 1.97  16 2.96  36 2.96

[...]

  84  0.750  0.750  0.246-   4 1.95  14 1.95
  85  0.750  0.750  0.329-   4 1.95  14 1.95   7 1.97
  86  0.098  0.625  0.287-   5 1.95  35 1.95  44 1.97
  87  0.902  0.625  0.287-   5 1.95  35 1.95   4 1.97
  88  0.000  0.750  0.352-   6 1.95  16 1.95   5 1.97
  89  0.000  0.750  0.435-   6 1.95  16 1.95   9 1.97
  90  0.848  0.625  0.394-   7 1.95  37 1.95   6 1.97
  91  0.152  0.625  0.394-  47 1.95  77 1.95   6 1.97
  92  0.750  0.750  0.458-   8 1.95  18 1.95   7 1.97
  93  0.750  0.750  0.542-   8 1.95  18 1.95  11 2.09
  94  0.098  0.625  0.500-   9 1.95  39 1.95  48 1.97
  95  0.902  0.625  0.500-   9 1.95  39 1.95   8 1.97
  96  1.000  0.750  0.565-  10 1.90  20 1.90   9 1.99
  97  0.000  0.750  0.649-  13 1.81  10 2.01  20 2.01
  98  0.850  0.625  0.607-  10 1.95  11 1.97  41 1.97
  99  0.150  0.625  0.607-  10 1.95  51 1.97  81 1.97
 100  0.751  0.750  0.671-  11 1.87  12 2.08  22 2.09
 101  0.749  0.750  0.755-  12 1.83  22 1.83
 102  0.094  0.625  0.719-  43 1.94  13 1.94  52 2.03
 103  0.906  0.625  0.719-  43 1.94  13 1.94  12 2.03
 104  0.750  0.000  0.246-  14 1.95  24 1.95
 105  0.750  0.000  0.329-  14 1.95  24 1.95  17 1.97
 106  0.098  0.875  0.287-   5 1.95  15 1.95  54 1.97
 107  0.902  0.875  0.287-   5 1.95  15 1.95  14 1.97
 108  0.000  0.000  0.352-  16 1.95  26 1.95  15 1.97
 109  0.000  0.000  0.435-  16 1.95  26 1.95  19 1.97
 110  0.848  0.875  0.394-   7 1.95  17 1.95  16 1.97
 111  0.152  0.875  0.394-  47 1.95  57 1.95  16 1.97
 112  0.750  0.000  0.458-  18 1.95  28 1.95  17 1.97
 113  0.750  0.000  0.542-  18 1.95  28 1.95  21 2.09
 114  0.098  0.875  0.500-   9 1.95  19 1.95  58 1.97
 115  0.902  0.875  0.500-   9 1.95  19 1.95  18 1.97
 116  1.000  0.000  0.565-  30 1.90  20 1.90  19 1.99
 117  0.000  1.000  0.649-  23 1.81  20 2.01  30 2.01
 118  0.850  0.875  0.607-  20 1.95  21 1.97  11 1.97
 119  0.150  0.875  0.607-  20 1.95  61 1.97  51 1.97
 120  0.750  0.000  0.671-  21 1.87  22 2.09  32 2.09
 121  0.750  0.000  0.755-  22 1.83  32 1.83
 122  0.094  0.875  0.718-  13 1.94  23 1.94  62 2.03
 123  0.906  0.875  0.718-  13 1.94  23 1.94  22 2.03
 124  0.750  0.250  0.246-  24 1.95  34 1.95
 125  0.750  0.250  0.329-  24 1.95  34 1.95  27 1.97
 126  0.098  0.125  0.287-  15 1.95  25 1.95  64 1.97
 127  0.902  0.125  0.287-  15 1.95  25 1.95  24 1.97
 128  0.000  0.250  0.352-  26 1.95  36 1.95  25 1.97
 129  0.000  0.250  0.435-  26 1.95  36 1.95  29 1.97
 130  0.848  0.125  0.394-  17 1.95  27 1.95  26 1.97
 131  0.152  0.125  0.394-  57 1.95  67 1.95  26 1.97
 132  0.750  0.250  0.458-  28 1.95  38 1.95  27 1.97
 133  0.750  0.250  0.542-  28 1.95  38 1.95  31 2.09
 134  0.098  0.125  0.500-  19 1.95  29 1.95  68 1.97
 135  0.902  0.125  0.500-  19 1.95  29 1.95  28 1.97
 136  1.000  0.250  0.565-  40 1.90  30 1.90  29 1.99
 137  0.000  0.250  0.649-  33 1.81  40 2.01  30 2.01
 138  0.850  0.125  0.607-  30 1.95  21 1.97  31 1.97
 139  0.150  0.125  0.607-  30 1.95  61 1.97  71 1.97
 140  0.751  0.250  0.671-  31 1.87  32 2.09  42 2.09
 141  0.750  0.250  0.755-  42 1.83  32 1.83
 142  0.094  0.125  0.718-  33 1.94  23 1.94  72 2.03
 143  0.906  0.125  0.718-  33 1.94  23 1.94  32 2.03
[...]
 229  0.500  0.500  0.435-  46 1.95  76 1.95  79 1.97
 230  0.348  0.375  0.394-  67 1.95  77 1.95  76 1.97
 231  0.652  0.375  0.394-  27 1.95  37 1.95  76 1.97
 232  0.250  0.500  0.458-  48 1.95  78 1.95  77 1.97
 233  0.250  0.500  0.542-  48 1.95  78 1.95  81 2.09
 234  0.598  0.375  0.500-  69 1.95  79 1.95  38 1.97
 235  0.402  0.375  0.500-  69 1.95  79 1.95  78 1.97
 236  0.500  0.500  0.565-  80 1.90  50 1.90  79 1.99
 237  0.500  0.500  0.649-  83 1.83  80 2.00  50 2.00
 238  0.350  0.375  0.607-  80 1.95  81 1.97  71 1.97
 239  0.650  0.375  0.607-  80 1.95  41 1.97  31 1.97
 240  0.249  0.500  0.671-  81 1.87  52 2.09  82 2.09
 241  0.252  0.500  0.755-  82 1.83  52 1.83
 242  0.594  0.374  0.718-  83 1.93  73 1.94  42 2.03
 243  0.406  0.374  0.718-  83 1.93  73 1.94  82 2.03

IMPORTANT INFORMATION: All symmetrisations will be switched off!
NOSYMM: (Re-)initialisation of all symmetry stuff for point group C_1.

                                     Primitive cell

  volume of cell :    4687.8040

  direct lattice vectors                    reciprocal lattice vectors
    12.981773603  0.000000000  0.000000000     0.077031077  0.000000000  0.000000000
     0.000000000 11.829932295  0.000000000     0.000000000  0.084531338  0.000000000
     0.000000000  0.000000000 30.524823105     0.000000000  0.000000000  0.032760223

  length of vectors
    12.981773603 11.829932295 30.524823105     0.077031077  0.084531338  0.032760223

  position of ions in fractional coordinates (direct lattice)
     0.499999974  0.609303053  0.798597701
     0.499999899  0.706281624  0.805024240
     0.500000004  0.511980319  0.791042007
     0.750000000  0.625000000  0.287357103
     0.000000000  0.750000000  0.287357103
     0.000000000  0.625000000  0.393678552
     0.750000000  0.750000000  0.393678552
     0.750000000  0.625000000  0.500000000
     0.000000000  0.750000000  0.500000000
     0.999999896  0.625034575  0.604142359
     0.750037279  0.750060206  0.610061920
     0.750210406  0.625245139  0.719335905
     0.000000093  0.750162338  0.708049038
     0.750000000  0.875000000  0.287357103
     0.000000000  0.000000000  0.287357103
     0.000000000  0.875000000  0.393678552
     0.750000000  0.000000000  0.393678552
     0.750000000  0.875000000  0.500000000
     0.000000000  0.000000000  0.500000000
     0.999999899  0.875042675  0.604157023
     0.749983473  0.000031890  0.610167384
     0.749899410  0.875144527  0.719720725
     0.000000134  0.000048180  0.708068521
     0.750000000  0.125000000  0.287357103
     0.000000000  0.250000000  0.287357103
     0.000000000  0.125000000  0.393678552
     0.750000000  0.250000000  0.393678552
     0.750000000  0.125000000  0.500000000
     0.000000000  0.250000000  0.500000000
     0.999999905  0.125009247  0.604179473
     0.750023589  0.249993590  0.610163923
     0.749943263  0.125083689  0.719707659
     0.000000145  0.249982373  0.708074474
     0.750000000  0.375000000  0.287357103
     0.000000000  0.500000000  0.287357103
     0.000000000  0.375000000  0.393678552
     0.750000000  0.500000000  0.393678552
     0.750000000  0.375000000  0.500000000
     0.000000000  0.500000000  0.500000000
     0.999999900  0.375004388  0.604145210
     0.750074282  0.499995300  0.610095561
     0.750181913  0.375085320  0.719662777
     0.000000065  0.500081082  0.708039677
     0.250000000  0.625000000  0.287357103
     0.500000000  0.750000000  0.287357103
     0.500000000  0.625000000  0.393678552
     0.250000000  0.750000000  0.393678552
     0.250000000  0.625000000  0.500000000
     0.500000000  0.750000000  0.500000000
     0.499999887  0.624515489  0.604646984
     0.249962459  0.750060204  0.610061903
     0.249789651  0.625245143  0.719335863
     0.500000113  0.750847524  0.707844845
     0.250000000  0.875000000  0.287357103
     0.500000000  0.000000000  0.287357103
     0.500000000  0.875000000  0.393678552
     0.250000000  0.000000000  0.393678552
     0.250000000  0.875000000  0.500000000
     0.500000000  0.000000000  0.500000000
[...]
   6.49088680  0.00000000  8.77152475
   6.49088680 10.35119076 12.01696815
   3.24544340  0.00000000 12.01696815
   3.24544340 10.35119076 15.26241155
   6.49088680  0.00000000 15.26241155
   6.49088525 10.34806738 18.43373127
[...]
   6.49088680  5.91496615 13.28849290
   4.51696815  4.43622461 12.01696815
   8.46480545  4.43622461 12.01696815
   3.24544340  5.91496615 13.99088680
   3.24544340  5.91496615 16.53393630
   7.76241155  4.43622461 15.26241155
   5.21936205  4.43622461 15.26241155
   6.49088605  5.91569929 17.25609268
   6.49088807  5.91362334 19.81401695
   4.54252794  4.43664502 18.52798396
   8.43924739  4.43664495 18.52798309
   3.23427485  5.91506606 20.48973046
   3.26558745  5.91996519 23.04188637
   7.71435337  4.42369140 21.90208416
   5.26742373  4.42369051 21.90208734

--------------------------------------- Iteration      FINAL  ---------------------------------------

--------------------OUTCAR has been truncated-------------------------

[...]

--------------------OUTCAR has been truncated-------------------------

  FORCE on cell =-STRESS in cart. coord.  units (eV):
  Direction    XX          YY          ZZ          XY          YZ          ZX
  Alpha Z  4734.35770  4734.35770  4734.35770
  Ewald  976586.79309994836.34008************    -0.00060   143.42011     0.00075
  Hartree************************************    -0.00023    66.92804     0.00065
  E(xc)   -8696.91202 -8666.83492 -8710.68726    -0.00000     0.46433    -0.00000
  Local  ************************************     0.00075  -196.99338    -0.00134
  n-local -5384.68544 -5312.11491 -5430.15517    -0.00002    -1.07365     0.00001
  augment  5228.61581  5212.19332  5230.83807     0.00001    -0.51556    -0.00001
  Kinetic 29005.48616 28458.80054 29046.92291     0.00006   -11.89355    -0.00012
  Fock        0.00000     0.00000     0.00000     0.00000     0.00000     0.00000
  vdW      -132.10304  -131.73118  -118.81047     0.00000    -0.01136    -0.00000
  Total      29.30901   -16.23076   -17.11538    -0.00002     0.32498    -0.00005
  in kB      10.01711    -5.54728    -5.84962    -0.00001     0.11107    -0.00002

 VOLUME and BASIS-vectors are now :
  energy-cutoff  :      600.00
  volume of cell :     4687.80
      direct lattice vectors                 reciprocal lattice vectors
    12.981773603  0.000000000  0.000000000     0.077031077  0.000000000  0.000000000
     0.000000000 11.829932295  0.000000000     0.000000000  0.084531338  0.000000000
     0.000000000  0.000000000 30.524823105     0.000000000  0.000000000  0.032760223

  length of vectors
    12.981773603 11.829932295 30.524823105     0.077031077  0.084531338  0.032760223

 FORCES acting on ions:
    Electron-Ion                     Ewald-Force                    Non-Local-Force
   -.105E-03 0.513E+01 -.164E+04   0.108E-03 -.525E+01 0.164E+04   -.493E-05 -.172E-01 0.868E-02
   0.211E-03 -.275E+03 -.242E+04   -.272E-03 0.340E+03 0.243E+04   0.637E-04 -.637E+02 -.122E+02
   -.787E-04 0.271E+03 -.247E+04   0.950E-04 -.333E+03 0.246E+04   -.121E-04 0.617E+02 0.816E+01
   -.228E+00 0.247E-02 0.381E+04   0.227E+00 -.243E-02 -.381E+04   0.154E-03 0.317E-05 0.456E+00
   0.872E-05 -.605E-01 0.399E+04   -.243E-05 0.607E-01 -.398E+04   0.193E-05 -.139E-04 -.403E+01
   0.116E-04 0.298E-02 0.195E+04   -.114E-04 -.300E-02 -.195E+04   0.654E-06 0.221E-04 -.460E-01
   -.457E+00 -.117E+00 0.194E+04   0.456E+00 0.117E+00 -.195E+04   0.382E-03 0.596E-06 0.209E+00
   -.197E+01 0.858E-01 0.204E+02   0.196E+01 -.889E-01 -.197E+02   0.182E-02 0.309E-03 -.124E+00
   -.124E-04 -.719E+00 0.296E+02   0.142E-04 0.723E+00 -.306E+02   0.369E-06 -.110E-02 0.316E+00
   -.393E-03 -.402E+00 -.186E+04   0.380E-03 0.403E+00 0.186E+04   0.420E-05 -.906E-03 0.332E-01
   -.130E+02 -.580E+01 -.191E+04   0.130E+02 0.581E+01 0.191E+04   -.609E-02 -.518E-02 -.102E+00
   -.892E+02 -.483E+01 -.371E+04   0.892E+02 0.482E+01 0.371E+04   0.931E-02 -.108E-02 -.134E+00
   0.369E-03 -.757E+01 -.378E+04   -.359E-03 0.757E+01 0.378E+04   -.571E-05 -.171E-02 0.108E+01
   -.226E+00 -.899E-01 0.381E+04   0.226E+00 0.904E-01 -.381E+04   0.199E-03 -.370E-04 0.456E+00
   0.811E-05 -.607E-01 0.399E+04   -.231E-05 0.608E-01 -.398E+04   0.226E-05 -.104E-04 -.403E+01
   0.114E-04 -.195E+00 0.195E+04   -.103E-04 0.195E+00 -.195E+04   0.696E-06 0.215E-04 -.461E-01
   -.470E+00 -.153E+00 0.194E+04   0.467E+00 0.154E+00 -.195E+04   0.481E-03 0.265E-04 0.209E+00
   -.221E+01 -.112E+01 0.193E+02   0.221E+01 0.113E+01 -.185E+02   0.119E-02 -.120E-02 -.126E+00
   -.210E-04 -.635E+00 0.282E+02   0.207E-04 0.640E+00 -.293E+02   -.280E-06 -.137E-02 0.316E+00
   -.426E-03 -.375E+01 -.186E+04   0.410E-03 0.375E+01 0.186E+04   0.608E-05 -.211E-02 0.307E-01
   -.886E+01 -.431E+01 -.192E+04   0.886E+01 0.431E+01 0.192E+04   0.175E-03 0.118E-03 -.962E-01
   -.466E+02 -.322E+02 -.375E+04   0.466E+02 0.322E+02 0.375E+04   0.190E-01 0.153E-03 -.161E+00
   0.388E-03 -.597E+01 -.379E+04   -.384E-03 0.597E+01 0.379E+04   -.382E-05 0.119E-03 0.109E+01
   -.220E+00 -.250E-02 0.381E+04   0.219E+00 0.244E-02 -.381E+04   0.210E-03 0.310E-05 0.456E+00
   0.652E-05 0.605E-01 0.399E+04   -.233E-05 -.606E-01 -.398E+04   0.137E-05 0.184E-04 -.403E+01
   0.143E-04 -.296E-02 0.195E+04   -.961E-05 0.291E-02 -.195E+04   -.129E-05 0.839E-05 -.462E-01
   -.435E+00 0.117E+00 0.194E+04   0.433E+00 -.118E+00 -.195E+04   0.411E-03 -.433E-05 0.209E+00
   -.204E+01 -.785E-01 0.181E+02   0.204E+01 0.778E-01 -.173E+02   0.137E-02 0.286E-04 -.128E+00
   -.181E-04 0.735E+00 0.284E+02   0.195E-04 -.739E+00 -.294E+02   0.112E-06 0.991E-03 0.316E+00
   -.417E-03 0.264E+00 -.186E+04   0.409E-03 -.266E+00 0.186E+04   0.407E-05 0.210E-02 0.357E-01
   -.935E+01 0.556E+01 -.192E+04   0.936E+01 -.556E+01 0.192E+04   -.339E-02 0.175E-02 -.994E-01
   -.245E+02 0.366E+01 -.377E+04   0.245E+02 -.366E+01 0.377E+04   0.964E-02 -.153E-02 -.164E+00
   0.393E-03 0.655E+01 -.379E+04   -.374E-03 -.655E+01 0.379E+04   -.252E-05 0.245E-02 0.109E+01
   -.222E+00 0.900E-01 0.381E+04   0.221E+00 -.904E-01 -.381E+04   0.161E-03 0.383E-04 0.456E+00
   0.125E-04 0.607E-01 0.399E+04   -.246E-05 -.608E-01 -.398E+04   0.268E-05 0.114E-04 -.403E+01
   0.152E-04 0.195E+00 0.195E+04   -.107E-04 -.195E+00 -.195E+04   -.903E-06 -.981E-05 -.461E-01
   -.424E+00 0.153E+00 0.194E+04   0.422E+00 -.153E+00 -.195E+04   0.251E-03 -.456E-04 0.209E+00
   -.180E+01 0.111E+01 0.192E+02   0.179E+01 -.112E+01 -.185E+02   0.173E-02 0.106E-02 -.126E+00
   -.332E-05 0.666E+00 0.297E+02   0.551E-05 -.669E+00 -.308E+02   -.126E-06 0.112E-03 0.316E+00
   -.395E-03 0.379E+01 -.186E+04   0.381E-03 -.379E+01 0.186E+04   0.419E-05 0.184E-02 0.314E-01
   -.135E+02 0.453E+01 -.190E+04   0.135E+02 -.453E+01 0.190E+04   -.647E-02 0.233E-02 -.108E+00
   -.575E+02 0.340E+02 -.374E+04   0.575E+02 -.340E+02 0.374E+04   0.101E-01 0.366E-02 -.152E+00
   0.398E-03 0.659E+01 -.378E+04   -.387E-03 -.659E+01 0.378E+04   -.606E-05 0.321E-02 0.107E+01
   0.228E+00 0.247E-02 0.381E+04   -.227E+00 -.243E-02 -.381E+04   -.158E-03 0.363E-05 0.456E+00
   -.145E-05 -.631E-01 0.399E+04   0.256E-05 0.634E-01 -.398E+04   0.121E-05 -.420E-04 -.403E+01
   -.945E-05 0.605E-01 0.195E+04   0.144E-04 -.562E-01 -.195E+04   -.478E-06 -.939E-03 -.463E-01
   0.457E+00 -.117E+00 0.194E+04   -.456E+00 0.117E+00 -.195E+04   -.382E-03 0.755E-07 0.209E+00
   0.197E+01 0.858E-01 0.204E+02   -.196E+01 -.889E-01 -.197E+02   -.183E-02 0.307E-03 -.124E+00
   -.134E-03 -.472E+00 0.339E+02   0.135E-03 0.447E+00 -.349E+02   0.161E-05 0.150E-01 0.299E+00
   -.689E-03 -.152E+01 -.183E+04   0.675E-03 0.155E+01 0.183E+04   0.642E-05 -.298E-01 0.487E-01
   0.130E+02 -.580E+01 -.191E+04   -.130E+02 0.581E+01 0.191E+04   0.608E-02 -.518E-02 -.102E+00
   0.892E+02 -.483E+01 -.371E+04   -.892E+02 0.482E+01 0.371E+04   -.927E-02 -.109E-02 -.134E+00
   0.267E-03 -.761E+02 -.363E+04   -.256E-03 0.761E+02 0.363E+04   -.330E-05 -.257E-01 0.123E+01
   0.226E+00 -.899E-01 0.381E+04   -.226E+00 0.904E-01 -.381E+04   -.201E-03 -.346E-04 0.456E+00
   0.445E-05 -.703E-01 0.399E+04   0.244E-05 0.704E-01 -.398E+04   0.798E-06 -.150E-04 -.403E+01
   -.157E-04 -.171E+00 0.195E+04   0.134E-04 0.174E+00 -.195E+04   0.123E-06 -.868E-03 -.465E-01
   0.470E+00 -.153E+00 0.194E+04   -.467E+00 0.154E+00 -.195E+04   -.479E-03 0.246E-04 0.209E+00
   0.221E+01 -.112E+01 0.193E+02   -.221E+01 0.113E+01 -.185E+02   -.119E-02 -.120E-02 -.126E+00
   -.129E-03 -.916E+00 0.336E+02   0.126E-03 0.920E+00 -.347E+02   0.503E-06 -.374E-03 0.299E+00
   -.695E-03 -.117E+02 -.183E+04   0.688E-03 0.117E+02 0.183E+04   0.519E-05 -.413E-02 -.294E-01
[...]
   -.530E+02 0.110E+00 0.117E+04   0.570E+02 -.111E+00 -.117E+04   -.351E+01 0.140E-02 0.160E+00
   0.530E+02 0.110E+00 0.117E+04   -.570E+02 -.111E+00 -.117E+04   0.351E+01 0.140E-02 0.160E+00
   0.608E+00 0.251E+00 0.518E+03   -.605E+00 -.253E+00 -.522E+03   -.537E-02 0.496E-02 0.415E+01
   0.213E+01 0.962E+00 -.508E+03   -.212E+01 -.964E+00 0.515E+03   -.958E-02 0.522E-02 -.686E+01
   -.556E+02 0.507E+00 0.183E+02   0.603E+02 -.511E+00 -.185E+02   -.508E+01 0.160E-01 0.306E+00
   0.556E+02 0.507E+00 0.183E+02   -.603E+02 -.511E+00 -.185E+02   0.508E+01 0.160E-01 0.306E+00
   -.197E-03 0.136E+01 -.610E+03   0.193E-03 -.130E+01 0.604E+03   0.140E-04 -.605E-01 0.637E+01
   -.227E-03 0.811E+01 -.157E+04   0.267E-03 -.796E+01 0.157E+04   -.422E-04 -.143E+00 0.170E+01
   -.231E+02 0.551E+01 -.112E+04   0.261E+02 -.556E+01 0.112E+04   -.299E+01 0.411E-01 0.802E+00
   0.231E+02 0.551E+01 -.112E+04   -.261E+02 -.556E+01 0.112E+04   0.299E+01 0.411E-01 0.802E+00
   0.246E+02 0.794E+01 -.179E+04   -.248E+02 -.802E+01 0.179E+04   0.117E+00 0.848E-01 -.203E+01
   0.705E+02 0.212E+02 -.271E+04   -.702E+02 -.212E+02 0.273E+04   -.287E+00 -.279E-02 -.204E+02
   -.574E+02 0.526E+02 -.229E+04   0.636E+02 -.527E+02 0.229E+04   -.615E+01 0.125E+00 -.324E+01
   0.574E+02 0.526E+02 -.229E+04   -.636E+02 -.527E+02 0.229E+04   0.615E+01 0.126E+00 -.325E+01
   -.182E-02 0.140E+01 0.943E+02   -.867E-12 -.220E-11 -.314E-10   0.185E-02 -.139E+01 -.944E+02

 POSITION                                       TOTAL-FORCE (eV/Angst)
      6.49089      7.20801     24.37705        -0.000002     -0.132180      0.027678
      6.49089      8.35526     24.57322         0.000003      1.065178      0.242360
      6.49089      6.05669     24.14642         0.000004     -0.944185     -0.008471
      9.73633      7.39371      8.77152        -0.000394      0.000030     -3.394384
      0.00000      8.87245      8.77152         0.000008      0.000110      2.782728
      0.00000      7.39371     12.01697         0.000001     -0.000008      0.554119
      9.73633      8.87245     12.01697        -0.001351      0.000646     -0.724559
      9.73633      7.39371     15.26241        -0.008031     -0.002621      0.626007
      0.00000      8.87245     15.26241         0.000002      0.002170     -0.717060
     12.98177      7.39412     18.44134        -0.000013      0.000259     -0.113744
      9.73681      8.87316     18.62203         0.000416      0.001085      0.084384
      9.73906      7.39661     21.95760        -0.013028     -0.003741     -0.055847
      0.00000      8.87437     21.61307         0.000004      0.001142     -0.125454
      9.73633     10.35119      8.77152        -0.000490      0.000439     -3.394300
      0.00000      0.00000      8.77152         0.000008      0.000080      2.782644
      0.00000     10.35119     12.01697         0.000002      0.000291      0.554270
      9.73633      0.00000     12.01697        -0.001701      0.000417     -0.722772
      9.73633     10.35119     15.26241        -0.005225      0.014896      0.633751
      0.00000      0.00000     15.26241        -0.000001      0.002948     -0.714874
     12.98177     10.35170     18.44179        -0.000014     -0.000090     -0.114209
      9.73612      0.00038     18.62525        -0.000273     -0.000003      0.084001
      9.73502     10.35290     21.96935        -0.002926     -0.010261     -0.060625
      0.00000      0.00057     21.61367        -0.000000     -0.001721     -0.126094
      9.73633      1.47874      8.77152        -0.000498     -0.000073     -3.394203
      0.00000      2.95748      8.77152         0.000006     -0.000149      2.782682
      0.00000      1.47874     12.01697         0.000003     -0.000050      0.554442
      9.73633      2.95748     12.01697        -0.001439     -0.000687     -0.722486
      9.73633      1.47874     15.26241        -0.005439     -0.000852      0.643381
      0.00000      2.95748     15.26241         0.000001     -0.002966     -0.715291
     12.98177      1.47885     18.44247        -0.000008     -0.000313     -0.115060
      9.73664      2.95741     18.62515         0.000572     -0.000731      0.083301
      9.73559      1.47973     21.96895        -0.000002      0.000219     -0.066793
      0.00000      2.95727     21.61385         0.000016     -0.000025     -0.126899
      9.73633      4.43622      8.77152        -0.000408     -0.000416     -3.394260
      0.00000      5.91497      8.77152         0.000013     -0.000092      2.782767
      0.00000      4.43622     12.01697         0.000003     -0.000282      0.554226
      9.73633      5.91497     12.01697        -0.001109     -0.000436     -0.724117
      9.73633      4.43622     15.26241        -0.007712     -0.011594      0.635344
      0.00000      5.91497     15.26241         0.000002     -0.002225     -0.717386
     12.98177      4.43628     18.44143        -0.000014      0.000043     -0.114025
      9.73729      5.91491     18.62306         0.001637      0.000087      0.084537
      9.73869      4.43723     21.96758        -0.000887      0.016218     -0.056902
      0.00000      5.91593     21.61279         0.000004      0.001109     -0.125681
      3.24544      7.39371      8.77152         0.000384      0.000033     -3.394386
      6.49089      8.87245      8.77152         0.000002      0.000300      2.784008
      6.49089      7.39371     12.01697         0.000004      0.003457      0.557205
      3.24544      8.87245     12.01697         0.001351      0.000643     -0.724544
      3.24544      7.39371     15.26241         0.008023     -0.002608      0.625998
      6.49089      8.87245     15.26241         0.000003     -0.010855     -0.676595
      6.49089      7.38798     18.45674        -0.000012     -0.004892     -0.108242
      3.24496      8.87316     18.62203        -0.000391      0.001088      0.084377
      3.24271      7.39661     21.95760         0.013040     -0.003745     -0.055848
      6.49089      8.88248     21.60684         0.000007     -0.010793     -0.178293
      3.24544     10.35119      8.77152         0.000476      0.000448     -3.394312
      6.49089      0.00000      8.77152         0.000008      0.000119      2.784207
      6.49089     10.35119     12.01697        -0.000002      0.002473      0.559828
      3.24544      0.00000     12.01697         0.001702      0.000421     -0.722769
      3.24544     10.35119     15.26241         0.005221      0.014900      0.633745
      6.49089      0.00000     15.26241        -0.000003      0.003038     -0.735221
      6.49089     10.34807     18.43373        -0.000007     -0.005071     -0.111722
[...]
      6.49089      5.91497     13.28849         0.000002      0.000448     -0.101655
      4.51697      4.43622     12.01697         0.461873      0.000589      0.049425
      8.46481      4.43622     12.01697        -0.461877      0.000596      0.049430
      3.24544      5.91497     13.99089        -0.001544      0.002825     -0.113045
      3.24544      5.91497     16.53394         0.000687      0.002628      0.052757
      7.76241      4.43622     15.26241        -0.425853      0.011984      0.082291
      5.21936      4.43622     15.26241         0.425860      0.011983      0.082288
      6.49089      5.91570     17.25609         0.000010     -0.000588      0.039406
      6.49089      5.91362     19.81402        -0.000003     -0.000303      0.133983
      4.54253      4.43665     18.52798         0.041328     -0.000093     -0.003297
      8.43925      4.43664     18.52798        -0.041352     -0.000084     -0.003300
      3.23427      5.91507     20.48973        -0.001018     -0.000741     -0.118924
      3.26559      5.91997     23.04189         0.005114      0.000157      0.212411
      7.71435      4.42369     21.90208         0.057912      0.012188      0.021933
      5.26742      4.42369     21.90209        -0.057924      0.012186      0.021923
    total drift:                                0.000030      0.002607     -0.095132

  FREE ENERGIE OF THE ION-ELECTRON SYSTEM (eV)
  free  energy   TOTEN  =     -2148.69437279 eV

  energy  without entropy=    -2148.69437279  energy(sigma->0) =    -2148.69437279