 vasp.6.4.1 05Apr23 (build Sep 19 2024 10:44:22) complex

 executed on             LinuxIFC date 2024.10.18  08:19:19

 INCAR:
   SYSTEM = TiO2
   ISMEAR = 0
   SIGMA = 0.05
   EDIFF = 1E-7
   ALGO = ALL
   ISTART = 0
   IBRION = 2
   NSW = 1000
   ISYM = 0
   ISIF = 2
   EDIFFG = -0.01
   DIPOL = 0.5 0.5 0.5
   IDIPOL = 3
   LDIPOL = .TRUE.
   GGA = PE
   IVDW = 21
   ENCUT = 600
   PREC = Accurate
   LASPH = .TRUE.
   LREAL = .FALSE.
   ISPIN = 1
   NELM = 200
   NELMIN = 8
   NCORE = 8
   KPAR = 1
   LWAVE = .FALSE.
   LCHARG = .FALSE.

 POTCAR:    PAW_PBE C 08Apr2002
 POTCAR:    PAW_PBE O 08Apr2002
 POTCAR:    PAW_PBE H 15Jun2001
 POTCAR:    PAW_PBE Ti_pv 07Sep2000
 POTCAR:    PAW_PBE O 08Apr2002
|           W    W    AA    RRRRR   N    N  II  N    N   GGGG   !!!           |
|           W    W   A  A   R    R  NN   N  II  NN   N  G    G  !!!           |
|           W    W  A    A  R    R  N N  N  II  N N  N  G       !!!           |
|           W WW W  AAAAAA  RRRRR   N  N N  II  N  N N  G  GGG   !            |
|           WW  WW  A    A  R   R   N   NN  II  N   NN  G    G                |
|           W    W  A    A  R    R  N    N  II  N    N   GGGG   !!!           |
|     For optimal performance we recommend to set                             |
|       NCORE = 2 up to number-of-cores-per-socket                            |
|     This setting can greatly improve the performance of VASP for DFT.       |
|     The default, NCORE=1 might be grossly inefficient on modern             |
|     multi-core architectures or massively parallel machines. Do your        |
|     Unfortunately you need to use the default for GW and RPA                |
|     calculations (for HF NCORE is supported but not extensively tested      |
|     yet).                                                                   |

   TITEL  = PAW_PBE C 08Apr2002
   POMASS =   12.011; ZVAL   =    4.000    mass and valenz
   ENMAX  =  400.000; ENMIN  =  300.000 eV

[...]

   TITEL  = PAW_PBE H 15Jun2001
   POMASS =    1.000; ZVAL   =    1.000    mass and valenz
   ENMAX  =  250.000; ENMIN  =  200.000 eV

   TITEL  = PAW_PBE Ti_pv 07Sep2000
   POMASS =   47.880; ZVAL   =   10.000    mass and valenz
   ENMAX  =  222.335; ENMIN  =  166.751 eV

   TITEL  = PAW_PBE O 08Apr2002
   POMASS =   16.000; ZVAL   =    6.000    mass and valenz
   ENMAX  =  400.000; ENMIN  =  300.000 eV

  PAW_PBE C 08Apr2002                   :
  PAW_PBE O 08Apr2002                   :
  PAW_PBE H 15Jun2001                   :
  PAW_PBE Ti_pv 07Sep2000               :
  PAW_PBE O 08Apr2002                   :

 POSCAR:  C  O  H Ti  O
  positions in direct lattice
 exchange correlation table for  LEXCH =        8
   RHO(1)=    0.500       N(1)  =     2000
   RHO(2)=  100.500       N(2)  =     4000

 ion  position               nearest neighbor table
   1  0.510  0.588  0.808-   3 1.09   5 1.10   6 1.10   2 1.45
   2  0.538  0.498  0.778-   4 1.00   1 1.45  86 2.18
   3  0.426  0.597  0.806-   1 1.09
   4  0.614  0.494  0.777-   2 1.00
   5  0.533  0.565  0.841-   1 1.10
   6  0.548  0.667  0.798-   1 1.10
   7  0.750  0.625  0.287-  87 1.96  88 1.96 147 1.96 148 1.96  90 1.98 169 1.98  17 2.97  37 2.97

   8  0.000  0.750  0.287-  89 1.96  90 1.96 109 1.96 110 1.96  91 1.98  38 2.97  18 2.97
   9  0.000  0.625  0.393-  91 1.96  92 1.96 151 1.96 152 1.96  93 1.98  94 1.98  19 2.97  39 2.97

[...]

  87  0.750  0.750  0.245-   7 1.96  17 1.96
  88  0.750  0.750  0.329-   7 1.96  17 1.96  10 1.98
  89  0.098  0.625  0.287-   8 1.96  38 1.96  47 1.98
  90  0.902  0.625  0.287-   8 1.96  38 1.96   7 1.98
  91  0.000  0.750  0.352-   9 1.96  19 1.96   8 1.98
  92  0.000  0.750  0.435-   9 1.96  19 1.96  12 1.98
  93  0.848  0.625  0.393-  10 1.96  40 1.96   9 1.98
  94  0.152  0.625  0.393-  50 1.96  80 1.96   9 1.98
  95  0.750  0.750  0.458-  11 1.96  21 1.96  10 1.98
  96  0.750  0.750  0.542-  11 1.96  21 1.96  14 2.11
  97  0.098  0.625  0.500-  12 1.96  42 1.96  51 1.98
  98  0.902  0.625  0.500-  12 1.96  42 1.96  11 1.98
  99  1.000  0.750  0.566-  23 1.90  13 1.90  12 2.01
 100  1.000  0.750  0.649-  16 1.81  13 2.02  23 2.02
 101  0.850  0.625  0.607-  13 1.96  14 1.98  44 1.98
 102  0.150  0.625  0.607-  13 1.96  84 1.98  54 1.98
 103  0.750  0.750  0.672-  14 1.87  15 2.10  25 2.10
 104  0.750  0.750  0.756-  25 1.84  15 1.84
 105  0.094  0.625  0.719-  16 1.95  46 1.95  55 2.04
 106  0.906  0.625  0.719-  46 1.95  16 1.95  15 2.04
 107  0.750  0.000  0.245-  17 1.96  27 1.96
 108  0.750  0.000  0.329-  17 1.96  27 1.96  20 1.98
 109  0.098  0.875  0.287-   8 1.96  18 1.96  57 1.98
 110  0.902  0.875  0.287-   8 1.96  18 1.96  17 1.98
 111  0.000  0.000  0.352-  19 1.96  29 1.96  18 1.98
 112  0.000  0.000  0.435-  19 1.96  29 1.96  22 1.98
 113  0.848  0.875  0.393-  10 1.96  20 1.96  19 1.98
 114  0.152  0.875  0.393-  50 1.96  60 1.96  19 1.98
 115  0.750  0.000  0.458-  21 1.96  31 1.96  20 1.98
 116  0.750  0.000  0.542-  21 1.96  31 1.96  24 2.11
 117  0.098  0.875  0.500-  12 1.96  22 1.96  61 1.98
 118  0.902  0.875  0.500-  12 1.96  22 1.96  21 1.98
 119  1.000  1.000  0.566-  23 1.90  33 1.90  22 2.01
 120  1.000  1.000  0.649-  26 1.81  33 2.02  23 2.02
 121  0.850  0.875  0.607-  23 1.96  14 1.98  24 1.98
 122  0.150  0.875  0.607-  23 1.96  54 1.98  64 1.98
 123  0.750  0.000  0.672-  24 1.87  35 2.10  25 2.10
 124  0.750  1.000  0.756-  25 1.84  35 1.84
 125  0.094  0.875  0.719-  16 1.95  26 1.95  65 2.04
 126  0.906  0.875  0.719-  16 1.95  26 1.95  25 2.04
 127  0.750  0.250  0.245-  27 1.96  37 1.96
 128  0.750  0.250  0.329-  27 1.96  37 1.96  30 1.98
 129  0.098  0.125  0.287-  18 1.96  28 1.96  67 1.98
 130  0.902  0.125  0.287-  18 1.96  28 1.96  27 1.98
 131  0.000  0.250  0.352-  29 1.96  39 1.96  28 1.98
 132  0.000  0.250  0.435-  29 1.96  39 1.96  32 1.98
 133  0.848  0.125  0.393-  20 1.96  30 1.96  29 1.98
 134  0.152  0.125  0.393-  60 1.96  70 1.96  29 1.98
 135  0.750  0.250  0.458-  31 1.96  41 1.96  30 1.98
 136  0.750  0.250  0.542-  31 1.96  41 1.96  34 2.11
 137  0.098  0.125  0.500-  22 1.96  32 1.96  71 1.98
 138  0.902  0.125  0.500-  22 1.96  32 1.96  31 1.98
 139  1.000  0.250  0.566-  43 1.90  33 1.90  32 2.01
 140  1.000  0.250  0.649-  36 1.81  33 2.02  43 2.02
 141  0.850  0.125  0.607-  33 1.96  24 1.98  34 1.98
 142  0.150  0.125  0.607-  33 1.96  74 1.98  64 1.98
 143  0.750  0.250  0.672-  34 1.87  35 2.10  45 2.10
 144  0.750  0.250  0.756-  45 1.84  35 1.84
 145  0.094  0.125  0.719-  36 1.95  26 1.95  75 2.04
 146  0.906  0.125  0.719-  26 1.95  36 1.95  35 2.04
[...]
 232  0.500  0.500  0.435-  49 1.96  79 1.96  82 1.98
 233  0.348  0.375  0.393-  70 1.96  80 1.96  79 1.98
 234  0.652  0.375  0.393-  30 1.96  40 1.96  79 1.98
 235  0.250  0.500  0.458-  51 1.96  81 1.96  80 1.98
 236  0.250  0.500  0.542-  51 1.96  81 1.96  84 2.11
 237  0.598  0.375  0.500-  72 1.96  82 1.96  41 1.98
 238  0.402  0.375  0.500-  72 1.96  82 1.96  81 1.98
 239  0.500  0.500  0.566-  83 1.90  53 1.90  82 2.01
 240  0.500  0.500  0.649-  86 1.81  53 2.02  83 2.02
 241  0.350  0.375  0.607-  83 1.96  84 1.98  74 1.98
 242  0.650  0.375  0.607-  83 1.96  44 1.98  34 1.98
 243  0.250  0.500  0.672-  84 1.87  55 2.10  85 2.10
 244  0.250  0.500  0.756-  85 1.84  55 1.84
 245  0.594  0.375  0.719-  86 1.95  76 1.95  45 2.04
 246  0.406  0.375  0.719-  86 1.95  76 1.95  85 2.04

IMPORTANT INFORMATION: All symmetrisations will be switched off!
NOSYMM: (Re-)initialisation of all symmetry stuff for point group C_1.

                                     Primitive cell

  volume of cell :    4740.1649

  direct lattice vectors                    reciprocal lattice vectors
    13.042933829  0.000000000  0.000000000     0.076669867  0.000000000  0.000000000
     0.000000000 11.878216733  0.000000000     0.000000000  0.084187721  0.000000000
     0.000000000  0.000000000 30.596159140     0.000000000  0.000000000  0.032683841

  length of vectors
    13.042933829 11.878216733 30.596159140     0.076669867  0.084187721  0.032683841

  position of ions in fractional coordinates (direct lattice)
     0.509545582  0.588128759  0.807719184
     0.537801336  0.498249303  0.777938672
     0.426205968  0.597447932  0.806044255
     0.614275668  0.493558800  0.776536921
     0.532875123  0.564676428  0.840987715
     0.547844704  0.667246670  0.798479933
     0.750000000  0.625000000  0.286853412
     0.000000000  0.750000000  0.286853412
     0.000000000  0.625000000  0.393426706
     0.750000000  0.750000000  0.393426706
     0.750000000  0.625000000  0.500000000
     0.000000000  0.750000000  0.500000000
     0.999999988  0.624999996  0.604420548
     0.750000029  0.750000004  0.610781620
     0.749999986  0.624999976  0.720512796
     0.999999994  0.750000000  0.708478094
     0.750000000  0.875000000  0.286853412
     0.000000000  0.000000000  0.286853412
     0.000000000  0.875000000  0.393426706
     0.750000000  0.000000000  0.393426706
     0.750000000  0.875000000  0.500000000
     0.000000000  0.000000000  0.500000000
     0.000000047  0.874999985  0.604420536
     0.750000015  0.999999991  0.610781625
     0.749999989  0.874999980  0.720512821
     0.999999986  0.999999992  0.708478097
     0.750000000  0.125000000  0.286853412
     0.000000000  0.250000000  0.286853412
     0.000000000  0.125000000  0.393426706
     0.750000000  0.250000000  0.393426706
     0.750000000  0.125000000  0.500000000
     0.000000000  0.250000000  0.500000000
     0.999999985  0.125000011  0.604420556
     0.749999996  0.250000012  0.610781629
     0.750000000  0.125000005  0.720512813
     0.000000019  0.250000013  0.708478102
     0.750000000  0.375000000  0.286853412
     0.000000000  0.500000000  0.286853412
     0.000000000  0.375000000  0.393426706
     0.750000000  0.500000000  0.393426706
     0.750000000  0.375000000  0.500000000
     0.000000000  0.500000000  0.500000000
     0.000000001  0.375000014  0.604420545
     0.750000001  0.499999992  0.610781619
     0.750000006  0.375000035  0.720512810
     0.999999988  0.500000008  0.708478097
     0.250000000  0.625000000  0.286853412
     0.500000000  0.750000000  0.286853412
     0.500000000  0.625000000  0.393426706
     0.250000000  0.750000000  0.393426706
     0.250000000  0.625000000  0.500000000
     0.500000000  0.750000000  0.500000000
     0.500000049  0.624999998  0.604420575
     0.250000032  0.749999979  0.610781590
     0.249999982  0.624999991  0.720512811
     0.499999969  0.749999986  0.708478101
     0.250000000  0.875000000  0.286853412
     0.500000000  0.000000000  0.286853412
     0.500000000  0.875000000  0.393426706
     0.250000000  0.000000000  0.393426706
[...]
     0.500000000  0.500000000  0.435151311
     0.347877722  0.375000000  0.393426706
     0.652122278  0.375000000  0.393426706
     0.250000000  0.500000000  0.458275395
     0.250000000  0.500000000  0.541724605
     0.597877722  0.375000000  0.500000000
     0.402122278  0.375000000  0.500000000
     0.500000010  0.500000002  0.565535419
     0.500000024  0.500000006  0.649214872
     0.350074070  0.375000024  0.607255933
     0.649925944  0.375000018  0.607255929
[...]
   O          53.752          3.925         10.024          1.85624068
   O          37.210          3.692          8.340          1.54441699
   O          53.463          3.921          9.997          1.85123618
   O          51.611          3.898          9.822          1.81888672

  Number of pair interactions contributing to vdW energy: 3395958
  Edisp (eV):  -34.94489

  FORCE on cell =-STRESS in cart. coord.  units (eV):
  Direction    XX          YY          ZZ          XY          YZ          ZX
  Alpha Z  4671.76807  4671.76807  4671.76807
  Ewald  965696.89957983164.34568************   -73.49506   134.91073   -76.35890
  Hartree************************************   -40.00404    78.82141   -49.10578
  E(xc)   -8645.23315 -8627.35018 -8654.61655    -0.10424     0.18995    -0.15917
  Local  ************************************   107.92403  -204.63210   122.11087
  n-local -5447.71465 -5370.63371 -5489.38030    -1.05022     1.84730    -0.59355
  augment  5227.95850  5211.60114  5232.68902     0.43121    -0.76747     0.12728
  Kinetic 28814.61876 28349.84200 28878.31533     6.29428   -10.49022     4.06489
  Fock        0.00000     0.00000     0.00000     0.00000     0.00000     0.00000
  vdW       -50.75879   -30.13684   -43.26862     0.00599     0.04781     0.15796
  Total       6.23364   -36.57758   -32.95645     0.00195    -0.07258     0.24361
  in kB       2.10697   -12.36324   -11.13929     0.00066    -0.02453     0.08234

 VOLUME and BASIS-vectors are now :
  energy-cutoff  :      600.00
  volume of cell :     4740.16
      direct lattice vectors                 reciprocal lattice vectors
    13.042933829  0.000000000  0.000000000     0.076669867  0.000000000  0.000000000
     0.000000000 11.878216733  0.000000000     0.000000000  0.084187721  0.000000000
     0.000000000  0.000000000 30.596159140     0.000000000  0.000000000  0.032683841

  length of vectors
    13.042933829 11.878216733 30.596159140     0.076669867  0.084187721  0.032683841

 FORCES acting on ions:
    Electron-Ion                     Ewald-Force                    Non-Local-Force
   0.386E+02 -.911E+02 -.160E+04   -.411E+02 0.961E+02 0.160E+04   0.254E+01 -.508E+01 -.471E+01
   0.217E+02 0.124E+03 -.249E+04   -.437E+02 -.150E+03 0.248E+04   0.220E+02 0.258E+02 0.988E+01
   0.583E+02 -.150E+02 -.391E+03   -.642E+02 0.155E+02 0.391E+03   0.588E+01 -.569E+00 0.269E+00
   -.688E+02 0.149E+02 -.424E+03   0.761E+02 -.155E+02 0.424E+03   -.738E+01 0.559E+00 0.411E+00
   -.113E+02 0.609E+01 -.383E+03   0.129E+02 -.749E+01 0.388E+03   -.152E+01 0.139E+01 -.537E+01
   -.184E+02 -.614E+02 -.389E+03   0.209E+02 0.663E+02 0.388E+03   -.251E+01 -.486E+01 0.130E+01
   -.195E+00 -.148E-01 0.376E+04   0.191E+00 0.150E-01 -.377E+04   0.109E-02 -.176E-04 0.429E+00
   -.572E-01 -.636E-01 0.394E+04   0.585E-01 0.638E-01 -.394E+04   -.261E-03 -.235E-04 -.389E+01
   -.214E+00 -.292E-01 0.193E+04   0.220E+00 0.294E-01 -.193E+04   -.890E-03 0.339E-04 -.446E-01
   -.387E+00 -.566E-01 0.192E+04   0.377E+00 0.572E-01 -.192E+04   0.233E-02 0.428E-04 0.209E+00
   -.772E+00 0.293E-01 0.158E+02   0.724E+00 -.481E-01 -.150E+02   0.814E-02 0.110E-02 -.123E+00
   -.101E+01 -.884E+00 0.225E+02   0.103E+01 0.889E+00 -.235E+02   -.552E-02 -.207E-02 0.348E+00
   -.319E+01 -.193E+01 -.184E+04   0.319E+01 0.194E+01 0.184E+04   -.144E-02 -.754E-02 0.643E-01
   -.788E+01 -.112E+02 -.188E+04   0.789E+01 0.112E+02 0.188E+04   -.139E-01 -.136E-01 -.857E-01
   -.100E+03 -.159E+02 -.367E+04   0.999E+02 0.158E+02 0.367E+04   0.186E+00 0.129E+00 -.115E-01
   -.604E+01 -.523E+01 -.374E+04   0.609E+01 0.524E+01 0.374E+04   -.536E-01 -.201E-01 0.919E+00
   -.203E+00 -.715E-01 0.376E+04   0.199E+00 0.718E-01 -.377E+04   0.114E-02 -.417E-05 0.429E+00
   -.546E-01 -.358E-01 0.394E+04   0.560E-01 0.359E-01 -.394E+04   -.271E-03 -.977E-05 -.389E+01
   -.189E+00 -.152E+00 0.193E+04   0.194E+00 0.152E+00 -.193E+04   -.901E-03 0.441E-04 -.447E-01
   -.469E+00 -.105E+00 0.192E+04   0.459E+00 0.105E+00 -.192E+04   0.217E-02 -.100E-03 0.209E+00
   -.204E+01 -.985E+00 0.143E+02   0.200E+01 0.101E+01 -.136E+02   0.686E-02 -.101E-02 -.124E+00
   -.817E+00 -.372E+00 0.211E+02   0.836E+00 0.373E+00 -.221E+02   -.502E-02 -.307E-03 0.345E+00
   -.541E+01 -.300E+01 -.185E+04   0.541E+01 0.302E+01 0.185E+04   0.951E-03 -.129E-01 0.590E-01
   -.575E+01 -.500E+00 -.190E+04   0.576E+01 0.493E+00 0.190E+04   -.134E-01 0.688E-02 -.102E+00
   -.300E+02 -.294E+02 -.372E+04   0.300E+02 0.294E+02 0.372E+04   0.497E-01 0.175E-01 -.133E+00
   -.517E+01 -.242E+01 -.375E+04   0.514E+01 0.242E+01 0.375E+04   0.256E-01 -.119E-02 0.959E+00
   -.197E+00 0.147E-01 0.376E+04   0.193E+00 -.151E-01 -.377E+04   0.112E-02 0.316E-04 0.429E+00
   -.572E-01 0.636E-01 0.394E+04   0.586E-01 -.638E-01 -.394E+04   -.279E-03 0.232E-04 -.389E+01
   -.189E+00 0.312E-01 0.193E+04   0.195E+00 -.314E-01 -.193E+04   -.988E-03 -.434E-04 -.448E-01
   -.347E+00 0.578E-01 0.192E+04   0.337E+00 -.586E-01 -.192E+04   0.221E-02 0.643E-04 0.209E+00
   -.186E+01 0.256E+00 0.137E+02   0.182E+01 -.290E+00 -.130E+02   0.826E-02 0.223E-02 -.125E+00
   -.100E+01 0.824E+00 0.218E+02   0.102E+01 -.832E+00 -.228E+02   -.574E-02 0.427E-02 0.349E+00
   -.163E+01 0.141E+01 -.185E+04   0.161E+01 -.142E+01 0.185E+04   0.431E-02 0.759E-02 0.651E-01
   -.732E+01 0.690E+01 -.189E+04   0.733E+01 -.689E+01 0.189E+04   -.948E-02 -.116E-01 -.104E+00
   -.218E+02 0.138E+02 -.373E+04   0.218E+02 -.138E+02 0.373E+04   0.469E-01 -.148E-01 -.155E+00
   -.495E+01 0.479E+01 -.375E+04   0.499E+01 -.480E+01 0.375E+04   -.496E-01 0.155E-01 0.920E+00
   -.189E+00 0.716E-01 0.376E+04   0.186E+00 -.718E-01 -.377E+04   0.107E-02 -.750E-05 0.429E+00
   -.597E-01 0.358E-01 0.394E+04   0.611E-01 -.359E-01 -.394E+04   -.269E-03 0.955E-05 -.389E+01
   -.217E+00 0.150E+00 0.193E+04   0.223E+00 -.150E+00 -.193E+04   -.983E-03 -.141E-03 -.447E-01
   -.268E+00 0.104E+00 0.192E+04   0.258E+00 -.103E+00 -.192E+04   0.198E-02 -.963E-04 0.209E+00
   -.559E+00 0.719E+00 0.151E+02   0.510E+00 -.694E+00 -.144E+02   0.917E-02 -.145E-02 -.122E+00
   -.108E+01 0.337E+00 0.232E+02   0.110E+01 -.338E+00 -.243E+02   -.578E-02 0.692E-03 0.347E+00
   -.537E+01 0.370E+01 -.184E+04   0.537E+01 -.371E+01 0.184E+04   -.118E-02 0.479E-02 0.630E-01
   -.687E+01 0.328E+01 -.188E+04   0.693E+01 -.328E+01 0.188E+04   -.634E-01 0.965E-02 -.834E-01
   -.830E+02 0.250E+02 -.368E+04   0.829E+02 -.248E+02 0.368E+04   0.118E+00 -.174E+00 -.649E-02
   -.834E+01 0.321E+01 -.374E+04   0.831E+01 -.321E+01 0.374E+04   0.284E-01 0.277E-02 0.867E+00
   0.196E+00 -.110E-01 0.376E+04   -.192E+00 0.110E-01 -.377E+04   -.109E-02 0.514E-05 0.428E+00
   0.563E-01 -.518E-01 0.394E+04   -.577E-01 0.522E-01 -.394E+04   0.262E-03 -.563E-04 -.389E+01
   0.195E+00 0.172E+00 0.193E+04   -.201E+00 -.160E+00 -.193E+04   0.758E-03 -.276E-02 -.463E-01
   0.409E+00 -.149E-01 0.192E+04   -.399E+00 0.156E-01 -.192E+04   -.222E-02 -.834E-04 0.205E+00
   0.150E+01 0.225E+00 0.136E+02   -.145E+01 -.236E+00 -.128E+02   -.120E-01 0.687E-03 -.131E+00
   0.872E+00 0.104E+01 0.271E+02   -.880E+00 -.112E+01 -.280E+02   -.199E-02 0.391E-01 0.265E+00
   0.352E+01 -.127E+02 -.183E+04   -.352E+01 0.128E+02 0.183E+04   0.490E-02 -.107E+00 0.453E-01
   0.142E+02 -.577E+01 -.190E+04   -.142E+02 0.576E+01 0.190E+04   -.171E-01 0.147E-01 -.862E-01
   0.631E+02 -.155E+02 -.369E+04   -.632E+02 0.155E+02 0.369E+04   0.816E-01 0.418E-02 -.155E+00
   0.262E+02 -.831E+02 -.365E+04   -.260E+02 0.832E+02 0.365E+04   -.181E+00 -.628E-01 0.111E+01
   0.204E+00 -.673E-01 0.376E+04   -.200E+00 0.678E-01 -.377E+04   -.114E-02 -.336E-04 0.428E+00
   0.537E-01 -.446E-01 0.394E+04   -.551E-01 0.446E-01 -.394E+04   0.267E-03 -.649E-06 -.389E+01
   0.167E+00 -.194E-01 0.193E+04   -.172E+00 0.203E-01 -.193E+04   0.731E-03 -.112E-02 -.475E-01
   0.491E+00 -.108E+00 0.192E+04   -.481E+00 0.108E+00 -.192E+04   -.221E-02 0.132E-03 0.204E+00
[...]
   -.531E+02 0.298E-01 0.115E+04   0.571E+02 -.308E-01 -.115E+04   -.354E+01 0.151E-02 0.151E+00
   0.533E+02 0.420E-01 0.115E+04   -.572E+02 -.427E-01 -.115E+04   0.355E+01 0.109E-02 0.159E+00
   0.366E+00 0.179E+00 0.509E+03   -.348E+00 -.180E+00 -.513E+03   -.243E-01 0.315E-02 0.413E+01
   0.215E+01 0.568E+00 -.508E+03   -.214E+01 -.561E+00 0.515E+03   -.295E-01 -.580E-02 -.704E+01
   -.545E+02 0.285E-01 0.143E+02   0.591E+02 -.315E-01 -.145E+02   -.503E+01 0.227E-01 0.246E+00
   0.553E+02 -.434E-01 0.136E+02   -.599E+02 0.356E-01 -.138E+02   0.507E+01 0.299E-01 0.230E+00
   0.115E+01 0.152E+01 -.601E+03   -.118E+01 -.158E+01 0.594E+03   0.310E-01 0.608E-01 0.686E+01
   0.110E+02 0.356E+01 -.158E+04   -.113E+02 -.343E+01 0.159E+04   0.367E+00 -.126E+00 -.224E+01
   -.278E+02 0.586E+01 -.111E+04   0.315E+02 -.611E+01 0.111E+04   -.366E+01 0.252E+00 0.111E+01
   0.234E+02 0.472E+01 -.111E+04   -.262E+02 -.470E+01 0.111E+04   0.275E+01 -.131E-01 0.686E+00
   0.208E+02 0.331E+01 -.178E+04   -.209E+02 -.340E+01 0.178E+04   0.284E-01 0.906E-01 -.207E+01
   0.580E+02 0.107E+02 -.268E+04   -.578E+02 -.108E+02 0.270E+04   -.196E+00 0.884E-01 -.203E+02
   -.517E+02 0.571E+02 -.220E+04   0.575E+02 -.567E+02 0.220E+04   -.586E+01 -.408E+00 -.873E+00
   0.711E+02 0.508E+02 -.227E+04   -.773E+02 -.511E+02 0.227E+04   0.618E+01 0.290E+00 -.328E+01
   -.165E+02 -.192E+02 0.876E+02   -.324E-11 0.249E-12 0.209E-10   0.165E+02 0.192E+02 -.876E+02

 POSITION                                       TOTAL-FORCE (eV/Angst)
      6.65867      6.99950     24.82853        -0.000128     -0.000211     -0.003583
      7.04405      5.94061     23.92115         0.002330     -0.000270      0.005793
      5.57085      7.09909     24.77019         0.005836     -0.006547      0.002524
      8.04575      5.88981     23.87177        -0.003119     -0.006958     -0.004283
      6.95789      6.72613     25.84828         0.001279     -0.005059     -0.000717
      7.14654      7.94767     24.55077         0.001185     -0.005451      0.000955
      9.78220      7.42389      8.77661        -0.002654      0.000204     -3.418490
      0.00000      8.90866      8.77661         0.001116      0.000179      2.829602
      0.00000      7.42389     12.03735         0.004853      0.000310      0.515703
      9.78220      8.90866     12.03735        -0.007904      0.000724     -0.720117
      9.78220      7.42389     15.29808        -0.040494     -0.017790      0.618930
      0.00000      8.90866     15.29808         0.012165      0.002547     -0.697353
      0.01167      7.42360     18.49337         0.003106      0.005247     -0.001517
      9.78664      8.90719     18.67257         0.000591      0.002418      0.000713
      9.79373      7.43246     22.00387        -0.000329      0.003263     -0.001714
      0.00038      8.91118     21.68360        -0.000650      0.008356      0.002030
      9.78220     10.39344      8.77661        -0.002752      0.000304     -3.418501
      0.00000      0.00000      8.77661         0.001134      0.000101      2.829447
      0.00000     10.39344     12.03735         0.005081      0.000141      0.516035
      9.78220      0.00000     12.03735        -0.008273     -0.000338     -0.720484
      9.78220     10.39344     15.29808        -0.030719      0.024978      0.627443
      0.00000      0.00000     15.29808         0.014085      0.000734     -0.693138
     -0.00785     10.39303     18.49490        -0.006778      0.003621     -0.000082
      9.77241      0.00182     18.68167        -0.004542      0.000490     -0.001087
      9.78067     10.39217     22.03790         0.003712      0.002514     -0.005216
      0.00520     -0.00260     21.68293        -0.000699     -0.000548      0.005077
      9.78220      1.48478      8.77661        -0.002721     -0.000308     -3.418744
      0.00000      2.96955      8.77661         0.001161     -0.000169      2.829448
      0.00000      1.48478     12.03735         0.005228     -0.000286      0.515980
      9.78220      2.96955     12.03735        -0.007625     -0.000712     -0.721132
      9.78220      1.48478     15.29808        -0.030632     -0.031582      0.619834
      0.00000      2.96955     15.29808         0.014986     -0.003813     -0.696549
      0.00192      1.48351     18.49562        -0.006230     -0.003551     -0.001534
      9.78232      2.96317     18.67208        -0.001398     -0.002108     -0.001583
      9.77851      1.47307     22.03972         0.002431     -0.002953     -0.004842
      0.00042      2.96293     21.68401         0.001721     -0.006446      0.002245
      9.78220      4.45433      8.77661        -0.002623     -0.000148     -3.418698
      0.00000      5.93911      8.77661         0.001145     -0.000061      2.829604
      0.00000      4.45433     12.03735         0.005264     -0.000128      0.515538
      9.78220      5.93911     12.03735        -0.007444      0.000354     -0.720744
      9.78220      4.45433     15.29808        -0.040689      0.024116      0.618331
      0.00000      5.93911     15.29808         0.012241     -0.000119     -0.699482
      0.00134      4.45329     18.49316         0.001172     -0.003063     -0.002217
      9.79813      5.93932     18.67893         0.005167      0.001126      0.000421
      9.80037      4.43133     22.00953        -0.001236      0.000288     -0.002345
      0.00761      5.93850     21.68177         0.000780      0.001514      0.000386
      3.26073      7.42389      8.77661         0.002730      0.000009     -3.416480
      6.52147      8.90866      8.77661        -0.001055      0.000350      2.836345
      6.52147      7.42389     12.03735        -0.004718      0.009644      0.540128
      3.26073      8.90866     12.03735         0.007760      0.000739     -0.706068
      3.26073      7.42389     15.29808         0.038265     -0.010684      0.661396
      6.52147      8.90866     15.29808        -0.009364     -0.041913     -0.564928
      6.52613      7.39513     18.53545         0.005818     -0.002607     -0.001210
      3.26585      8.90882     18.68048         0.001151      0.001784      0.001762
      3.26169      7.42372     22.03443         0.000595     -0.002635      0.003157
      6.53578      8.90763     21.64370         0.000892      0.004400     -0.001956
      3.26073     10.39344      8.77661         0.002801      0.000530     -3.416476
      6.52147      0.00000      8.77661        -0.001071      0.000043      2.836358
      6.52147     10.39344     12.03735        -0.004710     -0.000191      0.541574
      3.26073      0.00000     12.03735         0.007979      0.000165     -0.704342
[...]
      6.52147      5.93911     13.31396         0.001927     -0.000756     -0.123881
      4.53735      4.45433     12.03735         0.421369      0.000570      0.053992
      8.50559      4.45433     12.03735        -0.415509      0.000382      0.055969
      3.26073      5.93911     14.02147        -0.006616      0.001872     -0.102393
      3.26073      5.93911     16.57469        -0.016079      0.001448      0.005465
      7.79808      4.45433     15.29808        -0.430776      0.019377      0.072587
      5.24485      4.45433     15.29808         0.457667      0.021855      0.074652
      6.52489      5.93711     17.31133         0.000966     -0.000224     -0.002769
      6.51069      5.94102     19.88514         0.000592      0.000109     -0.000169
      4.55742      4.45237     18.58255         0.000756      0.001561      0.000297
      8.48375      4.45282     18.59466        -0.001345      0.003179     -0.001348
      3.25772      5.94231     20.55347         0.002068      0.000267     -0.000371
      3.28227      5.93922     23.12028        -0.002348     -0.000297     -0.002186
      7.77636      4.41014     21.88628         0.001186      0.001011     -0.003324
      5.30343      4.44104     21.98812         0.001603      0.003087      0.000222
    total drift:                               -0.008873     -0.003981     -0.024309

  FREE ENERGIE OF THE ION-ELECTRON SYSTEM (eV)
  free  energy   TOTEN  =     -2186.34335949 eV

  energy  without entropy=    -2186.34335949  energy(sigma->0) =    -2186.34335949

 d Force = 0.5030444E-04[ 0.368E-04, 0.638E-04]  d Energy = 0.3722538E-04 0.131E-04
 d Force = 0.1018799E+02[ 0.102E+02, 0.102E+02]  d Ewald  = 0.1018799E+02 0.938E-07

 Conjugate gradient step on ions:
 trial-energy change:   -0.000037  1 .order   -0.000050   -0.000064   -0.000037
  (g-gl).g = 0.193E-03      g.g   = 0.167E-03  gl.gl    = 0.171E-03
 g(Force)  = 0.167E-03   g(Stress)= 0.000E+00 ortho     = 0.434E-05
 gamma     =   1.12620
 trial     =   0.37117
 opt step  =   0.87709  (harmonic =   0.87709) maximal distance =0.00247539
 next E    = -2186.343398   (d E  =  -0.00008)

 reached required accuracy - stopping structural energy minimisation