 vasp.6.4.1 05Apr23 (build Sep 19 2024 10:44:22) complex

 executed on             LinuxIFC date 2024.10.13  21:13:23

 INCAR:
   SYSTEM = TiO2
   ISMEAR = 0
   SIGMA = 0.05
   EDIFF = 1E-7
   ALGO = ALL
   ISTART = 0
   IBRION = 2
   NSW = 1000
   ISYM = 0
   ISIF = 2
   EDIFFG = -0.01
   DIPOL = 0.5 0.5 0.5
   IDIPOL = 3
   LDIPOL = .TRUE.
   METAGGA = R2SCAN
   LUSE_VDW = .TRUE.
   BPARAM = 11.95
   CPARAM = 0.0093
   LASPH = .TRUE.
   ENCUT = 600
   PREC = Accurate
   LASPH = .TRUE.
   LREAL = .FALSE.
   ISPIN = 1
   NELM = 200
   NELMIN = 8
   NCORE = 8
   KPAR = 1
   LWAVE = .FALSE.
   LCHARG = .FALSE.

 POTCAR:    PAW_PBE H 15Jun2001
 POTCAR:    PAW_PBE O 08Apr2002
 POTCAR:    PAW_PBE Ti_pv 07Sep2000
 POTCAR:    PAW_PBE O 08Apr2002
|           W    W    AA    RRRRR   N    N  II  N    N   GGGG   !!!           |
|           W    W   A  A   R    R  NN   N  II  NN   N  G    G  !!!           |
|           W    W  A    A  R    R  N N  N  II  N N  N  G       !!!           |
|           W WW W  AAAAAA  RRRRR   N  N N  II  N  N N  G  GGG   !            |
|           WW  WW  A    A  R   R   N   NN  II  N   NN  G    G                |
|           W    W  A    A  R    R  N    N  II  N    N   GGGG   !!!           |
|     For optimal performance we recommend to set                             |
|       NCORE = 2 up to number-of-cores-per-socket                            |
|     This setting can greatly improve the performance of VASP for DFT.       |
|     The default, NCORE=1 might be grossly inefficient on modern             |
|     multi-core architectures or massively parallel machines. Do your        |
|     Unfortunately you need to use the default for GW and RPA                |
|     calculations (for HF NCORE is supported but not extensively tested      |
|     yet).                                                                   |

   TITEL  = PAW_PBE H 15Jun2001
   POMASS =    1.000; ZVAL   =    1.000    mass and valenz
   ENMAX  =  250.000; ENMIN  =  200.000 eV

   TITEL  = PAW_PBE O 08Apr2002
   POMASS =   16.000; ZVAL   =    6.000    mass and valenz
   ENMAX  =  400.000; ENMIN  =  300.000 eV

   TITEL  = PAW_PBE Ti_pv 07Sep2000
   POMASS =   47.880; ZVAL   =   10.000    mass and valenz
   ENMAX  =  222.335; ENMIN  =  166.751 eV

   TITEL  = PAW_PBE O 08Apr2002
   POMASS =   16.000; ZVAL   =    6.000    mass and valenz
   ENMAX  =  400.000; ENMIN  =  300.000 eV

  PAW_PBE H 15Jun2001                   :
  PAW_PBE O 08Apr2002                   :
  PAW_PBE Ti_pv 07Sep2000               :
  PAW_PBE O 08Apr2002                   :

 POSCAR:  H  O Ti  O
  positions in direct lattice

 METAGGA = R2SCAN                                      LMAXTAU =  6    LMIXTAU =  F

 ion  position               nearest neighbor table
   1  0.509  0.551  0.799-   3 0.97
   2  0.612  0.497  0.780-   3 1.00
   3  0.536  0.492  0.779-   1 0.97   2 1.00  83 2.23
   4  0.750  0.625  0.287-  85 1.95 145 1.95 144 1.95  84 1.95  87 1.97 166 1.97  14 2.96  34 2.96

   5  0.000  0.750  0.287-  86 1.95  87 1.95 106 1.95 107 1.95  88 1.97  35 2.96  15 2.96
   6  0.000  0.625  0.394-  88 1.95  89 1.95 148 1.95 149 1.95  90 1.97  91 1.97  16 2.96  36 2.96

[...]

  84  0.750  0.750  0.246-   4 1.95  14 1.95
  85  0.750  0.750  0.329-   4 1.95  14 1.95   7 1.97
  86  0.098  0.625  0.287-   5 1.95  35 1.95  44 1.97
  87  0.902  0.625  0.287-   5 1.95  35 1.95   4 1.97
  88  0.000  0.750  0.352-   6 1.95  16 1.95   5 1.97
  89  0.000  0.750  0.435-   6 1.95  16 1.95   9 1.97
  90  0.848  0.625  0.394-   7 1.95  37 1.95   6 1.97
  91  0.152  0.625  0.394-  47 1.95  77 1.95   6 1.97
  92  0.750  0.750  0.458-   8 1.95  18 1.95   7 1.97
  93  0.750  0.750  0.542-   8 1.95  18 1.95  11 2.09
  94  0.098  0.625  0.500-   9 1.95  39 1.95  48 1.97
  95  0.902  0.625  0.500-   9 1.95  39 1.95   8 1.97
  96  1.000  0.750  0.565-  20 1.90  10 1.90   9 1.99
  97  0.000  0.750  0.649-  13 1.81  10 2.01  20 2.01
  98  0.850  0.625  0.607-  10 1.95  11 1.97  41 1.97
  99  0.150  0.625  0.607-  10 1.95  81 1.97  51 1.97
 100  0.750  0.750  0.671-  11 1.87  22 2.09  12 2.09
 101  0.750  0.750  0.755-  22 1.83  12 1.83
 102  0.094  0.625  0.718-  43 1.94  13 1.94  52 2.03
 103  0.906  0.625  0.718-  43 1.94  13 1.94  12 2.03
 104  0.750  0.000  0.246-  14 1.95  24 1.95
 105  0.750  0.000  0.329-  14 1.95  24 1.95  17 1.97
 106  0.098  0.875  0.287-   5 1.95  15 1.95  54 1.97
 107  0.902  0.875  0.287-   5 1.95  15 1.95  14 1.97
 108  0.000  0.000  0.352-  16 1.95  26 1.95  15 1.97
 109  0.000  0.000  0.435-  16 1.95  26 1.95  19 1.97
 110  0.848  0.875  0.394-   7 1.95  17 1.95  16 1.97
 111  0.152  0.875  0.394-  47 1.95  57 1.95  16 1.97
 112  0.750  0.000  0.458-  18 1.95  28 1.95  17 1.97
 113  0.750  0.000  0.542-  18 1.95  28 1.95  21 2.09
 114  0.098  0.875  0.500-   9 1.95  19 1.95  58 1.97
 115  0.902  0.875  0.500-   9 1.95  19 1.95  18 1.97
 116  1.000  0.000  0.565-  20 1.90  30 1.90  19 1.99
 117  0.000  1.000  0.649-  23 1.81  30 2.01  20 2.01
 118  0.850  0.875  0.607-  20 1.95  21 1.97  11 1.97
 119  0.150  0.875  0.607-  20 1.95  61 1.97  51 1.97
 120  0.750  0.000  0.671-  21 1.87  32 2.09  22 2.09
 121  0.750  1.000  0.755-  32 1.83  22 1.83
 122  0.094  0.875  0.718-  13 1.94  23 1.94  62 2.03
 123  0.906  0.875  0.718-  23 1.94  13 1.94  22 2.03
 124  0.750  0.250  0.246-  24 1.95  34 1.95
 125  0.750  0.250  0.329-  24 1.95  34 1.95  27 1.97
 126  0.098  0.125  0.287-  15 1.95  25 1.95  64 1.97
 127  0.902  0.125  0.287-  15 1.95  25 1.95  24 1.97
 128  0.000  0.250  0.352-  26 1.95  36 1.95  25 1.97
 129  0.000  0.250  0.435-  26 1.95  36 1.95  29 1.97
 130  0.848  0.125  0.394-  17 1.95  27 1.95  26 1.97
 131  0.152  0.125  0.394-  57 1.95  67 1.95  26 1.97
 132  0.750  0.250  0.458-  28 1.95  38 1.95  27 1.97
 133  0.750  0.250  0.542-  28 1.95  38 1.95  31 2.09
 134  0.098  0.125  0.500-  19 1.95  29 1.95  68 1.97
 135  0.902  0.125  0.500-  19 1.95  29 1.95  28 1.97
 136  1.000  0.250  0.565-  40 1.90  30 1.90  29 1.99
 137  0.000  0.250  0.649-  33 1.81  30 2.01  40 2.01
 138  0.850  0.125  0.607-  30 1.95  31 1.97  21 1.97
 139  0.150  0.125  0.607-  30 1.95  61 1.97  71 1.97
 140  0.750  0.250  0.671-  31 1.87  42 2.09  32 2.09
 141  0.750  0.250  0.755-  42 1.83  32 1.83
 142  0.094  0.125  0.718-  33 1.94  23 1.94  72 2.03
 143  0.906  0.125  0.718-  23 1.94  33 1.94  32 2.03
[...]
 229  0.500  0.500  0.435-  46 1.95  76 1.95  79 1.97
 230  0.348  0.375  0.394-  67 1.95  77 1.95  76 1.97
 231  0.652  0.375  0.394-  27 1.95  37 1.95  76 1.97
 232  0.250  0.500  0.458-  48 1.95  78 1.95  77 1.97
 233  0.250  0.500  0.542-  48 1.95  78 1.95  81 2.09
 234  0.598  0.375  0.500-  69 1.95  79 1.95  38 1.97
 235  0.402  0.375  0.500-  69 1.95  79 1.95  78 1.97
 236  0.500  0.500  0.565-  80 1.90  50 1.90  79 1.99
 237  0.500  0.500  0.649-  83 1.81  50 2.01  80 2.01
 238  0.350  0.375  0.607-  80 1.95  71 1.97  81 1.97
 239  0.650  0.375  0.607-  80 1.95  41 1.97  31 1.97
 240  0.250  0.500  0.671-  81 1.87  82 2.09  52 2.09
 241  0.250  0.500  0.755-  52 1.83  82 1.83
 242  0.594  0.375  0.718-  83 1.94  73 1.94  42 2.03
 243  0.406  0.375  0.718-  73 1.94  83 1.94  82 2.03

IMPORTANT INFORMATION: All symmetrisations will be switched off!
NOSYMM: (Re-)initialisation of all symmetry stuff for point group C_1.

                                     Primitive cell

  volume of cell :    4687.7932

  direct lattice vectors                    reciprocal lattice vectors
    12.981765453  0.000000000  0.000000000     0.077031125  0.000000000  0.000000000
     0.000000000 11.829918508  0.000000000     0.000000000  0.084531436  0.000000000
     0.000000000  0.000000000 30.524807391     0.000000000  0.000000000  0.032760239

  length of vectors
    12.981765453 11.829918508 30.524807391     0.077031125  0.084531436  0.032760239

  position of ions in fractional coordinates (direct lattice)
     0.509235284  0.550553299  0.798552141
     0.612316649  0.496888558  0.779655103
     0.535766506  0.491925535  0.779312387
     0.750000000  0.625000000  0.287357127
     0.000000000  0.750000000  0.287357127
     0.000000000  0.625000000  0.393678564
     0.750000000  0.750000000  0.393678564
     0.750000000  0.625000000  0.500000000
     0.000000000  0.750000000  0.500000000
     0.999999975  0.624999996  0.604133439
     0.749999938  0.749999994  0.610202908
     0.750000066  0.624999975  0.719737307
     0.000000051  0.749999998  0.707967630
     0.750000000  0.875000000  0.287357127
     0.000000000  0.000000000  0.287357127
     0.000000000  0.875000000  0.393678564
     0.750000000  0.000000000  0.393678564
     0.750000000  0.875000000  0.500000000
     0.000000000  0.000000000  0.500000000
     0.999999953  0.875000007  0.604133430
     0.749999934  0.999999993  0.610202922
     0.750000020  0.874999952  0.719737329
     0.999999999  0.999999991  0.707967643
     0.750000000  0.125000000  0.287357127
     0.000000000  0.250000000  0.287357127
     0.000000000  0.125000000  0.393678564
     0.750000000  0.250000000  0.393678564
     0.750000000  0.125000000  0.500000000
     0.000000000  0.250000000  0.500000000
     0.999999971  0.124999995  0.604133456
     0.749999939  0.249999987  0.610202920
     0.750000026  0.124999981  0.719737342
     0.000000064  0.250000002  0.707967647
     0.750000000  0.375000000  0.287357127
     0.000000000  0.500000000  0.287357127
     0.000000000  0.375000000  0.393678564
     0.750000000  0.500000000  0.393678564
     0.750000000  0.375000000  0.500000000
     0.000000000  0.500000000  0.500000000
     0.999999958  0.374999994  0.604133442
     0.749999936  0.500000001  0.610202903
     0.750000076  0.374999948  0.719737327
     0.000000077  0.500000004  0.707967634
     0.250000000  0.625000000  0.287357127
     0.500000000  0.750000000  0.287357127
     0.500000000  0.625000000  0.393678564
     0.250000000  0.750000000  0.393678564
     0.250000000  0.625000000  0.500000000
     0.500000000  0.750000000  0.500000000
     0.499999960  0.625000000  0.604133443
     0.249999931  0.750000018  0.610202917
     0.250000052  0.625000010  0.719737319
     0.500000061  0.750000004  0.707967626
     0.250000000  0.875000000  0.287357127
     0.500000000  0.000000000  0.287357127
     0.500000000  0.875000000  0.393678564
     0.250000000  0.000000000  0.393678564
     0.250000000  0.875000000  0.500000000
     0.500000000  0.000000000  0.500000000
     0.499999978  0.875000003  0.604133432
[...]
     0.500000000  0.500000000  0.435333895
     0.347946691  0.375000000  0.393678564
     0.652053309  0.375000000  0.393678564
     0.250000000  0.500000000  0.458344669
     0.250000000  0.500000000  0.541655331
     0.597946691  0.375000000  0.500000000
     0.402053309  0.375000000  0.500000000
     0.499999903  0.499999995  0.565135701
     0.500000068  0.500000001  0.648583822
     0.350049465  0.374999983  0.606878662
     0.649950581  0.374999992  0.606878611
     0.250000059  0.499999994  0.671309955
     0.249999858  0.500000005  0.754960536
     0.593849835  0.375000016  0.718284261
     0.406150406  0.375000010  0.718284401

  ion indices of the primitive-cell ions
[...]
   4.54426006  4.43621924 18.52485426
   8.43750600  4.43621934 18.52485272
   3.24544213  5.91495918 20.49160707
   3.24543952  5.91495932 23.04502496
   7.70921927  4.43621963 21.92548873
   5.27254931  4.43621956 21.92549300

--------------------------------------- Iteration      FINAL  ---------------------------------------

--------------------OUTCAR has been truncated-------------------------

[...]

--------------------OUTCAR has been truncated-------------------------

  FORCE on cell =-STRESS in cart. coord.  units (eV):
  Direction    XX          YY          ZZ          XY          YZ          ZX
  Alpha Z  4698.40040  4698.40040  4698.40040
  Ewald  983610.48673************************   -26.94289    39.67868   -34.25136
  Hartree************************************    -7.12974     6.90011   -17.75905
  E(xc)   -9167.78806 -9177.04912 -9165.38654     0.14484    -0.24196    -0.00739
  Local  ************************************    27.90209   -34.64478    47.22673
  n-local -5200.13277 -5105.76555 -5243.35267    -0.33010     0.04445     0.07986
  augment  5523.55201  5491.76859  5528.78206     0.41403    -0.82530     0.16741
  Kinetic 28815.53289 28343.59896 28874.98428     5.92729   -10.91959     4.28576
  Fock        0.00000     0.00000     0.00000     0.00000     0.00000     0.00000
  Total       4.41814   -44.91100   -35.70457    -0.01449    -0.00838    -0.25803
  in kB       1.51001   -15.34952   -12.20298    -0.00495    -0.00286    -0.08819

 VOLUME and BASIS-vectors are now :
  energy-cutoff  :      600.00
  volume of cell :     4687.79
      direct lattice vectors                 reciprocal lattice vectors
    12.981765453  0.000000000  0.000000000     0.077031125  0.000000000  0.000000000
     0.000000000 11.829918508  0.000000000     0.000000000  0.084531436  0.000000000
     0.000000000  0.000000000 30.524807391     0.000000000  0.000000000  0.032760239

  length of vectors
    12.981765453 11.829918508 30.524807391     0.077031125  0.084531436  0.032760239

 FORCES acting on ions:
    Electron-Ion                     Ewald-Force                    Non-Local-Force
   0.344E+02 -.611E+02 -.459E+03   -.377E+02 0.670E+02 0.465E+03   0.324E+01 -.594E+01 -.548E+01
   -.626E+02 -.147E+01 -.439E+03   0.704E+02 0.162E+01 0.439E+03   -.777E+01 -.152E+00 0.105E+00
   0.533E+02 0.385E+02 -.260E+04   -.717E+02 -.703E+02 0.259E+04   0.183E+02 0.318E+02 0.145E+02
   -.989E-01 -.141E-01 0.381E+04   0.956E-01 0.142E-01 -.381E+04   0.876E-03 0.269E-04 0.444E+00
   -.526E-01 -.285E-01 0.399E+04   0.540E-01 0.286E-01 -.399E+04   -.495E-04 -.135E-04 -.402E+01
   -.214E+00 -.442E-01 0.195E+04   0.222E+00 0.441E-01 -.195E+04   -.137E-02 0.110E-03 -.613E-01
   -.254E+00 -.604E-02 0.194E+04   0.244E+00 0.650E-02 -.194E+04   0.239E-02 0.264E-04 0.222E+00
   -.158E+00 -.785E-01 0.417E+01   0.109E+00 0.544E-01 -.345E+01   0.778E-02 0.134E-02 -.117E+00
   -.821E+00 -.583E+00 0.127E+02   0.852E+00 0.587E+00 -.137E+02   -.103E-01 -.317E-02 0.318E+00
   -.650E+01 -.189E+01 -.188E+04   0.651E+01 0.190E+01 0.188E+04   -.503E-02 -.783E-02 0.148E+00
   -.368E+01 -.745E+01 -.193E+04   0.369E+01 0.745E+01 0.193E+04   -.137E-01 -.374E-02 -.169E+00
   -.719E+02 -.155E+02 -.375E+04   0.717E+02 0.153E+02 0.375E+04   0.203E+00 0.134E+00 -.950E-01
   -.583E+01 -.280E+01 -.381E+04   0.588E+01 0.282E+01 0.381E+04   -.519E-01 -.206E-01 0.115E+01
   -.110E+00 -.190E-01 0.381E+04   0.106E+00 0.193E-01 -.382E+04   0.889E-03 -.107E-04 0.444E+00
   -.498E-01 -.245E-02 0.399E+04   0.512E-01 0.252E-02 -.399E+04   -.506E-04 -.762E-05 -.402E+01
   -.180E+00 -.578E-01 0.195E+04   0.187E+00 0.575E-01 -.195E+04   -.129E-02 0.952E-04 -.613E-01
   -.346E+00 -.170E-01 0.194E+04   0.336E+00 0.167E-01 -.194E+04   0.230E-02 0.535E-05 0.222E+00
   -.148E+01 -.481E+00 0.315E+01   0.144E+01 0.514E+00 -.242E+01   0.622E-02 -.164E-02 -.118E+00
   -.435E+00 -.133E-01 0.118E+02   0.465E+00 0.116E-01 -.129E+02   -.973E-02 0.651E-03 0.315E+00
   -.403E+01 -.136E+01 -.189E+04   0.403E+01 0.137E+01 0.189E+04   -.264E-03 -.926E-02 0.157E+00
   -.244E+01 0.265E+00 -.195E+04   0.247E+01 -.263E+00 0.195E+04   -.199E-01 -.690E-03 -.174E+00
   -.155E+02 -.153E+02 -.379E+04   0.155E+02 0.153E+02 0.379E+04   0.588E-01 0.135E-01 -.246E+00
   -.523E+01 0.285E+00 -.381E+04   0.521E+01 -.283E+00 0.381E+04   0.250E-01 -.117E-02 0.119E+01
   -.109E+00 0.140E-01 0.381E+04   0.105E+00 -.143E-01 -.382E+04   0.881E-03 0.385E-04 0.444E+00
   -.527E-01 0.285E-01 0.399E+04   0.541E-01 -.286E-01 -.399E+04   -.616E-04 0.148E-04 -.402E+01
   -.179E+00 0.473E-01 0.195E+04   0.186E+00 -.470E-01 -.195E+04   -.133E-02 -.898E-04 -.613E-01
   -.235E+00 0.573E-02 0.194E+04   0.226E+00 -.618E-02 -.194E+04   0.231E-02 -.231E-04 0.222E+00
   -.141E+01 0.374E+00 0.312E+01   0.138E+01 -.410E+00 -.239E+01   0.692E-02 0.195E-02 -.118E+00
   -.790E+00 0.591E+00 0.127E+02   0.822E+00 -.594E+00 -.138E+02   -.102E-01 0.241E-02 0.318E+00
   -.319E+01 0.142E+01 -.189E+04   0.319E+01 -.143E+01 0.189E+04   0.737E-03 0.112E-01 0.154E+00
   -.425E+01 0.716E+01 -.193E+04   0.427E+01 -.716E+01 0.193E+04   -.131E-01 0.136E-02 -.175E+00
   -.157E+02 0.153E+02 -.379E+04   0.156E+02 -.153E+02 0.379E+04   0.624E-01 -.394E-02 -.252E+00
   -.536E+01 0.265E+01 -.381E+04   0.541E+01 -.267E+01 0.381E+04   -.484E-01 0.184E-01 0.115E+01
   -.974E-01 0.191E-01 0.381E+04   0.941E-01 -.193E-01 -.381E+04   0.863E-03 -.380E-04 0.444E+00
   -.554E-01 0.247E-02 0.399E+04   0.568E-01 -.254E-02 -.399E+04   -.705E-04 0.354E-05 -.402E+01
   -.213E+00 0.547E-01 0.195E+04   0.221E+00 -.545E-01 -.195E+04   -.139E-02 -.104E-03 -.613E-01
   -.147E+00 0.173E-01 0.194E+04   0.138E+00 -.170E-01 -.194E+04   0.211E-02 -.296E-04 0.222E+00
   -.660E-01 0.185E+00 0.407E+01   0.151E-01 -.158E+00 -.335E+01   0.809E-02 -.148E-02 -.117E+00
   -.927E+00 0.166E-01 0.135E+02   0.960E+00 -.162E-01 -.146E+02   -.116E-01 -.253E-03 0.316E+00
   -.622E+01 0.185E+01 -.188E+04   0.623E+01 -.186E+01 0.188E+04   -.445E-02 0.625E-02 0.151E+00
   -.417E+01 -.239E-01 -.192E+04   0.423E+01 0.216E-01 0.193E+04   -.569E-01 0.987E-03 -.168E+00
   -.722E+02 0.144E+02 -.375E+04   0.721E+02 -.142E+02 0.375E+04   0.151E+00 -.151E+00 -.980E-01
   -.809E+01 -.395E-01 -.381E+04   0.806E+01 0.345E-01 0.381E+04   0.343E-01 0.254E-02 0.111E+01
   0.998E-01 -.100E-01 0.381E+04   -.962E-01 0.993E-02 -.381E+04   -.118E-02 0.107E-04 0.444E+00
   0.515E-01 -.114E-01 0.399E+04   -.534E-01 0.117E-01 -.399E+04   0.574E-03 -.363E-04 -.402E+01
   0.198E+00 0.133E+00 0.195E+04   -.205E+00 -.122E+00 -.195E+04   0.886E-03 -.233E-02 -.633E-01
   0.270E+00 0.445E-01 0.194E+04   -.261E+00 -.443E-01 -.194E+04   -.177E-02 -.393E-04 0.217E+00
   0.953E+00 0.134E+00 0.186E+01   -.908E+00 -.151E+00 -.106E+01   -.112E-01 0.111E-02 -.129E+00
   0.104E+01 0.114E+01 0.157E+02   -.105E+01 -.122E+01 -.166E+02   -.453E-02 0.372E-01 0.248E+00
   0.143E+01 -.113E+02 -.188E+04   -.144E+01 0.114E+02 0.188E+04   0.106E-01 -.701E-01 0.946E-01
   0.101E+02 -.483E+01 -.194E+04   -.101E+02 0.482E+01 0.194E+04   -.188E-01 0.153E-01 -.163E+00
   0.362E+02 -.136E+02 -.377E+04   -.363E+02 0.135E+02 0.377E+04   0.767E-01 0.368E-02 -.280E+00
   0.200E+02 -.551E+02 -.376E+04   -.199E+02 0.552E+02 0.376E+04   -.162E+00 -.229E-01 0.128E+01
   0.111E+00 -.148E-01 0.381E+04   -.107E+00 0.150E-01 -.381E+04   -.123E-02 0.105E-04 0.444E+00
   0.488E-01 -.472E-02 0.399E+04   -.506E-01 0.477E-02 -.399E+04   0.569E-03 -.433E-06 -.402E+01
   0.167E+00 0.884E-01 0.195E+04   -.173E+00 -.874E-01 -.195E+04   0.787E-03 -.101E-02 -.642E-01
   0.358E+00 -.166E-01 0.194E+04   -.349E+00 0.165E-01 -.194E+04   -.187E-02 0.326E-04 0.217E+00
   0.205E+01 0.404E-01 0.170E+01   -.203E+01 -.384E-01 -.919E+00   -.573E-02 -.388E-03 -.126E+00
   0.636E+00 -.190E+00 0.191E+02   -.642E+00 0.190E+00 -.202E+02   -.232E-02 -.119E-02 0.273E+00
   -.183E+01 -.101E+02 -.186E+04   0.181E+01 0.102E+02 0.186E+04   0.270E-01 -.174E-02 0.958E-03
[...]
   -.530E+02 -.347E-01 0.116E+04   0.570E+02 0.340E-01 -.116E+04   -.362E+01 0.814E-03 0.174E+00
   0.531E+02 -.197E-01 0.116E+04   -.572E+02 0.189E-01 -.116E+04   0.363E+01 0.111E-02 0.183E+00
   0.196E+00 0.323E-01 0.509E+03   -.180E+00 -.325E-01 -.514E+03   -.219E-01 0.550E-03 0.431E+01
   0.146E+01 0.200E+00 -.522E+03   -.143E+01 -.200E+00 0.529E+03   -.449E-01 -.254E-02 -.716E+01
   -.543E+02 -.337E+00 0.752E+01   0.591E+02 0.334E+00 -.769E+01   -.519E+01 0.234E-01 0.235E+00
   0.551E+02 -.418E+00 0.697E+01   -.599E+02 0.412E+00 -.714E+01   0.525E+01 0.278E-01 0.244E+00
   -.599E+00 0.560E+00 -.624E+03   0.750E+00 -.644E+00 0.617E+03   -.150E+00 0.854E-01 0.688E+01
   0.120E+02 -.165E+01 -.162E+04   -.125E+02 0.170E+01 0.162E+04   0.516E+00 -.475E-01 -.186E+01
   -.244E+02 0.278E+01 -.113E+04   0.276E+02 -.292E+01 0.113E+04   -.317E+01 0.146E+00 0.111E+01
   0.292E+02 0.316E+01 -.114E+04   -.326E+02 -.321E+01 0.114E+04   0.333E+01 0.602E-01 0.555E+00
   0.136E+02 -.746E+00 -.182E+04   -.136E+02 0.746E+00 0.182E+04   -.616E-01 0.376E-03 -.211E+01
   0.377E+02 0.760E+00 -.273E+04   -.376E+02 -.833E+00 0.276E+04   -.392E-01 0.747E-01 -.213E+02
   -.472E+02 0.450E+02 -.223E+04   0.535E+02 -.448E+02 0.223E+04   -.624E+01 -.192E+00 -.479E+00
   0.645E+02 0.331E+02 -.232E+04   -.708E+02 -.331E+02 0.232E+04   0.636E+01 -.342E-01 -.344E+01
   -.129E+02 -.261E+02 0.807E+02   -.573E-11 0.229E-11 -.164E-10   0.131E+02 0.261E+02 -.808E+02

 POSITION                                       TOTAL-FORCE (eV/Angst)
      6.66997      6.49627     24.44379        -0.003230      0.003916     -0.001947
      8.00032      5.86838     23.83321         0.002943      0.001022     -0.002266
      7.00737      5.82233     23.83965        -0.004915     -0.000484      0.003375
      9.73632      7.39370      8.77152        -0.002935      0.000172     -3.756608
      0.00000      8.87244      8.77152         0.000805      0.000125      2.940791
      0.00000      7.39370     12.01696         0.005717      0.000024      0.539623
      9.73632      8.87244     12.01696        -0.007986      0.000509     -0.769819
      9.73632      7.39370     15.26240        -0.041771     -0.022596      0.597571
      0.00000      8.87244     15.26240         0.020178      0.001536     -0.736417
      0.00238      7.39422     18.44103         0.000133      0.001225     -0.000395
      9.74074      8.87386     18.61044         0.000749     -0.000976      0.003888
      9.75576      7.40713     21.93109         0.007027     -0.001463     -0.001336
      0.00937      8.87422     21.61691         0.001221      0.000695      0.000001
      9.73632     10.35118      8.77152        -0.003077      0.000313     -3.756639
      0.00000      0.00000      8.77152         0.000778      0.000077      2.940597
      0.00000     10.35118     12.01696         0.005435     -0.000265      0.539612
      9.73632      0.00000     12.01696        -0.008265     -0.000224     -0.770249
      9.73632     10.35118     15.26240        -0.030397      0.031062      0.604594
      0.00000      0.00000     15.26240         0.018961     -0.001060     -0.732890
      0.00038     10.35149     18.44325        -0.000182      0.000508      0.001356
      9.73322      0.00026     18.62013         0.004142      0.000921     -0.005292
      9.74640     10.35410     21.96263        -0.004630      0.000609      0.004305
      0.01281     -0.00021     21.61539         0.001765      0.001380      0.000139
      9.73632      1.47874      8.77152        -0.003060     -0.000220     -3.756793
      0.00000      2.95748      8.77152         0.000811     -0.000099      2.940630
      0.00000      1.47874     12.01696         0.005510      0.000170      0.539466
      9.73632      2.95748     12.01696        -0.007807     -0.000465     -0.770349
      9.73632      1.47874     15.26240        -0.029732     -0.033855      0.602624
      0.00000      2.95748     15.26240         0.021023     -0.000554     -0.736966
      0.00059      1.47837     18.44284        -0.000409     -0.001005      0.000131
      9.73911      2.95591     18.61032         0.000309      0.000717      0.003123
      9.74446      1.47306     21.96287        -0.002193      0.000174      0.003890
      0.01011      2.95503     21.61643         0.001595     -0.000524      0.001540
      9.73632      4.43622      8.77152        -0.002925     -0.000201     -3.756760
      0.00000      5.91496      8.77152         0.000827     -0.000057      2.940774
      0.00000      4.43622     12.01696         0.005802      0.000123      0.539518
      9.73632      5.91496     12.01696        -0.007601      0.000220     -0.770133
      9.73632      4.43622     15.26240        -0.042862      0.025364      0.596476
      0.00000      5.91496     15.26240         0.021116      0.000137     -0.739784
      0.00161      4.43614     18.44098         0.000123     -0.001309      0.000013
      9.74545      5.91508     18.61738         0.002254     -0.001385     -0.000234
      9.76123      4.41956     21.93277         0.005404     -0.003332      0.000787
      0.02018      5.91585     21.61482         0.000697     -0.002329     -0.001047
      3.24544      7.39370      8.77152         0.001883     -0.000095     -3.753971
      6.49088      8.87244      8.77152        -0.001808      0.000338      2.946774
      6.49088      7.39370     12.01696        -0.006279      0.008637      0.561034
      3.24544      8.87244     12.01696         0.006445      0.000092     -0.751711
      3.24544      7.39370     15.26240         0.032575     -0.015101      0.658610
      6.49088      8.87244     15.26240        -0.009323     -0.045030     -0.610410
      6.49230      7.36881     18.47644         0.001066     -0.003731     -0.000344
      3.25016      8.87128     18.62064         0.000622      0.000125      0.000833
      3.26423      7.39582     21.96674        -0.003072     -0.003515      0.002729
      6.50644      8.87736     21.58080         0.003314      0.000875     -0.002263
      3.24544     10.35118      8.77152         0.002008      0.000174     -3.754185
      6.49088      0.00000      8.77152        -0.001780      0.000059      2.946765
      6.49088     10.35118     12.01696        -0.006046      0.000040      0.562664
      3.24544      0.00000     12.01696         0.006708     -0.000067     -0.752804
      3.24544     10.35118     15.26240         0.019992      0.001545      0.649143
      6.49088      0.00000     15.26240        -0.007857     -0.001023     -0.805672
      6.48682     10.34162     18.41370         0.000103     -0.004345     -0.000527
[...]
      6.49088      5.91496     13.28848         0.002013     -0.000616     -0.141223
      4.51696      4.43622     12.01696         0.444049      0.000157      0.055901
      8.46480      4.43622     12.01696        -0.438142      0.000375      0.058223
      3.24544      5.91496     13.99088        -0.006443      0.000333     -0.083301
      3.24544      5.91496     16.53392        -0.015989     -0.001725      0.040622
      7.76240      4.43622     15.26240        -0.409569      0.019686      0.064773
      5.21936      4.43622     15.26240         0.443702      0.021583      0.073757
      6.49791      5.91271     17.25804         0.000028      0.001715     -0.005922
      6.47886      5.91948     19.82210         0.001222      0.000874     -0.001804
      4.54057      4.43618     18.52364         0.005481     -0.000766     -0.001131
      8.44709      4.43598     18.54336        -0.002913      0.003092      0.000234
      3.25526      5.91990     20.49387         0.003980     -0.000044     -0.001128
      3.27116      5.91396     23.04381         0.002391      0.001589     -0.003869
      7.75192      4.39350     21.78614         0.000141     -0.003324      0.000167
      5.28943      4.42320     21.91186         0.003601      0.001865     -0.001470
    total drift:                                0.120747     -0.003022     -0.084249

  FREE ENERGIE OF THE ION-ELECTRON SYSTEM (eV)
  free  energy   TOTEN  =     -2726.65410785 eV

  energy  without entropy=    -2726.65410785  energy(sigma->0) =    -2726.65410785

 d Force = 0.7011735E-04[ 0.331E-04, 0.107E-03]  d Energy = 0.8505507E-04-0.149E-04
 d Force =-0.2356135E+01[-0.236E+01,-0.236E+01]  d Ewald  =-0.2356134E+01-0.892E-06

 Conjugate gradient step on ions:
 trial-energy change:   -0.000085  1 .order   -0.000070   -0.000107   -0.000033
  (g-gl).g = 0.254E-03      g.g   = 0.339E-03  gl.gl    = 0.293E-03
 g(Force)  = 0.339E-03   g(Stress)= 0.000E+00 ortho     = 0.194E-04
 gamma     =   0.86559
 trial     =   0.30075
 opt step  =   0.35601  (harmonic =   0.43520) maximal distance =0.00170915
 next E    = -2726.654111   (d E  =  -0.00009)

 reached required accuracy - stopping structural energy minimisation