 vasp.6.3.0 20Jan22 (build Aug 21 2024 11:13:42) complex
 executed on        HPECrayEX_GCC date 2024.11.26  18:43:23

 INCAR:
   SYSTEM = TiO2
   ISMEAR = 0
   SIGMA = 0.05
   EDIFF = 1E-4
   ALGO = ALL
   ISTART = 0
   IBRION = -1
   NSW = 0
   ISYM = 0
   ISIF = 2
   EDIFFG = -0.01
   DIPOL = 0.5 0.5 0.5
   IDIPOL = 3
   LDIPOL = .TRUE.
   GGA = RE
   AGGAC = 0.0
   LUSE_VDW = .TRUE.
   LASPH = .TRUE.
   ENCUT = 600
   PREC = Accurate
   LASPH = .TRUE.
   LREAL = .FALSE.
   ISPIN = 1
   NELM = 200
   NELMIN = 8
   NCORE = 16
   KPAR = 1
   LWAVE = .FALSE.
   LCHARG = .FALSE.

 POTCAR:    PAW_PBE H 15Jun2001
 POTCAR:    PAW_PBE O 08Apr2002
 POTCAR:    PAW_PBE Ti_pv 07Sep2000
 POTCAR:    PAW_PBE O 08Apr2002
|               ----> ADVICE to this user running VASP <----                  |
|     You have switched on vdW-DFT.                                           |
|     This routine was written and supplied by Jiri Klimes. We recommend      |
|     that you carefully read and cite the following publications:            |
|       J. Klimes, D.R. Bowler, A. Michelides                                 |
|          J. Phys.: Cond Matt. 22 022201 (2010)                              |
|       J. Klimes, D.R. Bowler, A. Michelides                                 |
|          Phys. Rev. B. 83, 195131 (2011)                                    |
|     and references therein.                                                 |

   TITEL  = PAW_PBE H 15Jun2001
   POMASS =    1.000; ZVAL   =    1.000    mass and valenz
   ENMAX  =  250.000; ENMIN  =  200.000 eV

   TITEL  = PAW_PBE O 08Apr2002
   POMASS =   16.000; ZVAL   =    6.000    mass and valenz
   ENMAX  =  400.000; ENMIN  =  300.000 eV

   TITEL  = PAW_PBE Ti_pv 07Sep2000
   POMASS =   47.880; ZVAL   =   10.000    mass and valenz
   ENMAX  =  222.335; ENMIN  =  166.751 eV

   TITEL  = PAW_PBE O 08Apr2002
   POMASS =   16.000; ZVAL   =    6.000    mass and valenz
   ENMAX  =  400.000; ENMIN  =  300.000 eV

  PAW_PBE H 15Jun2001                   :
  PAW_PBE O 08Apr2002                   :
  PAW_PBE Ti_pv 07Sep2000               :
  PAW_PBE O 08Apr2002                   :

 POSCAR:  H  O Ti  O
  positions in direct lattice
 exchange correlation table for  LEXCH =       40
   RHO(1)=    0.500       N(1)  =     2000
   RHO(2)=  100.500       N(2)  =     4000

 ion  position               nearest neighbor table
   1  0.510  0.551  0.802-   3 0.98
   2  0.613  0.497  0.783-   3 1.00
   3  0.537  0.493  0.782-   1 0.98   2 1.00  83 2.19
   4  0.750  0.625  0.287-  84 1.96  85 1.96 144 1.96 145 1.96  87 1.99 166 1.99  14 2.96  34 2.96

   5  0.000  0.750  0.287-  86 1.96  87 1.96 106 1.96 107 1.96  88 1.99  35 2.96  15 2.96
   6  0.000  0.625  0.393-  88 1.96  89 1.96 148 1.96 149 1.96  90 1.99  91 1.99  16 2.96  36 2.96

[...]

  84  0.750  0.750  0.245-   4 1.96  14 1.96
  85  0.750  0.750  0.328-   4 1.96  14 1.96   7 1.99
  86  0.098  0.625  0.287-   5 1.96  35 1.96  44 1.99
  87  0.902  0.625  0.287-   5 1.96  35 1.96   4 1.99
  88  0.000  0.750  0.352-   6 1.96  16 1.96   5 1.99
  89  0.000  0.750  0.435-   6 1.96  16 1.96   9 1.99
  90  0.848  0.625  0.393-   7 1.96  37 1.96   6 1.99
  91  0.152  0.625  0.393-  47 1.96  77 1.96   6 1.99
  92  0.750  0.750  0.458-   8 1.96  18 1.96   7 1.99
  93  0.750  0.750  0.542-   8 1.96  18 1.96  11 2.10
  94  0.098  0.625  0.500-   9 1.96  39 1.96  48 1.99
  95  0.902  0.625  0.500-   9 1.96  39 1.96   8 1.99
  96  0.000  0.750  0.566-  20 1.90  10 1.90   9 2.01
  97  0.999  0.750  0.649-  13 1.82  10 2.02  20 2.02
  98  0.850  0.625  0.607-  10 1.96  41 1.97  11 1.97
  99  0.150  0.625  0.607-  10 1.95  51 1.98  81 1.98
 100  0.753  0.751  0.672-  11 1.88  12 2.08  22 2.09
 101  0.749  0.749  0.755-  12 1.83  22 1.84
 102  0.094  0.625  0.719-  43 1.95  13 1.95  52 2.04
 103  0.906  0.624  0.720-  43 1.95  13 1.96  12 2.03
 104  0.750  0.000  0.245-  14 1.96  24 1.96
 105  0.750  0.000  0.328-  14 1.96  24 1.96  17 1.99
 106  0.098  0.875  0.287-   5 1.96  15 1.96  54 1.99
 107  0.902  0.875  0.287-   5 1.96  15 1.96  14 1.99
 108  0.000  0.000  0.352-  16 1.96  26 1.96  15 1.99
 109  0.000  0.000  0.435-  16 1.96  26 1.96  19 1.99
 110  0.848  0.875  0.393-   7 1.96  17 1.96  16 1.99
 111  0.152  0.875  0.393-  47 1.96  57 1.96  16 1.99
 112  0.750  0.000  0.458-  18 1.96  28 1.96  17 1.99
 113  0.750  0.000  0.542-  18 1.96  28 1.96  21 2.11
 114  0.098  0.875  0.500-   9 1.96  19 1.96  58 1.99
 115  0.902  0.875  0.500-   9 1.96  19 1.96  18 1.99
 116  0.000  1.000  0.566-  30 1.90  20 1.90  19 2.01
 117  1.000  1.000  0.649-  23 1.82  20 2.02  30 2.02
 118  0.850  0.875  0.607-  20 1.96  21 1.98  11 1.98
 119  0.150  0.875  0.607-  20 1.95  61 1.98  51 1.98
 120  0.750  1.000  0.672-  21 1.88  32 2.09  22 2.09
 121  0.750  1.000  0.756-  32 1.83  22 1.83
 122  0.094  0.875  0.719-  13 1.94  23 1.95  62 2.05
 123  0.906  0.875  0.720-  13 1.95  23 1.95  22 2.04
 124  0.750  0.250  0.245-  24 1.96  34 1.96
 125  0.750  0.250  0.328-  24 1.96  34 1.96  27 1.99
 126  0.098  0.125  0.287-  15 1.96  25 1.96  64 1.99
 127  0.902  0.125  0.287-  15 1.96  25 1.96  24 1.99
 128  0.000  0.250  0.352-  26 1.96  36 1.96  25 1.99
 129  0.000  0.250  0.435-  26 1.96  36 1.96  29 1.99
 130  0.848  0.125  0.393-  17 1.96  27 1.96  26 1.99
 131  0.152  0.125  0.393-  57 1.96  67 1.96  26 1.99
 132  0.750  0.250  0.458-  28 1.96  38 1.96  27 1.99
 133  0.750  0.250  0.542-  28 1.96  38 1.96  31 2.10
 134  0.098  0.125  0.500-  19 1.96  29 1.96  68 1.99
 135  0.902  0.125  0.500-  19 1.96  29 1.96  28 1.99
 136  0.000  0.250  0.566-  30 1.90  40 1.90  29 2.01
 137  0.999  0.250  0.649-  33 1.82  40 2.02  30 2.02
 138  0.850  0.125  0.607-  30 1.97  21 1.97  31 1.98
 139  0.149  0.125  0.607-  30 1.95  61 1.98  71 1.98
 140  0.752  0.250  0.672-  31 1.88  42 2.07  32 2.10
 141  0.749  0.251  0.755-  42 1.83  32 1.84
 142  0.094  0.125  0.719-  33 1.94  23 1.95  72 2.05
 143  0.906  0.125  0.719-  33 1.95  23 1.95  32 2.04
[...]
 229  0.500  0.500  0.435-  46 1.96  76 1.96  79 1.99
 230  0.348  0.375  0.393-  67 1.96  77 1.96  76 1.99
 231  0.652  0.375  0.393-  27 1.96  37 1.96  76 1.99
 232  0.250  0.500  0.458-  48 1.96  78 1.96  77 1.99
 233  0.250  0.500  0.542-  48 1.96  78 1.96  81 2.11
 234  0.598  0.375  0.500-  69 1.96  79 1.96  38 1.99
 235  0.402  0.375  0.500-  69 1.96  79 1.96  78 1.99
 236  0.500  0.500  0.566-  50 1.90  80 1.90  79 2.01
 237  0.499  0.500  0.650-  83 1.91  50 1.99  80 1.99
 238  0.349  0.375  0.607-  71 1.97  81 1.97  80 1.97
 239  0.650  0.375  0.608-  80 1.96  31 1.98  41 1.98
 240  0.250  0.500  0.672-  81 1.87  52 2.09  82 2.10
 241  0.251  0.500  0.756-  82 1.84  52 1.84
 242  0.596  0.372  0.715-  73 1.92  83 1.96  42 2.03
 243  0.406  0.374  0.718-  83 1.94  73 1.94  82 2.04

IMPORTANT INFORMATION: All symmetrisations will be switched off!
NOSYMM: (Re-)initialisation of all symmetry stuff for point group C_1.

                                     Primitive cell

  volume of cell :    4737.1735

  direct lattice vectors                    reciprocal lattice vectors
    13.061198858  0.000000000  0.000000000     0.076562650  0.000000000  0.000000000
     0.000000000 11.845266045  0.000000000     0.000000000  0.084421911  0.000000000
     0.000000000  0.000000000 30.619030317     0.000000000  0.000000000  0.032659427

  length of vectors
    13.061198858 11.845266045 30.619030317     0.076562650  0.084421911  0.032659427

  position of ions in fractional coordinates (direct lattice)
     0.509706508  0.550846622  0.801723411
     0.613399889  0.497049055  0.782830029
     0.536819371  0.492671430  0.782359263
     0.750000000  0.625000000  0.286714362
     0.000000000  0.750000000  0.286714362
     0.000000000  0.625000000  0.393357181
     0.750000000  0.750000000  0.393357181
     0.750000000  0.625000000  0.500000000
     0.000000000  0.750000000  0.500000000
     0.000436741  0.625054834  0.604472472
     0.750386817  0.750126797  0.610301398
     0.750778184  0.625893765  0.719283845
     0.999877768  0.750289182  0.708762741
     0.750000000  0.875000000  0.286714362
     0.000000000  0.000000000  0.286714362
     0.000000000  0.875000000  0.393357181
     0.750000000  0.000000000  0.393357181
     0.750000000  0.875000000  0.500000000
     0.000000000  0.000000000  0.500000000
     0.000111469  0.875025512  0.604522587
     0.749814054  0.000080575  0.610537837
     0.749646222  0.875112233  0.720200438
     0.000014971  0.999938576  0.708716497
     0.750000000  0.125000000  0.286714362
     0.000000000  0.250000000  0.286714362
     0.000000000  0.125000000  0.393357181
     0.750000000  0.250000000  0.393357181
     0.750000000  0.125000000  0.500000000
     0.000000000  0.250000000  0.500000000
     0.000327292  0.124950981  0.604512481
     0.750195349  0.249723959  0.610313370
     0.749486918  0.124409456  0.720225431
     0.999892439  0.249617705  0.708751743
     0.750000000  0.375000000  0.286714362
     0.000000000  0.500000000  0.286714362
     0.000000000  0.375000000  0.393357181
     0.750000000  0.500000000  0.393357181
     0.750000000  0.375000000  0.500000000
     0.000000000  0.500000000  0.500000000
     0.000270257  0.374976463  0.604466953
     0.750947056  0.499977761  0.610509390
     0.751252292  0.373592116  0.719401779
     0.000597591  0.500080229  0.708684882
     0.250000000  0.625000000  0.286714362
     0.500000000  0.750000000  0.286714362
     0.500000000  0.625000000  0.393357181
     0.250000000  0.750000000  0.393357181
     0.250000000  0.625000000  0.500000000
     0.500000000  0.750000000  0.500000000
     0.500466847  0.622767592  0.605654704
     0.250442071  0.749878821  0.610599403
     0.250288396  0.625199599  0.720347351
     0.500601204  0.750235065  0.707514527
     0.250000000  0.875000000  0.286714362
     0.500000000  0.000000000  0.286714362
     0.500000000  0.875000000  0.393357181
     0.250000000  0.000000000  0.393357181
     0.250000000  0.875000000  0.500000000
     0.500000000  0.000000000  0.500000000
     0.499890448  0.874081156  0.603497399
[...]
     0.500000000  0.500000000  0.435125836
     0.347917178  0.375000000  0.393357181
     0.652082822  0.375000000  0.393357181
     0.250000000  0.500000000  0.458231344
     0.250000000  0.500000000  0.541768656
     0.597917178  0.375000000  0.500000000
     0.402082822  0.375000000  0.500000000
     0.500166543  0.499817188  0.565701111
     0.498805016  0.500385534  0.649937461
     0.349433259  0.374932637  0.607332980
     0.650291201  0.374997096  0.607775438
     0.249991446  0.500438514  0.671914020
     0.251221241  0.499935740  0.755693254
     0.596208134  0.371503899  0.714771152
     0.406362467  0.373983088  0.718346087

  ion indices of the primitive-cell ions
   primitive index   ion index
                 1           1
                 2           2
                 3           3
                 4           4
                 5           5
                 6           6
                 7           7
                 8           8
                 9           9
                10          10
                11          11
[...]
   6.53845187  8.88673395 21.66340876
   3.26529971 10.36460779  8.77891573
   6.53059943  0.00000000  8.77891573
   6.53059943 10.36460779 12.04421544
   3.26529971  0.00000000 12.04421544
   3.26529971 10.36460779 15.30951516
   6.53059943  0.00000000 15.30951516
   6.52916855 10.35372383 18.47850516
[...]
   6.53059943  5.92263302 13.32313117
   4.54421544  4.44197477 12.04421544
   8.51698341  4.44197477 12.04421544
   3.26529971  5.92263302 14.03059943
   3.26529971  5.92263302 16.58843089
   7.80951516  4.44197477 15.30951516
   5.25168370  4.44197477 15.30951516
   6.53277468  5.92046756 17.32121947
   6.51499151  5.92719978 19.90045482
   4.56401728  4.44117683 18.59594693
   8.49358269  4.44194037 18.60949455
   3.26518799  5.92782734 20.57335573
   3.28125059  5.92187185 23.13859464
   7.78719300  4.40056252 21.88559958
   5.30758099  4.42992917 21.99506061

--------------------------------------- Iteration      FINAL  ---------------------------------------

--------------------OUTCAR has been truncated-------------------------

[...]

--------------------OUTCAR has been truncated-------------------------

  FORCE on cell =-STRESS in cart. coord.  units (eV):
  Direction    XX          YY          ZZ          XY          YZ          ZX
  Alpha Z  4649.42423  4649.42423  4649.42423
  Ewald  971895.19201989519.98863************   -27.79762    38.92826   -50.21794
  Hartree************************************    -7.69475     7.09372   -25.14426
  E(xc)   -8852.18158 -8826.85386 -8852.49322    -0.14897     0.25863    -0.27858
  Local  ************************************    29.32725   -34.51052    70.75409
  n-local -5441.01359 -5364.16048 -5481.94241    -0.31799     0.08585    -0.16239
  augment  5308.94167  5287.34721  5314.51578     0.38597    -0.77594     0.09124
  Kinetic 28841.28903 28393.90578 28892.17626     6.26570   -11.15220     5.32015
  Fock        0.00000     0.00000     0.00000     0.00000     0.00000     0.00000
  Total     135.71931   120.63180    85.22240     0.01958    -0.07219     0.36232
  in kB      45.90214    40.79934    28.82339     0.00662    -0.02442     0.12254

 VOLUME and BASIS-vectors are now :
  energy-cutoff  :      600.00
  volume of cell :     4737.17
      direct lattice vectors                 reciprocal lattice vectors
    13.061198858  0.000000000  0.000000000     0.076562650  0.000000000  0.000000000
     0.000000000 11.845266045  0.000000000     0.000000000  0.084421911  0.000000000
     0.000000000  0.000000000 30.619030317     0.000000000  0.000000000  0.032659427

  length of vectors
    13.061198858 11.845266045 30.619030317     0.076562650  0.084421911  0.032659427

 FORCES acting on ions:
    Electron-Ion                     Ewald-Force                    Non-Local-Force
   0.348E+02 -.608E+02 -.452E+03   -.380E+02 0.665E+02 0.457E+03   0.326E+01 -.580E+01 -.515E+01
   -.629E+02 -.196E+01 -.434E+03   0.703E+02 0.215E+01 0.434E+03   -.763E+01 -.173E+00 -.329E-01
   0.509E+02 0.384E+02 -.257E+04   -.690E+02 -.698E+02 0.255E+04   0.182E+02 0.314E+02 0.146E+02
   -.106E+00 -.115E-01 0.377E+04   0.102E+00 0.116E-01 -.377E+04   0.103E-02 -.145E-05 0.399E+00
   -.512E-01 -.260E-01 0.395E+04   0.526E-01 0.261E-01 -.394E+04   -.267E-03 0.125E-04 -.368E+01
   -.211E+00 -.273E-01 0.192E+04   0.217E+00 0.272E-01 -.192E+04   -.928E-03 0.107E-03 -.434E-01
   -.269E+00 0.108E-01 0.192E+04   0.259E+00 -.104E-01 -.192E+04   0.212E-02 0.677E-05 0.201E+00
   -.222E+00 0.172E-02 0.320E+01   0.179E+00 -.218E-01 -.247E+01   0.792E-02 0.106E-02 -.116E+00
   -.109E+01 -.503E+00 0.113E+02   0.111E+01 0.505E+00 -.124E+02   -.376E-02 -.210E-02 0.343E+00
   -.437E+01 -.182E+01 -.186E+04   0.437E+01 0.183E+01 0.186E+04   -.572E-02 -.391E-02 0.112E+00
   -.366E+01 -.711E+01 -.191E+04   0.367E+01 0.711E+01 0.191E+04   -.123E-01 -.373E-02 -.137E+00
   -.703E+02 -.153E+02 -.371E+04   0.702E+02 0.151E+02 0.371E+04   0.178E+00 0.123E+00 -.938E-01
   -.482E+01 -.215E+01 -.377E+04   0.487E+01 0.215E+01 0.377E+04   -.564E-01 -.185E-01 0.914E+00
   -.116E+00 -.186E-01 0.377E+04   0.112E+00 0.189E-01 -.377E+04   0.102E-02 0.213E-05 0.399E+00
   -.486E-01 -.376E-02 0.395E+04   0.501E-01 0.389E-02 -.394E+04   -.263E-03 -.577E-05 -.368E+01
   -.182E+00 -.488E-01 0.192E+04   0.188E+00 0.488E-01 -.192E+04   -.908E-03 0.343E-04 -.434E-01
   -.354E+00 -.260E-01 0.192E+04   0.344E+00 0.257E-01 -.192E+04   0.203E-02 -.398E-05 0.201E+00
   -.147E+01 -.409E+00 0.239E+01   0.143E+01 0.430E+00 -.165E+01   0.673E-02 -.802E-03 -.116E+00
   -.778E+00 -.425E-01 0.107E+02   0.792E+00 0.414E-01 -.117E+02   -.270E-02 0.399E-03 0.340E+00
   -.246E+01 -.134E+01 -.187E+04   0.246E+01 0.134E+01 0.187E+04   -.177E-02 -.754E-02 0.112E+00
   -.205E+01 0.597E+00 -.192E+04   0.206E+01 -.600E+00 0.192E+04   -.202E-01 0.941E-03 -.146E+00
   -.160E+02 -.155E+02 -.375E+04   0.160E+02 0.155E+02 0.375E+04   0.535E-01 0.151E-01 -.231E+00
   -.486E+01 0.152E+00 -.377E+04   0.484E+01 -.151E+00 0.377E+04   0.222E-01 -.848E-03 0.951E+00
   -.114E+00 0.114E-01 0.377E+04   0.111E+00 -.116E-01 -.377E+04   0.106E-02 0.288E-04 0.399E+00
   -.511E-01 0.260E-01 0.395E+04   0.525E-01 -.261E-01 -.394E+04   -.267E-03 0.325E-04 -.368E+01
   -.179E+00 0.283E-01 0.192E+04   0.185E+00 -.284E-01 -.192E+04   -.921E-03 -.156E-04 -.434E-01
   -.248E+00 -.104E-01 0.192E+04   0.239E+00 0.994E-02 -.192E+04   0.200E-02 0.234E-04 0.201E+00
   -.140E+01 0.233E+00 0.229E+01   0.137E+01 -.256E+00 -.155E+01   0.763E-02 0.115E-02 -.117E+00
   -.104E+01 0.504E+00 0.113E+02   0.105E+01 -.505E+00 -.123E+02   -.319E-02 0.176E-02 0.344E+00
   -.794E+00 0.129E+01 -.187E+04   0.788E+00 -.129E+01 0.187E+04   -.149E-02 0.723E-02 0.112E+00
   -.439E+01 0.601E+01 -.191E+04   0.440E+01 -.600E+01 0.191E+04   -.127E-01 -.357E-02 -.145E+00
   -.158E+02 0.145E+02 -.375E+04   0.158E+02 -.145E+02 0.375E+04   0.528E-01 -.115E-01 -.239E+00
   -.420E+01 0.195E+01 -.377E+04   0.425E+01 -.194E+01 0.377E+04   -.525E-01 0.157E-01 0.911E+00
   -.104E+00 0.188E-01 0.377E+04   0.101E+00 -.188E-01 -.377E+04   0.106E-02 -.340E-04 0.399E+00
   -.535E-01 0.393E-02 0.395E+04   0.550E-01 -.390E-02 -.394E+04   -.243E-03 0.280E-04 -.368E+01
   -.209E+00 0.479E-01 0.192E+04   0.216E+00 -.476E-01 -.192E+04   -.962E-03 -.100E-03 -.434E-01
   -.166E+00 0.256E-01 0.192E+04   0.157E+00 -.253E-01 -.192E+04   0.182E-02 -.647E-04 0.201E+00
   -.140E+00 0.179E+00 0.305E+01   0.956E-01 -.158E+00 -.231E+01   0.841E-02 -.988E-03 -.116E+00
   -.117E+01 0.445E-01 0.120E+02   0.119E+01 -.442E-01 -.131E+02   -.485E-02 -.195E-03 0.341E+00
   -.433E+01 0.194E+01 -.186E+04   0.434E+01 -.194E+01 0.186E+04   -.407E-02 0.308E-02 0.114E+00
   -.356E+01 0.850E-01 -.190E+04   0.361E+01 -.878E-01 0.190E+04   -.593E-01 0.328E-02 -.141E+00
   -.697E+02 0.137E+02 -.371E+04   0.697E+02 -.134E+02 0.371E+04   0.122E+00 -.147E+00 -.937E-01
   -.729E+01 0.153E+00 -.376E+04   0.726E+01 -.157E+00 0.376E+04   0.295E-01 0.296E-02 0.861E+00
   0.107E+00 -.798E-02 0.377E+04   -.103E+00 0.791E-02 -.377E+04   -.102E-02 -.425E-05 0.399E+00
   0.501E-01 -.103E-01 0.395E+04   -.516E-01 0.106E-01 -.394E+04   0.270E-03 -.485E-04 -.368E+01
   0.185E+00 0.146E+00 0.192E+04   -.191E+00 -.135E+00 -.192E+04   0.904E-03 -.254E-02 -.452E-01
   0.294E+00 0.544E-01 0.192E+04   -.285E+00 -.541E-01 -.192E+04   -.200E-02 -.664E-04 0.197E+00
   0.108E+01 0.185E+00 0.103E+01   -.104E+01 -.198E+00 -.231E+00   -.108E-01 0.701E-03 -.125E+00
   0.731E+00 0.123E+01 0.148E+02   -.745E+00 -.130E+01 -.156E+02   0.985E-03 0.369E-01 0.268E+00
   0.356E+01 -.118E+02 -.186E+04   -.356E+01 0.119E+02 0.186E+04   0.353E-02 -.990E-01 0.712E-01
   0.108E+02 -.484E+01 -.192E+04   -.108E+02 0.483E+01 0.192E+04   -.254E-01 0.145E-01 -.135E+00
   0.360E+02 -.137E+02 -.373E+04   -.361E+02 0.137E+02 0.373E+04   0.687E-01 0.543E-02 -.257E+00
   0.212E+02 -.553E+02 -.372E+04   -.211E+02 0.554E+02 0.372E+04   -.172E+00 -.276E-01 0.104E+01
   0.117E+00 -.147E-01 0.377E+04   -.113E+00 0.149E-01 -.377E+04   -.105E-02 0.146E-04 0.399E+00
   0.477E-01 -.628E-02 0.395E+04   -.491E-01 0.635E-02 -.394E+04   0.251E-03 0.227E-04 -.368E+01
   0.158E+00 0.871E-01 0.192E+04   -.164E+00 -.860E-01 -.192E+04   0.857E-03 -.114E-02 -.459E-01
   0.377E+00 -.240E-01 0.192E+04   -.367E+00 0.239E-01 -.192E+04   -.205E-02 0.682E-04 0.197E+00
   0.214E+01 0.431E-01 0.933E+00   -.211E+01 -.404E-01 -.147E+00   -.531E-02 -.569E-03 -.123E+00
   0.299E+00 -.250E+00 0.179E+02   -.314E+00 0.251E+00 -.190E+02   0.333E-02 -.170E-02 0.291E+00
   -.127E-01 -.107E+02 -.183E+04   -.128E-02 0.107E+02 0.183E+04   0.162E-01 -.184E-01 -.270E-01
[...]
   -.542E+02 -.346E-01 0.115E+04   0.583E+02 0.339E-01 -.115E+04   -.361E+01 0.910E-03 0.156E+00
   0.543E+02 -.208E-01 0.115E+04   -.585E+02 0.202E-01 -.115E+04   0.362E+01 0.949E-03 0.164E+00
   0.247E+00 0.436E-01 0.505E+03   -.230E+00 -.438E-01 -.509E+03   -.231E-01 0.508E-03 0.422E+01
   0.159E+01 0.227E+00 -.519E+03   -.156E+01 -.226E+00 0.526E+03   -.485E-01 -.205E-02 -.710E+01
   -.556E+02 -.327E+00 0.704E+01   0.604E+02 0.325E+00 -.721E+01   -.512E+01 0.223E-01 0.254E+00
   0.565E+02 -.405E+00 0.659E+01   -.613E+02 0.400E+00 -.675E+01   0.516E+01 0.259E-01 0.238E+00
   0.102E+01 0.569E+00 -.614E+03   -.106E+01 -.642E+00 0.607E+03   0.418E-01 0.717E-01 0.688E+01
   0.115E+02 -.147E+01 -.160E+04   -.120E+02 0.153E+01 0.161E+04   0.466E+00 -.551E-01 -.177E+01
   -.284E+02 0.282E+01 -.112E+04   0.320E+02 -.297E+01 0.112E+04   -.355E+01 0.145E+00 0.110E+01
   0.266E+02 0.299E+01 -.112E+04   -.297E+02 -.304E+01 0.112E+04   0.294E+01 0.526E-01 0.662E+00
   0.141E+02 -.723E+00 -.180E+04   -.141E+02 0.727E+00 0.180E+04   -.210E-01 -.439E-02 -.198E+01
   0.366E+02 0.740E+00 -.271E+04   -.364E+02 -.797E+00 0.273E+04   -.111E+00 0.546E-01 -.203E+02
   -.488E+02 0.433E+02 -.222E+04   0.550E+02 -.431E+02 0.222E+04   -.609E+01 -.225E+00 -.695E+00
   0.652E+02 0.343E+02 -.229E+04   -.715E+02 -.344E+02 0.229E+04   0.621E+01 0.112E+00 -.316E+01
   -.106E+02 -.262E+02 0.764E+02   0.519E-11 -.554E-12 -.168E-10   0.106E+02 0.262E+02 -.764E+02

 POSITION                                       TOTAL-FORCE (eV/Angst)
      6.65738      6.52492     24.54799         0.072289     -0.067958     -0.023780
      8.01174      5.88768     23.96950        -0.226841      0.015999      0.107161
      7.01150      5.83582     23.95508         0.110780      0.042147      0.378379
      9.79590      7.40329      8.77892        -0.002512      0.000089     -3.583372
      0.00000      8.88395      8.77892         0.001154      0.000131      2.443894
      0.00000      7.40329     12.04422         0.005260      0.000012      0.519928
      9.79590      8.88395     12.04422        -0.007261      0.000443     -0.738555
      9.79590      7.40329     15.30952        -0.035090     -0.019033      0.620517
      0.00000      8.88395     15.30952         0.012086      0.000473     -0.710854
      0.00570      7.40394     18.50836         0.006483     -0.002285      0.019130
      9.80095      8.88545     18.68684         0.000269      0.000398     -0.039591
      9.80606      7.41388     22.02377         0.032392     -0.027570      0.016787
     13.05960      8.88737     21.70163        -0.001668     -0.008301      0.260725
      9.79590     10.36461      8.77892        -0.002610      0.000211     -3.583436
      0.00000      0.00000      8.77892         0.001195      0.000132      2.443837
      0.00000     10.36461     12.04422         0.005148      0.000014      0.520033
      9.79590      0.00000     12.04422        -0.007560     -0.000255     -0.739301
      9.79590     10.36461     15.30952        -0.025996      0.020179      0.621943
      0.00000      0.00000     15.30952         0.011479     -0.000643     -0.710276
      0.00146     10.36491     18.50990         0.003030     -0.001487      0.020078
      9.79347      0.00095     18.69408        -0.006763     -0.000769     -0.033915
      9.79128     10.36594     22.05184         0.004105     -0.002330      0.023677
      0.00020     11.84454     21.70021         0.008132     -0.000200      0.259768
      9.79590      1.48066      8.77892        -0.002565     -0.000213     -3.583646
      0.00000      2.96132      8.77892         0.001150     -0.000101      2.443754
      0.00000      1.48066     12.04422         0.005257     -0.000143      0.519869
      9.79590      2.96132     12.04422        -0.007043     -0.000424     -0.738982
      9.79590      1.48066     15.30952        -0.025017     -0.021472      0.620271
      0.00000      2.96132     15.30952         0.012625      0.000011     -0.710841
      0.00427      1.48008     18.50959        -0.000436      0.002181      0.020165
      9.79845      2.95805     18.68720         0.001133      0.001505     -0.040981
      9.78920      1.47366     22.05260         0.004849      0.003514      0.022596
     13.05979      2.95679     21.70129        -0.002714      0.008570      0.260186
      9.79590      4.44197      8.77892        -0.002379     -0.000059     -3.583552
      0.00000      5.92263      8.77892         0.001229      0.000061      2.443966
      0.00000      4.44197     12.04422         0.005340      0.000192      0.519815
      9.79590      5.92263     12.04422        -0.006807      0.000217     -0.738388
      9.79590      4.44197     15.30952        -0.035496      0.020215      0.621137
      0.00000      5.92263     15.30952         0.012471      0.000083     -0.710650
      0.00353      4.44170     18.50819         0.004575      0.001165      0.019772
      9.80827      5.92237     18.69321         0.000771      0.000127     -0.036351
      9.81226      4.42530     22.02738         0.029762      0.032484      0.016753
      0.00781      5.92358     21.69924         0.000878     -0.000088      0.262729
      3.26530      7.40329      8.77892         0.002535     -0.000075     -3.581065
      6.53060      8.88395      8.77892        -0.001136      0.000283      2.450063
      6.53060      7.40329     12.04422        -0.005065      0.008831      0.541558
      3.26530      8.88395     12.04422         0.007242      0.000283     -0.722733
      3.26530      7.40329     15.30952         0.036053     -0.012096      0.670674
      6.53060      8.88395     15.30952        -0.013049     -0.039754     -0.596584
      6.53670      7.37685     18.54456         0.005199      0.010990      0.013999
      3.27107      8.88251     18.69596        -0.000640      0.002187     -0.038847
      3.26907      7.40566     22.05634        -0.001051      0.003734      0.009565
      6.53845      8.88673     21.66341        -0.015607      0.020985      0.253589
      3.26530     10.36461      8.77892         0.002657      0.000275     -3.581189
      6.53060      0.00000      8.77892        -0.001115      0.000101      2.450046
      6.53060     10.36461     12.04422        -0.004991     -0.000007      0.543964
      3.26530      0.00000     12.04422         0.007544     -0.000059     -0.723166
      3.26530     10.36461     15.30952         0.026563      0.002084      0.662831
      6.53060      0.00000     15.30952        -0.011067     -0.000909     -0.782097
      6.52917     10.35372     18.47851         0.003305      0.006940      0.015862
[...]
      6.53060      5.92263     13.32313         0.001902     -0.000705     -0.036276
      4.54422      4.44197     12.04422         0.519836      0.000226      0.049746
      8.51698      4.44197     12.04422        -0.514024      0.000320      0.051853
      3.26530      5.92263     14.03060        -0.006546      0.000328     -0.194514
      3.26530      5.92263     16.58843        -0.018898     -0.001712      0.148484
      7.80952      4.44197     15.30952        -0.331170      0.019568      0.077430
      5.25168      4.44197     15.30952         0.356947      0.021173      0.076339
      6.53277      5.92047     17.32122         0.001323     -0.001184     -0.126771
      6.51499      5.92720     19.90045        -0.014214      0.000714      0.083404
      4.56402      4.44118     18.59595         0.080636      0.001109     -0.013161
      8.49358      4.44194     18.60949        -0.075588      0.005749     -0.007527
      3.26519      5.92783     20.57336        -0.001803     -0.000578      0.014469
      3.28125      5.92187     23.13859         0.007444     -0.002248      0.523968
      7.78719      4.40056     21.88560         0.106481     -0.007881      0.027900
      5.30758      4.42993     21.99506        -0.106730     -0.005360      0.097947
    total drift:                               -0.007356     -0.001105      0.032336

  FREE ENERGIE OF THE ION-ELECTRON SYSTEM (eV)
  free  energy   TOTEN  =     -1576.72932459 eV

  energy  without entropy=    -1576.72932459  energy(sigma->0) =    -1576.72932459