 vasp.6.3.0 20Jan22 (build Apr  1 2022 16:44:48) complex
 executed on        HPECrayEX_GCC date 2022.09.24  12:31:25

 INCAR:
   SYSTEM = MgO-rocksalt
   ISMEAR = 0
   SIGMA = 0.05
   EDIFF = 1E-7
   ALGO = ALL
   ISTART = 0
   IBRION = 2
   NSW = 1000
   ISYM = 2
   ISIF = 3
   EDIFFG = -0.005
   GGA = PE
   IVDW = 1
   VDW_C6 = 0.63 0.70
   VDW_R0 = 1.243 1.342
   ENCUT = 600
   PREC = Normal
   LASPH = .TRUE.
   LREAL = .FALSE.
   ISPIN = 1
   NELM = 200
   NELMIN = 8
   NCORE = 4
   KPAR = 2
   LWAVE = .FALSE.
   LCHARG = .FALSE.

 POTCAR:    PAW_PBE Mg_pv 13Apr2007
 POTCAR:    PAW_PBE O 08Apr2002
 POTCAR:    PAW_PBE Mg_pv 13Apr2007
   VRHFIN =Mg: p6s2

   TITEL  = PAW_PBE Mg_pv 13Apr2007
   POMASS =   24.305; ZVAL   =    8.000    mass and valenz
   ENMAX  =  403.929; ENMIN  =  302.947 eV

   TITEL  = PAW_PBE O 08Apr2002
   POMASS =   16.000; ZVAL   =    6.000    mass and valenz
   ENMAX  =  400.000; ENMIN  =  300.000 eV

  PAW_PBE Mg_pv 13Apr2007               :
  PAW_PBE O 08Apr2002                   :

 POSCAR: Mg4 O4
  positions in direct lattice
  velocities in cartesian coordinates
 exchange correlation table for  LEXCH =        8
   RHO(1)=    0.500       N(1)  =     2000
   RHO(2)=  100.500       N(2)  =     4000

 ion  position               nearest neighbor table
   1  0.000  0.000  0.000-   5 2.12   7 2.12   8 2.12   7 2.12   8 2.12   5 2.12
   2  0.000  0.500  0.500-   6 2.12   7 2.12   8 2.12   8 2.12   7 2.12   6 2.12
   3  0.500  0.000  0.500-   5 2.12   6 2.12   7 2.12   5 2.12   6 2.12   7 2.12
   4  0.500  0.500  0.000-   5 2.12   6 2.12   8 2.12   6 2.12   5 2.12   8 2.12
   5  0.500  0.000  0.000-   1 2.12   3 2.12   4 2.12   3 2.12   4 2.12   1 2.12
   6  0.500  0.500  0.500-   2 2.12   3 2.12   4 2.12   4 2.12   3 2.12   2 2.12
   7  0.000  0.000  0.500-   1 2.12   2 2.12   3 2.12   1 2.12   2 2.12   3 2.12
   8  0.000  0.500  0.000-   1 2.12   2 2.12   4 2.12   2 2.12   1 2.12   4 2.12

  LATTYP: Found a simple cubic cell.
 ALAT       =     4.2335713153

  Lattice vectors:

 A1 = (   4.2335713153,   0.0000000000,   0.0000000000)
 A2 = (  -0.0000000000,   4.2335713153,   0.0000000000)
 A3 = (  -0.0000000000,  -0.0000000000,   4.2335713153)

Analysis of symmetry for initial positions (statically):
 Subroutine PRICEL returns following result:

  LATTYP: Found a face centered cubic cell.
 ALAT       =     4.2335713153

[...]

   4 primitive cells build up your supercell.

 Routine SETGRP: Setting up the symmetry group for a
 simple cubic supercell.

 Subroutine GETGRP returns: Found 48 space group operations
 (whereof 48 operations were pure point group operations)
 out of a pool of 48 trial point group operations.

The static configuration has the point symmetry O_h .

Analysis of symmetry for dynamics (positions and initial velocities):
 Subroutine PRICEL returns following result:

  LATTYP: Found a face centered cubic cell.
 ALAT       =     4.2335713153

  Lattice vectors:

 A1 = (   2.1167856577,  -2.1167856577,   0.0000000000)
 A2 = (   2.1167856577,   0.0000000000,   2.1167856577)
 A3 = (   0.0000000000,  -2.1167856577,   2.1167856577)

   4 primitive cells build up your supercell.

 Routine SETGRP: Setting up the symmetry group for a
 simple cubic supercell.

 Subroutine GETGRP returns: Found 48 space group operations
 (whereof 48 operations were pure point group operations)
 out of a pool of 48 trial point group operations.

The dynamic configuration has the point symmetry O_h .

 Subroutine INISYM returns: Found 48 space group operations
 (whereof 48 operations are pure point group operations),
 and found     4 'primitive' translations

                                     Primitive cell

  volume of cell :      18.9697

  direct lattice vectors                    reciprocal lattice vectors
     2.116785658 -2.116785658  0.000000000     0.236207194 -0.236207194 -0.236207194
     2.116785658  0.000000000  2.116785658     0.236207194  0.236207194  0.236207194
     0.000000000 -2.116785658  2.116785658    -0.236207194 -0.236207194  0.236207194

  length of vectors
     2.993586986  2.993586986  2.993586986     0.409122861  0.409122861  0.409122861

  position of ions in fractional coordinates (direct lattice)
     0.000000000  0.000000000  0.000000000
     0.500000000  0.500000000  0.500000000

  ion indices of the primitive-cell ions
   primitive index   ion index
                 1           1
                 2           5

 KPOINTS: pymatgen v2020.8.13 with grid density =

Automatic generation of k-mesh.
 Grid dimensions read from file:
 generate k-points for:    8    8    8

 Generating k-lattice:

  Cartesian coordinates                     Fractional coordinates (reciprocal lattice)
     0.029525899  0.000000000  0.000000000     0.125000000  0.000000000  0.000000000
    -0.000000000  0.029525899  0.000000000     0.000000000  0.125000000  0.000000000
     0.000000000 -0.000000000  0.029525899     0.000000000  0.000000000  0.125000000

  Length of vectors
     0.029525899  0.029525899  0.029525899

  Shift w.r.t. Gamma in fractional coordinates (k-lattice)
     0.000000000  0.000000000  0.000000000

 Subroutine IBZKPT returns following result:

 Found     35 irreducible k-points:

 Following reciprocal coordinates:
            Coordinates               Weight
  0.000000  0.000000  0.000000      1.000000
  0.125000  0.000000  0.000000      6.000000
  0.250000  0.000000  0.000000      6.000000
  0.375000  0.000000  0.000000      6.000000
  0.500000  0.000000  0.000000      3.000000
  0.125000  0.125000  0.000000     12.000000
  0.250000  0.125000  0.000000     24.000000
  0.375000  0.125000  0.000000     24.000000
  0.500000  0.125000  0.000000     12.000000
  0.250000  0.250000  0.000000     12.000000
  0.375000  0.250000  0.000000     24.000000
  0.500000  0.250000  0.000000     12.000000
  0.375000  0.375000  0.000000     12.000000
  0.500000  0.375000  0.000000     12.000000
  0.500000  0.500000  0.000000      3.000000
  0.125000  0.125000  0.125000      8.000000
  0.250000  0.125000  0.125000     24.000000
  0.375000  0.125000  0.125000     24.000000
  0.500000  0.125000  0.125000     12.000000
  0.250000  0.250000  0.125000     24.000000
  0.375000  0.250000  0.125000     48.000000
  0.500000  0.250000  0.125000     24.000000
  0.375000  0.375000  0.125000     24.000000
  0.500000  0.375000  0.125000     24.000000
  0.500000  0.500000  0.125000      6.000000
  0.250000  0.250000  0.250000      8.000000
  0.375000  0.250000  0.250000     24.000000
  0.500000  0.250000  0.250000     12.000000
  0.375000  0.375000  0.250000     24.000000
  0.500000  0.375000  0.250000     24.000000
  0.500000  0.500000  0.250000      6.000000
  0.375000  0.375000  0.375000      8.000000
  0.500000  0.375000  0.375000     12.000000
  0.500000  0.500000  0.375000      6.000000
  0.500000  0.500000  0.500000      1.000000

 Following cartesian coordinates:
            Coordinates               Weight
  0.000000  0.000000  0.000000      1.000000
  0.029526  0.000000  0.000000      6.000000
  0.059052  0.000000  0.000000      6.000000
  0.088578  0.000000  0.000000      6.000000
  0.118104  0.000000  0.000000      3.000000
  0.029526  0.029526  0.000000     12.000000
  0.059052  0.029526  0.000000     24.000000
  0.088578  0.029526  0.000000     24.000000
  0.118104  0.029526  0.000000     12.000000
  0.059052  0.059052  0.000000     12.000000
  0.088578  0.059052  0.000000     24.000000
  0.118104  0.059052  0.000000     12.000000
  0.088578  0.088578  0.000000     12.000000
  0.118104  0.088578  0.000000     12.000000
  0.118104  0.118104  0.000000      3.000000
  0.029526  0.029526  0.029526      8.000000
  0.059052  0.029526  0.029526     24.000000
  0.088578  0.029526  0.029526     24.000000
  0.118104  0.029526  0.029526     12.000000
  0.059052  0.059052  0.029526     24.000000
  0.088578  0.059052  0.029526     48.000000
  0.118104  0.059052  0.029526     24.000000
  0.088578  0.088578  0.029526     24.000000
  0.118104  0.088578  0.029526     24.000000
  0.118104  0.118104  0.029526      6.000000
  0.059052  0.059052  0.059052      8.000000
  0.088578  0.059052  0.059052     24.000000
  0.118104  0.059052  0.059052     12.000000
  0.088578  0.088578  0.059052     24.000000
  0.118104  0.088578  0.059052     24.000000
  0.118104  0.118104  0.059052      6.000000
  0.088578  0.088578  0.088578      8.000000
  0.118104  0.088578  0.088578     12.000000
  0.118104  0.118104  0.088578      6.000000
  0.118104  0.118104  0.118104      1.000000

 SYSTEM =  MgO-rocksalt
 POSCAR =  Mg4 O4

  energy-cutoff  :      600.00
  volume of cell :       75.88
      direct lattice vectors                 reciprocal lattice vectors
     4.233571315  0.000000000  0.000000000     0.236207194  0.000000000  0.000000000
    -0.000000000  4.233571315  0.000000000    -0.000000000  0.236207194  0.000000000
    -0.000000000 -0.000000000  4.233571315     0.000000000 -0.000000000  0.236207194

[...]

 k-points in units of 2pi/SCALE and weight: pymatgen v2020.8.13 with grid density =
   0.00000000  0.00000000  0.00000000       0.002
   0.02952590  0.00000000  0.00000000       0.012
   0.05905180  0.00000000  0.00000000       0.012
   0.08857770  0.00000000  0.00000000       0.012
   0.11810360  0.00000000  0.00000000       0.006
   0.02952590  0.02952590  0.00000000       0.023
   0.05905180  0.02952590  0.00000000       0.047
   0.08857770  0.02952590  0.00000000       0.047
   0.11810360  0.02952590  0.00000000       0.023
   0.05905180  0.05905180  0.00000000       0.023
   0.08857770  0.05905180  0.00000000       0.047
   0.11810360  0.05905180  0.00000000       0.023
   0.08857770  0.08857770  0.00000000       0.023
   0.11810360  0.08857770  0.00000000       0.023
   0.11810360  0.11810360  0.00000000       0.006
   0.02952590  0.02952590  0.02952590       0.016
   0.05905180  0.02952590  0.02952590       0.047
   0.08857770  0.02952590  0.02952590       0.047
   0.11810360  0.02952590  0.02952590       0.023
   0.05905180  0.05905180  0.02952590       0.047
   0.08857770  0.05905180  0.02952590       0.094
   0.11810360  0.05905180  0.02952590       0.047
   0.08857770  0.08857770  0.02952590       0.047
   0.11810360  0.08857770  0.02952590       0.047
   0.11810360  0.11810360  0.02952590       0.012
   0.05905180  0.05905180  0.05905180       0.016
   0.08857770  0.05905180  0.05905180       0.047
   0.11810360  0.05905180  0.05905180       0.023
   0.08857770  0.08857770  0.05905180       0.047
   0.11810360  0.08857770  0.05905180       0.047
   0.11810360  0.11810360  0.05905180       0.012
   0.08857770  0.08857770  0.08857770       0.016
   0.11810360  0.08857770  0.08857770       0.023
   0.11810360  0.11810360  0.08857770       0.012
   0.11810360  0.11810360  0.11810360       0.002

 k-points in reciprocal lattice and weights: pymatgen v2020.8.13 with grid density =
   0.00000000  0.00000000  0.00000000       0.002
   0.12500000  0.00000000  0.00000000       0.012
   0.25000000  0.00000000  0.00000000       0.012
   0.37500000  0.00000000  0.00000000       0.012
   0.50000000  0.00000000  0.00000000       0.006
   0.12500000  0.12500000  0.00000000       0.023
   0.25000000  0.12500000  0.00000000       0.047
   0.37500000  0.12500000  0.00000000       0.047
   0.50000000  0.12500000  0.00000000       0.023
   0.25000000  0.25000000  0.00000000       0.023
   0.37500000  0.25000000  0.00000000       0.047
   0.50000000  0.25000000  0.00000000       0.023
   0.37500000  0.37500000  0.00000000       0.023
   0.50000000  0.37500000  0.00000000       0.023
   0.50000000  0.50000000  0.00000000       0.006
   0.12500000  0.12500000  0.12500000       0.016
   0.25000000  0.12500000  0.12500000       0.047
   0.37500000  0.12500000  0.12500000       0.047
   0.50000000  0.12500000  0.12500000       0.023
   0.25000000  0.25000000  0.12500000       0.047
   0.37500000  0.25000000  0.12500000       0.094
   0.50000000  0.25000000  0.12500000       0.047
   0.37500000  0.37500000  0.12500000       0.047
   0.50000000  0.37500000  0.12500000       0.047
   0.50000000  0.50000000  0.12500000       0.012
   0.25000000  0.25000000  0.25000000       0.016
   0.37500000  0.25000000  0.25000000       0.047
   0.50000000  0.25000000  0.25000000       0.023
   0.37500000  0.37500000  0.25000000       0.047
   0.50000000  0.37500000  0.25000000       0.047
   0.50000000  0.50000000  0.25000000       0.012
   0.37500000  0.37500000  0.37500000       0.016
   0.50000000  0.37500000  0.37500000       0.023
   0.50000000  0.50000000  0.37500000       0.012
   0.50000000  0.50000000  0.50000000       0.002

 position of ions in fractional coordinates (direct lattice)
   0.00000000  0.00000000  0.00000000
   0.00000000  0.50000000  0.50000000
   0.50000000  0.00000000  0.50000000
   0.50000000  0.50000000  0.00000000
   0.50000000  0.00000000  0.00000000
   0.50000000  0.50000000  0.50000000
   0.00000000  0.00000000  0.50000000
   0.00000000  0.50000000  0.00000000

 position of ions in cartesian coordinates  (Angst):
   0.00000000  0.00000000  0.00000000
   0.00000000  2.11678566  2.11678566
   2.11678566  0.00000000  2.11678566
   2.11678566  2.11678566  0.00000000
   2.11678566  0.00000000  0.00000000
   2.11678566  2.11678566  2.11678566
   0.00000000  0.00000000  2.11678566
   0.00000000  2.11678566  0.00000000

--------------------------------------- Iteration      FINAL  ---------------------------------------

--------------------OUTCAR has been truncated-------------------------

[...]

--------------------OUTCAR has been truncated-------------------------

  DFT-D2 method for vdW energy calculation

  Parameters of vdW forcefield:
         C6(Jnm^6/mol)     R0(A)
   Mg       0.630          1.243
   O        0.700          1.342

  vdW correction parametrized for the method pbe

  IVDW =   1
  VDW_RADIUS =    50.000 A
  VDW_S6 =     0.750
  VDW_SR =     1.000
  VDW_D =    20.000
  LVDW_EWALD = F

  Number of pair interactions contributing to vdW energy:  248432
  Edisp (eV):   -0.56848

  FORCE on cell =-STRESS in cart. coord.  units (eV):
  Direction    XX          YY          ZZ          XY          YZ          ZX
  Alpha Z   273.92283   273.92283   273.92283
  Ewald   -1276.86380 -1276.86380 -1276.86380    -0.00000    -0.00000     0.00000
  Hartree   410.56735   410.56735   410.56735    -0.00000    -0.00000    -0.00000
  E(xc)    -308.06251  -308.06251  -308.06251     0.00000     0.00000    -0.00000
  Local     205.34630   205.34630   205.34630    -0.00000     0.00000     0.00000
  n-local  -351.65753  -353.16645  -352.98942     0.18440     0.16886     0.10349
  augment   130.56104   130.56104   130.56104     0.00000     0.00000    -0.00000
  Kinetic   911.10750   919.96304   922.77303    -2.99599    -2.92275    -1.79998
  Fock        0.00000     0.00000     0.00000     0.00000     0.00000     0.00000
  vdW        -0.81381    -0.81381    -0.81381     0.00000    -0.00000    -0.00000
  Total       0.00080     0.00080     0.00080     0.00000     0.00000    -0.00000
  in kB       0.01680     0.01680     0.01680     0.00000     0.00000    -0.00000

 VOLUME and BASIS-vectors are now :
  energy-cutoff  :      600.00
  volume of cell :       75.88
      direct lattice vectors                 reciprocal lattice vectors
     4.233571315  0.000000000  0.000000000     0.236207194  0.000000000  0.000000000
    -0.000000000  4.233571315  0.000000000    -0.000000000  0.236207194  0.000000000
    -0.000000000 -0.000000000  4.233571315     0.000000000 -0.000000000  0.236207194

  length of vectors
     4.233571315  4.233571315  4.233571315     0.236207194  0.236207194  0.236207194

 FORCES acting on ions:
    Electron-Ion                     Ewald-Force                    Non-Local-Force
   -.298E-13 -.316E-13 -.265E-13   0.399E-14 -.302E-14 0.281E-14   0.000E+00 -.414E-24 0.529E-25
   -.296E-13 0.388E-12 0.388E-12   0.397E-14 0.161E-14 0.105E-13   -.207E-24 0.000E+00 0.419E-25
   0.382E-12 -.334E-13 0.292E-11   0.309E-14 -.430E-14 0.105E-13   0.000E+00 -.743E-25 0.185E-23
   0.383E-12 0.952E-12 -.343E-12   0.307E-14 0.337E-15 0.289E-14   -.207E-24 0.775E-25 -.105E-23
   0.178E-12 -.236E-13 -.156E-11   -.554E-14 -.909E-16 -.105E-13   0.000E+00 0.000E+00 -.764E-25
   0.176E-12 0.125E-12 0.731E-12   -.542E-14 0.419E-14 -.391E-14   0.000E+00 0.000E+00 0.116E-25
   -.215E-13 -.296E-13 0.163E-12   -.191E-14 -.147E-14 -.391E-14   -.775E-25 -.103E-24 0.101E-24
   -.217E-13 0.168E-12 -.187E-13   -.180E-14 0.281E-14 -.878E-14   -.517E-25 0.000E+00 -.366E-25
   0.103E-11 0.154E-11 0.231E-11   -.545E-15 0.805E-16 -.423E-15   -.543E-24 -.514E-24 0.903E-24

 POSITION                                       TOTAL-FORCE (eV/Angst)
      0.00000      0.00000      0.00000        -0.000000     -0.000000     -0.000000
      0.00000      2.11679      2.11679        -0.000000     -0.000000     -0.000000
      2.11679      0.00000      2.11679         0.000000     -0.000000     -0.000000
      2.11679      2.11679      0.00000         0.000000      0.000000      0.000000
      2.11679      0.00000      0.00000        -0.000000      0.000000     -0.000000
      2.11679      2.11679      2.11679        -0.000000      0.000000      0.000000
      0.00000      0.00000      2.11679        -0.000000      0.000000      0.000000
      0.00000      2.11679      0.00000        -0.000000     -0.000000     -0.000000
    total drift:                                0.000000      0.000000      0.000000

  FREE ENERGIE OF THE ION-ELECTRON SYSTEM (eV)
  free  energy   TOTEN  =       -48.04639982 eV

  energy  without entropy=      -48.04639982  energy(sigma->0) =      -48.04639982

 reached required accuracy - stopping structural energy minimisation