 vasp.6.3.0 20Jan22 (build Aug 21 2024 11:13:42) complex
 executed on        HPECrayEX_GCC date 2024.11.28  14:45:03

 INCAR:
   SYSTEM = MgO-rocksalt
   ISMEAR = 0
   SIGMA = 0.05
   EDIFF = 1E-8
   ALGO = ALL
   ISTART = 0
   IBRION = 5
   POTIM = 0.01
   NFREE = 2
   ISYM = 0
   DIPOL = 0.5 0.5 0.5
   IDIPOL = 3
   LDIPOL = .TRUE.
   GGA = PE
   IVDW = 21
   ENCUT = 600
   PREC = Accurate
   LASPH = .TRUE.
   LREAL = .FALSE.
   ISPIN = 1
   NELM = 200
   NELMIN = 8
   NCORE = 8
   KPAR = 1
   LWAVE = .FALSE.
   LCHARG = .FALSE.

 POTCAR:    PAW_PBE H 15Jun2001
 POTCAR:    PAW_PBE O 08Apr2002
 POTCAR:    PAW_PBE Ti_pv 07Sep2000
 POTCAR:    PAW_PBE O 08Apr2002
 POTCAR:    PAW_PBE H 15Jun2001
   VRHFIN =H: ultrasoft test

   TITEL  = PAW_PBE H 15Jun2001
   POMASS =    1.000; ZVAL   =    1.000    mass and valenz
   ENMAX  =  250.000; ENMIN  =  200.000 eV

   TITEL  = PAW_PBE O 08Apr2002
   POMASS =   16.000; ZVAL   =    6.000    mass and valenz
   ENMAX  =  400.000; ENMIN  =  300.000 eV

   TITEL  = PAW_PBE Ti_pv 07Sep2000
   POMASS =   47.880; ZVAL   =   10.000    mass and valenz
   ENMAX  =  222.335; ENMIN  =  166.751 eV

   TITEL  = PAW_PBE O 08Apr2002
   POMASS =   16.000; ZVAL   =    6.000    mass and valenz
   ENMAX  =  400.000; ENMIN  =  300.000 eV

  PAW_PBE H 15Jun2001                   :
  PAW_PBE O 08Apr2002                   :
  PAW_PBE Ti_pv 07Sep2000               :
  PAW_PBE O 08Apr2002                   :

 POSCAR:  H  O Ti  O
  positions in direct lattice
 exchange correlation table for  LEXCH =        8
   RHO(1)=    0.500       N(1)  =     2000
   RHO(2)=  100.500       N(2)  =     4000

 ion  position               nearest neighbor table
   1  0.518  0.552  0.801-   3 0.97
   2  0.619  0.496  0.781-   3 1.00
   3  0.542  0.492  0.782-   1 0.97   2 1.00  83 2.21
   4  0.750  0.625  0.287-  84 1.96  85 1.96 144 1.96 145 1.96  87 1.98 166 1.98  14 2.97  34 2.97

   5  0.000  0.750  0.287-  86 1.96  87 1.96 106 1.96 107 1.96  88 1.98  35 2.97  15 2.97
   6  0.000  0.625  0.393-  88 1.96  89 1.96 148 1.96 149 1.96  90 1.98  91 1.98  16 2.97  36 2.97

[...]

  84  0.750  0.750  0.245-   4 1.96  14 1.96
  85  0.750  0.750  0.329-   4 1.96  14 1.96   7 1.98
  86  0.098  0.625  0.287-   5 1.96  35 1.96  44 1.98
  87  0.902  0.625  0.287-   5 1.96  35 1.96   4 1.98
  88  0.000  0.750  0.352-   6 1.96  16 1.96   5 1.98
  89  0.000  0.750  0.435-   6 1.96  16 1.96   9 1.98
  90  0.848  0.625  0.393-   7 1.96  37 1.96   6 1.98
  91  0.152  0.625  0.393-  47 1.96  77 1.96   6 1.98
  92  0.750  0.750  0.458-   8 1.96  18 1.96   7 1.98
  93  0.750  0.750  0.542-   8 1.96  18 1.96  11 2.10
  94  0.098  0.625  0.500-   9 1.96  39 1.96  48 1.98
  95  0.902  0.625  0.500-   9 1.96  39 1.96   8 1.98
  96  0.001  0.750  0.566-  20 1.90  10 1.90   9 2.01
  97  0.000  0.750  0.649-  13 1.81  10 2.02  20 2.03
  98  0.851  0.625  0.607-  11 1.93  41 1.94  10 2.03
  99  0.151  0.625  0.607-  10 1.88  81 2.02  51 2.02
 100  0.755  0.751  0.672-  11 1.87  12 2.08  22 2.10
 101  0.750  0.749  0.755-  12 1.83  22 1.84
 102  0.095  0.625  0.719-  43 1.95  13 1.96  52 2.04
 103  0.908  0.624  0.720-  43 1.95  13 1.96  12 2.03
 104  0.750  0.000  0.245-  14 1.96  24 1.96
 105  0.750  0.000  0.329-  14 1.96  24 1.96  17 1.98
 106  0.098  0.875  0.287-   5 1.96  15 1.96  54 1.98
 107  0.902  0.875  0.287-   5 1.96  15 1.96  14 1.98
 108  0.000  0.000  0.352-  16 1.96  26 1.96  15 1.98
 109  0.000  0.000  0.435-  16 1.96  26 1.96  19 1.98
 110  0.848  0.875  0.393-   7 1.96  17 1.96  16 1.98
 111  0.152  0.875  0.393-  47 1.96  57 1.96  16 1.98
 112  0.750  0.000  0.458-  18 1.96  28 1.96  17 1.98
 113  0.750  0.000  0.542-  18 1.96  28 1.96  21 2.11
 114  0.098  0.875  0.500-   9 1.96  19 1.96  58 1.98
 115  0.902  0.875  0.500-   9 1.96  19 1.96  18 1.98
 116  0.001  1.000  0.566-  20 1.90  30 1.90  19 2.01
 117  0.001  1.000  0.649-  23 1.81  30 2.02  20 2.02
 118  0.851  0.875  0.607-  21 1.93  11 1.94  20 2.04
 119  0.151  0.875  0.607-  20 1.88  51 2.02  61 2.03
 120  0.752  1.000  0.672-  21 1.88  32 2.09  22 2.10
 121  0.751  1.000  0.756-  32 1.83  22 1.84
 122  0.095  0.874  0.719-  13 1.94  23 1.95  62 2.05
 123  0.908  0.875  0.720-  13 1.95  23 1.95  22 2.04
 124  0.750  0.250  0.245-  24 1.96  34 1.96
 125  0.750  0.250  0.329-  24 1.96  34 1.96  27 1.98
 126  0.098  0.125  0.287-  15 1.96  25 1.96  64 1.98
 127  0.902  0.125  0.287-  15 1.96  25 1.96  24 1.98
 128  0.000  0.250  0.352-  26 1.96  36 1.96  25 1.98
 129  0.000  0.250  0.435-  26 1.96  36 1.96  29 1.98
 130  0.848  0.125  0.393-  17 1.96  27 1.96  26 1.98
 131  0.152  0.125  0.393-  57 1.96  67 1.96  26 1.98
 132  0.750  0.250  0.458-  28 1.96  38 1.96  27 1.98
 133  0.750  0.250  0.542-  28 1.96  38 1.96  31 2.10
 134  0.098  0.125  0.500-  19 1.96  29 1.96  68 1.98
 135  0.902  0.125  0.500-  19 1.96  29 1.96  28 1.98
 136  0.001  0.250  0.566-  40 1.90  30 1.90  29 2.01
 137  0.001  0.250  0.649-  33 1.81  40 2.03  30 2.03
 138  0.851  0.125  0.607-  21 1.93  31 1.94  30 2.04
 139  0.151  0.125  0.607-  30 1.87  71 2.02  61 2.03
 140  0.754  0.250  0.672-  31 1.88  42 2.07  32 2.11
 141  0.750  0.250  0.755-  42 1.83  32 1.85
 142  0.095  0.125  0.719-  33 1.94  23 1.95  72 2.05
 143  0.907  0.125  0.720-  33 1.95  23 1.95  32 2.04
[...]
 229  0.500  0.500  0.435-  46 1.96  76 1.96  79 1.98
 230  0.348  0.375  0.393-  67 1.96  77 1.96  76 1.98
 231  0.652  0.375  0.393-  27 1.96  37 1.96  76 1.98
 232  0.250  0.500  0.458-  48 1.96  78 1.96  77 1.98
 233  0.250  0.500  0.542-  48 1.96  78 1.96  81 2.11
 234  0.598  0.375  0.500-  69 1.96  79 1.96  38 1.98
 235  0.402  0.375  0.500-  69 1.96  79 1.96  78 1.98
 236  0.501  0.500  0.566-  50 1.90  80 1.91  79 2.01
 237  0.500  0.500  0.650-  83 1.91  50 1.99  80 1.99
 238  0.350  0.375  0.607-  71 1.93  81 1.94  80 2.04
 239  0.652  0.375  0.608-  80 1.89  41 2.02  31 2.02
 240  0.251  0.500  0.672-  81 1.87  52 2.10  82 2.11
 241  0.252  0.500  0.756-  52 1.84  82 1.84
 242  0.598  0.371  0.714-  73 1.92  83 1.97  42 2.03
 243  0.408  0.374  0.719-  83 1.93  73 1.95  82 2.05

IMPORTANT INFORMATION: All symmetrisations will be switched off!
NOSYMM: (Re-)initialisation of all symmetry stuff for point group C_1.

                                     Primitive cell

  volume of cell :    4740.1649

  direct lattice vectors                    reciprocal lattice vectors
    13.042933829  0.000000000  0.000000000     0.076669867  0.000000000  0.000000000
     0.000000000 11.878216733  0.000000000     0.000000000  0.084187721  0.000000000
     0.000000000  0.000000000 30.596159140     0.000000000  0.000000000  0.032683841

  length of vectors
    13.042933829 11.878216733 30.596159140     0.076669867  0.084187721  0.032683841

  position of ions in fractional coordinates (direct lattice)
     0.517712768  0.552156421  0.801429142
     0.618667628  0.496068710  0.781399201
     0.541827239  0.492085458  0.782417715
     0.750000000  0.625000000  0.286853412
     0.000000000  0.750000000  0.286853412
     0.000000000  0.625000000  0.393426706
     0.750000000  0.750000000  0.393426706
     0.750000000  0.625000000  0.500000000
     0.000000000  0.750000000  0.500000000
     0.006887652  0.624996465  0.604378293
     0.756183921  0.749959328  0.610248202
     0.752006800  0.625674106  0.719232798
     0.001115357  0.750173382  0.708577972
     0.750000000  0.875000000  0.286853412
     0.000000000  0.000000000  0.286853412
     0.000000000  0.875000000  0.393426706
     0.750000000  0.000000000  0.393426706
     0.750000000  0.875000000  0.500000000
     0.000000000  0.000000000  0.500000000
     0.007216500  0.874987964  0.604416698
     0.755899164  0.999991382  0.610506686
     0.750784435  0.874825305  0.720213485
     0.001206601  0.999793484  0.708536760
     0.750000000  0.125000000  0.286853412
     0.000000000  0.250000000  0.286853412
     0.000000000  0.125000000  0.393426706
     0.750000000  0.250000000  0.393426706
     0.750000000  0.125000000  0.500000000
     0.000000000  0.250000000  0.500000000
     0.007399108  0.124896292  0.604413788
     0.756011524  0.249816940  0.610212043
     0.750657021  0.124015932  0.720209580
     0.001079989  0.249455354  0.708570334
     0.750000000  0.375000000  0.286853412
     0.000000000  0.500000000  0.286853412
     0.000000000  0.375000000  0.393426706
     0.750000000  0.500000000  0.393426706
     0.750000000  0.375000000  0.500000000
     0.000000000  0.500000000  0.500000000
     0.006792053  0.374916453  0.604352351
     0.756027192  0.499927490  0.610457223
     0.752520534  0.373127023  0.719284390
     0.001841790  0.499955759  0.708526989
     0.250000000  0.625000000  0.286853412
     0.500000000  0.750000000  0.286853412
     0.500000000  0.625000000  0.393426706
     0.250000000  0.750000000  0.393426706
     0.250000000  0.625000000  0.500000000
     0.500000000  0.750000000  0.500000000
     0.506932573  0.622812932  0.605566409
     0.256148235  0.749880202  0.610520338
     0.251455144  0.625022499  0.720319228
     0.501979974  0.750080154  0.707352067
     0.250000000  0.875000000  0.286853412
     0.500000000  0.000000000  0.286853412
     0.500000000  0.875000000  0.393426706
     0.250000000  0.000000000  0.393426706
     0.250000000  0.875000000  0.500000000
     0.500000000  0.000000000  0.500000000
     0.507237675  0.874036219  0.603419594
[...]
     0.500000000  0.500000000  0.435151311
     0.347877722  0.375000000  0.393426706
     0.652122278  0.375000000  0.393426706
     0.250000000  0.500000000  0.458275395
     0.250000000  0.500000000  0.541724605
     0.597877722  0.375000000  0.500000000
     0.402122278  0.375000000  0.500000000
     0.501298984  0.499755765  0.565777376
     0.500121809  0.500347864  0.649928897
     0.350389990  0.374963323  0.607212110
     0.651567958  0.374954218  0.607789972
     0.251482110  0.500353057  0.671723858
     0.252191639  0.499795855  0.755601276
     0.597630281  0.371029694  0.714467922
     0.407932845  0.373980622  0.718589086

  ion indices of the primitive-cell ions
   primitive index   ion index
                 1           1
                 2           2
                 3           3
                 4           4
                 5           5
                 6           6
                 7           7
                 8           8
                 9           9
                10          10
                11          11
                12          12
                13          13
                14          14
                15          15
                16          16
                17          17
                18          18
                19          19
                20          20
                21          21
                22          22
                23          23
                24          24
                25          25
                26          26
                27          27
                28          28
                29          29
                30          30
                31          31
                32          32
                33          33
                34          34
[...]
      9.86061      2.96738     18.67014        -0.002707      0.002856      0.001270
      9.79077      1.47309     22.03565         0.002090      0.002329     -0.003482
      0.01409      2.96308     21.67953         0.000521      0.001013     -0.000524
      9.78220      4.45433      8.77661        -0.002346      0.000044     -3.418843
      0.00000      5.93911      8.77661         0.001111     -0.000039      2.830386
      0.00000      4.45433     12.03735         0.005081      0.000087      0.518928
      9.78220      5.93911     12.03735        -0.006547      0.000409     -0.722184
      9.78220      4.45433     15.29808        -0.034315      0.028912      0.606064
      0.00000      5.93911     15.29808         0.007409      0.000509     -0.687222
      0.08859      4.45334     18.49086         0.003546      0.000710      0.000456
      9.86081      5.93825     18.67765         0.002662     -0.000316      0.002034
      9.81508      4.43208     22.00734        -0.000485     -0.002012     -0.004707
      0.02402      5.93858     21.67820        -0.001615     -0.000648      0.000988
      3.26073      7.42389      8.77661         0.002448     -0.000103     -3.416604
      6.52147      8.90866      8.77661        -0.000986      0.000300      2.836268
      6.52147      7.42389     12.03735        -0.004483      0.009635      0.540240
      3.26073      8.90866     12.03735         0.007083      0.000319     -0.708201
      3.26073      7.42389     15.29808         0.037465     -0.016088      0.654662
      6.52147      8.90866     15.29808        -0.016391     -0.038741     -0.566249
      6.61189      7.39791     18.52801         0.002997     -0.005364      0.003986
      3.34092      8.90724     18.67958        -0.001160     -0.004227      0.001687
      3.27971      7.42415     22.03900        -0.002035     -0.000204     -0.003726
      6.54729      8.90961     21.64226         0.002698     -0.006397     -0.002157
      3.26073     10.39344      8.77661         0.002538      0.000187     -3.416783
      6.52147      0.00000      8.77661        -0.000984      0.000031      2.836355
      6.52147     10.39344     12.03735        -0.004773     -0.000347      0.542309
      3.26073      0.00000     12.03735         0.007435     -0.000058     -0.708798
      3.26073     10.39344     15.29808         0.030916      0.004301      0.645937
      6.52147      0.00000     15.29808        -0.021572     -0.002376     -0.738607
      6.61587     10.38199     18.46232        -0.007487     -0.001375      0.003767
[...]
      6.52147      5.93911     13.31396         0.003089     -0.000863     -0.125589
      4.53735      4.45433     12.03735         0.420800      0.000220      0.054269
      8.50559      4.45433     12.03735        -0.415332      0.000153      0.056054
      3.26073      5.93911     14.02147        -0.009143      0.000685     -0.099074
      3.26073      5.93911     16.57469        -0.004118     -0.002709      0.006785
      7.79808      4.45433     15.29808        -0.421358      0.019963      0.054345
      5.24485      4.45433     15.29808         0.457303      0.020428      0.087105
      6.53841      5.93621     17.31061         0.000466     -0.000286     -0.009034
      6.52306      5.94324     19.88533        -0.000083     -0.000365     -0.007734
      4.57011      4.45390     18.57836        -0.004284      0.002105     -0.000108
      8.49836      4.45379     18.59604        -0.002376     -0.003821     -0.000956
      3.28006      5.94330     20.55217         0.001058      0.000470      0.001016
      3.28932      5.93668     23.11850         0.000371      0.001304      0.003913
      7.79485      4.40717     21.85997         0.007478     -0.007228     -0.006305
      5.32064      4.44222     21.98607        -0.004983     -0.003355      0.000592
    total drift:                               -0.005482     -0.004536     -0.011558

  FREE ENERGIE OF THE ION-ELECTRON SYSTEM (eV)
  free  energy   TOTEN  =     -2170.09562991 eV

  energy  without entropy=    -2170.09562991  energy(sigma->0) =    -2170.09562991

 d Force = 0.1175352E-04[-0.519E-02, 0.521E-02]  d Energy = 0.4358737E-03-0.424E-03
 d Force =-0.5104114E+02[-0.511E+02,-0.510E+02]  d Ewald  =-0.5104100E+02-0.139E-03

 Finite differences progress:
  Degree of freedom:   9/  9
  Displacement:        2/  2
  Total:              18/ 18

 SECOND DERIVATIVES (NOT SYMMETRIZED)
               1X          1Y          1Z          2X          2Y          2Z          3X          3Y          3Z
  1X    -9.257593   11.524177    9.129534    0.734258   -3.098832   -2.420875    8.623790   -8.720471   -6.537021
  1Y    11.534037  -26.148210  -21.084886    0.477530    0.118248   -0.090173  -12.143959   25.912295   21.131994
  1Z     9.135597  -21.083673  -18.441222    0.188490    0.089829    0.146182   -9.096177   20.354502   17.953044
  2X     0.736663    0.467563    0.186073  -34.250651   -0.739695   -0.381811   34.400871    0.272550   -1.985037
  2Y    -3.097158    0.116392    0.091111   -0.734776   -3.962350   -1.708141    3.953828    3.187659    1.849568
  2Z    -2.421904   -0.094085    0.144519   -0.398940   -1.711991   -4.190984    1.362511    1.799806    3.510368
  3X     8.608740  -12.141001   -9.095027   34.378783    3.952828    1.353773  -47.290582    8.655970    8.928835
  3Y    -8.724798   25.915712   20.350827    0.254623    3.178326    1.791159    8.664874  -30.691748  -22.462292
  3Z    -6.537161   21.130212   17.935149   -1.981249    1.853287    3.500616    8.940955  -22.444686  -26.015399

 Eigenvectors and eigenvalues of the dynamical matrix

   1 f  =  112.895828 THz   709.345410 2PiTHz 3765.799482 cm-1   466.899420 meV
             X         Y         Z           dx          dy          dz
      6.752493  6.558634 24.520654    -0.332119    0.700625    0.579573
      8.069241  5.892412 23.907814    -0.063387   -0.023564   -0.015086
      7.067017  5.845098 23.938977     0.099673   -0.167918   -0.141370
      9.782200  7.423885  8.776613            0           0           0
      0.000000  8.908663  8.776613            0           0           0
      0.000000  7.423885 12.037346            0           0           0
      9.782200  8.908663 12.037346            0           0           0
      9.782200  7.423885 15.298080            0           0           0
      0.000000  8.908663 15.298080            0           0           0
      0.089835  7.423843 18.491654            0           0           0
      9.862857  8.908179 18.671251            0           0           0
      9.808375  7.431893 22.005761            0           0           0
      0.014548  8.910722 21.679764            0           0           0
      9.782200 10.393440  8.776613            0           0           0
      0.000000  0.000000  8.776613            0           0           0
      0.000000 10.393440 12.037346            0           0           0
      9.782200  0.000000 12.037346            0           0           0
      9.782200 10.393440 15.298080            0           0           0
      0.000000  0.000000 15.298080            0           0           0
      0.094124 10.393297 18.492829            0           0           0
      9.859143 11.878114 18.679160            0           0           0
      9.792432 10.391365 22.035766            0           0           0
      0.015738 11.875764 21.678503            0           0           0
      9.782200  1.484777  8.776613            0           0           0
      0.000000  2.969554  8.776613            0           0           0
      0.000000  1.484777 12.037346            0           0           0
      9.782200  2.969554 12.037346            0           0           0
      9.782200  1.484777 15.298080            0           0           0
      0.000000  2.969554 15.298080            0           0           0
      0.096506  1.483545 18.492740            0           0           0
      9.860608  2.967380 18.670145            0           0           0
      9.790770  1.473088 22.035647            0           0           0
      0.014086  2.963085 21.679531            0           0           0
      9.782200  4.454331  8.776613            0           0           0
      0.000000  5.939108  8.776613            0           0           0
      0.000000  4.454331 12.037346            0           0           0
      9.782200  5.939108 12.037346            0           0           0
      9.782200  4.454331 15.298080            0           0           0
      0.000000  5.939108 15.298080            0           0           0
      0.088588  4.453339 18.490861            0           0           0
      9.860813  5.938247 18.677646            0           0           0
      9.815076  4.432084 22.007340            0           0           0
      0.024022  5.938583 21.678205            0           0           0
      3.260733  7.423885  8.776613            0           0           0
      6.521467  8.908663  8.776613            0           0           0
      6.521467  7.423885 12.037346            0           0           0
      3.260733  8.908663 12.037346            0           0           0
      3.260733  7.423885 15.298080            0           0           0
      6.521467  8.908663 15.298080            0           0           0
      6.611888  7.397907 18.528006            0           0           0
      3.340924  8.907240 18.679577            0           0           0
      3.279713  7.424153 22.039002            0           0           0
      6.547292  8.909615 21.642256            0           0           0
      3.260733 10.393440  8.776613            0           0           0
      6.521467  0.000000  8.776613            0           0           0
      6.521467 10.393440 12.037346            0           0           0
      3.260733  0.000000 12.037346            0           0           0
      3.260733 10.393440 15.298080            0           0           0
      6.521467  0.000000 15.298080            0           0           0
      6.615867 10.381992 18.462322            0           0           0
[...]
      6.521467  5.939108 13.313959            0           0           0
      4.537346  4.454331 12.037346            0           0           0
      8.505588  4.454331 12.037346            0           0           0
      3.260733  5.939108 14.021467            0           0           0
      3.260733  5.939108 16.574692            0           0           0
      7.798080  4.454331 15.298080            0           0           0
      5.244854  4.454331 15.298080            0           0           0
      6.538409  5.936207 17.310615            0           0           0
      6.523056  5.943240 19.885328            0           0           0
      4.570113  4.453896 18.578358            0           0           0
      8.498358  4.453787 18.596039            0           0           0
      3.280065  5.943302 20.552170            0           0           0
      3.289319  5.936683 23.118497            0           0           0
      7.794852  4.407171 21.859974            0           0           0
      5.320641  4.442223 21.986066            0           0           0

[...]

   9 f  =    5.108029 THz    32.094695 2PiTHz  170.385518 cm-1    21.125102 meV
             X         Y         Z           dx          dy          dz
      6.752493  6.558634 24.520654    -0.105965   -0.340606    0.126090
      8.069241  5.892412 23.907814    -0.051378   -0.155415    0.043379
      7.067017  5.845098 23.938977    -0.180507   -0.890418    0.052517
      9.782200  7.423885  8.776613            0           0           0
      0.000000  8.908663  8.776613            0           0           0
      0.000000  7.423885 12.037346            0           0           0
      9.782200  8.908663 12.037346            0           0           0
      9.782200  7.423885 15.298080            0           0           0
      0.000000  8.908663 15.298080            0           0           0
      0.089835  7.423843 18.491654            0           0           0
      9.862857  8.908179 18.671251            0           0           0
      9.808375  7.431893 22.005761            0           0           0
      0.014548  8.910722 21.679764            0           0           0
      9.782200 10.393440  8.776613            0           0           0
      0.000000  0.000000  8.776613            0           0           0
      0.000000 10.393440 12.037346            0           0           0
      9.782200  0.000000 12.037346            0           0           0
      9.782200 10.393440 15.298080            0           0           0
      0.000000  0.000000 15.298080            0           0           0
      0.094124 10.393297 18.492829            0           0           0
      9.859143 11.878114 18.679160            0           0           0
      9.792432 10.391365 22.035766            0           0           0
      0.015738 11.875764 21.678503            0           0           0
      9.782200  1.484777  8.776613            0           0           0
      0.000000  2.969554  8.776613            0           0           0
      0.000000  1.484777 12.037346            0           0           0
      9.782200  2.969554 12.037346            0           0           0
      9.782200  1.484777 15.298080            0           0           0
      0.000000  2.969554 15.298080            0           0           0
      0.096506  1.483545 18.492740            0           0           0
      9.860608  2.967380 18.670145            0           0           0
      9.790770  1.473088 22.035647            0           0           0
      0.014086  2.963085 21.679531            0           0           0
      9.782200  4.454331  8.776613            0           0           0
      0.000000  5.939108  8.776613            0           0           0
      0.000000  4.454331 12.037346            0           0           0
      9.782200  5.939108 12.037346            0           0           0
      9.782200  4.454331 15.298080            0           0           0
      0.000000  5.939108 15.298080            0           0           0
      0.088588  4.453339 18.490861            0           0           0
      9.860813  5.938247 18.677646            0           0           0
      9.815076  4.432084 22.007340            0           0           0
      0.024022  5.938583 21.678205            0           0           0
      3.260733  7.423885  8.776613            0           0           0
      6.521467  8.908663  8.776613            0           0           0
      6.521467  7.423885 12.037346            0           0           0
      3.260733  8.908663 12.037346            0           0           0
      3.260733  7.423885 15.298080            0           0           0
      6.521467  8.908663 15.298080            0           0           0
      6.611888  7.397907 18.528006            0           0           0
      3.340924  8.907240 18.679577            0           0           0
      3.279713  7.424153 22.039002            0           0           0
      6.547292  8.909615 21.642256            0           0           0
      3.260733 10.393440  8.776613            0           0           0
      6.521467  0.000000  8.776613            0           0           0
      6.521467 10.393440 12.037346            0           0           0
      3.260733  0.000000 12.037346            0           0           0
      3.260733 10.393440 15.298080            0           0           0
      6.521467  0.000000 15.298080            0           0           0
      6.615867 10.381992 18.462322            0           0           0
[...]
      6.521467  5.939108 13.313959            0           0           0
      4.537346  4.454331 12.037346            0           0           0
      8.505588  4.454331 12.037346            0           0           0
      3.260733  5.939108 14.021467            0           0           0
      3.260733  5.939108 16.574692            0           0           0
      7.798080  4.454331 15.298080            0           0           0
      5.244854  4.454331 15.298080            0           0           0
      6.538409  5.936207 17.310615            0           0           0
      6.523056  5.943240 19.885328            0           0           0
      4.570113  4.453896 18.578358            0           0           0
      8.498358  4.453787 18.596039            0           0           0
      3.280065  5.943302 20.552170            0           0           0
      3.289319  5.936683 23.118497            0           0           0
      7.794852  4.407171 21.859974            0           0           0
      5.320641  4.442223 21.986066            0           0           0

 Finite differences POTIM=   1.0000000000000000E-002