 vasp.6.4.2 20Jul23 (build Nov 17 2023 15:39:20) complex
 executed on              LinuxNV date 2024.02.27  20:15:49
 OpenACC runtime initialized ...    4 GPUs detected

 INCAR:
   SYSTEM = Oxide-Surface
   ISMEAR = 0
   SIGMA = 0.05
   EDIFF = 1E-4
   ALGO = Normal
   ISTART = 2
   IBRION = -1
   NSW = 0
   ISYM = 0
   DIPOL = 0.5 0.5 0.5
   IDIPOL = 3
   LDIPOL = .TRUE.
   LHFCALC = .TRUE.
   HFSCREEN = 0.2
   GGA = PE
   ENCUT = 450
   PREC = Normal
   LASPH = .TRUE.
   LREAL = Auto
   ISPIN = 1
   NELM = 200
   NELMIN = 8
   NCORE = 1
   KPAR = 1
   LWAVE = .FALSE.
   LCHARG = .FALSE.

 POTCAR:    PAW_PBE C 08Apr2002
 POTCAR:    PAW_PBE H 15Jun2001
 POTCAR:    PAW_PBE Mg_pv 13Apr2007
 POTCAR:    PAW_PBE O 08Apr2002
 POTCAR:    PAW_PBE C 08Apr2002
   VRHFIN =C: s2p2

   TITEL  = PAW_PBE C 08Apr2002
   POMASS =   12.011; ZVAL   =    4.000    mass and valenz
   ENMAX  =  400.000; ENMIN  =  300.000 eV

   TITEL  = PAW_PBE H 15Jun2001
   POMASS =    1.000; ZVAL   =    1.000    mass and valenz
   ENMAX  =  250.000; ENMIN  =  200.000 eV

   TITEL  = PAW_PBE Mg_pv 13Apr2007
   POMASS =   24.305; ZVAL   =    8.000    mass and valenz
   ENMAX  =  403.929; ENMIN  =  302.947 eV

   TITEL  = PAW_PBE O 08Apr2002
   POMASS =   16.000; ZVAL   =    6.000    mass and valenz
   ENMAX  =  400.000; ENMIN  =  300.000 eV

 Optimization of the real space projectors (new method)

 maximal supplied QI-value         = 25.13
 optimisation between [QCUT,QGAM] = [ 10.81, 21.61] = [ 32.71,130.83] Ry
 Optimized for a Real-space Cutoff    1.23 Angstroem

   l    n(q)    QCUT    max X(q) W(low)/X(q) W(high)/X(q)  e(spline)
   0      8    10.807   115.676    0.36E-03    0.72E-03    0.24E-06
   0      8    10.807    87.132    0.35E-03    0.71E-03    0.24E-06
   1      7    10.807     4.429    0.19E-03    0.39E-03    0.11E-06
   1      7    10.807     2.733    0.14E-03    0.28E-03    0.13E-06
 Optimization of the real space projectors (new method)

[...]

   l    n(q)    QCUT    max X(q) W(low)/X(q) W(high)/X(q)  e(spline)
   1      7    10.771     2.974    0.18E-03    0.56E-05    0.13E-06
   1      7    10.771     4.279    0.39E-03    0.94E-04    0.28E-06
   0      8    10.771    16.381    0.27E-03    0.38E-03    0.44E-07
   0      8    10.771     5.611    0.18E-03    0.26E-03    0.32E-07
   2      7    10.771     4.652    0.12E-03    0.23E-03    0.45E-07
 Optimization of the real space projectors (new method)

 maximal supplied QI-value         = 24.76
 optimisation between [QCUT,QGAM] = [ 10.64, 21.54] = [ 31.73,129.89] Ry
 Optimized for a Real-space Cutoff    1.23 Angstroem

   l    n(q)    QCUT    max X(q) W(low)/X(q) W(high)/X(q)  e(spline)
   0      8    10.645    20.381    0.38E-03    0.60E-03    0.15E-06
   0      8    10.645    15.268    0.40E-03    0.65E-03    0.17E-06
   1      7    10.645     5.964    0.30E-03    0.63E-03    0.18E-06
   1      7    10.645     5.382    0.24E-03    0.53E-03    0.16E-06
  PAW_PBE C 08Apr2002                   :
  PAW_PBE H 15Jun2001                   :
  PAW_PBE Mg_pv 13Apr2007               :
  PAW_PBE O 08Apr2002                   :

 POSCAR:  C  H Mg  O
  positions in direct lattice
 exchange correlation table for  LEXCH =        8
   RHO(1)=    0.500       N(1)  =     2000
   RHO(2)=  100.500       N(2)  =     4000

 ion  position               nearest neighbor table
   1  0.500  0.500  0.796-   3 1.10   2 1.10   4 1.10   5 1.10
   2  0.500  0.606  0.825-   1 1.10
   3  0.500  0.394  0.825-   1 1.10
   4  0.607  0.500  0.766-   1 1.10
   5  0.393  0.500  0.766-   1 1.10
   6  0.000  0.750  0.352-  38 2.11  40 2.11  41 2.11  48 2.11  57 2.11
   7  0.250  0.000  0.352-  39 2.11  40 2.11  41 2.11  49 2.11  56 2.11
   8  0.000  0.000  0.451-  40 2.11  39 2.11  38 2.11  46 2.11  55 2.11  44 2.12
   9  0.250  0.750  0.451-  41 2.11  39 2.11  38 2.11  47 2.11  54 2.11  45 2.12
  10  0.000  0.750  0.550-  61 2.11  45 2.11  44 2.11  52 2.11  38 2.12  42 2.15
  11  0.250  1.000  0.550-  53 2.11  45 2.11  44 2.11  60 2.11  39 2.12  43 2.15
  12  0.000  1.000  0.649-  44 2.11  59 2.11  43 2.11  42 2.11  50 2.11
  13  0.250  0.750  0.649-  45 2.11  58 2.11  43 2.11  51 2.11  42 2.11
  14  0.000  0.250  0.352-  46 2.11  40 2.11  48 2.11  49 2.11  65 2.11
  15  0.250  0.500  0.352-  47 2.11  41 2.11  48 2.11  49 2.11  64 2.11
  16  0.000  0.500  0.451-  48 2.11  46 2.11  47 2.11  38 2.11  63 2.11  52 2.12
  17  0.250  0.250  0.451-  49 2.11  46 2.11  47 2.11  39 2.11  62 2.11  53 2.12
  18  0.000  0.250  0.550-  53 2.11  69 2.11  44 2.11  52 2.11  46 2.12  50 2.15
  19  0.250  0.500  0.550-  68 2.11  45 2.11  53 2.11  52 2.11  47 2.12  51 2.15
  20  0.000  0.500  0.649-  52 2.11  67 2.11  51 2.11  42 2.11  50 2.11
  21  0.250  0.250  0.649-  53 2.11  66 2.11  43 2.11  51 2.11  50 2.11
  22  0.500  0.750  0.352-  54 2.11  41 2.11  56 2.11  57 2.11  64 2.11
  23  0.750  0.000  0.352-  55 2.11  40 2.11  56 2.11  57 2.11  65 2.11
  24  0.500  0.000  0.451-  56 2.11  54 2.11  55 2.11  39 2.11  62 2.11  60 2.12
  25  0.750  0.750  0.451-  57 2.11  54 2.11  55 2.11  38 2.11  63 2.11  61 2.12
  26  0.500  0.750  0.550-  68 2.11  45 2.11  61 2.11  60 2.11  54 2.13  58 2.15
  27  0.750  0.000  0.550-  69 2.11  61 2.11  44 2.11  60 2.11  55 2.12  59 2.15
  28  0.500  1.000  0.649-  66 2.11  58 2.11  60 2.11  43 2.11  59 2.11
  29  0.750  0.750  0.649-  61 2.11  58 2.11  59 2.11  67 2.11  42 2.11
  30  0.500  0.250  0.352-  62 2.11  56 2.11  49 2.11  64 2.11  65 2.11
  31  0.750  0.500  0.352-  63 2.11  57 2.11  48 2.11  64 2.11  65 2.11
  32  0.500  0.500  0.451-  64 2.11  54 2.11  62 2.11  63 2.11  47 2.11  68 2.12
  33  0.750  0.250  0.451-  65 2.11  55 2.11  62 2.11  63 2.11  46 2.11  69 2.12
  34  0.500  0.250  0.550-  68 2.11  53 2.11  69 2.11  60 2.11  62 2.13  66 2.15
  35  0.750  0.500  0.550-  68 2.11  61 2.11  69 2.11  52 2.11  63 2.12  67 2.15
  36  0.500  0.500  0.649-  66 2.11  58 2.11  51 2.11  67 2.11  68 2.12
  37  0.750  0.250  0.649-  69 2.11  66 2.11  59 2.11  67 2.11  50 2.11
  38  0.000  0.750  0.451-   6 2.11   8 2.11   9 2.11  16 2.11  25 2.11  10 2.12
  39  0.250  0.000  0.451-   7 2.11   8 2.11   9 2.11  17 2.11  24 2.11  11 2.12
  40  0.000  0.000  0.352-   8 2.11   7 2.11   6 2.11  14 2.11  23 2.11
  41  0.250  0.750  0.352-   9 2.11   7 2.11   6 2.11  15 2.11  22 2.11
  42  0.000  0.750  0.651-  12 2.11  20 2.11  29 2.11  13 2.11  10 2.15
  43  0.250  0.000  0.651-  21 2.11  13 2.11  12 2.11  28 2.11  11 2.15
  44  0.000  1.000  0.550-  10 2.11  18 2.11  12 2.11  11 2.11  27 2.11   8 2.12
  45  0.250  0.750  0.550-  13 2.11  10 2.11  11 2.11  19 2.11  26 2.11   9 2.12
  46  0.000  0.250  0.451-  14 2.11   8 2.11  16 2.11  17 2.11  33 2.11  18 2.12
  47  0.250  0.500  0.451-  15 2.11   9 2.11  16 2.11  17 2.11  32 2.11  19 2.12
  48  0.000  0.500  0.352-  16 2.11  14 2.11  15 2.11   6 2.11  31 2.11
  49  0.250  0.250  0.352-  17 2.11  14 2.11  15 2.11   7 2.11  30 2.11
  50  0.000  0.250  0.651-  12 2.11  20 2.11  21 2.11  37 2.11  18 2.15
  51  0.250  0.500  0.651-  20 2.11  21 2.11  13 2.11  36 2.11  19 2.15
  52  0.000  0.500  0.550-  20 2.11  10 2.11  18 2.11  19 2.11  35 2.11  16 2.12
  53  0.250  0.250  0.550-  21 2.11  18 2.11  11 2.11  19 2.11  34 2.11  17 2.12
  54  0.500  0.750  0.451-  22 2.11   9 2.11  24 2.11  25 2.11  32 2.11  26 2.13
  55  0.750  0.000  0.451-  23 2.11   8 2.11  24 2.11  25 2.11  33 2.11  27 2.12
  56  0.500  0.000  0.352-  24 2.11  22 2.11  23 2.11   7 2.11  30 2.11
  57  0.750  0.750  0.352-  25 2.11  22 2.11  23 2.11   6 2.11  31 2.11
  58  0.500  0.750  0.651-  28 2.11  13 2.11  29 2.11  36 2.11  26 2.15
  59  0.750  0.000  0.651-  37 2.11  29 2.11  12 2.11  28 2.11  27 2.15
  60  0.500  1.000  0.550-  28 2.11  27 2.11  11 2.11  26 2.11  34 2.11  24 2.12
  61  0.750  0.750  0.550-  29 2.11  10 2.11  27 2.11  35 2.11  26 2.11  25 2.12
  62  0.500  0.250  0.451-  30 2.11  24 2.11  17 2.11  32 2.11  33 2.11  34 2.13
  63  0.750  0.500  0.451-  31 2.11  25 2.11  16 2.11  32 2.11  33 2.11  35 2.12
  64  0.500  0.500  0.352-  32 2.11  22 2.11  30 2.11  31 2.11  15 2.11
  65  0.750  0.250  0.352-  33 2.11  23 2.11  30 2.11  31 2.11  14 2.11
  66  0.500  0.250  0.651-  28 2.11  21 2.11  37 2.11  36 2.11  34 2.15
  67  0.750  0.500  0.651-  20 2.11  29 2.11  37 2.11  36 2.11  35 2.15
  68  0.500  0.500  0.550-  35 2.11  19 2.11  34 2.11  26 2.11  36 2.12  32 2.12
  69  0.750  0.250  0.550-  37 2.11  18 2.11  27 2.11  35 2.11  34 2.11  33 2.12

IMPORTANT INFORMATION: All symmetrisations will be switched off!
NOSYMM: (Re-)initialisation of all symmetry stuff for point group C_1.

                                     Primitive cell

  volume of cell :    1519.8199

  direct lattice vectors                    reciprocal lattice vectors
     8.440984654  0.000000000  0.000000000     0.118469591  0.000000000  0.000000000
     0.000000000  8.440984654  0.000000000     0.000000000  0.118469591  0.000000000
     0.000000000  0.000000000 21.330738491     0.000000000  0.000000000  0.046880702

  length of vectors
     8.440984654  8.440984654 21.330738491     0.118469591  0.118469591  0.046880702

  position of ions in fractional coordinates (direct lattice)
     0.500000022  0.499997701  0.795765481
     0.499999966  0.606400245  0.825294148
     0.499999960  0.393601765  0.825293628
     0.607088423  0.500000081  0.766452828
     0.392911520  0.500000085  0.766452812
     0.000000000  0.750000000  0.351605267
     0.250000000  0.000000000  0.351605267
     0.000000000  0.000000000  0.450535089
     0.250000000  0.750000000  0.450535089
     0.000000003  0.750032167  0.550141647
     0.249992769  0.999999998  0.550135640
     0.000000010  0.999999991  0.648847037
     0.250116514  0.750097339  0.648710816
     0.000000000  0.250000000  0.351605267
     0.250000000  0.500000000  0.351605267
     0.000000000  0.500000000  0.450535089
     0.250000000  0.250000000  0.450535089
     0.000000007  0.249967822  0.550141651
     0.250108445  0.500000001  0.550153757
     0.000000011  0.499999994  0.648675549
     0.250116504  0.249902631  0.648710813
     0.500000000  0.750000000  0.351605267
     0.750000000  0.000000000  0.351605267
     0.500000000  0.000000000  0.450535089
     0.750000000  0.750000000  0.450535089
     0.499999994  0.749901112  0.550182719
     0.750007254  0.000000005  0.550135636
     0.500000006  0.999999998  0.648747779
     0.749883526  0.750097344  0.648710829
     0.500000000  0.250000000  0.351605267
     0.750000000  0.500000000  0.351605267
     0.500000000  0.500000000  0.450535089
     0.750000000  0.250000000  0.450535089
     0.500000001  0.250098874  0.550182703
     0.749891587  0.499999991  0.550153763
     0.500000014  0.499999988  0.649279172
     0.749883523  0.249902625  0.648710829
     0.000000000  0.750000000  0.450535089
     0.250000000  0.000000000  0.450535089
     0.000000000  0.000000000  0.351605267
     0.250000000  0.750000000  0.351605267
     0.000000011  0.750041776  0.650981394
     0.249939864  0.000000003  0.651016895
     0.000000015  0.999999981  0.549923091
     0.249924098  0.750012792  0.549866046
     0.000000000  0.250000000  0.450535089
     0.250000000  0.500000000  0.450535089
[...]
   6.33073849  2.11024616  7.50000000
   4.22049236  2.10905082 13.88123754
   6.33285378  4.22049222 13.88635524
   4.22049247  4.22049226 11.73183669
   6.33137917  2.11013802 11.72904886

--------------------------------------- Iteration      FINAL  ---------------------------------------

--------------------OUTCAR has been truncated-------------------------

[...]

--------------------OUTCAR has been truncated-------------------------

 VOLUME and BASIS-vectors are now :
  energy-cutoff  :      450.00
  volume of cell :     1519.82
      direct lattice vectors                 reciprocal lattice vectors
     8.440984654  0.000000000  0.000000000     0.118469591  0.000000000  0.000000000
     0.000000000  8.440984654  0.000000000     0.000000000  0.118469591  0.000000000
     0.000000000  0.000000000 21.330738491     0.000000000  0.000000000  0.046880702

  length of vectors
     8.440984654  8.440984654 21.330738491     0.118469591  0.118469591  0.046880702

 FORCES acting on ions
    electron-ion (+dipol)            ewald-force                    non-local-force                 convergence-correction
   0.894E-05 -.851E-03 -.932E+03   -.191E-04 0.142E-02 0.932E+03   -.159E-04 0.897E-03 -.147E+00   0.654E-06 -.183E-04 0.138E+00
   0.203E-04 -.430E+02 -.231E+03   -.216E-04 0.474E+02 0.234E+03   0.276E-05 -.439E+01 -.307E+01   0.149E-06 0.285E-04 0.314E-01
   0.230E-04 0.430E+02 -.231E+03   -.245E-04 -.474E+02 0.234E+03   0.300E-05 0.439E+01 -.307E+01   0.120E-06 -.318E-04 0.314E-01
   -.432E+02 -.834E-03 -.235E+03   0.477E+02 0.885E-03 0.232E+03   -.445E+01 -.118E-03 0.297E+01   -.106E-03 -.261E-05 0.365E-01
   0.432E+02 -.835E-03 -.235E+03   -.477E+02 0.887E-03 0.232E+03   0.445E+01 -.118E-03 0.297E+01   0.106E-03 -.261E-05 0.365E-01
   0.112E-05 -.144E+00 0.208E+04   -.251E-05 0.144E+00 -.207E+04   -.773E-06 -.335E-03 -.681E+01   0.238E-05 -.146E-04 -.239E+00
   0.139E+00 0.258E-05 0.208E+04   -.139E+00 -.297E-05 -.207E+04   -.104E-04 0.118E-06 -.681E+01   0.805E-05 0.373E-06 -.239E+00
   0.650E-05 -.107E-05 0.707E+03   -.610E-05 0.103E-05 -.707E+03   -.435E-06 0.440E-06 0.522E+00   0.821E-06 -.521E-06 -.106E+00
   0.554E+00 -.601E+00 0.708E+03   -.553E+00 0.602E+00 -.709E+03   -.414E-03 -.343E-03 0.504E+00   0.210E-04 -.718E-04 -.106E+00
   0.181E-04 -.231E+01 -.652E+03   -.193E-04 0.232E+01 0.653E+03   0.257E-05 -.662E-02 -.169E+00   -.166E-05 -.221E-03 0.641E-01
   0.229E+01 0.392E-04 -.652E+03   -.229E+01 -.401E-04 0.653E+03   -.382E-02 -.296E-06 -.154E+00   0.507E-04 0.143E-05 0.640E-01
   -.198E-04 0.641E-04 -.201E+04   0.194E-04 -.665E-04 0.201E+04   0.232E-05 -.216E-06 0.578E+01   -.180E-05 0.234E-05 0.211E+00
   0.147E+02 -.148E+02 -.200E+04   -.146E+02 0.149E+02 0.199E+04   -.271E-01 -.510E-01 0.580E+01   0.170E-03 -.624E-03 0.211E+00
   0.109E-05 0.144E+00 0.208E+04   -.234E-05 -.144E+00 -.207E+04   -.131E-06 0.335E-03 -.681E+01   0.177E-05 0.132E-04 -.239E+00
   0.145E+00 -.322E-05 0.208E+04   -.144E+00 0.287E-05 -.207E+04   -.697E-03 0.341E-06 -.681E+01   0.662E-05 0.298E-07 -.239E+00
   0.146E-04 0.157E-05 0.708E+03   -.154E-04 -.836E-06 -.709E+03   0.743E-07 -.659E-06 0.488E+00   0.690E-06 -.742E-06 -.106E+00
   0.554E+00 0.601E+00 0.708E+03   -.553E+00 -.602E+00 -.709E+03   -.412E-03 0.344E-03 0.504E+00   0.211E-04 0.746E-04 -.106E+00
   0.363E-04 0.231E+01 -.652E+03   -.348E-04 -.232E+01 0.653E+03   -.560E-06 0.662E-02 -.169E+00   -.782E-06 0.219E-03 0.641E-01
   0.388E+01 -.175E-04 -.646E+03   -.386E+01 0.167E-04 0.646E+03   -.249E-01 0.358E-06 -.164E+00   0.112E-03 -.115E-06 0.646E-01
   -.341E-04 -.583E-04 -.200E+04   0.334E-04 0.567E-04 0.199E+04   0.305E-05 -.825E-06 0.577E+01   -.201E-05 0.291E-05 0.211E+00
   0.147E+02 0.148E+02 -.200E+04   -.146E+02 -.149E+02 0.199E+04   -.271E-01 0.510E-01 0.580E+01   0.170E-03 0.621E-03 0.211E+00
   -.196E-05 -.149E+00 0.208E+04   0.274E-05 0.149E+00 -.207E+04   0.114E-05 0.371E-03 -.681E+01   -.198E-05 -.131E-04 -.239E+00
   -.139E+00 0.344E-05 0.208E+04   0.139E+00 -.330E-05 -.207E+04   0.106E-04 -.127E-05 -.681E+01   -.726E-05 0.898E-06 -.239E+00
   -.402E-05 0.253E-04 0.708E+03   0.536E-05 -.265E-04 -.709E+03   -.549E-06 0.210E-05 0.475E+00   -.832E-06 -.165E-05 -.106E+00
   -.554E+00 -.601E+00 0.708E+03   0.553E+00 0.602E+00 -.709E+03   0.413E-03 -.343E-03 0.504E+00   -.212E-04 -.732E-04 -.106E+00
   -.673E-04 -.395E+01 -.646E+03   0.685E-04 0.393E+01 0.646E+03   -.229E-06 0.200E-01 -.291E+00   0.136E-05 -.287E-03 0.643E-01
   -.229E+01 0.785E-04 -.652E+03   0.229E+01 -.769E-04 0.653E+03   0.382E-02 -.223E-05 -.154E+00   -.503E-04 -.671E-06 0.640E-01
   -.526E-04 0.149E-03 -.200E+04   0.492E-04 -.141E-03 0.200E+04   0.248E-05 -.794E-05 0.579E+01   0.133E-05 0.211E-05 0.210E+00
   -.146E+02 -.148E+02 -.200E+04   0.146E+02 0.149E+02 0.199E+04   0.271E-01 -.510E-01 0.580E+01   -.171E-03 -.625E-03 0.211E+00
   -.839E-06 0.149E+00 0.208E+04   0.235E-05 -.149E+00 -.207E+04   0.113E-06 -.370E-03 -.681E+01   -.175E-05 0.108E-04 -.239E+00
   -.145E+00 -.298E-05 0.208E+04   0.144E+00 0.313E-05 -.207E+04   0.699E-03 0.120E-06 -.681E+01   -.856E-05 -.561E-06 -.239E+00
   -.147E-04 -.244E-04 0.709E+03   0.163E-04 0.270E-04 -.710E+03   0.142E-06 -.159E-05 0.530E+00   -.118E-05 -.750E-06 -.106E+00
   -.554E+00 0.601E+00 0.708E+03   0.553E+00 -.602E+00 -.709E+03   0.412E-03 0.344E-03 0.504E+00   -.198E-04 0.735E-04 -.106E+00
   -.251E-04 0.395E+01 -.646E+03   0.282E-04 -.393E+01 0.646E+03   -.141E-05 -.200E-01 -.291E+00   -.136E-05 0.285E-03 0.643E-01
   -.388E+01 -.280E-04 -.646E+03   0.386E+01 0.286E-04 0.646E+03   0.249E-01 -.133E-05 -.164E+00   -.112E-03 0.122E-05 0.646E-01
   -.517E-04 -.258E-03 -.195E+04   0.463E-04 0.238E-03 0.194E+04   0.140E-05 0.999E-05 0.560E+01   0.435E-05 0.297E-05 0.214E+00
   -.147E+02 0.148E+02 -.200E+04   0.146E+02 -.149E+02 0.199E+04   0.271E-01 0.510E-01 0.580E+01   -.171E-03 0.622E-03 0.211E+00
   0.827E-05 -.436E+00 0.530E+03   -.831E-05 0.430E+00 -.530E+03   -.701E-06 0.713E-02 -.728E-01   0.540E-06 -.526E-04 -.770E-01
   0.427E+00 0.102E-04 0.530E+03   -.419E+00 -.932E-05 -.530E+03   -.988E-02 -.594E-07 -.695E-01   0.124E-04 -.635E-06 -.771E-01
   0.599E-06 0.219E-05 0.156E+04   -.130E-05 -.115E-05 -.156E+04   -.810E-06 -.100E-05 0.316E+01   0.114E-05 0.112E-06 -.179E+00
   0.106E+00 -.110E+00 0.156E+04   -.105E+00 0.110E+00 -.156E+04   -.616E-03 -.551E-04 0.316E+01   0.770E-05 -.127E-04 -.179E+00
   -.240E-04 -.613E+01 -.153E+04   0.279E-04 0.612E+01 0.153E+04   -.578E-06 0.250E-02 -.460E+01   -.199E-05 -.152E-03 0.161E+00
   0.588E+01 0.108E-03 -.153E+04   -.587E+01 -.109E-03 0.153E+04   -.224E-03 -.675E-06 -.461E+01   -.999E-04 0.572E-06 0.161E+00
   0.173E-04 -.115E-05 -.486E+03   -.150E-04 -.190E-05 0.485E+03   -.231E-05 0.201E-05 0.232E+00   -.375E-06 0.171E-05 0.471E-01
   0.229E+01 -.230E+01 -.481E+03   -.227E+01 0.230E+01 0.481E+03   -.147E-01 0.204E-02 0.269E+00   0.818E-04 -.217E-03 0.471E-01
   0.953E-05 0.436E+00 0.530E+03   -.942E-05 -.430E+00 -.530E+03   -.712E-06 -.713E-02 -.728E-01   0.349E-06 0.517E-04 -.770E-01
   0.462E+00 -.479E-05 0.531E+03   -.470E+00 0.758E-05 -.531E+03   0.969E-02 -.189E-06 -.702E-01   0.193E-04 -.185E-05 -.770E-01
   0.880E-06 -.183E-05 0.156E+04   -.224E-05 0.108E-05 -.156E+04   -.440E-07 -.244E-06 0.316E+01   0.275E-05 0.121E-06 -.179E+00
   0.106E+00 0.110E+00 0.156E+04   -.105E+00 -.110E+00 -.156E+04   -.616E-03 0.544E-04 0.316E+01   0.838E-05 0.142E-04 -.179E+00
   0.327E-05 0.613E+01 -.153E+04   -.101E-05 -.612E+01 0.153E+04   0.317E-06 -.250E-02 -.460E+01   -.196E-05 0.149E-03 0.161E+00
   0.189E+02 -.102E-03 -.150E+04   -.188E+02 0.934E-04 0.151E+04   -.608E-01 0.837E-05 -.454E+01   0.700E-03 0.162E-05 0.161E+00
   0.119E-04 -.361E-05 -.482E+03   -.963E-05 0.212E-05 0.481E+03   -.442E-05 0.213E-06 0.283E+00   0.547E-06 0.222E-06 0.472E-01
   0.229E+01 0.230E+01 -.481E+03   -.227E+01 -.230E+01 0.481E+03   -.148E-01 -.204E-02 0.269E+00   0.809E-04 0.219E-03 0.471E-01
   -.126E-04 -.474E+00 0.531E+03   0.130E-04 0.485E+00 -.531E+03   -.112E-06 -.128E-01 -.808E-01   0.430E-08 -.622E-04 -.770E-01
   -.427E+00 0.149E-04 0.530E+03   0.419E+00 -.137E-04 -.530E+03   0.988E-02 -.981E-06 -.695E-01   -.119E-04 -.237E-06 -.771E-01
   -.285E-06 0.623E-05 0.156E+04   0.137E-05 -.357E-05 -.156E+04   0.666E-06 -.177E-06 0.316E+01   -.141E-05 -.982E-06 -.179E+00
   -.106E+00 -.110E+00 0.156E+04   0.105E+00 0.110E+00 -.156E+04   0.616E-03 -.546E-04 0.316E+01   -.789E-05 -.149E-04 -.179E+00
   -.513E-04 -.187E+02 -.150E+04   0.541E-04 0.186E+02 0.151E+04   -.161E-05 0.770E-01 -.465E+01   0.826E-06 -.858E-03 0.160E+00
   -.588E+01 0.117E-03 -.153E+04   0.587E+01 -.118E-03 0.153E+04   0.226E-03 0.378E-07 -.461E+01   0.989E-04 0.753E-06 0.161E+00
   -.222E-04 0.337E-04 -.482E+03   0.246E-04 -.343E-04 0.481E+03   -.249E-05 -.239E-05 0.247E+00   -.889E-06 0.208E-05 0.470E-01
   -.229E+01 -.230E+01 -.481E+03   0.227E+01 0.230E+01 0.481E+03   0.148E-01 0.204E-02 0.269E+00   -.811E-04 -.219E-03 0.471E-01
   -.636E-05 0.474E+00 0.531E+03   0.802E-05 -.485E+00 -.531E+03   0.257E-07 0.128E-01 -.809E-01   -.974E-06 0.662E-04 -.770E-01
   -.462E+00 -.119E-04 0.531E+03   0.470E+00 0.103E-04 -.531E+03   -.969E-02 -.135E-05 -.702E-01   -.200E-04 0.164E-05 -.770E-01
   -.166E-05 -.191E-05 0.156E+04   0.236E-05 0.350E-05 -.156E+04   0.353E-07 -.110E-06 0.316E+01   -.699E-06 -.907E-07 -.179E+00
   -.106E+00 0.110E+00 0.156E+04   0.105E+00 -.110E+00 -.156E+04   0.615E-03 0.557E-04 0.316E+01   -.635E-05 0.114E-04 -.179E+00
   -.279E-04 0.187E+02 -.150E+04   0.290E-04 -.186E+02 0.151E+04   0.680E-06 -.771E-01 -.465E+01   0.312E-06 0.853E-03 0.160E+00
   -.189E+02 -.928E-04 -.150E+04   0.188E+02 0.859E-04 0.151E+04   0.608E-01 0.719E-05 -.454E+01   -.702E-03 0.147E-05 0.161E+00
   -.306E-04 -.396E-04 -.477E+03   0.316E-04 0.362E-04 0.477E+03   -.424E-05 0.194E-05 0.118E+00   0.163E-05 0.189E-05 0.476E-01
   -.229E+01 0.230E+01 -.481E+03   0.227E+01 -.230E+01 0.481E+03   0.148E-01 -.204E-02 0.269E+00   -.802E-04 0.219E-03 0.471E-01
   0.140E-04 -.124E-02 0.197E+02   -.544E-12 0.163E-12 -.682E-12   -.140E-04 0.120E-02 -.164E+02   -.823E-06 -.253E-04 -.674E+00

 POSITION                                       TOTAL-FORCE (eV/Angst)
      4.22049      4.22047     16.97427        -0.000026      0.001505      0.045640
      4.22049      5.11862     17.60413         0.000002     -0.212326     -0.142162
      4.22049      3.32239     17.60412         0.000002      0.210976     -0.141329
      5.12442      4.22049     16.34900        -0.186591     -0.000074      0.150323
      3.31656      4.22049     16.34900         0.186614     -0.000074      0.150337
      0.00000      6.33074      7.50000         0.000000      0.000098      0.494909
      2.11025      0.00000      7.50000         0.000051     -0.000000      0.494918
      0.00000      0.00000      9.61025         0.000001     -0.000000      0.025203
      2.11025      6.33074      9.61025         0.000640      0.000044      0.024899
      0.00000      6.33101     11.73493         0.000000     -0.001392      0.040734
      2.11019      8.44098     11.73480         0.002889     -0.000000      0.040723
      0.00000      8.44098     13.84039         0.000000     -0.000000     -0.115294
      2.11123      6.33156     13.83748        -0.005079      0.008744     -0.119546
      0.00000      2.11025      7.50000         0.000000     -0.000098      0.494909
      2.11025      4.22049      7.50000         0.000217     -0.000000      0.495640
      0.00000      4.22049      9.61025        -0.000000     -0.000001      0.026953
      2.11025      2.11025      9.61025         0.000640     -0.000044      0.024899
      0.00000      2.10997     11.73493         0.000000      0.001392      0.040735
      2.11116      4.22049     11.73519         0.000681     -0.000001      0.042703
      0.00000      4.22049     13.83673         0.000001      0.000000     -0.114718
      2.11123      2.10942     13.83748        -0.005075     -0.008742     -0.119539
      4.22049      6.33074      7.50000         0.000000     -0.000079      0.496557
      6.33074      0.00000      7.50000        -0.000051     -0.000000      0.494918
      4.22049      0.00000      9.61025        -0.000000     -0.000001      0.029460
      6.33074      6.33074      9.61025        -0.000641      0.000043      0.024897
      4.22049      6.32990     11.73580         0.000002      0.001849      0.043441
      6.33080      0.00000     11.73480        -0.002890     -0.000001      0.040723
      4.22049      8.44098     13.83827         0.000001      0.000002     -0.119498
      6.32976      6.33156     13.83748         0.005077      0.008744     -0.119542
      4.22049      2.11025      7.50000        -0.000000      0.000078      0.496556
      6.33074      4.22049      7.50000        -0.000217     -0.000000      0.495640
      4.22049      4.22049      9.61025         0.000001     -0.000000      0.027542
      6.33074      2.11025      9.61025        -0.000639     -0.000044      0.024898
      4.22049      2.11108     11.73580         0.000000     -0.001848      0.043441
      6.32982      4.22049     11.73519        -0.000683      0.000000      0.042709
      4.22049      4.22049     13.84960         0.000000     -0.000005     -0.106070
      6.32976      2.10942     13.83748         0.005075     -0.008742     -0.119534
      0.00000      6.33074      9.61025        -0.000000      0.002356      0.078006
      2.11025      0.00000      9.61025        -0.003381      0.000000      0.078652
      0.00000      0.00000      7.50000        -0.000000     -0.000000     -0.448319
      2.11025      6.33074      7.50000        -0.000196     -0.000021     -0.448168
      0.00000      6.33109     13.88591         0.000001     -0.004829     -0.093506
      2.10974      0.00000     13.88667         0.004486     -0.000001     -0.099430
      0.00000      8.44098     11.73027        -0.000001      0.000001      0.005884
      2.10961      6.33085     11.72905        -0.001381     -0.000489      0.014153
      0.00000      2.11025      9.61025        -0.000000     -0.002357      0.078003
      2.11025      4.22049      9.61025         0.003070      0.000001      0.079764
      0.00000      4.22049      7.50000         0.000001     -0.000001     -0.448110
      2.11025      2.11025      7.50000        -0.000197      0.000020     -0.448169
      0.00000      2.10989     13.88591         0.000001      0.004830     -0.093502
      2.10813      4.22049     13.88636        -0.012828      0.000003     -0.093649
      0.00000      4.22049     11.72825        -0.000002     -0.000001      0.019431
      2.10961      2.11014     11.72905        -0.001382      0.000486      0.014152
      4.22049      6.33074      9.61025         0.000000     -0.004136      0.078984
      6.33074      0.00000      9.61025         0.003379     -0.000000      0.078651
      4.22049      0.00000      7.50000         0.000000      0.000001     -0.448589
      6.33074      6.33074      7.50000         0.000196     -0.000020     -0.448169
      4.22049      6.33193     13.88124         0.000002      0.017175     -0.102556
      6.33125      0.00000     13.88667        -0.004487     -0.000001     -0.099430
      4.22049      8.44098     11.72805        -0.000001     -0.000001      0.015118
      6.33138      6.33085     11.72905         0.001382     -0.000488      0.014153
      4.22049      2.11025      9.61025         0.000001      0.004133      0.078984
      6.33074      4.22049      9.61025        -0.003068     -0.000002      0.079764
      4.22049      4.22049      7.50000         0.000000      0.000001     -0.448520
      6.33074      2.11025      7.50000         0.000196      0.000022     -0.448170
      4.22049      2.10905     13.88124         0.000002     -0.017177     -0.102559
      6.33285      4.22049     13.88636         0.012823      0.000003     -0.093653
      4.22049      4.22049     11.73184        -0.000002      0.000001     -0.000423
      6.33138      2.11014     11.72905         0.001385      0.000489      0.014151
    total drift:                               -0.000000      0.000004      0.042919

  FREE ENERGIE OF THE ION-ELECTRON SYSTEM (eV)
  free  energy   TOTEN  =      -473.79204186 eV

  energy  without entropy=     -473.79204186  energy(sigma->0) =     -473.79204186

     |            E. Caldeweyher, S. Ehlert & S. Grimme          |
     |          Mulliken Center for Theoretical Chemistry        |
     |                    University of Bonn                     |

Rational (Becke-Johnson) damping: hse06-D4-ATM
  s6         1.0000
  s8         1.1953
  s9         1.0000
  a1         0.3866
  a2         5.1913
 alp        16.0000

Dispersion energy:      -2.7325941745911E-01 Eh