 vasp.6.3.0 20Jan22 (build Dec 25 2023 18:06:01) complex
 executed on        HPECrayEX_GCC date 2024.11.20  20:50:21

 INCAR:
   SYSTEM = TiO2
   ISMEAR = 0
   SIGMA = 0.05
   EDIFF = 1E-7
   ALGO = Normal
   ISTART = 0
   IBRION = 2
   NSW = 1000
   ISYM = 0
   ISIF = 2
   EDIFFG = -0.01
   DIPOL = 0.5 0.5 0.5
   IDIPOL = 3
   LDIPOL = .TRUE.
   GGA = RE
   IVDW = 13
   VDW_S8 = 1.7468
   VDW_A1 = 0.5363
   VDW_A2 = 3.0726
   ENCUT = 600
   PREC = Accurate
   LASPH = .TRUE.
   LREAL = .FALSE.
   ISPIN = 1
   NELM = 200
   NELMIN = 8
   NCORE = 8
   KPAR = 1
   LWAVE = .FALSE.
   LCHARG = .FALSE.

 POTCAR:    PAW_PBE C 08Apr2002
 POTCAR:    PAW_PBE O 08Apr2002
 POTCAR:    PAW_PBE Ti_pv 07Sep2000
 POTCAR:    PAW_PBE O 08Apr2002
 POTCAR:    PAW_PBE C 08Apr2002
   VRHFIN =C: s2p2

   TITEL  = PAW_PBE C 08Apr2002
   POMASS =   12.011; ZVAL   =    4.000    mass and valenz
   ENMAX  =  400.000; ENMIN  =  300.000 eV

[...]

   TITEL  = PAW_PBE Ti_pv 07Sep2000
   POMASS =   47.880; ZVAL   =   10.000    mass and valenz
   ENMAX  =  222.335; ENMIN  =  166.751 eV

   TITEL  = PAW_PBE O 08Apr2002
   POMASS =   16.000; ZVAL   =    6.000    mass and valenz
   ENMAX  =  400.000; ENMIN  =  300.000 eV

  PAW_PBE C 08Apr2002                   :
  PAW_PBE O 08Apr2002                   :
  PAW_PBE Ti_pv 07Sep2000               :
  PAW_PBE O 08Apr2002                   :

 POSCAR:  C  O Ti  O
  positions in direct lattice
|           W    W    AA    RRRRR   N    N  II  N    N   GGGG   !!!           |
|           W    W   A  A   R    R  NN   N  II  NN   N  G    G  !!!           |
|           W    W  A    A  R    R  N N  N  II  N N  N  G       !!!           |
|           W WW W  AAAAAA  RRRRR   N  N N  II  N  N N  G  GGG   !            |
|           WW  WW  A    A  R   R   N   NN  II  N   NN  G    G                |
|           W    W  A    A  R    R  N    N  II  N    N   GGGG   !!!           |
|     Specifying the vdW parameters                                           |
|     VDW_S8 = 1.747                                                          |
|     VDW_A1 = 0.536                                                          |
|     VDW_A2 = 3.073                                                          |
|     in the INCAR file will overwrite the defaults for revpbe. Please        |
|     make sure that is what you intended.                                    |

 ion  position               nearest neighbor table
   1  0.422  0.500  0.817-   2 1.17   3 1.19
   2  0.361  0.500  0.845-   1 1.17
   3  0.487  0.500  0.790-   1 1.19  83 2.50
   4  0.750  0.625  0.287-  84 1.95 144 1.95  85 1.95 145 1.95 166 1.98  87 1.98  14 2.96  34 2.96

   5  0.000  0.750  0.287-  87 1.95 107 1.95 106 1.95  86 1.95  88 1.98  35 2.96  15 2.96
   6  0.000  0.625  0.394-  88 1.95 148 1.95  89 1.95 149 1.95  90 1.98  91 1.98  16 2.96  36 2.96

[...]

  84  0.750  0.750  0.245-   4 1.95  14 1.95
  85  0.750  0.750  0.329-   4 1.95  14 1.95   7 1.98
  86  0.098  0.625  0.287-   5 1.95  35 1.95  44 1.98
  87  0.902  0.625  0.287-   5 1.95  35 1.95   4 1.98
  88  0.000  0.750  0.352-   6 1.95  16 1.95   5 1.98
  89  0.000  0.750  0.435-   6 1.95  16 1.95   9 1.98
  90  0.848  0.625  0.394-   7 1.95  37 1.95   6 1.98
  91  0.152  0.625  0.394-  47 1.95  77 1.95   6 1.98
  92  0.750  0.750  0.458-   8 1.95  18 1.95   7 1.98
  93  0.750  0.750  0.542-   8 1.95  18 1.95  11 2.11
  94  0.098  0.625  0.500-   9 1.95  39 1.95  48 1.98
  95  0.902  0.625  0.500-   9 1.95  39 1.95   8 1.98
  96  1.000  0.750  0.565-  10 1.89  20 1.89   9 2.00
  97  1.000  0.750  0.649-  13 1.81  20 2.02  10 2.02
  98  0.850  0.625  0.607-  10 1.95  11 1.97  41 1.97
  99  0.150  0.625  0.607-  10 1.95  81 1.97  51 1.97
 100  0.750  0.750  0.672-  11 1.86  12 2.10  22 2.10
 101  0.750  0.750  0.756-  22 1.83  12 1.83
 102  0.094  0.625  0.719-  43 1.95  13 1.95  52 2.03
 103  0.906  0.625  0.719-  13 1.95  43 1.95  12 2.03
 104  0.750  0.000  0.245-  14 1.95  24 1.95
 105  0.750  0.000  0.329-  14 1.95  24 1.95  17 1.98
 106  0.098  0.875  0.287-   5 1.95  15 1.95  54 1.98
 107  0.902  0.875  0.287-   5 1.95  15 1.95  14 1.98
 108  0.000  0.000  0.352-  16 1.95  26 1.95  15 1.98
 109  0.000  0.000  0.435-  16 1.95  26 1.95  19 1.98
 110  0.848  0.875  0.394-   7 1.95  17 1.95  16 1.98
 111  0.152  0.875  0.394-  47 1.95  57 1.95  16 1.98
 112  0.750  0.000  0.458-  18 1.95  28 1.95  17 1.98
 113  0.750  0.000  0.542-  18 1.95  28 1.95  21 2.11
 114  0.098  0.875  0.500-   9 1.95  19 1.95  58 1.98
 115  0.902  0.875  0.500-   9 1.95  19 1.95  18 1.98
 116  1.000  0.000  0.565-  20 1.89  30 1.89  19 2.00
 117  0.000  0.000  0.649-  23 1.81  30 2.02  20 2.02
 118  0.850  0.875  0.607-  20 1.95  11 1.97  21 1.97
 119  0.150  0.875  0.607-  20 1.95  61 1.97  51 1.97
 120  0.750  0.000  0.672-  21 1.86  32 2.10  22 2.10
 121  0.750  0.000  0.756-  22 1.83  32 1.83
 122  0.094  0.875  0.719-  23 1.95  13 1.95  62 2.03
 123  0.906  0.875  0.719-  13 1.95  23 1.95  22 2.03
 124  0.750  0.250  0.245-  24 1.95  34 1.95
 125  0.750  0.250  0.329-  24 1.95  34 1.95  27 1.98
 126  0.098  0.125  0.287-  15 1.95  25 1.95  64 1.98
 127  0.902  0.125  0.287-  15 1.95  25 1.95  24 1.98
 128  0.000  0.250  0.352-  26 1.95  36 1.95  25 1.98
 129  0.000  0.250  0.435-  26 1.95  36 1.95  29 1.98
 130  0.848  0.125  0.394-  17 1.95  27 1.95  26 1.98
 131  0.152  0.125  0.394-  57 1.95  67 1.95  26 1.98
 132  0.750  0.250  0.458-  28 1.95  38 1.95  27 1.98
 133  0.750  0.250  0.542-  28 1.95  38 1.95  31 2.11
 134  0.098  0.125  0.500-  19 1.95  29 1.95  68 1.98
 135  0.902  0.125  0.500-  19 1.95  29 1.95  28 1.98
 136  1.000  0.250  0.565-  30 1.89  40 1.89  29 2.00
 137  0.000  0.250  0.649-  33 1.81  40 2.02  30 2.02
 138  0.850  0.125  0.607-  30 1.95  21 1.97  31 1.97
 139  0.150  0.125  0.607-  30 1.95  71 1.97  61 1.97
 140  0.750  0.250  0.672-  31 1.86  32 2.10  42 2.10
 141  0.750  0.250  0.756-  42 1.83  32 1.83
 142  0.094  0.125  0.719-  23 1.95  33 1.95  72 2.03
 143  0.906  0.125  0.719-  23 1.95  33 1.95  32 2.03
[...]
 229  0.500  0.500  0.435-  46 1.95  76 1.95  79 1.98
 230  0.348  0.375  0.394-  67 1.95  77 1.95  76 1.98
 231  0.652  0.375  0.394-  27 1.95  37 1.95  76 1.98
 232  0.250  0.500  0.458-  48 1.95  78 1.95  77 1.98
 233  0.250  0.500  0.542-  48 1.95  78 1.95  81 2.11
 234  0.598  0.375  0.500-  69 1.95  79 1.95  38 1.98
 235  0.402  0.375  0.500-  69 1.95  79 1.95  78 1.98
 236  0.500  0.500  0.565-  80 1.89  50 1.89  79 2.00
 237  0.500  0.500  0.649-  83 1.81  80 2.02  50 2.02
 238  0.350  0.375  0.607-  80 1.95  71 1.97  81 1.97
 239  0.650  0.375  0.607-  80 1.95  31 1.97  41 1.97
 240  0.250  0.500  0.672-  81 1.86  82 2.10  52 2.10
 241  0.250  0.500  0.756-  52 1.83  82 1.83
 242  0.594  0.375  0.719-  83 1.95  73 1.95  42 2.03
 243  0.406  0.375  0.719-  83 1.95  73 1.95  82 2.03

IMPORTANT INFORMATION: All symmetrisations will be switched off!
NOSYMM: (Re-)initialisation of all symmetry stuff for point group C_1.

                                     Primitive cell

  volume of cell :    4700.2642

  direct lattice vectors                    reciprocal lattice vectors
    13.003962940  0.000000000  0.000000000     0.076899635  0.000000000  0.000000000
     0.000000000 11.830322230  0.000000000     0.000000000  0.084528551  0.000000000
     0.000000000  0.000000000 30.552726600     0.000000000  0.000000000  0.032730303

  length of vectors
    13.003962940 11.830322230 30.552726600     0.076899635  0.084528551  0.032730303

  position of ions in fractional coordinates (direct lattice)
     0.421805744  0.499999964  0.816870633
     0.360847160  0.499999958  0.845053596
     0.486843301  0.499999960  0.789687462
     0.750000000  0.625000000  0.287188176
     0.000000000  0.750000000  0.287188176
     0.000000000  0.625000000  0.393594088
     0.750000000  0.750000000  0.393594088
     0.750000000  0.625000000  0.500000000
     0.000000000  0.750000000  0.500000000
     0.999999977  0.624999989  0.604107514
     0.750000007  0.750000012  0.610767618
     0.749999988  0.625000012  0.720461010
     0.999999986  0.749999988  0.708092187
     0.750000000  0.875000000  0.287188176
     0.000000000  0.000000000  0.287188176
     0.000000000  0.875000000  0.393594088
     0.750000000  0.000000000  0.393594088
     0.750000000  0.875000000  0.500000000
     0.000000000  0.000000000  0.500000000
     0.000000039  0.875000004  0.604107516
     0.750000003  0.999999990  0.610767611
     0.749999998  0.875000011  0.720461030
     0.000000003  0.000000016  0.708092185
     0.750000000  0.125000000  0.287188176
     0.000000000  0.250000000  0.287188176
     0.000000000  0.125000000  0.393594088
     0.750000000  0.250000000  0.393594088
     0.750000000  0.125000000  0.500000000
     0.000000000  0.250000000  0.500000000
     0.999999978  0.125000012  0.604107520
     0.749999992  0.250000022  0.610767621
     0.749999978  0.124999987  0.720460998
     0.000000011  0.250000009  0.708092188
     0.750000000  0.375000000  0.287188176
     0.000000000  0.500000000  0.287188176
     0.000000000  0.375000000  0.393594088
     0.750000000  0.500000000  0.393594088
     0.750000000  0.375000000  0.500000000
     0.000000000  0.500000000  0.500000000
     0.000000017  0.375000006  0.604107523
     0.750000001  0.499999983  0.610767625
     0.750000034  0.374999983  0.720461028
     0.000000022  0.499999995  0.708092186
     0.250000000  0.625000000  0.287188176
     0.500000000  0.750000000  0.287188176
     0.500000000  0.625000000  0.393594088
     0.250000000  0.750000000  0.393594088
     0.250000000  0.625000000  0.500000000
     0.500000000  0.750000000  0.500000000
     0.500000025  0.624999995  0.604107520
     0.250000008  0.749999983  0.610767631
     0.249999995  0.625000004  0.720461042
     0.499999999  0.749999996  0.708092179
     0.250000000  0.875000000  0.287188176
     0.500000000  0.000000000  0.287188176
     0.500000000  0.875000000  0.393594088
     0.250000000  0.000000000  0.393594088
     0.250000000  0.875000000  0.500000000
     0.500000000  0.000000000  0.500000000
     0.499999983  0.874999995  0.604107517
[...]
     0.500000000  0.500000000  0.435304992
     0.347999497  0.375000000  0.393594088
     0.652000503  0.375000000  0.393594088
     0.250000000  0.500000000  0.458289097
     0.250000000  0.500000000  0.541710903
     0.597999497  0.375000000  0.500000000
     0.402000503  0.375000000  0.500000000
     0.499999993  0.499999999  0.565341161
     0.499999997  0.499999994  0.648962158
     0.350200449  0.374999991  0.607128763
     0.649799558  0.375000002  0.607128743
     0.249999986  0.499999994  0.671634993
     0.249999989  0.499999984  0.755903992
     0.594079552  0.375000009  0.718679827
     0.405920447  0.374999997  0.718679832

  ion indices of the primitive-cell ions
   primitive index   ion index
                 1           1
                 2           2
                 3           3
                 4           4
                 5           5
                 6           6
                 7           7
                 8           8
                 9           9
                10          10
[...]

 FORCES acting on ions
    electron-ion (+dipol)            ewald-force                    non-local-force                 convergence-correction
   -.197E+02 0.376E-05 -.147E+04   0.189E+02 -.364E-05 0.147E+04   0.848E+00 -.108E-06 0.130E+00   0.727E-04 -.547E-08 -.101E-03
   0.165E+03 0.348E-04 -.212E+04   -.209E+03 -.414E-04 0.217E+04   0.442E+02 0.658E-05 -.477E+02   0.476E-04 -.994E-08 -.469E-04
   -.201E+03 -.924E-05 -.232E+04   0.245E+03 0.145E-04 0.228E+04   -.440E+02 -.525E-05 0.389E+02   0.224E-04 -.906E-08 -.801E-04
   -.222E+00 -.802E-01 0.379E+04   0.222E+00 0.802E-01 -.380E+04   0.205E-03 -.361E-05 0.454E+00   -.635E-06 -.367E-05 0.272E-04
   0.144E+00 -.117E+00 0.397E+04   -.145E+00 0.117E+00 -.397E+04   0.106E-03 -.857E-05 -.403E+01   0.176E-05 -.517E-05 0.266E-04
   0.215E+00 -.116E+00 0.194E+04   -.218E+00 0.116E+00 -.194E+04   0.486E-03 0.134E-04 -.465E-01   0.930E-06 -.351E-05 0.304E-04
   -.344E+00 -.114E+00 0.193E+04   0.341E+00 0.115E+00 -.193E+04   0.505E-03 -.730E-04 0.204E+00   -.124E-06 -.508E-05 0.291E-04
   -.136E+01 -.413E+00 0.126E+02   0.135E+01 0.410E+00 -.117E+02   0.230E-02 0.290E-03 -.141E+00   -.941E-06 -.349E-05 0.259E-04
   0.889E+00 -.863E+00 0.233E+02   -.898E+00 0.867E+00 -.244E+02   0.218E-02 -.144E-02 0.358E+00   0.154E-05 -.460E-05 0.226E-04
   0.471E+01 -.264E+01 -.185E+04   -.470E+01 0.264E+01 0.185E+04   -.569E-03 -.309E-02 0.198E-01   -.737E-05 -.190E-06 0.274E-04
   -.828E+01 -.585E+01 -.191E+04   0.828E+01 0.585E+01 0.191E+04   -.374E-02 -.110E-02 -.821E-01   -.908E-05 -.511E-05 0.413E-04
   -.495E+02 -.198E+02 -.373E+04   0.495E+02 0.198E+02 0.373E+04   0.195E-01 -.730E-02 -.213E+00   -.102E-04 0.261E-04 0.961E-05
   0.963E+01 -.104E+02 -.376E+04   -.964E+01 0.104E+02 0.376E+04   0.129E-01 -.464E-02 0.103E+01   -.144E-04 0.389E-04 0.164E-04
   -.217E+00 -.800E-01 0.379E+04   0.216E+00 0.801E-01 -.380E+04   0.263E-03 -.620E-05 0.454E+00   -.729E-06 -.339E-05 0.271E-04
   0.136E+00 0.107E-06 0.397E+04   -.137E+00 -.108E-06 -.397E+04   0.998E-04 -.274E-08 -.403E+01   0.182E-05 -.473E-09 0.266E-04
   0.187E+00 -.117E+00 0.194E+04   -.189E+00 0.117E+00 -.194E+04   0.366E-03 0.703E-05 -.466E-01   0.941E-06 -.346E-05 0.303E-04
   -.378E+00 -.167E-06 0.193E+04   0.375E+00 0.158E-06 -.193E+04   0.643E-03 0.864E-08 0.204E+00   -.224E-07 -.407E-09 0.291E-04
   -.173E+01 -.416E+00 0.116E+02   0.172E+01 0.417E+00 -.108E+02   0.154E-02 0.210E-04 -.141E+00   -.319E-06 -.390E-05 0.253E-04
   0.673E+00 0.521E-05 0.224E+02   -.678E+00 -.541E-05 -.235E+02   0.101E-02 0.545E-07 0.357E+00   0.174E-05 -.395E-09 0.244E-04
   0.232E+01 -.255E+01 -.185E+04   -.231E+01 0.256E+01 0.185E+04   -.243E-02 -.316E-02 0.195E-01   -.410E-05 0.112E-06 0.395E-04
   -.670E+01 -.139E-03 -.192E+04   0.669E+01 0.139E-03 0.192E+04   0.883E-02 -.258E-06 -.760E-01   -.252E-05 0.155E-08 0.475E-04
   -.205E+02 -.141E+02 -.375E+04   0.205E+02 0.141E+02 0.375E+04   0.278E-01 0.350E-02 -.216E+00   -.109E-04 0.257E-04 0.468E-04
   0.634E+01 0.967E-05 -.377E+04   -.634E+01 -.103E-04 0.377E+04   0.505E-02 0.539E-07 0.104E+01   -.161E-04 0.543E-08 0.483E-04
   -.217E+00 0.800E-01 0.379E+04   0.216E+00 -.801E-01 -.380E+04   0.263E-03 0.620E-05 0.454E+00   -.729E-06 0.339E-05 0.271E-04
   0.144E+00 0.117E+00 0.397E+04   -.145E+00 -.117E+00 -.397E+04   0.106E-03 0.857E-05 -.403E+01   0.176E-05 0.517E-05 0.266E-04
   0.187E+00 0.117E+00 0.194E+04   -.189E+00 -.117E+00 -.194E+04   0.366E-03 -.703E-05 -.466E-01   0.941E-06 0.346E-05 0.303E-04
   -.344E+00 0.114E+00 0.193E+04   0.341E+00 -.115E+00 -.193E+04   0.505E-03 0.730E-04 0.204E+00   -.125E-06 0.508E-05 0.291E-04
   -.173E+01 0.416E+00 0.116E+02   0.172E+01 -.417E+00 -.108E+02   0.154E-02 -.210E-04 -.141E+00   -.319E-06 0.390E-05 0.253E-04
   0.889E+00 0.863E+00 0.233E+02   -.898E+00 -.867E+00 -.244E+02   0.218E-02 0.144E-02 0.358E+00   0.154E-05 0.460E-05 0.226E-04
   0.232E+01 0.255E+01 -.185E+04   -.231E+01 -.256E+01 0.185E+04   -.243E-02 0.316E-02 0.195E-01   -.410E-05 -.110E-06 0.395E-04
   -.828E+01 0.585E+01 -.191E+04   0.828E+01 -.585E+01 0.191E+04   -.374E-02 0.110E-02 -.821E-01   -.907E-05 0.511E-05 0.413E-04
   -.205E+02 0.141E+02 -.375E+04   0.205E+02 -.141E+02 0.375E+04   0.278E-01 -.350E-02 -.216E+00   -.109E-04 -.257E-04 0.468E-04
   0.963E+01 0.104E+02 -.376E+04   -.964E+01 -.104E+02 0.376E+04   0.129E-01 0.464E-02 0.103E+01   -.144E-04 -.389E-04 0.164E-04
   -.222E+00 0.802E-01 0.379E+04   0.222E+00 -.802E-01 -.380E+04   0.205E-03 0.360E-05 0.454E+00   -.633E-06 0.367E-05 0.272E-04
   0.152E+00 -.105E-06 0.397E+04   -.152E+00 0.107E-06 -.397E+04   0.112E-03 -.123E-09 -.403E+01   0.165E-05 0.311E-10 0.265E-04
   0.215E+00 0.116E+00 0.194E+04   -.218E+00 -.116E+00 -.194E+04   0.486E-03 -.134E-04 -.465E-01   0.930E-06 0.351E-05 0.304E-04
   -.310E+00 0.293E-06 0.193E+04   0.309E+00 -.295E-06 -.193E+04   0.329E-03 0.426E-08 0.204E+00   -.153E-06 0.446E-09 0.291E-04
   -.136E+01 0.413E+00 0.126E+02   0.135E+01 -.410E+00 -.117E+02   0.230E-02 -.290E-03 -.141E+00   -.941E-06 0.349E-05 0.259E-04
   0.107E+01 -.519E-05 0.242E+02   -.108E+01 0.537E-05 -.253E+02   0.339E-02 -.534E-07 0.358E+00   0.124E-05 0.222E-09 0.210E-04
   0.471E+01 0.264E+01 -.185E+04   -.470E+01 -.264E+01 0.185E+04   -.569E-03 0.309E-02 0.198E-01   -.737E-05 0.190E-06 0.274E-04
   -.105E+02 -.155E-03 -.191E+04   0.105E+02 0.156E-03 0.191E+04   0.347E-02 -.295E-06 -.908E-01   -.136E-04 -.365E-09 0.283E-04
   -.495E+02 0.198E+02 -.373E+04   0.495E+02 -.198E+02 0.373E+04   0.195E-01 0.730E-02 -.213E+00   -.102E-04 -.261E-04 0.961E-05
   0.141E+02 -.114E-04 -.376E+04   -.141E+02 0.120E-04 0.376E+04   -.197E-01 -.738E-07 0.101E+01   -.111E-04 -.537E-08 -.174E-04
   0.223E+00 -.920E-01 0.379E+04   -.222E+00 0.923E-01 -.380E+04   -.208E-03 -.317E-04 0.454E+00   0.661E-06 -.329E-05 0.256E-04
   -.144E+00 -.126E+00 0.397E+04   0.145E+00 0.126E+00 -.397E+04   -.106E-03 -.418E-04 -.403E+01   -.176E-05 -.501E-05 0.269E-04
   -.209E+00 -.558E-01 0.194E+04   0.211E+00 0.624E-01 -.194E+04   -.454E-03 -.137E-02 -.469E-01   -.849E-06 -.362E-05 0.291E-04
   0.338E+00 -.158E+00 0.193E+04   -.335E+00 0.159E+00 -.193E+04   -.521E-03 0.407E-04 0.206E+00   0.526E-07 -.505E-05 0.293E-04
   0.117E+01 -.698E+00 0.147E+02   -.116E+01 0.705E+00 -.138E+02   -.191E-02 -.649E-03 -.135E+00   -.129E-06 -.306E-05 0.247E-04
   -.788E+00 -.420E+00 0.265E+02   0.794E+00 0.392E+00 -.275E+02   -.622E-03 0.175E-01 0.334E+00   -.588E-06 -.539E-05 0.289E-04
   -.343E+01 -.641E+01 -.183E+04   0.343E+01 0.645E+01 0.183E+04   -.250E-02 -.416E-01 0.278E-01   -.290E-05 0.675E-05 0.309E-04
   0.749E+01 -.754E+01 -.191E+04   -.750E+01 0.755E+01 0.191E+04   0.812E-02 -.624E-02 -.901E-01   -.180E-05 0.159E-05 0.290E-04
   0.701E+02 -.361E+02 -.368E+04   -.701E+02 0.361E+02 0.368E+04   -.279E-01 0.206E-01 -.155E+00   0.119E-04 0.316E-04 -.524E-04
   -.168E+02 -.628E+02 -.371E+04   0.168E+02 0.629E+02 0.371E+04   0.365E-01 -.269E-01 0.112E+01   0.200E-04 0.353E-04 0.547E-05
   0.217E+00 -.918E-01 0.379E+04   -.216E+00 0.922E-01 -.380E+04   -.259E-03 -.371E-04 0.454E+00   0.676E-06 -.346E-05 0.251E-04
   -.137E+00 -.419E-07 0.397E+04   0.137E+00 0.402E-07 -.397E+04   -.987E-04 -.429E-09 -.403E+01   -.180E-05 -.542E-09 0.268E-04
   -.181E+00 -.592E-01 0.194E+04   0.183E+00 0.623E-01 -.194E+04   -.334E-03 -.929E-03 -.472E-01   -.900E-06 -.356E-05 0.285E-04
   0.372E+00 0.513E-06 0.193E+04   -.369E+00 -.530E-06 -.193E+04   -.592E-03 -.127E-07 0.205E+00   -.366E-07 -.113E-09 0.292E-04
   0.159E+01 -.762E+00 0.130E+02   -.158E+01 0.784E+00 -.121E+02   -.172E-02 -.143E-02 -.139E+00   -.452E-06 -.357E-05 0.253E-04
   -.574E+00 -.577E-05 0.273E+02   0.578E+00 0.563E-05 -.284E+02   -.178E-03 0.766E-08 0.337E+00   -.101E-05 -.354E-09 0.264E-04
   -.157E+01 -.830E+01 -.183E+04   0.157E+01 0.831E+01 0.183E+04   -.226E-02 -.471E-02 -.549E-01   0.324E-05 -.603E-05 0.434E-04
[...]
   -.532E+02 0.538E-01 0.116E+04   0.572E+02 -.547E-01 -.116E+04   -.356E+01 0.149E-02 0.159E+00   0.948E-07 0.218E-05 0.175E-04
   0.531E+02 0.391E-01 0.116E+04   -.571E+02 -.398E-01 -.116E+04   0.356E+01 0.990E-03 0.155E+00   -.613E-06 0.221E-05 0.175E-04
   0.395E+00 -.997E-06 0.513E+03   -.390E+00 0.112E-05 -.518E+03   -.671E-02 -.314E-06 0.417E+01   -.301E-06 0.214E-09 0.149E-04
   0.121E+01 0.883E-05 -.510E+03   -.121E+01 -.910E-05 0.518E+03   -.524E-02 -.177E-06 -.712E+01   0.229E-06 0.151E-10 0.144E-04
   -.562E+02 0.319E-01 0.147E+02   0.609E+02 -.342E-01 -.149E+02   -.520E+01 0.155E-01 0.331E+00   -.113E-05 0.210E-05 0.157E-04
   0.552E+02 0.127E+00 0.153E+02   -.600E+02 -.131E+00 -.155E+02   0.518E+01 0.177E-01 0.336E+00   0.768E-06 0.188E-05 0.148E-04
   -.108E+01 0.592E-04 -.609E+03   0.105E+01 -.679E-04 0.603E+03   0.322E-01 0.851E-05 0.663E+01   0.142E-05 0.118E-09 0.209E-04
   -.740E+01 -.777E-04 -.157E+04   0.755E+01 0.847E-04 0.157E+04   -.154E+00 -.693E-05 0.175E+01   0.524E-05 -.920E-09 0.300E-04
   -.248E+02 0.426E+01 -.111E+04   0.279E+02 -.433E+01 0.111E+04   -.306E+01 0.702E-01 0.807E+00   -.621E-05 -.495E-05 0.217E-04
   0.210E+02 0.284E+01 -.112E+04   -.239E+02 -.287E+01 0.112E+04   0.297E+01 0.226E-01 0.930E+00   -.880E-05 0.120E-06 0.168E-04
   0.234E+02 -.332E-04 -.178E+04   -.236E+02 0.360E-04 0.178E+04   0.254E+00 -.296E-05 -.221E+01   -.217E-05 -.194E-08 0.372E-05
   0.859E+02 0.430E-04 -.264E+04   -.857E+02 -.500E-04 0.266E+04   -.207E+00 0.645E-05 -.200E+02   -.176E-04 -.381E-08 -.738E-04
   -.650E+02 0.340E+02 -.228E+04   0.709E+02 -.338E+02 0.228E+04   -.587E+01 -.276E+00 -.341E+01   0.958E-05 -.173E-04 0.164E-04
   0.420E+02 0.480E+02 -.224E+04   -.480E+02 -.480E+02 0.224E+04   0.602E+01 0.950E-02 -.270E+01   -.271E-05 -.210E-04 -.127E-04
   -.139E+01 0.225E-05 0.102E+03   0.185E-11 0.333E-11 -.509E-10   0.139E+01 -.224E-05 -.102E+03   -.110E-03 -.227E-07 0.420E-02

 POSITION                                       TOTAL-FORCE (eV/Angst)
      5.47360      5.91516     25.01234        -0.004365      0.000000      0.004391
      4.68811      5.91516     25.88018         0.005554     -0.000000     -0.005074
      6.31234      5.91516     24.17492        -0.005275     -0.000000      0.007583
      9.75297      7.39395      8.77438        -0.000512      0.000070     -3.375106
      0.00000      8.87274      8.77438        -0.000431      0.000059      2.809174
      0.00000      7.39395     12.02537        -0.002543      0.000265      0.541558
      9.75297      8.87274     12.02537        -0.001788      0.000533     -0.702274
      9.75297      7.39395     15.27636        -0.009131     -0.002583      0.713817
      0.00000      8.87274     15.27636        -0.006285      0.002951     -0.755667
      0.00206      7.39422     18.45805         0.001501     -0.000326      0.000194
      9.75408      8.87217     18.65964         0.000155     -0.000712      0.000195
      9.74807      7.39435     22.01016         0.000428     -0.006784      0.001263
     13.00343      8.87426     21.63783         0.000195     -0.000419      0.001378
      9.75297     10.35153      8.77438        -0.000612      0.000087     -3.375078
      0.00000      0.00000      8.77438        -0.000429     -0.000000      2.809193
      0.00000     10.35153     12.02537        -0.002206      0.000214      0.541879
      9.75297      0.00000     12.02537        -0.002155     -0.000000     -0.702385
      9.75297     10.35153     15.27636        -0.006146      0.001478      0.712654
      0.00000      0.00000     15.27636        -0.003940     -0.000000     -0.755153
     -0.00089     10.35183     18.45886         0.001531     -0.000478      0.000224
      9.75225     11.83032     18.65988         0.000327     -0.000000     -0.002501
      9.75113     10.35219     22.01148        -0.000658     -0.006446     -0.001371
      0.00331      0.00000     21.63804         0.000920     -0.000001      0.000689
      9.75297      1.47879      8.77438        -0.000612     -0.000087     -3.375078
      0.00000      2.95758      8.77438        -0.000431     -0.000059      2.809174
      0.00000      1.47879     12.02537        -0.002206     -0.000214      0.541879
      9.75297      2.95758     12.02537        -0.001788     -0.000533     -0.702274
      9.75297      1.47879     15.27636        -0.006146     -0.001478      0.712654
      0.00000      2.95758     15.27636        -0.006284     -0.002951     -0.755668
     13.00308      1.47849     18.45886         0.001531      0.000478      0.000223
      9.75408      2.95815     18.65964         0.000154      0.000712      0.000195
      9.75113      1.47813     22.01148        -0.000658      0.006445     -0.001371
     -0.00053      2.95606     21.63783         0.000195      0.000419      0.001378
      9.75297      4.43637      8.77438        -0.000512     -0.000070     -3.375106
      0.00000      5.91516      8.77438        -0.000476      0.000000      2.809155
      0.00000      4.43637     12.02537        -0.002543     -0.000265      0.541558
      9.75297      5.91516     12.02537        -0.001405      0.000000     -0.701946
      9.75297      4.43637     15.27636        -0.009131      0.002583      0.713817
      0.00000      5.91516     15.27636        -0.008456      0.000000     -0.756591
      0.00206      4.43610     18.45805         0.001501      0.000326      0.000194
      9.75561      5.91516     18.66074         0.000379      0.000000      0.002313
      9.74807      4.43597     22.01016         0.000428      0.006785      0.001262
     -0.00753      5.91516     21.63711        -0.000661      0.000001      0.001708
      3.25099      7.39395      8.77438         0.000523      0.000266     -3.376510
      6.50198      8.87274      8.77438         0.000437      0.000290      2.810923
      6.50198      7.39395     12.02537         0.002437      0.005279      0.545711
      3.25099      8.87274     12.02537         0.001819      0.001080     -0.709907
      3.25099      7.39395     15.27636         0.009777      0.006629      0.682770
      6.50198      8.87274     15.27636         0.005269     -0.011657     -0.719080
      6.50364      7.38603     18.47349         0.001615     -0.001700      0.000228
      3.25088      8.87429     18.65545         0.001108      0.000759      0.000161
      3.24280      7.39761     21.99588        -0.001268     -0.000018      0.000611
      6.50481      8.87335     21.62312        -0.000531     -0.003250      0.000220
      3.25099     10.35153      8.77438         0.000617      0.000306     -3.376184
      6.50198      0.00000      8.77438         0.000402     -0.000000      2.811296
      6.50198     10.35153     12.02537         0.002176      0.002238      0.549261
      3.25099      0.00000     12.02537         0.002208     -0.000000     -0.708241
      3.25099     10.35153     15.27636         0.006729      0.020384      0.700298
      6.50198      0.00000     15.27636         0.003310     -0.000000     -0.786127
      6.50391     10.34777     18.44695        -0.000659      0.001552      0.002144
[...]
      6.50198      5.91516     13.29975        -0.000843     -0.000000     -0.102044
      4.52537      4.43637     12.02537         0.436573      0.000626      0.049331
      8.47859      4.43637     12.02537        -0.439321      0.000305      0.048352
      3.25099      5.91516     14.00198        -0.001877     -0.000000     -0.105365
      3.25099      5.91516     16.55075         0.002307     -0.000000      0.024939
      7.77636      4.43637     15.27636        -0.495310      0.013154      0.092665
      5.22760      4.43637     15.27636         0.481487      0.013711      0.093564
      6.50140      5.91516     17.27863        -0.000462     -0.000000     -0.002343
      6.50431      5.91516     19.84757        -0.000236     -0.000000      0.000983
      4.55201      4.43642     18.55540         0.000348     -0.000418      0.000077
      8.45209      4.43694     18.55264        -0.000081     -0.000952     -0.000363
      3.22941      5.91516     20.51473        -0.000357     -0.000000     -0.000416
      3.29663      5.91516     23.08683        -0.000688     -0.000000     -0.000231
      7.72525      4.42726     21.94094        -0.001947     -0.000353     -0.000659
      5.26695      4.41679     21.91089         0.000548     -0.000082     -0.000980
    total drift:                                0.001268     -0.000000     -0.043157

  FREE ENERGIE OF THE ION-ELECTRON SYSTEM (eV)
  free  energy   TOTEN  =     -2148.76319488 eV

  energy  without entropy=    -2148.76319488  energy(sigma->0) =    -2148.76319488

 d Force = 0.8379391E-07[-0.573E-08, 0.173E-06]  d Energy = 0.8256620E-07 0.123E-08
 d Force = 0.8121163E+00[ 0.812E+00, 0.812E+00]  d Ewald  = 0.8121163E+00-0.267E-09

 reached required accuracy - stopping structural energy minimisation