 vasp.6.3.0 20Jan22 (build Mar 11 2022 13:48:16) complex

 executed on             LinuxIFC date 2024.01.22  17:57:03

 INCAR:
   SYSTEM = TiO2
   ISMEAR = 0
   SIGMA = 0.05
   EDIFF = 1E-5
   ALGO = ALL
   ISTART = 0
   IBRION = -1
   NSW = 0
   ISYM = 0
   ISIF = 2
   EDIFFG = -0.01
   DIPOL = 0.5 0.5 0.5
   IDIPOL = 3
   LDIPOL = .TRUE.
   METAGGA = R2SCAN
   LUSE_VDW = .TRUE.
   BPARAM = 11.95
   CPARAM = 0.0093
   LASPH = .TRUE.
   ENCUT = 600
   PREC = Accurate
   LASPH = .TRUE.
   LREAL = .FALSE.
   ISPIN = 1
   NELM = 200
   NELMIN = 8
   NCORE = 2
   KPAR = 1
   LWAVE = .FALSE.
   LCHARG = .FALSE.

 POTCAR:    PAW_PBE N 08Apr2002
 POTCAR:    PAW_PBE H 15Jun2001
 POTCAR:    PAW_PBE Ti_pv 07Sep2000
 POTCAR:    PAW_PBE O 08Apr2002
|           W    W    AA    RRRRR   N    N  II  N    N   GGGG   !!!           |
|           W    W   A  A   R    R  NN   N  II  NN   N  G    G  !!!           |
|           W    W  A    A  R    R  N N  N  II  N N  N  G       !!!           |
|           W WW W  AAAAAA  RRRRR   N  N N  II  N  N N  G  GGG   !            |
|           WW  WW  A    A  R   R   N   NN  II  N   NN  G    G                |
|           W    W  A    A  R    R  N    N  II  N    N   GGGG   !!!           |
|     For optimal performance we recommend to set                             |
|       NCORE = 2 up to number-of-cores-per-socket                            |
|     This setting can greatly improve the performance of VASP for DFT.       |
|     The default, NCORE=1 might be grossly inefficient on modern             |
|     multi-core architectures or massively parallel machines. Do your        |
|     Unfortunately you need to use the default for GW and RPA                |
|     calculations (for HF NCORE is supported but not extensively tested      |
|     yet).                                                                   |

   TITEL  = PAW_PBE N 08Apr2002
   POMASS =   14.001; ZVAL   =    5.000    mass and valenz
   ENMAX  =  400.000; ENMIN  =  300.000 eV

   TITEL  = PAW_PBE H 15Jun2001
   POMASS =    1.000; ZVAL   =    1.000    mass and valenz
   ENMAX  =  250.000; ENMIN  =  200.000 eV

   TITEL  = PAW_PBE Ti_pv 07Sep2000
   POMASS =   47.880; ZVAL   =   10.000    mass and valenz
   ENMAX  =  222.335; ENMIN  =  166.751 eV

   TITEL  = PAW_PBE O 08Apr2002
   POMASS =   16.000; ZVAL   =    6.000    mass and valenz
   ENMAX  =  400.000; ENMIN  =  300.000 eV

  PAW_PBE N 08Apr2002                   :
  PAW_PBE H 15Jun2001                   :
  PAW_PBE Ti_pv 07Sep2000               :
  PAW_PBE O 08Apr2002                   :

 POSCAR:  N  H Ti  O
  positions in direct lattice

 METAGGA = R2SCA    LMAXTAU =  6    LMIXTAU =  F

 ion  position               nearest neighbor table
   1  0.610  0.500  0.778-   2 1.02   4 1.03   3 1.03  52 2.28
   2  0.547  0.500  0.806-   1 1.02
   3  0.669  0.428  0.781-   1 1.03
   4  0.669  0.572  0.781-   1 1.03
   5  0.810  0.833  0.295-  55 1.94  89 1.94  57 1.94  56 2.00  54 2.00   8 3.06  22 3.06   6 3.06

   6  0.594  0.667  0.326-  58 1.94 120 1.94  53 1.94  56 1.94  59 2.00  57 2.00   7 3.06  37 3.06
                             5 3.06  11 3.09
   7  0.310  0.667  0.295-  59 1.94 125 1.94  61 1.94  60 2.00  53 2.00   6 3.06  40 3.06   8 3.06

   8  0.094  0.833  0.326-  62 1.94  92 1.94  54 1.94  60 1.94  55 2.00  61 2.00   5 3.06  23 3.06
                             7 3.06   9 3.09
   9  0.946  0.833  0.422-  63 1.93  97 1.94  65 1.94  55 1.98  64 1.99  62 2.00  12 3.01  26 3.06
                            10 3.06   8 3.09
  10  0.728  0.666  0.451-  58 1.90 128 1.94  64 1.95  66 1.96  67 1.99  65 2.00  11 3.02   9 3.06
                            41 3.06  15 3.11
  11  0.446  0.666  0.422-  67 1.93 133 1.94  69 1.94  59 1.98  68 1.99  58 2.01  10 3.02  12 3.06
                            44 3.06   6 3.09
  12  0.227  0.833  0.451-  62 1.90 100 1.94  68 1.94  70 1.97  63 1.98  69 2.01   9 3.01  27 3.06
                            11 3.06  13 3.11
  13  0.087  0.833  0.550-  71 1.93 105 1.93  73 1.94  72 1.98  63 2.01  70 2.01  16 2.96  14 3.05
                            30 3.06  12 3.11
  14  0.866  0.666  0.575-  66 1.87 136 1.94  72 1.95  75 1.96  74 2.01  73 2.01  15 2.98  13 3.05
                            45 3.06
  15  0.585  0.666  0.549- 141 1.93  77 1.94  75 1.94  76 1.98  67 1.98  66 2.01  14 2.98  16 3.06
                            48 3.07  10 3.11
  16  0.365  0.833  0.576-  70 1.87 108 1.94  76 1.95  71 1.96  78 2.00  77 2.02  13 2.96  15 3.06
                            31 3.06
  17  0.232  0.833  0.680-  79 1.87  81 1.93 113 1.94  80 2.00  71 2.09  78 2.09  20 2.86  34 3.08
                            18 3.09
  18  0.002  0.666  0.700-  74 1.78  82 1.84 144 1.97  80 1.99  81 2.06  19 2.87  17 3.09  49 3.11

[...]

  21  0.810  0.167  0.295-  87 1.94  89 1.94 121 1.94  88 2.00  86 2.00  24 3.06  22 3.06  38 3.06

[...]

  37  0.810  0.500  0.295- 119 1.94  57 1.94 121 1.94 120 2.00 118 2.00  40 3.06   6 3.06  38 3.06

  38  0.594  0.333  0.326- 122 1.94 120 1.94 117 1.94  88 1.94 123 2.00 121 2.00  39 3.06  37 3.06
                            21 3.06  43 3.09
  39  0.310  0.333  0.295- 123 1.94 125 1.94  93 1.94 124 2.00 117 2.00  38 3.06  40 3.06  24 3.06

  40  0.094  0.500  0.326- 126 1.94 124 1.94  60 1.94 118 1.94 119 2.00 125 2.00  37 3.06   7 3.06
                            39 3.06  41 3.08
  41  0.948  0.500  0.422- 127 1.93 129 1.94  65 1.94 119 1.98 126 1.99 128 2.00  44 3.01  10 3.06
                            42 3.06  40 3.08
  42  0.728  0.334  0.451- 122 1.90 128 1.94  96 1.95 130 1.96 131 1.99 129 2.00  43 3.02  25 3.06
                            41 3.06  47 3.11
  43  0.446  0.334  0.422- 131 1.93 133 1.94 101 1.94 123 1.98 132 1.99 122 2.01  42 3.02  28 3.06
                            44 3.06  38 3.09
  44  0.227  0.500  0.453- 126 1.93  68 1.94 132 1.94 127 1.97 134 1.97 133 2.01  41 3.01  11 3.06
                            43 3.06  45 3.08
  45  0.090  0.500  0.550- 135 1.92 137 1.94  73 1.94 134 1.98 136 2.01 127 2.01  48 2.97  14 3.06
                            46 3.06  44 3.08
  46  0.866  0.334  0.575- 130 1.87 136 1.94 104 1.95 139 1.96 138 2.01 137 2.01  47 2.98  29 3.05
                            45 3.06
  47  0.585  0.334  0.549- 141 1.93 109 1.94 139 1.94 140 1.98 131 1.98 130 2.01  46 2.98  32 3.06
                            48 3.07  42 3.11
  48  0.367  0.500  0.579- 134 1.93 140 1.95  76 1.95 135 1.95 142 1.97 141 2.03  45 2.97  47 3.07
                            15 3.07  49 3.14
  49  0.236  0.500  0.681- 143 1.86 145 1.94  81 1.94 144 2.03 142 2.04 135 2.10  52 2.89  18 3.11
                            50 3.11  48 3.14
  50  0.002  0.334  0.700- 138 1.78 146 1.84 144 1.97 112 1.99 145 2.06  51 2.87  33 3.09  49 3.11

  51  0.731  0.333  0.678- 146 1.89 148 1.94 116 1.94 147 1.99 139 2.04 138 2.09  50 2.87  36 3.08
                            52 3.09
  52  0.507  0.500  0.706- 143 1.84 142 1.88 147 1.99  83 1.99 148 2.06   1 2.28  49 2.89  51 3.09
                            19 3.09
  53  0.490  0.667  0.268-   6 1.94   7 2.00
  54  0.990  0.833  0.268-   8 1.94   5 2.00
  55  0.914  0.833  0.353-   5 1.94   9 1.98   8 2.00
  56  0.630  0.833  0.321-  22 1.94   6 1.94   5 2.00
  57  0.773  0.667  0.300-  37 1.94   5 1.94   6 2.00
  58  0.625  0.667  0.395-  10 1.90   6 1.94  11 2.01
  59  0.414  0.667  0.353-   7 1.94  11 1.98   6 2.00
  60  0.130  0.667  0.321-  40 1.94   8 1.94   7 2.00
  61  0.273  0.833  0.300-  23 1.94   7 1.94   8 2.00
  62  0.125  0.833  0.395-  12 1.90   8 1.94   9 2.00
  63  0.051  0.834  0.480-   9 1.93  12 1.98  13 2.01
  64  0.766  0.833  0.447-  26 1.94  10 1.95   9 1.99
  65  0.910  0.667  0.427-   9 1.94  41 1.94  10 2.00
  66  0.764  0.666  0.520-  14 1.87  10 1.96  15 2.01
  67  0.551  0.666  0.480-  11 1.93  15 1.98  10 1.99
  68  0.266  0.667  0.448-  44 1.94  12 1.94  11 1.99
  69  0.409  0.833  0.427-  27 1.94  11 1.94  12 2.01
  70  0.264  0.833  0.521-  16 1.87  12 1.97  13 2.01
  71  0.194  0.833  0.607-  13 1.93  16 1.96  17 2.09
  72  0.905  0.833  0.573-  30 1.94  14 1.95  13 1.98
  73  0.051  0.667  0.553-  13 1.94  45 1.94  14 2.01
  74  0.913  0.667  0.645-  18 1.78  14 2.01  19 2.09
  75  0.695  0.668  0.606-  15 1.94  14 1.96  19 2.04
  76  0.405  0.667  0.574-  48 1.95  16 1.95  15 1.98
  77  0.550  0.833  0.553-  31 1.94  15 1.94  16 2.02
  78  0.412  0.836  0.646-  20 1.78  16 2.00  17 2.09
  79  0.348  0.833  0.731-  20 1.84  17 1.87
  80  0.053  0.833  0.708-  34 1.98  18 1.99  17 2.00
  81  0.195  0.666  0.681-  17 1.93  49 1.94  18 2.06
  82  0.844  0.664  0.730-  18 1.84  19 1.89
  83  0.554  0.669  0.707-  20 1.96  52 1.99  19 1.99
  84  0.696  0.834  0.679-  35 1.93  19 1.94  20 2.06
  85  0.490  0.000  0.268-  22 1.94  23 2.00
  86  0.990  0.167  0.268-  24 1.94  21 2.00
  87  0.914  0.167  0.353-  21 1.94  25 1.98  24 2.00
  88  0.630  0.167  0.321-  22 1.94  38 1.94  21 2.00
  89  0.773  0.000  0.300-   5 1.94  21 1.94  22 2.00
  90  0.625  0.000  0.395-  26 1.90  22 1.94  27 2.00
  91  0.414  0.000  0.353-  23 1.94  27 1.98  22 2.00
  92  0.130  0.000  0.321-   8 1.94  24 1.94  23 2.00
  93  0.273  0.167  0.300-  23 1.94  39 1.94  24 2.00
  94  0.125  0.167  0.395-  28 1.90  24 1.94  25 2.00
  95  0.051  0.166  0.480-  25 1.93  28 1.98  29 2.01
  96  0.766  0.167  0.447-  26 1.94  42 1.95  25 1.99
  97  0.910  0.000  0.426-   9 1.94  25 1.94  26 2.00
  98  0.764  0.000  0.520-  30 1.87  26 1.97  31 2.01
  99  0.551  0.000  0.479-  27 1.93  26 1.99  31 2.00
 100  0.266  0.000  0.448-  12 1.94  28 1.94  27 1.99
 101  0.409  0.167  0.427-  27 1.94  43 1.94  28 2.01
 102  0.264  0.167  0.521-  32 1.87  28 1.97  29 2.01
 103  0.194  0.167  0.607-  29 1.93  32 1.96  33 2.09
 104  0.905  0.167  0.573-  30 1.94  46 1.95  29 1.98
 105  0.051  1.000  0.553-  13 1.93  29 1.93  30 2.02
 106  0.913  0.000  0.645-  34 1.79  30 2.01  35 2.08
 107  0.694  1.000  0.606-  31 1.93  30 1.95  35 2.10
 108  0.405  0.000  0.573-  32 1.94  16 1.94  31 1.98
 109  0.550  0.167  0.553-  31 1.94  47 1.94  32 2.02
 110  0.412  0.164  0.646-  36 1.78  32 2.00  33 2.09
 111  0.348  0.167  0.731-  36 1.84  33 1.87
 112  0.053  0.167  0.708-  34 1.98  50 1.99  33 2.00
[...]
 134  0.265  0.500  0.522-  48 1.93  44 1.97  45 1.98
 135  0.193  0.500  0.607-  45 1.92  48 1.95  49 2.10
 136  0.905  0.500  0.573-  14 1.94  46 1.94  45 2.01
 137  0.051  0.333  0.553-  29 1.94  45 1.94  46 2.01
 138  0.913  0.333  0.645-  50 1.78  46 2.01  51 2.09
 139  0.695  0.332  0.606-  47 1.94  46 1.96  51 2.04
 140  0.405  0.333  0.574-  48 1.95  32 1.95  47 1.98
 141  0.550  0.500  0.554-  15 1.93  47 1.93  48 2.03
 142  0.412  0.500  0.648-  52 1.88  48 1.97  49 2.04
 143  0.346  0.500  0.734-  52 1.84  49 1.86
 144  0.052  0.500  0.708-  18 1.97  50 1.97  49 2.03
 145  0.195  0.334  0.681-  33 1.93  49 1.94  50 2.06
 146  0.844  0.336  0.730-  50 1.84  51 1.89
 147  0.554  0.331  0.707-  36 1.96  52 1.99  51 1.99
 148  0.693  0.500  0.678-  19 1.94  51 1.94  52 2.06

IMPORTANT INFORMATION: All symmetrisations will be switched off!
NOSYMM: (Re-)initialisation of all symmetry stuff for point group C_1.

                                     Primitive cell

[...]
   5.05116096  7.59500139  7.50000000
  10.20994543  9.49375173  7.50000000
   9.42765604  9.49375173  9.85177208
   6.49883529  9.49375173  8.96904170
   7.97998172  7.59500139  8.38273038
   6.44887506  7.59500139 11.03092153
   4.26887158  7.59500139  9.85177208
   1.34005082  7.59500139  8.96904170
[...]
   2.73448287  5.69625101 14.57668107
   1.99471150  5.69625110 16.97163323
   9.33889950  5.69625105 16.01147790
   0.52688810  3.79888021 15.45526695
   9.42040319  3.79254167 18.02447904
   7.16931779  3.78621309 16.92807792
   4.18340944  3.79842289 16.04576914
   5.67963969  5.69625108 15.47762616
   4.24866884  5.69625123 18.11097999
   3.56764870  5.69625116 20.49840083
   0.54166700  5.69625123 19.78266201
   2.01184675  3.80080276 19.03412859
   8.71008462  3.82921401 20.41336937
   5.71526154  3.76887418 19.74753890
   7.15052127  5.69625124 18.95206621

--------------------------------------- Iteration      FINAL  ---------------------------------------

--------------------OUTCAR has been truncated-------------------------

[...]

--------------------OUTCAR has been truncated-------------------------

  FORCE on cell =-STRESS in cart. coord.  units (eV):
  Direction    XX          YY          ZZ          XY          YZ          ZX
  Alpha Z  2425.12766  2425.12766  2425.12766
  Ewald  483758.24330476989.35908************     0.01054    -0.00100 -1889.96852
  Hartree504928.91538500850.47527************     0.00223    -0.00036 -1248.29519
  E(xc)   -5503.95652 -5503.56058 -5501.60020     0.00001     0.00001    -0.92998
  Local  ************************997593.24486    -0.00958     0.00103  3135.61699
  n-local -3139.42730 -3113.02500 -3157.23692    -0.00038    -0.00002     2.59862
  augment  3307.25943  3304.55834  3299.86009    -0.00002     0.00003    -1.23440
  Kinetic 17147.64615 17220.76213 17282.24688    -0.00044     0.00068    -4.80163
  Fock        0.00000     0.00000     0.00000     0.00000     0.00000     0.00000
  Total     -80.60091   -46.36009   -39.55475     0.00235     0.00038    -7.01411
  in kB     -39.31490   -22.61317   -19.29371     0.00115     0.00019    -3.42129

 VOLUME and BASIS-vectors are now :
  energy-cutoff  :      600.00
  volume of cell :     3284.68
      direct lattice vectors                 reciprocal lattice vectors
    10.317568932  0.000000000  0.000000000     0.096922057 -0.000000000  0.000000000
     0.000000000 11.392502081  0.000000000     0.000000000  0.087777030  0.000000000
     0.000000000  0.000000000 27.944536660     0.000000000  0.000000000  0.035785170

  length of vectors
    10.317568932 11.392502081 27.944536660     0.096922057  0.087777030  0.035785170

 FORCES acting on ions:
    Electron-Ion                     Ewald-Force                    Non-Local-Force
   -.168E+02 0.433E-02 -.175E+04   0.737E+01 -.769E-02 0.173E+04   0.952E+01 -.118E-02 0.183E+02
   0.431E+02 0.323E-02 -.370E+03   -.478E+02 -.339E-02 0.375E+03   0.486E+01 0.428E-03 -.555E+01
   -.420E+02 0.548E+02 -.353E+03   0.462E+02 -.604E+02 0.354E+03   -.438E+01 0.592E+01 -.393E+00
   -.420E+02 -.548E+02 -.353E+03   0.462E+02 0.604E+02 0.354E+03   -.438E+01 -.592E+01 -.393E+00
   0.603E+01 0.673E-02 0.335E+04   -.850E+00 -.677E-02 -.334E+04   -.114E+01 -.582E-04 -.351E+01
   0.461E+01 -.972E-01 0.275E+04   -.629E+01 0.983E-01 -.275E+04   -.679E-01 -.848E-03 -.694E-01
   0.601E+01 0.155E+00 0.335E+04   -.855E+00 -.162E+00 -.334E+04   -.114E+01 0.159E-02 -.351E+01
   0.340E+01 0.109E+00 0.275E+04   -.511E+01 -.117E+00 -.275E+04   -.609E-01 0.159E-02 -.729E-01
   -.455E+00 0.220E+00 0.126E+04   0.285E+00 -.216E+00 -.126E+04   0.153E+00 -.192E-02 -.115E-01
   0.901E+00 -.148E+01 0.797E+03   -.858E+00 0.146E+01 -.796E+03   -.223E-01 0.237E-01 -.113E+00
   0.103E+01 -.206E+00 0.126E+04   -.120E+01 0.194E+00 -.126E+04   0.151E+00 0.114E-01 -.270E-01
   -.433E+01 0.171E+00 0.790E+03   0.436E+01 -.175E+00 -.790E+03   0.346E-02 0.253E-02 -.120E+00
   -.589E+01 -.234E+01 -.775E+03   0.560E+01 0.233E+01 0.775E+03   0.282E+00 0.878E-02 0.106E+00
   -.884E+01 -.449E+01 -.116E+04   0.894E+01 0.449E+01 0.116E+04   -.411E-01 0.456E-02 -.187E+00
   0.548E+00 -.198E+01 -.751E+03   -.808E+00 0.198E+01 0.751E+03   0.253E+00 0.787E-02 0.803E-01
   0.369E+00 -.106E+01 -.118E+04   -.260E+00 0.107E+01 0.118E+04   -.516E-01 -.157E-01 -.244E+00
   0.279E+02 -.109E+02 -.277E+04   -.288E+02 0.108E+02 0.277E+04   0.925E+00 0.132E-01 -.154E+00
   -.851E+02 -.207E+02 -.315E+04   0.851E+02 0.206E+02 0.315E+04   0.134E+00 0.140E+00 0.898E+00
   -.100E+02 -.391E+02 -.269E+04   0.915E+01 0.391E+02 0.269E+04   0.867E+00 -.158E-01 -.227E-01
   -.601E+02 -.335E+02 -.315E+04   0.600E+02 0.334E+02 0.314E+04   0.185E+00 0.507E-01 0.900E+00
   0.603E+01 -.671E-02 0.335E+04   -.850E+00 0.678E-02 -.334E+04   -.114E+01 0.590E-04 -.351E+01
   0.462E+01 -.150E-06 0.275E+04   -.632E+01 0.477E-05 -.275E+04   -.627E-01 -.186E-05 -.744E-01
   0.590E+01 -.375E-05 0.335E+04   -.729E+00 0.293E-05 -.334E+04   -.114E+01 -.346E-06 -.351E+01
   0.340E+01 -.109E+00 0.275E+04   -.511E+01 0.117E+00 -.275E+04   -.609E-01 -.160E-02 -.729E-01
   -.455E+00 -.220E+00 0.126E+04   0.285E+00 0.217E+00 -.126E+04   0.154E+00 0.192E-02 -.115E-01
   -.101E+01 -.128E-04 0.794E+03   0.101E+01 0.176E-04 -.794E+03   0.128E-01 -.160E-06 -.119E+00
   0.109E+01 0.476E-05 0.126E+04   -.124E+01 0.926E-05 -.126E+04   0.145E+00 -.441E-05 -.263E-01
   -.433E+01 -.171E+00 0.790E+03   0.436E+01 0.175E+00 -.790E+03   0.345E-02 -.253E-02 -.120E+00
   -.589E+01 0.234E+01 -.775E+03   0.560E+01 -.233E+01 0.775E+03   0.282E+00 -.878E-02 0.106E+00
   -.804E+01 -.526E-04 -.118E+04   0.811E+01 0.459E-04 0.118E+04   -.168E-01 -.543E-07 -.200E+00
   -.347E+01 -.382E-04 -.766E+03   0.316E+01 0.304E-04 0.766E+03   0.289E+00 0.164E-05 0.143E+00
   0.369E+00 0.106E+01 -.118E+04   -.260E+00 -.107E+01 0.118E+04   -.516E-01 0.157E-01 -.244E+00
   0.279E+02 0.109E+02 -.277E+04   -.288E+02 -.108E+02 0.277E+04   0.925E+00 -.132E-01 -.154E+00
   -.743E+02 -.215E-03 -.317E+04   0.743E+02 0.181E-03 0.316E+04   0.109E+00 0.385E-05 0.900E+00
   0.117E+02 -.233E-03 -.276E+04   -.126E+02 0.192E-03 0.276E+04   0.867E+00 0.900E-05 -.108E+00
   -.601E+02 0.335E+02 -.315E+04   0.600E+02 -.334E+02 0.314E+04   0.185E+00 -.507E-01 0.900E+00
   0.604E+01 -.828E-05 0.335E+04   -.841E+00 -.407E-05 -.334E+04   -.114E+01 0.568E-05 -.351E+01
   0.461E+01 0.972E-01 0.275E+04   -.629E+01 -.983E-01 -.275E+04   -.679E-01 0.852E-03 -.694E-01
   0.601E+01 -.155E+00 0.335E+04   -.855E+00 0.162E+00 -.334E+04   -.114E+01 -.159E-02 -.351E+01
   0.252E+01 -.163E-04 0.275E+04   -.419E+01 -.274E-05 -.275E+04   -.768E-01 0.332E-05 -.724E-01
   0.189E+01 -.309E-06 0.126E+04   -.204E+01 -.907E-06 -.126E+04   0.124E+00 -.106E-05 0.211E-01
   0.901E+00 0.148E+01 0.797E+03   -.858E+00 -.146E+01 -.796E+03   -.223E-01 -.237E-01 -.113E+00
   0.103E+01 0.206E+00 0.126E+04   -.120E+01 -.194E+00 -.126E+04   0.151E+00 -.114E-01 -.270E-01
   -.769E+01 0.294E-04 0.772E+03   0.773E+01 -.292E-04 -.772E+03   -.774E-02 -.844E-06 -.430E-01
   -.186E+01 0.844E-04 -.777E+03   0.164E+01 -.790E-04 0.776E+03   0.186E+00 -.118E-05 0.117E+00
   -.884E+01 0.449E+01 -.116E+04   0.894E+01 -.449E+01 0.116E+04   -.411E-01 -.456E-02 -.187E+00
   0.548E+00 0.198E+01 -.751E+03   -.808E+00 -.198E+01 0.751E+03   0.253E+00 -.787E-02 0.803E-01
   -.983E-01 0.102E-03 -.122E+04   0.196E+00 -.100E-03 0.122E+04   -.525E-01 -.317E-06 -.180E+00
   0.473E+02 0.335E-03 -.277E+04   -.479E+02 -.334E-03 0.277E+04   0.616E+00 -.138E-05 -.407E-01
   -.851E+02 0.207E+02 -.315E+04   0.851E+02 -.206E+02 0.315E+04   0.134E+00 -.140E+00 0.898E+00
   -.100E+02 0.391E+02 -.269E+04   0.915E+01 -.391E+02 0.269E+04   0.867E+00 0.158E-01 -.227E-01
   0.141E+02 0.281E-02 -.310E+04   -.136E+02 -.267E-02 0.310E+04   -.403E+00 -.578E-04 -.307E+00
   -.324E+02 -.151E-01 0.226E+04   0.374E+02 0.149E-01 -.228E+04   -.696E+01 0.399E-03 0.178E+02
   -.327E+02 -.119E-01 0.226E+04   0.377E+02 0.986E-02 -.228E+04   -.696E+01 0.267E-02 0.178E+02
   0.815E+02 0.139E+00 0.137E+04   -.862E+02 -.136E+00 -.137E+04   0.376E+01 -.654E-02 -.437E+01
   0.746E+02 0.127E-01 0.167E+04   -.816E+02 -.116E-01 -.167E+04   0.745E+01 -.199E-02 -.269E+01
   -.861E+02 -.288E-01 0.193E+04   0.933E+02 0.267E-01 -.193E+04   -.696E+01 0.363E-02 -.408E+00
   -.695E+02 -.743E+00 0.105E+04   0.751E+02 0.796E+00 -.105E+04   -.566E+01 -.498E-01 0.432E+01
   0.821E+02 0.101E+00 0.137E+04   -.868E+02 -.818E-01 -.137E+04   0.375E+01 -.210E-01 -.424E+01
   0.738E+02 0.126E+00 0.167E+04   -.808E+02 -.136E+00 -.167E+04   0.746E+01 0.237E-01 -.270E+01
[...]
   0.871E+02 0.954E-04 -.107E+04   -.939E+02 -.860E-04 0.108E+04   0.688E+01 -.352E-05 -.775E+01
   0.710E+02 0.771E-04 -.707E+03   -.769E+02 -.897E-04 0.710E+03   0.598E+01 -.359E-05 -.298E+01
   -.822E+02 0.451E+00 -.457E+03   0.885E+02 -.433E+00 0.454E+03   -.639E+01 -.168E-01 0.276E+01
   -.664E+02 0.974E+01 -.127E+04   0.685E+02 -.101E+02 0.126E+04   -.215E+01 0.336E+00 0.980E+01
   0.806E+02 0.867E+01 -.104E+04   -.869E+02 -.893E+01 0.104E+04   0.632E+01 0.267E+00 -.594E+01
   0.805E+02 0.665E+00 -.721E+03   -.869E+02 -.676E+00 0.724E+03   0.648E+01 0.615E-02 -.318E+01
   -.733E+02 0.754E-04 -.461E+03   0.793E+02 -.589E-04 0.459E+03   -.602E+01 -.130E-04 0.236E+01
   -.616E+02 0.169E-03 -.130E+04   0.673E+02 -.166E-03 0.130E+04   -.570E+01 0.566E-05 0.601E+01
   0.106E+03 0.696E-03 -.225E+04   -.112E+03 -.652E-03 0.227E+04   0.578E+01 -.540E-04 -.211E+02
   0.476E+02 0.258E-03 -.199E+04   -.513E+02 -.245E-03 0.200E+04   0.376E+01 -.799E-05 -.736E+01
   -.514E+02 0.640E+01 -.165E+04   0.563E+02 -.621E+01 0.165E+04   -.504E+01 -.196E+00 0.294E+01
   0.113E+02 0.299E+02 -.225E+04   -.167E+02 -.297E+02 0.227E+04   0.545E+01 -.177E+00 -.203E+02
   0.787E+02 0.458E+02 -.193E+04   -.838E+02 -.454E+02 0.194E+04   0.515E+01 -.462E+00 -.647E+01
   -.709E+02 0.783E-03 -.156E+04   0.753E+02 -.763E-03 0.155E+04   -.451E+01 -.304E-04 0.433E+01
   -.158E+02 0.283E-02 0.577E+02   0.171E-12 0.952E-12 -.614E-11   0.157E+02 -.280E-02 -.578E+02

 POSITION                                       TOTAL-FORCE (eV/Angst)
      6.29789      5.69630     21.73694         0.107069     -0.004529      0.162379
      5.64139      5.69625     22.52189         0.217184      0.000265     -0.235385
      6.90655      4.87344     21.81610        -0.192519      0.270886     -0.021464
      6.90652      6.51902     21.81609        -0.189698     -0.266693     -0.020858
      8.35439      9.49375      8.23452         4.019846     -0.000106      1.900524
      6.12443      7.59500      9.11725        -1.731354      0.000325     -1.992237
      3.19561      7.59500      8.23452         3.992438     -0.004748      1.886896
      0.96564      9.49375      9.11725        -1.759918     -0.006491     -1.997500
      9.76117      9.49393     11.80382        -0.014011      0.002149     -0.026567
      7.50887      7.59042     12.60617         0.014679     -0.001887      0.028889
      4.59743      7.59226     11.80057        -0.010791     -0.001205     -0.022367
      2.34235      9.49327     12.61446         0.017395     -0.001204      0.026986
      0.89309      9.49495     15.37121        -0.011039     -0.004285     -0.032231
      8.93464      7.58854     16.07866         0.030840     -0.000197      0.050822
      6.04004      7.59179     15.35138        -0.006871      0.000072     -0.025272
      3.76468      9.49394     16.10244         0.038018      0.000718      0.050883
      2.39242      9.48667     19.00805         0.033139      0.000323     -0.024273
      0.01980      7.58351     19.55485        -0.006565     -0.011602     -0.027319
      7.53701      7.59477     18.93722         0.019061     -0.018943     -0.012581
      5.19832      9.50902     19.55032        -0.008574     -0.014830     -0.030447
      8.35439      1.89875      8.23452         4.019862      0.000126      1.900554
      6.12443      0.00000      9.11725        -1.747663      0.000003     -1.994248
      3.19561      0.00000      8.23452         4.012151     -0.000001      1.895044
      0.96564      1.89875      9.11725        -1.759934      0.006497     -1.997478
      9.76117      1.89857     11.80382        -0.013999     -0.002155     -0.026569
      7.50545     11.39250     12.60777         0.009219      0.000005      0.027425
      4.59948     11.39250     11.80355        -0.008356      0.000009     -0.022635
      2.34235      1.89924     12.61446         0.017392      0.001192      0.026978
      0.89309      1.89755     15.37121        -0.011054      0.004270     -0.032232
      8.92331      0.00000     16.09066         0.033761     -0.000007      0.050738
      6.04651      0.00000     15.36077        -0.016666     -0.000006     -0.033465
      3.76468      1.89856     16.10244         0.038013     -0.000724      0.050868
      2.39242      1.90583     19.00805         0.033135     -0.000317     -0.024260
      0.04104     11.39250     19.55555        -0.006192     -0.000030     -0.021164
      7.56701      0.00000     18.99159         0.026451     -0.000032     -0.032539
      5.19832      1.88348     19.55032        -0.008614      0.014771     -0.030435
      8.35439      5.69625      8.23452         4.032946     -0.000007      1.897309
      6.12443      3.79750      9.11725        -1.731347     -0.000321     -1.992211
      3.19561      3.79750      8.23452         3.992434      0.004748      1.886884
      0.96564      5.69625      9.11725        -1.729485     -0.000016     -1.923320
      9.77654      5.69625     11.79899        -0.025206     -0.000002     -0.024838
      7.50887      3.80208     12.60617         0.014695      0.001884      0.028877
      4.59743      3.80024     11.80057        -0.010797      0.001199     -0.022369
      2.34553      5.69625     12.64499         0.016256     -0.000001      0.013856
      0.92354      5.69625     15.37752        -0.022824      0.000004     -0.025410
      8.93464      3.80397     16.07866         0.030841      0.000222      0.050808
      6.04004      3.80072     15.35138        -0.006863     -0.000059     -0.025288
      3.78203      5.69625     16.19260         0.030279      0.000002      0.013550
      2.43097      5.69625     19.02822         0.029380     -0.000001     -0.024310
      0.01980      3.80899     19.55485        -0.006514      0.011627     -0.027367
      7.53701      3.79773     18.93723         0.019075      0.018968     -0.012645
      5.23361      5.69625     19.71813         0.021178      0.000078      0.014481
      5.05116      7.59500      7.50000        -1.916127      0.000213      1.320214
     10.20995      9.49375      7.50000        -1.912766      0.000645      1.316403
      9.42766      9.49375      9.85177        -0.923657     -0.002902     -0.192217
      6.49884      9.49375      8.96904         0.459349     -0.000924     -0.095676
      7.97998      7.59500      8.38273         0.186432      0.001592     -1.074272
      6.44888      7.59500     11.03092        -0.148221      0.002670      0.421835
      4.26887      7.59500      9.85177        -0.929621     -0.001831     -0.180467
      1.34005      7.59500      8.96904         0.469301      0.013069     -0.104022
[...]
      2.73448      5.69625     14.57668        -0.086666     -0.000002      0.043049
      1.99471      5.69625     16.97163         0.076671      0.000006     -0.059392
      9.33890      5.69625     16.01148         0.065278     -0.000016     -0.033052
      0.52689      3.79888     15.45527        -0.075911      0.000694      0.026762
      9.42040      3.79254     18.02448        -0.071480      0.003268      0.028493
      7.16932      3.78621     16.92808         0.063029      0.000604     -0.053098
      4.18341      3.79842     16.04577         0.065573     -0.005111     -0.034335
      5.67964      5.69625     15.47763        -0.074251      0.000003      0.027613
      4.24867      5.69625     18.11098        -0.081069      0.000009      0.056345
      3.56765      5.69625     20.49840         0.051391     -0.000010     -0.214322
      0.54167      5.69625     19.78266         0.042133      0.000005     -0.070861
      2.01185      3.80080     19.03413        -0.080726     -0.004191      0.042428
      8.71008      3.82921     20.41337         0.052945     -0.006149     -0.215325
      5.71526      3.76887     19.74754         0.050894     -0.021290     -0.067061
      7.15052      5.69625     18.95207        -0.063973     -0.000011      0.046043
    total drift:                               -0.013442      0.000030     -0.060895

  FREE ENERGIE OF THE ION-ELECTRON SYSTEM (eV)
  free  energy   TOTEN  =     -1645.86016678 eV

  energy  without entropy=    -1645.86016678  energy(sigma->0) =    -1645.86016678