 vasp.6.3.0 20Jan22 (build Mar 11 2022 13:48:16) complex

 executed on             LinuxIFC date 2023.12.29  10:37:49

 INCAR:
   SYSTEM = TiO2
   ISMEAR = 0
   SIGMA = 0.05
   EDIFF = 1E-7
   ALGO = ALL
   ISTART = 0
   IBRION = 2
   NSW = 1000
   ISYM = 0
   ISIF = 2
   EDIFFG = -0.01
   DIPOL = 0.5 0.5 0.5
   IDIPOL = 3
   LDIPOL = .TRUE.
   GGA = MK
   LUSE_VDW = .TRUE.
   PARAM1 = 0.1234
   PARAM2 = 0.711357
   ZAB_VDW = -1.8867
   AGGAC = 0.0
   ENCUT = 600
   PREC = Accurate
   LASPH = .TRUE.
   LREAL = .FALSE.
   ISPIN = 1
   NELM = 200
   NELMIN = 8
   NCORE = 19
   KPAR = 1
   LWAVE = .FALSE.
   LCHARG = .FALSE.

 POTCAR:    PAW_PBE H 15Jun2001
 POTCAR:    PAW_PBE O 08Apr2002
 POTCAR:    PAW_PBE Ti_pv 07Sep2000
 POTCAR:    PAW_PBE O 08Apr2002
|               ----> ADVICE to this user running VASP <----                  |
|     You have switched on vdW-DFT.                                           |
|     This routine was written and supplied by Jiri Klimes. We recommend      |
|     that you carefully read and cite the following publications:            |
|       J. Klimes, D.R. Bowler, A. Michelides                                 |
|          J. Phys.: Cond Matt. 22 022201 (2010)                              |
|       J. Klimes, D.R. Bowler, A. Michelides                                 |
|          Phys. Rev. B. 83, 195131 (2011)                                    |
|     and references therein.                                                 |

   TITEL  = PAW_PBE H 15Jun2001
   POMASS =    1.000; ZVAL   =    1.000    mass and valenz
   ENMAX  =  250.000; ENMIN  =  200.000 eV

   TITEL  = PAW_PBE O 08Apr2002
   POMASS =   16.000; ZVAL   =    6.000    mass and valenz
   ENMAX  =  400.000; ENMIN  =  300.000 eV

   TITEL  = PAW_PBE Ti_pv 07Sep2000
   POMASS =   47.880; ZVAL   =   10.000    mass and valenz
   ENMAX  =  222.335; ENMIN  =  166.751 eV

   TITEL  = PAW_PBE O 08Apr2002
   POMASS =   16.000; ZVAL   =    6.000    mass and valenz
   ENMAX  =  400.000; ENMIN  =  300.000 eV

  PAW_PBE H 15Jun2001                   :
  PAW_PBE O 08Apr2002                   :
  PAW_PBE Ti_pv 07Sep2000               :
  PAW_PBE O 08Apr2002                   :

 POSCAR:  H  O Ti  O
  positions in direct lattice
  velocities in cartesian coordinates
 exchange correlation table for  LEXCH =       43
   RHO(1)=    0.500       N(1)  =     2000
   RHO(2)=  100.500       N(2)  =     4000

 ion  position               nearest neighbor table
   1  0.513  0.550  0.802-   3 0.98
   2  0.615  0.496  0.782-   3 1.00
   3  0.539  0.492  0.782-   1 0.98   2 1.00  83 2.19
   4  0.750  0.625  0.287-  84 1.96  85 1.96 144 1.96 145 1.96 166 1.99  87 1.99  14 2.96  34 2.96

   5  0.000  0.750  0.287-  87 1.96 107 1.96 106 1.96  86 1.96  88 1.99  35 2.96  15 2.96
   6  0.000  0.625  0.393-  88 1.96  89 1.96 148 1.96 149 1.96  90 1.99  91 1.99  16 2.96  36 2.96

[...]

  84  0.750  0.750  0.245-   4 1.96  14 1.96
  85  0.750  0.750  0.328-   4 1.96  14 1.96   7 1.99
  86  0.098  0.625  0.287-   5 1.96  35 1.96  44 1.99
  87  0.902  0.625  0.287-   5 1.96  35 1.96   4 1.99
  88  0.000  0.750  0.352-   6 1.96  16 1.96   5 1.99
  89  0.000  0.750  0.435-   6 1.96  16 1.96   9 1.99
  90  0.848  0.625  0.393-   7 1.96  37 1.96   6 1.99
  91  0.152  0.625  0.393-  47 1.96  77 1.96   6 1.99
  92  0.750  0.750  0.458-   8 1.96  18 1.96   7 1.99
  93  0.750  0.750  0.542-   8 1.96  18 1.96  11 2.10
  94  0.098  0.625  0.500-   9 1.96  39 1.96  48 1.99
  95  0.902  0.625  0.500-   9 1.96  39 1.96   8 1.99
  96  0.001  0.750  0.565-  20 1.90  10 1.90   9 2.01
  97  1.000  0.750  0.649-  13 1.82  10 2.02  20 2.02
  98  0.851  0.625  0.607-  11 1.94  41 1.94  10 2.02
  99  0.151  0.625  0.607-  10 1.89  51 2.01  81 2.01
 100  0.754  0.751  0.672-  11 1.88  12 2.08  22 2.09
 101  0.749  0.749  0.755-  12 1.83  22 1.84
 102  0.095  0.625  0.719-  43 1.95  13 1.95  52 2.04
 103  0.907  0.624  0.720-  43 1.95  13 1.96  12 2.03
 104  0.750  0.000  0.245-  14 1.96  24 1.96
 105  0.750  0.000  0.328-  14 1.96  24 1.96  17 1.99
 106  0.098  0.875  0.287-   5 1.96  15 1.96  54 1.99
 107  0.902  0.875  0.287-   5 1.96  15 1.96  14 1.99
 108  0.000  0.000  0.352-  16 1.96  26 1.96  15 1.99
 109  0.000  0.000  0.435-  16 1.96  26 1.96  19 1.99
 110  0.848  0.875  0.393-   7 1.96  17 1.96  16 1.99
 111  0.152  0.875  0.393-  47 1.96  57 1.96  16 1.99
 112  0.750  0.000  0.458-  18 1.96  28 1.96  17 1.99
 113  0.750  0.000  0.542-  18 1.96  28 1.96  21 2.11
 114  0.098  0.875  0.500-   9 1.96  19 1.96  58 1.99
 115  0.902  0.875  0.500-   9 1.96  19 1.96  18 1.99
 116  0.001  1.000  0.565-  20 1.90  30 1.90  19 2.01
 117  0.000  1.000  0.649-  23 1.82  20 2.02  30 2.02
 118  0.851  0.875  0.607-  11 1.94  21 1.94  20 2.03
 119  0.150  0.875  0.607-  20 1.89  61 2.01  51 2.01
 120  0.751  1.000  0.672-  21 1.88  32 2.09  22 2.09
 121  0.750  1.000  0.756-  32 1.83  22 1.83
 122  0.094  0.875  0.719-  13 1.94  23 1.95  62 2.05
 123  0.907  0.875  0.719-  13 1.95  23 1.95  22 2.05
 124  0.750  0.250  0.245-  24 1.96  34 1.96
 125  0.750  0.250  0.328-  24 1.96  34 1.96  27 1.99
 126  0.098  0.125  0.287-  15 1.96  25 1.96  64 1.99
 127  0.902  0.125  0.287-  15 1.96  25 1.96  24 1.99
 128  0.000  0.250  0.352-  26 1.96  36 1.96  25 1.99
 129  0.000  0.250  0.435-  26 1.96  36 1.96  29 1.99
 130  0.848  0.125  0.393-  17 1.96  27 1.96  26 1.99
 131  0.152  0.125  0.393-  57 1.96  67 1.96  26 1.99
 132  0.750  0.250  0.458-  28 1.96  38 1.96  27 1.99
 133  0.750  0.250  0.542-  28 1.96  38 1.96  31 2.10
 134  0.098  0.125  0.500-  19 1.96  29 1.96  68 1.99
 135  0.902  0.125  0.500-  19 1.96  29 1.96  28 1.99
 136  0.001  0.250  0.565-  30 1.90  40 1.90  29 2.01
 137  0.000  0.250  0.649-  33 1.82  40 2.02  30 2.02
 138  0.851  0.125  0.607-  21 1.94  31 1.94  30 2.03
 139  0.150  0.125  0.607-  30 1.89  61 2.01  71 2.01
 140  0.753  0.250  0.672-  31 1.88  42 2.07  32 2.10
 141  0.749  0.251  0.755-  42 1.83  32 1.84
 142  0.094  0.125  0.719-  33 1.94  23 1.95  72 2.05
 143  0.907  0.125  0.719-  33 1.95  23 1.95  32 2.05
[...]
 229  0.500  0.500  0.435-  46 1.96  76 1.96  79 1.99
 230  0.348  0.375  0.393-  67 1.96  77 1.96  76 1.99
 231  0.652  0.375  0.393-  27 1.96  37 1.96  76 1.99
 232  0.250  0.500  0.458-  48 1.96  78 1.96  77 1.99
 233  0.250  0.500  0.542-  48 1.96  78 1.96  81 2.11
 234  0.598  0.375  0.500-  69 1.96  79 1.96  38 1.99
 235  0.402  0.375  0.500-  69 1.96  79 1.96  78 1.99
 236  0.501  0.500  0.566-  50 1.90  80 1.90  79 2.01
 237  0.500  0.500  0.650-  83 1.91  50 1.99  80 1.99
 238  0.350  0.375  0.607-  71 1.94  81 1.94  80 2.03
 239  0.651  0.375  0.608-  80 1.90  31 2.01  41 2.01
 240  0.251  0.500  0.672-  81 1.87  52 2.09  82 2.10
 241  0.252  0.500  0.756-  82 1.84  52 1.84
 242  0.597  0.371  0.714-  73 1.92  83 1.96  42 2.03
 243  0.407  0.374  0.718-  83 1.94  73 1.94  82 2.04

IMPORTANT INFORMATION: All symmetrisations will be switched off!
NOSYMM: (Re-)initialisation of all symmetry stuff for point group C_1.

                                     Primitive cell

  volume of cell :    4737.1524

  direct lattice vectors                    reciprocal lattice vectors
    13.061127704  0.000000000  0.000000000     0.076563067  0.000000000  0.000000000
     0.000000000 11.845298948  0.000000000     0.000000000  0.084421677  0.000000000
     0.000000000  0.000000000 30.618975621     0.000000000  0.000000000  0.032659486

  length of vectors
    13.061127704 11.845298948 30.618975621     0.076563067  0.084421677  0.032659486

  position of ions in fractional coordinates (direct lattice)
     0.512624882  0.550188198  0.801708925
     0.615442580  0.495789986  0.782168382
     0.538709299  0.491865763  0.782149821
     0.750000000  0.625000000  0.286715143
     0.000000000  0.750000000  0.286715143
     0.000000000  0.625000000  0.393357571
     0.750000000  0.750000000  0.393357571
     0.750000000  0.625000000  0.500000000
     0.000000000  0.750000000  0.500000000
     0.005638758  0.625035061  0.604416809
     0.754893248  0.750103789  0.610243765
     0.751228869  0.625854106  0.719206811
     0.000326318  0.750256976  0.708656100
     0.750000000  0.875000000  0.286715143
     0.000000000  0.000000000  0.286715143
     0.000000000  0.875000000  0.393357571
     0.750000000  0.000000000  0.393357571
     0.750000000  0.875000000  0.500000000
     0.000000000  0.000000000  0.500000000
     0.005503934  0.875008901  0.604468843
     0.754149504  0.000019186  0.610519194
     0.750018801  0.875023848  0.720184334
     0.000431576  0.999902341  0.708605784
     0.750000000  0.125000000  0.286715143
     0.000000000  0.250000000  0.286715143
     0.000000000  0.125000000  0.393357571
     0.750000000  0.250000000  0.393357571
     0.750000000  0.125000000  0.500000000
     0.000000000  0.250000000  0.500000000
     0.005510106  0.124940473  0.604457218
     0.754643660  0.249807522  0.610218954
     0.749905450  0.124282593  0.720177138
     0.000398169  0.249561244  0.708636163
     0.750000000  0.375000000  0.286715143
     0.000000000  0.500000000  0.286715143
     0.000000000  0.375000000  0.393357571
     0.750000000  0.500000000  0.393357571
     0.750000000  0.375000000  0.500000000
     0.000000000  0.500000000  0.500000000
     0.005524643  0.374967325  0.604403213
     0.755154782  0.499954802  0.610434641
     0.751798027  0.373388853  0.719255828
     0.001108345  0.500055693  0.708593659
     0.250000000  0.625000000  0.286715143
     0.500000000  0.750000000  0.286715143
     0.500000000  0.625000000  0.393357571
     0.250000000  0.750000000  0.393357571
     0.250000000  0.625000000  0.500000000
     0.500000000  0.750000000  0.500000000
     0.505783107  0.622743094  0.605633207
     0.254874477  0.749901494  0.610538265
     0.250749840  0.625143955  0.720282687
     0.500978395  0.750196006  0.707445814
     0.250000000  0.875000000  0.286715143
     0.500000000  0.000000000  0.286715143
     0.500000000  0.875000000  0.393357571
     0.250000000  0.000000000  0.393357571
     0.250000000  0.875000000  0.500000000
     0.500000000  0.000000000  0.500000000
     0.505352635  0.874050091  0.603468464
[...]
     0.500000000  0.500000000  0.435126570
     0.347918341  0.375000000  0.393357571
     0.652081659  0.375000000  0.393357571
     0.250000000  0.500000000  0.458231001
     0.250000000  0.500000000  0.541768999
     0.597918341  0.375000000  0.500000000
     0.402081659  0.375000000  0.500000000
     0.500847536  0.499797340  0.565682438
     0.499713966  0.500374159  0.649875089
     0.350075528  0.374973917  0.607284093
     0.651177097  0.374955781  0.607739180
     0.250722793  0.500388594  0.671839203
     0.251643452  0.499887673  0.755615512
     0.596866483  0.371262585  0.714495445
     0.406971979  0.374004315  0.718325035

  ion indices of the primitive-cell ions
   primitive index   ion index
                 1           1
                 2           2
                 3           3
                 4           4
                 5           5
                 6           6
                 7           7
                 8           8
                 9           9
[...]
   6.53056385  0.00000000  8.77892396
   6.53056385 10.36463658 12.04420588
   3.26528193  0.00000000 12.04420588
   3.26528193 10.36463658 15.30948781
   6.53056385  0.00000000 15.30948781
   6.60047530 10.35338463 18.47758618
[...]
   6.53056385  5.92264947 13.32312984
   4.54420588  4.44198711 12.04420588
   8.51692182  4.44198711 12.04420588
   3.26528193  5.92264947 14.03056385
   3.26528193  5.92264947 16.58841177
   7.80948781  4.44198711 15.30948781
   5.25163989  4.44198711 15.30948781
   6.54163363  5.92024891 17.32061677
   6.52682792  5.92708150 19.89850952
   4.57238117  4.44167815 18.59441683
   8.50510722  4.44146331 18.60835113
   3.27472241  5.92725249 20.57102817
   3.28674726  5.92131893 23.13617293
   7.79574936  4.39771631 21.87711860
   5.31551299  4.43019292 21.99437675

--------------------------------------- Iteration      FINAL  ---------------------------------------

--------------------OUTCAR has been truncated-------------------------

[...]

--------------------OUTCAR has been truncated-------------------------

  FORCE on cell =-STRESS in cart. coord.  units (eV):
  Direction    XX          YY          ZZ          XY          YZ          ZX
  Alpha Z  4649.44495  4649.44495  4649.44495
  Ewald  972347.70304989976.64286************   -27.09072    39.57159   -46.11401
  Hartree************************************    -7.27767     7.28949   -24.14391
  E(xc)   -8637.82116 -8632.65083 -8634.77913    -0.07937     0.15503    -0.14733
  Local  ************************************    28.28974   -35.29063    65.79373
  n-local -5501.70926 -5427.09458 -5542.67982    -0.31654     0.06836    -0.12370
  augment  5257.19917  5234.75166  5262.99626     0.38446    -0.78049     0.06695
  Kinetic 28709.23199 28263.43367 28768.07829     6.08799   -10.96947     4.81306
  Fock        0.00000     0.00000     0.00000     0.00000     0.00000     0.00000
  Total       5.83328   -38.65649   -34.46077    -0.00212     0.04389     0.14479
  in kB       1.97290   -13.07422   -11.65516    -0.00072     0.01485     0.04897

 VOLUME and BASIS-vectors are now :
  energy-cutoff  :      600.00
  volume of cell :     4737.15
      direct lattice vectors                 reciprocal lattice vectors
    13.061127704  0.000000000  0.000000000     0.076563067  0.000000000  0.000000000
     0.000000000 11.845298948  0.000000000     0.000000000  0.084421677  0.000000000
     0.000000000  0.000000000 30.618975621     0.000000000  0.000000000  0.032659486

  length of vectors
    13.061127704 11.845298948 30.618975621     0.076563067  0.084421677  0.032659486

 FORCES acting on ions:
    Electron-Ion                     Ewald-Force                    Non-Local-Force
   0.338E+02 -.609E+02 -.452E+03   -.369E+02 0.667E+02 0.457E+03   0.311E+01 -.577E+01 -.515E+01
   -.618E+02 -.140E+01 -.434E+03   0.693E+02 0.154E+01 0.434E+03   -.746E+01 -.137E+00 0.568E-01
   0.526E+02 0.386E+02 -.257E+04   -.708E+02 -.698E+02 0.256E+04   0.182E+02 0.313E+02 0.140E+02
   -.103E+00 -.135E-01 0.377E+04   0.997E-01 0.136E-01 -.377E+04   0.101E-02 -.950E-05 0.356E+00
   -.535E-01 -.276E-01 0.395E+04   0.548E-01 0.277E-01 -.394E+04   -.257E-03 -.145E-04 -.369E+01
   -.170E+00 -.405E-01 0.192E+04   0.176E+00 0.406E-01 -.192E+04   -.981E-03 0.819E-04 -.416E-01
   -.306E+00 0.339E-02 0.192E+04   0.297E+00 -.304E-02 -.192E+04   0.244E-02 0.318E-04 0.205E+00
   -.102E+01 -.572E-01 0.384E+01   0.973E+00 0.393E-01 -.313E+01   0.102E-01 0.820E-03 -.113E+00
   0.824E+00 -.572E+00 0.120E+02   -.821E+00 0.576E+00 -.130E+02   -.211E-03 -.214E-02 0.324E+00
   0.928E+01 -.177E+01 -.186E+04   -.936E+01 0.178E+01 0.186E+04   0.209E-01 -.630E-02 0.905E-01
   0.146E+01 -.723E+01 -.191E+04   -.148E+01 0.723E+01 0.191E+04   -.249E-01 -.549E-02 -.846E-01
   -.703E+02 -.155E+02 -.371E+04   0.701E+02 0.153E+02 0.371E+04   0.171E+00 0.147E+00 0.660E-01
   -.477E+01 -.206E+01 -.377E+04   0.481E+01 0.206E+01 0.377E+04   -.444E-01 -.104E-01 0.902E+00
   -.114E+00 -.182E-01 0.377E+04   0.110E+00 0.184E-01 -.377E+04   0.106E-02 0.414E-05 0.356E+00
   -.511E-01 -.227E-02 0.395E+04   0.525E-01 0.232E-02 -.394E+04   -.259E-03 -.448E-05 -.369E+01
   -.141E+00 -.524E-01 0.192E+04   0.147E+00 0.522E-01 -.192E+04   -.939E-03 0.540E-04 -.416E-01
   -.396E+00 -.154E-01 0.192E+04   0.386E+00 0.151E-01 -.192E+04   0.233E-02 -.119E-04 0.205E+00
   -.233E+01 -.418E+00 0.296E+01   0.230E+01 0.441E+00 -.225E+01   0.831E-02 -.839E-03 -.114E+00
   0.114E+01 -.228E-01 0.112E+02   -.114E+01 0.205E-01 -.122E+02   0.620E-03 0.871E-03 0.322E+00
   0.117E+02 -.139E+01 -.187E+04   -.118E+02 0.140E+01 0.187E+04   0.200E-01 -.647E-02 0.915E-01
   0.279E+01 0.328E+00 -.193E+04   -.279E+01 -.331E+00 0.193E+04   -.318E-01 0.116E-02 -.914E-01
   -.153E+02 -.157E+02 -.375E+04   0.152E+02 0.157E+02 0.375E+04   0.496E-01 0.166E-01 -.602E-01
   -.460E+01 0.281E+00 -.377E+04   0.458E+01 -.280E+00 0.377E+04   0.239E-01 -.121E-02 0.937E+00
   -.112E+00 0.135E-01 0.377E+04   0.109E+00 -.137E-01 -.377E+04   0.105E-02 0.234E-04 0.356E+00
   -.537E-01 0.276E-01 0.395E+04   0.550E-01 -.277E-01 -.394E+04   -.264E-03 0.138E-04 -.369E+01
   -.141E+00 0.432E-01 0.192E+04   0.147E+00 -.432E-01 -.192E+04   -.989E-03 -.608E-04 -.415E-01
   -.286E+00 -.345E-02 0.192E+04   0.277E+00 0.312E-02 -.192E+04   0.235E-02 -.239E-04 0.205E+00
   -.227E+01 0.338E+00 0.296E+01   0.224E+01 -.368E+00 -.225E+01   0.915E-02 0.154E-02 -.114E+00
   0.822E+00 0.577E+00 0.121E+02   -.818E+00 -.579E+00 -.131E+02   -.122E-03 0.200E-02 0.325E+00
   0.126E+02 0.149E+01 -.187E+04   -.127E+02 -.149E+01 0.187E+04   0.232E-01 0.662E-02 0.908E-01
   0.835E+00 0.676E+01 -.191E+04   -.848E+00 -.676E+01 0.191E+04   -.250E-01 0.232E-05 -.912E-01
   -.153E+02 0.146E+02 -.375E+04   0.152E+02 -.146E+02 0.375E+04   0.503E-01 -.162E-01 -.661E-01
   -.427E+01 0.193E+01 -.377E+04   0.431E+01 -.193E+01 0.377E+04   -.386E-01 0.606E-02 0.898E+00
   -.102E+00 0.183E-01 0.377E+04   0.982E-01 -.183E-01 -.377E+04   0.101E-02 -.168E-04 0.356E+00
   -.560E-01 0.228E-02 0.395E+04   0.573E-01 -.234E-02 -.394E+04   -.268E-03 0.641E-05 -.369E+01
   -.171E+00 0.497E-01 0.192E+04   0.177E+00 -.496E-01 -.192E+04   -.102E-02 -.100E-03 -.416E-01
   -.200E+00 0.155E-01 0.192E+04   0.191E+00 -.151E-01 -.192E+04   0.220E-02 -.250E-04 0.205E+00
   -.918E+00 0.142E+00 0.377E+01   0.875E+00 -.117E+00 -.307E+01   0.106E-01 -.126E-02 -.112E+00
   0.747E+00 -.694E-02 0.128E+02   -.742E+00 0.776E-02 -.138E+02   -.152E-02 -.135E-03 0.323E+00
   0.949E+01 0.179E+01 -.186E+04   -.957E+01 -.179E+01 0.186E+04   0.190E-01 0.490E-02 0.926E-01
   0.400E+00 -.114E+00 -.190E+04   -.363E+00 0.116E+00 0.190E+04   -.736E-01 -.865E-03 -.828E-01
   -.700E+02 0.133E+02 -.371E+04   0.699E+02 -.130E+02 0.371E+04   0.116E+00 -.178E+00 0.661E-01
   -.689E+01 0.194E+00 -.376E+04   0.686E+01 -.198E+00 0.376E+04   0.309E-01 0.284E-02 0.859E+00
   0.989E-01 -.983E-02 0.377E+04   -.955E-01 0.978E-02 -.377E+04   -.950E-03 0.100E-04 0.356E+00
   0.577E-01 -.110E-01 0.395E+04   -.590E-01 0.113E-01 -.394E+04   0.261E-03 -.444E-04 -.370E+01
   0.268E+00 0.137E+00 0.192E+04   -.273E+00 -.126E+00 -.192E+04   0.677E-03 -.248E-02 -.431E-01
   0.212E+00 0.462E-01 0.192E+04   -.204E+00 -.459E-01 -.192E+04   -.157E-02 -.468E-04 0.201E+00
   0.463E-01 0.137E+00 0.152E+01   0.178E-02 -.150E+00 -.757E+00   -.828E-02 0.692E-03 -.123E+00
   0.290E+01 0.119E+01 0.152E+02   -.292E+01 -.127E+01 -.160E+02   0.333E-02 0.373E-01 0.252E+00
   0.173E+02 -.121E+02 -.186E+04   -.174E+02 0.123E+02 0.186E+04   0.790E-02 -.992E-01 0.631E-01
   0.156E+02 -.473E+01 -.192E+04   -.156E+02 0.473E+01 0.192E+04   -.375E-01 0.977E-02 -.869E-01
   0.356E+02 -.135E+02 -.373E+04   -.357E+02 0.135E+02 0.373E+04   0.649E-01 0.879E-02 -.855E-01
   0.220E+02 -.548E+02 -.372E+04   -.219E+02 0.548E+02 0.372E+04   -.152E+00 -.429E-01 0.101E+01
   0.110E+00 -.146E-01 0.377E+04   -.106E+00 0.147E-01 -.377E+04   -.101E-02 0.243E-05 0.356E+00
   0.554E-01 -.462E-02 0.395E+04   -.567E-01 0.464E-02 -.394E+04   0.253E-03 0.105E-06 -.370E+01
   0.240E+00 0.910E-01 0.193E+04   -.246E+00 -.901E-01 -.192E+04   0.727E-03 -.115E-02 -.438E-01
   0.300E+00 -.170E-01 0.192E+04   -.290E+00 0.169E-01 -.192E+04   -.165E-02 0.511E-04 0.201E+00
   0.115E+01 0.313E-01 0.134E+01   -.112E+01 -.271E-01 -.579E+00   -.353E-02 -.633E-03 -.121E+00
   0.238E+01 -.215E+00 0.184E+02   -.242E+01 0.213E+00 -.194E+02   0.992E-02 -.612E-03 0.281E+00
   0.134E+02 -.106E+02 -.183E+04   -.134E+02 0.106E+02 0.184E+04   0.120E-01 -.249E-01 -.420E-01
[...]
   -.543E+02 -.356E-01 0.115E+04   0.583E+02 0.350E-01 -.115E+04   -.364E+01 0.862E-03 0.155E+00
   0.544E+02 -.236E-01 0.115E+04   -.585E+02 0.230E-01 -.115E+04   0.365E+01 0.764E-03 0.162E+00
   -.744E-02 0.324E-01 0.505E+03   0.280E-01 -.326E-01 -.510E+03   -.298E-01 0.513E-03 0.425E+01
   0.211E+01 0.194E+00 -.519E+03   -.230E+01 -.192E+00 0.526E+03   0.186E+00 -.390E-02 -.705E+01
   -.556E+02 -.352E+00 0.829E+01   0.603E+02 0.350E+00 -.848E+01   -.510E+01 0.209E-01 0.250E+00
   0.565E+02 -.435E+00 0.588E+01   -.612E+02 0.430E+00 -.603E+01   0.514E+01 0.249E-01 0.222E+00
   0.994E+01 0.525E+00 -.614E+03   -.108E+02 -.603E+00 0.607E+03   0.839E+00 0.781E-01 0.682E+01
   0.181E+02 -.179E+01 -.160E+04   -.192E+02 0.185E+01 0.161E+04   0.107E+01 -.671E-01 -.186E+01
   -.461E+02 0.231E+01 -.112E+04   0.518E+02 -.242E+01 0.112E+04   -.564E+01 0.106E+00 0.122E+01
   0.940E+01 0.364E+01 -.113E+04   -.103E+02 -.375E+01 0.113E+04   0.857E+00 0.110E+00 0.531E+00
   0.168E+02 -.686E+00 -.180E+04   -.171E+02 0.680E+00 0.180E+04   0.265E+00 0.615E-02 -.191E+01
   0.362E+02 0.614E+00 -.271E+04   -.361E+02 -.668E+00 0.273E+04   -.124E+00 0.545E-01 -.205E+02
   -.485E+02 0.434E+02 -.221E+04   0.545E+02 -.431E+02 0.221E+04   -.605E+01 -.224E+00 -.548E+00
   0.658E+02 0.338E+02 -.229E+04   -.721E+02 -.338E+02 0.229E+04   0.625E+01 0.666E-01 -.317E+01
   0.811E+01 -.260E+02 0.755E+02   0.389E-11 -.931E-12 0.487E-10   -.812E+01 0.260E+02 -.755E+02

 POSITION                                       TOTAL-FORCE (eV/Angst)
      6.69546      6.51714     24.54751         0.000307     -0.003741     -0.001887
      8.03837      5.87278     23.94919         0.001296      0.004684      0.002718
      7.03615      5.82630     23.94863        -0.004712      0.003818     -0.000341
      9.79585      7.40331      8.77892        -0.002345      0.000123     -3.481854
      0.00000      8.88397      8.77892         0.001127      0.000103      2.773727
      0.00000      7.40331     12.04421         0.004926      0.000162      0.517425
      9.79585      8.88397     12.04421        -0.006824      0.000394     -0.725309
      9.79585      7.40331     15.30949        -0.031591     -0.017048      0.595626
      0.00000      8.88397     15.30949         0.003845      0.001147     -0.696249
      0.07365      7.40373     18.50662         0.000318      0.001508     -0.001832
      9.85976      8.88520     18.68504        -0.001996      0.002132      0.001779
      9.81190      7.41343     22.02138        -0.000551      0.001531      0.000683
      0.00426      8.88702     21.69832         0.000712     -0.001311      0.000133
      9.79585     10.36464      8.77892        -0.002430      0.000177     -3.481912
      0.00000      0.00000      8.77892         0.001130      0.000060      2.773570
      0.00000     10.36464     12.04421         0.004785     -0.000163      0.517530
      9.79585      0.00000     12.04421        -0.007043     -0.000362     -0.726154
      9.79585     10.36464     15.30949        -0.019773      0.021614      0.600017
      0.00000      0.00000     15.30949         0.003362     -0.001376     -0.695442
      0.07189     10.36474     18.50822         0.001883      0.000377     -0.000473
      9.85004      0.00023     18.69347         0.000895     -0.001226      0.002123
      9.79609     10.36492     22.05131         0.001650     -0.002733      0.001749
      0.00564     11.84414     21.69678         0.001366     -0.000276      0.001461
      9.79585      1.48066      8.77892        -0.002411     -0.000214     -3.482115
      0.00000      2.96132      8.77892         0.001150     -0.000090      2.773577
      0.00000      1.48066     12.04421         0.004898     -0.000056      0.517343
      9.79585      2.96132     12.04421        -0.006603     -0.000362     -0.726438
      9.79585      1.48066     15.30949        -0.018742     -0.028289      0.595284
      0.00000      2.96132     15.30949         0.005257     -0.000521     -0.697715
      0.07197      1.47996     18.50786         0.000453     -0.001413     -0.001702
      9.85650      2.95904     18.68428        -0.000676     -0.002103      0.001829
      9.79461      1.47216     22.05109         0.000578      0.001978      0.002769
      0.00520      2.95613     21.69771         0.000852      0.001319      0.001422
      9.79585      4.44199      8.77892        -0.002321     -0.000056     -3.482047
      0.00000      5.92265      8.77892         0.001145     -0.000042      2.773744
      0.00000      4.44199     12.04421         0.005066      0.000085      0.517242
      9.79585      5.92265     12.04421        -0.006514      0.000350     -0.725491
      9.79585      4.44199     15.30949        -0.032282      0.023675      0.591972
      0.00000      5.92265     15.30949         0.004871      0.000682     -0.699122
      0.07216      4.44160     18.50621         0.000592     -0.000845     -0.000559
      9.86317      5.92211     18.69088         0.004155      0.000206      0.001112
      9.81933      4.42290     22.02288        -0.002679      0.000854      0.000763
      0.01448      5.92331     21.69641         0.003195     -0.000598     -0.000430
      3.26528      7.40331      8.77892         0.002463     -0.000043     -3.479732
      6.53056      8.88397      8.77892        -0.000981      0.000271      2.779702
      6.53056      7.40331     12.04421        -0.004703      0.008521      0.538948
      3.26528      8.88397     12.04421         0.007243      0.000302     -0.710543
      3.26528      7.40331     15.30949         0.039750     -0.012025      0.643314
      6.53056      8.88397     15.30949        -0.019726     -0.039742     -0.575089
      6.60610      7.37658     18.54387        -0.002569      0.004110     -0.000296
      3.32895      8.88281     18.69406        -0.002394      0.000685      0.001250
      3.27508      7.40502     22.05432         0.002322     -0.000674     -0.001458
      6.54334      8.88630     21.66127        -0.000001      0.002565      0.001501
      3.26528     10.36464      8.77892         0.002538      0.000187     -3.479873
      6.53056      0.00000      8.77892        -0.000975      0.000025      2.779777
      6.53056     10.36464     12.04421        -0.004883     -0.000288      0.540761
      3.26528      0.00000     12.04421         0.007530     -0.000113     -0.710989
      3.26528     10.36464     15.30949         0.032407      0.003596      0.637200
      6.53056      0.00000     15.30949        -0.022732     -0.002145     -0.756285
      6.60048     10.35338     18.47759         0.001796     -0.000686      0.000118
[...]
      6.53056      5.92265     13.32313         0.002768     -0.000782     -0.136266
      4.54421      4.44199     12.04421         0.415688      0.000194      0.049196
      8.51692      4.44199     12.04421        -0.410232      0.000211      0.051018
      3.26528      5.92265     14.03056        -0.009119      0.000308     -0.093857
      3.26528      5.92265     16.58841        -0.006494     -0.001982      0.013578
      7.80949      4.44199     15.30949        -0.407157      0.018993      0.061589
      5.25164      4.44199     15.30949         0.438299      0.020810      0.077168
      6.54163      5.92025     17.32062        -0.000177     -0.000295      0.001882
      6.52683      5.92708     19.89851        -0.002844     -0.000466     -0.002219
      4.57238      4.44168     18.59442         0.002510     -0.001360     -0.000091
      8.50511      4.44146     18.60835        -0.002381      0.003381      0.001349
      3.27472      5.92725     20.57103        -0.000393      0.000387      0.000195
      3.28675      5.92132     23.13617         0.002218      0.000147      0.001211
      7.79575      4.39772     21.87712        -0.000315      0.000239      0.002661
      5.31551      4.43019     21.99438         0.001569      0.001236      0.001542
    total drift:                               -0.011418     -0.001884     -0.013694

  FREE ENERGIE OF THE ION-ELECTRON SYSTEM (eV)
  free  energy   TOTEN  =     -1753.76109084 eV

  energy  without entropy=    -1753.76109084  energy(sigma->0) =    -1753.76109084

 reached required accuracy - stopping structural energy minimisation