 vasp.6.4.2 20Jul23 (build Nov 17 2023 15:39:20) complex
 executed on              LinuxNV date 2024.02.25  05:09:39
 OpenACC runtime initialized ...    4 GPUs detected

 INCAR:
   SYSTEM = Oxide-Surface
   ISMEAR = 0
   SIGMA = 0.05
   EDIFF = 1E-4
   ALGO = Normal
   ISTART = 2
   IBRION = -1
   NSW = 0
   ISYM = 0
   DIPOL = 0.5 0.5 0.5
   IDIPOL = 3
   LDIPOL = .TRUE.
   LHFCALC = .TRUE.
   HFSCREEN = 0.2
   GGA = PE
   ENCUT = 450
   PREC = Normal
   LASPH = .TRUE.
   LREAL = Auto
   ISPIN = 1
   NELM = 200
   NELMIN = 8
   NCORE = 1
   KPAR = 1
   LWAVE = .FALSE.
   LCHARG = .FALSE.

 POTCAR:    PAW_PBE Ti_pv 07Sep2000
 POTCAR:    PAW_PBE O 08Apr2002
 POTCAR:    PAW_PBE Ti_pv 07Sep2000
   VRHFIN =Ti: d3 s1

   TITEL  = PAW_PBE Ti_pv 07Sep2000
   POMASS =   47.880; ZVAL   =   10.000    mass and valenz
   ENMAX  =  222.335; ENMIN  =  166.751 eV

   TITEL  = PAW_PBE O 08Apr2002
   POMASS =   16.000; ZVAL   =    6.000    mass and valenz
   ENMAX  =  400.000; ENMIN  =  300.000 eV

 Optimization of the real space projectors (new method)

 maximal supplied QI-value         = 15.12
 optimisation between [QCUT,QGAM] = [ 10.73, 21.62] = [ 32.26,130.87] Ry
 Optimized for a Real-space Cutoff    1.46 Angstroem

   l    n(q)    QCUT    max X(q) W(low)/X(q) W(high)/X(q)  e(spline)
   1      9    10.734     4.216    0.90E-04    0.17E-04    0.73E-07
   1      9    10.734     5.422    0.20E-03    0.95E-04    0.21E-06
   2      9    10.734    72.084    0.40E-03    0.60E-03    0.19E-06
   2      9    10.734    65.965    0.40E-03    0.59E-03    0.19E-06
   0      9    10.734    41.531    0.93E-04    0.36E-04    0.17E-06
   0      9    10.734    16.290    0.71E-04    0.26E-04    0.13E-06
 Optimization of the real space projectors (new method)

 maximal supplied QI-value         = 24.76
 optimisation between [QCUT,QGAM] = [ 10.64, 21.54] = [ 31.73,129.89] Ry
 Optimized for a Real-space Cutoff    1.23 Angstroem

   l    n(q)    QCUT    max X(q) W(low)/X(q) W(high)/X(q)  e(spline)
   0      8    10.645    20.381    0.38E-03    0.60E-03    0.15E-06
   0      8    10.645    15.268    0.40E-03    0.65E-03    0.17E-06
   1      7    10.645     5.964    0.30E-03    0.63E-03    0.18E-06
   1      7    10.645     5.382    0.24E-03    0.53E-03    0.16E-06
  PAW_PBE Ti_pv 07Sep2000               :
  PAW_PBE O 08Apr2002                   :

 POSCAR: Ti  O
  positions in direct lattice
 exchange correlation table for  LEXCH =        8
   RHO(1)=    0.500       N(1)  =     2000
   RHO(2)=  100.500       N(2)  =     4000

 ion  position               nearest neighbor table
   1  0.750  0.625  0.287-  82 1.95 142 1.95 141 1.95  81 1.95  84 1.98 163 1.98  11 2.96  31 2.96

   2  0.000  0.750  0.287-  83 1.95  84 1.95 103 1.95 104 1.95  85 1.98  32 2.96  12 2.96
   3  0.000  0.625  0.394-  85 1.95 145 1.95  86 1.95 146 1.95  87 1.98  88 1.98  13 2.96  33 2.96

[...]

  80  0.500  0.499  0.709- 234 1.82 240 1.94 239 1.94 180 1.96 179 1.96  70 2.95  50 2.98
  81  0.750  0.750  0.245-   1 1.95  11 1.95
  82  0.750  0.750  0.329-   1 1.95  11 1.95   4 1.98
  83  0.098  0.625  0.287-   2 1.95  32 1.95  41 1.98
  84  0.902  0.625  0.287-   2 1.95  32 1.95   1 1.98
  85  0.000  0.750  0.352-   3 1.95  13 1.95   2 1.98
  86  0.000  0.750  0.435-   3 1.95  13 1.95   6 1.98
  87  0.848  0.625  0.394-   4 1.95  34 1.95   3 1.98
  88  0.152  0.625  0.394-  44 1.95  74 1.95   3 1.98
  89  0.750  0.750  0.458-   5 1.95  15 1.95   4 1.98
  90  0.750  0.750  0.542-   5 1.95  15 1.95   8 2.11
  91  0.098  0.625  0.500-   6 1.95  36 1.95  45 1.98
  92  0.902  0.625  0.500-   6 1.95  36 1.95   5 1.98
  93  1.000  0.750  0.565-  17 1.89   7 1.89   6 2.00
  94  0.000  0.750  0.649-  10 1.81   7 2.02  17 2.02
  95  0.850  0.625  0.607-   7 1.95   8 1.97  38 1.97
  96  0.150  0.625  0.607-   7 1.95  48 1.97  78 1.97
  97  0.750  0.750  0.672-   8 1.86   9 2.10  19 2.10
  98  0.749  0.750  0.756-   9 1.83  19 1.83
  99  0.094  0.625  0.719-  40 1.95  10 1.95  49 2.03
 100  0.906  0.625  0.719-  40 1.95  10 1.95   9 2.03
 101  0.750  0.000  0.245-  11 1.95  21 1.95
 102  0.750  0.000  0.329-  11 1.95  21 1.95  14 1.98
 103  0.098  0.875  0.287-   2 1.95  12 1.95  51 1.98
 104  0.902  0.875  0.287-   2 1.95  12 1.95  11 1.98
 105  0.000  0.000  0.352-  13 1.95  23 1.95  12 1.98
 106  0.000  0.000  0.435-  13 1.95  23 1.95  16 1.98
 107  0.848  0.875  0.394-   4 1.95  14 1.95  13 1.98
 108  0.152  0.875  0.394-  44 1.95  54 1.95  13 1.98
 109  0.750  0.000  0.458-  15 1.95  25 1.95  14 1.98
 110  0.750  0.000  0.542-  15 1.95  25 1.95  18 2.11
 111  0.098  0.875  0.500-   6 1.95  16 1.95  55 1.98
 112  0.902  0.875  0.500-   6 1.95  16 1.95  15 1.98
 113  1.000  0.000  0.565-  27 1.89  17 1.89  16 2.00
 114  1.000  1.000  0.649-  20 1.81  17 2.02  27 2.02
 115  0.850  0.875  0.607-  17 1.95   8 1.97  18 1.97
 116  0.150  0.875  0.607-  17 1.95  48 1.97  58 1.97
 117  0.750  0.000  0.672-  18 1.86  29 2.10  19 2.10
 118  0.750  1.000  0.756-  19 1.83  29 1.83
 119  0.094  0.875  0.719-  10 1.95  20 1.95  59 2.03
 120  0.906  0.875  0.719-  10 1.95  20 1.95  19 2.03
 121  0.750  0.250  0.245-  21 1.95  31 1.95
 122  0.750  0.250  0.329-  21 1.95  31 1.95  24 1.98
 123  0.098  0.125  0.287-  12 1.95  22 1.95  61 1.98
 124  0.902  0.125  0.287-  12 1.95  22 1.95  21 1.98
 125  0.000  0.250  0.352-  23 1.95  33 1.95  22 1.98
 126  0.000  0.250  0.435-  23 1.95  33 1.95  26 1.98
 127  0.848  0.125  0.394-  14 1.95  24 1.95  23 1.98
 128  0.152  0.125  0.394-  54 1.95  64 1.95  23 1.98
 129  0.750  0.250  0.458-  25 1.95  35 1.95  24 1.98
 130  0.750  0.250  0.542-  25 1.95  35 1.95  28 2.11
 131  0.098  0.125  0.500-  16 1.95  26 1.95  65 1.98
 132  0.902  0.125  0.500-  16 1.95  26 1.95  25 1.98
 133  1.000  0.250  0.565-  37 1.89  27 1.89  26 2.00
 134  1.000  0.250  0.649-  30 1.81  37 2.02  27 2.02
 135  0.850  0.125  0.607-  27 1.95  18 1.97  28 1.97
 136  0.150  0.125  0.607-  27 1.95  58 1.97  68 1.97
 137  0.750  0.250  0.672-  28 1.86  29 2.10  39 2.10
 138  0.750  0.250  0.756-  39 1.83  29 1.83
 139  0.094  0.125  0.719-  30 1.95  20 1.95  69 2.03
[...]
 226  0.500  0.500  0.435-  43 1.95  73 1.95  76 1.98
 227  0.348  0.375  0.394-  64 1.95  74 1.95  73 1.98
 228  0.652  0.375  0.394-  24 1.95  34 1.95  73 1.98
 229  0.250  0.500  0.458-  45 1.95  75 1.95  74 1.98
 230  0.250  0.500  0.542-  45 1.95  75 1.95  78 2.11
 231  0.598  0.375  0.500-  66 1.95  76 1.95  35 1.98
 232  0.402  0.375  0.500-  66 1.95  76 1.95  75 1.98
 233  0.500  0.500  0.565-  77 1.89  47 1.90  76 2.00
 234  0.500  0.500  0.649-  80 1.82  47 2.01  77 2.01
 235  0.350  0.375  0.607-  77 1.95  78 1.97  68 1.97
 236  0.650  0.375  0.607-  77 1.95  38 1.97  28 1.97
 237  0.249  0.500  0.672-  78 1.86  49 2.10  79 2.10
 238  0.251  0.500  0.756-  79 1.83  49 1.84
 239  0.594  0.374  0.718-  80 1.94  70 1.94  39 2.03
 240  0.406  0.374  0.718-  80 1.94  70 1.94  79 2.03

IMPORTANT INFORMATION: All symmetrisations will be switched off!
NOSYMM: (Re-)initialisation of all symmetry stuff for point group C_1.

                                     Primitive cell

  volume of cell :    4700.2961

  direct lattice vectors                    reciprocal lattice vectors
    13.003980404  0.000000000  0.000000000     0.076899531  0.000000000  0.000000000
     0.000000000 11.830378115  0.000000000     0.000000000  0.084528152  0.000000000
     0.000000000  0.000000000 30.552748813     0.000000000  0.000000000  0.032730279

  length of vectors
    13.003980404 11.830378115 30.552748813     0.076899531  0.084528152  0.032730279

  position of ions in fractional coordinates (direct lattice)
     0.750000000  0.625000000  0.287188045
     0.000000000  0.750000000  0.287188045
     0.000000000  0.625000000  0.393594023
     0.750000000  0.750000000  0.393594023
     0.750000000  0.625000000  0.500000000
     0.000000000  0.750000000  0.500000000
     0.999999939  0.625012602  0.604131190
     0.750021775  0.750035515  0.610696778
     0.750003064  0.625099460  0.720187232
     0.000000016  0.750048202  0.708165271
     0.750000000  0.875000000  0.287188045
     0.000000000  0.000000000  0.287188045
     0.000000000  0.875000000  0.393594023
     0.750000000  0.000000000  0.393594023
     0.750000000  0.875000000  0.500000000
     0.000000000  0.000000000  0.500000000
     0.999999991  0.875008991  0.604144304
     0.749983712  0.000012875  0.610796716
     0.749876203  0.874991967  0.720525488
     0.999999989  0.999985733  0.708180187
     0.750000000  0.125000000  0.287188045
     0.000000000  0.250000000  0.287188045
     0.000000000  0.125000000  0.393594023
     0.750000000  0.250000000  0.393594023
     0.750000000  0.125000000  0.500000000
     0.000000000  0.250000000  0.500000000
     0.000000067  0.124986485  0.604150370
     0.750020773  0.249966864  0.610793409
     0.749936140  0.125009463  0.720500285
     0.000000014  0.249968494  0.708178592
     0.750000000  0.375000000  0.287188045
     0.000000000  0.500000000  0.287188045
     0.000000000  0.375000000  0.393594023
     0.750000000  0.500000000  0.393594023
     0.750000000  0.375000000  0.500000000
     0.000000000  0.500000000  0.500000000
     0.000000084  0.374994155  0.604134382
     0.750042567  0.499977077  0.610710241
     0.750059276  0.375070994  0.720471486
     0.999999993  0.500046918  0.708154109
     0.250000000  0.625000000  0.287188045
     0.500000000  0.750000000  0.287188045
     0.500000000  0.625000000  0.393594023
     0.250000000  0.750000000  0.393594023
     0.250000000  0.625000000  0.500000000
     0.500000000  0.750000000  0.500000000
     0.499999957  0.624723114  0.604426797
     0.249978087  0.750035507  0.610696776
     0.249996934  0.625099468  0.720187222
     0.500000013  0.750558309  0.708051210
     0.250000000  0.875000000  0.287188045
     0.500000000  0.000000000  0.287188045
     0.500000000  0.875000000  0.393594023
     0.250000000  0.000000000  0.393594023
     0.250000000  0.875000000  0.500000000
     0.500000000  0.000000000  0.500000000
     0.499999960  0.874829590  0.604010476
     0.250016350  0.000012902  0.610796720
     0.250123805  0.874991976  0.720525490
     0.499999993  0.000021181  0.708009690
[...]
     0.500000000  0.500000000  0.435304973
     0.347999548  0.375000000  0.393594023
     0.652000452  0.375000000  0.393594023
     0.250000000  0.500000000  0.458289049
     0.250000000  0.500000000  0.541710951
     0.597999548  0.375000000  0.500000000
     0.402000452  0.375000000  0.500000000
     0.499999988  0.500009952  0.565445434
     0.500000010  0.499946207  0.649265036
     0.350114586  0.375000884  0.607233860
     0.649885401  0.375000880  0.607233846
     0.249478263  0.500033224  0.671624988
     0.251184731  0.500305644  0.755885903
     0.594380379  0.374260879  0.718008979
     0.405619619  0.374260885  0.718008977

  ion indices of the primitive-cell ions
   primitive index   ion index
                 1           1
                 2           2
                 3           3
                 4           4
                 5           5
                 6           6
                 7           7
                 8           8
[...]
   -.105E-04 0.411E-02 0.398E+04   0.275E-07 -.400E-02 -.397E+04   0.216E-05 -.163E-04 -.420E+01   0.947E-05 -.284E-04 0.316E+00
   0.374E-05 0.173E-01 0.193E+04   -.200E-06 -.172E-01 -.193E+04   -.154E-05 -.772E-05 -.105E+00   -.171E-05 -.108E-04 0.205E+00
   0.374E-01 0.358E-01 0.192E+04   -.378E-01 -.350E-01 -.192E+04   0.106E-03 -.688E-04 0.232E+00   -.286E-04 -.104E-03 0.208E+00
   0.365E+00 0.152E+00 -.214E+02   -.368E+00 -.152E+00 0.223E+02   0.707E-03 -.216E-04 -.162E+00   -.824E-04 -.721E-06 0.435E-01
   -.121E-04 -.981E-02 -.938E+01   0.619E-05 0.139E-01 0.811E+01   0.102E-05 -.932E-03 0.391E+00   0.514E-05 -.578E-04 0.438E-01
   -.955E-04 0.761E-01 -.190E+04   0.105E-03 -.742E-01 0.190E+04   -.247E-05 -.193E-03 0.163E+00   -.134E-04 -.241E-04 -.139E+00
   0.209E+00 0.129E+00 -.196E+04   -.192E+00 -.123E+00 0.196E+04   -.450E-02 -.210E-02 -.269E+00   -.201E-03 -.541E-04 -.150E+00
   -.153E+01 0.931E+00 -.379E+04   0.148E+01 -.918E+00 0.379E+04   0.372E-01 0.615E-02 -.492E+00   -.706E-03 -.404E-04 -.302E+00
   0.584E-04 0.651E+00 -.381E+04   -.752E-04 -.652E+00 0.381E+04   0.101E-05 -.542E-02 0.124E+01   0.172E-04 0.155E-04 -.291E+00
   0.536E-02 0.390E-02 0.380E+04   -.557E-02 -.354E-02 -.380E+04   0.697E-04 -.492E-04 0.584E+00   -.365E-04 -.102E-04 0.318E+00
   -.805E-05 -.223E-02 0.398E+04   0.100E-06 0.224E-02 -.397E+04   0.509E-06 -.313E-05 -.420E+01   0.871E-05 0.433E-04 0.316E+00
   -.387E-04 -.356E-02 0.193E+04   0.258E-06 0.395E-02 -.193E+04   0.101E-05 -.351E-04 -.105E+00   0.421E-04 -.200E-04 0.205E+00
   0.517E-02 -.109E-01 0.192E+04   -.597E-02 0.112E-01 -.192E+04   0.194E-03 -.120E-04 0.232E+00   -.172E-04 0.131E-03 0.208E+00
   0.144E-01 0.273E-01 -.213E+02   -.159E-01 -.108E-01 0.222E+02   0.355E-03 -.176E-02 -.164E+00   -.690E-04 -.126E-04 0.435E-01
   -.672E-05 -.746E-01 -.955E+01   0.673E-05 0.772E-01 0.829E+01   0.762E-06 -.526E-03 0.392E+00   -.811E-06 0.359E-04 0.438E-01
   0.536E-04 -.865E-01 -.190E+04   -.361E-04 0.852E-01 0.190E+04   -.210E-05 -.385E-03 0.165E+00   -.204E-04 0.165E-04 -.139E+00
   -.223E+00 0.372E-01 -.197E+04   0.234E+00 -.419E-01 0.197E+04   -.198E-02 0.616E-03 -.257E+00   -.188E-03 0.675E-04 -.151E+00
   -.109E+01 0.591E+00 -.379E+04   0.113E+01 -.626E+00 0.379E+04   -.161E-02 -.245E-02 -.470E+00   -.506E-03 -.647E-04 -.303E+00
   -.320E-04 0.344E+00 -.381E+04   0.336E-05 -.357E+00 0.381E+04   0.139E-05 -.147E-03 0.125E+01   0.294E-04 0.153E-03 -.291E+00
   0.467E-02 -.610E-02 0.380E+04   -.491E-02 0.603E-02 -.380E+04   0.749E-04 0.935E-05 0.584E+00   -.106E-04 -.306E-07 0.318E+00
   -.769E-05 -.405E-02 0.398E+04   0.102E-06 0.400E-02 -.397E+04   -.879E-06 0.833E-05 -.420E+01   0.963E-05 -.263E-04 0.316E+00
   0.475E-04 -.174E-01 0.193E+04   0.693E-06 0.172E-01 -.193E+04   -.455E-05 0.156E-04 -.105E+00   -.473E-04 0.217E-04 0.205E+00
   0.276E-01 -.353E-01 0.192E+04   -.282E-01 0.346E-01 -.192E+04   0.126E-03 0.645E-04 0.232E+00   0.295E-05 -.105E-03 0.208E+00
   -.410E-01 -.146E+00 -.214E+02   0.395E-01 0.144E+00 0.224E+02   0.420E-03 0.192E-03 -.165E+00   -.619E-04 0.192E-04 0.435E-01
   -.921E-06 0.112E-01 -.958E+01   0.184E-05 -.153E-01 0.832E+01   0.246E-06 0.922E-03 0.392E+00   -.245E-05 -.210E-04 0.438E-01
   0.198E-03 -.148E+00 -.190E+04   -.200E-03 0.146E+00 0.190E+04   0.104E-05 0.118E-02 0.171E+00   0.344E-05 0.212E-05 -.139E+00
   -.449E-01 -.213E+00 -.196E+04   0.648E-01 0.207E+00 0.197E+04   -.420E-02 0.154E-02 -.259E+00   -.236E-03 0.264E-04 -.150E+00
   -.337E+00 -.112E+00 -.379E+04   0.376E+00 0.101E+00 0.379E+04   -.555E-02 -.100E-04 -.469E+00   -.590E-03 0.339E-03 -.302E+00
   0.468E-04 -.119E+01 -.381E+04   -.500E-04 0.120E+01 0.381E+04   0.251E-05 0.468E-02 0.124E+01   0.173E-05 -.333E-05 -.290E+00
   0.849E-02 -.387E-02 0.380E+04   -.863E-02 0.354E-02 -.380E+04   0.429E-04 0.489E-04 0.584E+00   -.125E-04 -.676E-05 0.318E+00
   -.167E-04 0.217E-02 0.398E+04   0.290E-07 -.224E-02 -.397E+04   0.428E-06 0.118E-04 -.420E+01   0.171E-04 0.113E-04 0.316E+00
   -.358E-05 0.359E-02 0.193E+04   0.154E-06 -.393E-02 -.193E+04   -.296E-06 0.308E-04 -.105E+00   0.536E-05 0.819E-05 0.205E+00
   0.597E-01 0.104E-01 0.192E+04   -.599E-01 -.108E-01 -.192E+04   0.134E-04 0.142E-04 0.232E+00   -.144E-04 0.763E-04 0.208E+00
   0.300E+00 -.327E-01 -.216E+02   -.303E+00 0.179E-01 0.225E+02   0.430E-03 0.162E-02 -.163E+00   -.710E-04 -.550E-05 0.435E-01
   -.186E-05 0.779E-01 -.939E+01   0.360E-06 -.804E-01 0.812E+01   0.152E-05 0.411E-03 0.391E+00   -.307E-07 0.427E-04 0.438E-01
   0.294E-03 0.113E+00 -.190E+04   -.295E-03 -.111E+00 0.190E+04   0.155E-05 0.124E-04 0.165E+00   0.144E-05 0.732E-05 -.139E+00
   0.455E+00 0.235E-01 -.196E+04   -.431E+00 -.183E-01 0.196E+04   -.561E-02 -.872E-03 -.270E+00   -.250E-03 -.381E-04 -.150E+00
   -.164E+01 -.118E+01 -.379E+04   0.176E+01 0.122E+01 0.379E+04   -.181E-01 0.982E-02 -.466E+00   -.714E-03 -.233E-03 -.302E+00
   0.195E-04 0.530E-01 -.381E+04   -.169E-04 -.409E-01 0.381E+04   0.631E-06 -.772E-03 0.123E+01   -.486E-05 -.160E-03 -.291E+00
   -.916E-02 0.612E-02 0.380E+04   0.930E-02 -.603E-02 -.380E+04   -.415E-04 -.720E-05 0.584E+00   0.107E-04 -.343E-04 0.318E+00
   -.377E-05 0.101E-01 0.398E+04   -.308E-07 -.981E-02 -.397E+04   0.157E-06 -.376E-04 -.420E+01   0.341E-05 -.209E-04 0.316E+00
   -.309E-04 0.554E-01 0.193E+04   0.214E-06 -.522E-01 -.193E+04   0.327E-05 -.628E-03 -.105E+00   0.296E-04 -.906E-05 0.205E+00
   -.374E-01 0.357E-01 0.192E+04   0.378E-01 -.350E-01 -.192E+04   -.107E-03 -.653E-04 0.232E+00   -.610E-06 -.322E-05 0.208E+00
   -.365E+00 0.152E+00 -.214E+02   0.368E+00 -.152E+00 0.223E+02   -.708E-03 -.211E-04 -.162E+00   0.736E-04 0.126E-04 0.434E-01
   -.240E-04 0.476E+00 -.987E+01   0.135E-04 -.489E+00 0.863E+01   0.245E-06 0.748E-02 0.384E+00   0.118E-04 -.780E-04 0.439E-01
   -.831E-04 0.230E+00 -.190E+04   0.703E-04 -.165E+00 0.190E+04   -.107E-05 -.214E-01 0.204E+00   0.132E-04 -.124E-03 -.139E+00
   -.209E+00 0.129E+00 -.196E+04   0.193E+00 -.123E+00 0.196E+04   0.450E-02 -.210E-02 -.269E+00   0.211E-03 -.588E-04 -.150E+00
   0.153E+01 0.931E+00 -.379E+04   -.148E+01 -.918E+00 0.379E+04   -.372E-01 0.615E-02 -.492E+00   0.713E-03 -.419E-04 -.302E+00
   0.765E-04 0.234E+01 -.381E+04   -.717E-04 -.257E+01 0.381E+04   -.355E-06 0.229E-03 0.133E+01   -.468E-05 -.325E-03 -.290E+00
   -.535E-02 0.388E-02 0.380E+04   0.557E-02 -.354E-02 -.380E+04   -.685E-04 -.492E-04 0.584E+00   0.172E-04 0.107E-04 0.318E+00
   -.127E-04 -.117E-02 0.398E+04   -.113E-06 0.122E-02 -.397E+04   0.977E-06 -.108E-04 -.420E+01   0.127E-04 0.145E-04 0.316E+00
   0.271E-04 0.493E-01 0.193E+04   -.339E-06 -.468E-01 -.193E+04   -.226E-05 -.558E-03 -.105E+00   -.286E-04 0.161E-04 0.205E+00
   -.517E-02 -.108E-01 0.192E+04   0.597E-02 0.112E-01 -.192E+04   -.193E-03 -.156E-04 0.232E+00   0.163E-04 -.173E-04 0.208E+00
   -.144E-01 0.273E-01 -.213E+02   0.159E-01 -.108E-01 0.222E+02   -.355E-03 -.175E-02 -.164E+00   0.522E-04 -.162E-04 0.434E-01
   -.202E-05 -.191E-01 -.867E+01   -.556E-05 0.205E-01 0.741E+01   0.435E-06 0.350E-03 0.381E+00   0.691E-05 0.369E-04 0.439E-01
   -.661E-04 -.938E+00 -.189E+04   0.600E-04 0.933E+00 0.189E+04   -.554E-06 0.712E-03 0.129E+00   0.657E-05 -.416E-04 -.138E+00
   0.223E+00 0.374E-01 -.197E+04   -.234E+00 -.421E-01 0.197E+04   0.198E-02 0.617E-03 -.257E+00   0.194E-03 0.878E-04 -.150E+00
   0.109E+01 0.591E+00 -.379E+04   -.113E+01 -.627E+00 0.379E+04   0.161E-02 -.244E-02 -.470E+00   0.475E-03 -.644E-04 -.303E+00
   0.119E-04 -.813E+00 -.381E+04   -.125E-04 0.829E+00 0.380E+04   -.128E-05 0.754E-03 0.124E+01   0.348E-05 0.296E-03 -.290E+00
[...]
   -.531E+02 -.204E-01 0.115E+04   0.573E+02 0.196E-01 -.115E+04   -.341E+01 0.121E-02 0.167E+00   0.547E-03 0.862E-06 0.124E+00
   0.531E+02 -.204E-01 0.115E+04   -.573E+02 0.196E-01 -.115E+04   0.341E+01 0.121E-02 0.167E+00   -.552E-03 0.638E-06 0.124E+00
   -.114E+00 0.182E-01 0.497E+03   0.115E+00 -.204E-01 -.501E+03   -.165E-02 0.409E-02 0.400E+01   0.290E-04 0.758E-05 0.671E-01
   -.455E+00 0.833E-01 -.538E+03   0.455E+00 -.833E-01 0.546E+03   0.179E-02 0.109E-02 -.697E+01   0.750E-04 -.616E-05 -.173E-01
   -.549E+02 -.219E+00 -.681E+01   0.600E+02 0.214E+00 0.649E+01   -.509E+01 0.113E-01 0.347E+00   0.941E-04 0.404E-05 0.261E-01
   0.549E+02 -.219E+00 -.681E+01   -.600E+02 0.214E+00 0.649E+01   0.509E+01 0.113E-01 0.347E+00   -.970E-04 0.318E-06 0.261E-01
   0.383E-04 -.393E+00 -.644E+03   -.488E-04 0.443E+00 0.637E+03   0.403E-05 -.481E-01 0.629E+01   0.586E-05 0.341E-05 -.428E-01
   -.312E-04 -.144E+01 -.163E+04   0.373E-04 0.159E+01 0.162E+04   -.594E-05 -.150E+00 0.242E+01   0.496E-06 -.584E-04 -.125E+00
   -.272E+02 -.143E-02 -.115E+04   0.303E+02 -.296E-01 0.115E+04   -.278E+01 0.274E-01 0.872E+00   0.424E-03 0.199E-07 -.862E-01
   0.272E+02 -.115E-02 -.115E+04   -.303E+02 -.299E-01 0.115E+04   0.278E+01 0.275E-01 0.872E+00   -.427E-03 -.584E-05 -.862E-01
   0.115E+01 0.724E+00 -.183E+04   -.126E+01 -.797E+00 0.184E+04   0.985E-01 0.567E-01 -.225E+01   0.284E-03 -.704E-04 -.145E+00
   -.303E+01 -.491E+00 -.274E+04   0.327E+01 0.617E+00 0.276E+04   -.239E+00 -.170E+00 -.202E+02   0.628E-03 -.155E-03 -.205E+00
   -.223E+02 -.155E+00 -.236E+04   0.289E+02 0.948E-02 0.236E+04   -.615E+01 0.177E+00 -.314E+01   -.724E-03 0.132E-04 -.182E+00
   0.223E+02 -.155E+00 -.236E+04   -.289E+02 0.939E-02 0.236E+04   0.615E+01 0.177E+00 -.314E+01   0.736E-03 0.196E-04 -.182E+00
   0.141E-03 -.355E+00 0.982E+02   0.198E-11 -.101E-11 -.373E-10   -.914E-04 0.334E+00 -.929E+02   -.362E-05 0.354E-04 0.439E+01

 POSITION                                       TOTAL-FORCE (eV/Angst)
      9.75299      7.39399      8.77438        -0.000099      0.000015     -4.029013
      0.00000      8.87278      8.77438         0.000001      0.000026      3.244289
      0.00000      7.39399     12.02538         0.000000      0.000054      0.564433
      9.75299      8.87278     12.02538        -0.000375      0.000676     -0.797804
      9.75299      7.39399     15.27637        -0.002678      0.000230      0.781007
      0.00000      8.87278     15.27637         0.000000      0.003044     -0.832406
     13.00398      7.39414     18.45787        -0.000005      0.001151      0.011640
      9.75327      8.87320     18.65847         0.010445      0.003111      0.174732
      9.75303      7.39516     22.00370        -0.019987      0.014071      0.465589
      0.00000      8.87335     21.63640         0.000001     -0.004243     -0.066828
      9.75299     10.35158      8.77438        -0.000169      0.000264     -4.028805
      0.00000      0.00000      8.77438         0.000001      0.000006      3.244345
      0.00000     10.35158     12.02538         0.000005      0.000308      0.564716
      9.75299      0.00000     12.02538        -0.000625      0.000342     -0.795736
      9.75299     10.35158     15.27637        -0.001226      0.015175      0.790832
      0.00000      0.00000     15.27637        -0.000000      0.002153     -0.831398
     13.00398     10.35169     18.45827        -0.000005     -0.002082      0.011157
      9.75277      0.00015     18.66152         0.008632     -0.004512      0.168560
      9.75138     10.35149     22.01403         0.042644     -0.037596      0.412602
     13.00398     11.83021     21.63685         0.000003     -0.012352     -0.076061
      9.75299      1.47880      8.77438        -0.000175     -0.000105     -4.028647
      0.00000      2.95759      8.77438         0.000001     -0.000116      3.244346
      0.00000      1.47880     12.02538        -0.000004     -0.000173      0.564841
      9.75299      2.95759     12.02538        -0.000422     -0.000771     -0.795810
      9.75299      1.47880     15.27637        -0.001138     -0.001904      0.799640
      0.00000      2.95759     15.27637        -0.000001     -0.003238     -0.832017
      0.00000      1.47864     18.45845         0.000001     -0.001298      0.008541
      9.75326      2.95720     18.66142         0.014176     -0.003414      0.162791
      9.75215      1.47891     22.01326         0.033531     -0.011972      0.401697
      0.00000      2.95722     21.63680         0.000001      0.003571     -0.076509
      9.75299      4.43639      8.77438        -0.000109     -0.000341     -4.028859
      0.00000      5.91519      8.77438         0.000001     -0.000085      3.244276
      0.00000      4.43639     12.02538         0.000002     -0.000356      0.564557
      9.75299      5.91519     12.02538        -0.000168     -0.000415     -0.797826
      9.75299      4.43639     15.27637        -0.002244     -0.013687      0.789553
      0.00000      5.91519     15.27637         0.000000     -0.002115     -0.833017
      0.00000      4.43632     18.45797         0.000001      0.002326      0.009428
      9.75354      5.91492     18.65888         0.015452      0.004970      0.172859
      9.75376      4.43723     22.01238         0.096535      0.038696      0.413667
     13.00398      5.91574     21.63605        -0.000002      0.012392     -0.067018
      3.25100      7.39399      8.77438         0.000101      0.000010     -4.029014
      6.50199      8.87278      8.77438        -0.000000      0.000155      3.244572
      6.50199      7.39399     12.02538         0.000002      0.002525      0.564594
      3.25100      8.87278     12.02538         0.000374      0.000680     -0.797803
      3.25100      7.39399     15.27637         0.002677      0.000235      0.781009
      6.50199      8.87278     15.27637         0.000001     -0.005204     -0.814069
      6.50199      7.39071     18.46690        -0.000000      0.037387     -0.013521
      3.25071      8.87320     18.65847        -0.010446      0.003111      0.174730
      3.25096      7.39516     22.00370         0.019987      0.014074      0.465595
      6.50199      8.87939     21.63291        -0.000001     -0.194079     -0.135919
      3.25100     10.35158      8.77438         0.000168      0.000268     -4.028802
      6.50199      0.00000      8.77438         0.000001      0.000014      3.244891
      6.50199     10.35158     12.02538        -0.000005      0.001962      0.566758
      3.25100      0.00000     12.02538         0.000624      0.000335     -0.795733
      3.25100     10.35158     15.27637         0.001227      0.015177      0.790830
      6.50199      0.00000     15.27637        -0.000000      0.001760     -0.843413
      6.50199     10.34956     18.45418         0.000001     -0.005111     -0.001728
      3.25121      0.00015     18.66152        -0.008630     -0.004510      0.168558
      3.25261     10.35149     22.01403        -0.042645     -0.037603      0.412609
      6.50199      0.00025     21.63164         0.000002      0.013804     -0.131101
[...]
      6.50199      5.91519     13.29976         0.000001      0.000189     -0.289671
      4.52538      4.43639     12.02538         0.301931      0.000564      0.061635
      8.47860      4.43639     12.02538        -0.301927      0.000564      0.061656
      3.25100      5.91519     14.00199        -0.000561      0.002479      0.042978
      3.25100      5.91519     16.55076         0.002084      0.001298     -0.227420
      7.77637      4.43639     15.27637        -0.735850      0.008104      0.109042
      5.22761      4.43639     15.27637         0.735850      0.008104      0.109065
      6.50199      5.91531     17.27591        -0.000000     -0.005193      0.214901
      6.50199      5.91455     19.83683        -0.000000     -0.025867      0.117213
      4.55288      4.43640     18.55266        -0.085595      0.000338      0.028782
      8.45110      4.43640     18.55266         0.085593      0.000341      0.028781
      3.24421      5.91558     20.51999         0.003785     -0.009711     -0.067413
      3.26640      5.91880     23.09439        -0.027399     -0.070217     -0.681252
      7.72931      4.42765     21.93715        -0.382416      0.059587      0.077452
      5.27467      4.42765     21.93715         0.382413      0.059586      0.077402
    total drift:                                0.000025      0.010065     -0.474315

  FREE ENERGIE OF THE ION-ELECTRON SYSTEM (eV)
  free  energy   TOTEN  =     -2619.15837194 eV

  energy  without entropy=    -2619.15837194  energy(sigma->0) =    -2619.15837194

     |            E. Caldeweyher, S. Ehlert & S. Grimme          |
     |          Mulliken Center for Theoretical Chemistry        |
     |                    University of Bonn                     |

Rational (Becke-Johnson) damping: hse06-D4-ATM
  s6         1.0000
  s8         1.1953
  s9         1.0000
  a1         0.3866
  a2         5.1913
 alp        16.0000

Dispersion energy:      -1.4327649268341E+00 Eh