 vasp.6.3.0 20Jan22 (build Apr  1 2022 16:44:48) gamma-only
 executed on        HPECrayEX_GCC date 2023.03.12  03:10:49

 INCAR:
   SYSTEM = MgO-rocksalt
   ISMEAR = 0
   SIGMA = 0.05
   EDIFF = 1E-6
   ALGO = ALL
   ISTART = 0
   IBRION = -1
   NSW = 0
   ISYM = 0
   DIPOL = 0.5 0.5 0.5
   IDIPOL = 3
   LDIPOL = .TRUE.
   LHFCALC = .TRUE.
   GGA = B5
   AEXX = 0.2
   AGGAX = 0.72
   AGGAC = 0.81
   ALDAC = 0.19
   IVDW = 1
   VDW_S6 = 1.05
   VDW_C6 = 0.63 0.70
   VDW_R0 = 1.243 1.342
   ENCUT = 520
   PREC = Accurate
   LASPH = .TRUE.
   LREAL = Auto
   ISPIN = 1
   NELM = 200
   NELMIN = 8
   NCORE = 8
   KPAR = 1
   LWAVE = .FALSE.
   LCHARG = .FALSE.

 POTCAR:    PAW_PBE Mg_pv 13Apr2007
 POTCAR:    PAW_PBE O 08Apr2002
 POTCAR:    PAW_PBE Mg_pv 13Apr2007
   VRHFIN =Mg: p6s2

   TITEL  = PAW_PBE Mg_pv 13Apr2007
   POMASS =   24.305; ZVAL   =    8.000    mass and valenz
   ENMAX  =  403.929; ENMIN  =  302.947 eV

   TITEL  = PAW_PBE O 08Apr2002
   POMASS =   16.000; ZVAL   =    6.000    mass and valenz
   ENMAX  =  400.000; ENMIN  =  300.000 eV

 Optimization of the real space projectors (new method)

 maximal supplied QI-value         = 18.90
 optimisation between [QCUT,QGAM] = [ 11.53, 23.24] = [ 37.21,151.29] Ry
 Optimized for a Real-space Cutoff    1.28 Angstroem

   l    n(q)    QCUT    max X(q) W(low)/X(q) W(high)/X(q)  e(spline)
   1      8    11.527     2.974    0.44E-04    0.56E-04    0.12E-06
   1      8    11.527     4.279    0.12E-03    0.12E-03    0.26E-06
   0      9    11.527    16.381    0.46E-04    0.64E-04    0.78E-07
   0      9    11.527     5.611    0.26E-04    0.43E-04    0.55E-07
   2      8    11.527     4.652    0.22E-03    0.72E-04    0.47E-07
 Optimization of the real space projectors (new method)

 maximal supplied QI-value         = 24.76
 optimisation between [QCUT,QGAM] = [ 11.64, 23.27] = [ 37.91,151.63] Ry
 Optimized for a Real-space Cutoff    1.14 Angstroem

   l    n(q)    QCUT    max X(q) W(low)/X(q) W(high)/X(q)  e(spline)
   0      8    11.635    20.381    0.10E-03    0.33E-03    0.24E-06
   0      8    11.635    15.268    0.11E-03    0.35E-03    0.26E-06
   1      7    11.635     5.964    0.24E-03    0.31E-03    0.30E-06
   1      7    11.635     5.382    0.22E-03    0.25E-03    0.26E-06
|               ----> ADVICE to this user running VASP <----                  |
|     You enforced a specific xc type in the INCAR file but a different       |
|     type was found in the POTCAR file.                                      |
|     I HOPE YOU KNOW WHAT YOU ARE DOING!                                     |

  PAW_PBE Mg_pv 13Apr2007               :
  PAW_PBE O 08Apr2002                   :

 POSCAR: Mg  O
  positions in direct lattice
 exchange correlation table for  LEXCH =       12
   RHO(1)=    0.500       N(1)  =     2000
   RHO(2)=  100.500       N(2)  =     4000

 ion  position               nearest neighbor table
   1  0.125  0.000  0.352- 131 2.10 132 2.10 148 2.10 171 2.10 129 2.10
   2  0.250  0.125  0.352- 131 2.10 132 2.10 140 2.10 147 2.10 130 2.10
   3  0.125  0.125  0.451- 129 2.10 130 2.10 137 2.10 146 2.10 131 2.10 135 2.10
   4  0.250  0.000  0.451- 129 2.10 130 2.10 145 2.10 170 2.10 132 2.10 136 2.10
   5  0.125  1.000  0.550- 136 2.10 135 2.10 175 2.10 152 2.10 129 2.11 133 2.13
   6  0.250  0.125  0.549- 144 2.10 151 2.10 135 2.10 136 2.10 130 2.10 134 2.13
   7  0.125  0.125  0.647- 135 2.09 134 2.10 150 2.10 141 2.10 133 2.10
   8  0.250  1.000  0.647- 136 2.09 134 2.10 149 2.10 174 2.10 133 2.10
   9  0.125  0.250  0.352- 131 2.10 139 2.10 140 2.10 156 2.10 137 2.10
  10  0.250  0.375  0.352- 139 2.10 140 2.10 155 2.10 164 2.10 138 2.10
  11  0.125  0.375  0.451- 137 2.10 138 2.10 154 2.10 161 2.10 139 2.10 143 2.10
  12  0.250  0.250  0.451- 144 2.10 137 2.10 138 2.10 130 2.10 153 2.10 140 2.10
  13  0.125  0.250  0.550- 144 2.10 160 2.10 143 2.10 135 2.10 137 2.11 141 2.13
  14  0.250  0.375  0.550- 159 2.08 144 2.10 168 2.10 143 2.11 138 2.11 142 2.15
  15  0.125  0.375  0.647- 143 2.08 142 2.09 158 2.10 141 2.11 165 2.11
  16  0.250  0.250  0.647- 144 2.08 157 2.08 141 2.10 134 2.10 142 2.11
  17  0.375  0.000  0.352- 132 2.10 147 2.10 187 2.10 212 2.10 145 2.10
  18  0.000  0.125  0.352- 131 2.10 148 2.10 156 2.10 211 2.10 146 2.10
  19  0.375  0.125  0.451- 151 2.10 145 2.10 130 2.10 153 2.10 210 2.10 147 2.10
  20  0.000  0.000  0.451- 129 2.10 146 2.10 186 2.10 209 2.10 148 2.10 152 2.10
  21  0.375  1.000  0.550- 151 2.10 191 2.10 216 2.10 136 2.10 145 2.11 149 2.13
  22  0.000  0.125  0.550- 135 2.10 215 2.10 152 2.10 160 2.10 146 2.11 150 2.13
  23  0.375  0.125  0.646- 151 2.07 157 2.08 149 2.10 134 2.10 214 2.11
  24  0.000  1.000  0.647- 152 2.09 133 2.10 213 2.10 190 2.10 150 2.10
  25  0.375  0.250  0.352- 140 2.10 147 2.10 155 2.10 220 2.10 153 2.10
  26  0.000  0.375  0.352- 139 2.10 156 2.10 180 2.10 219 2.10 154 2.10
  27  0.375  0.375  0.451- 138 2.10 153 2.10 177 2.10 218 2.10 155 2.10 159 2.11
  28  0.000  0.250  0.451- 137 2.10 146 2.10 154 2.10 217 2.10 156 2.10 160 2.10
  29  0.376  0.250  0.550- 159 2.09 224 2.09 157 2.10 151 2.12 144 2.12 153 2.12
  30  0.000  0.375  0.550- 223 2.10 143 2.10 160 2.10 184 2.10 154 2.11 158 2.13
  31  0.375  0.374  0.650- 222 2.09 157 2.11 142 2.13 181 2.14 159 2.14
  32  0.000  0.250  0.647- 160 2.09 221 2.10 141 2.10 150 2.10 158 2.10
  33  0.125  0.500  0.352- 139 2.10 163 2.10 164 2.10 180 2.10 161 2.10
  34  0.250  0.625  0.352- 163 2.10 164 2.10 172 2.10 179 2.10 162 2.10
  35  0.125  0.625  0.451- 161 2.10 162 2.10 169 2.10 178 2.10 163 2.10 167 2.10
  36  0.250  0.500  0.451- 168 2.10 161 2.10 162 2.10 138 2.10 177 2.10 164 2.10
  37  0.125  0.500  0.550- 168 2.10 184 2.10 143 2.10 167 2.10 161 2.11 165 2.13
  38  0.250  0.625  0.549- 176 2.10 168 2.10 183 2.10 167 2.10 162 2.10 166 2.13
  39  0.125  0.625  0.647- 167 2.09 166 2.10 182 2.10 165 2.10 173 2.10
  40  0.250  0.500  0.646- 168 2.07 181 2.08 165 2.10 166 2.10 142 2.11
  41  0.125  0.750  0.352- 163 2.10 171 2.10 172 2.10 188 2.10 169 2.10
  42  0.250  0.875  0.352- 132 2.10 171 2.10 172 2.10 187 2.10 170 2.10
  43  0.125  0.875  0.451- 129 2.10 169 2.10 170 2.10 186 2.10 171 2.10 175 2.10
  44  0.250  0.750  0.451- 162 2.10 169 2.10 170 2.10 185 2.10 172 2.10 176 2.10
  45  0.125  0.750  0.550- 167 2.10 176 2.10 192 2.10 175 2.10 169 2.11 173 2.13
  46  0.250  0.875  0.550- 136 2.10 176 2.10 175 2.10 191 2.10 170 2.11 174 2.13
  47  0.125  0.875  0.647- 175 2.09 133 2.10 173 2.10 190 2.10 174 2.10
  48  0.250  0.750  0.647- 176 2.09 166 2.10 174 2.10 189 2.10 173 2.10
  49  0.375  0.500  0.352- 155 2.10 164 2.10 179 2.10 244 2.10 177 2.10
  50  0.000  0.625  0.352- 163 2.10 180 2.10 188 2.10 243 2.10 178 2.10
  51  0.375  0.625  0.451- 162 2.10 177 2.10 185 2.10 242 2.10 179 2.10 183 2.10
  52  0.000  0.500  0.451- 154 2.10 161 2.10 178 2.10 241 2.10 180 2.10 184 2.10
  53  0.375  0.499  0.550- 248 2.09 159 2.09 181 2.10 168 2.12 183 2.12 177 2.12
  54  1.000  0.625  0.550- 247 2.10 167 2.10 192 2.10 184 2.10 178 2.11 182 2.13
  55  0.375  0.625  0.647- 183 2.07 181 2.08 189 2.10 166 2.10 246 2.11
  56  1.000  0.500  0.647- 184 2.09 245 2.10 165 2.10 182 2.10 158 2.10
  57  0.375  0.750  0.352- 172 2.10 179 2.10 187 2.10 252 2.10 185 2.10
  58  0.000  0.875  0.352- 148 2.10 171 2.10 188 2.10 251 2.10 186 2.10
  59  0.375  0.875  0.451- 145 2.10 170 2.10 185 2.10 250 2.10 187 2.10 191 2.10
  60  0.000  0.750  0.451- 169 2.10 178 2.10 186 2.10 249 2.10 188 2.10 192 2.10
[...]
 242  0.500  0.625  0.451-  51 2.10  99 2.10 116 2.10 124 2.10 114 2.10 118 2.11
 243  0.875  0.625  0.352-  50 2.10  98 2.10 113 2.10 121 2.10 115 2.10
 244  0.500  0.500  0.352-  49 2.10  90 2.10  97 2.10 114 2.10 116 2.10
 245  0.875  0.500  0.650-  56 2.10 119 2.10 104 2.10  95 2.11 117 2.13
 246  0.500  0.626  0.651- 128 2.09 103 2.11  55 2.11 120 2.13 118 2.16
 247  0.875  0.625  0.549- 119 2.09  54 2.10 125 2.10 102 2.10 115 2.10 117 2.10
 248  0.500  0.501  0.550- 118 2.08  53 2.09 101 2.09 116 2.11  94 2.11 120 2.13
 249  0.875  0.750  0.451-  60 2.10 108 2.10 115 2.10 123 2.10 121 2.10 125 2.11
 250  0.500  0.875  0.451-  59 2.10  84 2.10 107 2.10 124 2.10 122 2.10 126 2.11
 251  0.875  0.875  0.352-  58 2.10  81 2.10 106 2.10 121 2.10 123 2.10
 252  0.500  0.750  0.352-  57 2.10 105 2.10 114 2.10 122 2.10 124 2.10
 253  0.875  0.750  0.650-  64 2.10 127 2.10 112 2.10 119 2.10 125 2.13
 254  0.500  0.875  0.650- 128 2.10  88 2.10 111 2.10  63 2.10 126 2.13
 255  0.875  0.875  0.549- 127 2.09  62 2.10  85 2.10 125 2.10 110 2.10 123 2.10
 256  0.500  0.750  0.550- 128 2.08  61 2.10 109 2.10 126 2.10 124 2.11 118 2.11

IMPORTANT INFORMATION: All symmetrisations will be switched off!
NOSYMM: (Re-)initialisation of all symmetry stuff for point group C_1.

                                     Primitive cell

  volume of cell :    6019.7037

  direct lattice vectors                    reciprocal lattice vectors
    16.809723990  0.000000000  0.000000000     0.059489377  0.000000000  0.000000000
     0.000000000 16.809723990  0.000000000     0.000000000  0.059489377  0.000000000
     0.000000000  0.000000000 21.303646496     0.000000000  0.000000000  0.046940321

  length of vectors
    16.809723990 16.809723990 21.303646496     0.059489377  0.059489377  0.046940321

  position of ions in fractional coordinates (direct lattice)
     0.125000000  0.000000000  0.352052406
     0.250000000  0.125000000  0.352052406
     0.125000000  0.125000000  0.450684135
     0.250000000  0.000000000  0.450684135
     0.124984140  0.999978861  0.549671901
     0.249913573  0.124978801  0.549448337
     0.124921945  0.124871556  0.647315951
     0.249863735  0.999913729  0.647311719
     0.125000000  0.250000000  0.352052406
     0.250000000  0.375000000  0.352052406
     0.125000000  0.375000000  0.450684135
     0.250000000  0.250000000  0.450684135
     0.124941955  0.250032632  0.549567895
     0.250402639  0.374961324  0.549795126
     0.124865275  0.375023887  0.647272401
     0.249864603  0.249625822  0.646719859
     0.375000000  0.000000000  0.352052406
     0.000000000  0.125000000  0.352052406
     0.375000000  0.125000000  0.450684135
     0.000000000  0.000000000  0.450684135
     0.375013683  0.999885038  0.549512382
     0.000005048  0.124959673  0.549664161
     0.374616305  0.124859420  0.646315080
     0.000007258  0.999940803  0.647378734
     0.375000000  0.250000000  0.352052406
     0.000000000  0.375000000  0.352052406
     0.375000000  0.375000000  0.450684135
     0.000000000  0.250000000  0.450684135
     0.375548942  0.250438107  0.550164960
     0.000003145  0.374999406  0.549651328
     0.375461844  0.374327286  0.650082616
     0.000013682  0.249894865  0.647310600
     0.125000000  0.500000000  0.352052406
     0.250000000  0.625000000  0.352052406
     0.125000000  0.625000000  0.450684135
     0.250000000  0.500000000  0.450684135
     0.124864034  0.499991627  0.549503230
     0.249965927  0.625104047  0.549439641
     0.124892512  0.625152647  0.647307960
     0.249822721  0.500444179  0.646273300
     0.125000000  0.750000000  0.352052406
     0.250000000  0.875000000  0.352052406
[...]
   4.20185824 10.50782650 11.70506788
   2.09940865 10.50864345 13.79001996
   4.19945098  8.41232852 13.76797793
   2.10121550 12.60729299  7.50000000
   4.20243100 14.70850849  7.50000000
   2.10121550 14.70850849  9.60121550
   4.20243100 12.60729299  9.60121550
   2.10078182 12.60765318 11.70998557
   4.20168714 14.70851988 11.70983432
   2.10015447 14.70852972 13.79131009
   4.20018515 12.60878248 13.79009510
   6.30364650  8.40486199  7.50000000
   0.00000000 10.50607749  7.50000000
   6.30364650 10.50607749  9.60121550
   0.00000000  8.40486199  9.60121550
   6.31042940  8.39635446 11.71950921
  16.80962499 10.50682549 11.70976491
   6.29702434 10.50880097 13.77755526
  16.80949872  8.40680566 13.79025480
   6.30364650 12.60729299  7.50000000
   0.00000000 14.70850849  7.50000000
   6.30364650 14.70850849  9.60121550
   0.00000000 12.60729299  9.60121550
[...]
   8.40486199 10.50607749  9.60121550
  14.70850849 10.50607749  7.50000000
   8.40486199  8.40486199  7.50000000
  14.71178956  8.40814896 13.83935659
   8.40752975 10.52258943 13.87122992
  14.71081112 10.50747341 11.70371210
   8.40392223  8.41505378 11.70969504
  14.70850849 12.60729299  9.60121550
   8.40486199 14.70850849  9.60121550
  14.70850849 14.70850849  7.50000000
   8.40486199 12.60729299  7.50000000
  14.71092392 12.60970383 13.83988181
   8.40490503 14.70842103 13.84111510
  14.70920367 14.70860041 11.70475326
   8.40503224 12.60717385 11.70667694

--------------------------------------- Iteration      FINAL  ---------------------------------------

--------------------OUTCAR has been truncated-------------------------

[...]

--------------------OUTCAR has been truncated-------------------------

  DFT-D2 method for vdW energy calculation

  Parameters of vdW forcefield:
         C6(Jnm^6/mol)     R0(A)
   Mg       0.630          1.243
   O        0.700          1.342

  vdW correction parametrized for the method cü      

  IVDW =   1
  VDW_RADIUS =    50.000 A
  VDW_S6 =     1.050
  VDW_SR =     1.000
  VDW_D =    20.000
  LVDW_EWALD = F

  Number of pair interactions contributing to vdW energy: 2891126
  Edisp (eV):  -20.70802

 VOLUME and BASIS-vectors are now :
  energy-cutoff  :      520.00
  volume of cell :     6019.70
      direct lattice vectors                 reciprocal lattice vectors
    16.809723990  0.000000000  0.000000000     0.059489377  0.000000000  0.000000000
     0.000000000 16.809723990  0.000000000     0.000000000  0.059489377  0.000000000
     0.000000000  0.000000000 21.303646496     0.000000000  0.000000000  0.046940321

  length of vectors
    16.809723990 16.809723990 21.303646496     0.059489377  0.059489377  0.046940321

 FORCES acting on ions:
    Electron-Ion                     Ewald-Force                    Non-Local-Force
   -.235E+00 -.237E+00 0.209E+04   0.224E+00 0.225E+00 -.209E+04   0.820E-02 0.809E-02 -.642E+01
   -.649E+00 -.671E+00 0.209E+04   0.638E+00 0.661E+00 -.208E+04   0.779E-02 0.718E-02 -.640E+01
   -.498E+00 -.660E+00 0.694E+03   0.444E+00 0.624E+00 -.695E+03   0.357E-01 0.249E-01 0.336E+00
   -.563E+00 -.487E+00 0.694E+03   0.523E+00 0.434E+00 -.695E+03   0.271E-01 0.352E-01 0.336E+00
   -.295E+00 -.311E+00 -.697E+03   0.271E+00 0.287E+00 0.697E+03   0.106E-01 0.117E-01 -.253E+00
   -.159E+01 -.176E+01 -.694E+03   0.143E+01 0.163E+01 0.694E+03   0.103E+00 0.762E-01 -.171E+00
   -.333E-01 -.121E+01 -.208E+04   0.496E-01 0.121E+01 0.207E+04   -.357E-01 -.466E-02 0.541E+01
   -.117E+01 0.114E-01 -.208E+04   0.119E+01 0.126E-01 0.207E+04   -.191E-01 -.416E-01 0.541E+01
   -.551E+00 -.362E+00 0.209E+04   0.544E+00 0.354E+00 -.208E+04   0.519E-02 0.550E-02 -.641E+01
   -.105E+01 0.375E-01 0.209E+04   0.104E+01 -.373E-01 -.208E+04   0.487E-02 0.104E-03 -.641E+01
   -.140E+01 0.156E+00 0.693E+03   0.142E+01 -.157E+00 -.693E+03   -.109E-01 0.106E-03 0.378E+00
   -.270E+01 -.138E+01 0.693E+03   0.270E+01 0.140E+01 -.693E+03   0.538E-02 -.143E-01 0.356E+00
   -.618E+00 -.128E+01 -.697E+03   0.589E+00 0.127E+01 0.697E+03   -.468E-02 -.749E-02 -.234E+00
   -.220E+01 0.116E+00 -.704E+03   0.233E+01 -.149E+00 0.704E+03   -.204E+00 0.308E-01 0.150E+00
   -.212E+00 0.276E-01 -.208E+04   0.290E+00 -.276E-02 0.207E+04   -.104E+00 -.154E-01 0.530E+01
   0.681E+00 -.399E+01 -.207E+04   -.989E+00 0.379E+01 0.206E+04   0.101E+00 0.180E+00 0.538E+01
   -.371E+00 -.528E+00 0.209E+04   0.363E+00 0.519E+00 -.208E+04   0.528E-02 0.626E-02 -.641E+01
   -.334E-01 -.315E+00 0.209E+04   0.339E-01 0.300E+00 -.209E+04   -.303E-03 0.105E-01 -.642E+01
   -.139E+01 -.277E+01 0.693E+03   0.141E+01 0.277E+01 -.694E+03   -.127E-01 0.578E-02 0.330E+00
   -.442E-01 -.227E+00 0.694E+03   0.445E-01 0.213E+00 -.695E+03   -.196E-03 0.979E-02 0.349E+00
   -.125E+01 -.485E+00 -.696E+03   0.124E+01 0.427E+00 0.696E+03   -.290E-02 0.213E-01 -.218E+00
   -.107E+00 -.880E+00 -.697E+03   0.110E+00 0.824E+00 0.698E+03   -.140E-02 0.413E-01 -.243E+00
   -.381E+01 0.548E+00 -.207E+04   0.365E+01 -.792E+00 0.206E+04   0.139E+00 0.524E-01 0.533E+01
   -.523E-01 -.616E+00 -.208E+04   0.551E-01 0.592E+00 0.207E+04   -.206E-02 0.178E-01 0.543E+01
   -.760E+00 -.776E+00 0.209E+04   0.757E+00 0.772E+00 -.208E+04   0.244E-02 0.243E-02 -.641E+01
   -.241E-01 0.167E-01 0.209E+04   0.241E-01 -.156E-01 -.208E+04   -.149E-04 -.111E-02 -.641E+01
   -.320E+01 0.458E-01 0.689E+03   0.318E+01 -.548E-01 -.690E+03   0.195E-01 0.544E-02 0.490E+00
   -.148E+00 -.543E+00 0.694E+03   0.156E+00 0.514E+00 -.695E+03   -.456E-02 0.193E-01 0.349E+00
   -.256E+01 -.249E+01 -.701E+03   0.271E+01 0.264E+01 0.701E+03   -.202E+00 -.204E+00 -.401E+00
   -.115E+00 0.558E-01 -.698E+03   0.114E+00 -.540E-01 0.698E+03   0.191E-02 -.190E-03 -.262E+00
   0.201E+01 -.270E+01 -.210E+04   -.316E+01 0.253E+01 0.209E+04   0.614E+00 0.228E+00 0.622E+01
   -.177E-01 -.118E+01 -.208E+04   0.165E-02 0.114E+01 0.207E+04   0.111E-01 0.392E-01 0.540E+01
   -.537E+00 0.391E+00 0.209E+04   0.528E+00 -.383E+00 -.208E+04   0.663E-02 -.611E-02 -.641E+01
   -.687E+00 0.636E+00 0.209E+04   0.676E+00 -.624E+00 -.208E+04   0.754E-02 -.846E-02 -.640E+01
   -.496E+00 0.534E+00 0.695E+03   0.443E+00 -.493E+00 -.695E+03   0.354E-01 -.268E-01 0.330E+00
   -.276E+01 0.142E+01 0.693E+03   0.275E+01 -.144E+01 -.694E+03   0.959E-02 0.111E-01 0.319E+00
   -.550E+00 0.137E+01 -.696E+03   0.498E+00 -.136E+01 0.696E+03   0.201E-01 0.311E-02 -.222E+00
   -.192E+01 0.156E+01 -.694E+03   0.178E+01 -.140E+01 0.694E+03   0.861E-01 -.108E+00 -.178E+00
   -.128E+00 0.117E+01 -.208E+04   0.155E+00 -.120E+01 0.207E+04   -.408E-01 0.235E-01 0.541E+01
   0.407E+00 0.412E+01 -.207E+04   -.626E+00 -.399E+01 0.206E+04   0.414E-01 -.127E+00 0.531E+01
   -.247E+00 0.207E+00 0.209E+04   0.236E+00 -.196E+00 -.209E+04   0.733E-02 -.755E-02 -.642E+01
   -.328E+00 -.768E-03 0.209E+04   0.314E+00 -.347E-03 -.209E+04   0.996E-02 0.998E-03 -.642E+01
   -.237E+00 -.261E-01 0.694E+03   0.224E+00 0.249E-01 -.695E+03   0.920E-02 0.567E-03 0.337E+00
   -.687E+00 0.438E+00 0.694E+03   0.652E+00 -.384E+00 -.695E+03   0.237E-01 -.349E-01 0.335E+00
   -.393E+00 0.222E+00 -.697E+03   0.366E+00 -.203E+00 0.697E+03   0.148E-01 -.832E-02 -.253E+00
   -.909E+00 0.540E-01 -.697E+03   0.857E+00 -.563E-01 0.698E+03   0.405E-01 0.106E-02 -.244E+00
   -.676E+00 0.199E-01 -.208E+04   0.651E+00 -.209E-01 0.207E+04   0.176E-01 0.129E-03 0.542E+01
   -.123E+01 -.914E-02 -.208E+04   0.124E+01 -.164E-01 0.207E+04   -.106E-01 0.407E-01 0.541E+01
   -.791E+00 0.774E+00 0.209E+04   0.787E+00 -.770E+00 -.208E+04   0.232E-02 -.277E-02 -.641E+01
   -.139E-01 0.317E+00 0.209E+04   0.136E-01 -.302E+00 -.209E+04   0.199E-03 -.959E-02 -.642E+01
   -.140E+01 0.264E+01 0.693E+03   0.143E+01 -.263E+01 -.693E+03   -.158E-01 -.959E-02 0.354E+00
   0.447E-01 0.601E+00 0.694E+03   -.513E-01 -.570E+00 -.694E+03   0.372E-02 -.208E-01 0.360E+00
   -.266E+01 0.260E+01 -.700E+03   0.280E+01 -.272E+01 0.701E+03   -.188E+00 0.182E+00 -.427E+00
   -.627E-01 0.845E+00 -.697E+03   0.581E-01 -.794E+00 0.698E+03   0.447E-02 -.385E-01 -.241E+00
   -.436E+01 -.606E+00 -.207E+04   0.419E+01 0.882E+00 0.206E+04   0.160E+00 -.790E-01 0.537E+01
   -.154E+00 0.123E+01 -.208E+04   0.169E+00 -.118E+01 0.207E+04   -.732E-02 -.392E-01 0.541E+01
   -.373E+00 0.528E+00 0.209E+04   0.365E+00 -.520E+00 -.208E+04   0.618E-02 -.558E-02 -.641E+01
   -.207E-01 -.186E-01 0.209E+04   0.208E-01 0.179E-01 -.209E+04   -.357E-04 0.136E-03 -.642E+01
   -.562E+00 0.911E-01 0.694E+03   0.532E+00 -.989E-01 -.695E+03   0.194E-01 0.440E-02 0.346E+00
   -.378E-01 0.173E+00 0.694E+03   0.378E-01 -.160E+00 -.695E+03   0.485E-04 -.850E-02 0.339E+00
[...]
   0.254E+00 0.302E+00 0.157E+04   -.245E+00 -.293E+00 -.158E+04   -.113E-01 -.107E-01 0.312E+01
   0.201E-01 0.693E+00 0.157E+04   -.200E-01 -.687E+00 -.157E+04   -.195E-03 -.705E-02 0.312E+01
   0.116E+01 0.123E+01 -.158E+04   -.116E+01 -.129E+01 0.159E+04   -.229E-01 0.507E-01 -.485E+01
   -.241E+00 0.640E+01 -.159E+04   0.331E+00 -.624E+01 0.159E+04   -.113E+00 -.389E+00 -.500E+01
   0.425E+00 0.874E+00 -.517E+03   -.414E+00 -.892E+00 0.517E+03   -.244E-01 0.534E-02 0.185E+00
   -.312E+00 0.359E+01 -.525E+03   0.342E+00 -.362E+01 0.525E+03   -.250E-01 -.101E+00 0.191E+00
   0.142E+00 0.144E+00 0.520E+03   -.136E+00 -.138E+00 -.520E+03   -.603E-02 -.750E-02 -.108E+00
   0.410E-01 0.202E-01 0.520E+03   -.409E-01 -.213E-01 -.520E+03   -.403E-04 0.220E-02 -.668E-01
   0.124E+00 -.129E-01 0.157E+04   -.118E+00 0.125E-01 -.158E+04   -.715E-02 0.448E-03 0.311E+01
   0.332E-01 0.453E+00 0.157E+04   -.337E-01 -.451E+00 -.157E+04   0.648E-03 -.333E-02 0.312E+01
   0.491E+00 0.501E+00 -.158E+04   -.502E+00 -.520E+00 0.159E+04   0.465E-02 0.105E-01 -.476E+01
   0.392E-01 -.941E-01 -.158E+04   -.394E-01 0.961E-01 0.159E+04   0.280E-04 0.510E-02 -.481E+01
   0.244E+00 -.127E-01 -.517E+03   -.242E+00 0.116E-01 0.517E+03   -.394E-02 0.330E-02 0.216E+00
   0.133E+00 0.251E+01 -.518E+03   -.129E+00 -.257E+01 0.518E+03   -.466E-02 0.290E-01 0.257E+00
   -.377E-01 -.156E+00 0.768E+02   0.271E-11 0.809E-12 -.364E-11   0.384E-01 0.135E+00 -.676E+02

 POSITION                                       TOTAL-FORCE (eV/Angst)
      2.10122      0.00000      7.50000        -0.002244     -0.002721      0.408382
      4.20243      2.10122      7.50000        -0.002548     -0.002052      0.402193
      2.10122      2.10122      9.60122        -0.014294     -0.008694      0.022886
      4.20243      0.00000      9.60122        -0.010116     -0.013586      0.024205
      2.10095     16.80937     11.71002        -0.011204     -0.010595      0.029784
      4.20098      2.10086     11.70525        -0.037647     -0.038844      0.030738
      2.09990      2.09906     13.79019        -0.020687     -0.005046      0.077599
      4.20014     16.80827     13.79010        -0.000616     -0.019531      0.081343
      2.10122      4.20243      7.50000        -0.001504     -0.001670      0.404877
      4.20243      6.30365      7.50000        -0.001668     -0.000305      0.406051
      2.10122      6.30365      9.60122         0.008502     -0.000534      0.028514
      4.20243      4.20243      9.60122         0.005934      0.006450      0.020757
      2.10024      4.20298     11.70780        -0.031619     -0.012562      0.043734
      4.20920      6.30300     11.71264        -0.088652      0.001188      0.017399
      2.09895      6.30405     13.78926        -0.032237      0.007234      0.138671
      4.20016      4.19614     13.77749        -0.183364     -0.005513      0.165182
      6.30365      0.00000      7.50000        -0.002128     -0.002118      0.404532
      0.00000      2.10122      7.50000         0.000097     -0.002938      0.408169
      6.30365      2.10122      9.60122         0.005597      0.004805      0.014306
      0.00000      0.00000      9.60122         0.000035     -0.003301      0.033967
      6.30388     16.80779     11.70662        -0.013401     -0.031137      0.048712
      0.00008      2.10054     11.70985         0.000757     -0.009711      0.031354
      6.29720      2.09885     13.76887        -0.004219     -0.173412      0.228052
      0.00012     16.80873     13.79153         0.000540     -0.005060      0.075171
      6.30365      4.20243      7.50000        -0.001236     -0.000900      0.404142
      0.00000      6.30365      7.50000         0.000011     -0.000118      0.403592
      6.30365      6.30365      9.60122         0.001022     -0.002638      0.011527
      0.00000      4.20243      9.60122         0.002724     -0.007360      0.021054
      6.31287      4.20980     11.72052        -0.071566     -0.068396     -0.136556
      0.00005      6.30364     11.70958         0.000815      0.001248      0.044825
      6.31141      6.29234     13.84913        -0.439503      0.074997     -0.492751
      0.00023      4.20066     13.79008        -0.003633      0.000678      0.088569
      2.10122      8.40486      7.50000        -0.001715      0.001922      0.404660
      4.20243     10.50608      7.50000        -0.002480      0.003053      0.402310
      2.10122     10.50608      9.60122        -0.013411      0.010315      0.023266
      4.20243      8.40486      9.60122         0.002586     -0.005281      0.015222
      2.09893      8.40472     11.70642        -0.027771      0.013241      0.051715
      4.20186     10.50783     11.70507        -0.035260      0.036373      0.033239
      2.09941     10.50864     13.79002        -0.015918     -0.002042      0.080065
      4.19945      8.41233     13.76798        -0.162305     -0.010012      0.237820
      2.10122     12.60729      7.50000        -0.002184      0.002533      0.408729
      4.20243     14.70851      7.50000        -0.003269     -0.000629      0.408518
      2.10122     14.70851      9.60122        -0.002921     -0.000394      0.031177
      4.20243     12.60729      9.60122        -0.008548      0.014502      0.023837
      2.10078     12.60765     11.70999        -0.009878      0.009587      0.028870
      4.20169     14.70852     11.70983        -0.007780     -0.001107      0.030805
      2.10015     14.70853     13.79131        -0.004656     -0.000740      0.074185
      4.20019     12.60878     13.79010        -0.001154      0.017289      0.079858
      6.30365      8.40486      7.50000        -0.001381      0.001082      0.403745
      0.00000     10.50608      7.50000        -0.000059      0.003633      0.408472
      6.30365     10.50608      9.60122         0.006738     -0.003505      0.021473
      0.00000      8.40486      9.60122        -0.002334      0.007880      0.022064
      6.31043      8.39635     11.71951        -0.065469      0.073418     -0.127614
     16.80962     10.50683     11.70976         0.000312      0.008318      0.031746
      6.29702     10.50880     13.77756         0.005761      0.176551      0.172371
     16.80950      8.40681     13.79025         0.005873     -0.000423      0.088791
      6.30365     12.60729      7.50000        -0.002196      0.001891      0.405254
      0.00000     14.70851      7.50000         0.000008     -0.000538      0.409218
      6.30365     14.70851      9.60122        -0.007656     -0.002613      0.020210
      0.00000     12.60729      9.60122         0.000026      0.002908      0.032157
[...]
      8.40486     10.50608      9.60122        -0.001570     -0.009098      0.040939
     14.70851     10.50608      7.50000        -0.003772     -0.003461     -0.496490
      8.40486      8.40486      7.50000        -0.000046     -0.002300     -0.499436
     14.71179      8.40815     13.83936        -0.028094     -0.006235     -0.078678
      8.40753     10.52259     13.87123        -0.039165     -0.297024     -0.198491
     14.71081     10.50747     11.70371        -0.017007     -0.012218     -0.042503
      8.40392      8.41505     11.70970         0.001969     -0.145962      0.154310
     14.70851     12.60729      9.60122        -0.001191     -0.002225      0.023741
      8.40486     14.70851      9.60122        -0.000025      0.001215      0.036882
     14.70851     14.70851      7.50000        -0.002360      0.000108     -0.499276
      8.40486     12.60729      7.50000         0.000222     -0.001017     -0.495005
     14.71092     12.60970     13.83988        -0.006257     -0.007058     -0.048938
      8.40491     14.70842     13.84112        -0.000142      0.008153     -0.068021
     14.70920     14.70860     11.70475        -0.002453      0.002303     -0.038871
      8.40503     12.60717     11.70668        -0.000926     -0.023532     -0.043215
    total drift:                                0.001076     -0.001903     -0.066954

  FREE ENERGIE OF THE ION-ELECTRON SYSTEM (eV)
  free  energy   TOTEN  =     -1754.76939024 eV

  energy  without entropy=    -1754.76939024  energy(sigma->0) =    -1754.76939024