 vasp.6.3.0 20Jan22 (build Apr  1 2022 16:44:48) complex
 executed on        HPECrayEX_GCC date 2023.02.14  20:34:46

 INCAR:
   SYSTEM = MgO-rocksalt
   ISMEAR = 0
   SIGMA = 0.05
   EDIFF = 1E-7
   ALGO = ALL
   ISTART = 0
   IBRION = 2
   NSW = 1000
   ISYM = 0
   ISIF = 2
   EDIFFG = -0.01
   DIPOL = 0.5 0.5 0.5
   IDIPOL = 3
   LDIPOL = .TRUE.
   GGA = RE
   AGGAC = 0.0
   LUSE_VDW = .TRUE.
   LASPH = .TRUE.
   ENCUT = 520
   PREC = Accurate
   LASPH = .TRUE.
   LREAL = Auto
   ISPIN = 1
   NELM = 200
   NELMIN = 8
   NCORE = 8
   KPAR = 1
   LWAVE = .FALSE.
   LCHARG = .FALSE.

 POTCAR:    PAW_PBE C 08Apr2002
 POTCAR:    PAW_PBE O 08Apr2002
 POTCAR:    PAW_PBE H 15Jun2001
 POTCAR:    PAW_PBE Mg 13Apr2007
 POTCAR:    PAW_PBE O 08Apr2002
|               ----> ADVICE to this user running VASP <----                  |
|     You have switched on vdW-DFT.                                           |
|     This routine was written and supplied by Jiri Klimes. We recommend      |
|     that you carefully read and cite the following publications:            |
|       J. Klimes, D.R. Bowler, A. Michelides                                 |
|          J. Phys.: Cond Matt. 22 022201 (2010)                              |
|       J. Klimes, D.R. Bowler, A. Michelides                                 |
|          Phys. Rev. B. 83, 195131 (2011)                                    |
|     and references therein.                                                 |

   TITEL  = PAW_PBE C 08Apr2002
   POMASS =   12.011; ZVAL   =    4.000    mass and valenz
   ENMAX  =  400.000; ENMIN  =  300.000 eV

[...]

   TITEL  = PAW_PBE H 15Jun2001
   POMASS =    1.000; ZVAL   =    1.000    mass and valenz
   ENMAX  =  250.000; ENMIN  =  200.000 eV

[...]

   TITEL  = PAW_PBE O 08Apr2002
   POMASS =   16.000; ZVAL   =    6.000    mass and valenz
   ENMAX  =  400.000; ENMIN  =  300.000 eV

 Optimization of the real space projectors (new method)

 maximal supplied QI-value         = 25.13
 optimisation between [QCUT,QGAM] = [ 11.56, 23.12] = [ 37.43,149.72] Ry
 Optimized for a Real-space Cutoff    1.04 Angstroem

   l    n(q)    QCUT    max X(q) W(low)/X(q) W(high)/X(q)  e(spline)
   0      7    11.561   115.676    0.20E-03    0.60E-03    0.21E-06
   0      7    11.561    87.132    0.20E-03    0.59E-03    0.21E-06
   1      7    11.561     4.429    0.23E-03    0.35E-03    0.15E-06
   1      7    11.561     2.733    0.18E-03    0.25E-03    0.12E-06
 Optimization of the real space projectors (new method)

[...]

   l    n(q)    QCUT    max X(q) W(low)/X(q) W(high)/X(q)  e(spline)
   0      9    11.527    28.265    0.62E-04    0.53E-04    0.73E-07
   0      9    11.527    10.429    0.52E-04    0.40E-04    0.58E-07
   1      8    11.527    13.073    0.98E-04    0.18E-03    0.86E-07
   1      8    11.527     9.625    0.79E-04    0.15E-03    0.74E-07
   2      8    11.527     4.652    0.22E-03    0.72E-04    0.47E-07
 Optimization of the real space projectors (new method)

 maximal supplied QI-value         = 24.76
 optimisation between [QCUT,QGAM] = [ 11.64, 23.27] = [ 37.91,151.63] Ry
 Optimized for a Real-space Cutoff    1.14 Angstroem

   l    n(q)    QCUT    max X(q) W(low)/X(q) W(high)/X(q)  e(spline)
   0      8    11.635    20.381    0.10E-03    0.33E-03    0.24E-06
   0      8    11.635    15.268    0.11E-03    0.35E-03    0.26E-06
   1      7    11.635     5.964    0.24E-03    0.31E-03    0.30E-06
   1      7    11.635     5.382    0.22E-03    0.25E-03    0.26E-06
|               ----> ADVICE to this user running VASP <----                  |
|     You enforced a specific xc type in the INCAR file but a different       |
|     type was found in the POTCAR file.                                      |
|     I HOPE YOU KNOW WHAT YOU ARE DOING!                                     |

  PAW_PBE C 08Apr2002                   :
  PAW_PBE O 08Apr2002                   :
  PAW_PBE H 15Jun2001                   :
  PAW_PBE Mg 13Apr2007                  :
  PAW_PBE O 08Apr2002                   :

 POSCAR:  C  O  H Mg  O
  positions in direct lattice
 exchange correlation table for  LEXCH =       40
   RHO(1)=    0.500       N(1)  =     2000
   RHO(2)=  100.500       N(2)  =     4000

 ion  position               nearest neighbor table
   1  0.528  0.555  0.792-  12 1.10  11 1.10   9 1.10   5 1.44
   2  0.322  0.402  0.793-  16 1.10  15 1.10  13 1.10   6 1.44
   3  0.475  0.198  0.793-  20 1.10  19 1.10  17 1.10   7 1.44
   4  0.679  0.348  0.792-  24 1.10  23 1.10  21 1.10   8 1.44
   5  0.508  0.488  0.755-  10 1.00   1 1.44 127 2.27
   6  0.389  0.384  0.755-  14 1.00   2 1.44  48 2.27
   7  0.492  0.264  0.755-  18 1.00   3 1.44 103 2.27
   8  0.612  0.368  0.755-  22 1.00   4 1.44  96 2.26
   9  0.520  0.543  0.842-   1 1.10
  10  0.552  0.449  0.758-   5 1.00
  11  0.589  0.572  0.784-   1 1.10
  12  0.490  0.603  0.778-   1 1.10
  13  0.335  0.393  0.843-   2 1.10
  14  0.427  0.428  0.758-   6 1.00
  15  0.303  0.463  0.786-   2 1.10
  16  0.274  0.363  0.779-   2 1.10
  17  0.484  0.211  0.843-   3 1.10
  18  0.449  0.303  0.758-   7 1.00
  19  0.414  0.179  0.786-   3 1.10
  20  0.513  0.150  0.779-   3 1.10
  21  0.667  0.357  0.842-   4 1.10
  22  0.573  0.324  0.757-   8 1.00
  23  0.696  0.287  0.784-   4 1.10
  24  0.727  0.386  0.777-   4 1.10
  25  0.000  0.375  0.350- 153 2.14 156 2.14 163 2.14 187 2.14 236 2.14  35 3.02  59 3.02 108 3.02
                            28 3.02  58 3.02 114 3.02 138 3.02  34 3.02
  26  0.125  0.000  0.350- 154 2.14 155 2.14 164 2.14 171 2.14 188 2.14  36 3.02  43 3.02  60 3.02
                            27 3.02  57 3.02  33 3.02  73 3.02  49 3.02
  27  0.000  0.000  0.450- 155 2.14 154 2.14 161 2.14 185 2.14 234 2.14 159 2.14  57 3.02 106 3.02
                            26 3.02  33 3.02 116 3.02 140 3.02  60 3.02  36 3.02  37 3.03  61 3.03
  28  0.125  0.375  0.450- 156 2.14 153 2.14 162 2.14 169 2.14 186 2.14 160 2.14  41 3.02  58 3.02
                            25 3.02  34 3.02  59 3.02  75 3.02  51 3.02  35 3.02  62 3.03  38 3.03
  29  0.000  0.375  0.550- 160 2.14 167 2.14 191 2.14 240 2.14 153 2.15 157 2.16  63 3.01 112 3.01
                            32 3.01  39 3.01 118 3.02 142 3.02  38 3.02  62 3.02  28 3.03  35 3.03
  30  0.125  0.000  0.550- 159 2.14 168 2.14 175 2.14 192 2.14 154 2.15 158 2.16  47 3.01  64 3.01
                            31 3.01  40 3.01  37 3.02  77 3.02  53 3.02  61 3.02  27 3.03  36 3.03
  31  0.000  0.000  0.650- 159 2.13 158 2.14 165 2.14 189 2.14 238 2.14  37 3.01  61 3.01 110 3.01
                            30 3.01  40 3.02 120 3.02 144 3.02  64 3.02
  32  0.125  0.375  0.650- 160 2.13 157 2.14 166 2.14 173 2.14 190 2.14  38 3.01  45 3.01  62 3.01
                            29 3.01  39 3.02  63 3.02  79 3.02  55 3.02
  33  0.000  0.125  0.350- 161 2.14 155 2.14 163 2.14 164 2.14 244 2.14  35 3.02  36 3.02 116 3.02
                            27 3.02 106 3.02 114 3.02  26 3.02  34 3.02
  34  0.125  0.250  0.350- 162 2.14 156 2.14 163 2.14 164 2.14 179 2.14  35 3.02  36 3.02  51 3.02
                            28 3.02  41 3.02  49 3.02  25 3.02  33 3.02
  35  0.000  0.250  0.450- 163 2.14 161 2.14 162 2.14 153 2.14 242 2.14 167 2.14  34 3.02 114 3.02
                            25 3.02  33 3.02  28 3.02 116 3.02  36 3.02 108 3.02  38 3.03 118 3.03
  36  0.125  0.125  0.450- 164 2.14 161 2.14 162 2.14 154 2.14 177 2.14 168 2.14  34 3.02  49 3.02
                            26 3.02  33 3.02  27 3.02  51 3.02  35 3.02  43 3.02  38 3.03  53 3.03
  37  0.000  0.125  0.550- 159 2.14 167 2.14 168 2.14 248 2.14 161 2.15 165 2.16  40 3.01 120 3.01
                            31 3.01  39 3.01 118 3.02  30 3.02  38 3.02 110 3.02  35 3.03  36 3.03
  38  0.125  0.250  0.550- 160 2.14 167 2.14 168 2.14 183 2.14 162 2.15 166 2.16  40 3.01  55 3.01
                            32 3.01  39 3.01  53 3.02  29 3.02  37 3.02  45 3.02  35 3.03  36 3.03
  39  0.000  0.250  0.650- 167 2.13 165 2.14 166 2.14 157 2.14 246 2.14  37 3.01  38 3.01 118 3.01
                            29 3.01 112 3.02  32 3.02 120 3.02  40 3.02
  40  0.125  0.125  0.650- 168 2.13 165 2.14 166 2.14 158 2.14 181 2.14  37 3.01  38 3.01  53 3.01
                            30 3.01  47 3.02  31 3.02  55 3.02  39 3.02
  41  0.250  0.375  0.350- 169 2.14 156 2.14 172 2.14 179 2.14 203 2.14  44 3.02  51 3.02  75 3.02
                            28 3.02  58 3.02  74 3.02  50 3.02  34 3.02
  42  0.375  0.000  0.350- 170 2.14 171 2.14 180 2.14 204 2.14 219 2.14  52 3.02  76 3.02  91 3.02
                            43 3.02  73 3.02  97 3.02 121 3.02  49 3.02
  43  0.250  0.000  0.450- 171 2.14 170 2.14 154 2.14 177 2.14 201 2.14 175 2.14  49 3.02  73 3.02
                            26 3.02  42 3.02  36 3.02  76 3.02  52 3.02  60 3.02  53 3.03  77 3.03
  44  0.375  0.375  0.450- 172 2.14 169 2.14 178 2.14 202 2.14 217 2.14 176 2.14  74 3.02  89 3.02
                            41 3.02  50 3.02  99 3.02 123 3.02  75 3.02  51 3.02  54 3.03  78 3.03
  45  0.250  0.375  0.550- 160 2.14 176 2.14 183 2.14 207 2.14 169 2.15 173 2.16  55 3.01  79 3.01
                            32 3.01  48 3.01  78 3.02  54 3.02  38 3.02  62 3.02  44 3.03  28 3.03
  46  0.375  0.000  0.550- 175 2.14 184 2.14 208 2.14 223 2.14 170 2.15 174 2.16  80 3.01  95 3.01
                            47 3.01  56 3.01 101 3.02 125 3.02  53 3.02  77 3.02  43 3.03  52 3.03
  47  0.250  0.000  0.650- 175 2.13 174 2.14 158 2.14 181 2.14 205 2.14  46 3.01  53 3.01  77 3.01
                            30 3.01  64 3.02  40 3.02  80 3.02  56 3.02
  48  0.375  0.375  0.650- 176 2.13 173 2.14 182 2.14 206 2.14 221 2.14   6 2.27  54 3.01  78 3.01
                            93 3.01  45 3.01  55 3.02 103 3.02 127 3.02  79 3.02
  49  0.250  0.125  0.350- 177 2.14 171 2.14 164 2.14 179 2.14 180 2.14  43 3.02  51 3.02  52 3.02
                            36 3.02  50 3.02  26 3.02  42 3.02  34 3.02
  50  0.375  0.250  0.350- 178 2.14 172 2.14 179 2.14 180 2.14 227 2.14  51 3.02  52 3.02  99 3.02
                            44 3.02  89 3.02  97 3.02  41 3.02  49 3.02
  51  0.250  0.250  0.450- 179 2.14 169 2.14 177 2.14 178 2.14 162 2.14 183 2.14  49 3.02  50 3.02
                            34 3.02  41 3.02  28 3.02  52 3.02  44 3.02  36 3.02  53 3.03  54 3.03
  52  0.375  0.125  0.450- 180 2.14 177 2.14 178 2.14 170 2.14 225 2.14 184 2.14  50 3.02  97 3.02
                            42 3.02  49 3.02  43 3.02  99 3.02  51 3.02  91 3.02  54 3.03 101 3.03
  53  0.250  0.125  0.550- 168 2.14 175 2.14 183 2.14 184 2.14 177 2.15 181 2.16  55 3.01  56 3.01
                            40 3.01  47 3.01  30 3.02  46 3.02  38 3.02  54 3.02  43 3.03  51 3.03
  54  0.375  0.250  0.550- 176 2.14 183 2.14 184 2.14 231 2.14 178 2.15 182 2.16  56 3.01 103 3.01
                            48 3.01  55 3.01 101 3.02  45 3.02  53 3.02  93 3.02  51 3.03  52 3.03
  55  0.250  0.250  0.650- 183 2.13 173 2.14 181 2.14 182 2.14 166 2.14  45 3.01  53 3.01  54 3.01
                            38 3.01  40 3.02  32 3.02  56 3.02  48 3.02
  56  0.375  0.125  0.650- 184 2.13 181 2.14 182 2.14 174 2.14 229 2.14  53 3.01  54 3.01 101 3.01
[...]
  12.81917044 12.81917044  7.50000000
  14.95569884 10.68264203  7.50000000
  12.81917044 10.68264203 13.94813025
  14.95569884 12.81917044 13.94813025
  12.81917044 12.81917044 11.77868095
  14.95569884 10.68264203 11.77868095

--------------------------------------- Iteration      FINAL  ---------------------------------------

--------------------OUTCAR has been truncated-------------------------

[...]

--------------------OUTCAR has been truncated-------------------------

  FORCE on cell =-STRESS in cart. coord.  units (eV):
  Direction    XX          YY          ZZ          XY          YZ          ZX
  Alpha Z  1046.12240  1046.12240  1046.12240
  Ewald  195268.44745195272.22699************    -1.11605    -0.10022     0.45622
  Hartree211154.77127211158.22605************    -0.73958    -0.15219     0.22742
  E(xc)   -4943.54886 -4943.54690 -4943.91777     0.00015    -0.00023     0.00075
  Local  ************************405783.02818     1.80520     0.26932    -0.64345
  n-local -2581.67805 -2581.67601 -2649.16756    -0.00746     0.00476     0.00238
  augment   911.28790   911.29227   921.39009    -0.00475    -0.00153    -0.00342
  Kinetic 18927.33508 18927.36706 19139.07123     0.07562    -0.01903    -0.05746
  Fock        0.00000     0.00000     0.00000     0.00000     0.00000     0.00000
  Total    -117.14459  -117.16319    -1.17783     0.01311     0.00087    -0.01758
  in kB     -30.00732   -30.01209    -0.30171     0.00336     0.00022    -0.00450

 VOLUME and BASIS-vectors are now :
  energy-cutoff  :      520.00
  volume of cell :     6254.69
      direct lattice vectors                 reciprocal lattice vectors
    17.092227251  0.000000000  0.000000000     0.058506126  0.000000000  0.000000000
     0.000000000 17.092227251  0.000000000     0.000000000  0.058506126  0.000000000
     0.000000000  0.000000000 21.409585219     0.000000000  0.000000000  0.046708051

  length of vectors
    17.092227251 17.092227251 21.409585219     0.058506126  0.058506126  0.046708051

 FORCES acting on ions:
    Electron-Ion                     Ewald-Force                    Non-Local-Force
   -.286E+02 -.184E+03 -.590E+03   0.295E+02 0.189E+03 0.593E+03   -.963E+00 -.536E+01 -.350E+01
   0.184E+03 -.290E+02 -.590E+03   -.189E+03 0.300E+02 0.593E+03   0.536E+01 -.987E+00 -.348E+01
   0.286E+02 0.184E+03 -.589E+03   -.295E+02 -.189E+03 0.593E+03   0.968E+00 0.536E+01 -.350E+01
   -.184E+03 0.288E+02 -.590E+03   0.189E+03 -.297E+02 0.593E+03   -.536E+01 0.971E+00 -.349E+01
   0.397E+02 -.966E+02 -.766E+03   -.702E+02 0.935E+02 0.745E+03   0.306E+02 0.310E+01 0.210E+02
   0.965E+02 0.403E+02 -.767E+03   -.935E+02 -.710E+02 0.746E+03   -.307E+01 0.307E+02 0.209E+02
   -.397E+02 0.966E+02 -.766E+03   0.704E+02 -.935E+02 0.745E+03   -.306E+02 -.310E+01 0.210E+02
   -.965E+02 -.400E+02 -.767E+03   0.934E+02 0.706E+02 0.746E+03   0.311E+01 -.307E+02 0.209E+02
   -.260E+01 -.124E+02 -.171E+03   0.247E+01 0.108E+02 0.176E+03   0.129E+00 0.160E+01 -.557E+01
   -.606E+02 0.241E+02 -.143E+03   0.666E+02 -.293E+02 0.143E+03   -.599E+01 0.522E+01 -.376E+00
   -.593E+02 -.536E+02 -.128E+03   0.644E+02 0.560E+02 0.127E+03   -.516E+01 -.243E+01 0.124E+01
   0.415E+02 -.692E+02 -.130E+03   -.457E+02 0.732E+02 0.129E+03   0.426E+01 -.408E+01 0.108E+01
   0.125E+02 -.275E+01 -.171E+03   -.109E+02 0.263E+01 0.177E+03   -.159E+01 0.119E+00 -.558E+01
   -.243E+02 -.604E+02 -.143E+03   0.296E+02 0.664E+02 0.143E+03   -.523E+01 -.598E+01 -.373E+00
   0.535E+02 -.594E+02 -.128E+03   -.559E+02 0.645E+02 0.127E+03   0.242E+01 -.517E+01 0.125E+01
   0.693E+02 0.414E+02 -.130E+03   -.734E+02 -.456E+02 0.129E+03   0.409E+01 0.425E+01 0.108E+01
   0.271E+01 0.124E+02 -.171E+03   -.259E+01 -.108E+02 0.176E+03   -.119E+00 -.160E+01 -.557E+01
   0.607E+02 -.241E+02 -.143E+03   -.667E+02 0.294E+02 0.143E+03   0.600E+01 -.522E+01 -.374E+00
   0.592E+02 0.537E+02 -.128E+03   -.644E+02 -.561E+02 0.127E+03   0.516E+01 0.244E+01 0.124E+01
   -.415E+02 0.691E+02 -.130E+03   0.458E+02 -.732E+02 0.129E+03   -.426E+01 0.407E+01 0.107E+01
   -.124E+02 0.263E+01 -.171E+03   0.108E+02 -.250E+01 0.177E+03   0.160E+01 -.128E+00 -.557E+01
   0.242E+02 0.606E+02 -.143E+03   -.295E+02 -.666E+02 0.143E+03   0.522E+01 0.600E+01 -.367E+00
   -.535E+02 0.593E+02 -.128E+03   0.560E+02 -.645E+02 0.127E+03   -.242E+01 0.517E+01 0.124E+01
   -.692E+02 -.414E+02 -.130E+03   0.733E+02 0.457E+02 0.129E+03   -.408E+01 -.426E+01 0.108E+01
   -.154E-02 -.107E-03 0.297E+03   0.155E-02 0.165E-03 -.295E+03   -.717E-05 -.127E-04 -.203E+01
   0.138E+01 0.138E+01 0.296E+03   -.138E+01 -.137E+01 -.294E+03   -.910E-03 -.941E-03 -.203E+01
   0.501E-03 0.189E+01 0.102E+03   -.521E-03 -.189E+01 -.102E+03   0.709E-05 -.478E-03 0.135E+00
   0.363E+01 0.151E-01 0.106E+03   -.361E+01 -.154E-01 -.106E+03   -.546E-03 0.174E-04 0.128E+00
   -.656E-02 -.876E-03 -.825E+02   0.659E-02 0.131E-02 0.825E+02   0.225E-03 0.104E-04 -.255E-01
   0.368E+01 0.366E+01 -.866E+02   -.368E+01 -.365E+01 0.866E+02   -.514E-02 -.514E-02 -.423E-01
   -.183E-01 0.448E+01 -.282E+03   0.183E-01 -.449E+01 0.280E+03   0.161E-03 0.384E-02 0.205E+01
   0.188E+02 0.374E+00 -.270E+03   -.186E+02 -.373E+00 0.268E+03   -.178E+00 -.164E-03 0.204E+01
   -.216E-02 0.182E+01 0.296E+03   0.218E-02 -.182E+01 -.294E+03   0.267E-05 -.987E-03 -.203E+01
   0.188E+01 0.141E+01 0.297E+03   -.187E+01 -.140E+01 -.295E+03   -.293E-02 -.100E-02 -.203E+01
   -.146E-01 0.199E+01 0.104E+03   0.153E-01 -.199E+01 -.104E+03   -.548E-04 -.566E-03 0.138E+00
   0.275E+01 0.310E+01 0.104E+03   -.274E+01 -.310E+01 -.104E+03   -.265E-02 -.166E-02 0.129E+00
   -.331E-01 0.455E+01 -.856E+02   0.339E-01 -.455E+01 0.857E+02   -.209E-03 -.228E-02 -.392E-01
   0.742E+01 0.434E+01 -.808E+02   -.738E+01 -.433E+01 0.808E+02   -.474E-01 -.170E-01 -.569E-02
   -.198E+00 0.551E+01 -.277E+03   0.198E+00 -.552E+01 0.276E+03   0.955E-04 0.625E-02 0.205E+01
   0.951E+01 0.920E+01 -.278E+03   -.948E+01 -.920E+01 0.276E+03   -.390E-01 -.608E-02 0.205E+01
   0.283E+01 0.254E-02 0.298E+03   -.281E+01 -.262E-02 -.296E+03   -.568E-02 0.130E-04 -.203E+01
   0.141E+01 0.188E+01 0.297E+03   -.140E+01 -.187E+01 -.295E+03   -.100E-02 -.290E-02 -.203E+01
   0.312E+01 0.275E+01 0.104E+03   -.312E+01 -.274E+01 -.104E+03   -.163E-02 -.259E-02 0.129E+00
   0.378E+01 0.706E-02 0.113E+03   -.372E+01 -.653E-02 -.113E+03   -.227E-04 0.180E-03 0.199E+00
   0.135E+02 0.108E+00 -.694E+02   -.134E+02 -.112E+00 0.695E+02   -.180E+00 0.528E-02 -.118E+00
   0.433E+01 0.748E+01 -.806E+02   -.432E+01 -.744E+01 0.806E+02   -.170E-01 -.410E-01 -.511E-02
   0.953E+01 0.964E+01 -.278E+03   -.953E+01 -.961E+01 0.276E+03   -.569E-02 -.424E-01 0.205E+01
   0.296E+02 0.121E+01 -.207E+03   -.295E+02 -.123E+01 0.206E+03   -.533E-01 0.189E-01 0.128E+01
   0.233E+01 0.232E+01 0.297E+03   -.232E+01 -.231E+01 -.295E+03   -.271E-02 -.275E-02 -.203E+01
   0.191E+01 0.191E+01 0.299E+03   -.190E+01 -.190E+01 -.297E+03   -.359E-02 -.365E-02 -.204E+01
   0.487E+01 0.289E+01 0.109E+03   -.483E+01 -.287E+01 -.109E+03   -.103E-02 -.262E-02 0.120E+00
   0.290E+01 0.486E+01 0.109E+03   -.288E+01 -.482E+01 -.109E+03   -.243E-02 -.112E-02 0.121E+00
   0.846E+01 0.834E+01 -.788E+02   -.843E+01 -.831E+01 0.788E+02   -.302E-01 -.360E-01 -.949E-02
   0.958E+01 0.948E+01 -.624E+02   -.945E+01 -.934E+01 0.626E+02   -.156E+00 -.161E+00 -.266E+00
   0.278E+02 0.159E+02 -.257E+03   -.276E+02 -.159E+02 0.255E+03   -.214E+00 0.186E-02 0.206E+01
   0.165E+02 0.277E+02 -.255E+03   -.166E+02 -.275E+02 0.253E+03   0.125E-01 -.180E+00 0.208E+01
   0.159E-03 0.702E-04 0.295E+03   -.170E-03 -.946E-04 -.293E+03   0.465E-05 0.777E-05 -.203E+01
   0.188E+01 -.141E+01 0.297E+03   -.187E+01 0.140E+01 -.295E+03   -.289E-02 0.100E-02 -.203E+01
   0.105E-01 -.200E+01 0.104E+03   -.111E-01 0.199E+01 -.104E+03   0.779E-04 0.550E-03 0.138E+00
   0.189E+01 0.199E-02 0.102E+03   -.189E+01 -.219E-02 -.102E+03   -.439E-03 -.357E-04 0.135E+00
[...]
   -.804E+01 -.497E+01 0.861E+03   0.800E+01 0.495E+01 -.865E+03   0.501E-01 0.289E-01 0.346E+01
   -.382E+01 -.223E-02 0.854E+03   0.382E+01 0.223E-02 -.858E+03   0.725E-02 -.111E-04 0.352E+01
   -.213E+02 -.340E+00 -.819E+03   0.213E+02 0.343E+00 0.824E+03   0.422E-01 -.379E-02 -.491E+01
   -.440E+02 -.248E+02 -.800E+03   0.440E+02 0.247E+02 0.804E+03   0.675E-01 0.928E-01 -.492E+01
   -.341E+02 -.195E+02 -.214E+03   0.337E+02 0.194E+02 0.214E+03   0.334E+00 0.854E-01 0.520E+00
   -.915E+01 -.212E-01 -.260E+03   0.913E+01 0.235E-01 0.260E+03   0.176E-01 -.210E-02 0.283E+00
   -.122E+02 -.121E+02 0.319E+03   0.121E+02 0.120E+02 -.319E+03   0.767E-01 0.774E-01 0.345E-01
   -.644E+01 -.642E+01 0.307E+03   0.643E+01 0.641E+01 -.307E+03   0.196E-01 0.192E-01 0.262E-01
   -.592E+01 -.488E+01 0.857E+03   0.590E+01 0.487E+01 -.861E+03   0.160E-01 0.167E-01 0.351E+01
   -.489E+01 -.590E+01 0.857E+03   0.487E+01 0.589E+01 -.861E+03   0.165E-01 0.167E-01 0.351E+01
   -.513E+02 -.492E+02 -.791E+03   0.512E+02 0.491E+02 0.796E+03   0.152E+00 0.168E+00 -.493E+01
   -.175E+02 -.173E+02 -.822E+03   0.175E+02 0.173E+02 0.827E+03   0.413E-01 0.426E-01 -.491E+01
   -.168E+02 -.159E+02 -.249E+03   0.168E+02 0.159E+02 0.249E+03   0.537E-01 0.632E-01 0.291E+00
   -.159E+02 -.166E+02 -.249E+03   0.158E+02 0.165E+02 0.249E+03   0.564E-01 0.543E-01 0.293E+00
   -.227E-01 0.138E-01 -.177E+02   -.561E-12 -.753E-12 -.728E-11   0.152E-01 -.165E-01 0.176E+02

 POSITION                                       TOTAL-FORCE (eV/Angst)
      8.91395      9.53445     17.17193        -0.004130     -0.003551     -0.003725
      5.42586      6.78146     17.16984         0.005490     -0.002238     -0.003360
      8.17999      3.28497     17.17347         0.005323     -0.000839     -0.001702
     11.66790      6.04143     17.17122        -0.003410     -0.003987      0.003616
      8.65718      8.39557     16.29905        -0.001641     -0.004825      0.002591
      6.56503      6.51892     16.29891        -0.002108     -0.000866      0.004006
      8.43718      4.42341     16.30037         0.002160      0.003166      0.000270
     10.52914      6.30086     16.29923         0.003886      0.006588     -0.002530
      8.89040      9.22051     18.22483        -0.000990      0.005690     -0.005393
      9.41446      7.76122     16.37101        -0.001141      0.003854      0.000372
      9.88891      9.98216     16.93866        -0.003335      0.001005      0.002095
      8.12755     10.26870     16.98008         0.004520     -0.007898      0.002133
      5.73863      6.75980     18.22285        -0.003296     -0.001728      0.002872
      7.20078      7.27496     16.37034        -0.000603      0.001875     -0.001722
      4.98173      7.75726     16.93372        -0.003049     -0.001511      0.000250
      4.68972      5.99695     16.97941         0.000009     -0.001945     -0.000332
      8.20163      3.59908     18.22639         0.001222     -0.003291     -0.006570
      7.67988      5.05751     16.37202        -0.002695      0.001151      0.000402
      7.20596      2.83616     16.93897        -0.000197     -0.001503      0.001236
      8.96716      2.55111     16.98347        -0.002263      0.007685      0.000701
     11.35434      6.06468     18.22419         0.005391      0.000453     -0.002893
      9.89502      5.54369     16.36991        -0.005608     -0.007345      0.002232
     12.11392      5.06576     16.93726        -0.000237      0.006301      0.001133
     12.40322      6.82666     16.98009        -0.001974      0.000708     -0.000687
      0.00000      6.40959      7.50000         0.000035      0.000057      0.356056
      2.13653      0.00000      7.50000         0.002023      0.002060      0.352874
      0.00000      0.00000      9.63653        -0.000016      0.001705     -0.009628
      2.13653      6.40959      9.63653         0.026615     -0.000223      0.005044
      0.00002      6.40960     11.77626         0.000244      0.000446      0.001606
      2.13604     -0.00056     11.77691        -0.001263     -0.000267      0.001708
      0.00007     -0.00180     13.89500         0.000122     -0.000585     -0.000914
      2.13569      6.40955     13.88814        -0.001665      0.000499      0.002155
      0.00000      2.13653      7.50000         0.000090      0.002306      0.353634
      2.13653      4.27306      7.50000         0.006249      0.002962      0.357748
      0.00000      4.27306      9.63653         0.000766      0.001670     -0.012585
      2.13653      2.13653      9.63653         0.002631      0.003728     -0.010683
     -0.00003      2.13578     11.77686         0.000592     -0.000955      0.001951
      2.13606      4.27358     11.77493         0.001991     -0.000908      0.002177
     -0.00009      4.27117     13.89371         0.000791     -0.000015      0.004528
      2.13454      2.13320     13.89303        -0.000898      0.001166      0.001648
      4.27306      6.40959      7.50000         0.013251     -0.000028      0.370887
      6.40959      0.00000      7.50000         0.002979      0.006270      0.357361
      4.27306      0.00000      9.63653         0.003056      0.003234     -0.011088
      6.40959      6.40959      9.63653         0.056217      0.000690      0.087458
      4.28231      6.40898     11.78359         0.000896      0.000738      0.003135
      6.41003     -0.00071     11.77454        -0.000300      0.001230      0.002978
      4.26965     -0.00203     13.89301         0.001131     -0.001124      0.000455
      6.39708      6.40712     13.98218         0.001900      0.000420      0.001295
      4.27306      2.13653      7.50000         0.006721      0.006876      0.358994
      6.40959      4.27306      7.50000         0.009695      0.009867      0.380440
      4.27306      4.27306      9.63653         0.041355      0.018144      0.022284
      6.40959      2.13653      9.63653         0.018789      0.042707      0.021794
      4.27274      2.13664     11.77318         0.000344      0.001168      0.000706
      6.42033      4.28437     11.79430        -0.000792      0.000206      0.002024
      4.26919      4.26710     13.87760         0.000150      0.000911      0.002328
      6.40321      2.13239     13.87386         0.001232      0.001524      0.001295
      0.00000     14.95570      7.50000         0.000019     -0.000008      0.351380
      2.13653      8.54611      7.50000         0.006252     -0.002948      0.357522
      0.00000      8.54611      9.63653        -0.000507     -0.001543     -0.012185
      2.13653     14.95570      9.63653         0.001593     -0.000185     -0.009716
[...]
     14.95570      8.54611      9.63653         0.023263      0.009370      0.029723
     12.81917      8.54611      7.50000         0.014039      0.008097     -0.417273
     14.95570     14.95570      7.50000         0.002023      0.000006     -0.402226
     12.82237     14.95574     13.94215        -0.000130     -0.000818     -0.001949
     14.95991      8.55041     13.94370        -0.000868      0.001709     -0.001471
     12.82594      8.54942     11.76981         0.000991      0.000228     -0.000090
     14.95678     14.95570     11.77314        -0.000666      0.000127     -0.001529
     12.81917     10.68264      9.63653         0.021963      0.022386      0.026417
     14.95570     12.81917      9.63653         0.005685      0.005519      0.040811
     12.81917     12.81917      7.50000         0.004469      0.004651     -0.405291
     14.95570     10.68264      7.50000         0.004613      0.004621     -0.405374
     12.82838     10.69226     13.94006         0.001273      0.002361      0.002087
     14.95891     12.82238     13.94159        -0.000374     -0.000775     -0.000029
     12.82095     12.82130     11.77244         0.000648      0.000548      0.000550
     14.95812     10.68453     11.77260        -0.000814      0.000224     -0.000564
    total drift:                               -0.007516     -0.002682     -0.109628

  FREE ENERGIE OF THE ION-ELECTRON SYSTEM (eV)
  free  energy   TOTEN  =     -1152.99928076 eV

  energy  without entropy=    -1152.99928076  energy(sigma->0) =    -1152.99928076

 d Force = 0.6468713E-04[ 0.350E-04, 0.944E-04]  d Energy = 0.6502435E-04-0.337E-06
 d Force =-0.1220352E+01[-0.122E+01,-0.122E+01]  d Ewald  =-0.1220352E+01 0.440E-09

 Conjugate gradient step on ions:
 trial-energy change:   -0.000065  1 .order   -0.000065   -0.000094   -0.000035
  (g-gl).g = 0.158E-03      g.g   = 0.218E-03  gl.gl    = 0.167E-03
 g(Force)  = 0.218E-03   g(Stress)= 0.000E+00 ortho     =-0.145E-06
 gamma     =   0.94702
 trial     =   0.43347
 opt step  =   0.68932  (harmonic =   0.68932) maximal distance =0.00205511
 next E    = -1152.999291   (d E  =  -0.00008)

 reached required accuracy - stopping structural energy minimisation