 vasp.6.3.0 20Jan22 (build Apr  1 2022 16:44:48) complex
 executed on        HPECrayEX_GCC date 2023.02.18  05:15:59

 INCAR:
   SYSTEM = MgO-rocksalt
   ISMEAR = 0
   SIGMA = 0.05
   EDIFF = 1E-7
   ALGO = ALL
   ISTART = 0
   IBRION = 2
   NSW = 1000
   ISYM = 0
   ISIF = 2
   EDIFFG = -0.01
   DIPOL = 0.5 0.5 0.5
   IDIPOL = 3
   LDIPOL = .TRUE.
   GGA = PE
   IVDW = 1
   VDW_C6 = 0.14 0.70 0.63 0.70
   VDW_R0 = 1.001 1.342 1.243 1.342
   ENCUT = 520
   PREC = Accurate
   LASPH = .TRUE.
   LREAL = Auto
   ISPIN = 1
   NELM = 200
   NELMIN = 8
   NCORE = 8
   KPAR = 1
   LWAVE = .FALSE.
   LCHARG = .FALSE.

 POTCAR:    PAW_PBE H 15Jun2001
 POTCAR:    PAW_PBE O 08Apr2002
 POTCAR:    PAW_PBE Mg 13Apr2007
 POTCAR:    PAW_PBE O 08Apr2002
 POTCAR:    PAW_PBE H 15Jun2001
   VRHFIN =H: ultrasoft test

   TITEL  = PAW_PBE H 15Jun2001
   POMASS =    1.000; ZVAL   =    1.000    mass and valenz
   ENMAX  =  250.000; ENMIN  =  200.000 eV

   TITEL  = PAW_PBE O 08Apr2002
   POMASS =   16.000; ZVAL   =    6.000    mass and valenz
   ENMAX  =  400.000; ENMIN  =  300.000 eV

[...]

   TITEL  = PAW_PBE O 08Apr2002
   POMASS =   16.000; ZVAL   =    6.000    mass and valenz
   ENMAX  =  400.000; ENMIN  =  300.000 eV

 Optimization of the real space projectors (new method)

 maximal supplied QI-value         = 34.20
 optimisation between [QCUT,QGAM] = [ 11.63, 23.26] = [ 37.87,151.49] Ry
 Optimized for a Real-space Cutoff    1.21 Angstroem

   l    n(q)    QCUT    max X(q) W(low)/X(q) W(high)/X(q)  e(spline)
   0      8    11.629    19.460    0.17E-03    0.34E-03    0.21E-06
   0      8    11.629    12.209    0.16E-03    0.33E-03    0.21E-06
   1      8    11.629     4.655    0.18E-03    0.16E-03    0.26E-06
 Optimization of the real space projectors (new method)

[...]

   l    n(q)    QCUT    max X(q) W(low)/X(q) W(high)/X(q)  e(spline)
   0      9    11.527    28.265    0.62E-04    0.53E-04    0.73E-07
   0      9    11.527    10.429    0.52E-04    0.40E-04    0.58E-07
   1      8    11.527    13.073    0.98E-04    0.18E-03    0.86E-07
   1      8    11.527     9.625    0.79E-04    0.15E-03    0.74E-07
   2      8    11.527     4.652    0.22E-03    0.72E-04    0.47E-07
 Optimization of the real space projectors (new method)

 maximal supplied QI-value         = 24.76
 optimisation between [QCUT,QGAM] = [ 11.64, 23.27] = [ 37.91,151.63] Ry
 Optimized for a Real-space Cutoff    1.14 Angstroem

   l    n(q)    QCUT    max X(q) W(low)/X(q) W(high)/X(q)  e(spline)
   0      8    11.635    20.381    0.10E-03    0.33E-03    0.24E-06
   0      8    11.635    15.268    0.11E-03    0.35E-03    0.26E-06
   1      7    11.635     5.964    0.24E-03    0.31E-03    0.30E-06
   1      7    11.635     5.382    0.22E-03    0.25E-03    0.26E-06
  PAW_PBE H 15Jun2001                   :
  PAW_PBE O 08Apr2002                   :
  PAW_PBE Mg 13Apr2007                  :
  PAW_PBE O 08Apr2002                   :

 POSCAR:  H  O Mg  O
  positions in direct lattice
 exchange correlation table for  LEXCH =        8
   RHO(1)=    0.500       N(1)  =     2000
   RHO(2)=  100.500       N(2)  =     4000

 ion  position               nearest neighbor table
   1  0.415  0.430  0.760-   9 0.99
   2  0.330  0.392  0.767-   9 0.97
   3  0.585  0.325  0.761-  10 0.99
   4  0.672  0.361  0.767-  10 0.97
   5  0.449  0.293  0.761-  11 0.99
   6  0.485  0.208  0.769-  11 0.97
   7  0.553  0.464  0.760-  12 0.99
   8  0.516  0.550  0.763-  12 0.97
   9  0.384  0.381  0.755-   2 0.97   1 0.99  43 2.28
  10  0.618  0.373  0.755-   4 0.97   3 0.99  91 2.27
  11  0.497  0.261  0.755-   6 0.97   5 0.99 108 2.28
  12  0.504  0.495  0.755-   8 0.97   7 0.99 132 2.27
  13  0.125  0.000  0.351- 141 2.12 143 2.12 144 2.12 160 2.12 183 2.12  16 2.99  32 2.99  55 2.99
                            15 2.99  54 2.99  30 2.99  70 2.99  14 2.99
  14  0.250  0.125  0.351- 142 2.12 143 2.12 144 2.12 152 2.12 159 2.12  16 2.99  24 2.99  31 2.99
                            15 2.99  29 2.99  21 2.99  37 2.99  13 2.99
  15  0.125  0.125  0.450- 143 2.12 142 2.12 141 2.12 149 2.12 158 2.12 147 2.12  21 2.99  30 2.99
                            13 2.99  14 2.99  32 2.99  40 2.99  24 2.99  16 2.99  34 3.00  25 3.00
  16  0.250  0.000  0.450- 144 2.12 142 2.12 141 2.12 157 2.12 182 2.12 148 2.12  29 2.99  54 2.99
                            13 2.99  14 2.99  55 2.99  71 2.99  31 2.99  15 2.99  58 3.00  33 3.00
  17  0.125  0.000  0.550- 147 2.12 148 2.12 164 2.12 187 2.12 141 2.13 145 2.15  36 2.98  59 2.98
                            19 2.98  20 2.98  34 2.99  74 2.99  18 2.99  58 2.99  16 3.00  15 3.00
  18  0.250  0.125  0.550- 147 2.12 148 2.12 156 2.12 163 2.12 142 2.13 146 2.15  28 2.98  35 2.98
                            19 2.98  20 2.98  25 2.99  41 2.99  17 2.99  33 2.99  16 3.00  15 3.00
  19  0.125  0.125  0.649- 147 2.11 146 2.12 145 2.12 153 2.12 162 2.12  18 2.98  25 2.98  34 2.98
                            17 2.98  20 2.99  36 2.99  44 2.99  28 2.99
  20  0.250  0.000  0.649- 148 2.11 146 2.12 145 2.12 161 2.12 186 2.12  18 2.98  33 2.98  58 2.98
                            17 2.98  19 2.99  59 2.99  75 2.99  35 2.99
  21  0.125  0.250  0.351- 149 2.12 143 2.12 151 2.12 152 2.12 168 2.12  23 2.99  24 2.99  40 2.99
                            15 2.99  30 2.99  38 2.99  14 2.99  22 2.99
  22  0.250  0.375  0.351- 150 2.12 151 2.12 152 2.12 167 2.12 176 2.12  24 2.99  39 2.99  48 2.99
                            23 2.99  45 2.99  37 2.99  61 2.99  21 2.99
  23  0.125  0.375  0.450- 151 2.12 150 2.12 149 2.12 166 2.12 173 2.12 155 2.12  38 2.99  45 2.99
                            21 2.99  22 2.99  48 2.99  64 2.99  40 2.99  24 2.99  49 3.00  42 3.00
  24  0.250  0.250  0.450- 152 2.12 149 2.12 150 2.12 142 2.12 165 2.12 156 2.12  22 2.99  37 2.99
                            14 2.99  21 2.99  15 2.99  39 2.99  23 2.99  31 2.99  26 3.00  41 3.00
  25  0.125  0.250  0.550- 147 2.12 155 2.12 156 2.12 172 2.12 149 2.13 153 2.15  28 2.98  44 2.98
                            19 2.98  27 2.98  42 2.99  18 2.99  26 2.99  34 2.99  23 3.00  24 3.00
  26  0.250  0.375  0.550- 155 2.12 156 2.12 171 2.12 180 2.12 150 2.13 154 2.15  43 2.98  52 2.98
                            27 2.98  28 2.98  41 2.99  65 2.99  25 2.99  49 2.99  24 3.00  23 3.00
  27  0.125  0.375  0.649- 155 2.11 154 2.12 153 2.12 170 2.12 177 2.12  26 2.98  42 2.98  49 2.98
                            25 2.98  28 2.99  52 2.99  68 2.99  44 2.99
  28  0.250  0.250  0.649- 156 2.11 153 2.12 154 2.12 146 2.12 169 2.12  25 2.98  26 2.98  41 2.98
                            18 2.98  35 2.99  19 2.99  43 2.99  27 2.99
  29  0.375  0.000  0.351- 157 2.12 144 2.12 159 2.12 199 2.12 224 2.12  31 2.99  71 2.99  96 2.99
                            16 2.99  94 2.99  54 2.99 134 2.99  14 2.99
  30  0.000  0.125  0.351- 158 2.12 143 2.12 160 2.12 168 2.12 223 2.12  32 2.99  40 2.99  95 2.99
                            15 2.99  93 2.99  13 2.99 101 2.99  21 2.99
  31  0.375  0.125  0.450- 159 2.12 157 2.12 142 2.12 165 2.12 222 2.12 163 2.12  37 2.99  94 2.99
                            14 2.99  29 2.99  96 2.99 104 2.99  24 2.99  16 2.99  98 3.00  41 3.00
  32  0.000  0.000  0.450- 160 2.12 158 2.12 141 2.12 198 2.12 221 2.12 164 2.12  70 2.99  93 2.99
                            13 2.99  30 2.99  95 2.99 135 2.99  15 2.99  55 2.99  97 3.00  74 3.00
  33  0.375  0.000  0.550- 148 2.12 163 2.12 203 2.12 228 2.12 157 2.13 161 2.15  75 2.98 100 2.98
                            20 2.98  35 2.98  58 2.99 138 2.99  18 2.99  98 2.99  71 3.00  16 3.00
  34  0.000  0.125  0.550- 147 2.12 164 2.12 172 2.12 227 2.12 158 2.13 162 2.15  44 2.98  99 2.98
                            19 2.98  36 2.98  17 2.99 105 2.99  25 2.99  97 2.99  40 3.00  32 3.00
  35  0.375  0.125  0.649- 163 2.11 161 2.12 146 2.12 169 2.12 226 2.12  33 2.98  41 2.98  98 2.98
                            18 2.98  20 2.99 100 2.99 108 2.99  28 2.99
  36  0.000  0.000  0.649- 164 2.11 162 2.12 145 2.12 202 2.12 225 2.12  34 2.98  74 2.98  97 2.98
                            17 2.98  59 2.99  99 2.99 139 2.99  19 2.99
  37  0.375  0.250  0.351- 165 2.12 159 2.12 152 2.12 167 2.12 232 2.12  31 2.99  39 2.99 104 2.99
                            24 2.99  94 2.99 102 2.99  22 2.99  14 2.99
  38  0.000  0.375  0.351- 166 2.12 151 2.12 168 2.12 192 2.12 231 2.12  40 2.99  64 2.99 103 2.99
                            23 2.99 101 2.99  45 2.99 125 2.99  21 2.99
  39  0.375  0.375  0.450- 167 2.12 165 2.12 150 2.12 189 2.12 230 2.12 171 2.12  61 2.99 102 2.99
                            22 2.99  37 2.99 104 2.99 128 2.99  24 2.99  48 2.99 106 3.00  65 3.00
  40  0.000  0.250  0.450- 168 2.12 158 2.12 166 2.12 149 2.12 229 2.12 172 2.12  38 2.99 101 2.99
                            21 2.99  30 2.99  15 2.99 103 2.99  23 2.99  95 2.99  42 3.00 105 3.00
  41  0.375  0.250  0.550- 156 2.12 163 2.12 171 2.12 236 2.12 165 2.13 169 2.15  43 2.98 108 2.98
                            28 2.98  35 2.98 106 2.99  26 2.99  18 2.99  98 2.99  39 3.00  31 3.00
  42  0.000  0.375  0.550- 155 2.12 172 2.12 196 2.12 235 2.12 166 2.13 170 2.15  68 2.98 107 2.98
                            27 2.98  44 2.98  49 2.99 129 2.99  25 2.99 105 2.99  64 3.00  23 3.00
  43  0.375  0.375  0.649- 171 2.11 169 2.12 154 2.12 193 2.12 234 2.12   9 2.28  41 2.98  65 2.98
                           106 2.98  26 2.98  52 2.99 108 2.99 132 2.99  28 2.99
  44  0.000  0.250  0.649- 172 2.11 162 2.12 170 2.12 153 2.12 233 2.12  34 2.98  42 2.98 105 2.98
                            25 2.98  99 2.99  19 2.99 107 2.99  27 2.99
  45  0.125  0.500  0.351- 173 2.12 151 2.12 175 2.12 176 2.12 192 2.12  47 2.99  48 2.99  64 2.99
                            23 2.99  38 2.99  62 2.99  46 2.99  22 2.99
  46  0.250  0.625  0.351- 174 2.12 175 2.12 176 2.12 184 2.12 191 2.12  48 2.99  56 2.99  63 2.99
                            47 2.99  61 2.99  53 2.99  69 2.99  45 2.99
  47  0.125  0.625  0.450- 175 2.12 174 2.12 173 2.12 181 2.12 190 2.12 179 2.12  53 2.99  62 2.99
                            45 2.99  46 2.99  64 2.99  72 2.99  56 2.99  48 2.99  66 3.00  57 3.00
  48  0.250  0.500  0.450- 176 2.12 173 2.12 174 2.12 150 2.12 189 2.12 180 2.12  46 2.99  61 2.99
                            22 2.99  45 2.99  23 2.99  63 2.99  39 2.99  47 2.99  49 3.00  65 3.00
  49  0.125  0.500  0.550- 155 2.12 179 2.12 180 2.12 196 2.12 173 2.13 177 2.15  52 2.98  68 2.98
                            27 2.98  51 2.98  66 2.99  50 2.99  26 2.99  42 2.99  23 3.00  47 3.00
  50  0.250  0.625  0.550- 179 2.12 180 2.12 188 2.12 195 2.12 174 2.13 178 2.15  60 2.98  67 2.98
                            51 2.98  52 2.98  57 2.99  73 2.99  49 2.99  65 2.99  48 3.00  47 3.00
  51  0.125  0.625  0.649- 179 2.11 178 2.12 177 2.12 185 2.12 194 2.12  50 2.98  57 2.98  66 2.98
                            49 2.98  52 2.99  68 2.99  76 2.99  60 2.99
  52  0.250  0.500  0.649- 180 2.11 177 2.12 178 2.12 154 2.12 193 2.12  49 2.98  50 2.98  65 2.98
                            26 2.98  51 2.99  27 2.99  67 2.99  43 2.99
  53  0.125  0.750  0.351- 181 2.12 175 2.12 183 2.12 184 2.12 200 2.12  55 2.99  56 2.99  72 2.99
[...]
   8.46714263 12.70071395 11.73873783

--------------------------------------- Iteration      FINAL  ---------------------------------------

--------------------OUTCAR has been truncated-------------------------

[...]

--------------------OUTCAR has been truncated-------------------------

  Number of pair interactions contributing to vdW energy: 3112596
  Edisp (eV):  -14.86991

  FORCE on cell =-STRESS in cart. coord.  units (eV):
  Direction    XX          YY          ZZ          XY          YZ          ZX
  Alpha Z  1027.40554  1027.40554  1027.40554
  Ewald  205607.33497205611.02019************     0.01287   -21.23135    -4.80354
  Hartree220969.41000220972.89075************     0.07331   -10.19264    -1.64048
  E(xc)   -4766.03210 -4766.02883 -4768.25113     0.00028    -0.06971    -0.02215
  Local  ************************429025.79662    -0.14060    27.76078     5.24400
  n-local -2487.55573 -2487.59004 -2564.10349     0.00415     0.04966     0.07091
  augment   892.78199   892.79175   906.78231     0.00258     0.23501     0.07371
  Kinetic 18533.46096 18533.57747 18803.35774     0.04470     3.31087     1.00544
  Fock        0.00000     0.00000     0.00000     0.00000     0.00000     0.00000
  vdW       -21.55218   -21.55126   -18.16856    -0.00048     0.00427     0.00157
  Total    -117.55468  -117.61583    -1.93677    -0.00319    -0.13312    -0.07055
  in kB     -30.76179   -30.77779    -0.50682    -0.00083    -0.03483    -0.01846

 VOLUME and BASIS-vectors are now :
  energy-cutoff  :      520.00
  volume of cell :     6122.64
      direct lattice vectors                 reciprocal lattice vectors
    16.934285261  0.000000000  0.000000000     0.059051798  0.000000000  0.000000000
     0.000000000 16.934285261  0.000000000     0.000000000  0.059051798  0.000000000
     0.000000000  0.000000000 21.350356973     0.000000000  0.000000000  0.046837624

  length of vectors
    16.934285261 16.934285261 21.350356973     0.059051798  0.059051798  0.046837624

 FORCES acting on ions:
    Electron-Ion                     Ewald-Force                    Non-Local-Force
   -.116E+02 -.651E+02 -.163E+03   0.160E+02 0.716E+02 0.164E+03   -.442E+01 -.647E+01 -.635E+00
   0.101E+03 -.172E+02 -.173E+03   -.109E+03 0.188E+02 0.175E+03   0.797E+01 -.155E+01 -.202E+01
   0.124E+02 0.638E+02 -.165E+03   -.168E+02 -.702E+02 0.166E+03   0.452E+01 0.634E+01 -.838E+00
   -.101E+03 0.183E+02 -.172E+03   0.109E+03 -.200E+02 0.174E+03   -.797E+01 0.165E+01 -.192E+01
   0.633E+02 -.127E+02 -.164E+03   -.696E+02 0.173E+02 0.165E+03   0.630E+01 -.456E+01 -.718E+00
   0.179E+02 0.100E+03 -.176E+03   -.196E+02 -.108E+03 0.179E+03   0.162E+01 0.784E+01 -.247E+01
   -.663E+02 0.108E+02 -.165E+03   0.728E+02 -.151E+02 0.165E+03   -.654E+01 0.435E+01 -.778E+00
   -.171E+02 -.103E+03 -.167E+03   0.186E+02 0.111E+03 0.169E+03   -.152E+01 -.810E+01 -.125E+01
   0.141E+03 0.340E+02 -.917E+03   -.125E+03 -.684E+02 0.907E+03   -.160E+02 0.343E+02 0.104E+02
   -.140E+03 -.348E+02 -.916E+03   0.124E+03 0.695E+02 0.906E+03   0.157E+02 -.347E+02 0.107E+02
   -.340E+02 0.143E+03 -.913E+03   0.682E+02 -.128E+03 0.900E+03   -.341E+02 -.149E+02 0.129E+02
   0.347E+02 -.138E+03 -.922E+03   -.695E+02 0.121E+03 0.914E+03   0.348E+02 0.169E+02 0.725E+01
   0.887E+00 0.879E+00 0.302E+03   -.886E+00 -.877E+00 -.300E+03   -.135E-02 -.800E-03 -.228E+01
   0.159E+01 0.159E+01 0.303E+03   -.158E+01 -.158E+01 -.301E+03   -.226E-02 -.193E-02 -.228E+01
   0.193E+01 0.209E+01 0.103E+03   -.193E+01 -.208E+01 -.103E+03   -.163E-02 -.673E-03 0.105E+00
   0.210E+01 0.192E+01 0.103E+03   -.209E+01 -.192E+01 -.103E+03   -.390E-03 -.843E-03 0.103E+00
   0.238E+01 0.237E+01 -.931E+02   -.238E+01 -.237E+01 0.931E+02   -.316E-02 -.420E-02 -.548E-01
   0.599E+01 0.595E+01 -.881E+02   -.598E+01 -.594E+01 0.881E+02   -.660E-02 -.108E-01 -.359E-01
   0.628E+01 0.578E+01 -.290E+03   -.625E+01 -.578E+01 0.288E+03   -.377E-01 0.126E-02 0.233E+01
   0.584E+01 0.629E+01 -.290E+03   -.584E+01 -.626E+01 0.288E+03   -.294E-02 -.430E-01 0.233E+01
   0.131E+01 0.928E+00 0.303E+03   -.131E+01 -.925E+00 -.301E+03   -.181E-02 -.684E-03 -.228E+01
   0.205E+01 0.282E-01 0.304E+03   -.204E+01 -.291E-01 -.302E+03   -.340E-02 -.380E-04 -.229E+01
   0.280E+01 0.501E-01 0.104E+03   -.277E+01 -.518E-01 -.105E+03   -.387E-02 0.546E-03 0.132E+00
   0.375E+01 0.221E+01 0.107E+03   -.373E+01 -.219E+01 -.107E+03   0.886E-03 -.282E-02 0.116E+00
   0.545E+01 0.287E+01 -.895E+02   -.541E+01 -.287E+01 0.896E+02   -.480E-01 -.943E-02 -.396E-01
   0.112E+02 0.151E+00 -.823E+02   -.110E+02 -.161E+00 0.822E+02   -.172E+00 0.121E-01 0.919E-01
   0.127E+02 0.194E+00 -.286E+03   -.126E+02 -.196E+00 0.284E+03   -.106E+00 0.276E-02 0.232E+01
   0.215E+02 0.114E+02 -.277E+03   -.213E+02 -.115E+02 0.275E+03   -.214E+00 0.514E-01 0.234E+01
   0.913E+00 0.131E+01 0.303E+03   -.910E+00 -.130E+01 -.301E+03   -.179E-03 -.227E-02 -.228E+01
   -.663E-02 0.116E+01 0.302E+03   0.652E-02 -.115E+01 -.300E+03   0.336E-04 -.130E-02 -.228E+01
   0.217E+01 0.373E+01 0.107E+03   -.215E+01 -.371E+01 -.107E+03   -.254E-02 -.433E-03 0.101E+00
   -.734E-02 0.122E+01 0.102E+03   0.747E-02 -.121E+01 -.102E+03   0.494E-04 0.555E-04 0.116E+00
   0.284E+01 0.545E+01 -.895E+02   -.283E+01 -.541E+01 0.895E+02   -.126E-01 -.443E-01 -.330E-01
   -.306E-01 0.285E+01 -.926E+02   0.300E-01 -.285E+01 0.926E+02   0.700E-03 0.533E-02 -.520E-01
   0.116E+02 0.216E+02 -.276E+03   -.116E+02 -.214E+02 0.275E+03   0.256E-01 -.212E+00 0.234E+01
   -.203E-01 0.268E+01 -.292E+03   0.198E-01 -.268E+01 0.290E+03   0.886E-03 0.490E-02 0.235E+01
   0.139E+01 0.140E+01 0.305E+03   -.138E+01 -.140E+01 -.303E+03   -.281E-02 -.215E-02 -.229E+01
   -.532E-02 0.151E-01 0.303E+03   0.507E-02 -.154E-01 -.301E+03   0.769E-04 0.804E-03 -.228E+01
   0.308E+01 0.719E-01 0.111E+03   -.307E+01 -.770E-01 -.111E+03   0.585E-02 0.123E-02 0.144E+00
   -.200E-01 0.129E+01 0.103E+03   0.207E-01 -.129E+01 -.103E+03   0.609E-03 0.554E-03 0.112E+00
   0.800E+01 0.806E+01 -.748E+02   -.791E+01 -.797E+01 0.750E+02   -.120E+00 -.115E+00 -.289E+00
   -.325E-01 0.536E-01 -.908E+02   0.308E-01 -.549E-01 0.908E+02   0.165E-02 -.312E-03 -.523E-01
   0.287E+02 0.124E+01 -.231E+03   -.285E+02 -.130E+01 0.230E+03   -.291E+00 0.702E-01 0.128E+01
   -.741E-01 0.325E+01 -.290E+03   0.743E-01 -.327E+01 0.288E+03   -.450E-03 0.194E-01 0.234E+01
   0.133E+01 -.902E+00 0.303E+03   -.132E+01 0.899E+00 -.301E+03   -.263E-02 0.913E-03 -.228E+01
   0.159E+01 -.160E+01 0.303E+03   -.159E+01 0.159E+01 -.301E+03   -.212E-02 0.241E-02 -.228E+01
   0.196E+01 -.211E+01 0.103E+03   -.196E+01 0.211E+01 -.103E+03   -.896E-03 -.295E-04 0.106E+00
   0.377E+01 -.215E+01 0.107E+03   -.374E+01 0.213E+01 -.107E+03   -.813E-04 0.324E-02 0.973E-01
   0.553E+01 -.279E+01 -.894E+02   -.550E+01 0.278E+01 0.894E+02   -.374E-01 0.103E-01 -.317E-01
   0.600E+01 -.605E+01 -.879E+02   -.600E+01 0.605E+01 0.879E+02   -.210E-02 0.524E-03 -.353E-01
   0.643E+01 -.588E+01 -.290E+03   -.640E+01 0.588E+01 0.288E+03   -.353E-01 -.118E-02 0.234E+01
   0.220E+02 -.116E+02 -.276E+03   -.218E+02 0.116E+02 0.274E+03   -.211E+00 -.312E-01 0.234E+01
   0.889E+00 -.905E+00 0.302E+03   -.887E+00 0.903E+00 -.300E+03   -.344E-03 0.537E-03 -.228E+01
   0.115E+01 -.176E-01 0.302E+03   -.115E+01 0.181E-01 -.300E+03   -.575E-03 -.475E-03 -.228E+01
   0.122E+01 -.237E-01 0.102E+03   -.122E+01 0.248E-01 -.102E+03   -.110E-03 0.239E-03 0.105E+00
   0.210E+01 -.197E+01 0.103E+03   -.209E+01 0.197E+01 -.103E+03   0.555E-04 0.117E-02 0.110E+00
   0.240E+01 -.245E+01 -.930E+02   -.240E+01 0.245E+01 0.931E+02   0.215E-03 0.117E-02 -.543E-01
   0.286E+01 -.380E-01 -.926E+02   -.287E+01 0.411E-01 0.926E+02   0.424E-02 -.379E-02 -.526E-01
   0.269E+01 -.551E-01 -.292E+03   -.270E+01 0.567E-01 0.290E+03   0.103E-01 -.343E-02 0.234E+01
   0.588E+01 -.644E+01 -.290E+03   -.588E+01 0.642E+01 0.288E+03   0.379E-02 0.324E-01 0.234E+01
[...]
   -.332E+01 -.384E+01 0.875E+03   0.332E+01 0.383E+01 -.878E+03   0.130E-01 0.957E-02 0.343E+01
   0.167E-01 -.439E+01 0.883E+03   -.160E-01 0.437E+01 -.887E+03   -.977E-03 0.263E-01 0.336E+01
   -.306E+02 -.152E+02 -.843E+03   0.305E+02 0.152E+02 0.848E+03   0.816E-01 0.710E-01 -.517E+01
   0.169E+01 -.889E+02 -.792E+03   -.171E+01 0.884E+02 0.797E+03   0.225E-01 0.531E+00 -.479E+01
   -.113E+02 -.111E+02 -.271E+03   0.113E+02 0.111E+02 0.270E+03   0.371E-01 0.383E-01 0.348E+00
   0.104E+00 -.269E+02 -.209E+03   -.710E-01 0.265E+02 0.209E+03   -.331E-01 0.380E+00 -.208E+00
   -.433E+01 -.438E+01 0.306E+03   0.433E+01 0.437E+01 -.306E+03   0.124E-01 0.102E-01 0.511E-02
   0.308E-01 -.115E+00 0.311E+03   -.312E-01 0.120E+00 -.311E+03   0.462E-03 -.104E-01 0.267E-01
   -.243E+01 -.529E-01 0.873E+03   0.243E+01 0.540E-01 -.877E+03   0.686E-02 0.888E-03 0.343E+01
   0.260E-01 -.431E+01 0.876E+03   -.262E-01 0.429E+01 -.880E+03   0.219E-03 0.279E-01 0.341E+01
   -.111E+02 -.111E+02 -.855E+03   0.111E+02 0.111E+02 0.860E+03   0.325E-01 0.339E-01 -.517E+01
   0.529E-01 -.713E+00 -.848E+03   -.524E-01 0.731E+00 0.853E+03   -.129E-02 -.179E-01 -.515E+01
   -.583E+01 -.131E+00 -.277E+03   0.581E+01 0.133E+00 0.277E+03   0.144E-01 -.161E-02 0.347E+00
   0.180E+00 -.183E+02 -.263E+03   -.178E+00 0.182E+02 0.262E+03   -.190E-02 0.124E+00 0.438E+00
   -.408E+00 -.122E+01 0.165E+02   0.568E-13 0.105E-11 0.136E-10   0.403E+00 0.119E+01 -.165E+02

 POSITION                                       TOTAL-FORCE (eV/Angst)
      7.05395      7.26365     16.21970         0.002560     -0.001246     -0.003346
      5.59942      6.63761     16.37190         0.002759     -0.001702      0.004986
      9.88848      5.50222     16.24591        -0.003417     -0.001686     -0.001979
     11.35747      6.10389     16.36134        -0.004198     -0.001601      0.002616
      7.60146      4.98045     16.23740        -0.002954      0.002949     -0.001464
      8.20465      3.52115     16.42896        -0.000871      0.002610      0.004988
      9.36547      7.83326     16.22783         0.004649     -0.007101     -0.003379
      8.73270      9.29470     16.27603        -0.002027     -0.007593      0.000067
      6.51897      6.43396     16.12661         0.002792      0.000892      0.000723
     10.43768      6.31957     16.12684        -0.006251     -0.004525     -0.000397
      8.41570      4.42293     16.13141        -0.000676      0.000039     -0.000823
      8.53012      8.35439     16.11992        -0.002992      0.001113      0.002802
      2.11679      0.00000      7.50000         0.000593      0.001787      0.445319
      4.23357      2.11679      7.50000         0.005411      0.005826      0.448168
      2.11679      2.11679      9.61679         0.001179      0.003046     -0.022201
      4.23357      0.00000      9.61679         0.002819      0.002675     -0.021838
      2.11639     -0.00008     11.73548        -0.002104     -0.001891      0.001821
      4.23295      2.11679     11.73412        -0.000365     -0.000219      0.000433
      2.11507      2.11395     13.82480        -0.001331     -0.000447     -0.000269
      4.23054     -0.00157     13.82425        -0.000500     -0.001436     -0.000589
      2.11679      4.23357      7.50000         0.005298      0.002241      0.448172
      4.23357      6.35036      7.50000         0.008680     -0.000856      0.458891
      2.11679      6.35036      9.61679         0.025699     -0.001024     -0.010001
      4.23357      4.23357      9.61679         0.027577      0.018153      0.003893
      2.11639      4.23387     11.73563         0.002519     -0.001700      0.000886
      4.24016      6.34982     11.74087         0.000676     -0.000512      0.002457
      2.11397      6.35039     13.82546         0.000631      0.000955      0.002165
      4.23109      4.22728     13.81728        -0.001516      0.000131     -0.003084
      6.35036      0.00000      7.50000         0.003407      0.005510      0.447685
      0.00000      2.11679      7.50000        -0.000056      0.000985      0.445615
      6.35036      2.11679      9.61679         0.019782      0.025500     -0.000267
      0.00000      0.00000      9.61679         0.000174      0.001733     -0.018890
      6.35108     -0.00110     11.73472        -0.002419      0.003871      0.000911
      0.00010      2.11626     11.73562         0.000038     -0.004042      0.000898
      6.34418      2.11385     13.81003         0.000171     -0.000386     -0.003902
      0.00012     -0.00109     13.82506         0.000139     -0.000496      0.001610
      6.35036      4.23357      7.50000         0.005828      0.005399      0.462789
      0.00000      6.35036      7.50000        -0.000172      0.000598      0.443627
      6.35036      6.35036      9.61679         0.013585     -0.003928      0.048458
      0.00000      4.23357      9.61679         0.001202     -0.000881     -0.025590
      6.35834      4.23932     11.74808        -0.001341     -0.002145      0.000639
      0.00008      6.35081     11.73664        -0.000283     -0.001058      0.000573
      6.35832      6.34037     13.88246        -0.003217     -0.001840      0.003228
      0.00021      4.23149     13.82470        -0.000156     -0.001913      0.003382
      2.11679      8.46714      7.50000         0.003861     -0.002637      0.447034
      4.23357     10.58393      7.50000         0.005152     -0.004663      0.446949
      2.11679     10.58393      9.61679         0.000832     -0.001922     -0.022304
      4.23357      8.46714      9.61679         0.023424     -0.018372     -0.003717
      2.11529      8.46709     11.73456         0.004189      0.001675      0.001140
      4.23324     10.58545     11.73397         0.000165     -0.000395      0.000998
      2.11457     10.58770     13.82464        -0.000321      0.000652     -0.000762
      4.23002      8.47472     13.80856        -0.001059      0.000041     -0.004107
      2.11679     12.70071      7.50000         0.001619     -0.000952      0.445451
      4.23357     14.81750      7.50000         0.001586      0.000193      0.445847
      2.11679     14.81750      9.61679         0.000466      0.001550     -0.022378
      4.23357     12.70071      9.61679         0.002842      0.000849     -0.021849
      2.11633     12.70152     11.73558        -0.002280      0.001678      0.002232
      4.23309     14.81786     11.73577        -0.004756      0.000187      0.001372
      2.11488     14.81825     13.82500         0.000521     -0.001121      0.001297
      4.22994     12.70341     13.82474         0.000410      0.000849      0.000673
[...]
      8.46714     10.58393      9.61679        -0.001478      0.029003      0.017177
     14.81750     10.58393      7.50000         0.005330      0.001051     -0.466196
      8.46714      8.46714      7.50000        -0.000253      0.007454     -0.484390
     14.82125      8.47127     13.88077         0.000291     -0.000115     -0.000586
      8.46924     10.60127     13.91354         0.000415     -0.000607      0.002334
     14.81944     10.58538     11.72867         0.002627      0.000177     -0.000683
      8.46606      8.47785     11.73750        -0.000146     -0.002048      0.001076
     14.81750     12.70071      9.61679         0.004550      0.002832      0.025287
      8.46714     14.81750      9.61679         0.000096     -0.005155      0.037717
     14.81750     14.81750      7.50000         0.003608      0.002052     -0.465372
      8.46714     12.70071      7.50000         0.000085      0.007914     -0.470968
     14.82114     12.70397     13.87808        -0.000415     -0.000099      0.002089
      8.46744     14.81761     13.88173        -0.000754     -0.000228     -0.000056
     14.81872     14.81784     11.72851        -0.001058      0.000205      0.000413
      8.46721     12.70054     11.73312         0.000059      0.005272     -0.000411
    total drift:                               -0.005141     -0.027827      0.008102

  FREE ENERGIE OF THE ION-ELECTRON SYSTEM (eV)
  free  energy   TOTEN  =     -1566.72294892 eV

  energy  without entropy=    -1566.72294892  energy(sigma->0) =    -1566.72294892

 d Force = 0.3749664E-04[ 0.217E-04, 0.533E-04]  d Energy = 0.3852862E-04-0.103E-05
 d Force =-0.3692256E+01[-0.369E+01,-0.369E+01]  d Ewald  =-0.3692256E+01-0.143E-08

 Conjugate gradient step on ions:
 trial-energy change:   -0.000039  1 .order   -0.000037   -0.000053   -0.000022
  (g-gl).g = 0.134E-03      g.g   = 0.144E-03  gl.gl    = 0.229E-03
 g(Force)  = 0.144E-03   g(Stress)= 0.000E+00 ortho     = 0.346E-06
 gamma     =   0.58713
 trial     =   0.36838
 opt step  =   0.56365  (harmonic =   0.62233) maximal distance =0.00088490
 next E    = -1566.722955   (d E  =  -0.00004)

 reached required accuracy - stopping structural energy minimisation