 vasp.6.4.2 20Jul23 (build Nov 17 2023 15:39:20) complex
 executed on              LinuxNV date 2024.02.27  20:33:45
 OpenACC runtime initialized ...    4 GPUs detected

 INCAR:
   SYSTEM = Oxide-Surface
   ISMEAR = 0
   SIGMA = 0.05
   EDIFF = 1E-4
   ALGO = Normal
   ISTART = 2
   IBRION = -1
   NSW = 0
   ISYM = 0
   DIPOL = 0.5 0.5 0.5
   IDIPOL = 3
   LDIPOL = .TRUE.
   LHFCALC = .TRUE.
   GGA = PE
   IVDW = 21
   VDW_SR = 0.96
   ENCUT = 450
   PREC = Normal
   LASPH = .TRUE.
   LREAL = Auto
   ISPIN = 1
   NELM = 200
   NELMIN = 8
   NCORE = 1
   KPAR = 1
   LWAVE = .FALSE.
   LCHARG = .FALSE.

 POTCAR:    PAW_PBE Mg_pv 13Apr2007
 POTCAR:    PAW_PBE O 08Apr2002
 POTCAR:    PAW_PBE Mg_pv 13Apr2007
   VRHFIN =Mg: p6s2

   TITEL  = PAW_PBE Mg_pv 13Apr2007
   POMASS =   24.305; ZVAL   =    8.000    mass and valenz
   ENMAX  =  403.929; ENMIN  =  302.947 eV

   TITEL  = PAW_PBE O 08Apr2002
   POMASS =   16.000; ZVAL   =    6.000    mass and valenz
   ENMAX  =  400.000; ENMIN  =  300.000 eV

 Optimization of the real space projectors (new method)

 maximal supplied QI-value         = 18.90
 optimisation between [QCUT,QGAM] = [ 10.77, 21.73] = [ 32.49,132.25] Ry
 Optimized for a Real-space Cutoff    1.23 Angstroem

   l    n(q)    QCUT    max X(q) W(low)/X(q) W(high)/X(q)  e(spline)
   1      7    10.771     2.974    0.18E-03    0.56E-05    0.13E-06
   1      7    10.771     4.279    0.39E-03    0.94E-04    0.28E-06
   0      8    10.771    16.381    0.27E-03    0.38E-03    0.44E-07
   0      8    10.771     5.611    0.18E-03    0.26E-03    0.32E-07
   2      7    10.771     4.652    0.12E-03    0.23E-03    0.45E-07
 Optimization of the real space projectors (new method)

 maximal supplied QI-value         = 24.76
 optimisation between [QCUT,QGAM] = [ 10.64, 21.54] = [ 31.73,129.89] Ry
 Optimized for a Real-space Cutoff    1.23 Angstroem

   l    n(q)    QCUT    max X(q) W(low)/X(q) W(high)/X(q)  e(spline)
   0      8    10.645    20.381    0.38E-03    0.60E-03    0.15E-06
   0      8    10.645    15.268    0.40E-03    0.65E-03    0.17E-06
   1      7    10.645     5.964    0.30E-03    0.63E-03    0.18E-06
   1      7    10.645     5.382    0.24E-03    0.53E-03    0.16E-06
  PAW_PBE Mg_pv 13Apr2007               :
  PAW_PBE O 08Apr2002                   :

 POSCAR: Mg  O
  positions in direct lattice
 exchange correlation table for  LEXCH =        8
   RHO(1)=    0.500       N(1)  =     2000
   RHO(2)=  100.500       N(2)  =     4000

 ion  position               nearest neighbor table
   1  0.000  0.750  0.352-  33 2.11  35 2.11  36 2.11  43 2.11  52 2.11
   2  0.250  0.000  0.352-  34 2.11  35 2.11  36 2.11  44 2.11  51 2.11
   3  0.000  0.000  0.451-  35 2.11  34 2.11  33 2.11  41 2.11  50 2.11  39 2.12
   4  0.250  0.750  0.451-  36 2.11  34 2.11  33 2.11  42 2.11  49 2.11  40 2.12
   5  0.000  0.750  0.550-  47 2.11  40 2.11  56 2.11  39 2.11  33 2.12  37 2.15
   6  0.250  0.000  0.550-  55 2.11  48 2.11  40 2.11  39 2.11  34 2.12  38 2.15
   7  0.000  0.000  0.649-  37 2.11  38 2.11  45 2.11  54 2.11  39 2.11
   8  0.250  0.750  0.649-  40 2.11  38 2.11  37 2.11  46 2.11  53 2.11
   9  0.000  0.250  0.352-  41 2.11  35 2.11  43 2.11  44 2.11  60 2.11
  10  0.250  0.500  0.352-  42 2.11  36 2.11  43 2.11  44 2.11  59 2.11
  11  0.000  0.500  0.451-  43 2.11  41 2.11  42 2.11  33 2.11  58 2.11  47 2.12
  12  0.250  0.250  0.451-  44 2.11  41 2.11  42 2.11  34 2.11  57 2.11  48 2.12
  13  0.000  0.250  0.550-  47 2.11  48 2.11  64 2.11  39 2.11  41 2.12  45 2.15
  14  0.250  0.500  0.550-  63 2.11  48 2.11  40 2.11  47 2.11  42 2.13  46 2.15
  15  0.000  0.500  0.649-  46 2.10  62 2.10  47 2.11  45 2.11  37 2.11
  16  0.250  0.250  0.649-  48 2.11  45 2.11  38 2.11  46 2.11  61 2.11
  17  0.500  0.750  0.352-  49 2.11  36 2.11  51 2.11  52 2.11  59 2.11
  18  0.750  0.000  0.352-  50 2.11  35 2.11  51 2.11  52 2.11  60 2.11
  19  0.500  0.000  0.451-  51 2.11  49 2.11  50 2.11  34 2.11  57 2.11  55 2.12
  20  0.750  0.750  0.451-  52 2.11  49 2.11  50 2.11  33 2.11  58 2.11  56 2.12
  21  0.500  0.750  0.550-  63 2.11  56 2.11  40 2.11  55 2.11  49 2.13  53 2.15
  22  0.750  0.000  0.550-  55 2.11  56 2.11  64 2.11  39 2.11  50 2.12  54 2.15
  23  0.500  0.000  0.649-  53 2.10  61 2.10  55 2.11  38 2.11  54 2.11
  24  0.750  0.750  0.649-  56 2.11  54 2.11  37 2.11  53 2.11  62 2.11
  25  0.500  0.250  0.352-  57 2.11  51 2.11  44 2.11  59 2.11  60 2.11
  26  0.750  0.500  0.352-  58 2.11  52 2.11  43 2.11  59 2.11  60 2.11
  27  0.500  0.500  0.451-  59 2.11  49 2.11  57 2.11  58 2.11  42 2.11  63 2.13
  28  0.750  0.250  0.451-  60 2.11  50 2.11  57 2.11  58 2.11  41 2.11  64 2.12
  29  0.500  0.250  0.550-  63 2.11  48 2.11  64 2.11  55 2.11  57 2.13  61 2.15
  30  0.750  0.500  0.550-  63 2.11  56 2.11  64 2.11  47 2.11  58 2.13  62 2.15
  31  0.500  0.500  0.651-  46 2.12  53 2.12  61 2.12  62 2.12  63 2.14
  32  0.750  0.250  0.649-  64 2.11  54 2.11  45 2.11  62 2.11  61 2.11
  33  0.000  0.750  0.451-   1 2.11   3 2.11   4 2.11  11 2.11  20 2.11   5 2.12
  34  0.250  0.000  0.451-   2 2.11   3 2.11   4 2.11  12 2.11  19 2.11   6 2.12
  35  0.000  0.000  0.352-   3 2.11   2 2.11   1 2.11   9 2.11  18 2.11
  36  0.250  0.750  0.352-   4 2.11   2 2.11   1 2.11  10 2.11  17 2.11
  37  0.000  0.750  0.651-   7 2.11   8 2.11  24 2.11  15 2.11   5 2.15
  38  0.250  0.000  0.651-   7 2.11   8 2.11  16 2.11  23 2.11   6 2.15
  39  0.000  0.000  0.550-   7 2.11   6 2.11   5 2.11  13 2.11  22 2.11   3 2.12
  40  0.250  0.750  0.550-   8 2.11   6 2.11   5 2.11  21 2.11  14 2.11   4 2.12
  41  0.000  0.250  0.451-   9 2.11   3 2.11  11 2.11  12 2.11  28 2.11  13 2.12
  42  0.250  0.500  0.451-  10 2.11   4 2.11  11 2.11  12 2.11  27 2.11  14 2.13
  43  0.000  0.500  0.352-  11 2.11   9 2.11  10 2.11   1 2.11  26 2.11
  44  0.250  0.250  0.352-  12 2.11   9 2.11  10 2.11   2 2.11  25 2.11
  45  0.000  0.250  0.651-   7 2.11  16 2.11  32 2.11  15 2.11  13 2.15
  46  0.249  0.500  0.651-  15 2.10   8 2.11  16 2.11  31 2.12  14 2.15
  47  0.000  0.500  0.550-  15 2.11  13 2.11   5 2.11  14 2.11  30 2.11  11 2.12
  48  0.250  0.250  0.550-  16 2.11  13 2.11   6 2.11  29 2.11  14 2.11  12 2.12
  49  0.500  0.750  0.451-  17 2.11   4 2.11  19 2.11  20 2.11  27 2.11  21 2.13
  50  0.750  0.000  0.451-  18 2.11   3 2.11  19 2.11  20 2.11  28 2.11  22 2.12
  51  0.500  0.000  0.352-  19 2.11  17 2.11  18 2.11   2 2.11  25 2.11
  52  0.750  0.750  0.352-  20 2.11  17 2.11  18 2.11   1 2.11  26 2.11
  53  0.500  0.751  0.651-  23 2.10   8 2.11  24 2.11  31 2.12  21 2.15
  54  0.750  0.000  0.651-   7 2.11  24 2.11  32 2.11  23 2.11  22 2.15
  55  0.500  0.000  0.550-  23 2.11  22 2.11   6 2.11  21 2.11  29 2.11  19 2.12
  56  0.750  0.750  0.550-  24 2.11  22 2.11   5 2.11  21 2.11  30 2.11  20 2.12
  57  0.500  0.250  0.451-  25 2.11  19 2.11  12 2.11  27 2.11  28 2.11  29 2.13
  58  0.750  0.500  0.451-  26 2.11  20 2.11  11 2.11  27 2.11  28 2.11  30 2.13
  59  0.500  0.500  0.352-  27 2.11  17 2.11  25 2.11  26 2.11  10 2.11
  60  0.750  0.250  0.352-  28 2.11  18 2.11  25 2.11  26 2.11   9 2.11
  61  0.500  0.249  0.651-  23 2.10  16 2.11  32 2.11  31 2.12  29 2.15
  62  0.751  0.500  0.651-  15 2.10  24 2.11  32 2.11  31 2.12  30 2.15
  63  0.500  0.500  0.550-  14 2.11  21 2.11  29 2.11  30 2.11  27 2.13  31 2.14
  64  0.750  0.250  0.550-  32 2.11  22 2.11  13 2.11  29 2.11  30 2.11  28 2.12

IMPORTANT INFORMATION: All symmetrisations will be switched off!
NOSYMM: (Re-)initialisation of all symmetry stuff for point group C_1.

                                     Primitive cell

  volume of cell :    1519.8199

  direct lattice vectors                    reciprocal lattice vectors
     8.440984654  0.000000000  0.000000000     0.118469591  0.000000000  0.000000000
     0.000000000  8.440984654  0.000000000     0.000000000  0.118469591  0.000000000
     0.000000000  0.000000000 21.330738491     0.000000000  0.000000000  0.046880702

  length of vectors
     8.440984654  8.440984654 21.330738491     0.118469591  0.118469591  0.046880702

  position of ions in fractional coordinates (direct lattice)
     0.000000000  0.750000000  0.351605267
     0.250000000  0.000000000  0.351605267
     0.000000000  0.000000000  0.450535089
     0.250000000  0.750000000  0.450535089
     0.000000000  0.749939268  0.550083239
     0.250060732  0.000000000  0.550083239
     0.000000000  0.000000000  0.648745309
     0.249858327  0.750141673  0.648569547
     0.000000000  0.250000000  0.351605267
     0.250000000  0.500000000  0.351605267
     0.000000000  0.500000000  0.450535089
     0.250000000  0.250000000  0.450535089
     0.000000000  0.250060732  0.550083239
     0.250378379  0.500000000  0.550219524
     0.000000000  0.500000000  0.648615280
     0.249858327  0.249858327  0.648569547
     0.500000000  0.750000000  0.351605267
     0.750000000  0.000000000  0.351605267
     0.500000000  0.000000000  0.450535089
     0.750000000  0.750000000  0.450535089
     0.500000000  0.749621621  0.550219524
     0.749939268  0.000000000  0.550083239
     0.500000000  0.000000000  0.648615280
     0.750141673  0.750141673  0.648569547
     0.500000000  0.250000000  0.351605267
     0.750000000  0.500000000  0.351605267
     0.500000000  0.500000000  0.450535089
     0.750000000  0.250000000  0.450535089
     0.500000000  0.250378379  0.550219524
     0.749621621  0.500000000  0.550219524
     0.500000000  0.500000000  0.650616960
     0.750141673  0.249858327  0.648569547
     0.000000000  0.750000000  0.450535089
     0.250000000  0.000000000  0.450535089
     0.000000000  0.000000000  0.351605267
     0.250000000  0.750000000  0.351605267
     0.000000000  0.750218533  0.650979255
     0.249781467  0.000000000  0.650979255
     0.000000000  0.000000000  0.549809890
     0.249945770  0.750054230  0.549859113
     0.000000000  0.250000000  0.450535089
     0.250000000  0.500000000  0.450535089
     0.000000000  0.500000000  0.351605267
     0.250000000  0.250000000  0.351605267
     0.000000000  0.249781467  0.650979255
     0.248822710  0.500000000  0.650882872
     0.000000000  0.500000000  0.549762666
     0.249945770  0.249945770  0.549859113
     0.500000000  0.750000000  0.450535089
     0.750000000  0.000000000  0.450535089
     0.500000000  0.000000000  0.351605267
     0.750000000  0.750000000  0.351605267
     0.500000000  0.751177290  0.650882872
     0.750218533  0.000000000  0.650979255
     0.500000000  0.000000000  0.549762666
     0.750054230  0.750054230  0.549859113
     0.500000000  0.250000000  0.450535089
     0.750000000  0.500000000  0.450535089
     0.500000000  0.500000000  0.351605267
     0.750000000  0.250000000  0.351605267
     0.500000000  0.248822710  0.650882872
     0.751177290  0.500000000  0.650882872
     0.500000000  0.500000000  0.550231357
     0.750054230  0.249945770  0.549859113

  ion indices of the primitive-cell ions
   primitive index   ion index
                 1           1
                 2           2
                 3           3
                 4           4
                 5           5
                 6           6
                 7           7
[...]
   O         195.550          4.868         19.119          3.54050147
   O         195.603          4.868         19.121          3.54098410
   O         190.468          4.846         18.869          3.49419782
   O         191.690          4.851         18.929          3.50538357
   O         242.097          5.044         21.273          3.93940767
   O         242.438          5.045         21.288          3.94218326
   O         238.742          5.032         21.125          3.91201457
   O         238.437          5.031         21.111          3.90951907
   O         195.550          4.868         19.119          3.54050142
   O         195.603          4.868         19.121          3.54098414
   O         191.690          4.851         18.929          3.50538340
   O         190.468          4.846         18.869          3.49419789
   O         242.097          5.044         21.273          3.93940754
   O         242.438          5.045         21.288          3.94218320
   O         238.742          5.032         21.125          3.91201447
   O         238.742          5.032         21.125          3.91201474
   O         195.591          4.868         19.121          3.54087788
   O         195.603          4.868         19.121          3.54098409
   O         191.690          4.851         18.929          3.50538340
   O         191.690          4.851         18.929          3.50538353
   O         239.334          5.034         21.151          3.91686277
   O         242.438          5.045         21.288          3.94218328

  vdW correction parametrized for the method 0 6    þ

  IVDW =  21
  VDW_RADIUS =    50.000 A
  VDW_IDAMPF =  0
  VDW_S6 =     1.000
  VDW_SR =     0.960
  VDW_D =    20.000
  LVDW_ONECELL = F F F
  LVDW_SAMETYPE T T
  LVDW_EWALD = F

  Number of pair interactions contributing to vdW energy:  723312
  Edisp (eV):   -3.84035

 VOLUME and BASIS-vectors are now :
  energy-cutoff  :      450.00
  volume of cell :     1519.82
      direct lattice vectors                 reciprocal lattice vectors
     8.440984654  0.000000000  0.000000000     0.118469591  0.000000000  0.000000000
     0.000000000  8.440984654  0.000000000     0.000000000  0.118469591  0.000000000
     0.000000000  0.000000000 21.330738491     0.000000000  0.000000000  0.046880702

  length of vectors
     8.440984654  8.440984654 21.330738491     0.118469591  0.118469591  0.046880702

 FORCES acting on ions
    electron-ion (+dipol)            ewald-force                    non-local-force                 convergence-correction
   -.409E-06 0.761E-01 0.207E+04   -.103E-12 -.754E-01 -.206E+04   0.253E-06 -.442E-03 -.675E+01   0.128E-06 -.851E-05 -.232E+00
   -.761E-01 -.715E-06 0.207E+04   0.754E-01 0.586E-13 -.206E+04   0.443E-03 -.101E-05 -.675E+01   0.659E-05 0.185E-05 -.232E+00
   -.404E-06 -.122E-05 0.684E+03   -.213E-13 0.782E-13 -.684E+03   -.338E-06 -.366E-06 0.461E+00   0.521E-06 0.132E-05 -.970E-01
   -.440E+00 0.440E+00 0.683E+03   0.441E+00 -.441E+00 -.684E+03   -.480E-03 0.481E-03 0.494E+00   0.110E-04 -.108E-04 -.970E-01
   0.232E-05 0.275E+00 -.690E+03   0.693E-13 -.271E+00 0.690E+03   0.151E-05 0.132E-02 -.148E+00   -.395E-05 -.354E-04 0.713E-01
   -.275E+00 -.121E-05 -.690E+03   0.271E+00 0.391E-13 0.690E+03   -.132E-02 -.112E-05 -.148E+00   0.367E-04 0.259E-05 0.713E-01
   0.639E-06 0.544E-06 -.205E+04   -.128E-12 0.249E-13 0.204E+04   0.434E-06 -.207E-07 0.567E+01   -.122E-05 -.592E-06 0.214E+00
   -.137E+01 0.137E+01 -.205E+04   0.121E+01 -.121E+01 0.204E+04   0.124E+00 -.124E+00 0.573E+01   0.994E-04 -.970E-04 0.214E+00
   0.499E-06 -.761E-01 0.207E+04   -.453E-13 0.754E-01 -.206E+04   -.484E-06 0.442E-03 -.675E+01   0.145E-06 0.861E-05 -.232E+00
   -.115E+00 0.115E-05 0.207E+04   0.116E+00 -.124E-13 -.206E+04   -.852E-03 0.522E-06 -.675E+01   -.187E-05 -.165E-05 -.232E+00
   0.526E-06 0.442E-06 0.683E+03   -.711E-14 0.711E-13 -.684E+03   0.146E-06 0.206E-06 0.441E+00   -.415E-06 -.632E-06 -.970E-01
   -.440E+00 -.440E+00 0.683E+03   0.441E+00 0.441E+00 -.684E+03   -.480E-03 -.481E-03 0.494E+00   0.118E-04 0.109E-04 -.970E-01
   -.502E-06 -.275E+00 -.690E+03   -.284E-13 0.271E+00 0.690E+03   -.101E-05 -.132E-02 -.148E+00   0.160E-05 0.349E-04 0.713E-01
   -.164E+01 0.125E-05 -.691E+03   0.172E+01 -.817E-13 0.692E+03   -.750E-01 0.119E-05 -.208E+00   -.169E-04 -.251E-05 0.716E-01
   0.286E-06 -.625E-06 -.205E+04   0.711E-14 -.320E-13 0.204E+04   0.359E-06 -.164E-06 0.565E+01   -.853E-06 0.884E-06 0.214E+00
   -.137E+01 -.137E+01 -.205E+04   0.121E+01 0.121E+01 0.204E+04   0.124E+00 0.124E+00 0.573E+01   0.995E-04 0.975E-04 0.214E+00
   0.421E-06 0.115E+00 0.207E+04   -.138E-13 -.116E+00 -.206E+04   -.334E-06 0.853E-03 -.675E+01   -.102E-06 0.116E-06 -.232E+00
   0.761E-01 -.119E-05 0.207E+04   -.754E-01 0.462E-13 -.206E+04   -.443E-03 -.346E-06 -.675E+01   -.606E-05 0.149E-05 -.232E+00
   0.339E-06 -.114E-05 0.683E+03   0.711E-14 0.000E+00 -.684E+03   -.866E-07 0.483E-06 0.441E+00   -.308E-06 0.111E-05 -.970E-01
   0.440E+00 0.440E+00 0.683E+03   -.441E+00 -.441E+00 -.684E+03   0.480E-03 0.481E-03 0.494E+00   -.115E-04 -.122E-04 -.970E-01
   -.237E-05 0.164E+01 -.691E+03   -.373E-13 -.172E+01 0.692E+03   -.151E-05 0.750E-01 -.208E+00   0.410E-05 0.195E-04 0.716E-01
   0.275E+00 0.101E-05 -.690E+03   -.271E+00 -.568E-13 0.690E+03   0.132E-02 0.160E-05 -.148E+00   -.367E-04 -.258E-05 0.713E-01
   -.106E-05 0.997E-06 -.205E+04   0.568E-13 -.995E-13 0.204E+04   -.237E-06 0.233E-06 0.565E+01   0.145E-05 -.126E-05 0.214E+00
   0.137E+01 0.137E+01 -.205E+04   -.121E+01 -.121E+01 0.204E+04   -.124E+00 -.124E+00 0.573E+01   -.991E-04 -.969E-04 0.214E+00
   0.606E-06 -.115E+00 0.207E+04   -.853E-13 0.116E+00 -.206E+04   0.423E-06 -.853E-03 -.675E+01   -.104E-05 -.296E-07 -.232E+00
   0.115E+00 0.117E-05 0.207E+04   -.116E+00 -.178E-14 -.206E+04   0.852E-03 -.533E-06 -.675E+01   0.268E-05 -.699E-06 -.232E+00
   0.936E-07 0.145E-05 0.681E+03   -.497E-13 0.604E-13 -.682E+03   -.210E-06 0.352E-06 0.581E+00   0.127E-06 -.169E-05 -.969E-01
   0.440E+00 -.440E+00 0.683E+03   -.441E+00 0.441E+00 -.684E+03   0.480E-03 -.480E-03 0.494E+00   -.105E-04 0.110E-04 -.970E-01
   0.643E-06 -.164E+01 -.691E+03   -.284E-13 0.172E+01 0.692E+03   0.145E-05 -.750E-01 -.208E+00   -.185E-05 -.177E-04 0.716E-01
   0.164E+01 -.970E-06 -.691E+03   -.172E+01 0.000E+00 0.692E+03   0.750E-01 -.141E-05 -.208E+00   0.165E-04 0.249E-05 0.716E-01
   -.838E-06 0.433E-06 -.207E+04   0.639E-13 0.000E+00 0.206E+04   -.426E-06 -.802E-07 0.604E+01   0.126E-05 -.339E-06 0.217E+00
   0.137E+01 -.137E+01 -.205E+04   -.121E+01 0.121E+01 0.204E+04   -.124E+00 0.124E+00 0.573E+01   -.995E-04 0.979E-04 0.214E+00
   -.475E-06 0.175E+00 0.512E+03   0.311E-13 -.177E+00 -.512E+03   0.109E-05 0.158E-02 -.713E-01   -.473E-06 -.966E-05 -.706E-01
   -.175E+00 -.591E-06 0.512E+03   0.177E+00 -.284E-13 -.512E+03   -.158E-02 -.371E-06 -.713E-01   0.865E-05 0.108E-05 -.706E-01
   -.450E-06 -.331E-06 0.155E+04   0.395E-13 -.666E-14 -.156E+04   -.317E-06 -.406E-06 0.309E+01   0.303E-06 0.577E-06 -.174E+00
   -.725E-01 0.725E-01 0.155E+04   0.725E-01 -.725E-01 -.156E+04   0.398E-04 -.396E-04 0.309E+01   0.182E-05 -.377E-05 -.174E+00
   0.157E-05 0.423E+00 -.156E+04   0.284E-13 -.450E+00 0.156E+04   0.806E-06 0.107E-01 -.461E+01   -.209E-05 -.806E-04 0.163E+00
   -.423E+00 0.320E-06 -.156E+04   0.450E+00 0.106E-12 0.156E+04   -.107E-01 0.249E-06 -.461E+01   0.813E-04 0.165E-06 0.163E+00
   0.501E-06 -.403E-06 -.512E+03   -.995E-13 0.711E-13 0.511E+03   0.148E-06 0.290E-06 0.207E+00   -.754E-06 0.530E-07 0.523E-01
   -.698E+00 0.698E+00 -.512E+03   0.687E+00 -.687E+00 0.511E+03   0.155E-01 -.155E-01 0.301E+00   0.175E-04 -.162E-04 0.524E-01
   0.614E-06 -.175E+00 0.512E+03   0.355E-13 0.177E+00 -.512E+03   -.144E-05 -.158E-02 -.713E-01   0.602E-06 0.828E-05 -.706E-01
   -.416E+00 -.171E-05 0.511E+03   0.385E+00 -.338E-13 -.511E+03   0.365E-01 -.669E-06 -.821E-01   0.819E-05 0.863E-06 -.706E-01
   0.939E-06 0.232E-06 0.155E+04   0.493E-13 -.107E-13 -.156E+04   -.331E-06 0.111E-05 0.309E+01   -.151E-06 -.804E-06 -.174E+00
   -.725E-01 -.725E-01 0.155E+04   0.725E-01 0.725E-01 -.156E+04   0.396E-04 0.387E-04 0.309E+01   0.368E-05 0.427E-05 -.174E+00
   -.584E-06 -.423E+00 -.156E+04   0.853E-13 0.450E+00 0.156E+04   0.687E-07 -.107E-01 -.461E+01   0.773E-06 0.801E-04 0.163E+00
   -.309E+01 0.258E-06 -.156E+04   0.301E+01 -.355E-13 0.156E+04   0.189E+00 -.527E-06 -.432E+01   0.164E-04 -.190E-06 0.163E+00
   -.618E-06 -.288E-05 -.511E+03   -.114E-12 -.924E-13 0.510E+03   -.300E-06 -.754E-07 0.280E+00   0.481E-06 0.167E-05 0.523E-01
   -.698E+00 -.698E+00 -.512E+03   0.687E+00 0.687E+00 0.511E+03   0.155E-01 0.155E-01 0.301E+00   0.175E-04 0.166E-04 0.524E-01
   -.150E-05 0.416E+00 0.511E+03   0.924E-13 -.385E+00 -.511E+03   -.128E-05 -.365E-01 -.821E-01   0.183E-05 -.607E-05 -.706E-01
   0.175E+00 -.318E-05 0.512E+03   -.177E+00 -.497E-13 -.512E+03   0.158E-02 -.120E-05 -.713E-01   -.990E-05 0.220E-05 -.706E-01
   -.977E-06 -.342E-06 0.155E+04   0.109E-12 -.213E-13 -.156E+04   0.263E-06 -.328E-06 0.309E+01   0.493E-06 0.781E-06 -.174E+00
   0.725E-01 0.725E-01 0.155E+04   -.725E-01 -.725E-01 -.156E+04   -.400E-04 -.393E-04 0.309E+01   -.227E-05 -.438E-05 -.174E+00
   -.967E-06 0.309E+01 -.156E+04   -.107E-13 -.301E+01 0.156E+04   -.928E-06 -.189E+00 -.432E+01   0.195E-05 -.146E-04 0.163E+00
   0.423E+00 0.308E-05 -.156E+04   -.450E+00 0.128E-12 0.156E+04   0.107E-01 0.771E-06 -.461E+01   -.820E-04 -.311E-05 0.163E+00
   -.185E-05 0.101E-06 -.511E+03   0.213E-13 0.568E-13 0.510E+03   0.776E-07 0.622E-06 0.280E+00   0.123E-05 -.723E-06 0.523E-01
   0.698E+00 0.698E+00 -.512E+03   -.687E+00 -.687E+00 0.511E+03   -.155E-01 -.155E-01 0.301E+00   -.166E-04 -.157E-04 0.524E-01
   0.208E-05 -.416E+00 0.511E+03   0.426E-13 0.385E+00 -.511E+03   0.882E-06 0.365E-01 -.821E-01   -.184E-05 0.830E-05 -.706E-01
   0.416E+00 -.208E-06 0.511E+03   -.385E+00 -.355E-13 -.511E+03   -.365E-01 -.337E-06 -.821E-01   -.716E-05 0.723E-06 -.706E-01
   0.171E-05 0.137E-05 0.155E+04   0.488E-14 -.608E-13 -.156E+04   -.279E-07 0.532E-06 0.309E+01   -.135E-05 -.148E-05 -.174E+00
   0.725E-01 -.725E-01 0.155E+04   -.725E-01 0.725E-01 -.156E+04   -.407E-04 0.386E-04 0.309E+01   -.115E-05 0.202E-05 -.174E+00
   0.655E-06 -.309E+01 -.156E+04   0.355E-13 0.301E+01 0.156E+04   -.406E-06 0.189E+00 -.432E+01   -.435E-06 0.173E-04 0.163E+00
   0.309E+01 -.105E-07 -.156E+04   -.301E+01 -.711E-14 0.156E+04   -.189E+00 0.347E-06 -.432E+01   -.177E-04 0.614E-06 0.163E+00
   -.125E-05 0.324E-05 -.520E+03   0.711E-14 0.711E-14 0.520E+03   -.619E-06 0.753E-06 -.910E-01   0.131E-05 -.250E-05 0.528E-01
   0.698E+00 -.698E+00 -.512E+03   -.687E+00 0.687E+00 0.511E+03   -.155E-01 0.155E-01 0.301E+00   -.169E-04 0.167E-04 0.524E-01
   -.620E-05 -.705E-05 0.187E+02   -.355E-12 0.293E-12 0.404E-11   -.562E-06 0.177E-05 -.153E+02   0.474E-05 0.419E-05 -.567E+00

 POSITION                                       TOTAL-FORCE (eV/Angst)
      0.00000      6.33074      7.50000        -0.000000      0.000158      0.503231
      2.11025      0.00000      7.50000        -0.000157     -0.000000      0.503233
      0.00000      0.00000      9.61025        -0.000000     -0.000000      0.025297
      2.11025      6.33074      9.61025         0.000659     -0.000658      0.023800
      0.00000      6.33023     11.73368         0.000000      0.004852      0.052852
      2.11076      0.00000     11.73368        -0.004852     -0.000000      0.052849
      0.00000      0.00000     13.83822        -0.000000     -0.000000     -0.107134
      2.10905      6.33193     13.83447        -0.026479      0.026479     -0.098092
      0.00000      2.11025      7.50000        -0.000000     -0.000158      0.503231
      2.11025      4.22049      7.50000         0.000264      0.000000      0.503073
      0.00000      4.22049      9.61025         0.000000      0.000000      0.030600
      2.11025      2.11025      9.61025         0.000659      0.000658      0.023797
      0.00000      2.11076     11.73368        -0.000000     -0.004852      0.052849
      2.11344      4.22049     11.73659        -0.007589      0.000000      0.043628
      0.00000      4.22049     13.83544        -0.000000      0.000000     -0.091723
      2.10905      2.10905     13.83447        -0.026478     -0.026479     -0.098084
      4.22049      6.33074      7.50000         0.000000     -0.000263      0.503070
      6.33074      0.00000      7.50000         0.000157     -0.000000      0.503235
      4.22049      0.00000      9.61025         0.000000      0.000000      0.030599
      6.33074      6.33074      9.61025        -0.000658     -0.000658      0.023799
      4.22049      6.32754     11.73659        -0.000000      0.007590      0.043649
      6.33023      0.00000     11.73368         0.004852      0.000000      0.052852
      4.22049      0.00000     13.83544         0.000000     -0.000000     -0.091723
      6.33193      6.33193     13.83447         0.026479      0.026479     -0.098101
      4.22049      2.11025      7.50000        -0.000000      0.000263      0.503071
      6.33074      4.22049      7.50000        -0.000263     -0.000000      0.503072
      4.22049      4.22049      9.61025        -0.000000      0.000000      0.031812
      6.33074      2.11025      9.61025        -0.000658      0.000658      0.023800
      4.22049      2.11344     11.73659         0.000000     -0.007590      0.043628
      6.32754      4.22049     11.73659         0.007590     -0.000000      0.043650
      4.22049      4.22049     13.87814         0.000000     -0.000000     -0.441564
      6.33193      2.10905     13.83447         0.026479     -0.026479     -0.098092
      0.00000      6.33074      9.61025         0.000000      0.000699      0.078906
      2.11025      0.00000      9.61025        -0.000698      0.000000      0.078905
      0.00000      0.00000      7.50000        -0.000000     -0.000000     -0.424312
      2.11025      6.33074      7.50000         0.000077     -0.000077     -0.423541
      0.00000      6.33258     13.88587         0.000001     -0.014630     -0.151457
      2.10840      0.00000     13.88587         0.014630      0.000001     -0.151457
      0.00000      0.00000     11.72785        -0.000000      0.000000      0.002756
      2.10979      6.33120     11.72890         0.008042     -0.008043      0.007264
      0.00000      2.11025      9.61025        -0.000000     -0.000698      0.078905
      2.11025      4.22049      9.61025         0.011536     -0.000002      0.089515
      0.00000      4.22049      7.50000         0.000000      0.000001     -0.423816
      2.11025      2.11025      7.50000         0.000076      0.000076     -0.423539
      0.00000      2.10840     13.88587         0.000000      0.014630     -0.151456
      2.10031      4.22049     13.88381         0.149884     -0.000000     -0.066292
      0.00000      4.22049     11.72684        -0.000000     -0.000001      0.019432
      2.10979      2.10979     11.72890         0.008043      0.008043      0.007263
      4.22049      6.33074      9.61025        -0.000001     -0.011537      0.089514
      6.33074      0.00000      9.61025         0.000699     -0.000002      0.078904
      4.22049      0.00000      7.50000        -0.000000      0.000000     -0.423815
      6.33074      6.33074      7.50000        -0.000077     -0.000076     -0.423539
      4.22049      6.34068     13.88381        -0.000000     -0.149884     -0.066300
      6.33258      0.00000     13.88587        -0.014629      0.000001     -0.151457
      4.22049      0.00000     11.72684        -0.000000      0.000000      0.019432
      6.33120      6.33120     11.72890        -0.008043     -0.008043      0.007262
      4.22049      2.11025      9.61025         0.000001      0.011536      0.089515
      6.33074      4.22049      9.61025        -0.011537      0.000000      0.089515
      4.22049      4.22049      7.50000         0.000000      0.000001     -0.424748
      6.33074      2.11025      7.50000        -0.000078      0.000077     -0.423541
      4.22049      2.10031     13.88381        -0.000000      0.149884     -0.066291
      6.34068      4.22049     13.88381        -0.149883      0.000001     -0.066301
      4.22049      4.22049     11.73684        -0.000001      0.000002      0.017342
      6.33120      2.10979     11.72890        -0.008043      0.008043      0.007265
    total drift:                               -0.000003     -0.000002      0.067022

  FREE ENERGIE OF THE ION-ELECTRON SYSTEM (eV)
  free  energy   TOTEN  =      -467.77656756 eV

  energy  without entropy=     -467.77656756  energy(sigma->0) =     -467.77656756