 vasp.6.3.0 20Jan22 (build Mar 11 2022 13:48:16) complex

 executed on             LinuxIFC date 2024.01.22  05:21:31

 INCAR:
   SYSTEM = TiO2
   ISMEAR = 0
   SIGMA = 0.05
   EDIFF = 1E-5
   ALGO = ALL
   ISTART = 0
   IBRION = -1
   NSW = 0
   ISYM = 0
   ISIF = 2
   EDIFFG = -0.01
   DIPOL = 0.5 0.5 0.5
   IDIPOL = 3
   LDIPOL = .TRUE.
   GGA = RE
   AGGAC = 0.0
   LUSE_VDW = .TRUE.
   LASPH = .TRUE.
   ENCUT = 600
   PREC = Accurate
   LASPH = .TRUE.
   LREAL = .FALSE.
   ISPIN = 1
   NELM = 200
   NELMIN = 8
   NCORE = 2
   KPAR = 1
   LWAVE = .FALSE.
   LCHARG = .FALSE.

 POTCAR:    PAW_PBE H 15Jun2001
 POTCAR:    PAW_PBE O 08Apr2002
 POTCAR:    PAW_PBE Ti_pv 07Sep2000
 POTCAR:    PAW_PBE O 08Apr2002
|           W    W    AA    RRRRR   N    N  II  N    N   GGGG   !!!           |
|           W    W   A  A   R    R  NN   N  II  NN   N  G    G  !!!           |
|           W    W  A    A  R    R  N N  N  II  N N  N  G       !!!           |
|           W WW W  AAAAAA  RRRRR   N  N N  II  N  N N  G  GGG   !            |
|           WW  WW  A    A  R   R   N   NN  II  N   NN  G    G                |
|           W    W  A    A  R    R  N    N  II  N    N   GGGG   !!!           |
|     For optimal performance we recommend to set                             |
|       NCORE = 2 up to number-of-cores-per-socket                            |
|     This setting can greatly improve the performance of VASP for DFT.       |
|     The default, NCORE=1 might be grossly inefficient on modern             |
|     multi-core architectures or massively parallel machines. Do your        |
|     Unfortunately you need to use the default for GW and RPA                |
|     calculations (for HF NCORE is supported but not extensively tested      |
|     yet).                                                                   |

   TITEL  = PAW_PBE H 15Jun2001
   POMASS =    1.000; ZVAL   =    1.000    mass and valenz
   ENMAX  =  250.000; ENMIN  =  200.000 eV

   TITEL  = PAW_PBE O 08Apr2002
   POMASS =   16.000; ZVAL   =    6.000    mass and valenz
   ENMAX  =  400.000; ENMIN  =  300.000 eV

   TITEL  = PAW_PBE Ti_pv 07Sep2000
   POMASS =   47.880; ZVAL   =   10.000    mass and valenz
   ENMAX  =  222.335; ENMIN  =  166.751 eV

   TITEL  = PAW_PBE O 08Apr2002
   POMASS =   16.000; ZVAL   =    6.000    mass and valenz
   ENMAX  =  400.000; ENMIN  =  300.000 eV

  PAW_PBE H 15Jun2001                   :
  PAW_PBE O 08Apr2002                   :
  PAW_PBE Ti_pv 07Sep2000               :
  PAW_PBE O 08Apr2002                   :

 POSCAR:  H  O Ti  O
  positions in direct lattice
 exchange correlation table for  LEXCH =       40
   RHO(1)=    0.500       N(1)  =     2000
   RHO(2)=  100.500       N(2)  =     4000

 ion  position               nearest neighbor table
   1  0.688  0.568  0.771-   3 0.97
   2  0.688  0.432  0.771-   3 0.97
   3  0.630  0.500  0.772-   1 0.97   2 0.97  51 2.23
   4  0.807  0.833  0.295-  54 1.93  88 1.93  56 1.93  55 1.99  53 1.99  21 3.04   5 3.04   7 3.04

   5  0.591  0.667  0.327-  57 1.93  52 1.93 119 1.93  55 1.93  58 1.99  56 1.99   6 3.04  36 3.04
                             4 3.04  10 3.07
   6  0.307  0.667  0.295-  58 1.93 124 1.93  60 1.93  59 1.99  52 1.99  39 3.04   5 3.04   7 3.04

   7  0.091  0.833  0.327-  61 1.93  53 1.93  91 1.93  59 1.93  60 1.99  54 1.99  22 3.04   6 3.04
                             4 3.04   8 3.07
   8  0.945  0.833  0.422-  62 1.93  96 1.93  64 1.93  54 1.97  63 1.98  61 1.98  11 3.00   9 3.04
                            25 3.04   7 3.07
   9  0.727  0.666  0.451-  57 1.90 127 1.93  63 1.94  65 1.95  66 1.99  64 1.99  10 3.01   8 3.04
                            40 3.05  14 3.09
  10  0.444  0.666  0.422-  66 1.93 132 1.93  68 1.93  58 1.96  67 1.98  57 1.99   9 3.01  11 3.04
                            43 3.05   5 3.07
  11  0.226  0.833  0.452-  61 1.90  99 1.94  67 1.94  69 1.96  62 1.97  68 1.99   8 3.00  10 3.04
                            26 3.04  12 3.09
  12  0.086  0.834  0.550-  70 1.93 104 1.93  72 1.93  71 1.97  69 1.99  62 1.99  15 2.95  13 3.03
                            29 3.04  11 3.09
  13  0.866  0.666  0.575-  65 1.87 135 1.93  71 1.94  74 1.95  73 1.99  72 1.99  14 2.98  12 3.03
                            44 3.05  18 3.15
  14  0.584  0.667  0.549- 140 1.93  76 1.93  74 1.93  66 1.97  75 1.97  65 2.00  13 2.98  15 3.04
                            47 3.05   9 3.09
  15  0.365  0.833  0.577-  69 1.87 107 1.94  75 1.94  70 1.95  77 1.98  76 2.00  12 2.95  30 3.04
                            14 3.04
  16  0.231  0.833  0.680-  78 1.86  80 1.93 112 1.94  79 2.00  70 2.08  77 2.08  19 2.85  33 3.06
                            17 3.08
  17  0.001  0.666  0.700-  73 1.78  81 1.84 143 1.96  79 1.98  80 2.05  18 2.86  16 3.08  48 3.09

[...]

  20  0.807  0.167  0.295-  86 1.93  88 1.93 120 1.93  87 1.99  85 1.99  21 3.04  37 3.04  23 3.04

[...]

  36  0.807  0.500  0.295- 118 1.93  56 1.93 120 1.93 119 1.99 117 1.99  37 3.04   5 3.04  39 3.04

  37  0.591  0.333  0.327- 121 1.93 116 1.93 119 1.93  87 1.93 122 1.99 120 1.99  38 3.04  36 3.04
                            20 3.04  42 3.07
  38  0.307  0.333  0.295- 122 1.93 124 1.93  92 1.93 123 1.99 116 1.99  39 3.04  37 3.04  23 3.04

  39  0.091  0.500  0.327- 125 1.93 117 1.93 123 1.93  59 1.93 124 1.99 118 1.99   6 3.04  38 3.04
                            36 3.04  40 3.05
  40  0.946  0.500  0.422- 126 1.93 128 1.93  64 1.93 118 1.97 125 1.97 127 1.99  43 3.00   9 3.05
                            41 3.05  39 3.05
  41  0.727  0.334  0.451- 121 1.90 127 1.93  95 1.94 129 1.95 130 1.99 128 1.99  42 3.01  24 3.04
                            40 3.05  46 3.09
  42  0.444  0.334  0.422- 130 1.93 132 1.93 100 1.93 122 1.96 131 1.98 121 1.99  41 3.01  27 3.04
                            43 3.05  37 3.07
  43  0.226  0.500  0.453- 125 1.93 131 1.94  67 1.94 126 1.96 133 1.96 132 2.00  40 3.00  42 3.05
                            10 3.05  44 3.06
  44  0.089  0.500  0.550- 134 1.93 136 1.93  72 1.93 133 1.97 135 2.00 126 2.00  47 2.97  13 3.05
                            45 3.05  43 3.06
  45  0.866  0.334  0.575- 129 1.87 135 1.93 103 1.94 138 1.95 137 1.99 136 1.99  46 2.98  28 3.03
                            44 3.05  50 3.15
  46  0.584  0.333  0.549- 140 1.93 108 1.93 138 1.93 130 1.97 139 1.97 129 2.00  45 2.98  31 3.04
                            47 3.05  41 3.09
  47  0.367  0.500  0.580- 133 1.93  75 1.94 139 1.94 134 1.94 141 1.97 140 2.01  44 2.97  14 3.05
                            46 3.05  48 3.12
  48  0.235  0.500  0.680- 142 1.86  80 1.93 144 1.93 143 2.02 141 2.03 134 2.08  51 2.88  17 3.09
                            49 3.09  47 3.12
  49  0.001  0.334  0.700- 137 1.78 145 1.84 143 1.96 111 1.98 144 2.05  50 2.86  32 3.08  48 3.09

  50  0.729  0.334  0.676- 145 1.89 147 1.92 115 1.94 146 1.99 138 2.02 137 2.08  49 2.86  35 3.07
                            51 3.07  45 3.15
  51  0.506  0.500  0.706- 142 1.82 141 1.88 146 1.97  82 1.97 147 2.09   3 2.23  48 2.88  50 3.07
                            18 3.07
  52  0.487  0.667  0.269-   5 1.93   6 1.99
  53  0.987  0.833  0.269-   7 1.93   4 1.99
  54  0.911  0.833  0.353-   4 1.93   8 1.97   7 1.99
  55  0.627  0.833  0.321-  21 1.93   5 1.93   4 1.99
  56  0.771  0.667  0.300-  36 1.93   4 1.93   5 1.99
  57  0.623  0.667  0.395-   9 1.90   5 1.93  10 1.99
  58  0.411  0.667  0.353-   6 1.93  10 1.96   5 1.99
  59  0.127  0.667  0.321-  39 1.93   7 1.93   6 1.99
  60  0.271  0.833  0.300-  22 1.93   6 1.93   7 1.99
  61  0.123  0.833  0.395-  11 1.90   7 1.93   8 1.98
  62  0.050  0.834  0.480-   8 1.93  11 1.97  12 1.99
  63  0.764  0.833  0.447-  25 1.94   9 1.94   8 1.98
  64  0.909  0.667  0.427-   8 1.93  40 1.93   9 1.99
  65  0.763  0.666  0.520-  13 1.87   9 1.95  14 2.00
  66  0.549  0.666  0.480-  10 1.93  14 1.97   9 1.99
  67  0.264  0.667  0.448-  43 1.94  11 1.94  10 1.98
  68  0.408  0.833  0.427-  10 1.93  26 1.93  11 1.99
  69  0.263  0.833  0.521-  15 1.87  11 1.96  12 1.99
  70  0.193  0.833  0.607-  12 1.93  15 1.95  16 2.08
  71  0.904  0.833  0.572-  29 1.94  13 1.94  12 1.97
  72  0.051  0.667  0.553-  44 1.93  12 1.93  13 1.99
  73  0.912  0.668  0.645-  17 1.78  13 1.99  18 2.08
  74  0.694  0.670  0.605-  14 1.93  13 1.95  18 2.02
  75  0.405  0.667  0.574-  47 1.94  15 1.94  14 1.97
  76  0.549  0.833  0.553-  30 1.93  14 1.93  15 2.00
  77  0.411  0.834  0.646-  19 1.79  15 1.98  16 2.08
  78  0.347  0.833  0.731-  19 1.83  16 1.86
  79  0.051  0.833  0.708-  33 1.98  17 1.98  16 2.00
  80  0.194  0.666  0.681-  16 1.93  48 1.93  17 2.05
  81  0.841  0.660  0.730-  17 1.84  18 1.89
  82  0.554  0.668  0.707-  19 1.96  51 1.97  18 1.99
  83  0.694  0.834  0.679-  34 1.93  18 1.94  19 2.04
  84  0.487  0.000  0.269-  21 1.93  22 1.99
  85  0.987  0.167  0.269-  23 1.93  20 1.99
  86  0.911  0.167  0.353-  20 1.93  24 1.97  23 1.99
  87  0.627  0.167  0.321-  21 1.93  37 1.93  20 1.99
  88  0.771  0.000  0.300-   4 1.93  20 1.93  21 1.99
  89  0.623  0.000  0.395-  25 1.90  21 1.93  26 1.99
  90  0.411  0.000  0.353-  22 1.93  26 1.97  21 1.99
  91  0.127  0.000  0.321-   7 1.93  23 1.93  22 1.99
  92  0.271  0.167  0.300-  22 1.93  38 1.93  23 1.99
  93  0.123  0.167  0.395-  27 1.90  23 1.93  24 1.98
  94  0.050  0.166  0.480-  24 1.93  27 1.97  28 1.99
  95  0.764  0.167  0.447-  25 1.94  41 1.94  24 1.98
  96  0.908  0.000  0.427-   8 1.93  24 1.93  25 1.99
  97  0.763  0.000  0.520-  29 1.87  25 1.95  30 2.00
  98  0.549  0.000  0.479-  26 1.92  25 1.98  30 1.98
  99  0.264  0.000  0.448-  11 1.94  27 1.94  26 1.98
 100  0.408  0.167  0.427-  42 1.93  26 1.93  27 1.99
 101  0.263  0.167  0.521-  31 1.87  27 1.96  28 1.99
 102  0.193  0.167  0.607-  28 1.93  31 1.95  32 2.08
 103  0.904  0.167  0.572-  29 1.94  45 1.94  28 1.97
 104  0.051  1.000  0.553-  12 1.93  28 1.93  29 2.01
 105  0.912  0.000  0.645-  33 1.79  29 1.99  34 2.07
 106  0.693  0.000  0.606-  30 1.93  29 1.95  34 2.07
 107  0.404  0.000  0.573-  31 1.94  15 1.94  30 1.98
 108  0.549  0.167  0.553-  30 1.93  46 1.93  31 2.00
 109  0.411  0.166  0.646-  35 1.79  31 1.98  32 2.08
 110  0.347  0.167  0.731-  35 1.83  32 1.86
 111  0.051  0.167  0.708-  33 1.98  49 1.98  32 2.00
[...]
 133  0.265  0.500  0.522-  47 1.93  43 1.96  44 1.97
 134  0.193  0.500  0.607-  44 1.93  47 1.94  48 2.08
 135  0.905  0.500  0.573-  13 1.93  45 1.93  44 2.00
 136  0.051  0.333  0.553-  44 1.93  28 1.93  45 1.99
 137  0.912  0.332  0.645-  49 1.78  45 1.99  50 2.08
 138  0.694  0.330  0.605-  46 1.93  45 1.95  50 2.02
 139  0.405  0.333  0.574-  47 1.94  31 1.94  46 1.97
 140  0.550  0.500  0.554-  46 1.93  14 1.93  47 2.01
 141  0.413  0.500  0.648-  51 1.88  47 1.97  48 2.03
 142  0.345  0.500  0.733-  51 1.82  48 1.86
 143  0.051  0.500  0.707-  49 1.96  17 1.96  48 2.02
 144  0.194  0.334  0.681-  32 1.93  48 1.93  49 2.05
 145  0.841  0.340  0.730-  49 1.84  50 1.89
 146  0.554  0.332  0.707-  35 1.96  51 1.97  50 1.99
 147  0.691  0.500  0.675-  18 1.92  50 1.92  51 2.09

IMPORTANT INFORMATION: All symmetrisations will be switched off!
NOSYMM: (Re-)initialisation of all symmetry stuff for point group C_1.

[...]
  10.12209479  9.46381658  7.50000000
   9.34541571  9.46381658  9.84509201
   6.43232271  9.46381658  8.96554979
   7.90769693  7.57105327  8.37954222
   6.39199420  7.57105327 11.01816888
   4.21792484  7.57105327  9.84509201
   1.30483183  7.57105327  8.96554979
   2.78020605  9.46381658  8.37954222
[...]
   2.71519812  5.67828948 14.55660815
   1.98325137  5.67829009 16.94663270
   9.27669860  5.67829025 15.98881807
   0.52184410  3.78735827 15.42860093
   9.35630848  3.77004056 17.98543007
   7.11712469  3.75253245 16.88311285
   4.15087089  3.78725954 16.02059511
   5.64290977  5.67828954 15.45383640
   4.23056639  5.67828826 18.08941244
   3.53976820  5.67829004 20.45394685
   0.52811425  5.67828947 19.73657776
   1.98554169  3.79012575 18.99935208
   8.62932216  3.85842996 20.36096205
   5.68518657  3.76622110 19.73148024
   7.08845444  5.67828966 18.82703671

--------------------------------------- Iteration      FINAL  ---------------------------------------

--------------------OUTCAR has been truncated-------------------------

[...]

--------------------OUTCAR has been truncated-------------------------

  FORCE on cell =-STRESS in cart. coord.  units (eV):
  Direction    XX          YY          ZZ          XY          YZ          ZX
  Alpha Z  2451.31809  2451.31809  2451.31809
  Ewald  490165.41165483425.68931************     0.00687     0.00099 -1969.31247
  Hartree511243.94614507157.48015************     0.00042    -0.00007 -1302.24321
  E(xc)   -5320.42184 -5325.31907 -5328.24093     0.00002     0.00002    -1.27602
  Local  ************************************    -0.00390    -0.00067  3279.46380
  n-local -3286.25382 -3257.74553 -3298.53118    -0.00063     0.00004     1.47567
  augment  3186.20091  3182.67234  3176.78620    -0.00009    -0.00002    -1.28888
  Kinetic 17245.02150 17292.19846 17362.75023     0.00004    -0.00044   -20.06563
  Fock        0.00000     0.00000     0.00000     0.00000     0.00000     0.00000
  Total      68.57612    85.92455    79.51371     0.00273    -0.00015   -13.24674
  in kB      33.81451    42.36892    39.20777     0.00135    -0.00008    -6.53190

 VOLUME and BASIS-vectors are now :
  energy-cutoff  :      600.00
  volume of cell :     3249.23
      direct lattice vectors                 reciprocal lattice vectors
    10.254981746  0.000000000  0.000000000     0.097513582 -0.000000000  0.000000000
     0.000000000 11.356579900  0.000000000     0.000000000  0.088054679  0.000000000
     0.000000000  0.000000000 27.899598656     0.000000000  0.000000000  0.035842810

  length of vectors
    10.254981746 11.356579900 27.899598656     0.097513582  0.088054679  0.035842810

 FORCES acting on ions:
    Electron-Ion                     Ewald-Force                    Non-Local-Force
   -.517E+02 -.663E+02 -.364E+03   0.570E+02 0.733E+02 0.364E+03   -.512E+01 -.681E+01 0.115E+00
   -.517E+02 0.663E+02 -.364E+03   0.570E+02 -.733E+02 0.364E+03   -.512E+01 0.680E+01 0.115E+00
   0.959E+01 0.890E-02 -.220E+04   -.508E+02 -.162E-01 0.221E+04   0.410E+02 0.264E-02 -.903E+01
   0.610E+01 -.783E-01 0.339E+04   -.131E+01 0.804E-01 -.338E+04   -.102E+01 -.482E-03 -.311E+01
   0.451E+01 -.199E+00 0.279E+04   -.596E+01 0.201E+00 -.279E+04   -.140E+00 -.961E-03 -.825E-01
   0.620E+01 0.140E+00 0.339E+04   -.144E+01 -.144E+00 -.338E+04   -.101E+01 0.113E-02 -.311E+01
   0.305E+01 0.906E-01 0.279E+04   -.454E+01 -.969E-01 -.279E+04   -.131E+00 0.133E-02 -.871E-01
   0.235E+00 -.147E+00 0.127E+04   -.372E+00 0.148E+00 -.127E+04   0.146E+00 -.118E-02 0.159E-02
   0.203E+01 -.211E+01 0.808E+03   -.199E+01 0.209E+01 -.808E+03   -.397E-01 0.246E-01 -.125E+00
   0.238E+01 -.596E-01 0.127E+04   -.251E+01 0.544E-01 -.127E+04   0.136E+00 0.681E-02 -.199E-01
   -.429E+01 0.244E+00 0.797E+03   0.432E+01 -.243E+00 -.797E+03   -.204E-01 0.107E-02 -.120E+00
   -.675E+01 -.243E+01 -.782E+03   0.649E+01 0.243E+01 0.782E+03   0.277E+00 0.104E-02 0.124E+00
   -.107E+02 -.423E+01 -.117E+04   0.108E+02 0.426E+01 0.117E+04   -.658E-01 -.398E-01 -.197E+00
   0.284E+01 -.235E+01 -.748E+03   -.306E+01 0.234E+01 0.748E+03   0.232E+00 0.525E-02 0.810E-01
   0.353E+01 -.261E+01 -.121E+04   -.344E+01 0.262E+01 0.121E+04   -.839E-01 -.808E-02 -.251E+00
   0.295E+02 -.125E+02 -.280E+04   -.306E+02 0.125E+02 0.280E+04   0.972E+00 0.173E-01 -.115E+00
   -.877E+02 -.291E+02 -.320E+04   0.880E+02 0.290E+02 0.320E+04   -.378E-01 0.177E+00 0.698E+00
   -.111E+02 -.557E+02 -.270E+04   0.103E+02 0.558E+02 0.270E+04   0.807E+00 -.525E-01 0.509E-01
   -.551E+02 -.360E+02 -.319E+04   0.555E+02 0.360E+02 0.319E+04   -.445E-02 0.125E-01 0.727E+00
   0.610E+01 0.783E-01 0.339E+04   -.131E+01 -.804E-01 -.338E+04   -.102E+01 0.490E-03 -.311E+01
   0.438E+01 0.515E-05 0.279E+04   -.586E+01 -.118E-04 -.279E+04   -.133E+00 -.960E-06 -.893E-01
   0.606E+01 0.751E-05 0.339E+04   -.128E+01 -.327E-05 -.338E+04   -.102E+01 -.119E-05 -.311E+01
   0.305E+01 -.906E-01 0.279E+04   -.454E+01 0.969E-01 -.279E+04   -.132E+00 -.133E-02 -.871E-01
   0.236E+00 0.147E+00 0.127E+04   -.372E+00 -.148E+00 -.127E+04   0.146E+00 0.118E-02 0.159E-02
   -.723E+00 0.135E-03 0.803E+03   0.730E+00 -.127E-03 -.803E+03   -.684E-02 -.260E-05 -.126E+00
   0.240E+01 0.509E-04 0.127E+04   -.253E+01 -.591E-04 -.127E+04   0.136E+00 -.457E-06 -.149E-01
   -.429E+01 -.243E+00 0.797E+03   0.432E+01 0.243E+00 -.797E+03   -.204E-01 -.108E-02 -.120E+00
   -.675E+01 0.243E+01 -.782E+03   0.649E+01 -.243E+01 0.782E+03   0.277E+00 -.104E-02 0.124E+00
   -.689E+01 0.323E-03 -.120E+04   0.695E+01 -.337E-03 0.120E+04   -.448E-01 0.311E-05 -.225E+00
   -.166E+01 0.119E-03 -.771E+03   0.142E+01 -.113E-03 0.770E+03   0.261E+00 -.367E-05 0.144E+00
   0.353E+01 0.261E+01 -.121E+04   -.344E+01 -.262E+01 0.121E+04   -.839E-01 0.808E-02 -.251E+00
   0.295E+02 0.125E+02 -.280E+04   -.306E+02 -.125E+02 0.280E+04   0.972E+00 -.173E-01 -.115E+00
   -.741E+02 -.151E-03 -.321E+04   0.745E+02 0.132E-03 0.321E+04   -.617E-01 0.126E-04 0.700E+00
   0.116E+02 0.637E-03 -.279E+04   -.126E+02 -.709E-03 0.279E+04   0.904E+00 0.990E-05 -.607E-01
   -.551E+02 0.360E+02 -.319E+04   0.555E+02 -.360E+02 0.319E+04   -.442E-02 -.125E-01 0.727E+00
   0.607E+01 -.617E-06 0.339E+04   -.126E+01 -.484E-05 -.338E+04   -.102E+01 -.390E-05 -.311E+01
   0.451E+01 0.199E+00 0.279E+04   -.596E+01 -.201E+00 -.279E+04   -.140E+00 0.963E-03 -.825E-01
   0.620E+01 -.140E+00 0.339E+04   -.144E+01 0.144E+00 -.338E+04   -.101E+01 -.113E-02 -.311E+01
   0.211E+01 -.117E-04 0.279E+04   -.356E+01 0.158E-04 -.279E+04   -.148E+00 0.491E-07 -.843E-01
   0.398E+00 -.157E-03 0.127E+04   -.523E+00 0.151E-03 -.127E+04   0.134E+00 0.264E-05 0.383E-01
   0.203E+01 0.211E+01 0.808E+03   -.199E+01 -.209E+01 -.808E+03   -.397E-01 -.246E-01 -.125E+00
   0.238E+01 0.594E-01 0.127E+04   -.251E+01 -.543E-01 -.127E+04   0.136E+00 -.681E-02 -.200E-01
   -.671E+01 -.300E-03 0.779E+03   0.675E+01 0.313E-03 -.779E+03   -.396E-01 0.438E-05 -.366E-01
   -.446E+01 -.357E-03 -.785E+03   0.426E+01 0.369E-03 0.785E+03   0.198E+00 -.601E-06 0.131E+00
   -.107E+02 0.422E+01 -.117E+04   0.108E+02 -.426E+01 0.117E+04   -.658E-01 0.398E-01 -.197E+00
   0.284E+01 0.235E+01 -.748E+03   -.306E+01 -.234E+01 0.748E+03   0.232E+00 -.524E-02 0.810E-01
   0.316E+01 -.264E-03 -.125E+04   -.307E+01 0.266E-03 0.125E+04   -.923E-01 0.546E-05 -.140E+00
   0.441E+02 0.651E-04 -.280E+04   -.450E+02 -.478E-04 0.280E+04   0.750E+00 0.263E-05 -.359E-01
   -.877E+02 0.291E+02 -.320E+04   0.880E+02 -.290E+02 0.320E+04   -.379E-01 -.177E+00 0.698E+00
   -.111E+02 0.557E+02 -.270E+04   0.103E+02 -.558E+02 0.270E+04   0.807E+00 0.525E-01 0.509E-01
   0.399E+02 0.193E-02 -.315E+04   -.394E+02 -.180E-02 0.315E+04   -.365E+00 -.356E-04 0.383E+00
   -.335E+02 -.288E-01 0.229E+04   0.384E+02 0.292E-01 -.230E+04   -.652E+01 -.406E-03 0.168E+02
   -.339E+02 -.268E-01 0.229E+04   0.387E+02 0.255E-01 -.230E+04   -.651E+01 0.177E-02 0.168E+02
   0.835E+02 0.541E-01 0.139E+04   -.884E+02 -.584E-01 -.139E+04   0.373E+01 0.203E-02 -.434E+01
   0.761E+02 -.666E-01 0.169E+04   -.831E+02 0.694E-01 -.169E+04   0.716E+01 -.562E-02 -.255E+01
   -.876E+02 -.912E-01 0.195E+04   0.949E+02 0.902E-01 -.195E+04   -.683E+01 0.120E-02 -.873E-01
   -.725E+02 -.900E+00 0.106E+04   0.783E+02 0.943E+00 -.107E+04   -.574E+01 -.365E-01 0.401E+01
   0.843E+02 0.103E+00 0.139E+04   -.892E+02 -.876E-01 -.139E+04   0.369E+01 -.178E-01 -.416E+01
   0.752E+02 0.117E+00 0.169E+04   -.822E+02 -.125E+00 -.169E+04   0.718E+01 0.190E-01 -.257E+01
   -.877E+02 0.324E-01 0.195E+04   0.950E+02 -.308E-01 -.195E+04   -.680E+01 -.588E-02 -.921E-01
[...]
   0.897E+02 -.156E-03 -.108E+04   -.969E+02 0.154E-03 0.109E+04   0.691E+01 0.692E-05 -.681E+01
   0.705E+02 0.836E-04 -.716E+03   -.766E+02 -.887E-04 0.719E+03   0.590E+01 -.124E-04 -.298E+01
   -.854E+02 0.896E+00 -.462E+03   0.919E+02 -.938E+00 0.459E+03   -.635E+01 0.426E-01 0.264E+01
   -.740E+02 0.157E+02 -.129E+04   0.766E+02 -.163E+02 0.128E+04   -.240E+01 0.650E+00 0.921E+01
   0.823E+02 0.167E+02 -.104E+04   -.888E+02 -.175E+02 0.104E+04   0.627E+01 0.743E+00 -.518E+01
   0.834E+02 0.142E+01 -.730E+03   -.900E+02 -.147E+01 0.733E+03   0.635E+01 0.604E-01 -.300E+01
   -.747E+02 -.252E-03 -.466E+03   0.809E+02 0.257E-03 0.464E+03   -.605E+01 0.642E-05 0.210E+01
   -.572E+02 -.490E-04 -.132E+04   0.628E+02 0.271E-04 0.131E+04   -.534E+01 0.251E-04 0.613E+01
   0.112E+03 0.140E-03 -.228E+04   -.118E+03 -.786E-04 0.231E+04   0.612E+01 -.712E-04 -.204E+02
   0.425E+02 -.679E-05 -.201E+04   -.463E+02 0.473E-04 0.202E+04   0.368E+01 -.494E-04 -.701E+01
   -.538E+02 0.812E+01 -.167E+04   0.588E+02 -.801E+01 0.167E+04   -.485E+01 -.957E-01 0.257E+01
   0.317E+01 0.379E+02 -.227E+04   -.826E+01 -.376E+02 0.229E+04   0.496E+01 -.374E+00 -.186E+02
   0.854E+02 0.573E+02 -.197E+04   -.903E+02 -.574E+02 0.197E+04   0.474E+01 0.334E-01 -.660E+01
   -.597E+02 0.817E-03 -.152E+04   0.632E+02 -.836E-03 0.152E+04   -.338E+01 -.459E-04 0.522E+01
   -.381E+02 0.273E-04 0.719E+02   -.149E-12 -.124E-11 -.159E-11   0.381E+02 -.385E-04 -.718E+02

 POSITION                                       TOTAL-FORCE (eV/Angst)
      7.05772      6.44571     21.51822         0.174414      0.211279      0.097972
      7.05776      4.91080     21.51820         0.170899     -0.206660      0.098095
      6.45692      5.67832     21.53910        -0.198363     -0.004702      0.373880
      8.27721      9.46382      8.23277         3.786049      0.001651      1.184432
      6.06281      7.57105      9.11232        -1.592578      0.001622     -1.975278
      3.14972      7.57105      8.23277         3.751559     -0.002589      1.163282
      0.93532      9.46382      9.11232        -1.632361     -0.004935     -1.975883
      9.68880      9.46486     11.78508         0.013509      0.000455      0.021269
      7.45463      7.56688     12.59103        -0.011799      0.000577     -0.026027
      4.55328      7.56885     11.78048         0.013021      0.000203      0.016818
      2.31720      9.46347     12.60505        -0.014257      0.001857     -0.023877
      0.88467      9.46635     15.33981         0.016774     -0.001502      0.038224
      8.88150      7.56737     16.05093        -0.026127     -0.011842     -0.050257
      5.99342      7.56942     15.31050         0.014409      0.000391      0.024988
      3.74106      9.46403     16.08911        -0.037364     -0.000334     -0.047091
      2.37094      9.45623     18.96724        -0.081316      0.002298      0.030651
      0.00842      7.55935     19.52237         0.137821      0.032805      0.300674
      7.47583      7.56019     18.86549        -0.037584      0.040478      0.014811
      5.16726      9.47379     19.52644         0.172563      0.005161      0.282214
      8.27721      1.89276      8.23277         3.786082     -0.001641      1.184467
      6.06281      0.00000      9.11232        -1.614396     -0.000007     -1.972337
      3.14972      0.00000      8.23277         3.775850      0.000003      1.176931
      0.93532      1.89276      9.11232        -1.632394      0.004925     -1.975884
      9.68880      1.89172     11.78508         0.013519     -0.000456      0.021279
      7.44858      0.00000     12.59615        -0.017222      0.000006     -0.028809
      4.55607      0.00000     11.78411         0.013535     -0.000009      0.021335
      2.31720      1.89311     12.60505        -0.014277     -0.001859     -0.023901
      0.88467      1.89023     15.33981         0.016778      0.001491      0.038227
      8.86814      0.00000     16.06742        -0.030682     -0.000009     -0.040644
      5.99960      0.00000     15.32593         0.014918      0.000002      0.040735
      3.74106      1.89255     16.08911        -0.037368      0.000326     -0.047121
      2.37094      1.90035     18.96724        -0.081335     -0.002336      0.030632
      0.03269     11.35658     19.52079         0.174229     -0.000006      0.288061
      7.50799     11.35658     18.93605        -0.073927     -0.000061      0.037799
      5.16726      1.88279     19.52644         0.172498     -0.005223      0.282238
      8.27721      5.67829      8.23277         3.796235     -0.000009      1.178958
      6.06281      3.78553      9.11232        -1.592525     -0.001613     -1.975251
      3.14972      3.78553      8.23277         3.751558      0.002579      1.163273
      0.93532      5.67829      9.11232        -1.602750      0.000004     -1.904294
      9.70238      5.67829     11.78038         0.020005     -0.000003      0.029703
      7.45463      3.78970     12.59104        -0.011778     -0.000589     -0.026046
      4.55328      3.78773     11.78047         0.013015     -0.000204      0.016827
      2.32119      5.67829     12.63432        -0.014031      0.000017     -0.010016
      0.91249      5.67829     15.34690         0.016031      0.000012      0.040590
      8.88150      3.78921     16.05093        -0.026107      0.011857     -0.050288
      5.99342      3.78716     15.31050         0.014369     -0.000386      0.024976
      3.76271      5.67829     16.17439        -0.029669      0.000007     -0.019514
      2.40549      5.67829     18.98177        -0.087624      0.000020      0.029704
      0.00842      3.79723     19.52238         0.138015     -0.032802      0.300621
      7.47583      3.79638     18.86549        -0.037653     -0.040431      0.014652
      5.19205      5.67829     19.70006         0.002300      0.000100      0.106277
      4.99460      7.57105      7.50000        -1.679206      0.000006      0.458035
     10.12209      9.46382      7.50000        -1.673732      0.000416      0.451889
      9.34542      9.46382      9.84509        -1.213348     -0.002311     -0.095403
      6.43232      9.46382      8.96555         0.139033     -0.002886      0.019427
      7.90770      7.57105      8.37954         0.477698      0.000192     -1.210626
      6.39199      7.57105     11.01817         0.123653      0.006787      0.268970
      4.21792      7.57105      9.84509        -1.221346     -0.002003     -0.090887
      1.30483      7.57105      8.96555         0.152190      0.011206      0.010760
      2.78021      9.46382      8.37954         0.490163     -0.004276     -1.213340
[...]
      2.71520      5.67829     14.55661         0.236231      0.000001     -0.123626
      1.98325      5.67829     16.94663        -0.234564      0.000005      0.178410
      9.27670      5.67829     15.98882        -0.207038     -0.000017      0.094736
      0.52184      3.78736     15.42860         0.220841      0.000488     -0.089596
      9.35631      3.77004     17.98543         0.176074     -0.010947     -0.143261
      7.11712      3.75253     16.88311        -0.210182     -0.022302      0.142258
      4.15087      3.78726     16.02060        -0.212364      0.002371      0.098795
      5.64291      5.67829     15.45384         0.213704      0.000011     -0.084031
      4.23057      5.67829     18.08941         0.220279      0.000003     -0.110512
      3.53977      5.67829     20.45395        -0.188468     -0.000009      0.737091
      0.52811      5.67829     19.73658        -0.135249     -0.000009      0.274312
      1.98554      3.79013     18.99935         0.200979      0.007679     -0.088790
      8.62932      3.85843     20.36096        -0.131145     -0.005460      0.692222
      5.68519      3.76622     19.73148        -0.173059     -0.009605      0.225732
      7.08845      5.67829     18.82704         0.148242     -0.000065     -0.181863
    total drift:                               -0.000466     -0.000011      0.080968

  FREE ENERGIE OF THE ION-ELECTRON SYSTEM (eV)
  free  energy   TOTEN  =      -952.52732331 eV

  energy  without entropy=     -952.52732331  energy(sigma->0) =     -952.52732331