 vasp.6.3.0 20Jan22 (build Apr  1 2022 16:44:48) complex
 executed on        HPECrayEX_GCC date 2022.10.08  14:40:13

 INCAR:
   SYSTEM = MgO-rocksalt
   ISMEAR = 0
   SIGMA = 0.05
   EDIFF = 1E-7
   ALGO = ALL
   ISTART = 0
   IBRION = 2
   NSW = 1000
   ISYM = 0
   ISIF = 2
   EDIFFG = -0.01
   DIPOL = 0.5 0.5 0.5
   IDIPOL = 3
   LDIPOL = .TRUE.
   LHFCALC = .TRUE.
   GGA = B5
   AEXX = 0.2
   AGGAX = 0.72
   AGGAC = 0.81
   ALDAC = 0.19
   IVDW = 1
   VDW_S6 = 1.05
   VDW_C6 = 0.14 0.70 0.63 0.70
   VDW_R0 = 1.001 1.342 1.243 1.342
   ENCUT = 600
   PREC = Accurate
   LASPH = .TRUE.
   LREAL = .FALSE.
   ISPIN = 1
   NELM = 200
   NELMIN = 8
   NCORE = 8
   KPAR = 1
   LWAVE = .FALSE.
   LCHARG = .FALSE.

 POTCAR:    PAW_PBE H 15Jun2001
 POTCAR:    PAW_PBE O 08Apr2002
 POTCAR:    PAW_PBE Mg_pv 13Apr2007
 POTCAR:    PAW_PBE O 08Apr2002
 POTCAR:    PAW_PBE H 15Jun2001
   VRHFIN =H: ultrasoft test

   TITEL  = PAW_PBE H 15Jun2001
   POMASS =    1.000; ZVAL   =    1.000    mass and valenz
   ENMAX  =  250.000; ENMIN  =  200.000 eV

   TITEL  = PAW_PBE O 08Apr2002
   POMASS =   16.000; ZVAL   =    6.000    mass and valenz
   ENMAX  =  400.000; ENMIN  =  300.000 eV

   TITEL  = PAW_PBE Mg_pv 13Apr2007
   POMASS =   24.305; ZVAL   =    8.000    mass and valenz
   ENMAX  =  403.929; ENMIN  =  302.947 eV

   TITEL  = PAW_PBE O 08Apr2002
   POMASS =   16.000; ZVAL   =    6.000    mass and valenz
   ENMAX  =  400.000; ENMIN  =  300.000 eV

  PAW_PBE H 15Jun2001                   :
  PAW_PBE O 08Apr2002                   :
  PAW_PBE Mg_pv 13Apr2007               :
  PAW_PBE O 08Apr2002                   :

 POSCAR:  H  O Mg  O
  positions in direct lattice
 exchange correlation table for  LEXCH =       12
   RHO(1)=    0.500       N(1)  =     2000
   RHO(2)=  100.500       N(2)  =     4000

 ion  position               nearest neighbor table
   1  0.613  0.553  0.762-   3 0.96
   2  0.510  0.672  0.725-   3 0.96
   3  0.506  0.571  0.747-   1 0.96   2 0.96  19 2.21
   4  0.250  0.000  0.352-  38 2.10  39 2.10  46 2.10  55 2.10  36 2.10
   5  0.500  0.250  0.352-  38 2.10  39 2.10  47 2.10  54 2.10  37 2.10
   6  0.250  0.250  0.451-  36 2.10  37 2.10  44 2.10  53 2.10  38 2.10  42 2.11
   7  0.500  0.000  0.451-  36 2.10  37 2.10  45 2.10  52 2.10  39 2.10  43 2.11
   8  0.250  0.000  0.550-  42 2.10  43 2.10  50 2.10  59 2.10  36 2.11  40 2.13
   9  0.500  0.250  0.550-  42 2.10  43 2.10  51 2.10  58 2.10  37 2.11  41 2.13
  10  0.250  0.250  0.648-  42 2.09  41 2.10  40 2.10  48 2.10  57 2.10
  11  0.500  0.000  0.648-  43 2.09  41 2.10  40 2.10  49 2.10  56 2.10
  12  0.250  0.500  0.352-  38 2.10  46 2.10  47 2.10  63 2.10  44 2.10
  13  0.500  0.750  0.352-  39 2.10  46 2.10  47 2.10  62 2.10  45 2.10
  14  0.250  0.750  0.451-  36 2.10  44 2.10  45 2.10  61 2.10  46 2.10  50 2.11
  15  0.500  0.500  0.451-  37 2.10  44 2.10  45 2.10  60 2.10  47 2.10  51 2.11
  16  0.250  0.500  0.550-  42 2.10  50 2.10  51 2.10  67 2.10  44 2.11  48 2.13
  17  0.500  0.750  0.550-  43 2.10  50 2.10  51 2.10  66 2.10  45 2.11  49 2.13
  18  0.250  0.750  0.648-  50 2.09  48 2.10  49 2.10  40 2.10  65 2.10
  19  0.500  0.500  0.648-  51 2.09  48 2.10  49 2.10  41 2.10  64 2.10   3 2.21
  20  0.750  0.000  0.352-  39 2.10  54 2.10  55 2.10  62 2.10  52 2.10
  21  0.000  0.250  0.352-  38 2.10  54 2.10  55 2.10  63 2.10  53 2.10
  22  0.750  0.250  0.451-  37 2.10  52 2.10  53 2.10  60 2.10  54 2.10  58 2.11
  23  0.000  0.000  0.451-  36 2.10  52 2.10  53 2.10  61 2.10  55 2.10  59 2.11
  24  0.750  0.000  0.550-  43 2.10  58 2.10  59 2.10  66 2.10  52 2.11  56 2.13
  25  0.000  0.250  0.550-  42 2.10  58 2.10  59 2.10  67 2.10  53 2.11  57 2.13
  26  0.750  0.250  0.648-  58 2.09  56 2.10  57 2.10  41 2.10  64 2.10
  27  0.000  0.000  0.648-  59 2.09  56 2.10  57 2.10  40 2.10  65 2.10
  28  0.750  0.500  0.352-  47 2.10  54 2.10  62 2.10  63 2.10  60 2.10
  29  0.000  0.750  0.352-  46 2.10  55 2.10  62 2.10  63 2.10  61 2.10
  30  0.750  0.750  0.451-  45 2.10  52 2.10  60 2.10  61 2.10  62 2.10  66 2.11
  31  0.000  0.500  0.451-  44 2.10  53 2.10  60 2.10  61 2.10  63 2.10  67 2.11
  32  0.750  0.500  0.550-  51 2.10  58 2.10  66 2.10  67 2.10  60 2.11  64 2.13
  33  0.000  0.750  0.550-  50 2.10  59 2.10  66 2.10  67 2.10  61 2.11  65 2.13
  34  0.750  0.750  0.648-  66 2.09  56 2.10  64 2.10  65 2.10  49 2.10
  35  0.000  0.500  0.648-  67 2.09  57 2.10  64 2.10  65 2.10  48 2.10
  36  0.250  0.000  0.451-   6 2.10   7 2.10  14 2.10  23 2.10   4 2.10   8 2.11
  37  0.500  0.250  0.451-   6 2.10   7 2.10  15 2.10  22 2.10   5 2.10   9 2.11
  38  0.250  0.250  0.352-   4 2.10   5 2.10  12 2.10  21 2.10   6 2.10
  39  0.500  0.000  0.352-   4 2.10   5 2.10  13 2.10  20 2.10   7 2.10
  40  0.250  0.000  0.650-  10 2.10  11 2.10  18 2.10  27 2.10   8 2.13
  41  0.500  0.250  0.650-  10 2.10  11 2.10  19 2.10  26 2.10   9 2.13
  42  0.250  0.250  0.550-  10 2.09   9 2.10   8 2.10  16 2.10  25 2.10   6 2.11
  43  0.500  0.000  0.550-  11 2.09   9 2.10   8 2.10  17 2.10  24 2.10   7 2.11
  44  0.250  0.500  0.451-   6 2.10  14 2.10  15 2.10  31 2.10  12 2.10  16 2.11
  45  0.500  0.750  0.451-   7 2.10  14 2.10  15 2.10  30 2.10  13 2.10  17 2.11
  46  0.250  0.750  0.352-   4 2.10  12 2.10  13 2.10  29 2.10  14 2.10
  47  0.500  0.500  0.352-   5 2.10  12 2.10  13 2.10  28 2.10  15 2.10
  48  0.250  0.500  0.650-  10 2.10  18 2.10  19 2.10  35 2.10  16 2.13
  49  0.500  0.750  0.650-  11 2.10  18 2.10  19 2.10  34 2.10  17 2.13
  50  0.250  0.750  0.550-  18 2.09  16 2.10  17 2.10   8 2.10  33 2.10  14 2.11
  51  0.500  0.500  0.550-  19 2.09  16 2.10  17 2.10   9 2.10  32 2.10  15 2.11
  52  0.750  0.000  0.451-   7 2.10  22 2.10  23 2.10  30 2.10  20 2.10  24 2.11
  53  0.000  0.250  0.451-   6 2.10  22 2.10  23 2.10  31 2.10  21 2.10  25 2.11
  54  0.750  0.250  0.352-   5 2.10  20 2.10  21 2.10  28 2.10  22 2.10
  55  0.000  0.000  0.352-   4 2.10  20 2.10  21 2.10  29 2.10  23 2.10
  56  0.750  0.000  0.650-  11 2.10  26 2.10  27 2.10  34 2.10  24 2.13
  57  0.000  0.250  0.650-  10 2.10  26 2.10  27 2.10  35 2.10  25 2.13
  58  0.750  0.250  0.550-  26 2.09  24 2.10  25 2.10   9 2.10  32 2.10  22 2.11
  59  0.000  0.000  0.550-  27 2.09  24 2.10  25 2.10   8 2.10  33 2.10  23 2.11
  60  0.750  0.500  0.451-  15 2.10  22 2.10  30 2.10  31 2.10  28 2.10  32 2.11
  61  0.000  0.750  0.451-  14 2.10  23 2.10  30 2.10  31 2.10  29 2.10  33 2.11
  62  0.750  0.750  0.352-  13 2.10  20 2.10  28 2.10  29 2.10  30 2.10
  63  0.000  0.500  0.352-  12 2.10  21 2.10  28 2.10  29 2.10  31 2.10
  64  0.750  0.500  0.650-  19 2.10  26 2.10  34 2.10  35 2.10  32 2.13
  65  0.000  0.750  0.650-  18 2.10  27 2.10  34 2.10  35 2.10  33 2.13
  66  0.750  0.750  0.550-  34 2.09  24 2.10  32 2.10  33 2.10  17 2.10  30 2.11
  67  0.000  0.500  0.550-  35 2.09  25 2.10  32 2.10  33 2.10  16 2.10  31 2.11

IMPORTANT INFORMATION: All symmetrisations will be switched off!
NOSYMM: (Re-)initialisation of all symmetry stuff for point group C_1.

                                     Primitive cell

  volume of cell :    1504.9259

  direct lattice vectors                    reciprocal lattice vectors
     8.404861995  0.000000000  0.000000000     0.118978753  0.000000000  0.000000000
     0.000000000  8.404861995  0.000000000     0.000000000  0.118978753  0.000000000
     0.000000000  0.000000000 21.303646496     0.000000000  0.000000000  0.046940321

  length of vectors
     8.404861995  8.404861995 21.303646496     0.118978753  0.118978753  0.046940321

  position of ions in fractional coordinates (direct lattice)
     0.612581725  0.553066324  0.762062833
     0.509861197  0.671566671  0.725425952
     0.505623897  0.571469791  0.747443393
     0.250000000  0.000000000  0.352052406
     0.500000000  0.250000000  0.352052406
     0.250000000  0.250000000  0.450684135
     0.500000000  0.000000000  0.450684135
     0.250000000  0.000000000  0.549854606
     0.500000000  0.250000000  0.549854606
     0.250000000  0.250000000  0.647800792
     0.500000000  0.000000000  0.647800792
     0.250000000  0.500000000  0.352052406
     0.500000000  0.750000000  0.352052406
     0.250000000  0.750000000  0.450684135
     0.500000000  0.500000000  0.450684135
     0.250000000  0.500000000  0.549854606
     0.500000000  0.750000000  0.549854606
     0.250000000  0.750000000  0.647800792
     0.500000000  0.500000000  0.647800792
     0.750000000  0.000000000  0.352052406
     0.000000000  0.250000000  0.352052406
     0.750000000  0.250000000  0.450684135
     0.000000000  0.000000000  0.450684135
     0.750000000  0.000000000  0.549854606
     0.000000000  0.250000000  0.549854606
     0.750000000  0.250000000  0.647800792
     0.000000000  0.000000000  0.647800792
     0.750000000  0.500000000  0.352052406
     0.000000000  0.750000000  0.352052406
     0.750000000  0.750000000  0.450684135
     0.000000000  0.500000000  0.450684135
     0.750000000  0.500000000  0.549854606
     0.000000000  0.750000000  0.549854606
     0.750000000  0.750000000  0.647800792
     0.000000000  0.500000000  0.647800792
     0.250000000  0.000000000  0.450684135
     0.500000000  0.250000000  0.450684135
     0.250000000  0.250000000  0.352052406
     0.500000000  0.000000000  0.352052406
     0.250000000  0.000000000  0.649826189
     0.500000000  0.250000000  0.649826189
     0.250000000  0.250000000  0.549588670
     0.500000000  0.000000000  0.549588670
     0.250000000  0.500000000  0.450684135
     0.500000000  0.750000000  0.450684135
     0.250000000  0.750000000  0.352052406
     0.500000000  0.500000000  0.352052406
     0.250000000  0.500000000  0.649826189
     0.500000000  0.750000000  0.649826189
     0.250000000  0.750000000  0.549588670
     0.500000000  0.500000000  0.549588670
     0.750000000  0.000000000  0.450684135
     0.000000000  0.250000000  0.450684135
     0.750000000  0.250000000  0.352052406
     0.000000000  0.000000000  0.352052406
     0.750000000  0.000000000  0.649826189
     0.000000000  0.250000000  0.649826189
     0.750000000  0.250000000  0.549588670
     0.000000000  0.000000000  0.549588670
     0.750000000  0.500000000  0.450684135
     0.000000000  0.750000000  0.450684135
     0.750000000  0.750000000  0.352052406
     0.000000000  0.500000000  0.352052406
     0.750000000  0.500000000  0.649826189
     0.000000000  0.750000000  0.649826189
     0.750000000  0.750000000  0.549588670
     0.000000000  0.500000000  0.549588670

  ion indices of the primitive-cell ions
   primitive index   ion index
                 1           1
                 2           2
                 3           3
                 4           4
                 5           5
                 6           6
                 7           7
                 8           8
                 9           9
                10          10
                11          11
                12          12
                13          13
                14          14
                15          15
                16          16
                17          17
                18          18
                19          19
                20          20
[...]
   4.20243100  4.20243100 13.80051907
   6.30364650  0.00000000  7.50000000
   0.00000000  2.10121550  7.50000000
   6.30364650  2.10121550  9.60121550
   0.00000000  0.00000000  9.60121550
   6.30364650  0.00000000 11.71390814
   0.00000000  2.10121550 11.71390814
   6.30364650  2.10121550 13.80051907
   0.00000000  0.00000000 13.80051907
   6.30364650  4.20243100  7.50000000
   0.00000000  6.30364650  7.50000000
   6.30364650  6.30364650  9.60121550
   0.00000000  4.20243100  9.60121550
   6.30364650  4.20243100 11.71390814
   0.00000000  6.30364650 11.71390814
   6.30364650  6.30364650 13.80051907
   0.00000000  4.20243100 13.80051907
   2.10121550  0.00000000  9.60121550
   4.20243100  2.10121550  9.60121550
   2.10121550  2.10121550  7.50000000
   4.20243100  0.00000000  7.50000000
   2.10121550  0.00000000 13.84366741
   4.20243100  2.10121550 13.84366741
   2.10121550  2.10121550 11.70824275
   4.20243100  0.00000000 11.70824275
   2.10121550  4.20243100  9.60121550
   4.20243100  6.30364650  9.60121550
   2.10121550  6.30364650  7.50000000
   4.20243100  4.20243100  7.50000000
   2.10121550  4.20243100 13.84366741
   4.20243100  6.30364650 13.84366741
   2.10121550  6.30364650 11.70824275
   4.20243100  4.20243100 11.70824275
   6.30364650  0.00000000  9.60121550
   0.00000000  2.10121550  9.60121550
   6.30364650  2.10121550  7.50000000
   0.00000000  0.00000000  7.50000000
   6.30364650  0.00000000 13.84366741
   0.00000000  2.10121550 13.84366741
   6.30364650  2.10121550 11.70824275
   0.00000000  0.00000000 11.70824275
   6.30364650  4.20243100  9.60121550
   0.00000000  6.30364650  9.60121550
   6.30364650  6.30364650  7.50000000
   0.00000000  4.20243100  7.50000000
   6.30364650  4.20243100 13.84366741
   0.00000000  6.30364650 13.84366741
   6.30364650  6.30364650 11.70824275
   0.00000000  4.20243100 11.70824275

--------------------------------------- Iteration      FINAL  ---------------------------------------

--------------------OUTCAR has been truncated-------------------------

[...]

--------------------OUTCAR has been truncated-------------------------

  Number of pair interactions contributing to vdW energy:  799931
  Edisp (eV):   -5.32036

  FORCE on cell =-STRESS in cart. coord.  units (eV):
  Direction    XX          YY          ZZ          XY          YZ          ZX
  Alpha Z   908.19951   908.19951   908.19951
  Ewald  162577.27937162594.13980************   -16.14136   -22.90527    32.20393
  Hartree172853.77678172870.56326************    -3.36271     1.16272     7.07875
  E(xc)   -2031.83434 -2031.82324 -2035.04391    -0.06560    -0.22023     0.08390
  Local  ************************345387.87445    15.07078    11.41840   -30.97653
  n-local -1196.05837 -1195.74433 -1217.63848    -0.15502     0.46166     0.20033
  augment   903.02952   903.32487   894.00161     0.28358     0.66217    -0.57211
  Kinetic  7487.78567  7491.80245  7536.61805     4.40942     9.30145    -7.96816
  Fock    -2009.00259 -2009.00443 -2005.85391     0.01024     0.04204     0.01951
  vdW        -7.76103    -7.64676    -6.36097    -0.00296    -0.00094     0.01244
  Total     -29.65157   -29.37817    -2.39640     0.04638    -0.07801     0.08206
  in kB     -31.56772   -31.27665    -2.55126     0.04938    -0.08305     0.08737

 VOLUME and BASIS-vectors are now :
  energy-cutoff  :      600.00
  volume of cell :     1504.93
      direct lattice vectors                 reciprocal lattice vectors
     8.404861995  0.000000000  0.000000000     0.118978753  0.000000000  0.000000000
     0.000000000  8.404861995  0.000000000     0.000000000  0.118978753  0.000000000
     0.000000000  0.000000000 21.303646496     0.000000000  0.000000000  0.046940321

  length of vectors
     8.404861995  8.404861995 21.303646496     0.118978753  0.118978753  0.046940321

 FORCES acting on ions:
    Electron-Ion                     Ewald-Force                    Non-Local-Force
   -.829E+02 0.171E+02 -.296E+03   0.910E+02 -.188E+02 0.299E+03   -.784E+01 0.164E+01 -.244E+01
   0.168E+01 -.710E+02 -.268E+03   -.188E+01 0.777E+02 0.264E+03   0.197E+00 -.644E+01 0.376E+01
   0.478E+02 0.272E+02 -.172E+04   -.858E+02 -.488E+02 0.173E+04   0.338E+02 0.192E+02 -.948E+01
   -.447E-01 -.113E-01 0.211E+04   0.478E-01 0.133E-01 -.210E+04   -.201E-02 -.129E-02 -.642E+01
   0.218E-03 -.433E-01 0.211E+04   -.110E-02 0.511E-01 -.210E+04   0.596E-03 -.523E-02 -.641E+01
   -.166E+00 -.144E+00 0.725E+03   0.165E+00 0.158E+00 -.726E+03   0.103E-02 -.718E-02 0.348E+00
   0.117E+00 -.112E+00 0.725E+03   -.138E+00 0.648E-01 -.725E+03   0.133E-01 0.306E-01 0.364E+00
   0.245E+01 -.834E+00 -.651E+03   -.241E+01 0.905E+00 0.652E+03   -.375E-01 -.661E-01 -.235E+00
   -.238E-01 0.339E+01 -.645E+03   -.172E-01 -.320E+01 0.645E+03   0.386E-01 -.177E+00 -.446E+00
   0.162E+02 0.177E+02 -.203E+04   -.166E+02 -.178E+02 0.203E+04   0.355E+00 0.984E-01 0.558E+01
   0.107E+01 -.109E+02 -.202E+04   -.114E+01 0.112E+02 0.202E+04   0.708E-01 -.307E+00 0.539E+01
   -.769E-01 0.125E-01 0.211E+04   0.833E-01 -.142E-01 -.210E+04   -.436E-02 0.110E-02 -.642E+01
   0.595E-02 0.410E-01 0.211E+04   -.714E-02 -.490E-01 -.210E+04   0.818E-03 0.546E-02 -.643E+01
   -.184E+00 0.142E+00 0.725E+03   0.275E+00 -.150E+00 -.725E+03   -.591E-01 0.375E-02 0.463E+00
   0.198E-01 0.153E+00 0.723E+03   0.316E-02 -.114E+00 -.723E+03   -.160E-01 -.267E-01 0.594E+00
   0.354E+01 0.781E+00 -.643E+03   -.328E+01 -.842E+00 0.644E+03   -.238E+00 0.577E-01 -.935E+00
   0.258E+00 -.236E+01 -.653E+03   -.333E+00 0.212E+01 0.652E+03   0.693E-01 0.222E+00 0.734E+00
   0.244E+02 -.204E+02 -.201E+04   -.253E+02 0.205E+02 0.200E+04   0.839E+00 -.596E-01 0.565E+01
   0.497E+01 0.273E+02 -.193E+04   -.547E+01 -.294E+02 0.193E+04   0.448E+00 0.189E+01 0.238E+01
   0.438E-01 -.162E-01 0.211E+04   -.473E-01 0.187E-01 -.210E+04   0.223E-02 -.167E-02 -.640E+01
   -.540E-03 -.948E-02 0.211E+04   0.108E-02 0.143E-01 -.210E+04   -.341E-03 -.311E-02 -.641E+01
   0.148E+00 -.221E+00 0.725E+03   -.155E+00 0.289E+00 -.725E+03   0.317E-02 -.423E-01 0.399E+00
   -.123E+00 -.223E+00 0.725E+03   0.138E+00 0.260E+00 -.725E+03   -.963E-02 -.238E-01 0.322E+00
   -.246E+01 -.115E+01 -.649E+03   0.241E+01 0.125E+01 0.649E+03   0.388E-01 -.947E-01 -.181E+00
   -.785E-03 0.268E+01 -.651E+03   0.460E-01 -.261E+01 0.652E+03   -.416E-01 -.628E-01 -.125E+00
   -.165E+02 0.179E+02 -.202E+04   0.169E+02 -.182E+02 0.202E+04   -.327E+00 0.234E+00 0.558E+01
   -.874E+00 -.392E+01 -.204E+04   0.949E+00 0.405E+01 0.204E+04   -.689E-01 -.129E+00 0.549E+01
   0.753E-01 0.182E-01 0.211E+04   -.824E-01 -.202E-01 -.210E+04   0.488E-02 0.131E-02 -.643E+01
   -.523E-02 0.980E-02 0.211E+04   0.631E-02 -.142E-01 -.210E+04   -.735E-03 0.283E-02 -.639E+01
   0.152E+00 0.214E+00 0.725E+03   -.244E+00 -.270E+00 -.725E+03   0.605E-01 0.358E-01 0.481E+00
   -.415E-01 0.237E+00 0.726E+03   0.304E-02 -.267E+00 -.726E+03   0.251E-01 0.192E-01 0.247E+00
   -.334E+01 0.112E+01 -.648E+03   0.307E+01 -.121E+01 0.649E+03   0.249E+00 0.831E-01 -.324E+00
   -.252E+00 -.267E+01 -.646E+03   0.336E+00 0.261E+01 0.646E+03   -.770E-01 0.612E-01 -.122E+00
   -.253E+02 -.214E+02 -.199E+04   0.263E+02 0.217E+02 0.198E+04   -.933E+00 -.277E+00 0.576E+01
   -.113E+01 0.461E+01 -.203E+04   0.133E+01 -.475E+01 0.202E+04   -.174E+00 0.135E+00 0.551E+01
   -.420E-01 0.426E-01 0.543E+03   0.467E-01 -.342E-01 -.543E+03   -.524E-02 -.125E-01 -.875E-01
   -.542E-01 -.781E-01 0.543E+03   0.553E-01 0.379E-01 -.543E+03   -.614E-04 0.483E-01 -.821E-01
   -.405E-01 -.185E-01 0.158E+04   0.416E-01 0.219E-01 -.159E+04   -.141E-02 -.422E-02 0.312E+01
   0.935E-02 -.805E-02 0.158E+04   -.121E-01 0.568E-02 -.159E+04   0.337E-02 0.300E-02 0.312E+01
   0.792E+01 -.524E+01 -.155E+04   -.767E+01 0.516E+01 0.155E+04   -.217E+00 0.776E-01 -.461E+01
   0.111E+01 0.271E+02 -.152E+04   -.111E+01 -.272E+02 0.153E+04   0.174E-02 0.857E-01 -.449E+01
   0.225E+01 0.219E+01 -.481E+03   -.225E+01 -.212E+01 0.481E+03   -.331E-02 -.541E-01 0.229E+00
   0.401E+00 -.282E+00 -.480E+03   -.414E+00 0.298E+00 0.480E+03   0.102E-01 -.128E-01 0.337E+00
   -.185E+00 -.243E-01 0.543E+03   0.129E+00 0.880E-02 -.542E+03   0.668E-01 0.207E-01 -.140E+00
   -.179E-01 0.348E-01 0.543E+03   0.239E-01 0.149E-01 -.543E+03   -.598E-02 -.588E-01 -.142E+00
   -.503E-01 0.177E-01 0.158E+04   0.596E-01 -.213E-01 -.159E+04   -.116E-01 0.448E-02 0.312E+01
   -.415E-03 0.984E-02 0.158E+04   0.274E-02 -.721E-02 -.159E+04   -.294E-02 -.333E-02 0.311E+01
   0.294E+02 0.727E+01 -.151E+04   -.291E+02 -.717E+01 0.152E+04   -.313E+00 -.938E-01 -.472E+01
   0.377E+01 -.351E+02 -.149E+04   -.384E+01 0.347E+02 0.149E+04   0.657E-01 0.395E+00 -.219E+01
   0.173E+01 -.219E+01 -.479E+03   -.181E+01 0.214E+01 0.479E+03   0.730E-01 0.433E-01 0.453E+00
   -.270E+00 -.487E+00 -.489E+03   0.226E+00 0.456E+00 0.490E+03   0.383E-01 0.257E-01 -.699E+00
   0.245E-01 0.223E-01 0.544E+03   -.218E-01 -.247E-01 -.544E+03   -.353E-02 0.125E-03 -.403E-01
   0.393E-01 0.136E+00 0.544E+03   -.320E-01 -.126E+00 -.543E+03   -.984E-02 -.138E-01 -.602E-01
   0.406E-01 -.287E-01 0.158E+04   -.415E-01 0.370E-01 -.159E+04   0.116E-02 -.103E-01 0.312E+01
   -.878E-02 -.190E-01 0.158E+04   0.117E-01 0.244E-01 -.159E+04   -.363E-02 -.669E-02 0.312E+01
   -.800E+01 -.664E+01 -.155E+04   0.774E+01 0.663E+01 0.155E+04   0.227E+00 0.159E-01 -.462E+01
   -.911E+00 0.648E+01 -.155E+04   0.907E+00 -.637E+01 0.156E+04   0.533E-02 -.988E-01 -.459E+01
   -.224E+01 0.172E+01 -.480E+03   0.224E+01 -.170E+01 0.480E+03   0.562E-02 -.193E-01 0.374E+00
   -.377E+00 -.119E+01 -.484E+03   0.389E+00 0.122E+01 0.484E+03   -.855E-02 -.211E-01 0.208E+00
   0.158E+00 0.121E-01 0.542E+03   -.844E-01 -.230E-01 -.542E+03   -.883E-01 0.154E-01 -.181E+00
   0.262E-01 -.120E+00 0.544E+03   -.301E-01 0.100E+00 -.544E+03   0.321E-02 0.248E-01 0.239E-01
   0.497E-01 0.273E-01 0.158E+04   -.589E-01 -.359E-01 -.159E+04   0.115E-01 0.107E-01 0.312E+01
   0.149E-02 0.189E-01 0.158E+04   -.329E-02 -.245E-01 -.159E+04   0.225E-02 0.699E-02 0.311E+01
   -.310E+02 0.986E+01 -.151E+04   0.304E+02 -.978E+01 0.152E+04   0.575E+00 -.796E-01 -.440E+01
   -.221E+01 -.699E+01 -.155E+04   0.226E+01 0.688E+01 0.155E+04   -.455E-01 0.956E-01 -.462E+01
   -.172E+01 -.172E+01 -.476E+03   0.180E+01 0.171E+01 0.475E+03   -.725E-01 0.704E-02 0.743E+00
   0.128E+00 0.118E+01 -.478E+03   -.945E-01 -.120E+01 0.478E+03   -.291E-01 0.144E-01 0.280E+00
   -.306E+02 -.188E+02 0.280E+02   -.126E-12 0.295E-12 -.608E-11   0.266E+02 0.164E+02 -.246E+02

 POSITION                                       TOTAL-FORCE (eV/Angst)
      5.18795      4.62182     16.30387        -0.005398     -0.004751      0.002327
      4.28457      5.64394     15.52859         0.002838      0.001255      0.000373
      4.27626      4.78738     16.03408         0.004292     -0.008871     -0.000620
      2.10122      0.00000      7.50000         0.000922      0.000491      0.406131
      4.20243      2.10122      7.50000        -0.000152      0.001804      0.404077
      2.10122      2.10122      9.60122         0.000685      0.005498      0.031754
      4.20243      0.00000      9.60122        -0.005984     -0.012561      0.048295
      2.10206      0.00226     11.71047        -0.001221     -0.001501      0.001635
      4.20048      2.10728     11.71579         0.000915      0.000139      0.004004
      2.09097      2.10003     13.79740         0.001702     -0.000751      0.005227
      4.19944      0.01823     13.79504         0.001681     -0.002519      0.002994
      2.10122      4.20243      7.50000         0.001534     -0.000541      0.406881
      4.20243      6.30365      7.50000        -0.000213     -0.002003      0.408678
      2.10122      6.30365      9.60122         0.023958     -0.003462      0.028087
      4.20243      4.20243      9.60122         0.005146      0.009167      0.062788
      2.10815      4.20123     11.71900        -0.000363      0.001445      0.005863
      4.19994      6.29579     11.71925         0.001259      0.001377      0.005837
      2.08199      6.30565     13.78968        -0.001856      0.001743      0.006148
      4.18447      4.14443     13.90258         0.001117      0.006662      0.003907
      6.30365      0.00000      7.50000        -0.000859      0.000587      0.402602
      0.00000      2.10122      7.50000         0.000223      0.001254      0.406575
      6.30365      2.10122      9.60122        -0.002637      0.019552      0.028319
      0.00000      0.00000      9.60122         0.004099      0.010458      0.022477
      6.30160      0.00354     11.70838         0.000557     -0.001708      0.000510
      0.00047      2.10406     11.70757         0.000014     -0.003321      0.000639
      6.31094      2.09741     13.79051        -0.000029     -0.002847      0.004867
      0.00092      0.00491     13.79341        -0.000635     -0.002962      0.001312
      6.30365      4.20243      7.50000        -0.001573     -0.000592      0.410440
      0.00000      6.30365      7.50000         0.000318     -0.001322      0.399402
      6.30365      6.30365      9.60122        -0.023927     -0.015644      0.026338
      0.00000      4.20243      9.60122        -0.010142     -0.008140      0.048720
      6.29407      4.20080     11.72098         0.001485      0.001505      0.004338
      0.00194      6.30235     11.70512        -0.000711      0.000870      0.000693
      6.32392      6.31220     13.77125         0.003921      0.003304      0.004273
      0.00381      4.20014     13.78972         0.000916      0.001445      0.003714
      2.10122      0.00000      9.60122        -0.001287     -0.006055      0.033936
      4.20243      2.10122      9.60122         0.001107      0.014945      0.066105
      2.10122      2.10122      7.50000        -0.000436     -0.001467     -0.495076
      4.20243      0.00000      7.50000         0.001171      0.000985     -0.493858
      2.09333      0.00133     13.83772         0.003015      0.003554     -0.002909
      4.20265      2.08239     13.83528        -0.000362      0.003858     -0.001799
      2.10041      2.09909     11.70451         0.001814      0.001845     -0.005851
      4.20278     -0.00408     11.70668        -0.001530      0.001739      0.001914
      2.10122      4.20243      9.60122         0.021118      0.008226      0.062119
      4.20243      6.30365      9.60122        -0.000709     -0.017571      0.059414
      2.10122      6.30365      7.50000        -0.003865      0.001440     -0.493545
      4.20243      4.20243      7.50000        -0.000961     -0.001229     -0.497458
      2.08510      4.20415     13.81829         0.001809     -0.003495     -0.001314
      4.20308      6.34596     13.89261         0.000396     -0.003821     -0.001786
      2.10562      6.30670     11.70882         0.001995     -0.001943     -0.001458
      4.20385      4.20659     11.72604        -0.000053     -0.001286     -0.002383
      6.30365      0.00000      9.60122        -0.001163     -0.002325      0.040035
      0.00000      2.10122      9.60122        -0.003921     -0.005763      0.028631
      6.30365      2.10122      7.50000         0.000460     -0.003499     -0.494725
      0.00000      0.00000      7.50000        -0.001150     -0.002270     -0.492458
      6.30973      0.00099     13.83717        -0.001371      0.002976     -0.000090
     -0.00208      2.09945     13.83763         0.001788      0.000819     -0.006811
      6.30301      2.10154     11.70597        -0.000379      0.002399     -0.003566
     -0.00148     -0.00101     11.70251         0.001726      0.003512     -0.005929
      6.30365      4.20243      9.60122        -0.027448      0.006567      0.055374
      0.00000      6.30365      9.60122        -0.000188      0.008821      0.046607
      6.30365      6.30365      7.50000         0.003966      0.003553     -0.493138
      0.00000      4.20243      7.50000         0.000826      0.002252     -0.495183
      6.31819      4.20608     13.85002         0.000213     -0.003452      0.000006
     -0.00176      6.30825     13.83432         0.001087     -0.001879     -0.001035
      6.29829      6.30487     11.70806        -0.000728     -0.002852     -0.000272
     -0.00379      4.20477     11.70103         0.001181     -0.003647     -0.003100
    total drift:                               -0.004121      0.004300      0.003707

  FREE ENERGIE OF THE ION-ELECTRON SYSTEM (eV)
  free  energy   TOTEN  =      -456.51493777 eV

  energy  without entropy=     -456.51493777  energy(sigma->0) =     -456.51493777

 d Force = 0.4513328E-05[-0.186E-06, 0.921E-05]  d Energy = 0.3789100E-05 0.724E-06
 d Force = 0.3261647E+01[ 0.326E+01, 0.326E+01]  d Ewald  = 0.3261648E+01-0.415E-06

 reached required accuracy - stopping structural energy minimisation