 vasp.6.3.0 20Jan22 (build Apr  1 2022 16:44:48) complex
 executed on        HPECrayEX_GCC date 2023.04.14  17:25:58

 INCAR:
   SYSTEM = MgO-rocksalt
   ISMEAR = 0
   SIGMA = 0.05
   EDIFF = 1E-7
   ALGO = ALL
   ISTART = 0
   IBRION = 2
   NSW = 1000
   ISYM = 0
   ISIF = 2
   EDIFFG = -0.01
   DIPOL = 0.5 0.5 0.5
   IDIPOL = 3
   LDIPOL = .TRUE.
   LHFCALC = .TRUE.
   HFSCREEN = 0.2
   GGA = PE
   IVDW = 13
   VDW_S8 = 1.19528249
   VDW_A1 = 0.38663183
   VDW_A2 = 5.19133469
   ENCUT = 520
   PREC = Normal
   PRECFOCK = Fast
   LASPH = .TRUE.
   LREAL = .FALSE.
   ISPIN = 1
   NKREDX = 2
   NKREDY = 2
   NELM = 200
   NELMIN = 8
   NCORE = 8
   KPAR = 1
   LWAVE = .FALSE.
   LCHARG = .FALSE.

 POTCAR:    PAW_PBE Ti 08Apr2002
 POTCAR:    PAW_PBE O 08Apr2002
 POTCAR:    PAW_PBE Ti 08Apr2002
   VRHFIN =Ti: d3 s1

   TITEL  = PAW_PBE Ti 08Apr2002
   POMASS =   47.880; ZVAL   =    4.000    mass and valenz
   ENMAX  =  178.330; ENMIN  =  133.747 eV

   TITEL  = PAW_PBE O 08Apr2002
   POMASS =   16.000; ZVAL   =    6.000    mass and valenz
   ENMAX  =  400.000; ENMIN  =  300.000 eV

  PAW_PBE Ti 08Apr2002                  :
  PAW_PBE O 08Apr2002                   :

 POSCAR: Ti  O
  positions in direct lattice
|           W    W    AA    RRRRR   N    N  II  N    N   GGGG   !!!           |
|           W    W   A  A   R    R  NN   N  II  NN   N  G    G  !!!           |
|           W    W  A    A  R    R  N N  N  II  N N  N  G       !!!           |
|           W WW W  AAAAAA  RRRRR   N  N N  II  N  N N  G  GGG   !            |
|           WW  WW  A    A  R   R   N   NN  II  N   NN  G    G                |
|           W    W  A    A  R    R  N    N  II  N    N   GGGG   !!!           |
|     Specifying the vdW parameters                                           |
|     VDW_S8 = 1.195                                                          |
|     VDW_A1 = 0.387                                                          |
|     VDW_A2 = 5.191                                                          |
|     in the INCAR file will overwrite the defaults for hse06. Please         |
|     make sure that is what you intended.                                    |

 ion  position               nearest neighbor table
   1  0.750  0.625  0.264-  82 1.94 142 1.94 141 1.94  81 1.94 163 1.97  84 1.97  11 2.94  31 2.94

   2  0.000  0.750  0.264-  84 1.94 104 1.94 103 1.94  83 1.94  85 1.97  32 2.94  12 2.94
   3  0.000  0.625  0.382-  86 1.94 146 1.94 145 1.94  85 1.94  87 1.97  88 1.97  13 2.94  33 2.94

[...]

  80  0.500  0.500  0.736- 179 1.94 239 1.94 180 1.94 240 1.94 234 1.97  70 2.94  50 2.94
  81  0.750  0.750  0.218-   1 1.94  11 1.94
  82  0.750  0.750  0.311-   1 1.94  11 1.94   4 1.97
  83  0.098  0.625  0.264-   2 1.94  32 1.94  41 1.97
  84  0.902  0.625  0.264-   2 1.94  32 1.94   1 1.97
  85  0.000  0.750  0.336-   3 1.94  13 1.94   2 1.97
  86  0.000  0.750  0.428-   3 1.94  13 1.94   6 1.97
  87  0.848  0.625  0.382-   4 1.94  34 1.94   3 1.97
  88  0.152  0.625  0.382-  44 1.94  74 1.94   3 1.97
  89  0.750  0.750  0.454-   5 1.94  15 1.94   4 1.97
  90  0.750  0.750  0.546-   5 1.94  15 1.94   8 1.97
  91  0.098  0.625  0.500-   6 1.94  36 1.94  45 1.97
  92  0.902  0.625  0.500-   6 1.94  36 1.94   5 1.97
  93  0.000  0.750  0.572-   7 1.94  17 1.94   6 1.97
  94  0.000  0.750  0.664-   7 1.94  17 1.94  10 1.97
  95  0.848  0.625  0.618-   8 1.94  38 1.94   7 1.97
  96  0.152  0.625  0.618-  48 1.94  78 1.94   7 1.97
  97  0.750  0.750  0.689-   9 1.94  19 1.94   8 1.97
  98  0.750  0.750  0.782-   9 1.94  19 1.94
  99  0.098  0.625  0.736-  10 1.94  40 1.94  49 1.97
 100  0.902  0.625  0.736-  10 1.94  40 1.94   9 1.97
 101  0.750  0.000  0.218-  11 1.94  21 1.94
 102  0.750  0.000  0.311-  11 1.94  21 1.94  14 1.97
 103  0.098  0.875  0.264-   2 1.94  12 1.94  51 1.97
 104  0.902  0.875  0.264-   2 1.94  12 1.94  11 1.97
 105  0.000  0.000  0.336-  13 1.94  23 1.94  12 1.97
 106  0.000  0.000  0.428-  13 1.94  23 1.94  16 1.97
 107  0.848  0.875  0.382-   4 1.94  14 1.94  13 1.97
 108  0.152  0.875  0.382-  44 1.94  54 1.94  13 1.97
 109  0.750  0.000  0.454-  15 1.94  25 1.94  14 1.97
 110  0.750  0.000  0.546-  15 1.94  25 1.94  18 1.97
 111  0.098  0.875  0.500-   6 1.94  16 1.94  55 1.97
 112  0.902  0.875  0.500-   6 1.94  16 1.94  15 1.97
 113  0.000  0.000  0.572-  17 1.94  27 1.94  16 1.97
 114  0.000  0.000  0.664-  17 1.94  27 1.94  20 1.97
 115  0.848  0.875  0.618-   8 1.94  18 1.94  17 1.97
 116  0.152  0.875  0.618-  48 1.94  58 1.94  17 1.97
 117  0.750  0.000  0.689-  19 1.94  29 1.94  18 1.97
 118  0.750  0.000  0.782-  19 1.94  29 1.94
 119  0.098  0.875  0.736-  10 1.94  20 1.94  59 1.97
 120  0.902  0.875  0.736-  10 1.94  20 1.94  19 1.97
 121  0.750  0.250  0.218-  21 1.94  31 1.94
 122  0.750  0.250  0.311-  21 1.94  31 1.94  24 1.97
 123  0.098  0.125  0.264-  12 1.94  22 1.94  61 1.97
 124  0.902  0.125  0.264-  12 1.94  22 1.94  21 1.97
 125  0.000  0.250  0.336-  23 1.94  33 1.94  22 1.97
 126  0.000  0.250  0.428-  23 1.94  33 1.94  26 1.97
 127  0.848  0.125  0.382-  14 1.94  24 1.94  23 1.97
 128  0.152  0.125  0.382-  54 1.94  64 1.94  23 1.97
 129  0.750  0.250  0.454-  25 1.94  35 1.94  24 1.97
 130  0.750  0.250  0.546-  25 1.94  35 1.94  28 1.97
 131  0.098  0.125  0.500-  16 1.94  26 1.94  65 1.97
 132  0.902  0.125  0.500-  16 1.94  26 1.94  25 1.97
 133  0.000  0.250  0.572-  27 1.94  37 1.94  26 1.97
 134  0.000  0.250  0.664-  27 1.94  37 1.94  30 1.97
 135  0.848  0.125  0.618-  18 1.94  28 1.94  27 1.97
 136  0.152  0.125  0.618-  58 1.94  68 1.94  27 1.97
 137  0.750  0.250  0.689-  29 1.94  39 1.94  28 1.97
 138  0.750  0.250  0.782-  29 1.94  39 1.94
 139  0.098  0.125  0.736-  20 1.94  30 1.94  69 1.97
[...]
 226  0.500  0.500  0.428-  43 1.94  73 1.94  76 1.97
 227  0.348  0.375  0.382-  64 1.94  74 1.94  73 1.97
 228  0.652  0.375  0.382-  24 1.94  34 1.94  73 1.97
 229  0.250  0.500  0.454-  45 1.94  75 1.94  74 1.97
 230  0.250  0.500  0.546-  45 1.94  75 1.94  78 1.97
 231  0.598  0.375  0.500-  66 1.94  76 1.94  35 1.97
 232  0.402  0.375  0.500-  66 1.94  76 1.94  75 1.97
 233  0.500  0.500  0.572-  47 1.94  77 1.94  76 1.97
 234  0.500  0.500  0.664-  47 1.94  77 1.94  80 1.97
 235  0.348  0.375  0.618-  68 1.94  78 1.94  77 1.97
 236  0.652  0.375  0.618-  28 1.94  38 1.94  77 1.97
 237  0.250  0.500  0.689-  49 1.94  79 1.94  78 1.97
 238  0.250  0.500  0.782-  49 1.94  79 1.94
 239  0.598  0.375  0.736-  70 1.94  80 1.94  39 1.97
 240  0.402  0.375  0.736-  70 1.94  80 1.94  79 1.97

IMPORTANT INFORMATION: All symmetrisations will be switched off!
NOSYMM: (Re-)initialisation of all symmetry stuff for point group C_1.

                                     Primitive cell

  volume of cell :    4180.4259

  direct lattice vectors                    reciprocal lattice vectors
    12.939701814  0.000000000  0.000000000     0.077281534  0.000000000  0.000000000
     0.000000000 11.760793336  0.000000000     0.000000000  0.085028278  0.000000000
     0.000000000  0.000000000 27.470062065     0.000000000  0.000000000  0.036403267

  length of vectors
    12.939701814 11.760793336 27.470062065     0.077281534  0.085028278  0.036403267

  position of ions in fractional coordinates (direct lattice)
     0.750000000  0.625000000  0.264476291
     0.000000000  0.750000000  0.264476291
     0.000000000  0.625000000  0.382238145
     0.750000000  0.750000000  0.382238145
     0.750000000  0.625000000  0.500000000
     0.000000000  0.750000000  0.500000000
     0.000000000  0.625000000  0.617761855
     0.750000000  0.750000000  0.617761855
     0.750000000  0.625000000  0.735523709
     0.000000000  0.750000000  0.735523709
     0.750000000  0.875000000  0.264476291
     0.000000000  0.000000000  0.264476291
     0.000000000  0.875000000  0.382238145
     0.750000000  0.000000000  0.382238145
     0.750000000  0.875000000  0.500000000
     0.000000000  0.000000000  0.500000000
     0.000000000  0.875000000  0.617761855
     0.750000000  0.000000000  0.617761855
     0.750000000  0.875000000  0.735523709
     0.000000000  0.000000000  0.735523709
     0.750000000  0.125000000  0.264476291
     0.000000000  0.250000000  0.264476291
     0.000000000  0.125000000  0.382238145
     0.750000000  0.250000000  0.382238145
     0.750000000  0.125000000  0.500000000
     0.000000000  0.250000000  0.500000000
     0.000000000  0.125000000  0.617761855
     0.750000000  0.250000000  0.617761855
     0.750000000  0.125000000  0.735523709
     0.000000000  0.250000000  0.735523709
     0.750000000  0.375000000  0.264476291
     0.000000000  0.500000000  0.264476291
     0.000000000  0.375000000  0.382238145
     0.750000000  0.500000000  0.382238145
     0.750000000  0.375000000  0.500000000
     0.000000000  0.500000000  0.500000000
     0.000000000  0.375000000  0.617761855
     0.750000000  0.500000000  0.617761855
     0.750000000  0.375000000  0.735523709
     0.000000000  0.500000000  0.735523709
     0.250000000  0.625000000  0.264476291
     0.500000000  0.750000000  0.264476291
     0.500000000  0.625000000  0.382238145
     0.250000000  0.750000000  0.382238145
     0.250000000  0.625000000  0.500000000
     0.500000000  0.750000000  0.500000000
     0.500000000  0.625000000  0.617761855
     0.250000000  0.750000000  0.617761855
     0.250000000  0.625000000  0.735523709
     0.500000000  0.750000000  0.735523709
     0.250000000  0.875000000  0.264476291
     0.500000000  0.000000000  0.264476291
     0.500000000  0.875000000  0.382238145
     0.250000000  0.000000000  0.382238145
     0.250000000  0.875000000  0.500000000
     0.500000000  0.000000000  0.500000000
     0.500000000  0.875000000  0.617761855
     0.250000000  0.000000000  0.617761855
     0.250000000  0.875000000  0.735523709
     0.500000000  0.000000000  0.735523709
[...]
     0.500000000  0.500000000  0.428294835
     0.347775060  0.375000000  0.382238145
     0.652224940  0.375000000  0.382238145
     0.250000000  0.500000000  0.453943310
     0.250000000  0.500000000  0.546056690
     0.597775060  0.375000000  0.500000000
     0.402224940  0.375000000  0.500000000
     0.500000000  0.500000000  0.571705165
     0.500000000  0.500000000  0.663818544
     0.347775060  0.375000000  0.617761855
     0.652224940  0.375000000  0.617761855
     0.250000000  0.500000000  0.689467019
     0.250000000  0.500000000  0.781580399
     0.597775060  0.375000000  0.735523709
     0.402224940  0.375000000  0.735523709

  ion indices of the primitive-cell ions
   primitive index   ion index
                 1           1
                 2           2
                 3           3
                 4           4
                 5           5
                 6           6
                 7           7
                 8           8
                 9           9
                10          10
                11          11
                12          12
                13          13
                14          14
                15          15
                16          16
                17          17
                18          18
                19          19
[...]
   3.23492545  5.88039667 18.93970181
   3.23492545  5.88039667 21.47006207
   7.73503103  4.41029750 20.20488194
   5.20467078  4.41029750 20.20488194

--------------------------------------- Iteration      FINAL  ---------------------------------------

--------------------OUTCAR has been truncated-------------------------

[...]

--------------------OUTCAR has been truncated-------------------------

  FORCE on cell =-STRESS in cart. coord.  units (eV):
  Direction    XX          YY          ZZ          XY          YZ          ZX
  Alpha Z  3292.74002  3292.74002  3292.74002
  Ewald  355059.27761360407.30771************     0.00001    -0.00008     0.00070
  Hartree377028.04157378431.21508************    -0.00000     0.00002    -0.00010
  E(xc)   -4646.57105 -4697.67681 -4646.97357    -0.00000     0.00000    -0.00002
  Local  ************************745713.02811     0.00000     0.00006    -0.00052
  n-local -2876.13636 -2769.71787 -2934.21108     0.00000    -0.00001     0.00005
  augment  1337.90114  1317.82652  1342.84393    -0.00000     0.00000    -0.00000
  Kinetic 23384.14536 22843.15642 23436.30901    -0.00000     0.00002    -0.00026
  Fock    -2129.01103 -2154.58079 -2131.35088    -0.00000    -0.00000    -0.00001
  vdW       -50.59885   -50.73209   -44.18469    -0.00000     0.00000    -0.00000
  Total      10.77575   -42.80916   -33.18404    -0.00000     0.00001    -0.00016
  in kB       4.12988   -16.40691   -12.71801    -0.00000     0.00000    -0.00006

 VOLUME and BASIS-vectors are now :
  energy-cutoff  :      520.00
  volume of cell :     4180.43
      direct lattice vectors                 reciprocal lattice vectors
    12.939701814  0.000000000  0.000000000     0.077281534  0.000000000  0.000000000
     0.000000000 11.760793336  0.000000000     0.000000000  0.085028278  0.000000000
     0.000000000  0.000000000 27.470062065     0.000000000  0.000000000  0.036403267

  length of vectors
    12.939701814 11.760793336 27.470062065     0.077281534  0.085028278  0.036403267

 FORCES acting on ions:
    Electron-Ion                     Ewald-Force                    Non-Local-Force
   -.109E-06 -.192E-06 0.970E+03   0.855E-07 -.150E-07 -.972E+03   -.754E-08 0.311E-05 -.124E+01
   0.228E-06 0.505E-08 0.104E+04   -.214E-06 0.526E-08 -.104E+04   0.415E-07 -.224E-08 -.183E+01
   0.161E-05 0.146E-06 0.498E+03   -.171E-05 0.322E-06 -.498E+03   -.772E-07 0.354E-05 0.183E+00
   -.974E-06 0.314E-07 0.494E+03   0.957E-06 0.120E-07 -.495E+03   0.204E-06 0.519E-07 -.165E+00
   -.361E-04 -.119E-04 -.540E+01   0.368E-04 0.115E-04 0.587E+01   0.452E-06 0.302E-05 0.186E+00
   -.181E-04 0.206E-05 -.433E+01   0.156E-04 -.188E-05 0.370E+01   0.131E-05 -.189E-06 -.840E-01
   0.225E-03 -.903E-04 -.494E+03   -.237E-03 0.877E-04 0.495E+03   0.128E-05 0.463E-05 -.780E-01
   -.905E-04 -.142E-04 -.505E+03   0.859E-04 0.147E-04 0.504E+03   0.267E-05 0.227E-06 0.491E-01
   -.396E-04 -.791E-04 -.958E+03   0.370E-04 0.778E-04 0.957E+03   0.204E-06 0.354E-05 -.679E-02
   0.103E-03 0.968E-05 -.987E+03   -.106E-03 -.996E-05 0.987E+03   -.524E-06 -.345E-06 0.699E+00
   -.116E-06 0.207E-06 0.970E+03   0.866E-07 0.219E-07 -.972E+03   -.682E-08 -.313E-05 -.124E+01
   0.219E-06 -.635E-07 0.104E+04   -.215E-06 0.501E-07 -.104E+04   -.184E-07 -.663E-08 -.183E+01
   0.156E-05 -.196E-06 0.498E+03   -.169E-05 -.299E-06 -.498E+03   -.127E-06 -.355E-05 0.183E+00
   -.102E-05 -.323E-06 0.494E+03   0.985E-06 0.355E-06 -.495E+03   -.193E-06 -.735E-07 -.165E+00
   -.359E-04 0.115E-04 -.540E+01   0.366E-04 -.111E-04 0.587E+01   0.515E-07 -.293E-05 0.186E+00
   -.182E-04 -.148E-05 -.433E+01   0.159E-04 0.153E-05 0.370E+01   0.141E-05 0.183E-07 -.840E-01
   0.169E-03 0.103E-03 -.494E+03   -.175E-03 -.102E-03 0.495E+03   0.514E-06 -.420E-05 -.780E-01
   -.895E-04 0.255E-04 -.505E+03   0.848E-04 -.291E-04 0.504E+03   0.199E-05 -.509E-07 0.491E-01
   -.337E-04 0.149E-03 -.958E+03   0.312E-04 -.155E-03 0.957E+03   0.121E-06 -.361E-05 -.679E-02
   0.116E-03 0.390E-05 -.987E+03   -.119E-03 -.406E-05 0.987E+03   0.243E-06 0.156E-06 0.699E+00
   -.113E-06 -.274E-06 0.970E+03   0.914E-07 0.468E-07 -.972E+03   -.444E-08 0.311E-05 -.124E+01
   0.212E-06 0.520E-08 0.104E+04   -.217E-06 -.600E-08 -.104E+04   0.211E-07 0.129E-07 -.183E+01
   0.160E-05 -.268E-06 0.498E+03   -.171E-05 0.800E-06 -.498E+03   0.133E-07 0.361E-05 0.183E+00
   -.930E-06 0.357E-07 0.494E+03   0.102E-05 -.289E-07 -.495E+03   0.132E-06 -.741E-07 -.165E+00
   -.360E-04 -.148E-04 -.540E+01   0.367E-04 0.144E-04 0.587E+01   0.207E-06 0.305E-05 0.186E+00
   -.191E-04 0.118E-06 -.433E+01   0.166E-04 -.130E-06 0.370E+01   0.119E-05 0.919E-07 -.840E-01
   0.203E-03 -.988E-04 -.494E+03   -.212E-03 0.960E-04 0.495E+03   0.151E-05 0.430E-05 -.780E-01
   -.925E-04 -.298E-06 -.505E+03   0.887E-04 0.564E-06 0.504E+03   0.269E-05 0.270E-06 0.491E-01
   -.264E-04 -.819E-04 -.958E+03   0.238E-04 0.812E-04 0.957E+03   -.716E-07 0.383E-05 -.679E-02
   0.126E-03 -.800E-06 -.987E+03   -.128E-03 0.929E-06 0.987E+03   -.683E-06 0.145E-06 0.699E+00
   -.111E-06 0.265E-06 0.970E+03   0.900E-07 -.537E-07 -.972E+03   -.105E-07 -.311E-05 -.124E+01
   0.235E-06 0.546E-07 0.104E+04   -.216E-06 -.494E-07 -.104E+04   -.161E-07 -.897E-08 -.183E+01
   0.158E-05 0.308E-06 0.498E+03   -.172E-05 -.822E-06 -.498E+03   0.104E-06 -.358E-05 0.183E+00
   -.914E-06 0.257E-06 0.494E+03   0.981E-06 -.339E-06 -.495E+03   -.436E-08 -.141E-06 -.165E+00
   -.361E-04 0.148E-04 -.540E+01   0.369E-04 -.143E-04 0.587E+01   0.385E-06 -.311E-05 0.186E+00
   -.184E-04 0.149E-05 -.433E+01   0.159E-04 -.164E-05 0.370E+01   0.151E-05 -.870E-07 -.840E-01
   0.178E-03 0.931E-04 -.494E+03   -.185E-03 -.909E-04 0.495E+03   0.937E-06 -.386E-05 -.780E-01
   -.876E-04 0.363E-04 -.505E+03   0.811E-04 -.400E-04 0.504E+03   0.220E-05 0.154E-07 0.491E-01
   -.353E-04 0.130E-03 -.958E+03   0.326E-04 -.132E-03 0.957E+03   -.277E-06 -.330E-05 -.679E-02
   0.117E-03 0.220E-05 -.987E+03   -.120E-03 -.262E-05 0.987E+03   0.577E-07 -.202E-06 0.699E+00
   0.289E-07 -.197E-06 0.970E+03   -.244E-07 -.118E-07 -.972E+03   -.262E-07 0.310E-05 -.124E+01
   -.149E-06 0.118E-07 0.104E+04   0.153E-06 0.292E-08 -.104E+04   -.631E-07 -.322E-08 -.183E+01
   -.416E-06 0.104E-06 0.498E+03   0.383E-06 0.352E-06 -.498E+03   0.114E-06 0.363E-05 0.183E+00
   -.491E-06 0.250E-08 0.494E+03   0.501E-06 0.121E-07 -.495E+03   -.217E-08 -.150E-07 -.165E+00
   -.342E-04 -.122E-04 -.540E+01   0.352E-04 0.117E-04 0.587E+01   0.440E-06 0.334E-05 0.186E+00
   -.277E-04 0.319E-06 -.433E+01   0.255E-04 -.372E-06 0.370E+01   0.154E-05 -.239E-07 -.840E-01
   0.162E-03 -.919E-04 -.494E+03   -.168E-03 0.888E-04 0.495E+03   0.863E-06 0.420E-05 -.780E-01
   -.893E-04 0.339E-04 -.505E+03   0.855E-04 -.372E-04 0.504E+03   0.279E-05 0.658E-06 0.491E-01
   -.323E-04 -.820E-04 -.958E+03   0.291E-04 0.788E-04 0.957E+03   -.217E-06 0.327E-05 -.679E-02
   0.107E-03 0.158E-04 -.987E+03   -.109E-03 -.168E-04 0.987E+03   -.969E-07 -.714E-06 0.699E+00
   0.574E-07 0.160E-06 0.970E+03   -.265E-07 0.186E-07 -.972E+03   0.148E-07 -.312E-05 -.124E+01
   -.154E-06 -.480E-07 0.104E+04   0.156E-06 0.418E-07 -.104E+04   0.231E-08 0.149E-07 -.183E+01
   -.473E-06 -.970E-07 0.498E+03   0.402E-06 -.377E-06 -.498E+03   0.280E-08 -.364E-05 0.183E+00
   -.351E-06 -.279E-06 0.494E+03   0.428E-06 0.311E-06 -.495E+03   0.679E-07 0.996E-07 -.165E+00
   -.338E-04 0.119E-04 -.540E+01   0.347E-04 -.114E-04 0.587E+01   0.412E-06 -.351E-05 0.186E+00
   -.293E-04 -.232E-07 -.433E+01   0.270E-04 0.210E-06 0.370E+01   0.118E-05 -.729E-07 -.840E-01
   0.199E-03 0.101E-03 -.494E+03   -.209E-03 -.993E-04 0.495E+03   0.100E-05 -.428E-05 -.780E-01
   -.922E-04 -.199E-04 -.505E+03   0.885E-04 0.216E-04 0.504E+03   0.248E-05 -.236E-06 0.491E-01
   -.308E-04 0.119E-03 -.958E+03   0.275E-04 -.120E-03 0.957E+03   -.481E-06 -.268E-05 -.679E-02
   0.115E-03 -.274E-05 -.987E+03   -.118E-03 0.242E-05 0.987E+03   0.191E-06 0.409E-06 0.699E+00
[...]
   -.257E+02 0.677E-04 0.743E+03   0.301E+02 -.102E-05 -.744E+03   -.343E+01 -.823E-04 0.192E+00
   0.257E+02 0.678E-04 0.743E+03   -.301E+02 -.109E-05 -.744E+03   0.343E+01 -.823E-04 0.192E+00
   -.784E-05 0.986E-06 0.310E+03   0.853E-05 -.121E-05 -.315E+03   -.843E-06 0.310E-06 0.410E+01
   -.243E-03 -.713E-06 -.331E+03   0.230E-03 0.366E-06 0.339E+03   0.171E-04 0.528E-06 -.672E+01
   -.249E+02 0.925E-04 -.592E+01   0.301E+02 -.260E-04 0.564E+01   -.502E+01 -.835E-04 0.331E+00
   0.249E+02 0.901E-04 -.592E+01   -.301E+02 -.236E-04 0.564E+01   0.502E+01 -.830E-04 0.331E+00
   0.313E-03 0.355E-05 -.432E+03   -.373E-03 -.122E-05 0.425E+03   0.533E-04 -.266E-05 0.601E+01
   -.791E-04 -.691E-06 -.106E+04   0.122E-03 0.102E-05 0.106E+04   -.373E-04 -.811E-06 0.240E+01
   -.118E+02 0.286E-03 -.749E+03   0.151E+02 -.222E-03 0.749E+03   -.283E+01 -.911E-04 0.778E+00
   0.118E+02 0.263E-03 -.749E+03   -.151E+02 -.187E-03 0.749E+03   0.283E+01 -.101E-03 0.778E+00
   0.151E-03 -.192E-04 -.117E+04   -.199E-03 0.187E-04 0.117E+04   0.424E-04 0.120E-05 -.203E+01
   -.186E-03 -.183E-04 -.169E+04   0.204E-03 0.236E-04 0.171E+04   -.166E-04 -.434E-05 -.200E+02
   0.684E+01 0.234E-03 -.151E+04   -.615E-01 -.171E-03 0.151E+04   -.590E+01 -.890E-04 -.393E+01
   -.684E+01 0.222E-03 -.151E+04   0.613E-01 -.157E-03 0.151E+04   0.590E+01 -.894E-04 -.393E+01
   0.293E-03 0.860E-04 0.102E+03   0.625E-12 -.896E-12 0.182E-11   -.282E-03 -.828E-04 -.939E+02

 POSITION                                       TOTAL-FORCE (eV/Angst)
      9.70478      7.35050      7.26518        -0.000000      0.000001     -3.960651
      0.00000      8.82060      7.26518         0.000000      0.000000      3.130565
      0.00000      7.35050     10.50011        -0.000000      0.000002      0.588419
      9.70478      8.82060     10.50011         0.000000      0.000000     -0.849251
      9.70478      7.35050     13.73503         0.000001      0.000001      0.694416
      0.00000      8.82060     13.73503        -0.000002      0.000000     -0.795042
      0.00000      7.35050     16.90713        -0.000001     -0.000000     -0.005585
      9.70478      8.82059     17.08568         0.000000     -0.000000     -0.003171
      9.70478      7.35050     20.41047        -0.000001      0.000001      0.000708
     -0.00000      8.82059     20.06780        -0.000002     -0.000000      0.001277
      9.70478     10.29069      7.26518        -0.000000     -0.000001     -3.960651
      0.00000      0.00000      7.26518         0.000000     -0.000000      3.130565
      0.00000     10.29069     10.50011        -0.000000     -0.000002      0.588419
      9.70478      0.00000     10.50011        -0.000000     -0.000000     -0.849250
      9.70478     10.29069     13.73503         0.000001     -0.000001      0.694416
      0.00000      0.00000     13.73503        -0.000002      0.000000     -0.795041
      0.00000     10.29069     16.90713        -0.000000      0.000000     -0.005586
      9.70478      0.00000     17.08568        -0.000001     -0.000002     -0.003174
      9.70478     10.29069     20.41047        -0.000001     -0.000003      0.000708
     -0.00000     -0.00000     20.06780         0.000000      0.000000      0.001278
      9.70478      1.47010      7.26518        -0.000000      0.000001     -3.960651
      0.00000      2.94020      7.26518         0.000000      0.000000      3.130565
      0.00000      1.47010     10.50011        -0.000000      0.000002      0.588419
      9.70478      2.94020     10.50011         0.000000     -0.000000     -0.849250
      9.70478      1.47010     13.73503         0.000001      0.000001      0.694417
      0.00000      2.94020     13.73503        -0.000002      0.000000     -0.795042
      0.00000      1.47010     16.90713         0.000001     -0.000001     -0.005586
      9.70478      2.94020     17.08568         0.000001      0.000001     -0.003173
      9.70478      1.47010     20.41047        -0.000001      0.000002      0.000709
     -0.00000      2.94020     20.06780        -0.000000      0.000000      0.001278
      9.70478      4.41030      7.26518        -0.000000     -0.000001     -3.960651
      0.00000      5.88040      7.26518         0.000000      0.000000      3.130565
      0.00000      4.41030     10.50011        -0.000000     -0.000002      0.588419
      9.70478      5.88040     10.50011         0.000000     -0.000000     -0.849250
      9.70478      4.41030     13.73503         0.000001     -0.000001      0.694417
      0.00000      5.88040     13.73503        -0.000002     -0.000000     -0.795041
      0.00000      4.41030     16.90713         0.000000      0.000001     -0.005586
      9.70478      5.88040     17.08568        -0.000001     -0.000001     -0.003174
      9.70478      4.41030     20.41047        -0.000001     -0.000001      0.000708
     -0.00000      5.88040     20.06780        -0.000000     -0.000000      0.001278
      3.23493      7.35050      7.26518        -0.000000      0.000001     -3.960651
      6.46985      8.82060      7.26518        -0.000000      0.000000      3.130565
      6.46985      7.35050     10.50011         0.000000      0.000002      0.588419
      3.23493      8.82060     10.50011         0.000000      0.000000     -0.849251
      3.23493      7.35050     13.73503         0.000002      0.000001      0.694416
      6.46985      8.82060     13.73503        -0.000001     -0.000000     -0.795042
      6.46985      7.35050     16.90713         0.000001     -0.000001     -0.005585
      3.23493      8.82060     17.08568         0.000001     -0.000001     -0.003172
      3.23492      7.35050     20.41047        -0.000002     -0.000001      0.000706
      6.46985      8.82060     20.06780        -0.000001     -0.000001      0.001277
      3.23493     10.29069      7.26518         0.000000     -0.000001     -3.960651
      6.46985      0.00000      7.26518         0.000000      0.000000      3.130565
      6.46985     10.29069     10.50011        -0.000000     -0.000002      0.588419
      3.23493      0.00000     10.50011         0.000000      0.000000     -0.849250
      3.23493     10.29069     13.73503         0.000001     -0.000001      0.694416
      6.46985      0.00000     13.73503        -0.000002      0.000000     -0.795041
      6.46985     10.29069     16.90713         0.000000      0.000000     -0.005585
      3.23493     -0.00000     17.08568         0.000000      0.000001     -0.003174
      3.23492     10.29069     20.41047        -0.000002      0.000000      0.000708
      6.46985      0.00000     20.06780         0.000000      0.000000      0.001275
[...]
      6.46985      5.88040     11.76529        -0.000000     -0.000000     -0.140361
      4.50011      4.41030     10.50011         0.480490      0.000013      0.058994
      8.43960      4.41030     10.50011        -0.480490      0.000013      0.058974
      3.23493      5.88040     12.46985        -0.000000      0.000000     -0.084969
      3.23493      5.88040     15.00021         0.000007      0.000000      0.054132
      7.73503      4.41030     13.73503        -0.493390      0.000011      0.096207
      5.20467      4.41030     13.73503         0.493389      0.000012      0.096183
      6.46985      5.88040     15.71819         0.000001     -0.000001      0.005851
      6.46985      5.88040     18.25266        -0.000000     -0.000001      0.004328
      4.52757      4.41030     16.98775        -0.001674      0.000000     -0.001420
      8.41213      4.41030     16.98774         0.001674      0.000001     -0.001420
      3.23492      5.88040     18.94916        -0.000001      0.000001     -0.002904
      3.23493      5.88040     21.49563        -0.000000      0.000000     -0.006672
      7.68208      4.41030     20.38168        -0.001206      0.000000      0.006576
      5.25762      4.41030     20.38168         0.001207      0.000002      0.006572
    total drift:                               -0.000005     -0.000002     -0.000300

  FREE ENERGIE OF THE ION-ELECTRON SYSTEM (eV)
  free  energy   TOTEN  =     -2618.49965518 eV

  energy  without entropy=    -2618.49965518  energy(sigma->0) =    -2618.49965518

 d Force = 0.5940032E-04[ 0.797E-05, 0.111E-03]  d Energy = 0.6187645E-04-0.248E-05
 d Force = 0.6798926E+01[ 0.680E+01, 0.680E+01]  d Ewald  = 0.6798933E+01-0.703E-05

 Conjugate gradient step on ions:
 trial-energy change:   -0.000062  1 .order   -0.000059   -0.000111   -0.000008
  (g-gl).g = 0.190E-03      g.g   = 0.186E-03  gl.gl    = 0.183E-02
 g(Force)  = 0.186E-03   g(Stress)= 0.000E+00 ortho     = 0.585E-05
 gamma     =   0.10385
 trial     =   0.59513
 opt step  =   0.63508  (harmonic =   0.64124) maximal distance =0.00034598
 next E    = -2618.499655   (d E  =  -0.00006)

 reached required accuracy - stopping structural energy minimisation