 vasp.6.3.0 20Jan22 (build Apr  1 2022 16:44:48) complex
 executed on        HPECrayEX_GCC date 2022.12.19  14:59:01

 INCAR:
   SYSTEM = MgO-rocksalt
   ISMEAR = 0
   SIGMA = 0.05
   EDIFF = 1E-7
   ALGO = ALL
   ISTART = 0
   IBRION = 5
   POTIM = 0.035
   NFREE = 2
   ISYM = 0
   DIPOL = 0.5 0.5 0.5
   IDIPOL = 3
   LDIPOL = .TRUE.
   GGA = MK
   LUSE_VDW = .TRUE.
   PARAM1 = 0.1234
   PARAM2 = 0.711357
   ZAB_VDW = -1.8867
   AGGAC = 0.0
   ENCUT = 600
   PREC = Accurate
   LASPH = .TRUE.
   LREAL = .FALSE.
   ISPIN = 1
   NELM = 200
   NELMIN = 8
   NCORE = 8
   KPAR = 1
   LWAVE = .FALSE.
   LCHARG = .FALSE.

 POTCAR:    PAW_PBE C 08Apr2002
 POTCAR:    PAW_PBE O 08Apr2002
 POTCAR:    PAW_PBE Mg_pv 13Apr2007
 POTCAR:    PAW_PBE O 08Apr2002
|               ----> ADVICE to this user running VASP <----                  |
|     You have switched on vdW-DFT.                                           |
|     This routine was written and supplied by Jiri Klimes. We recommend      |
|     that you carefully read and cite the following publications:            |
|       J. Klimes, D.R. Bowler, A. Michelides                                 |
|          J. Phys.: Cond Matt. 22 022201 (2010)                              |
|       J. Klimes, D.R. Bowler, A. Michelides                                 |
|          Phys. Rev. B. 83, 195131 (2011)                                    |
|     and references therein.                                                 |

   TITEL  = PAW_PBE C 08Apr2002
   POMASS =   12.011; ZVAL   =    4.000    mass and valenz
   ENMAX  =  400.000; ENMIN  =  300.000 eV

[...]

   TITEL  = PAW_PBE Mg_pv 13Apr2007
   POMASS =   24.305; ZVAL   =    8.000    mass and valenz
   ENMAX  =  403.929; ENMIN  =  302.947 eV

   TITEL  = PAW_PBE O 08Apr2002
   POMASS =   16.000; ZVAL   =    6.000    mass and valenz
   ENMAX  =  400.000; ENMIN  =  300.000 eV

  PAW_PBE C 08Apr2002                   :
  PAW_PBE O 08Apr2002                   :
  PAW_PBE Mg_pv 13Apr2007               :
  PAW_PBE O 08Apr2002                   :

 POSCAR:  C  O Mg  O
  positions in direct lattice
 exchange correlation table for  LEXCH =       43
   RHO(1)=    0.500       N(1)  =     2000
   RHO(2)=  100.500       N(2)  =     4000

 ion  position               nearest neighbor table
   1  0.500  0.250  0.723-   2 1.25   3 1.25  41 1.46
   2  0.500  0.387  0.746-   1 1.25  19 2.15
   3  0.500  0.113  0.746-   1 1.25  11 2.15
   4  0.250  0.000  0.352-  36 2.11  38 2.11  39 2.11  46 2.11  55 2.11
   5  0.500  0.250  0.352-  37 2.11  38 2.11  39 2.11  47 2.11  54 2.11
   6  0.250  0.250  0.451-  38 2.11  37 2.11  36 2.11  44 2.11  53 2.11  42 2.12
   7  0.500  0.000  0.451-  39 2.11  37 2.11  36 2.11  45 2.11  52 2.11  43 2.14
   8  0.252  0.999  0.551-  43 2.09  40 2.10  50 2.10  42 2.12  59 2.13  36 2.13
   9  0.500  0.250  0.548-  37 2.07  58 2.09  42 2.09  51 2.09  43 2.09
  10  0.237  0.250  0.647-  57 2.00  42 2.07  48 2.10  40 2.10  41 2.23
  11  0.500  0.989  0.658-  49 2.02  40 2.14  56 2.14   3 2.15  41 2.21
  12  0.250  0.500  0.352-  44 2.11  38 2.11  46 2.11  47 2.11  63 2.11
  13  0.500  0.750  0.352-  45 2.11  39 2.11  46 2.11  47 2.11  62 2.11
  14  0.250  0.750  0.451-  46 2.11  44 2.11  45 2.11  36 2.11  61 2.11  50 2.12
  15  0.500  0.500  0.451-  47 2.11  44 2.11  45 2.11  37 2.11  60 2.11  51 2.14
  16  0.252  0.501  0.551-  51 2.09  48 2.10  50 2.10  42 2.12  67 2.13  44 2.13
  17  0.500  0.750  0.551-  50 2.11  66 2.11  51 2.13  43 2.13  49 2.13  45 2.14
  18  0.247  0.750  0.648-  65 2.09  50 2.11  48 2.12  40 2.12  49 2.13
  19  0.500  0.511  0.658-  49 2.02  48 2.14  64 2.14   2 2.15  41 2.21
  20  0.750  0.000  0.352-  52 2.11  39 2.11  54 2.11  55 2.11  62 2.11
  21  0.000  0.250  0.352-  53 2.11  38 2.11  54 2.11  55 2.11  63 2.11
  22  0.750  0.250  0.451-  54 2.11  52 2.11  53 2.11  37 2.11  60 2.11  58 2.12
  23  0.000  0.000  0.451-  59 2.10  55 2.11  53 2.11  36 2.11  52 2.11  61 2.11
  24  0.748  0.999  0.551-  43 2.09  56 2.10  66 2.10  58 2.12  59 2.13  52 2.13
  25  1.000  0.250  0.549-  53 2.09  59 2.11  67 2.11  58 2.13  42 2.13  57 2.13
  26  0.763  0.250  0.647-  57 2.00  58 2.07  64 2.10  56 2.10  41 2.23
  27  0.000  0.998  0.648-  65 2.09  40 2.09  56 2.09  59 2.11  57 2.13
  28  0.750  0.500  0.352-  60 2.11  54 2.11  47 2.11  62 2.11  63 2.11
  29  0.000  0.750  0.352-  61 2.11  55 2.11  46 2.11  62 2.11  63 2.11
  30  0.750  0.750  0.451-  62 2.11  52 2.11  60 2.11  61 2.11  45 2.11  66 2.12
  31  0.000  0.500  0.451-  67 2.10  63 2.11  60 2.11  61 2.11  44 2.11  53 2.11
  32  0.748  0.501  0.551-  51 2.09  64 2.10  66 2.10  58 2.12  67 2.13  60 2.13
  33  0.000  0.750  0.549-  61 2.11  59 2.11  67 2.11  50 2.12  66 2.12  65 2.13
  34  0.753  0.750  0.648-  65 2.09  66 2.11  64 2.12  56 2.12  49 2.13
  35  0.000  0.502  0.648-  65 2.09  48 2.09  64 2.09  67 2.11  57 2.13
  36  0.250  0.000  0.451-   4 2.11   6 2.11   7 2.11  14 2.11  23 2.11   8 2.13
  37  0.500  0.250  0.451-   9 2.07   5 2.11   7 2.11   6 2.11  15 2.11  22 2.11
  38  0.250  0.250  0.352-   6 2.11   5 2.11   4 2.11  12 2.11  21 2.11
  39  0.500  0.000  0.352-   7 2.11   5 2.11   4 2.11  13 2.11  20 2.11
  40  0.248  0.001  0.649-  27 2.09   8 2.10  10 2.10  18 2.12  11 2.14
  41  0.500  0.250  0.654-   1 1.46  19 2.21  11 2.21  10 2.23  26 2.23
  42  0.252  0.250  0.550-  10 2.07   9 2.09   8 2.12  16 2.12   6 2.12  25 2.13
  43  0.500  0.002  0.551-   8 2.09  24 2.09   9 2.09  17 2.13   7 2.14
  44  0.250  0.500  0.451-  12 2.11   6 2.11  14 2.11  15 2.11  31 2.11  16 2.13
  45  0.500  0.750  0.451-  13 2.11   7 2.11  14 2.11  15 2.11  30 2.11  17 2.14
  46  0.250  0.750  0.352-  14 2.11  12 2.11  13 2.11   4 2.11  29 2.11
  47  0.500  0.500  0.352-  15 2.11  12 2.11  13 2.11   5 2.11  28 2.11
  48  0.248  0.499  0.649-  35 2.09  16 2.10  10 2.10  18 2.12  19 2.14
  49  0.500  0.750  0.651-  11 2.02  19 2.02  18 2.13  34 2.13  17 2.13
  50  0.251  0.750  0.550-   8 2.10  16 2.10  17 2.11  18 2.11  33 2.12  14 2.12
  51  0.500  0.498  0.551-  32 2.09  16 2.09   9 2.09  17 2.13  15 2.14
  52  0.750  0.000  0.451-  20 2.11   7 2.11  22 2.11  23 2.11  30 2.11  24 2.13
  53  0.000  0.250  0.451-  25 2.09  21 2.11  22 2.11  23 2.11   6 2.11  31 2.11
  54  0.750  0.250  0.352-  22 2.11  20 2.11  21 2.11   5 2.11  28 2.11
  55  0.000  0.000  0.352-  23 2.11  20 2.11  21 2.11   4 2.11  29 2.11
  56  0.752  0.001  0.649-  27 2.09  24 2.10  26 2.10  34 2.12  11 2.14
  57  0.000  0.250  0.648-  10 2.00  26 2.00  25 2.13  27 2.13  35 2.13
  58  0.748  0.250  0.550-  26 2.07   9 2.09  24 2.12  32 2.12  22 2.12  25 2.13
  59  0.000  0.000  0.549-  23 2.10  25 2.11  27 2.11  33 2.11   8 2.13  24 2.13
  60  0.750  0.500  0.451-  28 2.11  22 2.11  15 2.11  30 2.11  31 2.11  32 2.13
  61  0.000  0.750  0.451-  33 2.11  29 2.11  14 2.11  30 2.11  31 2.11  23 2.11
  62  0.750  0.750  0.352-  30 2.11  20 2.11  28 2.11  29 2.11  13 2.11
  63  0.000  0.500  0.352-  31 2.11  21 2.11  28 2.11  29 2.11  12 2.11
  64  0.752  0.499  0.649-  35 2.09  32 2.10  26 2.10  34 2.12  19 2.14
  65  0.000  0.750  0.649-  34 2.09  18 2.09  27 2.09  35 2.09  33 2.13
  66  0.749  0.750  0.550-  24 2.10  32 2.10  17 2.11  34 2.11  33 2.12  30 2.12
  67  1.000  0.500  0.549-  31 2.10  25 2.11  35 2.11  33 2.11  16 2.13  32 2.13

IMPORTANT INFORMATION: All symmetrisations will be switched off!
NOSYMM: (Re-)initialisation of all symmetry stuff for point group C_1.

                                     Primitive cell

  volume of cell :    1519.6535

  direct lattice vectors                    reciprocal lattice vectors
     8.440582262  0.000000000  0.000000000     0.118475239  0.000000000  0.000000000
     0.000000000  8.440582262  0.000000000     0.000000000  0.118475239  0.000000000
     0.000000000  0.000000000 21.330436697     0.000000000  0.000000000  0.046881366

  length of vectors
     8.440582262  8.440582262 21.330436697     0.118475239  0.118475239  0.046881366

  position of ions in fractional coordinates (direct lattice)
     0.499999957  0.250002119  0.722582536
     0.499999948  0.386670212  0.745581232
     0.499999969  0.113327960  0.745581478
     0.250000000  0.000000000  0.351610242
     0.500000000  0.250000000  0.351610242
     0.250000000  0.250000000  0.450536747
     0.500000000  0.000000000  0.450536747
     0.252110093  0.999194651  0.550523647
     0.500000019  0.250000028  0.547680792
     0.236593161  0.250000052  0.646621164
     0.499999988  0.988553036  0.657670086
     0.250000000  0.500000000  0.351610242
     0.500000000  0.750000000  0.351610242
     0.250000000  0.750000000  0.450536747
     0.500000000  0.500000000  0.450536747
     0.252110073  0.500805351  0.550523613
     0.499999994  0.750000006  0.550931326
     0.247477629  0.750000013  0.648421986
     0.499999988  0.511447005  0.657670209
     0.750000000  0.000000000  0.351610242
     0.000000000  0.250000000  0.351610242
     0.750000000  0.250000000  0.450536747
     0.000000000  0.000000000  0.450536747
     0.747889908  0.999194672  0.550523683
     0.999999978  0.249999977  0.548541204
     0.763406859  0.250000052  0.646621236
     0.000000014  0.997526310  0.647939595
     0.750000000  0.500000000  0.351610242
     0.000000000  0.750000000  0.351610242
     0.750000000  0.750000000  0.450536747
     0.000000000  0.500000000  0.450536747
     0.747889926  0.500805328  0.550523649
     0.000000005  0.750000001  0.549381517
     0.752522377  0.750000007  0.648421958
     0.000000014  0.502473707  0.647939574
     0.250000000  0.000000000  0.450536747
     0.500000000  0.250000000  0.450536747
     0.250000000  0.250000000  0.351610242
     0.500000000  0.000000000  0.351610242
     0.247904609  0.001470942  0.648966220
     0.499999974  0.250000090  0.653939517
     0.252250631  0.249999994  0.549967438
     0.499999997  0.002150642  0.550851548
     0.250000000  0.500000000  0.450536747
     0.500000000  0.750000000  0.450536747
     0.250000000  0.750000000  0.351610242
     0.500000000  0.500000000  0.351610242
     0.247904500  0.498529147  0.648966208
     0.500000002  0.750000067  0.650988268
     0.250580846  0.750000011  0.549707959
     0.500000000  0.497849411  0.550851532
     0.750000000  0.000000000  0.450536747
     0.000000000  0.250000000  0.450536747
     0.750000000  0.250000000  0.351610242
     0.000000000  0.000000000  0.351610242
     0.752095399  0.001470963  0.648966225
     0.000000013  0.249999942  0.648414146
     0.747749370  0.249999994  0.549967470
     0.000000003  0.000495016  0.549081546
     0.750000000  0.500000000  0.450536747
     0.000000000  0.750000000  0.450536747
     0.750000000  0.750000000  0.351610242
     0.000000000  0.500000000  0.351610242
     0.752095500  0.498529121  0.648966213
     0.000000000  0.750000060  0.649242898
     0.749419155  0.750000004  0.549707974
     0.999999999  0.499504973  0.549081537

  ion indices of the primitive-cell ions
   primitive index   ion index
                 1           1
                 2           2
                 3           3
                 4           4
                 5           5
                 6           6
[...]
      1.99698      2.11015     13.79271         0.016644      0.001318     -0.012232
      4.22029      8.34396     14.02839         0.000001     -0.014480     -0.092158
      2.11015      4.22029      7.50000        -0.000203      0.009755      0.325177
      4.22029      6.33044      7.50000         0.000000     -0.000005      0.329684
      2.11015      6.33044      9.61015         0.025188     -0.000077      0.058383
      4.22029      4.22029      9.61015         0.000001      0.086522      0.078300
      2.12796      4.22709     11.74291         0.003110     -0.000612     -0.001698
      4.22029      6.33044     11.75161         0.000000     -0.000760     -0.002325
      2.08886      6.33044     13.83112         0.000295     -0.000080     -0.005244
      4.22029      4.31691     14.02839        -0.000000     -0.020574     -0.018347
      6.33044      0.00000      7.50000         0.000192     -0.009763      0.325143
      0.00000      2.11015      7.50000        -0.000000      0.000014      0.302201
      6.33044      2.11015      9.61015         0.016515      0.000048     -0.015101
      0.00000      0.00000      9.61015        -0.000001     -0.044289      0.059079
      6.31263      8.43378     11.74291        -0.001755      0.000366     -0.001318
      8.44058      2.11015     11.70062         0.000000     -0.000249     -0.005396
      6.44360      2.11015     13.79271        -0.016645      0.001317     -0.012232
      0.00000      8.41970     13.82083         0.000000      0.000989     -0.007772
      6.33044      4.22029      7.50000         0.000203      0.009755      0.325177
      0.00000      6.33044      7.50000        -0.000000     -0.000019      0.325090
      6.33044      6.33044      9.61015        -0.025188     -0.000077      0.058385
      0.00000      4.22029      9.61015        -0.000001      0.044289      0.058885
      6.31263      4.22709     11.74291        -0.003110     -0.000612     -0.001698
      0.00000      6.33044     11.71855         0.000000      0.000228     -0.005871
      6.35173      6.33044     13.83112        -0.000296     -0.000079     -0.005245
      0.00000      4.24117     13.82083         0.000000     -0.001133     -0.005843
      2.11015      0.00000      9.61015         0.036423      0.038139      0.046330
      4.22029      2.11015      9.61015         0.000000     -0.000201     -0.039767
      2.11015      2.11015      7.50000         0.002506     -0.000023     -0.389472
      4.22029      0.00000      7.50000        -0.000000      0.017972     -0.403048
      2.09246      0.01242     13.84273        -0.011297     -0.007197      0.007309
      4.22029      2.11015     13.94882         0.000001      0.197748     -0.212705
      2.12914      2.11015     11.73105        -0.005509     -0.000471     -0.002439
      4.22029      0.01815     11.74990         0.000001     -0.003053     -0.000800
      2.11015      4.22029      9.61015         0.036136     -0.038188      0.046197
      4.22029      6.33044      9.61015         0.000000      0.000398      0.098364
      2.11015      6.33044      7.50000        -0.002265      0.000015     -0.412530
      4.22029      4.22029      7.50000        -0.000000     -0.017968     -0.403068
      2.09246      4.20788     13.84273        -0.005461      0.006582      0.010229
      4.22029      6.33044     13.88586         0.000001     -0.000745      0.012714
      2.11505      6.33044     11.72551        -0.002635      0.000059      0.005704
      4.22029      4.20214     11.74990         0.000000      0.007111     -0.004269
      6.33044      0.00000      9.61015        -0.036423      0.038140      0.046332
      0.00000      2.11015      9.61015        -0.000000      0.000026      0.029767
      6.33044      2.11015      7.50000        -0.002506     -0.000023     -0.389472
      0.00000      0.00000      7.50000         0.000000      0.013182     -0.405752
      6.34812      0.01242     13.84273         0.011296     -0.007197      0.007309
      0.00000      2.11015     13.83096        -0.000000      0.000054      0.008362
      6.31144      2.11015     11.73105         0.005509     -0.000471     -0.002439
      0.00000      0.00418     11.71215        -0.000000     -0.000898      0.003741
      6.33044      4.22029      9.61015        -0.036136     -0.038188      0.046198
      0.00000      6.33044      9.61015        -0.000000     -0.000023      0.004412
      6.33044      6.33044      7.50000         0.002265      0.000015     -0.412530
      0.00000      4.22029      7.50000         0.000000     -0.013188     -0.405784
      6.34812      4.20788     13.84273         0.005461      0.006582      0.010228
      0.00000      6.33044     13.84863         0.000000     -0.000135      0.008249
      6.32553      6.33044     11.72551         0.002634      0.000059      0.005704
      8.44058      4.21611     11.71215         0.000000      0.000886      0.004427
    total drift:                                0.000002      0.000194     -0.007757

  FREE ENERGIE OF THE ION-ELECTRON SYSTEM (eV)
  free  energy   TOTEN  =      -284.31801002 eV

  energy  without entropy=     -284.31801002  energy(sigma->0) =     -284.31801002

 d Force =-0.1006288E-02[-0.540E-01, 0.520E-01]  d Energy =-0.4030089E-03-0.603E-03
 d Force =-0.1281884E+03[-0.129E+03,-0.128E+03]  d Ewald  =-0.1281993E+03 0.109E-01

 Finite differences progress:
  Degree of freedom:   9/  9
  Displacement:        2/  2
  Total:              18/ 18

 SECOND DERIVATIVES (NOT SYMMETRIZED)
               1X          1Y          1Z          2X          2Y          2Z          3X          3Y          3Z
  1X   -21.167668   -0.000004    0.000891    7.016579   -0.001181   -0.000108    7.018174    0.001206   -0.000078
  1Y     0.002854  -94.988502   -0.007478   -0.002059   42.612920   15.619419   -0.001609   42.596406  -15.611682
  1Z     0.000003   -0.004779  -34.489828    0.000040   13.195431   15.445277    0.000004  -13.189810   15.444322
  2X     7.026184   -0.000323    0.000910   -3.542664   -0.001743   -0.001062   -2.201608   -0.000580    0.000703
  2Y     0.000270   42.613732   13.447669    0.001198  -52.913162  -18.721481   -0.000398    8.845505    1.576542
  2Z    -0.000003   15.373254   15.449867    0.000034  -18.481935  -21.633168    0.000002   -1.572784   -2.780994
  3X     7.028640   -0.000266    0.001902   -2.201645   -0.001586    0.001328   -3.546190    0.001626   -0.000653
  3Y     0.000442   42.594216  -13.440966   -0.000583    8.845749   -1.576500    0.002102  -52.895015   18.713913
  3Z    -0.000020  -15.370326   15.450609   -0.000010    1.573871   -2.780863    0.000003   18.475185  -21.627101

 Eigenvectors and eigenvalues of the dynamical matrix

   1 f  =   51.374362 THz   322.794637 2PiTHz 1713.664262 cm-1   212.467194 meV
             X         Y         Z           dx          dy          dz
      4.220291  2.110163 15.413001     0.000011   -0.847737   -0.000124
      4.220291  3.263722 15.903573    -0.000005    0.346509    0.143928
      4.220291  0.956554 15.903579    -0.000009    0.346231   -0.143810
      2.110146  0.000000  7.500000            0           0           0
      4.220291  2.110146  7.500000            0           0           0
      2.110146  2.110146  9.610146            0           0           0
      4.220291  0.000000  9.610146            0           0           0
      2.127956  8.433785 11.742910            0           0           0
      4.220291  2.110146 11.682270            0           0           0
      1.996984  2.110146 13.792712            0           0           0
      4.220291  8.343963 14.028390            0           0           0
      2.110146  4.220291  7.500000            0           0           0
      4.220291  6.330437  7.500000            0           0           0
      2.110146  6.330437  9.610146            0           0           0
      4.220291  4.220291  9.610146            0           0           0
      2.127956  4.227089 11.742909            0           0           0
      4.220291  6.330437 11.751606            0           0           0
      2.088855  6.330437 13.831124            0           0           0
      4.220291  4.316911 14.028393            0           0           0
      6.330437  0.000000  7.500000            0           0           0
      0.000000  2.110146  7.500000            0           0           0
      6.330437  2.110146  9.610146            0           0           0
      0.000000  0.000000  9.610146            0           0           0
      6.312626  8.433785 11.742911            0           0           0
      8.440582  2.110145 11.700623            0           0           0
      6.443598  2.110146 13.792713            0           0           0
      0.000000  8.419703 13.820835            0           0           0
      6.330437  4.220291  7.500000            0           0           0
      0.000000  6.330437  7.500000            0           0           0
      6.330437  6.330437  9.610146            0           0           0
      0.000000  4.220291  9.610146            0           0           0
      6.312626  4.227089 11.742910            0           0           0
      0.000000  6.330437 11.718548            0           0           0
      6.351727  6.330437 13.831124            0           0           0
      0.000000  4.241171 13.820834            0           0           0
      2.110146  0.000000  9.610146            0           0           0
      4.220291  2.110146  9.610146            0           0           0
      2.110146  2.110146  7.500000            0           0           0
      4.220291  0.000000  7.500000            0           0           0
      2.092459  0.012416 13.842733            0           0           0
      4.220291  2.110146 13.948815            0           0           0
      2.129142  2.110146 11.731046            0           0           0
      4.220291  0.018153 11.749904            0           0           0
      2.110146  4.220291  9.610146            0           0           0
      4.220291  6.330437  9.610146            0           0           0
      2.110146  6.330437  7.500000            0           0           0
      4.220291  4.220291  7.500000            0           0           0
      2.092458  4.207876 13.842733            0           0           0
      4.220291  6.330437 13.885864            0           0           0
      2.115048  6.330437 11.725511            0           0           0
      4.220291  4.202139 11.749904            0           0           0
      6.330437  0.000000  9.610146            0           0           0
      0.000000  2.110146  9.610146            0           0           0
      6.330437  2.110146  7.500000            0           0           0
      0.000000  0.000000  7.500000            0           0           0
      6.348123  0.012416 13.842733            0           0           0
      0.000000  2.110145 13.830957            0           0           0
      6.311440  2.110146 11.731046            0           0           0
      0.000000  0.004178 11.712149            0           0           0
      6.330437  4.220291  9.610146            0           0           0
      0.000000  6.330437  9.610146            0           0           0
      6.330437  6.330437  7.500000            0           0           0
      0.000000  4.220291  7.500000            0           0           0
      6.348124  4.207876 13.842733            0           0           0
      0.000000  6.330437 13.848635            0           0           0
      6.325534  6.330437 11.725511            0           0           0
      8.440582  4.216113 11.712149            0           0           0

[...]

   9 f  =    3.765201 THz    23.657456 2PiTHz  125.593591 cm-1    15.571614 meV
             X         Y         Z           dx          dy          dz
      4.220291  2.110163 15.413001     0.387491   -0.000091    0.000070
      4.220291  3.263722 15.903573     0.653539   -0.000148    0.000124
      4.220291  0.956554 15.903579     0.650182   -0.000108    0.000014
      2.110146  0.000000  7.500000            0           0           0
      4.220291  2.110146  7.500000            0           0           0
      2.110146  2.110146  9.610146            0           0           0
      4.220291  0.000000  9.610146            0           0           0
      2.127956  8.433785 11.742910            0           0           0
      4.220291  2.110146 11.682270            0           0           0
      1.996984  2.110146 13.792712            0           0           0
      4.220291  8.343963 14.028390            0           0           0
      2.110146  4.220291  7.500000            0           0           0
      4.220291  6.330437  7.500000            0           0           0
      2.110146  6.330437  9.610146            0           0           0
      4.220291  4.220291  9.610146            0           0           0
      2.127956  4.227089 11.742909            0           0           0
      4.220291  6.330437 11.751606            0           0           0
      2.088855  6.330437 13.831124            0           0           0
      4.220291  4.316911 14.028393            0           0           0
      6.330437  0.000000  7.500000            0           0           0
      0.000000  2.110146  7.500000            0           0           0
      6.330437  2.110146  9.610146            0           0           0
      0.000000  0.000000  9.610146            0           0           0
      6.312626  8.433785 11.742911            0           0           0
      8.440582  2.110145 11.700623            0           0           0
      6.443598  2.110146 13.792713            0           0           0
      0.000000  8.419703 13.820835            0           0           0
      6.330437  4.220291  7.500000            0           0           0
      0.000000  6.330437  7.500000            0           0           0
      6.330437  6.330437  9.610146            0           0           0
      0.000000  4.220291  9.610146            0           0           0
      6.312626  4.227089 11.742910            0           0           0
      0.000000  6.330437 11.718548            0           0           0
      6.351727  6.330437 13.831124            0           0           0
      0.000000  4.241171 13.820834            0           0           0
      2.110146  0.000000  9.610146            0           0           0
      4.220291  2.110146  9.610146            0           0           0
      2.110146  2.110146  7.500000            0           0           0
      4.220291  0.000000  7.500000            0           0           0
      2.092459  0.012416 13.842733            0           0           0
      4.220291  2.110146 13.948815            0           0           0
      2.129142  2.110146 11.731046            0           0           0
      4.220291  0.018153 11.749904            0           0           0
      2.110146  4.220291  9.610146            0           0           0
      4.220291  6.330437  9.610146            0           0           0
      2.110146  6.330437  7.500000            0           0           0
      4.220291  4.220291  7.500000            0           0           0
      2.092458  4.207876 13.842733            0           0           0
      4.220291  6.330437 13.885864            0           0           0
      2.115048  6.330437 11.725511            0           0           0
      4.220291  4.202139 11.749904            0           0           0
      6.330437  0.000000  9.610146            0           0           0
      0.000000  2.110146  9.610146            0           0           0
      6.330437  2.110146  7.500000            0           0           0
      0.000000  0.000000  7.500000            0           0           0
      6.348123  0.012416 13.842733            0           0           0
      0.000000  2.110145 13.830957            0           0           0
      6.311440  2.110146 11.731046            0           0           0
      0.000000  0.004178 11.712149            0           0           0
      6.330437  4.220291  9.610146            0           0           0
      0.000000  6.330437  9.610146            0           0           0
      6.330437  6.330437  7.500000            0           0           0
      0.000000  4.220291  7.500000            0           0           0
      6.348124  4.207876 13.842733            0           0           0
      0.000000  6.330437 13.848635            0           0           0
      6.325534  6.330437 11.725511            0           0           0
      8.440582  4.216113 11.712149            0           0           0

 Finite differences POTIM=   3.5000000000000003E-002