 vasp.6.3.0 20Jan22 (build Dec 25 2023 18:06:01) gamma-only
 executed on        HPECrayEX_GCC date 2024.11.24  20:34:49

 INCAR:
   SYSTEM = MgO-rocksalt
   ISMEAR = 0
   SIGMA = 0.05
   EDIFF = 1E-6
   ALGO = ALL
   ISTART = 0
   IBRION = -1
   NSW = 0
   ISYM = 0
   DIPOL = 0.5 0.5 0.5
   IDIPOL = 3
   LDIPOL = .TRUE.
   GGA = PE
   IVDW = 1
   VDW_C6 = 0.14 0.70 0.63 0.70
   VDW_R0 = 1.001 1.342 1.243 1.342
   ENCUT = 520
   PREC = Accurate
   LASPH = .TRUE.
   LREAL = Auto
   ISPIN = 1
   NELM = 200
   NELMIN = 8
   NCORE = 8
   KPAR = 1
   LWAVE = .FALSE.
   LCHARG = .FALSE.

 POTCAR:    PAW_PBE H 15Jun2001
 POTCAR:    PAW_PBE O 08Apr2002
 POTCAR:    PAW_PBE Mg_pv 13Apr2007
 POTCAR:    PAW_PBE O 08Apr2002
 POTCAR:    PAW_PBE H 15Jun2001
   VRHFIN =H: ultrasoft test

   TITEL  = PAW_PBE H 15Jun2001
   POMASS =    1.000; ZVAL   =    1.000    mass and valenz
   ENMAX  =  250.000; ENMIN  =  200.000 eV

   TITEL  = PAW_PBE O 08Apr2002
   POMASS =   16.000; ZVAL   =    6.000    mass and valenz
   ENMAX  =  400.000; ENMIN  =  300.000 eV

   TITEL  = PAW_PBE Mg_pv 13Apr2007
   POMASS =   24.305; ZVAL   =    8.000    mass and valenz
   ENMAX  =  403.929; ENMIN  =  302.947 eV

   TITEL  = PAW_PBE O 08Apr2002
   POMASS =   16.000; ZVAL   =    6.000    mass and valenz
   ENMAX  =  400.000; ENMIN  =  300.000 eV

 Optimization of the real space projectors (new method)

 maximal supplied QI-value         = 34.20
 optimisation between [QCUT,QGAM] = [ 11.63, 23.26] = [ 37.87,151.49] Ry
 Optimized for a Real-space Cutoff    1.21 Angstroem

   l    n(q)    QCUT    max X(q) W(low)/X(q) W(high)/X(q)  e(spline)
   0      8    11.629    19.460    0.17E-03    0.34E-03    0.21E-06
   0      8    11.629    12.209    0.16E-03    0.33E-03    0.21E-06
   1      8    11.629     4.655    0.18E-03    0.16E-03    0.26E-06
 Optimization of the real space projectors (new method)

[...]

   l    n(q)    QCUT    max X(q) W(low)/X(q) W(high)/X(q)  e(spline)
   1      8    11.527     2.974    0.44E-04    0.56E-04    0.12E-06
   1      8    11.527     4.279    0.12E-03    0.12E-03    0.26E-06
   0      9    11.527    16.381    0.46E-04    0.64E-04    0.78E-07
   0      9    11.527     5.611    0.26E-04    0.43E-04    0.55E-07
   2      8    11.527     4.652    0.22E-03    0.72E-04    0.47E-07
 Optimization of the real space projectors (new method)

 maximal supplied QI-value         = 24.76
 optimisation between [QCUT,QGAM] = [ 11.64, 23.27] = [ 37.91,151.63] Ry
 Optimized for a Real-space Cutoff    1.14 Angstroem

   l    n(q)    QCUT    max X(q) W(low)/X(q) W(high)/X(q)  e(spline)
   0      8    11.635    20.381    0.10E-03    0.33E-03    0.24E-06
   0      8    11.635    15.268    0.11E-03    0.35E-03    0.26E-06
   1      7    11.635     5.964    0.24E-03    0.31E-03    0.30E-06
   1      7    11.635     5.382    0.22E-03    0.25E-03    0.26E-06
  PAW_PBE H 15Jun2001                   :
  PAW_PBE O 08Apr2002                   :
  PAW_PBE Mg_pv 13Apr2007               :
  PAW_PBE O 08Apr2002                   :

 POSCAR:  H  O Mg  O
  positions in direct lattice
  velocities in cartesian coordinates
 exchange correlation table for  LEXCH =        8
   RHO(1)=    0.500       N(1)  =     2000
   RHO(2)=  100.500       N(2)  =     4000

 ion  position               nearest neighbor table
   1  0.455  0.451  0.762-  12 1.03
   2  0.356  0.373  0.787-   9 0.97
   3  0.581  0.331  0.764-  10 1.00
   4  0.674  0.343  0.767-  10 0.97
   5  0.451  0.316  0.761-  11 1.12   9 1.35
   6  0.489  0.228  0.785-  11 0.97
   7  0.618  0.494  0.708- 242 0.98
   8  0.471  0.544  0.771-  12 0.97
   9  0.398  0.377  0.756-   2 0.97   5 1.35  36 2.12
  10  0.626  0.369  0.755-   4 0.97   3 1.00  84 2.17
  11  0.499  0.272  0.757-   6 0.97   5 1.12  91 2.18
  12  0.495  0.496  0.754-   8 0.97   1 1.03 115 2.15
  13  0.000  0.375  0.352- 141 2.11 144 2.11 151 2.11 175 2.11 224 2.11
  14  0.125  0.000  0.352- 142 2.11 143 2.11 152 2.11 159 2.11 176 2.11
  15  0.000  0.000  0.451- 143 2.11 142 2.11 149 2.11 173 2.11 222 2.11 147 2.12
  16  0.125  0.375  0.451- 144 2.11 141 2.11 150 2.11 157 2.11 174 2.11 148 2.12
  17  0.000  0.375  0.550- 148 2.10 155 2.11 179 2.12 228 2.12 141 2.12 145 2.15
  18  0.125  0.000  0.550- 156 2.11 163 2.11 180 2.11 147 2.11 142 2.12 146 2.15
  19  0.000  1.000  0.649- 146 2.10 153 2.11 226 2.11 147 2.11 177 2.11
  20  0.125  0.375  0.649- 161 2.08 148 2.11 154 2.11 145 2.11 178 2.12
  21  0.000  0.125  0.352- 149 2.11 143 2.11 151 2.11 152 2.11 232 2.11
  22  0.125  0.250  0.352- 150 2.11 144 2.11 151 2.11 152 2.11 167 2.11
  23  0.000  0.250  0.451- 151 2.11 149 2.11 150 2.11 141 2.11 230 2.11 155 2.12
  24  0.125  0.125  0.451- 152 2.11 149 2.11 150 2.11 142 2.11 165 2.11 156 2.12
  25  0.000  0.125  0.550- 156 2.10 147 2.11 155 2.11 236 2.11 149 2.12 153 2.15
  26  0.125  0.250  0.550- 171 2.10 148 2.11 156 2.11 155 2.12 150 2.12 154 2.15
  27  0.001  0.250  0.649- 154 2.10 153 2.11 155 2.11 234 2.11 145 2.12
  28  0.125  0.125  0.649- 169 2.10 154 2.11 156 2.11 146 2.11 153 2.11
  29  0.250  0.375  0.352- 157 2.11 144 2.11 160 2.11 167 2.11 191 2.11
  30  0.375  0.000  0.352- 158 2.11 159 2.11 168 2.11 192 2.11 207 2.11
  31  0.250  0.000  0.451- 159 2.11 158 2.11 142 2.11 165 2.11 189 2.11 163 2.12
  32  0.375  0.375  0.451- 160 2.11 157 2.11 166 2.11 190 2.11 205 2.11 164 2.12
  33  0.251  0.375  0.551- 164 2.09 171 2.11 195 2.12 148 2.14 157 2.14 161 2.14
  34  0.375  0.000  0.550- 172 2.10 211 2.11 163 2.11 196 2.12 158 2.12 162 2.15
  35  0.250  0.000  0.649- 169 2.10 162 2.11 163 2.11 146 2.11 193 2.11
  36  0.374  0.374  0.659-   9 2.12 161 2.13 170 2.13 209 2.17 194 2.18
  37  0.250  0.125  0.352- 165 2.11 159 2.11 152 2.11 167 2.11 168 2.11
  38  0.375  0.250  0.352- 166 2.11 160 2.11 167 2.11 168 2.11 215 2.11
  39  0.250  0.250  0.451- 167 2.11 157 2.11 165 2.11 166 2.11 150 2.11 171 2.11
  40  0.375  0.125  0.451- 168 2.11 165 2.11 166 2.11 158 2.11 213 2.11 172 2.11
  41  0.250  0.125  0.550- 171 2.10 172 2.10 156 2.12 163 2.12 165 2.12 169 2.15
  42  0.376  0.251  0.551- 164 2.10 170 2.10 219 2.10 171 2.13 172 2.14 166 2.15
  43  0.250  0.250  0.648- 170 2.08 171 2.11 161 2.11 169 2.12 154 2.12
  44  0.375  0.125  0.648- 170 2.08 172 2.10 217 2.12 169 2.12 162 2.12
  45  0.000  0.875  0.352- 173 2.11 143 2.11 176 2.11 183 2.11 256 2.11
  46  0.125  0.500  0.352- 174 2.11 144 2.11 175 2.11 184 2.11 191 2.11
  47  0.000  0.500  0.451- 175 2.11 174 2.11 141 2.11 181 2.11 254 2.11 179 2.12
  48  0.125  0.875  0.451- 176 2.11 173 2.11 142 2.11 182 2.11 189 2.11 180 2.12
  49  0.000  0.875  0.550- 180 2.11 147 2.11 187 2.11 260 2.11 173 2.12 177 2.15
  50  0.125  0.500  0.550- 195 2.09 148 2.11 179 2.11 188 2.12 174 2.12 178 2.15
  51  0.001  0.500  0.649- 178 2.09 258 2.10 179 2.11 145 2.11 185 2.12
  52  0.125  0.875  0.649- 146 2.10 193 2.11 186 2.11 180 2.11 177 2.11
  53  0.000  0.625  0.352- 181 2.11 175 2.11 183 2.11 184 2.11 264 2.11
  54  0.125  0.750  0.352- 182 2.11 176 2.11 183 2.11 184 2.11 199 2.11
  55  0.000  0.750  0.451- 183 2.11 181 2.11 182 2.11 173 2.11 262 2.11 187 2.12
  56  0.125  0.625  0.451- 184 2.11 181 2.11 182 2.11 174 2.11 197 2.11 188 2.12
  57  0.000  0.625  0.550- 188 2.10 187 2.11 179 2.11 268 2.12 181 2.12 185 2.15
  58  0.125  0.750  0.550- 203 2.11 180 2.11 188 2.11 187 2.11 182 2.12 186 2.15
  59  0.000  0.750  0.649- 186 2.10 177 2.10 187 2.11 185 2.11 266 2.11
  60  0.125  0.625  0.649- 201 2.09 178 2.11 188 2.11 185 2.11 186 2.11
[...]
 254  0.875  0.500  0.451- 126 2.11  96 2.11  47 2.11 127 2.11 136 2.11 130 2.12
 255  0.750  0.500  0.352- 127 2.11 110 2.11 126 2.11  93 2.11 133 2.11
 256  0.875  0.875  0.352- 128 2.11  94 2.11 125 2.11  45 2.11 134 2.11
 257  0.750  0.875  0.651- 139 2.09  99 2.11 132 2.11 116 2.12 129 2.15
 258  0.876  0.500  0.651- 131 2.04  51 2.10 140 2.12 100 2.13 130 2.16
 259  0.748  0.500  0.552- 131 2.08 114 2.10 137 2.11  97 2.12 130 2.15 127 2.16
 260  0.875  0.875  0.550- 138 2.10 129 2.11 132 2.11  49 2.11  98 2.11 128 2.12
 261  0.750  0.625  0.451- 133 2.11 127 2.11 120 2.11 135 2.11 136 2.11 137 2.13
 262  0.875  0.750  0.451- 134 2.11 128 2.11  55 2.11 135 2.11 136 2.11 138 2.12
 263  0.750  0.750  0.352- 135 2.11 125 2.11 133 2.11 134 2.11 118 2.11
 264  0.875  0.625  0.352- 136 2.11 126 2.11 133 2.11 134 2.11  53 2.11
 265  0.750  0.625  0.652- 131 2.12 124 2.12 139 2.13 140 2.13 137 2.15
 266  0.875  0.750  0.651- 140 2.10 139 2.10 132 2.11  59 2.11 138 2.15
 267  0.750  0.750  0.550- 137 2.10 139 2.11 122 2.11 138 2.12 129 2.12 135 2.12
 268  0.875  0.625  0.550- 137 2.10 140 2.11 130 2.11 138 2.12  57 2.12 136 2.12

IMPORTANT INFORMATION: All symmetrisations will be switched off!
NOSYMM: (Re-)initialisation of all symmetry stuff for point group C_1.

                                     Primitive cell

  volume of cell :    6079.2794

  direct lattice vectors                    reciprocal lattice vectors
    16.881969308  0.000000000  0.000000000     0.059234796  0.000000000  0.000000000
     0.000000000 16.881969308  0.000000000     0.000000000  0.059234796  0.000000000
     0.000000000  0.000000000 21.330738491     0.000000000  0.000000000  0.046880702

  length of vectors
    16.881969308 16.881969308 21.330738491     0.059234796  0.059234796  0.046880702

  position of ions in fractional coordinates (direct lattice)
     0.454952297  0.450679083  0.761650957
     0.355532226  0.372815326  0.786579602
     0.581354248  0.331303927  0.763804079
     0.674247474  0.342842760  0.767260901
     0.450504221  0.316371457  0.761263871
     0.488953074  0.228366438  0.785323628
     0.617854620  0.493860564  0.708485981
     0.470725556  0.543685030  0.770815212
     0.398289219  0.376585777  0.756438141
     0.625682443  0.369307491  0.754800651
     0.499441554  0.272002590  0.756970706
     0.494895823  0.495937885  0.754258061
     0.000000000  0.375000000  0.351605267
     0.125000000  0.000000000  0.351605267
     0.000000000  0.000000000  0.450535089
     0.125000000  0.375000000  0.450535089
     0.000473976  0.374839352  0.550038770
     0.125122728  0.000110445  0.550026380
     0.000271183  0.999976755  0.648669490
     0.125276386  0.374687369  0.648673277
     0.000000000  0.125000000  0.351605267
     0.125000000  0.250000000  0.351605267
     0.000000000  0.250000000  0.450535089
     0.125000000  0.125000000  0.450535089
     0.000228269  0.124918322  0.550003507
     0.125355629  0.250049933  0.550026627
     0.000525619  0.249531629  0.648621620
     0.125210776  0.124900046  0.648639180
     0.250000000  0.375000000  0.351605267
     0.375000000  0.000000000  0.351605267
     0.250000000  0.000000000  0.450535089
     0.375000000  0.375000000  0.450535089
     0.251212696  0.374785767  0.550846452
     0.374997020  0.000291196  0.550008995
     0.249884165  0.000175925  0.648638291
     0.374321085  0.374139605  0.658827323
     0.250000000  0.125000000  0.351605267
     0.375000000  0.250000000  0.351605267
     0.250000000  0.250000000  0.450535089
     0.375000000  0.125000000  0.450535089
     0.250280162  0.125301357  0.550015557
     0.375867704  0.251192778  0.551364766
[...]
  12.66147698 10.55123082  9.61024616
  14.77172314 12.66147698  9.61024616
  12.66147698 12.66147698  7.50000000
  14.77172314 10.55123082  7.50000000
  12.66281943 10.55243016 13.89791811
  14.77469291 12.66454659 13.88417903
  12.65837932 12.65770827 11.73100929
  14.76781333 10.54785846 11.73114508

--------------------------------------- Iteration      FINAL  ---------------------------------------

--------------------OUTCAR has been truncated-------------------------

[...]

--------------------OUTCAR has been truncated-------------------------

  DFT-D2 method for vdW energy calculation

  Parameters of vdW forcefield:
         C6(Jnm^6/mol)     R0(A)
   H        0.140          1.001
   O        0.700          1.342
   Mg       0.630          1.243
   O        0.700          1.342

  vdW correction parametrized for the method pbe

  IVDW =   1
  VDW_RADIUS =    50.000 A
  VDW_S6 =     0.750
  VDW_SR =     1.000
  VDW_D =    20.000
  LVDW_EWALD = F

  Number of pair interactions contributing to vdW energy: 3130792
  Edisp (eV):  -14.99391

  FORCE on cell =-STRESS in cart. coord.  units (eV):
  Direction    XX          YY          ZZ          XY          YZ          ZX
  Alpha Z  3597.19734  3597.19734  3597.19734
  Ewald  639776.29144639760.69797************    -6.83070   -46.07510   -54.61429
  Hartree680876.99481680863.47191************    -7.37883     3.35515     6.81012
  E(xc)   -9972.32940 -9972.33310 -9993.31754     0.04556    -0.27309    -0.35675
  Local  ************************************    12.61477    25.37717    24.34038
  n-local-11362.25322-11362.14764-11443.12865    -0.18640     0.15168     0.37438
  augment  4216.72723  4216.75113  4182.05229     0.09292     1.18302     1.57979
  Kinetic 29806.49260 29807.15811 29985.88422     1.01213    16.30908    21.77333
  Fock        0.00000     0.00000     0.00000     0.00000     0.00000     0.00000
  vdW       -21.65113   -21.66960   -18.08183    -0.00923     0.01533     0.00269
  Total     -81.53484   -81.62605     9.94450    -0.63977     0.04325    -0.09033
  in kB     -21.48828   -21.51232     2.62085    -0.16861     0.01140    -0.02381

 VOLUME and BASIS-vectors are now :
  energy-cutoff  :      520.00
  volume of cell :     6079.28
      direct lattice vectors                 reciprocal lattice vectors
    16.881969308  0.000000000  0.000000000     0.059234796  0.000000000  0.000000000
     0.000000000 16.881969308  0.000000000     0.000000000  0.059234796  0.000000000
     0.000000000  0.000000000 21.330738491     0.000000000  0.000000000  0.046880702

  length of vectors
    16.881969308 16.881969308 21.330738491     0.059234796  0.059234796  0.046880702

 FORCES acting on ions:
    Electron-Ion                     Ewald-Force                    Non-Local-Force
   0.391E+02 0.147E+02 -.286E+03   -.431E+02 -.195E+02 0.287E+03   0.395E+01 0.473E+01 -.926E+00
   0.882E+02 0.535E+01 -.308E+03   -.944E+02 -.585E+01 0.313E+03   0.617E+01 0.506E+00 -.545E+01
   0.214E+02 0.443E+02 -.288E+03   -.271E+02 -.488E+02 0.289E+03   0.558E+01 0.452E+01 -.134E+01
   -.955E+02 0.401E+02 -.290E+03   0.103E+03 -.438E+02 0.293E+03   -.718E+01 0.367E+01 -.226E+01
   0.308E+02 0.434E+01 -.280E+03   -.331E+02 -.229E+01 0.281E+03   0.221E+01 -.201E+01 -.283E+00
   0.153E+02 0.899E+02 -.305E+03   -.167E+02 -.963E+02 0.310E+03   0.143E+01 0.638E+01 -.515E+01
   -.108E+02 -.124E+02 -.343E+03   0.924E+01 0.110E+02 0.351E+03   0.156E+01 0.138E+01 -.778E+01
   0.362E+02 -.950E+02 -.295E+03   -.396E+02 0.102E+03 0.298E+03   0.335E+01 -.703E+01 -.303E+01
   0.156E+03 -.141E+02 -.165E+04   -.136E+03 0.204E+02 0.162E+04   -.195E+02 -.628E+01 0.208E+02
   -.154E+03 -.515E+02 -.166E+04   0.145E+03 0.898E+02 0.165E+04   0.822E+01 -.382E+02 0.107E+02
   -.320E+02 0.163E+03 -.164E+04   0.515E+02 -.149E+03 0.162E+04   -.194E+02 -.138E+02 0.213E+02
   -.553E+02 -.155E+03 -.166E+04   0.899E+02 0.145E+03 0.165E+04   -.346E+02 0.107E+02 0.118E+02
   0.653E+00 -.428E+00 0.208E+04   -.530E+00 0.372E+00 -.207E+04   -.955E-01 0.424E-01 -.703E+01
   0.316E+01 0.321E+01 0.208E+04   -.311E+01 -.316E+01 -.207E+04   -.403E-01 -.385E-01 -.705E+01
   -.126E+00 0.470E+01 0.703E+03   0.187E+00 -.467E+01 -.703E+03   -.450E-01 -.292E-01 0.499E+00
   0.844E+01 0.260E+00 0.713E+03   -.813E+01 -.304E+00 -.714E+03   -.221E+00 0.326E-01 0.420E+00
   0.343E+01 -.977E+00 -.657E+03   -.298E+01 0.843E+00 0.657E+03   -.462E+00 0.135E+00 -.134E+00
   0.909E+01 0.922E+01 -.667E+03   -.896E+01 -.909E+01 0.667E+03   -.135E+00 -.133E+00 -.156E+00
   -.286E+00 0.108E+02 -.204E+04   0.419E+00 -.107E+02 0.203E+04   -.133E+00 -.852E-01 0.596E+01
   0.521E+02 -.252E+00 -.201E+04   -.512E+02 0.464E-01 0.201E+04   -.967E+00 0.206E+00 0.594E+01
   0.117E-02 0.401E+01 0.208E+04   0.602E-01 -.400E+01 -.207E+04   -.476E-01 -.765E-02 -.704E+01
   0.444E+01 0.302E+01 0.208E+04   -.433E+01 -.302E+01 -.207E+04   -.842E-01 -.673E-03 -.707E+01
   -.156E+00 0.394E+01 0.709E+03   0.300E+00 -.398E+01 -.709E+03   -.106E+00 0.320E-01 0.513E+00
   0.637E+01 0.719E+01 0.708E+03   -.625E+01 -.714E+01 -.708E+03   -.866E-01 -.396E-01 0.460E+00
   -.115E+00 0.104E+02 -.664E+03   0.274E+00 -.104E+02 0.664E+03   -.160E+00 0.119E-01 -.138E+00
   0.214E+02 0.105E+02 -.652E+03   -.210E+02 -.104E+02 0.652E+03   -.489E+00 -.807E-01 -.161E+00
   0.105E+01 0.117E+02 -.203E+04   -.610E+00 -.119E+02 0.202E+04   -.445E+00 0.177E+00 0.598E+01
   0.251E+02 0.230E+02 -.203E+04   -.247E+02 -.229E+02 0.202E+04   -.394E+00 -.172E+00 0.596E+01
   0.644E+01 -.851E-02 0.208E+04   -.638E+01 -.518E-01 -.208E+04   -.429E-01 0.461E-01 -.718E+01
   0.306E+01 0.452E+01 0.208E+04   -.307E+01 -.442E+01 -.207E+04   0.872E-02 -.775E-01 -.707E+01
   0.723E+01 0.647E+01 0.708E+03   -.719E+01 -.636E+01 -.708E+03   -.315E-01 -.830E-01 0.464E+00
   0.693E+01 -.221E+00 0.734E+03   -.697E+01 0.109E-01 -.734E+03   0.486E-01 0.154E+00 -.194E-01
   0.388E+02 0.868E+00 -.628E+03   -.379E+02 -.105E+01 0.629E+03   -.964E+00 0.179E+00 -.558E+00
   0.104E+02 0.216E+02 -.652E+03   -.103E+02 -.212E+02 0.652E+03   -.294E-01 -.453E+00 -.140E+00
   0.227E+02 0.253E+02 -.203E+04   -.225E+02 -.249E+02 0.202E+04   -.126E+00 -.381E+00 0.596E+01
   0.138E+03 0.219E+01 -.183E+04   -.138E+03 -.293E+01 0.183E+04   0.127E-01 0.743E+00 -.200E+00
   0.527E+01 0.528E+01 0.208E+04   -.522E+01 -.521E+01 -.207E+04   -.452E-01 -.519E-01 -.708E+01
   0.420E+01 0.416E+01 0.209E+04   -.422E+01 -.416E+01 -.208E+04   0.166E-01 0.709E-03 -.722E+01
   0.108E+02 0.657E+01 0.720E+03   -.106E+02 -.645E+01 -.720E+03   -.177E+00 -.884E-01 0.303E+00
   0.682E+01 0.107E+02 0.720E+03   -.674E+01 -.104E+02 -.721E+03   -.552E-01 -.190E+00 0.297E+00
   0.228E+02 0.230E+02 -.646E+03   -.226E+02 -.227E+02 0.646E+03   -.273E+00 -.311E+00 -.170E+00
   0.270E+02 0.268E+02 -.603E+03   -.266E+02 -.261E+02 0.605E+03   -.478E+00 -.717E+00 -.155E+01
   0.876E+02 0.461E+02 -.198E+04   -.866E+02 -.460E+02 0.197E+04   -.978E+00 -.167E+00 0.602E+01
   0.455E+02 0.882E+02 -.197E+04   -.455E+02 -.872E+02 0.197E+04   -.395E-01 -.104E+01 0.602E+01
   0.338E+00 0.385E+00 0.208E+04   -.284E+00 -.339E+00 -.207E+04   -.413E-01 -.357E-01 -.703E+01
   0.482E+01 -.317E+01 0.208E+04   -.472E+01 0.311E+01 -.207E+04   -.795E-01 0.449E-01 -.708E+01
   0.193E+01 -.487E+01 0.709E+03   -.163E+01 0.482E+01 -.709E+03   -.232E+00 0.314E-01 0.531E+00
   0.461E+01 -.222E-01 0.703E+03   -.456E+01 0.719E-01 -.703E+03   -.329E-01 -.368E-01 0.499E+00
   0.103E+01 0.107E+01 -.670E+03   -.893E+00 -.951E+00 0.670E+03   -.137E+00 -.120E+00 -.145E+00
   0.233E+02 -.104E+02 -.651E+03   -.228E+02 0.102E+02 0.651E+03   -.511E+00 0.215E+00 -.879E-01
   0.139E+01 -.126E+02 -.203E+04   -.960E+00 0.125E+02 0.202E+04   -.436E+00 0.627E-01 0.594E+01
   0.106E+02 -.332E+00 -.204E+04   -.105E+02 0.432E+00 0.203E+04   -.928E-01 -.995E-01 0.596E+01
   0.105E+01 -.397E+01 0.208E+04   -.942E+00 0.397E+01 -.207E+04   -.853E-01 0.960E-03 -.702E+01
   0.347E+01 -.306E+01 0.208E+04   -.342E+01 0.306E+01 -.207E+04   -.378E-01 -.595E-02 -.704E+01
   0.128E+01 -.378E+01 0.703E+03   -.117E+01 0.382E+01 -.703E+03   -.800E-01 -.334E-01 0.520E+00
   0.766E+01 -.742E+01 0.709E+03   -.757E+01 0.736E+01 -.709E+03   -.719E-01 0.403E-01 0.470E+00
   0.509E+01 -.105E+02 -.664E+03   -.465E+01 0.105E+02 0.664E+03   -.439E+00 -.260E-01 -.158E+00
   0.103E+02 -.928E+01 -.666E+03   -.101E+02 0.928E+01 0.666E+03   -.133E+00 -.186E-02 -.153E+00
   0.255E+01 -.987E+01 -.204E+04   -.218E+01 0.100E+02 0.203E+04   -.378E+00 -.148E+00 0.597E+01
   0.269E+02 -.224E+02 -.203E+04   -.265E+02 0.223E+02 0.202E+04   -.398E+00 0.726E-01 0.596E+01
[...]
   -.460E+01 -.333E+01 0.156E+04   0.464E+01 0.328E+01 -.157E+04   -.545E-01 0.680E-01 0.366E+01
   -.189E+01 0.577E+00 0.156E+04   0.192E+01 -.533E+00 -.156E+04   -.308E-01 -.576E-01 0.351E+01
   -.115E+02 -.978E+00 -.155E+04   0.114E+02 0.124E+01 0.155E+04   0.115E+00 -.263E+00 -.501E+01
   -.372E+02 -.147E+02 -.153E+04   0.386E+02 0.146E+02 0.154E+04   -.138E+01 0.170E+00 -.495E+01
   -.165E+02 -.141E+02 -.484E+03   0.168E+02 0.139E+02 0.483E+03   -.330E+00 0.180E+00 0.824E+00
   -.513E+01 0.811E+00 -.496E+03   0.518E+01 -.699E+00 0.496E+03   -.465E-01 -.111E+00 0.235E+00
   -.582E+01 -.583E+01 0.530E+03   0.595E+01 0.596E+01 -.530E+03   -.185E+00 -.198E+00 0.625E-01
   -.222E+01 -.220E+01 0.527E+03   0.228E+01 0.226E+01 -.527E+03   -.863E-01 -.851E-01 -.221E-02
   -.306E+01 -.192E+01 0.156E+04   0.308E+01 0.198E+01 -.156E+04   -.274E-01 -.814E-01 0.357E+01
   -.194E+01 -.308E+01 0.156E+04   0.200E+01 0.310E+01 -.156E+04   -.841E-01 -.313E-01 0.357E+01
   -.310E+02 -.316E+02 -.153E+04   0.310E+02 0.316E+02 0.153E+04   0.334E-02 -.146E-01 -.502E+01
   -.112E+02 -.112E+02 -.155E+04   0.114E+02 0.114E+02 0.155E+04   -.257E+00 -.250E+00 -.499E+01
   -.929E+01 -.723E+01 -.489E+03   0.937E+01 0.741E+01 0.489E+03   -.753E-01 -.176E+00 0.311E+00
   -.732E+01 -.944E+01 -.489E+03   0.751E+01 0.953E+01 0.489E+03   -.191E+00 -.827E-01 0.314E+00
   0.530E+02 0.397E+02 0.188E+02   -.568E-12 -.341E-12 -.118E-10   -.530E+02 -.397E+02 -.187E+02

 POSITION                                       TOTAL-FORCE (eV/Angst)
      7.68049      7.60835     16.24658        -0.044983     -0.104315     -0.033397
      6.00208      6.29386     16.77832        -0.046674      0.019597      0.013672
      9.81440      5.59306     16.29251        -0.114884     -0.047332     -0.025551
     11.38263      5.78786     16.36624         0.046024      0.004352     -0.012013
      7.60540      5.34097     16.23832        -0.006834      0.067323     -0.055086
      8.25449      3.85528     16.75153         0.014145     -0.038418      0.014059
     10.43060      8.33734     15.11253        -0.020469     -0.020483      0.056394
      7.94677      9.17847     16.44206         0.001755      0.048698     -0.004537
      6.72391      6.35751     16.13538         0.050839     -0.006392     -0.014741
     10.56275      6.23464     16.10046         0.024253      0.037748     -0.020982
      8.43156      4.59194     16.14674         0.037128      0.012540     -0.011171
      8.35482      8.37241     16.08888         0.036951      0.020324     -0.023980
      0.00000      6.33074      7.50000         0.026967     -0.012802      0.346281
      2.11025      0.00000      7.50000         0.011637      0.011031      0.352418
      0.00000      0.00000      9.61025         0.015647      0.009544      0.024013
      2.11025      6.33074      9.61025         0.083618     -0.011286      0.066172
      0.00800      6.32803     11.73273        -0.000636      0.000457      0.038083
      2.11232      0.00186     11.73247         0.000609     -0.000022      0.038296
      0.00458     16.88158     13.83660         0.000172      0.000249     -0.010856
      2.11491      6.32546     13.83668         0.000378     -0.000749     -0.011901
      0.00000      2.11025      7.50000         0.013623      0.002466      0.350584
      2.11025      4.22049      7.50000         0.024081      0.000688      0.360540
      0.00000      4.22049      9.61025         0.037792     -0.010348      0.022300
      2.11025      2.11025      9.61025         0.029453      0.013427      0.036672
      0.00385      2.10887     11.73198         0.000335     -0.000047      0.038332
      2.11625      4.22134     11.73247         0.001490     -0.000277      0.038364
      0.00887      4.21259     13.83558         0.000088      0.000593     -0.011306
      2.11380      2.10856     13.83595         0.001142      0.000213     -0.012036
      4.22049      6.33074      7.50000         0.012985     -0.014064      0.385963
      6.33074      0.00000      7.50000        -0.002174      0.021832      0.358952
      4.22049      0.00000      9.61025         0.010616      0.028118      0.035610
      6.33074      6.33074      9.61025         0.003016     -0.055797      0.161250
      4.24097      6.32712     11.74996        -0.000610     -0.000149      0.035196
      6.33069      0.00492     11.73210        -0.000346      0.000678      0.038146
      4.21854      0.00297     13.83593        -0.000154      0.000630     -0.011503
      6.31928      6.31621     14.05327        -0.000519     -0.002047      0.061068
      4.22049      2.11025      7.50000         0.013351      0.015313      0.364786
      6.33074      4.22049      7.50000        -0.004400      0.000482      0.397353
      4.22049      4.22049      9.61025         0.072407      0.034063      0.096302
      6.33074      2.11025      9.61025         0.021927      0.077144      0.093977
      4.22522      2.11533     11.73224        -0.000864      0.000274      0.038550
      6.34539      4.24063     11.76102         0.000232     -0.001498      0.035477
      4.22461      4.21887     13.83157        -0.006148     -0.003983     -0.018262
      6.32714      2.11341     13.82886        -0.005701     -0.004458     -0.019372
      0.00000     14.77172      7.50000         0.011879      0.010183      0.346786
      2.11025      8.44098      7.50000         0.022820     -0.013432      0.359824
      0.00000      8.44098      9.61025         0.071147     -0.010369      0.015421
      2.11025     14.77172      9.61025         0.010958      0.012746      0.025179
      0.00240     14.77372     11.73220         0.000414      0.000346      0.037861
      2.11429      8.43724     11.73059         0.001606      0.000546      0.037861
      0.01507      8.44158     13.83752        -0.000756     -0.000152     -0.010881
      2.11024     14.77569     13.83667         0.000295      0.000744     -0.011243
      0.00000     10.55123      7.50000         0.024354      0.000186      0.342630
      2.11025     12.66148      7.50000         0.011064      0.001847      0.349109
      0.00000     12.66148      9.61025         0.025706      0.010853      0.019059
      2.11025     10.55123      9.61025         0.021484     -0.013170      0.027435
      0.00625     10.55297     11.73287        -0.000522     -0.000606      0.037803
      2.11099     12.66361     11.73197         0.000209     -0.000495      0.037893
      0.00701     12.66865     13.83655        -0.000026     -0.000437     -0.010456
      2.11127     10.55625     13.83546         0.001115     -0.000247     -0.011583
[...]
     14.77172      8.44098      9.61025        -0.094538      0.021044      0.140129
     12.66148      8.44098      7.50000        -0.015773      0.018961     -0.475630
     14.77172     14.77172      7.50000        -0.006158     -0.013629     -0.511352
     12.66847     14.77322     13.88442         0.001465      0.001710      0.024382
     14.79696      8.44690     13.88881        -0.001590      0.002428      0.026105
     12.63337      8.44598     11.76522        -0.001651      0.000111      0.013256
     14.77178     14.76904     11.72719        -0.000810      0.000654      0.011155
     12.66148     10.55123      9.61025        -0.057073     -0.062854      0.157671
     14.77172     12.66148      9.61025        -0.026251     -0.027572      0.077495
     12.66148     12.66148      7.50000        -0.007644     -0.022736     -0.498954
     14.77172     10.55123      7.50000        -0.021102     -0.011102     -0.496828
     12.66282     10.55243     13.89792         0.002124      0.002410      0.020563
     14.77469     12.66455     13.88418         0.001368     -0.000382      0.022664
     12.65838     12.65771     11.73101        -0.000331     -0.000422      0.012169
     14.76781     10.54786     11.73115        -0.001216      0.001164      0.012345
    total drift:                               -0.006444     -0.003944      0.047715

  FREE ENERGIE OF THE ION-ELECTRON SYSTEM (eV)
  free  energy   TOTEN  =     -1562.66462736 eV

  energy  without entropy=    -1562.66462736  energy(sigma->0) =    -1562.66462736