 vasp.6.3.0 20Jan22 (build Mar 11 2022 13:48:16) complex

 executed on             LinuxIFC date 2024.02.15  03:46:23

 INCAR:
   SYSTEM = Oxide-Surface
   ISMEAR = 0
   SIGMA = 0.05
   EDIFF = 1E-5
   ALGO = ALL
   ISTART = 0
   IBRION = -1
   NSW = 0
   ISYM = 2
   DIPOL = 0.5 0.5 0.5
   IDIPOL = 3
   LDIPOL = .TRUE.
   GGA = MK
   LUSE_VDW = .TRUE.
   PARAM1 = 0.1234
   PARAM2 = 0.711357
   ZAB_VDW = -1.8867
   AGGAC = 0.0
   ENCUT = 600
   PREC = Accurate
   LASPH = .TRUE.
   LREAL = .FALSE.
   ISPIN = 1
   NELM = 200
   NELMIN = 8
   NCORE = 19
   KPAR = 1
   LWAVE = .FALSE.
   LCHARG = .FALSE.

 POTCAR:    PAW_PBE Ti_pv 07Sep2000
 POTCAR:    PAW_PBE O 08Apr2002
|               ----> ADVICE to this user running VASP <----                  |
|     You have switched on vdW-DFT.                                           |
|     This routine was written and supplied by Jiri Klimes. We recommend      |
|     that you carefully read and cite the following publications:            |
|       J. Klimes, D.R. Bowler, A. Michelides                                 |
|          J. Phys.: Cond Matt. 22 022201 (2010)                              |
|       J. Klimes, D.R. Bowler, A. Michelides                                 |
|          Phys. Rev. B. 83, 195131 (2011)                                    |
|     and references therein.                                                 |

   TITEL  = PAW_PBE Ti_pv 07Sep2000
   POMASS =   47.880; ZVAL   =   10.000    mass and valenz
   ENMAX  =  222.335; ENMIN  =  166.751 eV

   TITEL  = PAW_PBE O 08Apr2002
   POMASS =   16.000; ZVAL   =    6.000    mass and valenz
   ENMAX  =  400.000; ENMIN  =  300.000 eV

  PAW_PBE Ti_pv 07Sep2000               :
  PAW_PBE O 08Apr2002                   :

 POSCAR: Ti  O
  positions in direct lattice
 exchange correlation table for  LEXCH =       43
   RHO(1)=    0.500       N(1)  =     2000
   RHO(2)=  100.500       N(2)  =     4000

 ion  position               nearest neighbor table
   1  0.750  0.625  0.287-  82 1.95 142 1.95 141 1.95  81 1.95  84 1.98 163 1.98  11 2.96  31 2.96

   2  0.000  0.750  0.287-  83 1.95  84 1.95 103 1.95 104 1.95  85 1.98  32 2.96  12 2.96
   3  0.000  0.625  0.394-  85 1.95 145 1.95  86 1.95 146 1.95  87 1.98  88 1.98  13 2.96  33 2.96

[...]

  80  0.501  0.499  0.712- 234 1.91 240 1.93 180 1.94 239 1.96 179 1.99  70 2.96  50 2.97
  81  0.750  0.750  0.245-   1 1.95  11 1.95
  82  0.750  0.750  0.329-   1 1.95  11 1.95   4 1.98
  83  0.098  0.625  0.287-   2 1.95  32 1.95  41 1.98
  84  0.902  0.625  0.287-   2 1.95  32 1.95   1 1.98
  85  0.000  0.750  0.352-   3 1.95  13 1.95   2 1.98
  86  0.000  0.750  0.435-   3 1.95  13 1.95   6 1.98
  87  0.848  0.625  0.394-   4 1.95  34 1.95   3 1.98
  88  0.152  0.625  0.394-  44 1.95  74 1.95   3 1.98
  89  0.750  0.750  0.458-   5 1.95  15 1.95   4 1.98
  90  0.750  0.750  0.542-   5 1.95  15 1.95   8 2.09
  91  0.098  0.625  0.500-   6 1.95  36 1.95  45 1.98
  92  0.902  0.625  0.500-   6 1.95  36 1.95   5 1.98
  93  0.001  0.750  0.565-  17 1.90   7 1.90   6 2.00
  94  1.000  0.750  0.649-  10 1.81   7 2.02  17 2.02
  95  0.851  0.625  0.607-   8 1.93  38 1.93   7 2.03
  96  0.150  0.625  0.607-   7 1.87  78 2.02  48 2.02
  97  0.754  0.751  0.671-   8 1.87   9 2.08  19 2.09
  98  0.748  0.749  0.756-   9 1.83  19 1.84
  99  0.095  0.625  0.719-  40 1.94  10 1.95  49 2.03
 100  0.906  0.624  0.720-  40 1.95  10 1.96   9 2.02
 101  0.750  0.000  0.245-  11 1.95  21 1.95
 102  0.750  0.000  0.329-  11 1.95  21 1.95  14 1.98
 103  0.098  0.875  0.287-   2 1.95  12 1.95  51 1.98
 104  0.902  0.875  0.287-   2 1.95  12 1.95  11 1.98
 105  0.000  0.000  0.352-  13 1.95  23 1.95  12 1.98
 106  0.000  0.000  0.435-  13 1.95  23 1.95  16 1.98
 107  0.848  0.875  0.394-   4 1.95  14 1.95  13 1.98
 108  0.152  0.875  0.394-  44 1.95  54 1.95  13 1.98
 109  0.750  0.000  0.458-  15 1.95  25 1.95  14 1.98
 110  0.750  0.000  0.542-  15 1.95  25 1.95  18 2.10
 111  0.098  0.875  0.500-   6 1.95  16 1.95  55 1.98
 112  0.902  0.875  0.500-   6 1.95  16 1.95  15 1.98
 113  0.001  0.000  0.565-  27 1.90  17 1.90  16 2.00
 114  0.000  0.000  0.649-  20 1.81  27 2.02  17 2.02
 115  0.851  0.876  0.607-  18 1.93   8 1.93  17 2.04
 116  0.150  0.875  0.607-  17 1.87  48 2.02  58 2.02
 117  0.751  0.000  0.672-  18 1.87  29 2.09  19 2.09
 118  0.750  1.000  0.756-  29 1.83  19 1.84
 119  0.094  0.875  0.719-  10 1.94  20 1.95  59 2.04
 120  0.906  0.875  0.719-  10 1.94  20 1.95  19 2.04
 121  0.750  0.250  0.245-  21 1.95  31 1.95
 122  0.750  0.250  0.329-  21 1.95  31 1.95  24 1.98
 123  0.098  0.125  0.287-  12 1.95  22 1.95  61 1.98
 124  0.902  0.125  0.287-  12 1.95  22 1.95  21 1.98
 125  0.000  0.250  0.352-  23 1.95  33 1.95  22 1.98
 126  0.000  0.250  0.435-  23 1.95  33 1.95  26 1.98
 127  0.848  0.125  0.394-  14 1.95  24 1.95  23 1.98
 128  0.152  0.125  0.394-  54 1.95  64 1.95  23 1.98
 129  0.750  0.250  0.458-  25 1.95  35 1.95  24 1.98
 130  0.750  0.250  0.542-  25 1.95  35 1.95  28 2.09
 131  0.098  0.125  0.500-  16 1.95  26 1.95  65 1.98
 132  0.902  0.125  0.500-  16 1.95  26 1.95  25 1.98
 133  0.001  0.250  0.565-  37 1.90  27 1.90  26 2.00
 134  0.000  0.250  0.649-  30 1.81  37 2.02  27 2.02
 135  0.851  0.125  0.607-  18 1.93  28 1.93  27 2.04
 136  0.150  0.125  0.607-  27 1.86  58 2.02  68 2.02
 137  0.753  0.250  0.671-  28 1.87  39 2.06  29 2.10
 138  0.749  0.251  0.756-  39 1.83  29 1.84
 139  0.094  0.125  0.719-  30 1.94  20 1.95  69 2.04
[...]
 226  0.500  0.500  0.435-  43 1.95  73 1.95  76 1.98
 227  0.348  0.375  0.394-  64 1.95  74 1.95  73 1.98
 228  0.652  0.375  0.394-  24 1.95  34 1.95  73 1.98
 229  0.250  0.500  0.458-  45 1.95  75 1.95  74 1.98
 230  0.250  0.500  0.542-  45 1.95  75 1.95  78 2.11
 231  0.598  0.375  0.500-  66 1.95  76 1.95  35 1.98
 232  0.402  0.375  0.500-  66 1.95  76 1.95  75 1.98
 233  0.501  0.500  0.566-  47 1.90  77 1.90  76 2.00
 234  0.500  0.500  0.650-  80 1.91  47 1.98  77 1.98
 235  0.350  0.375  0.607-  68 1.92  78 1.93  77 2.04
 236  0.651  0.375  0.608-  77 1.88  28 2.01  38 2.02
 237  0.250  0.500  0.672-  78 1.86  49 2.09  79 2.10
 238  0.252  0.500  0.756-  79 1.84  49 1.84
 239  0.597  0.371  0.715-  70 1.92  80 1.96  39 2.02
 240  0.407  0.374  0.718-  80 1.93  70 1.94  79 2.03

  LATTYP: Found a simple orthorhombic cell.
 ALAT       =    11.8303781148
 B/A-ratio  =     1.0992024327
 C/A-ratio  =     2.5825673970

  Lattice vectors:

 A1 = (   0.0000000000, -11.8303781148,   0.0000000000)
 A2 = (  13.0039804036,   0.0000000000,   0.0000000000)
 A3 = (   0.0000000000,   0.0000000000,  30.5527488131)

Analysis of symmetry for initial positions (statically):
 Subroutine PRICEL returns:
 Original cell was already a primitive cell.

 Routine SETGRP: Setting up the symmetry group for a
 simple orthorhombic supercell.

 Subroutine GETGRP returns: Found  1 space group operations
 (whereof  1 operations were pure point group operations)
 out of a pool of  8 trial point group operations.

The static configuration has the point symmetry C_1 .

Analysis of symmetry for dynamics (positions and initial velocities):
 Subroutine PRICEL returns:
 Original cell was already a primitive cell.

[...]

The dynamic configuration has the point symmetry C_1 .

Analysis of constrained symmetry for selective dynamics:
 Subroutine PRICEL returns:
 Original cell was already a primitive cell.

 Routine SETGRP: Setting up the symmetry group for a
 simple orthorhombic supercell.

 Subroutine GETGRP returns: Found  1 space group operations
 (whereof  1 operations were pure point group operations)
 out of a pool of  8 trial point group operations.

The constrained configuration has the point symmetry C_1 .

 Subroutine INISYM returns: Found  1 space group operations
 (whereof  1 operations are pure point group operations),
 and found     1 'primitive' translations

                                     Primitive cell

  volume of cell :    4700.2961

  direct lattice vectors                    reciprocal lattice vectors
    13.003980404  0.000000000  0.000000000     0.076899531  0.000000000  0.000000000
     0.000000000 11.830378115  0.000000000     0.000000000  0.084528152  0.000000000
     0.000000000  0.000000000 30.552748813     0.000000000  0.000000000  0.032730279

  length of vectors
    13.003980404 11.830378115 30.552748813     0.076899531  0.084528152  0.032730279

  position of ions in fractional coordinates (direct lattice)
     0.750000000  0.625000000  0.287188045
     0.000000000  0.750000000  0.287188045
     0.000000000  0.625000000  0.393594023
     0.750000000  0.750000000  0.393594023
     0.750000000  0.625000000  0.500000000
     0.000000000  0.750000000  0.500000000
     0.006993774  0.625073986  0.604046202
     0.756133557  0.750114422  0.610207977
     0.750759752  0.625797847  0.719102266
     0.999978673  0.750342000  0.708177627
     0.750000000  0.875000000  0.287188045
     0.000000000  0.000000000  0.287188045
     0.000000000  0.875000000  0.393594023
     0.750000000  0.000000000  0.393594023
     0.750000000  0.875000000  0.500000000
     0.000000000  0.000000000  0.500000000
     0.007105127  0.875049078  0.604101504
     0.755700079  0.000050128  0.610520273
     0.749628850  0.874940193  0.720168330
     0.000248360  0.999945581  0.708144814
     0.750000000  0.125000000  0.287188045
     0.000000000  0.250000000  0.287188045
     0.000000000  0.125000000  0.393594023
     0.750000000  0.250000000  0.393594023
     0.750000000  0.125000000  0.500000000
     0.000000000  0.250000000  0.500000000
     0.007272160  0.124967895  0.604110878
     0.756020659  0.249869324  0.610140302
     0.749590896  0.124216859  0.720174278
     0.000192105  0.249631163  0.708168764
     0.750000000  0.375000000  0.287188045
     0.000000000  0.500000000  0.287188045
     0.000000000  0.375000000  0.393594023
     0.750000000  0.500000000  0.393594023
     0.750000000  0.375000000  0.500000000
     0.000000000  0.500000000  0.500000000
     0.006984987  0.374982529  0.604028350
     0.756360084  0.500008577  0.610371278
     0.751441947  0.373222885  0.719136832
     0.000822413  0.500125693  0.708109682
     0.250000000  0.625000000  0.287188045
     0.500000000  0.750000000  0.287188045
     0.500000000  0.625000000  0.393594023
     0.250000000  0.750000000  0.393594023
     0.250000000  0.625000000  0.500000000
     0.500000000  0.750000000  0.500000000
     0.507162857  0.622674843  0.605370118
     0.256146052  0.749992212  0.610460436
     0.250336699  0.625322801  0.720069271
     0.500758605  0.750128350  0.706878545
     0.250000000  0.875000000  0.287188045
     0.500000000  0.000000000  0.287188045
     0.500000000  0.875000000  0.393594023
     0.250000000  0.000000000  0.393594023
     0.250000000  0.875000000  0.500000000
     0.500000000  0.000000000  0.500000000
     0.507083618  0.874027206  0.603027326
     0.256004148  0.999990077  0.610576970
     0.251039654  0.875163053  0.720262046
     0.499486054  0.999974098  0.707124768
[...]
     0.500000000  0.500000000  0.435304973
     0.347999548  0.375000000  0.393594023
     0.652000452  0.375000000  0.393594023
[...]
   6.50199020 10.35158085 12.02537931
   3.25099510  0.00000000 12.02537931
   3.25099510 10.35158085 15.27637441
   6.50199020  0.00000000 15.27637441
   6.59410543 10.34007233 18.42414243
   3.32907292 11.83026073 18.65480479
   3.26451474 10.35350983 22.00598536
   6.49530686 11.83007168 21.60460542
[...]
   6.50199020  5.91518906 13.29976351
   4.52537931  4.43639179 12.02537931
   8.47860110  4.43639179 12.02537931
   3.25099510  5.91518906 14.00199020
   3.25099510  5.91518906 16.55075861
   7.77637441  4.43639179 15.27637441
   5.22760600  4.43639179 15.27637441
   6.51379401  5.91397452 17.27820944
   6.50128743  5.91934280 19.84479795
   4.55310556  4.43707079 18.55133706
   8.46901735  4.43627040 18.56160861
   3.25381643  5.91924173 20.51844726
   3.27788571  5.91810083 23.08995196
   7.75932721  4.39470262 21.83015712
   5.28648191  4.42570273 21.93276342

--------------------------------------- Iteration      FINAL  ---------------------------------------

--------------------OUTCAR has been truncated-------------------------

[...]

--------------------OUTCAR has been truncated-------------------------

  FORCE on cell =-STRESS in cart. coord.  units (eV):
  Direction    XX          YY          ZZ          XY          YZ          ZX
  Alpha Z  4654.20310  4654.20310  4654.20310
  Ewald  982877.65432************************    -5.40905     0.51005   -30.41775
  Hartree************************************    -2.27844     0.32382   -17.62245
  E(xc)   -8607.71593 -8602.36261 -8604.42948    -0.00502     0.00021    -0.02746
  Local  ************************************     7.66847    -0.75568    48.96585
  n-local -5465.34101 -5391.17266 -5510.16523    -0.10974     0.03365    -0.48978
  augment  5249.16590  5225.33882  5253.86887    -0.03631    -0.01855    -0.32861
  Kinetic 28598.81210 28130.05770 28639.42357     0.04381    -0.09170     0.91838
  Fock        0.00000     0.00000     0.00000     0.00000     0.00000     0.00000
  Total      44.44064   -10.77650    -8.41579    -0.12627     0.00181     0.99819
  in kB      15.14836    -3.67336    -2.86867    -0.04304     0.00062     0.34025

 VOLUME and BASIS-vectors are now :
  energy-cutoff  :      600.00
  volume of cell :     4700.30
      direct lattice vectors                 reciprocal lattice vectors
    13.003980404  0.000000000  0.000000000     0.076899531  0.000000000  0.000000000
     0.000000000 11.830378115  0.000000000     0.000000000  0.084528152  0.000000000
     0.000000000  0.000000000 30.552748813     0.000000000  0.000000000  0.032730279

  length of vectors
    13.003980404 11.830378115 30.552748813     0.076899531  0.084528152  0.032730279

 FORCES acting on ions:
    Electron-Ion                     Ewald-Force                    Non-Local-Force
   0.142E-01 0.279E-01 0.380E+04   -.163E-01 -.277E-01 -.380E+04   0.619E-03 -.275E-04 0.371E+00
   -.239E-01 0.211E-01 0.398E+04   0.247E-01 -.210E-01 -.397E+04   -.145E-03 0.180E-05 -.370E+01
   -.826E-01 0.604E-01 0.193E+04   0.860E-01 -.602E-01 -.193E+04   -.556E-03 0.970E-04 -.415E-01
   -.275E-01 0.168E+00 0.192E+04   0.217E-01 -.167E+00 -.192E+04   0.182E-02 -.294E-04 0.199E+00
   0.375E+00 0.641E+00 -.188E+02   -.397E+00 -.656E+00 0.196E+02   0.708E-02 0.586E-03 -.122E+00
   0.157E+01 -.735E-02 -.769E+01   -.159E+01 0.128E-01 0.668E+01   0.464E-02 -.289E-02 0.325E+00
   0.151E+02 0.103E+00 -.190E+04   -.154E+02 -.982E-01 0.190E+04   0.658E-01 -.591E-02 0.674E-01
   0.984E+01 -.169E+01 -.196E+04   -.982E+01 0.174E+01 0.196E+04   -.508E-01 -.183E-01 -.702E-01
   -.144E+02 0.158E+02 -.380E+04   0.145E+02 -.165E+02 0.380E+04   0.112E+00 0.106E+00 -.111E+00
   -.105E+00 0.497E+01 -.381E+04   0.625E-01 -.502E+01 0.381E+04   -.293E-01 -.239E-02 0.813E+00
   -.391E-02 0.187E-01 0.380E+04   0.160E-02 -.187E-01 -.380E+04   0.728E-03 0.185E-04 0.371E+00
   -.228E-01 -.541E-02 0.398E+04   0.237E-01 0.537E-02 -.397E+04   -.159E-03 0.308E-05 -.370E+01
   -.591E-01 0.227E-01 0.193E+04   0.626E-01 -.231E-01 -.193E+04   -.579E-03 0.109E-03 -.416E-01
   -.148E+00 -.322E-01 0.192E+04   0.141E+00 0.316E-01 -.192E+04   0.182E-02 -.593E-04 0.199E+00
   -.143E+01 0.134E+00 -.184E+02   0.142E+01 -.109E+00 0.192E+02   0.578E-02 -.453E-03 -.126E+00
   0.192E+01 -.746E-01 -.816E+01   -.194E+01 0.744E-01 0.715E+01   0.429E-02 -.371E-03 0.322E+00
   0.173E+02 0.150E+00 -.190E+04   -.176E+02 -.149E+00 0.190E+04   0.647E-01 -.670E-02 0.728E-01
   0.943E+01 -.219E+00 -.197E+04   -.945E+01 0.215E+00 0.197E+04   -.498E-01 0.113E-02 -.800E-01
   -.365E+00 -.105E+01 -.380E+04   0.411E+00 0.910E+00 0.380E+04   0.307E-01 0.207E-01 -.130E+00
   -.173E+01 0.248E+00 -.381E+04   0.167E+01 -.261E+00 0.381E+04   0.357E-01 0.111E-02 0.859E+00
   -.199E-02 -.279E-01 0.380E+04   -.280E-03 0.275E-01 -.380E+04   0.676E-03 0.376E-04 0.371E+00
   -.248E-01 -.211E-01 0.398E+04   0.257E-01 0.210E-01 -.397E+04   -.171E-03 0.246E-05 -.370E+01
   -.638E-01 -.568E-01 0.193E+04   0.677E-01 0.568E-01 -.193E+04   -.701E-03 -.496E-04 -.416E-01
   -.152E-02 -.167E+00 0.192E+04   -.381E-02 0.166E+00 -.192E+04   0.170E-02 -.698E-05 0.199E+00
   -.135E+01 -.301E+00 -.185E+02   0.134E+01 0.260E+00 0.193E+02   0.682E-02 0.220E-02 -.125E+00
   0.156E+01 0.370E-01 -.784E+01   -.157E+01 -.427E-01 0.682E+01   0.379E-02 0.266E-02 0.326E+00
   0.186E+02 -.377E+00 -.190E+04   -.189E+02 0.373E+00 0.190E+04   0.698E-01 0.587E-02 0.781E-01
   0.958E+01 0.120E+01 -.196E+04   -.956E+01 -.124E+01 0.196E+04   -.470E-01 0.714E-02 -.828E-01
   0.320E+00 -.169E+01 -.380E+04   -.233E+00 0.180E+01 0.380E+04   0.145E-01 -.267E-01 -.131E+00
   0.533E+00 -.528E+01 -.381E+04   -.591E+00 0.534E+01 0.381E+04   -.168E-01 -.791E-03 0.817E+00
   0.161E-01 -.186E-01 0.380E+04   -.181E-01 0.188E-01 -.380E+04   0.604E-03 -.185E-04 0.371E+00
   -.257E-01 0.540E-02 0.398E+04   0.266E-01 -.537E-02 -.397E+04   -.145E-03 -.130E-05 -.370E+01
   -.882E-01 -.264E-01 0.193E+04   0.921E-01 0.265E-01 -.193E+04   -.659E-03 -.122E-03 -.415E-01
   0.116E+00 0.317E-01 0.192E+04   -.120E+00 -.312E-01 -.192E+04   0.138E-02 -.222E-04 0.198E+00
   0.486E+00 -.469E+00 -.189E+02   -.508E+00 0.499E+00 0.197E+02   0.776E-02 -.137E-02 -.121E+00
   0.148E+01 0.877E-01 -.743E+01   -.149E+01 -.863E-01 0.641E+01   0.340E-02 -.532E-03 0.324E+00
   0.155E+02 0.142E+00 -.190E+04   -.158E+02 -.141E+00 0.190E+04   0.644E-01 0.440E-02 0.688E-01
   0.120E+02 0.134E+00 -.196E+04   -.119E+02 -.134E+00 0.196E+04   -.116E+00 0.253E-02 -.642E-01
   -.117E+02 -.187E+02 -.380E+04   0.118E+02 0.195E+02 0.380E+04   0.443E-01 -.158E+00 -.112E+00
   0.437E+00 0.136E+00 -.381E+04   -.612E+00 -.128E+00 0.381E+04   0.646E-01 0.231E-02 0.760E+00
   -.196E-01 0.306E-01 0.380E+04   0.216E-01 -.305E-01 -.380E+04   -.532E-03 0.975E-05 0.371E+00
   0.294E-01 0.491E-01 0.398E+04   -.301E-01 -.487E-01 -.397E+04   0.146E-03 -.648E-04 -.370E+01
   0.208E+00 0.298E+00 0.193E+04   -.211E+00 -.283E+00 -.193E+04   0.284E-03 -.303E-02 -.421E-01
   -.940E-01 0.199E+00 0.192E+04   0.993E-01 -.198E+00 -.192E+04   -.720E-03 -.619E-04 0.196E+00
   -.174E+01 0.808E+00 -.203E+02   0.177E+01 -.819E+00 0.211E+02   -.299E-02 0.427E-03 -.131E+00
   0.300E+01 0.249E+01 -.709E+01   -.302E+01 -.257E+01 0.620E+01   0.509E-02 0.409E-01 0.267E+00
   0.193E+02 -.647E+01 -.191E+04   -.195E+02 0.694E+01 0.191E+04   0.444E-01 -.166E+00 0.110E+00
   0.111E+02 -.116E+00 -.197E+04   -.112E+02 0.145E+00 0.197E+04   -.228E-01 0.120E-02 -.622E-01
   0.114E+00 0.153E+01 -.379E+04   -.491E+00 -.148E+01 0.379E+04   0.155E+00 0.113E-01 -.136E+00
   0.124E+02 -.667E+01 -.380E+04   -.123E+02 0.722E+01 0.380E+04   -.181E+00 -.133E+00 0.917E+00
   -.159E-02 0.204E-01 0.380E+04   0.387E-02 -.201E-01 -.380E+04   -.636E-03 -.288E-04 0.371E+00
   0.285E-01 -.849E-02 0.398E+04   -.292E-01 0.836E-02 -.397E+04   0.158E-03 0.233E-04 -.370E+01
   0.189E+00 0.211E+00 0.193E+04   -.193E+00 -.209E+00 -.193E+04   0.446E-03 -.140E-02 -.426E-01
   0.205E-01 -.426E-01 0.192E+04   -.145E-01 0.425E-01 -.192E+04   -.881E-03 0.796E-04 0.196E+00
   -.207E+00 0.456E+00 -.194E+02   0.231E+00 -.439E+00 0.202E+02   0.550E-04 -.154E-02 -.132E+00
   0.262E+01 -.291E+00 -.276E+01   -.266E+01 0.293E+00 0.167E+01   0.133E-01 -.318E-02 0.295E+00
   0.168E+02 -.729E+01 -.188E+04   -.169E+02 0.742E+01 0.188E+04   0.384E-01 -.346E-01 -.581E-01
   0.109E+02 -.569E+00 -.197E+04   -.110E+02 0.569E+00 0.197E+04   -.541E-01 -.487E-03 -.512E-01
   0.400E+01 0.241E+01 -.380E+04   -.402E+01 -.243E+01 0.380E+04   -.492E-01 0.286E-02 -.138E+00
   -.463E+01 -.361E+00 -.380E+04   0.465E+01 0.291E+00 0.380E+04   0.459E-01 0.207E-01 0.743E+00
[...]
   -.534E+02 -.987E-01 0.115E+04   0.574E+02 0.974E-01 -.115E+04   -.352E+01 0.195E-02 0.155E+00
   0.535E+02 -.942E-01 0.115E+04   -.574E+02 0.934E-01 -.115E+04   0.352E+01 0.125E-02 0.160E+00
   -.581E+00 0.762E-01 0.498E+03   0.597E+00 -.777E-01 -.502E+03   -.243E-01 0.341E-02 0.413E+01
   0.333E+00 0.347E+00 -.538E+03   -.596E+00 -.349E+00 0.546E+03   0.262E+00 0.106E-02 -.699E+01
   -.542E+02 -.822E+00 -.564E+01   0.588E+02 0.817E+00 0.542E+01   -.504E+01 0.286E-01 0.287E+00
   0.549E+02 -.845E+00 -.829E+01   -.595E+02 0.837E+00 0.813E+01   0.506E+01 0.358E-01 0.248E+00
   0.119E+02 0.814E+00 -.641E+03   -.130E+02 -.889E+00 0.634E+03   0.110E+01 0.704E-01 0.697E+01
   0.142E+02 -.490E+00 -.166E+04   -.151E+02 0.611E+00 0.166E+04   0.882E+00 -.155E+00 0.332E-01
   -.557E+02 -.691E+00 -.115E+04   0.619E+02 0.625E+00 0.115E+04   -.608E+01 0.824E-01 0.134E+01
   0.559E+01 0.853E+00 -.116E+04   -.549E+01 -.105E+01 0.116E+04   -.156E+00 0.210E+00 0.564E+00
   0.480E+01 0.141E+00 -.184E+04   -.539E+01 -.169E+00 0.184E+04   0.637E+00 0.138E-01 -.207E+01
   -.270E+01 0.108E+00 -.274E+04   0.285E+01 -.137E-01 0.276E+04   -.119E+00 -.155E+00 -.208E+02
   -.239E+02 -.693E+01 -.231E+04   0.304E+02 0.740E+01 0.231E+04   -.695E+01 -.338E-01 -.111E+00
   0.240E+02 0.235E+01 -.236E+04   -.305E+02 -.267E+01 0.236E+04   0.675E+01 0.649E+00 -.216E+01
   0.240E+02 -.105E+01 0.868E+02   -.201E-11 0.408E-12 0.596E-10   -.240E+02 0.105E+01 -.869E+02

 POSITION                                       TOTAL-FORCE (eV/Angst)
      9.75299      7.39399      8.77438        -0.001388      0.000190     -3.543382
      0.00000      8.87278      8.77438         0.000695      0.000041      2.691284
      0.00000      7.39399     12.02538         0.002921      0.000269      0.524349
      9.75299      8.87278     12.02538        -0.003906      0.000739     -0.724240
      9.75299      7.39399     15.27637        -0.014050     -0.014809      0.637422
      0.00000      8.87278     15.27637        -0.006780      0.002576     -0.700174
      0.09095      7.39486     18.45527        -0.114156     -0.000851      0.137217
      9.83275      8.87414     18.64353         0.018618      0.030216      0.032023
      9.76287      7.40343     21.97055         0.207164     -0.548971      0.657734
     13.00370      8.87683     21.63677        -0.066879     -0.043289      0.248335
      9.75299     10.35158      8.77438        -0.001539     -0.000004     -3.543345
      0.00000      0.00000      8.77438         0.000727     -0.000037      2.691277
      0.00000     10.35158     12.02538         0.002954     -0.000216      0.524500
      9.75299      0.00000     12.02538        -0.004350     -0.000600     -0.725555
      9.75299     10.35158     15.27637        -0.002113      0.024435      0.645391
      0.00000      0.00000     15.27637        -0.005820     -0.000530     -0.696923
      0.09239     10.35216     18.45696        -0.110512     -0.004320      0.132837
      9.82711      0.00059     18.65307        -0.018945     -0.002696      0.012833
      9.74816     10.35087     22.00312         0.069464     -0.115581      0.228093
      0.00323     11.82973     21.63577        -0.030724     -0.012171      0.231900
      9.75299      1.47880      8.77438        -0.001553     -0.000315     -3.543538
      0.00000      2.95759      8.77438         0.000727     -0.000038      2.691253
      0.00000      1.47880     12.02538         0.003262     -0.000079      0.524341
      9.75299      2.95759     12.02538        -0.003583     -0.000780     -0.726351
      9.75299      1.47880     15.27637        -0.001708     -0.038506      0.635758
      0.00000      2.95759     15.27637        -0.003356     -0.003081     -0.700478
      0.09457      1.47842     18.45725        -0.117815      0.000857      0.128208
      9.83128      2.95605     18.64146         0.015829     -0.025912      0.031240
      9.74767      1.46953     22.00330         0.094316      0.064646      0.198820
      0.00250      2.95323     21.63650        -0.070519      0.043634      0.239905
      9.75299      4.43639      8.77438        -0.001349      0.000157     -3.543559
      0.00000      5.91519      8.77438         0.000741      0.000031      2.691266
      0.00000      4.43639     12.02538         0.003257      0.000003      0.524122
      9.75299      5.91519     12.02538        -0.003264      0.000549     -0.724978
      9.75299      4.43639     15.27637        -0.014384      0.028736      0.629035
      0.00000      5.91519     15.27637        -0.005373      0.000883     -0.703435
      0.09083      4.43619     18.45473        -0.115775      0.004899      0.136244
      9.83569      5.91529     18.64852         0.040636      0.001905      0.051203
      9.77174      4.41537     21.97161         0.181454      0.614034      0.620826
      0.01069      5.91668     21.63470        -0.107877      0.011546      0.267232
      3.25100      7.39399      8.77438         0.001515      0.000086     -3.542177
      6.50199      8.87278      8.77438        -0.000533      0.000350      2.694749
      6.50199      7.39399     12.02538        -0.002877      0.011983      0.535906
      3.25100      8.87278     12.02538         0.004630      0.001021     -0.715906
      3.25100      7.39399     15.27637         0.028704     -0.009926      0.663818
      6.50199      8.87278     15.27637        -0.020290     -0.036799     -0.628046
      6.59514      7.36648     18.49572        -0.038858      0.281450     -0.138008
      3.33092      8.87269     18.65124        -0.104441      0.027632     -0.060240
      3.25537      7.39781     22.00010        -0.225698      0.064466      0.180563
      6.51186      8.87430     21.59708         0.003482      0.398296      0.242311
      3.25100     10.35158      8.77438         0.001671      0.000264     -3.542001
      6.50199      0.00000      8.77438        -0.000563     -0.000102      2.695166
      6.50199     10.35158     12.02538        -0.003309      0.000985      0.540834
      3.25100      0.00000     12.02538         0.005212      0.000005     -0.714635
      3.25100     10.35158     15.27637         0.023323      0.016419      0.667127
      6.50199      0.00000     15.27637        -0.026292     -0.000858     -0.796724
      6.59411     10.34007     18.42414        -0.049299      0.080860      0.089895
      3.32907     11.83026     18.65480        -0.090877     -0.001533     -0.049291
      3.26451     10.35351     22.00599        -0.068040     -0.009286      0.133934
      6.49531     11.83007     21.60461         0.050296     -0.049758      0.231508
[...]
      6.50199      5.91519     13.29976         0.002410     -0.000773     -0.092285
      4.52538      4.43639     12.02538         0.446757      0.000671      0.049464
      8.47860      4.43639     12.02538        -0.443333      0.000347      0.050720
      3.25100      5.91519     14.00199        -0.008130      0.001941     -0.119637
      3.25100      5.91519     16.55076        -0.000402     -0.000606      0.105210
      7.77637      4.43639     15.27637        -0.415158      0.024164      0.068690
      5.22761      4.43639     15.27637         0.440513      0.027051      0.086129
      6.51379      5.91397     17.27821        -0.007962     -0.004442      0.052635
      6.50129      5.91934     19.84480        -0.085660     -0.033967      0.871242
      4.55311      4.43707     18.55134         0.130042      0.016226      0.003296
      8.46902      4.43627     18.56161        -0.057245      0.014304      0.001055
      3.25382      5.91924     20.51845         0.043239     -0.014037      0.092467
      3.27789      5.91810     23.08995         0.026604     -0.060679     -0.108180
      7.75933      4.39470     21.83016        -0.477393      0.436399      0.393233
      5.28648      4.42570     21.93276         0.217478      0.328499      0.286145
    total drift:                               -0.008029      0.000807     -0.066508

  FREE ENERGIE OF THE ION-ELECTRON SYSTEM (eV)
  free  energy   TOTEN  =     -1739.79346781 eV

  energy  without entropy=    -1739.79346781  energy(sigma->0) =    -1739.79346781