 vasp.6.3.0 20Jan22 (build Mar 11 2022 13:48:16) complex

 executed on             LinuxIFC date 2024.01.21  22:06:39

 INCAR:
   SYSTEM = TiO2
   ISMEAR = 0
   SIGMA = 0.05
   EDIFF = 1E-5
   ALGO = ALL
   ISTART = 0
   IBRION = -1
   NSW = 0
   ISYM = 0
   ISIF = 2
   EDIFFG = -0.01
   DIPOL = 0.5 0.5 0.5
   IDIPOL = 3
   LDIPOL = .TRUE.
   GGA = PE
   IVDW = 21
   LDAU = .TRUE.
   LDAUTYPE = 2
   LDAUL = -1 -1 -1 2 -1
   LDAUU = 0.0 0.0 0.0 4.2 0.0
   LDAUPRINT = 1
   LMAXMIX = 4
   ENCUT = 600
   PREC = Accurate
   LASPH = .TRUE.
   LREAL = .FALSE.
   ISPIN = 1
   NELM = 200
   NELMIN = 8
   NCORE = 2
   KPAR = 1
   LWAVE = .FALSE.
   LCHARG = .FALSE.

 POTCAR:    PAW_PBE C 08Apr2002
 POTCAR:    PAW_PBE O 08Apr2002
 POTCAR:    PAW_PBE H 15Jun2001
 POTCAR:    PAW_PBE Ti_pv 07Sep2000
 POTCAR:    PAW_PBE O 08Apr2002
|           W    W    AA    RRRRR   N    N  II  N    N   GGGG   !!!           |
|           W    W   A  A   R    R  NN   N  II  NN   N  G    G  !!!           |
|           W    W  A    A  R    R  N N  N  II  N N  N  G       !!!           |
|           W WW W  AAAAAA  RRRRR   N  N N  II  N  N N  G  GGG   !            |
|           WW  WW  A    A  R   R   N   NN  II  N   NN  G    G                |
|           W    W  A    A  R    R  N    N  II  N    N   GGGG   !!!           |
|     For optimal performance we recommend to set                             |
|       NCORE = 2 up to number-of-cores-per-socket                            |
|     This setting can greatly improve the performance of VASP for DFT.       |
|     The default, NCORE=1 might be grossly inefficient on modern             |
|     multi-core architectures or massively parallel machines. Do your        |
|     Unfortunately you need to use the default for GW and RPA                |
|     calculations (for HF NCORE is supported but not extensively tested      |
|     yet).                                                                   |

   TITEL  = PAW_PBE C 08Apr2002
   POMASS =   12.011; ZVAL   =    4.000    mass and valenz
   ENMAX  =  400.000; ENMIN  =  300.000 eV

[...]

   TITEL  = PAW_PBE H 15Jun2001
   POMASS =    1.000; ZVAL   =    1.000    mass and valenz
   ENMAX  =  250.000; ENMIN  =  200.000 eV

   TITEL  = PAW_PBE Ti_pv 07Sep2000
   POMASS =   47.880; ZVAL   =   10.000    mass and valenz
   ENMAX  =  222.335; ENMIN  =  166.751 eV

   TITEL  = PAW_PBE O 08Apr2002
   POMASS =   16.000; ZVAL   =    6.000    mass and valenz
   ENMAX  =  400.000; ENMIN  =  300.000 eV

  PAW_PBE C 08Apr2002                   :
  PAW_PBE O 08Apr2002                   :
  PAW_PBE H 15Jun2001                   :
  PAW_PBE Ti_pv 07Sep2000               :
  PAW_PBE O 08Apr2002                   :

 POSCAR:  C  O  H Ti  O
  positions in direct lattice
 exchange correlation table for  LEXCH =        8
   RHO(1)=    0.500       N(1)  =     2000
   RHO(2)=  100.500       N(2)  =     4000

 ion  position               nearest neighbor table
   1  0.509  0.590  0.809-   3 1.09   5 1.09   6 1.10   2 1.44
   2  0.539  0.499  0.780-   4 1.00   1 1.44  86 2.13
   3  0.426  0.598  0.807-   1 1.09
   4  0.615  0.494  0.779-   2 1.00
   5  0.532  0.567  0.843-   1 1.09
   6  0.548  0.668  0.800-   1 1.10
   7  0.750  0.625  0.287-  88 1.95 148 1.95 147 1.95  87 1.95  90 1.97 169 1.97  17 2.96  37 2.96

   8  0.000  0.750  0.287-  89 1.95  90 1.95 109 1.95 110 1.95  91 1.97  38 2.96  18 2.96
   9  0.000  0.625  0.394-  91 1.95  92 1.95 151 1.95 152 1.95  93 1.97  94 1.97  19 2.96  39 2.96

[...]

  87  0.750  0.750  0.246-   7 1.95  17 1.95
  88  0.750  0.750  0.329-   7 1.95  17 1.95  10 1.97
  89  0.098  0.625  0.287-   8 1.95  38 1.95  47 1.97
  90  0.902  0.625  0.287-   8 1.95  38 1.95   7 1.97
  91  0.000  0.750  0.352-   9 1.95  19 1.95   8 1.97
  92  0.000  0.750  0.435-   9 1.95  19 1.95  12 1.97
  93  0.848  0.625  0.394-  10 1.95  40 1.95   9 1.97
  94  0.152  0.625  0.394-  50 1.95  80 1.95   9 1.97
  95  0.750  0.750  0.458-  11 1.95  21 1.95  10 1.97
  96  0.750  0.750  0.542-  11 1.95  21 1.95  14 2.08
  97  0.098  0.625  0.500-  12 1.95  42 1.95  51 1.97
  98  0.902  0.625  0.500-  12 1.95  42 1.95  11 1.97
  99  0.000  0.750  0.565-  23 1.90  13 1.90  12 1.99
 100  0.999  0.750  0.649-  16 1.81  13 2.01  23 2.01
 101  0.850  0.625  0.606-  13 1.95  14 1.97  44 1.97
 102  0.150  0.625  0.607-  13 1.94  54 1.97  84 1.97
 103  0.754  0.751  0.671-  14 1.88  15 2.06  25 2.08
 104  0.748  0.749  0.755-  15 1.83  25 1.84
 105  0.094  0.625  0.719-  46 1.94  16 1.95  55 2.03
 106  0.906  0.624  0.719-  46 1.94  16 1.95  15 2.02
 107  0.750  0.000  0.246-  17 1.95  27 1.95
 108  0.750  0.000  0.329-  17 1.95  27 1.95  20 1.97
 109  0.098  0.875  0.287-   8 1.95  18 1.95  57 1.97
 110  0.902  0.875  0.287-   8 1.95  18 1.95  17 1.97
 111  0.000  0.000  0.352-  19 1.95  29 1.95  18 1.97
 112  0.000  0.000  0.435-  19 1.95  29 1.95  22 1.97
 113  0.848  0.875  0.394-  10 1.95  20 1.95  19 1.97
 114  0.152  0.875  0.394-  50 1.95  60 1.95  19 1.97
 115  0.750  0.000  0.458-  21 1.95  31 1.95  20 1.97
 116  0.750  0.000  0.542-  21 1.95  31 1.95  24 2.08
 117  0.098  0.875  0.500-  12 1.95  22 1.95  61 1.97
 118  0.902  0.875  0.500-  12 1.95  22 1.95  21 1.97
 119  0.000  1.000  0.565-  33 1.90  23 1.90  22 1.99
 120  1.000  1.000  0.649-  26 1.81  23 2.01  33 2.01
 121  0.850  0.875  0.607-  23 1.95  24 1.97  14 1.97
 122  0.150  0.875  0.607-  23 1.94  64 1.97  54 1.97
 123  0.750  1.000  0.671-  24 1.88  35 2.08  25 2.08
 124  0.750  1.000  0.755-  35 1.83  25 1.83
 125  0.094  0.874  0.718-  16 1.94  26 1.94  65 2.04
 126  0.906  0.875  0.719-  16 1.94  26 1.94  25 2.03
 127  0.750  0.250  0.246-  27 1.95  37 1.95
 128  0.750  0.250  0.329-  27 1.95  37 1.95  30 1.97
 129  0.098  0.125  0.287-  18 1.95  28 1.95  67 1.97
 130  0.902  0.125  0.287-  18 1.95  28 1.95  27 1.97
 131  0.000  0.250  0.352-  29 1.95  39 1.95  28 1.97
 132  0.000  0.250  0.435-  29 1.95  39 1.95  32 1.97
 133  0.848  0.125  0.394-  20 1.95  30 1.95  29 1.97
 134  0.152  0.125  0.394-  60 1.95  70 1.95  29 1.97
 135  0.750  0.250  0.458-  31 1.95  41 1.95  30 1.97
 136  0.750  0.250  0.542-  31 1.95  41 1.95  34 2.07
 137  0.098  0.125  0.500-  22 1.95  32 1.95  71 1.97
 138  0.902  0.125  0.500-  22 1.95  32 1.95  31 1.97
 139  0.000  0.250  0.565-  33 1.90  43 1.90  32 1.99
 140  0.999  0.250  0.649-  36 1.81  43 2.01  33 2.01
 141  0.850  0.125  0.607-  33 1.95  24 1.97  34 1.97
 142  0.150  0.125  0.607-  33 1.94  64 1.97  74 1.97
 143  0.753  0.250  0.671-  34 1.88  45 2.06  35 2.09
 144  0.749  0.250  0.755-  45 1.82  35 1.84
 145  0.094  0.125  0.718-  36 1.94  26 1.94  75 2.04
 146  0.906  0.125  0.719-  36 1.94  26 1.94  35 2.03
[...]
 232  0.500  0.500  0.435-  49 1.95  79 1.95  82 1.97
 233  0.348  0.375  0.394-  70 1.95  80 1.95  79 1.97
 234  0.652  0.375  0.394-  30 1.95  40 1.95  79 1.97
 235  0.250  0.500  0.458-  51 1.95  81 1.95  80 1.97
 236  0.250  0.500  0.542-  51 1.95  81 1.95  84 2.09
 237  0.598  0.375  0.500-  72 1.95  82 1.95  41 1.97
 238  0.402  0.375  0.500-  72 1.95  82 1.95  81 1.97
 239  0.500  0.500  0.565-  53 1.90  83 1.90  82 1.99
 240  0.499  0.500  0.649-  86 1.92  53 1.97  83 1.97
 241  0.349  0.375  0.607-  83 1.96  74 1.96  84 1.97
 242  0.651  0.375  0.607-  83 1.95  34 1.97  44 1.97
 243  0.250  0.500  0.671-  84 1.87  55 2.08  85 2.09
 244  0.252  0.500  0.755-  55 1.83  85 1.83
 245  0.596  0.371  0.714-  76 1.92  86 1.96  45 2.02
 246  0.406  0.374  0.718-  76 1.93  86 1.94  85 2.03

IMPORTANT INFORMATION: All symmetrisations will be switched off!
NOSYMM: (Re-)initialisation of all symmetry stuff for point group C_1.

                                     Primitive cell

  volume of cell :    4687.8040

  direct lattice vectors                    reciprocal lattice vectors
    12.981773603  0.000000000  0.000000000     0.077031077  0.000000000  0.000000000
     0.000000000 11.829932295  0.000000000     0.000000000  0.084531338  0.000000000
     0.000000000  0.000000000 30.524823105     0.000000000  0.000000000  0.032760223

  length of vectors
    12.981773603 11.829932295 30.524823105     0.077031077  0.084531338  0.032760223

  position of ions in fractional coordinates (direct lattice)
     0.509323832  0.589677647  0.809250740
     0.538596206  0.499107350  0.780092222
     0.426041441  0.598463715  0.807190591
     0.615098363  0.493656986  0.778916738
     0.532289055  0.567435226  0.842510209
     0.547777211  0.668367650  0.799594852
     0.750000000  0.625000000  0.287357103
     0.000000000  0.750000000  0.287357103
     0.000000000  0.625000000  0.393678552
     0.750000000  0.750000000  0.393678552
     0.750000000  0.625000000  0.500000000
     0.000000000  0.750000000  0.500000000
     0.000230512  0.625041005  0.604138564
     0.750316390  0.750097174  0.609660879
     0.750683810  0.625937627  0.718347941
     0.999767740  0.750175996  0.708205930
     0.750000000  0.875000000  0.287357103
     0.000000000  0.000000000  0.287357103
     0.000000000  0.875000000  0.393678552
     0.750000000  0.000000000  0.393678552
     0.750000000  0.875000000  0.500000000
     0.000000000  0.000000000  0.500000000
     0.000052633  0.875017729  0.604224012
     0.749771840  0.000000806  0.609959098
     0.749610064  0.875030891  0.719483890
     0.000111437  0.999876534  0.708176279
     0.750000000  0.125000000  0.287357103
     0.000000000  0.250000000  0.287357103
     0.000000000  0.125000000  0.393678552
     0.750000000  0.250000000  0.393678552
     0.750000000  0.125000000  0.500000000
     0.000000000  0.250000000  0.500000000
     0.000080241  0.124952416  0.604222948
     0.750086054  0.249844578  0.609632675
     0.749526347  0.124264281  0.719491264
     0.999961827  0.249644793  0.708201608
     0.750000000  0.375000000  0.287357103
     0.000000000  0.500000000  0.287357103
     0.000000000  0.375000000  0.393678552
     0.750000000  0.500000000  0.393678552
     0.750000000  0.375000000  0.500000000
     0.000000000  0.500000000  0.500000000
     0.000153750  0.374966858  0.604135210
     0.750708112  0.499961212  0.609855007
     0.751251178  0.373223052  0.718483979
     0.000806128  0.500010053  0.708113778
     0.250000000  0.625000000  0.287357103
     0.500000000  0.750000000  0.287357103
     0.500000000  0.625000000  0.393678552
     0.250000000  0.750000000  0.393678552
     0.250000000  0.625000000  0.500000000
     0.500000000  0.750000000  0.500000000
     0.500203885  0.622628243  0.605380367
     0.250332315  0.749933733  0.609963111
     0.250395968  0.625103818  0.719431043
     0.500271015  0.750133411  0.706850178
     0.250000000  0.875000000  0.287357103
     0.500000000  0.000000000  0.287357103
     0.500000000  0.875000000  0.393678552
     0.250000000  0.000000000  0.393678552
[...]
     0.500000000  0.500000000  0.435333986
     0.347946921  0.375000000  0.393678552
     0.652053079  0.375000000  0.393678552
     0.250000000  0.500000000  0.458344566
     0.250000000  0.500000000  0.541655434
     0.597946921  0.375000000  0.500000000
     0.402053079  0.375000000  0.500000000
     0.500261466  0.499835029  0.565307432
     0.499289177  0.500168597  0.649201628
[...]
   O          58.850          3.985         10.488          1.94226688
   O          58.805          3.984         10.484          1.94152026
   O          58.573          3.982         10.464          1.93769141
   O          59.833          3.996         10.575          1.95841946
   O          59.081          3.987         10.509          1.94608324
   O          58.971          3.986         10.499          1.94426236
   O          59.719          3.994         10.565          1.95655403
   O          39.373          3.726          8.579          1.58867496
   O          59.082          3.987         10.509          1.94609689
   O          57.170          3.965         10.337          1.91433913

  vdW correction parametrized for the method pbe

  IVDW =  21
  VDW_RADIUS =    50.000 A
  VDW_IDAMPF =  0
  VDW_S6 =     1.000
  VDW_SR =     0.950
  VDW_D =    20.000
  LVDW_ONECELL = F F F
  LVDW_SAMETYPE T T T T T
  LVDW_EWALD = F

  Number of pair interactions contributing to vdW energy: 3431372
  Edisp (eV):  -35.32944

  FORCE on cell =-STRESS in cart. coord.  units (eV):
  Direction    XX          YY          ZZ          XY          YZ          ZX
  Alpha Z  4723.94982  4723.94982  4723.94982
  Ewald  979246.09228996726.80034************   -75.11451   133.12736   -75.77474
  Hartree************************************   -40.42529    77.73717   -48.73177
  E(xc)   -8649.01566 -8633.02567 -8658.47725    -0.10535     0.18387    -0.15474
  Local  ************************************   109.52423  -201.89407   121.64331
  n-local -5226.71004 -5098.37876 -5265.74975    -1.08034     1.80613    -0.66523
  augment  5268.96301  5256.94131  5271.75186     0.46000    -0.75304     0.05471
  Kinetic 28831.17526 28342.13973 28886.68663     6.58072   -10.17678     3.85894
  Fock        0.00000     0.00000     0.00000     0.00000     0.00000     0.00000
  vdW       -50.13451   -33.36063   -42.70264     0.00597     0.05181     0.15188
  Total     166.70650   222.59854   123.57335    -0.15457     0.08244     0.38235
  in kB      56.97622    76.07876    42.23436    -0.05283     0.02818     0.13068

 VOLUME and BASIS-vectors are now :
  energy-cutoff  :      600.00
  volume of cell :     4687.80
      direct lattice vectors                 reciprocal lattice vectors
    12.981773603  0.000000000  0.000000000     0.077031077  0.000000000  0.000000000
     0.000000000 11.829932295  0.000000000     0.000000000  0.084531338  0.000000000
     0.000000000  0.000000000 30.524823105     0.000000000  0.000000000  0.032760223

  length of vectors
    12.981773603 11.829932295 30.524823105     0.077031077  0.084531338  0.032760223

 FORCES acting on ions:
    Electron-Ion                     Ewald-Force                    Non-Local-Force
   0.385E+02 -.931E+02 -.163E+04   -.411E+02 0.983E+02 0.163E+04   0.264E+01 -.529E+01 -.479E+01
   0.227E+02 0.127E+03 -.253E+04   -.450E+02 -.153E+03 0.252E+04   0.219E+02 0.255E+02 0.890E+01
   0.583E+02 -.155E+02 -.398E+03   -.645E+02 0.161E+02 0.398E+03   0.598E+01 -.603E+00 0.299E+00
   -.698E+02 0.168E+02 -.432E+03   0.778E+02 -.174E+02 0.431E+03   -.762E+01 0.678E+00 0.304E+00
   -.115E+02 0.542E+01 -.391E+03   0.131E+02 -.683E+01 0.397E+03   -.156E+01 0.138E+01 -.549E+01
   -.191E+02 -.615E+02 -.397E+03   0.218E+02 0.665E+02 0.395E+03   -.264E+01 -.486E+01 0.141E+01
   -.204E+00 -.186E-01 0.381E+04   0.200E+00 0.186E-01 -.381E+04   0.136E-02 -.103E-04 0.831E+00
   -.600E-01 -.643E-01 0.399E+04   0.617E-01 0.645E-01 -.398E+04   -.404E-03 -.186E-04 -.479E+01
   -.239E+00 -.473E-01 0.195E+04   0.247E+00 0.471E-01 -.195E+04   -.163E-02 0.107E-03 -.117E+00
   -.453E+00 -.793E-01 0.194E+04   0.441E+00 0.794E-01 -.194E+04   0.310E-02 0.542E-04 0.278E+00
   -.108E+01 -.105E+00 0.181E+02   0.102E+01 0.856E-01 -.174E+02   0.148E-01 0.286E-02 -.162E+00
   -.112E+01 -.922E+00 0.254E+02   0.115E+01 0.927E+00 -.264E+02   -.798E-02 -.329E-02 0.391E+00
   -.567E+01 -.198E+01 -.187E+04   0.567E+01 0.199E+01 0.187E+04   -.956E-02 -.798E-02 0.499E+00
   -.835E+01 -.969E+01 -.191E+04   0.837E+01 0.970E+01 0.191E+04   -.138E-01 -.561E-03 -.641E+00
   -.103E+03 -.157E+02 -.372E+04   0.103E+03 0.156E+02 0.372E+04   0.323E+00 -.200E-01 -.854E+00
   -.571E+01 -.567E+01 -.379E+04   0.579E+01 0.569E+01 0.379E+04   -.848E-01 -.771E-01 0.193E+01
   -.211E+00 -.697E-01 0.381E+04   0.207E+00 0.700E-01 -.381E+04   0.141E-02 -.284E-04 0.831E+00
   -.574E-01 -.325E-01 0.399E+04   0.591E-01 0.326E-01 -.398E+04   -.404E-03 -.201E-04 -.479E+01
   -.207E+00 -.152E+00 0.195E+04   0.215E+00 0.152E+00 -.195E+04   -.157E-02 0.701E-04 -.117E+00
   -.531E+00 -.883E-01 0.194E+04   0.519E+00 0.880E-01 -.194E+04   0.295E-02 0.193E-04 0.278E+00
   -.229E+01 -.100E+01 0.166E+02   0.225E+01 0.103E+01 -.159E+02   0.996E-02 -.390E-02 -.165E+00
   -.809E+00 -.308E+00 0.240E+02   0.832E+00 0.308E+00 -.249E+02   -.763E-02 0.121E-06 0.390E+00
   -.336E+01 -.299E+01 -.187E+04   0.336E+01 0.300E+01 0.187E+04   -.897E-02 -.149E-01 0.505E+00
   -.522E+01 -.191E+01 -.193E+04   0.524E+01 0.191E+01 0.193E+04   -.190E-01 -.642E-03 -.653E+00
   -.310E+02 -.289E+02 -.377E+04   0.310E+02 0.288E+02 0.377E+04   0.949E-01 -.371E-02 -.106E+01
   -.503E+01 -.220E+01 -.380E+04   0.502E+01 0.220E+01 0.380E+04   0.286E-01 -.710E-02 0.198E+01
   -.206E+00 0.184E-01 0.381E+04   0.202E+00 -.187E-01 -.381E+04   0.139E-02 0.437E-04 0.831E+00
   -.603E-01 0.643E-01 0.399E+04   0.620E-01 -.644E-01 -.398E+04   -.421E-03 0.225E-04 -.479E+01
   -.209E+00 0.493E-01 0.195E+04   0.217E+00 -.492E-01 -.195E+04   -.167E-02 -.517E-04 -.117E+00
   -.418E+00 0.796E-01 0.194E+04   0.406E+00 -.797E-01 -.194E+04   0.300E-02 -.370E-04 0.279E+00
   -.216E+01 0.394E+00 0.160E+02   0.211E+01 -.429E+00 -.153E+02   0.110E-01 0.512E-02 -.164E+00
   -.112E+01 0.904E+00 0.248E+02   0.115E+01 -.910E+00 -.258E+02   -.826E-02 0.380E-02 0.392E+00
   -.225E+01 0.156E+01 -.187E+04   0.224E+01 -.157E+01 0.187E+04   -.161E-01 0.126E-01 0.509E+00
   -.759E+01 0.929E+01 -.191E+04   0.760E+01 -.928E+01 0.191E+04   -.293E-02 -.776E-03 -.641E+00
   -.226E+02 0.151E+02 -.377E+04   0.226E+02 -.151E+02 0.377E+04   0.893E-01 0.311E-01 -.108E+01
   -.472E+01 0.540E+01 -.380E+04   0.478E+01 -.541E+01 0.380E+04   -.773E-01 0.723E-01 0.194E+01
   -.199E+00 0.699E-01 0.381E+04   0.195E+00 -.700E-01 -.381E+04   0.135E-02 -.319E-05 0.831E+00
   -.629E-01 0.325E-01 0.399E+04   0.646E-01 -.326E-01 -.398E+04   -.419E-03 0.167E-04 -.479E+01
   -.242E+00 0.150E+00 0.195E+04   0.250E+00 -.150E+00 -.195E+04   -.172E-02 -.133E-03 -.117E+00
   -.343E+00 0.880E-01 0.194E+04   0.332E+00 -.877E-01 -.194E+04   0.290E-02 -.390E-04 0.278E+00
   -.903E+00 0.720E+00 0.176E+02   0.840E+00 -.693E+00 -.169E+02   0.156E-01 -.411E-02 -.162E+00
   -.124E+01 0.308E+00 0.263E+02   0.126E+01 -.308E+00 -.273E+02   -.978E-02 0.158E-04 0.388E+00
   -.528E+01 0.359E+01 -.187E+04   0.528E+01 -.360E+01 0.187E+04   -.630E-02 0.584E-02 0.501E+00
   -.884E+01 0.203E+01 -.190E+04   0.888E+01 -.204E+01 0.190E+04   -.817E-01 0.738E-02 -.686E+00
   -.865E+02 0.264E+02 -.373E+04   0.863E+02 -.263E+02 0.373E+04   0.212E+00 0.282E-01 -.864E+00
   -.755E+01 0.297E+01 -.379E+04   0.753E+01 -.298E+01 0.379E+04   0.160E-01 0.122E-03 0.187E+01
   0.205E+00 -.143E-01 0.381E+04   -.201E+00 0.142E-01 -.381E+04   -.136E-02 0.337E-04 0.830E+00
   0.592E-01 -.536E-01 0.399E+04   -.609E-01 0.539E-01 -.398E+04   0.408E-03 -.650E-04 -.479E+01
   0.218E+00 0.134E+00 0.195E+04   -.225E+00 -.124E+00 -.195E+04   0.153E-02 -.269E-02 -.123E+00
   0.474E+00 -.313E-01 0.194E+04   -.463E+00 0.311E-01 -.194E+04   -.299E-02 0.443E-04 0.272E+00
   0.186E+01 0.128E+00 0.156E+02   -.180E+01 -.145E+00 -.149E+02   -.165E-01 0.246E-02 -.177E+00
   0.952E+00 0.714E+00 0.307E+02   -.964E+00 -.815E+00 -.315E+02   -.114E-02 0.425E-01 0.283E+00
   0.301E+01 -.128E+02 -.185E+04   -.303E+01 0.129E+02 0.185E+04   0.792E-02 0.933E-01 0.310E+00
   0.144E+02 -.673E+01 -.192E+04   -.144E+02 0.672E+01 0.192E+04   -.480E-01 0.214E-01 -.664E+00
   0.667E+02 -.155E+02 -.373E+04   -.667E+02 0.155E+02 0.374E+04   0.537E-01 -.213E-02 -.111E+01
   0.238E+02 -.841E+02 -.370E+04   -.237E+02 0.842E+02 0.370E+04   -.265E+00 0.806E-01 0.211E+01
   0.212E+00 -.656E-01 0.381E+04   -.208E+00 0.659E-01 -.381E+04   -.140E-02 -.246E-04 0.830E+00
   0.566E-01 -.404E-01 0.399E+04   -.583E-01 0.405E-01 -.398E+04   0.405E-03 0.178E-06 -.479E+01
   0.187E+00 -.285E-01 0.195E+04   -.194E+00 0.275E-01 -.195E+04   0.145E-02 -.397E-03 -.124E+00
   0.550E+00 -.939E-01 0.194E+04   -.538E+00 0.940E-01 -.194E+04   -.299E-02 0.335E-04 0.272E+00
[...]
   -.527E+02 0.341E-01 0.117E+04   0.569E+02 -.346E-01 -.117E+04   -.368E+01 0.702E-03 0.175E+00
   0.528E+02 0.461E-01 0.117E+04   -.571E+02 -.465E-01 -.117E+04   0.369E+01 0.583E-03 0.184E+00
   0.496E+00 0.157E+00 0.515E+03   -.474E+00 -.158E+00 -.520E+03   -.299E-01 0.324E-02 0.439E+01
   0.226E+01 0.637E+00 -.511E+03   -.221E+01 -.636E+00 0.519E+03   -.686E-01 -.241E-02 -.705E+01
   -.543E+02 0.661E-01 0.159E+02   0.593E+02 -.709E-01 -.161E+02   -.520E+01 0.217E-01 0.217E+00
   0.553E+02 0.185E-01 0.153E+02   -.603E+02 -.268E-01 -.155E+02   0.526E+01 0.276E-01 0.208E+00
   0.495E+00 0.148E+01 -.611E+03   -.453E+00 -.156E+01 0.604E+03   -.356E-01 0.786E-01 0.677E+01
   0.111E+02 0.336E+01 -.160E+04   -.115E+02 -.324E+01 0.161E+04   0.320E+00 -.124E+00 -.279E+01
   -.240E+02 0.500E+01 -.112E+04   0.274E+02 -.516E+01 0.112E+04   -.336E+01 0.165E+00 0.113E+01
   0.268E+02 0.535E+01 -.112E+04   -.301E+02 -.540E+01 0.112E+04   0.327E+01 0.633E-01 0.696E+00
   0.218E+02 0.314E+01 -.180E+04   -.218E+02 -.322E+01 0.180E+04   0.279E-01 0.724E-01 -.181E+01
   0.605E+02 0.112E+02 -.272E+04   -.603E+02 -.113E+02 0.274E+04   -.188E+00 0.964E-01 -.210E+02
   -.524E+02 0.610E+02 -.222E+04   0.590E+02 -.609E+02 0.222E+04   -.632E+01 -.103E+00 -.976E+00
   0.703E+02 0.484E+02 -.229E+04   -.769E+02 -.484E+02 0.229E+04   0.643E+01 -.836E-02 -.345E+01
   -.160E+02 -.176E+02 0.946E+02   -.398E-12 -.445E-11 -.241E-10   0.160E+02 0.176E+02 -.946E+02

 POSITION                                       TOTAL-FORCE (eV/Angst)
      6.61193      6.97585     24.70224         0.036901     -0.040298     -0.036189
      6.99193      5.90441     23.81218        -0.301220     -0.085806      0.300880
      5.53077      7.07979     24.63935        -0.180542      0.030216      0.015315
      7.98507      5.83993     23.77630         0.458438     -0.018063     -0.011311
      6.91006      6.71272     25.71748         0.046092     -0.032588      0.209727
      7.11112      7.90674     24.40749         0.059339      0.158191      0.001088
      9.73633      7.39371      8.77152        -0.002752      0.000074     -3.483356
      0.00000      8.87245      8.77152         0.001335      0.000136      2.254366
      0.00000      7.39371     12.01697         0.005849     -0.000109      0.485777
      9.73633      8.87245     12.01697        -0.008531      0.000132     -0.740626
      9.73633      7.39371     15.26241        -0.046178     -0.017067      0.528440
      0.00000      8.87245     15.26241         0.015721      0.002434     -0.612304
      0.00299      7.39419     18.44122        -0.008103     -0.000897      0.463887
      9.74044      8.87360     18.60979        -0.003963     -0.000048     -0.536434
      9.74521      7.40480     21.92744         0.042109     -0.118873     -0.764876
     12.97876      8.87453     21.61786         0.000591     -0.052915      0.914808
      9.73633     10.35119      8.77152        -0.002824      0.000285     -3.483483
      0.00000      0.00000      8.77152         0.001257      0.000094      2.254114
      0.00000     10.35119     12.01697         0.005653     -0.000079      0.485810
      9.73633      0.00000     12.01697        -0.008534     -0.000257     -0.741248
      9.73633     10.35119     15.26241        -0.029647      0.023934      0.535155
      0.00000      0.00000     15.26241         0.015700      0.000038     -0.604890
      0.00068     10.35140     18.44383        -0.009012     -0.000766      0.461081
      9.73337      0.00001     18.61889         0.001504     -0.002574     -0.541813
      9.73127     10.35156     21.96212         0.041998     -0.011045     -0.795018
      0.00145     11.82847     21.61696         0.010032     -0.002705      0.920131
      9.73633      1.47874      8.77152        -0.002819     -0.000236     -3.483681
      0.00000      2.95748      8.77152         0.001325     -0.000126      2.254181
      0.00000      1.47874     12.01697         0.005892      0.000036      0.485750
      9.73633      2.95748     12.01697        -0.008317     -0.000099     -0.741527
      9.73633      1.47874     15.26241        -0.029989     -0.029942      0.531010
      0.00000      2.95748     15.26241         0.018368     -0.002583     -0.611615
      0.00104      1.47818     18.44380        -0.017904     -0.000284      0.464174
      9.73745      2.95564     18.60893         0.007617      0.007175     -0.521682
      9.73018      1.47004     21.96234         0.043827      0.032691     -0.800785
     12.98128      2.95328     21.61773        -0.012181      0.054115      0.918430
      9.73633      4.43622      8.77152        -0.002731     -0.000090     -3.483569
      0.00000      5.91497      8.77152         0.001319     -0.000079      2.254421
      0.00000      4.43622     12.01697         0.006110      0.000216      0.485669
      9.73633      5.91497     12.01697        -0.008319      0.000265     -0.740537
      9.73633      4.43622     15.26241        -0.047086      0.023085      0.525056
      0.00000      5.91497     15.26241         0.016893      0.000021     -0.617343
      0.00200      4.43583     18.44112        -0.003979     -0.002562      0.464807
      9.74552      5.91451     18.61572        -0.036890      0.002620     -0.582191
      9.75257      4.41520     21.93160        -0.010923      0.163716     -0.767838
      0.01046      5.91509     21.61505        -0.005755     -0.005261      0.906819
      3.24544      7.39371      8.77152         0.002795     -0.000138     -3.480923
      6.49089      8.87245      8.77152        -0.001231      0.000272      2.261204
      6.49089      7.39371     12.01697        -0.005628      0.007363      0.510815
      3.24544      8.87245     12.01697         0.008393     -0.000119     -0.723980
      3.24544      7.39371     15.26241         0.044560     -0.014090      0.580386
      6.49089      8.87245     15.26241        -0.012495     -0.057599     -0.507882
      6.49353      7.36565     18.47913        -0.018384      0.224126      0.302055
      3.24976      8.87167     18.61902        -0.031418      0.004572     -0.557887
      3.25058      7.39494     21.96051         0.038519     -0.017229     -0.814759
      6.49441      8.87403     21.57648        -0.088571      0.080274      0.927960
      3.24544     10.35119      8.77152         0.002893      0.000283     -3.481208
      6.49089      0.00000      8.77152        -0.001213      0.000083      2.261022
      6.49089     10.35119     12.01697        -0.005433     -0.001333      0.510340
      3.24544      0.00000     12.01697         0.008393      0.000098     -0.724262
[...]
      6.49089      5.91497     13.28849         0.002196     -0.000441      0.030615
      4.51697      4.43622     12.01697         0.584268      0.000188      0.060456
      8.46481      4.43622     12.01697        -0.577717      0.000169      0.062891
      3.24544      5.91497     13.99089        -0.007883      0.001642     -0.230858
      3.24544      5.91497     16.53394        -0.019265     -0.001526      0.477849
      7.76241      4.43622     15.26241        -0.206692      0.016710      0.059504
      5.21936      4.43622     15.26241         0.238525      0.018985      0.060474
      6.49428      5.91301     17.25591         0.007144     -0.003293     -0.457587
      6.48166      5.91696     19.81676        -0.029644     -0.004830     -0.114087
      4.53709      4.43553     18.52605         0.099552      0.001411     -0.006929
      8.44514      4.43510     18.53859        -0.071912      0.014405      0.003652
      3.24024      5.91767     20.49265        -0.003889     -0.006592      0.518967
      3.26909      5.91602     23.04333        -0.001191     -0.000518      1.188129
      7.73939      4.38994     21.80403         0.226127      0.035325      0.003972
      5.27673      4.42122     21.90489        -0.238081     -0.039266      0.093730
    total drift:                               -0.006387     -0.002451     -0.035564

  FREE ENERGIE OF THE ION-ELECTRON SYSTEM (eV)
  free  energy   TOTEN  =     -1940.43811778 eV

  energy  without entropy=    -1940.43811778  energy(sigma->0) =    -1940.43811778