 vasp.6.3.0 20Jan22 (build Apr  1 2022 16:44:48) complex
 executed on        HPECrayEX_GCC date 2023.01.23  22:14:37

 INCAR:
   SYSTEM = MgO-rocksalt
   ISMEAR = 0
   SIGMA = 0.05
   EDIFF = 1E-8
   ALGO = ALL
   ISTART = 0
   IBRION = 5
   POTIM = 0.01
   NFREE = 2
   ISYM = 0
   DIPOL = 0.5 0.5 0.5
   IDIPOL = 3
   LDIPOL = .TRUE.
   GGA = PE
   IVDW = 1
   VDW_C6 = 1.75 0.70 0.14 0.63 0.70
   VDW_R0 = 1.452 1.342 1.001 1.243 1.342
   ENCUT = 600
   PREC = Accurate
   LASPH = .TRUE.
   LREAL = .FALSE.
   ISPIN = 1
   NELM = 200
   NELMIN = 8
   NCORE = 8
   KPAR = 1
   LWAVE = .FALSE.
   LCHARG = .FALSE.

 POTCAR:    PAW_PBE C 08Apr2002
 POTCAR:    PAW_PBE O 08Apr2002
 POTCAR:    PAW_PBE H 15Jun2001
 POTCAR:    PAW_PBE Mg_pv 13Apr2007
 POTCAR:    PAW_PBE O 08Apr2002
 POTCAR:    PAW_PBE C 08Apr2002
   VRHFIN =C: s2p2

   TITEL  = PAW_PBE C 08Apr2002
   POMASS =   12.011; ZVAL   =    4.000    mass and valenz
   ENMAX  =  400.000; ENMIN  =  300.000 eV

[...]

   TITEL  = PAW_PBE H 15Jun2001
   POMASS =    1.000; ZVAL   =    1.000    mass and valenz
   ENMAX  =  250.000; ENMIN  =  200.000 eV

   TITEL  = PAW_PBE Mg_pv 13Apr2007
   POMASS =   24.305; ZVAL   =    8.000    mass and valenz
   ENMAX  =  403.929; ENMIN  =  302.947 eV

   TITEL  = PAW_PBE O 08Apr2002
   POMASS =   16.000; ZVAL   =    6.000    mass and valenz
   ENMAX  =  400.000; ENMIN  =  300.000 eV

  PAW_PBE C 08Apr2002                   :
  PAW_PBE O 08Apr2002                   :
  PAW_PBE H 15Jun2001                   :
  PAW_PBE Mg_pv 13Apr2007               :
  PAW_PBE O 08Apr2002                   :

 POSCAR:  C  O  H Mg  O
  positions in direct lattice
 exchange correlation table for  LEXCH =        8
   RHO(1)=    0.500       N(1)  =     2000
   RHO(2)=  100.500       N(2)  =     4000

 ion  position               nearest neighbor table
   1  0.417  0.625  0.795-   3 1.10   6 1.10   5 1.11   2 1.43
   2  0.416  0.494  0.753-   4 1.02   1 1.43  22 2.24
   3  0.521  0.612  0.826-   1 1.10
   4  0.319  0.500  0.725-   2 1.02
   5  0.427  0.739  0.770-   1 1.11
   6  0.310  0.625  0.825-   1 1.10
   7  0.250  0.000  0.351-  39 2.12  41 2.12  42 2.12  49 2.12  58 2.12
   8  0.500  0.250  0.351-  40 2.12  41 2.12  42 2.12  50 2.12  57 2.12
   9  0.250  0.250  0.450-  41 2.12  40 2.12  39 2.12  47 2.12  56 2.12  45 2.13
  10  0.500  0.000  0.450-  46 2.11  42 2.12  39 2.12  40 2.12  48 2.12  55 2.12
  11  0.250  0.000  0.550-  46 2.11  62 2.12  45 2.12  39 2.12  53 2.12  43 2.15
  12  0.500  0.251  0.551-  54 2.11  44 2.11  61 2.12  45 2.12  46 2.13  40 2.14
  13  0.250  0.247  0.648-  43 2.09  45 2.10  44 2.12  60 2.12  51 2.15
  14  0.500  0.000  0.648-  44 2.10  46 2.10  52 2.11  59 2.12  43 2.13
  15  0.250  0.500  0.351-  47 2.12  41 2.12  49 2.12  50 2.12  66 2.12
  16  0.500  0.750  0.351-  48 2.12  42 2.12  49 2.12  50 2.12  65 2.12
  17  0.250  0.750  0.450-  49 2.12  47 2.12  48 2.12  39 2.12  64 2.12  53 2.12
  18  0.500  0.500  0.450-  50 2.12  47 2.12  48 2.12  40 2.12  63 2.12  54 2.14
  19  0.251  0.500  0.550-  54 2.10  45 2.11  53 2.11  70 2.12  47 2.13  51 2.19
  20  0.500  0.749  0.551-  54 2.11  69 2.12  53 2.12  46 2.12  52 2.13  48 2.14
  21  0.249  0.753  0.647-  53 2.08  43 2.09  68 2.11  52 2.12  51 2.14
  22  0.508  0.499  0.654-  67 2.07  44 2.13  52 2.14  54 2.21  51 2.23   2 2.24
  23  0.750  0.000  0.351-  55 2.12  42 2.12  57 2.12  58 2.12  65 2.12
  24  0.000  0.250  0.351-  56 2.12  41 2.12  57 2.12  58 2.12  66 2.12
  25  0.750  0.250  0.450-  57 2.12  55 2.12  56 2.12  40 2.12  63 2.12  61 2.12
  26  0.000  0.000  0.450-  58 2.12  55 2.12  56 2.12  39 2.12  64 2.12  62 2.12
  27  0.750  0.000  0.550-  46 2.12  61 2.12  69 2.12  62 2.12  55 2.12  59 2.15
  28  1.000  0.250  0.550-  61 2.11  45 2.11  70 2.12  62 2.12  56 2.13  60 2.15
  29  0.750  0.249  0.648-  61 2.11  59 2.11  60 2.12  44 2.12  67 2.13
  30  0.999  0.000  0.648-  62 2.11  60 2.11  59 2.11  68 2.11  43 2.12
  31  0.750  0.500  0.351-  63 2.12  57 2.12  50 2.12  65 2.12  66 2.12
  32  0.000  0.750  0.351-  64 2.12  58 2.12  49 2.12  65 2.12  66 2.12
  33  0.750  0.750  0.450-  65 2.12  55 2.12  63 2.12  64 2.12  48 2.12  69 2.12
  34  0.000  0.500  0.450-  66 2.12  56 2.12  63 2.12  64 2.12  47 2.12  70 2.12
  35  0.749  0.500  0.550-  54 2.11  61 2.12  69 2.12  70 2.13  63 2.13  67 2.14
  36  1.000  0.750  0.550-  69 2.11  70 2.11  53 2.12  62 2.12  64 2.13  68 2.15
  37  0.750  0.751  0.648-  69 2.10  59 2.11  68 2.11  52 2.12  67 2.13
  38  0.997  0.500  0.648-  67 2.07  51 2.09  70 2.10  60 2.12  68 2.13
  39  0.250  0.000  0.450-   7 2.12   9 2.12  10 2.12  17 2.12  26 2.12  11 2.12
  40  0.500  0.250  0.450-   8 2.12   9 2.12  10 2.12  18 2.12  25 2.12  12 2.14
  41  0.250  0.250  0.351-   9 2.12   8 2.12   7 2.12  15 2.12  24 2.12
  42  0.500  0.000  0.351-  10 2.12   8 2.12   7 2.12  16 2.12  23 2.12
  43  0.250  1.000  0.650-  21 2.09  13 2.09  30 2.12  14 2.13  11 2.15
  44  0.500  0.248  0.650-  14 2.10  12 2.11  13 2.12  29 2.12  22 2.13
  45  0.250  0.251  0.550-  13 2.10  19 2.11  28 2.11  11 2.12  12 2.12   9 2.13
  46  0.500  1.000  0.549-  14 2.10  11 2.11  10 2.11  27 2.12  20 2.12  12 2.13
  47  0.250  0.500  0.450-  15 2.12   9 2.12  17 2.12  18 2.12  34 2.12  19 2.13
  48  0.500  0.750  0.450-  16 2.12  10 2.12  17 2.12  18 2.12  33 2.12  20 2.14
  49  0.250  0.750  0.351-  17 2.12  15 2.12  16 2.12   7 2.12  32 2.12
  50  0.500  0.500  0.351-  18 2.12  15 2.12  16 2.12   8 2.12  31 2.12
  51  0.244  0.500  0.653-  38 2.09  21 2.14  13 2.15  19 2.19  22 2.23
  52  0.500  0.752  0.650-  14 2.11  21 2.12  37 2.12  20 2.13  22 2.14
  53  0.250  0.749  0.550-  21 2.08  19 2.11  36 2.12  20 2.12  17 2.12  11 2.12
  54  0.499  0.500  0.551-  19 2.10  20 2.11  12 2.11  35 2.11  18 2.14  22 2.21
  55  0.750  0.000  0.450-  23 2.12  10 2.12  25 2.12  26 2.12  33 2.12  27 2.12
  56  0.000  0.250  0.450-  24 2.12   9 2.12  25 2.12  26 2.12  34 2.12  28 2.13
  57  0.750  0.250  0.351-  25 2.12  23 2.12  24 2.12   8 2.12  31 2.12
  58  0.000  0.000  0.351-  26 2.12  23 2.12  24 2.12   7 2.12  32 2.12
  59  0.750  1.000  0.651-  37 2.11  29 2.11  30 2.11  14 2.12  27 2.15
  60  1.000  0.249  0.651-  30 2.11  29 2.12  13 2.12  38 2.12  28 2.15
  61  0.750  0.250  0.550-  29 2.11  28 2.11  35 2.12  27 2.12  12 2.12  25 2.12
  62  0.000  1.000  0.550-  30 2.11  11 2.12  36 2.12  26 2.12  28 2.12  27 2.12
  63  0.750  0.500  0.450-  31 2.12  25 2.12  18 2.12  33 2.12  34 2.12  35 2.13
  64  0.000  0.750  0.450-  32 2.12  26 2.12  17 2.12  33 2.12  34 2.12  36 2.13
  65  0.750  0.750  0.351-  33 2.12  23 2.12  31 2.12  32 2.12  16 2.12
  66  0.000  0.500  0.351-  34 2.12  24 2.12  31 2.12  32 2.12  15 2.12
  67  0.752  0.500  0.651-  22 2.07  38 2.07  37 2.13  29 2.13  35 2.14
  68  1.000  0.751  0.651-  30 2.11  21 2.11  37 2.11  38 2.13  36 2.15
  69  0.750  0.750  0.550-  37 2.10  36 2.11  35 2.12  20 2.12  27 2.12  33 2.12
  70  0.001  0.500  0.550-  38 2.10  36 2.11  28 2.12  19 2.12  34 2.12  35 2.13

IMPORTANT INFORMATION: All symmetrisations will be switched off!
NOSYMM: (Re-)initialisation of all symmetry stuff for point group C_1.

                                     Primitive cell

  volume of cell :    1530.6606

  direct lattice vectors                    reciprocal lattice vectors
     8.467142631  0.000000000  0.000000000     0.118103597  0.000000000  0.000000000
     0.000000000  8.467142631  0.000000000     0.000000000  0.118103597  0.000000000
     0.000000000  0.000000000 21.350356973     0.000000000  0.000000000  0.046837624

  length of vectors
     8.467142631  8.467142631 21.350356973     0.118103597  0.118103597  0.046837624

  position of ions in fractional coordinates (direct lattice)
     0.417145731  0.625114314  0.795303178
     0.416243056  0.494284760  0.752737042
     0.520759118  0.612492048  0.825848349
     0.319024377  0.500476709  0.724771716
     0.426515024  0.738603189  0.769994501
     0.310123169  0.625357477  0.824736762
     0.250000000  0.000000000  0.351282183
     0.500000000  0.250000000  0.351282183
     0.250000000  0.250000000  0.450427394
     0.500000000  0.000000000  0.450427394
     0.250264722  0.000179902  0.549793077
     0.500125687  0.251070989  0.550545488
     0.250105550  0.247113388  0.648190854
     0.500497328  0.000424513  0.647948916
     0.250000000  0.500000000  0.351282183
     0.500000000  0.750000000  0.351282183
     0.250000000  0.750000000  0.450427394
     0.500000000  0.500000000  0.450427394
     0.251073756  0.499797192  0.550386800
     0.500184536  0.748846880  0.550541270
     0.249373373  0.752914129  0.647432335
     0.507533811  0.499240675  0.654115664
     0.750000000  0.000000000  0.351282183
     0.000000000  0.250000000  0.351282183
     0.750000000  0.250000000  0.450427394
     0.000000000  0.000000000  0.450427394
     0.749721423  0.000079796  0.549874252
     0.999836035  0.250139509  0.550088970
     0.749927135  0.248820074  0.648371929
     0.999422222  0.000106480  0.648224466
     0.750000000  0.500000000  0.351282183
     0.000000000  0.750000000  0.351282183
     0.750000000  0.750000000  0.450427394
     0.000000000  0.500000000  0.450427394
     0.749038345  0.499877441  0.550310009
     0.999712248  0.749776244  0.549993980
     0.750328273  0.751114337  0.648133803
     0.997197931  0.499753937  0.648253977
     0.250000000  0.000000000  0.450427394
     0.500000000  0.250000000  0.450427394
     0.250000000  0.250000000  0.351282183
     0.500000000  0.000000000  0.351282183
     0.249585705  0.999794051  0.650415851
     0.499887771  0.248315324  0.649562701
     0.249595584  0.250675159  0.549964277
     0.499770397  0.999748500  0.549441756
     0.250000000  0.500000000  0.450427394
     0.500000000  0.750000000  0.450427394
     0.250000000  0.750000000  0.351282183
     0.500000000  0.500000000  0.351282183
     0.243975175  0.500270639  0.653110089
     0.499755896  0.751671263  0.650354349
     0.249695542  0.749285646  0.549878961
     0.499469303  0.500158711  0.550804860
     0.750000000  0.000000000  0.450427394
     0.000000000  0.250000000  0.450427394
     0.750000000  0.250000000  0.351282183
     0.000000000  0.000000000  0.351282183
     0.750210766  0.999854473  0.650517997
     0.999885828  0.249221872  0.650631400
     0.750373023  0.250089999  0.549693431
     0.000178120  0.999903798  0.549631109
     0.750000000  0.500000000  0.450427394
     0.000000000  0.750000000  0.450427394
     0.750000000  0.750000000  0.351282183
     0.000000000  0.500000000  0.351282183
     0.752251552  0.500164108  0.650715413
     0.999902752  0.750713033  0.650595717
     0.750214129  0.749860014  0.549714451
     0.000506868  0.500023536  0.549879667

  ion indices of the primitive-cell ions
   primitive index   ion index
                 1           1
                 2           2
                 3           3
                 4           4
                 5           5
                 6           6
                 7           7
                 8           8
                 9           9
                10          10
                11          11
                12          12
[...]
      4.22908      4.23492     11.75988        -0.001619     -0.001101      0.000174
      6.35036      0.00000      9.61679         0.009298     -0.001595      0.038992
      0.00000      2.11679      9.61679         0.008824      0.000018      0.047214
      6.35036      2.11679      7.50000         0.001989     -0.000683     -0.476962
      0.00000      0.00000      7.50000         0.002280     -0.000851     -0.474214
      6.35214      8.46591     13.88879         0.001916      0.001550     -0.003887
      8.46618      2.11020     13.89121        -0.002608     -0.006885      0.001371
      6.35352      2.11755     11.73615        -0.002034     -0.003573      0.004699
      0.00151      8.46633     11.73482        -0.001321      0.001005     -0.002133
      6.35036      4.23357      9.61679        -0.012698      0.001030      0.073640
      0.00000      6.35036      9.61679         0.005982     -0.001429      0.048550
      6.35036      6.35036      7.50000         0.003004      0.000663     -0.476644
      0.00000      4.23357      7.50000        -0.000277      0.000774     -0.475029
      6.36942      4.23496     13.89301        -0.003436     -0.001604     -0.000293
      8.46632      6.35639     13.89045        -0.002350      0.007050      0.004715
      6.35217      6.34917     11.73660        -0.001397      0.004716      0.004248
      0.00429      4.23377     11.74013        -0.004899      0.000315     -0.002846
    total drift:                               -0.000146      0.000168      0.017048

  FREE ENERGIE OF THE ION-ELECTRON SYSTEM (eV)
  free  energy   TOTEN  =      -406.51887046 eV

  energy  without entropy=     -406.51887046  energy(sigma->0) =     -406.51887046

 d Force =-0.1662969E-03[-0.268E-02, 0.235E-02]  d Energy =-0.1609621E-03-0.533E-05
 d Force =-0.4928598E+01[-0.494E+01,-0.492E+01]  d Ewald  =-0.4928662E+01 0.639E-04

 Finite differences progress:
  Degree of freedom:  18/ 18
  Displacement:        2/  2
  Total:              36/ 36

 SECOND DERIVATIVES (NOT SYMMETRIZED)
               1X          1Y          1Z          2X          2Y          2Z          3X          3Y          3Z          4X          4Y          4Z          5X          5Y          5Z          6X          6Y          6Z
  1X   -53.669228    0.207955   -1.138318    7.658466   -1.506951   -0.411360   20.540612   -3.168047   11.034177   -0.481505    2.443649    1.369836    4.928819    1.302017   -0.699124   20.959241    1.142397  -10.360151
  1Y     0.203569  -44.150904    5.144186    0.303822   14.455711    7.707822   -2.448921    4.596102   -1.921313    0.408378    0.395235    0.822924    1.480105   20.142060  -10.597539    0.694331    4.434179   -0.763074
  1Z    -1.136749    5.140533  -48.187586    1.252417    6.226421   11.738958   11.516845   -2.483846   12.195414   -0.166571    1.922018    1.777092   -0.846861  -10.106729   10.861548  -10.597613   -0.871584   11.202004
  2X     7.655954    0.305749    1.254712  -29.190064    2.954626  -15.152152   -0.358859    2.473426    1.834727   21.790832   -4.439540   10.604357   -0.332605    0.307347    0.155944   -0.752363   -2.181028   -1.450966
  2Y    -1.503647   14.456218    6.232570    2.958635  -22.451510  -11.577768    0.307152    0.290685    0.643992   -1.763003    3.708452    0.372294    0.030016    3.189003    2.701961   -0.315504    0.786589    1.156551
  2Z    -0.411485    7.703729   11.741094  -15.139013  -11.577158  -29.387859    0.109033    2.361259    1.809000   13.730470   -1.260094   10.192687    0.033946    0.477410   -0.814389   -0.065648    2.518482    1.939807
  3X    20.541495   -2.450346   11.523022   -0.357475    0.304418    0.111320  -21.538495    2.529147  -12.608419   -0.174064   -0.032806   -0.139198   -0.280438    0.058006   -0.282147    1.789163   -0.419127    1.397548
  3Y    -3.166210    4.597451   -2.484128    2.472982    0.288739    2.358696    2.525401   -5.275106    1.185129   -0.227733    0.355299    0.069986   -2.043131    0.142422   -1.326382    0.235988   -0.076488    0.013565
  3Z    11.028179   -1.921076   12.196750    1.834315    0.641019    1.806125  -12.603989    1.185850  -13.764657   -0.306383    0.265000   -0.062525    1.292214   -0.295043    0.747971   -1.336221    0.148674   -1.081340
  4X    -0.480728    0.407906   -0.163867   21.789636   -1.763457   13.736620   -0.173631   -0.228905   -0.309715  -22.780536    2.023326  -10.235997    0.030650   -0.272209   -0.064077   -0.053347   -0.120394   -0.160170
  4Y     2.442930    0.397252    1.923634   -4.430909    3.711911   -1.251610   -0.033833    0.355447    0.264868    2.018455   -5.583096   -0.843794    0.071213   -0.041090    0.004781   -0.064266   -0.088686   -0.010422
  4Z     1.371775    0.822347    1.777587   10.592497    0.373635   10.193877   -0.139391    0.069505   -0.063361  -10.227319   -0.842621  -10.214036   -0.016781   -0.242299   -0.173592    0.112644   -0.185746   -0.136982
  5X     4.930386    1.478685   -0.846319   -0.333550    0.028977    0.035010   -0.281616   -2.042648    1.291719    0.029560    0.071292   -0.017668   -4.479418   -1.563171    0.802961    0.067759    2.044092   -1.335784
  5Y     1.305571   20.142661  -10.111797    0.307203    3.185633    0.475198    0.056933    0.143947   -0.295957   -0.271969   -0.039870   -0.241837   -1.565210  -23.340271   10.406630   -0.026235   -0.150810   -0.168349
  5Z    -0.699802  -10.591561   10.863057    0.155807    2.699820   -0.811356   -0.282706   -1.327446    0.747335   -0.064421    0.003634   -0.173888    0.803086   10.397828  -11.223617    0.053429   -1.208603    0.641981
  6X    20.961278    0.693395  -10.605344   -0.752817   -0.313050   -0.064377    1.789661    0.235700   -1.337275   -0.054014   -0.065421    0.112022    0.068690   -0.026330    0.052739  -21.997604   -0.538245   11.854660
  6Y     1.143107    4.433758   -0.873554   -2.181074    0.789523    2.519010   -0.418744   -0.076388    0.148462   -0.120709   -0.089029   -0.186097    2.043546   -0.151624   -1.208585   -0.538332   -4.962784   -0.268166
  6Z   -10.350670   -0.761132   11.202194   -1.449553    1.152290    1.935696    1.395549    0.013425   -1.082086   -0.160836   -0.009831   -0.137107   -1.336526   -0.168203    0.642353   11.847722   -0.269633  -12.558136

 Eigenvectors and eigenvalues of the dynamical matrix

   1 f  =   90.901015 THz   571.147925 2PiTHz 3032.131498 cm-1   375.936224 meV
             X         Y         Z           dx          dy          dz
      3.532032  5.292932 16.980007    -0.265112    0.060331   -0.126285
      3.524389  4.185180 16.071205    -0.013047   -0.001290   -0.011202
      4.409342  5.186058 17.632157     0.720003   -0.099271    0.529392
      2.701225  4.237608 15.474135     0.062049    0.002517    0.039590
      3.611364  6.253859 16.439657    -0.029866   -0.120911    0.071075
      2.625857  5.294991 17.608424     0.219481    0.014274   -0.164175
      2.116786  0.000000  7.500000            0           0           0
      4.233571  2.116786  7.500000            0           0           0
      2.116786  2.116786  9.616786            0           0           0
      4.233571  0.000000  9.616786            0           0           0
      2.119027  0.001523 11.738278            0           0           0
      4.234636  2.125854 11.754343            0           0           0
      2.117679  2.092344 13.839106            0           0           0
      4.237782  0.003594 13.833941            0           0           0
      2.116786  4.233571  7.500000            0           0           0
      4.233571  6.350357  7.500000            0           0           0
      2.116786  6.350357  9.616786            0           0           0
      4.233571  4.233571  9.616786            0           0           0
      2.125877  4.231854 11.750955            0           0           0
      4.235134  6.340593 11.754253            0           0           0
      2.111480  6.375031 13.822911            0           0           0
      4.297361  4.227142 13.965603            0           0           0
      6.350357  0.000000  7.500000            0           0           0
      0.000000  2.116786  7.500000            0           0           0
      6.350357  2.116786  9.616786            0           0           0
      0.000000  0.000000  9.616786            0           0           0
      6.347998  0.000676 11.740012            0           0           0
      8.465754  2.117967 11.744596            0           0           0
      6.349740  2.106795 13.842972            0           0           0
      8.462251  0.000902 13.839824            0           0           0
      6.350357  4.233571  7.500000            0           0           0
      0.000000  6.350357  7.500000            0           0           0
      6.350357  6.350357  9.616786            0           0           0
      0.000000  4.233571  9.616786            0           0           0
      6.342215  4.232534 11.749315            0           0           0
      8.464706  6.348462 11.742568            0           0           0
      6.353137  6.359792 13.837888            0           0           0
      8.443417  4.231488 13.840454            0           0           0
      2.116786  0.000000  9.616786            0           0           0
      4.233571  2.116786  9.616786            0           0           0
      2.116786  2.116786  7.500000            0           0           0
      4.233571  0.000000  7.500000            0           0           0
      2.113278  8.465399 13.886611            0           0           0
      4.232621  2.102521 13.868396            0           0           0
      2.113361  2.122502 11.741934            0           0           0
      4.231627  8.465013 11.730778            0           0           0
      2.116786  4.233571  9.616786            0           0           0
      4.233571  6.350357  9.616786            0           0           0
      2.116786  6.350357  7.500000            0           0           0
      4.233571  4.233571  7.500000            0           0           0
      2.065773  4.235863 13.944134            0           0           0
      4.231504  6.364508 13.885298            0           0           0
      2.114208  6.344308 11.740112            0           0           0
      4.229078  4.234915 11.759880            0           0           0
      6.350357  0.000000  9.616786            0           0           0
      0.000000  2.116786  9.616786            0           0           0
      6.350357  2.116786  7.500000            0           0           0
      0.000000  0.000000  7.500000            0           0           0
      6.352142  8.465910 13.888791            0           0           0
      8.466176  2.110197 13.891213            0           0           0
      6.353515  2.117548 11.736151            0           0           0
      0.001508  8.466328 11.734820            0           0           0
      6.350357  4.233571  9.616786            0           0           0
      0.000000  6.350357  9.616786            0           0           0
      6.350357  6.350357  7.500000            0           0           0
      0.000000  4.233571  7.500000            0           0           0
      6.369421  4.234961 13.893006            0           0           0
      8.466319  6.356394 13.890451            0           0           0
      6.352170  6.349172 11.736600            0           0           0
      0.004292  4.233771 11.740127            0           0           0

[...]

  18 f  =    1.869066 THz    11.743690 2PiTHz   62.345344 cm-1     7.729834 meV
             X         Y         Z           dx          dy          dz
      3.532032  5.292932 16.980007    -0.765420    0.157115   -0.044590
      3.524389  4.185180 16.071205    -0.317659    0.086003    0.064920
      4.409342  5.186058 17.632157    -0.318155    0.075160    0.123118
      2.701225  4.237608 15.474135    -0.040249   -0.017771   -0.050440
      3.611364  6.253859 16.439657    -0.150254    0.033078   -0.026440
      2.625857  5.294991 17.608424    -0.314749    0.056882   -0.147509
      2.116786  0.000000  7.500000            0           0           0
      4.233571  2.116786  7.500000            0           0           0
      2.116786  2.116786  9.616786            0           0           0
      4.233571  0.000000  9.616786            0           0           0
      2.119027  0.001523 11.738278            0           0           0
      4.234636  2.125854 11.754343            0           0           0
      2.117679  2.092344 13.839106            0           0           0
      4.237782  0.003594 13.833941            0           0           0
      2.116786  4.233571  7.500000            0           0           0
      4.233571  6.350357  7.500000            0           0           0
      2.116786  6.350357  9.616786            0           0           0
      4.233571  4.233571  9.616786            0           0           0
      2.125877  4.231854 11.750955            0           0           0
      4.235134  6.340593 11.754253            0           0           0
      2.111480  6.375031 13.822911            0           0           0
      4.297361  4.227142 13.965603            0           0           0
      6.350357  0.000000  7.500000            0           0           0
      0.000000  2.116786  7.500000            0           0           0
      6.350357  2.116786  9.616786            0           0           0
      0.000000  0.000000  9.616786            0           0           0
      6.347998  0.000676 11.740012            0           0           0
      8.465754  2.117967 11.744596            0           0           0
      6.349740  2.106795 13.842972            0           0           0
      8.462251  0.000902 13.839824            0           0           0
      6.350357  4.233571  7.500000            0           0           0
      0.000000  6.350357  7.500000            0           0           0
      6.350357  6.350357  9.616786            0           0           0
      0.000000  4.233571  9.616786            0           0           0
      6.342215  4.232534 11.749315            0           0           0
      8.464706  6.348462 11.742568            0           0           0
      6.353137  6.359792 13.837888            0           0           0
      8.443417  4.231488 13.840454            0           0           0
      2.116786  0.000000  9.616786            0           0           0
      4.233571  2.116786  9.616786            0           0           0
      2.116786  2.116786  7.500000            0           0           0
      4.233571  0.000000  7.500000            0           0           0
      2.113278  8.465399 13.886611            0           0           0
      4.232621  2.102521 13.868396            0           0           0
      2.113361  2.122502 11.741934            0           0           0
      4.231627  8.465013 11.730778            0           0           0
      2.116786  4.233571  9.616786            0           0           0
      4.233571  6.350357  9.616786            0           0           0
      2.116786  6.350357  7.500000            0           0           0
      4.233571  4.233571  7.500000            0           0           0
      2.065773  4.235863 13.944134            0           0           0
      4.231504  6.364508 13.885298            0           0           0
      2.114208  6.344308 11.740112            0           0           0
      4.229078  4.234915 11.759880            0           0           0
      6.350357  0.000000  9.616786            0           0           0
      0.000000  2.116786  9.616786            0           0           0
      6.350357  2.116786  7.500000            0           0           0
      0.000000  0.000000  7.500000            0           0           0
      6.352142  8.465910 13.888791            0           0           0
      8.466176  2.110197 13.891213            0           0           0
      6.353515  2.117548 11.736151            0           0           0
      0.001508  8.466328 11.734820            0           0           0
      6.350357  4.233571  9.616786            0           0           0
      0.000000  6.350357  9.616786            0           0           0
      6.350357  6.350357  7.500000            0           0           0
      0.000000  4.233571  7.500000            0           0           0
      6.369421  4.234961 13.893006            0           0           0
      8.466319  6.356394 13.890451            0           0           0
      6.352170  6.349172 11.736600            0           0           0
      0.004292  4.233771 11.740127            0           0           0

 Finite differences POTIM=   1.0000000000000000E-002