 vasp.6.3.0 20Jan22 (build Mar 11 2022 13:48:16) complex

 executed on             LinuxIFC date 2024.02.14  12:54:58

 INCAR:
   SYSTEM = Oxide-Surface
   ISMEAR = 0
   SIGMA = 0.05
   EDIFF = 1E-5
   ALGO = ALL
   ISTART = 0
   IBRION = -1
   NSW = 0
   ISYM = 2
   DIPOL = 0.5 0.5 0.5
   IDIPOL = 3
   LDIPOL = .TRUE.
   GGA = PE
   IVDW = 263
   ENCUT = 600
   PREC = Accurate
   LASPH = .TRUE.
   LREAL = .FALSE.
   ISPIN = 1
   NELM = 200
   NELMIN = 8
   NCORE = 19
   KPAR = 1
   LWAVE = .FALSE.
   LCHARG = .FALSE.

 POTCAR:    PAW_PBE C 08Apr2002
 POTCAR:    PAW_PBE O 08Apr2002
 POTCAR:    PAW_PBE H 15Jun2001
 POTCAR:    PAW_PBE Ti_pv 07Sep2000
 POTCAR:    PAW_PBE O 08Apr2002
 POTCAR:    PAW_PBE C 08Apr2002
   VRHFIN =C: s2p2

   TITEL  = PAW_PBE C 08Apr2002
   POMASS =   12.011; ZVAL   =    4.000    mass and valenz
   ENMAX  =  400.000; ENMIN  =  300.000 eV

[...]

   TITEL  = PAW_PBE H 15Jun2001
   POMASS =    1.000; ZVAL   =    1.000    mass and valenz
   ENMAX  =  250.000; ENMIN  =  200.000 eV

   TITEL  = PAW_PBE Ti_pv 07Sep2000
   POMASS =   47.880; ZVAL   =   10.000    mass and valenz
   ENMAX  =  222.335; ENMIN  =  166.751 eV

   TITEL  = PAW_PBE O 08Apr2002
   POMASS =   16.000; ZVAL   =    6.000    mass and valenz
   ENMAX  =  400.000; ENMIN  =  300.000 eV

  PAW_PBE C 08Apr2002                   :
  PAW_PBE O 08Apr2002                   :
  PAW_PBE H 15Jun2001                   :
  PAW_PBE Ti_pv 07Sep2000               :
  PAW_PBE O 08Apr2002                   :

 POSCAR:  C  O  H Ti  O
  positions in direct lattice
 exchange correlation table for  LEXCH =        8
   RHO(1)=    0.500       N(1)  =     2000
   RHO(2)=  100.500       N(2)  =     4000

 ion  position               nearest neighbor table
   1  0.510  0.588  0.811-   3 1.09   5 1.10   6 1.10   2 1.45
   2  0.539  0.498  0.782-   4 1.00   1 1.45  86 2.18
   3  0.427  0.597  0.810-   1 1.09
   4  0.615  0.493  0.780-   2 1.00
   5  0.534  0.564  0.845-   1 1.10
   6  0.549  0.667  0.802-   1 1.10
   7  0.750  0.625  0.287-  88 1.95 148 1.95 147 1.95  87 1.95  90 1.98 169 1.98  17 2.96  37 2.96

   8  0.000  0.750  0.287-  89 1.95  90 1.95 109 1.95 110 1.95  91 1.98  38 2.96  18 2.96
   9  0.000  0.625  0.394-  91 1.95 151 1.95  92 1.95 152 1.95  93 1.98  94 1.98  19 2.96  39 2.96

[...]

  87  0.750  0.750  0.245-   7 1.95  17 1.95
  88  0.750  0.750  0.329-   7 1.95  17 1.95  10 1.98
  89  0.098  0.625  0.287-   8 1.95  38 1.95  47 1.98
  90  0.902  0.625  0.287-   8 1.95  38 1.95   7 1.98
  91  0.000  0.750  0.352-   9 1.95  19 1.95   8 1.98
  92  0.000  0.750  0.435-   9 1.95  19 1.95  12 1.98
  93  0.848  0.625  0.394-  10 1.95  40 1.95   9 1.98
  94  0.152  0.625  0.394-  50 1.95  80 1.95   9 1.98
  95  0.750  0.750  0.458-  11 1.95  21 1.95  10 1.98
  96  0.750  0.750  0.542-  11 1.95  21 1.95  14 2.09
  97  0.098  0.625  0.500-  12 1.95  42 1.95  51 1.98
  98  0.902  0.625  0.500-  12 1.95  42 1.95  11 1.98
  99  0.001  0.750  0.565-  23 1.90  13 1.90  12 2.00
 100  1.000  0.750  0.649-  16 1.81  13 2.02  23 2.02
 101  0.851  0.625  0.607-  14 1.93  44 1.93  13 2.03
 102  0.150  0.625  0.607-  13 1.87  84 2.02  54 2.02
 103  0.754  0.751  0.671-  14 1.87  15 2.08  25 2.09
 104  0.748  0.749  0.756-  15 1.83  25 1.84
 105  0.095  0.625  0.719-  46 1.94  16 1.95  55 2.03
 106  0.906  0.624  0.720-  46 1.95  16 1.96  15 2.02
 107  0.750  0.000  0.245-  17 1.95  27 1.95
 108  0.750  0.000  0.329-  17 1.95  27 1.95  20 1.98
 109  0.098  0.875  0.287-   8 1.95  18 1.95  57 1.98
 110  0.902  0.875  0.287-   8 1.95  18 1.95  17 1.98
 111  0.000  0.000  0.352-  19 1.95  29 1.95  18 1.98
 112  0.000  0.000  0.435-  19 1.95  29 1.95  22 1.98
 113  0.848  0.875  0.394-  10 1.95  20 1.95  19 1.98
 114  0.152  0.875  0.394-  50 1.95  60 1.95  19 1.98
 115  0.750  0.000  0.458-  21 1.95  31 1.95  20 1.98
 116  0.750  0.000  0.542-  21 1.95  31 1.95  24 2.10
 117  0.098  0.875  0.500-  12 1.95  22 1.95  61 1.98
 118  0.902  0.875  0.500-  12 1.95  22 1.95  21 1.98
 119  0.001  0.000  0.565-  33 1.90  23 1.90  22 2.00
 120  0.000  0.000  0.649-  26 1.81  33 2.02  23 2.02
 121  0.851  0.876  0.607-  24 1.93  14 1.93  23 2.04
 122  0.150  0.875  0.607-  23 1.87  54 2.02  64 2.02
 123  0.751  0.000  0.672-  24 1.87  35 2.09  25 2.09
 124  0.750  1.000  0.756-  35 1.83  25 1.84
 125  0.094  0.875  0.719-  16 1.94  26 1.95  65 2.04
 126  0.906  0.875  0.719-  16 1.94  26 1.95  25 2.04
 127  0.750  0.250  0.245-  27 1.95  37 1.95
 128  0.750  0.250  0.329-  27 1.95  37 1.95  30 1.98
 129  0.098  0.125  0.287-  18 1.95  28 1.95  67 1.98
 130  0.902  0.125  0.287-  18 1.95  28 1.95  27 1.98
 131  0.000  0.250  0.352-  29 1.95  39 1.95  28 1.98
 132  0.000  0.250  0.435-  29 1.95  39 1.95  32 1.98
 133  0.848  0.125  0.394-  20 1.95  30 1.95  29 1.98
 134  0.152  0.125  0.394-  60 1.95  70 1.95  29 1.98
 135  0.750  0.250  0.458-  31 1.95  41 1.95  30 1.98
 136  0.750  0.250  0.542-  31 1.95  41 1.95  34 2.09
 137  0.098  0.125  0.500-  22 1.95  32 1.95  71 1.98
 138  0.902  0.125  0.500-  22 1.95  32 1.95  31 1.98
 139  0.001  0.250  0.565-  43 1.90  33 1.90  32 2.00
 140  0.000  0.250  0.649-  36 1.81  43 2.02  33 2.02
 141  0.851  0.125  0.607-  24 1.93  34 1.93  33 2.04
 142  0.150  0.125  0.607-  33 1.86  64 2.02  74 2.02
 143  0.753  0.250  0.671-  34 1.87  45 2.06  35 2.10
 144  0.749  0.251  0.756-  45 1.83  35 1.84
 145  0.094  0.125  0.719-  36 1.94  26 1.95  75 2.04
 146  0.906  0.125  0.719-  36 1.94  26 1.95  35 2.04
[...]
 232  0.500  0.500  0.435-  49 1.95  79 1.95  82 1.98
 233  0.348  0.375  0.394-  70 1.95  80 1.95  79 1.98
 234  0.652  0.375  0.394-  30 1.95  40 1.95  79 1.98
 235  0.250  0.500  0.458-  51 1.95  81 1.95  80 1.98
 236  0.250  0.500  0.542-  51 1.95  81 1.95  84 2.11
 237  0.598  0.375  0.500-  72 1.95  82 1.95  41 1.98
 238  0.402  0.375  0.500-  72 1.95  82 1.95  81 1.98
 239  0.501  0.500  0.566-  53 1.90  83 1.90  82 2.00
 240  0.500  0.500  0.650-  86 1.91  53 1.98  83 1.98
 241  0.350  0.375  0.607-  74 1.92  84 1.93  83 2.04
 242  0.651  0.375  0.608-  83 1.88  34 2.01  44 2.02
 243  0.250  0.500  0.672-  84 1.86  55 2.09  85 2.10
 244  0.252  0.500  0.756-  85 1.84  55 1.84
 245  0.597  0.371  0.715-  76 1.92  86 1.96  45 2.02
 246  0.407  0.374  0.718-  86 1.93  76 1.94  85 2.03

  LATTYP: Found a simple orthorhombic cell.
 ALAT       =    11.8303781148
 B/A-ratio  =     1.0992024327
 C/A-ratio  =     2.5825673970

  Lattice vectors:

 A1 = (   0.0000000000, -11.8303781148,   0.0000000000)
 A2 = (  13.0039804036,   0.0000000000,   0.0000000000)
 A3 = (   0.0000000000,   0.0000000000,  30.5527488131)

Analysis of symmetry for initial positions (statically):
 Subroutine PRICEL returns:
 Original cell was already a primitive cell.

 Routine SETGRP: Setting up the symmetry group for a
 simple orthorhombic supercell.

 Subroutine GETGRP returns: Found  1 space group operations
 (whereof  1 operations were pure point group operations)
 out of a pool of  8 trial point group operations.

The static configuration has the point symmetry C_1 .

Analysis of symmetry for dynamics (positions and initial velocities):
 Subroutine PRICEL returns:
 Original cell was already a primitive cell.

[...]

The dynamic configuration has the point symmetry C_1 .

Analysis of constrained symmetry for selective dynamics:
 Subroutine PRICEL returns:
 Original cell was already a primitive cell.

 Routine SETGRP: Setting up the symmetry group for a
 simple orthorhombic supercell.

 Subroutine GETGRP returns: Found  1 space group operations
 (whereof  1 operations were pure point group operations)
 out of a pool of  8 trial point group operations.

The constrained configuration has the point symmetry C_1 .

 Subroutine INISYM returns: Found  1 space group operations
 (whereof  1 operations are pure point group operations),
 and found     1 'primitive' translations

                                     Primitive cell

  volume of cell :    4700.2961

  direct lattice vectors                    reciprocal lattice vectors
    13.003980404  0.000000000  0.000000000     0.076899531  0.000000000  0.000000000
     0.000000000 11.830378115  0.000000000     0.000000000  0.084528152  0.000000000
     0.000000000  0.000000000 30.552748813     0.000000000  0.000000000  0.032730279

  length of vectors
    13.003980404 11.830378115 30.552748813     0.076899531  0.084528152  0.032730279

  position of ions in fractional coordinates (direct lattice)
     0.510331046  0.587956007  0.811456567
     0.538671440  0.497713104  0.781633741
     0.426741788  0.597312864  0.809779257
     0.615374851  0.493003635  0.780229999
     0.533730470  0.564408842  0.844772367
     0.548744893  0.667393848  0.802204187
     0.750000000  0.625000000  0.287188045
     0.000000000  0.750000000  0.287188045
     0.000000000  0.625000000  0.393594023
     0.750000000  0.750000000  0.393594023
     0.750000000  0.625000000  0.500000000
     0.000000000  0.750000000  0.500000000
     0.006993774  0.625073986  0.604046202
     0.756133557  0.750114422  0.610207977
     0.750759752  0.625797847  0.719102266
     0.999978673  0.750342000  0.708177627
     0.750000000  0.875000000  0.287188045
     0.000000000  0.000000000  0.287188045
     0.000000000  0.875000000  0.393594023
     0.750000000  0.000000000  0.393594023
     0.750000000  0.875000000  0.500000000
     0.000000000  0.000000000  0.500000000
     0.007105127  0.875049078  0.604101504
     0.755700079  0.000050128  0.610520273
     0.749628850  0.874940193  0.720168330
     0.000248360  0.999945581  0.708144814
     0.750000000  0.125000000  0.287188045
     0.000000000  0.250000000  0.287188045
     0.000000000  0.125000000  0.393594023
     0.750000000  0.250000000  0.393594023
     0.750000000  0.125000000  0.500000000
     0.000000000  0.250000000  0.500000000
     0.007272160  0.124967895  0.604110878
     0.756020659  0.249869324  0.610140302
     0.749590896  0.124216859  0.720174278
     0.000192105  0.249631163  0.708168764
     0.750000000  0.375000000  0.287188045
     0.000000000  0.500000000  0.287188045
     0.000000000  0.375000000  0.393594023
     0.750000000  0.500000000  0.393594023
     0.750000000  0.375000000  0.500000000
     0.000000000  0.500000000  0.500000000
     0.006984987  0.374982529  0.604028350
     0.756360084  0.500008577  0.610371278
     0.751441947  0.373222885  0.719136832
     0.000822413  0.500125693  0.708109682
     0.250000000  0.625000000  0.287188045
     0.500000000  0.750000000  0.287188045
     0.500000000  0.625000000  0.393594023
     0.250000000  0.750000000  0.393594023
     0.250000000  0.625000000  0.500000000
     0.500000000  0.750000000  0.500000000
     0.507162857  0.622674843  0.605370118
     0.256146052  0.749992212  0.610460436
     0.250336699  0.625322801  0.720069271
     0.500758605  0.750128350  0.706878545
     0.250000000  0.875000000  0.287188045
     0.500000000  0.000000000  0.287188045
     0.500000000  0.875000000  0.393594023
     0.250000000  0.000000000  0.393594023
[...]
     0.500000000  0.500000000  0.435304973
     0.347999548  0.375000000  0.393594023
     0.652000452  0.375000000  0.393594023
[...]
   O          19.901          3.263          5.546          2.477          2.426          1.037
   O          20.215          3.271          5.588          2.533          2.594          1.044
   O          20.103          3.268          5.573          2.547          2.636          1.042
   O          20.176          3.270          5.584          2.539          2.612          1.044
   O          20.494          3.279          5.626          2.548          2.640          1.051
   O          18.997          3.240          5.430          2.693          3.119          1.018
   O          19.834          3.261          5.536          2.621          2.873          1.035
   O          19.844          3.261          5.538          2.645          2.953          1.035

  vdW correction parametrized for the method pbe

  IVDW = 263
  VDW_RADIUS =    50.000 A
  VDW_SR =     0.830
  VDW_D =     6.000
  SCSRAD =   120.000 A
  LVDWSCS = T
  LSCSGRAD = T
  LSCALER0 = T
  ITIM =  1
  Edisp (eV):  -67.33119

  FORCE on cell =-STRESS in cart. coord.  units (eV):
  Direction    XX          YY          ZZ          XY          YZ          ZX
  Alpha Z  4711.39482  4711.39482  4711.39482
  Ewald  975073.37112992493.99983************   -70.65177   132.68342   -80.57161
  Hartree************************************   -38.28275    77.68743   -52.76172
  E(xc)   -8652.37000 -8634.68624 -8661.81000    -0.09726     0.18511    -0.16140
  Local  ************************************   103.36895  -201.33967   130.43891
  n-local -5441.99597 -5364.12576 -5484.00854    -1.02725     1.82888    -0.72091
  augment  5226.06561  5208.74933  5231.23322     0.43301    -0.77188     0.05116
  Kinetic 28844.92889 28386.70495 28905.11153     6.23358   -10.51075     4.00209
  Fock        0.00000     0.00000     0.00000     0.00000     0.00000     0.00000
  vdW      -102.85061  -100.59094   -87.09553     0.02040    -0.00796    -0.06437
  Total      -8.28748   -59.99445   -49.69558    -0.00310    -0.24542     0.21215
  in kB      -2.82493   -20.45015   -16.93960    -0.00106    -0.08366     0.07232

 VOLUME and BASIS-vectors are now :
  energy-cutoff  :      600.00
  volume of cell :     4700.30
      direct lattice vectors                 reciprocal lattice vectors
    13.003980404  0.000000000  0.000000000     0.076899531  0.000000000  0.000000000
     0.000000000 11.830378115  0.000000000     0.000000000  0.084528152  0.000000000
     0.000000000  0.000000000 30.552748813     0.000000000  0.000000000  0.032730279

  length of vectors
    13.003980404 11.830378115 30.552748813     0.076899531  0.084528152  0.032730279

 FORCES acting on ions:
    Electron-Ion                     Ewald-Force                    Non-Local-Force
   0.373E+02 -.910E+02 -.161E+04   -.397E+02 0.959E+02 0.161E+04   0.245E+01 -.513E+01 -.468E+01
   0.253E+02 0.126E+03 -.251E+04   -.483E+02 -.151E+03 0.250E+04   0.230E+02 0.257E+02 0.100E+02
   0.580E+02 -.156E+02 -.394E+03   -.638E+02 0.162E+02 0.393E+03   0.587E+01 -.625E+00 0.231E+00
   -.694E+02 0.160E+02 -.428E+03   0.770E+02 -.166E+02 0.427E+03   -.752E+01 0.601E+00 0.371E+00
   -.117E+02 0.630E+01 -.385E+03   0.132E+02 -.771E+01 0.390E+03   -.154E+01 0.142E+01 -.534E+01
   -.189E+02 -.611E+02 -.392E+03   0.215E+02 0.659E+02 0.391E+03   -.258E+01 -.484E+01 0.134E+01
   -.202E+00 -.190E-01 0.380E+04   0.198E+00 0.192E-01 -.380E+04   0.113E-02 -.204E-04 0.437E+00
   -.604E-01 -.654E-01 0.398E+04   0.617E-01 0.656E-01 -.397E+04   -.253E-03 -.181E-04 -.389E+01
   -.177E+00 -.488E-01 0.194E+04   0.182E+00 0.489E-01 -.194E+04   -.858E-03 0.988E-04 -.430E-01
   -.478E+00 -.740E-01 0.194E+04   0.468E+00 0.743E-01 -.194E+04   0.284E-02 0.452E-04 0.208E+00
   -.192E+01 -.114E+00 0.160E+02   0.188E+01 0.982E-01 -.152E+02   0.120E-01 0.855E-03 -.127E+00
   0.117E+01 -.939E+00 0.237E+02   -.117E+01 0.944E+00 -.248E+02   0.218E-02 -.296E-02 0.341E+00
   0.135E+02 -.193E+01 -.186E+04   -.137E+02 0.194E+01 0.186E+04   0.533E-01 -.727E-02 0.724E-01
   -.119E+01 -.977E+01 -.191E+04   0.113E+01 0.978E+01 0.191E+04   -.255E-01 -.105E-01 -.795E-01
   -.100E+03 -.173E+02 -.371E+04   0.999E+02 0.172E+02 0.371E+04   0.178E+00 0.120E+00 0.172E-01
   -.531E+01 -.551E+01 -.378E+04   0.535E+01 0.550E+01 0.378E+04   -.518E-01 -.151E-01 0.915E+00
   -.209E+00 -.702E-01 0.380E+04   0.205E+00 0.704E-01 -.380E+04   0.117E-02 0.909E-05 0.437E+00
   -.579E-01 -.323E-01 0.398E+04   0.592E-01 0.324E-01 -.397E+04   -.259E-03 -.732E-05 -.389E+01
   -.144E+00 -.152E+00 0.194E+04   0.149E+00 0.152E+00 -.194E+04   -.837E-03 0.917E-04 -.430E-01
   -.562E+00 -.856E-01 0.194E+04   0.552E+00 0.851E-01 -.194E+04   0.263E-02 -.630E-04 0.208E+00
   -.328E+01 -.997E+00 0.145E+02   0.326E+01 0.102E+01 -.137E+02   0.866E-02 -.812E-03 -.130E+00
   0.158E+01 -.286E+00 0.223E+02   -.159E+01 0.286E+00 -.233E+02   0.178E-02 -.408E-03 0.338E+00
   0.163E+02 -.303E+01 -.186E+04   -.165E+02 0.304E+01 0.186E+04   0.522E-01 -.907E-02 0.757E-01
   0.238E+01 -.177E+01 -.193E+04   -.244E+01 0.177E+01 0.193E+04   -.333E-01 0.658E-03 -.905E-01
   -.303E+02 -.297E+02 -.376E+04   0.303E+02 0.297E+02 0.376E+04   0.586E-01 0.117E-01 -.107E+00
   -.466E+01 -.229E+01 -.378E+04   0.464E+01 0.229E+01 0.378E+04   0.256E-01 -.164E-02 0.958E+00
   -.204E+00 0.189E-01 0.380E+04   0.200E+00 -.193E-01 -.380E+04   0.115E-02 0.355E-04 0.437E+00
   -.610E-01 0.654E-01 0.398E+04   0.624E-01 -.655E-01 -.397E+04   -.271E-03 0.176E-04 -.389E+01
   -.148E+00 0.520E-01 0.194E+04   0.154E+00 -.520E-01 -.194E+04   -.969E-03 -.535E-04 -.430E-01
   -.440E+00 0.743E-01 0.194E+04   0.430E+00 -.746E-01 -.194E+04   0.271E-02 -.701E-04 0.209E+00
   -.312E+01 0.433E+00 0.140E+02   0.309E+01 -.472E+00 -.132E+02   0.977E-02 0.260E-02 -.129E+00
   0.116E+01 0.967E+00 0.232E+02   -.116E+01 -.972E+00 -.243E+02   0.127E-02 0.268E-02 0.342E+00
   0.176E+02 0.156E+01 -.186E+04   -.178E+02 -.157E+01 0.186E+04   0.564E-01 0.753E-02 0.802E-01
   -.726E-01 0.913E+01 -.191E+04   0.871E-02 -.913E+01 0.191E+04   -.209E-01 -.850E-03 -.934E-01
   -.223E+02 0.149E+02 -.376E+04   0.222E+02 -.149E+02 0.376E+04   0.522E-01 -.127E-01 -.121E+00
   -.443E+01 0.491E+01 -.378E+04   0.446E+01 -.491E+01 0.378E+04   -.395E-01 0.125E-01 0.916E+00
   -.196E+00 0.703E-01 0.380E+04   0.192E+00 -.703E-01 -.380E+04   0.112E-02 -.224E-04 0.437E+00
   -.635E-01 0.324E-01 0.398E+04   0.648E-01 -.324E-01 -.397E+04   -.262E-03 0.923E-05 -.389E+01
   -.182E+00 0.149E+00 0.194E+04   0.188E+00 -.149E+00 -.194E+04   -.969E-03 -.102E-03 -.430E-01
   -.360E+00 0.853E-01 0.194E+04   0.350E+00 -.848E-01 -.194E+04   0.257E-02 -.186E-04 0.208E+00
   -.173E+01 0.683E+00 0.155E+02   0.168E+01 -.653E+00 -.148E+02   0.126E-01 -.168E-02 -.126E+00
   0.101E+01 0.301E+00 0.246E+02   -.102E+01 -.300E+00 -.257E+02   0.549E-03 -.530E-03 0.340E+00
   0.139E+02 0.342E+01 -.186E+04   -.141E+02 -.342E+01 0.186E+04   0.515E-01 0.631E-02 0.730E-01
   -.240E+01 0.183E+01 -.190E+04   0.238E+01 -.184E+01 0.190E+04   -.766E-01 0.275E-02 -.788E-01
   -.842E+02 0.260E+02 -.372E+04   0.842E+02 -.258E+02 0.372E+04   0.110E+00 -.165E+00 0.184E-01
   -.729E+01 0.292E+01 -.377E+04   0.726E+01 -.292E+01 0.377E+04   0.321E-01 0.440E-02 0.865E+00
   0.196E+00 -.146E-01 0.380E+04   -.192E+00 0.145E-01 -.380E+04   -.105E-02 0.170E-04 0.437E+00
   0.660E-01 -.538E-01 0.398E+04   -.672E-01 0.541E-01 -.397E+04   0.246E-03 -.442E-04 -.389E+01
   0.303E+00 0.148E+00 0.195E+04   -.309E+00 -.136E+00 -.194E+04   0.585E-03 -.267E-02 -.449E-01
   0.356E+00 -.269E-01 0.194E+04   -.346E+00 0.273E-01 -.194E+04   -.174E-02 -.253E-04 0.205E+00
   0.528E+00 0.160E+00 0.135E+02   -.471E+00 -.176E+00 -.127E+02   -.883E-02 0.110E-02 -.137E+00
   0.343E+01 0.881E+00 0.286E+02   -.346E+01 -.966E+00 -.294E+02   0.433E-02 0.400E-01 0.260E+00
   0.217E+02 -.132E+02 -.184E+04   -.218E+02 0.134E+02 0.184E+04   0.279E-01 -.880E-01 0.502E-01
   0.217E+02 -.679E+01 -.192E+04   -.217E+02 0.678E+01 0.192E+04   -.339E-01 0.741E-02 -.873E-01
   0.653E+02 -.154E+02 -.373E+04   -.654E+02 0.154E+02 0.373E+04   0.691E-01 0.980E-02 -.127E+00
   0.247E+02 -.818E+02 -.368E+04   -.246E+02 0.820E+02 0.368E+04   -.164E+00 -.628E-01 0.106E+01
   0.203E+00 -.662E-01 0.380E+04   -.200E+00 0.666E-01 -.380E+04   -.109E-02 -.179E-04 0.437E+00
   0.636E-01 -.407E-01 0.398E+04   -.649E-01 0.408E-01 -.397E+04   0.255E-03 0.315E-05 -.389E+01
   0.274E+00 -.217E-01 0.195E+04   -.280E+00 0.215E-01 -.194E+04   0.738E-03 -.103E-02 -.457E-01
   0.434E+00 -.955E-01 0.194E+04   -.424E+00 0.955E-01 -.194E+04   -.175E-02 0.828E-04 0.204E+00
[...]
   -.531E+02 0.306E-01 0.116E+04   0.571E+02 -.314E-01 -.116E+04   -.356E+01 0.118E-02 0.153E+00
   0.533E+02 0.406E-01 0.116E+04   -.573E+02 -.411E-01 -.116E+04   0.357E+01 0.639E-03 0.160E+00
   0.151E+00 0.161E+00 0.514E+03   -.126E+00 -.163E+00 -.518E+03   -.356E-01 0.407E-02 0.416E+01
   0.300E+01 0.674E+00 -.514E+03   -.324E+01 -.677E+00 0.521E+03   0.232E+00 0.320E-02 -.707E+01
   -.547E+02 0.585E-02 0.160E+02   0.594E+02 -.755E-02 -.162E+02   -.506E+01 0.217E-01 0.269E+00
   0.559E+02 -.618E-01 0.130E+02   -.605E+02 0.562E-01 -.132E+02   0.509E+01 0.283E-01 0.225E+00
   0.128E+02 0.150E+01 -.607E+03   -.140E+02 -.158E+01 0.601E+03   0.111E+01 0.754E-01 0.682E+01
   0.191E+02 0.297E+01 -.159E+04   -.203E+02 -.289E+01 0.160E+04   0.119E+01 -.759E-01 -.202E+01
   -.488E+02 0.395E+01 -.111E+04   0.551E+02 -.398E+01 0.111E+04   -.628E+01 0.282E-01 0.127E+01
   0.220E+00 0.634E+01 -.112E+04   -.202E+00 -.650E+01 0.112E+04   0.291E-01 0.160E+00 0.523E+00
   0.256E+02 0.287E+01 -.180E+04   -.261E+02 -.292E+01 0.180E+04   0.448E+00 0.474E-01 -.206E+01
   0.594E+02 0.103E+02 -.271E+04   -.591E+02 -.103E+02 0.273E+04   -.256E+00 0.399E-01 -.205E+02
   -.517E+02 0.573E+02 -.221E+04   0.576E+02 -.570E+02 0.221E+04   -.587E+01 -.345E+00 -.602E+00
   0.701E+02 0.494E+02 -.228E+04   -.763E+02 -.495E+02 0.229E+04   0.614E+01 0.962E-01 -.305E+01
   0.879E+01 -.181E+02 0.844E+02   -.625E-12 -.995E-13 0.568E-10   -.880E+01 0.181E+02 -.844E+02

 POSITION                                       TOTAL-FORCE (eV/Angst)
      6.63633      6.95574     24.79223         0.038478     -0.150555     -0.054905
      7.00487      5.88813     23.88106        -0.117660      0.148631      0.034843
      5.54934      7.06644     24.74098        -0.025818     -0.001388     -0.007928
      8.00232      5.83242     23.83817         0.092795     -0.020757     -0.033070
      6.94062      6.67717     25.81012        -0.013461      0.005628     -0.026740
      7.13587      7.89552     24.50954         0.016628      0.023814     -0.020739
      9.75299      7.39399      8.77438        -0.002680      0.000212     -3.383660
      0.00000      8.87278      8.77438         0.001101      0.000136      2.915120
      0.00000      7.39399     12.02538         0.004293      0.000192      0.523724
      9.75299      8.87278     12.02538        -0.007684      0.000320     -0.714130
      9.75299      7.39399     15.27637        -0.035965     -0.014008      0.621668
      0.00000      8.87278     15.27637        -0.004468      0.001953     -0.728588
      0.09095      7.39486     18.45527        -0.052133      0.000232      0.046577
      9.83275      8.87414     18.64353        -0.025495     -0.001056     -0.051119
      9.76287      7.40343     21.97055         0.004309      0.000321     -0.040042
     13.00370      8.87683     21.63677         0.000113     -0.002222     -0.055175
      9.75299     10.35158      8.77438        -0.002744      0.000168     -3.383759
      0.00000      0.00000      8.77438         0.001120      0.000069      2.914921
      0.00000     10.35158     12.02538         0.004176     -0.000130      0.523864
      9.75299      0.00000     12.02538        -0.007789     -0.000537     -0.715169
      9.75299     10.35158     15.27637        -0.021265      0.023012      0.630102
      0.00000      0.00000     15.27637        -0.003752     -0.000227     -0.724517
      0.09239     10.35216     18.45696        -0.056062      0.001327      0.048264
      9.82711      0.00059     18.65307        -0.032094     -0.000705     -0.053966
      9.74816     10.35087     22.00312         0.008507      0.007533     -0.033103
      0.00323     11.82973     21.63577         0.000423      0.001866     -0.053332
      9.75299      1.47880      8.77438        -0.002698     -0.000350     -3.384052
      0.00000      2.95759      8.77438         0.001163     -0.000150      2.914964
      0.00000      1.47880     12.02538         0.004486     -0.000051      0.523786
      9.75299      2.95759     12.02538        -0.007369     -0.000341     -0.716211
      9.75299      1.47880     15.27637        -0.020714     -0.036521      0.620707
      0.00000      2.95759     15.27637        -0.000906     -0.002462     -0.728227
      0.09457      1.47842     18.45725        -0.060386     -0.001242      0.046043
      9.83128      2.95605     18.64146        -0.029393      0.001462     -0.048108
      9.74767      1.46953     22.00330         0.005737     -0.001682     -0.031608
      0.00250      2.95323     21.63650         0.000365      0.002004     -0.052692
      9.75299      4.43639      8.77438        -0.002637     -0.000044     -3.383985
      0.00000      5.91519      8.77438         0.001156     -0.000059      2.915131
      0.00000      4.43639     12.02538         0.004644     -0.000027      0.523559
      9.75299      5.91519     12.02538        -0.007428      0.000499     -0.714854
      9.75299      4.43639     15.27637        -0.036323      0.027401      0.613634
      0.00000      5.91519     15.27637        -0.002312      0.000582     -0.731706
      0.09083      4.43619     18.45473        -0.052689     -0.000048      0.048025
      9.83569      5.91529     18.64852        -0.024919     -0.001276     -0.064898
      9.77174      4.41537     21.97161        -0.000972     -0.005391     -0.035115
      0.01069      5.91668     21.63470        -0.000742     -0.002842     -0.050625
      3.25100      7.39399      8.77438         0.002757     -0.000091     -3.381732
      6.50199      8.87278      8.77438        -0.000997      0.000256      2.921864
      6.50199      7.39399     12.02538        -0.004962      0.009224      0.548458
      3.25100      8.87278     12.02538         0.008190      0.000355     -0.700858
      3.25100      7.39399     15.27637         0.045138     -0.013926      0.662635
      6.50199      8.87278     15.27637        -0.025245     -0.045390     -0.596612
      6.59514      7.36648     18.49572        -0.050060      0.012484      0.034922
      3.33092      8.87269     18.65124        -0.032097     -0.004607     -0.056621
      3.25537      7.39781     22.00010        -0.001198     -0.000704     -0.028463
      6.51186      8.87430     21.59708        -0.005535      0.004251     -0.030350
      3.25100     10.35158      8.77438         0.002825      0.000366     -3.381872
      6.50199      0.00000      8.77438        -0.000978      0.000029      2.921818
      6.50199     10.35158     12.02538        -0.005268     -0.001158      0.549409
      3.25100      0.00000     12.02538         0.008419      0.000078     -0.700048
[...]
      6.50199      5.91519     13.29976         0.003502     -0.000669     -0.057169
      4.52538      4.43639     12.02538         0.498576      0.000422      0.047619
      8.47860      4.43639     12.02538        -0.493172      0.000182      0.049562
      3.25100      5.91519     14.00199        -0.010866      0.002345     -0.174024
      3.25100      5.91519     16.55076        -0.001896      0.000085      0.123220
      7.77637      4.43639     15.27637        -0.353062      0.020258      0.064163
      5.22761      4.43639     15.27637         0.386402      0.023113      0.082070
      6.51379      5.91397     17.27821         0.007380     -0.001848     -0.096394
      6.50129      5.91934     19.84480         0.014255      0.002182      0.030922
      4.55311      4.43707     18.55134         0.087866     -0.004728      0.005584
      8.46902      4.43627     18.56161        -0.033825     -0.005279      0.004238
      3.25382      5.91924     20.51845         0.009078      0.001408     -0.007656
      3.27789      5.91810     23.08995        -0.003212      0.001118     -0.063362
      7.75933      4.39470     21.83016         0.049359     -0.020800      0.018642
      5.28648      4.42570     21.93276        -0.057109     -0.016704      0.004355
    total drift:                               -0.008281      0.000710     -0.082115

  FREE ENERGIE OF THE ION-ELECTRON SYSTEM (eV)
  free  energy   TOTEN  =     -2218.26797593 eV

  energy  without entropy=    -2218.26797593  energy(sigma->0) =    -2218.26797593