 vasp.6.3.0 20Jan22 (build Apr  1 2022 16:44:48) complex
 executed on        HPECrayEX_GCC date 2022.11.13  00:15:52

 INCAR:
   SYSTEM = MgO-rocksalt
   ISMEAR = 0
   SIGMA = 0.05
   EDIFF = 1E-6
   ALGO = ALL
   ISTART = 0
   IBRION = -1
   NSW = 0
   ISYM = 0
   DIPOL = 0.5 0.5 0.5
   IDIPOL = 3
   LDIPOL = .TRUE.
   GGA = MK
   LUSE_VDW = .TRUE.
   PARAM1 = 0.1234
   PARAM2 = 0.711357
   ZAB_VDW = -1.8867
   AGGAC = 0.0
   ENCUT = 600
   PREC = Accurate
   LASPH = .TRUE.
   LREAL = .FALSE.
   ISPIN = 1
   NELM = 200
   NELMIN = 8
   NCORE = 8
   KPAR = 1
   LWAVE = .FALSE.
   LCHARG = .FALSE.

 POTCAR:    PAW_PBE C 08Apr2002
 POTCAR:    PAW_PBE O 08Apr2002
 POTCAR:    PAW_PBE Mg_pv 13Apr2007
 POTCAR:    PAW_PBE O 08Apr2002
|               ----> ADVICE to this user running VASP <----                  |
|     You have switched on vdW-DFT.                                           |
|     This routine was written and supplied by Jiri Klimes. We recommend      |
|     that you carefully read and cite the following publications:            |
|       J. Klimes, D.R. Bowler, A. Michelides                                 |
|          J. Phys.: Cond Matt. 22 022201 (2010)                              |
|       J. Klimes, D.R. Bowler, A. Michelides                                 |
|          Phys. Rev. B. 83, 195131 (2011)                                    |
|     and references therein.                                                 |

   TITEL  = PAW_PBE C 08Apr2002
   POMASS =   12.011; ZVAL   =    4.000    mass and valenz
   ENMAX  =  400.000; ENMIN  =  300.000 eV

[...]

   TITEL  = PAW_PBE Mg_pv 13Apr2007
   POMASS =   24.305; ZVAL   =    8.000    mass and valenz
   ENMAX  =  403.929; ENMIN  =  302.947 eV

   TITEL  = PAW_PBE O 08Apr2002
   POMASS =   16.000; ZVAL   =    6.000    mass and valenz
   ENMAX  =  400.000; ENMIN  =  300.000 eV

  PAW_PBE C 08Apr2002                   :
  PAW_PBE O 08Apr2002                   :
  PAW_PBE Mg_pv 13Apr2007               :
  PAW_PBE O 08Apr2002                   :

 POSCAR:  C  O Mg  O
  positions in direct lattice
 exchange correlation table for  LEXCH =       43
   RHO(1)=    0.500       N(1)  =     2000
   RHO(2)=  100.500       N(2)  =     4000

 ion  position               nearest neighbor table
   1  0.625  0.625  0.771-   3 1.18   2 1.18
   2  0.527  0.527  0.773-   1 1.18
   3  0.723  0.723  0.773-   1 1.18
   4  0.250  0.000  0.351-  36 2.12  38 2.12  39 2.12  46 2.12  55 2.12
   5  0.500  0.250  0.351-  37 2.12  38 2.12  39 2.12  47 2.12  54 2.12
   6  0.250  0.250  0.450-  38 2.12  37 2.12  36 2.12  44 2.12  53 2.12  42 2.12
   7  0.500  0.000  0.450-  39 2.12  37 2.12  36 2.12  45 2.12  52 2.12  43 2.12
   8  0.250  1.000  0.550-  43 2.12  50 2.12  42 2.12  59 2.12  36 2.13  40 2.15
   9  0.500  0.250  0.550-  58 2.12  42 2.12  51 2.12  43 2.12  37 2.13  41 2.14
  10  0.250  0.250  0.648-  42 2.11  40 2.12  57 2.12  48 2.12  41 2.12
  11  0.500  0.000  0.648-  43 2.10  41 2.11  40 2.12  56 2.12  49 2.12
  12  0.250  0.500  0.351-  44 2.12  38 2.12  46 2.12  47 2.12  63 2.12
  13  0.500  0.750  0.351-  45 2.12  39 2.12  46 2.12  47 2.12  62 2.12
  14  0.250  0.750  0.450-  46 2.12  44 2.12  45 2.12  36 2.12  61 2.12  50 2.12
  15  0.500  0.500  0.450-  47 2.12  44 2.12  45 2.12  37 2.12  60 2.12  51 2.13
  16  0.250  0.500  0.550-  50 2.12  42 2.12  51 2.12  67 2.12  44 2.13  48 2.14
  17  0.500  0.750  0.550-  51 2.11  66 2.11  50 2.12  43 2.12  45 2.13  49 2.16
  18  0.250  0.750  0.648-  50 2.10  65 2.11  40 2.12  48 2.12  49 2.12
  19  0.498  0.498  0.649-  41 2.11  48 2.11  51 2.11  64 2.13  49 2.13
  20  0.750  0.000  0.351-  52 2.12  39 2.12  54 2.12  55 2.12  62 2.12
  21  0.000  0.250  0.351-  53 2.12  38 2.12  54 2.12  55 2.12  63 2.12
  22  0.750  0.250  0.450-  54 2.12  52 2.12  53 2.12  37 2.12  60 2.12  58 2.12
  23  0.000  0.000  0.450-  55 2.12  52 2.12  53 2.12  36 2.12  61 2.12  59 2.12
  24  0.750  0.000  0.550-  43 2.12  59 2.12  66 2.12  58 2.12  52 2.13  56 2.14
  25  1.000  0.250  0.550-  67 2.12  58 2.12  42 2.12  59 2.12  53 2.13  57 2.15
  26  0.750  0.250  0.648-  58 2.10  56 2.11  57 2.12  41 2.12  64 2.12
  27  0.000  0.000  0.648-  59 2.11  57 2.12  40 2.12  65 2.12  56 2.12
  28  0.750  0.500  0.351-  60 2.12  54 2.12  47 2.12  62 2.12  63 2.12
  29  0.000  0.750  0.351-  61 2.12  55 2.12  46 2.12  62 2.12  63 2.12
  30  0.750  0.750  0.450-  62 2.12  52 2.12  60 2.12  61 2.12  45 2.12  66 2.13
  31  0.000  0.500  0.450-  63 2.12  53 2.12  60 2.12  61 2.12  44 2.12  67 2.12
  32  0.750  0.500  0.550-  51 2.11  66 2.11  58 2.12  67 2.12  60 2.13  64 2.16
  33  0.000  0.750  0.550-  67 2.12  59 2.12  66 2.12  50 2.12  61 2.13  65 2.14
  34  0.752  0.752  0.649-  56 2.11  65 2.11  66 2.11  49 2.13  64 2.13
  35  0.000  0.500  0.648-  67 2.10  48 2.11  57 2.12  65 2.12  64 2.12
  36  0.250  0.000  0.450-   4 2.12   6 2.12   7 2.12  14 2.12  23 2.12   8 2.13
  37  0.500  0.250  0.450-   5 2.12   6 2.12   7 2.12  15 2.12  22 2.12   9 2.13
  38  0.250  0.250  0.351-   6 2.12   5 2.12   4 2.12  12 2.12  21 2.12
  39  0.500  0.000  0.351-   7 2.12   5 2.12   4 2.12  13 2.12  20 2.12
  40  0.250  1.000  0.651-  10 2.12  27 2.12  18 2.12  11 2.12   8 2.15
  41  0.500  0.249  0.650-  19 2.11  11 2.11  10 2.12  26 2.12   9 2.14
  42  0.250  0.250  0.550-  10 2.11   8 2.12  25 2.12  16 2.12   9 2.12   6 2.12
  43  0.500  1.000  0.550-  11 2.10  17 2.12   8 2.12  24 2.12   9 2.12   7 2.12
  44  0.250  0.500  0.450-  12 2.12   6 2.12  14 2.12  15 2.12  31 2.12  16 2.13
  45  0.500  0.750  0.450-  13 2.12   7 2.12  14 2.12  15 2.12  30 2.12  17 2.13
  46  0.250  0.750  0.351-  14 2.12  12 2.12  13 2.12   4 2.12  29 2.12
  47  0.500  0.500  0.351-  15 2.12  12 2.12  13 2.12   5 2.12  28 2.12
  48  0.249  0.500  0.650-  19 2.11  35 2.11  10 2.12  18 2.12  16 2.14
  49  0.500  0.750  0.652-  11 2.12  18 2.12  19 2.13  34 2.13  17 2.16
  50  0.250  0.750  0.550-  18 2.10  17 2.12   8 2.12  16 2.12  33 2.12  14 2.12
  51  0.500  0.500  0.550-  19 2.11  17 2.11  32 2.11  16 2.12   9 2.12  15 2.13
  52  0.750  0.000  0.450-  20 2.12   7 2.12  22 2.12  23 2.12  30 2.12  24 2.13
  53  0.000  0.250  0.450-  21 2.12   6 2.12  22 2.12  23 2.12  31 2.12  25 2.13
  54  0.750  0.250  0.351-  22 2.12  20 2.12  21 2.12   5 2.12  28 2.12
  55  0.000  0.000  0.351-  23 2.12  20 2.12  21 2.12   4 2.12  29 2.12
  56  0.750  0.001  0.650-  34 2.11  26 2.11  27 2.12  11 2.12  24 2.14
  57  1.000  0.250  0.651-  10 2.12  27 2.12  26 2.12  35 2.12  25 2.15
  58  0.750  0.250  0.550-  26 2.10  32 2.12  25 2.12   9 2.12  24 2.12  22 2.12
  59  0.000  0.000  0.550-  27 2.11  25 2.12   8 2.12  24 2.12  33 2.12  23 2.12
  60  0.750  0.500  0.450-  28 2.12  22 2.12  15 2.12  30 2.12  31 2.12  32 2.13
  61  0.000  0.750  0.450-  29 2.12  23 2.12  14 2.12  30 2.12  31 2.12  33 2.13
  62  0.750  0.750  0.351-  30 2.12  20 2.12  28 2.12  29 2.12  13 2.12
  63  0.000  0.500  0.351-  31 2.12  21 2.12  28 2.12  29 2.12  12 2.12
  64  0.750  0.500  0.652-  35 2.12  26 2.12  19 2.13  34 2.13  32 2.16
  65  0.001  0.750  0.650-  34 2.11  18 2.11  27 2.12  35 2.12  33 2.14
  66  0.750  0.750  0.550-  34 2.11  17 2.11  32 2.11  24 2.12  33 2.12  30 2.13
  67  1.000  0.500  0.550-  35 2.10  32 2.12  25 2.12  33 2.12  16 2.12  31 2.12

IMPORTANT INFORMATION: All symmetrisations will be switched off!
NOSYMM: (Re-)initialisation of all symmetry stuff for point group C_1.

                                     Primitive cell

  volume of cell :    1530.6606

  direct lattice vectors                    reciprocal lattice vectors
     8.467142631  0.000000000  0.000000000     0.118103597  0.000000000  0.000000000
     0.000000000  8.467142631  0.000000000     0.000000000  0.118103597  0.000000000
     0.000000000  0.000000000 21.350356973     0.000000000  0.000000000  0.046837624

  length of vectors
     8.467142631  8.467142631 21.350356973     0.118103597  0.118103597  0.046837624

  position of ions in fractional coordinates (direct lattice)
     0.625000781  0.625000788  0.771474314
     0.526655283  0.526655309  0.772804739
     0.723344168  0.723344152  0.772805082
     0.250000000  0.000000000  0.351282183
     0.500000000  0.250000000  0.351282183
     0.250000000  0.250000000  0.450427394
     0.500000000  0.000000000  0.450427394
     0.250078438  0.999921519  0.550068769
     0.499955822  0.249907048  0.550110864
     0.249726458  0.249726458  0.648370669
     0.500077443  0.000346500  0.648346683
     0.250000000  0.500000000  0.351282183
     0.500000000  0.750000000  0.351282183
     0.250000000  0.750000000  0.450427394
     0.500000000  0.500000000  0.450427394
     0.249907049  0.499955821  0.550110863
     0.500313412  0.749686464  0.550371124
     0.249653379  0.749922486  0.648346707
     0.497959788  0.497959785  0.648975368
     0.750000000  0.000000000  0.351282183
     0.000000000  0.250000000  0.351282183
     0.750000000  0.250000000  0.450427394
     0.000000000  0.000000000  0.450427394
     0.750044075  0.000092961  0.550110806
     0.999921518  0.250078438  0.550068769
     0.749922487  0.249653373  0.648346705
     0.000273420  0.000273420  0.648370578
     0.750000000  0.500000000  0.351282183
     0.000000000  0.750000000  0.351282183
     0.750000000  0.750000000  0.450427394
     0.000000000  0.500000000  0.450427394
     0.749686464  0.500313410  0.550371124
     0.000092962  0.750044074  0.550110807
     0.752040199  0.752040199  0.648975102
     0.000346497  0.500077440  0.648346684
     0.250000000  0.000000000  0.450427394
     0.500000000  0.250000000  0.450427394
     0.250000000  0.250000000  0.351282183
     0.500000000  0.000000000  0.351282183
     0.250067555  0.999932327  0.650665711
     0.499768035  0.249268357  0.650289571
     0.249915206  0.249915206  0.549693468
     0.500035371  0.999605497  0.549784276
     0.250000000  0.500000000  0.450427394
     0.500000000  0.750000000  0.450427394
     0.250000000  0.750000000  0.351282183
     0.500000000  0.500000000  0.351282183
     0.249268357  0.499768033  0.650289571
     0.500171478  0.749828496  0.651640008
     0.250394469  0.749964535  0.549784275
     0.500052177  0.500052177  0.550031482
     0.750000000  0.000000000  0.450427394
     0.000000000  0.250000000  0.450427394
     0.750000000  0.250000000  0.351282183
     0.000000000  0.000000000  0.351282183
     0.750231901  0.000731537  0.650289464
     0.999932326  0.250067550  0.650665711
     0.749964536  0.250394465  0.549784274
     0.000084749  0.000084748  0.549693420
     0.750000000  0.500000000  0.450427394
     0.000000000  0.750000000  0.450427394
     0.750000000  0.750000000  0.351282183
     0.000000000  0.500000000  0.351282183
     0.749828500  0.500171477  0.651640006
     0.000731541  0.750231902  0.650289465
     0.749947744  0.749947745  0.550031413
     0.999605497  0.500035370  0.549784276

  ion indices of the primitive-cell ions
   primitive index   ion index
                 1           1
                 2           2
                 3           3
                 4           4
                 5           5
                 6           6
                 7           7
[...]
   4.23319726  2.11599862 11.74506332
   2.11446954  2.11446954 13.84294523
   4.23422704  0.00293386 13.84243312
   2.11678566  4.23357132  7.50000000
   4.23357132  6.35035697  7.50000000
   2.11678566  6.35035697  9.61678566
   4.23357132  4.23357132  9.61678566
   2.11599862  4.23319725 11.74506331
   4.23622502  6.34770222 11.75061997
   2.11385077  6.34970065 13.84243363
   4.21629655  4.21629652 13.85585578
   6.35035697  0.00000000  7.50000000
   0.00000000  2.11678566  7.50000000
   6.35035697  2.11678566  9.61678566
   0.00000000  0.00000000  9.61678566
   6.35073016  0.00078711 11.74506207
   8.46647811  2.11744980 11.74416459
   6.34970066  2.11385072 13.84243359
   0.00231509  0.00231508 13.84294329
   6.35035697  4.23357132  7.50000000
   0.00000000  6.35035697  7.50000000
   6.35035697  6.35035697  9.61678566
   0.00000000  4.23357132  9.61678566
   6.34770222  4.23622500 11.75061996
   0.00078712  6.35073015 11.74506210
   6.36763163  6.36763163 13.85585010
   0.00293384  4.23422701 13.84243314
   2.11678566  0.00000000  9.61678566
   4.23357132  2.11678566  9.61678566
   2.11678566  2.11678566  7.50000000
   4.23357132  0.00000000  7.50000000
   2.11735765  8.46656963 13.89194519
   4.23160723  2.11059073 13.88391448
   2.11606770  2.11606770 11.73615177
   4.23387080  8.46380232 11.73809056
   2.11678566  4.23357132  9.61678566
   4.23357132  6.35035697  9.61678566
   2.11678566  6.35035697  7.50000000
   4.23357132  4.23357132  7.50000000
   2.11059073  4.23160722 13.88391449
   4.23502324  6.34890483 13.91274679
   2.12012568  6.35005668 11.73809053
   4.23401311  4.23401311 11.74336848
   6.35035697  0.00000000  9.61678566
   0.00000000  2.11678566  9.61678566
   6.35035697  2.11678566  7.50000000
   0.00000000  0.00000000  7.50000000
   6.35232052  0.00619403 13.88391220
   8.46656963  2.11735761 13.89194521
   6.35005669  2.12012565 11.73809051
   0.00071758  0.00071758 11.73615074
   6.35035697  4.23357132  9.61678566
   0.00000000  6.35035697  9.61678566
   6.35035697  6.35035697  7.50000000
   0.00000000  4.23357132  7.50000000
   6.34890486  4.23502323 13.91274674
   0.00619406  6.35232052 13.88391221
   6.34991451  6.34991452 11.74336701
   8.46380232  4.23387080 11.73809055

--------------------------------------- Iteration      FINAL  ---------------------------------------

--------------------OUTCAR has been truncated-------------------------

[...]

--------------------OUTCAR has been truncated-------------------------

  FORCE on cell =-STRESS in cart. coord.  units (eV):
  Direction    XX          YY          ZZ          XY          YZ          ZX
  Alpha Z   920.36442   920.36442   920.36442
  Ewald  157050.69026157050.69009************   385.87441     0.00220     0.00222
  Hartree167476.89857167476.89849************   173.33116     0.00100     0.00101
  E(xc)   -2528.96022 -2528.96022 -2530.12508     0.99497     0.00001     0.00001
  Local  ************************333808.43735  -522.83618    -0.00299    -0.00302
  n-local -2884.74992 -2884.74993 -2900.68191    -2.88898    -0.00002    -0.00002
  augment  1063.92364  1063.92364  1056.10542    -1.42206    -0.00001    -0.00001
  Kinetic  7610.80676  7610.80680  7680.58833   -32.82815    -0.00016    -0.00015
  Fock        0.00000     0.00000     0.00000     0.00000     0.00000     0.00000
  Total     -35.19105   -35.19105    -6.77810     0.22516     0.00004     0.00003
  in kB     -36.83527   -36.83527    -7.09480     0.23568     0.00004     0.00003

 VOLUME and BASIS-vectors are now :
  energy-cutoff  :      600.00
  volume of cell :     1530.66
      direct lattice vectors                 reciprocal lattice vectors
     8.467142631  0.000000000  0.000000000     0.118103597  0.000000000  0.000000000
     0.000000000  8.467142631  0.000000000     0.000000000  0.118103597  0.000000000
     0.000000000  0.000000000 21.350356973     0.000000000  0.000000000  0.046837624

  length of vectors
     8.467142631  8.467142631 21.350356973     0.118103597  0.118103597  0.046837624

 FORCES acting on ions:
    Electron-Ion                     Ewald-Force                    Non-Local-Force
   0.582E-02 0.582E-02 -.102E+04   -.744E-02 -.744E-02 0.102E+04   0.805E-04 0.835E-04 0.378E+00
   0.189E+03 0.189E+03 -.155E+04   -.233E+03 -.233E+03 0.155E+04   0.447E+02 0.447E+02 -.281E+01
   -.189E+03 -.189E+03 -.155E+04   0.233E+03 0.233E+03 0.155E+04   -.447E+02 -.447E+02 -.281E+01
   0.163E+00 -.163E+00 0.208E+04   -.162E+00 0.162E+00 -.207E+04   -.630E-03 0.632E-03 -.678E+01
   0.163E+00 0.187E+00 0.208E+04   -.162E+00 -.186E+00 -.207E+04   -.411E-03 -.679E-03 -.677E+01
   0.803E+00 0.803E+00 0.736E+03   -.818E+00 -.818E+00 -.736E+03   0.115E-01 0.115E-01 0.414E+00
   0.823E+00 -.781E+00 0.737E+03   -.834E+00 0.731E+00 -.737E+03   0.809E-02 0.356E-01 0.445E+00
   0.353E+01 -.353E+01 -.605E+03   -.353E+01 0.353E+01 0.605E+03   -.321E-02 0.320E-02 -.217E+00
   0.362E+01 0.628E+01 -.594E+03   -.362E+01 -.626E+01 0.594E+03   -.370E-02 -.181E-01 -.431E+00
   0.188E+02 0.188E+02 -.195E+04   -.188E+02 -.188E+02 0.195E+04   0.256E-01 0.256E-01 0.583E+01
   0.204E+02 -.246E+02 -.193E+04   -.204E+02 0.248E+02 0.193E+04   0.175E-01 -.270E+00 0.583E+01
   0.187E+00 0.163E+00 0.208E+04   -.186E+00 -.162E+00 -.207E+04   -.676E-03 -.418E-03 -.677E+01
   0.191E+00 -.191E+00 0.208E+04   -.189E+00 0.189E+00 -.207E+04   -.157E-02 0.158E-02 -.679E+01
   0.781E+00 -.823E+00 0.737E+03   -.731E+00 0.834E+00 -.737E+03   -.356E-01 -.808E-02 0.445E+00
   0.798E+00 0.798E+00 0.739E+03   -.769E+00 -.769E+00 -.739E+03   -.221E-01 -.221E-01 0.530E+00
   0.628E+01 0.362E+01 -.594E+03   -.626E+01 -.362E+01 0.594E+03   -.181E-01 -.371E-02 -.431E+00
   0.644E+01 -.644E+01 -.589E+03   -.642E+01 0.642E+01 0.589E+03   -.291E-01 0.291E-01 -.152E-01
   0.246E+02 -.204E+02 -.193E+04   -.248E+02 0.204E+02 0.193E+04   0.270E+00 -.175E-01 0.583E+01
   0.342E+02 0.342E+02 -.184E+04   -.346E+02 -.346E+02 0.183E+04   0.476E+00 0.476E+00 0.565E+01
   -.163E+00 -.187E+00 0.208E+04   0.162E+00 0.186E+00 -.207E+04   0.418E-03 0.672E-03 -.677E+01
   -.163E+00 0.163E+00 0.208E+04   0.162E+00 -.162E+00 -.207E+04   0.627E-03 -.636E-03 -.678E+01
   -.823E+00 0.781E+00 0.737E+03   0.834E+00 -.731E+00 -.737E+03   -.808E-02 -.356E-01 0.445E+00
   -.803E+00 -.803E+00 0.736E+03   0.818E+00 0.818E+00 -.736E+03   -.115E-01 -.115E-01 0.414E+00
   -.362E+01 -.628E+01 -.594E+03   0.362E+01 0.626E+01 0.594E+03   0.371E-02 0.180E-01 -.431E+00
   -.353E+01 0.353E+01 -.605E+03   0.353E+01 -.353E+01 0.605E+03   0.319E-02 -.320E-02 -.217E+00
   -.204E+02 0.246E+02 -.193E+04   0.204E+02 -.248E+02 0.193E+04   -.175E-01 0.270E+00 0.583E+01
   -.188E+02 -.188E+02 -.195E+04   0.188E+02 0.188E+02 0.195E+04   -.256E-01 -.256E-01 0.583E+01
   -.191E+00 0.191E+00 0.208E+04   0.189E+00 -.189E+00 -.207E+04   0.158E-02 -.157E-02 -.679E+01
   -.187E+00 -.163E+00 0.208E+04   0.186E+00 0.162E+00 -.207E+04   0.670E-03 0.416E-03 -.677E+01
   -.798E+00 -.798E+00 0.739E+03   0.769E+00 0.769E+00 -.739E+03   0.221E-01 0.221E-01 0.530E+00
   -.781E+00 0.823E+00 0.737E+03   0.731E+00 -.834E+00 -.737E+03   0.356E-01 0.808E-02 0.445E+00
   -.644E+01 0.644E+01 -.589E+03   0.642E+01 -.642E+01 0.589E+03   0.291E-01 -.291E-01 -.152E-01
   -.628E+01 -.362E+01 -.594E+03   0.626E+01 0.362E+01 0.594E+03   0.180E-01 0.371E-02 -.431E+00
   -.342E+02 -.342E+02 -.184E+04   0.346E+02 0.346E+02 0.183E+04   -.476E+00 -.476E+00 0.565E+01
   -.246E+02 0.204E+02 -.193E+04   0.248E+02 -.204E+02 0.193E+04   -.270E+00 0.175E-01 0.583E+01
   0.504E+00 -.504E+00 0.551E+03   -.509E+00 0.509E+00 -.551E+03   0.671E-02 -.672E-02 -.862E-01
   0.501E+00 0.654E+00 0.552E+03   -.499E+00 -.652E+00 -.552E+03   -.179E-02 -.198E-02 -.604E-01
   0.134E+00 0.134E+00 0.156E+04   -.136E+00 -.136E+00 -.156E+04   0.178E-02 0.177E-02 0.361E+01
   0.135E+00 -.128E+00 0.156E+04   -.136E+00 0.125E+00 -.156E+04   0.203E-02 0.496E-02 0.361E+01
   0.954E+01 -.954E+01 -.149E+04   -.950E+01 0.950E+01 0.150E+04   -.462E-01 0.462E-01 -.524E+01
   0.108E+02 0.284E+02 -.146E+04   -.107E+02 -.285E+02 0.147E+04   -.381E-01 0.561E-01 -.532E+01
   0.354E+01 0.354E+01 -.446E+03   -.353E+01 -.353E+01 0.445E+03   -.109E-01 -.109E-01 0.313E+00
   0.364E+01 -.341E+01 -.441E+03   -.363E+01 0.343E+01 0.441E+03   -.984E-02 -.120E-01 0.373E+00
   0.654E+00 0.501E+00 0.552E+03   -.652E+00 -.499E+00 -.552E+03   -.198E-02 -.179E-02 -.604E-01
   0.712E+00 -.712E+00 0.553E+03   -.736E+00 0.736E+00 -.553E+03   0.328E-01 -.329E-01 -.143E+00
   0.128E+00 -.135E+00 0.156E+04   -.124E+00 0.136E+00 -.156E+04   -.496E-02 -.203E-02 0.361E+01
   0.131E+00 0.131E+00 0.156E+04   -.126E+00 -.126E+00 -.157E+04   -.646E-02 -.646E-02 0.361E+01
   0.284E+02 0.108E+02 -.146E+04   -.285E+02 -.107E+02 0.147E+04   0.561E-01 -.381E-01 -.532E+01
   0.356E+02 -.356E+02 -.142E+04   -.355E+02 0.355E+02 0.142E+04   -.747E-01 0.748E-01 -.482E+01
   0.341E+01 -.364E+01 -.441E+03   -.343E+01 0.363E+01 0.441E+03   0.120E-01 0.985E-02 0.373E+00
   0.361E+01 0.361E+01 -.433E+03   -.364E+01 -.364E+01 0.433E+03   0.276E-01 0.276E-01 0.284E+00
   -.501E+00 -.654E+00 0.552E+03   0.499E+00 0.652E+00 -.552E+03   0.179E-02 0.198E-02 -.604E-01
   -.504E+00 0.504E+00 0.551E+03   0.509E+00 -.509E+00 -.551E+03   -.672E-02 0.671E-02 -.862E-01
   -.135E+00 0.128E+00 0.156E+04   0.136E+00 -.124E+00 -.156E+04   -.203E-02 -.496E-02 0.361E+01
   -.134E+00 -.134E+00 0.156E+04   0.136E+00 0.136E+00 -.156E+04   -.178E-02 -.178E-02 0.361E+01
   -.108E+02 -.284E+02 -.146E+04   0.107E+02 0.285E+02 0.147E+04   0.381E-01 -.562E-01 -.532E+01
   -.954E+01 0.954E+01 -.149E+04   0.950E+01 -.950E+01 0.150E+04   0.462E-01 -.462E-01 -.524E+01
   -.364E+01 0.341E+01 -.441E+03   0.363E+01 -.343E+01 0.441E+03   0.985E-02 0.120E-01 0.373E+00
   -.354E+01 -.354E+01 -.446E+03   0.353E+01 0.353E+01 0.445E+03   0.109E-01 0.109E-01 0.313E+00
   -.712E+00 0.712E+00 0.553E+03   0.736E+00 -.736E+00 -.553E+03   -.329E-01 0.328E-01 -.143E+00
   -.654E+00 -.501E+00 0.552E+03   0.652E+00 0.499E+00 -.552E+03   0.198E-02 0.178E-02 -.604E-01
   -.131E+00 -.131E+00 0.156E+04   0.126E+00 0.126E+00 -.157E+04   0.646E-02 0.645E-02 0.361E+01
   -.128E+00 0.135E+00 0.156E+04   0.125E+00 -.136E+00 -.156E+04   0.496E-02 0.203E-02 0.361E+01
   -.356E+02 0.356E+02 -.142E+04   0.355E+02 -.355E+02 0.142E+04   0.748E-01 -.747E-01 -.482E+01
   -.284E+02 -.108E+02 -.146E+04   0.285E+02 0.107E+02 0.147E+04   -.562E-01 0.381E-01 -.532E+01
   -.361E+01 -.361E+01 -.433E+03   0.364E+01 0.364E+01 0.433E+03   -.276E-01 -.276E-01 0.284E+00
   -.341E+01 0.364E+01 -.441E+03   0.343E+01 -.363E+01 0.441E+03   -.120E-01 -.984E-02 0.373E+00
   0.111E-02 0.114E-02 0.223E+02   0.167E-12 0.316E-12 -.284E-11   -.111E-02 -.114E-02 -.223E+02

 POSITION                                       TOTAL-FORCE (eV/Angst)
      5.29197      5.29197     16.47125        -0.001529     -0.001522      0.039905
      4.45927      4.45927     16.49966         0.076087      0.076093     -0.038495
      6.12466      6.12466     16.49966        -0.074578     -0.074576     -0.038429
      2.11679      0.00000      7.50000         0.000220     -0.000218      0.363152
      4.23357      2.11679      7.50000         0.000191      0.000202      0.360340
      2.11679      2.11679      9.61679        -0.003904     -0.003907      0.022994
      4.23357      0.00000      9.61679        -0.002269     -0.014616      0.028979
      2.11745      8.46648     11.74416         0.000152     -0.000151     -0.008647
      4.23320      2.11600     11.74506         0.000262     -0.000607     -0.006413
      2.11447      2.11447     13.84295         0.001380      0.001378      0.044160
      4.23423      0.00293     13.84243         0.000497      0.002677      0.039293
      2.11679      4.23357      7.50000         0.000196      0.000182      0.360335
      4.23357      6.35036      7.50000         0.000507     -0.000499      0.365236
      2.11679      6.35036      9.61679         0.014617      0.002267      0.028973
      4.23357      4.23357      9.61679         0.006534      0.006534      0.033446
      2.11600      4.23320     11.74506        -0.000610      0.000259     -0.006404
      4.23623      6.34770     11.75062        -0.000812      0.000814     -0.006226
      2.11385      6.34970     13.84243        -0.002662     -0.000504      0.039293
      4.21630      4.21630     13.85586        -0.006604     -0.006611      0.035023
      6.35036      0.00000      7.50000        -0.000176     -0.000204      0.360330
      0.00000      2.11679      7.50000        -0.000225      0.000214      0.363133
      6.35036      2.11679      9.61679         0.002268      0.014614      0.028971
      0.00000      0.00000      9.61679         0.003899      0.003905      0.022981
      6.35073      0.00079     11.74506        -0.000263      0.000610     -0.006415
      8.46648      2.11745     11.74416        -0.000153      0.000155     -0.008662
      6.34970      2.11385     13.84243        -0.000504     -0.002665      0.039301
      0.00232      0.00232     13.84294        -0.001371     -0.001369      0.044153
      6.35036      4.23357      7.50000        -0.000501      0.000504      0.365219
      0.00000      6.35036      7.50000        -0.000210     -0.000184      0.360329
      6.35036      6.35036      9.61679        -0.006531     -0.006533      0.033425
      0.00000      4.23357      9.61679        -0.014618     -0.002269      0.028973
      6.34770      4.23622     11.75062         0.000819     -0.000812     -0.006228
      0.00079      6.35073     11.74506         0.000603     -0.000265     -0.006423
      6.36763      6.36763     13.85585         0.006607      0.006596      0.034956
      0.00293      4.23423     13.84243         0.002681      0.000501      0.039290
      2.11679      0.00000      9.61679         0.002009     -0.002007      0.048114
      4.23357      2.11679      9.61679        -0.000118      0.000083      0.061038
      2.11679      2.11679      7.50000         0.000496      0.000500     -0.362098
      4.23357      0.00000      7.50000         0.000574      0.001402     -0.362498
      2.11736      8.46657     13.89195        -0.000235      0.000239     -0.112785
      4.23161      2.11059     13.88391         0.000286      0.003464     -0.114824
      2.11607      2.11607     11.73615        -0.001416     -0.001413     -0.000948
      4.23387      8.46380     11.73809        -0.001408      0.000757     -0.003042
      2.11679      4.23357      9.61679         0.000085     -0.000111      0.061031
      4.23357      6.35036      9.61679         0.008732     -0.008729      0.061615
      2.11679      6.35036      7.50000        -0.001408     -0.000576     -0.362507
      4.23357      4.23357      7.50000        -0.001864     -0.001868     -0.363033
      2.11059      4.23161     13.88391         0.003466      0.000283     -0.114811
      4.23502      6.34890     13.91275         0.008087     -0.008071     -0.103067
      2.12013      6.35006     11.73809        -0.000755      0.001410     -0.003045
      4.23401      4.23401     11.74337        -0.000459     -0.000458     -0.004029
      6.35036      0.00000      9.61679         0.000111     -0.000082      0.061033
      0.00000      2.11679      9.61679        -0.002010      0.002000      0.048110
      6.35036      2.11679      7.50000        -0.000574     -0.001409     -0.362510
      0.00000      0.00000      7.50000        -0.000503     -0.000503     -0.362111
      6.35232      0.00619     13.88391        -0.000280     -0.003476     -0.114802
      8.46657      2.11736     13.89195         0.000237     -0.000239     -0.112810
      6.35006      2.12013     11.73809         0.001413     -0.000755     -0.003045
      0.00072      0.00072     11.73615         0.001416      0.001417     -0.000946
      6.35036      4.23357      9.61679        -0.008728      0.008724      0.061613
      0.00000      6.35036      9.61679        -0.000084      0.000111      0.061030
      6.35036      6.35036      7.50000         0.001863      0.001868     -0.363058
      0.00000      4.23357      7.50000         0.001412      0.000578     -0.362514
      6.34890      4.23502     13.91275        -0.008079      0.008092     -0.103065
      0.00619      6.35232     13.88391        -0.003478     -0.000279     -0.114813
      6.34991      6.34991     11.74337         0.000458      0.000458     -0.004021
      8.46380      4.23387     11.73809         0.000757     -0.001405     -0.003051
    total drift:                               -0.000002     -0.000009     -0.000300

  FREE ENERGIE OF THE ION-ELECTRON SYSTEM (eV)
  free  energy   TOTEN  =      -283.82642154 eV

  energy  without entropy=     -283.82642154  energy(sigma->0) =     -283.82642154