 vasp.6.3.0 20Jan22 (build Mar 11 2022 13:48:16) complex

 executed on             LinuxIFC date 2024.01.22  02:49:24

 INCAR:
   SYSTEM = TiO2
   ISMEAR = 0
   SIGMA = 0.05
   EDIFF = 1E-5
   ALGO = ALL
   ISTART = 0
   IBRION = -1
   NSW = 0
   ISYM = 0
   ISIF = 2
   EDIFFG = -0.01
   DIPOL = 0.5 0.5 0.5
   IDIPOL = 3
   LDIPOL = .TRUE.
   GGA = PE
   IVDW = 21
   LDAU = .TRUE.
   LDAUTYPE = 2
   LDAUL = -1 -1 2 -1
   LDAUU = 0.0 0.0 4.2 0.0
   LDAUPRINT = 1
   LMAXMIX = 4
   ENCUT = 600
   PREC = Accurate
   LASPH = .TRUE.
   LREAL = .FALSE.
   ISPIN = 1
   NELM = 200
   NELMIN = 8
   NCORE = 2
   KPAR = 1
   LWAVE = .FALSE.
   LCHARG = .FALSE.

 POTCAR:    PAW_PBE H 15Jun2001
 POTCAR:    PAW_PBE O 08Apr2002
 POTCAR:    PAW_PBE Ti_pv 07Sep2000
 POTCAR:    PAW_PBE O 08Apr2002
|           W    W    AA    RRRRR   N    N  II  N    N   GGGG   !!!           |
|           W    W   A  A   R    R  NN   N  II  NN   N  G    G  !!!           |
|           W    W  A    A  R    R  N N  N  II  N N  N  G       !!!           |
|           W WW W  AAAAAA  RRRRR   N  N N  II  N  N N  G  GGG   !            |
|           WW  WW  A    A  R   R   N   NN  II  N   NN  G    G                |
|           W    W  A    A  R    R  N    N  II  N    N   GGGG   !!!           |
|     For optimal performance we recommend to set                             |
|       NCORE = 2 up to number-of-cores-per-socket                            |
|     This setting can greatly improve the performance of VASP for DFT.       |
|     The default, NCORE=1 might be grossly inefficient on modern             |
|     multi-core architectures or massively parallel machines. Do your        |
|     Unfortunately you need to use the default for GW and RPA                |
|     calculations (for HF NCORE is supported but not extensively tested      |
|     yet).                                                                   |

   TITEL  = PAW_PBE H 15Jun2001
   POMASS =    1.000; ZVAL   =    1.000    mass and valenz
   ENMAX  =  250.000; ENMIN  =  200.000 eV

   TITEL  = PAW_PBE O 08Apr2002
   POMASS =   16.000; ZVAL   =    6.000    mass and valenz
   ENMAX  =  400.000; ENMIN  =  300.000 eV

   TITEL  = PAW_PBE Ti_pv 07Sep2000
   POMASS =   47.880; ZVAL   =   10.000    mass and valenz
   ENMAX  =  222.335; ENMIN  =  166.751 eV

   TITEL  = PAW_PBE O 08Apr2002
   POMASS =   16.000; ZVAL   =    6.000    mass and valenz
   ENMAX  =  400.000; ENMIN  =  300.000 eV

  PAW_PBE H 15Jun2001                   :
  PAW_PBE O 08Apr2002                   :
  PAW_PBE Ti_pv 07Sep2000               :
  PAW_PBE O 08Apr2002                   :

 POSCAR:  H  O Ti  O
  positions in direct lattice
 exchange correlation table for  LEXCH =        8
   RHO(1)=    0.500       N(1)  =     2000
   RHO(2)=  100.500       N(2)  =     4000

 ion  position               nearest neighbor table
   1  0.670  0.567  0.782-   3 0.98
   2  0.670  0.433  0.782-   3 0.98
   3  0.613  0.500  0.780-   1 0.98   2 0.98  51 2.35
   4  0.815  0.833  0.293-  54 1.97  88 1.97  56 1.97  53 2.02  55 2.02  21 3.11   5 3.11   7 3.11

   5  0.599  0.667  0.325-  52 1.97 119 1.97  55 1.97  57 1.97  58 2.02  56 2.02  36 3.11   4 3.11
                             6 3.11  10 3.14
   6  0.315  0.667  0.293-  58 1.97 124 1.97  60 1.97  52 2.02  59 2.02  39 3.11   7 3.11   5 3.11

   7  0.099  0.833  0.325-  53 1.97  91 1.97  59 1.97  61 1.97  54 2.02  60 2.02  22 3.11   6 3.11
                             4 3.11   8 3.15
   8  0.949  0.833  0.422-  62 1.95  96 1.96  64 1.96  63 2.01  54 2.01  61 2.04  11 3.05   9 3.10
                            25 3.10   7 3.15
   9  0.730  0.666  0.451-  57 1.91 127 1.96  63 1.97  65 2.00  66 2.01  64 2.03  10 3.06   8 3.10
                            40 3.11  14 3.17
  10  0.448  0.666  0.422-  66 1.95 132 1.96  68 1.96  58 2.01  67 2.01  57 2.04   9 3.06  11 3.11
                            43 3.11   5 3.14
  11  0.229  0.833  0.451-  61 1.92  99 1.97  67 1.97  62 2.00  69 2.01  68 2.04   8 3.05  26 3.11
                            10 3.11
  12  0.088  0.834  0.551-  70 1.94 104 1.96  72 1.96  71 2.00  69 2.04  62 2.05  15 3.00  13 3.10
                            29 3.11
  13  0.866  0.666  0.576-  65 1.88 135 1.96  71 1.97  74 1.98  72 2.04  73 2.05  14 3.02  12 3.10
                            44 3.11
  14  0.586  0.667  0.550-  74 1.96 140 1.96  76 1.96  75 2.00  66 2.02  65 2.05  13 3.02  15 3.11
                            47 3.12   9 3.17
  15  0.365  0.833  0.577-  69 1.88 107 1.97  75 1.98  70 1.98  77 2.04  76 2.05  12 3.00  30 3.11
                            14 3.11
  16  0.231  0.833  0.683-  78 1.87  80 1.96 112 1.97  79 2.02  77 2.14  70 2.16  19 2.90  33 3.12
                            17 3.14
  17  0.999  0.666  0.702-  73 1.79  81 1.86 143 2.00  79 2.01  80 2.10  18 2.91  16 3.14  48 3.15

[...]

  20  0.815  0.167  0.293-  86 1.97  88 1.97 120 1.97  85 2.02  87 2.02  21 3.11  37 3.11  23 3.11

[...]

  36  0.815  0.500  0.293- 118 1.97  56 1.97 120 1.97 119 2.02 117 2.02   5 3.11  37 3.11  39 3.11

  37  0.599  0.333  0.325- 116 1.97 119 1.97  87 1.97 121 1.97 120 2.02 122 2.02  36 3.11  20 3.11
                            38 3.11  42 3.14
  38  0.315  0.333  0.293- 122 1.97 124 1.97  92 1.97 123 2.02 116 2.02  39 3.11  23 3.11  37 3.11

  39  0.099  0.500  0.325- 117 1.97  59 1.97 123 1.97 125 1.97 124 2.02 118 2.02  38 3.11   6 3.11
                            36 3.11  40 3.13
  40  0.950  0.500  0.422- 126 1.95 128 1.96  64 1.96 118 2.01 127 2.02 125 2.03  43 3.05   9 3.11
                            41 3.11  39 3.13
  41  0.730  0.334  0.451- 121 1.91 127 1.96  95 1.97 129 2.00 130 2.01 128 2.03  42 3.06  24 3.10
                            40 3.11  46 3.17
  42  0.448  0.334  0.422- 130 1.95 132 1.96 100 1.96 122 2.01 131 2.01 121 2.04  41 3.06  27 3.11
                            43 3.11  37 3.14
  43  0.229  0.500  0.452- 125 1.94  67 1.97 131 1.97 126 1.99 133 2.01 132 2.04  40 3.05  10 3.11
                            42 3.11  44 3.15
  44  0.090  0.500  0.551- 134 1.94  72 1.96 136 1.96 133 2.02 135 2.02 126 2.05  47 3.00  13 3.11
                            45 3.11  43 3.15
  45  0.866  0.334  0.576- 129 1.88 135 1.96 103 1.97 138 1.98 136 2.04 137 2.05  46 3.02  28 3.10
                            44 3.11
  46  0.586  0.333  0.550- 138 1.96 140 1.96 108 1.96 139 2.00 130 2.02 129 2.05  45 3.02  31 3.11
                            47 3.12  41 3.17
  47  0.366  0.500  0.579- 133 1.92 134 1.96 139 1.97  75 1.97 141 2.05 140 2.06  44 3.00  46 3.12
                            14 3.12
  48  0.233  0.500  0.683- 142 1.87 144 1.96  80 1.96 143 2.05 141 2.09 134 2.15  51 2.91  49 3.15
                            17 3.15
  49  0.999  0.334  0.702- 137 1.79 145 1.86 143 2.00 111 2.01 144 2.10  50 2.91  32 3.14  48 3.15

  50  0.729  0.334  0.680- 145 1.90 147 1.95 115 1.97 146 2.02 138 2.09 137 2.13  49 2.91  35 3.13
                            51 3.14
  51  0.503  0.500  0.707- 142 1.85 141 1.86  82 2.01 146 2.01 147 2.13   3 2.35  48 2.91  50 3.14
                            18 3.14
  52  0.494  0.667  0.267-   5 1.97   6 2.02
  53  0.994  0.833  0.267-   7 1.97   4 2.02
  54  0.919  0.833  0.351-   4 1.97   8 2.01   7 2.02
  55  0.636  0.833  0.320-  21 1.97   5 1.97   4 2.02
  56  0.778  0.667  0.299-  36 1.97   4 1.97   5 2.02
  57  0.628  0.667  0.394-   9 1.91   5 1.97  10 2.04
  58  0.419  0.667  0.351-   6 1.97  10 2.01   5 2.02
  59  0.136  0.667  0.320-  39 1.97   7 1.97   6 2.02
  60  0.278  0.833  0.299-  22 1.97   6 1.97   7 2.02
  61  0.128  0.833  0.394-  11 1.92   7 1.97   8 2.04
  62  0.054  0.833  0.479-   8 1.95  11 2.00  12 2.05
  63  0.770  0.833  0.447-  25 1.97   9 1.97   8 2.01
  64  0.912  0.667  0.426-  40 1.96   8 1.96   9 2.03
  65  0.765  0.666  0.521-  13 1.88   9 2.00  14 2.05
  66  0.554  0.666  0.479-  10 1.95   9 2.01  14 2.02
  67  0.269  0.667  0.447-  43 1.97  11 1.97  10 2.01
  68  0.412  0.833  0.426-  10 1.96  26 1.96  11 2.04
  69  0.265  0.833  0.521-  15 1.88  11 2.01  12 2.04
  70  0.195  0.833  0.607-  12 1.94  15 1.98  16 2.16
  71  0.907  0.833  0.573-  29 1.97  13 1.97  12 2.00
  72  0.051  0.666  0.554-  44 1.96  12 1.96  13 2.04
  73  0.912  0.668  0.647-  17 1.79  13 2.05  18 2.13
  74  0.696  0.668  0.606-  14 1.96  13 1.98  18 2.09
  75  0.407  0.666  0.575-  47 1.97  15 1.98  14 2.00
  76  0.550  0.833  0.554-  14 1.96  30 1.96  15 2.05
  77  0.411  0.835  0.648-  19 1.79  15 2.04  16 2.14
  78  0.347  0.833  0.734-  19 1.86  16 1.87
  79  0.052  0.833  0.710-  33 2.01  17 2.01  16 2.02
  80  0.193  0.666  0.683-  16 1.96  48 1.96  17 2.10
  81  0.843  0.663  0.733-  17 1.86  18 1.90
  82  0.554  0.668  0.709-  19 2.00  51 2.01  18 2.02
  83  0.693  0.834  0.681-  34 1.96  18 1.97  19 2.09
  84  0.494  0.000  0.267-  21 1.97  22 2.02
  85  0.994  0.167  0.267-  23 1.97  20 2.02
  86  0.919  0.167  0.351-  20 1.97  24 2.01  23 2.02
  87  0.636  0.167  0.320-  21 1.97  37 1.97  20 2.02
  88  0.778  0.000  0.299-   4 1.97  20 1.97  21 2.02
  89  0.628  0.000  0.394-  25 1.91  21 1.97  26 2.04
  90  0.419  0.000  0.351-  22 1.97  26 2.01  21 2.02
  91  0.136  0.000  0.320-   7 1.97  23 1.97  22 2.02
  92  0.278  0.167  0.299-  22 1.97  38 1.97  23 2.02
  93  0.128  0.167  0.394-  27 1.92  23 1.97  24 2.04
  94  0.054  0.167  0.479-  24 1.95  27 2.00  28 2.05
  95  0.770  0.167  0.447-  25 1.97  41 1.97  24 2.01
  96  0.912  0.000  0.426-  24 1.96   8 1.96  25 2.04
  97  0.765  0.000  0.521-  29 1.88  25 2.00  30 2.04
  98  0.554  1.000  0.479-  26 1.95  25 2.00  30 2.04
  99  0.269  0.000  0.447-  27 1.97  11 1.97  26 2.01
 100  0.412  0.167  0.426-  42 1.96  26 1.96  27 2.04
 101  0.265  0.167  0.521-  31 1.88  27 2.01  28 2.04
 102  0.195  0.167  0.607-  28 1.94  31 1.98  32 2.16
 103  0.907  0.167  0.573-  29 1.97  45 1.97  28 2.00
 104  0.051  0.000  0.554-  28 1.96  12 1.96  29 2.06
 105  0.912  0.000  0.647-  33 1.80  29 2.05  34 2.13
 106  0.695  0.000  0.607-  30 1.94  29 1.97  34 2.15
 107  0.407  1.000  0.574-  15 1.97  31 1.97  30 2.00
 108  0.550  0.167  0.554-  46 1.96  30 1.96  31 2.05
 109  0.411  0.165  0.648-  35 1.79  31 2.04  32 2.14
 110  0.347  0.167  0.734-  35 1.86  32 1.87
 111  0.052  0.167  0.710-  33 2.01  49 2.01  32 2.02
[...]
 133  0.266  0.500  0.522-  47 1.92  43 2.01  44 2.02
 134  0.195  0.500  0.608-  44 1.94  47 1.96  48 2.15
 135  0.907  0.500  0.574-  45 1.96  13 1.96  44 2.02
 136  0.051  0.334  0.554-  44 1.96  28 1.96  45 2.04
 137  0.912  0.332  0.647-  49 1.79  45 2.05  50 2.13
 138  0.696  0.332  0.606-  46 1.96  45 1.98  50 2.09
 139  0.407  0.334  0.575-  47 1.97  31 1.98  46 2.00
 140  0.551  0.500  0.555-  14 1.96  46 1.96  47 2.06
 141  0.411  0.500  0.650-  51 1.86  47 2.05  48 2.09
 142  0.344  0.500  0.735-  51 1.85  48 1.87
 143  0.051  0.500  0.710-  49 2.00  17 2.00  48 2.05
 144  0.193  0.334  0.683-  32 1.96  48 1.96  49 2.10
 145  0.843  0.337  0.733-  49 1.86  50 1.90
 146  0.554  0.332  0.709-  35 2.00  51 2.01  50 2.02
 147  0.692  0.500  0.679-  50 1.95  18 1.95  51 2.13

IMPORTANT INFORMATION: All symmetrisations will be switched off!
NOSYMM: (Re-)initialisation of all symmetry stuff for point group C_1.

[...]
   O          53.884          3.927         10.036          1.85852182
   O          56.071          3.953         10.238          1.89585962
   O          55.833          3.950         10.216          1.89182803
   O          55.078          3.941         10.147          1.87899497
   O          37.980          3.704          8.426          1.56032375
   O          55.095          3.941         10.148          1.87929254
   O          57.793          3.973         10.394          1.92474858
   O          40.586          3.745          8.710          1.61296991
   O          55.408          3.945         10.177          1.88461078
   O          58.289          3.978         10.438          1.93299662

  vdW correction parametrized for the method pbe

  IVDW =  21
  VDW_RADIUS =    50.000 A
  VDW_IDAMPF =  0
  VDW_S6 =     1.000
  VDW_SR =     0.950
  VDW_D =    20.000
  LVDW_ONECELL = F F F
  LVDW_SAMETYPE T T T T
  LVDW_EWALD = F

  Number of pair interactions contributing to vdW energy: 1668620
  Edisp (eV):  -17.07323

  FORCE on cell =-STRESS in cart. coord.  units (eV):
  Direction    XX          YY          ZZ          XY          YZ          ZX
  Alpha Z  2345.55001  2345.55001  2345.55001
  Ewald  464839.84431457971.60547************     0.00026     0.00137 -1728.87661
  Hartree485915.77165481764.38501************    -0.00019     0.00059 -1180.21056
  E(xc)   -5163.00915 -5167.06913 -5173.85038    -0.00000     0.00000    -1.28995
  Local  ************************958847.19775     0.00031    -0.00177  2915.85458
  n-local -3152.84522 -3139.28329 -3185.92151    -0.00010     0.00001     4.06344
  augment  3167.68694  3165.47857  3157.22351    -0.00001    -0.00001     1.10226
  Kinetic 17024.67643 17137.62362 17213.37361     0.00010    -0.00014    -6.60174
  Fock        0.00000     0.00000     0.00000     0.00000     0.00000     0.00000
  vdW       -22.12905   -25.69091   -21.21975    -0.00000    -0.00000     0.11835
  Total     -43.37629    -3.90294    -5.73754     0.00037     0.00004     4.15976
  in kB     -20.46575    -1.84148    -2.70708     0.00018     0.00002     1.96265

 VOLUME and BASIS-vectors are now :
  energy-cutoff  :      600.00
  volume of cell :     3395.75
      direct lattice vectors                 reciprocal lattice vectors
    10.494937820  0.000000000  0.000000000     0.095284033 -0.000000000  0.000000000
     0.000000000 11.517876715  0.000000000     0.000000000  0.086821558  0.000000000
     0.000000000  0.000000000 28.092027652     0.000000000  0.000000000  0.035597288

  length of vectors
    10.494937820 11.517876715 28.092027652     0.095284033  0.086821558  0.035597288

 FORCES acting on ions:
    Electron-Ion                     Ewald-Force                    Non-Local-Force
   -.518E+02 -.683E+02 -.344E+03   0.568E+02 0.751E+02 0.345E+03   -.492E+01 -.671E+01 -.601E+00
   -.518E+02 0.683E+02 -.344E+03   0.568E+02 -.751E+02 0.345E+03   -.492E+01 0.671E+01 -.601E+00
   0.167E+02 0.139E-02 -.206E+04   -.593E+02 -.262E-02 0.206E+04   0.426E+02 0.575E-03 -.223E+01
   0.448E+01 -.769E-01 0.323E+04   0.559E+00 0.819E-01 -.323E+04   -.150E+01 -.134E-02 -.438E+01
   0.526E+01 -.196E+00 0.265E+04   -.702E+01 0.201E+00 -.266E+04   0.119E+00 -.137E-02 0.134E+00
   0.447E+01 0.525E-01 0.323E+04   0.545E+00 -.529E-01 -.322E+04   -.149E+01 0.147E-03 -.438E+01
   0.405E+01 0.229E-01 0.265E+04   -.584E+01 -.245E-01 -.266E+04   0.128E+00 0.456E-03 0.132E+00
   -.126E+01 0.138E+00 0.121E+04   0.106E+01 -.138E+00 -.121E+04   0.177E+00 -.119E-01 -.196E+00
   -.123E+01 -.181E+01 0.766E+03   0.129E+01 0.179E+01 -.766E+03   0.128E+00 0.372E-01 0.107E+00
   -.507E-02 -.421E+00 0.121E+04   -.183E+00 0.411E+00 -.121E+04   0.184E+00 0.172E-01 -.196E+00
   -.742E+01 0.694E-01 0.759E+03   0.747E+01 -.745E-01 -.758E+03   0.210E+00 0.128E-02 0.113E+00
   -.487E+01 -.195E+01 -.750E+03   0.455E+01 0.194E+01 0.749E+03   0.273E+00 -.240E-01 -.191E+00
   -.135E+02 -.487E+01 -.112E+04   0.137E+02 0.490E+01 0.112E+04   0.276E+00 0.128E-01 0.214E+00
   0.138E+01 -.252E+01 -.724E+03   -.166E+01 0.252E+01 0.724E+03   0.283E+00 0.122E-01 -.134E+00
   -.380E+01 -.168E+01 -.115E+04   0.399E+01 0.169E+01 0.115E+04   0.284E+00 -.267E-01 0.164E+00
   0.282E+02 -.120E+02 -.267E+04   -.290E+02 0.120E+02 0.267E+04   0.716E+00 0.564E-01 -.856E+00
   -.888E+02 -.225E+02 -.304E+04   0.887E+02 0.223E+02 0.304E+04   0.120E+01 0.174E+00 0.166E+01
   -.986E+01 -.459E+02 -.258E+04   0.915E+01 0.459E+02 0.258E+04   0.721E+00 0.862E-01 -.589E+00
   -.603E+02 -.326E+02 -.303E+04   0.601E+02 0.325E+02 0.303E+04   0.121E+01 0.272E-01 0.162E+01
   0.448E+01 0.769E-01 0.323E+04   0.559E+00 -.819E-01 -.323E+04   -.150E+01 0.134E-02 -.438E+01
   0.525E+01 0.145E-04 0.265E+04   -.703E+01 -.303E-05 -.266E+04   0.126E+00 0.104E-05 0.131E+00
   0.438E+01 -.106E-04 0.323E+04   0.658E+00 0.354E-05 -.323E+04   -.150E+01 -.634E-06 -.438E+01
   0.405E+01 -.229E-01 0.265E+04   -.584E+01 0.245E-01 -.266E+04   0.128E+00 -.454E-03 0.132E+00
   -.126E+01 -.138E+00 0.121E+04   0.106E+01 0.138E+00 -.121E+04   0.177E+00 0.119E-01 -.196E+00
   -.381E+01 0.902E-04 0.763E+03   0.384E+01 -.864E-04 -.763E+03   0.194E+00 -.685E-06 0.110E+00
   0.295E+00 0.384E-04 0.121E+04   -.486E+00 -.372E-04 -.121E+04   0.171E+00 -.377E-05 -.213E+00
   -.742E+01 -.695E-01 0.759E+03   0.747E+01 0.746E-01 -.758E+03   0.210E+00 -.128E-02 0.113E+00
   -.487E+01 0.195E+01 -.750E+03   0.455E+01 -.194E+01 0.749E+03   0.273E+00 0.240E-01 -.191E+00
   -.132E+02 -.164E-03 -.114E+04   0.133E+02 0.198E-03 0.114E+04   0.369E+00 -.501E-05 0.213E+00
   -.157E+01 0.166E-03 -.740E+03   0.125E+01 -.188E-03 0.740E+03   0.277E+00 0.403E-06 -.132E+00
   -.380E+01 0.168E+01 -.115E+04   0.399E+01 -.169E+01 0.115E+04   0.284E+00 0.267E-01 0.164E+00
   0.282E+02 0.120E+02 -.267E+04   -.290E+02 -.120E+02 0.267E+04   0.716E+00 -.564E-01 -.856E+00
   -.755E+02 0.144E-03 -.305E+04   0.754E+02 -.171E-03 0.305E+04   0.116E+01 0.948E-05 0.162E+01
   0.119E+02 -.885E-04 -.266E+04   -.127E+02 0.145E-03 0.266E+04   0.651E+00 -.676E-05 -.789E+00
   -.603E+02 0.326E+02 -.303E+04   0.601E+02 -.325E+02 0.303E+04   0.121E+01 -.273E-01 0.162E+01
   0.451E+01 0.328E-05 0.323E+04   0.531E+00 -.369E-05 -.323E+04   -.150E+01 0.179E-06 -.438E+01
   0.526E+01 0.196E+00 0.265E+04   -.702E+01 -.201E+00 -.266E+04   0.119E+00 0.137E-02 0.134E+00
   0.447E+01 -.525E-01 0.323E+04   0.545E+00 0.529E-01 -.322E+04   -.149E+01 -.153E-03 -.438E+01
   0.327E+01 0.521E-05 0.265E+04   -.501E+01 -.995E-05 -.266E+04   0.112E+00 0.199E-05 0.133E+00
   -.476E+00 0.343E-04 0.121E+04   0.280E+00 -.432E-04 -.121E+04   0.124E+00 0.156E-05 -.115E+00
   -.123E+01 0.181E+01 0.766E+03   0.129E+01 -.179E+01 -.766E+03   0.128E+00 -.372E-01 0.107E+00
   -.493E-02 0.421E+00 0.121E+04   -.183E+00 -.411E+00 -.121E+04   0.184E+00 -.172E-01 -.196E+00
   -.100E+02 0.987E-04 0.746E+03   0.101E+02 -.894E-04 -.746E+03   0.216E+00 0.225E-05 0.133E+00
   -.225E+01 -.812E-04 -.749E+03   0.199E+01 0.677E-04 0.749E+03   0.108E+00 0.471E-05 -.103E+00
   -.135E+02 0.487E+01 -.112E+04   0.137E+02 -.490E+01 0.112E+04   0.276E+00 -.128E-01 0.214E+00
   0.138E+01 0.252E+01 -.724E+03   -.166E+01 -.252E+01 0.724E+03   0.283E+00 -.122E-01 -.134E+00
   -.586E+01 -.365E-03 -.118E+04   0.600E+01 0.414E-03 0.118E+04   0.300E+00 -.888E-06 0.171E+00
   0.460E+02 -.791E-03 -.266E+04   -.465E+02 0.863E-03 0.266E+04   0.409E+00 -.814E-05 -.685E+00
   -.888E+02 0.225E+02 -.304E+04   0.886E+02 -.223E+02 0.304E+04   0.120E+01 -.174E+00 0.166E+01
   -.986E+01 0.459E+02 -.258E+04   0.915E+01 -.459E+02 0.258E+04   0.721E+00 -.862E-01 -.589E+00
   0.114E+02 -.119E-03 -.298E+04   -.112E+02 0.106E-03 0.298E+04   0.932E+00 0.235E-05 0.110E+01
   -.312E+02 -.457E-01 0.218E+04   0.361E+02 0.471E-01 -.220E+04   -.673E+01 -.172E-02 0.176E+02
   -.315E+02 -.430E-01 0.218E+04   0.364E+02 0.435E-01 -.220E+04   -.673E+01 -.655E-03 0.176E+02
   0.778E+02 0.638E-01 0.133E+04   -.820E+02 -.674E-01 -.132E+04   0.346E+01 0.120E-02 -.413E+01
   0.721E+02 -.531E-01 0.162E+04   -.787E+02 0.558E-01 -.161E+04   0.701E+01 -.526E-02 -.247E+01
   -.834E+02 -.964E-01 0.186E+04   0.900E+02 0.994E-01 -.186E+04   -.640E+01 -.751E-02 -.552E+00
   -.639E+02 -.763E+00 0.101E+04   0.686E+02 0.807E+00 -.102E+04   -.492E+01 -.414E-01 0.426E+01
   0.784E+02 0.648E-02 0.133E+04   -.826E+02 0.101E-01 -.132E+04   0.343E+01 -.187E-01 -.400E+01
   0.713E+02 0.278E-01 0.162E+04   -.779E+02 -.312E-01 -.161E+04   0.703E+01 0.743E-02 -.248E+01
   -.836E+02 -.120E-02 0.186E+04   0.902E+02 0.389E-02 -.186E+04   -.639E+01 -.647E-02 -.555E+00
[...]
   0.829E+02 -.179E-03 -.103E+04   -.892E+02 0.201E-03 0.104E+04   0.626E+01 -.263E-04 -.786E+01
   0.677E+02 -.486E-03 -.683E+03   -.732E+02 0.502E-03 0.686E+03   0.556E+01 0.269E-04 -.307E+01
   -.785E+02 0.165E+01 -.441E+03   0.843E+02 -.174E+01 0.439E+03   -.583E+01 0.716E-01 0.263E+01
   -.614E+02 0.120E+02 -.122E+04   0.627E+02 -.125E+02 0.121E+04   -.182E+01 0.443E+00 0.994E+01
   0.766E+02 0.116E+02 -.100E+04   -.823E+02 -.120E+02 0.101E+04   0.567E+01 0.453E+00 -.621E+01
   0.772E+02 0.195E+01 -.697E+03   -.830E+02 -.209E+01 0.701E+03   0.586E+01 0.108E+00 -.329E+01
   -.695E+02 -.114E-03 -.445E+03   0.749E+02 0.121E-03 0.443E+03   -.552E+01 -.967E-05 0.215E+01
   -.472E+02 -.245E-03 -.124E+04   0.509E+02 0.271E-03 0.123E+04   -.408E+01 -.257E-04 0.793E+01
   0.103E+03 -.129E-03 -.218E+04   -.109E+03 0.138E-03 0.220E+04   0.552E+01 -.133E-04 -.219E+02
   0.456E+02 -.273E-03 -.192E+04   -.493E+02 0.311E-03 0.192E+04   0.369E+01 -.564E-04 -.736E+01
   -.481E+02 0.694E+01 -.159E+04   0.526E+02 -.675E+01 0.158E+04   -.464E+01 -.193E+00 0.295E+01
   0.758E+01 0.313E+02 -.217E+04   -.127E+02 -.311E+02 0.219E+04   0.497E+01 -.178E+00 -.201E+02
   0.768E+02 0.500E+02 -.187E+04   -.815E+02 -.499E+02 0.187E+04   0.459E+01 -.977E-01 -.674E+01
   -.612E+02 -.742E-03 -.148E+04   0.646E+02 0.805E-03 0.148E+04   -.356E+01 -.625E-05 0.452E+01
   -.546E+02 -.146E-03 0.757E+02   0.114E-12 -.718E-12 -.364E-11   0.546E+02 0.189E-03 -.756E+02

 POSITION                                       TOTAL-FORCE (eV/Angst)
      7.02930      6.53175     21.97176         0.014047      0.030324     -0.075588
      7.02931      4.98613     21.97176         0.013557     -0.029677     -0.075647
      6.43491      5.75894     21.90394        -0.101869     -0.000655     -0.097753
      8.55404      9.59823      8.23961         3.562768      0.003734      1.565195
      6.28143      7.67858      9.13291        -1.638566      0.003385     -1.735893
      3.30657      7.67858      8.23961         3.541417     -0.000154      1.550351
      1.03396      9.59823      9.13291        -1.664571     -0.001201     -1.741684
      9.95953      9.59935     11.85839        -0.040003     -0.009886     -0.226767
      7.66027      7.67482     12.66101         0.167528      0.012174      0.270931
      4.70677      7.67666     11.85467        -0.019519      0.005042     -0.192405
      2.40350      9.59778     12.66974         0.226890     -0.003416      0.277338
      0.92125      9.60118     15.48029        -0.069473     -0.020653     -0.345453
      9.08801      7.67416     16.18026         0.396195      0.026341      0.441955
      6.15510      7.67673     15.45598        -0.022814      0.003743     -0.246470
      3.82756      9.59891     16.20829         0.427554     -0.015660      0.447660
      2.41951      9.59117     19.18557        -0.102409      0.014971     -0.616854
     10.48869      7.66967     19.71328         0.947129     -0.000259      0.461613
      7.64965      7.67013     19.09583        -0.055563      0.023881     -0.486024
      5.26689      9.60906     19.71142         0.902989     -0.023528      0.445000
      8.55404      1.91965      8.23961         3.562773     -0.003739      1.565150
      6.28143      0.00000      9.13291        -1.654169      0.000012     -1.737888
      3.30657      0.00000      8.23961         3.556579     -0.000008      1.559654
      1.03396      1.91965      9.13291        -1.664577      0.001202     -1.741667
      9.95953      1.91853     11.85839        -0.039987      0.009881     -0.226780
      7.65512      0.00000     12.66265         0.195668      0.000003      0.277500
      4.70799     11.51788     11.85785        -0.034362     -0.000003     -0.220110
      2.40350      1.92010     12.66974         0.226856      0.003408      0.277332
      0.92125      1.91670     15.48029        -0.069513      0.020658     -0.345467
      9.07360     11.51788     16.19320         0.459400      0.000028      0.444825
      6.16010      0.00000     15.46715        -0.067899     -0.000021     -0.315526
      3.82757      1.91897     16.20829         0.427533      0.015629      0.447623
      2.41951      1.92671     19.18557        -0.102433     -0.015028     -0.616818
      0.01675      0.00000     19.71417         0.907424     -0.000018      0.459205
      7.67845     11.51788     19.16270        -0.127300      0.000049     -0.620140
      5.26688      1.90881     19.71142         0.903207      0.023554      0.445128
      8.55404      5.75894      8.23961         3.558371     -0.000000      1.552938
      6.28143      3.83929      9.13291        -1.638588     -0.003393     -1.735917
      3.30657      3.83929      8.23961         3.541485      0.000166      1.550349
      1.03396      5.75894      9.13291        -1.629801     -0.000003     -1.707961
      9.97056      5.75894     11.85228        -0.081849     -0.000008     -0.185533
      7.66027      3.84306     12.66101         0.167562     -0.012168      0.270938
      4.70677      3.84121     11.85467        -0.019516     -0.005034     -0.192431
      2.40646      5.75894     12.69173         0.237308      0.000012      0.191043
      0.94473      5.75894     15.48095        -0.160592     -0.000009     -0.291553
      9.08801      3.84371     16.18026         0.396220     -0.026382      0.442040
      6.15510      3.84115     15.45598        -0.022748     -0.003734     -0.246437
      3.84142      5.75894     16.27687         0.404889      0.000047      0.308734
      2.44552      5.75894     19.19235        -0.160569      0.000062     -0.571017
     10.48870      3.84820     19.71328         0.946907      0.000286      0.461420
      7.64965      3.84775     19.09583        -0.055542     -0.023935     -0.486053
      5.27562      5.75894     19.86160         0.995502     -0.000010      0.413182
      5.18821      7.67858      7.50000        -1.783480     -0.000301      0.906863
     10.43568      9.59823      7.50000        -1.779000     -0.000115      0.902638
      9.64726      9.59823      9.87252        -0.775690     -0.002425     -0.014783
      6.67240      9.59823      8.97923         0.417592     -0.002580     -0.080971
      8.16307      7.67858      8.39329         0.212723     -0.004550     -1.066030
      6.59271      7.67858     11.07317        -0.200144      0.002291      0.300051
      4.39979      7.67858      9.87252        -0.785477     -0.002055     -0.012416
      1.42493      7.67858      8.97923         0.424198      0.004105     -0.085226
      2.91560      9.59823      8.39329         0.218676     -0.003780     -1.067748
[...]
      2.79197      5.75894     14.66918        -0.148990     -0.000007     -0.189433
      2.05013      5.75894     17.07939         0.018194     -0.000004      0.319597
      9.51856      5.75894     16.11876         0.025078      0.000043     -0.000462
      0.53824      3.84171     15.55709        -0.075228     -0.014278      0.002474
      9.57339      3.82957     18.17071        -0.514715     -0.003573     -0.585749
      7.30622      3.82023     17.03695        -0.000443     -0.001961      0.223462
      4.27587      3.84198     16.15237        -0.014943     -0.026566      0.004631
      5.78216      5.75894     15.57710        -0.104167     -0.000003      0.022330
      4.31814      5.75894     18.26603        -0.372891     -0.000000     -0.407168
      3.60892      5.75894     20.65969        -0.152010     -0.000005      0.339609
      0.53858      5.75894     19.93841        -0.016784     -0.000018      0.025230
      2.02536      3.84192     19.19098        -0.203517     -0.000640      0.038571
      8.84201      3.88060     20.57842        -0.155101      0.008683      0.301483
      5.81037      3.82036     19.92165        -0.038513     -0.023103      0.031818
      7.26097      5.75894     19.07660        -0.216090      0.000056      0.040793
    total drift:                               -0.002498      0.000043      0.057998

  FREE ENERGIE OF THE ION-ELECTRON SYSTEM (eV)
  free  energy   TOTEN  =     -1159.54086414 eV

  energy  without entropy=    -1159.54086414  energy(sigma->0) =    -1159.54086414