 vasp.6.3.0 20Jan22 (build Mar 11 2022 13:48:16) complex

 executed on             LinuxIFC date 2024.01.22  15:38:17

 INCAR:
   SYSTEM = TiO2
   ISMEAR = 0
   SIGMA = 0.05
   EDIFF = 1E-5
   ALGO = ALL
   ISTART = 0
   IBRION = -1
   NSW = 0
   ISYM = 0
   ISIF = 2
   EDIFFG = -0.01
   DIPOL = 0.5 0.5 0.5
   IDIPOL = 3
   LDIPOL = .TRUE.
   GGA = RE
   IVDW = 13
   VDW_S8 = 1.7468
   VDW_A1 = 0.5363
   VDW_A2 = 3.0726
   ENCUT = 600
   PREC = Accurate
   LASPH = .TRUE.
   LREAL = .FALSE.
   ISPIN = 1
   NELM = 200
   NELMIN = 8
   NCORE = 2
   KPAR = 1
   LWAVE = .FALSE.
   LCHARG = .FALSE.

 POTCAR:    PAW_PBE Ti_pv 07Sep2000
 POTCAR:    PAW_PBE O 08Apr2002
|           W    W    AA    RRRRR   N    N  II  N    N   GGGG   !!!           |
|           W    W   A  A   R    R  NN   N  II  NN   N  G    G  !!!           |
|           W    W  A    A  R    R  N N  N  II  N N  N  G       !!!           |
|           W WW W  AAAAAA  RRRRR   N  N N  II  N  N N  G  GGG   !            |
|           WW  WW  A    A  R   R   N   NN  II  N   NN  G    G                |
|           W    W  A    A  R    R  N    N  II  N    N   GGGG   !!!           |
|     For optimal performance we recommend to set                             |
|       NCORE = 2 up to number-of-cores-per-socket                            |
|     This setting can greatly improve the performance of VASP for DFT.       |
|     The default, NCORE=1 might be grossly inefficient on modern             |
|     multi-core architectures or massively parallel machines. Do your        |
|     Unfortunately you need to use the default for GW and RPA                |
|     calculations (for HF NCORE is supported but not extensively tested      |
|     yet).                                                                   |

   TITEL  = PAW_PBE Ti_pv 07Sep2000
   POMASS =   47.880; ZVAL   =   10.000    mass and valenz
   ENMAX  =  222.335; ENMIN  =  166.751 eV

   TITEL  = PAW_PBE O 08Apr2002
   POMASS =   16.000; ZVAL   =    6.000    mass and valenz
   ENMAX  =  400.000; ENMIN  =  300.000 eV

  PAW_PBE Ti_pv 07Sep2000               :
  PAW_PBE O 08Apr2002                   :

 POSCAR: Ti  O
  positions in direct lattice
|           W    W    AA    RRRRR   N    N  II  N    N   GGGG   !!!           |
|           W    W   A  A   R    R  NN   N  II  NN   N  G    G  !!!           |
|           W    W  A    A  R    R  N N  N  II  N N  N  G       !!!           |
|           W WW W  AAAAAA  RRRRR   N  N N  II  N  N N  G  GGG   !            |
|           WW  WW  A    A  R   R   N   NN  II  N   NN  G    G                |
|           W    W  A    A  R    R  N    N  II  N    N   GGGG   !!!           |
|     Specifying the vdW parameters                                           |
|     VDW_S8 = 1.747                                                          |
|     VDW_A1 = 0.536                                                          |
|     VDW_A2 = 3.073                                                          |
|     in the INCAR file will overwrite the defaults for revpbe. Please        |
|     make sure that is what you intended.                                    |

 ion  position               nearest neighbor table
   1  0.750  0.625  0.287-  82 1.95 142 1.95 141 1.95  81 1.95  84 1.98 163 1.98  11 2.96  31 2.96

   2  0.000  0.750  0.287-  83 1.95  84 1.95 103 1.95 104 1.95  85 1.98  32 2.96  12 2.96
   3  0.000  0.625  0.394-  85 1.95 145 1.95  86 1.95 146 1.95  87 1.98  88 1.98  13 2.96  33 2.96

[...]

  80  0.500  0.499  0.709- 234 1.82 240 1.94 239 1.94 180 1.96 179 1.96  70 2.95  50 2.98
  81  0.750  0.750  0.245-   1 1.95  11 1.95
  82  0.750  0.750  0.329-   1 1.95  11 1.95   4 1.98
  83  0.098  0.625  0.287-   2 1.95  32 1.95  41 1.98
  84  0.902  0.625  0.287-   2 1.95  32 1.95   1 1.98
  85  0.000  0.750  0.352-   3 1.95  13 1.95   2 1.98
  86  0.000  0.750  0.435-   3 1.95  13 1.95   6 1.98
  87  0.848  0.625  0.394-   4 1.95  34 1.95   3 1.98
  88  0.152  0.625  0.394-  44 1.95  74 1.95   3 1.98
  89  0.750  0.750  0.458-   5 1.95  15 1.95   4 1.98
  90  0.750  0.750  0.542-   5 1.95  15 1.95   8 2.11
  91  0.098  0.625  0.500-   6 1.95  36 1.95  45 1.98
  92  0.902  0.625  0.500-   6 1.95  36 1.95   5 1.98
  93  1.000  0.750  0.565-  17 1.89   7 1.89   6 2.00
  94  0.000  0.750  0.649-  10 1.81   7 2.02  17 2.02
  95  0.850  0.625  0.607-   7 1.95   8 1.97  38 1.97
  96  0.150  0.625  0.607-   7 1.95  48 1.97  78 1.97
  97  0.750  0.750  0.672-   8 1.86   9 2.10  19 2.10
  98  0.749  0.750  0.756-   9 1.83  19 1.83
  99  0.094  0.625  0.719-  40 1.95  10 1.95  49 2.03
 100  0.906  0.625  0.719-  40 1.95  10 1.95   9 2.03
 101  0.750  0.000  0.245-  11 1.95  21 1.95
 102  0.750  0.000  0.329-  11 1.95  21 1.95  14 1.98
 103  0.098  0.875  0.287-   2 1.95  12 1.95  51 1.98
 104  0.902  0.875  0.287-   2 1.95  12 1.95  11 1.98
 105  0.000  0.000  0.352-  13 1.95  23 1.95  12 1.98
 106  0.000  0.000  0.435-  13 1.95  23 1.95  16 1.98
 107  0.848  0.875  0.394-   4 1.95  14 1.95  13 1.98
 108  0.152  0.875  0.394-  44 1.95  54 1.95  13 1.98
 109  0.750  0.000  0.458-  15 1.95  25 1.95  14 1.98
 110  0.750  0.000  0.542-  15 1.95  25 1.95  18 2.11
 111  0.098  0.875  0.500-   6 1.95  16 1.95  55 1.98
 112  0.902  0.875  0.500-   6 1.95  16 1.95  15 1.98
 113  1.000  0.000  0.565-  27 1.89  17 1.89  16 2.00
 114  1.000  1.000  0.649-  20 1.81  17 2.02  27 2.02
 115  0.850  0.875  0.607-  17 1.95   8 1.97  18 1.97
 116  0.150  0.875  0.607-  17 1.95  48 1.97  58 1.97
 117  0.750  0.000  0.672-  18 1.86  29 2.10  19 2.10
 118  0.750  1.000  0.756-  19 1.83  29 1.83
 119  0.094  0.875  0.719-  10 1.95  20 1.95  59 2.03
 120  0.906  0.875  0.719-  10 1.95  20 1.95  19 2.03
 121  0.750  0.250  0.245-  21 1.95  31 1.95
 122  0.750  0.250  0.329-  21 1.95  31 1.95  24 1.98
 123  0.098  0.125  0.287-  12 1.95  22 1.95  61 1.98
 124  0.902  0.125  0.287-  12 1.95  22 1.95  21 1.98
 125  0.000  0.250  0.352-  23 1.95  33 1.95  22 1.98
 126  0.000  0.250  0.435-  23 1.95  33 1.95  26 1.98
 127  0.848  0.125  0.394-  14 1.95  24 1.95  23 1.98
 128  0.152  0.125  0.394-  54 1.95  64 1.95  23 1.98
 129  0.750  0.250  0.458-  25 1.95  35 1.95  24 1.98
 130  0.750  0.250  0.542-  25 1.95  35 1.95  28 2.11
 131  0.098  0.125  0.500-  16 1.95  26 1.95  65 1.98
 132  0.902  0.125  0.500-  16 1.95  26 1.95  25 1.98
 133  1.000  0.250  0.565-  37 1.89  27 1.89  26 2.00
 134  1.000  0.250  0.649-  30 1.81  37 2.02  27 2.02
 135  0.850  0.125  0.607-  27 1.95  18 1.97  28 1.97
 136  0.150  0.125  0.607-  27 1.95  58 1.97  68 1.97
 137  0.750  0.250  0.672-  28 1.86  29 2.10  39 2.10
 138  0.750  0.250  0.756-  39 1.83  29 1.83
 139  0.094  0.125  0.719-  30 1.95  20 1.95  69 2.03
[...]
 226  0.500  0.500  0.435-  43 1.95  73 1.95  76 1.98
 227  0.348  0.375  0.394-  64 1.95  74 1.95  73 1.98
 228  0.652  0.375  0.394-  24 1.95  34 1.95  73 1.98
 229  0.250  0.500  0.458-  45 1.95  75 1.95  74 1.98
 230  0.250  0.500  0.542-  45 1.95  75 1.95  78 2.11
 231  0.598  0.375  0.500-  66 1.95  76 1.95  35 1.98
 232  0.402  0.375  0.500-  66 1.95  76 1.95  75 1.98
 233  0.500  0.500  0.565-  77 1.89  47 1.90  76 2.00
 234  0.500  0.500  0.649-  80 1.82  47 2.01  77 2.01
 235  0.350  0.375  0.607-  77 1.95  78 1.97  68 1.97
 236  0.650  0.375  0.607-  77 1.95  38 1.97  28 1.97
 237  0.249  0.500  0.672-  78 1.86  49 2.10  79 2.10
 238  0.251  0.500  0.756-  79 1.83  49 1.84
 239  0.594  0.374  0.718-  80 1.94  70 1.94  39 2.03
 240  0.406  0.374  0.718-  80 1.94  70 1.94  79 2.03

IMPORTANT INFORMATION: All symmetrisations will be switched off!
NOSYMM: (Re-)initialisation of all symmetry stuff for point group C_1.

                                     Primitive cell

  volume of cell :    4700.2961

  direct lattice vectors                    reciprocal lattice vectors
    13.003980404  0.000000000  0.000000000     0.076899531  0.000000000  0.000000000
     0.000000000 11.830378115  0.000000000     0.000000000  0.084528152  0.000000000
     0.000000000  0.000000000 30.552748813     0.000000000  0.000000000  0.032730279

  length of vectors
    13.003980404 11.830378115 30.552748813     0.076899531  0.084528152  0.032730279

  position of ions in fractional coordinates (direct lattice)
     0.750000000  0.625000000  0.287188045
     0.000000000  0.750000000  0.287188045
     0.000000000  0.625000000  0.393594023
     0.750000000  0.750000000  0.393594023
     0.750000000  0.625000000  0.500000000
     0.000000000  0.750000000  0.500000000
     0.999999939  0.625012602  0.604131190
     0.750021775  0.750035515  0.610696778
     0.750003064  0.625099460  0.720187232
     0.000000016  0.750048202  0.708165271
     0.750000000  0.875000000  0.287188045
     0.000000000  0.000000000  0.287188045
     0.000000000  0.875000000  0.393594023
     0.750000000  0.000000000  0.393594023
     0.750000000  0.875000000  0.500000000
     0.000000000  0.000000000  0.500000000
     0.999999991  0.875008991  0.604144304
     0.749983712  0.000012875  0.610796716
     0.749876203  0.874991967  0.720525488
     0.999999989  0.999985733  0.708180187
     0.750000000  0.125000000  0.287188045
     0.000000000  0.250000000  0.287188045
     0.000000000  0.125000000  0.393594023
     0.750000000  0.250000000  0.393594023
     0.750000000  0.125000000  0.500000000
     0.000000000  0.250000000  0.500000000
     0.000000067  0.124986485  0.604150370
     0.750020773  0.249966864  0.610793409
     0.749936140  0.125009463  0.720500285
     0.000000014  0.249968494  0.708178592
     0.750000000  0.375000000  0.287188045
     0.000000000  0.500000000  0.287188045
     0.000000000  0.375000000  0.393594023
     0.750000000  0.500000000  0.393594023
     0.750000000  0.375000000  0.500000000
     0.000000000  0.500000000  0.500000000
     0.000000084  0.374994155  0.604134382
     0.750042567  0.499977077  0.610710241
     0.750059276  0.375070994  0.720471486
     0.999999993  0.500046918  0.708154109
     0.250000000  0.625000000  0.287188045
     0.500000000  0.750000000  0.287188045
     0.500000000  0.625000000  0.393594023
     0.250000000  0.750000000  0.393594023
     0.250000000  0.625000000  0.500000000
     0.500000000  0.750000000  0.500000000
     0.499999957  0.624723114  0.604426797
     0.249978087  0.750035507  0.610696776
     0.249996934  0.625099468  0.720187222
     0.500000013  0.750558309  0.708051210
     0.250000000  0.875000000  0.287188045
     0.500000000  0.000000000  0.287188045
     0.500000000  0.875000000  0.393594023
     0.250000000  0.000000000  0.393594023
     0.250000000  0.875000000  0.500000000
     0.500000000  0.000000000  0.500000000
     0.499999960  0.874829590  0.604010476
     0.250016350  0.000012902  0.610796720
     0.250123805  0.874991976  0.720525490
     0.499999993  0.000021181  0.708009690
[...]
     0.500000000  0.500000000  0.435304973
     0.347999548  0.375000000  0.393594023
     0.652000452  0.375000000  0.393594023
     0.250000000  0.500000000  0.458289049
     0.250000000  0.500000000  0.541710951
     0.597999548  0.375000000  0.500000000
     0.402000452  0.375000000  0.500000000
     0.499999988  0.500009952  0.565445434
[...]
   3.25099510 10.35158085 15.27637441
   6.50199020  0.00000000 15.27637441
   6.50198968 10.34956484 18.45418034
   3.25120772  0.00015263 18.66151877
   3.25260506 10.35148592 22.01403431
   6.50199011  0.00025058 21.63164221
[...]
   6.50199020  5.91518906 13.29976351
   4.52537931  4.43639179 12.02537931
   8.47860110  4.43639179 12.02537931
   3.25099510  5.91518906 14.00199020
   3.25099510  5.91518906 16.55075861
   7.77637441  4.43639179 15.27637441
   5.22760600  4.43639179 15.27637441
   6.50199004  5.91530680 17.27591230
   6.50199033  5.91455267 19.83683155
   4.55288322  4.43640225 18.55266361
   8.45109701  4.43640221 18.55266318
   3.24421045  5.91558211 20.51998956
   3.26640132  5.91880495 23.09439213
   7.72931080  4.42764771 21.93714797
   5.27466957  4.42764778 21.93714791

--------------------------------------- Iteration      FINAL  ---------------------------------------

--------------------OUTCAR has been truncated-------------------------

[...]

--------------------OUTCAR has been truncated-------------------------

  FORCE on cell =-STRESS in cart. coord.  units (eV):
  Direction    XX          YY          ZZ          XY          YZ          ZX
  Alpha Z  4654.20310  4654.20310  4654.20310
  Ewald  981353.95808999113.87322************    -0.00000    -2.03956     0.00013
  Hartree************************************    -0.00002    -0.96646     0.00008
  E(xc)   -8617.99141 -8590.74845 -8632.60204    -0.00000    -0.00604     0.00000
  Local  ************************************     0.00004     2.97665    -0.00020
  n-local -5338.85016 -5262.63657 -5385.31268     0.00000    -0.04913     0.00001
  augment  5215.45505  5201.53452  5217.70433    -0.00001     0.00284    -0.00000
  Kinetic 28642.17049 28169.39063 28691.32135     0.00002     0.08673    -0.00002
  Fock        0.00000     0.00000     0.00000     0.00000     0.00000     0.00000
  vdW      -130.36367  -129.90648  -116.93615     0.00000     0.00210    -0.00000
  Total      14.29517   -29.94456   -32.09962     0.00003     0.00713    -0.00000
  in kB       4.87276   -10.20712   -10.94171     0.00001     0.00243    -0.00000

 VOLUME and BASIS-vectors are now :
  energy-cutoff  :      600.00
  volume of cell :     4700.30
      direct lattice vectors                 reciprocal lattice vectors
    13.003980404  0.000000000  0.000000000     0.076899531  0.000000000  0.000000000
     0.000000000 11.830378115  0.000000000     0.000000000  0.084528152  0.000000000
     0.000000000  0.000000000 30.552748813     0.000000000  0.000000000  0.032730279

  length of vectors
    13.003980404 11.830378115 30.552748813     0.076899531  0.084528152  0.032730279

 FORCES acting on ions:
    Electron-Ion                     Ewald-Force                    Non-Local-Force
   0.919E-02 0.608E-02 0.380E+04   -.930E-02 -.603E-02 -.380E+04   0.365E-04 -.976E-05 0.454E+00
   -.195E-04 0.406E-02 0.398E+04   0.275E-07 -.400E-02 -.397E+04   0.927E-06 -.529E-05 -.403E+01
   -.732E-05 0.173E-01 0.193E+04   -.200E-06 -.172E-01 -.193E+04   0.309E-05 0.652E-05 -.466E-01
   0.375E-01 0.356E-01 0.192E+04   -.378E-01 -.350E-01 -.192E+04   0.775E-04 0.998E-05 0.205E+00
   0.366E+00 0.152E+00 -.215E+02   -.368E+00 -.152E+00 0.223E+02   0.414E-03 0.294E-04 -.139E+00
   -.125E-04 -.105E-01 -.921E+01   0.619E-05 0.139E-01 0.811E+01   0.108E-05 -.777E-03 0.357E+00
   -.101E-03 0.754E-01 -.190E+04   0.105E-03 -.742E-01 0.190E+04   0.155E-05 -.642E-03 0.888E-02
   0.207E+00 0.128E+00 -.196E+04   -.192E+00 -.123E+00 0.196E+04   -.581E-02 -.365E-02 -.896E-01
   -.152E+01 0.924E+00 -.379E+04   0.148E+01 -.918E+00 0.379E+04   0.353E-01 -.261E-03 -.232E+00
   0.701E-04 0.646E+00 -.381E+04   -.752E-04 -.652E+00 0.381E+04   0.219E-05 -.206E-02 0.102E+01
   0.539E-02 0.386E-02 0.380E+04   -.557E-02 -.354E-02 -.380E+04   0.574E-04 -.326E-04 0.454E+00
   -.251E-05 -.222E-02 0.398E+04   0.100E-06 0.224E-02 -.397E+04   0.791E-05 -.393E-05 -.403E+01
   -.956E-05 -.373E-02 0.193E+04   0.258E-06 0.395E-02 -.193E+04   0.392E-05 0.104E-04 -.467E-01
   0.531E-02 -.109E-01 0.192E+04   -.597E-02 0.112E-01 -.192E+04   0.160E-03 0.332E-04 0.204E+00
   0.146E-01 0.257E-01 -.214E+02   -.159E-01 -.108E-01 0.222E+02   0.255E-03 -.113E-02 -.141E+00
   -.138E-04 -.749E-01 -.939E+01   0.673E-05 0.772E-01 0.829E+01   0.234E-05 -.419E-03 0.357E+00
   0.376E-04 -.871E-01 -.190E+04   -.361E-04 0.852E-01 0.190E+04   -.225E-05 -.789E-03 0.892E-02
   -.224E+00 0.371E-01 -.197E+04   0.234E+00 -.419E-01 0.197E+04   -.145E-02 -.356E-04 -.826E-01
   -.109E+01 0.591E+00 -.379E+04   0.113E+01 -.626E+00 0.379E+04   0.244E-02 -.224E-02 -.224E+00
   0.112E-04 0.343E+00 -.381E+04   0.336E-05 -.357E+00 0.381E+04   -.251E-05 0.117E-02 0.104E+01
   0.472E-02 -.610E-02 0.380E+04   -.491E-02 0.603E-02 -.380E+04   0.695E-04 0.557E-05 0.454E+00
   -.152E-04 -.405E-02 0.398E+04   0.102E-06 0.400E-02 -.397E+04   0.267E-05 0.246E-05 -.403E+01
   -.115E-04 -.173E-01 0.193E+04   0.693E-06 0.172E-01 -.193E+04   0.354E-05 0.509E-05 -.468E-01
   0.278E-01 -.352E-01 0.192E+04   -.282E-01 0.346E-01 -.192E+04   0.924E-04 -.764E-05 0.204E+00
   -.408E-01 -.146E+00 -.215E+02   0.395E-01 0.144E+00 0.224E+02   0.353E-03 0.843E-04 -.142E+00
   -.975E-05 0.119E-01 -.942E+01   0.184E-05 -.153E-01 0.832E+01   0.222E-05 0.767E-03 0.357E+00
   0.204E-03 -.147E+00 -.190E+04   -.200E-03 0.146E+00 0.190E+04   -.746E-06 0.130E-02 0.126E-01
   -.470E-01 -.211E+00 -.197E+04   0.648E-01 0.207E+00 0.197E+04   -.537E-02 0.279E-02 -.834E-01
   -.340E+00 -.109E+00 -.379E+04   0.376E+00 0.101E+00 0.379E+04   -.365E-02 -.104E-02 -.220E+00
   0.561E-04 -.119E+01 -.381E+04   -.500E-04 0.120E+01 0.381E+04   -.727E-06 0.179E-02 0.103E+01
   0.852E-02 -.382E-02 0.380E+04   -.863E-02 0.354E-02 -.380E+04   0.236E-04 0.333E-04 0.454E+00
   -.344E-05 0.221E-02 0.398E+04   0.290E-07 -.224E-02 -.397E+04   0.904E-05 0.685E-05 -.403E+01
   -.916E-05 0.374E-02 0.193E+04   0.154E-06 -.393E-02 -.193E+04   0.266E-05 -.167E-04 -.467E-01
   0.598E-01 0.105E-01 0.192E+04   -.599E-01 -.108E-01 -.192E+04   -.231E-04 -.388E-04 0.205E+00
   0.301E+00 -.312E-01 -.216E+02   -.303E+00 0.179E-01 0.225E+02   0.149E-03 0.107E-02 -.140E+00
   -.944E-06 0.782E-01 -.922E+01   0.360E-06 -.804E-01 0.812E+01   -.699E-06 0.303E-03 0.357E+00
   0.295E-03 0.113E+00 -.190E+04   -.295E-03 -.111E+00 0.190E+04   0.269E-06 0.310E-03 0.973E-02
   0.453E+00 0.233E-01 -.196E+04   -.431E+00 -.183E-01 0.196E+04   -.845E-02 0.233E-03 -.917E-01
   -.165E+01 -.118E+01 -.379E+04   0.176E+01 0.122E+01 0.379E+04   -.188E-01 0.580E-02 -.216E+00
   0.223E-04 0.528E-01 -.381E+04   -.169E-04 -.409E-01 0.381E+04   0.285E-05 0.637E-03 0.102E+01
   -.920E-02 0.608E-02 0.380E+04   0.930E-02 -.603E-02 -.380E+04   -.384E-04 -.684E-05 0.454E+00
   0.207E-04 0.100E-01 0.398E+04   -.308E-07 -.981E-02 -.397E+04   -.418E-05 -.241E-04 -.403E+01
   0.932E-05 0.552E-01 0.193E+04   0.214E-06 -.522E-01 -.193E+04   -.170E-05 -.608E-03 -.466E-01
   -.375E-01 0.356E-01 0.192E+04   0.378E-01 -.350E-01 -.192E+04   -.737E-04 0.109E-04 0.205E+00
   -.366E+00 0.152E+00 -.215E+02   0.368E+00 -.152E+00 0.223E+02   -.414E-03 0.296E-04 -.139E+00
   -.388E-05 0.478E+00 -.970E+01   0.135E-04 -.489E+00 0.863E+01   -.178E-06 0.788E-02 0.350E+00
   -.724E-04 0.229E+00 -.190E+04   0.703E-04 -.165E+00 0.190E+04   -.215E-05 -.270E-01 0.218E-01
   -.208E+00 0.128E+00 -.196E+04   0.193E+00 -.123E+00 0.196E+04   0.581E-02 -.365E-02 -.896E-01
   0.152E+01 0.924E+00 -.379E+04   -.148E+01 -.918E+00 0.379E+04   -.353E-01 -.262E-03 -.232E+00
   0.819E-04 0.235E+01 -.381E+04   -.717E-04 -.257E+01 0.381E+04   -.644E-05 0.438E-01 0.111E+01
   -.538E-02 0.386E-02 0.380E+04   0.557E-02 -.354E-02 -.380E+04   -.721E-04 -.384E-04 0.454E+00
   0.139E-04 -.119E-02 0.398E+04   -.113E-06 0.122E-02 -.397E+04   -.327E-05 -.762E-05 -.403E+01
   0.110E-04 0.491E-01 0.193E+04   -.339E-06 -.468E-01 -.193E+04   -.125E-05 -.559E-03 -.468E-01
   -.530E-02 -.109E-01 0.192E+04   0.597E-02 0.112E-01 -.192E+04   -.152E-03 0.316E-04 0.204E+00
   -.146E-01 0.257E-01 -.214E+02   0.159E-01 -.108E-01 0.222E+02   -.254E-03 -.114E-02 -.141E+00
   0.145E-04 -.191E-01 -.851E+01   -.556E-05 0.205E-01 0.741E+01   0.723E-06 0.459E-03 0.349E+00
   -.627E-04 -.927E+00 -.189E+04   0.600E-04 0.933E+00 0.189E+04   0.891E-06 -.202E-02 -.176E-01
   0.224E+00 0.373E-01 -.197E+04   -.234E+00 -.421E-01 0.197E+04   0.145E-02 -.326E-04 -.826E-01
   0.109E+01 0.591E+00 -.379E+04   -.113E+01 -.627E+00 0.379E+04   -.243E-02 -.224E-02 -.224E+00
   0.170E-04 -.807E+00 -.381E+04   -.125E-04 0.829E+00 0.380E+04   -.445E-05 -.431E-02 0.105E+01
[...]
   -.533E+02 -.202E-01 0.115E+04   0.573E+02 0.196E-01 -.115E+04   -.355E+01 0.113E-02 0.157E+00
   0.533E+02 -.202E-01 0.115E+04   -.573E+02 0.196E-01 -.115E+04   0.355E+01 0.113E-02 0.157E+00
   -.114E+00 0.186E-01 0.497E+03   0.115E+00 -.204E-01 -.501E+03   -.144E-02 0.418E-02 0.415E+01
   -.454E+00 0.836E-01 -.539E+03   0.455E+00 -.833E-01 0.546E+03   0.146E-02 0.917E-03 -.719E+01
   -.553E+02 -.218E+00 -.675E+01   0.600E+02 0.214E+00 0.649E+01   -.521E+01 0.111E-01 0.358E+00
   0.553E+02 -.218E+00 -.675E+01   -.600E+02 0.214E+00 0.649E+01   0.521E+01 0.111E-01 0.358E+00
   0.473E-04 -.396E+00 -.643E+03   -.488E-04 0.443E+00 0.637E+03   0.351E-05 -.498E-01 0.653E+01
   -.291E-04 -.145E+01 -.163E+04   0.373E-04 0.159E+01 0.162E+04   -.667E-05 -.155E+00 0.267E+01
   -.273E+02 0.104E-02 -.115E+04   0.303E+02 -.296E-01 0.115E+04   -.296E+01 0.278E-01 0.886E+00
   0.273E+02 0.132E-02 -.115E+04   -.303E+02 -.299E-01 0.115E+04   0.296E+01 0.278E-01 0.886E+00
   0.116E+01 0.727E+00 -.183E+04   -.126E+01 -.797E+00 0.184E+04   0.106E+00 0.574E-01 -.225E+01
   -.304E+01 -.502E+00 -.274E+04   0.327E+01 0.617E+00 0.276E+04   -.245E+00 -.175E+00 -.209E+02
   -.228E+02 -.135E+00 -.236E+04   0.289E+02 0.948E-02 0.236E+04   -.624E+01 0.180E+00 -.308E+01
   0.228E+02 -.135E+00 -.236E+04   -.289E+02 0.939E-02 0.236E+04   0.624E+01 0.180E+00 -.308E+01
   0.216E-03 -.324E+00 0.941E+02   -.292E-11 -.383E-12 0.537E-10   -.143E-03 0.324E+00 -.942E+02

 POSITION                                       TOTAL-FORCE (eV/Angst)
      9.75299      7.39399      8.77438        -0.000066      0.000033     -3.375462
      0.00000      8.87278      8.77438        -0.000019      0.000048      2.808738
      0.00000      7.39399     12.02538        -0.000005      0.000070      0.542663
      9.75299      8.87278     12.02538        -0.000268      0.000621     -0.705089
      9.75299      7.39399     15.27637        -0.001739      0.000183      0.702669
      0.00000      8.87278     15.27637        -0.000006      0.002543     -0.757602
     13.00398      7.39414     18.45787         0.000004      0.000665      0.011344
      9.75327      8.87320     18.65847         0.009143      0.002115      0.013678
      9.75303      7.39516     22.00370        -0.010161      0.007385      0.069670
      0.00000      8.87335     21.63640        -0.000003     -0.006568      0.023257
      9.75299     10.35158      8.77438        -0.000119      0.000294     -3.375286
      0.00000      0.00000      8.77438         0.000005      0.000019      2.808762
      0.00000     10.35158     12.02538        -0.000006      0.000224      0.542826
      9.75299      0.00000     12.02538        -0.000510      0.000320     -0.703264
      9.75299     10.35158     15.27637        -0.001046      0.013853      0.711568
      0.00000      0.00000     15.27637        -0.000005      0.001849     -0.756944
     13.00398     10.35169     18.45827        -0.000001     -0.002694      0.010417
      9.75277      0.00015     18.66152         0.007760     -0.004623      0.007291
      9.75138     10.35149     22.01403         0.041628     -0.036004      0.020246
     13.00398     11.83021     21.63685         0.000012     -0.011826      0.015846
      9.75299      1.47880      8.77438        -0.000120     -0.000060     -3.375126
      0.00000      2.95759      8.77438        -0.000013     -0.000047      2.808756
      0.00000      1.47880     12.02538        -0.000008     -0.000094      0.542875
      9.75299      2.95759     12.02538        -0.000313     -0.000633     -0.703339
      9.75299      1.47880     15.27637        -0.001015     -0.001735      0.719822
      0.00000      2.95759     15.27637        -0.000006     -0.002612     -0.757291
      0.00000      1.47864     18.45845         0.000004     -0.000531      0.008132
      9.75326      2.95720     18.66142         0.012026     -0.001938      0.001140
      9.75215      1.47891     22.01326         0.029841     -0.009681      0.011353
      0.00000      2.95722     21.63680         0.000005      0.006521      0.015108
      9.75299      4.43639      8.77438        -0.000084     -0.000256     -3.375333
      0.00000      5.91519      8.77438         0.000005     -0.000026      2.808717
      0.00000      4.43639     12.02538        -0.000007     -0.000202      0.542710
      9.75299      5.91519     12.02538        -0.000079     -0.000317     -0.705098
      9.75299      4.43639     15.27637        -0.001544     -0.012325      0.710654
      0.00000      5.91519     15.27637        -0.000002     -0.001806     -0.758067
      0.00000      4.43632     18.45797         0.000002      0.002804      0.009364
      9.75354      5.91492     18.65888         0.013665      0.004609      0.011198
      9.75376      4.43723     22.01238         0.093583      0.038443      0.022507
     13.00398      5.91574     21.63605         0.000008      0.012542      0.022858
      3.25100      7.39399      8.77438         0.000061      0.000038     -3.375482
      6.50199      8.87278      8.77438         0.000016      0.000165      2.808950
      6.50199      7.39399     12.02538         0.000008      0.002397      0.542566
      3.25100      8.87278     12.02538         0.000271      0.000615     -0.705086
      3.25100      7.39399     15.27637         0.001736      0.000181      0.702664
      6.50199      8.87278     15.27637         0.000009     -0.003369     -0.741637
      6.50199      7.39071     18.46690        -0.000005      0.036353     -0.021720
      3.25071      8.87320     18.65847        -0.009152      0.002124      0.013695
      3.25096      7.39516     22.00370         0.010158      0.007382      0.069672
      6.50199      8.87939     21.63291         0.000004     -0.169797     -0.037067
      3.25100     10.35158      8.77438         0.000117      0.000287     -3.375297
      6.50199      0.00000      8.77438         0.000010      0.000024      2.809204
      6.50199     10.35158     12.02538         0.000009      0.001821      0.544678
      3.25100      0.00000     12.02538         0.000525      0.000319     -0.703254
      3.25100     10.35158     15.27637         0.001049      0.013849      0.711588
      6.50199      0.00000     15.27637         0.000009      0.001719     -0.769499
      6.50199     10.34956     18.45418        -0.000003     -0.000086     -0.003125
      3.25121      0.00015     18.66152        -0.007760     -0.004626      0.007294
      3.25261     10.35149     22.01403        -0.041642     -0.036003      0.020240
      6.50199      0.00025     21.63164        -0.000000      0.014810     -0.030662
[...]
      6.50199      5.91519     13.29976         0.000001      0.000199     -0.103224
      4.52538      4.43639     12.02538         0.439429      0.000512      0.048874
      8.47860      4.43639     12.02538        -0.439434      0.000512      0.048876
      3.25100      5.91519     14.00199        -0.000462      0.002394     -0.115497
      3.25100      5.91519     16.55076         0.002085      0.001212      0.025663
      7.77637      4.43639     15.27637        -0.497175      0.007415      0.097813
      5.22761      4.43639     15.27637         0.497179      0.007413      0.097814
      6.50199      5.91531     17.27591         0.000002     -0.003477      0.016304
      6.50199      5.91455     19.83683         0.000001     -0.019267      0.105741
      4.55288      4.43640     18.55266         0.014801     -0.000404     -0.000093
      8.45110      4.43640     18.55266        -0.014796     -0.000404     -0.000098
      3.24421      5.91558     20.51999         0.004395     -0.011371     -0.020257
      3.26640      5.91880     23.09439        -0.014697     -0.060669     -0.050001
      7.72931      4.42765     21.93715        -0.052920      0.054325      0.111420
      5.27467      4.42765     21.93715         0.052917      0.054317      0.111417
    total drift:                                0.000073      0.000406     -0.069176

  FREE ENERGIE OF THE ION-ELECTRON SYSTEM (eV)
  free  energy   TOTEN  =     -2125.85953724 eV

  energy  without entropy=    -2125.85953724  energy(sigma->0) =    -2125.85953724