 vasp.6.3.0 20Jan22 (build Mar 11 2022 13:48:16) complex

 executed on             LinuxIFC date 2024.01.22  04:01:33

 INCAR:
   SYSTEM = TiO2
   ISMEAR = 0
   SIGMA = 0.05
   EDIFF = 1E-5
   ALGO = ALL
   ISTART = 0
   IBRION = -1
   NSW = 0
   ISYM = 0
   ISIF = 2
   EDIFFG = -0.01
   DIPOL = 0.5 0.5 0.5
   IDIPOL = 3
   LDIPOL = .TRUE.
   GGA = RE
   IVDW = 13
   VDW_S8 = 1.7468
   VDW_A1 = 0.5363
   VDW_A2 = 3.0726
   ENCUT = 600
   PREC = Accurate
   LASPH = .TRUE.
   LREAL = .FALSE.
   ISPIN = 1
   NELM = 200
   NELMIN = 8
   NCORE = 2
   KPAR = 1
   LWAVE = .FALSE.
   LCHARG = .FALSE.

 POTCAR:    PAW_PBE H 15Jun2001
 POTCAR:    PAW_PBE O 08Apr2002
 POTCAR:    PAW_PBE Ti_pv 07Sep2000
 POTCAR:    PAW_PBE O 08Apr2002
|           W    W    AA    RRRRR   N    N  II  N    N   GGGG   !!!           |
|           W    W   A  A   R    R  NN   N  II  NN   N  G    G  !!!           |
|           W    W  A    A  R    R  N N  N  II  N N  N  G       !!!           |
|           W WW W  AAAAAA  RRRRR   N  N N  II  N  N N  G  GGG   !            |
|           WW  WW  A    A  R   R   N   NN  II  N   NN  G    G                |
|           W    W  A    A  R    R  N    N  II  N    N   GGGG   !!!           |
|     For optimal performance we recommend to set                             |
|       NCORE = 2 up to number-of-cores-per-socket                            |
|     This setting can greatly improve the performance of VASP for DFT.       |
|     The default, NCORE=1 might be grossly inefficient on modern             |
|     multi-core architectures or massively parallel machines. Do your        |
|     Unfortunately you need to use the default for GW and RPA                |
|     calculations (for HF NCORE is supported but not extensively tested      |
|     yet).                                                                   |

   TITEL  = PAW_PBE H 15Jun2001
   POMASS =    1.000; ZVAL   =    1.000    mass and valenz
   ENMAX  =  250.000; ENMIN  =  200.000 eV

   TITEL  = PAW_PBE O 08Apr2002
   POMASS =   16.000; ZVAL   =    6.000    mass and valenz
   ENMAX  =  400.000; ENMIN  =  300.000 eV

   TITEL  = PAW_PBE Ti_pv 07Sep2000
   POMASS =   47.880; ZVAL   =   10.000    mass and valenz
   ENMAX  =  222.335; ENMIN  =  166.751 eV

   TITEL  = PAW_PBE O 08Apr2002
   POMASS =   16.000; ZVAL   =    6.000    mass and valenz
   ENMAX  =  400.000; ENMIN  =  300.000 eV

  PAW_PBE H 15Jun2001                   :
  PAW_PBE O 08Apr2002                   :
  PAW_PBE Ti_pv 07Sep2000               :
  PAW_PBE O 08Apr2002                   :

 POSCAR:  H  O Ti  O
  positions in direct lattice
|           W    W    AA    RRRRR   N    N  II  N    N   GGGG   !!!           |
|           W    W   A  A   R    R  NN   N  II  NN   N  G    G  !!!           |
|           W    W  A    A  R    R  N N  N  II  N N  N  G       !!!           |
|           W WW W  AAAAAA  RRRRR   N  N N  II  N  N N  G  GGG   !            |
|           WW  WW  A    A  R   R   N   NN  II  N   NN  G    G                |
|           W    W  A    A  R    R  N    N  II  N    N   GGGG   !!!           |
|     Specifying the vdW parameters                                           |
|     VDW_S8 = 1.747                                                          |
|     VDW_A1 = 0.536                                                          |
|     VDW_A2 = 3.073                                                          |
|     in the INCAR file will overwrite the defaults for revpbe. Please        |
|     make sure that is what you intended.                                    |

 ion  position               nearest neighbor table
   1  0.687  0.568  0.773-   3 0.98
   2  0.687  0.432  0.773-   3 0.98
   3  0.629  0.500  0.773-   1 0.98   2 0.98  51 2.26
   4  0.810  0.833  0.295-  54 1.94  88 1.94  56 1.94  55 2.00  53 2.00   7 3.06  21 3.06   5 3.06

   5  0.594  0.667  0.326-  57 1.94 119 1.94  52 1.94  55 1.94  58 2.00  56 2.00   6 3.06  36 3.06
                             4 3.06  10 3.09
   6  0.310  0.667  0.295-  58 1.94 124 1.94  60 1.94  59 2.00  52 2.00   5 3.06  39 3.06   7 3.06

   7  0.094  0.833  0.326-  61 1.94  91 1.94  53 1.94  59 1.94  54 2.00  60 2.00   4 3.06  22 3.06
                             6 3.06   8 3.09
   8  0.946  0.833  0.422-  62 1.93  96 1.94  64 1.94  54 1.98  63 1.99  61 2.00  11 3.01   9 3.05
                            25 3.06   7 3.09
   9  0.728  0.666  0.451-  57 1.90 127 1.94  63 1.94  65 1.96  66 2.00  64 2.00  10 3.02   8 3.05
                            40 3.06  14 3.11
  10  0.446  0.666  0.422-  66 1.93 132 1.94  68 1.94  58 1.98  67 1.99  57 2.00   9 3.02  11 3.06
                            43 3.06   5 3.09
  11  0.227  0.833  0.452-  61 1.90  99 1.94  67 1.94  69 1.97  62 1.98  68 2.01   8 3.01  26 3.06
                            10 3.06  12 3.11
  12  0.087  0.834  0.550-  70 1.93 104 1.93  72 1.94  71 1.98  69 2.00  62 2.01  15 2.96  13 3.05
                            29 3.06  11 3.11
  13  0.866  0.666  0.575-  65 1.87 135 1.94  71 1.95  74 1.96  73 2.01  72 2.01  14 2.99  12 3.05
                            44 3.06  18 3.17
  14  0.585  0.667  0.549- 140 1.94  74 1.94  76 1.94  66 1.98  75 1.98  65 2.02  13 2.99  15 3.06
                            47 3.07   9 3.11
  15  0.365  0.833  0.577-  69 1.87 107 1.94  75 1.95  70 1.96  77 2.00  76 2.01  12 2.96  30 3.06
                            14 3.06
  16  0.231  0.833  0.681-  78 1.86  80 1.93 112 1.94  79 2.00  77 2.10  70 2.10  19 2.86  33 3.08
                            17 3.10
  17  0.001  0.666  0.700-  73 1.78  81 1.84 143 1.97  79 1.99  80 2.06  18 2.87  16 3.10  48 3.11

[...]

  20  0.810  0.167  0.295-  86 1.94  88 1.94 120 1.94  87 2.00  85 2.00  23 3.06  21 3.06  37 3.06

[...]

  36  0.810  0.500  0.295- 118 1.94  56 1.94 120 1.94 119 2.00 117 2.00  39 3.06   5 3.06  37 3.06

  37  0.594  0.333  0.326- 121 1.94 119 1.94 116 1.94  87 1.94 122 2.00 120 2.00  38 3.06  36 3.06
                            20 3.06  42 3.09
  38  0.310  0.333  0.295- 122 1.94 124 1.94  92 1.94 123 2.00 116 2.00  37 3.06  39 3.06  23 3.06

  39  0.094  0.500  0.326- 125 1.94 123 1.94  59 1.94 117 1.94 118 2.00 124 2.00  36 3.06   6 3.06
                            38 3.06  40 3.07
  40  0.948  0.500  0.422- 126 1.93  64 1.94 128 1.94 118 1.98 125 1.98 127 2.00  43 3.01   9 3.06
                            41 3.06  39 3.07
  41  0.728  0.334  0.451- 121 1.90 127 1.94  95 1.94 129 1.96 130 2.00 128 2.00  42 3.02  24 3.05
                            40 3.06  46 3.11
  42  0.446  0.334  0.422- 130 1.93 132 1.94 100 1.94 122 1.98 131 1.99 121 2.00  41 3.02  27 3.06
                            43 3.06  37 3.09
  43  0.227  0.500  0.453- 125 1.93  67 1.94 131 1.94 126 1.97 133 1.97 132 2.01  40 3.01  10 3.06
                            42 3.06  44 3.08
  44  0.090  0.500  0.550- 134 1.93 136 1.94  72 1.94 133 1.98 135 2.00 126 2.01  47 2.97  13 3.06
                            45 3.06  43 3.08
  45  0.866  0.334  0.575- 129 1.87 135 1.94 103 1.95 138 1.96 137 2.01 136 2.01  46 2.99  28 3.05
                            44 3.06  50 3.17
  46  0.585  0.333  0.549- 140 1.94 138 1.94 108 1.94 130 1.98 139 1.98 129 2.02  45 2.99  31 3.06
                            47 3.07  41 3.11
  47  0.367  0.500  0.580- 133 1.93 139 1.94  75 1.94 134 1.95 141 1.99 140 2.03  44 2.97  46 3.07
                            14 3.07  48 3.15
  48  0.235  0.500  0.681- 142 1.86 144 1.94  80 1.94 143 2.03 141 2.05 134 2.09  51 2.88  49 3.11
                            17 3.11  47 3.15
  49  0.001  0.334  0.700- 137 1.78 145 1.84 143 1.97 111 1.99 144 2.06  50 2.87  32 3.10  48 3.11

  50  0.729  0.334  0.677- 145 1.89 147 1.93 115 1.95 146 1.99 138 2.03 137 2.09  49 2.87  35 3.09
                            51 3.09  45 3.17
  51  0.506  0.500  0.706- 142 1.82 141 1.87  82 1.98 146 1.98 147 2.11   3 2.26  48 2.88  50 3.09
                            18 3.09
  52  0.490  0.667  0.268-   5 1.94   6 2.00
  53  0.990  0.833  0.268-   7 1.94   4 2.00
  54  0.914  0.833  0.353-   4 1.94   8 1.98   7 2.00
  55  0.630  0.833  0.321-  21 1.94   5 1.94   4 2.00
  56  0.773  0.667  0.300-  36 1.94   4 1.94   5 2.00
  57  0.625  0.667  0.395-   9 1.90   5 1.94  10 2.00
  58  0.414  0.667  0.353-   6 1.94  10 1.98   5 2.00
  59  0.130  0.667  0.321-  39 1.94   7 1.94   6 2.00
  60  0.273  0.833  0.300-  22 1.94   6 1.94   7 2.00
  61  0.125  0.833  0.395-  11 1.90   7 1.94   8 2.00
  62  0.051  0.834  0.480-   8 1.93  11 1.98  12 2.01
  63  0.766  0.833  0.447-  25 1.94   9 1.94   8 1.99
  64  0.910  0.667  0.427-   8 1.94  40 1.94   9 2.00
  65  0.764  0.666  0.520-  13 1.87   9 1.96  14 2.02
  66  0.551  0.666  0.479-  10 1.93  14 1.98   9 2.00
  67  0.266  0.667  0.448-  43 1.94  11 1.94  10 1.99
  68  0.409  0.833  0.427-  10 1.94  26 1.94  11 2.01
  69  0.264  0.833  0.521-  15 1.87  11 1.97  12 2.00
  70  0.194  0.833  0.607-  12 1.93  15 1.96  16 2.10
  71  0.905  0.833  0.573-  29 1.94  13 1.95  12 1.98
  72  0.052  0.666  0.553-  44 1.94  12 1.94  13 2.01
  73  0.913  0.668  0.645-  17 1.78  13 2.01  18 2.09
  74  0.695  0.669  0.605-  14 1.94  13 1.96  18 2.03
  75  0.406  0.666  0.574-  47 1.94  15 1.95  14 1.98
  76  0.549  0.833  0.553-  30 1.94  14 1.94  15 2.01
  77  0.412  0.834  0.646-  19 1.79  15 2.00  16 2.10
  78  0.347  0.833  0.732-  19 1.84  16 1.86
  79  0.052  0.833  0.708-  33 1.98  17 1.99  16 2.00
  80  0.194  0.666  0.681-  16 1.93  48 1.94  17 2.06
  81  0.842  0.661  0.730-  17 1.84  18 1.89
  82  0.555  0.668  0.707-  19 1.97  51 1.98  18 1.99
  83  0.695  0.834  0.679-  34 1.93  18 1.95  19 2.05
  84  0.490  0.000  0.268-  21 1.94  22 2.00
  85  0.990  0.167  0.268-  23 1.94  20 2.00
  86  0.914  0.167  0.353-  20 1.94  24 1.98  23 2.00
  87  0.630  0.167  0.321-  21 1.94  37 1.94  20 2.00
  88  0.773  0.000  0.300-   4 1.94  20 1.94  21 2.00
  89  0.625  0.000  0.395-  25 1.90  21 1.94  26 2.00
  90  0.414  0.000  0.353-  22 1.94  26 1.98  21 2.00
  91  0.130  0.000  0.321-   7 1.94  23 1.94  22 2.00
  92  0.273  0.167  0.300-  22 1.94  38 1.94  23 2.00
  93  0.125  0.167  0.395-  27 1.90  23 1.94  24 2.00
  94  0.051  0.166  0.480-  24 1.93  27 1.98  28 2.01
  95  0.766  0.167  0.447-  25 1.94  41 1.94  24 1.99
  96  0.910  0.000  0.427-  24 1.94   8 1.94  25 2.00
  97  0.764  1.000  0.520-  29 1.87  25 1.97  30 2.01
  98  0.551  1.000  0.479-  26 1.93  25 1.99  30 2.00
  99  0.266  1.000  0.448-  27 1.94  11 1.94  26 1.99
 100  0.409  0.167  0.427-  42 1.94  26 1.94  27 2.01
 101  0.264  0.167  0.521-  31 1.87  27 1.97  28 2.00
 102  0.194  0.167  0.607-  28 1.93  31 1.96  32 2.10
 103  0.905  0.167  0.573-  29 1.94  45 1.95  28 1.98
 104  0.052  1.000  0.553-  28 1.93  12 1.93  29 2.02
 105  0.913  0.000  0.645-  33 1.79  29 2.01  34 2.09
 106  0.694  1.000  0.606-  30 1.93  29 1.95  34 2.09
 107  0.405  1.000  0.574-  15 1.94  31 1.94  30 1.98
 108  0.549  0.167  0.553-  30 1.94  46 1.94  31 2.01
 109  0.412  0.166  0.646-  35 1.79  31 2.00  32 2.10
 110  0.347  0.167  0.732-  35 1.84  32 1.86
 111  0.052  0.167  0.708-  33 1.98  49 1.99  32 2.00
[...]
 133  0.266  0.500  0.522-  47 1.93  43 1.97  44 1.98
 134  0.194  0.500  0.608-  44 1.93  47 1.95  48 2.09
[...]
   6.49883529  9.49375173  8.96904170
   7.97998172  7.59500139  8.38273038
   6.44887506  7.59500139 11.03092153
   4.26887158  7.59500139  9.85177208
   1.34005082  7.59500139  8.96904170
   2.82119725  9.49375173  8.38273038
[...]
   2.74048625  5.69625051 14.58105333
   2.00456044  5.69625071 16.97747614
   9.34428215  5.69625079 16.01697864
   0.53296518  3.79943307 15.45660320
   9.41924550  3.78083963 18.02219307
   7.17224799  3.76553577 16.91490554
   4.18759974  3.79956037 16.04949920
   5.68532190  5.69625083 15.48225012
   4.25938983  5.69625142 18.12694258
   3.56470272  5.69625427 20.50164494
   0.53483716  5.69625066 19.77557087
   2.00278039  3.80187348 19.04016619
   8.68748311  3.86678156 20.40773494
   5.72304274  3.77940230 19.76832058
   7.14072922  5.69625190 18.87118785

--------------------------------------- Iteration      FINAL  ---------------------------------------

--------------------OUTCAR has been truncated-------------------------

[...]

--------------------OUTCAR has been truncated-------------------------

  FORCE on cell =-STRESS in cart. coord.  units (eV):
  Direction    XX          YY          ZZ          XY          YZ          ZX
  Alpha Z  2424.86000  2424.86000  2424.86000
  Ewald  484309.36315477582.50184************     0.00562    -0.00171 -1863.77654
  Hartree505512.84214501396.25521************     0.00152    -0.00091 -1257.59100
  E(xc)   -5194.28695 -5200.30755 -5210.96276    -0.00000    -0.00000    -1.87405
  Local  ************************998698.83428    -0.00548     0.00231  3131.11007
  n-local -3253.05574 -3225.08429 -3266.49613    -0.00026     0.00002     1.52390
  augment  3138.72660  3132.57545  3125.01644    -0.00004     0.00002    -1.37033
  Kinetic 17174.98324 17223.00760 17304.40081    -0.00010     0.00015   -19.41769
  Fock        0.00000     0.00000     0.00000     0.00000     0.00000     0.00000
  vdW       -68.41444   -71.22237   -60.94667    -0.00000    -0.00000    -0.67879
  Total     -53.21470   -29.22161   -22.30218     0.00125    -0.00013   -12.07442
  in kB     -25.95666   -14.25349   -10.87838     0.00061    -0.00006    -5.88957

 VOLUME and BASIS-vectors are now :
  energy-cutoff  :      600.00
  volume of cell :     3284.68
      direct lattice vectors                 reciprocal lattice vectors
    10.317568932  0.000000000  0.000000000     0.096922057 -0.000000000  0.000000000
     0.000000000 11.392502081  0.000000000     0.000000000  0.087777030  0.000000000
     0.000000000  0.000000000 27.944536660     0.000000000  0.000000000  0.035785170

  length of vectors
    10.317568932 11.392502081 27.944536660     0.096922057  0.087777030  0.035785170

 FORCES acting on ions:
    Electron-Ion                     Ewald-Force                    Non-Local-Force
   -.510E+02 -.657E+02 -.359E+03   0.558E+02 0.721E+02 0.359E+03   -.491E+01 -.653E+01 0.534E-01
   -.510E+02 0.657E+02 -.359E+03   0.558E+02 -.721E+02 0.359E+03   -.490E+01 0.652E+01 0.533E-01
   0.105E+02 0.379E-02 -.217E+04   -.511E+02 -.662E-02 0.218E+04   0.408E+02 0.715E-03 -.823E+01
   0.573E+01 -.110E+00 0.335E+04   -.843E+00 0.113E+00 -.334E+04   -.110E+01 -.736E-03 -.351E+01
   0.488E+01 -.253E+00 0.275E+04   -.644E+01 0.257E+00 -.276E+04   -.768E-01 -.115E-02 -.170E-01
   0.575E+01 0.986E-01 0.335E+04   -.901E+00 -.101E+00 -.334E+04   -.110E+01 0.794E-03 -.350E+01
   0.328E+01 0.414E-01 0.275E+04   -.489E+01 -.465E-01 -.276E+04   -.672E-01 0.124E-02 -.214E-01
   -.138E+00 -.160E+00 0.126E+04   -.241E-01 0.162E+00 -.126E+04   0.162E+00 -.157E-02 0.223E-01
   0.191E+01 -.229E+01 0.800E+03   -.187E+01 0.227E+01 -.800E+03   -.426E-01 0.248E-01 -.151E+00
   0.187E+01 -.240E+00 0.126E+04   -.202E+01 0.234E+00 -.126E+04   0.149E+00 0.731E-02 -.487E-02
   -.522E+01 0.231E+00 0.789E+03   0.525E+01 -.234E+00 -.789E+03   -.202E-01 0.172E-02 -.143E+00
   -.660E+01 -.237E+01 -.776E+03   0.631E+01 0.237E+01 0.776E+03   0.299E+00 0.204E-02 0.140E+00
   -.117E+02 -.449E+01 -.116E+04   0.119E+02 0.453E+01 0.116E+04   -.876E-01 -.441E-01 -.255E+00
   0.249E+01 -.242E+01 -.742E+03   -.273E+01 0.242E+01 0.742E+03   0.251E+00 0.417E-02 0.904E-01
   0.135E+01 -.234E+01 -.119E+04   -.122E+01 0.235E+01 0.119E+04   -.101E+00 -.112E-01 -.294E+00
   0.287E+02 -.126E+02 -.278E+04   -.297E+02 0.126E+02 0.278E+04   0.954E+00 0.150E-01 -.150E+00
   -.893E+02 -.278E+02 -.316E+04   0.895E+02 0.276E+02 0.316E+04   0.526E-02 0.184E+00 0.848E+00
   -.116E+02 -.547E+02 -.267E+04   0.108E+02 0.547E+02 0.267E+04   0.794E+00 -.317E-01 -.145E-01
   -.571E+02 -.348E+02 -.315E+04   0.573E+02 0.348E+02 0.315E+04   0.430E-01 0.515E-02 0.876E+00
   0.573E+01 0.110E+00 0.335E+04   -.843E+00 -.113E+00 -.334E+04   -.110E+01 0.734E-03 -.351E+01
   0.478E+01 -.566E-04 0.275E+04   -.638E+01 0.387E-04 -.276E+04   -.687E-01 -.760E-06 -.239E-01
   0.561E+01 -.454E-05 0.335E+04   -.733E+00 0.122E-04 -.334E+04   -.110E+01 0.163E-05 -.350E+01
   0.328E+01 -.415E-01 0.275E+04   -.489E+01 0.466E-01 -.276E+04   -.672E-01 -.124E-02 -.214E-01
   -.138E+00 0.160E+00 0.126E+04   -.242E-01 -.162E+00 -.126E+04   0.162E+00 0.157E-02 0.223E-01
   -.134E+01 -.222E-03 0.795E+03   0.136E+01 0.235E-03 -.794E+03   -.709E-02 -.354E-05 -.150E+00
   0.199E+01 -.122E-03 0.126E+04   -.214E+01 0.125E-03 -.126E+04   0.152E+00 -.176E-05 0.281E-02
   -.522E+01 -.231E+00 0.789E+03   0.525E+01 0.234E+00 -.789E+03   -.202E-01 -.172E-02 -.143E+00
   -.660E+01 0.237E+01 -.776E+03   0.631E+01 -.236E+01 0.776E+03   0.299E+00 -.204E-02 0.140E+00
   -.895E+01 -.624E-04 -.118E+04   0.905E+01 0.526E-04 0.118E+04   -.599E-01 0.189E-05 -.268E+00
   -.164E+01 -.586E-04 -.765E+03   0.137E+01 0.516E-04 0.765E+03   0.285E+00 0.179E-05 0.162E+00
   0.135E+01 0.234E+01 -.119E+04   -.122E+01 -.235E+01 0.119E+04   -.101E+00 0.112E-01 -.294E+00
   0.287E+02 0.126E+02 -.278E+04   -.297E+02 -.126E+02 0.278E+04   0.954E+00 -.150E-01 -.150E+00
   -.752E+02 -.501E-03 -.317E+04   0.754E+02 0.497E-03 0.317E+04   -.131E-01 0.284E-05 0.844E+00
   0.108E+02 -.811E-03 -.276E+04   -.117E+02 0.788E-03 0.276E+04   0.886E+00 0.541E-05 -.901E-01
   -.571E+02 0.348E+02 -.315E+04   0.573E+02 -.348E+02 0.315E+04   0.430E-01 -.514E-02 0.876E+00
   0.571E+01 0.278E-04 0.335E+04   -.821E+00 -.279E-04 -.335E+04   -.110E+01 0.454E-06 -.350E+01
   0.488E+01 0.253E+00 0.275E+04   -.644E+01 -.257E+00 -.276E+04   -.768E-01 0.115E-02 -.170E-01
   0.575E+01 -.986E-01 0.335E+04   -.901E+00 0.101E+00 -.334E+04   -.110E+01 -.795E-03 -.350E+01
   0.230E+01 0.220E-04 0.275E+04   -.386E+01 -.281E-04 -.276E+04   -.847E-01 -.235E-05 -.179E-01
   0.372E+00 0.201E-03 0.126E+04   -.526E+00 -.215E-03 -.126E+04   0.148E+00 0.317E-05 0.639E-01
   0.191E+01 0.229E+01 0.800E+03   -.187E+01 -.227E+01 -.800E+03   -.426E-01 -.248E-01 -.151E+00
   0.187E+01 0.240E+00 0.126E+04   -.202E+01 -.234E+00 -.126E+04   0.149E+00 -.731E-02 -.486E-02
   -.785E+01 0.776E-04 0.772E+03   0.791E+01 -.802E-04 -.772E+03   -.344E-01 -.997E-06 -.454E-01
   -.404E+01 0.157E-03 -.778E+03   0.381E+01 -.162E-03 0.778E+03   0.219E+00 0.797E-06 0.160E+00
   -.117E+02 0.449E+01 -.116E+04   0.119E+02 -.453E+01 0.116E+04   -.876E-01 0.441E-01 -.255E+00
   0.249E+01 0.242E+01 -.742E+03   -.273E+01 -.242E+01 0.742E+03   0.251E+00 -.417E-02 0.904E-01
   0.104E+01 0.165E-03 -.123E+04   -.922E+00 -.150E-03 0.123E+04   -.962E-01 -.342E-05 -.150E+00
   0.437E+02 0.870E-03 -.277E+04   -.445E+02 -.844E-03 0.277E+04   0.754E+00 -.679E-05 -.405E-01
   -.893E+02 0.278E+02 -.316E+04   0.895E+02 -.276E+02 0.316E+04   0.525E-02 -.184E+00 0.848E+00
   -.116E+02 0.547E+02 -.267E+04   0.108E+02 -.547E+02 0.267E+04   0.794E+00 0.317E-01 -.145E-01
   0.333E+02 0.279E-02 -.311E+04   -.328E+02 -.272E-02 0.311E+04   -.396E+00 -.335E-04 0.486E+00
   -.326E+02 -.442E-01 0.226E+04   0.374E+02 0.451E-01 -.228E+04   -.657E+01 -.107E-02 0.170E+02
   -.329E+02 -.419E-01 0.226E+04   0.377E+02 0.412E-01 -.228E+04   -.656E+01 0.941E-03 0.170E+02
   0.815E+02 0.254E-01 0.138E+04   -.863E+02 -.340E-01 -.137E+04   0.378E+01 0.710E-02 -.435E+01
   0.747E+02 -.901E-01 0.168E+04   -.817E+02 0.932E-01 -.167E+04   0.724E+01 -.649E-02 -.265E+01
   -.862E+02 -.117E+00 0.193E+04   0.933E+02 0.117E+00 -.193E+04   -.679E+01 -.138E-02 -.220E+00
   -.691E+02 -.989E+00 0.105E+04   0.747E+02 0.104E+01 -.106E+04   -.560E+01 -.415E-01 0.412E+01
   0.823E+02 0.344E-01 0.138E+04   -.871E+02 -.167E-01 -.137E+04   0.374E+01 -.199E-01 -.417E+01
   0.738E+02 0.727E-01 0.168E+04   -.807E+02 -.790E-01 -.167E+04   0.725E+01 0.158E-01 -.266E+01
   -.863E+02 0.815E-02 0.193E+04   0.934E+02 -.594E-02 -.193E+04   -.676E+01 -.772E-02 -.225E+00
[...]
   0.873E+02 0.378E-04 -.107E+04   -.942E+02 -.259E-04 0.108E+04   0.688E+01 -.100E-04 -.716E+01
   0.692E+02 0.250E-03 -.709E+03   -.752E+02 -.248E-03 0.712E+03   0.592E+01 -.577E-05 -.310E+01
   -.835E+02 0.119E+01 -.457E+03   0.899E+02 -.125E+01 0.454E+03   -.636E+01 0.646E-01 0.270E+01
   -.702E+02 0.155E+02 -.127E+04   0.726E+02 -.162E+02 0.126E+04   -.229E+01 0.656E+00 0.950E+01
   0.803E+02 0.162E+02 -.103E+04   -.865E+02 -.170E+02 0.103E+04   0.621E+01 0.743E+00 -.545E+01
   0.816E+02 0.170E+01 -.722E+03   -.880E+02 -.178E+01 0.725E+03   0.636E+01 0.847E-01 -.314E+01
   -.729E+02 0.167E-03 -.462E+03   0.790E+02 -.176E-03 0.460E+03   -.605E+01 0.762E-06 0.212E+01
   -.539E+02 0.324E-03 -.130E+04   0.591E+02 -.302E-03 0.129E+04   -.511E+01 -.223E-04 0.659E+01
   0.110E+03 0.281E-03 -.226E+04   -.116E+03 -.199E-03 0.228E+04   0.604E+01 -.100E-03 -.207E+02
   0.429E+02 0.172E-03 -.199E+04   -.467E+02 -.165E-03 0.199E+04   0.376E+01 -.115E-04 -.702E+01
   -.515E+02 0.782E+01 -.165E+04   0.565E+02 -.770E+01 0.165E+04   -.488E+01 -.120E+00 0.278E+01
   0.345E+01 0.367E+02 -.224E+04   -.840E+01 -.363E+02 0.226E+04   0.495E+01 -.359E+00 -.189E+02
   0.839E+02 0.561E+02 -.194E+04   -.888E+02 -.562E+02 0.195E+04   0.480E+01 0.192E-01 -.657E+01
   -.583E+02 0.872E-03 -.151E+04   0.618E+02 -.868E-03 0.151E+04   -.346E+01 -.335E-04 0.521E+01
   -.410E+02 0.353E-03 0.735E+02   0.000E+00 0.115E-11 0.136E-10   0.410E+02 -.381E-03 -.735E+02

 POSITION                                       TOTAL-FORCE (eV/Angst)
      7.09244      6.47109     21.59382        -0.090636     -0.177749     -0.010712
      7.09245      4.92140     21.59384        -0.092191      0.179797     -0.010691
      6.48570      5.69628     21.60597         0.237954     -0.002113      0.135713
      8.35439      9.49375      8.23452         3.816720      0.002854      1.775353
      6.12443      7.59500      9.11725        -1.633350      0.002398     -1.816301
      3.19561      7.59500      8.23452         3.783087     -0.001227      1.752404
      0.96564      9.49375      9.11725        -1.674362     -0.003744     -1.820959
      9.76420      9.49522     11.80409        -0.000370      0.002732      0.041288
      7.51333      7.59058     12.60331        -0.012082     -0.003344     -0.020778
      4.59760      7.59260     11.79930        -0.001200     -0.001143      0.037933
      2.34304      9.49346     12.61729        -0.020799     -0.000388     -0.019509
      0.89963      9.49673     15.37421        -0.003630      0.002570      0.029898
      8.93980      7.59079     16.07344        -0.042030     -0.006245     -0.065588
      6.03989      7.59343     15.34347        -0.006516     -0.001367      0.013498
      3.76726      9.49422     16.11122        -0.043529      0.004501     -0.057848
      2.38773      9.48587     19.01810         0.002042     -0.002775     -0.045687
      0.00627      7.58429     19.55971        -0.098819     -0.005625     -0.113399
      7.52429      7.58421     18.91343        -0.012427     -0.025085     -0.046713
      5.19665      9.50384     19.56343        -0.072309     -0.010230     -0.120463
      8.35439      1.89875      8.23452         3.816684     -0.002852      1.775281
      6.12443      0.00000      9.11725        -1.658229     -0.000019     -1.815917
      3.19561      0.00000      8.23452         3.808555      0.000010      1.768531
      0.96564      1.89875      9.11725        -1.674384      0.003754     -1.820989
      9.76420      1.89728     11.80409        -0.000393     -0.002726      0.041276
      7.50579     11.39250     12.60861        -0.016715      0.000009     -0.019633
      4.60037     11.39250     11.80361         0.001629      0.000001      0.042237
      2.34304      1.89904     12.61729        -0.020806      0.000382     -0.019519
      0.89963      1.89577     15.37421        -0.003616     -0.002573      0.029871
      8.92529     11.39250     16.09175        -0.050527     -0.000008     -0.060479
      6.04711     11.39250     15.36082        -0.001849     -0.000005      0.026366
      3.76726      1.89828     16.11122        -0.043505     -0.004505     -0.057853
      2.38773      1.90663     19.01810         0.002075      0.002760     -0.045662
      0.03192     11.39250     19.56031        -0.077439     -0.000001     -0.126195
      7.55616     11.39250     18.99029         0.005671     -0.000019     -0.056004
      5.19665      1.88866     19.56343        -0.072385      0.010185     -0.120501
      8.35439      5.69625      8.23452         3.823545      0.000001      1.766929
      6.12443      3.79750      9.11725        -1.633318     -0.002391     -1.816267
      3.19561      3.79750      8.23452         3.783066      0.001220      1.752374
      0.96564      5.69625      9.11725        -1.641872     -0.000008     -1.754815
      9.77853      5.69625     11.79839         0.005367     -0.000011      0.034541
      7.51333      3.80192     12.60331        -0.012075      0.003354     -0.020787
      4.59760      3.79990     11.79930        -0.001189      0.001145      0.037942
      2.34637      5.69625     12.64675        -0.015518     -0.000003     -0.007056
      0.92767      5.69625     15.37959         0.012718     -0.000004      0.026488
      8.93980      3.80171     16.07344        -0.042031      0.006252     -0.065596
      6.03989      3.79907     15.34347        -0.006526      0.001375      0.013475
      3.78750      5.69625     16.19648        -0.034304      0.000012     -0.038039
      2.42115      5.69625     19.03025         0.013349      0.000020     -0.046880
      0.00628      3.80821     19.55971        -0.098777      0.005625     -0.113374
      7.52429      3.80829     18.91343        -0.012454      0.025106     -0.046715
      5.21834      5.69625     19.73418        -0.118240      0.000040     -0.174034
      5.05116      7.59500      7.50000        -1.730305     -0.000147      1.008257
     10.20995      9.49375      7.50000        -1.723531      0.000205      1.002281
      9.42766      9.49375      9.85177        -1.012175     -0.001506     -0.156892
      6.49884      9.49375      8.96904         0.312879     -0.003364     -0.035732
      7.97998      7.59500      8.38273         0.305062     -0.001552     -1.064049
      6.44888      7.59500     11.03092        -0.041587      0.005194      0.382651
      4.26887      7.59500      9.85177        -1.019616     -0.002088     -0.143227
      1.34005      7.59500      8.96904         0.324846      0.009717     -0.043314
      2.82120      9.49375      8.38273         0.316524     -0.005529     -1.066836
[...]
      2.74049      5.69625     14.58105         0.024916      0.000003      0.013631
      2.00456      5.69625     16.97748        -0.024205      0.000002     -0.058567
      9.34428      5.69625     16.01698        -0.037786     -0.000004      0.000421
      0.53297      3.79943     15.45660         0.033400      0.002054     -0.005106
      9.41925      3.78084     18.02219         0.095733      0.001174      0.058644
      7.17225      3.76554     16.91491        -0.023922     -0.000287     -0.042129
      4.18760      3.79956     16.04950        -0.026412      0.001825      0.003433
      5.68532      5.69625     15.48225         0.039402     -0.000008     -0.014535
      4.25939      5.69625     18.12694         0.066665      0.000000      0.031242
      3.56470      5.69625     20.50164        -0.008044     -0.000018      0.041000
      0.53484      5.69625     19.77557        -0.040653     -0.000005      0.021165
      2.00278      3.80187     19.04017         0.062427     -0.001316     -0.027160
      8.68748      3.86678     20.40773        -0.014719     -0.001700      0.033005
      5.72304      3.77940     19.76832        -0.035058      0.004774      0.007846
      7.14073      5.69625     18.87119         0.055164     -0.000029     -0.023615
    total drift:                               -0.008261     -0.000028      0.024250

  FREE ENERGIE OF THE ION-ELECTRON SYSTEM (eV)
  free  energy   TOTEN  =     -1289.20212800 eV

  energy  without entropy=    -1289.20212800  energy(sigma->0) =    -1289.20212800