 vasp.6.3.0 20Jan22 (build Mar 11 2022 13:48:16) complex

 executed on             LinuxIFC date 2024.01.22  01:05:46

 INCAR:
   SYSTEM = TiO2
   ISMEAR = 0
   SIGMA = 0.05
   EDIFF = 1E-5
   ALGO = ALL
   ISTART = 0
   IBRION = -1
   NSW = 0
   ISYM = 0
   ISIF = 2
   EDIFFG = -0.01
   DIPOL = 0.5 0.5 0.5
   IDIPOL = 3
   LDIPOL = .TRUE.
   METAGGA = R2SCAN
   LUSE_VDW = .TRUE.
   BPARAM = 11.95
   CPARAM = 0.0093
   LASPH = .TRUE.
   ENCUT = 600
   PREC = Accurate
   LASPH = .TRUE.
   LREAL = .FALSE.
   ISPIN = 1
   NELM = 200
   NELMIN = 8
   NCORE = 2
   KPAR = 1
   LWAVE = .FALSE.
   LCHARG = .FALSE.

 POTCAR:    PAW_PBE C 08Apr2002
 POTCAR:    PAW_PBE O 08Apr2002
 POTCAR:    PAW_PBE H 15Jun2001
 POTCAR:    PAW_PBE Ti_pv 07Sep2000
 POTCAR:    PAW_PBE O 08Apr2002
|           W    W    AA    RRRRR   N    N  II  N    N   GGGG   !!!           |
|           W    W   A  A   R    R  NN   N  II  NN   N  G    G  !!!           |
|           W    W  A    A  R    R  N N  N  II  N N  N  G       !!!           |
|           W WW W  AAAAAA  RRRRR   N  N N  II  N  N N  G  GGG   !            |
|           WW  WW  A    A  R   R   N   NN  II  N   NN  G    G                |
|           W    W  A    A  R    R  N    N  II  N    N   GGGG   !!!           |
|     For optimal performance we recommend to set                             |
|       NCORE = 2 up to number-of-cores-per-socket                            |
|     This setting can greatly improve the performance of VASP for DFT.       |
|     The default, NCORE=1 might be grossly inefficient on modern             |
|     multi-core architectures or massively parallel machines. Do your        |
|     Unfortunately you need to use the default for GW and RPA                |
|     calculations (for HF NCORE is supported but not extensively tested      |
|     yet).                                                                   |

   TITEL  = PAW_PBE C 08Apr2002
   POMASS =   12.011; ZVAL   =    4.000    mass and valenz
   ENMAX  =  400.000; ENMIN  =  300.000 eV

[...]

   TITEL  = PAW_PBE H 15Jun2001
   POMASS =    1.000; ZVAL   =    1.000    mass and valenz
   ENMAX  =  250.000; ENMIN  =  200.000 eV

   TITEL  = PAW_PBE Ti_pv 07Sep2000
   POMASS =   47.880; ZVAL   =   10.000    mass and valenz
   ENMAX  =  222.335; ENMIN  =  166.751 eV

   TITEL  = PAW_PBE O 08Apr2002
   POMASS =   16.000; ZVAL   =    6.000    mass and valenz
   ENMAX  =  400.000; ENMIN  =  300.000 eV

  PAW_PBE C 08Apr2002                   :
  PAW_PBE O 08Apr2002                   :
  PAW_PBE H 15Jun2001                   :
  PAW_PBE Ti_pv 07Sep2000               :
  PAW_PBE O 08Apr2002                   :

 POSCAR:  C  O  H Ti  O
  positions in direct lattice

 METAGGA = R2SCA    LMAXTAU =  6    LMIXTAU =  F

 ion  position               nearest neighbor table
   1  0.510  0.588  0.811-   3 1.09   5 1.10   6 1.10   2 1.45
   2  0.539  0.498  0.782-   4 1.00   1 1.45  86 2.18
   3  0.427  0.597  0.810-   1 1.09
   4  0.615  0.493  0.780-   2 1.00
   5  0.534  0.564  0.845-   1 1.10
   6  0.549  0.667  0.802-   1 1.10
   7  0.750  0.625  0.287-  88 1.95 148 1.95 147 1.95  87 1.95  90 1.98 169 1.98  17 2.96  37 2.96

   8  0.000  0.750  0.287-  89 1.95  90 1.95 109 1.95 110 1.95  91 1.98  38 2.96  18 2.96
   9  0.000  0.625  0.394-  91 1.95 151 1.95  92 1.95 152 1.95  93 1.98  94 1.98  19 2.96  39 2.96

[...]

  87  0.750  0.750  0.245-   7 1.95  17 1.95
  88  0.750  0.750  0.329-   7 1.95  17 1.95  10 1.98
  89  0.098  0.625  0.287-   8 1.95  38 1.95  47 1.98
  90  0.902  0.625  0.287-   8 1.95  38 1.95   7 1.98
  91  0.000  0.750  0.352-   9 1.95  19 1.95   8 1.98
  92  0.000  0.750  0.435-   9 1.95  19 1.95  12 1.98
  93  0.848  0.625  0.394-  10 1.95  40 1.95   9 1.98
  94  0.152  0.625  0.394-  50 1.95  80 1.95   9 1.98
  95  0.750  0.750  0.458-  11 1.95  21 1.95  10 1.98
  96  0.750  0.750  0.542-  11 1.95  21 1.95  14 2.09
  97  0.098  0.625  0.500-  12 1.95  42 1.95  51 1.98
  98  0.902  0.625  0.500-  12 1.95  42 1.95  11 1.98
  99  0.001  0.750  0.565-  23 1.90  13 1.90  12 2.00
 100  1.000  0.750  0.649-  16 1.81  13 2.02  23 2.02
 101  0.851  0.625  0.607-  14 1.93  44 1.93  13 2.03
 102  0.150  0.625  0.607-  13 1.87  84 2.02  54 2.02
 103  0.754  0.751  0.671-  14 1.87  15 2.08  25 2.09
 104  0.748  0.749  0.756-  15 1.83  25 1.84
 105  0.095  0.625  0.719-  46 1.94  16 1.95  55 2.03
 106  0.906  0.624  0.720-  46 1.95  16 1.96  15 2.02
 107  0.750  0.000  0.245-  17 1.95  27 1.95
 108  0.750  0.000  0.329-  17 1.95  27 1.95  20 1.98
 109  0.098  0.875  0.287-   8 1.95  18 1.95  57 1.98
 110  0.902  0.875  0.287-   8 1.95  18 1.95  17 1.98
 111  0.000  0.000  0.352-  19 1.95  29 1.95  18 1.98
 112  0.000  0.000  0.435-  19 1.95  29 1.95  22 1.98
 113  0.848  0.875  0.394-  10 1.95  20 1.95  19 1.98
 114  0.152  0.875  0.394-  50 1.95  60 1.95  19 1.98
 115  0.750  0.000  0.458-  21 1.95  31 1.95  20 1.98
 116  0.750  0.000  0.542-  21 1.95  31 1.95  24 2.10
 117  0.098  0.875  0.500-  12 1.95  22 1.95  61 1.98
 118  0.902  0.875  0.500-  12 1.95  22 1.95  21 1.98
 119  0.001  0.000  0.565-  33 1.90  23 1.90  22 2.00
 120  0.000  0.000  0.649-  26 1.81  33 2.02  23 2.02
 121  0.851  0.876  0.607-  24 1.93  14 1.93  23 2.04
 122  0.150  0.875  0.607-  23 1.87  54 2.02  64 2.02
 123  0.751  0.000  0.672-  24 1.87  35 2.09  25 2.09
 124  0.750  1.000  0.756-  35 1.83  25 1.84
 125  0.094  0.875  0.719-  16 1.94  26 1.95  65 2.04
 126  0.906  0.875  0.719-  16 1.94  26 1.95  25 2.04
 127  0.750  0.250  0.245-  27 1.95  37 1.95
 128  0.750  0.250  0.329-  27 1.95  37 1.95  30 1.98
 129  0.098  0.125  0.287-  18 1.95  28 1.95  67 1.98
 130  0.902  0.125  0.287-  18 1.95  28 1.95  27 1.98
 131  0.000  0.250  0.352-  29 1.95  39 1.95  28 1.98
 132  0.000  0.250  0.435-  29 1.95  39 1.95  32 1.98
 133  0.848  0.125  0.394-  20 1.95  30 1.95  29 1.98
 134  0.152  0.125  0.394-  60 1.95  70 1.95  29 1.98
 135  0.750  0.250  0.458-  31 1.95  41 1.95  30 1.98
 136  0.750  0.250  0.542-  31 1.95  41 1.95  34 2.09
 137  0.098  0.125  0.500-  22 1.95  32 1.95  71 1.98
 138  0.902  0.125  0.500-  22 1.95  32 1.95  31 1.98
 139  0.001  0.250  0.565-  43 1.90  33 1.90  32 2.00
 140  0.000  0.250  0.649-  36 1.81  43 2.02  33 2.02
 141  0.851  0.125  0.607-  24 1.93  34 1.93  33 2.04
 142  0.150  0.125  0.607-  33 1.86  64 2.02  74 2.02
 143  0.753  0.250  0.671-  34 1.87  45 2.06  35 2.10
 144  0.749  0.251  0.756-  45 1.83  35 1.84
 145  0.094  0.125  0.719-  36 1.94  26 1.95  75 2.04
 146  0.906  0.125  0.719-  36 1.94  26 1.95  35 2.04
[...]
 232  0.500  0.500  0.435-  49 1.95  79 1.95  82 1.98
 233  0.348  0.375  0.394-  70 1.95  80 1.95  79 1.98
 234  0.652  0.375  0.394-  30 1.95  40 1.95  79 1.98
 235  0.250  0.500  0.458-  51 1.95  81 1.95  80 1.98
 236  0.250  0.500  0.542-  51 1.95  81 1.95  84 2.11
 237  0.598  0.375  0.500-  72 1.95  82 1.95  41 1.98
 238  0.402  0.375  0.500-  72 1.95  82 1.95  81 1.98
 239  0.501  0.500  0.566-  53 1.90  83 1.90  82 2.00
 240  0.500  0.500  0.650-  86 1.91  53 1.98  83 1.98
 241  0.350  0.375  0.607-  74 1.92  84 1.93  83 2.04
 242  0.651  0.375  0.608-  83 1.88  34 2.01  44 2.02
 243  0.250  0.500  0.672-  84 1.86  55 2.09  85 2.10
 244  0.252  0.500  0.756-  85 1.84  55 1.84
 245  0.597  0.371  0.715-  76 1.92  86 1.96  45 2.02
 246  0.407  0.374  0.718-  86 1.93  76 1.94  85 2.03

IMPORTANT INFORMATION: All symmetrisations will be switched off!
NOSYMM: (Re-)initialisation of all symmetry stuff for point group C_1.

                                     Primitive cell

  volume of cell :    4700.2961

  direct lattice vectors                    reciprocal lattice vectors
    13.003980404  0.000000000  0.000000000     0.076899531  0.000000000  0.000000000
     0.000000000 11.830378115  0.000000000     0.000000000  0.084528152  0.000000000
     0.000000000  0.000000000 30.552748813     0.000000000  0.000000000  0.032730279

  length of vectors
    13.003980404 11.830378115 30.552748813     0.076899531  0.084528152  0.032730279

  position of ions in fractional coordinates (direct lattice)
     0.510331046  0.587956007  0.811456567
     0.538671440  0.497713104  0.781633741
     0.426741788  0.597312864  0.809779257
     0.615374851  0.493003635  0.780229999
     0.533730470  0.564408842  0.844772367
     0.548744893  0.667393848  0.802204187
     0.750000000  0.625000000  0.287188045
     0.000000000  0.750000000  0.287188045
     0.000000000  0.625000000  0.393594023
     0.750000000  0.750000000  0.393594023
     0.750000000  0.625000000  0.500000000
     0.000000000  0.750000000  0.500000000
     0.006993774  0.625073986  0.604046202
     0.756133557  0.750114422  0.610207977
     0.750759752  0.625797847  0.719102266
     0.999978673  0.750342000  0.708177627
     0.750000000  0.875000000  0.287188045
     0.000000000  0.000000000  0.287188045
     0.000000000  0.875000000  0.393594023
     0.750000000  0.000000000  0.393594023
     0.750000000  0.875000000  0.500000000
     0.000000000  0.000000000  0.500000000
     0.007105127  0.875049078  0.604101504
     0.755700079  0.000050128  0.610520273
     0.749628850  0.874940193  0.720168330
     0.000248360  0.999945581  0.708144814
     0.750000000  0.125000000  0.287188045
     0.000000000  0.250000000  0.287188045
     0.000000000  0.125000000  0.393594023
     0.750000000  0.250000000  0.393594023
     0.750000000  0.125000000  0.500000000
     0.000000000  0.250000000  0.500000000
     0.007272160  0.124967895  0.604110878
     0.756020659  0.249869324  0.610140302
     0.749590896  0.124216859  0.720174278
     0.000192105  0.249631163  0.708168764
     0.750000000  0.375000000  0.287188045
     0.000000000  0.500000000  0.287188045
     0.000000000  0.375000000  0.393594023
     0.750000000  0.500000000  0.393594023
     0.750000000  0.375000000  0.500000000
     0.000000000  0.500000000  0.500000000
     0.006984987  0.374982529  0.604028350
     0.756360084  0.500008577  0.610371278
     0.751441947  0.373222885  0.719136832
     0.000822413  0.500125693  0.708109682
     0.250000000  0.625000000  0.287188045
     0.500000000  0.750000000  0.287188045
     0.500000000  0.625000000  0.393594023
     0.250000000  0.750000000  0.393594023
     0.250000000  0.625000000  0.500000000
     0.500000000  0.750000000  0.500000000
     0.507162857  0.622674843  0.605370118
     0.256146052  0.749992212  0.610460436
     0.250336699  0.625322801  0.720069271
     0.500758605  0.750128350  0.706878545
     0.250000000  0.875000000  0.287188045
     0.500000000  0.000000000  0.287188045
     0.500000000  0.875000000  0.393594023
     0.250000000  0.000000000  0.393594023
[...]
     0.500000000  0.500000000  0.435304973
     0.347999548  0.375000000  0.393594023
     0.652000452  0.375000000  0.393594023
     0.250000000  0.500000000  0.458289049
     0.250000000  0.500000000  0.541710951
     0.597999548  0.375000000  0.500000000
     0.402000452  0.375000000  0.500000000
     0.500907707  0.499897338  0.565520620
     0.499945957  0.500351109  0.649525778
     0.350131684  0.375057394  0.607190442
     0.651263466  0.374989739  0.607526633
     0.250216959  0.500342565  0.671574508
[...]
   6.59513585  7.36647884 18.49572115
   3.33091824  8.87269145 18.65124436
   3.25537352  7.39780518 22.00009556
   6.51185509  8.87430202 21.59708263
   3.25099510 10.35158085  8.77438420
   6.50199020  0.00000000  8.77438420
   6.50199020 10.35158085 12.02537931
   3.25099510  0.00000000 12.02537931
[...]
   6.50199020  5.91518906 13.29976351
   4.52537931  4.43639179 12.02537931
   8.47860110  4.43639179 12.02537931
   3.25099510  5.91518906 14.00199020
   3.25099510  5.91518906 16.55075861
   7.77637441  4.43639179 15.27637441
   5.22760600  4.43639179 15.27637441
   6.51379401  5.91397452 17.27820944
   6.50128743  5.91934280 19.84479795
   4.55310556  4.43707079 18.55133706
   8.46901735  4.43627040 18.56160861
   3.25381643  5.91924173 20.51844726
   3.27788571  5.91810083 23.08995196
   7.75932721  4.39470262 21.83015712
   5.28648191  4.42570273 21.93276342

--------------------------------------- Iteration      FINAL  ---------------------------------------

--------------------OUTCAR has been truncated-------------------------

[...]

--------------------OUTCAR has been truncated-------------------------

  FORCE on cell =-STRESS in cart. coord.  units (eV):
  Direction    XX          YY          ZZ          XY          YZ          ZX
  Alpha Z  4711.39482  4711.39482  4711.39482
  Ewald  975073.37112992493.99983************   -70.65177   132.68342   -80.57161
  Hartree************************************   -38.13732    77.52339   -52.84794
  E(xc)   -9186.47078 -9195.75760 -9184.26037     0.17304    -0.28223     0.01532
  Local  ************************************   103.09840  -200.94276   130.51753
  n-local -5213.28873 -5117.79089 -5254.57603    -1.07531     1.89466    -0.73947
  augment  5522.94266  5491.02676  5528.46929     0.46251    -0.79626     0.07351
  Kinetic 28886.75553 28419.27179 28942.22751     6.12629   -10.30517     3.79700
  Fock        0.00000     0.00000     0.00000     0.00000     0.00000     0.00000
  Total      -6.83697   -55.34835   -52.17017    -0.00415    -0.22495     0.24433
  in kB      -2.33050   -18.86644   -17.78311    -0.00142    -0.07668     0.08328

 VOLUME and BASIS-vectors are now :
  energy-cutoff  :      600.00
  volume of cell :     4700.30
      direct lattice vectors                 reciprocal lattice vectors
    13.003980404  0.000000000  0.000000000     0.076899531  0.000000000  0.000000000
     0.000000000 11.830378115  0.000000000     0.000000000  0.084528152  0.000000000
     0.000000000  0.000000000 30.552748813     0.000000000  0.000000000  0.032730279

  length of vectors
    13.003980404 11.830378115 30.552748813     0.076899531  0.084528152  0.032730279

 FORCES acting on ions:
    Electron-Ion                     Ewald-Force                    Non-Local-Force
   0.372E+02 -.909E+02 -.161E+04   -.397E+02 0.959E+02 0.161E+04   0.245E+01 -.508E+01 -.472E+01
   0.251E+02 0.126E+03 -.251E+04   -.483E+02 -.151E+03 0.250E+04   0.235E+02 0.259E+02 0.984E+01
   0.580E+02 -.156E+02 -.394E+03   -.638E+02 0.162E+02 0.393E+03   0.603E+01 -.643E+00 0.234E+00
   -.697E+02 0.160E+02 -.428E+03   0.770E+02 -.166E+02 0.427E+03   -.759E+01 0.604E+00 0.360E+00
   -.117E+02 0.630E+01 -.385E+03   0.132E+02 -.771E+01 0.390E+03   -.158E+01 0.145E+01 -.550E+01
   -.189E+02 -.611E+02 -.392E+03   0.215E+02 0.659E+02 0.391E+03   -.265E+01 -.497E+01 0.136E+01
   -.202E+00 -.190E-01 0.380E+04   0.198E+00 0.192E-01 -.380E+04   0.104E-02 -.392E-04 0.442E+00
   -.606E-01 -.654E-01 0.398E+04   0.617E-01 0.656E-01 -.397E+04   -.186E-04 -.150E-04 -.402E+01
   -.176E+00 -.489E-01 0.194E+04   0.182E+00 0.489E-01 -.194E+04   -.110E-02 0.869E-04 -.619E-01
   -.480E+00 -.742E-01 0.194E+04   0.468E+00 0.743E-01 -.194E+04   0.311E-02 0.686E-04 0.220E+00
   -.193E+01 -.115E+00 0.160E+02   0.188E+01 0.982E-01 -.152E+02   0.120E-01 0.928E-03 -.130E+00
   0.116E+01 -.939E+00 0.237E+02   -.117E+01 0.944E+00 -.248E+02   0.179E-02 -.294E-02 0.349E+00
   0.136E+02 -.193E+01 -.186E+04   -.137E+02 0.194E+01 0.186E+04   -.208E-01 -.780E-02 0.186E+00
   -.114E+01 -.977E+01 -.191E+04   0.113E+01 0.978E+01 0.191E+04   -.922E-01 -.842E-02 -.171E+00
   -.100E+03 -.173E+02 -.371E+04   0.999E+02 0.172E+02 0.371E+04   0.203E+00 0.107E+00 -.136E+00
   -.529E+01 -.549E+01 -.378E+04   0.535E+01 0.550E+01 0.378E+04   -.549E-01 -.257E-01 0.109E+01
   -.209E+00 -.703E-01 0.380E+04   0.205E+00 0.704E-01 -.380E+04   0.111E-02 0.449E-04 0.442E+00
   -.580E-01 -.323E-01 0.398E+04   0.592E-01 0.324E-01 -.397E+04   -.363E-04 -.122E-04 -.402E+01
   -.143E+00 -.152E+00 0.194E+04   0.149E+00 0.152E+00 -.194E+04   -.109E-02 0.901E-04 -.619E-01
   -.563E+00 -.856E-01 0.194E+04   0.552E+00 0.851E-01 -.194E+04   0.291E-02 -.376E-04 0.220E+00
   -.328E+01 -.996E+00 0.145E+02   0.326E+01 0.102E+01 -.137E+02   0.788E-02 -.773E-03 -.132E+00
   0.158E+01 -.286E+00 0.222E+02   -.159E+01 0.286E+00 -.233E+02   0.143E-02 -.406E-03 0.346E+00
   0.164E+02 -.303E+01 -.186E+04   -.165E+02 0.304E+01 0.186E+04   -.250E-01 -.101E-01 0.192E+00
   0.243E+01 -.177E+01 -.193E+04   -.244E+01 0.177E+01 0.193E+04   -.102E+00 0.614E-03 -.177E+00
   -.304E+02 -.297E+02 -.376E+04   0.303E+02 0.297E+02 0.376E+04   0.707E-01 0.117E-01 -.271E+00
   -.466E+01 -.228E+01 -.378E+04   0.464E+01 0.229E+01 0.378E+04   0.263E-01 -.210E-02 0.113E+01
   -.204E+00 0.190E-01 0.380E+04   0.200E+00 -.193E-01 -.380E+04   0.107E-02 0.255E-04 0.442E+00
   -.612E-01 0.654E-01 0.398E+04   0.624E-01 -.655E-01 -.397E+04   -.478E-04 0.274E-04 -.402E+01
   -.148E+00 0.520E-01 0.194E+04   0.154E+00 -.520E-01 -.194E+04   -.121E-02 -.478E-04 -.619E-01
   -.441E+00 0.745E-01 0.194E+04   0.430E+00 -.746E-01 -.194E+04   0.298E-02 -.807E-04 0.221E+00
   -.312E+01 0.431E+00 0.140E+02   0.309E+01 -.472E+00 -.132E+02   0.893E-02 0.251E-02 -.131E+00
   0.116E+01 0.967E+00 0.232E+02   -.116E+01 -.972E+00 -.243E+02   0.877E-03 0.267E-02 0.350E+00
   0.177E+02 0.156E+01 -.186E+04   -.178E+02 -.157E+01 0.186E+04   -.244E-01 0.879E-02 0.196E+00
   -.291E-01 0.913E+01 -.191E+04   0.871E-02 -.913E+01 0.191E+04   -.879E-01 -.298E-04 -.184E+00
   -.223E+02 0.149E+02 -.376E+04   0.222E+02 -.149E+02 0.376E+04   0.649E-01 -.343E-02 -.286E+00
   -.442E+01 0.490E+01 -.378E+04   0.446E+01 -.491E+01 0.378E+04   -.438E-01 0.234E-01 0.109E+01
   -.196E+00 0.703E-01 0.380E+04   0.192E+00 -.703E-01 -.380E+04   0.104E-02 -.222E-04 0.442E+00
   -.636E-01 0.324E-01 0.398E+04   0.648E-01 -.324E-01 -.397E+04   -.530E-04 0.722E-07 -.402E+01
   -.182E+00 0.149E+00 0.194E+04   0.188E+00 -.149E+00 -.194E+04   -.121E-02 -.968E-04 -.619E-01
   -.361E+00 0.853E-01 0.194E+04   0.350E+00 -.848E-01 -.194E+04   0.284E-02 -.307E-04 0.220E+00
   -.173E+01 0.684E+00 0.155E+02   0.168E+01 -.653E+00 -.148E+02   0.127E-01 -.182E-02 -.129E+00
   0.101E+01 0.302E+00 0.246E+02   -.102E+01 -.300E+00 -.257E+02   0.193E-03 -.535E-03 0.348E+00
   0.140E+02 0.342E+01 -.186E+04   -.141E+02 -.342E+01 0.186E+04   -.225E-01 0.683E-02 0.187E+00
   -.235E+01 0.183E+01 -.190E+04   0.238E+01 -.184E+01 0.190E+04   -.143E+00 0.372E-02 -.175E+00
   -.843E+02 0.260E+02 -.372E+04   0.842E+02 -.258E+02 0.372E+04   0.125E+00 -.140E+00 -.133E+00
   -.728E+01 0.291E+01 -.377E+04   0.726E+01 -.292E+01 0.377E+04   0.289E-01 0.439E-02 0.104E+01
   0.196E+00 -.146E-01 0.380E+04   -.192E+00 0.145E-01 -.380E+04   -.131E-02 0.258E-04 0.441E+00
   0.656E-01 -.538E-01 0.398E+04   -.672E-01 0.541E-01 -.397E+04   0.522E-03 -.495E-04 -.402E+01
   0.303E+00 0.148E+00 0.195E+04   -.309E+00 -.136E+00 -.194E+04   0.617E-03 -.248E-02 -.646E-01
   0.357E+00 -.271E-01 0.194E+04   -.346E+00 0.273E-01 -.194E+04   -.184E-02 0.301E-05 0.216E+00
   0.534E+00 0.159E+00 0.136E+02   -.471E+00 -.176E+00 -.127E+02   -.115E-01 0.120E-02 -.140E+00
   0.343E+01 0.870E+00 0.285E+02   -.346E+01 -.966E+00 -.294E+02   0.446E-02 0.412E-01 0.266E+00
   0.217E+02 -.133E+02 -.184E+04   -.218E+02 0.134E+02 0.184E+04   -.487E-01 -.602E-01 0.118E+00
   0.217E+02 -.679E+01 -.192E+04   -.217E+02 0.678E+01 0.192E+04   -.110E+00 0.889E-02 -.175E+00
   0.653E+02 -.154E+02 -.373E+04   -.654E+02 0.154E+02 0.373E+04   0.763E-01 0.670E-02 -.295E+00
   0.248E+02 -.819E+02 -.368E+04   -.246E+02 0.820E+02 0.368E+04   -.176E+00 -.315E-01 0.123E+01
   0.204E+00 -.663E-01 0.380E+04   -.200E+00 0.666E-01 -.380E+04   -.137E-02 0.170E-05 0.441E+00
   0.632E-01 -.407E-01 0.398E+04   -.649E-01 0.408E-01 -.397E+04   0.536E-03 0.554E-05 -.402E+01
   0.274E+00 -.222E-01 0.195E+04   -.280E+00 0.215E-01 -.194E+04   0.766E-03 -.790E-03 -.653E-01
   0.435E+00 -.955E-01 0.194E+04   -.424E+00 0.955E-01 -.194E+04   -.184E-02 0.670E-04 0.216E+00
[...]
   -.530E+02 0.306E-01 0.116E+04   0.571E+02 -.314E-01 -.116E+04   -.367E+01 0.115E-02 0.171E+00
   0.532E+02 0.407E-01 0.116E+04   -.573E+02 -.411E-01 -.116E+04   0.368E+01 0.564E-03 0.179E+00
   0.153E+00 0.161E+00 0.514E+03   -.126E+00 -.163E+00 -.518E+03   -.379E-01 0.447E-02 0.433E+01
   0.298E+01 0.675E+00 -.513E+03   -.324E+01 -.677E+00 0.521E+03   0.256E+00 0.310E-02 -.739E+01
   -.545E+02 0.393E-02 0.160E+02   0.594E+02 -.755E-02 -.162E+02   -.530E+01 0.236E-01 0.284E+00
   0.557E+02 -.641E-01 0.130E+02   -.605E+02 0.562E-01 -.132E+02   0.534E+01 0.309E-01 0.238E+00
   0.128E+02 0.150E+01 -.608E+03   -.140E+02 -.158E+01 0.601E+03   0.120E+01 0.806E-01 0.709E+01
   0.191E+02 0.298E+01 -.159E+04   -.203E+02 -.289E+01 0.160E+04   0.125E+01 -.840E-01 -.212E+01
   -.485E+02 0.395E+01 -.112E+04   0.551E+02 -.398E+01 0.111E+04   -.648E+01 0.346E-01 0.135E+01
   0.344E+00 0.633E+01 -.112E+04   -.202E+00 -.650E+01 0.112E+04   -.161E-01 0.173E+00 0.558E+00
   0.256E+02 0.287E+01 -.180E+04   -.261E+02 -.292E+01 0.180E+04   0.482E+00 0.528E-01 -.225E+01
   0.594E+02 0.103E+02 -.271E+04   -.591E+02 -.103E+02 0.273E+04   -.279E+00 0.389E-01 -.214E+02
   -.515E+02 0.574E+02 -.221E+04   0.576E+02 -.570E+02 0.221E+04   -.619E+01 -.377E+00 -.778E+00
   0.699E+02 0.494E+02 -.228E+04   -.763E+02 -.495E+02 0.229E+04   0.649E+01 0.112E+00 -.330E+01
   0.951E+01 -.183E+02 0.900E+02   -.625E-12 -.995E-13 0.568E-10   -.941E+01 0.183E+02 -.898E+02

 POSITION                                       TOTAL-FORCE (eV/Angst)
      6.63633      6.95574     24.79223        -0.040097     -0.039711      0.042465
      7.00487      5.88813     23.88106         0.193631      0.192246     -0.095716
      5.54934      7.06644     24.74098         0.186196     -0.037106     -0.012530
      8.00232      5.83242     23.83817        -0.265091      0.000097     -0.013074
      6.94062      6.67717     25.81012        -0.060903      0.040858     -0.245302
      7.13587      7.89552     24.50954        -0.055546     -0.153342      0.006376
      9.75299      7.39399      8.77438        -0.003277      0.000165     -3.734318
      0.00000      8.87278      8.77438         0.000752      0.000136      2.967454
      0.00000      7.39399     12.02538         0.004497      0.000128      0.528468
      9.75299      8.87278     12.02538        -0.008691      0.000226     -0.753032
      9.75299      7.39399     15.27637        -0.038546     -0.015701      0.653360
      0.00000      8.87278     15.27637        -0.004344      0.002201     -0.768316
      0.09095      7.39486     18.45527        -0.101271      0.000965      0.118141
      9.83275      8.87414     18.64353        -0.084919      0.002997     -0.082963
      9.76287      7.40343     21.97055         0.001798      0.023640      0.039798
     13.00370      8.87683     21.63677         0.006290     -0.007615      0.129819
      9.75299     10.35158      8.77438        -0.003305      0.000178     -3.734702
      0.00000      0.00000      8.77438         0.000764      0.000068      2.967211
      0.00000     10.35158     12.02538         0.004370     -0.000144      0.528595
      9.75299      0.00000     12.02538        -0.008735     -0.000535     -0.754472
      9.75299     10.35158     15.27637        -0.019291      0.024063      0.661569
      0.00000      0.00000     15.27637        -0.003952     -0.000094     -0.763281
      0.09239     10.35216     18.45696        -0.109136      0.002454      0.122373
      9.82711      0.00059     18.65307        -0.091581      0.001053     -0.075686
      9.74816     10.35087     22.00312         0.011499      0.013037      0.063788
      0.00323     11.82973     21.63577         0.006734      0.003624      0.129979
      9.75299      1.47880      8.77438        -0.003294     -0.000306     -3.734940
      0.00000      2.95759      8.77438         0.000792     -0.000139      2.967270
      0.00000      1.47880     12.02538         0.004718     -0.000024      0.528520
      9.75299      2.95759     12.02538        -0.008396     -0.000191     -0.755140
      9.75299      1.47880     15.27637        -0.019035     -0.037854      0.652213
      0.00000      2.95759     15.27637        -0.000518     -0.002712     -0.767759
      0.09457      1.47842     18.45725        -0.116994     -0.001058      0.120540
      9.83128      2.95605     18.64146        -0.089837      0.002021     -0.075676
      9.74767      1.46953     22.00330         0.009215      0.007073      0.066322
      0.00250      2.95323     21.63650         0.005315      0.008843      0.132674
      9.75299      4.43639      8.77438        -0.003219     -0.000050     -3.734702
      0.00000      5.91519      8.77438         0.000808     -0.000069      2.967485
      0.00000      4.43639     12.02538         0.004869      0.000047      0.528320
      9.75299      5.91519     12.02538        -0.008450      0.000505     -0.753467
      9.75299      4.43639     15.27637        -0.039268      0.029161      0.645252
      0.00000      5.91519     15.27637        -0.002109      0.000623     -0.771474
      0.09083      4.43619     18.45473        -0.101644     -0.001381      0.119963
      9.83569      5.91529     18.64852        -0.089311     -0.000567     -0.094263
      9.77174      4.41537     21.97161        -0.014296     -0.020201      0.042504
      0.01069      5.91668     21.63470         0.006121     -0.004974      0.132825
      3.25100      7.39399      8.77438         0.002417     -0.000099     -3.732382
      6.50199      8.87278      8.77438        -0.001512      0.000293      2.974618
      6.50199      7.39399     12.02538        -0.005408      0.009214      0.554385
      3.25100      8.87278     12.02538         0.008308      0.000245     -0.738853
      3.25100      7.39399     15.27637         0.051616     -0.015538      0.697738
      6.50199      8.87278     15.27637        -0.027602     -0.054317     -0.628765
      6.59514      7.36648     18.49572        -0.108646      0.039325      0.082009
      3.33092      8.87269     18.65124        -0.092074     -0.004251     -0.079558
      3.25537      7.39781     22.00010         0.018421     -0.002761      0.063648
      6.51186      8.87430     21.59708        -0.007673      0.028939      0.154087
      3.25100     10.35158      8.77438         0.002499      0.000351     -3.732582
      6.50199      0.00000      8.77438        -0.001503      0.000037      2.974514
      6.50199     10.35158     12.02538        -0.005701     -0.001476      0.555087
      3.25100      0.00000     12.02538         0.008471      0.000086     -0.738385
[...]
      6.50199      5.91519     13.29976         0.002996     -0.000650     -0.156720
      4.52538      4.43639     12.02538         0.415864      0.000373      0.054403
      8.47860      4.43639     12.02538        -0.410855      0.000113      0.056525
      3.25100      5.91519     14.00199        -0.011669      0.002432     -0.070533
      3.25100      5.91519     16.55076        -0.003825      0.000144      0.031078
      7.77637      4.43639     15.27637        -0.461493      0.020021      0.067753
      5.22761      4.43639     15.27637         0.497675      0.023040      0.083388
      6.51379      5.91397     17.27821         0.006612     -0.000462     -0.036712
      6.50129      5.91934     19.84480         0.009719     -0.001252     -0.089680
      4.55311      4.43707     18.55134         0.038779      0.001908      0.001855
      8.46902      4.43627     18.56161         0.125243      0.001705      0.005893
      3.25382      5.91924     20.51845         0.004182      0.000231      0.131205
      3.27789      5.91810     23.08995        -0.008085      0.002298     -0.220598
      7.75933      4.39470     21.83016        -0.055904     -0.000564      0.015569
      5.28648      4.42570     21.93276         0.055532     -0.026158     -0.024540
    total drift:                                0.095182     -0.000800      0.186695

  FREE ENERGIE OF THE ION-ELECTRON SYSTEM (eV)
  free  energy   TOTEN  =     -2743.33419407 eV

  energy  without entropy=    -2743.33419407  energy(sigma->0) =    -2743.33419407