 vasp.6.4.2 20Jul23 (build Feb 22 2024 13:53:45) complex
 executed on              LinuxNV date 2024.08.27  20:04:35
 OpenACC runtime initialized ...    4 GPUs detected

 INCAR:
   SYSTEM = Oxide-Surface
   ISMEAR = 0
   SIGMA = 0.05
   EDIFF = 1E-5
   ALGO = Normal
   IBRION = -1
   NSW = 0
   ISYM = 0
   DIPOL = 0.5 0.5 0.5
   IDIPOL = 3
   LDIPOL = .TRUE.
   ISTART = 1
   GGA = PE
   IVDW = 263
   ENCUT = 1000
   PREC = Normal
   PRECFOCK = Normal
   LASPH = .TRUE.
   LREAL = Auto
   ISPIN = 1
   NELM = 200
   NELMIN = 8
   NCORE = 1
   KPAR = 1
   LWAVE = .FALSE.
   LCHARG = .FALSE.

 POTCAR:    PAW_PBE N_h 06Feb2004
 POTCAR:    PAW_PBE O_h 06Feb2004
 POTCAR:    PAW_PBE Mg_sv 12Apr2007
 POTCAR:    PAW_PBE O_h 06Feb2004
 POTCAR:    PAW_PBE N_h 06Feb2004
   VRHFIN =N: s2p3

   TITEL  = PAW_PBE N_h 06Feb2004
   POMASS =   14.001; ZVAL   =    5.000    mass and valenz
   ENMAX  =  700.000; ENMIN  =  500.000 eV

[...]

   TITEL  = PAW_PBE Mg_sv 12Apr2007
   POMASS =   24.305; ZVAL   =   10.000    mass and valenz
   ENMAX  =  495.223; ENMIN  =  371.417 eV

   TITEL  = PAW_PBE O_h 06Feb2004
   POMASS =   16.000; ZVAL   =    6.000    mass and valenz
   ENMAX  =  700.000; ENMIN  =  500.000 eV

 Optimization of the real space projectors (new method)

 maximal supplied QI-value         = 34.20
 optimisation between [QCUT,QGAM] = [ 16.08, 32.15] = [ 72.37,289.48] Ry
 Optimized for a Real-space Cutoff    0.71 Angstroem

   l    n(q)    QCUT    max X(q) W(low)/X(q) W(high)/X(q)  e(spline)
   0      7    16.076   148.539    0.44E-03    0.75E-03    0.58E-07
   0      7    16.076   106.192    0.44E-03    0.75E-03    0.58E-07
   1      6    16.076    73.877    0.23E-03    0.61E-03    0.11E-06
   1      6    16.076    50.042    0.22E-03    0.60E-03    0.11E-06
 Optimization of the real space projectors (new method)

[...]

   l    n(q)    QCUT    max X(q) W(low)/X(q) W(high)/X(q)  e(spline)
   0      9    16.140     8.730    0.14E-04    0.12E-04    0.27E-07
   0      9    16.140     8.910    0.19E-04    0.17E-04    0.41E-07
   1      9    16.140     2.513    0.16E-04    0.28E-04    0.54E-07
   1      9    16.140     3.341    0.27E-04    0.13E-03    0.17E-06
   2      9    16.140     3.683    0.18E-03    0.21E-03    0.81E-07
 Optimization of the real space projectors (new method)

 maximal supplied QI-value         = 34.20
 optimisation between [QCUT,QGAM] = [ 16.08, 32.15] = [ 72.37,289.48] Ry
 Optimized for a Real-space Cutoff    0.71 Angstroem

   l    n(q)    QCUT    max X(q) W(low)/X(q) W(high)/X(q)  e(spline)
   0      7    16.076   280.207    0.42E-03    0.69E-03    0.60E-07
   0      7    16.076   228.978    0.42E-03    0.69E-03    0.61E-07
   1      6    16.076    86.127    0.11E-03    0.66E-03    0.10E-06
   1      6    16.076    65.368    0.11E-03    0.65E-03    0.10E-06
  PAW_PBE N_h 06Feb2004                 :
  PAW_PBE O_h 06Feb2004                 :
  PAW_PBE Mg_sv 12Apr2007               :
  PAW_PBE O_h 06Feb2004                 :

 POSCAR:  N  O Mg  O
  positions in direct lattice
 exchange correlation table for  LEXCH =        8
   RHO(1)=    0.500       N(1)  =     2000
   RHO(2)=  100.500       N(2)  =     4000

 ion  position               nearest neighbor table
   1  0.493  0.519  0.704-   2 1.14
   2  0.471  0.594  0.759-   1 1.14   3 1.20
   3  0.448  0.673  0.816-   2 1.20
   4  0.000  0.750  0.184-
   5  0.250  0.000  0.184-
   6  0.000  0.000  0.308-
   7  0.250  0.750  0.308-
   8  1.000  0.750  0.433-
   9  0.250  0.000  0.433-
  10  1.000  0.000  0.557-
  11  0.250  0.750  0.556-
  12  0.000  0.250  0.184-
  13  0.250  0.500  0.184-
  14  0.000  0.500  0.308-
  15  0.250  0.250  0.308-
  16  1.000  0.250  0.433-
  17  0.250  0.500  0.433-
  18  1.000  0.500  0.556-
  19  0.250  0.250  0.556-
  20  0.500  0.750  0.184-
  21  0.750  0.000  0.184-
  22  0.500  0.000  0.308-
  23  0.750  0.750  0.308-
  24  0.500  0.750  0.433-
  25  0.750  0.000  0.433-
  26  0.500  0.000  0.556-
  27  0.750  0.750  0.556-
  28  0.500  0.250  0.184-
  29  0.750  0.500  0.184-
  30  0.500  0.500  0.308-
  31  0.750  0.250  0.308-
  32  0.500  0.250  0.433-
  33  0.750  0.500  0.433-
  34  0.500  0.499  0.559-
  35  0.750  0.250  0.556-
  36  0.000  0.750  0.308-
  37  0.250  0.000  0.308-
  38  0.000  0.000  0.184-
  39  0.250  0.750  0.184-
  40  0.000  0.750  0.559-
  41  0.250  1.000  0.559-
  42  0.000  1.000  0.432-
  43  0.250  0.750  0.432-
  44  0.000  0.250  0.308-
  45  0.250  0.500  0.308-
  46  0.000  0.500  0.184-
  47  0.250  0.250  0.184-
  48  0.000  0.250  0.559-
  49  0.249  0.500  0.559-
  50  0.000  0.500  0.432-
  51  0.250  0.250  0.432-
  52  0.500  0.750  0.308-
  53  0.750  0.000  0.308-
  54  0.500  0.000  0.184-
  55  0.750  0.750  0.184-
  56  0.500  0.751  0.560-
  57  0.750  1.000  0.559-
  58  0.500  1.000  0.432-
  59  0.750  0.750  0.432-
  60  0.500  0.250  0.308-
  61  0.750  0.500  0.308-
  62  0.500  0.500  0.184-
  63  0.750  0.250  0.184-
  64  0.500  0.249  0.559-
  65  0.751  0.500  0.559-
  66  0.500  0.500  0.433-
  67  0.750  0.250  0.432-

IMPORTANT INFORMATION: All symmetrisations will be switched off!
NOSYMM: (Re-)initialisation of all symmetry stuff for point group C_1.

                                     Primitive cell

  volume of cell :    1211.2538

  direct lattice vectors                    reciprocal lattice vectors
     8.440984654  0.000000000  0.000000000     0.118469591  0.000000000  0.000000000
     0.000000000  8.440984654  0.000000000     0.000000000  0.118469591  0.000000000
     0.000000000  0.000000000 17.000000000     0.000000000  0.000000000  0.058823529

  length of vectors
     8.440984654  8.440984654 17.000000000     0.118469591  0.118469591  0.058823529

  position of ions in fractional coordinates (direct lattice)
     0.493401810  0.519418636  0.703797525
     0.471142627  0.594219820  0.758820503
     0.447551698  0.673306372  0.816300477
     0.000003678  0.750014635  0.183699523
     0.250003678  0.000014635  0.183699523
     0.000003678  0.000014635  0.307831651
     0.250003678  0.750014635  0.307831651
     0.999958025  0.749958546  0.432677010
     0.250062895  0.000098256  0.432697074
     0.999978292  0.000093413  0.556574763
     0.249803788  0.750119214  0.556064616
     0.000003678  0.250014635  0.183699523
     0.250003678  0.500014635  0.183699523
     0.000003678  0.500014635  0.307831651
     0.250003678  0.250014635  0.307831651
     0.999996322  0.250085902  0.432737287
     0.250470277  0.499951058  0.432993793
     0.999914270  0.499958742  0.556347633
     0.250074935  0.249987426  0.556432786
     0.500003678  0.750014635  0.183699523
     0.750003678  0.000014635  0.183699523
     0.500003678  0.000014635  0.307831651
     0.750003678  0.750014635  0.307831651
     0.500022849  0.749528416  0.433004734
     0.749934873  0.000060439  0.432720256
     0.500004313  0.000298773  0.556352798
     0.750109261  0.749994940  0.556245449
     0.500003678  0.250014635  0.183699523
     0.750003678  0.500014635  0.183699523
     0.500003678  0.500014635  0.307831651
     0.750003678  0.250014635  0.307831651
     0.500018596  0.250408803  0.433022603
     0.749557443  0.499957022  0.433006493
     0.500185527  0.499326999  0.559321507
     0.749946987  0.250008855  0.556456309
     0.000003678  0.750014635  0.307831651
     0.250003678  0.000014635  0.307831651
     0.000003678  0.000014635  0.183699523
     0.250003678  0.750014635  0.183699523
     0.000015879  0.750145562  0.559430108
     0.249854125  0.999935043  0.559420358
     0.000005749  0.999985365  0.432483484
     0.249992579  0.750062832  0.432464910
     0.000003678  0.250014635  0.307831651
     0.250003678  0.500014635  0.307831651
     0.000003678  0.500014635  0.183699523
     0.250003678  0.250014635  0.183699523
     0.000025477  0.249903447  0.559432479
     0.249186912  0.500166699  0.559369032
     0.000048645  0.500056722  0.432413803
     0.249905202  0.249983746  0.432457768
     0.500003678  0.750014635  0.307831651
     0.750003678  0.000014635  0.307831651
     0.500003678  0.000014635  0.183699523
     0.750003678  0.750014635  0.183699523
     0.499913895  0.750860290  0.559719056
     0.750130870  0.999925050  0.559443888
     0.499992191  0.999840315  0.432416954
     0.749991554  0.750078916  0.432481166
     0.500003678  0.250014635  0.307831651
     0.750003678  0.500014635  0.307831651
     0.500003678  0.500014635  0.183699523
     0.750003678  0.250014635  0.183699523
     0.499988921  0.249108426  0.558920468
     0.750816707  0.500096856  0.559158266
     0.499978415  0.500099316  0.432940757
     0.750108091  0.249940033  0.432443649

  ion indices of the primitive-cell ions
   primitive index   ion index
                 1           1
                 2           2
                 3           3
                 4           4
                 5           5
                 6           6
                 7           7
                 8           8
                 9           9
                10          10
                11          11
                12          12
                13          13
                14          14
                15          15
                16          16
                17          17
                18          18
                19          19
                20          20
                21          21
                22          22
                23          23
                24          24
                25          25
                26          26
                27          27
                28          28
                29          29
                30          30
                31          31
                32          32
                33          33
                34          34
                35          35
                36          36
                37          37
                38          38
                39          39
                40          40
                41          41
                42          42
                43          43
                44          44
                45          45
                46          46
                47          47
                48          48
                49          49
                50          50
                51          51
                52          52
                53          53
                54          54
                55          55
                56          56
                57          57
                58          58
                59          59
                60          60
                61          61
                62          62
                63          63
                64          64
                65          65
                66          66
                67          67

 KPOINTS: pymatgen v2020.8.13 with grid density =

Automatic generation of k-mesh.
 Grid dimensions read from file:
 generate k-points for:    2    2    1

 Generating k-lattice:

  Cartesian coordinates                     Fractional coordinates (reciprocal lattice)
     0.059234796  0.000000000  0.000000000     0.500000000  0.000000000  0.000000000
[...]

  vdW correction parametrized for the method pbe

  IVDW = 263
  VDW_RADIUS =    50.000 A
  VDW_SR =     0.830
  VDW_D =     6.000
  SCSRAD =   120.000 A
  LVDWSCS = T
  LSCSGRAD = T
  LSCALER0 = T
  ITIM =  1
  Edisp (eV):  -17.73997

  FORCE on cell =-STRESS in cart. coord.  units (eV):
  Direction    XX          YY          ZZ          XY          YZ          ZX
  Alpha Z  1248.51953  1248.51953  1248.51953
  Ewald  103448.62330103696.65511************   -76.23410   384.92255  -115.18933
  Hartree120682.17281120802.45868************   -34.33882   176.34566   -53.09932
  E(xc)   -3299.64072 -3298.97748 -3304.04736    -0.21683     1.06944    -0.31879
  Local  ************************232688.83734   102.78874  -523.12980   156.95499
  n-local -5638.58220 -5636.04340 -5633.20067    -0.83782     4.02505    -1.19970
  augment   724.42331   724.21226   714.73036     0.06978    -0.32412     0.09571
  Kinetic 12934.13293 12906.87563 12887.93887     8.96240   -43.95322    13.08153
  Fock        0.00000     0.00000     0.00000     0.00000     0.00000     0.00000
  vdW       -22.98562   -22.98577   -16.34614    -0.00022     0.00247    -0.00062
  Total     -38.53790   -39.17284   -10.01275     0.19313    -1.04197     0.32447
  in kB     -50.97574   -51.81560   -13.24429     0.25546    -1.37826     0.42919

 VOLUME and BASIS-vectors are now :
  energy-cutoff  :     1000.00
  volume of cell :     1211.25
      direct lattice vectors                 reciprocal lattice vectors
     8.440984654  0.000000000  0.000000000     0.118469591  0.000000000  0.000000000
     0.000000000  8.440984654  0.000000000     0.000000000  0.118469591  0.000000000
     0.000000000  0.000000000 17.000000000     0.000000000  0.000000000  0.058823529

  length of vectors
     8.440984654  8.440984654 17.000000000     0.118469591  0.118469591  0.058823529

 FORCES acting on ions
    electron-ion (+dipol)            ewald-force                    non-local-force                 convergence-correction
   -.481E+02 0.161E+03 -.838E+03   0.561E+02 -.188E+03 0.799E+03   -.812E+01 0.273E+02 0.399E+02   -.923E-05 0.304E-04 -.611E-04
   -.331E+01 0.109E+02 -.712E+03   0.422E+01 -.138E+02 0.707E+03   -.915E+00 0.297E+01 0.502E+01   -.216E-04 0.721E-04 -.589E-04
   0.501E+02 -.168E+03 -.683E+03   -.612E+02 0.205E+03 0.737E+03   0.113E+02 -.378E+02 -.552E+02   -.186E-05 0.692E-05 -.224E-03
   0.719E+00 -.135E+01 0.242E+04   -.715E+00 0.135E+01 -.241E+04   -.276E-02 -.598E-03 -.916E+01   0.326E-05 -.653E-05 0.605E-04
   0.218E+01 -.185E+01 0.242E+04   -.218E+01 0.184E+01 -.241E+04   -.443E-02 0.609E-02 -.916E+01   0.146E-04 -.117E-04 0.617E-04
   0.310E+00 -.822E+00 0.828E+03   -.314E+00 0.833E+00 -.828E+03   0.306E-02 -.881E-02 0.667E+00   0.232E-05 -.556E-05 0.550E-03
   0.134E+01 -.946E+00 0.829E+03   -.131E+01 0.921E+00 -.830E+03   -.266E-01 0.194E-01 0.684E+00   0.276E-05 0.363E-05 0.527E-03
   0.104E+01 -.438E+01 -.756E+03   -.105E+01 0.434E+01 0.756E+03   0.141E-01 0.347E-01 -.223E+00   -.769E-06 0.114E-04 0.656E-03
   0.530E+01 -.263E+01 -.756E+03   -.527E+01 0.266E+01 0.756E+03   -.338E-01 -.344E-01 -.240E+00   -.676E-05 -.164E-05 0.651E-03
   0.277E+01 -.698E+01 -.235E+04   -.278E+01 0.701E+01 0.234E+04   0.625E-02 -.303E-01 0.774E+01   0.138E-05 -.609E-05 0.219E-03
   0.375E+02 -.300E+02 -.230E+04   -.376E+02 0.301E+02 0.229E+04   0.115E+00 -.621E-01 0.782E+01   0.904E-05 -.649E-05 0.229E-03
   0.531E+00 0.133E+01 0.242E+04   -.530E+00 -.133E+01 -.241E+04   -.123E-02 0.656E-03 -.917E+01   0.365E-05 0.483E-05 0.702E-04
   0.268E+01 0.188E+01 0.242E+04   -.267E+01 -.187E+01 -.241E+04   -.692E-02 -.610E-02 -.918E+01   0.204E-04 0.136E-04 0.501E-04
   0.348E+00 0.824E+00 0.829E+03   -.345E+00 -.835E+00 -.829E+03   -.183E-02 0.842E-02 0.601E+00   0.277E-06 0.562E-05 0.534E-03
   0.117E+01 0.934E+00 0.829E+03   -.116E+01 -.907E+00 -.830E+03   -.121E-01 -.203E-01 0.650E+00   0.254E-05 -.410E-05 0.535E-03
   0.732E+00 0.434E+01 -.760E+03   -.739E+00 -.431E+01 0.760E+03   0.602E-02 -.328E-01 -.261E+00   0.437E-06 -.103E-04 0.657E-03
   0.741E+01 0.274E+01 -.746E+03   -.725E+01 -.278E+01 0.747E+03   -.165E+00 0.325E-01 -.435E+00   -.106E-04 0.206E-05 0.667E-03
   0.435E+01 0.749E+01 -.233E+04   -.440E+01 -.751E+01 0.232E+04   0.503E-01 0.294E-01 0.775E+01   0.649E-05 0.445E-05 0.236E-03
   0.278E+02 0.276E+02 -.233E+04   -.278E+02 -.276E+02 0.232E+04   -.189E-01 0.594E-01 0.780E+01   -.566E-05 0.953E-05 0.227E-03
   -.748E+00 -.186E+01 0.241E+04   0.744E+00 0.185E+01 -.240E+04   0.292E-02 0.204E-02 -.918E+01   -.456E-05 -.117E-04 0.405E-04
   -.217E+01 -.166E+01 0.242E+04   0.216E+01 0.165E+01 -.241E+04   0.446E-02 0.456E-02 -.917E+01   -.134E-04 -.115E-04 0.633E-04
   -.312E+00 -.981E+00 0.829E+03   0.316E+00 0.970E+00 -.829E+03   -.266E-02 0.826E-02 0.607E+00   -.325E-05 -.495E-05 0.532E-03
   -.134E+01 -.904E+00 0.829E+03   0.130E+01 0.883E+00 -.830E+03   0.278E-01 0.158E-01 0.679E+00   -.197E-05 0.150E-05 0.532E-03
   -.110E+01 -.644E+01 -.744E+03   0.111E+01 0.628E+01 0.745E+03   -.129E-01 0.157E+00 -.282E+00   0.347E-06 0.153E-04 0.661E-03
   -.528E+01 -.232E+01 -.758E+03   0.525E+01 0.235E+01 0.758E+03   0.334E-01 -.257E-01 -.246E+00   0.586E-05 -.242E-05 0.652E-03
   -.310E+01 -.140E+02 -.232E+04   0.311E+01 0.142E+02 0.232E+04   -.562E-02 -.177E+00 0.775E+01   -.375E-06 -.233E-04 0.233E-03
   -.361E+02 -.274E+02 -.231E+04   0.362E+02 0.275E+02 0.230E+04   -.110E+00 -.177E-01 0.780E+01   -.865E-05 -.131E-05 0.228E-03
   -.541E+00 0.181E+01 0.242E+04   0.540E+00 -.181E+01 -.241E+04   0.126E-02 -.157E-02 -.918E+01   -.424E-05 0.102E-04 0.564E-04
   -.265E+01 0.168E+01 0.242E+04   0.264E+01 -.167E+01 -.241E+04   0.684E-02 -.444E-02 -.918E+01   -.193E-04 0.144E-04 0.555E-04
   -.353E+00 0.993E+00 0.829E+03   0.352E+00 -.988E+00 -.830E+03   0.890E-03 -.397E-02 0.723E+00   -.815E-06 0.507E-05 0.517E-03
   -.117E+01 0.896E+00 0.829E+03   0.116E+01 -.876E+00 -.830E+03   0.120E-01 -.154E-01 0.637E+00   -.250E-05 -.198E-05 0.539E-03
   -.763E+00 0.636E+01 -.748E+03   0.769E+00 -.620E+01 0.748E+03   -.577E-02 -.158E+00 -.680E+00   0.114E-06 -.136E-04 0.667E-03
   -.737E+01 0.242E+01 -.747E+03   0.721E+01 -.244E+01 0.748E+03   0.165E+00 0.249E-01 -.548E+00   0.105E-04 0.288E-05 0.665E-03
   -.725E+01 0.222E+02 -.221E+04   0.730E+01 -.224E+02 0.220E+04   -.540E-01 0.202E+00 0.666E+01   -.437E-05 0.141E-04 0.245E-03
   -.273E+02 0.255E+02 -.233E+04   0.273E+02 -.256E+02 0.232E+04   0.186E-01 0.210E-01 0.780E+01   0.387E-05 0.545E-05 0.228E-03
   0.197E+00 -.589E+00 0.497E+03   -.195E+00 0.574E+00 -.496E+03   -.233E-02 0.209E-01 -.742E-01   0.846E-06 0.293E-05 0.259E-03
   0.795E+00 -.506E+00 0.496E+03   -.779E+00 0.507E+00 -.496E+03   -.208E-01 -.221E-03 -.850E-01   0.545E-06 -.249E-05 0.259E-03
   0.339E+00 -.874E+00 0.147E+04   -.338E+00 0.872E+00 -.147E+04   -.131E-02 0.220E-02 0.259E+01   0.276E-05 -.515E-05 0.318E-04
   0.165E+01 -.995E+00 0.146E+04   -.164E+01 0.992E+00 -.147E+04   -.118E-01 0.396E-02 0.261E+01   0.107E-04 -.477E-05 0.178E-04
   0.297E+01 -.907E+01 -.143E+04   -.298E+01 0.903E+01 0.144E+04   0.109E-01 0.463E-01 -.465E+01   0.469E-06 0.839E-07 0.119E-03
   0.116E+02 -.745E+01 -.143E+04   -.115E+02 0.747E+01 0.144E+04   -.523E-01 -.194E-01 -.465E+01   -.119E-05 -.289E-05 0.117E-03
   0.486E+00 -.130E+01 -.452E+03   -.488E+00 0.131E+01 0.452E+03   0.250E-02 -.148E-01 0.233E+00   0.354E-06 -.175E-05 0.332E-03
   0.399E+01 -.329E+01 -.442E+03   -.398E+01 0.328E+01 0.441E+03   -.864E-02 0.171E-01 0.386E+00   -.266E-05 0.596E-05 0.334E-03
   0.168E+00 0.589E+00 0.496E+03   -.170E+00 -.576E+00 -.496E+03   0.220E-02 -.158E-01 -.107E+00   0.652E-06 -.292E-05 0.261E-03
   0.947E+00 0.515E+00 0.496E+03   -.969E+00 -.518E+00 -.496E+03   0.274E-01 0.449E-02 -.140E+00   0.237E-05 0.304E-05 0.250E-03
   0.410E+00 0.882E+00 0.147E+04   -.408E+00 -.880E+00 -.147E+04   -.249E-02 -.257E-02 0.258E+01   0.179E-05 0.602E-05 0.261E-04
   0.127E+01 0.975E+00 0.147E+04   -.126E+01 -.972E+00 -.147E+04   -.642E-02 -.407E-02 0.258E+01   0.788E-05 0.402E-05 0.256E-04
   0.172E+01 0.875E+01 -.144E+04   -.173E+01 -.870E+01 0.145E+04   0.130E-02 -.515E-01 -.464E+01   0.138E-05 0.102E-05 0.117E-03
   0.320E+02 0.907E+01 -.140E+04   -.318E+02 -.908E+01 0.140E+04   -.253E+00 0.798E-02 -.467E+01   -.171E-04 0.830E-06 0.126E-03
   0.550E+00 0.131E+01 -.446E+03   -.557E+00 -.132E+01 0.445E+03   0.689E-02 0.905E-02 0.282E+00   0.508E-06 0.101E-05 0.338E-03
   0.358E+01 0.322E+01 -.446E+03   -.355E+01 -.320E+01 0.445E+03   -.328E-01 -.214E-01 0.286E+00   -.469E-05 -.525E-05 0.332E-03
   -.204E+00 -.744E+00 0.497E+03   0.204E+00 0.770E+00 -.496E+03   -.528E-03 -.309E-01 -.142E+00   -.117E-05 0.470E-06 0.248E-03
   -.795E+00 -.477E+00 0.496E+03   0.780E+00 0.481E+00 -.496E+03   0.199E-01 -.467E-02 -.954E-01   0.604E-07 -.246E-05 0.260E-03
   -.347E+00 -.124E+01 0.146E+04   0.346E+00 0.123E+01 -.147E+04   0.125E-02 0.705E-02 0.259E+01   -.289E-05 -.756E-05 0.207E-04
   -.163E+01 -.918E+00 0.146E+04   0.162E+01 0.916E+00 -.147E+04   0.114E-01 0.249E-02 0.260E+01   -.105E-04 -.590E-05 0.200E-04
   -.392E+01 -.309E+02 -.138E+04   0.392E+01 0.306E+02 0.139E+04   -.417E-02 0.297E+00 -.462E+01   -.612E-06 0.183E-04 0.126E-03
   -.114E+02 -.615E+01 -.144E+04   0.113E+02 0.616E+01 0.144E+04   0.530E-01 -.108E-01 -.464E+01   0.760E-06 -.402E-05 0.116E-03
   -.500E+00 -.161E+01 -.445E+03   0.502E+00 0.164E+01 0.444E+03   -.242E-02 -.275E-01 0.283E+00   0.363E-06 -.303E-05 0.333E-03
   -.395E+01 -.320E+01 -.444E+03   0.394E+01 0.318E+01 0.443E+03   0.965E-02 0.243E-01 0.343E+00   0.307E-05 0.646E-05 0.334E-03
   -.168E+00 0.725E+00 0.496E+03   0.169E+00 -.743E+00 -.496E+03   -.171E-02 0.248E-01 -.140E+00   -.126E-05 -.103E-05 0.252E-03
   -.941E+00 0.479E+00 0.496E+03   0.962E+00 -.483E+00 -.496E+03   -.251E-01 0.578E-02 -.140E+00   -.199E-05 0.322E-05 0.251E-03
   -.425E+00 0.127E+01 0.146E+04   0.423E+00 -.126E+01 -.147E+04   0.272E-02 -.832E-02 0.258E+01   -.282E-05 0.829E-05 0.100E-04
   -.126E+01 0.904E+00 0.147E+04   0.126E+01 -.902E+00 -.147E+04   0.624E-02 -.290E-02 0.258E+01   -.740E-05 0.436E-05 0.273E-04
   -.208E+01 0.268E+02 -.141E+04   0.208E+01 -.266E+02 0.141E+04   -.191E-02 -.203E+00 -.471E+01   -.335E-07 -.117E-04 0.123E-03
   -.305E+02 0.736E+01 -.140E+04   0.303E+02 -.737E+01 0.141E+04   0.226E+00 0.959E-02 -.469E+01   0.160E-04 0.979E-06 0.126E-03
   -.590E+00 0.170E+01 -.444E+03   0.598E+00 -.173E+01 0.444E+03   -.877E-02 0.335E-01 -.267E+00   -.353E-06 0.216E-05 0.321E-03
   -.356E+01 0.314E+01 -.446E+03   0.353E+01 -.311E+01 0.446E+03   0.320E-01 -.269E-01 0.276E+00   0.406E-05 -.567E-05 0.331E-03
   -.220E+01 0.740E+01 0.359E+02   0.618E-12 -.142E-13 -.375E-11   0.222E+01 -.745E+01 -.359E+02   -.322E-04 0.113E-03 0.173E-01

 POSITION                                       TOTAL-FORCE (eV/Angst)
      4.16480      4.38440     11.96456        -0.149611      0.506345      0.825586
      3.97691      5.01580     12.89995        -0.012852      0.022721      0.031363
      3.77778      5.68337     13.87711         0.176354     -0.574271     -0.846434
      0.00003      6.33086      3.12289         0.000613      0.000056      0.531106
      2.11028      0.00012      3.12289         0.002061     -0.001016      0.530872
      0.00003      0.00012      5.23314        -0.001208      0.003605      0.121884
      2.11028      6.33086      5.23314         0.006068     -0.003581      0.118898
      8.44063      6.33039      7.35551        -0.000399     -0.004043     -0.022688
      2.11078      0.00083      7.35585         0.004498      0.001320     -0.025832
      8.44080      0.00079      9.46177        -0.000308     -0.001519     -0.176803
      2.10859      6.33174      9.45310        -0.006108      0.005124     -0.167496
      0.00003      2.11037      3.12289         0.000131      0.001490      0.535794
      2.11028      4.22062      3.12289         0.003831      0.002670      0.535418
      0.00003      4.22062      5.23314         0.000136     -0.001714      0.137140
      2.11028      2.11037      5.23314         0.002593      0.005759      0.122384
      8.44095      2.11097      7.35653        -0.000991      0.005556     -0.029114
      2.11422      4.22008      7.36089        -0.001781     -0.002135     -0.033292
      8.44026      4.22014      9.45791         0.001385      0.000559     -0.175353
      2.11088      2.11014      9.45936        -0.003680     -0.003862     -0.166941
      4.22052      6.33086      3.12289        -0.001103     -0.001730      0.531027
      6.33077      0.00012      3.12289        -0.002538     -0.000518      0.532859
      4.22052      0.00012      5.23314         0.000623     -0.001028      0.136250
      6.33077      6.33086      5.23314        -0.006943     -0.002755      0.120266
      4.22069      6.32676      7.36108         0.000636      0.002822     -0.034408
      6.33019      0.00051      7.35624        -0.005242      0.002222     -0.027617
      4.22053      0.00252      9.45800         0.000098     -0.001237     -0.172762
      6.33166      6.33070      9.45617         0.006450      0.004798     -0.173496
      4.22052      2.11037      3.12289        -0.000576      0.003199      0.537830
      6.33077      4.22062      3.12289        -0.004251      0.002157      0.537578
      4.22052      4.22062      5.23314        -0.000112      0.000840      0.139289
      6.33077      2.11037      5.23314        -0.002923      0.004429      0.123739
      4.22065      2.11370      7.36138         0.000315      0.000502     -0.032585
      6.32700      4.22013      7.36111         0.000694     -0.001992     -0.032619
      4.22206      4.21481      9.50847         0.001206     -0.002465     -0.156164
      6.33029      2.11032      9.45976         0.003069     -0.002674     -0.165896
      0.00003      6.33086      5.23314        -0.000690      0.006864      0.049276
      2.11028      0.00012      5.23314        -0.005022      0.000952      0.047997
      0.00003      0.00012      3.12289        -0.000574      0.001067     -0.481039
      2.11028      6.33086      3.12289        -0.002801      0.001227     -0.475592
      0.00013      6.33197      9.51031        -0.000303      0.002143     -0.029848
      2.10901      8.44044      9.51015        -0.001787      0.000880     -0.032530
      0.00005      8.44086      7.35222         0.000056     -0.002950      0.000320
      2.11018      6.33127      7.35190        -0.001948      0.002067     -0.000686
      0.00003      2.11037      5.23314         0.000240     -0.001525      0.045202
      2.11028      4.22062      5.23314         0.004616      0.002533      0.053924
      0.00003      4.22062      3.12289        -0.000833      0.000066     -0.483903
      2.11028      2.11037      3.12289        -0.001622     -0.000307     -0.480198
      0.00022      2.10943      9.51035        -0.000314     -0.001801     -0.029774
      2.10338      4.22190      9.50927        -0.003170     -0.001300     -0.037243
      0.00041      4.22097      7.35103         0.000152      0.001641     -0.003200
      2.10945      2.11011      7.35178        -0.002354     -0.002251      0.000560
      4.22052      6.33086      5.23314        -0.000468     -0.003464      0.053894
      6.33077      0.00012      5.23314         0.004301      0.000038      0.046961
      4.22052      0.00012      3.12289        -0.000020      0.002125     -0.481317
      6.33077      6.33086      3.12289         0.002116      0.000906     -0.477640
      4.21977      6.33800      9.51522         0.000203      0.006308     -0.042261
      6.33184      8.44035      9.51055         0.001276      0.000895     -0.029523
      4.22043      8.43964      7.35109        -0.000651     -0.001021     -0.003520
      6.33067      6.33140      7.35218         0.001921      0.002348     -0.000939
      4.22052      2.11037      5.23314        -0.000710      0.006708      0.055909
      6.33077      4.22062      5.23314        -0.004740      0.002800      0.054722
      4.22052      4.22062      3.12289         0.000318     -0.001248     -0.484747
      6.33077      2.11037      3.12289         0.000983     -0.000049     -0.481198
      4.22040      2.10272      9.50165        -0.000242     -0.000412     -0.027645
      6.33763      4.22131      9.50569         0.001347      0.002090     -0.029612
      4.22031      4.22133      7.35999        -0.001037      0.004898     -0.007254
      6.33165      2.10974      7.35154         0.001621     -0.001864      0.001119
    total drift:                                0.016469     -0.048084     -0.020671

  FREE ENERGIE OF THE ION-ELECTRON SYSTEM (eV)
  free  energy   TOTEN  =      -412.05967573 eV

  energy  without entropy=     -412.05967573  energy(sigma->0) =     -412.05967573