 vasp.6.3.0 20Jan22 (build Apr  1 2022 16:44:48) complex
 executed on        HPECrayEX_GCC date 2022.11.08  23:28:10

 INCAR:
   SYSTEM = MgO-rocksalt
   ISMEAR = 0
   SIGMA = 0.05
   EDIFF = 1E-7
   ALGO = ALL
   ISTART = 0
   IBRION = 2
   NSW = 1000
   ISYM = 0
   ISIF = 2
   EDIFFG = -0.01
   DIPOL = 0.5 0.5 0.5
   IDIPOL = 3
   LDIPOL = .TRUE.
   LHFCALC = .TRUE.
   GGA = B5
   AEXX = 0.2
   AGGAX = 0.72
   AGGAC = 0.81
   ALDAC = 0.19
   IVDW = 1
   VDW_S6 = 1.05
   VDW_C6 = 1.75 0.70 0.14 0.63 0.70
   VDW_R0 = 1.452 1.342 1.001 1.243 1.342
   ENCUT = 600
   PREC = Accurate
   LASPH = .TRUE.
   LREAL = .FALSE.
   ISPIN = 1
   NELM = 200
   NELMIN = 8
   NCORE = 8
   KPAR = 1
   LWAVE = .FALSE.
   LCHARG = .FALSE.

 POTCAR:    PAW_PBE C 08Apr2002
 POTCAR:    PAW_PBE O 08Apr2002
 POTCAR:    PAW_PBE H 15Jun2001
 POTCAR:    PAW_PBE Mg_pv 13Apr2007
 POTCAR:    PAW_PBE O 08Apr2002
 POTCAR:    PAW_PBE C 08Apr2002
   VRHFIN =C: s2p2

   TITEL  = PAW_PBE C 08Apr2002
   POMASS =   12.011; ZVAL   =    4.000    mass and valenz
   ENMAX  =  400.000; ENMIN  =  300.000 eV

[...]

   TITEL  = PAW_PBE H 15Jun2001
   POMASS =    1.000; ZVAL   =    1.000    mass and valenz
   ENMAX  =  250.000; ENMIN  =  200.000 eV

   TITEL  = PAW_PBE Mg_pv 13Apr2007
   POMASS =   24.305; ZVAL   =    8.000    mass and valenz
   ENMAX  =  403.929; ENMIN  =  302.947 eV

   TITEL  = PAW_PBE O 08Apr2002
   POMASS =   16.000; ZVAL   =    6.000    mass and valenz
   ENMAX  =  400.000; ENMIN  =  300.000 eV

  PAW_PBE C 08Apr2002                   :
  PAW_PBE O 08Apr2002                   :
  PAW_PBE H 15Jun2001                   :
  PAW_PBE Mg_pv 13Apr2007               :
  PAW_PBE O 08Apr2002                   :

 POSCAR:  C  O  H Mg  O
  positions in direct lattice
  velocities in cartesian coordinates
 exchange correlation table for  LEXCH =       12
   RHO(1)=    0.500       N(1)  =     2000
   RHO(2)=  100.500       N(2)  =     4000

 ion  position               nearest neighbor table
   1  0.500  0.434  0.794-   3 1.09   6 1.10   5 1.10   2 1.42
   2  0.500  0.270  0.779-   4 0.99   1 1.42
   3  0.500  0.446  0.845-   1 1.09
   4  0.500  0.259  0.733-   2 0.99
   5  0.606  0.495  0.776-   1 1.10
   6  0.394  0.495  0.776-   1 1.10
   7  0.250  0.000  0.352-  41 2.10  42 2.10  49 2.10  58 2.10  39 2.10
   8  0.500  0.250  0.352-  41 2.10  42 2.10  50 2.10  57 2.10  40 2.10
   9  0.250  0.250  0.451-  39 2.10  40 2.10  47 2.10  56 2.10  41 2.10  45 2.11
  10  0.500  0.000  0.451-  39 2.10  40 2.10  48 2.10  55 2.10  42 2.10  46 2.11
  11  0.250  0.000  0.550-  62 2.10  46 2.10  45 2.10  53 2.10  39 2.11  43 2.12
  12  0.500  0.250  0.550-  46 2.10  61 2.10  45 2.10  54 2.10  40 2.11  44 2.16
  13  0.248  0.250  0.648-  60 2.08  45 2.10  43 2.10  51 2.10  44 2.12
  14  0.500  0.998  0.648-  52 2.08  46 2.09  59 2.10  43 2.10  44 2.12
  15  0.250  0.500  0.352-  41 2.10  49 2.10  50 2.10  66 2.10  47 2.10
  16  0.500  0.750  0.352-  42 2.10  49 2.10  50 2.10  65 2.10  48 2.10
  17  0.250  0.750  0.451-  39 2.10  47 2.10  48 2.10  64 2.10  49 2.10  53 2.11
  18  0.500  0.500  0.451-  40 2.10  47 2.10  48 2.10  63 2.10  50 2.10  54 2.11
  19  0.250  0.500  0.550-  45 2.10  70 2.10  53 2.10  54 2.10  47 2.11  51 2.13
  20  0.500  0.750  0.550-  53 2.10  69 2.10  46 2.10  54 2.11  48 2.11  52 2.12
  21  0.249  0.750  0.648-  53 2.09  68 2.10  43 2.10  51 2.10  52 2.11
  22  0.500  0.503  0.648-  52 2.08  54 2.09  67 2.10  51 2.10  44 2.13
  23  0.750  0.000  0.352-  42 2.10  57 2.10  58 2.10  65 2.10  55 2.10
  24  0.000  0.250  0.352-  41 2.10  57 2.10  58 2.10  66 2.10  56 2.10
  25  0.750  0.250  0.451-  40 2.10  55 2.10  56 2.10  63 2.10  57 2.10  61 2.11
  26  0.000  0.000  0.451-  39 2.10  55 2.10  56 2.10  64 2.10  58 2.10  62 2.10
  27  0.750  0.000  0.550-  62 2.10  46 2.10  61 2.10  69 2.10  55 2.11  59 2.12
  28  1.000  0.250  0.550-  62 2.10  70 2.10  45 2.10  61 2.10  56 2.11  60 2.12
  29  0.752  0.250  0.648-  60 2.08  61 2.10  59 2.10  67 2.10  44 2.12
  30  1.000  1.000  0.648-  62 2.10  68 2.10  43 2.10  59 2.10  60 2.11
  31  0.750  0.500  0.352-  50 2.10  57 2.10  65 2.10  66 2.10  63 2.10
  32  0.000  0.750  0.352-  49 2.10  58 2.10  65 2.10  66 2.10  64 2.10
  33  0.750  0.750  0.451-  48 2.10  55 2.10  63 2.10  64 2.10  65 2.10  69 2.11
  34  0.000  0.500  0.451-  47 2.10  56 2.10  63 2.10  64 2.10  66 2.10  70 2.11
  35  0.750  0.500  0.550-  61 2.10  70 2.10  69 2.10  54 2.10  63 2.11  67 2.13
  36  1.000  0.750  0.550-  70 2.10  69 2.10  53 2.10  62 2.10  64 2.11  68 2.13
  37  0.751  0.750  0.648-  69 2.09  68 2.10  59 2.10  67 2.10  52 2.11
  38  1.000  0.500  0.648-  70 2.10  68 2.10  67 2.10  51 2.10  60 2.10
  39  0.250  0.000  0.451-   9 2.10  10 2.10  17 2.10  26 2.10   7 2.10  11 2.11
  40  0.500  0.250  0.451-   9 2.10  10 2.10  18 2.10  25 2.10   8 2.10  12 2.11
  41  0.250  0.250  0.352-   7 2.10   8 2.10  15 2.10  24 2.10   9 2.10
  42  0.500  0.000  0.352-   7 2.10   8 2.10  16 2.10  23 2.10  10 2.10
  43  0.250  0.000  0.649-  13 2.10  21 2.10  14 2.10  30 2.10  11 2.12
  44  0.500  0.250  0.651-  13 2.12  29 2.12  14 2.12  22 2.13  12 2.16
  45  0.250  0.250  0.550-  13 2.10  12 2.10  19 2.10  11 2.10  28 2.10   9 2.11
  46  0.500  0.001  0.550-  14 2.09  12 2.10  11 2.10  27 2.10  20 2.10  10 2.11
  47  0.250  0.500  0.451-   9 2.10  17 2.10  18 2.10  34 2.10  15 2.10  19 2.11
  48  0.500  0.750  0.451-  10 2.10  17 2.10  18 2.10  33 2.10  16 2.10  20 2.11
  49  0.250  0.750  0.352-   7 2.10  15 2.10  16 2.10  32 2.10  17 2.10
  50  0.500  0.500  0.352-   8 2.10  15 2.10  16 2.10  31 2.10  18 2.10
  51  0.250  0.500  0.650-  22 2.10  38 2.10  13 2.10  21 2.10  19 2.13
  52  0.500  0.750  0.649-  22 2.08  14 2.08  37 2.11  21 2.11  20 2.12
  53  0.250  0.750  0.549-  21 2.09  20 2.10  19 2.10  36 2.10  11 2.10  17 2.11
  54  0.500  0.500  0.550-  22 2.09  12 2.10  35 2.10  19 2.10  20 2.11  18 2.11
  55  0.750  0.000  0.451-  10 2.10  25 2.10  26 2.10  33 2.10  23 2.10  27 2.11
  56  0.000  0.250  0.451-   9 2.10  25 2.10  26 2.10  34 2.10  24 2.10  28 2.11
  57  0.750  0.250  0.352-   8 2.10  23 2.10  24 2.10  31 2.10  25 2.10
  58  0.000  0.000  0.352-   7 2.10  23 2.10  24 2.10  32 2.10  26 2.10
  59  0.750  0.000  0.649-  29 2.10  37 2.10  14 2.10  30 2.10  27 2.12
  60  1.000  0.250  0.650-  29 2.08  13 2.08  38 2.10  30 2.11  28 2.12
  61  0.750  0.250  0.550-  29 2.10  12 2.10  35 2.10  27 2.10  28 2.10  25 2.11
  62  1.000  0.000  0.549-  30 2.10  28 2.10  27 2.10  11 2.10  36 2.10  26 2.10
  63  0.750  0.500  0.451-  18 2.10  25 2.10  33 2.10  34 2.10  31 2.10  35 2.11
  64  0.000  0.750  0.451-  17 2.10  26 2.10  33 2.10  34 2.10  32 2.10  36 2.11
  65  0.750  0.750  0.352-  16 2.10  23 2.10  31 2.10  32 2.10  33 2.10
  66  0.000  0.500  0.352-  15 2.10  24 2.10  31 2.10  32 2.10  34 2.10
  67  0.750  0.500  0.650-  22 2.10  38 2.10  29 2.10  37 2.10  35 2.13
  68  0.000  0.750  0.650-  21 2.10  37 2.10  38 2.10  30 2.10  36 2.13
  69  0.750  0.750  0.549-  37 2.09  20 2.10  35 2.10  36 2.10  27 2.10  33 2.11
  70  1.000  0.500  0.550-  38 2.10  35 2.10  19 2.10  28 2.10  36 2.10  34 2.11

IMPORTANT INFORMATION: All symmetrisations will be switched off!
NOSYMM: (Re-)initialisation of all symmetry stuff for point group C_1.

                                     Primitive cell

  volume of cell :    1504.9259

  direct lattice vectors                    reciprocal lattice vectors
     8.404861995  0.000000000  0.000000000     0.118978753  0.000000000  0.000000000
     0.000000000  8.404861995  0.000000000     0.000000000  0.118978753  0.000000000
     0.000000000  0.000000000 21.303646496     0.000000000  0.000000000  0.046940321

  length of vectors
     8.404861995  8.404861995 21.303646496     0.118978753  0.118978753  0.046940321

  position of ions in fractional coordinates (direct lattice)
     0.500003284  0.434380535  0.793975552
     0.500003641  0.269686334  0.778745813
     0.500004292  0.445562539  0.844941166
     0.500001573  0.259468167  0.732629315
     0.606327233  0.495012369  0.775858018
     0.393680766  0.495009919  0.775859011
     0.250000000  0.000000000  0.352052406
     0.500000000  0.250000000  0.352052406
     0.250000000  0.250000000  0.450684135
     0.500000000  0.000000000  0.450684135
     0.249977211  0.000153958  0.549896437
     0.500000081  0.250111941  0.549841165
     0.247702503  0.249786637  0.648121689
     0.500000019  0.997809979  0.647959946
     0.250000000  0.500000000  0.352052406
     0.500000000  0.750000000  0.352052406
     0.250000000  0.750000000  0.450684135
     0.500000000  0.500000000  0.450684135
     0.249918182  0.500057458  0.549945121
     0.500000033  0.750278586  0.549715866
     0.249486367  0.750418325  0.647829433
     0.499999982  0.503185597  0.647694089
     0.750000000  0.000000000  0.352052406
     0.000000000  0.250000000  0.352052406
     0.750000000  0.250000000  0.450684135
     0.000000000  0.000000000  0.450684135
     0.750022822  0.000153970  0.549896440
     0.999999884  0.250083940  0.549785751
     0.752297527  0.249786410  0.648121806
     0.999999954  0.999735162  0.647943721
     0.750000000  0.500000000  0.352052406
     0.000000000  0.750000000  0.352052406
     0.750000000  0.750000000  0.450684135
     0.000000000  0.500000000  0.450684135
     0.750081729  0.500057298  0.549945151
     0.999999992  0.750122577  0.549747824
     0.750513278  0.750418073  0.647829326
     0.999999909  0.500494339  0.647896086
     0.250000000  0.000000000  0.450684135
     0.500000000  0.250000000  0.450684135
     0.250000000  0.250000000  0.352052406
     0.500000000  0.000000000  0.352052406
     0.250090543  0.000140314  0.649397707
     0.499999545  0.250262431  0.651087854
     0.250412393  0.250181430  0.549756366
     0.499999996  0.000558683  0.549683650
     0.250000000  0.500000000  0.450684135
     0.500000000  0.750000000  0.450684135
     0.250000000  0.750000000  0.352052406
     0.500000000  0.500000000  0.352052406
     0.250198337  0.500060963  0.649757665
     0.500000247  0.750318385  0.649414762
     0.250101730  0.750007985  0.549494867
     0.500000065  0.499779118  0.549742876
     0.750000000  0.000000000  0.450684135
     0.000000000  0.250000000  0.450684135
     0.750000000  0.250000000  0.352052406
     0.000000000  0.000000000  0.352052406
     0.749909132  0.000140487  0.649397592
     0.999999766  0.250165338  0.649500597
     0.749587349  0.250181623  0.549756446
     0.999999830  0.000246673  0.549479742
     0.750000000  0.500000000  0.450684135
     0.000000000  0.750000000  0.450684135
     0.750000000  0.750000000  0.352052406
     0.000000000  0.500000000  0.352052406
     0.749801536  0.500061373  0.649757777
     0.000000164  0.750097477  0.649561823
     0.749898542  0.750008099  0.549495032
     0.999999798  0.500030615  0.549540140

  ion indices of the primitive-cell ions
   primitive index   ion index
                 1           1
                 2           2
                 3           3
                 4           4
                 5           5
                 6           6
                 7           7
                 8           8
[...]
   4.20243100  6.30364650  9.60121550
   2.10121550  6.30364650  7.50000000
   4.20243100  4.20243100  7.50000000
   2.10288250  4.20294338 13.84220760
   4.20243307  6.30632248 13.83490251
   2.10207053  6.30371361 11.70624440
   4.20243154  4.20057452 11.71152790
   6.30364650  0.00000000  9.60121550
   0.00000000  2.10121550  9.60121550
   6.30364650  2.10121550  7.50000000
   0.00000000  0.00000000  7.50000000
   6.30288276  0.00118077 13.83453674
   8.40486002  2.10260514 13.83673112
   6.30017822  2.10274201 11.71181699
   8.40486057  0.00207325 11.70592218
   6.30364650  4.20243100  9.60121550
   0.00000000  6.30364650  9.60121550
   6.30364650  6.30364650  7.50000000
   0.00000000  4.20243100  7.50000000
   6.30197844  4.20294683 13.84221000
   0.00000138  6.30446577 13.83803546
   6.30279376  6.30371457 11.70624792
   8.40486030  4.20268831 11.70720887

--------------------------------------- Iteration      FINAL  ---------------------------------------

--------------------OUTCAR has been truncated-------------------------

[...]

--------------------OUTCAR has been truncated-------------------------

  Number of pair interactions contributing to vdW energy:  871888
  Edisp (eV):   -5.42011

  FORCE on cell =-STRESS in cart. coord.  units (eV):
  Direction    XX          YY          ZZ          XY          YZ          ZX
  Alpha Z   927.94987   927.94987   927.94987
  Ewald  159504.68815159784.93983************    -0.00020    81.27469     0.00195
  Hartree169904.74096170072.87192************    -0.00035    42.25163     0.00056
  E(xc)   -2049.32782 -2049.09745 -2051.97194    -0.00000     0.09361     0.00001
  Local  ************************339208.74615     0.00064  -116.51294    -0.00202
  n-local -1205.89165 -1203.26759 -1229.08956    -0.00002     0.90875     0.00000
  augment   904.60621   902.82025   892.77351     0.00000    -0.55227    -0.00004
  Kinetic  7590.31470  7569.04085  7604.46381     0.00009    -7.69315    -0.00056
  Fock    -2013.67334 -2013.25275 -2010.52506    -0.00000     0.08508    -0.00000
  vdW        -7.72437    -7.76137    -6.68768    -0.00000    -0.02203     0.00000
  Total     -30.62945   -30.53652    -2.60053     0.00016    -0.16663    -0.00009
  in kB     -32.60879   -32.50985    -2.76859     0.00017    -0.17739    -0.00010

 VOLUME and BASIS-vectors are now :
  energy-cutoff  :      600.00
  volume of cell :     1504.93
      direct lattice vectors                 reciprocal lattice vectors
     8.404861995  0.000000000  0.000000000     0.118978753  0.000000000  0.000000000
     0.000000000  8.404861995  0.000000000     0.000000000  0.118978753  0.000000000
     0.000000000  0.000000000 21.303646496     0.000000000  0.000000000  0.046940321

  length of vectors
     8.404861995  8.404861995 21.303646496     0.118978753  0.118978753  0.046940321

 FORCES acting on ions:
    Electron-Ion                     Ewald-Force                    Non-Local-Force
   0.110E-02 -.120E+03 -.981E+03   -.121E-02 0.125E+03 0.982E+03   -.888E-04 -.466E+01 -.167E+01
   -.156E-02 0.167E+03 -.153E+04   0.246E-02 -.202E+03 0.156E+04   -.816E-03 0.307E+02 -.251E+02
   -.490E-03 -.164E+02 -.246E+03   0.526E-03 0.169E+02 0.252E+03   -.521E-04 -.492E+00 -.578E+01
   0.194E-02 0.214E+02 -.214E+03   -.212E-02 -.224E+02 0.206E+03   0.174E-03 0.948E+00 0.759E+01
   -.492E+02 -.386E+02 -.239E+03   0.539E+02 0.413E+02 0.237E+03   -.458E+01 -.258E+01 0.187E+01
   0.492E+02 -.386E+02 -.239E+03   -.539E+02 0.413E+02 0.237E+03   0.458E+01 -.258E+01 0.187E+01
   0.261E+00 0.128E+00 0.211E+04   -.263E+00 -.129E+00 -.210E+04   0.150E-02 0.369E-03 -.642E+01
   -.384E-05 0.149E+00 0.211E+04   0.504E-05 -.149E+00 -.210E+04   -.775E-06 0.704E-04 -.641E+01
   0.139E+01 0.608E+00 0.740E+03   -.137E+01 -.601E+00 -.741E+03   -.162E-01 -.457E-02 0.460E+00
   -.808E-07 0.770E+00 0.740E+03   0.410E-06 -.729E+00 -.741E+03   -.774E-06 -.268E-01 0.441E+00
   0.500E+01 0.361E+01 -.623E+03   -.502E+01 -.360E+01 0.624E+03   0.193E-01 -.762E-02 -.457E+00
   -.178E-03 0.390E+01 -.614E+03   0.167E-03 -.393E+01 0.613E+03   0.164E-04 0.252E-01 0.553E+00
   0.383E+02 0.147E+02 -.196E+04   -.392E+02 -.148E+02 0.195E+04   0.865E+00 0.955E-01 0.558E+01
   0.169E-03 0.264E+02 -.197E+04   -.193E-03 -.274E+02 0.196E+04   0.281E-04 0.898E+00 0.560E+01
   0.281E+00 -.129E+00 0.211E+04   -.284E+00 0.130E+00 -.210E+04   0.162E-02 -.591E-03 -.642E+01
   0.294E-05 -.146E+00 0.211E+04   -.309E-05 0.147E+00 -.210E+04   0.314E-06 -.662E-03 -.640E+01
   0.113E+01 -.574E+00 0.740E+03   -.116E+01 0.573E+00 -.740E+03   0.208E-01 0.747E-03 0.360E+00
   -.329E-04 -.771E+00 0.741E+03   0.325E-04 0.747E+00 -.742E+03   -.169E-06 0.169E-01 0.462E+00
   0.681E+01 -.371E+01 -.618E+03   -.684E+01 0.370E+01 0.619E+03   0.342E-01 0.118E-01 -.340E+00
   -.565E-04 -.380E+01 -.616E+03   0.727E-04 0.384E+01 0.617E+03   -.116E-04 -.331E-01 -.307E+00
   0.192E+02 -.130E+02 -.200E+04   -.194E+02 0.131E+02 0.199E+04   0.150E+00 -.894E-01 0.554E+01
   0.820E-03 -.312E+02 -.191E+04   -.835E-03 0.324E+02 0.191E+04   0.156E-04 -.106E+01 0.569E+01
   -.261E+00 0.128E+00 0.211E+04   0.263E+00 -.129E+00 -.210E+04   -.150E-02 0.367E-03 -.642E+01
   0.327E-05 0.128E+00 0.211E+04   -.423E-05 -.128E+00 -.210E+04   0.178E-05 0.137E-03 -.640E+01
   -.139E+01 0.608E+00 0.740E+03   0.137E+01 -.601E+00 -.741E+03   0.162E-01 -.456E-02 0.460E+00
   0.379E-04 0.509E+00 0.739E+03   -.392E-04 -.528E+00 -.739E+03   0.553E-06 0.123E-01 0.357E+00
   -.500E+01 0.361E+01 -.623E+03   0.502E+01 -.360E+01 0.624E+03   -.193E-01 -.765E-02 -.457E+00
   -.634E-06 0.218E+01 -.622E+03   -.501E-05 -.219E+01 0.622E+03   0.712E-05 0.484E-02 -.331E+00
   -.383E+02 0.147E+02 -.196E+04   0.392E+02 -.148E+02 0.195E+04   -.865E+00 0.954E-01 0.558E+01
   -.627E-03 0.104E+02 -.201E+04   0.614E-03 -.105E+02 0.200E+04   0.186E-04 0.109E+00 0.553E+01
   -.281E+00 -.129E+00 0.211E+04   0.284E+00 0.130E+00 -.210E+04   -.162E-02 -.590E-03 -.642E+01
   -.153E-06 -.126E+00 0.211E+04   0.117E-05 0.127E+00 -.210E+04   -.827E-06 -.349E-03 -.642E+01
   -.113E+01 -.574E+00 0.740E+03   0.116E+01 0.573E+00 -.740E+03   -.208E-01 0.747E-03 0.360E+00
   0.399E-04 -.521E+00 0.739E+03   -.392E-04 0.545E+00 -.740E+03   -.111E-05 -.157E-01 0.381E+00
   -.681E+01 -.371E+01 -.618E+03   0.684E+01 0.370E+01 0.619E+03   -.342E-01 0.118E-01 -.340E+00
   0.295E-03 -.201E+01 -.629E+03   -.276E-03 0.203E+01 0.629E+03   -.214E-04 -.172E-01 -.265E+00
   -.192E+02 -.130E+02 -.200E+04   0.194E+02 0.131E+02 0.199E+04   -.150E+00 -.895E-01 0.554E+01
   -.635E-03 -.107E+02 -.200E+04   0.637E-03 0.108E+02 0.199E+04   -.116E-05 -.112E+00 0.553E+01
   0.753E+00 0.392E+00 0.554E+03   -.766E+00 -.411E+00 -.554E+03   0.167E-01 0.239E-01 -.112E+00
   -.488E-04 0.496E+00 0.556E+03   0.530E-04 -.506E+00 -.556E+03   -.494E-05 0.124E-01 -.788E-01
   0.216E+00 0.104E+00 0.158E+04   -.215E+00 -.104E+00 -.159E+04   -.589E-03 0.287E-03 0.312E+01
   0.238E-06 0.107E+00 0.158E+04   0.238E-06 -.105E+00 -.159E+04   -.813E-06 -.213E-02 0.312E+01
   0.168E+02 0.145E+02 -.151E+04   -.168E+02 -.144E+02 0.152E+04   -.232E-01 -.293E-01 -.463E+01
   0.146E-02 0.211E+02 -.143E+04   -.147E-02 -.212E+02 0.143E+04   0.137E-05 0.494E-01 -.197E+01
   0.467E+01 0.224E+01 -.459E+03   -.472E+01 -.224E+01 0.459E+03   0.378E-01 0.749E-02 0.246E+00
   -.170E-04 0.280E+01 -.460E+03   0.178E-04 -.283E+01 0.459E+03   -.259E-05 0.275E-01 0.261E+00
   0.882E+00 -.390E+00 0.555E+03   -.893E+00 0.401E+00 -.555E+03   0.147E-01 -.149E-01 -.114E+00
   0.322E-04 -.447E+00 0.555E+03   -.246E-04 0.436E+00 -.555E+03   -.952E-05 0.113E-01 -.339E-01
   0.197E+00 -.103E+00 0.158E+04   -.202E+00 0.103E+00 -.159E+04   0.614E-02 -.500E-04 0.312E+01
   -.114E-05 -.109E+00 0.158E+04   0.171E-05 0.106E+00 -.159E+04   -.656E-07 0.286E-02 0.312E+01
   0.296E+02 -.157E+02 -.149E+04   -.296E+02 0.157E+02 0.150E+04   -.214E-01 0.393E-01 -.462E+01
   -.410E-03 -.170E+02 -.150E+04   0.447E-03 0.170E+02 0.151E+04   -.126E-04 -.504E-01 -.461E+01
   0.399E+01 -.214E+01 -.463E+03   -.400E+01 0.215E+01 0.462E+03   0.612E-02 -.800E-02 0.218E+00
   -.101E-03 -.287E+01 -.452E+03   0.109E-03 0.291E+01 0.452E+03   -.553E-05 -.337E-01 0.371E+00
   -.753E+00 0.392E+00 0.554E+03   0.766E+00 -.411E+00 -.554E+03   -.167E-01 0.239E-01 -.112E+00
   0.145E-04 0.361E+00 0.554E+03   -.143E-04 -.366E+00 -.554E+03   0.289E-06 0.706E-02 -.561E-01
   -.216E+00 0.104E+00 0.158E+04   0.215E+00 -.104E+00 -.159E+04   0.588E-03 0.287E-03 0.312E+01
   0.128E-05 0.885E-01 0.158E+04   -.120E-05 -.920E-01 -.159E+04   0.308E-06 0.433E-02 0.311E+01
   -.168E+02 0.145E+02 -.151E+04   0.168E+02 -.144E+02 0.152E+04   0.232E-01 -.293E-01 -.463E+01
   -.223E-03 0.592E+01 -.151E+04   0.189E-03 -.592E+01 0.152E+04   0.219E-04 -.464E-02 -.457E+01
   -.467E+01 0.224E+01 -.459E+03   0.472E+01 -.224E+01 0.459E+03   -.378E-01 0.749E-02 0.246E+00
   0.176E-03 0.226E+01 -.466E+03   -.182E-03 -.227E+01 0.466E+03   0.156E-05 0.151E-01 0.180E+00
   -.882E+00 -.390E+00 0.555E+03   0.893E+00 0.401E+00 -.555E+03   -.147E-01 -.149E-01 -.114E+00
   0.759E-05 -.329E+00 0.553E+03   -.102E-04 0.327E+00 -.553E+03   0.318E-05 0.149E-02 -.103E+00
   -.197E+00 -.103E+00 0.158E+04   0.202E+00 0.103E+00 -.159E+04   -.614E-02 -.497E-04 0.312E+01
   0.254E-05 -.894E-01 0.158E+04   -.196E-05 0.927E-01 -.159E+04   -.167E-06 -.409E-02 0.311E+01
   -.296E+02 -.157E+02 -.149E+04   0.296E+02 0.157E+02 0.150E+04   0.214E-01 0.393E-01 -.462E+01
   -.698E-03 -.574E+01 -.153E+04   0.744E-03 0.574E+01 0.153E+04   -.287E-04 0.134E-02 -.456E+01
   -.399E+01 -.214E+01 -.463E+03   0.400E+01 0.215E+01 0.462E+03   -.611E-02 -.800E-02 0.218E+00
   0.125E-03 -.240E+01 -.463E+03   -.125E-03 0.242E+01 0.463E+03   -.613E-05 -.159E-01 0.223E+00
   0.991E-03 -.247E+02 0.396E+02   -.540E-12 -.412E-12 -.483E-11   -.856E-03 0.212E+02 -.347E+02

 POSITION                                       TOTAL-FORCE (eV/Angst)
      4.20246      3.64993     16.91459        -0.000204     -0.003706     -0.000942
      4.20247      2.26607     16.59010        -0.000019     -0.004831      0.000915
      4.20247      3.74389     18.00032        -0.000017     -0.002269      0.001400
      4.20244      2.18084     15.60771         0.000009     -0.002948     -0.002664
      5.09651      4.15906     16.52844        -0.001333     -0.001907      0.000135
      3.30840      4.15906     16.52845         0.001601     -0.002087      0.000270
      2.10122      0.00000      7.50000        -0.000636     -0.000298      0.406230
      4.20243      2.10122      7.50000        -0.000000     -0.000123      0.405133
      2.10122      2.10122      9.60122         0.005116      0.001778      0.041489
      4.20243      0.00000      9.60122        -0.000001      0.010578      0.038278
      2.10061      0.00103     11.71492         0.000671     -0.000266      0.001446
      4.20243      2.10192     11.71298         0.000005     -0.000470     -0.000285
      2.08205      2.09963     13.80727         0.001002     -0.000074     -0.001933
      4.20243      8.38678     13.80376         0.000006     -0.000715     -0.001761
      2.10122      4.20243      7.50000        -0.000652      0.000192      0.406589
      4.20243      6.30365      7.50000        -0.000000      0.000104      0.402236
      2.10122      6.30365      9.60122        -0.008655     -0.000197      0.040381
      4.20243      4.20243      9.60122        -0.000001     -0.004918      0.039002
      2.10023      4.20279     11.71538         0.000054     -0.000651      0.000329
      4.20243      6.30600     11.71033         0.000002     -0.000078      0.000567
      2.09716      6.30696     13.80141         0.000255      0.000181     -0.000973
      4.20243      4.22971     13.79747         0.000002     -0.002445     -0.004383
      6.30365      0.00000      7.50000         0.000636     -0.000299      0.406230
      0.00000      2.10122      7.50000         0.000000     -0.000162      0.403232
      6.30365      2.10122      9.60122        -0.005119      0.001777      0.041490
      0.00000      0.00000      9.60122        -0.000001     -0.004934      0.040786
      6.30425      0.00103     11.71492        -0.000669     -0.000271      0.001443
      8.40486      2.10158     11.71262         0.000002     -0.001438      0.001213
      6.32281      2.09963     13.80727        -0.000987     -0.000087     -0.001932
      8.40486      8.40290     13.80445         0.000006     -0.000700      0.001962
      6.30365      4.20243      7.50000         0.000650      0.000192      0.406590
      0.00000      6.30365      7.50000        -0.000000      0.000046      0.408225
      6.30365      6.30365      9.60122         0.008653     -0.000197      0.040379
      0.00000      4.20243      9.60122        -0.000001      0.006696      0.040759
      6.30464      4.20279     11.71538        -0.000057     -0.000655      0.000329
      0.00000      6.30472     11.71238        -0.000005     -0.001696      0.001743
      6.30770      6.30696     13.80141        -0.000286      0.000166     -0.000991
      8.40486      4.20640     13.80291         0.000001     -0.000821     -0.001017
      2.10122      0.00000      9.60122         0.006356      0.008238      0.049827
      4.20243      2.10122      9.60122        -0.000002      0.004132      0.050224
      2.10122      2.10122      7.50000        -0.000233      0.000007     -0.493891
      4.20243      0.00000      7.50000        -0.000001     -0.000823     -0.493447
      2.10233      0.00159     13.83432        -0.000554     -0.001448      0.000399
      4.20243      2.10353     13.86942        -0.000015      0.000905      0.000484
      2.10504      2.10265     11.71136        -0.002051     -0.000758     -0.001433
      4.20243      0.00499     11.70992        -0.000003     -0.001925     -0.001926
      2.10122      4.20243      9.60122         0.005883     -0.005675      0.051167
      4.20243      6.30365      9.60122        -0.000004      0.002560      0.054463
      2.10122      6.30365      7.50000         0.002036     -0.000084     -0.495063
      4.20243      4.20243      7.50000         0.000000      0.000922     -0.493461
      2.10310      4.20269     13.84130        -0.000317      0.000289      0.000446
      4.20243      6.30585     13.83405         0.000024      0.002053     -0.000286
      2.10173      6.30368     11.70616         0.001112     -0.000538     -0.001914
      4.20243      4.19999     11.71049         0.000002      0.002157     -0.000751
      6.30365      0.00000      9.60122        -0.006357      0.008239      0.049826
      0.00000      2.10122      9.60122         0.000000      0.002372      0.058642
      6.30365      2.10122      7.50000         0.000231      0.000006     -0.493889
      0.00000      0.00000      7.50000         0.000000      0.001350     -0.495290
      6.30253      0.00159     13.83432         0.000536     -0.001442      0.000389
      0.00000      2.10246     13.83649        -0.000011      0.000435      0.000392
      6.29982      2.10265     11.71136         0.002043     -0.000746     -0.001429
      0.00000      0.00117     11.70622        -0.000006      0.003481     -0.002040
      6.30365      4.20243      9.60122        -0.005884     -0.005676      0.051167
      0.00000      6.30365      9.60122         0.000001     -0.000193      0.039577
      6.30365      6.30365      7.50000        -0.002037     -0.000085     -0.495063
      0.00000      4.20243      7.50000        -0.000000     -0.001426     -0.495305
      6.30176      4.20269     13.84130         0.000315      0.000318      0.000453
     -0.00000      6.30425     13.83871         0.000015      0.000265      0.000110
      6.30313      6.30368     11.70616        -0.001100     -0.000532     -0.001888
      0.00000      4.20225     11.70724        -0.000008      0.001159     -0.002391
    total drift:                                0.000031      0.005994      0.002479

  FREE ENERGIE OF THE ION-ELECTRON SYSTEM (eV)
  free  energy   TOTEN  =      -474.68762517 eV

  energy  without entropy=     -474.68762517  energy(sigma->0) =     -474.68762517

 d Force = 0.1067737E-04[ 0.566E-05, 0.157E-04]  d Energy = 0.1013842E-04 0.539E-06
 d Force =-0.2088681E+01[-0.209E+01,-0.209E+01]  d Ewald  =-0.2088682E+01 0.823E-06

 Conjugate gradient step on ions:
 trial-energy change:   -0.000010  1 .order   -0.000011   -0.000016   -0.000006
  (g-gl).g = 0.325E-04      g.g   = 0.370E-04  gl.gl    = 0.259E-04
 g(Force)  = 0.370E-04   g(Stress)= 0.000E+00 ortho     = 0.126E-05
 gamma     =   1.25227
 trial     =   0.40652
 opt step  =   0.63582  (harmonic =   0.63582) maximal distance =0.00030125
 next E    =  -474.687627   (d E  =  -0.00001)

 reached required accuracy - stopping structural energy minimisation