 vasp.6.3.0 20Jan22 (build Mar 11 2022 13:48:16) complex

 executed on             LinuxIFC date 2023.12.29  11:18:38

 INCAR:
   SYSTEM = TiO2
   ISMEAR = 0
   SIGMA = 0.05
   EDIFF = 1E-7
   ALGO = ALL
   ISTART = 0
   IBRION = 2
   NSW = 1000
   ISYM = 0
   ISIF = 2
   EDIFFG = -0.01
   DIPOL = 0.5 0.5 0.5
   IDIPOL = 3
   LDIPOL = .TRUE.
   LHFCALC = .TRUE.
   HFSCREEN = 0.2
   GGA = PE
   IVDW = 13
   VDW_S8 = 1.19528249
   VDW_A1 = 0.38663183
   VDW_A2 = 5.19133469
   ENCUT = 520
   PREC = Normal
   PRECFOCK = Fast
   LASPH = .TRUE.
   LREAL = .FALSE.
   ISPIN = 1
   NKREDX = 2
   NKREDY = 2
   NELM = 200
   NELMIN = 8
   NCORE = 19
   KPAR = 1
   LWAVE = .FALSE.
   LCHARG = .FALSE.

 POTCAR:    PAW_PBE C 08Apr2002
 POTCAR:    PAW_PBE O 08Apr2002
 POTCAR:    PAW_PBE Ti 08Apr2002
 POTCAR:    PAW_PBE O 08Apr2002
 POTCAR:    PAW_PBE C 08Apr2002
   VRHFIN =C: s2p2

   TITEL  = PAW_PBE C 08Apr2002
   POMASS =   12.011; ZVAL   =    4.000    mass and valenz
   ENMAX  =  400.000; ENMIN  =  300.000 eV

[...]

   TITEL  = PAW_PBE O 08Apr2002
   POMASS =   16.000; ZVAL   =    6.000    mass and valenz
   ENMAX  =  400.000; ENMIN  =  300.000 eV

  PAW_PBE C 08Apr2002                   :
  PAW_PBE O 08Apr2002                   :
  PAW_PBE Ti 08Apr2002                  :
  PAW_PBE O 08Apr2002                   :

 POSCAR:  C  O Ti  O
  positions in direct lattice
  velocities in cartesian coordinates
|           W    W    AA    RRRRR   N    N  II  N    N   GGGG   !!!           |
|           W    W   A  A   R    R  NN   N  II  NN   N  G    G  !!!           |
|           W    W  A    A  R    R  N N  N  II  N N  N  G       !!!           |
|           W WW W  AAAAAA  RRRRR   N  N N  II  N  N N  G  GGG   !            |
|           WW  WW  A    A  R   R   N   NN  II  N   NN  G    G                |
|           W    W  A    A  R    R  N    N  II  N    N   GGGG   !!!           |
|     Specifying the vdW parameters                                           |
|     VDW_S8 = 1.195                                                          |
|     VDW_A1 = 0.387                                                          |
|     VDW_A2 = 5.191                                                          |
|     in the INCAR file will overwrite the defaults for hse06. Please         |
|     make sure that is what you intended.                                    |

 ion  position               nearest neighbor table
   1  0.421  0.500  0.851-   2 1.15   3 1.17
   2  0.363  0.500  0.883-   1 1.15
   3  0.484  0.500  0.820-   1 1.17  83 2.42
   4  0.750  0.625  0.264-  85 1.94 145 1.94 144 1.94  84 1.94 166 1.97  87 1.97  14 2.94  34 2.94

   5  0.000  0.750  0.264-  87 1.94 107 1.94 106 1.94  86 1.94  88 1.97  35 2.94  15 2.94
   6  0.000  0.625  0.382-  89 1.94 149 1.94 148 1.94  88 1.94  90 1.97  91 1.97  16 2.94  36 2.94

[...]

  84  0.750  0.750  0.218-   4 1.94  14 1.94
  85  0.750  0.750  0.311-   4 1.94  14 1.94   7 1.97
  86  0.098  0.625  0.264-   5 1.94  35 1.94  44 1.97
  87  0.902  0.625  0.264-   5 1.94  35 1.94   4 1.97
  88  0.000  0.750  0.336-   6 1.94  16 1.94   5 1.97
  89  0.000  0.750  0.428-   6 1.94  16 1.94   9 1.97
  90  0.848  0.625  0.382-   7 1.94  37 1.94   6 1.97
  91  0.152  0.625  0.382-  47 1.94  77 1.94   6 1.97
  92  0.750  0.750  0.454-   8 1.94  18 1.94   7 1.97
  93  0.750  0.750  0.546-   8 1.94  18 1.94  11 2.08
  94  0.098  0.625  0.500-   9 1.94  39 1.94  48 1.97
  95  0.902  0.625  0.500-   9 1.94  39 1.94   8 1.97
  96  1.000  0.750  0.572-  20 1.89  10 1.89   9 1.98
  97  0.000  0.750  0.665-  13 1.82  10 1.99  20 2.00
  98  0.850  0.625  0.618-  10 1.94  11 1.96  41 1.96
  99  0.150  0.625  0.618-  10 1.94  51 1.96  81 1.96
 100  0.750  0.750  0.690-  11 1.86  22 2.07  12 2.07
 101  0.750  0.750  0.782-  12 1.83  22 1.83
 102  0.094  0.625  0.742-  43 1.93  13 1.93  52 2.02
 103  0.906  0.625  0.742-  43 1.93  13 1.93  12 2.03
 104  0.750  0.000  0.218-  14 1.94  24 1.94
 105  0.750  0.000  0.311-  14 1.94  24 1.94  17 1.97
 106  0.098  0.875  0.264-   5 1.94  15 1.94  54 1.97
 107  0.902  0.875  0.264-   5 1.94  15 1.94  14 1.97
 108  0.000  0.000  0.336-  16 1.94  26 1.94  15 1.97
 109  0.000  0.000  0.428-  16 1.94  26 1.94  19 1.97
 110  0.848  0.875  0.382-   7 1.94  17 1.94  16 1.97
 111  0.152  0.875  0.382-  47 1.94  57 1.94  16 1.97
 112  0.750  0.000  0.454-  18 1.94  28 1.94  17 1.97
 113  0.750  0.000  0.546-  18 1.94  28 1.94  21 2.08
 114  0.098  0.875  0.500-   9 1.94  19 1.94  58 1.97
 115  0.902  0.875  0.500-   9 1.94  19 1.94  18 1.97
 116  1.000  0.000  0.572-  30 1.89  20 1.89  19 1.98
 117  0.000  1.000  0.665-  23 1.81  20 1.99  30 1.99
 118  0.850  0.875  0.618-  20 1.94  21 1.96  11 1.96
 119  0.150  0.875  0.618-  20 1.94  61 1.96  51 1.96
 120  0.750  1.000  0.690-  21 1.86  22 2.07  32 2.07
 121  0.750  0.000  0.783-  32 1.83  22 1.83
 122  0.094  0.875  0.742-  13 1.93  23 1.93  62 2.03
 123  0.906  0.875  0.742-  13 1.93  23 1.93  22 2.03
 124  0.750  0.250  0.218-  24 1.94  34 1.94
 125  0.750  0.250  0.311-  24 1.94  34 1.94  27 1.97
 126  0.098  0.125  0.264-  15 1.94  25 1.94  64 1.97
 127  0.902  0.125  0.264-  15 1.94  25 1.94  24 1.97
 128  0.000  0.250  0.336-  26 1.94  36 1.94  25 1.97
 129  0.000  0.250  0.428-  26 1.94  36 1.94  29 1.97
 130  0.848  0.125  0.382-  17 1.94  27 1.94  26 1.97
 131  0.152  0.125  0.382-  57 1.94  67 1.94  26 1.97
 132  0.750  0.250  0.454-  28 1.94  38 1.94  27 1.97
 133  0.750  0.250  0.546-  28 1.94  38 1.94  31 2.08
 134  0.098  0.125  0.500-  19 1.94  29 1.94  68 1.97
 135  0.902  0.125  0.500-  19 1.94  29 1.94  28 1.97
 136  1.000  0.250  0.572-  30 1.89  40 1.89  29 1.98
 137  0.000  0.250  0.665-  33 1.82  40 1.99  30 2.00
 138  0.850  0.125  0.618-  30 1.94  21 1.96  31 1.96
 139  0.150  0.125  0.618-  30 1.94  61 1.96  71 1.96
 140  0.750  0.250  0.690-  31 1.86  32 2.07  42 2.07
 141  0.750  0.250  0.782-  42 1.83  32 1.83
 142  0.094  0.125  0.742-  33 1.93  23 1.93  72 2.03
 143  0.906  0.125  0.742-  33 1.93  23 1.93  32 2.03
[...]
 229  0.500  0.500  0.428-  46 1.94  76 1.94  79 1.97
 230  0.348  0.375  0.382-  67 1.94  77 1.94  76 1.97
 231  0.652  0.375  0.382-  27 1.94  37 1.94  76 1.97
 232  0.250  0.500  0.454-  48 1.94  78 1.94  77 1.97
 233  0.250  0.500  0.546-  48 1.94  78 1.94  81 2.08
 234  0.598  0.375  0.500-  69 1.94  79 1.94  38 1.97
 235  0.402  0.375  0.500-  69 1.94  79 1.94  78 1.97
 236  0.500  0.500  0.572-  80 1.89  50 1.89  79 1.99
 237  0.500  0.500  0.665-  83 1.85  80 1.99  50 1.99
 238  0.350  0.375  0.619-  80 1.95  81 1.96  71 1.96
 239  0.650  0.375  0.619-  80 1.95  41 1.96  31 1.96
 240  0.248  0.500  0.690-  81 1.86  82 2.07  52 2.07
 241  0.254  0.500  0.782-  52 1.84  82 1.84
 242  0.594  0.374  0.741-  73 1.92  83 1.94  42 2.02
 243  0.405  0.373  0.740-  73 1.92  83 1.93  82 2.02

IMPORTANT INFORMATION: All symmetrisations will be switched off!
NOSYMM: (Re-)initialisation of all symmetry stuff for point group C_1.

                                     Primitive cell

  volume of cell :    4180.4259

  direct lattice vectors                    reciprocal lattice vectors
    12.939701814  0.000000000  0.000000000     0.077281534  0.000000000  0.000000000
     0.000000000 11.760793336  0.000000000     0.000000000  0.085028278  0.000000000
     0.000000000  0.000000000 27.470062065     0.000000000  0.000000000  0.036403267

  length of vectors
    12.939701814 11.760793336 27.470062065     0.077281534  0.085028278  0.036403267

  position of ions in fractional coordinates (direct lattice)
     0.421316691  0.500000017  0.851145476
     0.362713346  0.499999932  0.882754339
     0.484293986  0.500000110  0.820492982
     0.750000000  0.625000000  0.264476291
     0.000000000  0.750000000  0.264476291
     0.000000000  0.625000000  0.382238145
     0.750000000  0.750000000  0.382238145
     0.750000000  0.625000000  0.500000000
     0.000000000  0.750000000  0.500000000
     0.999963975  0.625011895  0.615469650
     0.750005790  0.749972356  0.621918588
     0.749746505  0.625058805  0.742916005
     0.000033074  0.750094724  0.730647727
     0.750000000  0.875000000  0.264476291
     0.000000000  0.000000000  0.264476291
     0.000000000  0.875000000  0.382238145
     0.750000000  0.000000000  0.382238145
     0.750000000  0.875000000  0.500000000
     0.000000000  0.000000000  0.500000000
     0.999941055  0.875005670  0.615522676
     0.750001644  0.000000000  0.621917319
     0.749939616  0.875075187  0.742947136
     0.000222381  0.999999996  0.730652574
     0.750000000  0.125000000  0.264476291
     0.000000000  0.250000000  0.264476291
     0.000000000  0.125000000  0.382238145
     0.750000000  0.250000000  0.382238145
     0.750000000  0.125000000  0.500000000
     0.000000000  0.250000000  0.500000000
     0.999941052  0.124994330  0.615522677
     0.750005791  0.250027646  0.621918587
     0.749939626  0.124924806  0.742947134
     0.000033075  0.249905281  0.730647729
     0.750000000  0.375000000  0.264476291
     0.000000000  0.500000000  0.264476291
     0.000000000  0.375000000  0.382238145
     0.750000000  0.500000000  0.382238145
     0.750000000  0.375000000  0.500000000
     0.000000000  0.500000000  0.500000000
     0.999963981  0.374988099  0.615469649
     0.750083641  0.499999998  0.621971673
     0.749746497  0.374941194  0.742916009
     0.999466084  0.499999996  0.730610204
     0.250000000  0.625000000  0.264476291
     0.500000000  0.750000000  0.264476291
     0.500000000  0.625000000  0.382238145
     0.250000000  0.750000000  0.382238145
     0.250000000  0.625000000  0.500000000
     0.500000000  0.750000000  0.500000000
     0.500005686  0.624135982  0.616218243
     0.249922760  0.750083785  0.621741245
     0.249367990  0.625354482  0.742325491
     0.500342415  0.750205284  0.730106286
     0.250000000  0.875000000  0.264476291
     0.500000000  0.000000000  0.264476291
     0.500000000  0.875000000  0.382238145
     0.250000000  0.000000000  0.382238145
     0.250000000  0.875000000  0.500000000
     0.500000000  0.000000000  0.500000000
     0.500113206  0.874639219  0.615017045
[...]
     0.500000000  0.500000000  0.428294835
     0.347775060  0.375000000  0.382238145
     0.652224940  0.375000000  0.382238145
     0.250000000  0.500000000  0.453943310
     0.250000000  0.500000000  0.546056690
     0.597775060  0.375000000  0.500000000
     0.402224940  0.375000000  0.500000000
     0.499951787  0.500000018  0.572480930
     0.500141594  0.499999970  0.665490255
     0.349679894  0.375054502  0.618668354
     0.650290705  0.375100976  0.618576758
     0.247864109  0.499999977  0.689571487
     0.253778558  0.500000007  0.782131934
     0.593675758  0.374215361  0.741476342
     0.405288289  0.373080618  0.740187305

  ion indices of the primitive-cell ions
   primitive index   ion index
                 1           1
                 2           2
                 3           3
                 4           4
                 5           5
                 6           6
                 7           7
                 8           8
                 9           9
                10          10
[...]
   3.20728765  5.88039639 18.94257154
   3.28381886  5.88039675 21.48521276
   7.68198729  4.40106953 20.36840113
   5.24430961  4.38772405 20.33299120

--------------------------------------- Iteration      FINAL  ---------------------------------------

--------------------OUTCAR has been truncated-------------------------

[...]

--------------------OUTCAR has been truncated-------------------------

  FORCE on cell =-STRESS in cart. coord.  units (eV):
  Direction    XX          YY          ZZ          XY          YZ          ZX
  Alpha Z  3354.62535  3354.62535  3354.62535
  Ewald  345199.65601350007.72907************     0.00057    -0.00039  -304.24354
  Hartree367631.51186368717.26377************     0.00029    -0.00011  -104.14885
  E(xc)   -4703.16403 -4754.58649 -4703.14248     0.00000     0.00000    -0.57532
  Local  ************************724783.11668    -0.00081     0.00045   370.62924
  n-local -2917.47056 -2809.04521 -2975.57020    -0.00000     0.00000     2.51754
  augment  1349.22992  1330.41293  1353.89978    -0.00000     0.00000     1.41793
  Kinetic 23699.83632 23189.27384 23743.88709    -0.00004     0.00005    32.60586
  Fock    -2156.44054 -2180.23164 -2159.04872    -0.00000     0.00000     1.79490
  vdW       -50.87402   -50.97512   -44.57821     0.00000     0.00000    -0.00558
  Total      10.79523   -42.86093   -33.83192     0.00000    -0.00000    -0.00781
  in kB       4.13735   -16.42675   -12.96632     0.00000    -0.00000    -0.00299

 VOLUME and BASIS-vectors are now :
  energy-cutoff  :      520.00
  volume of cell :     4180.43
      direct lattice vectors                 reciprocal lattice vectors
    12.939701814  0.000000000  0.000000000     0.077281534  0.000000000  0.000000000
     0.000000000 11.760793336  0.000000000     0.000000000  0.085028278  0.000000000
     0.000000000  0.000000000 27.470062065     0.000000000  0.000000000  0.036403267

  length of vectors
    12.939701814 11.760793336 27.470062065     0.077281534  0.085028278  0.036403267

 FORCES acting on ions:
    Electron-Ion                     Ewald-Force                    Non-Local-Force
   -.187E+02 -.198E-04 -.877E+03   0.179E+02 0.181E-04 0.877E+03   0.793E+00 0.157E-05 0.936E-01
   0.167E+03 0.249E-03 -.130E+04   -.213E+03 -.313E-03 0.135E+04   0.402E+02 0.550E-04 -.451E+02
   -.202E+03 -.337E-03 -.135E+04   0.248E+03 0.402E-03 0.131E+04   -.398E+02 -.565E-04 0.357E+02
   -.295E+00 -.127E+00 0.963E+03   0.295E+00 0.127E+00 -.966E+03   0.164E-04 0.116E-03 -.124E+01
   0.189E+00 -.174E+00 0.104E+04   -.189E+00 0.174E+00 -.103E+04   -.714E-04 0.435E-04 -.183E+01
   0.108E+00 -.669E-01 0.500E+03   -.111E+00 0.668E-01 -.500E+03   -.784E-03 0.486E-04 0.183E+00
   -.168E+00 -.812E-01 0.497E+03   0.167E+00 0.816E-01 -.497E+03   -.357E-03 0.175E-03 -.165E+00
   -.538E+00 -.205E+00 0.598E+01   0.530E+00 0.201E+00 -.550E+01   -.252E-02 -.197E-02 0.186E+00
   0.329E+00 -.349E+00 0.646E+01   -.335E+00 0.352E+00 -.708E+01   -.134E-02 -.544E-03 -.791E-01
   0.166E+01 -.104E+01 -.477E+03   -.166E+01 0.104E+01 0.477E+03   -.144E-02 -.363E-02 -.647E-01
   -.328E+01 -.228E+01 -.485E+03   0.329E+01 0.229E+01 0.485E+03   -.380E-02 -.193E-02 0.500E-01
   -.197E+02 -.797E+01 -.934E+03   0.197E+02 0.798E+01 0.933E+03   0.749E-02 -.590E-02 0.954E-03
   0.391E+01 -.434E+01 -.970E+03   -.391E+01 0.431E+01 0.971E+03   0.110E-01 0.385E-03 0.677E+00
   -.262E+00 -.126E+00 0.964E+03   0.262E+00 0.126E+00 -.966E+03   0.147E-05 0.119E-03 -.124E+01
   0.170E+00 -.553E-07 0.104E+04   -.170E+00 0.106E-07 -.103E+04   -.765E-04 -.110E-06 -.183E+01
   0.975E-01 -.671E-01 0.500E+03   -.995E-01 0.670E-01 -.500E+03   -.706E-03 0.123E-04 0.183E+00
   -.175E+00 -.133E-06 0.497E+03   0.173E+00 0.114E-06 -.497E+03   -.433E-03 -.253E-07 -.165E+00
   -.622E+00 -.202E+00 0.557E+01   0.616E+00 0.202E+00 -.510E+01   -.129E-02 0.563E-05 0.185E+00
   0.266E+00 -.117E-05 0.608E+01   -.270E+00 0.127E-05 -.669E+01   -.106E-02 -.798E-07 -.783E-01
   0.100E+01 -.100E+01 -.479E+03   -.992E+00 0.999E+00 0.479E+03   -.296E-02 -.332E-02 -.640E-01
   -.249E+01 -.101E-04 -.488E+03   0.250E+01 0.103E-04 0.487E+03   0.449E-02 0.101E-05 0.560E-01
   -.806E+01 -.569E+01 -.943E+03   0.805E+01 0.568E+01 0.942E+03   0.156E-01 -.277E-03 -.738E-03
   0.253E+01 -.568E-05 -.973E+03   -.253E+01 0.668E-05 0.973E+03   0.354E-02 -.151E-08 0.690E+00
   -.262E+00 0.126E+00 0.964E+03   0.262E+00 -.126E+00 -.966E+03   0.145E-05 -.119E-03 -.124E+01
   0.189E+00 0.174E+00 0.104E+04   -.189E+00 -.174E+00 -.103E+04   -.716E-04 -.435E-04 -.183E+01
   0.975E-01 0.671E-01 0.500E+03   -.995E-01 -.670E-01 -.500E+03   -.705E-03 -.120E-04 0.183E+00
   -.168E+00 0.812E-01 0.497E+03   0.167E+00 -.816E-01 -.497E+03   -.358E-03 -.175E-03 -.165E+00
   -.622E+00 0.202E+00 0.557E+01   0.616E+00 -.202E+00 -.510E+01   -.129E-02 -.576E-05 0.185E+00
   0.329E+00 0.349E+00 0.646E+01   -.335E+00 -.352E+00 -.708E+01   -.134E-02 0.545E-03 -.791E-01
   0.100E+01 0.100E+01 -.479E+03   -.992E+00 -.999E+00 0.479E+03   -.296E-02 0.332E-02 -.640E-01
   -.328E+01 0.228E+01 -.485E+03   0.329E+01 -.229E+01 0.485E+03   -.380E-02 0.193E-02 0.500E-01
   -.806E+01 0.569E+01 -.943E+03   0.805E+01 -.568E+01 0.942E+03   0.156E-01 0.277E-03 -.738E-03
   0.391E+01 0.434E+01 -.970E+03   -.391E+01 -.431E+01 0.971E+03   0.110E-01 -.385E-03 0.677E+00
   -.295E+00 0.127E+00 0.963E+03   0.295E+00 -.127E+00 -.966E+03   0.164E-04 -.116E-03 -.124E+01
   0.208E+00 0.375E-07 0.104E+04   -.208E+00 -.955E-08 -.103E+04   -.664E-04 0.280E-07 -.183E+01
   0.108E+00 0.669E-01 0.500E+03   -.111E+00 -.668E-01 -.500E+03   -.784E-03 -.487E-04 0.183E+00
   -.162E+00 -.240E-07 0.497E+03   0.161E+00 -.692E-07 -.497E+03   -.300E-03 -.199E-06 -.164E+00
   -.538E+00 0.205E+00 0.598E+01   0.530E+00 -.201E+00 -.550E+01   -.252E-02 0.197E-02 0.186E+00
   0.383E+00 0.126E-05 0.684E+01   -.392E+00 -.124E-05 -.746E+01   -.158E-02 -.289E-07 -.805E-01
   0.166E+01 0.104E+01 -.477E+03   -.166E+01 -.104E+01 0.477E+03   -.144E-02 0.363E-02 -.647E-01
   -.426E+01 -.184E-05 -.483E+03   0.426E+01 0.209E-05 0.482E+03   0.287E-02 -.661E-06 0.431E-01
   -.197E+02 0.797E+01 -.934E+03   0.197E+02 -.798E+01 0.933E+03   0.749E-02 0.590E-02 0.955E-03
   0.592E+01 0.669E-06 -.967E+03   -.589E+01 -.102E-05 0.968E+03   -.223E-01 -.329E-06 0.661E+00
   0.299E+00 -.158E+00 0.963E+03   -.299E+00 0.158E+00 -.966E+03   -.145E-04 0.111E-03 -.124E+01
   -.192E+00 -.227E+00 0.104E+04   0.192E+00 0.227E+00 -.103E+04   0.705E-04 0.173E-03 -.183E+01
   -.107E+00 -.514E-01 0.500E+03   0.110E+00 0.567E-01 -.500E+03   0.789E-03 0.170E-02 0.184E+00
   0.167E+00 -.984E-01 0.497E+03   -.166E+00 0.991E-01 -.497E+03   0.355E-03 0.536E-03 -.166E+00
   0.486E+00 -.288E+00 0.673E+01   -.478E+00 0.291E+00 -.628E+01   0.307E-02 0.203E-02 0.175E+00
   -.328E+00 -.466E+00 0.758E+01   0.334E+00 0.439E+00 -.814E+01   0.237E-02 0.101E-01 -.713E-01
   -.157E+01 -.228E+01 -.471E+03   0.157E+01 0.238E+01 0.471E+03   -.297E-02 -.521E-01 -.391E-01
   0.298E+01 -.312E+01 -.482E+03   -.298E+01 0.312E+01 0.482E+03   0.833E-02 -.460E-02 0.423E-01
   0.286E+02 -.148E+02 -.915E+03   -.286E+02 0.147E+02 0.914E+03   -.438E-01 0.182E-01 0.466E-01
   -.732E+01 -.257E+02 -.949E+03   0.729E+01 0.258E+02 0.950E+03   0.407E-01 -.208E-01 0.752E+00
   0.264E+00 -.156E+00 0.963E+03   -.264E+00 0.156E+00 -.966E+03   0.525E-06 0.129E-03 -.124E+01
   -.172E+00 -.519E-07 0.104E+04   0.172E+00 -.757E-08 -.103E+04   0.761E-04 0.266E-07 -.183E+01
   -.965E-01 -.538E-01 0.500E+03   0.984E-01 0.566E-01 -.500E+03   0.719E-03 0.603E-03 0.186E+00
   0.174E+00 -.102E-06 0.497E+03   -.172E+00 0.896E-07 -.497E+03   0.473E-03 -.177E-06 -.166E+00
   0.586E+00 -.297E+00 0.608E+01   -.580E+00 0.312E+00 -.562E+01   0.122E-02 0.851E-02 0.180E+00
   -.249E+00 0.444E-05 0.781E+01   0.252E+00 -.394E-05 -.847E+01   0.123E-02 0.397E-07 -.108E+00
   -.807E+00 -.333E+01 -.471E+03   0.800E+00 0.339E+01 0.472E+03   -.121E-02 -.713E-02 -.133E+00
[...]
   -.256E+02 0.965E-01 0.747E+03   0.300E+02 -.978E-01 -.747E+03   -.344E+01 0.177E-02 0.194E+00
   0.254E+02 0.821E-01 0.747E+03   -.298E+02 -.830E-01 -.747E+03   0.343E+01 0.112E-02 0.189E+00
   0.421E+00 -.625E-06 0.322E+03   -.415E+00 0.177E-06 -.327E+03   -.705E-02 0.169E-06 0.412E+01
   0.121E+01 -.107E-04 -.306E+03   -.119E+01 0.101E-04 0.314E+03   -.182E-01 0.513E-06 -.660E+01
   -.256E+02 0.949E-01 0.119E+02   0.309E+02 -.997E-01 -.121E+02   -.500E+01 0.200E-01 0.281E+00
   0.247E+02 0.162E+00 0.125E+02   -.300E+02 -.169E+00 -.127E+02   0.497E+01 0.227E-01 0.288E+00
   -.135E+01 -.718E-05 -.402E+03   0.134E+01 0.143E-04 0.395E+03   0.872E-02 -.598E-05 0.634E+01
   -.703E+01 0.581E-04 -.100E+04   0.721E+01 -.615E-04 0.100E+04   -.153E+00 0.324E-05 0.915E+00
   -.909E+01 0.380E+01 -.711E+03   0.124E+02 -.386E+01 0.711E+03   -.292E+01 0.489E-01 0.675E+00
   0.605E+01 0.279E+01 -.715E+03   -.940E+01 -.286E+01 0.714E+03   0.293E+01 0.571E-01 0.806E+00
   0.225E+02 0.190E-04 -.111E+04   -.229E+02 -.235E-04 0.112E+04   0.303E+00 0.334E-05 -.193E+01
   0.934E+02 -.152E-04 -.159E+04   -.932E+02 0.985E-05 0.161E+04   -.158E+00 0.348E-05 -.190E+02
   -.388E+02 0.365E+02 -.142E+04   0.456E+02 -.363E+02 0.143E+04   -.590E+01 -.254E+00 -.344E+01
   0.131E+02 0.501E+02 -.139E+04   -.199E+02 -.502E+02 0.139E+04   0.595E+01 0.414E-01 -.263E+01
   -.209E+01 -.163E-04 0.108E+03   0.682E-12 0.497E-13 -.978E-11   0.186E+01 0.131E-04 -.993E+02

 POSITION                                       TOTAL-FORCE (eV/Angst)
      5.45175      5.88040     23.38027        -0.002714     -0.000000      0.001980
      4.69386      5.88040     24.24950         0.006384     -0.000000     -0.004621
      6.26646      5.88040     22.53822        -0.000983      0.000000     -0.009197
      9.70478      7.35050      7.26518         0.000105      0.000332     -3.959568
      0.00000      8.82060      7.26518        -0.000328      0.000157      3.129457
      0.00000      7.35050     10.50011        -0.003255     -0.000024      0.587113
      9.70478      8.82060     10.50011        -0.001778      0.000677     -0.846724
      9.70478      7.35050     13.73503        -0.011417     -0.006080      0.697436
      0.00000      8.82060     13.73503        -0.008511      0.002866     -0.783183
     12.93922      7.35090     16.90686        -0.001201     -0.001558      0.002017
      9.70463      8.82040     17.08396         0.001981     -0.000562      0.001059
      9.70151      7.35104     20.40775        -0.000811     -0.001357      0.000934
      0.00021      8.82187     20.07084         0.000129      0.002446     -0.000252
      9.70478     10.29069      7.26518        -0.000158      0.000284     -3.959826
      0.00000      0.00000      7.26518        -0.000341     -0.000000      3.129419
      0.00000     10.29069     10.50011        -0.002785     -0.000054      0.587137
      9.70478      0.00000     10.50011        -0.002376     -0.000000     -0.847418
      9.70478     10.29069     13.73503        -0.006681     -0.000102      0.692839
      0.00000      0.00000     13.73503        -0.005790      0.000000     -0.780752
     12.93902     10.29106     16.90830         0.001128     -0.001703      0.002164
      9.70463     -0.00000     17.08394         0.003739      0.000001      0.002684
      9.70370     10.29144     20.40869        -0.002461      0.000173      0.000436
      0.00272     11.76079     20.07093         0.001757      0.000001      0.000689
      9.70478      1.47010      7.26518        -0.000158     -0.000284     -3.959826
      0.00000      2.94020      7.26518        -0.000329     -0.000157      3.129457
      0.00000      1.47010     10.50011        -0.002785      0.000055      0.587137
      9.70478      2.94020     10.50011        -0.001779     -0.000677     -0.846724
      9.70478      1.47010     13.73503        -0.006681      0.000102      0.692839
      0.00000      2.94020     13.73503        -0.008511     -0.002865     -0.783183
     12.93902      1.46973     16.90830         0.001127      0.001704      0.002164
      9.70463      2.94040     17.08396         0.001982      0.000563      0.001063
      9.70370      1.46935     20.40869        -0.002458     -0.000173      0.000436
      0.00021      2.93892     20.07084         0.000129     -0.002447     -0.000251
      9.70478      4.41030      7.26518         0.000105     -0.000332     -3.959568
      0.00000      5.88040      7.26518        -0.000358      0.000000      3.129499
      0.00000      4.41030     10.50011        -0.003255      0.000024      0.587113
      9.70478      5.88040     10.50011        -0.001144     -0.000000     -0.845815
      9.70478      4.41030     13.73503        -0.011417      0.006080      0.697436
      0.00000      5.88040     13.73503        -0.010886      0.000000     -0.785203
     12.93922      4.40989     16.90686        -0.001200      0.001557      0.002016
      9.70564      5.88040     17.08570         0.000290     -0.000001      0.000528
      9.70151      4.40975     20.40775        -0.000810      0.001358      0.000935
     12.93270      5.88040     20.06994        -0.001258     -0.000001     -0.001442
      3.23493      7.35050      7.26518         0.000028      0.000359     -3.962007
      6.46985      8.82060      7.26518         0.000414      0.000585      3.132481
      6.46985      7.35050     10.50011         0.003299      0.007610      0.590688
      3.23493      8.82060     10.50011         0.001847      0.001375     -0.856973
      3.23493      7.35050     13.73503         0.011818      0.006089      0.656571
      6.46985      8.82060     13.73503         0.007641     -0.019772     -0.717338
      6.46984      7.33996     16.92775        -0.000137      0.002142      0.001787
      3.23414      8.82167     17.07924        -0.002672      0.000160      0.000735
      3.22637      7.35481     20.39167        -0.000868      0.003600      0.001214
      6.47413      8.82297     20.05587        -0.001299      0.000333      0.002448
      3.23493     10.29069      7.26518         0.000275      0.000421     -3.961646
      6.46985      0.00000      7.26518         0.000400     -0.000000      3.132796
      6.46985     10.29069     10.50011         0.002870      0.003718      0.595816
      3.23493      0.00000     10.50011         0.002492     -0.000000     -0.855004
      3.23493     10.29069     13.73503         0.007455      0.025182      0.677099
      6.46985      0.00000     13.73503         0.004824      0.000001     -0.823477
      6.47125     10.28614     16.89464         0.000452      0.001567     -0.001948
[...]
      6.46985      5.88040     11.76529        -0.001095      0.000000     -0.126281
      4.50011      4.41030     10.50011         0.477139      0.000846      0.059796
      8.43960      4.41030     10.50011        -0.480589      0.000403      0.058383
      3.23493      5.88040     12.46985        -0.002200     -0.000000     -0.068744
      3.23493      5.88040     15.00021         0.002017      0.000000      0.052612
      7.73503      4.41030     13.73503        -0.492050      0.018856      0.087952
      5.20467      4.41030     13.73503         0.473599      0.019674      0.089032
      6.46918      5.88040     15.72641        -0.000290      0.000000     -0.003731
      6.47167      5.88040     18.28072        -0.000116      0.000000      0.004456
      4.52488      4.41076     16.99465         0.000948     -0.000647     -0.001807
      8.41455      4.41133     16.99202        -0.002051     -0.000763     -0.002749
      3.20796      5.88040     18.94250         0.003814     -0.000001      0.002094
      3.28377      5.88040     21.48549         0.000315     -0.000001      0.000322
      7.68189      4.40107     20.36787        -0.000404      0.001001     -0.001642
      5.24412      4.38746     20.33227        -0.002330      0.000944     -0.002751
    total drift:                               -0.011267     -0.000004      0.002220

  FREE ENERGIE OF THE ION-ELECTRON SYSTEM (eV)
  free  energy   TOTEN  =     -2647.36897820 eV

  energy  without entropy=    -2647.36897820  energy(sigma->0) =    -2647.36897820

 d Force = 0.2446222E-04[ 0.815E-05, 0.408E-04]  d Energy = 0.2623704E-04-0.177E-05
 d Force =-0.2338844E+01[-0.234E+01,-0.234E+01]  d Ewald  =-0.2338842E+01-0.118E-05

 Conjugate gradient step on ions:
 trial-energy change:   -0.000026  1 .order   -0.000024   -0.000041   -0.000008
  (g-gl).g = 0.995E-04      g.g   = 0.996E-04  gl.gl    = 0.981E-04
 g(Force)  = 0.996E-04   g(Stress)= 0.000E+00 ortho     = 0.345E-06
 gamma     =   1.01413
 trial     =   0.40809
 opt step  =   0.48168  (harmonic =   0.51004) maximal distance =0.00032437
 next E    = -2647.368979   (d E  =  -0.00003)

 reached required accuracy - stopping structural energy minimisation