 vasp.6.3.0 20Jan22 (build Dec 25 2023 18:06:01) complex
 executed on        HPECrayEX_GCC date 2024.02.08  00:06:55

 INCAR:
   SYSTEM = TiO2
   ISMEAR = 0
   SIGMA = 0.05
   EDIFF = 1E-4
   ALGO = ALL
   ICHARG = 1
   IBRION = -1
   NSW = 0
   ISYM = 0
   ISIF = 2
   EDIFFG = -0.01
   DIPOL = 0.5 0.5 0.5
   IDIPOL = 3
   LDIPOL = .TRUE.
   LHFCALC = .TRUE.
   HFSCREEN = 0.2
   GGA = PE
   IVDW = 13
   VDW_S8 = 1.19528249
   VDW_A1 = 0.38663183
   VDW_A2 = 5.19133469
   ENCUT = 520
   PREC = Normal
   PRECFOCK = Fast
   LASPH = .TRUE.
   LREAL = .FALSE.
   ISPIN = 1
   NELM = 200
   NELMIN = 8
   NCORE = 4
   KPAR = 1
   NKREDX = 2
   NKREDY = 2
   LWAVE = .FALSE.
   LCHARG = .FALSE.

 POTCAR:    PAW_PBE Ti 08Apr2002
 POTCAR:    PAW_PBE O 08Apr2002
 POTCAR:    PAW_PBE Ti 08Apr2002
   VRHFIN =Ti: d3 s1

   TITEL  = PAW_PBE Ti 08Apr2002
   POMASS =   47.880; ZVAL   =    4.000    mass and valenz
   ENMAX  =  178.330; ENMIN  =  133.747 eV

   TITEL  = PAW_PBE O 08Apr2002
   POMASS =   16.000; ZVAL   =    6.000    mass and valenz
   ENMAX  =  400.000; ENMIN  =  300.000 eV

  PAW_PBE Ti 08Apr2002                  :
  PAW_PBE O 08Apr2002                   :

 POSCAR: Ti  O
  positions in direct lattice
|           W    W    AA    RRRRR   N    N  II  N    N   GGGG   !!!           |
|           W    W   A  A   R    R  NN   N  II  NN   N  G    G  !!!           |
|           W    W  A    A  R    R  N N  N  II  N N  N  G       !!!           |
|           W WW W  AAAAAA  RRRRR   N  N N  II  N  N N  G  GGG   !            |
|           WW  WW  A    A  R   R   N   NN  II  N   NN  G    G                |
|           W    W  A    A  R    R  N    N  II  N    N   GGGG   !!!           |
|     Specifying the vdW parameters                                           |
|     VDW_S8 = 1.195                                                          |
|     VDW_A1 = 0.387                                                          |
|     VDW_A2 = 5.191                                                          |
|     in the INCAR file will overwrite the defaults for hse06. Please         |
|     make sure that is what you intended.                                    |

 ion  position               nearest neighbor table
   1  0.750  0.625  0.287-  82 1.95 142 1.95 141 1.95  81 1.95  84 1.97 163 1.97  11 2.96  31 2.96

   2  0.000  0.750  0.287-  83 1.95  84 1.95 103 1.95 104 1.95  85 1.97  32 2.96  12 2.96
   3  0.000  0.625  0.394-  85 1.95  86 1.95 145 1.95 146 1.95  87 1.97  88 1.97  13 2.96  33 2.96

[...]

  80  0.500  0.499  0.709- 234 1.83 240 1.93 239 1.93 180 1.96 179 1.96  70 2.95  50 2.98
  81  0.750  0.750  0.246-   1 1.95  11 1.95
  82  0.750  0.750  0.329-   1 1.95  11 1.95   4 1.97
  83  0.098  0.625  0.287-   2 1.95  32 1.95  41 1.97
  84  0.902  0.625  0.287-   2 1.95  32 1.95   1 1.97
  85  0.000  0.750  0.352-   3 1.95  13 1.95   2 1.97
  86  0.000  0.750  0.435-   3 1.95  13 1.95   6 1.97
  87  0.848  0.625  0.394-   4 1.95  34 1.95   3 1.97
  88  0.152  0.625  0.394-  44 1.95  74 1.95   3 1.97
  89  0.750  0.750  0.458-   5 1.95  15 1.95   4 1.97
  90  0.750  0.750  0.542-   5 1.95  15 1.95   8 2.09
  91  0.098  0.625  0.500-   6 1.95  36 1.95  45 1.97
  92  0.902  0.625  0.500-   6 1.95  36 1.95   5 1.97
  93  1.000  0.750  0.565-   7 1.90  17 1.90   6 1.99
  94  0.000  0.750  0.649-  10 1.81   7 2.01  17 2.01
  95  0.850  0.625  0.607-   7 1.95   8 1.97  38 1.97
  96  0.150  0.625  0.607-   7 1.95  48 1.97  78 1.97
  97  0.751  0.750  0.671-   8 1.87   9 2.08  19 2.09
  98  0.749  0.750  0.755-   9 1.83  19 1.83
  99  0.094  0.625  0.719-  40 1.94  10 1.94  49 2.03
 100  0.906  0.625  0.719-  40 1.94  10 1.94   9 2.03
 101  0.750  0.000  0.246-  11 1.95  21 1.95
 102  0.750  0.000  0.329-  11 1.95  21 1.95  14 1.97
 103  0.098  0.875  0.287-   2 1.95  12 1.95  51 1.97
 104  0.902  0.875  0.287-   2 1.95  12 1.95  11 1.97
 105  0.000  0.000  0.352-  13 1.95  23 1.95  12 1.97
 106  0.000  0.000  0.435-  13 1.95  23 1.95  16 1.97
 107  0.848  0.875  0.394-   4 1.95  14 1.95  13 1.97
 108  0.152  0.875  0.394-  44 1.95  54 1.95  13 1.97
 109  0.750  0.000  0.458-  15 1.95  25 1.95  14 1.97
 110  0.750  0.000  0.542-  15 1.95  25 1.95  18 2.09
 111  0.098  0.875  0.500-   6 1.95  16 1.95  55 1.97
 112  0.902  0.875  0.500-   6 1.95  16 1.95  15 1.97
 113  1.000  0.000  0.565-  27 1.90  17 1.90  16 1.99
 114  0.000  1.000  0.649-  20 1.81  17 2.01  27 2.01
 115  0.850  0.875  0.607-  17 1.95  18 1.97   8 1.97
 116  0.150  0.875  0.607-  17 1.95  58 1.97  48 1.97
 117  0.750  0.000  0.671-  18 1.87  19 2.09  29 2.09
 118  0.750  0.000  0.755-  19 1.83  29 1.83
 119  0.094  0.875  0.718-  10 1.94  20 1.94  59 2.03
 120  0.906  0.875  0.718-  10 1.94  20 1.94  19 2.03
 121  0.750  0.250  0.246-  21 1.95  31 1.95
 122  0.750  0.250  0.329-  21 1.95  31 1.95  24 1.97
 123  0.098  0.125  0.287-  12 1.95  22 1.95  61 1.97
 124  0.902  0.125  0.287-  12 1.95  22 1.95  21 1.97
 125  0.000  0.250  0.352-  23 1.95  33 1.95  22 1.97
 126  0.000  0.250  0.435-  23 1.95  33 1.95  26 1.97
 127  0.848  0.125  0.394-  14 1.95  24 1.95  23 1.97
 128  0.152  0.125  0.394-  54 1.95  64 1.95  23 1.97
 129  0.750  0.250  0.458-  25 1.95  35 1.95  24 1.97
 130  0.750  0.250  0.542-  25 1.95  35 1.95  28 2.09
 131  0.098  0.125  0.500-  16 1.95  26 1.95  65 1.97
 132  0.902  0.125  0.500-  16 1.95  26 1.95  25 1.97
 133  1.000  0.250  0.565-  37 1.90  27 1.90  26 1.99
 134  0.000  0.250  0.649-  30 1.81  37 2.01  27 2.01
 135  0.850  0.125  0.607-  27 1.95  18 1.97  28 1.97
 136  0.150  0.125  0.607-  27 1.95  58 1.97  68 1.97
 137  0.751  0.250  0.671-  28 1.87  29 2.09  39 2.09
 138  0.750  0.250  0.755-  39 1.83  29 1.83
 139  0.094  0.125  0.718-  30 1.94  20 1.94  69 2.03
[...]
 226  0.500  0.500  0.435-  43 1.95  73 1.95  76 1.97
 227  0.348  0.375  0.394-  64 1.95  74 1.95  73 1.97
 228  0.652  0.375  0.394-  24 1.95  34 1.95  73 1.97
 229  0.250  0.500  0.458-  45 1.95  75 1.95  74 1.97
 230  0.250  0.500  0.542-  45 1.95  75 1.95  78 2.09
 231  0.598  0.375  0.500-  66 1.95  76 1.95  35 1.97
 232  0.402  0.375  0.500-  66 1.95  76 1.95  75 1.97
 233  0.500  0.500  0.565-  77 1.90  47 1.90  76 1.99
 234  0.500  0.500  0.649-  80 1.83  77 2.00  47 2.00
 235  0.350  0.375  0.607-  77 1.95  78 1.97  68 1.97
 236  0.650  0.375  0.607-  77 1.95  38 1.97  28 1.97
 237  0.249  0.500  0.671-  78 1.87  49 2.09  79 2.09
 238  0.252  0.500  0.755-  79 1.83  49 1.83
 239  0.594  0.374  0.718-  80 1.93  70 1.94  39 2.03
 240  0.406  0.374  0.718-  80 1.93  70 1.94  79 2.03

IMPORTANT INFORMATION: All symmetrisations will be switched off!
NOSYMM: (Re-)initialisation of all symmetry stuff for point group C_1.

                                     Primitive cell

  volume of cell :    4687.8040

  direct lattice vectors                    reciprocal lattice vectors
    12.981773603  0.000000000  0.000000000     0.077031077  0.000000000  0.000000000
     0.000000000 11.829932295  0.000000000     0.000000000  0.084531338  0.000000000
     0.000000000  0.000000000 30.524823105     0.000000000  0.000000000  0.032760223

  length of vectors
    12.981773603 11.829932295 30.524823105     0.077031077  0.084531338  0.032760223

  position of ions in fractional coordinates (direct lattice)
     0.750000000  0.625000000  0.287357103
     0.000000000  0.750000000  0.287357103
     0.000000000  0.625000000  0.393678552
     0.750000000  0.750000000  0.393678552
     0.750000000  0.625000000  0.500000000
     0.000000000  0.750000000  0.500000000
     0.999999896  0.625034575  0.604142359
     0.750037279  0.750060206  0.610061920
     0.750210406  0.625245139  0.719335905
     0.000000093  0.750162338  0.708049038
     0.750000000  0.875000000  0.287357103
     0.000000000  0.000000000  0.287357103
     0.000000000  0.875000000  0.393678552
     0.750000000  0.000000000  0.393678552
     0.750000000  0.875000000  0.500000000
     0.000000000  0.000000000  0.500000000
     0.999999899  0.875042675  0.604157023
     0.749983473  0.000031890  0.610167384
     0.749899410  0.875144527  0.719720725
     0.000000134  0.000048180  0.708068521
     0.750000000  0.125000000  0.287357103
     0.000000000  0.250000000  0.287357103
     0.000000000  0.125000000  0.393678552
     0.750000000  0.250000000  0.393678552
     0.750000000  0.125000000  0.500000000
     0.000000000  0.250000000  0.500000000
     0.999999905  0.125009247  0.604179473
     0.750023589  0.249993590  0.610163923
     0.749943263  0.125083689  0.719707659
     0.000000145  0.249982373  0.708074474
     0.750000000  0.375000000  0.287357103
     0.000000000  0.500000000  0.287357103
     0.000000000  0.375000000  0.393678552
     0.750000000  0.500000000  0.393678552
     0.750000000  0.375000000  0.500000000
     0.000000000  0.500000000  0.500000000
     0.999999900  0.375004388  0.604145210
     0.750074282  0.499995300  0.610095561
     0.750181913  0.375085320  0.719662777
     0.000000065  0.500081082  0.708039677
     0.250000000  0.625000000  0.287357103
     0.500000000  0.750000000  0.287357103
     0.500000000  0.625000000  0.393678552
     0.250000000  0.750000000  0.393678552
     0.250000000  0.625000000  0.500000000
     0.500000000  0.750000000  0.500000000
     0.499999887  0.624515489  0.604646984
     0.249962459  0.750060204  0.610061903
     0.249789651  0.625245143  0.719335863
     0.500000113  0.750847524  0.707844845
     0.250000000  0.875000000  0.287357103
     0.500000000  0.000000000  0.287357103
     0.500000000  0.875000000  0.393678552
     0.250000000  0.000000000  0.393678552
     0.250000000  0.875000000  0.500000000
     0.500000000  0.000000000  0.500000000
     0.499999880  0.874735977  0.603893140
     0.250016285  0.000031885  0.610167375
     0.250100792  0.875144550  0.719720711
     0.500000139  0.000124854  0.707739909
[...]
     0.500000000  0.500000000  0.435333986
     0.347946921  0.375000000  0.393678552
     0.652053079  0.375000000  0.393678552
     0.250000000  0.500000000  0.458344566
     0.250000000  0.500000000  0.541655434
     0.597946921  0.375000000  0.500000000
     0.402053079  0.375000000  0.500000000
     0.499999942  0.500061973  0.565313438
     0.500000098  0.499886491  0.649111606
     0.349915819  0.375035537  0.606980879
     0.650084314  0.375035532  0.606980851
     0.249139675  0.500008445  0.671248131
     0.251551718  0.500422576  0.754857327
     0.594244948  0.373940551  0.717517153
     0.405755322  0.373940476  0.717517257

  ion indices of the primitive-cell ions
   primitive index   ion index
                 1           1
                 2           2
                 3           3
                 4           4
                 5           5
                 6           6
                 7           7
                 8           8
                 9           9
                10          10
                11          11
                12          12
                13          13
                14          14
                15          15
                16          16
                17          17
                18          18
                19          19
                20          20
[...]
   3.24544340 10.35119076 15.26241155
   6.49088680  0.00000000 15.26241155
   6.49088525 10.34806738 18.43373127
   3.24565481  0.00037720 18.62525118
   3.24675186 10.35290077 21.96934738
   6.49088860  0.00147701 21.60363554
[...]
   6.49088680  5.91496615 13.28849290
   4.51696815  4.43622461 12.01696815
   8.46480545  4.43622461 12.01696815
   3.24544340  5.91496615 13.99088680
   3.24544340  5.91496615 16.53393630
   7.76241155  4.43622461 15.26241155
   5.21936205  4.43622461 15.26241155
   6.49088605  5.91569929 17.25609268
   6.49088807  5.91362334 19.81401695
   4.54252794  4.43664502 18.52798396
   8.43924739  4.43664495 18.52798309
   3.23427485  5.91506606 20.48973046
   3.26558745  5.91996519 23.04188637
   7.71435337  4.42369140 21.90208416
   5.26742373  4.42369051 21.90208734

--------------------------------------- Iteration      FINAL  ---------------------------------------

--------------------OUTCAR has been truncated-------------------------

[...]

--------------------OUTCAR has been truncated-------------------------

  FORCE on cell =-STRESS in cart. coord.  units (eV):
  Direction    XX          YY          ZZ          XY          YZ          ZX
  Alpha Z  2936.35476  2936.35476  2936.35476
  Ewald  517201.58269522446.43675************    -0.00007    -1.65063     0.00008
  Hartree538173.19825539555.90386************     0.00014    -0.61403     0.00056
  E(xc)   -4637.45961 -4685.94146 -4637.95865    -0.00000     0.02159     0.00001
  Local  ************************************    -0.00037     2.18263    -0.00168
  n-local -2890.43399 -2790.86293 -2948.67009    -0.00019    -0.08192    -0.00030
  augment  1338.02730  1317.94050  1342.93344     0.00006     0.00638     0.00017
  Kinetic 23347.82873 22801.08463 23402.74337     0.00030     0.06961     0.00127
  Fock    -2124.31810 -2148.94508 -2126.73599    -0.00005     0.00463    -0.00011
  vdW       -49.54829   -49.62409   -43.16583     0.00000     0.00115    -0.00000
  Total     -36.10372  -113.70952   -74.59320    -0.00018    -0.06059    -0.00001
  in kB     -12.33937   -38.86315   -25.49414    -0.00006    -0.02071    -0.00001

 VOLUME and BASIS-vectors are now :
  energy-cutoff  :      520.00
  volume of cell :     4687.80
      direct lattice vectors                 reciprocal lattice vectors
    12.981773603  0.000000000  0.000000000     0.077031077  0.000000000  0.000000000
     0.000000000 11.829932295  0.000000000     0.000000000  0.084531338  0.000000000
     0.000000000  0.000000000 30.524823105     0.000000000  0.000000000  0.032760223

  length of vectors
    12.981773603 11.829932295 30.524823105     0.077031077  0.084531338  0.032760223

 FORCES acting on ions:
    Electron-Ion                     Ewald-Force                    Non-Local-Force
   0.437E-02 0.273E-02 0.110E+04   -.454E-02 -.298E-02 -.110E+04   -.106E-03 0.103E-03 -.121E+01
   0.221E-04 0.270E-02 0.117E+04   -.581E-06 -.268E-02 -.117E+04   0.647E-04 0.129E-04 -.179E+01
   0.243E-05 0.920E-02 0.563E+03   -.258E-05 -.916E-02 -.563E+03   0.230E-04 0.873E-05 0.176E+00
   0.174E-01 0.209E-01 0.559E+03   -.179E-01 -.203E-01 -.560E+03   -.154E-03 0.305E-03 -.167E+00
   0.166E+00 0.786E-01 -.472E+01   -.169E+00 -.798E-01 0.519E+01   -.116E-02 -.638E-03 0.183E+00
   -.189E-04 0.257E-01 -.374E+01   0.129E-04 -.235E-01 0.310E+01   -.214E-04 0.180E-03 -.841E-01
   -.179E-03 0.583E-01 -.557E+03   0.194E-03 -.573E-01 0.558E+03   0.988E-06 -.202E-03 -.566E-01
   0.203E+00 0.141E+00 -.571E+03   -.187E+00 -.135E+00 0.570E+03   -.227E-02 -.179E-02 0.903E-01
   -.582E+00 0.610E+00 -.109E+04   0.560E+00 -.620E+00 0.109E+04   0.227E-01 0.120E-02 -.409E-01
   0.116E-03 0.382E+00 -.111E+04   -.110E-03 -.403E+00 0.111E+04   -.279E-04 -.280E-02 0.709E+00
   0.266E-02 0.273E-02 0.110E+04   -.293E-02 -.250E-02 -.110E+04   -.501E-04 0.398E-04 -.121E+01
   0.581E-05 -.483E-03 0.117E+04   -.559E-06 0.510E-03 -.117E+04   0.238E-04 -.479E-04 -.179E+01
   -.259E-04 0.389E-02 0.563E+03   -.236E-05 -.376E-02 -.563E+03   -.185E-04 0.179E-03 0.176E+00
   0.371E-02 -.210E-02 0.559E+03   -.460E-02 0.230E-02 -.560E+03   -.167E-03 0.161E-03 -.167E+00
   0.198E-01 0.573E-01 -.461E+01   -.211E-01 -.474E-01 0.509E+01   -.378E-03 0.537E-02 0.185E+00
   -.197E-04 -.801E-02 -.379E+01   0.134E-04 0.106E-01 0.315E+01   0.421E-04 0.827E-04 -.833E-01
   -.193E-03 0.276E-01 -.557E+03   0.204E-03 -.291E-01 0.558E+03   0.121E-05 -.212E-02 -.587E-01
   0.929E-02 -.309E-01 -.572E+03   0.376E-02 0.273E-01 0.571E+03   0.753E-03 -.138E-02 0.949E-01
   -.198E+00 0.415E+00 -.109E+04   0.239E+00 -.462E+00 0.109E+04   0.179E-01 -.234E-01 -.609E-01
   0.141E-03 0.121E+00 -.111E+04   -.139E-03 -.134E+00 0.111E+04   0.391E-04 -.443E-02 0.718E+00
   0.246E-02 -.275E-02 0.110E+04   -.270E-02 0.298E-02 -.110E+04   -.856E-04 -.545E-04 -.121E+01
   -.427E-04 -.271E-02 0.117E+04   -.566E-06 0.267E-02 -.117E+04   -.222E-05 -.725E-04 -.179E+01
   -.223E-04 -.918E-02 0.563E+03   -.225E-05 0.913E-02 -.563E+03   0.265E-04 0.274E-04 0.176E+00
   0.139E-01 -.208E-01 0.559E+03   -.145E-01 0.202E-01 -.560E+03   -.824E-04 -.312E-03 -.167E+00
   -.270E-02 -.751E-01 -.464E+01   0.126E-02 0.739E-01 0.513E+01   -.332E-03 -.716E-03 0.187E+00
   -.197E-04 -.218E-01 -.381E+01   0.131E-04 0.190E-01 0.317E+01   0.146E-04 -.595E-03 -.830E-01
   -.216E-03 -.996E-01 -.557E+03   0.202E-03 0.998E-01 0.558E+03   -.746E-05 0.894E-03 -.559E-01
   0.967E-01 -.900E-01 -.571E+03   -.776E-01 0.854E-01 0.571E+03   -.660E-04 -.117E-03 0.892E-01
   0.752E-01 -.413E-01 -.109E+04   -.387E-01 0.334E-01 0.109E+04   0.819E-02 -.544E-02 -.664E-01
   0.142E-03 -.601E+00 -.111E+04   -.125E-03 0.630E+00 0.111E+04   0.108E-04 0.421E-02 0.712E+00
   0.416E-02 -.272E-02 0.110E+04   -.431E-02 0.250E-02 -.110E+04   -.505E-04 -.135E-03 -.121E+01
   -.930E-04 0.492E-03 0.117E+04   -.589E-06 -.509E-03 -.117E+04   -.726E-04 0.992E-04 -.179E+01
   0.805E-05 -.393E-02 0.563E+03   -.247E-05 0.380E-02 -.563E+03   0.106E-04 -.131E-03 0.176E+00
   0.277E-01 0.203E-02 0.559E+03   -.279E-01 -.221E-02 -.560E+03   -.829E-04 -.176E-03 -.167E+00
   0.144E+00 -.606E-01 -.474E+01   -.147E+00 0.530E-01 0.522E+01   -.107E-02 -.413E-02 0.185E+00
   -.112E-04 0.241E-01 -.375E+01   0.100E-04 -.254E-01 0.312E+01   -.277E-04 -.743E-03 -.842E-01
   -.196E-03 -.237E-01 -.557E+03   0.193E-03 0.260E-01 0.558E+03   -.124E-04 0.176E-02 -.585E-01
   0.348E+00 -.274E-01 -.571E+03   -.325E+00 0.322E-01 0.570E+03   -.122E-02 0.279E-02 0.857E-01
   -.428E+00 -.751E+00 -.109E+04   0.536E+00 0.799E+00 0.109E+04   0.268E-01 0.297E-01 -.491E-01
   0.130E-03 -.435E-01 -.111E+04   -.115E-03 0.544E-01 0.111E+04   -.210E-04 0.574E-02 0.701E+00
   -.436E-02 0.324E-02 0.110E+04   0.454E-02 -.298E-02 -.110E+04   0.657E-04 -.209E-04 -.121E+01
   -.477E-04 0.532E-02 0.117E+04   0.632E-06 -.517E-02 -.117E+04   -.112E-03 0.106E-03 -.179E+01
   -.779E-05 0.286E-01 0.563E+03   0.378E-05 -.252E-01 -.563E+03   -.159E-04 0.108E-02 0.176E+00
   -.174E-01 0.208E-01 0.559E+03   0.179E-01 -.203E-01 -.560E+03   0.150E-03 0.304E-03 -.167E+00
   -.166E+00 0.787E-01 -.472E+01   0.169E+00 -.798E-01 0.519E+01   0.118E-02 -.503E-03 0.183E+00
   -.448E-04 0.105E+00 -.392E+01   0.428E-04 -.123E+00 0.331E+01   0.340E-04 0.682E-02 -.803E-01
   -.281E-03 0.369E+00 -.559E+03   0.284E-03 -.268E+00 0.560E+03   -.214E-04 -.172E-01 -.496E-01
   -.203E+00 0.141E+00 -.571E+03   0.187E+00 -.135E+00 0.570E+03   0.226E-02 -.176E-02 0.902E-01
   0.581E+00 0.610E+00 -.109E+04   -.559E+00 -.620E+00 0.109E+04   -.227E-01 0.120E-02 -.409E-01
   0.133E-03 0.315E+00 -.112E+04   -.127E-03 -.467E+00 0.112E+04   -.266E-05 -.489E-01 0.776E+00
   -.268E-02 0.261E-02 0.110E+04   0.293E-02 -.250E-02 -.110E+04   0.531E-04 0.166E-03 -.121E+01
   0.166E-04 -.132E-03 0.117E+04   0.610E-06 0.148E-03 -.117E+04   -.168E-05 0.118E-05 -.179E+01
   0.186E-04 0.274E-01 0.563E+03   0.356E-05 -.250E-01 -.563E+03   -.154E-04 0.629E-03 0.177E+00
   -.371E-02 -.210E-02 0.559E+03   0.460E-02 0.230E-02 -.560E+03   0.170E-03 0.177E-03 -.167E+00
   -.197E-01 0.573E-01 -.461E+01   0.211E-01 -.474E-01 0.509E+01   0.378E-03 0.546E-02 0.185E+00
   -.361E-04 0.144E-01 -.333E+01   0.408E-04 -.126E-01 0.266E+01   -.203E-04 0.682E-03 -.104E+00
   -.281E-03 -.533E+00 -.555E+03   0.293E-03 0.576E+00 0.555E+03   -.405E-05 -.500E-02 -.104E+00
   -.958E-02 -.309E-01 -.572E+03   -.343E-02 0.273E-01 0.571E+03   -.757E-03 -.138E-02 0.950E-01
   0.197E+00 0.414E+00 -.109E+04   -.238E+00 -.462E+00 0.109E+04   -.178E-01 -.234E-01 -.608E-01
   0.137E-03 -.292E+00 -.111E+04   -.133E-03 0.314E+00 0.111E+04   0.153E-04 0.148E-02 0.703E+00
[...]
   -.249E+02 -.302E-01 0.841E+03   0.291E+02 0.293E-01 -.841E+03   -.333E+01 0.149E-02 0.186E+00
   0.249E+02 -.303E-01 0.841E+03   -.291E+02 0.293E-01 -.841E+03   0.333E+01 0.154E-02 0.186E+00
   -.132E+00 0.791E-02 0.348E+03   0.134E+00 -.103E-01 -.353E+03   -.275E-02 0.438E-02 0.399E+01
   -.566E+00 0.307E-01 -.368E+03   0.569E+00 -.327E-01 0.375E+03   -.389E-03 0.360E-02 -.665E+01
   -.238E+02 -.335E+00 -.526E+01   0.288E+02 0.329E+00 0.499E+01   -.492E+01 0.173E-01 0.317E+00
   0.238E+02 -.335E+00 -.526E+01   -.288E+02 0.329E+00 0.499E+01   0.492E+01 0.173E-01 0.317E+00
   -.169E-03 -.151E+00 -.492E+03   0.150E-03 0.222E+00 0.485E+03   0.135E-04 -.641E-01 0.619E+01
   -.349E-04 -.616E+00 -.120E+04   0.567E-04 0.814E+00 0.120E+04   -.176E-04 -.200E+00 0.210E+01
   -.116E+02 -.320E+00 -.846E+03   0.147E+02 0.270E+00 0.846E+03   -.271E+01 0.439E-01 0.801E+00
   0.116E+02 -.320E+00 -.846E+03   -.147E+02 0.270E+00 0.846E+03   0.271E+01 0.439E-01 0.801E+00
   0.565E+00 0.229E+00 -.133E+04   -.725E+00 -.301E+00 0.133E+04   0.149E+00 0.531E-01 -.221E+01
   -.251E+01 -.159E-01 -.192E+04   0.286E+01 0.159E+00 0.194E+04   -.320E+00 -.186E+00 -.198E+02
   0.722E+01 -.121E+01 -.170E+04   -.331E+00 0.992E+00 0.170E+04   -.618E+01 0.285E+00 -.277E+01
   -.722E+01 -.121E+01 -.170E+04   0.330E+00 0.992E+00 0.170E+04   0.618E+01 0.285E+00 -.277E+01
   -.142E-02 -.539E+00 0.922E+02   0.108E-11 0.115E-11 0.546E-11   0.126E-02 0.512E+00 -.850E+02

 POSITION                                       TOTAL-FORCE (eV/Angst)
      9.73633      7.39371      8.77152        -0.000286     -0.000141     -3.914059
      0.00000      8.87245      8.77152         0.000088      0.000048      3.235441
      0.00000      7.39371     12.01697         0.000024      0.000054      0.579706
      9.73633      8.87245     12.01697        -0.000697      0.000912     -0.845039
      9.73633      7.39371     15.26241        -0.004500     -0.001935      0.697829
      0.00000      8.87245     15.26241        -0.000030      0.002848     -0.809404
     12.98177      7.39412     18.44134         0.000002      0.001616      0.005523
      9.73681      8.87316     18.62203         0.015243      0.006958      0.105513
      9.73906      7.39661     21.95760        -0.022920      0.007098     -0.139647
      0.00000      8.87437     21.61307        -0.000025     -0.007996      0.026638
      9.73633     10.35119      8.77152        -0.000330      0.000302     -3.913681
      0.00000      0.00000      8.77152         0.000029     -0.000017      3.235684
      0.00000     10.35119     12.01697        -0.000049      0.000330      0.579960
      9.73633      0.00000     12.01697        -0.001088      0.000384     -0.843033
      9.73633     10.35119     15.26241        -0.001815      0.016292      0.706885
      0.00000      0.00000     15.26241         0.000040      0.003040     -0.807254
     12.98177     10.35170     18.44179        -0.000004     -0.002405      0.003700
      9.73612      0.00038     18.62525         0.011372     -0.004871      0.097250
      9.73502     10.35290     21.96935         0.045470     -0.057593     -0.212114
      0.00000      0.00057     21.61367         0.000046     -0.015660      0.015375
      9.73633      1.47874      8.77152        -0.000337      0.000170     -3.913801
      0.00000      2.95748      8.77152        -0.000043     -0.000111      3.235371
      0.00000      1.47874     12.01697         0.000005     -0.000017      0.580095
      9.73633      2.95748     12.01697        -0.000670     -0.000913     -0.842870
      9.73633      1.47874     15.26241        -0.001901     -0.002242      0.716336
      0.00000      2.95748     15.26241         0.000009     -0.003650     -0.808123
     12.98177      1.47885     18.44247        -0.000037     -0.001638     -0.000099
      9.73664      2.95741     18.62515         0.019076     -0.006448      0.088648
      9.73559      1.47973     21.96895         0.039575     -0.014343     -0.230403
      0.00000      2.95727     21.61385         0.000027      0.009265      0.015444
      9.73633      4.43622      8.77152        -0.000207     -0.000368     -3.914028
      0.00000      5.91497      8.77152        -0.000170      0.000101      3.235614
      0.00000      4.43622     12.01697         0.000018     -0.000269      0.579805
      9.73633      5.91497     12.01697        -0.000245     -0.000354     -0.844742
      9.73633      4.43622     15.26241        -0.003864     -0.012541      0.706913
      0.00000      5.91497     15.26241        -0.000031     -0.002112     -0.810181
     12.98177      4.43628     18.44143        -0.000031      0.002773      0.002860
      9.73729      5.91491     18.62306         0.023187      0.005593      0.102278
      9.73869      4.43723     21.96758         0.121364      0.065473     -0.203377
      0.00000      5.91593     21.61279        -0.000011      0.015124      0.027624
      3.24544      7.39371      8.77152         0.000257      0.000247     -3.914088
      6.49089      8.87245      8.77152        -0.000167      0.000277      3.235782
      6.49089      7.39371     12.01697        -0.000021      0.004874      0.579787
      3.24544      8.87245     12.01697         0.000700      0.000874     -0.845142
      3.24544      7.39371     15.26241         0.004537     -0.001744      0.697792
      6.49089      8.87245     15.26241         0.000034     -0.012132     -0.778482
      6.49089      7.38798     18.45674        -0.000036      0.062383     -0.052229
      3.24496      8.87316     18.62203        -0.015233      0.006979      0.105473
      3.24271      7.39661     21.95760         0.022899      0.007112     -0.139656
      6.49089      8.88248     21.60684         0.000002     -0.208628     -0.058191
      3.24544     10.35119      8.77152         0.000318      0.000320     -3.913821
      6.49089      0.00000      8.77152         0.000020      0.000025      3.236600
      6.49089     10.35119     12.01697         0.000007      0.003288      0.583551
      3.24544      0.00000     12.01697         0.001091      0.000400     -0.842883
      3.24544     10.35119     15.26241         0.001828      0.016392      0.706904
      6.49089      0.00000     15.26241        -0.000017      0.002716     -0.839901
      6.49089     10.34807     18.43373        -0.000011      0.001013     -0.003302
      3.24565      0.00038     18.62525        -0.011351     -0.004874      0.097379
      3.24675     10.35290     21.96935        -0.045431     -0.057643     -0.212071
      6.49089      0.00148     21.60364         0.000019      0.003842     -0.029177
[...]
      6.49089      5.91497     13.28849         0.000013      0.000416     -0.238814
      4.51697      4.43622     12.01697         0.360783      0.000871      0.057843
      8.46481      4.43622     12.01697        -0.360842      0.000876      0.057772
      3.24544      5.91497     13.99089        -0.000996      0.002801      0.035118
      3.24544      5.91497     16.53394         0.002545      0.002217     -0.128661
      7.76241      4.43622     15.26241        -0.627329      0.014111      0.096022
      5.21936      4.43622     15.26241         0.627418      0.014050      0.096019
      6.49089      5.91570     17.25609        -0.000004     -0.003333      0.162112
      6.49089      5.91362     19.81402         0.000003     -0.031655      0.087760
      4.54253      4.43665     18.52798        -0.027485      0.001051      0.015072
      8.43925      4.43664     18.52798         0.027503      0.001094      0.015072
      3.23427      5.91507     20.48973         0.008730     -0.012692     -0.017129
      3.26559      5.91997     23.04189        -0.013844     -0.072884     -0.105469
      7.71435      4.42369     21.90208        -0.202659      0.117266      0.140643
      5.26742      4.42369     21.90209         0.202673      0.117294      0.140605
    total drift:                               -0.000073     -0.001939     -0.067498

  FREE ENERGIE OF THE ION-ELECTRON SYSTEM (eV)
  free  energy   TOTEN  =     -2617.74612795 eV

  energy  without entropy=    -2617.74612795  energy(sigma->0) =    -2617.74612795