 vasp.6.3.0 20Jan22 (build Apr  1 2022 16:44:48) complex
 executed on        HPECrayEX_GCC date 2022.11.13  12:18:21

 INCAR:
   SYSTEM = MgO-rocksalt
   ISMEAR = 0
   SIGMA = 0.05
   EDIFF = 1E-6
   ALGO = ALL
   ISTART = 0
   IBRION = -1
   NSW = 0
   ISYM = 0
   DIPOL = 0.5 0.5 0.5
   IDIPOL = 3
   LDIPOL = .TRUE.
   LHFCALC = .TRUE.
   GGA = B5
   AEXX = 0.2
   AGGAX = 0.72
   AGGAC = 0.81
   ALDAC = 0.19
   IVDW = 1
   VDW_S6 = 1.05
   VDW_C6 = 1.23 0.70 0.63 0.70
   VDW_R0 = 1.397 1.342 1.243 1.342
   ENCUT = 600
   PREC = Accurate
   LASPH = .TRUE.
   LREAL = .FALSE.
   ISPIN = 2
   MAGMOM = 1.0 0.0 0.0 0.0 0.0 0.0 0.0 0.0 0.0 0.0 0.0 0.0 0.0 0.0 0.0 0.0 0.0 0.0 0.0 0.0 0.0 0.0 0.0 0.0 0.0 0.0 0.0 0.0 0.0 0.0 0.0 0.0 0.0 0.0 0.0 0.0 0.0 0.0 0.0 0.0 0.0 0.0 0.0 0.0 0.0 0.0 0.0 0.0 0.0 0.0 0.0 0.0 0.0 0.0 0.0 0.0 0.0 0.0 0.0 0.0 0.0 0.0 0.0 0.0 0.0 0.0
   NELM = 200
   NELMIN = 8
   NCORE = 8
   KPAR = 1
   LWAVE = .FALSE.
   LCHARG = .FALSE.

 POTCAR:    PAW_PBE N 08Apr2002
 POTCAR:    PAW_PBE O 08Apr2002
 POTCAR:    PAW_PBE Mg_pv 13Apr2007
 POTCAR:    PAW_PBE O 08Apr2002
 POTCAR:    PAW_PBE N 08Apr2002
   VRHFIN =N: s2p3

   TITEL  = PAW_PBE N 08Apr2002
   POMASS =   14.001; ZVAL   =    5.000    mass and valenz
   ENMAX  =  400.000; ENMIN  =  300.000 eV

[...]

   TITEL  = PAW_PBE Mg_pv 13Apr2007
   POMASS =   24.305; ZVAL   =    8.000    mass and valenz
   ENMAX  =  403.929; ENMIN  =  302.947 eV

   TITEL  = PAW_PBE O 08Apr2002
   POMASS =   16.000; ZVAL   =    6.000    mass and valenz
   ENMAX  =  400.000; ENMIN  =  300.000 eV

  PAW_PBE N 08Apr2002                   :
  PAW_PBE O 08Apr2002                   :
  PAW_PBE Mg_pv 13Apr2007               :
  PAW_PBE O 08Apr2002                   :

 POSCAR:  N  O Mg  O
  positions in direct lattice
 exchange correlation table for  LEXCH =       12
   RHO(1)=    0.500       N(1)  =     2000
   RHO(2)=  100.500       N(2)  =     4000

 ion  position               nearest neighbor table
   1  0.496  0.750  0.759-   2 1.19
   2  0.629  0.750  0.777-   1 1.19
   3  0.000  0.750  0.352-  35 2.11  37 2.11  38 2.11  45 2.11  54 2.11
   4  0.250  0.000  0.352-  36 2.11  37 2.11  38 2.11  46 2.11  53 2.11
   5  0.000  0.000  0.451-  37 2.11  36 2.11  35 2.11  43 2.11  52 2.11  41 2.12
   6  0.250  0.750  0.451-  38 2.11  36 2.11  35 2.11  44 2.11  51 2.11  42 2.12
   7  0.000  0.750  0.550-  49 2.11  41 2.11  42 2.11  58 2.12  35 2.12  39 2.15
   8  0.250  1.000  0.550-  42 2.11  41 2.11  57 2.11  50 2.11  36 2.13  40 2.14
   9  0.000  0.000  0.649-  47 2.11  40 2.11  56 2.11  41 2.11  39 2.11
  10  0.248  0.750  0.649-  39 2.09  40 2.11  48 2.11  42 2.12  55 2.13
  11  0.000  0.250  0.352-  43 2.11  37 2.11  45 2.11  46 2.11  62 2.11
  12  0.250  0.500  0.352-  44 2.11  38 2.11  45 2.11  46 2.11  61 2.11
  13  0.000  0.500  0.451-  45 2.11  43 2.11  44 2.11  35 2.11  60 2.11  49 2.12
  14  0.250  0.250  0.451-  46 2.11  43 2.11  44 2.11  36 2.11  59 2.11  50 2.12
  15  1.000  0.250  0.550-  49 2.11  41 2.11  50 2.11  66 2.11  43 2.12  47 2.15
  16  0.250  0.500  0.550-  42 2.11  49 2.11  65 2.11  50 2.11  44 2.13  48 2.14
  17  0.000  0.500  0.649-  47 2.11  48 2.11  64 2.11  49 2.11  39 2.11
  18  0.250  0.250  0.649-  47 2.11  50 2.11  40 2.11  48 2.11  63 2.11
  19  0.500  0.750  0.352-  51 2.11  38 2.11  53 2.11  54 2.11  61 2.11
  20  0.750  0.000  0.352-  52 2.11  37 2.11  53 2.11  54 2.11  62 2.11
  21  0.500  0.000  0.451-  53 2.11  51 2.11  52 2.11  36 2.11  59 2.11  57 2.12
  22  0.750  0.750  0.451-  54 2.11  51 2.11  52 2.11  35 2.11  60 2.11  58 2.12
  23  0.500  0.750  0.549-  42 2.11  65 2.11  57 2.11  51 2.11  58 2.11  55 2.15
  24  0.750  0.000  0.550-  66 2.11  57 2.11  58 2.11  41 2.11  52 2.13  56 2.14
  25  0.500  0.002  0.649-  63 2.09  40 2.11  56 2.11  57 2.12  55 2.13
  26  0.753  0.750  0.649-  39 2.09  56 2.11  64 2.11  58 2.11  55 2.13
  27  0.500  0.250  0.352-  59 2.11  53 2.11  46 2.11  61 2.11  62 2.11
  28  0.750  0.500  0.352-  60 2.11  54 2.11  45 2.11  61 2.11  62 2.11
  29  0.500  0.500  0.451-  61 2.11  51 2.11  59 2.11  60 2.11  44 2.11  65 2.12
  30  0.750  0.250  0.451-  62 2.11  52 2.11  59 2.11  60 2.11  43 2.11  66 2.12
  31  0.500  0.250  0.550-  50 2.11  66 2.11  65 2.11  57 2.11  59 2.12  63 2.15
  32  0.750  0.500  0.550-  66 2.11  65 2.11  58 2.11  49 2.11  60 2.13  64 2.14
  33  0.500  0.498  0.649-  63 2.09  48 2.11  64 2.11  65 2.12  55 2.13
  34  0.750  0.250  0.649-  47 2.11  66 2.11  56 2.11  64 2.11  63 2.11
  35  0.000  0.750  0.451-   3 2.11   5 2.11   6 2.11  13 2.11  22 2.11   7 2.12
  36  0.250  0.000  0.451-   4 2.11   5 2.11   6 2.11  14 2.11  21 2.11   8 2.13
  37  0.000  0.000  0.352-   5 2.11   4 2.11   3 2.11  11 2.11  20 2.11
  38  0.250  0.750  0.352-   6 2.11   4 2.11   3 2.11  12 2.11  19 2.11
  39  0.001  0.750  0.651-  26 2.09  10 2.09  17 2.11   9 2.11   7 2.15
  40  0.250  1.000  0.651-  25 2.11  10 2.11   9 2.11  18 2.11   8 2.14
  41  1.000  1.000  0.550-   8 2.11   7 2.11  15 2.11  24 2.11   9 2.11   5 2.12
  42  0.250  0.750  0.550-  23 2.11   8 2.11  16 2.11   7 2.11   6 2.12  10 2.12
  43  0.000  0.250  0.451-  11 2.11   5 2.11  13 2.11  14 2.11  30 2.11  15 2.12
  44  0.250  0.500  0.451-  12 2.11   6 2.11  13 2.11  14 2.11  29 2.11  16 2.13
  45  0.000  0.500  0.352-  13 2.11  11 2.11  12 2.11   3 2.11  28 2.11
  46  0.250  0.250  0.352-  14 2.11  11 2.11  12 2.11   4 2.11  27 2.11
  47  1.000  0.250  0.651-  17 2.11   9 2.11  18 2.11  34 2.11  15 2.15
  48  0.250  0.500  0.651-  33 2.11  10 2.11  17 2.11  18 2.11  16 2.14
  49  1.000  0.500  0.550-  16 2.11   7 2.11  15 2.11  32 2.11  17 2.11  13 2.12
  50  0.250  0.250  0.550-  31 2.11  15 2.11   8 2.11  16 2.11  18 2.11  14 2.12
  51  0.500  0.750  0.451-  23 2.11  19 2.11  21 2.11  22 2.11   6 2.11  29 2.11
  52  0.750  0.000  0.451-  20 2.11   5 2.11  21 2.11  22 2.11  30 2.11  24 2.13
  53  0.500  0.000  0.352-  21 2.11  19 2.11  20 2.11   4 2.11  27 2.11
  54  0.750  0.750  0.352-  22 2.11  19 2.11  20 2.11   3 2.11  28 2.11
  55  0.501  0.750  0.650-  33 2.13  25 2.13  10 2.13  26 2.13  23 2.15
  56  0.750  1.000  0.651-  26 2.11  25 2.11   9 2.11  34 2.11  24 2.14
  57  0.500  1.000  0.550-  23 2.11  24 2.11   8 2.11  31 2.11  25 2.12  21 2.12
  58  0.750  0.750  0.550-  23 2.11  24 2.11  32 2.11  26 2.11   7 2.12  22 2.12
  59  0.500  0.250  0.451-  27 2.11  21 2.11  14 2.11  29 2.11  30 2.11  31 2.12
  60  0.750  0.500  0.451-  28 2.11  22 2.11  13 2.11  29 2.11  30 2.11  32 2.13
  61  0.500  0.500  0.352-  29 2.11  19 2.11  27 2.11  28 2.11  12 2.11
  62  0.750  0.250  0.352-  30 2.11  20 2.11  27 2.11  28 2.11  11 2.11
  63  0.500  0.250  0.651-  33 2.09  25 2.09  34 2.11  18 2.11  31 2.15
  64  0.750  0.500  0.651-  26 2.11  33 2.11  17 2.11  34 2.11  32 2.14
  65  0.500  0.500  0.550-  23 2.11  32 2.11  16 2.11  31 2.11  33 2.12  29 2.12
  66  0.750  0.250  0.550-  31 2.11  24 2.11  32 2.11  15 2.11  34 2.11  30 2.12

IMPORTANT INFORMATION: All symmetrisations will be switched off!
NOSYMM: (Re-)initialisation of all symmetry stuff for point group C_1.

                                     Primitive cell

  volume of cell :    1519.8199

  direct lattice vectors                    reciprocal lattice vectors
     8.440984654  0.000000000  0.000000000     0.118469591  0.000000000  0.000000000
     0.000000000  8.440984654  0.000000000     0.000000000  0.118469591  0.000000000
     0.000000000  0.000000000 21.330738491     0.000000000  0.000000000  0.046880702

  length of vectors
     8.440984654  8.440984654 21.330738491     0.118469591  0.118469591  0.046880702

  position of ions in fractional coordinates (direct lattice)
     0.495582407  0.749999989  0.758545755
     0.629077366  0.750000007  0.776699400
     0.000000000  0.750000000  0.351605267
     0.250000000  0.000000000  0.351605267
     0.000000000  0.000000000  0.450535089
     0.250000000  0.750000000  0.450535089
     0.000367904  0.749999990  0.550043145
     0.249922494  0.999938497  0.550323600
     0.000026201  0.000433416  0.648958586
     0.248410135  0.750000005  0.649423040
     0.000000000  0.250000000  0.351605267
     0.250000000  0.500000000  0.351605267
     0.000000000  0.500000000  0.450535089
     0.250000000  0.250000000  0.450535089
     0.999953346  0.250000010  0.550087816
     0.249922511  0.500061504  0.550323598
     0.000026203  0.499566585  0.648958615
     0.249533183  0.249999994  0.648897869
     0.500000000  0.750000000  0.351605267
     0.750000000  0.000000000  0.351605267
     0.500000000  0.000000000  0.450535089
     0.750000000  0.750000000  0.450535089
     0.499952976  0.749999976  0.549347374
     0.749909505  0.000025171  0.550329701
     0.499727085  0.001919818  0.649268616
     0.753433634  0.750000006  0.648926089
     0.500000000  0.250000000  0.351605267
     0.750000000  0.500000000  0.351605267
     0.500000000  0.500000000  0.450535089
     0.750000000  0.250000000  0.450535089
     0.499935671  0.250000027  0.550109689
     0.749909490  0.499974828  0.550329703
     0.499727081  0.498080182  0.649268691
     0.750227902  0.249999994  0.648941426
     0.000000000  0.750000000  0.450535089
     0.250000000  0.000000000  0.450535089
     0.000000000  0.000000000  0.351605267
     0.250000000  0.750000000  0.351605267
     0.000500028  0.749999998  0.650715135
     0.250131441  0.999786317  0.650789700
     0.999945577  0.999988300  0.549871453
     0.250469588  0.750000003  0.549946092
     0.000000000  0.250000000  0.450535089
     0.250000000  0.500000000  0.450535089
     0.000000000  0.500000000  0.351605267
     0.250000000  0.250000000  0.351605267
     0.999903133  0.250000003  0.650952119
     0.250131447  0.500213683  0.650789710
     0.999945576  0.500011701  0.549871455
     0.250013447  0.249999997  0.549873551
     0.500000000  0.750000000  0.450535089
     0.750000000  0.000000000  0.450535089
     0.500000000  0.000000000  0.351605267
     0.750000000  0.750000000  0.351605267
     0.500684446  0.750000000  0.650144819
     0.749699000  0.999666883  0.650785089
     0.499917403  0.999629843  0.549965372
     0.749762970  0.750000004  0.549913950
     0.500000000  0.250000000  0.450535089
     0.750000000  0.500000000  0.450535089
     0.500000000  0.500000000  0.351605267
     0.750000000  0.250000000  0.351605267
     0.499890153  0.250000003  0.650892832
     0.749698989  0.500333117  0.650785099
     0.499917403  0.500370158  0.549965380
     0.749872120  0.249999997  0.549887990

  ion indices of the primitive-cell ions
   primitive index   ion index
                 1           1
                 2           2
                 3           3
                 4           4
                 5           5
                 6           6
                 7           7
                 8           8
                 9           9
                10          10
                11          11
                12          12
                13          13
                14          14
                15          15
                16          16
                17          17
                18          18
                19          19
                20          20
[...]
   0.49991740  0.99962984  0.54996537
   0.74976297  0.75000000  0.54991395
   0.50000000  0.25000000  0.45053509
   0.75000000  0.50000000  0.45053509
   0.50000000  0.50000000  0.35160527
   0.75000000  0.25000000  0.35160527
   0.49989015  0.25000000  0.65089283
   0.74969899  0.50033312  0.65078510
   0.49991740  0.50037016  0.54996538
   0.74987212  0.25000000  0.54988799

 position of ions in cartesian coordinates  (Angst):
   4.18320349  6.33073839 16.18034113
   5.31003239  6.33073855 16.56757180
   0.00000000  6.33073849  7.50000000
   2.11024616  0.00000000  7.50000000
   0.00000000  0.00000000  9.61024616
   2.11024616  6.33073849  9.61024616
   0.00310547  6.33073841 11.73282648
   2.10959194  8.44046551 11.73880880
   0.00022117  0.00365846 13.84276589
   2.09682614  6.33073853 13.85267304
   0.00000000  2.11024616  7.50000000
   2.11024616  4.22049233  7.50000000
   0.00000000  4.22049233  9.61024616
   2.11024616  2.11024616  9.61024616
   8.44059084  2.11024625 11.73377935
   2.10959208  4.22101149 11.73880876
   0.00022118  4.21683388 13.84276651
   2.10630577  2.11024611 13.84147075
   4.22049233  6.33073849  7.50000000
   6.33073849  0.00000000  7.50000000
   4.22049233  0.00000000  9.61024616
   6.33073849  6.33073849  9.61024616
   4.22009539  6.33073829 11.71798517
   6.32997463  0.00021247 11.73893894
   4.21818865  0.01620515 13.84937905
   6.35972174  6.33073854 13.84207270
   4.22049233  2.11024616  7.50000000
   6.33073849  4.22049233  7.50000000
   4.22049233  4.22049233  9.61024616
   6.33073849  2.11024616  9.61024616
   4.21994933  2.11024639 11.73424591
   6.32997450  4.22027985 11.73893898
   4.21818863  4.20428717 13.84938066
   6.33266221  2.11024611 13.84239984
   0.00000000  6.33073849  9.61024616
   2.11024616  0.00000000  9.61024616
   0.00000000  0.00000000  7.50000000
   2.11024616  6.33073849  7.50000000
   0.00422073  6.33073848 13.88023437
   2.11135565  8.43918096 13.88182489
   8.44052527  8.44088589 11.72916417
   2.11420995  6.33073852 11.73075627
   0.00000000  2.11024616  9.61024616
   2.11024616  4.22049233  9.61024616
   0.00000000  4.22049233  7.50000000
   2.11024616  2.11024616  7.50000000
   8.44016700  2.11024619 13.88528942
   2.11135570  4.22229602 13.88182512
   8.44052526  4.22059109 11.72916421
   2.11035967  2.11024614 11.72920892
   4.22049233  6.33073849  9.61024616
   6.33073849  0.00000000  9.61024616
   4.22049233  0.00000000  7.50000000
   6.33073849  6.33073849  7.50000000
   4.22626972  6.33073849 13.86806912
   6.32819775  8.43817282 13.88172655
   4.21979513  8.43786016 11.73116753
   6.32873772  6.33073852 11.73007065
   4.22049233  2.11024616  9.61024616
   6.33073849  4.22049233  9.61024616
   4.22049233  4.22049233  7.50000000
   6.33073849  2.11024616  7.50000000
   4.21956511  2.11024619 13.88402479
   6.32819767  4.22330416 13.88172675
   4.21979513  4.22361683 11.73116769
   6.32965906  2.11024614 11.72951691

--------------------------------------- Iteration      FINAL  ---------------------------------------

--------------------OUTCAR has been truncated-------------------------

[...]

--------------------OUTCAR has been truncated-------------------------

  DFT-D2 method for vdW energy calculation

  Parameters of vdW forcefield:
         C6(Jnm^6/mol)     R0(A)
   N        1.230          1.397
   O        0.700          1.342
   Mg       0.630          1.243
   O        0.700          1.342

  vdW correction parametrized for the method        ÜãÆ

  IVDW =   1
  VDW_RADIUS =    50.000 A
  VDW_S6 =     1.050
  VDW_SR =     1.000
  VDW_D =    20.000
  LVDW_EWALD = F

  Number of pair interactions contributing to vdW energy:  768340
  Edisp (eV):   -5.19558

 VOLUME and BASIS-vectors are now :
  energy-cutoff  :      600.00
  volume of cell :     1519.82
      direct lattice vectors                 reciprocal lattice vectors
     8.440984654  0.000000000  0.000000000     0.118469591  0.000000000  0.000000000
     0.000000000  8.440984654  0.000000000     0.000000000  0.118469591  0.000000000
     0.000000000  0.000000000 21.330738491     0.000000000  0.000000000  0.046880702

  length of vectors
     8.440984654  8.440984654 21.330738491     0.118469591  0.118469591  0.046880702

 FORCES acting on ions:
    Electron-Ion                     Ewald-Force                    Non-Local-Force
   0.243E+03 0.143E-04 -.128E+04   -.284E+03 0.845E-05 0.127E+04   0.385E+02 -.205E-04 0.974E+01
   -.229E+03 -.821E-04 -.161E+04   0.282E+03 0.748E-04 0.163E+04   -.483E+02 -.766E-06 -.177E+02
   -.970E-01 0.575E-06 0.209E+04   0.975E-01 -.152E-05 -.208E+04   -.336E-03 -.836E-06 -.639E+01
   0.302E+00 -.387E+00 0.209E+04   -.308E+00 0.392E+00 -.208E+04   0.347E-02 -.358E-02 -.640E+01
   -.397E+00 -.128E+01 0.722E+03   0.391E+00 0.129E+01 -.723E+03   0.333E-02 -.746E-02 0.435E+00
   0.207E+01 0.401E-05 0.725E+03   -.213E+01 -.307E-05 -.725E+03   0.329E-01 -.209E-05 0.458E+00
   -.260E+01 0.194E-04 -.626E+03   0.266E+01 -.251E-04 0.626E+03   -.550E-01 0.564E-05 -.152E+00
   0.515E+01 -.595E+01 -.631E+03   -.510E+01 0.589E+01 0.631E+03   -.348E-01 0.442E-01 -.299E+00
   -.858E+01 -.165E+02 -.199E+04   0.860E+01 0.166E+02 0.199E+04   -.218E-01 -.128E+00 0.535E+01
   0.352E+02 -.226E-04 -.196E+04   -.361E+02 -.124E-05 0.196E+04   0.852E+00 0.144E-04 0.556E+01
   -.884E-01 0.906E-06 0.209E+04   0.879E-01 0.153E-05 -.208E+04   0.318E-03 -.259E-05 -.640E+01
   0.302E+00 0.387E+00 0.209E+04   -.308E+00 -.392E+00 -.208E+04   0.348E-02 0.358E-02 -.640E+01
   -.397E+00 0.128E+01 0.722E+03   0.391E+00 -.129E+01 -.723E+03   0.333E-02 0.746E-02 0.435E+00
   0.888E+00 -.459E-05 0.722E+03   -.894E+00 0.379E-05 -.722E+03   0.368E-02 0.219E-05 0.439E+00
   -.141E+01 -.222E-04 -.636E+03   0.140E+01 0.260E-04 0.636E+03   -.179E-03 -.354E-05 -.109E+00
   0.515E+01 0.595E+01 -.631E+03   -.510E+01 -.589E+01 0.631E+03   -.348E-01 -.442E-01 -.299E+00
   -.858E+01 0.165E+02 -.199E+04   0.860E+01 -.166E+02 0.199E+04   -.218E-01 0.128E+00 0.535E+01
   0.116E+02 0.994E-05 -.200E+04   -.117E+02 0.560E-05 0.199E+04   0.110E+00 -.105E-04 0.535E+01
   0.101E+00 0.206E-05 0.209E+04   -.100E+00 -.414E-06 -.208E+04   -.222E-03 0.100E-05 -.636E+01
   -.305E+00 -.397E+00 0.209E+04   0.309E+00 0.403E+00 -.208E+04   -.318E-02 -.380E-02 -.640E+01
   0.416E+00 -.249E+01 0.725E+03   -.420E+00 0.256E+01 -.725E+03   0.180E-02 -.411E-01 0.463E+00
   -.210E+01 0.686E-05 0.726E+03   0.218E+01 -.715E-05 -.726E+03   -.434E-01 -.519E-06 0.448E+00
   0.277E+01 -.153E-04 -.607E+03   -.281E+01 0.723E-05 0.607E+03   0.411E-01 0.711E-05 0.380E+00
   -.526E+01 -.743E+01 -.627E+03   0.521E+01 0.739E+01 0.627E+03   0.303E-01 0.220E-01 -.323E+00
   0.110E+02 -.435E+02 -.195E+04   -.111E+02 0.443E+02 0.194E+04   0.273E-01 -.736E+00 0.553E+01
   -.428E+02 0.128E-04 -.192E+04   0.438E+02 -.603E-05 0.191E+04   -.994E+00 -.565E-05 0.558E+01
   0.889E-01 -.114E-06 0.209E+04   -.887E-01 0.404E-06 -.208E+04   -.144E-03 0.117E-05 -.639E+01
   -.305E+00 0.397E+00 0.209E+04   0.309E+00 -.403E+00 -.208E+04   -.318E-02 0.380E-02 -.640E+01
   0.416E+00 0.249E+01 0.725E+03   -.420E+00 -.256E+01 -.725E+03   0.180E-02 0.411E-01 0.463E+00
   -.912E+00 -.660E-05 0.722E+03   0.913E+00 0.645E-05 -.723E+03   -.870E-03 0.374E-06 0.442E+00
   0.149E+01 0.189E-04 -.629E+03   -.149E+01 -.110E-04 0.630E+03   0.168E-03 -.608E-05 -.118E+00
   -.526E+01 0.743E+01 -.627E+03   0.521E+01 -.739E+01 0.627E+03   0.303E-01 -.220E-01 -.323E+00
   0.110E+02 0.435E+02 -.195E+04   -.111E+02 -.443E+02 0.194E+04   0.273E-01 0.736E+00 0.553E+01
   -.121E+02 -.121E-04 -.199E+04   0.122E+02 0.668E-05 0.199E+04   -.114E+00 0.442E-05 0.535E+01
   -.285E+00 0.426E-05 0.542E+03   0.266E+00 -.463E-05 -.542E+03   0.211E-01 0.106E-06 -.762E-01
   0.944E+00 -.122E+01 0.541E+03   -.951E+00 0.124E+01 -.541E+03   0.859E-02 -.173E-01 -.156E+00
   -.698E-01 -.247E+00 0.157E+04   0.697E-01 0.250E+00 -.157E+04   0.804E-04 -.414E-02 0.312E+01
   0.283E+00 0.208E-05 0.157E+04   -.291E+00 -.606E-06 -.157E+04   0.107E-01 -.220E-06 0.313E+01
   -.120E+02 -.309E-05 -.150E+04   0.121E+02 0.393E-05 0.151E+04   -.124E+00 -.268E-05 -.457E+01
   0.177E+02 -.181E+02 -.151E+04   -.177E+02 0.181E+02 0.151E+04   0.127E-01 0.248E-01 -.458E+01
   -.145E+01 -.380E+01 -.469E+03   0.142E+01 0.379E+01 0.469E+03   0.308E-01 0.137E-01 0.237E+00
   0.516E+01 0.131E-04 -.465E+03   -.511E+01 -.177E-04 0.465E+03   -.757E-01 0.553E-05 0.479E-01
   -.266E+00 -.564E-05 0.541E+03   0.269E+00 0.477E-05 -.541E+03   -.321E-02 0.452E-06 -.958E-01
   0.944E+00 0.122E+01 0.541E+03   -.951E+00 -.124E+01 -.541E+03   0.859E-02 0.173E-01 -.156E+00
   -.698E-01 0.247E+00 0.157E+04   0.697E-01 -.250E+00 -.157E+04   0.792E-04 0.414E-02 0.312E+01
   0.180E+00 0.301E-05 0.157E+04   -.183E+00 0.622E-06 -.157E+04   0.317E-02 -.497E-06 0.312E+01
   -.344E+01 0.596E-05 -.152E+04   0.341E+01 -.422E-05 0.153E+04   0.308E-01 -.344E-05 -.459E+01
   0.177E+02 0.181E+02 -.151E+04   -.177E+02 -.181E+02 0.151E+04   0.127E-01 -.248E-01 -.458E+01
   -.145E+01 0.380E+01 -.469E+03   0.142E+01 -.379E+01 0.469E+03   0.308E-01 -.137E-01 0.237E+00
   0.277E+01 -.183E-04 -.471E+03   -.277E+01 0.227E-04 0.470E+03   -.483E-02 -.470E-05 0.270E+00
   0.342E+00 -.337E-05 0.547E+03   -.344E+00 0.485E-05 -.547E+03   0.375E-02 -.136E-05 0.621E-01
   -.977E+00 -.129E+01 0.542E+03   0.994E+00 0.130E+01 -.542E+03   -.214E-01 -.118E-01 -.158E+00
   0.715E-01 -.350E+00 0.157E+04   -.711E-01 0.359E+00 -.157E+04   -.567E-03 -.111E-01 0.313E+01
   -.285E+00 0.185E-05 0.157E+04   0.293E+00 -.931E-06 -.157E+04   -.983E-02 -.711E-06 0.313E+01
   0.169E+02 -.189E-04 -.140E+04   -.168E+02 0.262E-04 0.140E+04   -.133E+00 -.942E-05 -.335E+01
   -.194E+02 -.283E+02 -.149E+04   0.193E+02 0.283E+02 0.150E+04   0.632E-01 0.383E-01 -.465E+01
   0.164E+01 -.646E+01 -.463E+03   -.164E+01 0.642E+01 0.463E+03   -.210E-02 0.632E-01 0.977E-01
   -.530E+01 0.233E-04 -.458E+03   0.525E+01 -.227E-04 0.458E+03   0.748E-01 -.504E-06 0.167E+00
   0.266E+00 0.281E-05 0.542E+03   -.263E+00 -.523E-05 -.542E+03   -.349E-02 0.122E-05 -.884E-01
   -.977E+00 0.129E+01 0.542E+03   0.994E+00 -.130E+01 -.542E+03   -.214E-01 0.118E-01 -.158E+00
   0.715E-01 0.350E+00 0.157E+04   -.711E-01 -.359E+00 -.157E+04   -.567E-03 0.111E-01 0.313E+01
   -.181E+00 -.616E-06 0.157E+04   0.183E+00 0.916E-06 -.157E+04   -.333E-02 0.116E-06 0.312E+01
   0.380E+01 0.383E-04 -.151E+04   -.380E+01 -.350E-04 0.151E+04   -.487E-02 -.223E-05 -.453E+01
   -.194E+02 0.283E+02 -.149E+04   0.193E+02 -.283E+02 0.150E+04   0.632E-01 -.383E-01 -.465E+01
   0.164E+01 0.646E+01 -.463E+03   -.164E+01 -.642E+01 0.463E+03   -.209E-02 -.632E-01 0.976E-01
   -.284E+01 -.190E-04 -.469E+03   0.284E+01 0.190E-04 0.469E+03   0.541E-03 0.106E-05 0.248E+00
   0.130E+02 0.226E-04 0.267E+02   0.320E-12 0.254E-12 0.136E-11   -.996E+01 -.371E-04 -.231E+02

 POSITION                                       TOTAL-FORCE (eV/Angst)
      4.18320      6.33074     16.18034         1.618502      0.000001      0.711648
      5.31003      6.33074     16.56757        -1.649018     -0.000007     -0.555811
      0.00000      6.33074      7.50000         0.000119     -0.000002      0.466135
      2.11025      0.00000      7.50000        -0.001418      0.001526      0.468537
      0.00000      0.00000      9.61025        -0.002291      0.003104      0.050416
      2.11025      6.33074      9.61025        -0.015335     -0.000001      0.041635
      0.00311      6.33074     11.73283        -0.005237      0.000001      0.020410
      2.10959      8.44047     11.73881         0.017076     -0.011481      0.013390
      0.00022      0.00366     13.84277        -0.002111     -0.001406     -0.077903
      2.09683      6.33074     13.85267         0.025539     -0.000008     -0.136693
      0.00000      2.11025      7.50000        -0.000074     -0.000000      0.467989
      2.11025      4.22049      7.50000        -0.001421     -0.001528      0.468545
      0.00000      4.22049      9.61025        -0.002289     -0.003105      0.050418
      2.11025      2.11025      9.61025        -0.001615      0.000002      0.050852
      8.44059      2.11025     11.73378        -0.002388      0.000000      0.024546
      2.10959      4.22101     11.73881         0.017076      0.011481      0.013397
      0.00022      4.21683     13.84277        -0.002102      0.001411     -0.077901
      2.10631      2.11025     13.84147         0.000331      0.000004     -0.077312
      4.22049      6.33074      7.50000         0.000159      0.000003      0.458217
      6.33074      0.00000      7.50000         0.001365      0.001566      0.468671
      4.22049      0.00000      9.61025        -0.001147      0.020219      0.045964
      6.33074      6.33074      9.61025         0.021930     -0.000001      0.046956
      4.22010      6.33074     11.71799         0.004220      0.000000      0.079433
      6.32997      0.00021     11.73894        -0.010822     -0.012654      0.015403
      4.21819      0.01621     13.84938         0.009619     -0.028497     -0.144262
      6.35972      6.33074     13.84207        -0.047365      0.000001     -0.094404
      4.22049      2.11025      7.50000         0.000092      0.000002      0.466780
      6.33074      4.22049      7.50000         0.001368     -0.001568      0.468676
      4.22049      4.22049      9.61025        -0.001148     -0.020220      0.045966
      6.33074      2.11025      9.61025         0.000364      0.000001      0.050791
      4.21995      2.11025     11.73425         0.000600      0.000001      0.016135
      6.32997      4.22028     11.73894        -0.010821      0.012654      0.015401
      4.21819      4.20429     13.84938         0.009614      0.028497     -0.144264
      6.33266      2.11025     13.84240         0.005820     -0.000000     -0.078457
      0.00000      6.33074      9.61025         0.005480      0.000000      0.061115
      2.11025      0.00000      9.61025         0.003163     -0.005322      0.060826
      0.00000      0.00000      7.50000         0.000049     -0.001342     -0.437003
      2.11025      6.33074      7.50000         0.003653      0.000002     -0.433593
      0.00422      6.33074     13.88023        -0.004512     -0.000002     -0.111913
      2.11136      8.43918     13.88182        -0.000816      0.009329     -0.096359
      8.44053      8.44089     11.72916         0.005387      0.003037      0.033503
      2.11421      6.33074     11.73076        -0.034282      0.000002      0.017675
      0.00000      2.11025      9.61025        -0.001020     -0.000000      0.057909
      2.11025      4.22049      9.61025         0.003163      0.005322      0.060825
      0.00000      4.22049      7.50000         0.000051      0.001342     -0.437005
      2.11025      2.11025      7.50000         0.001052      0.000003     -0.437100
      8.44017      2.11025     13.88529         0.006583     -0.000003     -0.123423
      2.11136      4.22230     13.88183        -0.000818     -0.009325     -0.096360
      8.44053      4.22059     11.72916         0.005387     -0.003037      0.033501
      2.11036      2.11025     11.72921        -0.003450     -0.000001      0.037539
      4.22049      6.33074      9.61025         0.001769      0.000000      0.033616
      6.33074      0.00000      9.61025        -0.006807     -0.003875      0.060910
      4.22049      0.00000      7.50000        -0.000165     -0.003731     -0.433702
      6.33074      6.33074      7.50000        -0.003275      0.000000     -0.433503
      4.22627      6.33074     13.86807        -0.012697     -0.000003     -0.067413
      6.32820      8.43817     13.88173         0.011888      0.016019     -0.109897
      4.21980      8.43786     11.73117         0.000964      0.034901      0.017086
      6.32874      6.33074     11.73007         0.035677      0.000000      0.015242
      4.22049      2.11025      9.61025        -0.000930     -0.000001      0.063869
      6.33074      4.22049      9.61025        -0.006807      0.003876      0.060911
      4.22049      4.22049      7.50000        -0.000164      0.003728     -0.433711
      6.33074      2.11025      7.50000        -0.001043      0.000001     -0.437256
      4.21957      2.11025     13.88402        -0.000331      0.000001     -0.105297
      6.32820      4.22330     13.88173         0.011885     -0.016020     -0.109888
      4.21980      4.22362     11.73117         0.000968     -0.034901      0.017083
      6.32966      2.11025     11.72952         0.002807      0.000001      0.032513
    total drift:                               -0.001954     -0.000018     -0.003598

  FREE ENERGIE OF THE ION-ELECTRON SYSTEM (eV)
  free  energy   TOTEN  =      -454.42077653 eV

  energy  without entropy=     -454.42077653  energy(sigma->0) =     -454.42077653