 vasp.6.4.2 20Jul23 (build Feb 22 2024 13:53:45) complex
 executed on              LinuxNV date 2024.08.27  18:32:22
 OpenACC runtime initialized ...    4 GPUs detected

 INCAR:
   SYSTEM = Oxide-Surface
   ISMEAR = 0
   SIGMA = 0.05
   EDIFF = 1E-5
   ALGO = Normal
   IBRION = -1
   NSW = 0
   ISYM = 0
   DIPOL = 0.5 0.5 0.5
   IDIPOL = 3
   LDIPOL = .TRUE.
   ISTART = 1
   GGA = PE
   IVDW = 11
   ENCUT = 1000
   PREC = Normal
   PRECFOCK = Normal
   LASPH = .TRUE.
   LREAL = Auto
   ISPIN = 1
   NELM = 200
   NELMIN = 8
   NCORE = 1
   KPAR = 1
   LWAVE = .FALSE.
   LCHARG = .FALSE.

 POTCAR:    PAW_PBE Mg_sv 12Apr2007
 POTCAR:    PAW_PBE O_h 06Feb2004
 POTCAR:    PAW_PBE Mg_sv 12Apr2007
   VRHFIN =Mg: p6s2

   TITEL  = PAW_PBE Mg_sv 12Apr2007
   POMASS =   24.305; ZVAL   =   10.000    mass and valenz
   ENMAX  =  495.223; ENMIN  =  371.417 eV

   TITEL  = PAW_PBE O_h 06Feb2004
   POMASS =   16.000; ZVAL   =    6.000    mass and valenz
   ENMAX  =  700.000; ENMIN  =  500.000 eV

 Optimization of the real space projectors (new method)

 maximal supplied QI-value         = 22.11
 optimisation between [QCUT,QGAM] = [ 16.14, 32.28] = [ 72.95,291.79] Ry
 Optimized for a Real-space Cutoff    0.98 Angstroem

   l    n(q)    QCUT    max X(q) W(low)/X(q) W(high)/X(q)  e(spline)
   0      9    16.140     8.730    0.14E-04    0.12E-04    0.27E-07
   0      9    16.140     8.910    0.19E-04    0.17E-04    0.41E-07
   1      9    16.140     2.513    0.16E-04    0.28E-04    0.54E-07
   1      9    16.140     3.341    0.27E-04    0.13E-03    0.17E-06
   2      9    16.140     3.683    0.18E-03    0.21E-03    0.81E-07
 Optimization of the real space projectors (new method)

 maximal supplied QI-value         = 34.20
 optimisation between [QCUT,QGAM] = [ 16.08, 32.15] = [ 72.37,289.48] Ry
 Optimized for a Real-space Cutoff    0.71 Angstroem

   l    n(q)    QCUT    max X(q) W(low)/X(q) W(high)/X(q)  e(spline)
   0      7    16.076   280.207    0.42E-03    0.69E-03    0.60E-07
   0      7    16.076   228.978    0.42E-03    0.69E-03    0.61E-07
   1      6    16.076    86.127    0.11E-03    0.66E-03    0.10E-06
   1      6    16.076    65.368    0.11E-03    0.65E-03    0.10E-06
  PAW_PBE Mg_sv 12Apr2007               :
  PAW_PBE O_h 06Feb2004                 :

 POSCAR: Mg  O
  positions in direct lattice
 exchange correlation table for  LEXCH =        8
   RHO(1)=    0.500       N(1)  =     2000
   RHO(2)=  100.500       N(2)  =     4000

 ion  position               nearest neighbor table
   1  0.000  0.750  0.239-
   2  0.250  0.000  0.239-
   3  0.000  0.000  0.364-
   4  0.250  0.750  0.364-
   5  0.000  0.750  0.488-
   6  0.250  0.000  0.488-
   7  0.000  0.000  0.612-
   8  0.248  0.750  0.612-
   9  0.000  0.250  0.239-
  10  0.250  0.500  0.239-
  11  0.000  0.500  0.364-
  12  0.250  0.250  0.364-
  13  0.000  0.250  0.488-
  14  0.251  0.500  0.489-
  15  0.001  0.500  0.612-
  16  0.249  0.250  0.612-
  17  0.500  0.750  0.239-
  18  0.750  0.000  0.239-
  19  0.500  0.000  0.364-
  20  0.750  0.750  0.364-
  21  0.500  0.749  0.489-
  22  0.750  0.000  0.488-
  23  0.500  0.002  0.612-
  24  0.753  0.751  0.611-
  25  0.500  0.250  0.239-
  26  0.750  0.500  0.239-
  27  0.500  0.500  0.364-
  28  0.750  0.250  0.364-
  29  0.500  0.251  0.489-
  30  0.749  0.500  0.489-
  31  0.498  0.494  0.618-
  32  0.751  0.250  0.612-
  33  0.000  0.750  0.364-
  34  0.250  0.000  0.364-
  35  0.000  0.000  0.239-
  36  0.250  0.750  0.239-
  37  1.000  0.750  0.615-
  38  0.249  1.000  0.615-
  39  1.000  1.000  0.488-
  40  0.251  0.750  0.488-
  41  0.000  0.250  0.364-
  42  0.250  0.500  0.364-
  43  0.000  0.500  0.239-
  44  0.250  0.250  0.239-
  45  1.000  0.250  0.615-
  46  0.248  0.500  0.613-
  47  1.000  0.500  0.488-
  48  0.250  0.250  0.488-
  49  0.500  0.750  0.364-
  50  0.750  0.000  0.364-
  51  0.500  0.000  0.239-
  52  0.750  0.750  0.239-
  53  0.500  0.754  0.618-
  54  0.751  1.000  0.615-
  55  0.500  0.999  0.488-
  56  0.749  0.750  0.488-
  57  0.500  0.250  0.364-
  58  0.750  0.500  0.364-
  59  0.500  0.500  0.239-
  60  0.750  0.250  0.239-
  61  0.500  0.248  0.615-
  62  0.752  0.500  0.615-
  63  0.500  0.501  0.489-
  64  0.750  0.250  0.488-

IMPORTANT INFORMATION: All symmetrisations will be switched off!
NOSYMM: (Re-)initialisation of all symmetry stuff for point group C_1.

                                     Primitive cell

  volume of cell :    1211.2538

  direct lattice vectors                    reciprocal lattice vectors
     8.440984654  0.000000000  0.000000000     0.118469591  0.000000000  0.000000000
     0.000000000  8.440984654  0.000000000     0.000000000  0.118469591  0.000000000
     0.000000000  0.000000000 17.000000000     0.000000000  0.000000000  0.058823529

  length of vectors
     8.440984654  8.440984654 17.000000000     0.118469591  0.118469591  0.058823529

  position of ions in fractional coordinates (direct lattice)
     0.000084749  0.750056171  0.239446159
     0.250084749  0.000056171  0.239446159
     0.000084749  0.000056171  0.363578286
     0.250084749  0.750056171  0.363578286
     0.000292034  0.749824964  0.488119943
     0.250127698  0.000181851  0.488431874
     0.000158555  0.000466213  0.612094268
     0.247767905  0.749974041  0.611893376
     0.000084749  0.250056171  0.239446159
     0.250084749  0.500056171  0.239446159
     0.000084749  0.500056171  0.363578286
     0.250084749  0.250056171  0.363578286
     0.000116012  0.250196651  0.488268359
     0.250770752  0.499798843  0.488884857
     0.000510418  0.499570052  0.611813977
     0.249067721  0.249912005  0.612281031
     0.500084749  0.750056171  0.239446159
     0.750084749  0.000056171  0.239446159
     0.500084749  0.000056171  0.363578286
     0.750084749  0.750056171  0.363578286
     0.499810778  0.749036438  0.488828048
     0.749862546  0.000340508  0.488298782
     0.499761848  0.002048857  0.612169767
     0.752549470  0.750728058  0.610753521
     0.500084749  0.250056171  0.239446159
     0.750084749  0.500056171  0.239446159
     0.500084749  0.500056171  0.363578286
     0.750084749  0.250056171  0.363578286
     0.499866424  0.250603695  0.488721432
     0.749099841  0.499734903  0.488964189
     0.498205335  0.493574688  0.618100110
     0.750753975  0.249613073  0.611923847
     0.000084749  0.750056171  0.363578286
     0.250084749  0.000056171  0.363578286
     0.000084749  0.000056171  0.239446159
     0.250084749  0.750056171  0.239446159
     0.999857188  0.750394105  0.614566772
     0.249346556  0.999943829  0.614781797
     0.999915251  0.999830927  0.487959860
     0.250643896  0.750289407  0.488342652
     0.000084749  0.250056171  0.363578286
     0.250084749  0.500056171  0.363578286
     0.000084749  0.500056171  0.239446159
     0.250084749  0.250056171  0.239446159
     0.999828427  0.249634011  0.614770607
     0.248265660  0.500148340  0.613489608
     0.999666695  0.500164134  0.487824047
     0.249993932  0.249673109  0.488045416
     0.500084749  0.750056171  0.363578286
     0.750084749  0.000056171  0.363578286
     0.500084749  0.000056171  0.239446159
     0.750084749  0.750056171  0.239446159
     0.500208490  0.754444867  0.617976523
     0.750578969  0.999922121  0.614742452
     0.500080035  0.999350643  0.488242651
     0.749413318  0.750087637  0.488265164
     0.500084749  0.250056171  0.363578286
     0.750084749  0.500056171  0.363578286
     0.500084749  0.500056171  0.239446159
     0.750084749  0.250056171  0.239446159
     0.500099799  0.247787997  0.614504174
     0.751766757  0.500350148  0.615182713
     0.500235346  0.500508510  0.489332342
     0.749985949  0.249943297  0.488132887

  ion indices of the primitive-cell ions
   primitive index   ion index
                 1           1
                 2           2
                 3           3
                 4           4
                 5           5
                 6           6
                 7           7
                 8           8
                 9           9
                10          10
                11          11
                12          12
                13          13
                14          14
                15          15
                16          16
                17          17
                18          18
                19          19
                20          20
                21          21
                22          22
                23          23
                24          24
                25          25
                26          26
                27          27
                28          28
                29          29
                30          30
                31          31
                32          32
                33          33
                34          34
                35          35
                36          36
                37          37
                38          38
                39          39
                40          40
                41          41
                42          42
                43          43
                44          44
                45          45
                46          46
                47          47
                48          48
                49          49
                50          50
                51          51
                52          52
                53          53
                54          54
                55          55
                56          56
                57          57
                58          58
                59          59
                60          60
                61          61
                62          62
                63          63
                64          64

 KPOINTS: pymatgen v2020.8.13 with grid density =

Automatic generation of k-mesh.
 Grid dimensions read from file:
 generate k-points for:    2    2    1

 Generating k-lattice:

  Cartesian coordinates                     Fractional coordinates (reciprocal lattice)
     0.059234796  0.000000000  0.000000000     0.500000000  0.000000000  0.000000000
     0.000000000  0.059234796  0.000000000     0.000000000  0.500000000  0.000000000
     0.000000000  0.000000000  0.058823529     0.000000000  0.000000000  1.000000000

  Length of vectors
     0.059234796  0.059234796  0.058823529

  Shift w.r.t. Gamma in fractional coordinates (k-lattice)
     0.000000000  0.000000000  0.000000000

 Subroutine IBZKPT returns following result:

 Found      4 irreducible k-points:

 Following reciprocal coordinates:
            Coordinates               Weight
  0.000000  0.000000  0.000000      1.000000
  0.500000  0.000000  0.000000      1.000000
  0.000000  0.500000  0.000000      1.000000
  0.500000  0.500000  0.000000      1.000000

 Following cartesian coordinates:
            Coordinates               Weight
  0.000000  0.000000  0.000000      1.000000
  0.059235  0.000000  0.000000      1.000000
  0.000000  0.059235  0.000000      1.000000
  0.059235  0.059235  0.000000      1.000000

 SYSTEM =  Oxide-Surface
 POSCAR =  Mg  O

     8.440984654  8.440984654 17.000000000     0.118469591  0.118469591  0.058823529
[...]
   6.33145386  2.11072030  4.07058470
   4.22133473  2.09157468 10.44657096
   6.34565166  4.22344792 10.45810612
   4.22247888  4.22478466  8.31864981
   6.33061989  2.10976754  8.29825908

--------------------------------------- Iteration      FINAL  ---------------------------------------

--------------------OUTCAR has been truncated-------------------------

[...]

--------------------OUTCAR has been truncated-------------------------

         DFTD3 V3.0 Rev 1
 IVDW         = 11
 DF pbe
 parameters
 VDW_S6       =    1.0000
 VDW_S8       =    0.7220
 VDW_SR       =    1.2170
 rs18     =    1.0000
 alpha6   =   14.0000
 alpha8   =   16.0000
 k1-k3    =   16.0000    1.3333   -4.0000
 VDW_RADIUS   =   50.2022 A
 VDW_CNRADIUS =   21.1671 A
 Edisp (eV)   -9.27963

 E6    (eV) :    -4.2682
 E8    (eV) :    -5.0114
 % E8        : 54.00

  FORCE on cell =-STRESS in cart. coord.  units (eV):
  Direction    XX          YY          ZZ          XY          YZ          ZX
  Alpha Z  1191.54525  1191.54525  1191.54525
  Ewald  112261.59163112265.40548************    -0.61082     2.30104     0.61167
  Hartree128842.07092128844.21885************    -0.41911     1.20378     0.34794
  E(xc)   -3223.68311 -3223.67630 -3229.83749    -0.00073    -0.00093    -0.00080
  Local  ************************250901.12693     1.03616    -3.34556    -0.93604
  n-local -5620.39506 -5620.40597 -5620.79118    -0.00759    -0.01240    -0.02522
  augment   723.98724   723.99182   714.61337    -0.00276    -0.01558    -0.00606
  Kinetic 12493.01421 12493.07579 12509.91689    -0.00597    -0.07061     0.09708
  Fock        0.00000     0.00000     0.00000     0.00000     0.00000     0.00000
  vdW       -11.89720   -11.89470    -7.31151     0.00033    -0.00432    -0.00130
  Total     -27.75972   -27.63562     0.20703    -0.01050     0.05542     0.08727
  in kB     -36.71898   -36.55482     0.27385    -0.01389     0.07331     0.11544

 VOLUME and BASIS-vectors are now :
  energy-cutoff  :     1000.00
  volume of cell :     1211.25
      direct lattice vectors                 reciprocal lattice vectors
     8.440984654  0.000000000  0.000000000     0.118469591  0.000000000  0.000000000
     0.000000000  8.440984654  0.000000000     0.000000000  0.118469591  0.000000000
     0.000000000  0.000000000 17.000000000     0.000000000  0.000000000  0.058823529

  length of vectors
     8.440984654  8.440984654 17.000000000     0.118469591  0.118469591  0.058823529

 FORCES acting on ions
    electron-ion (+dipol)            ewald-force                    non-local-force                 convergence-correction
   0.303E-01 0.292E+00 0.245E+04   -.306E-01 -.294E+00 -.244E+04   0.518E-03 0.122E-02 -.912E+01   0.725E-05 0.718E-05 0.236E-03
   -.425E+00 0.175E+00 0.245E+04   0.429E+00 -.177E+00 -.244E+04   -.257E-02 0.234E-02 -.916E+01   0.884E-06 0.931E-05 0.234E-03
   -.372E-01 0.394E+00 0.814E+03   0.465E-01 -.383E+00 -.814E+03   -.929E-02 -.980E-02 0.588E+00   0.597E-05 0.349E-05 -.180E-03
   -.226E+01 0.156E+01 0.810E+03   0.236E+01 -.156E+01 -.811E+03   -.771E-01 -.121E-03 0.730E+00   -.231E-05 0.568E-05 -.180E-03
   0.447E+00 0.121E+01 -.813E+03   -.383E+00 -.118E+01 0.813E+03   -.719E-01 -.859E-02 -.189E+00   -.520E-06 0.261E-05 -.181E-03
   -.294E+01 0.278E+01 -.818E+03   0.303E+01 -.284E+01 0.818E+03   -.819E-01 0.251E-01 -.387E+00   -.769E-05 -.213E-05 -.186E-03
   0.686E+00 0.184E+01 -.243E+04   -.691E+00 -.173E+01 0.242E+04   -.167E-01 -.136E+00 0.779E+01   0.184E-05 -.116E-04 0.293E-03
   -.160E+02 0.379E+01 -.243E+04   0.162E+02 -.318E+01 0.242E+04   0.947E-01 -.490E+00 0.777E+01   -.657E-05 0.296E-05 0.305E-03
   0.339E-01 -.293E+00 0.245E+04   -.351E-01 0.294E+00 -.244E+04   0.127E-02 -.508E-03 -.914E+01   0.941E-05 -.825E-05 0.234E-03
   -.516E+00 -.174E+00 0.245E+04   0.524E+00 0.177E+00 -.244E+04   -.674E-02 -.173E-02 -.915E+01   -.159E-05 -.904E-05 0.234E-03
   0.184E+00 -.411E+00 0.812E+03   -.226E+00 0.394E+00 -.813E+03   0.309E-01 0.123E-01 0.554E+00   0.482E-05 -.280E-05 -.175E-03
   -.188E+01 -.158E+01 0.812E+03   0.189E+01 0.157E+01 -.813E+03   -.845E-02 0.378E-02 0.683E+00   -.375E-05 -.603E-05 -.190E-03
   0.707E+00 -.106E+01 -.815E+03   -.700E+00 0.104E+01 0.816E+03   -.161E-01 -.453E-03 -.143E+00   0.203E-05 -.520E-05 -.203E-03
   -.722E+01 -.333E+01 -.819E+03   0.764E+01 0.340E+01 0.820E+03   -.390E+00 -.369E-01 -.734E+00   -.109E-04 0.373E-05 -.193E-03
   0.347E+01 -.200E+01 -.243E+04   -.377E+01 0.190E+01 0.242E+04   0.193E+00 0.127E+00 0.777E+01   0.229E-05 0.135E-04 0.301E-03
   -.142E+01 -.650E+00 -.243E+04   0.570E+00 -.590E-01 0.242E+04   0.758E+00 0.568E+00 0.813E+01   -.474E-05 -.406E-05 0.304E-03
   -.291E-01 0.380E+00 0.245E+04   0.294E-01 -.387E+00 -.244E+04   0.135E-03 0.587E-02 -.918E+01   -.709E-05 0.982E-05 0.235E-03
   0.424E+00 0.171E+00 0.245E+04   -.428E+00 -.173E+00 -.244E+04   0.371E-02 0.161E-02 -.914E+01   -.377E-06 0.650E-05 0.234E-03
   0.406E-01 0.870E+00 0.810E+03   -.582E-01 -.940E+00 -.811E+03   0.115E-01 0.534E-01 0.621E+00   -.595E-05 0.206E-05 -.191E-03
   0.222E+01 0.177E+01 0.810E+03   -.232E+01 -.182E+01 -.810E+03   0.778E-01 0.374E-01 0.712E+00   0.223E-05 0.367E-05 -.172E-03
   -.682E+00 0.739E+01 -.840E+03   0.627E+00 -.761E+01 0.840E+03   0.629E-01 0.238E+00 -.612E-01   0.134E-05 0.804E-05 -.175E-03
   0.296E+01 0.250E+01 -.816E+03   -.305E+01 -.251E+01 0.816E+03   0.789E-01 -.247E-01 -.390E+00   0.822E-05 -.488E-05 -.184E-03
   -.844E+00 0.102E+02 -.243E+04   0.860E+00 -.114E+02 0.242E+04   0.794E-02 0.813E+00 0.741E+01   -.301E-05 -.101E-04 0.297E-03
   0.178E+02 0.839E+01 -.242E+04   -.180E+02 -.803E+01 0.241E+04   -.154E+00 -.365E+00 0.746E+01   0.684E-05 0.362E-05 0.296E-03
   -.342E-01 -.385E+00 0.245E+04   0.351E-01 0.390E+00 -.244E+04   -.328E-03 -.446E-02 -.914E+01   -.969E-05 -.103E-04 0.231E-03
   0.513E+00 -.169E+00 0.245E+04   -.523E+00 0.171E+00 -.244E+04   0.820E-02 -.125E-02 -.917E+01   0.182E-05 -.632E-05 0.233E-03
   -.185E+00 -.829E+00 0.805E+03   0.213E+00 0.880E+00 -.805E+03   -.241E-01 -.417E-01 0.938E+00   -.453E-05 -.115E-05 -.177E-03
   0.186E+01 -.180E+01 0.812E+03   -.188E+01 0.184E+01 -.812E+03   0.132E-01 -.373E-01 0.710E+00   0.417E-05 -.419E-05 -.181E-03
   -.811E+00 -.513E+01 -.818E+03   0.808E+00 0.535E+01 0.818E+03   0.134E-01 -.224E+00 -.194E+00   -.344E-05 -.701E-05 -.205E-03
   0.771E+01 -.315E+01 -.827E+03   -.813E+01 0.317E+01 0.828E+03   0.392E+00 0.969E-02 -.475E+00   0.120E-04 0.692E-05 -.191E-03
   -.804E+01 -.328E+02 -.247E+04   0.810E+01 0.324E+02 0.246E+04   0.132E+00 0.111E+01 0.882E+01   -.225E-05 0.929E-05 0.340E-03
   0.197E+01 -.436E+01 -.243E+04   -.117E+01 0.395E+01 0.242E+04   -.712E+00 0.373E+00 0.793E+01   0.595E-05 -.411E-05 0.297E-03
   0.129E+00 0.571E+00 0.487E+03   -.140E+00 -.571E+00 -.487E+03   0.125E-01 0.132E-02 0.155E-01   0.239E-05 0.193E-05 -.149E-03
   -.101E+01 0.549E+00 0.486E+03   0.102E+01 -.553E+00 -.486E+03   -.137E-01 0.346E-02 -.881E-01   -.768E-06 0.178E-05 -.154E-03
   0.898E-02 0.825E-01 0.148E+04   -.734E-02 -.812E-01 -.149E+04   -.257E-02 -.191E-02 0.263E+01   0.273E-05 0.288E-05 0.104E-03
   -.294E+00 0.199E+00 0.148E+04   0.307E+00 -.200E+00 -.149E+04   -.180E-01 0.778E-04 0.262E+01   0.257E-06 0.245E-05 0.105E-03
   0.127E+00 0.151E+01 -.149E+04   -.265E+00 -.145E+01 0.149E+04   0.196E+00 -.111E+00 -.473E+01   -.196E-06 -.193E-06 0.148E-03
   -.267E+01 0.261E+01 -.149E+04   0.304E+01 -.308E+01 0.149E+04   -.419E+00 0.582E+00 -.466E+01   -.118E-05 -.474E-05 0.149E-03
   -.226E-01 0.331E+00 -.484E+03   0.249E-02 -.367E+00 0.484E+03   0.283E-01 0.545E-01 0.200E+00   0.894E-06 -.240E-05 -.136E-03
   -.410E+01 0.189E+01 -.487E+03   0.424E+01 -.183E+01 0.486E+03   -.196E+00 -.933E-01 0.302E+00   -.536E-05 0.224E-05 -.134E-03
   0.127E+00 -.577E+00 0.487E+03   -.124E+00 0.584E+00 -.487E+03   -.406E-02 -.888E-02 -.272E-01   0.347E-05 -.242E-05 -.152E-03
   -.143E+01 -.565E+00 0.484E+03   0.138E+01 0.576E+00 -.484E+03   0.644E-01 -.144E-01 -.840E-01   -.236E-05 -.136E-05 -.153E-03
   0.252E-01 -.822E-01 0.148E+04   -.292E-01 0.812E-01 -.149E+04   0.470E-02 0.113E-02 0.263E+01   0.340E-05 -.274E-05 0.105E-03
   -.265E+00 -.199E+00 0.148E+04   0.268E+00 0.200E+00 -.149E+04   -.531E-02 -.171E-02 0.263E+01   -.653E-06 -.259E-05 0.105E-03
   0.669E+00 -.139E+01 -.149E+04   -.830E+00 0.132E+01 0.149E+04   0.206E+00 0.131E+00 -.458E+01   -.386E-06 -.690E-06 0.155E-03
   -.634E+01 -.468E+01 -.148E+04   0.613E+01 0.520E+01 0.148E+04   0.375E+00 -.646E+00 -.337E+01   -.497E-05 0.539E-05 0.154E-03
   0.723E+00 -.406E+00 -.482E+03   -.786E+00 0.437E+00 0.482E+03   0.894E-01 -.463E-01 0.487E+00   0.134E-05 0.306E-05 -.136E-03
   -.170E+01 -.160E+01 -.484E+03   0.167E+01 0.155E+01 0.484E+03   0.449E-01 0.991E-01 0.416E+00   -.460E-05 -.270E-05 -.140E-03
   -.123E+00 0.984E+00 0.483E+03   0.137E+00 -.910E+00 -.483E+03   -.177E-01 -.931E-01 -.159E+00   -.260E-05 0.360E-05 -.155E-03
   0.976E+00 0.545E+00 0.487E+03   -.977E+00 -.562E+00 -.487E+03   0.346E-02 0.192E-01 -.546E-01   0.948E-06 0.468E-06 -.153E-03
   -.806E-02 0.113E+00 0.148E+04   0.675E-02 -.121E+00 -.149E+04   0.130E-02 0.102E-01 0.262E+01   -.281E-05 0.194E-05 0.105E-03
   0.294E+00 0.215E+00 0.148E+04   -.307E+00 -.221E+00 -.149E+04   0.159E-01 0.783E-02 0.262E+01   -.109E-06 0.299E-05 0.105E-03
   -.145E+01 0.183E+02 -.150E+04   0.172E+01 -.183E+02 0.150E+04   -.329E+00 -.442E+00 -.506E+01   0.846E-06 0.342E-05 0.168E-03
   0.282E+01 0.207E+01 -.149E+04   -.322E+01 -.251E+01 0.149E+04   0.442E+00 0.566E+00 -.486E+01   0.138E-05 -.530E-05 0.150E-03
   0.443E-01 0.289E+01 -.486E+03   -.353E-01 -.316E+01 0.485E+03   -.155E-01 0.368E+00 0.243E+00   -.139E-05 -.258E-05 -.135E-03
   0.421E+01 0.267E+01 -.484E+03   -.434E+01 -.264E+01 0.483E+03   0.194E+00 -.402E-01 0.503E+00   0.550E-05 0.292E-05 -.132E-03
   -.150E+00 -.106E+01 0.485E+03   0.159E+00 0.102E+01 -.485E+03   -.114E-01 0.606E-01 -.391E-01   -.359E-05 -.371E-05 -.156E-03
   0.139E+01 -.541E+00 0.484E+03   -.132E+01 0.558E+00 -.483E+03   -.859E-01 -.214E-01 -.145E+00   0.233E-05 -.249E-06 -.151E-03
   -.237E-01 -.111E+00 0.148E+04   0.283E-01 0.120E+00 -.149E+04   -.648E-02 -.120E-01 0.261E+01   -.339E-05 -.173E-05 0.104E-03
   0.265E+00 -.216E+00 0.148E+04   -.268E+00 0.222E+00 -.149E+04   0.280E-02 -.909E-02 0.263E+01   0.408E-06 -.312E-05 0.104E-03
   -.102E+01 -.681E+00 -.148E+04   0.120E+01 -.146E+00 0.149E+04   -.241E+00 0.105E+01 -.354E+01   0.108E-06 -.408E-05 0.160E-03
   0.991E+01 -.487E+01 -.149E+04   -.994E+01 0.545E+01 0.149E+04   -.160E+00 -.725E+00 -.423E+01   0.522E-05 0.560E-05 0.161E-03
   -.973E+00 -.418E+01 -.509E+03   0.103E+01 0.442E+01 0.509E+03   -.773E-01 -.332E+00 -.667E+00   -.184E-05 0.229E-05 -.135E-03
   0.175E+01 -.235E+01 -.484E+03   -.172E+01 0.232E+01 0.484E+03   -.429E-01 0.397E-01 0.431E+00   0.533E-05 -.333E-05 -.138E-03
   -.362E+00 -.239E+01 0.198E+02   -.113E-11 -.195E-12 0.460E-11   0.345E+00 0.239E+01 -.199E+02   0.304E-05 0.157E-06 0.111E-02

 POSITION                                       TOTAL-FORCE (eV/Angst)
      0.00072      6.33121      4.07058         0.000491      0.000001      0.382466
      2.11096      0.00047      4.07058         0.001466     -0.000381      0.387945
      0.00072      0.00047      6.18083         0.000323      0.002053      0.081596
      2.11096      6.33121      6.18083         0.021298     -0.001632      0.093188
      0.00247      6.32926      8.29804        -0.007967      0.022102     -0.017030
      2.11132      0.00153      8.30334         0.012901     -0.033227      0.000011
      0.00134      0.00394     10.40560        -0.021670     -0.025784     -0.054774
      2.09141      6.33052     10.40219         0.277286      0.117328      0.005646
      0.00072      2.11072      4.07058         0.000328      0.000471      0.385744
      2.11096      4.22097      4.07058         0.002327      0.000810      0.386761
      0.00072      4.22097      6.18083        -0.011046     -0.004064      0.088193
      2.11096      2.11072      6.18083         0.002733      0.000281      0.073401
      0.00098      2.11191      8.30056        -0.009420     -0.022326     -0.028320
      2.11675      4.21879      8.31104         0.028274      0.034455     -0.106185
      0.00431      4.21686     10.40084        -0.112741      0.027000     -0.029136
      2.10238      2.10950     10.40878        -0.089840     -0.140084     -0.152355
      4.22121      6.33121      4.07058         0.000710     -0.000977      0.392043
      6.33145      0.00047      4.07058        -0.000316     -0.000224      0.385663
      4.22121      0.00047      6.18083        -0.005777     -0.016533      0.113043
      6.33145      6.33121      6.18083        -0.022167     -0.011530      0.096095
      4.21890      6.32261      8.31008         0.007791      0.018762      0.166917
      6.32958      0.00287      8.30108        -0.009924     -0.029485      0.012579
      4.21848      0.01729     10.40689         0.023986     -0.341869      0.031374
      6.35226      6.33688     10.38281        -0.313453     -0.011475      0.198188
      4.22121      2.11072      4.07058         0.000803      0.001282      0.384817
      6.33145      4.22097      4.07058        -0.001261      0.000713      0.390629
      4.22121      4.22097      6.18083         0.003659      0.009669      0.122206
      6.33145      2.11072      6.18083        -0.005456      0.011746      0.077428
      4.21936      2.11534      8.30826         0.011040     -0.007154     -0.102248
      6.32314      4.21825      8.31239        -0.025769      0.032260     -0.022964
      4.20534      4.16626     10.50770         0.191221      0.630541     -0.646446
      6.33710      2.10698     10.40271         0.084339     -0.038849     -0.059501
      0.00072      6.33121      6.18083         0.001764      0.001071      0.068278
      2.11096      0.00047      6.18083        -0.000678     -0.000770      0.064039
      0.00072      0.00047      4.07058        -0.000661     -0.000647     -0.519444
      2.11096      6.33121      4.07058        -0.004626     -0.000444     -0.522834
      8.43978      6.33407     10.44764         0.058117     -0.051028      0.009569
      2.10473      8.44051     10.45129        -0.048793      0.118747      0.021672
      8.44027      8.43956      8.29532         0.008620      0.019513      0.002883
      2.11568      6.33318      8.30183        -0.063920     -0.031839     -0.040349
      0.00072      2.11072      6.18083        -0.001570     -0.002163      0.066716
      2.11096      4.22097      6.18083         0.016088     -0.002730      0.095493
      0.00072      4.22097      4.07058         0.001028      0.000078     -0.520412
      2.11096      2.11072      4.07058        -0.001662     -0.000845     -0.522136
      8.43954      2.10716     10.45110         0.044798      0.054196      0.033775
      2.09561      4.22174     10.42932         0.164259     -0.127581      0.324648
      8.43817      4.22188      8.29301         0.027414     -0.015458      0.054384
      2.11019      2.10749      8.29677         0.011829      0.042152      0.037969
      4.22121      6.33121      6.18083        -0.003495     -0.019108      0.072151
      6.33145      0.00047      6.18083         0.002620      0.002443      0.063723
      4.22121      0.00047      4.07058         0.000242      0.002174     -0.521326
      6.33145      6.33121      4.07058         0.003234      0.001361     -0.522891
      4.22225      6.36826     10.50560        -0.063267     -0.432527     -0.166315
      6.33563      8.44033     10.45062         0.052556      0.128077     -0.015535
      4.22117      8.43550      8.30013        -0.006312      0.096147     -0.019372
      6.32579      6.33148      8.30051         0.065670     -0.011874     -0.065858
      4.22121      2.11072      6.18083        -0.002139      0.013439      0.095003
      6.33145      4.22097      6.18083        -0.016502     -0.004202      0.085242
      4.22121      4.22097      4.07058        -0.001568     -0.002986     -0.523859
      6.33145      2.11072      4.07058         0.000168     -0.002562     -0.522331
      4.22133      2.09157     10.44657        -0.055714      0.219415      0.238073
      6.34565      4.22345     10.45811        -0.185993     -0.139646      0.100520
      4.22248      4.22478      8.31865        -0.025446     -0.092761      0.003355
      6.33062      2.10977      8.29826        -0.010231      0.016476      0.008194
    total drift:                               -0.016751     -0.001360     -0.081791

  FREE ENERGIE OF THE ION-ELECTRON SYSTEM (eV)
  free  energy   TOTEN  =      -381.83222557 eV

  energy  without entropy=     -381.83222557  energy(sigma->0) =     -381.83222557