 vasp.6.3.0 20Jan22 (build Apr  1 2022 16:44:48) gamma-only
 executed on        HPECrayEX_GCC date 2023.03.12  00:13:04

 INCAR:
   SYSTEM = MgO-rocksalt
   ISMEAR = 0
   SIGMA = 0.05
   EDIFF = 1E-6
   ALGO = ALL
   ISTART = 0
   IBRION = -1
   NSW = 0
   ISYM = 0
   DIPOL = 0.5 0.5 0.5
   IDIPOL = 3
   LDIPOL = .TRUE.
   LHFCALC = .TRUE.
   GGA = B5
   AEXX = 0.2
   AGGAX = 0.72
   AGGAC = 0.81
   ALDAC = 0.19
   IVDW = 1
   VDW_S6 = 1.05
   VDW_C6 = 0.14 0.70 0.63 0.70
   VDW_R0 = 1.001 1.342 1.243 1.342
   ENCUT = 520
   PREC = Accurate
   LASPH = .TRUE.
   LREAL = Auto
   ISPIN = 1
   NELM = 200
   NELMIN = 8
   NCORE = 8
   KPAR = 1
   LWAVE = .FALSE.
   LCHARG = .FALSE.

 POTCAR:    PAW_PBE H 15Jun2001
 POTCAR:    PAW_PBE O 08Apr2002
 POTCAR:    PAW_PBE Mg_pv 13Apr2007
 POTCAR:    PAW_PBE O 08Apr2002
 POTCAR:    PAW_PBE H 15Jun2001
   VRHFIN =H: ultrasoft test

   TITEL  = PAW_PBE H 15Jun2001
   POMASS =    1.000; ZVAL   =    1.000    mass and valenz
   ENMAX  =  250.000; ENMIN  =  200.000 eV

   TITEL  = PAW_PBE O 08Apr2002
   POMASS =   16.000; ZVAL   =    6.000    mass and valenz
   ENMAX  =  400.000; ENMIN  =  300.000 eV

   TITEL  = PAW_PBE Mg_pv 13Apr2007
   POMASS =   24.305; ZVAL   =    8.000    mass and valenz
   ENMAX  =  403.929; ENMIN  =  302.947 eV

   TITEL  = PAW_PBE O 08Apr2002
   POMASS =   16.000; ZVAL   =    6.000    mass and valenz
   ENMAX  =  400.000; ENMIN  =  300.000 eV

 Optimization of the real space projectors (new method)

 maximal supplied QI-value         = 34.20
 optimisation between [QCUT,QGAM] = [ 11.63, 23.26] = [ 37.87,151.49] Ry
 Optimized for a Real-space Cutoff    1.21 Angstroem

   l    n(q)    QCUT    max X(q) W(low)/X(q) W(high)/X(q)  e(spline)
   0      8    11.629    19.460    0.17E-03    0.34E-03    0.21E-06
   0      8    11.629    12.209    0.16E-03    0.33E-03    0.21E-06
   1      8    11.629     4.655    0.18E-03    0.16E-03    0.26E-06
 Optimization of the real space projectors (new method)

[...]

   l    n(q)    QCUT    max X(q) W(low)/X(q) W(high)/X(q)  e(spline)
   1      8    11.527     2.974    0.44E-04    0.56E-04    0.12E-06
   1      8    11.527     4.279    0.12E-03    0.12E-03    0.26E-06
   0      9    11.527    16.381    0.46E-04    0.64E-04    0.78E-07
   0      9    11.527     5.611    0.26E-04    0.43E-04    0.55E-07
   2      8    11.527     4.652    0.22E-03    0.72E-04    0.47E-07
 Optimization of the real space projectors (new method)

 maximal supplied QI-value         = 24.76
 optimisation between [QCUT,QGAM] = [ 11.64, 23.27] = [ 37.91,151.63] Ry
 Optimized for a Real-space Cutoff    1.14 Angstroem

   l    n(q)    QCUT    max X(q) W(low)/X(q) W(high)/X(q)  e(spline)
   0      8    11.635    20.381    0.10E-03    0.33E-03    0.24E-06
   0      8    11.635    15.268    0.11E-03    0.35E-03    0.26E-06
   1      7    11.635     5.964    0.24E-03    0.31E-03    0.30E-06
   1      7    11.635     5.382    0.22E-03    0.25E-03    0.26E-06
|               ----> ADVICE to this user running VASP <----                  |
|     You enforced a specific xc type in the INCAR file but a different       |
|     type was found in the POTCAR file.                                      |
|     I HOPE YOU KNOW WHAT YOU ARE DOING!                                     |

  PAW_PBE H 15Jun2001                   :
  PAW_PBE O 08Apr2002                   :
  PAW_PBE Mg_pv 13Apr2007               :
  PAW_PBE O 08Apr2002                   :

 POSCAR:  H  O Mg  O
  positions in direct lattice
 exchange correlation table for  LEXCH =       12
   RHO(1)=    0.500       N(1)  =     2000
   RHO(2)=  100.500       N(2)  =     4000

 ion  position               nearest neighbor table
   1  0.417  0.429  0.760-   9 0.99
   2  0.331  0.392  0.767-   9 0.97
   3  0.584  0.325  0.761-  10 0.99
   4  0.671  0.360  0.766-  10 0.97
   5  0.449  0.294  0.761-  11 0.99
   6  0.484  0.208  0.769-  11 0.97
   7  0.553  0.463  0.760-  12 0.99
   8  0.516  0.549  0.762-  12 0.97
   9  0.385  0.380  0.755-   2 0.97   1 0.99  43 2.25
  10  0.616  0.373  0.755-   4 0.97   3 0.99  91 2.25
  11  0.497  0.261  0.756-   6 0.97   5 0.99 108 2.25
  12  0.504  0.493  0.755-   8 0.97   7 0.99 132 2.25
  13  0.125  0.000  0.351- 141 2.12 143 2.12 144 2.12 160 2.12 183 2.12
  14  0.250  0.125  0.351- 142 2.12 143 2.12 144 2.12 152 2.12 159 2.12
  15  0.125  0.125  0.450- 147 2.11 143 2.12 141 2.12 142 2.12 149 2.12 158 2.12
  16  0.250  0.000  0.450- 148 2.11 144 2.12 141 2.12 142 2.12 157 2.12 182 2.12
  17  0.125  1.000  0.550- 147 2.12 148 2.12 164 2.12 187 2.12 141 2.12 145 2.14
  18  0.250  0.125  0.550- 156 2.12 163 2.12 142 2.12 147 2.12 148 2.12 146 2.14
  19  0.125  0.125  0.648- 147 2.10 146 2.11 162 2.12 145 2.12 153 2.12
  20  0.250  1.000  0.647- 148 2.10 146 2.11 186 2.12 161 2.12 145 2.12
  21  0.125  0.250  0.351- 149 2.12 143 2.12 151 2.12 152 2.12 168 2.12
  22  0.250  0.375  0.351- 150 2.12 151 2.12 152 2.12 167 2.12 176 2.12
  23  0.125  0.375  0.450- 155 2.11 151 2.12 149 2.12 150 2.12 166 2.12 173 2.12
  24  0.250  0.250  0.450- 156 2.11 152 2.12 150 2.12 142 2.12 149 2.12 165 2.12
  25  0.125  0.250  0.550- 156 2.11 172 2.12 155 2.12 147 2.12 149 2.12 153 2.15
  26  0.250  0.375  0.550- 171 2.10 156 2.12 180 2.12 155 2.12 150 2.12 154 2.17
  27  0.125  0.375  0.648- 155 2.09 154 2.10 170 2.11 153 2.12 177 2.12
  28  0.250  0.250  0.647- 156 2.09 169 2.10 153 2.12 146 2.12 154 2.13
  29  0.375  0.000  0.351- 157 2.12 144 2.12 159 2.12 199 2.12 224 2.12
  30  0.000  0.125  0.351- 158 2.12 143 2.12 160 2.12 168 2.12 223 2.12
  31  0.375  0.125  0.450- 163 2.11 159 2.12 142 2.12 157 2.12 165 2.12 222 2.12
  32  0.000  0.000  0.450- 164 2.11 160 2.12 141 2.12 158 2.12 198 2.12 221 2.12
  33  0.375  1.000  0.550- 163 2.11 203 2.12 228 2.12 157 2.12 148 2.12 161 2.15
  34  0.000  0.125  0.550- 227 2.11 147 2.12 164 2.12 172 2.12 158 2.12 162 2.14
  35  0.375  0.125  0.647- 163 2.08 169 2.09 161 2.12 146 2.12 226 2.12
  36  0.000  1.000  0.648- 164 2.10 225 2.11 145 2.11 202 2.12 162 2.12
  37  0.375  0.250  0.351- 165 2.12 159 2.12 152 2.12 167 2.12 232 2.12
  38  0.000  0.375  0.351- 166 2.12 151 2.12 168 2.12 192 2.12 231 2.12
  39  0.375  0.375  0.450- 167 2.12 165 2.12 150 2.12 189 2.12 230 2.12 171 2.12
  40  0.000  0.250  0.450- 172 2.11 168 2.12 166 2.12 149 2.12 158 2.12 229 2.12
  41  0.375  0.250  0.550- 236 2.11 171 2.11 169 2.12 163 2.13 156 2.13 165 2.13
  42  0.000  0.375  0.550- 235 2.12 155 2.12 196 2.12 172 2.12 166 2.12 170 2.14
  43  0.375  0.374  0.650- 234 2.11 169 2.13 154 2.14 171 2.15 193 2.15   9 2.25
  44  0.000  0.250  0.648- 172 2.10 153 2.11 233 2.11 162 2.12 170 2.12
  45  0.125  0.500  0.351- 173 2.12 151 2.12 175 2.12 176 2.12 192 2.12
  46  0.250  0.625  0.351- 174 2.12 175 2.12 176 2.12 184 2.12 191 2.12
  47  0.125  0.625  0.450- 179 2.11 175 2.12 173 2.12 174 2.12 181 2.12 190 2.12
  48  0.250  0.500  0.450- 180 2.11 176 2.12 174 2.12 150 2.12 173 2.12 189 2.12
  49  0.125  0.500  0.550- 180 2.11 196 2.12 155 2.12 173 2.12 179 2.12 177 2.15
  50  0.250  0.625  0.550- 195 2.12 180 2.12 174 2.12 188 2.12 179 2.12 178 2.14
  51  0.125  0.625  0.648- 179 2.10 178 2.11 194 2.11 185 2.12 177 2.12
  52  0.250  0.500  0.647- 180 2.08 193 2.09 177 2.12 178 2.12 154 2.12
  53  0.125  0.750  0.351- 181 2.12 175 2.12 183 2.12 184 2.12 200 2.12
  54  0.250  0.875  0.351- 182 2.12 144 2.12 183 2.12 184 2.12 199 2.12
  55  0.125  0.875  0.450- 187 2.11 183 2.12 182 2.12 141 2.12 181 2.12 198 2.12
  56  0.250  0.750  0.450- 188 2.11 184 2.12 182 2.12 174 2.12 181 2.12 197 2.12
  57  0.125  0.750  0.550- 188 2.12 204 2.12 179 2.12 187 2.12 181 2.12 185 2.14
  58  0.250  0.875  0.550- 148 2.11 188 2.12 187 2.12 203 2.12 182 2.12 186 2.14
  59  0.125  0.875  0.648- 187 2.10 145 2.11 185 2.11 202 2.12 186 2.12
  60  0.250  0.750  0.648- 188 2.10 178 2.11 186 2.12 185 2.12 201 2.12
[...]
 254  0.500  0.625  0.450- 126 2.12 111 2.12  63 2.12 128 2.12 136 2.12 130 2.12
 255  0.875  0.625  0.351- 127 2.12 110 2.12 125 2.12  62 2.12 133 2.12
 256  0.500  0.500  0.351- 128 2.12 102 2.12 109 2.12 126 2.12  61 2.12
 257  0.875  0.500  0.650-  68 2.11 131 2.12 116 2.12 107 2.12 129 2.15
 258  0.500  0.626  0.652- 140 2.11 115 2.13  67 2.13 132 2.15 130 2.17
 259  0.875  0.625  0.549- 131 2.10 127 2.11  66 2.12 137 2.12 114 2.12 129 2.12
 260  0.500  0.501  0.550- 130 2.10  65 2.11 113 2.11 128 2.12 106 2.13 132 2.14
 261  0.875  0.750  0.450- 133 2.12 120 2.12 127 2.12  72 2.12 135 2.12 137 2.12
 262  0.500  0.875  0.450- 134 2.12  96 2.12 119 2.12  71 2.12 136 2.12 138 2.12
 263  0.875  0.875  0.351- 135 2.12  93 2.12 118 2.12 133 2.12  70 2.12
 264  0.500  0.750  0.351- 136 2.12 117 2.12 126 2.12 134 2.12  69 2.12
 265  0.875  0.750  0.650-  76 2.11 139 2.11 124 2.12 131 2.12 137 2.14
 266  0.500  0.875  0.650- 140 2.11 100 2.11 123 2.12  75 2.12 138 2.14
 267  0.875  0.875  0.549- 139 2.10 135 2.11  74 2.12  97 2.12 137 2.12 122 2.12
 268  0.500  0.750  0.550- 140 2.09 136 2.12  73 2.12 121 2.12 138 2.12 130 2.12

IMPORTANT INFORMATION: All symmetrisations will be switched off!
NOSYMM: (Re-)initialisation of all symmetry stuff for point group C_1.

                                     Primitive cell

  volume of cell :    6122.6422

  direct lattice vectors                    reciprocal lattice vectors
    16.934285261  0.000000000  0.000000000     0.059051798  0.000000000  0.000000000
     0.000000000 16.934285261  0.000000000     0.000000000  0.059051798  0.000000000
     0.000000000  0.000000000 21.350356973     0.000000000  0.000000000  0.046837624

  length of vectors
    16.934285261 16.934285261 21.350356973     0.059051798  0.059051798  0.046837624

  position of ions in fractional coordinates (direct lattice)
     0.416548634  0.428931814  0.759692052
     0.330655756  0.391962717  0.766821120
     0.583932523  0.324915976  0.760919985
     0.670679165  0.360445391  0.766326064
     0.448879897  0.294104466  0.760521239
     0.484499428  0.207930357  0.769493313
     0.553047746  0.462568351  0.760072841
     0.515681455  0.548868551  0.762330631
     0.384957108  0.379936687  0.755332063
     0.616363801  0.373182218  0.755342791
     0.496962318  0.261182222  0.755556936
     0.503718744  0.493341513  0.755018650
     0.125000000  0.000000000  0.351282183
     0.250000000  0.125000000  0.351282183
     0.125000000  0.125000000  0.450427394
     0.250000000  0.000000000  0.450427394
     0.124976460  0.999995091  0.549662152
     0.249963527  0.125000295  0.549598213
     0.124898938  0.124832303  0.647520932
     0.249821013  0.999907101  0.647494962
     0.125000000  0.250000000  0.351282183
     0.250000000  0.375000000  0.351282183
     0.125000000  0.375000000  0.450427394
     0.250000000  0.250000000  0.450427394
     0.124976666  0.250017933  0.549668808
     0.250388853  0.374968480  0.549914379
     0.124833868  0.375001886  0.647551616
     0.249853559  0.249628296  0.647168623
     0.375000000  0.000000000  0.351282183
     0.000000000  0.125000000  0.351282183
     0.375000000  0.125000000  0.450427394
     0.000000000  0.000000000  0.450427394
     0.375042764  0.999935057  0.549626224
[...]
   0.00000000  4.23357132  9.61678566
   6.35833969  4.23932193 11.74807646
   0.00007566  6.35080585 11.73663640
   6.35832435  6.34036659 13.88246321
   0.00020945  4.23148666 13.82469815
   2.11678566  8.46714263  7.50000000
   4.23357132 10.58392829  7.50000000
   2.11678566 10.58392829  9.61678566
   4.23357132  8.46714263  9.61678566
   2.11528886  8.46708531 11.73456168
   4.23323547 10.58544716 11.73396704
   2.11456971 10.58770003 13.82464313
   4.23001972  8.47472444 13.80855880
   2.11678566 12.70071395  7.50000000
   4.23357132 14.81749960  7.50000000
   2.11678566 14.81749960  9.61678566
   4.23357132 12.70071395  9.61678566
   2.11633460 12.70151941 11.73558311
   4.23309001 14.81786392 11.73576645
   2.11487540 14.81825328 13.82500090
   4.22993741 12.70340576 13.82473819
[...]
   8.46714263 10.58392829  9.61678566
  14.81749960 10.58392829  7.50000000
   8.46714263  8.46714263  7.50000000
  14.82124606  8.47126807 13.88076794
   8.46924050 10.60127330 13.91354387
  14.81944450 10.58537590 11.72866960
   8.46605640  8.47784763 11.73750349
  14.81749960 12.70071395  9.61678566
   8.46714263 14.81749960  9.61678566
  14.81749960 14.81749960  7.50000000
   8.46714263 12.70071395  7.50000000
  14.82114498 12.70396702 13.87807751
   8.46743935 14.81760709 13.88173193
  14.81871656 14.81784139 11.72851494
   8.46721498 12.70054012 11.73312055

--------------------------------------- Iteration      FINAL  ---------------------------------------

--------------------OUTCAR has been truncated-------------------------

[...]

--------------------OUTCAR has been truncated-------------------------

  DFT-D2 method for vdW energy calculation

  Parameters of vdW forcefield:
         C6(Jnm^6/mol)     R0(A)
   H        0.140          1.001
   O        0.700          1.342
   Mg       0.630          1.243
   O        0.700          1.342

  vdW correction parametrized for the method £ÿ      

  IVDW =   1
  VDW_RADIUS =    50.000 A
  VDW_S6 =     1.050
  VDW_SR =     1.000
  VDW_D =    20.000
  LVDW_EWALD = F

  Number of pair interactions contributing to vdW energy: 3112596
  Edisp (eV):  -20.81788

 VOLUME and BASIS-vectors are now :
  energy-cutoff  :      520.00
  volume of cell :     6122.64
      direct lattice vectors                 reciprocal lattice vectors
    16.934285261  0.000000000  0.000000000     0.059051798  0.000000000  0.000000000
     0.000000000 16.934285261  0.000000000     0.000000000  0.059051798  0.000000000
     0.000000000  0.000000000 21.350356973     0.000000000  0.000000000  0.046837624

  length of vectors
    16.934285261 16.934285261 21.350356973     0.059051798  0.059051798  0.046837624

 FORCES acting on ions:
    Electron-Ion                     Ewald-Force                    Non-Local-Force
   -.118E+02 -.662E+02 -.280E+03   0.160E+02 0.724E+02 0.281E+03   -.435E+01 -.636E+01 -.628E+00
   0.103E+03 -.176E+02 -.287E+03   -.111E+03 0.191E+02 0.289E+03   0.781E+01 -.152E+01 -.198E+01
   0.126E+02 0.648E+02 -.282E+03   -.169E+02 -.710E+02 0.283E+03   0.444E+01 0.624E+01 -.827E+00
   -.103E+03 0.187E+02 -.286E+03   0.111E+03 -.202E+02 0.288E+03   -.781E+01 0.162E+01 -.189E+01
   0.643E+02 -.130E+02 -.281E+03   -.703E+02 0.174E+02 0.281E+03   0.620E+01 -.449E+01 -.709E+00
   0.183E+02 0.102E+03 -.289E+03   -.199E+02 -.109E+03 0.291E+03   0.159E+01 0.768E+01 -.242E+01
   -.674E+02 0.109E+02 -.281E+03   0.737E+02 -.151E+02 0.282E+03   -.644E+01 0.427E+01 -.767E+00
   -.175E+02 -.104E+03 -.283E+03   0.189E+02 0.112E+03 0.285E+03   -.149E+01 -.794E+01 -.123E+01
   0.141E+03 0.316E+02 -.165E+04   -.124E+03 -.665E+02 0.164E+04   -.147E+02 0.314E+02 0.953E+01
   -.140E+03 -.336E+02 -.165E+04   0.124E+03 0.689E+02 0.164E+04   0.144E+02 -.318E+02 0.983E+01
   -.323E+02 0.142E+03 -.164E+04   0.670E+02 -.127E+03 0.163E+04   -.313E+02 -.136E+02 0.118E+02
   0.328E+02 -.139E+03 -.165E+04   -.681E+02 0.122E+03 0.164E+04   0.319E+02 0.155E+02 0.669E+01
   0.341E+01 0.338E+01 0.207E+04   -.340E+01 -.337E+01 -.206E+04   -.599E-02 -.661E-02 -.636E+01
   0.602E+01 0.602E+01 0.207E+04   -.599E+01 -.599E+01 -.206E+04   -.200E-01 -.201E-01 -.637E+01
   0.745E+01 0.795E+01 0.706E+03   -.744E+01 -.793E+01 -.707E+03   -.911E-02 -.104E-01 0.322E+00
   0.801E+01 0.743E+01 0.706E+03   -.799E+01 -.741E+01 -.707E+03   -.938E-02 -.105E-01 0.317E+00
   0.930E+01 0.928E+01 -.664E+03   -.929E+01 -.928E+01 0.664E+03   -.548E-02 -.868E-02 -.125E+00
   0.235E+02 0.232E+02 -.643E+03   -.235E+02 -.232E+02 0.643E+03   -.221E-01 -.350E-01 -.652E-01
   0.250E+02 0.227E+02 -.202E+04   -.249E+02 -.227E+02 0.201E+04   -.957E-01 -.498E-03 0.544E+01
   0.229E+02 0.250E+02 -.202E+04   -.229E+02 -.249E+02 0.201E+04   -.102E-01 -.109E+00 0.544E+01
   0.500E+01 0.352E+01 0.207E+04   -.497E+01 -.351E+01 -.206E+04   -.190E-01 -.727E-02 -.637E+01
   0.778E+01 0.120E+00 0.207E+04   -.773E+01 -.123E+00 -.207E+04   -.316E-01 0.238E-02 -.641E+01
   0.104E+02 0.251E+00 0.712E+03   -.103E+02 -.258E+00 -.712E+03   -.698E-01 0.402E-02 0.362E+00
   0.138E+02 0.817E+01 0.720E+03   -.137E+02 -.810E+01 -.720E+03   -.667E-01 -.481E-01 0.287E+00
   0.214E+02 0.108E+02 -.650E+03   -.212E+02 -.108E+02 0.650E+03   -.136E+00 -.252E-01 -.839E-01
   0.430E+02 0.717E+00 -.622E+03   -.425E+02 -.758E+00 0.622E+03   -.473E+00 0.346E-01 0.236E+00
   0.499E+02 0.659E+00 -.200E+04   -.496E+02 -.665E+00 0.200E+04   -.285E+00 0.645E-02 0.541E+01
   0.865E+02 0.451E+02 -.197E+04   -.859E+02 -.452E+02 0.196E+04   -.560E+00 0.125E+00 0.549E+01
   0.345E+01 0.498E+01 0.207E+04   -.344E+01 -.495E+01 -.206E+04   -.839E-02 -.202E-01 -.637E+01
   -.276E-01 0.443E+01 0.207E+04   0.272E-01 -.442E+01 -.206E+04   0.289E-03 -.649E-02 -.637E+01
   0.799E+01 0.138E+02 0.720E+03   -.792E+01 -.137E+02 -.721E+03   -.516E-01 -.648E-01 0.259E+00
   -.369E-01 0.466E+01 0.701E+03   0.374E-01 -.466E+01 -.701E+03   -.282E-03 -.456E-02 0.345E+00
   0.107E+02 0.215E+02 -.649E+03   -.107E+02 -.214E+02 0.649E+03   -.318E-01 -.128E+00 -.650E-01
   -.137E+00 0.109E+02 -.662E+03   0.135E+00 -.110E+02 0.662E+03   0.157E-02 0.200E-01 -.116E+00
   0.453E+02 0.865E+02 -.196E+04   -.454E+02 -.858E+02 0.196E+04   0.600E-01 -.554E+00 0.552E+01
   -.760E-01 0.105E+02 -.203E+04   0.740E-01 -.105E+02 0.202E+04   0.196E-02 0.120E-01 0.547E+01
   0.523E+01 0.531E+01 0.208E+04   -.520E+01 -.528E+01 -.207E+04   -.219E-01 -.192E-01 -.642E+01
   -.145E-01 0.650E-01 0.207E+04   0.135E-01 -.665E-01 -.206E+04   0.662E-03 0.141E-02 -.636E+01
   0.112E+02 0.332E+00 0.736E+03   -.112E+02 -.350E+00 -.736E+03   -.261E-01 0.118E-01 0.258E+00
   -.119E+00 0.485E+01 0.707E+03   0.122E+00 -.485E+01 -.707E+03   -.136E-02 0.180E-02 0.346E+00
   0.304E+02 0.307E+02 -.594E+03   -.300E+02 -.304E+02 0.594E+03   -.332E+00 -.316E+00 -.758E+00
   -.117E+00 0.256E+00 -.655E+03   0.112E+00 -.261E+00 0.655E+03   0.502E-02 0.176E-02 -.116E+00
   0.118E+03 0.440E+01 -.179E+04   -.118E+03 -.466E+01 0.178E+04   -.726E+00 0.226E+00 0.304E+01
   -.236E+00 0.126E+02 -.202E+04   0.238E+00 -.127E+02 0.201E+04   -.137E-02 0.534E-01 0.544E+01
   0.504E+01 -.342E+01 0.207E+04   -.502E+01 0.340E+01 -.206E+04   -.179E-01 0.917E-02 -.637E+01
   0.603E+01 -.607E+01 0.207E+04   -.600E+01 0.605E+01 -.206E+04   -.188E-01 0.185E-01 -.637E+01
   0.756E+01 -.810E+01 0.706E+03   -.755E+01 0.809E+01 -.707E+03   -.682E-02 0.650E-02 0.325E+00
   0.139E+02 -.795E+01 0.721E+03   -.138E+02 0.787E+01 -.721E+03   -.596E-01 0.502E-01 0.255E+00
   0.218E+02 -.105E+02 -.649E+03   -.216E+02 0.104E+02 0.649E+03   -.111E+00 0.280E-01 -.624E-01
   0.234E+02 -.238E+02 -.642E+03   -.234E+02 0.238E+02 0.642E+03   -.133E-01 0.812E-02 -.646E-01
   0.255E+02 -.230E+02 -.202E+04   -.254E+02 0.230E+02 0.201E+04   -.916E-01 -.332E-03 0.545E+01
   0.879E+02 -.453E+02 -.196E+04   -.873E+02 0.454E+02 0.195E+04   -.549E+00 -.784E-01 0.552E+01
   0.341E+01 -.349E+01 0.207E+04   -.340E+01 0.348E+01 -.206E+04   -.557E-02 0.457E-02 -.636E+01
   0.441E+01 -.603E-01 0.207E+04   -.440E+01 0.622E-01 -.206E+04   -.577E-02 -.114E-02 -.636E+01
   0.467E+01 -.894E-01 0.701E+03   -.467E+01 0.932E-01 -.701E+03   -.227E-02 -.269E-02 0.324E+00
   0.794E+01 -.766E+01 0.706E+03   -.793E+01 0.766E+01 -.707E+03   -.835E-02 0.360E-02 0.334E+00
   0.934E+01 -.959E+01 -.664E+03   -.934E+01 0.959E+01 0.664E+03   0.319E-02 0.104E-02 -.125E+00
   0.110E+02 -.995E-01 -.662E+03   -.110E+02 0.110E+00 0.662E+03   0.186E-01 -.962E-02 -.119E+00
   0.105E+02 -.209E+00 -.203E+04   -.105E+02 0.215E+00 0.202E+04   0.230E-01 -.609E-02 0.545E+01
   0.230E+02 -.256E+02 -.202E+04   -.230E+02 0.255E+02 0.201E+04   0.488E-02 0.820E-01 0.545E+01
[...]
   -.318E+01 -.367E+01 0.155E+04   0.317E+01 0.366E+01 -.156E+04   0.137E-01 0.957E-02 0.315E+01
   0.114E-01 -.414E+01 0.156E+04   -.108E-01 0.412E+01 -.156E+04   -.883E-03 0.273E-01 0.309E+01
   -.300E+02 -.145E+02 -.153E+04   0.300E+02 0.144E+02 0.154E+04   0.782E-01 0.688E-01 -.479E+01
   0.128E+01 -.865E+02 -.148E+04   -.131E+01 0.859E+02 0.149E+04   0.282E-01 0.496E+00 -.445E+01
   -.110E+02 -.106E+02 -.486E+03   0.109E+02 0.105E+02 0.486E+03   0.357E-01 0.383E-01 0.352E+00
   -.193E+00 -.250E+02 -.429E+03   0.226E+00 0.246E+02 0.429E+03   -.300E-01 0.360E+00 -.184E+00
   -.416E+01 -.422E+01 0.526E+03   0.415E+01 0.421E+01 -.526E+03   0.128E-01 0.106E-01 -.219E-01
   0.414E-01 -.634E-01 0.530E+03   -.418E-01 0.685E-01 -.530E+03   0.436E-03 -.938E-02 -.451E-02
   -.234E+01 -.514E-01 0.155E+04   0.234E+01 0.524E-01 -.156E+04   0.723E-02 0.112E-02 0.316E+01
   0.319E-01 -.409E+01 0.155E+04   -.321E-01 0.407E+01 -.156E+04   0.173E-03 0.268E-01 0.314E+01
   -.107E+02 -.108E+02 -.154E+04   0.107E+02 0.108E+02 0.155E+04   0.295E-01 0.307E-01 -.480E+01
   0.493E-01 -.735E+00 -.154E+04   -.489E-01 0.753E+00 0.154E+04   -.104E-02 -.166E-01 -.478E+01
   -.551E+01 -.115E+00 -.493E+03   0.550E+01 0.117E+00 0.493E+03   0.147E-01 -.132E-02 0.351E+00
   0.202E+00 -.170E+02 -.479E+03   -.200E+00 0.169E+02 0.478E+03   -.139E-02 0.122E+00 0.431E+00
   -.467E+00 -.133E+01 0.572E+02   0.753E-11 0.284E-13 -.146E-10   0.410E+00 0.111E+01 -.513E+02

 POSITION                                       TOTAL-FORCE (eV/Angst)
      7.05395      7.26365     16.21970        -0.204634     -0.386275     -0.053367
      5.59942      6.63761     16.37190         0.380614     -0.111917     -0.099883
      9.88848      5.50222     16.24591         0.212347      0.381581     -0.065881
     11.35747      6.10389     16.36134        -0.381997      0.114286     -0.098209
      7.60146      4.98045     16.23740         0.378475     -0.216939     -0.061775
      8.20465      3.52115     16.42896         0.111268      0.369882     -0.123082
      9.36547      7.83326     16.22783        -0.382969      0.193863     -0.056894
      8.73270      9.29470     16.27603        -0.114064     -0.399528     -0.065614
      6.51897      6.43396     16.12661        -0.180118      0.495774      0.119399
     10.43768      6.31957     16.12684         0.166393     -0.502891      0.125092
      8.41570      4.42293     16.13141        -0.493887     -0.160830      0.150677
      8.53012      8.35439     16.11992         0.496203      0.201663      0.083254
      2.11679      0.00000      7.50000         0.001757      0.002161      0.500865
      4.23357      2.11679      7.50000         0.006512      0.006911      0.504317
      2.11679      2.11679      9.61679         0.002580      0.004445     -0.017463
      4.23357      0.00000      9.61679         0.003739      0.003707     -0.017451
      2.11639     16.93420     11.73548         0.000163     -0.001365     -0.006060
      4.23295      2.11679     11.73412         0.001355      0.001044     -0.011249
      2.11507      2.11395     13.82480        -0.001726     -0.000860     -0.015201
      4.23054     16.93271     13.82425        -0.000131     -0.000479     -0.012107
      2.11679      4.23357      7.50000         0.006376      0.002592      0.503705
      4.23357      6.35036      7.50000         0.010406     -0.000914      0.515542
      2.11679      6.35036      9.61679         0.028359     -0.001600     -0.004796
      4.23357      4.23357      9.61679         0.030880      0.019338      0.010687
      2.11639      4.23387     11.73563         0.005752     -0.000110     -0.009288
      4.24016      6.34982     11.74087         0.010133     -0.002050     -0.006496
      2.11397      6.35039     13.82546         0.005712      0.000837     -0.014134
      4.23109      4.22728     13.81728         0.006238      0.002417     -0.023298
      6.35036      0.00000      7.50000         0.003002      0.006627      0.503776
      0.00000      2.11679      7.50000        -0.000087      0.002135      0.501132
      6.35036      2.11679      9.61679         0.020615      0.029152      0.007311
      0.00000      0.00000      9.61679         0.000197      0.002188     -0.018781
      6.35108     16.93319     11.73472        -0.002735      0.007490     -0.007137
      0.00010      2.11626     11.73562         0.000096     -0.001811     -0.006816
      6.34418      2.11385     13.81003        -0.000712      0.005038     -0.027757
      0.00012     16.93319     13.82506         0.000164     -0.000363     -0.009730
      6.35036      4.23357      7.50000         0.006884      0.006375      0.520496
      0.00000      6.35036      7.50000        -0.000215     -0.000232      0.499764
      6.35036      6.35036      9.61679         0.016538     -0.004613      0.057138
      0.00000      4.23357      9.61679         0.001281     -0.000291     -0.021313
      6.35834      4.23932     11.74808         0.006799      0.005918      0.003498
      0.00008      6.35081     11.73664        -0.000338     -0.003080     -0.006996
      6.35832      6.34037     13.88246         0.006362     -0.008828      0.020910
      0.00021      4.23149     13.82470         0.000055     -0.002635     -0.007844
      2.11679      8.46714      7.50000         0.005667     -0.003026      0.503041
      4.23357     10.58393      7.50000         0.006156     -0.005721      0.503000
      2.11679     10.58393      9.61679         0.002327     -0.002301     -0.017670
      4.23357      8.46714      9.61679         0.026590     -0.019656      0.003581
      2.11529      8.46709     11.73456         0.008137      0.000097     -0.006886
      4.23324     10.58545     11.73397         0.001988     -0.002041     -0.010424
      2.11457     10.58770     13.82464        -0.001151      0.000353     -0.015436
      4.23002      8.47472     13.80856         0.005290     -0.003901     -0.029133
      2.11679     12.70071      7.50000         0.001991     -0.001299      0.500458
      4.23357     14.81750      7.50000         0.001903      0.000205      0.500856
      2.11679     14.81750      9.61679         0.001337      0.001111     -0.018042
      4.23357     12.70071      9.61679         0.003754      0.000010     -0.017727
      2.11633     12.70152     11.73558        -0.001996      0.001495     -0.008067
      4.23309     14.81786     11.73577        -0.004282      0.000292     -0.008669
      2.11488     14.81825     13.82500        -0.000146     -0.000195     -0.012702
      4.22994     12.70341     13.82474         0.002064     -0.000311     -0.012114
[...]
      8.46714     10.58393      9.61679        -0.001704      0.031882      0.009943
     14.81750     10.58393      7.50000         0.006053      0.001612     -0.386273
      8.46714      8.46714      7.50000        -0.000329      0.009018     -0.407647
     14.82125      8.47127     13.88077         0.002498      0.002254     -0.128770
      8.46924     10.60127     13.91354         0.003801      0.002746     -0.116732
     14.81944     10.58538     11.72867         0.003828      0.002000      0.015310
      8.46606      8.47785     11.73750        -0.000659      0.008218      0.000171
     14.81750     12.70071      9.61679         0.005174      0.003480      0.020936
      8.46714     14.81750      9.61679         0.000103     -0.005233      0.033365
     14.81750     14.81750      7.50000         0.003910      0.002053     -0.385096
      8.46714     12.70071      7.50000         0.000071      0.008908     -0.391293
     14.82114     12.70397     13.87808        -0.000053      0.000493     -0.127569
      8.46744     14.81761     13.88173        -0.000743     -0.000505     -0.128665
     14.81872     14.81784     11.72851        -0.000431      0.000161      0.016290
      8.46721     12.70054     11.73312         0.000155      0.010252      0.015851
    total drift:                               -0.001691     -0.026390     -0.152831

  FREE ENERGIE OF THE ION-ELECTRON SYSTEM (eV)
  free  energy   TOTEN  =     -1824.65251807 eV

  energy  without entropy=    -1824.65251807  energy(sigma->0) =    -1824.65251807