 vasp.6.3.0 20Jan22 (build Apr  1 2022 16:44:48) complex
 executed on        HPECrayEX_GCC date 2022.11.13  19:38:14

 INCAR:
   SYSTEM = MgO-rocksalt
   ISMEAR = 0
   SIGMA = 0.05
   EDIFF = 1E-6
   ALGO = ALL
   ISTART = 0
   IBRION = -1
   NSW = 0
   ISYM = 0
   DIPOL = 0.5 0.5 0.5
   IDIPOL = 3
   LDIPOL = .TRUE.
   LHFCALC = .TRUE.
   GGA = B5
   AEXX = 0.2
   AGGAX = 0.72
   AGGAC = 0.81
   ALDAC = 0.19
   IVDW = 1
   VDW_S6 = 1.05
   VDW_C6 = 1.23 0.70 0.63 0.70
   VDW_R0 = 1.397 1.342 1.243 1.342
   ENCUT = 600
   PREC = Accurate
   LASPH = .TRUE.
   LREAL = .FALSE.
   ISPIN = 2
   MAGMOM = 1.0 0.0 0.0 0.0 0.0 0.0 0.0 0.0 0.0 0.0 0.0 0.0 0.0 0.0 0.0 0.0 0.0 0.0 0.0 0.0 0.0 0.0 0.0 0.0 0.0 0.0 0.0 0.0 0.0 0.0 0.0 0.0 0.0 0.0 0.0 0.0 0.0 0.0 0.0 0.0 0.0 0.0 0.0 0.0 0.0 0.0 0.0 0.0 0.0 0.0 0.0 0.0 0.0 0.0 0.0 0.0 0.0 0.0 0.0 0.0 0.0 0.0 0.0 0.0 0.0 0.0
   NELM = 200
   NELMIN = 8
   NCORE = 8
   KPAR = 1
   LWAVE = .FALSE.
   LCHARG = .FALSE.

 POTCAR:    PAW_PBE N 08Apr2002
 POTCAR:    PAW_PBE O 08Apr2002
 POTCAR:    PAW_PBE Mg_pv 13Apr2007
 POTCAR:    PAW_PBE O 08Apr2002
 POTCAR:    PAW_PBE N 08Apr2002
   VRHFIN =N: s2p3

   TITEL  = PAW_PBE N 08Apr2002
   POMASS =   14.001; ZVAL   =    5.000    mass and valenz
   ENMAX  =  400.000; ENMIN  =  300.000 eV

[...]

   TITEL  = PAW_PBE Mg_pv 13Apr2007
   POMASS =   24.305; ZVAL   =    8.000    mass and valenz
   ENMAX  =  403.929; ENMIN  =  302.947 eV

   TITEL  = PAW_PBE O 08Apr2002
   POMASS =   16.000; ZVAL   =    6.000    mass and valenz
   ENMAX  =  400.000; ENMIN  =  300.000 eV

  PAW_PBE N 08Apr2002                   :
  PAW_PBE O 08Apr2002                   :
  PAW_PBE Mg_pv 13Apr2007               :
  PAW_PBE O 08Apr2002                   :

 POSCAR:  N  O Mg  O
  positions in direct lattice
 exchange correlation table for  LEXCH =       12
   RHO(1)=    0.500       N(1)  =     2000
   RHO(2)=  100.500       N(2)  =     4000

 ion  position               nearest neighbor table
   1  0.506  0.507  0.761-   2 1.17
   2  0.437  0.441  0.801-   1 1.17
   3  0.250  0.000  0.352-  35 2.11  37 2.11  38 2.11  45 2.11  54 2.11
   4  0.500  0.250  0.352-  36 2.11  37 2.11  38 2.11  46 2.11  53 2.11
   5  0.250  0.250  0.451-  37 2.11  36 2.11  35 2.11  43 2.11  52 2.11  41 2.12
   6  0.500  0.000  0.451-  38 2.11  36 2.11  35 2.11  44 2.11  51 2.11  42 2.11
   7  0.250  0.000  0.550-  42 2.11  41 2.11  49 2.11  58 2.11  35 2.12  39 2.14
   8  0.500  0.250  0.550-  50 2.11  41 2.11  57 2.11  42 2.11  36 2.12  40 2.13
   9  0.250  0.250  0.648-  41 2.10  56 2.11  39 2.11  47 2.11  40 2.11
  10  0.500  0.000  0.648-  40 2.10  48 2.10  42 2.10  39 2.11  55 2.11
  11  0.250  0.500  0.352-  43 2.11  37 2.11  45 2.11  46 2.11  62 2.11
  12  0.500  0.750  0.352-  44 2.11  38 2.11  45 2.11  46 2.11  61 2.11
  13  0.250  0.750  0.451-  45 2.11  43 2.11  44 2.11  35 2.11  60 2.11  49 2.11
  14  0.500  0.500  0.451-  46 2.11  43 2.11  44 2.11  36 2.11  59 2.11  50 2.12
  15  0.250  0.500  0.550-  50 2.11  41 2.11  49 2.11  66 2.11  43 2.12  47 2.13
  16  0.500  0.750  0.550-  50 2.11  65 2.11  49 2.11  42 2.11  44 2.12  48 2.13
  17  0.250  0.750  0.648-  49 2.10  64 2.11  39 2.11  48 2.11  47 2.11
  18  0.500  0.500  0.650-  40 2.12  63 2.12  48 2.12  47 2.12  50 2.13
  19  0.750  0.000  0.352-  51 2.11  38 2.11  53 2.11  54 2.11  61 2.11
  20  0.000  0.250  0.352-  52 2.11  37 2.11  53 2.11  54 2.11  62 2.11
  21  0.750  0.250  0.451-  53 2.11  51 2.11  52 2.11  36 2.11  59 2.11  57 2.11
  22  0.000  0.000  0.451-  54 2.11  51 2.11  52 2.11  35 2.11  60 2.11  58 2.11
  23  0.750  1.000  0.550-  42 2.11  65 2.11  57 2.11  58 2.11  51 2.12  55 2.14
  24  0.000  0.250  0.550-  66 2.11  41 2.11  57 2.11  58 2.11  52 2.12  56 2.14
  25  0.750  0.250  0.648-  57 2.10  55 2.11  56 2.11  63 2.11  40 2.11
  26  1.000  1.000  0.648-  58 2.10  56 2.11  64 2.11  39 2.11  55 2.11
  27  0.750  0.500  0.352-  59 2.11  53 2.11  46 2.11  61 2.11  62 2.11
  28  0.000  0.750  0.352-  60 2.11  54 2.11  45 2.11  61 2.11  62 2.11
  29  0.750  0.750  0.451-  61 2.11  51 2.11  59 2.11  60 2.11  44 2.11  65 2.12
  30  0.000  0.500  0.451-  62 2.11  52 2.11  59 2.11  60 2.11  43 2.11  66 2.11
  31  0.750  0.500  0.550-  50 2.11  65 2.11  57 2.11  66 2.11  59 2.12  63 2.13
  32  1.000  0.750  0.550-  66 2.11  65 2.11  58 2.11  49 2.11  60 2.12  64 2.14
  33  0.750  0.750  0.648-  65 2.10  64 2.11  55 2.11  63 2.11  48 2.11
  34  1.000  0.500  0.648-  47 2.10  63 2.10  66 2.10  56 2.11  64 2.11
  35  0.250  0.000  0.451-   3 2.11   5 2.11   6 2.11  13 2.11  22 2.11   7 2.12
  36  0.500  0.250  0.451-   4 2.11   5 2.11   6 2.11  14 2.11  21 2.11   8 2.12
  37  0.250  0.250  0.352-   5 2.11   4 2.11   3 2.11  11 2.11  20 2.11
  38  0.500  0.000  0.352-   6 2.11   4 2.11   3 2.11  12 2.11  19 2.11
  39  0.250  1.000  0.650-  17 2.11   9 2.11  26 2.11  10 2.11   7 2.14
  40  0.500  0.249  0.650-  10 2.10  25 2.11   9 2.11  18 2.12   8 2.13
  41  0.250  0.250  0.550-   9 2.10   7 2.11  24 2.11   8 2.11  15 2.11   5 2.12
  42  0.500  1.000  0.550-  10 2.10  23 2.11   7 2.11  16 2.11   8 2.11   6 2.11
  43  0.250  0.500  0.451-  11 2.11   5 2.11  13 2.11  14 2.11  30 2.11  15 2.12
  44  0.500  0.750  0.451-  12 2.11   6 2.11  13 2.11  14 2.11  29 2.11  16 2.12
  45  0.250  0.750  0.352-  13 2.11  11 2.11  12 2.11   3 2.11  28 2.11
  46  0.500  0.500  0.352-  14 2.11  11 2.11  12 2.11   4 2.11  27 2.11
  47  0.249  0.500  0.650-  34 2.10  17 2.11   9 2.11  18 2.12  15 2.13
  48  0.500  0.751  0.650-  10 2.10  17 2.11  33 2.11  18 2.12  16 2.13
  49  0.250  0.750  0.550-  17 2.10   7 2.11  16 2.11  15 2.11  32 2.11  13 2.11
  50  0.500  0.500  0.550-  16 2.11  31 2.11   8 2.11  15 2.11  14 2.12  18 2.13
  51  0.750  0.000  0.451-  19 2.11   6 2.11  21 2.11  22 2.11  29 2.11  23 2.12
  52  0.000  0.250  0.451-  20 2.11   5 2.11  21 2.11  22 2.11  30 2.11  24 2.12
  53  0.750  0.250  0.352-  21 2.11  19 2.11  20 2.11   4 2.11  27 2.11
  54  0.000  0.000  0.352-  22 2.11  19 2.11  20 2.11   3 2.11  28 2.11
  55  0.750  1.000  0.650-  25 2.11  33 2.11  26 2.11  10 2.11  23 2.14
  56  1.000  0.250  0.650-  25 2.11   9 2.11  26 2.11  34 2.11  24 2.14
  57  0.750  0.250  0.550-  25 2.10  24 2.11   8 2.11  23 2.11  31 2.11  21 2.11
  58  1.000  1.000  0.550-  26 2.10  32 2.11  24 2.11  23 2.11   7 2.11  22 2.11
  59  0.750  0.500  0.451-  27 2.11  21 2.11  14 2.11  29 2.11  30 2.11  31 2.12
  60  0.000  0.750  0.451-  28 2.11  22 2.11  13 2.11  29 2.11  30 2.11  32 2.12
  61  0.750  0.750  0.352-  29 2.11  19 2.11  27 2.11  28 2.11  12 2.11
  62  0.000  0.500  0.352-  30 2.11  20 2.11  27 2.11  28 2.11  11 2.11
  63  0.751  0.500  0.650-  34 2.10  25 2.11  33 2.11  18 2.12  31 2.13
  64  1.000  0.750  0.650-  17 2.11  33 2.11  26 2.11  34 2.11  32 2.14
  65  0.750  0.750  0.550-  33 2.10  16 2.11  23 2.11  31 2.11  32 2.11  29 2.12
  66  1.000  0.500  0.550-  34 2.10  32 2.11  24 2.11  31 2.11  15 2.11  30 2.11

IMPORTANT INFORMATION: All symmetrisations will be switched off!
NOSYMM: (Re-)initialisation of all symmetry stuff for point group C_1.

                                     Primitive cell

  volume of cell :    1519.6535

  direct lattice vectors                    reciprocal lattice vectors
     8.440582262  0.000000000  0.000000000     0.118475239  0.000000000  0.000000000
     0.000000000  8.440582262  0.000000000     0.000000000  0.118475239  0.000000000
     0.000000000  0.000000000 21.330436697     0.000000000  0.000000000  0.046881366

  length of vectors
     8.440582262  8.440582262 21.330436697     0.118475239  0.118475239  0.046881366

  position of ions in fractional coordinates (direct lattice)
     0.505870637  0.506805725  0.761338074
     0.437071600  0.440506651  0.801104893
     0.250000000  0.000000000  0.351610242
     0.500000000  0.250000000  0.351610242
     0.250000000  0.250000000  0.450536747
     0.500000000  0.000000000  0.450536747
     0.250056400  0.000029047  0.549907760
     0.499972918  0.250356454  0.550074672
     0.249735841  0.249788781  0.648250530
     0.499916989  0.000045104  0.648287737
     0.250000000  0.500000000  0.351610242
     0.500000000  0.750000000  0.351610242
     0.250000000  0.750000000  0.450536747
     0.500000000  0.500000000  0.450536747
     0.250334272  0.499992018  0.550072557
     0.499960682  0.749600966  0.550021723
     0.249553961  0.750262788  0.648086514
     0.499958466  0.499966815  0.650011978
     0.750000000  0.000000000  0.351610242
     0.000000000  0.250000000  0.351610242
     0.750000000  0.250000000  0.450536747
     0.000000000  0.000000000  0.450536747
     0.749863733  0.999885755  0.549927596
     0.000018905  0.250036908  0.549908773
     0.750245257  0.249633288  0.648091921
     0.999939475  0.999977103  0.648285343
     0.750000000  0.500000000  0.351610242
     0.000000000  0.750000000  0.351610242
     0.750000000  0.750000000  0.450536747
     0.000000000  0.500000000  0.450536747
     0.749586901  0.499977734  0.550021295
     0.999871705  0.749912643  0.549925321
     0.750127172  0.750115397  0.648437271
     0.999993118  0.499932867  0.648254872
     0.250000000  0.000000000  0.450536747
     0.500000000  0.250000000  0.450536747
     0.250000000  0.250000000  0.351610242
     0.500000000  0.000000000  0.351610242
     0.249799792  0.999994588  0.650128996
     0.500082888  0.249026492  0.650124231
     0.249992619  0.249994183  0.549715119
     0.499972842  0.999941887  0.549662509
     0.250000000  0.500000000  0.450536747
     0.500000000  0.750000000  0.450536747
     0.250000000  0.750000000  0.351610242
     0.500000000  0.500000000  0.351610242
     0.248972835  0.500118155  0.650097809
     0.499668044  0.750942976  0.650093146
     0.249930806  0.750029018  0.549672682
     0.499983028  0.500004243  0.550024521
     0.750000000  0.000000000  0.450536747
     0.000000000  0.250000000  0.450536747
     0.750000000  0.250000000  0.351610242
     0.000000000  0.000000000  0.351610242
     0.750063320  0.999921197  0.650173266
     0.999977607  0.249786961  0.650143997
     0.750007949  0.249929579  0.549675337
     0.999946415  0.999967944  0.549661998
     0.750000000  0.500000000  0.450536747
     0.000000000  0.750000000  0.450536747
     0.750000000  0.750000000  0.351610242
     0.000000000  0.500000000  0.351610242
     0.750912326  0.499709049  0.650054827
     0.999904756  0.750121023  0.650169316
     0.749907687  0.749932049  0.549771338
     0.999933444  0.499982923  0.549651608

  ion indices of the primitive-cell ions
   primitive index   ion index
                 1           1
                 2           2
                 3           3
                 4           4
                 5           5
                 6           6
                 7           7
                 8           8
                 9           9
                10          10
                11          11
                12          12
                13          13
                14          14
                15          15
                16          16
                17          17
                18          18
                19          19
                20          20
[...]
   0.75000795  0.24992958  0.54967534
   0.99994641  0.99996794  0.54966200
   0.75000000  0.50000000  0.45053675
   0.00000000  0.75000000  0.45053675
   0.75000000  0.75000000  0.35161024
   0.00000000  0.50000000  0.35161024
   0.75091233  0.49970905  0.65005483
   0.99990476  0.75012102  0.65016932
   0.74990769  0.74993205  0.54977134
   0.99993344  0.49998292  0.54965161

 position of ions in cartesian coordinates  (Angst):
   4.26984272  4.27773541 16.23967360
   3.68913879  3.71813263 17.08791722
   2.11014557  0.00000000  7.50000000
   4.22029113  2.11014557  7.50000000
   2.11014557  2.11014557  9.61014557
   4.22029113  0.00000000  9.61014557
   2.11062162  0.00024517 11.72977265
   4.22006254  2.11315424 11.73333296
   2.10791591  2.10836275 13.82746689
   4.21959047  0.00038070 13.82826053
   2.11014557  4.22029113  7.50000000
   4.22029113  6.33043670  7.50000000
   2.11014557  6.33043670  9.61014557
   4.22029113  4.22029113  9.61014557
   2.11296702  4.22022375 11.73328786
   4.21995926  6.32706861 11.73220354
   2.10638074  6.33265478 13.82396837
   4.21994056  4.22001103 13.86503936
   6.33043670  0.00000000  7.50000000
   0.00000000  2.11014557  7.50000000
   6.33043670  2.11014557  9.61014557
   0.00000000  0.00000000  9.61014557
   6.32928652  8.43961797 11.73019577
   0.00015957  2.11045709 11.72979427
   6.33250680  2.10705031 13.82408370
   8.44007139  8.44038900 13.82820948
   6.33043670  4.22029113  7.50000000
   0.00000000  6.33043670  7.50000000
   6.33043670  6.33043670  9.61014557
   0.00000000  4.22029113  9.61014557
   6.32694990  4.22010320 11.73219441
   8.43949938  6.32969936 11.73014726
   6.33151010  6.33141072 13.83145016
   8.44052417  4.21972449 13.82755951
   2.11014557  0.00000000  9.61014557
   4.22029113  2.11014557  9.61014557
   2.11014557  2.11014557  7.50000000
   4.22029113  0.00000000  7.50000000
   2.10845570  8.44053658 13.86753540
   4.22099076  2.10192859 13.86743375
   2.11008326  2.11009647 11.72566354
   4.22006190  8.44009175 11.72454136
   2.11014557  4.22029113  9.61014557
   4.22029113  6.33043670  9.61014557
   2.11014557  6.33043670  7.50000000
   4.22029113  4.22029113  7.50000000
   2.10147569  4.22128843 13.86687016
   4.21748923  6.33839596 13.86677071
   2.10956152  6.33068162 11.72475834
   4.22014788  4.22032694 11.73226322
   6.33043670  0.00000000  9.61014557
   0.00000000  2.11014557  9.61014557
   6.33043670  2.11014557  7.50000000
   0.00000000  0.00000000  7.50000000
   6.33097115  8.43991712 13.86847969
   8.44039325  2.10834739 13.86785538
   6.33050379  2.10955117 11.72481497
   8.44012997  8.44031169 11.72453046
   6.33043670  4.22029113  9.61014557
   0.00000000  6.33043670  9.61014557
   6.33043670  6.33043670  7.50000000
   0.00000000  4.22029113  7.50000000
   6.33813726  4.21783533 13.86595334
   8.43977835  6.33145820 13.86839544
   6.32965752  6.32986315 11.72686273
   8.44002049  4.22014699 11.72430883

--------------------------------------- Iteration      FINAL  ---------------------------------------

--------------------OUTCAR has been truncated-------------------------

[...]

--------------------OUTCAR has been truncated-------------------------

  DFT-D2 method for vdW energy calculation

  Parameters of vdW forcefield:
         C6(Jnm^6/mol)     R0(A)
   N        1.230          1.397
   O        0.700          1.342
   Mg       0.630          1.243
   O        0.700          1.342

  vdW correction parametrized for the method        &

  IVDW =   1
  VDW_RADIUS =    50.000 A
  VDW_S6 =     1.050
  VDW_SR =     1.000
  VDW_D =    20.000
  LVDW_EWALD = F

  Number of pair interactions contributing to vdW energy:  768281
  Edisp (eV):   -5.18514

 VOLUME and BASIS-vectors are now :
  energy-cutoff  :      600.00
  volume of cell :     1519.65
      direct lattice vectors                 reciprocal lattice vectors
     8.440582262  0.000000000  0.000000000     0.118475239  0.000000000  0.000000000
     0.000000000  8.440582262  0.000000000     0.000000000  0.118475239  0.000000000
     0.000000000  0.000000000 21.330436697     0.000000000  0.000000000  0.046881366

  length of vectors
     8.440582262  8.440582262 21.330436697     0.118475239  0.118475239  0.046881366

 FORCES acting on ions:
    Electron-Ion                     Ewald-Force                    Non-Local-Force
   -.133E+03 -.129E+03 -.116E+04   0.155E+03 0.149E+03 0.113E+04   -.205E+02 -.198E+02 0.284E+02
   0.125E+03 0.121E+03 -.155E+04   -.155E+03 -.149E+03 0.159E+04   0.272E+02 0.262E+02 -.396E+02
   0.178E+00 0.326E-01 0.208E+04   -.178E+00 -.324E-01 -.208E+04   -.398E-03 -.140E-03 -.639E+01
   -.374E-01 0.200E+00 0.208E+04   0.373E-01 -.198E+00 -.208E+04   0.824E-04 -.127E-02 -.640E+01
   0.784E+00 0.792E+00 0.723E+03   -.771E+00 -.779E+00 -.723E+03   -.769E-02 -.821E-02 0.421E+00
   -.183E+00 0.104E+00 0.722E+03   0.184E+00 -.101E+00 -.723E+03   -.764E-03 -.224E-02 0.374E+00
   0.371E+01 0.629E+00 -.634E+03   -.367E+01 -.635E+00 0.634E+03   -.350E-01 0.238E-02 -.170E+00
   -.763E+00 0.627E+01 -.625E+03   0.764E+00 -.618E+01 0.625E+03   0.906E-03 -.823E-01 -.270E+00
   0.251E+02 0.254E+02 -.197E+04   -.252E+02 -.255E+02 0.197E+04   0.115E+00 0.108E+00 0.566E+01
   -.219E+01 0.417E+01 -.199E+04   0.218E+01 -.420E+01 0.198E+04   0.619E-02 0.124E-01 0.560E+01
   0.198E+00 -.325E-01 0.208E+04   -.196E+00 0.324E-01 -.208E+04   -.121E-02 0.801E-04 -.640E+01
   -.478E-01 -.200E+00 0.208E+04   0.473E-01 0.198E+00 -.208E+04   0.329E-03 0.134E-02 -.639E+01
   0.829E+00 -.790E+00 0.722E+03   -.828E+00 0.779E+00 -.723E+03   -.831E-03 0.711E-02 0.403E+00
   -.140E+00 -.115E+00 0.723E+03   0.134E+00 0.110E+00 -.724E+03   0.405E-02 0.341E-02 0.476E+00
   0.621E+01 -.673E+00 -.625E+03   -.613E+01 0.676E+00 0.625E+03   -.811E-01 -.692E-03 -.281E+00
   -.918E+00 -.619E+01 -.626E+03   0.934E+00 0.611E+01 0.627E+03   -.132E-01 0.768E-01 -.274E+00
   0.219E+02 -.242E+02 -.198E+04   -.220E+02 0.243E+02 0.197E+04   0.660E-01 -.873E-01 0.567E+01
   -.631E+01 -.568E+01 -.189E+04   0.630E+01 0.566E+01 0.188E+04   0.278E-01 0.320E-01 0.435E+01
   -.179E+00 0.421E-01 0.208E+04   0.178E+00 -.420E-01 -.208E+04   0.515E-03 -.877E-04 -.639E+01
   0.374E-01 0.181E+00 0.208E+04   -.372E-01 -.180E+00 -.208E+04   -.111E-03 -.411E-03 -.639E+01
   -.782E+00 0.832E+00 0.722E+03   0.770E+00 -.831E+00 -.723E+03   0.724E-02 -.789E-03 0.404E+00
   0.172E+00 0.158E+00 0.721E+03   -.177E+00 -.161E+00 -.721E+03   0.284E-02 0.188E-02 0.399E+00
   -.368E+01 0.782E+00 -.635E+03   0.364E+01 -.800E+00 0.635E+03   0.341E-01 0.144E-01 -.165E+00
   0.706E+00 0.368E+01 -.634E+03   -.712E+00 -.364E+01 0.634E+03   0.263E-02 -.271E-01 -.164E+00
   -.239E+02 0.219E+02 -.198E+04   0.240E+02 -.220E+02 0.197E+04   -.901E-01 0.554E-01 0.567E+01
   0.195E+01 0.183E+01 -.201E+04   -.194E+01 -.182E+01 0.200E+04   -.443E-02 -.818E-02 0.558E+01
   -.198E+00 -.429E-01 0.208E+04   0.196E+00 0.424E-01 -.208E+04   0.135E-02 0.325E-03 -.639E+01
   0.469E-01 -.181E+00 0.208E+04   -.468E-01 0.180E+00 -.208E+04   -.466E-04 0.490E-03 -.639E+01
   -.836E+00 -.839E+00 0.722E+03   0.827E+00 0.831E+00 -.722E+03   0.570E-02 0.499E-02 0.430E+00
   0.128E+00 -.164E+00 0.722E+03   -.125E+00 0.165E+00 -.723E+03   -.202E-02 -.591E-03 0.370E+00
   -.615E+01 -.829E+00 -.626E+03   0.607E+01 0.847E+00 0.626E+03   0.766E-01 -.145E-01 -.290E+00
   0.851E+00 -.366E+01 -.635E+03   -.870E+00 0.363E+01 0.635E+03   0.152E-01 0.273E-01 -.163E+00
   -.213E+02 -.214E+02 -.199E+04   0.214E+02 0.215E+02 0.198E+04   -.104E+00 -.954E-01 0.566E+01
   0.451E+01 -.204E+01 -.199E+04   -.454E+01 0.203E+01 0.198E+04   0.120E-01 0.771E-02 0.560E+01
   0.568E+00 0.853E-01 0.541E+03   -.562E+00 -.894E-01 -.541E+03   -.798E-02 0.500E-02 -.761E-01
   -.103E+00 0.723E+00 0.542E+03   0.106E+00 -.744E+00 -.542E+03   -.333E-02 0.256E-01 -.109E+00
   0.138E+00 0.140E+00 0.157E+04   -.137E+00 -.139E+00 -.157E+04   -.198E-02 -.207E-02 0.313E+01
   -.332E-01 0.255E-01 0.157E+04   0.334E-01 -.249E-01 -.157E+04   -.272E-03 -.735E-03 0.313E+01
   0.927E+01 0.251E+01 -.152E+04   -.920E+01 -.252E+01 0.152E+04   -.628E-01 0.590E-02 -.435E+01
   -.369E+01 0.320E+02 -.148E+04   0.368E+01 -.318E+02 0.148E+04   0.644E-02 -.173E+00 -.427E+01
   0.369E+01 0.371E+01 -.466E+03   -.367E+01 -.370E+01 0.466E+03   -.126E-01 -.135E-01 0.314E+00
   -.491E+00 0.558E+00 -.468E+03   0.491E+00 -.568E+00 0.468E+03   -.359E-03 0.146E-01 0.263E+00
   0.711E+00 -.851E-01 0.542E+03   -.732E+00 0.871E-01 -.542E+03   0.252E-01 -.244E-02 -.109E+00
   -.169E+00 -.722E+00 0.542E+03   0.169E+00 0.746E+00 -.542E+03   0.741E-03 -.283E-01 -.987E-01
   0.143E+00 -.140E+00 0.157E+04   -.142E+00 0.139E+00 -.157E+04   -.139E-02 0.217E-02 0.313E+01
   -.294E-01 -.256E-01 0.157E+04   0.289E-01 0.250E-01 -.157E+04   0.657E-03 0.663E-03 0.312E+01
   0.320E+02 -.346E+01 -.148E+04   -.318E+02 0.345E+01 0.148E+04   -.180E+00 0.395E-02 -.427E+01
   -.244E+01 -.308E+02 -.148E+04   0.248E+01 0.306E+02 0.149E+04   -.363E-01 0.178E+00 -.429E+01
   0.355E+01 -.369E+01 -.467E+03   -.354E+01 0.368E+01 0.466E+03   -.184E-01 0.824E-02 0.339E+00
   -.671E+00 -.612E+00 -.464E+03   0.676E+00 0.618E+00 0.464E+03   -.804E-02 -.905E-02 -.110E+00
   -.573E+00 0.138E+00 0.541E+03   0.571E+00 -.128E+00 -.541E+03   0.319E-02 -.115E-01 -.818E-01
   0.999E-01 0.571E+00 0.541E+03   -.103E+00 -.564E+00 -.541E+03   0.435E-02 -.879E-02 -.764E-01
   -.139E+00 0.145E+00 0.157E+04   0.137E+00 -.143E+00 -.157E+04   0.204E-02 -.135E-02 0.313E+01
   0.332E-01 0.298E-01 0.157E+04   -.333E-01 -.299E-01 -.157E+04   0.144E-03 0.647E-04 0.313E+01
   -.907E+01 0.186E+01 -.152E+04   0.901E+01 -.188E+01 0.152E+04   0.611E-01 0.236E-01 -.434E+01
   0.273E+01 0.926E+01 -.152E+04   -.274E+01 -.920E+01 0.152E+04   0.639E-02 -.634E-01 -.436E+01
   -.366E+01 0.356E+01 -.467E+03   0.365E+01 -.355E+01 0.466E+03   0.630E-02 -.185E-01 0.339E+00
   0.469E+00 0.436E+00 -.473E+03   -.469E+00 -.436E+00 0.473E+03   0.109E-02 0.729E-03 0.280E+00
   -.715E+00 -.151E+00 0.542E+03   0.740E+00 0.150E+00 -.542E+03   -.300E-01 0.159E-02 -.989E-01
   0.151E+00 -.574E+00 0.541E+03   -.141E+00 0.570E+00 -.541E+03   -.123E-01 0.590E-02 -.808E-01
   -.142E+00 -.144E+00 0.157E+04   0.142E+00 0.143E+00 -.157E+04   0.103E-02 0.103E-02 0.313E+01
   0.294E-01 -.298E-01 0.157E+04   -.287E-01 0.299E-01 -.157E+04   -.790E-03 -.135E-03 0.313E+01
   -.307E+02 -.219E+01 -.148E+04   0.305E+02 0.223E+01 0.149E+04   0.187E+00 -.379E-01 -.430E+01
   0.207E+01 -.909E+01 -.152E+04   -.210E+01 0.903E+01 0.152E+04   0.242E-01 0.619E-01 -.434E+01
   -.350E+01 -.352E+01 -.469E+03   0.347E+01 0.350E+01 0.469E+03   0.244E-01 0.254E-01 0.246E+00
   0.628E+00 -.449E+00 -.468E+03   -.638E+00 0.450E+00 0.468E+03   0.147E-01 -.133E-02 0.270E+00
   -.851E+01 -.819E+01 0.300E+02   -.111E-15 -.103E-12 -.227E-11   0.671E+01 0.646E+01 -.253E+02

 POSITION                                       TOTAL-FORCE (eV/Angst)
      4.26984      4.27774     16.23967        -0.748711     -0.723369      1.246372
      3.68914      3.71813     17.08792         0.745607      0.719970     -1.077620
      2.11015      0.00000      7.50000         0.000251      0.000095      0.465051
      4.22029      2.11015      7.50000        -0.000017      0.000479      0.466379
      2.11015      2.11015      9.61015         0.003715      0.003994      0.030432
      4.22029      0.00000      9.61015         0.000248      0.001111      0.039830
      2.11062      0.00025     11.72977         0.003824     -0.002473     -0.008989
      4.22006      2.11315     11.73333         0.002106     -0.004228     -0.007069
      2.10792      2.10836     13.82747        -0.003676     -0.004594     -0.138875
      4.21959      0.00038     13.82826        -0.000750     -0.014044     -0.140281
      2.11015      4.22029      7.50000         0.000465     -0.000025      0.466483
      4.22029      6.33044      7.50000        -0.000083     -0.000449      0.465700
      2.11015      6.33044      9.61015         0.000201     -0.003213      0.031852
      4.22029      4.22029      9.61015        -0.001904     -0.001616      0.041209
      2.11297      4.22022     11.73329        -0.003718      0.001866     -0.006834
      4.21996      6.32707     11.73220         0.001814      0.005453      0.009215
      2.10638      6.33265     13.82397         0.007653      0.006579     -0.144013
      4.21994      4.22001     13.86504         0.014506      0.015295     -0.268381
      6.33044      0.00000      7.50000        -0.000192      0.000068      0.465337
      0.00000      2.11015      7.50000         0.000094      0.000263      0.465068
      6.33044      2.11015      9.61015        -0.003241      0.000268      0.032094
      0.00000      0.00000      9.61015        -0.001242     -0.000823      0.028681
      6.32929      8.43962     11.73020        -0.003610     -0.002026     -0.009224
      0.00016      2.11046     11.72979        -0.002853      0.004961     -0.010105
      6.33251      2.10705     13.82408         0.006544      0.004918     -0.143499
      8.44007      8.44039     13.82821         0.000549      0.000155     -0.123992
      6.33044      4.22029      7.50000        -0.000426     -0.000098      0.465642
      0.00000      6.33044      7.50000         0.000072     -0.000210      0.465347
      6.33044      6.33044      9.61015        -0.002856     -0.002584      0.032715
      0.00000      4.22029      9.61015         0.000939      0.000223      0.039987
      6.32695      4.22010     11.73219         0.005395      0.001710      0.008668
      8.43950      6.32970     11.73015        -0.002174     -0.004925     -0.010176
      6.33151      6.33141     13.83145        -0.009951     -0.008013     -0.145547
      8.44052      4.21972     13.82756        -0.012342     -0.000486     -0.136769
      2.11015      0.00000      9.61015        -0.002765      0.001678      0.043835
      4.22029      2.11015      9.61015        -0.001010      0.007663      0.050723
      2.11015      2.11015      7.50000        -0.000616     -0.000664     -0.436340
      4.22029      0.00000      7.50000        -0.000064     -0.000224     -0.436086
      2.10846      8.44054     13.86754        -0.009348      0.004147      0.008729
      4.22099      2.10193     13.86743        -0.002795      0.017566      0.028644
      2.11008      2.11010     11.72566        -0.002566     -0.002020      0.017737
      4.22006      8.44009     11.72454        -0.000644      0.006912      0.010770
      2.11015      4.22029      9.61015         0.007642     -0.000797      0.050323
      4.22029      6.33044      9.61015         0.000501     -0.008448      0.048627
      2.11015      6.33044      7.50000        -0.000439      0.000739     -0.435971
      4.22029      4.22029      7.50000         0.000247      0.000234     -0.437127
      2.10148      4.22129     13.86687         0.016702     -0.003450      0.027551
      4.21749      6.33840     13.86677        -0.004136     -0.009238      0.016037
      2.10956      6.33068     11.72476        -0.006971      0.001142      0.014692
      4.22015      4.22033     11.73226        -0.004304     -0.004715      0.004003
      6.33044      0.00000      9.61015         0.001397     -0.003644      0.044076
      0.00000      2.11015      9.61015         0.001484     -0.002949      0.043828
      6.33044      2.11015      7.50000         0.000704     -0.000427     -0.435988
      0.00000      0.00000      7.50000         0.000088      0.000040     -0.435683
      6.33097      8.43992     13.86848         0.008409      0.004391      0.008760
      8.44039      2.10835     13.86786         0.003024     -0.006720      0.005775
      6.33050      2.10955     11.72481         0.001002     -0.006088      0.014792
      8.44013      8.44031     11.72453         0.001206      0.000596      0.019634
      6.33044      4.22029      9.61015        -0.009001      0.000712      0.048573
      0.00000      6.33044      9.61015        -0.003866      0.002121      0.044221
      6.33044      6.33044      7.50000         0.000370      0.000353     -0.436110
      0.00000      4.22029      7.50000        -0.000232     -0.000017     -0.436135
      6.33814      4.21784     13.86595        -0.006267     -0.004925      0.015243
      8.43978      6.33146     13.86840         0.003422      0.006384      0.008293
      6.32966      6.32986     11.72686         0.006236      0.006101      0.008425
      8.44002      4.22015     11.72431         0.006352     -0.000685      0.011460
    total drift:                               -0.002357     -0.001513      0.012858

  FREE ENERGIE OF THE ION-ELECTRON SYSTEM (eV)
  free  energy   TOTEN  =      -454.51098848 eV

  energy  without entropy=     -454.51098848  energy(sigma->0) =     -454.51098848