 vasp.6.3.0 20Jan22 (build Aug 21 2024 11:13:42) complex
 executed on        HPECrayEX_GCC date 2024.11.28  00:30:18

 INCAR:
   SYSTEM = TiO2
   ISMEAR = 0
   SIGMA = 0.05
   EDIFF = 1E-4
   ALGO = Normal
   IBRION = -1
   NSW = 0
   ISYM = 0
   ISIF = 2
   EDIFFG = -0.01
   DIPOL = 0.5 0.5 0.5
   IDIPOL = 3
   LDIPOL = .TRUE.
   LHFCALC = .TRUE.
   HFSCREEN = 0.2
   GGA = PE
   IVDW = 13
   VDW_S8 = 1.19528249
   VDW_A1 = 0.38663183
   VDW_A2 = 5.19133469
   ENCUT = 520
   PREC = Normal
   PRECFOCK = Fast
   LASPH = .TRUE.
   LREAL = .FALSE.
   ISPIN = 1
   NKREDX = 2
   NKREDY = 2
   NELM = 200
   NELMIN = 8
   NCORE = 16
   KPAR = 1
   LWAVE = .FALSE.
   LCHARG = .FALSE.

 POTCAR:    PAW_PBE C 08Apr2002
 POTCAR:    PAW_PBE H 15Jun2001
 POTCAR:    PAW_PBE Ti 08Apr2002
 POTCAR:    PAW_PBE O 08Apr2002
 POTCAR:    PAW_PBE C 08Apr2002
   VRHFIN =C: s2p2

   TITEL  = PAW_PBE C 08Apr2002
   POMASS =   12.011; ZVAL   =    4.000    mass and valenz
   ENMAX  =  400.000; ENMIN  =  300.000 eV

   TITEL  = PAW_PBE H 15Jun2001
   POMASS =    1.000; ZVAL   =    1.000    mass and valenz
   ENMAX  =  250.000; ENMIN  =  200.000 eV

[...]

   TITEL  = PAW_PBE O 08Apr2002
   POMASS =   16.000; ZVAL   =    6.000    mass and valenz
   ENMAX  =  400.000; ENMIN  =  300.000 eV

  PAW_PBE C 08Apr2002                   :
  PAW_PBE H 15Jun2001                   :
  PAW_PBE Ti 08Apr2002                  :
  PAW_PBE O 08Apr2002                   :

 POSCAR:  C  H Ti  O
  positions in direct lattice
 WARNING: Using user supplied parameters
     VDW_S8 = 1.195
     VDW_A1 = 0.387
     VDW_A2 = 5.191
     because the xc functional is not supported. Required parameters not
     defined in the INCAR file will be replaced with PBE defaults ones.

 ion  position               nearest neighbor table
   1  0.500  0.500  0.818-   2 1.10   3 1.10   5 1.10   4 1.10
   2  0.498  0.575  0.838-   1 1.10
   3  0.502  0.425  0.838-   1 1.10
   4  0.570  0.503  0.798-   1 1.10
   5  0.430  0.497  0.798-   1 1.10
   6  0.750  0.625  0.287-  86 1.96  87 1.96 146 1.96 147 1.96  89 1.98 168 1.98  16 2.97  36 2.97

   7  0.000  0.750  0.287-  88 1.96  89 1.96 108 1.96 109 1.96  90 1.98  37 2.97  17 2.97
   8  0.000  0.625  0.393-  90 1.96  91 1.96 150 1.96 151 1.96  92 1.98  93 1.98  18 2.97  38 2.97

[...]

  85  0.500  0.500  0.709- 239 1.82 244 1.95 185 1.95 184 1.95 245 1.95  75 2.97  55 2.97
  86  0.750  0.750  0.245-   6 1.96  16 1.96
  87  0.750  0.750  0.329-   6 1.96  16 1.96   9 1.98
  88  0.098  0.625  0.287-   7 1.96  37 1.96  46 1.98
  89  0.902  0.625  0.287-   7 1.96  37 1.96   6 1.98
  90  0.000  0.750  0.352-   8 1.96  18 1.96   7 1.98
  91  0.000  0.750  0.435-   8 1.96  18 1.96  11 1.98
  92  0.848  0.625  0.393-   9 1.96  39 1.96   8 1.98
  93  0.152  0.625  0.393-  49 1.96  79 1.96   8 1.98
  94  0.750  0.750  0.458-  10 1.96  20 1.96   9 1.98
  95  0.750  0.750  0.542-  10 1.96  20 1.96  13 2.11
  96  0.098  0.625  0.500-  11 1.96  41 1.96  50 1.98
  97  0.902  0.625  0.500-  11 1.96  41 1.96  10 1.98
  98  0.000  0.750  0.566-  12 1.90  22 1.90  11 2.01
  99  1.000  0.750  0.649-  15 1.81  22 2.02  12 2.02
 100  0.850  0.625  0.607-  12 1.96  13 1.98  43 1.98
 101  0.150  0.625  0.607-  12 1.96  53 1.98  83 1.98
 102  0.750  0.750  0.672-  13 1.87  14 2.10  24 2.10
 103  0.750  0.750  0.756-  14 1.83  24 1.84
 104  0.094  0.625  0.719-  45 1.95  15 1.95  54 2.04
 105  0.906  0.625  0.719-  45 1.95  15 1.95  14 2.04
 106  0.750  0.000  0.245-  16 1.96  26 1.96
 107  0.750  0.000  0.329-  16 1.96  26 1.96  19 1.98
 108  0.098  0.875  0.287-   7 1.96  17 1.96  56 1.98
 109  0.902  0.875  0.287-   7 1.96  17 1.96  16 1.98
 110  0.000  0.000  0.352-  18 1.96  28 1.96  17 1.98
 111  0.000  0.000  0.435-  18 1.96  28 1.96  21 1.98
 112  0.848  0.875  0.393-   9 1.96  19 1.96  18 1.98
 113  0.152  0.875  0.393-  49 1.96  59 1.96  18 1.98
 114  0.750  0.000  0.458-  20 1.96  30 1.96  19 1.98
 115  0.750  0.000  0.542-  20 1.96  30 1.96  23 2.11
 116  0.098  0.875  0.500-  11 1.96  21 1.96  60 1.98
 117  0.902  0.875  0.500-  11 1.96  21 1.96  20 1.98
 118  0.000  1.000  0.566-  22 1.90  32 1.90  21 2.01
 119  0.000  1.000  0.649-  25 1.81  32 2.02  22 2.02
 120  0.850  0.875  0.607-  22 1.96  23 1.98  13 1.98
 121  0.150  0.875  0.607-  22 1.96  53 1.98  63 1.98
 122  0.750  1.000  0.672-  23 1.87  24 2.10  34 2.10
 123  0.750  0.000  0.756-  24 1.84  34 1.84
 124  0.094  0.875  0.719-  15 1.95  25 1.95  64 2.04
 125  0.906  0.875  0.719-  15 1.95  25 1.95  24 2.04
 126  0.750  0.250  0.245-  26 1.96  36 1.96
 127  0.750  0.250  0.329-  26 1.96  36 1.96  29 1.98
 128  0.098  0.125  0.287-  17 1.96  27 1.96  66 1.98
 129  0.902  0.125  0.287-  17 1.96  27 1.96  26 1.98
 130  0.000  0.250  0.352-  28 1.96  38 1.96  27 1.98
 131  0.000  0.250  0.435-  28 1.96  38 1.96  31 1.98
 132  0.848  0.125  0.393-  19 1.96  29 1.96  28 1.98
 133  0.152  0.125  0.393-  59 1.96  69 1.96  28 1.98
 134  0.750  0.250  0.458-  30 1.96  40 1.96  29 1.98
 135  0.750  0.250  0.542-  30 1.96  40 1.96  33 2.11
 136  0.098  0.125  0.500-  21 1.96  31 1.96  70 1.98
 137  0.902  0.125  0.500-  21 1.96  31 1.96  30 1.98
 138  0.000  0.250  0.566-  42 1.90  32 1.90  31 2.01
 139  0.000  0.250  0.649-  35 1.81  32 2.02  42 2.02
 140  0.850  0.125  0.607-  32 1.96  33 1.98  23 1.98
 141  0.150  0.125  0.607-  32 1.96  63 1.98  73 1.98
 142  0.750  0.250  0.672-  33 1.87  44 2.10  34 2.10
 143  0.750  0.250  0.756-  44 1.83  34 1.84
 144  0.094  0.125  0.719-  35 1.95  25 1.95  74 2.04
[...]
 231  0.500  0.500  0.435-  48 1.96  78 1.96  81 1.98
 232  0.348  0.375  0.393-  69 1.96  79 1.96  78 1.98
 233  0.652  0.375  0.393-  29 1.96  39 1.96  78 1.98
 234  0.250  0.500  0.458-  50 1.96  80 1.96  79 1.98
 235  0.250  0.500  0.542-  50 1.96  80 1.96  83 2.11
 236  0.598  0.375  0.500-  71 1.96  81 1.96  40 1.98
 237  0.402  0.375  0.500-  71 1.96  81 1.96  80 1.98
 238  0.500  0.500  0.566-  82 1.90  52 1.90  81 2.01
 239  0.500  0.500  0.650-  85 1.82  52 2.02  82 2.02
 240  0.350  0.375  0.607-  82 1.96  73 1.98  83 1.98
 241  0.650  0.375  0.607-  82 1.96  43 1.98  33 1.98
 242  0.250  0.500  0.672-  83 1.86  54 2.10  84 2.10
 243  0.251  0.500  0.756-  54 1.84  84 1.84
 244  0.594  0.374  0.719-  75 1.95  85 1.95  44 2.04
 245  0.406  0.374  0.719-  75 1.95  85 1.95  84 2.04

IMPORTANT INFORMATION: All symmetrisations will be switched off!
NOSYMM: (Re-)initialisation of all symmetry stuff for point group C_1.

                                     Primitive cell

  volume of cell :    4740.1649

  direct lattice vectors                    reciprocal lattice vectors
    13.042933829  0.000000000  0.000000000     0.076669867  0.000000000  0.000000000
     0.000000000 11.878216733  0.000000000     0.000000000  0.084187721  0.000000000
     0.000000000  0.000000000 30.596159140     0.000000000  0.000000000  0.032683841

  length of vectors
    13.042933829 11.878216733 30.596159140     0.076669867  0.084187721  0.032683841

  position of ions in fractional coordinates (direct lattice)
     0.500020889  0.500008776  0.817612141
     0.497692566  0.575472807  0.838166538
     0.502373631  0.424530150  0.838171102
     0.570198127  0.502546733  0.797763296
     0.429850421  0.497451211  0.797771550
     0.750000000  0.625000000  0.286853412
     0.000000000  0.750000000  0.286853412
     0.000000000  0.625000000  0.393426706
     0.750000000  0.750000000  0.393426706
     0.750000000  0.625000000  0.500000000
     0.000000000  0.750000000  0.500000000
     0.999999329  0.625003873  0.604456938
     0.749975295  0.749984398  0.610703732
     0.750072027  0.625136197  0.720330973
     0.000025387  0.750029527  0.708578646
     0.750000000  0.875000000  0.286853412
     0.000000000  0.000000000  0.286853412
     0.000000000  0.875000000  0.393426706
     0.750000000  0.000000000  0.393426706
     0.750000000  0.875000000  0.500000000
     0.000000000  0.000000000  0.500000000
     0.999892634  0.875006783  0.604447538
     0.749977829  0.000033340  0.610721566
     0.749966646  0.875060393  0.720467102
     0.000002501  0.999999982  0.708586616
     0.750000000  0.125000000  0.286853412
     0.000000000  0.250000000  0.286853412
     0.000000000  0.125000000  0.393426706
     0.750000000  0.250000000  0.393426706
     0.750000000  0.125000000  0.500000000
     0.000000000  0.250000000  0.500000000
     0.000099459  0.124993117  0.604447578
     0.750110519  0.249958286  0.610705908
     0.749937375  0.124983512  0.720469202
     0.999980062  0.249970306  0.708578696
     0.750000000  0.375000000  0.286853412
     0.000000000  0.500000000  0.286853412
     0.000000000  0.375000000  0.393426706
     0.750000000  0.500000000  0.393426706
     0.750000000  0.375000000  0.500000000
     0.000000000  0.500000000  0.500000000
     0.999991149  0.374995889  0.604456966
     0.750030027  0.500031380  0.610724650
     0.750026976  0.374913768  0.720337760
     0.000003106  0.499999897  0.708573271
     0.250000000  0.625000000  0.286853412
     0.500000000  0.750000000  0.286853412
     0.500000000  0.625000000  0.393426706
     0.250000000  0.750000000  0.393426706
     0.250000000  0.625000000  0.500000000
     0.500000000  0.750000000  0.500000000
     0.499893270  0.624790590  0.604643079
     0.249883200  0.750041399  0.610706000
     0.249979531  0.625086000  0.720337950
     0.500020215  0.750082131  0.708367887
     0.250000000  0.875000000  0.286853412
     0.500000000  0.000000000  0.286853412
     0.500000000  0.875000000  0.393426706
     0.250000000  0.000000000  0.393426706
     0.250000000  0.875000000  0.500000000
[...]
     0.500000000  0.500000000  0.435151311
     0.347877722  0.375000000  0.393426706
     0.652122278  0.375000000  0.393426706
     0.250000000  0.500000000  0.458275395
     0.250000000  0.500000000  0.541724605
     0.597877722  0.375000000  0.500000000
     0.402122278  0.375000000  0.500000000
     0.500001987  0.499999899  0.565649732
     0.500001646  0.499999912  0.649553142
     0.350002052  0.375012004  0.607300984
     0.649982976  0.375014696  0.607294619
     0.249597091  0.500011759  0.671667647
     0.250588136  0.499975868  0.755637112
     0.594021671  0.374462717  0.718682609
     0.405957726  0.374453084  0.718661878

  ion indices of the primitive-cell ions
   primitive index   ion index
                 1           1
                 2           2
                 3           3
                 4           4
                 5           5
                 6           6
                 7           7
                 8           8
                 9           9
                10          10
                11          11
                12          12
                13          13
                14          14
                15          15
                16          16
                17          17
                18          18
                19          19
                20          20
                21          21
                22          22
                23          23
                24          24
                25          25
                26          26
                27          27
[...]
     0.000000000  0.000000000 30.596159140     0.000000000  0.000000000  0.032683841

  length of vectors
    13.042933829 11.878216733 30.596159140     0.076669867  0.084187721  0.032683841

 FORCES acting on ions
    electron-ion (+dipol)            ewald-force                    non-local-force                 convergence-correction
   0.182E-02 0.395E-02 -.106E+04   0.892E-03 -.651E-02 0.107E+04   0.324E-02 -.371E-02 -.525E+00   0.104E-04 0.139E-04 -.794E-01
   0.138E+01 -.436E+02 -.270E+03   -.153E+01 0.480E+02 0.273E+03   0.151E+00 -.441E+01 -.311E+01   -.950E-04 0.253E-02 -.121E-01
   -.139E+01 0.436E+02 -.270E+03   0.154E+01 -.480E+02 0.273E+03   -.153E+00 0.440E+01 -.311E+01   0.981E-04 -.252E-02 -.121E-01
   -.365E+02 -.144E+01 -.264E+03   0.411E+02 0.158E+01 0.261E+03   -.456E+01 -.147E+00 0.280E+01   0.285E-02 0.838E-04 -.262E-01
   0.365E+02 0.145E+01 -.264E+03   -.411E+02 -.159E+01 0.261E+03   0.456E+01 0.149E+00 0.280E+01   -.284E-02 -.753E-04 -.262E-01
   -.529E-01 -.158E-01 0.109E+04   0.528E-01 0.161E-01 -.109E+04   -.148E-04 -.143E-04 -.118E+01   0.237E-04 -.151E-03 0.990E-01
   -.145E-03 -.208E-01 0.116E+04   0.141E-04 0.209E-01 -.116E+04   0.998E-05 -.372E-05 -.175E+01   0.127E-03 0.173E-04 0.991E-01
   0.472E-04 -.184E-01 0.559E+03   0.748E-04 0.190E-01 -.558E+03   -.170E-04 0.155E-03 0.163E+00   -.120E-03 -.810E-04 -.507E-02
   -.779E-01 -.266E-01 0.555E+03   0.772E-01 0.271E-01 -.556E+03   -.110E-03 0.907E-04 -.164E+00   0.135E-03 -.209E-03 -.270E-02
   -.330E+00 -.101E+00 0.200E+01   0.327E+00 0.100E+00 -.140E+01   -.847E-03 -.458E-03 0.190E+00   0.260E-03 -.981E-04 -.977E-01
   -.158E-02 -.141E+00 0.176E+01   0.186E-02 0.141E+00 -.242E+01   0.145E-04 0.846E-03 -.679E-01   0.780E-05 0.262E-04 -.987E-01
   0.129E-02 -.468E+00 -.541E+03   -.156E-02 0.471E+00 0.541E+03   -.293E-03 0.248E-04 -.513E-01   0.876E-05 0.238E-03 -.143E+00
   -.173E+01 -.129E+01 -.552E+03   0.173E+01 0.130E+01 0.552E+03   -.392E-02 -.261E-02 0.560E-01   0.644E-03 0.451E-03 -.147E+00
   -.125E+02 -.522E+01 -.106E+04   0.125E+02 0.521E+01 0.106E+04   0.101E-01 0.558E-02 -.878E-01   0.269E-02 0.126E-02 -.138E+00
   0.919E-02 -.200E+01 -.109E+04   -.964E-02 0.200E+01 0.109E+04   0.450E-04 0.856E-03 0.676E+00   -.306E-04 0.497E-03 -.143E+00
   -.507E-01 -.162E-01 0.109E+04   0.504E-01 0.161E-01 -.109E+04   -.320E-04 0.425E-04 -.118E+01   0.898E-04 0.179E-03 0.991E-01
   -.296E-04 0.162E-04 0.116E+04   0.102E-04 0.676E-06 -.116E+04   0.697E-05 -.402E-05 -.175E+01   0.180E-04 -.178E-04 0.992E-01
   -.107E-03 -.188E-01 0.559E+03   0.984E-04 0.191E-01 -.558E+03   0.117E-04 0.167E-03 0.163E+00   0.236E-04 0.151E-03 -.510E-02
   -.787E-01 -.215E-03 0.555E+03   0.779E-01 0.739E-04 -.556E+03   -.131E-03 0.247E-04 -.164E+00   0.197E-03 0.143E-03 -.275E-02
   -.331E+00 -.105E+00 0.178E+01   0.329E+00 0.107E+00 -.118E+01   -.395E-03 0.119E-02 0.190E+00   0.169E-03 0.104E-03 -.976E-01
   0.645E-03 -.370E-05 0.167E+01   -.613E-03 0.133E-04 -.232E+01   -.971E-05 0.123E-06 -.695E-01   0.383E-04 -.772E-05 -.988E-01
   -.148E+00 -.485E+00 -.542E+03   0.153E+00 0.488E+00 0.542E+03   -.179E-02 0.328E-03 -.541E-01   0.125E-04 0.722E-04 -.143E+00
   -.128E+01 0.766E-01 -.554E+03   0.128E+01 -.780E-01 0.554E+03   -.747E-03 0.810E-03 0.616E-01   0.498E-03 -.789E-04 -.147E+00
   -.481E+01 -.369E+01 -.107E+04   0.480E+01 0.369E+01 0.107E+04   0.764E-02 0.220E-02 -.915E-01   0.131E-02 0.852E-03 -.137E+00
   -.102E-02 -.682E-04 -.109E+04   0.106E-02 -.496E-04 0.109E+04   -.576E-05 0.492E-05 0.673E+00   -.215E-04 0.736E-04 -.142E+00
   -.507E-01 0.160E-01 0.109E+04   0.504E-01 -.161E-01 -.109E+04   -.308E-04 -.201E-04 -.118E+01   0.114E-03 0.135E-04 0.991E-01
   0.154E-03 0.209E-01 0.116E+04   0.714E-05 -.209E-01 -.116E+04   -.133E-04 -.405E-06 -.175E+01   -.147E-03 -.411E-04 0.991E-01
   0.243E-03 0.189E-01 0.559E+03   -.717E-04 -.191E-01 -.558E+03   -.281E-04 -.175E-03 0.163E+00   -.172E-03 -.192E-03 -.514E-02
   -.781E-01 0.269E-01 0.555E+03   0.773E-01 -.271E-01 -.556E+03   -.100E-03 -.140E-03 -.164E+00   0.229E-03 -.743E-04 -.280E-02
   -.333E+00 0.105E+00 0.178E+01   0.332E+00 -.106E+00 -.118E+01   -.407E-03 -.107E-02 0.190E+00   0.163E-03 -.368E-04 -.976E-01
   0.279E-02 0.141E+00 0.176E+01   -.293E-02 -.141E+00 -.242E+01   -.382E-04 -.849E-03 -.679E-01   -.121E-05 -.304E-04 -.986E-01
   0.131E+00 0.485E+00 -.542E+03   -.136E+00 -.488E+00 0.542E+03   0.155E-02 -.330E-03 -.541E-01   -.455E-04 -.876E-04 -.143E+00
   -.162E+01 0.115E+01 -.552E+03   0.162E+01 -.115E+01 0.552E+03   -.312E-02 0.117E-02 0.561E-01   0.685E-03 -.334E-03 -.147E+00
   -.480E+01 0.372E+01 -.107E+04   0.479E+01 -.372E+01 0.107E+04   0.776E-02 -.156E-02 -.925E-01   0.136E-02 -.797E-03 -.137E+00
   -.120E-01 0.200E+01 -.109E+04   0.125E-01 -.200E+01 0.109E+04   -.477E-04 -.870E-03 0.676E+00   -.142E-04 -.610E-03 -.143E+00
   -.530E-01 0.160E-01 0.109E+04   0.528E-01 -.161E-01 -.109E+04   -.137E-04 -.107E-04 -.118E+01   0.102E-03 -.320E-04 0.990E-01
   0.735E-04 -.513E-04 0.116E+04   0.111E-04 -.680E-06 -.116E+04   -.895E-05 0.743E-05 -.175E+01   -.697E-04 0.408E-04 0.992E-01
   0.286E-03 0.184E-01 0.559E+03   -.404E-04 -.190E-01 -.558E+03   -.277E-04 -.145E-03 0.163E+00   -.226E-03 0.124E-03 -.511E-02
   -.771E-01 -.118E-03 0.555E+03   0.765E-01 -.370E-04 -.556E+03   -.999E-04 0.231E-04 -.164E+00   0.208E-03 0.140E-03 -.263E-02
   -.332E+00 0.102E+00 0.200E+01   0.329E+00 -.101E+00 -.140E+01   -.860E-03 0.324E-03 0.190E+00   0.212E-03 0.324E-04 -.976E-01
   0.612E-03 -.166E-04 0.185E+01   -.496E-03 0.496E-05 -.251E+01   -.140E-04 0.548E-05 -.667E-01   -.417E-04 0.100E-04 -.988E-01
   -.206E-01 0.468E+00 -.541E+03   0.213E-01 -.471E+00 0.541E+03   0.366E-04 -.213E-04 -.513E-01   -.235E-04 -.219E-03 -.143E+00
   -.227E+01 0.772E-01 -.551E+03   0.227E+01 -.787E-01 0.551E+03   -.114E-02 0.805E-03 0.521E-01   0.838E-03 -.424E-04 -.148E+00
   -.124E+02 0.527E+01 -.106E+04   0.124E+02 -.527E+01 0.106E+04   0.105E-01 -.490E-02 -.871E-01   0.266E-02 -.131E-02 -.138E+00
   -.149E-02 -.217E-04 -.109E+04   0.153E-02 -.166E-04 0.109E+04   -.766E-05 0.896E-05 0.679E+00   -.334E-04 0.443E-04 -.143E+00
   0.530E-01 -.162E-01 0.109E+04   -.528E-01 0.161E-01 -.109E+04   0.112E-04 0.470E-04 -.118E+01   -.552E-04 0.136E-03 0.992E-01
   0.130E-03 -.243E-01 0.116E+04   -.123E-04 0.245E-01 -.116E+04   -.583E-05 0.339E-04 -.175E+01   -.114E-03 -.303E-04 0.993E-01
   -.787E-04 -.156E-01 0.559E+03   -.231E-04 0.175E-01 -.559E+03   0.226E-04 0.575E-03 0.164E+00   0.922E-04 0.473E-04 -.520E-02
   0.778E-01 -.270E-01 0.555E+03   -.773E-01 0.271E-01 -.556E+03   0.118E-03 0.163E-03 -.164E+00   -.254E-04 0.168E-03 -.298E-02
   0.332E+00 -.102E+00 0.200E+01   -.329E+00 0.101E+00 -.140E+01   0.832E-03 -.326E-03 0.190E+00   -.179E-03 -.121E-04 -.975E-01
   -.115E-02 -.195E+00 0.248E+01   0.138E-02 0.186E+00 -.312E+01   0.473E-05 0.313E-02 -.693E-01   -.706E-04 0.124E-03 -.990E-01
   -.140E+00 -.953E+00 -.537E+03   0.145E+00 0.968E+00 0.538E+03   -.175E-02 -.171E-01 -.507E-01   0.388E-05 0.488E-03 -.144E+00
   0.161E+01 -.115E+01 -.552E+03   -.161E+01 0.115E+01 0.552E+03   0.307E-02 -.116E-02 0.561E-01   -.666E-03 0.415E-03 -.147E+00
   0.124E+02 -.527E+01 -.106E+04   -.124E+02 0.526E+01 0.106E+04   -.104E-01 0.492E-02 -.872E-01   -.263E-02 0.141E-02 -.138E+00
   0.337E-01 -.121E+02 -.108E+04   -.339E-01 0.122E+02 0.108E+04   -.235E-03 -.543E-02 0.713E+00   -.289E-04 0.246E-02 -.145E+00
   0.507E-01 -.159E-01 0.109E+04   -.504E-01 0.161E-01 -.109E+04   0.318E-04 0.658E-05 -.118E+01   -.486E-04 -.932E-04 0.991E-01
   0.212E-03 -.112E-03 0.116E+04   -.113E-04 0.836E-06 -.116E+04   -.219E-04 0.172E-04 -.175E+01   -.178E-03 0.959E-04 0.992E-01
   0.277E-03 -.167E-01 0.559E+03   -.483E-04 0.179E-01 -.559E+03   -.391E-04 0.266E-03 0.164E+00   -.220E-03 0.359E-04 -.523E-02
   0.784E-01 0.207E-03 0.555E+03   -.779E-01 -.702E-04 -.556E+03   0.163E-03 -.268E-04 -.164E+00   0.657E-04 -.148E-03 -.279E-02
   0.333E+00 -.105E+00 0.178E+01   -.331E+00 0.106E+00 -.118E+01   0.373E-03 0.109E-02 0.190E+00   -.148E-03 0.148E-03 -.974E-01
[...]
   -.248E+02 0.273E-01 0.835E+03   0.290E+02 -.275E-01 -.835E+03   -.336E+01 0.394E-03 0.199E+00   -.106E-02 -.621E-04 -.513E-02
   0.248E+02 0.272E-01 0.835E+03   -.290E+02 -.275E-01 -.835E+03   0.336E+01 0.400E-03 0.199E+00   0.122E-02 0.385E-04 -.510E-02
   0.272E+00 -.388E-04 0.352E+03   -.270E+00 0.166E-03 -.356E+03   -.212E-02 -.141E-03 0.402E+01   -.115E-03 -.430E-04 -.996E-01
   0.930E+00 -.977E-02 -.351E+03   -.924E+00 0.106E-01 0.359E+03   -.424E-02 -.452E-03 -.685E+01   -.467E-03 0.324E-05 -.181E+00
   -.240E+02 0.820E-01 0.529E+01   0.291E+02 -.832E-01 -.547E+01   -.500E+01 0.585E-02 0.381E+00   0.949E-03 -.616E-04 -.147E+00
   0.240E+02 0.829E-01 0.528E+01   -.291E+02 -.840E-01 -.546E+01   0.500E+01 0.568E-02 0.380E+00   -.940E-03 -.672E-04 -.147E+00
   -.406E-02 -.468E-04 -.468E+03   0.580E-02 0.127E-03 0.462E+03   -.147E-02 0.822E-05 0.630E+01   -.542E-04 -.805E-04 -.202E+00
   -.553E-03 0.139E-03 -.115E+04   0.130E-02 -.109E-03 0.115E+04   -.633E-03 -.131E-04 0.256E+01   -.296E-04 -.213E-04 -.224E+00
   -.866E+01 0.156E+01 -.816E+03   0.117E+02 -.157E+01 0.815E+03   -.275E+01 0.618E-02 0.922E+00   -.245E-02 -.546E-03 -.220E+00
   0.835E+01 0.163E+01 -.816E+03   -.113E+02 -.167E+01 0.815E+03   0.265E+01 0.328E-01 0.919E+00   0.247E-02 -.558E-03 -.220E+00
   0.102E+02 -.181E-01 -.129E+04   -.102E+02 0.172E-01 0.129E+04   0.469E-01 0.787E-03 -.239E+01   -.252E-02 0.942E-05 -.229E+00
   0.372E+02 -.610E-01 -.187E+04   -.373E+02 0.603E-01 0.189E+04   0.591E-01 0.290E-03 -.196E+02   -.659E-02 0.956E-04 -.183E+00
   -.872E+01 0.193E+02 -.163E+04   0.150E+02 -.193E+02 0.164E+04   -.564E+01 0.900E-02 -.357E+01   -.837E-03 -.327E-02 -.217E+00
   0.871E+01 0.193E+02 -.163E+04   -.150E+02 -.193E+02 0.164E+04   0.565E+01 -.884E-03 -.356E+01   0.808E-03 -.325E-02 -.217E+00
   -.370E-01 0.512E-02 0.112E+03   0.682E-12 0.441E-12 0.143E-10   0.345E-01 -.487E-02 -.860E+02   0.335E-03 0.237E-04 -.183E+02

 POSITION                                       TOTAL-FORCE (eV/Angst)
      6.52174      5.93921     25.01579         0.006150     -0.006478     -0.050632
      6.49137      6.83559     25.64468         0.012716     -0.183072     -0.120458
      6.55243      5.04266     25.64482        -0.013672      0.189092     -0.124267
      7.43706      5.96936     24.40849        -0.192450     -0.010147      0.120138
      5.60651      5.90883     24.40875         0.187107      0.010567      0.116945
      9.78220      7.42389      8.77661        -0.000154      0.000053     -3.827455
      0.00000      8.90866      8.77661         0.000008      0.000073      3.352177
      0.00000      7.42389     12.03735        -0.000018      0.000638      0.540818
      9.78220      8.90866     12.03735        -0.000632      0.000395     -0.845696
      9.78220      7.42389     15.29808        -0.003704     -0.001450      0.722666
      0.00000      8.90866     15.29808         0.000305      0.001584     -0.868236
     13.04293      7.42393     18.49406        -0.000557      0.003640     -0.033912
      9.78188      8.90848     18.68519        -0.001312      0.003208     -0.018666
      9.78314      7.42550     22.03936         0.003519      0.002736     -0.196919
      0.00033      8.90901     21.67979        -0.000099      0.008206      0.004227
      9.78220     10.39344      8.77661        -0.000224      0.000118     -3.827411
      0.00000      0.00000      8.77661         0.000004     -0.000006      3.352200
      0.00000     10.39344     12.03735         0.000026      0.000592      0.541596
      9.78220      0.00000     12.03735        -0.000775      0.000031     -0.845664
      9.78220     10.39344     15.29808        -0.001949      0.003376      0.724223
      0.00000      0.00000     15.29808         0.000063      0.000002     -0.868334
     13.04153     10.39352     18.49377        -0.000781      0.003396     -0.033499
      9.78191      0.00040     18.68573        -0.000265      0.000815     -0.012592
      9.78177     10.39416     22.04353        -0.004022     -0.000056     -0.201050
      0.00003     11.87822     21.68003         0.000003     -0.000034      0.000644
      9.78220      1.48478      8.77661        -0.000226     -0.000093     -3.827424
      0.00000      2.96955      8.77661        -0.000005     -0.000067      3.352161
      0.00000      1.48478     12.03735        -0.000033     -0.000609      0.541605
      9.78220      2.96955     12.03735        -0.000628     -0.000440     -0.845654
      9.78220      1.48478     15.29808        -0.001821     -0.003025      0.724026
      0.00000      2.96955     15.29808        -0.000183     -0.001591     -0.868257
      0.00130      1.48470     18.49377         0.000557     -0.003423     -0.033502
      9.78364      2.96906     18.68526        -0.001346     -0.004888     -0.018428
      9.78138      1.48458     22.04359        -0.003495     -0.000307     -0.200947
     13.04267      2.96920     21.67979         0.000112     -0.008186      0.004201
      9.78220      4.45433      8.77661        -0.000167     -0.000076     -3.827461
      0.00000      5.93911      8.77661         0.000002     -0.000001      3.352191
      0.00000      4.45433     12.03735        -0.000014     -0.000618      0.540827
      9.78220      5.93911     12.03735        -0.000480      0.000012     -0.845681
      9.78220      4.45433     15.29808        -0.003569      0.001095      0.723271
      0.00000      5.93911     15.29808         0.000061      0.000004     -0.868503
     13.04282      4.45428     18.49406         0.000316     -0.003611     -0.033900
      9.78259      5.93948     18.68583        -0.001855      0.000686     -0.022029
      9.78255      4.45331     22.03957         0.004005     -0.003092     -0.196243
      0.00004      5.93911     21.67962         0.000003      0.000016      0.006140
      3.26073      7.42389      8.77661         0.000158      0.000094     -3.827457
      6.52147      8.90866      8.77661        -0.000005      0.000219      3.352870
      6.52147      7.42389     12.03735         0.000016      0.002600      0.542287
      3.26073      8.90866     12.03735         0.000635      0.000462     -0.845656
      3.26073      7.42389     15.29808         0.003495     -0.001103      0.723303
      6.52147      8.90866     15.29808         0.000156     -0.006138     -0.857929
      6.52007      7.42140     18.49976        -0.000898     -0.003909     -0.037681
      3.25921      8.90915     18.68526         0.001274      0.004889     -0.018423
      3.26047      7.42491     22.03957        -0.004003      0.003181     -0.196227
      6.52173      8.90964     21.67334        -0.000066      0.001496      0.001144
      3.26073     10.39344      8.77661         0.000217      0.000100     -3.827398
      6.52147      0.00000      8.77661        -0.000005      0.000006      3.353069
      6.52147     10.39344     12.03735        -0.000036      0.001537      0.544252
      3.26073      0.00000     12.03735         0.000791     -0.000040     -0.845667
      3.26073     10.39344     15.29808         0.001738      0.003047      0.724071
[...]
      6.52147      5.93911     13.31396         0.000001     -0.000000     -0.244640
      4.53735      4.45433     12.03735         0.308226      0.000240      0.060577
      8.50559      4.45433     12.03735        -0.308208      0.000245      0.060606
      3.26073      5.93911     14.02147        -0.000656     -0.000081      0.085211
      3.26073      5.93911     16.57469         0.000061      0.000367     -0.213329
      7.79808      4.45433     15.29808        -0.707802      0.005712      0.116931
      5.24485      4.45433     15.29808         0.707760      0.005625      0.116909
      6.52149      5.93911     17.30671        -0.000010      0.000009      0.182945
      6.52149      5.93911     19.87383        -0.000011     -0.000006     -0.186571
      4.56505      4.45447     18.58108        -0.083231     -0.001086      0.035562
      8.47768      4.45451     18.58088         0.082025     -0.000849      0.035558
      3.25548      5.93925     20.55045        -0.003371     -0.000041      0.130943
      3.26840      5.93882     23.11959         0.012988     -0.000128     -0.285772
      7.74779      4.44795     21.98893        -0.171301      0.020825     -0.075708
      5.29488      4.44783     21.98829         0.171179      0.020278     -0.076019
    total drift:                                0.000305     -0.000013     -0.044843

  FREE ENERGIE OF THE ION-ELECTRON SYSTEM (eV)
  free  energy   TOTEN  =     -2644.39685936 eV

  energy  without entropy=    -2644.39685936  energy(sigma->0) =    -2644.39685936