 vasp.6.3.0 20Jan22 (build Apr  1 2022 16:44:48) complex
 executed on        HPECrayEX_GCC date 2023.02.21  23:06:01

 INCAR:
   SYSTEM = MgO-rocksalt
   ISMEAR = 0
   SIGMA = 0.05
   EDIFF = 1E-8
   ALGO = ALL
   ISTART = 0
   IBRION = 5
   POTIM = 0.01
   NFREE = 2
   ISYM = 0
   DIPOL = 0.5 0.5 0.5
   IDIPOL = 3
   LDIPOL = .TRUE.
   GGA = PE
   IVDW = 1
   VDW_C6 = 1.75 0.70 0.14 0.63 0.70
   VDW_R0 = 1.452 1.342 1.001 1.243 1.342
   ENCUT = 520
   PREC = Accurate
   LASPH = .TRUE.
   LREAL = Auto
   ISPIN = 1
   NELM = 200
   NELMIN = 8
   NCORE = 8
   KPAR = 1
   LWAVE = .FALSE.
   LCHARG = .FALSE.

 POTCAR:    PAW_PBE C 08Apr2002
 POTCAR:    PAW_PBE O 08Apr2002
 POTCAR:    PAW_PBE H 15Jun2001
 POTCAR:    PAW_PBE Mg_pv 13Apr2007
 POTCAR:    PAW_PBE O 08Apr2002
 POTCAR:    PAW_PBE C 08Apr2002
   VRHFIN =C: s2p2

   TITEL  = PAW_PBE C 08Apr2002
   POMASS =   12.011; ZVAL   =    4.000    mass and valenz
   ENMAX  =  400.000; ENMIN  =  300.000 eV

[...]

   TITEL  = PAW_PBE H 15Jun2001
   POMASS =    1.000; ZVAL   =    1.000    mass and valenz
   ENMAX  =  250.000; ENMIN  =  200.000 eV

   TITEL  = PAW_PBE Mg_pv 13Apr2007
   POMASS =   24.305; ZVAL   =    8.000    mass and valenz
   ENMAX  =  403.929; ENMIN  =  302.947 eV

   TITEL  = PAW_PBE O 08Apr2002
   POMASS =   16.000; ZVAL   =    6.000    mass and valenz
   ENMAX  =  400.000; ENMIN  =  300.000 eV

 Optimization of the real space projectors (new method)

 maximal supplied QI-value         = 25.13
 optimisation between [QCUT,QGAM] = [ 11.56, 23.12] = [ 37.43,149.72] Ry
 Optimized for a Real-space Cutoff    1.04 Angstroem

   l    n(q)    QCUT    max X(q) W(low)/X(q) W(high)/X(q)  e(spline)
   0      7    11.561   115.676    0.20E-03    0.60E-03    0.21E-06
   0      7    11.561    87.132    0.20E-03    0.59E-03    0.21E-06
   1      7    11.561     4.429    0.23E-03    0.35E-03    0.15E-06
   1      7    11.561     2.733    0.18E-03    0.25E-03    0.12E-06
 Optimization of the real space projectors (new method)

[...]

   l    n(q)    QCUT    max X(q) W(low)/X(q) W(high)/X(q)  e(spline)
   1      8    11.527     2.974    0.44E-04    0.56E-04    0.12E-06
   1      8    11.527     4.279    0.12E-03    0.12E-03    0.26E-06
   0      9    11.527    16.381    0.46E-04    0.64E-04    0.78E-07
   0      9    11.527     5.611    0.26E-04    0.43E-04    0.55E-07
   2      8    11.527     4.652    0.22E-03    0.72E-04    0.47E-07
 Optimization of the real space projectors (new method)

 maximal supplied QI-value         = 24.76
 optimisation between [QCUT,QGAM] = [ 11.64, 23.27] = [ 37.91,151.63] Ry
 Optimized for a Real-space Cutoff    1.14 Angstroem

   l    n(q)    QCUT    max X(q) W(low)/X(q) W(high)/X(q)  e(spline)
   0      8    11.635    20.381    0.10E-03    0.33E-03    0.24E-06
   0      8    11.635    15.268    0.11E-03    0.35E-03    0.26E-06
   1      7    11.635     5.964    0.24E-03    0.31E-03    0.30E-06
   1      7    11.635     5.382    0.22E-03    0.25E-03    0.26E-06
  PAW_PBE C 08Apr2002                   :
  PAW_PBE O 08Apr2002                   :
  PAW_PBE H 15Jun2001                   :
  PAW_PBE Mg_pv 13Apr2007               :
  PAW_PBE O 08Apr2002                   :

 POSCAR:  C  O  H Mg  O
  positions in direct lattice
 exchange correlation table for  LEXCH =        8
   RHO(1)=    0.500       N(1)  =     2000
   RHO(2)=  100.500       N(2)  =     4000

 ion  position               nearest neighbor table
   1  0.528  0.555  0.794-  12 1.10  11 1.10   9 1.10   5 1.44
   2  0.321  0.401  0.795-  16 1.10  15 1.10  13 1.10   6 1.44
   3  0.474  0.195  0.795-  20 1.10  19 1.10  17 1.10   7 1.44
   4  0.680  0.347  0.794-  24 1.10  23 1.10  21 1.10   8 1.44
   5  0.508  0.487  0.756-  10 1.00   1 1.44
   6  0.388  0.382  0.756-  14 1.00   2 1.44
   7  0.492  0.263  0.756-  18 1.00   3 1.44
   8  0.612  0.367  0.756-  22 1.00   4 1.44
   9  0.519  0.542  0.844-   1 1.10
  10  0.552  0.448  0.759-   5 1.00
  11  0.590  0.572  0.786-   1 1.10
  12  0.489  0.603  0.779-   1 1.10
  13  0.334  0.392  0.845-   2 1.10
  14  0.427  0.427  0.759-   6 1.00
  15  0.303  0.463  0.787-   2 1.10
  16  0.272  0.362  0.780-   2 1.10
  17  0.483  0.209  0.845-   3 1.10
  18  0.448  0.302  0.759-   7 1.00
  19  0.412  0.177  0.787-   3 1.10
  20  0.513  0.147  0.780-   3 1.10
  21  0.667  0.355  0.844-   4 1.10
  22  0.573  0.323  0.758-   8 1.00
  23  0.696  0.285  0.786-   4 1.10
  24  0.729  0.384  0.779-   4 1.10
  25  0.125  0.000  0.351- 153 2.12 155 2.12 156 2.12 172 2.12 195 2.12
  26  0.250  0.125  0.351- 154 2.12 155 2.12 156 2.12 164 2.12 171 2.12
  27  0.125  0.125  0.450- 159 2.11 155 2.12 153 2.12 154 2.12 161 2.12 170 2.12
  28  0.250  0.000  0.450- 160 2.11 156 2.12 153 2.12 154 2.12 169 2.12 194 2.12
  29  0.125  1.000  0.550- 159 2.12 160 2.12 199 2.12 176 2.12 153 2.12 157 2.14
  30  0.250  0.125  0.550- 168 2.11 175 2.11 154 2.12 159 2.12 160 2.12 158 2.15
  31  0.125  0.125  0.647- 159 2.10 158 2.11 174 2.12 157 2.12 165 2.12
  32  0.250  1.000  0.647- 160 2.09 158 2.11 198 2.11 173 2.12 157 2.12
  33  0.125  0.250  0.351- 161 2.12 155 2.12 163 2.12 164 2.12 180 2.12
  34  0.250  0.375  0.351- 162 2.12 163 2.12 164 2.12 179 2.12 188 2.12
  35  0.125  0.375  0.450- 167 2.11 163 2.12 161 2.12 162 2.12 178 2.12 185 2.12
  36  0.250  0.250  0.450- 168 2.11 164 2.12 162 2.12 154 2.12 161 2.12 177 2.12
  37  0.125  0.250  0.550- 168 2.11 184 2.12 167 2.12 161 2.12 159 2.12 165 2.15
  38  0.250  0.375  0.550- 183 2.10 168 2.12 192 2.12 162 2.13 167 2.13 166 2.15
  39  0.125  0.375  0.647- 167 2.09 166 2.10 182 2.11 189 2.12 165 2.12
  40  0.250  0.250  0.647- 168 2.08 181 2.09 165 2.12 158 2.12 166 2.12
  41  0.375  0.000  0.351- 169 2.12 156 2.12 171 2.12 211 2.12 236 2.12
  42  0.000  0.125  0.351- 170 2.12 155 2.12 172 2.12 180 2.12 235 2.12
  43  0.375  0.125  0.450- 175 2.11 171 2.12 154 2.12 169 2.12 177 2.12 234 2.12
  44  0.000  0.000  0.450- 176 2.11 172 2.12 153 2.12 170 2.12 210 2.12 233 2.12
  45  0.375  1.000  0.550- 175 2.11 215 2.12 240 2.12 169 2.12 160 2.12 173 2.15
  46  0.000  0.125  0.550- 239 2.11 159 2.11 176 2.12 184 2.12 170 2.12 174 2.14
  47  0.375  0.125  0.647- 175 2.08 181 2.10 173 2.12 158 2.12 238 2.12
  48  0.000  1.000  0.648- 176 2.10 237 2.11 157 2.11 214 2.12 174 2.12
  49  0.375  0.250  0.351- 177 2.12 171 2.12 164 2.12 179 2.12 244 2.12
  50  0.000  0.375  0.351- 178 2.12 163 2.12 180 2.12 204 2.12 243 2.12
  51  0.375  0.375  0.450- 179 2.12 177 2.12 162 2.12 201 2.12 242 2.12 183 2.13
  52  0.000  0.250  0.450- 184 2.11 180 2.12 178 2.12 161 2.12 170 2.12 241 2.12
  53  0.376  0.251  0.550- 248 2.11 183 2.11 181 2.12 168 2.13 175 2.13 177 2.13
  54  0.000  0.375  0.550- 247 2.11 167 2.11 208 2.12 178 2.12 184 2.12 182 2.15
  55  0.375  0.375  0.651- 246 2.13 166 2.13 181 2.14 205 2.15 183 2.16
  56  0.000  0.250  0.647- 184 2.09 165 2.11 245 2.11 174 2.12 182 2.12
  57  0.125  0.500  0.351- 185 2.12 163 2.12 187 2.12 188 2.12 204 2.12
  58  0.250  0.625  0.351- 186 2.12 187 2.12 188 2.12 196 2.12 203 2.12
  59  0.125  0.625  0.450- 191 2.11 187 2.12 185 2.12 186 2.12 193 2.12 202 2.12
  60  0.250  0.500  0.450- 192 2.11 188 2.12 186 2.12 162 2.12 185 2.12 201 2.12
[...]
 266  0.500  0.625  0.450- 138 2.12 123 2.12  75 2.12 140 2.12 148 2.12 142 2.13
 267  0.875  0.625  0.351- 139 2.12 122 2.12 137 2.12  74 2.12 145 2.12
 268  0.500  0.500  0.351- 140 2.12 114 2.12 121 2.12 138 2.12  73 2.12
 269  0.875  0.500  0.650-  80 2.11 143 2.12 128 2.12 119 2.12 141 2.15
 270  0.500  0.626  0.650- 152 2.10  79 2.12 127 2.12 144 2.13 142 2.14
 271  0.875  0.625  0.549- 143 2.10 139 2.11  78 2.11 149 2.12 126 2.12 141 2.12
 272  0.500  0.500  0.550- 142 2.10 125 2.11  77 2.11 118 2.12 140 2.13 144 2.16
 273  0.875  0.750  0.450- 145 2.12 132 2.12 139 2.12  84 2.12 147 2.12 149 2.12
 274  0.500  0.875  0.450- 146 2.12 108 2.12 131 2.12  83 2.12 148 2.12 150 2.12
 275  0.875  0.875  0.351- 147 2.12 105 2.12 130 2.12 145 2.12  82 2.12
 276  0.500  0.750  0.351- 148 2.12 129 2.12 138 2.12 146 2.12  81 2.12
 277  0.875  0.750  0.650-  88 2.11 151 2.11 143 2.12 136 2.12 149 2.14
 278  0.500  0.875  0.650- 152 2.11 112 2.11 135 2.12  87 2.12 150 2.15
 279  0.875  0.875  0.549- 151 2.10 147 2.11  86 2.12 109 2.12 149 2.12 134 2.12
 280  0.500  0.750  0.549- 152 2.09 148 2.11 150 2.11 133 2.12  85 2.12 142 2.13

IMPORTANT INFORMATION: All symmetrisations will be switched off!
NOSYMM: (Re-)initialisation of all symmetry stuff for point group C_1.

                                     Primitive cell

  volume of cell :    6122.6422

  direct lattice vectors                    reciprocal lattice vectors
    16.934285261  0.000000000  0.000000000     0.059051798  0.000000000  0.000000000
     0.000000000 16.934285261  0.000000000     0.000000000  0.059051798  0.000000000
     0.000000000  0.000000000 21.350356973     0.000000000  0.000000000  0.046837624

  length of vectors
    16.934285261 16.934285261 21.350356973     0.059051798  0.059051798  0.046837624

  position of ions in fractional coordinates (direct lattice)
     0.527697817  0.554917398  0.793855915
     0.320743285  0.401023348  0.794525226
     0.473900184  0.195109725  0.794567180
     0.679838993  0.346598032  0.793859388
     0.508155801  0.487029642  0.756249271
     0.388337104  0.382453515  0.756302694
     0.492348468  0.262579403  0.756168770
     0.612200349  0.366804741  0.756201248
     0.519004007  0.542257809  0.844005403
     0.552315633  0.447850318  0.758695887
     0.589511506  0.572185211  0.785555578
     0.489273453  0.603463142  0.778871865
     0.334026370  0.391850155  0.844521562
     0.427366719  0.426739399  0.758858400
     0.302853723  0.462768635  0.786793976
     0.272350605  0.362353950  0.779612259
     0.483293388  0.208558700  0.844518117
     0.448127493  0.301720371  0.758789701
     0.412118886  0.177179305  0.787036137
     0.512525746  0.146671172  0.779673154
     0.667211098  0.355460994  0.843993279
     0.572733810  0.322854287  0.758497488
     0.696444743  0.284596584  0.785609300
     0.728806066  0.384494568  0.778903471
     0.125000000  0.000000000  0.351282183
     0.250000000  0.125000000  0.351282183
     0.125000000  0.125000000  0.450427394
     0.250000000  0.000000000  0.450427394
     0.124961126  0.999958047  0.549684610
     0.249976803  0.124972072  0.549552161
     0.124889510  0.124785179  0.647495998
     0.249805217  0.999854149  0.647465063
     0.125000000  0.250000000  0.351282183
     0.250000000  0.375000000  0.351282183
     0.125000000  0.375000000  0.450427394
     0.250000000  0.250000000  0.450427394
     0.124957007  0.250003723  0.549594080
     0.250468305  0.374988454  0.549977695
     0.124845454  0.375017262  0.647294198
     0.249768083  0.249646609  0.646861069
     0.375000000  0.000000000  0.351282183
     0.000000000  0.125000000  0.351282183
     0.375000000  0.125000000  0.450427394
     0.000000000  0.000000000  0.450427394
     0.375012780  0.999937819  0.549575986
     0.000007582  0.124920898  0.549659781
     0.374649623  0.124724989  0.646801648
     0.000010119  0.999902407  0.647579627
     0.375000000  0.250000000  0.351282183
[...]
 23X     0.035099    0.034591    0.035412   -0.004746    0.003148    0.005228    0.010655   -0.009129    0.007732    5.425824   -4.457236   -1.164044    0.135117   -0.166068   -0.009389    0.013659    0.021509   -0.000789   -0.013620    0.058025   -0.009538    1.880249   -2.903390    0.546940   -0.001033   -0.003411   -0.006269   -0.182485    0.268749    0.019028   -0.006653   -0.004810    0.000019   -0.004081   -0.012464   -0.008472    0.000087   -0.001140   -0.001128   -0.033879   -0.021293   -0.002538   -0.000988   -0.000162   -0.000392    0.001805   -0.000044   -0.000574    0.005721   -0.001668   -0.006845    0.003718   -0.033947   -0.000746   -0.004416    0.004812   -0.004216    0.003680    0.010775    0.005497    0.008786   -0.697896   -0.264540   -0.173839   -0.214993   -0.020216   -6.386221    6.146369    0.558184   -0.710285    2.025851    0.418874
 23Y    -0.009489   -0.012192   -0.018200    0.008280   -0.002053   -0.006249   -0.007019    0.020333   -0.019875   -5.095958   26.304216    4.164521   -0.049924    0.059221   -0.005875   -0.019363   -0.006515   -0.001175   -0.058445   -0.053850    0.007995   -0.861715    0.290438   -0.379201    0.002612    0.000998    0.001306    0.098506   -0.120520    0.012928    0.001136   -0.003906    0.003637   -0.002064    0.004397    0.004218   -0.000085    0.000722    0.000643    0.023115    0.012563    0.003621   -0.000148    0.001075    0.000940   -0.001297   -0.000567    0.000548   -0.003207    0.000054    0.005857    0.006352    0.000792    0.003240   -0.000674   -0.006782    0.005389    0.000012   -0.005338   -0.001210    0.086672    0.246590    0.014852    0.150763    0.025253   -0.074381    6.147291  -28.128497   -4.196205   -0.427272    1.443478    0.468340
 23Z     0.018814    0.025377    0.029952   -0.004784    0.001223    0.004423   -0.000842   -0.000952   -0.002491   -1.204627    4.614307    5.347270    0.088270   -0.114963   -0.007380    0.012149    0.002399    0.002343    0.015452    0.012095    0.019284    1.255592   -2.172641    0.010492    0.003931   -0.004582   -0.007847   -0.115383    0.171339    0.026022   -0.005172   -0.003957    0.001753   -0.002623   -0.007879   -0.008774    0.000621    0.000229   -0.000234   -0.015084   -0.007522   -0.002095    0.000416   -0.000971   -0.000605    0.000681    0.000273   -0.001346   -0.005720    0.002423    0.005796   -0.010689    0.002585   -0.001065    0.003750   -0.000181    0.001980   -0.000929   -0.002755   -0.007350   -0.575274    2.666395    0.325910   -0.149386   -0.060604   -0.095570    0.555415   -4.188093   -5.386276    0.167691   -0.916726   -0.194529
 24X     0.015558    0.024741    0.011515   -0.007097    0.000392    0.006258    0.018932   -0.025121    0.030959   17.603930   10.764939   -5.548196    0.015168   -0.051168   -0.000544    0.011825   -0.011255   -0.000514    0.083159    0.113022   -0.017146    2.825249    1.526033    0.129493    0.000734   -0.000941   -0.003032   -0.016290    0.085664   -0.011565   -0.005033   -0.010106    0.002508   -0.005107   -0.004298   -0.001406    0.000037    0.000427   -0.001068   -0.001108    0.009936   -0.001060    0.001749   -0.001295   -0.000669    0.000524    0.000155   -0.000454    0.001542    0.000655   -0.005215   -0.025067    0.009607   -0.006259    0.003971    0.012427   -0.008051   -0.000328    0.004381    0.000176    0.212913    0.363385   -0.232539    0.130383   -0.470734    0.128739   -0.709881   -0.427288    0.166888  -20.216761  -11.915612    5.449108
 24Y    -0.001518   -0.000359    0.003421   -0.002947    0.000322    0.001519   -0.010131    0.002663   -0.005331   11.469614   13.730785   -4.537410    0.014345   -0.003914   -0.001533    0.006354    0.000305    0.000326   -0.016385   -0.032643    0.011764   -0.868861   -0.799844    0.228990    0.000054   -0.000389   -0.000456   -0.030117    0.009113    0.009749   -0.000249    0.003603   -0.000834    0.001895   -0.000121   -0.000983    0.000135    0.000003   -0.000060   -0.004858   -0.004640   -0.000790    0.000031   -0.000543   -0.000276    0.000106    0.000451   -0.000208   -0.003311    0.001088    0.003781   -0.002405    0.006314   -0.000130    0.002334   -0.004418    0.002803   -0.001946   -0.005622   -0.003729   -0.535981   -0.392392    0.273348   -0.162209    0.011985   -0.090517    2.026606    1.442907   -0.916981  -11.918919  -14.022050    5.127271
 24Z    -0.004037   -0.004077    0.005945   -0.002770    0.000052    0.003606    0.014453   -0.013044    0.029187   -6.467457   -5.059186    6.734178    0.016441   -0.015159    0.013725    0.009206   -0.002084    0.003248    0.056509    0.085056   -0.014065    2.222726    1.322876   -0.295735   -0.002692   -0.001219    0.001538   -0.027412    0.039592   -0.017259    0.001050    0.005249   -0.006913    0.003545   -0.000050   -0.001596    0.001003   -0.000443    0.000188   -0.009039   -0.001769   -0.001879    0.000576   -0.000568   -0.001294    0.000473    0.000139   -0.001332    0.003068    0.002461   -0.006136   -0.015174    0.004561   -0.003267    0.003945    0.008398   -0.009011   -0.001040    0.001329   -0.001614   -1.923484   -1.665621    0.606590    0.214612   -0.256499    0.163985    0.418967    0.467356   -0.194051    5.447204    5.122408   -6.922934

 Eigenvectors and eigenvalues of the dynamical matrix

   1 f  =   97.431798 THz   612.182043 2PiTHz 3249.974962 cm-1   402.945359 meV
             X         Y         Z           dx          dy          dz
      8.936185  9.397130 16.949107    -0.001902    0.011553    0.005935
      5.431558  6.791044 16.963397     0.010603    0.001888   -0.005238
      8.025161  3.304044 16.964293     0.001790   -0.009739    0.005259
     11.512587  5.869390 16.949181    -0.010817   -0.001672   -0.005948
      8.605255  8.247499 16.146192    -0.097095    0.085772   -0.006127
      6.576211  6.476577 16.147332     0.084420    0.095539    0.006174
      8.337569  4.446595 16.144473     0.082399   -0.072691   -0.005761
     10.367175  6.211576 16.145167    -0.074738   -0.083847    0.005155
      8.788962  9.182748 18.019817     0.001307   -0.000538   -0.022476
      9.353070  7.584025 16.198428     0.389528   -0.344088    0.025823
      9.982956  9.689548 16.771892    -0.020166   -0.012656   -0.001633
      8.285496 10.219217 16.629192     0.018168   -0.030007    0.004747
      5.656498  6.635702 18.030837    -0.000399   -0.001367    0.020785
      7.237150  7.226527 16.201898    -0.336418   -0.383532   -0.027375
      5.128611  7.836656 16.798332    -0.011748    0.018448    0.001686
      4.612063  6.136205 16.645000    -0.028618   -0.017470   -0.004444
      8.184228  3.531793 18.030763    -0.001406    0.000192   -0.019621
      7.588719  5.109419 16.200431    -0.331618    0.291881    0.024532
      6.978939  3.000405 16.803502     0.017057    0.011053   -0.001796
      8.679257  2.483771 16.646300    -0.015607    0.025600    0.003976
     11.298743  6.019478 18.019558     0.000344    0.001322    0.021364
      9.698838  5.467307 16.194192     0.302856    0.337208   -0.020836
     11.793794  4.819440 16.773039     0.011810   -0.019046    0.001695
     12.341810  6.511141 16.629867     0.027223    0.016115   -0.004313
      2.116786  0.000000  7.500000            0           0           0
      4.233571  2.116786  7.500000            0           0           0
      2.116786  2.116786  9.616786            0           0           0
      4.233571  0.000000  9.616786            0           0           0
      2.116127 16.933575 11.735963            0           0           0
      4.233178  2.116313 11.733135            0           0           0
      2.114915  2.113148 13.824271            0           0           0
      4.230273 16.931815 13.823610            0           0           0
      2.116786  4.233571  7.500000            0           0           0
      4.233571  6.350357  7.500000            0           0           0
      2.116786  6.350357  9.616786            0           0           0
      4.233571  4.233571  9.616786            0           0           0
      2.116058  4.233634 11.734030            0           0           0
      4.241502  6.350161 11.742220            0           0           0
      2.114169  6.350649 13.819962            0           0           0
      4.229644  4.227587 13.810715            0           0           0
      6.350357  0.000000  7.500000            0           0           0
      0.000000  2.116786  7.500000            0           0           0
      6.350357  2.116786  9.616786            0           0           0
      0.000000  0.000000  9.616786            0           0           0
      6.350573 16.933232 11.733643            0           0           0
      0.000128  2.115446 11.735433            0           0           0
      6.344424  2.112129 13.809446            0           0           0
      0.000171 16.932633 13.826056            0           0           0
      6.350357  4.233571  7.500000            0           0           0
      0.000000  6.350357  7.500000            0           0           0
      6.350357  6.350357  9.616786            0           0           0
      0.000000  4.233571  9.616786            0           0           0
      6.358865  4.242855 11.751446            0           0           0
      0.000239  6.350809 11.734524            0           0           0
      6.342690  6.349817 13.902876            0           0           0
      0.000317  4.231111 13.823793            0           0           0
      2.116786  8.467143  7.500000            0           0           0
      4.233571 10.583928  7.500000            0           0           0
      2.116786 10.583928  9.616786            0           0           0
      4.233571  8.467143  9.616786            0           0           0
[...]
      8.467143 10.583928  9.616786            0           0           0
     14.817500 10.583928  7.500000            0           0           0
      8.467143  8.467143  7.500000            0           0           0
     14.821817  8.471460 13.881797            0           0           0
      8.467027 10.607696 13.885651            0           0           0
     14.819751 10.586095 11.729337            0           0           0
      8.467917  8.473915 11.744178            0           0           0
     14.817500 12.700714  9.616786            0           0           0
      8.467143 14.817500  9.616786            0           0           0
     14.817500 14.817500  7.500000            0           0           0
      8.467143 12.700714  7.500000            0           0           0
     14.821336 12.703875 13.880688            0           0           0
      8.467373 14.817498 13.880492            0           0           0
     14.819052 14.817580 11.729454            0           0           0
      8.467434 12.704222 11.728627            0           0           0

[...]

  72 f  =    0.227897 THz     1.431921 2PiTHz    7.601838 cm-1     0.942507 meV
             X         Y         Z           dx          dy          dz
      8.936185  9.397130 16.949107    -0.025594    0.044644   -0.000672
      5.431558  6.791044 16.963397     0.025720    0.011180    0.003348
      8.025161  3.304044 16.964293     0.727740    0.150750    0.298442
     11.512587  5.869390 16.949181     0.035751    0.003364   -0.047674
      8.605255  8.247499 16.146192     0.014625    0.031655    0.008904
      6.576211  6.476577 16.147332     0.036486   -0.039573    0.031398
      8.337569  4.446595 16.144473     0.182426    0.100138    0.004769
     10.367175  6.211576 16.145167     0.062905    0.100244   -0.040651
      8.788962  9.182748 18.019817    -0.001524    0.012238    0.000528
      9.353070  7.584025 16.198428     0.014466    0.019581   -0.001573
      9.982956  9.689548 16.771892    -0.011343    0.025056   -0.003438
      8.285496 10.219217 16.629192    -0.017749    0.005201    0.001263
      5.656498  6.635702 18.030837     0.003764    0.015888    0.003607
      7.237150  7.226527 16.201898     0.010894   -0.011275    0.003860
      5.128611  7.836656 16.798332     0.010869    0.002015   -0.012940
      4.612063  6.136205 16.645000     0.006629    0.001409    0.006813
      8.184228  3.531793 18.030763     0.213569    0.133442    0.066546
      7.588719  5.109419 16.200431     0.010586   -0.016215    0.024788
      6.978939  3.000405 16.803502     0.245450   -0.104402    0.137767
      8.679257  2.483771 16.646300     0.305718    0.104923    0.124977
     11.298743  6.019478 18.019558     0.022148    0.020951   -0.014076
      9.698838  5.467307 16.194192    -0.000006    0.035158   -0.013605
     11.793794  4.819440 16.773039    -0.022920   -0.010078   -0.002153
     12.341810  6.511141 16.629867     0.028547   -0.029133   -0.027347
      2.116786  0.000000  7.500000            0           0           0
      4.233571  2.116786  7.500000            0           0           0
      2.116786  2.116786  9.616786            0           0           0
      4.233571  0.000000  9.616786            0           0           0
      2.116127 16.933575 11.735963            0           0           0
      4.233178  2.116313 11.733135            0           0           0
      2.114915  2.113148 13.824271            0           0           0
      4.230273 16.931815 13.823610            0           0           0
      2.116786  4.233571  7.500000            0           0           0
      4.233571  6.350357  7.500000            0           0           0
      2.116786  6.350357  9.616786            0           0           0
      4.233571  4.233571  9.616786            0           0           0
      2.116058  4.233634 11.734030            0           0           0
      4.241502  6.350161 11.742220            0           0           0
      2.114169  6.350649 13.819962            0           0           0
      4.229644  4.227587 13.810715            0           0           0
      6.350357  0.000000  7.500000            0           0           0
      0.000000  2.116786  7.500000            0           0           0
      6.350357  2.116786  9.616786            0           0           0
      0.000000  0.000000  9.616786            0           0           0
      6.350573 16.933232 11.733643            0           0           0
      0.000128  2.115446 11.735433            0           0           0
      6.344424  2.112129 13.809446            0           0           0
      0.000171 16.932633 13.826056            0           0           0
      6.350357  4.233571  7.500000            0           0           0
      0.000000  6.350357  7.500000            0           0           0
      6.350357  6.350357  9.616786            0           0           0
      0.000000  4.233571  9.616786            0           0           0
      6.358865  4.242855 11.751446            0           0           0
      0.000239  6.350809 11.734524            0           0           0
      6.342690  6.349817 13.902876            0           0           0
      0.000317  4.231111 13.823793            0           0           0
      2.116786  8.467143  7.500000            0           0           0
      4.233571 10.583928  7.500000            0           0           0
      2.116786 10.583928  9.616786            0           0           0
      4.233571  8.467143  9.616786            0           0           0
[...]
      8.467143 10.583928  9.616786            0           0           0
     14.817500 10.583928  7.500000            0           0           0
      8.467143  8.467143  7.500000            0           0           0
     14.821817  8.471460 13.881797            0           0           0
      8.467027 10.607696 13.885651            0           0           0
     14.819751 10.586095 11.729337            0           0           0
      8.467917  8.473915 11.744178            0           0           0
     14.817500 12.700714  9.616786            0           0           0
      8.467143 14.817500  9.616786            0           0           0
     14.817500 14.817500  7.500000            0           0           0
      8.467143 12.700714  7.500000            0           0           0
     14.821336 12.703875 13.880688            0           0           0
      8.467373 14.817498 13.880492            0           0           0
     14.819052 14.817580 11.729454            0           0           0
      8.467434 12.704222 11.728627            0           0           0

 Finite differences POTIM=   1.0000000000000000E-002