 vasp.6.3.0 20Jan22 (build Apr  1 2022 16:44:48) complex
 executed on        HPECrayEX_GCC date 2022.11.13  07:56:26

 INCAR:
   SYSTEM = MgO-rocksalt
   ISMEAR = 0
   SIGMA = 0.05
   EDIFF = 1E-6
   ALGO = ALL
   ISTART = 0
   IBRION = -1
   NSW = 0
   ISYM = 0
   DIPOL = 0.5 0.5 0.5
   IDIPOL = 3
   LDIPOL = .TRUE.
   LHFCALC = .TRUE.
   GGA = B5
   AEXX = 0.2
   AGGAX = 0.72
   AGGAC = 0.81
   ALDAC = 0.19
   IVDW = 1
   VDW_S6 = 1.05
   VDW_C6 = 1.75 0.70 0.63 0.70
   VDW_R0 = 1.452 1.342 1.243 1.342
   ENCUT = 600
   PREC = Accurate
   LASPH = .TRUE.
   LREAL = .FALSE.
   ISPIN = 1
   NELM = 200
   NELMIN = 8
   NCORE = 8
   KPAR = 1
   LWAVE = .FALSE.
   LCHARG = .FALSE.

 POTCAR:    PAW_PBE C 08Apr2002
 POTCAR:    PAW_PBE O 08Apr2002
 POTCAR:    PAW_PBE Mg_pv 13Apr2007
 POTCAR:    PAW_PBE O 08Apr2002
 POTCAR:    PAW_PBE C 08Apr2002
   VRHFIN =C: s2p2

   TITEL  = PAW_PBE C 08Apr2002
   POMASS =   12.011; ZVAL   =    4.000    mass and valenz
   ENMAX  =  400.000; ENMIN  =  300.000 eV

[...]

   TITEL  = PAW_PBE Mg_pv 13Apr2007
   POMASS =   24.305; ZVAL   =    8.000    mass and valenz
   ENMAX  =  403.929; ENMIN  =  302.947 eV

   TITEL  = PAW_PBE O 08Apr2002
   POMASS =   16.000; ZVAL   =    6.000    mass and valenz
   ENMAX  =  400.000; ENMIN  =  300.000 eV

  PAW_PBE C 08Apr2002                   :
  PAW_PBE O 08Apr2002                   :
  PAW_PBE Mg_pv 13Apr2007               :
  PAW_PBE O 08Apr2002                   :

 POSCAR:  C  O Mg  O
  positions in direct lattice
 exchange correlation table for  LEXCH =       12
   RHO(1)=    0.500       N(1)  =     2000
   RHO(2)=  100.500       N(2)  =     4000

 ion  position               nearest neighbor table
   1  0.625  0.625  0.770-   3 1.18   2 1.18
   2  0.526  0.526  0.771-   1 1.18
   3  0.724  0.724  0.771-   1 1.18
   4  0.250  0.000  0.352-  36 2.11  38 2.11  39 2.11  46 2.11  55 2.11
   5  0.500  0.250  0.352-  37 2.11  38 2.11  39 2.11  47 2.11  54 2.11
   6  0.250  0.250  0.451-  38 2.11  37 2.11  36 2.11  44 2.11  53 2.11  42 2.11
   7  0.500  0.000  0.451-  39 2.11  37 2.11  36 2.11  45 2.11  52 2.11  43 2.11
   8  0.250  1.000  0.550-  43 2.11  50 2.11  59 2.11  42 2.11  36 2.12  40 2.14
   9  0.500  0.250  0.550-  42 2.11  58 2.11  51 2.11  43 2.11  37 2.12  41 2.13
  10  0.250  0.250  0.648-  42 2.10  40 2.11  57 2.11  41 2.11  48 2.11
  11  0.500  0.000  0.648-  41 2.10  43 2.10  40 2.11  56 2.11  49 2.12
  12  0.250  0.500  0.352-  44 2.11  38 2.11  46 2.11  47 2.11  63 2.11
  13  0.500  0.750  0.352-  45 2.11  39 2.11  46 2.11  47 2.11  62 2.11
  14  0.250  0.750  0.451-  46 2.11  44 2.11  45 2.11  36 2.11  61 2.11  50 2.11
  15  0.500  0.500  0.451-  47 2.11  44 2.11  45 2.11  37 2.11  60 2.11  51 2.12
  16  0.250  0.500  0.550-  42 2.11  50 2.11  51 2.11  67 2.11  44 2.12  48 2.13
  17  0.500  0.750  0.550-  51 2.11  66 2.11  50 2.11  43 2.11  45 2.12  49 2.15
  18  0.250  0.750  0.648-  65 2.10  50 2.10  40 2.11  48 2.11  49 2.12
  19  0.498  0.498  0.649-  48 2.10  41 2.10  51 2.11  49 2.13  64 2.13
  20  0.750  0.000  0.352-  52 2.11  39 2.11  54 2.11  55 2.11  62 2.11
  21  0.000  0.250  0.352-  53 2.11  38 2.11  54 2.11  55 2.11  63 2.11
  22  0.750  0.250  0.451-  54 2.11  52 2.11  53 2.11  37 2.11  60 2.11  58 2.11
  23  0.000  0.000  0.451-  55 2.11  52 2.11  53 2.11  36 2.11  61 2.11  59 2.11
  24  0.750  0.000  0.550-  59 2.11  43 2.11  66 2.11  58 2.11  52 2.12  56 2.13
  25  1.000  0.250  0.550-  67 2.11  58 2.11  59 2.11  42 2.11  53 2.12  57 2.14
  26  0.750  0.250  0.648-  56 2.10  58 2.10  57 2.11  41 2.11  64 2.12
  27  0.000  0.000  0.648-  59 2.10  57 2.11  40 2.11  56 2.11  65 2.11
  28  0.750  0.500  0.352-  60 2.11  54 2.11  47 2.11  62 2.11  63 2.11
  29  0.000  0.750  0.352-  61 2.11  55 2.11  46 2.11  62 2.11  63 2.11
  30  0.750  0.750  0.451-  62 2.11  52 2.11  60 2.11  61 2.11  45 2.11  66 2.12
  31  0.000  0.500  0.451-  63 2.11  53 2.11  60 2.11  61 2.11  44 2.11  67 2.11
  32  0.750  0.500  0.550-  51 2.11  66 2.11  58 2.11  67 2.11  60 2.12  64 2.15
  33  0.000  0.750  0.550-  59 2.11  67 2.11  66 2.11  50 2.11  61 2.12  65 2.13
  34  0.752  0.752  0.649-  65 2.10  56 2.10  66 2.11  49 2.13  64 2.13
  35  0.000  0.500  0.648-  48 2.10  67 2.10  57 2.11  65 2.11  64 2.12
  36  0.250  0.000  0.451-   4 2.11   6 2.11   7 2.11  14 2.11  23 2.11   8 2.12
  37  0.500  0.250  0.451-   5 2.11   6 2.11   7 2.11  15 2.11  22 2.11   9 2.12
  38  0.250  0.250  0.352-   6 2.11   5 2.11   4 2.11  12 2.11  21 2.11
  39  0.500  0.000  0.352-   7 2.11   5 2.11   4 2.11  13 2.11  20 2.11
  40  0.250  1.000  0.650-  10 2.11  27 2.11  18 2.11  11 2.11   8 2.14
  41  0.500  0.249  0.650-  19 2.10  11 2.10  10 2.11  26 2.11   9 2.13
  42  0.250  0.250  0.550-  10 2.10  25 2.11   8 2.11  16 2.11   9 2.11   6 2.11
  43  0.500  1.000  0.550-  11 2.10   8 2.11  17 2.11  24 2.11   9 2.11   7 2.11
  44  0.250  0.500  0.451-  12 2.11   6 2.11  14 2.11  15 2.11  31 2.11  16 2.12
  45  0.500  0.750  0.451-  13 2.11   7 2.11  14 2.11  15 2.11  30 2.11  17 2.12
  46  0.250  0.750  0.352-  14 2.11  12 2.11  13 2.11   4 2.11  29 2.11
  47  0.500  0.500  0.352-  15 2.11  12 2.11  13 2.11   5 2.11  28 2.11
  48  0.249  0.500  0.650-  19 2.10  35 2.10  10 2.11  18 2.11  16 2.13
  49  0.500  0.750  0.651-  18 2.12  11 2.12  19 2.13  34 2.13  17 2.15
  50  0.250  0.750  0.550-  18 2.10   8 2.11  17 2.11  16 2.11  33 2.11  14 2.11
  51  0.500  0.500  0.550-  17 2.11  32 2.11  19 2.11  16 2.11   9 2.11  15 2.12
  52  0.750  0.000  0.451-  20 2.11   7 2.11  22 2.11  23 2.11  30 2.11  24 2.12
  53  0.000  0.250  0.451-  21 2.11   6 2.11  22 2.11  23 2.11  31 2.11  25 2.12
  54  0.750  0.250  0.352-  22 2.11  20 2.11  21 2.11   5 2.11  28 2.11
  55  0.000  0.000  0.352-  23 2.11  20 2.11  21 2.11   4 2.11  29 2.11
  56  0.750  0.001  0.650-  34 2.10  26 2.10  27 2.11  11 2.11  24 2.13
  57  1.000  0.250  0.650-  10 2.11  27 2.11  26 2.11  35 2.11  25 2.14
  58  0.750  0.250  0.550-  26 2.10  25 2.11  32 2.11   9 2.11  24 2.11  22 2.11
  59  0.000  0.000  0.550-  27 2.10   8 2.11  25 2.11  33 2.11  24 2.11  23 2.11
  60  0.750  0.500  0.451-  28 2.11  22 2.11  15 2.11  30 2.11  31 2.11  32 2.12
  61  0.000  0.750  0.451-  29 2.11  23 2.11  14 2.11  30 2.11  31 2.11  33 2.12
  62  0.750  0.750  0.352-  30 2.11  20 2.11  28 2.11  29 2.11  13 2.11
  63  0.000  0.500  0.352-  31 2.11  21 2.11  28 2.11  29 2.11  12 2.11
  64  0.750  0.500  0.651-  26 2.12  35 2.12  19 2.13  34 2.13  32 2.15
  65  0.001  0.750  0.650-  34 2.10  18 2.10  27 2.11  35 2.11  33 2.13
  66  0.750  0.750  0.550-  17 2.11  32 2.11  34 2.11  24 2.11  33 2.11  30 2.12
  67  1.000  0.500  0.550-  35 2.10  25 2.11  32 2.11  33 2.11  16 2.11  31 2.11

IMPORTANT INFORMATION: All symmetrisations will be switched off!
NOSYMM: (Re-)initialisation of all symmetry stuff for point group C_1.

                                     Primitive cell

  volume of cell :    1519.6535

  direct lattice vectors                    reciprocal lattice vectors
     8.440582262  0.000000000  0.000000000     0.118475239  0.000000000  0.000000000
     0.000000000  8.440582262  0.000000000     0.000000000  0.118475239  0.000000000
     0.000000000  0.000000000 21.330436697     0.000000000  0.000000000  0.046881366

  length of vectors
     8.440582262  8.440582262 21.330436697     0.118475239  0.118475239  0.046881366

  position of ions in fractional coordinates (direct lattice)
     0.625003945  0.625003900  0.769509575
     0.526421958  0.526422043  0.770772848
     0.723577374  0.723577193  0.770772271
     0.250000000  0.000000000  0.351610242
     0.500000000  0.250000000  0.351610242
     0.250000000  0.250000000  0.450536747
     0.500000000  0.000000000  0.450536747
     0.250102427  0.999897648  0.549871736
     0.499864843  0.249877581  0.549898009
     0.249700409  0.249700413  0.648283272
     0.500101832  0.000341566  0.648161650
     0.250000000  0.500000000  0.351610242
     0.500000000  0.750000000  0.351610242
     0.250000000  0.750000000  0.450536747
     0.500000000  0.500000000  0.450536747
     0.249877575  0.499864841  0.549898010
     0.500299141  0.749700890  0.550139006
     0.249658523  0.749898332  0.648161658
     0.497838470  0.497838475  0.648677241
     0.750000000  0.000000000  0.351610242
     0.000000000  0.250000000  0.351610242
     0.750000000  0.250000000  0.450536747
     0.000000000  0.000000000  0.450536747
     0.750135229  0.000122554  0.549897985
     0.999897646  0.250102427  0.549871734
     0.749898328  0.249658528  0.648161658
     0.000299675  0.000299677  0.648283255
     0.750000000  0.500000000  0.351610242
     0.000000000  0.750000000  0.351610242
     0.750000000  0.750000000  0.450536747
     0.000000000  0.500000000  0.450536747
     0.749700884  0.500299136  0.550139006
     0.000122560  0.750135233  0.549897987
     0.752161712  0.752161712  0.648677129
     0.000341559  0.500101834  0.648161655
     0.250000000  0.000000000  0.450536747
     0.500000000  0.250000000  0.450536747
     0.250000000  0.250000000  0.351610242
     0.500000000  0.000000000  0.351610242
     0.250095394  0.999904744  0.650166575
     0.499758300  0.249289553  0.649649988
     0.249825104  0.249825108  0.549619549
     0.500018107  0.999638612  0.549639521
     0.250000000  0.500000000  0.450536747
     0.500000000  0.750000000  0.450536747
     0.250000000  0.750000000  0.351610242
     0.500000000  0.500000000  0.351610242
     0.249289564  0.499758314  0.649649989
     0.500297233  0.749702823  0.650986592
     0.250361483  0.749981942  0.549639511
     0.500013936  0.500013945  0.549847888
     0.750000000  0.000000000  0.450536747
     0.000000000  0.250000000  0.450536747
     0.750000000  0.250000000  0.351610242
     0.000000000  0.000000000  0.351610242
     0.750241786  0.000710624  0.649649910
     0.999904730  0.250095390  0.650166575
     0.749981942  0.250361492  0.549639508
     0.000174988  0.000174986  0.549619537
     0.750000000  0.500000000  0.450536747
     0.000000000  0.750000000  0.450536747
     0.750000000  0.750000000  0.351610242
     0.000000000  0.500000000  0.351610242
     0.749702825  0.500297229  0.650986591
     0.000710622  0.750241781  0.649649910
     0.749986120  0.749986115  0.549847856
     0.999638610  0.500018109  0.549639518

  ion indices of the primitive-cell ions
   primitive index   ion index
                 1           1
                 2           2
                 3           3
                 4           4
                 5           5
                 6           6
                 7           7
                 8           8
                 9           9
                10          10
                11          11
                12          12
                13          13
                14          14
                15          15
                16          16
                17          17
                18          18
                19          19
                20          20
                21          21
                22          22
                23          23
                24          24
                25          25
                26          26
[...]
   0.74970282  0.50029723  0.65098659
   0.00071062  0.75024178  0.64964991
   0.74998612  0.74998612  0.54984786
   0.99963861  0.50001811  0.54963952

 position of ions in cartesian coordinates  (Angst):
   5.27539721  5.27539683 16.41397528
   4.44330784  4.44330856 16.44092143
   6.10741435  6.10741282 16.44090914
   2.11014557  0.00000000  7.50000000
   4.22029113  2.11014557  7.50000000
   2.11014557  2.11014557  9.61014557
   4.22029113  0.00000000  9.61014557
   2.11101011  8.43971835 11.72900426
   4.21915032  2.10911228 11.72956467
   2.10761684  2.10761688 13.82816529
   4.22115065  0.00288302 13.82557104
   2.11014557  4.22029113  7.50000000
   4.22029113  6.33043670  7.50000000
   2.11014557  6.33043670  9.61014557
   4.22029113  4.22029113  9.61014557
   2.10911223  4.21915031 11.72956470
   4.22281606  6.32791204 11.73470525
   2.10726330  6.32957856 13.82557121
   4.20204656  4.20204660 13.83656882
   6.33043670  0.00000000  7.50000000
   0.00000000  2.11014557  7.50000000
   6.33043670  2.11014557  9.61014557
   0.00000000  0.00000000  9.61014557
   6.33157811  0.00103443 11.72956417
   8.43971834  2.11101011 11.72900422
   6.32957852  2.10726334 13.82557121
   0.00252943  0.00252944 13.82816493
   6.33043670  4.22029113  7.50000000
   0.00000000  6.33043670  7.50000000
   6.33043670  6.33043670  9.61014557
   0.00000000  4.22029113  9.61014557
   6.32791198  4.22281601 11.73470524
   0.00103447  6.33157814 11.72956420
   6.34868281  6.34868280 13.83656644
   0.00288296  4.22115067 13.82557116
   2.11014557  0.00000000  9.61014557
   4.22029113  2.11014557  9.61014557
   2.11014557  2.11014557  7.50000000
   4.22029113  0.00000000  7.50000000
   2.11095075  8.43977825 13.86833696
   4.21825104  2.10414898 13.85731793
   2.10866934  2.10866937 11.72362500
   4.22044396  8.43753194 11.72405101
   2.11014557  4.22029113  9.61014557
   4.22029113  6.33043670  9.61014557
   2.11014557  6.33043670  7.50000000
   4.22029113  4.22029113  7.50000000
   2.10414907  4.21825116 13.85731797
   4.22279995  6.32792835 13.88582828
   2.11319669  6.33028427 11.72405079
   4.22040876  4.22040883 11.72849556
   6.33043670  0.00000000  9.61014557
   0.00000000  2.11014557  9.61014557
   6.33043670  2.11014557  7.50000000
   0.00000000  0.00000000  7.50000000
   6.33247751  0.00599808 13.85731629
   8.43977813  2.11095072 13.86833696
   6.33028428  2.11319677 11.72405074
   0.00147700  0.00147698 11.72362474
   6.33043670  4.22029113  9.61014557
   0.00000000  6.33043670  9.61014557
   6.33043670  6.33043670  7.50000000
   0.00000000  4.22029113  7.50000000
   6.32792836  4.22279992 13.88582826
   0.00599806  6.33247747 13.85731628
   6.33031954  6.33031950 11.72849488
   8.43753192  4.22044398 11.72405095

--------------------------------------- Iteration      FINAL  ---------------------------------------

--------------------OUTCAR has been truncated-------------------------

[...]

--------------------OUTCAR has been truncated-------------------------

  DFT-D2 method for vdW energy calculation

  Parameters of vdW forcefield:
         C6(Jnm^6/mol)     R0(A)
   C        1.750          1.452
   O        0.700          1.342
   Mg       0.630          1.243
   O        0.700          1.342

  vdW correction parametrized for the method        ¼a

  IVDW =   1
  VDW_RADIUS =    50.000 A
  VDW_S6 =     1.050
  VDW_SR =     1.000
  VDW_D =    20.000
  LVDW_EWALD = F

  Number of pair interactions contributing to vdW energy:  791390
  Edisp (eV):   -5.29119

 VOLUME and BASIS-vectors are now :
  energy-cutoff  :      600.00
  volume of cell :     1519.65
      direct lattice vectors                 reciprocal lattice vectors
     8.440582262  0.000000000  0.000000000     0.118475239  0.000000000  0.000000000
     0.000000000  8.440582262  0.000000000     0.000000000  0.118475239  0.000000000
     0.000000000  0.000000000 21.330436697     0.000000000  0.000000000  0.046881366

  length of vectors
     8.440582262  8.440582262 21.330436697     0.118475239  0.118475239  0.046881366

 FORCES acting on ions:
    Electron-Ion                     Ewald-Force                    Non-Local-Force
   0.243E-01 0.243E-01 -.104E+04   -.309E-01 -.309E-01 0.104E+04   0.456E-03 0.458E-03 0.337E+00
   0.188E+03 0.188E+03 -.157E+04   -.233E+03 -.233E+03 0.158E+04   0.410E+02 0.410E+02 -.251E+01
   -.188E+03 -.188E+03 -.157E+04   0.233E+03 0.233E+03 0.158E+04   -.410E+02 -.410E+02 -.251E+01
   0.178E+00 -.178E+00 0.210E+04   -.177E+00 0.177E+00 -.209E+04   -.592E-03 0.593E-03 -.640E+01
   0.177E+00 0.202E+00 0.210E+04   -.176E+00 -.202E+00 -.209E+04   -.213E-03 -.480E-03 -.639E+01
   0.860E+00 0.860E+00 0.742E+03   -.882E+00 -.882E+00 -.743E+03   0.143E-01 0.143E-01 0.375E+00
   0.862E+00 -.841E+00 0.744E+03   -.874E+00 0.789E+00 -.744E+03   0.819E-02 0.329E-01 0.385E+00
   0.360E+01 -.360E+01 -.609E+03   -.362E+01 0.362E+01 0.609E+03   0.879E-02 -.882E-02 -.146E+00
   0.359E+01 0.654E+01 -.597E+03   -.360E+01 -.653E+01 0.598E+03   0.528E-02 -.734E-02 -.390E+00
   0.193E+02 0.193E+02 -.197E+04   -.193E+02 -.193E+02 0.197E+04   0.289E-01 0.289E-01 0.561E+01
   0.209E+02 -.250E+02 -.195E+04   -.209E+02 0.254E+02 0.195E+04   0.194E-01 -.289E+00 0.561E+01
   0.202E+00 0.177E+00 0.210E+04   -.202E+00 -.176E+00 -.209E+04   -.475E-03 -.228E-03 -.639E+01
   0.206E+00 -.206E+00 0.210E+04   -.204E+00 0.204E+00 -.209E+04   -.126E-02 0.127E-02 -.640E+01
   0.841E+00 -.862E+00 0.744E+03   -.789E+00 0.874E+00 -.744E+03   -.329E-01 -.818E-02 0.385E+00
   0.854E+00 0.854E+00 0.745E+03   -.826E+00 -.826E+00 -.746E+03   -.191E-01 -.191E-01 0.457E+00
   0.654E+01 0.359E+01 -.597E+03   -.653E+01 -.360E+01 0.598E+03   -.734E-02 0.528E-02 -.390E+00
   0.672E+01 -.672E+01 -.592E+03   -.670E+01 0.670E+01 0.592E+03   -.229E-01 0.229E-01 0.246E-01
   0.250E+02 -.209E+02 -.195E+04   -.254E+02 0.209E+02 0.195E+04   0.289E+00 -.193E-01 0.561E+01
   0.351E+02 0.351E+02 -.185E+04   -.357E+02 -.357E+02 0.185E+04   0.511E+00 0.511E+00 0.540E+01
   -.177E+00 -.202E+00 0.210E+04   0.176E+00 0.202E+00 -.209E+04   0.222E-03 0.491E-03 -.639E+01
   -.178E+00 0.178E+00 0.210E+04   0.177E+00 -.177E+00 -.209E+04   0.580E-03 -.595E-03 -.640E+01
   -.862E+00 0.841E+00 0.744E+03   0.874E+00 -.789E+00 -.744E+03   -.819E-02 -.329E-01 0.385E+00
   -.860E+00 -.860E+00 0.742E+03   0.882E+00 0.882E+00 -.743E+03   -.143E-01 -.143E-01 0.375E+00
   -.359E+01 -.654E+01 -.597E+03   0.360E+01 0.653E+01 0.598E+03   -.527E-02 0.732E-02 -.390E+00
   -.360E+01 0.360E+01 -.609E+03   0.362E+01 -.362E+01 0.609E+03   -.881E-02 0.880E-02 -.146E+00
   -.209E+02 0.250E+02 -.195E+04   0.209E+02 -.254E+02 0.195E+04   -.193E-01 0.289E+00 0.561E+01
   -.193E+02 -.193E+02 -.197E+04   0.193E+02 0.193E+02 0.197E+04   -.290E-01 -.290E-01 0.561E+01
   -.206E+00 0.206E+00 0.210E+04   0.204E+00 -.204E+00 -.209E+04   0.126E-02 -.128E-02 -.640E+01
   -.202E+00 -.177E+00 0.210E+04   0.202E+00 0.176E+00 -.209E+04   0.475E-03 0.231E-03 -.639E+01
   -.854E+00 -.854E+00 0.745E+03   0.826E+00 0.826E+00 -.746E+03   0.191E-01 0.191E-01 0.457E+00
   -.841E+00 0.862E+00 0.744E+03   0.789E+00 -.874E+00 -.744E+03   0.329E-01 0.819E-02 0.385E+00
   -.672E+01 0.672E+01 -.592E+03   0.670E+01 -.670E+01 0.592E+03   0.229E-01 -.229E-01 0.246E-01
   -.654E+01 -.359E+01 -.597E+03   0.653E+01 0.360E+01 0.598E+03   0.732E-02 -.526E-02 -.390E+00
   -.351E+02 -.351E+02 -.185E+04   0.357E+02 0.357E+02 0.185E+04   -.511E+00 -.511E+00 0.541E+01
   -.250E+02 0.209E+02 -.195E+04   0.254E+02 -.209E+02 0.195E+04   -.289E+00 0.194E-01 0.561E+01
   0.567E+00 -.567E+00 0.556E+03   -.572E+00 0.572E+00 -.556E+03   0.576E-02 -.576E-02 -.915E-01
   0.538E+00 0.711E+00 0.557E+03   -.530E+00 -.708E+00 -.557E+03   -.938E-02 -.361E-02 -.629E-01
   0.145E+00 0.145E+00 0.157E+04   -.147E+00 -.147E+00 -.158E+04   0.180E-02 0.179E-02 0.313E+01
   0.145E+00 -.139E+00 0.157E+04   -.146E+00 0.136E+00 -.158E+04   0.225E-02 0.440E-02 0.313E+01
   0.957E+01 -.957E+01 -.150E+04   -.953E+01 0.953E+01 0.151E+04   -.363E-01 0.362E-01 -.439E+01
   0.108E+02 0.293E+02 -.147E+04   -.108E+02 -.294E+02 0.148E+04   -.312E-01 0.412E-01 -.449E+01
   0.369E+01 0.369E+01 -.451E+03   -.369E+01 -.369E+01 0.450E+03   0.237E-02 0.237E-02 0.214E+00
   0.365E+01 -.345E+01 -.445E+03   -.362E+01 0.347E+01 0.445E+03   -.279E-01 -.170E-01 0.300E+00
   0.711E+00 0.538E+00 0.557E+03   -.708E+00 -.530E+00 -.557E+03   -.360E-02 -.939E-02 -.629E-01
   0.770E+00 -.770E+00 0.558E+03   -.794E+00 0.794E+00 -.558E+03   0.292E-01 -.292E-01 -.136E+00
   0.139E+00 -.145E+00 0.157E+04   -.136E+00 0.146E+00 -.158E+04   -.439E-02 -.224E-02 0.313E+01
   0.142E+00 0.142E+00 0.157E+04   -.137E+00 -.137E+00 -.158E+04   -.553E-02 -.554E-02 0.312E+01
   0.293E+02 0.108E+02 -.147E+04   -.294E+02 -.108E+02 0.148E+04   0.412E-01 -.312E-01 -.449E+01
   0.366E+02 -.366E+02 -.143E+04   -.365E+02 0.365E+02 0.143E+04   -.812E-01 0.815E-01 -.400E+01
   0.345E+01 -.365E+01 -.445E+03   -.347E+01 0.362E+01 0.445E+03   0.170E-01 0.279E-01 0.300E+00
   0.365E+01 0.365E+01 -.436E+03   -.367E+01 -.367E+01 0.436E+03   0.208E-01 0.207E-01 0.231E+00
   -.538E+00 -.711E+00 0.557E+03   0.530E+00 0.708E+00 -.557E+03   0.940E-02 0.362E-02 -.629E-01
   -.567E+00 0.567E+00 0.556E+03   0.572E+00 -.572E+00 -.556E+03   -.577E-02 0.576E-02 -.915E-01
   -.145E+00 0.139E+00 0.157E+04   0.146E+00 -.136E+00 -.158E+04   -.225E-02 -.440E-02 0.313E+01
   -.145E+00 -.145E+00 0.157E+04   0.147E+00 0.147E+00 -.158E+04   -.180E-02 -.179E-02 0.313E+01
   -.108E+02 -.293E+02 -.147E+04   0.108E+02 0.294E+02 0.148E+04   0.313E-01 -.414E-01 -.449E+01
   -.957E+01 0.957E+01 -.150E+04   0.953E+01 -.953E+01 0.151E+04   0.362E-01 -.363E-01 -.439E+01
   -.365E+01 0.345E+01 -.445E+03   0.362E+01 -.347E+01 0.445E+03   0.279E-01 0.170E-01 0.300E+00
   -.369E+01 -.369E+01 -.451E+03   0.369E+01 0.369E+01 0.450E+03   -.240E-02 -.240E-02 0.214E+00
   -.770E+00 0.770E+00 0.558E+03   0.794E+00 -.794E+00 -.558E+03   -.292E-01 0.292E-01 -.136E+00
   -.711E+00 -.538E+00 0.557E+03   0.708E+00 0.530E+00 -.557E+03   0.361E-02 0.940E-02 -.629E-01
   -.142E+00 -.142E+00 0.157E+04   0.137E+00 0.137E+00 -.158E+04   0.553E-02 0.554E-02 0.312E+01
   -.139E+00 0.145E+00 0.157E+04   0.136E+00 -.146E+00 -.158E+04   0.439E-02 0.224E-02 0.313E+01
   -.366E+02 0.366E+02 -.143E+04   0.365E+02 -.365E+02 0.143E+04   0.815E-01 -.812E-01 -.400E+01
   -.293E+02 -.108E+02 -.147E+04   0.294E+02 0.108E+02 0.148E+04   -.414E-01 0.313E-01 -.449E+01
   -.365E+01 -.365E+01 -.436E+03   0.367E+01 0.367E+01 0.436E+03   -.207E-01 -.207E-01 0.231E+00
   -.345E+01 0.365E+01 -.445E+03   0.347E+01 -.362E+01 0.445E+03   -.170E-01 -.279E-01 0.300E+00
   0.442E-02 0.443E-02 0.209E+02   0.163E-12 -.114E-12 -.455E-11   -.398E-02 -.399E-02 -.183E+02

 POSITION                                       TOTAL-FORCE (eV/Angst)
      5.27540      5.27540     16.41398        -0.006105     -0.006105      0.127728
      4.44331      4.44331     16.44092         0.831713      0.831712     -0.027469
      6.10741      6.10741     16.44091        -0.825691     -0.825699     -0.027236
      2.11015      0.00000      7.50000         0.000240     -0.000242      0.468523
      4.22029      2.11015      7.50000         0.000166      0.000183      0.465447
      2.11015      2.11015      9.61015        -0.005883     -0.005886      0.028153
      4.22029      0.00000      9.61015        -0.002177     -0.014798      0.032298
      2.11101      8.43972     11.72900        -0.004357      0.004347     -0.001998
      4.21915      2.10911     11.72956         0.004617     -0.002785     -0.000965
      2.10762      2.10762     13.82817         0.002612      0.002614     -0.118735
      4.22115      0.00288     13.82557         0.002084      0.005677     -0.119964
      2.11015      4.22029      7.50000         0.000187      0.000154      0.465441
      4.22029      6.33044      7.50000         0.000446     -0.000446      0.470498
      2.11015      6.33044      9.61015         0.014803      0.002178      0.032226
      4.22029      4.22029      9.61015         0.006331      0.006327      0.034515
      2.10911      4.21915     11.72956        -0.002781      0.004619     -0.000965
      4.22282      6.32791     11.73471        -0.000129      0.000158     -0.003195
      2.10726      6.32958     13.82557        -0.005615     -0.002130     -0.119850
      4.20205      4.20205     13.83657        -0.020700     -0.020702     -0.121277
      6.33044      0.00000      7.50000        -0.000162     -0.000176      0.465441
      0.00000      2.11015      7.50000        -0.000251      0.000240      0.468526
      6.33044      2.11015      9.61015         0.002176      0.014801      0.032213
      0.00000      0.00000      9.61015         0.005882      0.005888      0.028216
      6.33158      0.00103     11.72956        -0.004645      0.002797     -0.000990
      8.43972      2.11101     11.72900         0.004348     -0.004356     -0.001998
      6.32958      2.10726     13.82557        -0.002131     -0.005616     -0.119856
      0.00253      0.00253     13.82816        -0.002538     -0.002536     -0.118847
      6.33044      4.22029      7.50000        -0.000452      0.000433      0.470498
      0.00000      6.33044      7.50000        -0.000188     -0.000156      0.465443
      6.33044      6.33044      9.61015        -0.006332     -0.006333      0.034444
      0.00000      4.22029      9.61015        -0.014805     -0.002182      0.032299
      6.32791      4.22282     11.73471         0.000159     -0.000127     -0.003197
      0.00103      6.33158     11.72956         0.002796     -0.004645     -0.000989
      6.34868      6.34868     13.83657         0.020680      0.020677     -0.121541
      0.00288      4.22115     13.82557         0.005679      0.002084     -0.119956
      2.11015      0.00000      9.61015         0.001851     -0.001848      0.033959
      4.22029      2.11015      9.61015        -0.002464     -0.000403      0.048064
      2.11015      2.11015      7.50000         0.000594      0.000589     -0.434796
      4.22029      0.00000      7.50000         0.000762      0.001485     -0.435215
      2.11095      8.43978     13.86834         0.002292     -0.002310     -0.009634
      4.21825      2.10415     13.85732         0.001701     -0.003506     -0.012195
      2.10867      2.10867     11.72363         0.003925      0.003924      0.004806
      4.22044      8.43753     11.72405        -0.001944     -0.004626      0.016780
      2.11015      4.22029      9.61015        -0.000404     -0.002475      0.048067
      4.22029      6.33044      9.61015         0.009315     -0.009311      0.046711
      2.11015      6.33044      7.50000        -0.001483     -0.000759     -0.435224
      4.22029      4.22029      7.50000        -0.001892     -0.001902     -0.435791
      2.10415      4.21825     13.85732        -0.003510      0.001700     -0.012191
      4.22280      6.32793     13.88583        -0.006052      0.006176     -0.000473
      2.11320      6.33028     11.72405         0.004618      0.001954      0.016755
      4.22041      4.22041     11.72850         0.002099      0.002093      0.013857
      6.33044      0.00000      9.61015         0.002473      0.000409      0.048065
      0.00000      2.11015      9.61015        -0.001861      0.001847      0.033955
      6.33044      2.11015      7.50000        -0.000763     -0.001484     -0.435220
      0.00000      0.00000      7.50000        -0.000600     -0.000590     -0.434791
      6.33248      0.00600     13.85732        -0.001682      0.003456     -0.012141
      8.43978      2.11095     13.86834        -0.002312      0.002284     -0.009633
      6.33028      2.11320     11.72405         0.001954      0.004616      0.016754
      0.00148      0.00148     11.72362        -0.003949     -0.003943      0.004842
      6.33044      4.22029      9.61015        -0.009314      0.009304      0.046702
      0.00000      6.33044      9.61015         0.000399      0.002472      0.048071
      6.33044      6.33044      7.50000         0.001892      0.001900     -0.435795
      0.00000      4.22029      7.50000         0.001477      0.000755     -0.435223
      6.32793      4.22280     13.88583         0.006166     -0.006055     -0.000479
      0.00600      6.33248     13.85732         0.003457     -0.001682     -0.012137
      6.33032      6.33032     11.72849        -0.002090     -0.002088      0.013886
      8.43753      4.22044     11.72405        -0.004629     -0.001949      0.016780
    total drift:                                0.000089      0.000080      0.014242

  FREE ENERGIE OF THE ION-ELECTRON SYSTEM (eV)
  free  energy   TOTEN  =      -466.54880542 eV

  energy  without entropy=     -466.54880542  energy(sigma->0) =     -466.54880542