 vasp.6.3.0 20Jan22 (build Apr  1 2022 16:44:48) complex
 executed on        HPECrayEX_GCC date 2022.10.25  01:02:41

 INCAR:
   SYSTEM = MgO-rocksalt
   ISMEAR = 0
   SIGMA = 0.05
   EDIFF = 1E-6
   ALGO = ALL
   ISTART = 0
   IBRION = -1
   NSW = 0
   ISYM = 0
   DIPOL = 0.5 0.5 0.5
   IDIPOL = 3
   LDIPOL = .TRUE.
   GGA = RE
   IVDW = 13
   VDW_S8 = 1.7468
   VDW_A1 = 0.5363
   VDW_A2 = 3.0726
   ENCUT = 600
   PREC = Accurate
   LASPH = .TRUE.
   LREAL = .FALSE.
   ISPIN = 1
   NELM = 200
   NELMIN = 8
   NCORE = 8
   KPAR = 1
   LWAVE = .FALSE.
   LCHARG = .FALSE.

 POTCAR:    PAW_PBE C 08Apr2002
 POTCAR:    PAW_PBE H 15Jun2001
 POTCAR:    PAW_PBE Mg_pv 13Apr2007
 POTCAR:    PAW_PBE O 08Apr2002
 POTCAR:    PAW_PBE C 08Apr2002
   VRHFIN =C: s2p2

   TITEL  = PAW_PBE C 08Apr2002
   POMASS =   12.011; ZVAL   =    4.000    mass and valenz
   ENMAX  =  400.000; ENMIN  =  300.000 eV

   TITEL  = PAW_PBE H 15Jun2001
   POMASS =    1.000; ZVAL   =    1.000    mass and valenz
   ENMAX  =  250.000; ENMIN  =  200.000 eV

   TITEL  = PAW_PBE Mg_pv 13Apr2007
   POMASS =   24.305; ZVAL   =    8.000    mass and valenz
   ENMAX  =  403.929; ENMIN  =  302.947 eV

   TITEL  = PAW_PBE O 08Apr2002
   POMASS =   16.000; ZVAL   =    6.000    mass and valenz
   ENMAX  =  400.000; ENMIN  =  300.000 eV

  PAW_PBE C 08Apr2002                   :
  PAW_PBE H 15Jun2001                   :
  PAW_PBE Mg_pv 13Apr2007               :
  PAW_PBE O 08Apr2002                   :

 POSCAR:  C  H Mg  O
  positions in direct lattice
|           W    W    AA    RRRRR   N    N  II  N    N   GGGG   !!!           |
|           W    W   A  A   R    R  NN   N  II  NN   N  G    G  !!!           |
|           W    W  A    A  R    R  N N  N  II  N N  N  G       !!!           |
|           W WW W  AAAAAA  RRRRR   N  N N  II  N  N N  G  GGG   !            |
|           WW  WW  A    A  R   R   N   NN  II  N   NN  G    G                |
|           W    W  A    A  R    R  N    N  II  N    N   GGGG   !!!           |
|     Specifying the vdW parameters                                           |
|     VDW_S8 = 1.747                                                          |
|     VDW_A1 = 0.536                                                          |
|     VDW_A2 = 3.073                                                          |
|     in the INCAR file will overwrite the defaults for revpbe. Please        |
|     make sure that is what you intended.                                    |

 ion  position               nearest neighbor table
   1  0.500  0.500  0.796-   3 1.10   2 1.10   4 1.10   5 1.10
   2  0.500  0.606  0.825-   1 1.10
   3  0.500  0.394  0.825-   1 1.10
   4  0.607  0.500  0.766-   1 1.10
   5  0.393  0.500  0.766-   1 1.10
   6  0.000  0.750  0.352-  38 2.11  40 2.11  41 2.11  48 2.11  57 2.11
   7  0.250  0.000  0.352-  39 2.11  40 2.11  41 2.11  49 2.11  56 2.11
   8  0.000  0.000  0.451-  40 2.11  39 2.11  38 2.11  46 2.11  55 2.11  44 2.12
   9  0.250  0.750  0.451-  41 2.11  39 2.11  38 2.11  47 2.11  54 2.11  45 2.12
  10  0.000  0.750  0.550-  61 2.11  45 2.11  44 2.11  52 2.11  38 2.12  42 2.15
  11  0.250  1.000  0.550-  53 2.11  45 2.11  44 2.11  60 2.11  39 2.12  43 2.15
  12  0.000  1.000  0.649-  44 2.11  59 2.11  43 2.11  42 2.11  50 2.11
  13  0.250  0.750  0.649-  45 2.11  58 2.11  43 2.11  51 2.11  42 2.11
  14  0.000  0.250  0.352-  46 2.11  40 2.11  48 2.11  49 2.11  65 2.11
  15  0.250  0.500  0.352-  47 2.11  41 2.11  48 2.11  49 2.11  64 2.11
  16  0.000  0.500  0.451-  48 2.11  46 2.11  47 2.11  38 2.11  63 2.11  52 2.12
  17  0.250  0.250  0.451-  49 2.11  46 2.11  47 2.11  39 2.11  62 2.11  53 2.12
  18  0.000  0.250  0.550-  53 2.11  69 2.11  44 2.11  52 2.11  46 2.12  50 2.15
  19  0.250  0.500  0.550-  68 2.11  45 2.11  53 2.11  52 2.11  47 2.12  51 2.15
  20  0.000  0.500  0.649-  52 2.11  67 2.11  51 2.11  42 2.11  50 2.11
  21  0.250  0.250  0.649-  53 2.11  66 2.11  43 2.11  51 2.11  50 2.11
  22  0.500  0.750  0.352-  54 2.11  41 2.11  56 2.11  57 2.11  64 2.11
  23  0.750  0.000  0.352-  55 2.11  40 2.11  56 2.11  57 2.11  65 2.11
  24  0.500  0.000  0.451-  56 2.11  54 2.11  55 2.11  39 2.11  62 2.11  60 2.12
  25  0.750  0.750  0.451-  57 2.11  54 2.11  55 2.11  38 2.11  63 2.11  61 2.12
  26  0.500  0.750  0.550-  68 2.11  45 2.11  61 2.11  60 2.11  54 2.13  58 2.15
  27  0.750  0.000  0.550-  69 2.11  61 2.11  44 2.11  60 2.11  55 2.12  59 2.15
  28  0.500  1.000  0.649-  66 2.11  58 2.11  60 2.11  43 2.11  59 2.11
  29  0.750  0.750  0.649-  61 2.11  58 2.11  59 2.11  67 2.11  42 2.11
  30  0.500  0.250  0.352-  62 2.11  56 2.11  49 2.11  64 2.11  65 2.11
  31  0.750  0.500  0.352-  63 2.11  57 2.11  48 2.11  64 2.11  65 2.11
  32  0.500  0.500  0.451-  64 2.11  54 2.11  62 2.11  63 2.11  47 2.11  68 2.12
  33  0.750  0.250  0.451-  65 2.11  55 2.11  62 2.11  63 2.11  46 2.11  69 2.12
  34  0.500  0.250  0.550-  68 2.11  53 2.11  69 2.11  60 2.11  62 2.13  66 2.15
  35  0.750  0.500  0.550-  68 2.11  61 2.11  69 2.11  52 2.11  63 2.12  67 2.15
  36  0.500  0.500  0.649-  66 2.11  58 2.11  51 2.11  67 2.11  68 2.12
  37  0.750  0.250  0.649-  69 2.11  66 2.11  59 2.11  67 2.11  50 2.11
  38  0.000  0.750  0.451-   6 2.11   8 2.11   9 2.11  16 2.11  25 2.11  10 2.12
  39  0.250  0.000  0.451-   7 2.11   8 2.11   9 2.11  17 2.11  24 2.11  11 2.12
  40  0.000  0.000  0.352-   8 2.11   7 2.11   6 2.11  14 2.11  23 2.11
  41  0.250  0.750  0.352-   9 2.11   7 2.11   6 2.11  15 2.11  22 2.11
  42  0.000  0.750  0.651-  12 2.11  20 2.11  29 2.11  13 2.11  10 2.15
  43  0.250  0.000  0.651-  21 2.11  13 2.11  12 2.11  28 2.11  11 2.15
  44  0.000  1.000  0.550-  10 2.11  18 2.11  12 2.11  11 2.11  27 2.11   8 2.12
  45  0.250  0.750  0.550-  13 2.11  10 2.11  11 2.11  19 2.11  26 2.11   9 2.12
  46  0.000  0.250  0.451-  14 2.11   8 2.11  16 2.11  17 2.11  33 2.11  18 2.12
  47  0.250  0.500  0.451-  15 2.11   9 2.11  16 2.11  17 2.11  32 2.11  19 2.12
  48  0.000  0.500  0.352-  16 2.11  14 2.11  15 2.11   6 2.11  31 2.11
  49  0.250  0.250  0.352-  17 2.11  14 2.11  15 2.11   7 2.11  30 2.11
  50  0.000  0.250  0.651-  12 2.11  20 2.11  21 2.11  37 2.11  18 2.15
  51  0.250  0.500  0.651-  20 2.11  21 2.11  13 2.11  36 2.11  19 2.15
  52  0.000  0.500  0.550-  20 2.11  10 2.11  18 2.11  19 2.11  35 2.11  16 2.12
  53  0.250  0.250  0.550-  21 2.11  18 2.11  11 2.11  19 2.11  34 2.11  17 2.12
  54  0.500  0.750  0.451-  22 2.11   9 2.11  24 2.11  25 2.11  32 2.11  26 2.13
  55  0.750  0.000  0.451-  23 2.11   8 2.11  24 2.11  25 2.11  33 2.11  27 2.12
  56  0.500  0.000  0.352-  24 2.11  22 2.11  23 2.11   7 2.11  30 2.11
  57  0.750  0.750  0.352-  25 2.11  22 2.11  23 2.11   6 2.11  31 2.11
  58  0.500  0.750  0.651-  28 2.11  13 2.11  29 2.11  36 2.11  26 2.15
  59  0.750  0.000  0.651-  37 2.11  29 2.11  12 2.11  28 2.11  27 2.15
  60  0.500  1.000  0.550-  28 2.11  27 2.11  11 2.11  26 2.11  34 2.11  24 2.12
  61  0.750  0.750  0.550-  29 2.11  10 2.11  27 2.11  35 2.11  26 2.11  25 2.12
  62  0.500  0.250  0.451-  30 2.11  24 2.11  17 2.11  32 2.11  33 2.11  34 2.13
  63  0.750  0.500  0.451-  31 2.11  25 2.11  16 2.11  32 2.11  33 2.11  35 2.12
  64  0.500  0.500  0.352-  32 2.11  22 2.11  30 2.11  31 2.11  15 2.11
  65  0.750  0.250  0.352-  33 2.11  23 2.11  30 2.11  31 2.11  14 2.11
  66  0.500  0.250  0.651-  28 2.11  21 2.11  37 2.11  36 2.11  34 2.15
  67  0.750  0.500  0.651-  20 2.11  29 2.11  37 2.11  36 2.11  35 2.15
  68  0.500  0.500  0.550-  35 2.11  19 2.11  34 2.11  26 2.11  36 2.12  32 2.12
  69  0.750  0.250  0.550-  37 2.11  18 2.11  27 2.11  35 2.11  34 2.11  33 2.12

IMPORTANT INFORMATION: All symmetrisations will be switched off!
NOSYMM: (Re-)initialisation of all symmetry stuff for point group C_1.

                                     Primitive cell

  volume of cell :    1519.8199

  direct lattice vectors                    reciprocal lattice vectors
     8.440984654  0.000000000  0.000000000     0.118469591  0.000000000  0.000000000
     0.000000000  8.440984654  0.000000000     0.000000000  0.118469591  0.000000000
     0.000000000  0.000000000 21.330738491     0.000000000  0.000000000  0.046880702

  length of vectors
     8.440984654  8.440984654 21.330738491     0.118469591  0.118469591  0.046880702

  position of ions in fractional coordinates (direct lattice)
     0.500000022  0.499997701  0.795765481
     0.499999966  0.606400245  0.825294148
     0.499999960  0.393601765  0.825293628
     0.607088423  0.500000081  0.766452828
     0.392911520  0.500000085  0.766452812
     0.000000000  0.750000000  0.351605267
     0.250000000  0.000000000  0.351605267
     0.000000000  0.000000000  0.450535089
     0.250000000  0.750000000  0.450535089
     0.000000003  0.750032167  0.550141647
     0.249992769  0.999999998  0.550135640
     0.000000010  0.999999991  0.648847037
     0.250116514  0.750097339  0.648710816
     0.000000000  0.250000000  0.351605267
     0.250000000  0.500000000  0.351605267
     0.000000000  0.500000000  0.450535089
     0.250000000  0.250000000  0.450535089
     0.000000007  0.249967822  0.550141651
     0.250108445  0.500000001  0.550153757
     0.000000011  0.499999994  0.648675549
     0.250116504  0.249902631  0.648710813
     0.500000000  0.750000000  0.351605267
     0.750000000  0.000000000  0.351605267
     0.500000000  0.000000000  0.450535089
     0.750000000  0.750000000  0.450535089
     0.499999994  0.749901112  0.550182719
     0.750007254  0.000000005  0.550135636
     0.500000006  0.999999998  0.648747779
     0.749883526  0.750097344  0.648710829
     0.500000000  0.250000000  0.351605267
     0.750000000  0.500000000  0.351605267
     0.500000000  0.500000000  0.450535089
     0.750000000  0.250000000  0.450535089
     0.500000001  0.250098874  0.550182703
     0.749891587  0.499999991  0.550153763
     0.500000014  0.499999988  0.649279172
     0.749883523  0.249902625  0.648710829
     0.000000000  0.750000000  0.450535089
     0.250000000  0.000000000  0.450535089
     0.000000000  0.000000000  0.351605267
     0.250000000  0.750000000  0.351605267
     0.000000011  0.750041776  0.650981394
     0.249939864  0.000000003  0.651016895
     0.000000015  0.999999981  0.549923091
     0.249924098  0.750012792  0.549866046
     0.000000000  0.250000000  0.450535089
     0.250000000  0.500000000  0.450535089
     0.000000000  0.500000000  0.351605267
     0.250000000  0.250000000  0.351605267
     0.000000016  0.249958209  0.650981374
     0.249749451  0.499999982  0.651002082
     0.000000017  0.500000002  0.549828664
     0.249924102  0.249987198  0.549866042
     0.500000000  0.750000000  0.450535089
     0.750000000  0.000000000  0.450535089
     0.500000000  0.000000000  0.351605267
     0.750000000  0.750000000  0.351605267
     0.500000003  0.750141602  0.650762171
     0.750060174  0.000000004  0.651016901
     0.500000013  0.999999987  0.549819177
     0.750075914  0.750012790  0.549866047
     0.500000000  0.250000000  0.450535089
     0.750000000  0.500000000  0.450535089
     0.500000000  0.500000000  0.351605267
     0.750000000  0.250000000  0.351605267
     0.500000004  0.249858388  0.650762164
[...]
   4.22049233  6.33073849  7.50000000
   6.33073849  0.00000000  7.50000000
   4.22049233  0.00000000  9.61024616
   6.33073849  6.33073849  9.61024616
   4.22049228  6.32990378 11.73580370
   6.33079972  0.00000005 11.73479938
   4.22049238  8.44098463 13.83826923
   6.32975533  6.33156017 13.83748104
   4.22049233  2.11024616  7.50000000
   6.33073849  4.22049233  7.50000000
   4.22049233  4.22049233  9.61024616
   6.33073849  2.11024616  9.61024616
   4.22049233  2.11108076 11.73580336
   6.32982338  4.22049225 11.73518604
   4.22049245  4.22049223 13.84960423
   6.32975531  2.10942422 13.83748104
   0.00000000  6.33073849  9.61024616
   2.11024616  0.00000000  9.61024616
   0.00000000  0.00000000  7.50000000
   2.11024616  6.33073849  7.50000000
   0.00000009  6.33109112 13.88591387
   2.10973855  0.00000002 13.88667115
   0.00000012  8.44098449 11.73026565
   2.10960548  6.33084647 11.72904882
   0.00000000  2.11024616  9.61024616
   2.11024616  4.22049233  9.61024616
   0.00000000  4.22049233  7.50000000
   2.11024616  2.11024616  7.50000000
   0.00000014  2.10989341 13.88591345
   2.10813128  4.22049217 13.88635517
   0.00000014  4.22049235 11.72825144
   2.10960551  2.11013810 11.72904875
   4.22049233  6.33073849  9.61024616
   6.33073849  0.00000000  9.61024616
   4.22049233  0.00000000  7.50000000
   6.33073849  6.33073849  7.50000000
   4.22049236  6.33193375 13.88123768
   6.33124642  0.00000003 13.88667128
   4.22049244  8.44098455 11.72804908
   6.33137928  6.33084645 11.72904886
   4.22049233  2.11024616  9.61024616
   6.33073849  4.22049233  9.61024616
   4.22049233  4.22049233  7.50000000
   6.33073849  2.11024616  7.50000000
   4.22049236  2.10905082 13.88123754
   6.33285378  4.22049222 13.88635524
   4.22049247  4.22049226 11.73183669
   6.33137917  2.11013802 11.72904886

--------------------------------------- Iteration      FINAL  ---------------------------------------

--------------------OUTCAR has been truncated-------------------------

[...]

--------------------OUTCAR has been truncated-------------------------

  FORCE on cell =-STRESS in cart. coord.  units (eV):
  Direction    XX          YY          ZZ          XY          YZ          ZX
  Alpha Z   899.97440   899.97440   899.97440
  Ewald  158472.03545158469.55949************    -0.00000    -0.00268    -0.00001
  Hartree168692.81457168691.50648************    -0.00000    -0.00010     0.00002
  E(xc)   -2492.92245 -2492.94540 -2500.95148    -0.00000     0.00000     0.00000
  Local  ************************337103.74407     0.00000     0.00185    -0.00003
  n-local -2810.57290 -2810.55818 -2831.63465    -0.00000     0.00008     0.00000
  augment  1046.75914  1046.76142  1037.21116     0.00000     0.00001     0.00000
  Kinetic  7411.06001  7411.12047  7451.33383     0.00000     0.00010    -0.00000
  Fock        0.00000     0.00000     0.00000     0.00000     0.00000     0.00000
  vdW       -21.69124   -21.71001   -16.84404     0.00000    -0.00000    -0.00000
  Total     -26.42235   -26.40137    -1.69541     0.00001    -0.00074    -0.00002
  in kB     -27.85415   -27.83203    -1.78729     0.00001    -0.00078    -0.00002

 VOLUME and BASIS-vectors are now :
  energy-cutoff  :      600.00
  volume of cell :     1519.82
      direct lattice vectors                 reciprocal lattice vectors
     8.440984654  0.000000000  0.000000000     0.118469591  0.000000000  0.000000000
     0.000000000  8.440984654  0.000000000     0.000000000  0.118469591  0.000000000
     0.000000000  0.000000000 21.330738491     0.000000000  0.000000000  0.046880702

  length of vectors
     8.440984654  8.440984654 21.330738491     0.118469591  0.118469591  0.046880702

 FORCES acting on ions:
    Electron-Ion                     Ewald-Force                    Non-Local-Force
   0.953E-05 -.828E-03 -.932E+03   -.191E-04 0.142E-02 0.932E+03   -.165E-04 0.883E-03 -.683E-02
   0.207E-04 -.429E+02 -.230E+03   -.216E-04 0.474E+02 0.234E+03   0.292E-05 -.451E+01 -.316E+01
   0.230E-04 0.429E+02 -.230E+03   -.245E-04 -.474E+02 0.234E+03   0.318E-05 0.451E+01 -.316E+01
   -.431E+02 -.830E-03 -.235E+03   0.477E+02 0.885E-03 0.232E+03   -.458E+01 -.120E-03 0.306E+01
   0.431E+02 -.831E-03 -.235E+03   -.477E+02 0.887E-03 0.232E+03   0.458E+01 -.121E-03 0.306E+01
   0.852E-06 -.144E+00 0.208E+04   -.251E-05 0.144E+00 -.207E+04   -.522E-05 -.496E-03 -.716E+01
   0.139E+00 0.191E-05 0.208E+04   -.139E+00 -.297E-05 -.207E+04   0.114E-03 0.399E-06 -.716E+01
   0.550E-05 -.341E-05 0.707E+03   -.610E-05 0.103E-05 -.707E+03   0.514E-05 0.290E-06 0.544E+00
   0.554E+00 -.601E+00 0.708E+03   -.553E+00 0.602E+00 -.709E+03   -.589E-03 -.371E-03 0.524E+00
   0.167E-04 -.232E+01 -.652E+03   -.193E-04 0.232E+01 0.653E+03   -.334E-05 -.599E-02 -.204E+00
   0.230E+01 0.401E-04 -.652E+03   -.229E+01 -.401E-04 0.653E+03   -.648E-02 -.196E-05 -.188E+00
   -.199E-04 0.644E-04 -.201E+04   0.194E-04 -.665E-04 0.201E+04   0.903E-05 -.261E-05 0.611E+01
   0.146E+02 -.148E+02 -.200E+04   -.146E+02 0.149E+02 0.199E+04   -.279E-01 -.616E-01 0.615E+01
   0.106E-05 0.144E+00 0.208E+04   -.234E-05 -.144E+00 -.207E+04   -.199E-05 0.500E-03 -.716E+01
   0.145E+00 -.881E-05 0.208E+04   -.144E+00 0.287E-05 -.207E+04   -.941E-03 -.141E-05 -.716E+01
   0.139E-04 -.523E-05 0.708E+03   -.154E-04 -.836E-06 -.709E+03   0.298E-05 -.164E-05 0.507E+00
   0.554E+00 0.601E+00 0.708E+03   -.553E+00 -.602E+00 -.709E+03   -.590E-03 0.373E-03 0.524E+00
   0.345E-04 0.232E+01 -.652E+03   -.348E-04 -.232E+01 0.653E+03   -.581E-05 0.599E-02 -.204E+00
   0.388E+01 -.168E-04 -.646E+03   -.386E+01 0.167E-04 0.646E+03   -.250E-01 -.353E-05 -.201E+00
   -.367E-04 -.572E-04 -.200E+04   0.334E-04 0.567E-04 0.199E+04   0.185E-05 -.202E-05 0.611E+01
   0.146E+02 0.148E+02 -.200E+04   -.146E+02 -.149E+02 0.199E+04   -.279E-01 0.616E-01 0.615E+01
   0.438E-06 -.149E+00 0.208E+04   0.274E-05 0.149E+00 -.207E+04   0.108E-05 0.584E-03 -.716E+01
   -.139E+00 0.127E-05 0.208E+04   0.139E+00 -.330E-05 -.207E+04   -.120E-03 -.524E-06 -.716E+01
   -.317E-05 0.262E-04 0.708E+03   0.536E-05 -.265E-04 -.709E+03   0.217E-05 0.355E-06 0.491E+00
   -.554E+00 -.601E+00 0.708E+03   0.553E+00 0.602E+00 -.709E+03   0.592E-03 -.377E-03 0.524E+00
   -.665E-04 -.394E+01 -.646E+03   0.685E-04 0.393E+01 0.646E+03   -.517E-05 0.169E-01 -.344E+00
   -.230E+01 0.778E-04 -.652E+03   0.229E+01 -.769E-04 0.653E+03   0.647E-02 0.692E-05 -.188E+00
   -.509E-04 0.148E-03 -.200E+04   0.492E-04 -.141E-03 0.200E+04   0.855E-05 -.735E-05 0.612E+01
   -.146E+02 -.148E+02 -.200E+04   0.146E+02 0.149E+02 0.199E+04   0.279E-01 -.616E-01 0.615E+01
   -.490E-06 0.149E+00 0.208E+04   0.235E-05 -.149E+00 -.207E+04   -.176E-07 -.579E-03 -.716E+01
   -.145E+00 -.623E-05 0.208E+04   0.144E+00 0.313E-05 -.207E+04   0.945E-03 -.410E-05 -.716E+01
   -.141E-04 -.264E-04 0.709E+03   0.163E-04 0.270E-04 -.710E+03   0.303E-05 -.230E-05 0.550E+00
   -.554E+00 0.601E+00 0.708E+03   0.553E+00 -.602E+00 -.709E+03   0.596E-03 0.375E-03 0.524E+00
   -.284E-04 0.394E+01 -.646E+03   0.282E-04 -.393E+01 0.646E+03   -.570E-05 -.169E-01 -.344E+00
   -.388E+01 -.279E-04 -.646E+03   0.386E+01 0.286E-04 0.646E+03   0.249E-01 -.575E-05 -.201E+00
   -.530E-04 -.254E-03 -.195E+04   0.463E-04 0.238E-03 0.194E+04   0.604E-05 0.111E-04 0.603E+01
   -.146E+02 0.148E+02 -.200E+04   0.146E+02 -.149E+02 0.199E+04   0.279E-01 0.616E-01 0.615E+01
   0.125E-04 -.436E+00 0.530E+03   -.831E-05 0.430E+00 -.530E+03   -.259E-06 0.785E-02 -.101E+00
   0.427E+00 0.119E-04 0.530E+03   -.419E+00 -.932E-05 -.530E+03   -.114E-01 -.149E-05 -.980E-01
   -.260E-06 0.329E-05 0.156E+04   -.130E-05 -.115E-05 -.156E+04   0.106E-05 0.204E-05 0.341E+01
   0.106E+00 -.110E+00 0.156E+04   -.105E+00 0.110E+00 -.156E+04   -.756E-03 -.769E-04 0.341E+01
   -.271E-04 -.613E+01 -.153E+04   0.279E-04 0.612E+01 0.153E+04   -.117E-05 0.149E-02 -.494E+01
   0.588E+01 0.105E-03 -.153E+04   -.587E+01 -.109E-03 0.153E+04   -.242E-02 0.591E-06 -.495E+01
   0.202E-04 0.252E-05 -.486E+03   -.150E-04 -.190E-05 0.485E+03   -.295E-05 0.681E-06 0.246E+00
   0.229E+01 -.230E+01 -.481E+03   -.227E+01 0.230E+01 0.481E+03   -.174E-01 0.174E-02 0.286E+00
   0.100E-04 0.436E+00 0.530E+03   -.942E-05 -.430E+00 -.530E+03   -.238E-06 -.786E-02 -.101E+00
   0.462E+00 -.687E-05 0.531E+03   -.470E+00 0.758E-05 -.531E+03   0.104E-01 -.153E-05 -.987E-01
   0.429E-05 0.522E-06 0.156E+04   -.224E-05 0.108E-05 -.156E+04   0.806E-06 0.254E-06 0.341E+01
   0.106E+00 0.110E+00 0.156E+04   -.105E+00 -.110E+00 -.156E+04   -.755E-03 0.775E-04 0.341E+01
   0.154E-05 0.613E+01 -.153E+04   -.101E-05 -.612E+01 0.153E+04   -.182E-05 -.149E-02 -.494E+01
   0.189E+02 -.995E-04 -.150E+04   -.188E+02 0.934E-04 0.151E+04   -.637E-01 0.839E-05 -.490E+01
   0.130E-04 -.979E-05 -.481E+03   -.963E-05 0.212E-05 0.481E+03   -.478E-05 0.617E-06 0.303E+00
   0.229E+01 0.230E+01 -.481E+03   -.227E+01 -.230E+01 0.481E+03   -.174E-01 -.174E-02 0.286E+00
   -.159E-04 -.474E+00 0.531E+03   0.130E-04 0.485E+00 -.531E+03   0.180E-05 -.144E-01 -.111E+00
   -.427E+00 0.168E-04 0.530E+03   0.419E+00 -.137E-04 -.530E+03   0.114E-01 -.728E-06 -.980E-01
   -.438E-05 0.346E-05 0.156E+04   0.137E-05 -.357E-05 -.156E+04   -.101E-05 0.674E-06 0.341E+01
   -.106E+00 -.110E+00 0.156E+04   0.105E+00 0.110E+00 -.156E+04   0.756E-03 -.781E-04 0.341E+01
   -.541E-04 -.187E+02 -.150E+04   0.541E-04 0.186E+02 0.151E+04   -.189E-05 0.798E-01 -.501E+01
   -.588E+01 0.118E-03 -.153E+04   0.587E+01 -.118E-03 0.153E+04   0.243E-02 0.156E-05 -.495E+01
   -.246E-04 0.366E-04 -.482E+03   0.246E-04 -.343E-04 0.481E+03   -.307E-05 -.708E-06 0.259E+00
   -.229E+01 -.230E+01 -.481E+03   0.227E+01 0.230E+01 0.481E+03   0.174E-01 0.174E-02 0.286E+00
   -.820E-05 0.474E+00 0.531E+03   0.802E-05 -.485E+00 -.531E+03   0.275E-06 0.144E-01 -.111E+00
   -.462E+00 -.189E-04 0.531E+03   0.470E+00 0.103E-04 -.531E+03   -.104E-01 0.123E-05 -.987E-01
   -.507E-05 -.282E-05 0.156E+04   0.236E-05 0.350E-05 -.156E+04   0.240E-05 -.260E-05 0.341E+01
   -.106E+00 0.110E+00 0.156E+04   0.105E+00 -.110E+00 -.156E+04   0.756E-03 0.769E-04 0.341E+01
   -.321E-04 0.187E+02 -.150E+04   0.290E-04 -.186E+02 0.151E+04   -.263E-07 -.798E-01 -.501E+01
   -.189E+02 -.910E-04 -.150E+04   0.188E+02 0.859E-04 0.151E+04   0.637E-01 0.572E-05 -.490E+01
   -.280E-04 -.387E-04 -.477E+03   0.316E-04 0.362E-04 0.477E+03   -.463E-05 0.385E-05 0.125E+00
   -.229E+01 0.230E+01 -.481E+03   0.227E+01 -.230E+01 0.481E+03   0.174E-01 -.174E-02 0.286E+00
   0.165E-04 -.122E-02 0.173E+02   -.345E-12 -.114E-12 -.284E-12   -.188E-04 0.121E-02 -.173E+02

 POSITION                                       TOTAL-FORCE (eV/Angst)
      4.22049      4.22047     16.97427        -0.000026      0.001467      0.006566
      4.22049      5.11862     17.60413         0.000002     -0.003065     -0.003278
      4.22049      3.32239     17.60412         0.000002      0.001730     -0.002437
      5.12442      4.22049     16.34900        -0.005396     -0.000065     -0.002432
      3.31656      4.22049     16.34900         0.005420     -0.000065     -0.002419
      0.00000      6.33074      7.50000        -0.000007      0.000140      0.338754
      2.11025      0.00000      7.50000         0.000019     -0.000001      0.338742
      0.00000      0.00000      9.61025         0.000005     -0.000002      0.076975
      2.11025      6.33074      9.61025         0.000612      0.000119      0.077108
      0.00000      6.33101     11.73493        -0.000006     -0.001905     -0.001738
      2.11019      8.44098     11.73480         0.003859     -0.000002     -0.001290
      0.00000      8.44098     13.84039         0.000009     -0.000005     -0.001166
      2.11123      6.33156     13.83748         0.001171      0.000611      0.005104
      0.00000      2.11025      7.50000        -0.000003     -0.000136      0.338749
      2.11025      4.22049      7.50000         0.000297     -0.000007      0.338580
      0.00000      4.22049      9.61025         0.000002     -0.000008      0.078492
      2.11025      2.11025      9.61025         0.000611     -0.000115      0.077107
      0.00000      2.10997     11.73493        -0.000006      0.001907     -0.001739
      2.11116      4.22049     11.73519         0.000225     -0.000004      0.003366
      0.00000      4.22049     13.83673        -0.000001     -0.000002      0.005245
      2.11123      2.10942     13.83748         0.001177     -0.000611      0.005107
      4.22049      6.33074      7.50000         0.000004     -0.000137      0.339127
      6.33074      0.00000      7.50000        -0.000024     -0.000003      0.338727
      4.22049      0.00000      9.61025         0.000004      0.000000      0.081214
      6.33074      6.33074      9.61025        -0.000610      0.000114      0.077108
      4.22049      6.32990     11.73580        -0.000003      0.002470      0.002942
      6.33080      0.00000     11.73480        -0.003868      0.000008     -0.001291
      4.22049      8.44098     13.83827         0.000007      0.000000     -0.002574
      6.32976      6.33156     13.83748        -0.001172      0.000616      0.005105
      4.22049      2.11025      7.50000         0.000002      0.000150      0.339119
      6.33074      4.22049      7.50000        -0.000296     -0.000007      0.338581
      4.22049      4.22049      9.61025         0.000005     -0.000002      0.082094
      6.33074      2.11025      9.61025        -0.000603     -0.000113      0.077105
      4.22049      2.11108     11.73580        -0.000006     -0.002463      0.002946
      6.32982      4.22049     11.73519        -0.000235     -0.000005      0.003364
      4.22049      4.22049     13.84960        -0.000001     -0.000005      0.001178
      6.32976      2.10942     13.83748        -0.001171     -0.000608      0.005103
      0.00000      6.33074      9.61025         0.000004      0.002218      0.078958
      2.11025      0.00000      9.61025        -0.003345      0.000001      0.079488
      0.00000      0.00000      7.50000        -0.000000      0.000004     -0.500477
      2.11025      6.33074      7.50000        -0.000215     -0.000020     -0.500501
      0.00000      6.33109     13.88591        -0.000000     -0.005419      0.002653
      2.10974      0.00000     13.88667         0.003763     -0.000003     -0.002167
      0.00000      8.44098     11.73027         0.000002      0.000001     -0.007429
      2.10961      6.33085     11.72905        -0.000589     -0.001178     -0.000201
      0.00000      2.11025      9.61025         0.000000     -0.002209      0.078960
      2.11025      4.22049      9.61025         0.002760     -0.000001      0.081336
      0.00000      4.22049      7.50000         0.000003      0.000002     -0.500175
      2.11025      2.11025      7.50000        -0.000213      0.000019     -0.500501
      0.00000      2.10989     13.88591        -0.000001      0.005422      0.002655
      2.10813      4.22049     13.88636        -0.004198      0.000002      0.002194
      0.00000      4.22049     11.72825        -0.000001     -0.000007      0.007309
      2.10961      2.11014     11.72905        -0.000591      0.001180     -0.000199
      4.22049      6.33074      9.61025        -0.000001     -0.003960      0.080834
      6.33074      0.00000      9.61025         0.003348      0.000002      0.079487
      4.22049      0.00000      7.50000        -0.000004      0.000001     -0.500663
      6.33074      6.33074      7.50000         0.000215     -0.000021     -0.500501
      4.22049      6.33193     13.88124        -0.000002      0.003498      0.001107
      6.33125      0.00000     13.88667        -0.003765      0.000001     -0.002169
      4.22049      8.44098     11.72805        -0.000003      0.000002      0.002043
      6.33138      6.33085     11.72905         0.000591     -0.001180     -0.000199
      4.22049      2.11025      9.61025         0.000000      0.003953      0.080834
      6.33074      4.22049      9.61025        -0.002759     -0.000007      0.081339
      4.22049      4.22049      7.50000        -0.000000     -0.000002     -0.500822
      6.33074      2.11025      7.50000         0.000216      0.000014     -0.500503
      4.22049      2.10905     13.88124        -0.000003     -0.003500      0.001104
      6.33285      4.22049     13.88636         0.004197      0.000001      0.002190
      4.22049      4.22049     11.73184        -0.000001      0.000001     -0.009024
      6.33138      2.11014     11.72905         0.000595      0.001182     -0.000203
    total drift:                               -0.000002     -0.000008      0.000414

  FREE ENERGIE OF THE ION-ELECTRON SYSTEM (eV)
  free  energy   TOTEN  =      -395.61534198 eV

  energy  without entropy=     -395.61534198  energy(sigma->0) =     -395.61534198