 vasp.6.3.0 20Jan22 (build Aug 21 2024 11:13:42) complex
 executed on        HPECrayEX_GCC date 2024.11.28  14:45:03

 INCAR:
   SYSTEM = MgO-rocksalt
   ISMEAR = 0
   SIGMA = 0.05
   EDIFF = 1E-8
   ALGO = ALL
   ISTART = 0
   IBRION = 5
   POTIM = 0.01
   NFREE = 2
   ISYM = 0
   DIPOL = 0.5 0.5 0.5
   IDIPOL = 3
   LDIPOL = .TRUE.
   GGA = PE
   IVDW = 21
   ENCUT = 600
   PREC = Accurate
   LASPH = .TRUE.
   LREAL = .FALSE.
   ISPIN = 1
   NELM = 200
   NELMIN = 8
   NCORE = 8
   KPAR = 1
   LWAVE = .FALSE.
   LCHARG = .FALSE.

 POTCAR:    PAW_PBE C 08Apr2002
 POTCAR:    PAW_PBE O 08Apr2002
 POTCAR:    PAW_PBE H 15Jun2001
 POTCAR:    PAW_PBE Ti_pv 07Sep2000
 POTCAR:    PAW_PBE O 08Apr2002
 POTCAR:    PAW_PBE C 08Apr2002
   VRHFIN =C: s2p2

   TITEL  = PAW_PBE C 08Apr2002
   POMASS =   12.011; ZVAL   =    4.000    mass and valenz
   ENMAX  =  400.000; ENMIN  =  300.000 eV

[...]

   TITEL  = PAW_PBE H 15Jun2001
   POMASS =    1.000; ZVAL   =    1.000    mass and valenz
   ENMAX  =  250.000; ENMIN  =  200.000 eV

   TITEL  = PAW_PBE Ti_pv 07Sep2000
   POMASS =   47.880; ZVAL   =   10.000    mass and valenz
   ENMAX  =  222.335; ENMIN  =  166.751 eV

   TITEL  = PAW_PBE O 08Apr2002
   POMASS =   16.000; ZVAL   =    6.000    mass and valenz
   ENMAX  =  400.000; ENMIN  =  300.000 eV

  PAW_PBE C 08Apr2002                   :
  PAW_PBE O 08Apr2002                   :
  PAW_PBE H 15Jun2001                   :
  PAW_PBE Ti_pv 07Sep2000               :
  PAW_PBE O 08Apr2002                   :

 POSCAR:  C  O  H Ti  O
  positions in direct lattice
 exchange correlation table for  LEXCH =        8
   RHO(1)=    0.500       N(1)  =     2000
   RHO(2)=  100.500       N(2)  =     4000

 ion  position               nearest neighbor table
   1  0.511  0.589  0.811-   3 1.09   5 1.10   6 1.10   2 1.45
   2  0.540  0.500  0.782-   4 1.00   1 1.45  86 2.17
   3  0.427  0.598  0.810-   1 1.09
   4  0.617  0.496  0.780-   2 1.00
   5  0.533  0.566  0.845-   1 1.10
   6  0.548  0.669  0.802-   1 1.10
   7  0.750  0.625  0.287-  87 1.96  88 1.96 147 1.96 148 1.96  90 1.98 169 1.98  17 2.97  37 2.97

   8  0.000  0.750  0.287-  89 1.96  90 1.96 109 1.96 110 1.96  91 1.98  38 2.97  18 2.97
   9  0.000  0.625  0.393-  91 1.96  92 1.96 151 1.96 152 1.96  93 1.98  94 1.98  19 2.97  39 2.97

[...]

  87  0.750  0.750  0.245-   7 1.96  17 1.96
  88  0.750  0.750  0.329-   7 1.96  17 1.96  10 1.98
  89  0.098  0.625  0.287-   8 1.96  38 1.96  47 1.98
  90  0.902  0.625  0.287-   8 1.96  38 1.96   7 1.98
  91  0.000  0.750  0.352-   9 1.96  19 1.96   8 1.98
  92  0.000  0.750  0.435-   9 1.96  19 1.96  12 1.98
  93  0.848  0.625  0.393-  10 1.96  40 1.96   9 1.98
  94  0.152  0.625  0.393-  50 1.96  80 1.96   9 1.98
  95  0.750  0.750  0.458-  11 1.96  21 1.96  10 1.98
  96  0.750  0.750  0.542-  11 1.96  21 1.96  14 2.10
  97  0.098  0.625  0.500-  12 1.96  42 1.96  51 1.98
  98  0.902  0.625  0.500-  12 1.96  42 1.96  11 1.98
  99  0.000  0.750  0.566-  23 1.90  13 1.90  12 2.01
 100  0.999  0.750  0.649-  16 1.81  13 2.02  23 2.03
 101  0.850  0.625  0.607-  13 1.97  44 1.97  14 1.98
 102  0.150  0.625  0.607-  13 1.94  54 1.98  84 1.99
 103  0.754  0.751  0.672-  14 1.87  15 2.08  25 2.10
 104  0.749  0.749  0.755-  15 1.84  25 1.84
 105  0.094  0.625  0.719-  46 1.95  16 1.96  55 2.03
 106  0.906  0.624  0.720-  46 1.95  16 1.96  15 2.03
 107  0.750  0.000  0.245-  17 1.96  27 1.96
 108  0.750  0.000  0.329-  17 1.96  27 1.96  20 1.98
 109  0.098  0.875  0.287-   8 1.96  18 1.96  57 1.98
 110  0.902  0.875  0.287-   8 1.96  18 1.96  17 1.98
 111  0.000  0.000  0.352-  19 1.96  29 1.96  18 1.98
 112  0.000  0.000  0.435-  19 1.96  29 1.96  22 1.98
 113  0.848  0.875  0.393-  10 1.96  20 1.96  19 1.98
 114  0.152  0.875  0.393-  50 1.96  60 1.96  19 1.98
 115  0.750  0.000  0.458-  21 1.96  31 1.96  20 1.98
 116  0.750  0.000  0.542-  21 1.96  31 1.96  24 2.11
 117  0.098  0.875  0.500-  12 1.96  22 1.96  61 1.98
 118  0.902  0.875  0.500-  12 1.96  22 1.96  21 1.98
 119  0.000  1.000  0.566-  33 1.90  23 1.90  22 2.01
 120  1.000  1.000  0.649-  26 1.81  23 2.02  33 2.02
 121  0.850  0.876  0.607-  23 1.95  14 1.98  24 1.98
 122  0.150  0.875  0.607-  23 1.96  64 1.97  54 1.98
 123  0.750  1.000  0.672-  24 1.88  35 2.09  25 2.10
 124  0.750  1.000  0.756-  35 1.83  25 1.84
 125  0.094  0.874  0.719-  16 1.94  26 1.95  65 2.05
 126  0.907  0.875  0.720-  16 1.95  26 1.95  25 2.04
 127  0.750  0.250  0.245-  27 1.96  37 1.96
 128  0.750  0.250  0.329-  27 1.96  37 1.96  30 1.98
 129  0.098  0.125  0.287-  18 1.96  28 1.96  67 1.98
 130  0.902  0.125  0.287-  18 1.96  28 1.96  27 1.98
 131  0.000  0.250  0.352-  29 1.96  39 1.96  28 1.98
 132  0.000  0.250  0.435-  29 1.96  39 1.96  32 1.98
 133  0.848  0.125  0.393-  20 1.96  30 1.96  29 1.98
 134  0.152  0.125  0.393-  60 1.96  70 1.96  29 1.98
 135  0.750  0.250  0.458-  31 1.96  41 1.96  30 1.98
 136  0.750  0.250  0.542-  31 1.96  41 1.96  34 2.10
 137  0.098  0.125  0.500-  22 1.96  32 1.96  71 1.98
 138  0.902  0.125  0.500-  22 1.96  32 1.96  31 1.98
 139  0.000  0.250  0.566-  33 1.90  43 1.90  32 2.01
 140  0.999  0.250  0.650-  36 1.81  43 2.02  33 2.03
 141  0.850  0.125  0.607-  33 1.96  34 1.98  24 1.98
 142  0.150  0.125  0.607-  33 1.95  64 1.98  74 1.99
 143  0.752  0.250  0.672-  34 1.88  45 2.07  35 2.11
 144  0.749  0.250  0.755-  45 1.83  35 1.85
 145  0.094  0.125  0.719-  36 1.94  26 1.95  75 2.05
 146  0.906  0.125  0.720-  36 1.95  26 1.95  35 2.04
[...]
 232  0.500  0.500  0.435-  49 1.96  79 1.96  82 1.98
 233  0.348  0.375  0.393-  70 1.96  80 1.96  79 1.98
 234  0.652  0.375  0.393-  30 1.96  40 1.96  79 1.98
 235  0.250  0.500  0.458-  51 1.96  81 1.96  80 1.98
 236  0.250  0.500  0.542-  51 1.96  81 1.96  84 2.11
 237  0.598  0.375  0.500-  72 1.96  82 1.96  41 1.98
 238  0.402  0.375  0.500-  72 1.96  82 1.96  81 1.98
 239  0.500  0.500  0.566-  53 1.90  83 1.90  82 2.01
 240  0.499  0.500  0.650-  86 1.92  83 1.98  53 1.98
 241  0.349  0.375  0.607-  84 1.97  74 1.97  83 1.98
 242  0.650  0.375  0.608-  83 1.95  34 1.98  44 1.99
 243  0.250  0.500  0.672-  84 1.87  55 2.09  85 2.11
 244  0.252  0.500  0.756-  55 1.84  85 1.84
 245  0.596  0.371  0.715-  76 1.92  86 1.97  45 2.03
 246  0.407  0.374  0.719-  86 1.93  76 1.95  85 2.04

IMPORTANT INFORMATION: All symmetrisations will be switched off!
NOSYMM: (Re-)initialisation of all symmetry stuff for point group C_1.

                                     Primitive cell

  volume of cell :    4740.1649

  direct lattice vectors                    reciprocal lattice vectors
    13.042933829  0.000000000  0.000000000     0.076669867  0.000000000  0.000000000
     0.000000000 11.878216733  0.000000000     0.000000000  0.084187721  0.000000000
     0.000000000  0.000000000 30.596159140     0.000000000  0.000000000  0.032683841

  length of vectors
    13.042933829 11.878216733 30.596159140     0.076669867  0.084187721  0.032683841

  position of ions in fractional coordinates (direct lattice)
     0.510519096  0.589272208  0.811491696
     0.540066063  0.500126764  0.781835080
     0.427115979  0.597656537  0.809585011
     0.616866388  0.495849325  0.780221188
     0.533460527  0.566257949  0.844821005
     0.547923946  0.669095882  0.802413349
     0.750000000  0.625000000  0.286853412
     0.000000000  0.750000000  0.286853412
     0.000000000  0.625000000  0.393426706
     0.750000000  0.750000000  0.393426706
     0.750000000  0.625000000  0.500000000
     0.000000000  0.750000000  0.500000000
     0.000894969  0.624976036  0.604434265
     0.750340284  0.749875810  0.610291194
     0.750884348  0.625722219  0.719170879
     0.000028877  0.750211979  0.708703241
     0.750000000  0.875000000  0.286853412
     0.000000000  0.000000000  0.286853412
     0.000000000  0.875000000  0.393426706
     0.750000000  0.000000000  0.393426706
     0.750000000  0.875000000  0.500000000
     0.000000000  0.000000000  0.500000000
     0.999398443  0.874965426  0.604484378
     0.749249702  0.000153633  0.610588765
     0.749882510  0.874893505  0.720283113
     0.000398598  0.999781004  0.708681335
     0.750000000  0.125000000  0.286853412
     0.000000000  0.250000000  0.286853412
     0.000000000  0.125000000  0.393426706
     0.750000000  0.250000000  0.393426706
     0.750000000  0.125000000  0.500000000
     0.000000000  0.250000000  0.500000000
     0.000147572  0.124893411  0.604507895
     0.750008814  0.249462154  0.610275268
     0.749717121  0.124014381  0.720342591
     0.000032340  0.249442449  0.708716800
     0.750000000  0.375000000  0.286853412
     0.000000000  0.500000000  0.286853412
     0.000000000  0.375000000  0.393426706
     0.750000000  0.500000000  0.393426706
     0.750000000  0.375000000  0.500000000
     0.000000000  0.500000000  0.500000000
     0.000103087  0.374912645  0.604427645
     0.751220984  0.500017726  0.610499117
     0.751393167  0.373063935  0.719355956
     0.000583192  0.499948857  0.708643400
     0.250000000  0.625000000  0.286853412
     0.500000000  0.750000000  0.286853412
     0.500000000  0.625000000  0.393426706
     0.250000000  0.750000000  0.393426706
     0.250000000  0.625000000  0.500000000
     0.500000000  0.750000000  0.500000000
     0.500357702  0.622578867  0.605809586
     0.250392109  0.750012952  0.610549924
     0.250073406  0.624985907  0.720169882
     0.501097434  0.749912700  0.707399408
     0.250000000  0.875000000  0.286853412
     0.500000000  0.000000000  0.286853412
     0.500000000  0.875000000  0.393426706
     0.250000000  0.000000000  0.393426706
[...]
     0.500000000  0.500000000  0.435151311
     0.347877722  0.375000000  0.393426706
     0.652122278  0.375000000  0.393426706
     0.250000000  0.500000000  0.458275395
     0.250000000  0.500000000  0.541724605
     0.597877722  0.375000000  0.500000000
     0.402122278  0.375000000  0.500000000
     0.500262283  0.499831593  0.565800911
     0.499173972  0.500161057  0.649922827
     0.349416402  0.374834467  0.607349233
     0.650447822  0.374872898  0.607744939
     0.249768799  0.500269397  0.671766192
     0.251650950  0.500009815  0.755659627
     0.596212819  0.371279663  0.715327750
     0.406613585  0.373880771  0.718656073

  ion indices of the primitive-cell ions
   primitive index   ion index
                 1           1
                 2           2
                 3           3
                 4           4
                 5           5
                 6           6
                 7           7
                 8           8
                 9           9
                10          10
                11          11
                12          12
                13          13
                14          14
                15          15
                16          16
                17          17
                18          18
                19          19
                20          20
                21          21
                22          22
                23          23
                24          24
                25          25
                26          26
                27          27
[...]
      6.52489      5.93711     17.31133         0.001014     -0.000195     -0.002697
      6.51069      5.94102     19.88514         0.000623      0.000154     -0.000078
      4.55742      4.45237     18.58255         0.000754      0.001547      0.000293
      8.48375      4.45282     18.59466        -0.001238      0.003259     -0.001346
      3.25772      5.94231     20.55347         0.002098      0.000321     -0.000397
      3.28227      5.93922     23.12028        -0.002260     -0.000173     -0.002131
      7.77636      4.41014     21.88628         0.001481      0.001008     -0.003749
      5.30343      4.44104     21.98812         0.001474      0.003048      0.000062
    total drift:                               -0.005758     -0.003554     -0.019854

  FREE ENERGIE OF THE ION-ELECTRON SYSTEM (eV)
  free  energy   TOTEN  =     -2186.34313492 eV

  energy  without entropy=    -2186.34313492  energy(sigma->0) =    -2186.34313492

 d Force =-0.3013436E-04[-0.139E-02, 0.133E-02]  d Energy = 0.2076560E-03-0.238E-03
 d Force =-0.7758387E+01[-0.776E+01,-0.776E+01]  d Ewald  =-0.7758343E+01-0.434E-04

 Finite differences progress:
  Degree of freedom:  18/ 18
  Displacement:        2/  2
  Total:              36/ 36

 SECOND DERIVATIVES (NOT SYMMETRIZED)
               1X          1Y          1Z          2X          2Y          2Z          3X          3Y          3Z          4X          4Y          4Z          5X          5Y          5Z          6X          6Y          6Z
  1X   -55.869463   -2.232213   -2.983992    8.991786   -1.045048   -0.147910   30.118082   -0.986314    2.649676    0.421653   -2.827757   -2.299644    6.683843   -2.133763    6.466400    9.816917    8.937171   -3.161957
  1Y    -2.240572  -44.637973    6.151130   -3.400480   12.232158    6.026460   -1.949347    4.475129   -0.396040   -0.497203    0.625984    0.454471   -1.938098    6.267225   -6.504356    9.526006   20.712341   -6.007167
  1Z    -2.985603    6.151307  -48.395297   -2.183674    5.817828   10.980069    1.624084   -0.213625    4.497805   -0.612750    0.356639    0.413834    6.835835   -7.171016   24.954603   -3.037531   -5.791736    6.471250
  2X     8.987006   -3.411134   -2.184004  -47.124068    4.951500    3.809054    0.655189   -3.037141   -2.650467   34.172098    0.902962    1.209232   -0.406483    0.489836    0.063514   -0.627100    0.297391    0.786277
  2Y    -1.047420   12.219317    5.813609    4.947314  -20.513072  -11.786661   -0.383755    0.753040    0.734166   -2.018755    2.892606    1.367784   -0.067742    0.150716    0.710904   -1.184806    2.865049    2.542090
  2Z    -0.147238    6.033350   10.978074    3.807880  -11.784065  -22.126556   -0.320109    0.434976    0.331552   -1.599163    1.687598    3.564054   -1.304927    3.463526    2.392523   -0.000246    0.802702   -0.040309
  3X    30.115380   -1.945335    1.627819    0.657388   -0.377871   -0.314142  -32.141334    2.421856   -1.625115   -0.215789   -0.061733   -0.004334    0.515314    0.092159    0.013490    0.961260   -0.111648    0.211595
  3Y    -0.991000    4.467127   -0.223740   -3.039237    0.755211    0.428921    2.417649   -5.134847   -0.478689    0.121401    0.343172    0.227401   -0.835483    0.001714   -0.138223    2.418951   -0.416348    0.185849
  3Z     2.655746   -0.398429    4.499330   -2.653090    0.736617    0.334469   -1.630357   -0.473772   -4.973011    0.066952    0.322306    0.210521    2.639501   -0.150886   -0.050637   -0.885172   -0.029318   -0.069998
  4X     0.422712   -0.495335   -0.612118   34.175709   -2.024298   -1.597800   -0.212070    0.122104    0.064503  -33.496874    2.108808   -0.230562   -0.012314    0.093562    0.095919   -0.059316    0.256319    0.119264
  4Y    -2.828645    0.629634    0.356615    0.910983    2.895186    1.688200   -0.063129    0.342406    0.324356    2.103977   -4.349751   -1.997191    0.046132   -0.085096    0.017478   -0.089072   -0.029242   -0.057948
  4Z    -2.299278    0.457584    0.410760    1.208129    1.367376    3.560436   -0.008301    0.229862    0.210110   -0.232971   -1.998672   -4.708174   -0.106760   -0.013723    0.047292    0.049871   -0.001705   -0.094424
  5X     6.680334   -1.937073    6.821378   -0.412366   -0.066901   -1.310125    0.514467   -0.835821    2.640910   -0.008473    0.046930   -0.110592   -6.412929    2.323384   -6.857643   -0.431196    0.531245   -1.320751
  5Y    -2.134645    6.267745   -7.161445    0.493999    0.149677    3.463643    0.092716    0.003068   -0.151249    0.090876   -0.085255   -0.011263    2.326025   -6.895313    6.204236   -0.770590    0.562882   -2.247885
  5Z     6.471998   -6.511087   24.937767    0.069652    0.722044    2.393672    0.017961   -0.136829   -0.058880    0.092328    0.014286    0.044087   -6.870544    6.219406  -27.743146    0.327749   -0.334678    0.569694
  6X     9.817028    9.510416   -3.041732   -0.624178   -1.184623    0.001487    0.961868    2.420231   -0.886045   -0.058811   -0.089243    0.047749   -0.431678   -0.769070    0.327576   -9.637082   -9.821323    3.371209
  6Y     8.942178   20.699164   -5.800169    0.298390    2.870273    0.802412   -0.109280   -0.415256   -0.031348    0.255913   -0.030215   -0.002082    0.531712    0.561998   -0.329575   -9.829672  -23.593351    5.526244
  6Z    -3.160229   -6.000377    6.477220    0.786154    2.545211   -0.036299    0.208504    0.189327   -0.069946    0.120128   -0.060178   -0.093561   -1.323569   -2.246997    0.576465    3.372374    5.521004   -6.789001

 Eigenvectors and eigenvalues of the dynamical matrix

   1 f  =   93.721683 THz   588.870704 2PiTHz 3126.218853 cm-1   387.601564 meV
             X         Y         Z           dx          dy          dz
      6.658667  6.999503 24.828529    -0.075040    0.012199   -0.011720
      7.044046  5.940614 23.921151    -0.240450    0.017809    0.014081
      5.570845  7.099094 24.770192     0.259516   -0.030031    0.008023
      8.045747  5.889806 23.871772     0.928306   -0.061876    0.003239
      6.957890  6.726135 25.848278     0.009447   -0.015596    0.037577
      7.146536  7.947666 24.550767    -0.002661   -0.008337   -0.004844
      9.782200  7.423885  8.776613            0           0           0
      0.000000  8.908663  8.776613            0           0           0
      0.000000  7.423885 12.037346            0           0           0
      9.782200  8.908663 12.037346            0           0           0
      9.782200  7.423885 15.298080            0           0           0
      0.000000  8.908663 15.298080            0           0           0
      0.011673  7.423601 18.493367            0           0           0
      9.786639  8.907187 18.672566            0           0           0
      9.793735  7.432464 22.003867            0           0           0
      0.000377  8.911180 21.683597            0           0           0
      9.782200 10.393440  8.776613            0           0           0
      0.000000  0.000000  8.776613            0           0           0
      0.000000 10.393440 12.037346            0           0           0
      9.782200  0.000000 12.037346            0           0           0
      9.782200 10.393440 15.298080            0           0           0
      0.000000  0.000000 15.298080            0           0           0
     13.035088 10.393029 18.494900            0           0           0
      9.772414  0.001825 18.681671            0           0           0
      9.780668 10.392175 22.037897            0           0           0
      0.005199 11.875615 21.682927            0           0           0
      9.782200  1.484777  8.776613            0           0           0
      0.000000  2.969554  8.776613            0           0           0
      0.000000  1.484777 12.037346            0           0           0
      9.782200  2.969554 12.037346            0           0           0
      9.782200  1.484777 15.298080            0           0           0
      0.000000  2.969554 15.298080            0           0           0
      0.001925  1.483511 18.495620            0           0           0
      9.782315  2.963166 18.672079            0           0           0
      9.778511  1.473070 22.039717            0           0           0
      0.000422  2.962931 21.684012            0           0           0
      9.782200  4.454331  8.776613            0           0           0
      0.000000  5.939108  8.776613            0           0           0
      0.000000  4.454331 12.037346            0           0           0
      9.782200  5.939108 12.037346            0           0           0
      9.782200  4.454331 15.298080            0           0           0
      0.000000  5.939108 15.298080            0           0           0
      0.001345  4.453294 18.493164            0           0           0
      9.798126  5.939319 18.678928            0           0           0
      9.800371  4.431334 22.009529            0           0           0
      0.007607  5.938501 21.681766            0           0           0
      3.260733  7.423885  8.776613            0           0           0
      6.521467  8.908663  8.776613            0           0           0
      6.521467  7.423885 12.037346            0           0           0
      3.260733  8.908663 12.037346            0           0           0
      3.260733  7.423885 15.298080            0           0           0
      6.521467  8.908663 15.298080            0           0           0
      6.526132  7.395127 18.535447            0           0           0
      3.265848  8.908816 18.680483            0           0           0
      3.261691  7.423718 22.034432            0           0           0
      6.535781  8.907626 21.643705            0           0           0
      3.260733 10.393440  8.776613            0           0           0
      6.521467  0.000000  8.776613            0           0           0
      6.521467 10.393440 12.037346            0           0           0
      3.260733  0.000000 12.037346            0           0           0
[...]
      6.521467  5.939108 13.313959            0           0           0
      4.537346  4.454331 12.037346            0           0           0
      8.505588  4.454331 12.037346            0           0           0
      3.260733  5.939108 14.021467            0           0           0
      3.260733  5.939108 16.574692            0           0           0
      7.798080  4.454331 15.298080            0           0           0
      5.244854  4.454331 15.298080            0           0           0
      6.524888  5.937108 17.311335            0           0           0
      6.510693  5.941021 19.885142            0           0           0
      4.557415  4.452365 18.582554            0           0           0
      8.483748  4.452822 18.594661            0           0           0
      3.257718  5.942308 20.553465            0           0           0
      3.282267  5.939225 23.120282            0           0           0
      7.776364  4.410140 21.886282            0           0           0
      5.303434  4.441037 21.988116            0           0           0

[...]

  18 f  =    2.163871 THz    13.596005 2PiTHz   72.178980 cm-1     8.949049 meV
             X         Y         Z           dx          dy          dz
      6.658667  6.999503 24.828529    -0.498878   -0.587943    0.271755
      7.044046  5.940614 23.921151    -0.096702   -0.230661    0.000342
      5.570845  7.099094 24.770192    -0.152819   -0.274061    0.063762
      8.045747  5.889806 23.871772    -0.022098    0.000836    0.027102
      6.957890  6.726135 25.848278    -0.136907   -0.223149    0.061957
      7.146536  7.947666 24.550767    -0.239011   -0.096510    0.162687
      9.782200  7.423885  8.776613            0           0           0
      0.000000  8.908663  8.776613            0           0           0
      0.000000  7.423885 12.037346            0           0           0
      9.782200  8.908663 12.037346            0           0           0
      9.782200  7.423885 15.298080            0           0           0
      0.000000  8.908663 15.298080            0           0           0
      0.011673  7.423601 18.493367            0           0           0
      9.786639  8.907187 18.672566            0           0           0
      9.793735  7.432464 22.003867            0           0           0
      0.000377  8.911180 21.683597            0           0           0
      9.782200 10.393440  8.776613            0           0           0
      0.000000  0.000000  8.776613            0           0           0
      0.000000 10.393440 12.037346            0           0           0
      9.782200  0.000000 12.037346            0           0           0
      9.782200 10.393440 15.298080            0           0           0
      0.000000  0.000000 15.298080            0           0           0
     13.035088 10.393029 18.494900            0           0           0
      9.772414  0.001825 18.681671            0           0           0
      9.780668 10.392175 22.037897            0           0           0
      0.005199 11.875615 21.682927            0           0           0
      9.782200  1.484777  8.776613            0           0           0
      0.000000  2.969554  8.776613            0           0           0
      0.000000  1.484777 12.037346            0           0           0
      9.782200  2.969554 12.037346            0           0           0
      9.782200  1.484777 15.298080            0           0           0
      0.000000  2.969554 15.298080            0           0           0
      0.001925  1.483511 18.495620            0           0           0
      9.782315  2.963166 18.672079            0           0           0
      9.778511  1.473070 22.039717            0           0           0
      0.000422  2.962931 21.684012            0           0           0
      9.782200  4.454331  8.776613            0           0           0
      0.000000  5.939108  8.776613            0           0           0
      0.000000  4.454331 12.037346            0           0           0
      9.782200  5.939108 12.037346            0           0           0
      9.782200  4.454331 15.298080            0           0           0
      0.000000  5.939108 15.298080            0           0           0
      0.001345  4.453294 18.493164            0           0           0
      9.798126  5.939319 18.678928            0           0           0
      9.800371  4.431334 22.009529            0           0           0
      0.007607  5.938501 21.681766            0           0           0
      3.260733  7.423885  8.776613            0           0           0
      6.521467  8.908663  8.776613            0           0           0
      6.521467  7.423885 12.037346            0           0           0
      3.260733  8.908663 12.037346            0           0           0
      3.260733  7.423885 15.298080            0           0           0
      6.521467  8.908663 15.298080            0           0           0
      6.526132  7.395127 18.535447            0           0           0
      3.265848  8.908816 18.680483            0           0           0
      3.261691  7.423718 22.034432            0           0           0
      6.535781  8.907626 21.643705            0           0           0
      3.260733 10.393440  8.776613            0           0           0
      6.521467  0.000000  8.776613            0           0           0
      6.521467 10.393440 12.037346            0           0           0
      3.260733  0.000000 12.037346            0           0           0
[...]
      6.521467  5.939108 13.313959            0           0           0
      4.537346  4.454331 12.037346            0           0           0
      8.505588  4.454331 12.037346            0           0           0
      3.260733  5.939108 14.021467            0           0           0
      3.260733  5.939108 16.574692            0           0           0
      7.798080  4.454331 15.298080            0           0           0
      5.244854  4.454331 15.298080            0           0           0
      6.524888  5.937108 17.311335            0           0           0
      6.510693  5.941021 19.885142            0           0           0
      4.557415  4.452365 18.582554            0           0           0
      8.483748  4.452822 18.594661            0           0           0
      3.257718  5.942308 20.553465            0           0           0
      3.282267  5.939225 23.120282            0           0           0
      7.776364  4.410140 21.886282            0           0           0
      5.303434  4.441037 21.988116            0           0           0

 Finite differences POTIM=   1.0000000000000000E-002