 vasp.6.4.2 20Jul23 (build Feb 22 2024 13:53:45) complex
 executed on              LinuxNV date 2024.08.23  11:37:45
 OpenACC runtime initialized ...    4 GPUs detected

 INCAR:
   SYSTEM = Oxide-Surface
   ISMEAR = 0
   SIGMA = 0.05
   EDIFF = 1E-5
   ALGO = Normal
   IBRION = -1
   NSW = 0
   ISYM = 0
   DIPOL = 0.5 0.5 0.5
   IDIPOL = 3
   LDIPOL = .TRUE.
   ISTART = 1
   GGA = PE
   IVDW = 263
   ENCUT = 520
   PREC = Normal
   PRECFOCK = Normal
   LASPH = .TRUE.
   LREAL = Auto
   ISPIN = 1
   NELM = 200
   NELMIN = 8
   NCORE = 1
   KPAR = 1
   LWAVE = .FALSE.
   LCHARG = .FALSE.

 POTCAR:    PAW_PBE Mg_sv 12Apr2007
 POTCAR:    PAW_PBE O 08Apr2002
 POTCAR:    PAW_PBE Mg_sv 12Apr2007
   VRHFIN =Mg: p6s2

   TITEL  = PAW_PBE Mg_sv 12Apr2007
   POMASS =   24.305; ZVAL   =   10.000    mass and valenz
   ENMAX  =  495.223; ENMIN  =  371.417 eV

   TITEL  = PAW_PBE O 08Apr2002
   POMASS =   16.000; ZVAL   =    6.000    mass and valenz
   ENMAX  =  400.000; ENMIN  =  300.000 eV

 Optimization of the real space projectors (new method)

 maximal supplied QI-value         = 22.11
 optimisation between [QCUT,QGAM] = [ 11.50, 23.22] = [ 37.02,150.92] Ry
 Optimized for a Real-space Cutoff    1.14 Angstroem

   l    n(q)    QCUT    max X(q) W(low)/X(q) W(high)/X(q)  e(spline)
   0      8    11.497     8.730    0.49E-04    0.64E-04    0.16E-07
   0      8    11.497     8.910    0.67E-04    0.91E-04    0.30E-07
   1      7    11.497     2.513    0.13E-03    0.16E-04    0.93E-07
   1      7    11.497     3.341    0.38E-03    0.12E-03    0.27E-06
   2      7    11.497     3.683    0.37E-03    0.44E-03    0.72E-07
 Optimization of the real space projectors (new method)

 maximal supplied QI-value         = 24.76
 optimisation between [QCUT,QGAM] = [ 11.64, 23.27] = [ 37.91,151.63] Ry
 Optimized for a Real-space Cutoff    1.04 Angstroem

   l    n(q)    QCUT    max X(q) W(low)/X(q) W(high)/X(q)  e(spline)
   0      7    11.635    20.381    0.14E-03    0.49E-03    0.18E-06
   0      7    11.635    15.268    0.16E-03    0.52E-03    0.19E-06
   1      7    11.635     5.964    0.30E-03    0.44E-03    0.22E-06
   1      7    11.635     5.382    0.27E-03    0.34E-03    0.19E-06
  PAW_PBE Mg_sv 12Apr2007               :
  PAW_PBE O 08Apr2002                   :

 POSCAR: Mg  O
  positions in direct lattice
 exchange correlation table for  LEXCH =        8
   RHO(1)=    0.500       N(1)  =     2000
   RHO(2)=  100.500       N(2)  =     4000

 ion  position               nearest neighbor table
   1  0.124  0.874  0.207-  33 2.11  35 2.11  36 2.11  43 2.11  52 2.11
   2  0.374  0.124  0.207-  34 2.11  35 2.11  36 2.11  44 2.11  51 2.11
   3  0.124  0.124  0.331-  35 2.11  34 2.11  33 2.11  41 2.11  50 2.11  39 2.12
   4  0.374  0.874  0.331-  36 2.11  34 2.11  33 2.11  42 2.11  49 2.11  40 2.12
   5  0.124  0.874  0.456-  47 2.11  40 2.11  56 2.11  39 2.11  33 2.12
   6  0.374  0.124  0.456-  55 2.11  48 2.11  40 2.11  39 2.11  34 2.12
   7  0.124  0.124  0.580-  37 2.11  38 2.11  45 2.11  54 2.11  39 2.11
   8  0.374  0.875  0.579-  40 2.11  38 2.11  37 2.11  46 2.11  53 2.11
   9  0.124  0.374  0.207-  41 2.11  35 2.11  43 2.11  44 2.11  60 2.11
  10  0.374  0.624  0.207-  42 2.11  36 2.11  43 2.11  44 2.11  59 2.11
  11  0.124  0.624  0.331-  43 2.11  41 2.11  42 2.11  33 2.11  58 2.11  47 2.12
  12  0.374  0.374  0.331-  44 2.11  41 2.11  42 2.11  34 2.11  57 2.11  48 2.12
  13  0.124  0.374  0.456-  47 2.11  48 2.11  64 2.11  39 2.11  41 2.12
  14  0.375  0.624  0.456-  63 2.11  48 2.11  40 2.11  47 2.11  42 2.13
  15  0.124  0.624  0.580-  46 2.10  62 2.10  47 2.11  45 2.11  37 2.11
  16  0.374  0.374  0.579-  48 2.11  45 2.11  38 2.11  46 2.11  61 2.11
  17  0.624  0.874  0.207-  49 2.11  36 2.11  51 2.11  52 2.11  59 2.11
  18  0.874  0.124  0.207-  50 2.11  35 2.11  51 2.11  52 2.11  60 2.11
  19  0.624  0.124  0.331-  51 2.11  49 2.11  50 2.11  34 2.11  57 2.11  55 2.12
  20  0.874  0.874  0.331-  52 2.11  49 2.11  50 2.11  33 2.11  58 2.11  56 2.12
  21  0.624  0.874  0.456-  63 2.11  56 2.11  40 2.11  55 2.11  49 2.13
  22  0.874  0.124  0.456-  55 2.11  56 2.11  64 2.11  39 2.11  50 2.12
  23  0.624  0.124  0.580-  53 2.10  61 2.10  55 2.11  38 2.11  54 2.11
  24  0.875  0.875  0.579-  56 2.11  54 2.11  37 2.11  53 2.11  62 2.11
  25  0.624  0.374  0.207-  57 2.11  51 2.11  44 2.11  59 2.11  60 2.11
  26  0.874  0.624  0.207-  58 2.11  52 2.11  43 2.11  59 2.11  60 2.11
  27  0.624  0.624  0.331-  59 2.11  49 2.11  57 2.11  58 2.11  42 2.11  63 2.13
  28  0.874  0.374  0.331-  60 2.11  50 2.11  57 2.11  58 2.11  41 2.11  64 2.12
  29  0.624  0.375  0.456-  63 2.11  48 2.11  64 2.11  55 2.11  57 2.13
  30  0.874  0.624  0.456-  63 2.11  56 2.11  64 2.11  47 2.11  58 2.13
  31  0.624  0.624  0.582-  46 2.12  53 2.12  61 2.12  62 2.12
  32  0.875  0.374  0.579-  64 2.11  54 2.11  45 2.11  62 2.11  61 2.11
  33  0.124  0.874  0.331-   1 2.11   3 2.11   4 2.11  11 2.11  20 2.11   5 2.12
  34  0.374  0.124  0.331-   2 2.11   3 2.11   4 2.11  12 2.11  19 2.11   6 2.12
  35  0.124  0.124  0.207-   3 2.11   2 2.11   1 2.11   9 2.11  18 2.11
  36  0.374  0.874  0.207-   4 2.11   2 2.11   1 2.11  10 2.11  17 2.11
  37  0.124  0.875  0.583-   7 2.11   8 2.11  24 2.11  15 2.11
  38  0.374  0.124  0.583-   7 2.11   8 2.11  16 2.11  23 2.11
  39  0.124  0.124  0.456-   7 2.11   6 2.11   5 2.11  13 2.11  22 2.11   3 2.12
  40  0.374  0.874  0.456-   8 2.11   6 2.11   5 2.11  14 2.11  21 2.11   4 2.12
  41  0.124  0.374  0.331-   9 2.11   3 2.11  11 2.11  12 2.11  28 2.11  13 2.12
  42  0.374  0.624  0.331-  10 2.11   4 2.11  11 2.11  12 2.11  27 2.11  14 2.13
  43  0.124  0.624  0.207-  11 2.11   9 2.11  10 2.11   1 2.11  26 2.11
  44  0.374  0.374  0.207-  12 2.11   9 2.11  10 2.11   2 2.11  25 2.11
  45  0.124  0.374  0.583-   7 2.11  16 2.11  32 2.11  15 2.11
  46  0.373  0.624  0.582-  15 2.10   8 2.11  16 2.11  31 2.12
  47  0.124  0.624  0.456-  15 2.11  13 2.11   5 2.11  14 2.11  30 2.11  11 2.12
  48  0.374  0.374  0.456-  16 2.11  13 2.11   6 2.11  14 2.11  29 2.11  12 2.12
  49  0.624  0.874  0.331-  17 2.11   4 2.11  19 2.11  20 2.11  27 2.11  21 2.13
  50  0.874  0.124  0.331-  18 2.11   3 2.11  19 2.11  20 2.11  28 2.11  22 2.12
  51  0.624  0.124  0.207-  19 2.11  17 2.11  18 2.11   2 2.11  25 2.11
  52  0.874  0.874  0.207-  20 2.11  17 2.11  18 2.11   1 2.11  26 2.11
  53  0.624  0.876  0.582-  23 2.10   8 2.11  24 2.11  31 2.12
  54  0.875  0.124  0.583-   7 2.11  24 2.11  32 2.11  23 2.11
  55  0.624  0.124  0.456-  23 2.11  22 2.11   6 2.11  21 2.11  29 2.11  19 2.12
  56  0.874  0.874  0.456-  24 2.11  22 2.11   5 2.11  21 2.11  30 2.11  20 2.12
  57  0.624  0.374  0.331-  25 2.11  19 2.11  12 2.11  27 2.11  28 2.11  29 2.13
  58  0.874  0.624  0.331-  26 2.11  20 2.11  11 2.11  27 2.11  28 2.11  30 2.13
  59  0.624  0.624  0.207-  27 2.11  17 2.11  25 2.11  26 2.11  10 2.11
  60  0.874  0.374  0.207-  28 2.11  18 2.11  25 2.11  26 2.11   9 2.11
  61  0.624  0.373  0.582-  23 2.10  16 2.11  32 2.11  31 2.12
  62  0.876  0.624  0.582-  15 2.10  24 2.11  32 2.11  31 2.12
  63  0.624  0.624  0.456-  14 2.11  21 2.11  29 2.11  30 2.11  27 2.13
  64  0.874  0.374  0.456-  32 2.11  22 2.11  13 2.11  30 2.11  29 2.11  28 2.12

IMPORTANT INFORMATION: All symmetrisations will be switched off!
NOSYMM: (Re-)initialisation of all symmetry stuff for point group C_1.

                                     Primitive cell

  volume of cell :    1211.2538

  direct lattice vectors                    reciprocal lattice vectors
     8.440984654  0.000000000  0.000000000     0.118469591  0.000000000  0.000000000
     0.000000000  8.440984654  0.000000000     0.000000000  0.118469591  0.000000000
     0.000000000  0.000000000 17.000000000     0.000000000  0.000000000  0.058823529

  length of vectors
     8.440984654  8.440984654 17.000000000     0.118469591  0.118469591  0.058823529

  position of ions in fractional coordinates (direct lattice)
     0.124411355  0.874411355  0.206882870
     0.374411355  0.124411355  0.206882870
     0.124411355  0.124411355  0.331014998
     0.374411355  0.874411355  0.331014998
     0.124411355  0.874350623  0.455922972
     0.374472087  0.124411355  0.455922972
     0.124411355  0.124411355  0.579719137
     0.374269682  0.874553028  0.579498600
     0.124411355  0.374411355  0.206882870
     0.374411355  0.624411355  0.206882870
     0.124411355  0.624411355  0.331014998
     0.374411355  0.374411355  0.331014998
     0.124411355  0.374472087  0.455922972
     0.374789734  0.624411355  0.456093975
     0.124411355  0.624411355  0.579555984
     0.374269682  0.374269682  0.579498600
     0.624411355  0.874411355  0.206882870
     0.874411355  0.124411355  0.206882870
     0.624411355  0.124411355  0.331014998
     0.874411355  0.874411355  0.331014998
     0.624411355  0.874032976  0.456093975
     0.874350623  0.124411355  0.455922972
     0.624411355  0.124411355  0.579555984
     0.874553028  0.874553028  0.579498600
     0.624411355  0.374411355  0.206882870
     0.874411355  0.624411355  0.206882870
     0.624411355  0.624411355  0.331014998
     0.874411355  0.374411355  0.331014998
     0.624411355  0.374789734  0.456093975
     0.874032976  0.624411355  0.456093975
     0.624411355  0.624411355  0.582067590
     0.874553028  0.374269682  0.579498600
     0.124411355  0.874411355  0.331014998
     0.374411355  0.124411355  0.331014998
     0.124411355  0.124411355  0.206882870
     0.374411355  0.874411355  0.206882870
     0.124411355  0.874629888  0.582522179
     0.374192822  0.124411355  0.582522179
     0.124411355  0.124411355  0.455579988
     0.374357125  0.874465584  0.455641750
     0.124411355  0.374411355  0.331014998
     0.374411355  0.624411355  0.331014998
     0.124411355  0.624411355  0.206882870
     0.374411355  0.374411355  0.206882870
     0.124411355  0.374192822  0.582522179
     0.373234064  0.624411355  0.582401242
     0.124411355  0.624411355  0.455520732
     0.374357125  0.374357125  0.455641750
     0.624411355  0.874411355  0.331014998
     0.874411355  0.124411355  0.331014998
     0.624411355  0.124411355  0.206882870
     0.874411355  0.874411355  0.206882870
     0.624411355  0.875588645  0.582401242
     0.874629888  0.124411355  0.582522179
     0.624411355  0.124411355  0.455520732
     0.874465584  0.874465584  0.455641750
     0.624411355  0.374411355  0.331014998
     0.874411355  0.624411355  0.331014998
     0.624411355  0.624411355  0.206882870
     0.874411355  0.374411355  0.206882870
     0.624411355  0.373234064  0.582401242
     0.875588645  0.624411355  0.582401242
     0.624411355  0.624411355  0.456108822
     0.874465584  0.374357125  0.455641750

  ion indices of the primitive-cell ions
   primitive index   ion index
                 1           1
                 2           2
                 3           3
                 4           4
                 5           5
                 6           6
                 7           7
                 8           8
                 9           9
                10          10
                11          11
                12          12
                13          13
[...]
   O          22.355          3.321          5.849          2.767          3.383          1.086
   O          22.358          3.321          5.849          2.767          3.381          1.087
   O          22.347          3.321          5.848          2.781          3.435          1.086
   O          22.347          3.321          5.847          2.781          3.435          1.086
   O          20.977          3.288          5.677          2.313          1.976          1.057
   O          20.942          3.287          5.672          2.310          1.967          1.056

  vdW correction parametrized for the method pbe

  IVDW = 263
  VDW_RADIUS =    50.000 A
  VDW_SR =     0.830
  VDW_D =     6.000
  SCSRAD =   120.000 A
  LVDWSCS = T
  LSCSGRAD = T
  LSCALER0 = T
  ITIM =  1
  Edisp (eV):  -17.78191

  FORCE on cell =-STRESS in cart. coord.  units (eV):
  Direction    XX          YY          ZZ          XY          YZ          ZX
  Alpha Z  1294.36587  1294.36587  1294.36587
  Ewald  112331.85202112331.85202************    -0.00000     0.00000    -0.00000
  Hartree128915.86699128915.86699************     0.00091     0.00077     0.00077
  E(xc)   -3201.96710 -3201.96710 -3208.05848     0.00002     0.00003     0.00003
  Local  ************************252545.73455    -0.00161    -0.00106    -0.00106
  n-local -5912.07510 -5912.07510 -5907.21869     0.01159     0.01001     0.01001
  augment   916.55043   916.55043   908.13727    -0.00741    -0.00507    -0.00507
  Kinetic 10941.54837 10941.54837 10953.61290     0.00040     0.00116     0.00116
  Fock        0.00000     0.00000     0.00000     0.00000     0.00000     0.00000
  vdW       -23.47771   -23.47771   -16.23450    -0.00002    -0.00000    -0.00000
  Total     -47.81997   -47.81997   -17.36419     0.00389     0.00584     0.00584
  in kB     -63.25352   -63.25352   -22.96836     0.00514     0.00772     0.00772

 VOLUME and BASIS-vectors are now :
  energy-cutoff  :      520.00
  volume of cell :     1211.25
      direct lattice vectors                 reciprocal lattice vectors
     8.440984654  0.000000000  0.000000000     0.118469591  0.000000000  0.000000000
     0.000000000  8.440984654  0.000000000     0.000000000  0.118469591  0.000000000
     0.000000000  0.000000000 17.000000000     0.000000000  0.000000000  0.058823529

  length of vectors
     8.440984654  8.440984654 17.000000000     0.118469591  0.118469591  0.058823529

 FORCES acting on ions
    electron-ion (+dipol)            ewald-force                    non-local-force                 convergence-correction
   0.288E-03 0.108E+00 0.245E+04   -.178E-13 -.107E+00 -.244E+04   0.197E-02 0.112E-02 -.914E+01   -.254E-07 -.294E-06 0.212E-04
   -.108E+00 0.288E-03 0.245E+04   0.107E+00 -.213E-13 -.244E+04   0.282E-02 0.197E-02 -.914E+01   0.166E-06 0.207E-06 0.210E-04
   0.165E-03 0.165E-03 0.812E+03   -.355E-14 0.746E-13 -.812E+03   0.257E-02 0.257E-02 0.630E+00   -.437E-07 -.326E-08 0.217E-04
   -.613E+00 0.614E+00 0.811E+03   0.616E+00 -.616E+00 -.812E+03   0.127E-02 0.386E-02 0.677E+00   0.127E-06 0.141E-06 0.218E-04
   0.148E-03 0.410E+00 -.820E+03   0.107E-13 -.405E+00 0.820E+03   0.269E-02 0.420E-02 -.296E+00   0.189E-06 0.165E-06 -.620E-05
   -.409E+00 0.150E-03 -.820E+03   0.405E+00 0.817E-13 0.820E+03   -.348E-04 0.238E-02 -.296E+00   -.201E-06 0.322E-08 -.592E-05
   0.239E-03 0.239E-03 -.243E+04   0.426E-13 0.000E+00 0.242E+04   0.347E-02 0.347E-02 0.768E+01   -.188E-08 0.300E-07 -.307E-04
   -.170E+01 0.170E+01 -.243E+04   0.151E+01 -.151E+01 0.242E+04   0.175E+00 -.167E+00 0.775E+01   0.502E-06 -.431E-06 -.324E-04
   0.288E-03 -.108E+00 0.245E+04   0.302E-13 0.107E+00 -.244E+04   0.197E-02 0.282E-02 -.914E+01   0.196E-06 0.303E-06 0.216E-04
   -.151E+00 0.290E-03 0.245E+04   0.153E+00 0.222E-13 -.244E+04   0.318E-03 0.195E-02 -.914E+01   -.110E-06 -.213E-06 0.211E-04
   0.162E-03 0.170E-03 0.811E+03   -.107E-12 0.000E+00 -.812E+03   0.257E-02 0.257E-02 0.604E+00   -.763E-07 0.199E-07 0.210E-04
   -.613E+00 -.613E+00 0.811E+03   0.616E+00 0.616E+00 -.812E+03   0.127E-02 0.127E-02 0.677E+00   0.502E-07 -.105E-06 0.219E-04
   0.150E-03 -.409E+00 -.820E+03   0.853E-13 0.405E+00 0.820E+03   0.238E-02 -.348E-04 -.296E+00   0.173E-06 -.130E-06 -.616E-05
   -.240E+01 0.164E-03 -.822E+03   0.250E+01 -.497E-13 0.822E+03   -.108E+00 0.260E-02 -.367E+00   -.117E-06 -.219E-07 -.490E-05
   0.286E-03 0.249E-03 -.243E+04   -.142E-13 -.426E-13 0.242E+04   0.427E-02 0.441E-02 0.764E+01   -.101E-06 -.244E-07 -.298E-04
   -.170E+01 -.170E+01 -.243E+04   0.151E+01 0.151E+01 0.242E+04   0.176E+00 0.176E+00 0.775E+01   0.449E-06 0.467E-06 -.325E-04
   0.290E-03 0.151E+00 0.245E+04   -.168E-12 -.153E+00 -.244E+04   0.196E-02 0.358E-02 -.914E+01   0.189E-07 -.180E-07 0.209E-04
   0.108E+00 0.288E-03 0.245E+04   -.107E+00 -.302E-13 -.244E+04   0.112E-02 0.197E-02 -.914E+01   -.139E-06 -.101E-07 0.211E-04
   0.170E-03 0.162E-03 0.811E+03   -.185E-12 0.107E-13 -.812E+03   0.257E-02 0.257E-02 0.604E+00   0.326E-07 -.124E-06 0.212E-04
   0.614E+00 0.614E+00 0.811E+03   -.616E+00 -.616E+00 -.812E+03   0.387E-02 0.387E-02 0.677E+00   -.553E-07 0.754E-07 0.219E-04
   0.160E-03 0.240E+01 -.822E+03   0.959E-13 -.250E+01 0.822E+03   0.324E-02 0.113E+00 -.369E+00   -.224E-06 0.533E-08 -.536E-05
   0.410E+00 0.148E-03 -.820E+03   -.405E+00 0.568E-13 0.820E+03   0.420E-02 0.269E-02 -.296E+00   0.230E-06 0.152E-07 -.611E-05
   0.249E-03 0.285E-03 -.243E+04   -.121E-12 -.355E-14 0.242E+04   0.441E-02 0.427E-02 0.764E+01   -.605E-08 -.441E-07 -.309E-04
   0.170E+01 0.170E+01 -.243E+04   -.151E+01 -.151E+01 0.242E+04   -.168E+00 -.168E+00 0.775E+01   -.505E-06 -.532E-06 -.324E-04
   0.290E-03 -.151E+00 0.245E+04   -.117E-12 0.153E+00 -.244E+04   0.195E-02 0.318E-03 -.914E+01   -.228E-06 0.467E-07 0.214E-04
   0.151E+00 0.290E-03 0.245E+04   -.153E+00 -.551E-13 -.244E+04   0.358E-02 0.196E-02 -.914E+01   0.869E-07 0.182E-07 0.212E-04
   0.179E-03 0.179E-03 0.809E+03   -.114E-12 -.178E-13 -.810E+03   0.255E-02 0.255E-02 0.800E+00   0.119E-06 0.800E-07 0.216E-04
   0.614E+00 -.613E+00 0.811E+03   -.616E+00 0.616E+00 -.812E+03   0.386E-02 0.127E-02 0.677E+00   -.821E-08 -.550E-07 0.220E-04
   0.164E-03 -.240E+01 -.822E+03   -.171E-12 0.250E+01 0.822E+03   0.261E-02 -.108E+00 -.367E+00   -.203E-06 -.106E-07 -.507E-05
   0.240E+01 0.160E-03 -.822E+03   -.250E+01 -.284E-13 0.822E+03   0.113E+00 0.324E-02 -.369E+00   0.787E-07 0.686E-08 -.477E-05
   0.332E-03 0.332E-03 -.245E+04   -.142E-13 -.391E-13 0.244E+04   0.162E-02 0.162E-02 0.824E+01   0.465E-07 0.785E-07 -.305E-04
   0.170E+01 -.170E+01 -.243E+04   -.151E+01 0.151E+01 0.242E+04   -.167E+00 0.175E+00 0.775E+01   -.437E-06 0.496E-06 -.322E-04
   -.434E-04 0.209E+00 0.486E+03   0.622E-14 -.209E+00 -.486E+03   -.323E-03 0.958E-03 -.975E-01   -.118E-07 -.211E-07 0.185E-06
   -.209E+00 -.433E-04 0.486E+03   0.209E+00 -.115E-13 -.486E+03   -.161E-02 -.323E-03 -.975E-01   0.342E-07 -.243E-07 0.202E-06
   -.640E-04 -.639E-04 0.148E+04   0.799E-14 -.129E-13 -.149E+04   0.155E-03 0.155E-03 0.350E+01   0.589E-08 -.902E-07 0.193E-04
   -.794E-01 0.792E-01 0.148E+04   0.792E-01 -.792E-01 -.149E+04   0.236E-03 0.731E-04 0.350E+01   0.841E-07 0.192E-07 0.193E-04
   -.116E-03 0.542E+00 -.149E+04   -.711E-13 -.568E+00 0.150E+04   0.664E-02 0.202E-01 -.513E+01   0.533E-07 -.778E-07 -.116E-04
   -.542E+00 -.928E-04 -.149E+04   0.568E+00 -.115E-13 0.150E+04   -.844E-02 0.514E-02 -.513E+01   0.764E-07 -.579E-07 -.115E-04
   -.110E-04 -.109E-04 -.486E+03   0.355E-13 -.142E-13 0.486E+03   0.785E-03 0.785E-03 0.229E+00   0.236E-07 -.429E-07 -.113E-04
   -.790E+00 0.790E+00 -.486E+03   0.780E+00 -.780E+00 0.485E+03   0.173E-01 -.184E-01 0.332E+00   0.113E-06 -.738E-07 -.113E-04
   -.433E-04 -.209E+00 0.486E+03   -.497E-13 0.209E+00 -.486E+03   -.323E-03 -.161E-02 -.975E-01   0.148E-07 0.692E-07 0.226E-06
   -.412E+00 -.395E-04 0.485E+03   0.383E+00 -.195E-13 -.485E+03   0.388E-01 -.328E-03 -.110E+00   -.242E-07 0.701E-08 0.116E-06
   -.643E-04 -.632E-04 0.148E+04   -.147E-13 -.546E-13 -.149E+04   0.154E-03 0.154E-03 0.350E+01   0.846E-09 0.732E-07 0.193E-04
   -.794E-01 -.794E-01 0.148E+04   0.792E-01 0.792E-01 -.149E+04   0.237E-03 0.237E-03 0.350E+01   0.760E-07 -.191E-07 0.194E-04
   -.929E-04 -.542E+00 -.149E+04   -.121E-12 0.568E+00 0.150E+04   0.514E-02 -.844E-02 -.513E+01   0.544E-07 0.402E-07 -.115E-04
   -.346E+01 -.426E-04 -.149E+04   0.340E+01 -.799E-14 0.149E+04   0.204E+00 0.640E-02 -.481E+01   -.375E-06 0.692E-07 -.118E-04
   0.729E-05 -.180E-04 -.485E+03   0.995E-13 -.213E-13 0.485E+03   0.809E-03 0.879E-03 0.310E+00   0.480E-07 0.423E-07 -.111E-04
   -.790E+00 -.790E+00 -.486E+03   0.780E+00 0.780E+00 0.485E+03   0.181E-01 0.181E-01 0.332E+00   0.616E-07 0.693E-07 -.113E-04
   -.399E-04 0.412E+00 0.485E+03   0.409E-13 -.383E+00 -.485E+03   -.327E-03 -.395E-01 -.110E+00   -.114E-07 0.114E-07 0.128E-06
   0.209E+00 -.434E-04 0.486E+03   -.209E+00 -.142E-13 -.486E+03   0.958E-03 -.323E-03 -.975E-01   -.337E-07 -.640E-07 0.222E-06
   -.632E-04 -.642E-04 0.148E+04   0.103E-12 0.444E-15 -.149E+04   0.154E-03 0.154E-03 0.350E+01   0.972E-08 -.108E-06 0.192E-04
   0.792E-01 0.792E-01 0.148E+04   -.792E-01 -.792E-01 -.149E+04   0.738E-04 0.738E-04 0.350E+01   -.914E-07 0.623E-08 0.193E-04
   -.731E-04 0.346E+01 -.149E+04   0.160E-13 -.340E+01 0.149E+04   0.458E-02 -.200E+00 -.481E+01   -.351E-07 0.387E-06 -.119E-04
   0.542E+00 -.116E-03 -.149E+04   -.568E+00 0.426E-13 0.150E+04   0.202E-01 0.664E-02 -.513E+01   -.786E-07 -.417E-07 -.115E-04
   -.179E-04 0.735E-05 -.485E+03   0.142E-13 0.782E-13 0.485E+03   0.879E-03 0.809E-03 0.310E+00   -.340E-07 -.701E-07 -.111E-04
   0.790E+00 0.790E+00 -.486E+03   -.780E+00 -.780E+00 0.485E+03   -.192E-01 -.192E-01 0.331E+00   -.107E-06 0.566E-08 -.113E-04
   -.395E-04 -.412E+00 0.485E+03   0.107E-12 0.383E+00 -.485E+03   -.328E-03 0.388E-01 -.110E+00   -.364E-07 -.188E-07 0.116E-06
   0.412E+00 -.399E-04 0.485E+03   -.383E+00 0.426E-13 -.485E+03   -.395E-01 -.328E-03 -.110E+00   0.235E-07 0.685E-07 0.124E-06
   -.607E-04 -.607E-04 0.148E+04   0.702E-13 -.488E-14 -.149E+04   0.153E-03 0.153E-03 0.350E+01   0.183E-07 0.883E-07 0.192E-04
   0.792E-01 -.794E-01 0.148E+04   -.792E-01 0.792E-01 -.149E+04   0.731E-04 0.236E-03 0.350E+01   -.542E-07 0.135E-07 0.194E-04
   -.425E-04 -.346E+01 -.149E+04   0.000E+00 0.340E+01 0.149E+04   0.640E-02 0.204E+00 -.481E+01   -.405E-07 -.414E-06 -.119E-04
   0.346E+01 -.733E-04 -.149E+04   -.340E+01 -.142E-13 0.149E+04   -.200E+00 0.458E-02 -.481E+01   0.398E-06 0.782E-07 -.117E-04
   -.720E-04 -.721E-04 -.495E+03   0.121E-12 0.284E-13 0.496E+03   -.359E-03 -.359E-03 -.120E+00   -.101E-06 0.481E-07 -.111E-04
   0.790E+00 -.790E+00 -.486E+03   -.780E+00 0.780E+00 0.485E+03   -.184E-01 0.173E-01 0.332E+00   -.792E-07 0.810E-07 -.113E-04
   0.540E-02 0.540E-02 0.192E+02   -.800E-12 0.247E-12 0.165E-11   0.123E+00 0.123E+00 -.188E+02   -.321E-07 0.198E-06 0.193E-04

 POSITION                                       TOTAL-FORCE (eV/Angst)
      1.05015      7.38089      3.51701         0.000246      0.000256      0.519784
      3.16040      1.05015      3.51701         0.000238      0.000247      0.519781
      1.05015      1.05015      5.62725         0.000722      0.000723      0.110449
      3.16040      7.38089      5.62725         0.001178      0.000272      0.111207
      1.05015      7.38038      7.75069         0.000822      0.006026     -0.040615
      3.16091      1.05015      7.75069        -0.005571      0.000514     -0.040704
      1.05015      1.05015      9.85523         0.001700      0.001701     -0.171705
      3.15920      7.38209      9.85148        -0.021106      0.025578     -0.160325
      1.05015      3.16040      3.51701         0.000246      0.000241      0.519782
      3.16040      5.27065      3.51701         0.000802      0.000236      0.519531
      1.05015      5.27065      5.62725         0.000723      0.000727      0.115090
      3.16040      3.16040      5.62725         0.001176      0.001179      0.111198
      1.05015      3.16091      7.75069         0.000513     -0.005570     -0.040704
      3.16359      5.27065      7.75360        -0.008875      0.000762     -0.048283
      1.05015      5.27065      9.85245         0.002539      0.002644     -0.156856
      3.15920      3.15920      9.85148        -0.020261     -0.020260     -0.159916
      5.27065      7.38089      3.51701         0.000241     -0.000346      0.519545
      7.38089      1.05015      3.51701         0.000262      0.000250      0.519784
      5.27065      1.05015      5.62725         0.000730      0.000726      0.115093
      7.38089      7.38089      5.62725         0.000276      0.000274      0.111220
      5.27065      7.37770      7.75360         0.001399      0.010440     -0.050406
      7.38038      1.05015      7.75069         0.006025      0.000825     -0.040615
      5.27065      1.05015      9.85245         0.002648      0.002543     -0.156855
      7.38209      7.38209      9.85148         0.024845      0.024845     -0.160682
      5.27065      3.16040      3.51701         0.000240      0.000808      0.519531
      7.38089      5.27065      3.51701        -0.000342      0.000239      0.519546
      5.27065      5.27065      5.62725         0.000718      0.000717      0.119740
      7.38089      3.16040      5.62725         0.000277      0.001182      0.111206
      5.27065      3.16359      7.75360         0.000766     -0.008876     -0.048283
      7.37770      5.27065      7.75360         0.010441      0.001398     -0.050406
      5.27065      5.27065      9.89515        -0.000054     -0.000055     -0.429051
      7.38209      3.15920      9.85148         0.025578     -0.021106     -0.160326
      1.05015      7.38089      5.62725        -0.002376     -0.001720      0.056851
      3.16040      1.05015      5.62725        -0.003032     -0.002376      0.056853
      1.05015      1.05015      3.51701        -0.001919     -0.001919     -0.471486
      3.16040      7.38089      3.51701        -0.001879     -0.001957     -0.471166
      1.05015      7.38274      9.90288         0.004517     -0.007999     -0.046804
      3.15856      1.05015      9.90288         0.015555      0.003039     -0.047954
      1.05015      1.05015      7.74486        -0.001234     -0.001234      0.018526
      3.15994      7.38135      7.74591         0.005217     -0.010360      0.018180
      1.05015      3.16040      5.62725        -0.002376     -0.003032      0.056853
      3.16040      5.27065      5.62725         0.007680     -0.002376      0.067203
      1.05015      5.27065      3.51701        -0.001920     -0.001917     -0.471196
      3.16040      3.16040      3.51701        -0.001878     -0.001878     -0.471166
      1.05015      3.15856      9.90288         0.003038      0.015555     -0.047954
      3.15046      5.27065      9.90082         0.142655      0.004354      0.032769
      1.05015      5.27065      7.74385        -0.001190     -0.001149      0.030603
      3.15994      3.15994      7.74591         0.005994      0.005994      0.019038
      5.27065      7.38089      5.62725        -0.002376     -0.012433      0.067202
      7.38089      1.05015      5.62725        -0.001720     -0.002376      0.056852
      5.27065      1.05015      3.51701        -0.001917     -0.001919     -0.471196
      7.38089      7.38089      3.51701        -0.001956     -0.001957     -0.471165
      5.27065      7.39083      9.90082         0.002499     -0.143113      0.034353
      7.38274      1.05015      9.90288        -0.008000      0.004517     -0.046804
      5.27065      1.05015      7.74385        -0.001149     -0.001189      0.030603
      7.38135      7.38135      7.74591        -0.011133     -0.011133      0.017310
      5.27065      3.16040      5.62725        -0.002376      0.007681      0.067203
      7.38089      5.27065      5.62725        -0.012433     -0.002376      0.067202
      5.27065      5.27065      3.51701        -0.001916     -0.001916     -0.470866
      7.38089      3.16040      3.51701        -0.001957     -0.001878     -0.471166
      5.27065      3.15046      9.90082         0.004354      0.142655      0.032769
      7.39083      5.27065      9.90082        -0.143112      0.002498      0.034353
      5.27065      5.27065      7.75385        -0.002443     -0.002443      0.029259
      7.38135      3.15994      7.74591        -0.010360      0.005217      0.018180
    total drift:                                0.128590      0.128590      0.405767

  FREE ENERGIE OF THE ION-ELECTRON SYSTEM (eV)
  free  energy   TOTEN  =      -390.58454353 eV

  energy  without entropy=     -390.58454353  energy(sigma->0) =     -390.58454353