 vasp.6.3.0 20Jan22 (build Mar 11 2022 13:48:16) complex

 executed on             LinuxIFC date 2024.02.12  03:40:04

 INCAR:
   SYSTEM = Oxide-Surface
   ISMEAR = 0
   SIGMA = 0.05
   EDIFF = 1E-5
   ALGO = ALL
   ISTART = 0
   IBRION = -1
   NSW = 0
   ISYM = 2
   DIPOL = 0.5 0.5 0.5
   IDIPOL = 3
   LDIPOL = .TRUE.
   GGA = PE
   IVDW = 263
   ENCUT = 600
   PREC = Accurate
   LASPH = .TRUE.
   LREAL = .FALSE.
   ISPIN = 1
   NELM = 200
   NELMIN = 8
   NCORE = 19
   KPAR = 1
   LWAVE = .FALSE.
   LCHARG = .FALSE.

 POTCAR:    PAW_PBE Mg_pv 13Apr2007
 POTCAR:    PAW_PBE O 08Apr2002
 POTCAR:    PAW_PBE Mg_pv 13Apr2007
   VRHFIN =Mg: p6s2

   TITEL  = PAW_PBE Mg_pv 13Apr2007
   POMASS =   24.305; ZVAL   =    8.000    mass and valenz
   ENMAX  =  403.929; ENMIN  =  302.947 eV

   TITEL  = PAW_PBE O 08Apr2002
   POMASS =   16.000; ZVAL   =    6.000    mass and valenz
   ENMAX  =  400.000; ENMIN  =  300.000 eV

  PAW_PBE Mg_pv 13Apr2007               :
  PAW_PBE O 08Apr2002                   :

 POSCAR: Mg  O
  positions in direct lattice
 exchange correlation table for  LEXCH =        8
   RHO(1)=    0.500       N(1)  =     2000
   RHO(2)=  100.500       N(2)  =     4000

 ion  position               nearest neighbor table
   1  0.000  0.750  0.352-  33 2.11  35 2.11  36 2.11  43 2.11  52 2.11
   2  0.250  0.000  0.352-  34 2.11  35 2.11  36 2.11  44 2.11  51 2.11
   3  0.000  0.000  0.451-  35 2.11  34 2.11  33 2.11  41 2.11  50 2.11  39 2.12
   4  0.250  0.750  0.451-  36 2.11  34 2.11  33 2.11  42 2.11  49 2.11  40 2.12
   5  0.000  0.750  0.550-  47 2.11  40 2.11  56 2.11  39 2.11  33 2.12  37 2.15
   6  0.250  0.000  0.550-  55 2.11  48 2.11  40 2.11  39 2.11  34 2.12  38 2.15
   7  0.000  0.000  0.649-  37 2.11  38 2.11  45 2.11  54 2.11  39 2.11
   8  0.250  0.750  0.649-  40 2.11  38 2.11  37 2.11  46 2.11  53 2.11
   9  0.000  0.250  0.352-  41 2.11  35 2.11  43 2.11  44 2.11  60 2.11
  10  0.250  0.500  0.352-  42 2.11  36 2.11  43 2.11  44 2.11  59 2.11
  11  0.000  0.500  0.451-  43 2.11  41 2.11  42 2.11  33 2.11  58 2.11  47 2.12
  12  0.250  0.250  0.451-  44 2.11  41 2.11  42 2.11  34 2.11  57 2.11  48 2.12
  13  0.000  0.250  0.550-  47 2.11  48 2.11  64 2.11  39 2.11  41 2.12  45 2.15
  14  0.250  0.500  0.550-  63 2.11  48 2.11  40 2.11  47 2.11  42 2.13  46 2.15
  15  0.000  0.500  0.649-  46 2.10  62 2.10  47 2.11  45 2.11  37 2.11
  16  0.250  0.250  0.649-  48 2.11  45 2.11  38 2.11  46 2.11  61 2.11
  17  0.500  0.750  0.352-  49 2.11  36 2.11  51 2.11  52 2.11  59 2.11
  18  0.750  0.000  0.352-  50 2.11  35 2.11  51 2.11  52 2.11  60 2.11
  19  0.500  0.000  0.451-  51 2.11  49 2.11  50 2.11  34 2.11  57 2.11  55 2.12
  20  0.750  0.750  0.451-  52 2.11  49 2.11  50 2.11  33 2.11  58 2.11  56 2.12
  21  0.500  0.750  0.550-  63 2.11  56 2.11  40 2.11  55 2.11  49 2.13  53 2.15
  22  0.750  0.000  0.550-  55 2.11  56 2.11  64 2.11  39 2.11  50 2.12  54 2.15
  23  0.500  0.000  0.649-  53 2.10  61 2.10  55 2.11  38 2.11  54 2.11
  24  0.750  0.750  0.649-  56 2.11  54 2.11  37 2.11  53 2.11  62 2.11
  25  0.500  0.250  0.352-  57 2.11  51 2.11  44 2.11  59 2.11  60 2.11
  26  0.750  0.500  0.352-  58 2.11  52 2.11  43 2.11  59 2.11  60 2.11
  27  0.500  0.500  0.451-  59 2.11  49 2.11  57 2.11  58 2.11  42 2.11  63 2.13
  28  0.750  0.250  0.451-  60 2.11  50 2.11  57 2.11  58 2.11  41 2.11  64 2.12
  29  0.500  0.250  0.550-  63 2.11  48 2.11  64 2.11  55 2.11  57 2.13  61 2.15
  30  0.750  0.500  0.550-  63 2.11  56 2.11  64 2.11  47 2.11  58 2.13  62 2.15
  31  0.500  0.500  0.651-  46 2.12  53 2.12  61 2.12  62 2.12  63 2.14
  32  0.750  0.250  0.649-  64 2.11  54 2.11  45 2.11  62 2.11  61 2.11
  33  0.000  0.750  0.451-   1 2.11   3 2.11   4 2.11  11 2.11  20 2.11   5 2.12
  34  0.250  0.000  0.451-   2 2.11   3 2.11   4 2.11  12 2.11  19 2.11   6 2.12
  35  0.000  0.000  0.352-   3 2.11   2 2.11   1 2.11   9 2.11  18 2.11
  36  0.250  0.750  0.352-   4 2.11   2 2.11   1 2.11  10 2.11  17 2.11
  37  0.000  0.750  0.651-   7 2.11   8 2.11  24 2.11  15 2.11   5 2.15
  38  0.250  0.000  0.651-   7 2.11   8 2.11  16 2.11  23 2.11   6 2.15
  39  0.000  0.000  0.550-   7 2.11   6 2.11   5 2.11  13 2.11  22 2.11   3 2.12
  40  0.250  0.750  0.550-   8 2.11   6 2.11   5 2.11  14 2.11  21 2.11   4 2.12
  41  0.000  0.250  0.451-   9 2.11   3 2.11  11 2.11  12 2.11  28 2.11  13 2.12
  42  0.250  0.500  0.451-  10 2.11   4 2.11  11 2.11  12 2.11  27 2.11  14 2.13
  43  0.000  0.500  0.352-  11 2.11   9 2.11  10 2.11   1 2.11  26 2.11
  44  0.250  0.250  0.352-  12 2.11   9 2.11  10 2.11   2 2.11  25 2.11
  45  0.000  0.250  0.651-   7 2.11  16 2.11  32 2.11  15 2.11  13 2.15
  46  0.249  0.500  0.651-  15 2.10   8 2.11  16 2.11  31 2.12  14 2.15
  47  0.000  0.500  0.550-  15 2.11  13 2.11   5 2.11  14 2.11  30 2.11  11 2.12
  48  0.250  0.250  0.550-  16 2.11  13 2.11   6 2.11  14 2.11  29 2.11  12 2.12
  49  0.500  0.750  0.451-  17 2.11   4 2.11  19 2.11  20 2.11  27 2.11  21 2.13
  50  0.750  0.000  0.451-  18 2.11   3 2.11  19 2.11  20 2.11  28 2.11  22 2.12
  51  0.500  0.000  0.352-  19 2.11  17 2.11  18 2.11   2 2.11  25 2.11
  52  0.750  0.750  0.352-  20 2.11  17 2.11  18 2.11   1 2.11  26 2.11
  53  0.500  0.751  0.651-  23 2.10   8 2.11  24 2.11  31 2.12  21 2.15
  54  0.750  0.000  0.651-   7 2.11  24 2.11  32 2.11  23 2.11  22 2.15
  55  0.500  0.000  0.550-  23 2.11  22 2.11   6 2.11  21 2.11  29 2.11  19 2.12
  56  0.750  0.750  0.550-  24 2.11  22 2.11   5 2.11  30 2.11  21 2.11  20 2.12
  57  0.500  0.250  0.451-  25 2.11  19 2.11  12 2.11  27 2.11  28 2.11  29 2.13
  58  0.750  0.500  0.451-  26 2.11  20 2.11  11 2.11  27 2.11  28 2.11  30 2.13
  59  0.500  0.500  0.352-  27 2.11  17 2.11  25 2.11  26 2.11  10 2.11
  60  0.750  0.250  0.352-  28 2.11  18 2.11  25 2.11  26 2.11   9 2.11
  61  0.500  0.249  0.651-  23 2.10  16 2.11  32 2.11  31 2.12  29 2.15
  62  0.751  0.500  0.651-  15 2.10  24 2.11  32 2.11  31 2.12  30 2.15
  63  0.500  0.500  0.550-  14 2.11  21 2.11  29 2.11  30 2.11  27 2.13  31 2.14
  64  0.750  0.250  0.550-  32 2.11  22 2.11  13 2.11  30 2.11  29 2.11  28 2.12

  LATTYP: Found a simple tetragonal cell.
 ALAT       =     8.4409846542
 C/A-ratio  =     2.5270438657

  Lattice vectors:

 A1 = (   8.4409846542,   0.0000000000,   0.0000000000)
 A2 = (   0.0000000000,   8.4409846542,   0.0000000000)
 A3 = (   0.0000000000,   0.0000000000,  21.3307384906)

Analysis of symmetry for initial positions (statically):
 Subroutine PRICEL returns:
 Original cell was already a primitive cell.

 Routine SETGRP: Setting up the symmetry group for a
 simple tetragonal supercell.

 Subroutine GETGRP returns: Found  8 space group operations
 (whereof  8 operations were pure point group operations)
 out of a pool of 16 trial point group operations.

The static configuration has the point symmetry C_4v.

Analysis of symmetry for dynamics (positions and initial velocities):
 Subroutine PRICEL returns:
 Original cell was already a primitive cell.

[...]

The dynamic configuration has the point symmetry C_4v.

Analysis of constrained symmetry for selective dynamics:
 Subroutine PRICEL returns:
 Original cell was already a primitive cell.

 Routine SETGRP: Setting up the symmetry group for a
 simple tetragonal supercell.

 Subroutine GETGRP returns: Found  8 space group operations
 (whereof  8 operations were pure point group operations)
 out of a pool of 16 trial point group operations.

The constrained configuration has the point symmetry C_4v.

 Subroutine INISYM returns: Found  8 space group operations
 (whereof  8 operations are pure point group operations),
 and found     1 'primitive' translations

                                     Primitive cell

  volume of cell :    1519.8199

  direct lattice vectors                    reciprocal lattice vectors
     8.440984654  0.000000000  0.000000000     0.118469591  0.000000000  0.000000000
     0.000000000  8.440984654  0.000000000     0.000000000  0.118469591  0.000000000
     0.000000000  0.000000000 21.330738491     0.000000000  0.000000000  0.046880702

  length of vectors
     8.440984654  8.440984654 21.330738491     0.118469591  0.118469591  0.046880702

  position of ions in fractional coordinates (direct lattice)
     0.000000000  0.750000000  0.351605267
     0.250000000  0.000000000  0.351605267
     0.000000000  0.000000000  0.450535089
     0.250000000  0.750000000  0.450535089
     0.000000000  0.749939268  0.550083239
     0.250060732  0.000000000  0.550083239
     0.000000000  0.000000000  0.648745309
     0.249858327  0.750141673  0.648569547
     0.000000000  0.250000000  0.351605267
     0.250000000  0.500000000  0.351605267
     0.000000000  0.500000000  0.450535089
     0.250000000  0.250000000  0.450535089
     0.000000000  0.250060732  0.550083239
     0.250378379  0.500000000  0.550219524
     0.000000000  0.500000000  0.648615280
     0.249858327  0.249858327  0.648569547
     0.500000000  0.750000000  0.351605267
     0.750000000  0.000000000  0.351605267
     0.500000000  0.000000000  0.450535089
     0.750000000  0.750000000  0.450535089
     0.500000000  0.749621621  0.550219524
     0.749939268  0.000000000  0.550083239
     0.500000000  0.000000000  0.648615280
     0.750141673  0.750141673  0.648569547
     0.500000000  0.250000000  0.351605267
     0.750000000  0.500000000  0.351605267
     0.500000000  0.500000000  0.450535089
     0.750000000  0.250000000  0.450535089
     0.500000000  0.250378379  0.550219524
     0.749621621  0.500000000  0.550219524
     0.500000000  0.500000000  0.650616960
     0.750141673  0.249858327  0.648569547
     0.000000000  0.750000000  0.450535089
     0.250000000  0.000000000  0.450535089
     0.000000000  0.000000000  0.351605267
     0.250000000  0.750000000  0.351605267
     0.000000000  0.750218533  0.650979255
     0.249781467  0.000000000  0.650979255
     0.000000000  0.000000000  0.549809890
     0.249945770  0.750054230  0.549859113
     0.000000000  0.250000000  0.450535089
     0.250000000  0.500000000  0.450535089
     0.000000000  0.500000000  0.351605267
     0.250000000  0.250000000  0.351605267
     0.000000000  0.249781467  0.650979255
     0.248822710  0.500000000  0.650882872
     0.000000000  0.500000000  0.549762666
     0.249945770  0.249945770  0.549859113
     0.500000000  0.750000000  0.450535089
     0.750000000  0.000000000  0.450535089
     0.500000000  0.000000000  0.351605267
     0.750000000  0.750000000  0.351605267
     0.500000000  0.751177290  0.650882872
     0.750218533  0.000000000  0.650979255
     0.500000000  0.000000000  0.549762666
     0.750054230  0.750054230  0.549859113
     0.500000000  0.250000000  0.450535089
     0.750000000  0.500000000  0.450535089
     0.500000000  0.500000000  0.351605267
     0.750000000  0.250000000  0.351605267
     0.500000000  0.248822710  0.650882872
     0.751177290  0.500000000  0.650882872
     0.500000000  0.500000000  0.550231357
     0.750054230  0.249945770  0.549859113

  ion indices of the primitive-cell ions
   primitive index   ion index
                 1           1
                 2           2
                 3           3
[...]
   O          22.292          3.320          5.840          2.783          3.441          1.085
   O          22.292          3.320          5.840          2.783          3.441          1.085
   O          20.859          3.285          5.661          2.302          1.948          1.054
   O          20.855          3.285          5.660          2.314          1.979          1.054
   O          20.886          3.286          5.664          2.302          1.948          1.055
   O          20.888          3.286          5.664          2.300          1.942          1.055
   O          22.320          3.320          5.844          2.771          3.397          1.085
   O          22.321          3.320          5.844          2.771          3.396          1.085
   O          22.292          3.320          5.840          2.783          3.441          1.085
   O          22.314          3.320          5.843          2.785          3.449          1.085
   O          20.860          3.285          5.661          2.301          1.944          1.054
   O          20.855          3.285          5.660          2.314          1.979          1.054
   O          20.888          3.286          5.664          2.300          1.942          1.055
   O          20.886          3.286          5.664          2.302          1.948          1.055
   O          22.320          3.320          5.844          2.771          3.397          1.085
   O          22.321          3.320          5.844          2.771          3.396          1.085
   O          22.314          3.320          5.843          2.785          3.449          1.085
   O          22.292          3.320          5.840          2.783          3.441          1.085
   O          20.860          3.285          5.661          2.301          1.944          1.054
   O          20.855          3.285          5.660          2.314          1.979          1.054
   O          20.888          3.286          5.664          2.300          1.942          1.055
   O          20.888          3.286          5.664          2.300          1.942          1.055
   O          22.317          3.320          5.843          2.771          3.398          1.085
   O          22.321          3.320          5.844          2.771          3.396          1.085
   O          22.314          3.320          5.843          2.785          3.449          1.085
   O          22.314          3.320          5.843          2.785          3.449          1.085
   O          20.893          3.286          5.666          2.318          1.989          1.055
   O          20.855          3.285          5.660          2.314          1.979          1.054

  vdW correction parametrized for the method pbe

  IVDW = 263
  VDW_RADIUS =    50.000 A
  VDW_SR =     0.830
  VDW_D =     6.000
  SCSRAD =   120.000 A
  LVDWSCS = T
  LSCSGRAD = T
  LSCALER0 = T
  ITIM =  1
  Edisp (eV):  -17.71221

  FORCE on cell =-STRESS in cart. coord.  units (eV):
  Direction    XX          YY          ZZ          XY          YZ          ZX
  Alpha Z   875.25928   875.25928   875.25928
  Ewald  161112.87060161112.87060************     0.00000     0.00000    -0.00000
  Hartree171172.50440171172.50440************    -0.00000    -0.00000    -0.00000
  E(xc)   -2456.54843 -2456.54843 -2461.83709     0.00000     0.00000    -0.00000
  Local  ************************342556.83912     0.00000     0.00000    -0.00000
  n-local -2811.65252 -2812.35383 -2832.89262     0.08622     0.00000     0.00001
  augment  1047.84992  1047.84992  1038.52792     0.00000     0.00000     0.00000
  Kinetic  7301.46151  7303.67385  7344.43181    -0.86124     0.00001    -0.00001
  Fock        0.00000     0.00000     0.00000     0.00000     0.00000     0.00000
  vdW       -23.23116   -23.47556   -16.10992    -0.07124     0.00000    -0.00000
  Total     -42.56804   -42.56804   -11.88459     0.00000     0.00000     0.00000
  in kB     -44.87475   -44.87475   -12.52861     0.00000     0.00000     0.00000

 VOLUME and BASIS-vectors are now :
  energy-cutoff  :      600.00
  volume of cell :     1519.82
      direct lattice vectors                 reciprocal lattice vectors
     8.440984654  0.000000000  0.000000000     0.118469591  0.000000000  0.000000000
     0.000000000  8.440984654  0.000000000     0.000000000  0.118469591  0.000000000
     0.000000000  0.000000000 21.330738491     0.000000000  0.000000000  0.046880702

  length of vectors
     8.440984654  8.440984654 21.330738491     0.118469591  0.118469591  0.046880702

 FORCES acting on ions:
    Electron-Ion                     Ewald-Force                    Non-Local-Force
   -.430E-13 0.761E-01 0.207E+04   -.132E-12 -.754E-01 -.206E+04   0.108E-22 -.543E-03 -.704E+01
   -.761E-01 0.626E-12 0.207E+04   0.754E-01 0.537E-13 -.206E+04   0.543E-03 0.111E-22 -.704E+01
   -.743E-13 0.377E-12 0.684E+03   -.151E-10 0.151E-10 -.684E+03   0.176E-23 -.401E-23 0.492E+00
   -.439E+00 0.439E+00 0.683E+03   0.441E+00 -.441E+00 -.684E+03   -.988E-03 0.988E-03 0.528E+00
   -.702E-13 0.276E+00 -.690E+03   0.162E-11 -.271E+00 0.690E+03   -.836E-22 0.113E-02 -.198E+00
   -.276E+00 -.549E-12 -.690E+03   0.271E+00 -.144E-11 0.690E+03   -.113E-02 -.171E-21 -.198E+00
   -.657E-13 0.242E-12 -.205E+04   0.419E-12 -.348E-12 0.204E+04   -.164E-22 0.867E-23 0.594E+01
   -.136E+01 0.136E+01 -.205E+04   0.121E+01 -.121E+01 0.204E+04   0.130E+00 -.130E+00 0.600E+01
   -.504E-13 -.761E-01 0.207E+04   -.356E-12 0.754E-01 -.206E+04   -.578E-23 0.543E-03 -.704E+01
   -.115E+00 0.125E-11 0.207E+04   0.116E+00 0.131E-10 -.206E+04   -.140E-02 0.496E-24 -.704E+01
   -.680E-13 0.122E-11 0.683E+03   -.166E-10 0.391E-13 -.684E+03   0.611E-24 0.191E-22 0.472E+00
   -.439E+00 -.439E+00 0.683E+03   0.441E+00 0.441E+00 -.684E+03   -.988E-03 -.988E-03 0.528E+00
   -.663E-13 -.276E+00 -.690E+03   0.298E-11 0.271E+00 0.690E+03   0.199E-21 -.113E-02 -.198E+00
   -.164E+01 0.103E-11 -.691E+03   0.172E+01 -.995E-13 0.692E+03   -.821E-01 -.442E-21 -.256E+00
   -.509E-13 0.129E-11 -.205E+04   0.142E-13 -.355E-14 0.204E+04   0.261E-22 -.209E-22 0.591E+01
   -.136E+01 -.136E+01 -.205E+04   0.121E+01 0.121E+01 0.204E+04   0.130E+00 0.130E+00 0.600E+01
   0.727E-12 0.115E+00 0.207E+04   -.128E-10 -.116E+00 -.206E+04   0.389E-22 0.140E-02 -.704E+01
   0.761E-01 0.646E-12 0.207E+04   -.754E-01 0.702E-13 -.206E+04   -.543E-03 0.959E-24 -.704E+01
   0.621E-12 -.909E-13 0.683E+03   0.154E-11 0.150E-10 -.684E+03   0.189E-22 0.812E-22 0.472E+00
   0.439E+00 0.439E+00 0.683E+03   -.441E+00 -.441E+00 -.684E+03   0.988E-03 0.988E-03 0.528E+00
   0.620E-12 0.164E+01 -.691E+03   -.153E-11 -.172E+01 0.692E+03   0.391E-21 0.821E-01 -.256E+00
   0.276E+00 -.576E-12 -.690E+03   -.271E+00 -.153E-11 0.690E+03   0.113E-02 -.618E-22 -.198E+00
   0.699E-12 0.976E-12 -.205E+04   0.853E-13 -.249E-13 0.204E+04   -.171E-22 -.730E-22 0.591E+01
   0.136E+01 0.136E+01 -.205E+04   -.121E+01 -.121E+01 0.204E+04   -.130E+00 -.130E+00 0.600E+01
   0.726E-12 -.115E+00 0.207E+04   -.132E-10 0.116E+00 -.206E+04   -.271E-21 -.140E-02 -.704E+01
   0.115E+00 -.862E-12 0.207E+04   -.116E+00 0.131E-10 -.206E+04   0.140E-02 -.288E-23 -.704E+01
   0.616E-12 0.788E-12 0.681E+03   -.249E-13 0.924E-13 -.682E+03   -.157E-21 -.770E-22 0.620E+00
   0.439E+00 -.439E+00 0.683E+03   -.441E+00 0.441E+00 -.684E+03   0.988E-03 -.988E-03 0.528E+00
   0.611E-12 -.164E+01 -.691E+03   0.000E+00 0.172E+01 0.692E+03   -.707E-21 -.821E-01 -.256E+00
   0.164E+01 -.835E-12 -.691E+03   -.172E+01 -.284E-13 0.692E+03   0.821E-01 -.217E-21 -.256E+00
   0.674E-12 0.161E-11 -.207E+04   0.675E-13 -.711E-14 0.206E+04   0.119E-22 -.195E-22 0.636E+01
   0.136E+01 -.136E+01 -.205E+04   -.121E+01 0.121E+01 0.204E+04   -.130E+00 0.130E+00 0.600E+01
   -.291E-13 0.176E+00 0.512E+03   0.950E-13 -.177E+00 -.512E+03   -.317E-21 0.131E-02 -.950E-01
   -.176E+00 -.943E-12 0.512E+03   0.177E+00 -.444E-14 -.512E+03   -.131E-02 0.196E-21 -.950E-01
   -.193E-13 -.189E-12 0.155E+04   0.854E-11 -.844E-11 -.156E+04   0.687E-22 0.704E-23 0.349E+01
   -.724E-01 0.724E-01 0.155E+04   0.725E-01 -.725E-01 -.156E+04   -.727E-04 0.727E-04 0.349E+01
   -.546E-13 0.424E+00 -.156E+04   -.799E-12 -.450E+00 0.156E+04   0.451E-21 0.130E-01 -.512E+01
   -.424E+00 0.525E-12 -.156E+04   0.450E+00 0.856E-12 0.156E+04   -.130E-01 -.128E-21 -.512E+01
   -.390E-13 -.503E-12 -.512E+03   -.711E-14 0.497E-13 0.511E+03   -.140E-22 -.171E-22 0.226E+00
   -.696E+00 0.696E+00 -.511E+03   0.687E+00 -.687E+00 0.511E+03   0.179E-01 -.179E-01 0.327E+00
   -.337E-13 -.176E+00 0.512E+03   0.924E-13 0.177E+00 -.512E+03   0.526E-21 -.131E-02 -.950E-01
   -.413E+00 -.547E-12 0.511E+03   0.385E+00 -.762E-11 -.511E+03   0.390E-01 0.572E-22 -.108E+00
   -.203E-13 0.269E-12 0.155E+04   0.846E-11 -.867E-12 -.156E+04   0.279E-22 0.473E-23 0.349E+01
   -.724E-01 -.724E-01 0.155E+04   0.725E-01 0.725E-01 -.156E+04   -.727E-04 -.727E-04 0.349E+01
   -.580E-13 -.424E+00 -.156E+04   -.782E-12 0.450E+00 0.156E+04   0.705E-21 -.130E-01 -.512E+01
   -.307E+01 -.552E-12 -.156E+04   0.301E+01 0.818E-11 0.156E+04   0.196E+00 0.175E-20 -.480E+01
   -.316E-13 0.783E-12 -.511E+03   -.742E-11 0.711E-14 0.510E+03   -.171E-22 -.765E-22 0.309E+00
   -.696E+00 -.696E+00 -.511E+03   0.687E+00 0.687E+00 0.511E+03   0.179E-01 0.179E-01 0.327E+00
   0.296E-12 0.413E+00 0.511E+03   0.763E-11 -.385E+00 -.511E+03   -.145E-21 -.390E-01 -.108E+00
   0.176E+00 -.879E-12 0.512E+03   -.177E+00 -.568E-13 -.512E+03   0.131E-02 -.873E-22 -.950E-01
   0.380E-12 0.202E-12 0.155E+04   0.918E-12 -.848E-11 -.156E+04   -.777E-22 0.164E-22 0.349E+01
   0.724E-01 0.724E-01 0.155E+04   -.725E-01 -.725E-01 -.156E+04   0.727E-04 0.727E-04 0.349E+01
   0.339E-12 0.307E+01 -.156E+04   -.815E-11 -.301E+01 0.156E+04   0.311E-22 -.196E+00 -.480E+01
   0.424E+00 0.539E-12 -.156E+04   -.450E+00 0.888E-12 0.156E+04   0.130E-01 -.244E-20 -.512E+01
   0.299E-12 -.298E-12 -.511E+03   -.355E-13 0.743E-11 0.510E+03   0.302E-23 0.191E-22 0.309E+00
   0.696E+00 0.696E+00 -.511E+03   -.687E+00 -.687E+00 0.511E+03   -.179E-01 -.179E-01 0.327E+00
   0.291E-12 -.413E+00 0.511E+03   0.769E-11 0.385E+00 -.511E+03   0.993E-22 0.390E-01 -.108E+00
   0.413E+00 -.261E-11 0.511E+03   -.385E+00 -.770E-11 -.511E+03   -.390E-01 0.895E-23 -.108E+00
   0.381E-12 0.512E-12 0.155E+04   0.876E-12 -.888E-12 -.156E+04   -.566E-22 0.199E-22 0.349E+01
   0.724E-01 -.724E-01 0.155E+04   -.725E-01 0.725E-01 -.156E+04   0.727E-04 -.727E-04 0.349E+01
   0.331E-12 -.307E+01 -.156E+04   -.818E-11 0.301E+01 0.156E+04   -.774E-21 0.196E+00 -.480E+01
   0.307E+01 0.929E-12 -.156E+04   -.301E+01 0.818E-11 0.156E+04   -.196E+00 0.152E-21 -.480E+01
   0.278E-12 0.194E-12 -.520E+03   -.782E-13 0.355E-13 0.520E+03   0.126E-22 0.295E-23 -.122E+00
   0.696E+00 -.696E+00 -.511E+03   -.687E+00 0.687E+00 0.511E+03   -.179E-01 0.179E-01 0.327E+00
   0.208E-10 0.177E-10 0.164E+02   -.165E-12 0.179E-12 0.841E-11   0.104E-16 -.625E-16 -.164E+02

 POSITION                                       TOTAL-FORCE (eV/Angst)
      0.00000      6.33074      7.50000        -0.000000     -0.000039      0.515938
      2.11025      0.00000      7.50000         0.000039     -0.000000      0.515938
      0.00000      0.00000      9.61025        -0.000000     -0.000000      0.114771
      2.11025      6.33074      9.61025         0.000448     -0.000448      0.115621
      0.00000      6.33023     11.73368        -0.000000      0.005258     -0.039511
      2.11076      0.00000     11.73368        -0.005258     -0.000000     -0.039511
      0.00000      0.00000     13.83822        -0.000000     -0.000000     -0.158328
      2.10905      6.33193     13.83447        -0.023992      0.023992     -0.146471
      0.00000      2.11025      7.50000        -0.000000      0.000039      0.515938
      2.11025      4.22049      7.50000         0.000657     -0.000000      0.515376
      0.00000      4.22049      9.61025        -0.000000     -0.000000      0.119626
      2.11025      2.11025      9.61025         0.000448      0.000448      0.115621
      0.00000      2.11076     11.73368        -0.000000     -0.005258     -0.039511
      2.11344      4.22049     11.73659        -0.006365     -0.000000     -0.050066
      0.00000      4.22049     13.83544        -0.000000     -0.000000     -0.142800
      2.10905      2.10905     13.83447        -0.023992     -0.023992     -0.146471
      4.22049      6.33074      7.50000        -0.000000     -0.000657      0.515376
      6.33074      0.00000      7.50000        -0.000039     -0.000000      0.515938
      4.22049      0.00000      9.61025        -0.000000     -0.000000      0.119626
      6.33074      6.33074      9.61025        -0.000448     -0.000448      0.115621
      4.22049      6.32754     11.73659        -0.000000      0.006365     -0.050066
      6.33023      0.00000     11.73368         0.005258     -0.000000     -0.039511
      4.22049      0.00000     13.83544        -0.000000     -0.000000     -0.142800
      6.33193      6.33193     13.83447         0.023992      0.023992     -0.146471
      4.22049      2.11025      7.50000        -0.000000      0.000657      0.515376
      6.33074      4.22049      7.50000        -0.000657     -0.000000      0.515376
      4.22049      4.22049      9.61025        -0.000000     -0.000000      0.120154
      6.33074      2.11025      9.61025        -0.000448      0.000448      0.115621
      4.22049      2.11344     11.73659        -0.000000     -0.006365     -0.050066
      6.32754      4.22049     11.73659         0.006365     -0.000000     -0.050066
      4.22049      4.22049     13.87814        -0.000000     -0.000000     -0.436010
      6.33193      2.10905     13.83447         0.023992     -0.023992     -0.146471
      0.00000      6.33074      9.61025        -0.000000      0.000648      0.057303
      2.11025      0.00000      9.61025        -0.000648     -0.000000      0.057303
      0.00000      0.00000      7.50000        -0.000000     -0.000000     -0.474173
      2.11025      6.33074      7.50000         0.000001     -0.000001     -0.473705
      0.00000      6.33258     13.88587        -0.000000     -0.013013     -0.049462
      2.10840      0.00000     13.88587         0.013013     -0.000000     -0.049462
      0.00000      0.00000     11.72785        -0.000000     -0.000000      0.012017
      2.10979      6.33120     11.72890         0.007852     -0.007852      0.010719
      0.00000      2.11025      9.61025        -0.000000     -0.000648      0.057303
      2.11025      4.22049      9.61025         0.010030     -0.000000      0.067640
      0.00000      4.22049      7.50000        -0.000000     -0.000000     -0.473747
      2.11025      2.11025      7.50000         0.000001      0.000001     -0.473705
      0.00000      2.10840     13.88587        -0.000000      0.013013     -0.049462
      2.10031      4.22049     13.88381         0.136871     -0.000000      0.030034
      0.00000      4.22049     11.72684        -0.000000     -0.000000      0.026012
      2.10979      2.10979     11.72890         0.007852      0.007852      0.010719
      4.22049      6.33074      9.61025        -0.000000     -0.010030      0.067640
      6.33074      0.00000      9.61025         0.000648     -0.000000      0.057303
      4.22049      0.00000      7.50000        -0.000000     -0.000000     -0.473747
      6.33074      6.33074      7.50000        -0.000001     -0.000001     -0.473705
      4.22049      6.34068     13.88381        -0.000000     -0.136871      0.030034
      6.33258      0.00000     13.88587        -0.013013     -0.000000     -0.049462
      4.22049      0.00000     11.72684        -0.000000     -0.000000      0.026012
      6.33120      6.33120     11.72890        -0.007852     -0.007852      0.010719
      4.22049      2.11025      9.61025        -0.000000      0.010030      0.067640
      6.33074      4.22049      9.61025        -0.010030     -0.000000      0.067640
      4.22049      4.22049      7.50000        -0.000000     -0.000000     -0.474127
      6.33074      2.11025      7.50000        -0.000001      0.000001     -0.473705
      4.22049      2.10031     13.88381        -0.000000      0.136871      0.030034
      6.34068      4.22049     13.88381        -0.136871     -0.000000      0.030034
      4.22049      4.22049     11.73684        -0.000000     -0.000000      0.023844
      6.33120      2.10979     11.72890        -0.007852      0.007852      0.010719
    total drift:                                0.000000      0.000000      0.005826

  FREE ENERGIE OF THE ION-ELECTRON SYSTEM (eV)
  free  energy   TOTEN  =      -389.87188527 eV

  energy  without entropy=     -389.87188527  energy(sigma->0) =     -389.87188527