 vasp.6.3.0 20Jan22 (build Apr  1 2022 16:44:48) gamma-only
 executed on        HPECrayEX_GCC date 2023.02.22  13:24:36

 INCAR:
   SYSTEM = MgO-rocksalt
   ISMEAR = 0
   SIGMA = 0.05
   EDIFF = 1E-6
   ALGO = ALL
   ISTART = 0
   NSW = 0
   ISYM = 0
   ISIF = 2
   EDIFFG = -0.01
   DIPOL = 0.5 0.5 0.5
   IDIPOL = 3
   LDIPOL = .TRUE.
   GGA = PE
   IVDW = 1
   VDW_C6 = 0.63 0.70
   VDW_R0 = 1.243 1.342
   ENCUT = 520
   PREC = Accurate
   LASPH = .TRUE.
   LREAL = Auto
   ISPIN = 1
   NELM = 200
   NELMIN = 8
   NCORE = 8
   KPAR = 1
   LWAVE = .FALSE.
   LCHARG = .FALSE.

 POTCAR:    PAW_PBE Mg_pv 13Apr2007
 POTCAR:    PAW_PBE O 08Apr2002
 POTCAR:    PAW_PBE Mg_pv 13Apr2007
   VRHFIN =Mg: p6s2

   TITEL  = PAW_PBE Mg_pv 13Apr2007
   POMASS =   24.305; ZVAL   =    8.000    mass and valenz
   ENMAX  =  403.929; ENMIN  =  302.947 eV

   TITEL  = PAW_PBE O 08Apr2002
   POMASS =   16.000; ZVAL   =    6.000    mass and valenz
   ENMAX  =  400.000; ENMIN  =  300.000 eV

 Optimization of the real space projectors (new method)

 maximal supplied QI-value         = 18.90
 optimisation between [QCUT,QGAM] = [ 11.53, 23.24] = [ 37.21,151.29] Ry
 Optimized for a Real-space Cutoff    1.28 Angstroem

   l    n(q)    QCUT    max X(q) W(low)/X(q) W(high)/X(q)  e(spline)
   1      8    11.527     2.974    0.44E-04    0.56E-04    0.12E-06
   1      8    11.527     4.279    0.12E-03    0.12E-03    0.26E-06
   0      9    11.527    16.381    0.46E-04    0.64E-04    0.78E-07
   0      9    11.527     5.611    0.26E-04    0.43E-04    0.55E-07
   2      8    11.527     4.652    0.22E-03    0.72E-04    0.47E-07
 Optimization of the real space projectors (new method)

 maximal supplied QI-value         = 24.76
 optimisation between [QCUT,QGAM] = [ 11.64, 23.27] = [ 37.91,151.63] Ry
 Optimized for a Real-space Cutoff    1.14 Angstroem

   l    n(q)    QCUT    max X(q) W(low)/X(q) W(high)/X(q)  e(spline)
   0      8    11.635    20.381    0.10E-03    0.33E-03    0.24E-06
   0      8    11.635    15.268    0.11E-03    0.35E-03    0.26E-06
   1      7    11.635     5.964    0.24E-03    0.31E-03    0.30E-06
   1      7    11.635     5.382    0.22E-03    0.25E-03    0.26E-06
  PAW_PBE Mg_pv 13Apr2007               :
  PAW_PBE O 08Apr2002                   :

 POSCAR: Mg  O
  positions in direct lattice
  velocities in cartesian coordinates
 exchange correlation table for  LEXCH =        8
   RHO(1)=    0.500       N(1)  =     2000
   RHO(2)=  100.500       N(2)  =     4000

 ion  position               nearest neighbor table
   1  0.125  0.000  0.351- 129 2.12 131 2.12 132 2.12 148 2.12 171 2.12
   2  0.250  0.125  0.351- 130 2.12 131 2.12 132 2.12 140 2.12 147 2.12
   3  0.125  0.125  0.450- 135 2.11 131 2.12 129 2.12 130 2.12 137 2.12 146 2.12
   4  0.250  0.000  0.450- 136 2.11 132 2.12 129 2.12 130 2.12 145 2.12 170 2.12
   5  0.125  1.000  0.550- 152 2.12 175 2.12 135 2.12 136 2.12 129 2.12 133 2.14
   6  0.250  0.125  0.550- 136 2.12 151 2.12 135 2.12 144 2.12 130 2.12 134 2.14
   7  0.125  0.125  0.648- 135 2.10 141 2.12 134 2.12 133 2.12 150 2.12
   8  0.250  0.000  0.648- 136 2.10 134 2.12 174 2.12 149 2.12 133 2.12
   9  0.125  0.250  0.351- 137 2.12 131 2.12 139 2.12 140 2.12 156 2.12
  10  0.250  0.375  0.351- 138 2.12 139 2.12 140 2.12 155 2.12 164 2.12
  11  0.125  0.375  0.450- 143 2.11 139 2.12 137 2.12 138 2.12 154 2.12 161 2.12
  12  0.250  0.250  0.450- 144 2.11 140 2.12 138 2.12 130 2.12 137 2.12 153 2.12
  13  0.125  0.250  0.550- 160 2.12 143 2.12 135 2.12 144 2.12 137 2.12 141 2.14
  14  0.250  0.375  0.550- 168 2.12 159 2.12 143 2.12 144 2.12 138 2.12 142 2.14
  15  0.125  0.375  0.648- 143 2.10 141 2.12 142 2.12 165 2.12 158 2.12
  16  0.250  0.250  0.648- 144 2.10 142 2.12 141 2.12 157 2.12 134 2.12
  17  0.375  0.000  0.351- 145 2.12 132 2.12 147 2.12 187 2.12 212 2.12
  18  0.000  0.125  0.351- 146 2.12 131 2.12 148 2.12 156 2.12 211 2.12
  19  0.375  0.125  0.450- 151 2.11 147 2.12 130 2.12 145 2.12 153 2.12 210 2.12
  20  0.000  0.000  0.450- 152 2.11 148 2.12 129 2.12 146 2.12 186 2.12 209 2.12
  21  0.375  0.000  0.550- 216 2.12 151 2.12 191 2.12 136 2.12 145 2.12 149 2.14
  22  0.000  0.125  0.550- 152 2.12 135 2.12 215 2.12 160 2.12 146 2.12 150 2.14
  23  0.375  0.125  0.648- 151 2.10 134 2.12 157 2.12 214 2.12 149 2.12
  24  0.000  0.000  0.648- 152 2.10 150 2.12 133 2.12 190 2.12 213 2.12
  25  0.375  0.250  0.351- 153 2.12 147 2.12 140 2.12 155 2.12 220 2.12
  26  0.000  0.375  0.351- 154 2.12 139 2.12 156 2.12 180 2.12 219 2.12
  27  0.375  0.375  0.450- 159 2.11 155 2.12 138 2.12 153 2.12 177 2.12 218 2.12
  28  0.000  0.250  0.450- 160 2.11 156 2.12 154 2.12 137 2.12 146 2.12 217 2.12
  29  0.375  0.250  0.550- 224 2.12 151 2.12 159 2.12 144 2.12 153 2.12 157 2.14
  30  1.000  0.375  0.550- 184 2.12 143 2.12 223 2.12 160 2.12 154 2.12 158 2.14
  31  0.375  0.375  0.648- 159 2.10 157 2.12 142 2.12 222 2.12 181 2.12
  32  0.000  0.250  0.648- 160 2.10 221 2.12 141 2.12 158 2.12 150 2.12
  33  0.125  0.500  0.351- 161 2.12 139 2.12 163 2.12 164 2.12 180 2.12
  34  0.250  0.625  0.351- 162 2.12 163 2.12 164 2.12 172 2.12 179 2.12
  35  0.125  0.625  0.450- 167 2.11 163 2.12 161 2.12 162 2.12 169 2.12 178 2.12
  36  0.250  0.500  0.450- 168 2.11 164 2.12 162 2.12 138 2.12 161 2.12 177 2.12
  37  0.125  0.500  0.550- 184 2.12 167 2.12 143 2.12 168 2.12 161 2.12 165 2.14
  38  0.250  0.625  0.550- 168 2.12 167 2.12 183 2.12 176 2.12 162 2.12 166 2.14
  39  0.125  0.625  0.648- 167 2.10 173 2.12 166 2.12 182 2.12 165 2.12
  40  0.250  0.500  0.648- 168 2.10 166 2.12 142 2.12 165 2.12 181 2.12
  41  0.125  0.750  0.351- 169 2.12 163 2.12 171 2.12 172 2.12 188 2.12
  42  0.250  0.875  0.351- 170 2.12 132 2.12 171 2.12 172 2.12 187 2.12
  43  0.125  0.875  0.450- 175 2.11 171 2.12 170 2.12 129 2.12 169 2.12 186 2.12
  44  0.250  0.750  0.450- 176 2.11 172 2.12 170 2.12 162 2.12 169 2.12 185 2.12
  45  0.125  0.750  0.550- 192 2.12 167 2.12 175 2.12 176 2.12 169 2.12 173 2.14
  46  0.250  0.875  0.550- 136 2.12 191 2.12 175 2.12 176 2.12 170 2.12 174 2.14
  47  0.125  0.875  0.648- 175 2.10 173 2.12 174 2.12 190 2.12 133 2.12
  48  0.250  0.750  0.648- 176 2.10 173 2.12 166 2.12 174 2.12 189 2.12
  49  0.375  0.500  0.351- 177 2.12 164 2.12 155 2.12 179 2.12 244 2.12
  50  0.000  0.625  0.351- 178 2.12 163 2.12 180 2.12 188 2.12 243 2.12
  51  0.375  0.625  0.450- 183 2.11 179 2.12 162 2.12 177 2.12 185 2.12 242 2.12
  52  0.000  0.500  0.450- 184 2.11 180 2.12 178 2.12 154 2.12 161 2.12 241 2.12
  53  0.375  0.500  0.550- 248 2.12 183 2.12 159 2.12 168 2.12 177 2.12 181 2.14
  54  0.000  0.625  0.550- 184 2.12 167 2.12 247 2.12 192 2.12 178 2.12 182 2.14
  55  0.375  0.625  0.648- 183 2.10 189 2.12 166 2.12 246 2.12 181 2.12
  56  0.000  0.500  0.648- 184 2.10 158 2.12 165 2.12 182 2.12 245 2.12
  57  0.375  0.750  0.351- 185 2.12 179 2.12 172 2.12 187 2.12 252 2.12
  58  0.000  0.875  0.351- 186 2.12 171 2.12 148 2.12 188 2.12 251 2.12
  59  0.375  0.875  0.450- 191 2.11 187 2.12 185 2.12 145 2.12 170 2.12 250 2.12
  60  0.000  0.750  0.450- 192 2.11 188 2.12 186 2.12 169 2.12 178 2.12 249 2.12
[...]
 242  0.500  0.625  0.450- 114 2.12  99 2.12  51 2.12 116 2.12 124 2.12 118 2.12
 243  0.875  0.625  0.351- 115 2.12  98 2.12 113 2.12  50 2.12 121 2.12
 244  0.500  0.500  0.351- 116 2.12  90 2.12  97 2.12 114 2.12  49 2.12
 245  0.875  0.500  0.650- 104 2.12  56 2.12  95 2.12 119 2.12 117 2.14
 246  0.500  0.625  0.650- 128 2.12 120 2.12 103 2.12  55 2.12 118 2.14
 247  0.875  0.625  0.549- 119 2.10 115 2.11 117 2.12  54 2.12 125 2.12 102 2.12
 248  0.500  0.500  0.549- 120 2.10 116 2.11  53 2.12 101 2.12 118 2.12  94 2.12
 249  0.875  0.750  0.450- 121 2.12 108 2.12 115 2.12  60 2.12 123 2.12 125 2.12
 250  0.500  0.875  0.450- 122 2.12  84 2.12 107 2.12  59 2.12 124 2.12 126 2.12
 251  0.875  0.875  0.351- 123 2.12  81 2.12 106 2.12 121 2.12  58 2.12
 252  0.500  0.750  0.351- 124 2.12 105 2.12 114 2.12 122 2.12  57 2.12
 253  0.875  0.750  0.650-  64 2.12 119 2.12 127 2.12 112 2.12 125 2.14
 254  0.500  0.875  0.650- 128 2.12  88 2.12  63 2.12 111 2.12 126 2.14
 255  0.875  0.875  0.549- 127 2.10 123 2.11  62 2.12  85 2.12 125 2.12 110 2.12
 256  0.500  0.750  0.549- 128 2.10 124 2.11 109 2.12  61 2.12 118 2.12 126 2.12

IMPORTANT INFORMATION: All symmetrisations will be switched off!
NOSYMM: (Re-)initialisation of all symmetry stuff for point group C_1.

                                     Primitive cell

  volume of cell :    6122.6422

  direct lattice vectors                    reciprocal lattice vectors
    16.934285261  0.000000000  0.000000000     0.059051798  0.000000000  0.000000000
     0.000000000 16.934285261  0.000000000     0.000000000  0.059051798  0.000000000
     0.000000000  0.000000000 21.350356973     0.000000000  0.000000000  0.046837624

  length of vectors
    16.934285261 16.934285261 21.350356973     0.059051798  0.059051798  0.046837624

  position of ions in fractional coordinates (direct lattice)
     0.125000000  0.000000000  0.351282183
     0.250000000  0.125000000  0.351282183
     0.125000000  0.125000000  0.450427394
     0.250000000  0.000000000  0.450427394
     0.124989744  0.999999999  0.549816948
     0.250000016  0.124992864  0.549811269
     0.125004628  0.125004607  0.647736438
     0.250000013  0.000000003  0.647732372
     0.125000000  0.250000000  0.351282183
     0.250000000  0.375000000  0.351282183
     0.125000000  0.375000000  0.450427394
     0.250000000  0.250000000  0.450427394
     0.124992873  0.249999999  0.549811265
     0.250000012  0.375007130  0.549811262
     0.125004621  0.374995383  0.647736430
     0.250000016  0.249999998  0.647729542
     0.375000000  0.000000000  0.351282183
     0.000000000  0.125000000  0.351282183
     0.375000000  0.125000000  0.450427394
     0.000000000  0.000000000  0.450427394
     0.375010274  0.000000006  0.549816935
     0.000000006  0.124989730  0.549816953
     0.374995395  0.125004605  0.647736430
     0.000000019  0.000000006  0.647745594
     0.375000000  0.250000000  0.351282183
     0.000000000  0.375000000  0.351282183
     0.375000000  0.375000000  0.450427394
     0.000000000  0.250000000  0.450427394
     0.375007146  0.249999991  0.549811250
     0.999999999  0.375010270  0.549816950
     0.374995405  0.374995381  0.647736414
     0.000000009  0.250000006  0.647732369
     0.125000000  0.500000000  0.351282183
     0.250000000  0.625000000  0.351282183
     0.125000000  0.625000000  0.450427394
     0.250000000  0.500000000  0.450427394
     0.124989742  0.500000001  0.549816941
     0.250000010  0.624992864  0.549811281
     0.125004611  0.625004622  0.647736445
     0.250000007  0.499999997  0.647732361
     0.125000000  0.750000000  0.351282183
     0.250000000  0.875000000  0.351282183
     0.125000000  0.875000000  0.450427394
     0.250000000  0.750000000  0.450427394
     0.124992869  0.750000002  0.549811281
     0.250000005  0.875007145  0.549811286
     0.125004618  0.874995394  0.647736456
     0.249999998  0.750000009  0.647729555
     0.375000000  0.500000000  0.351282183
     0.000000000  0.625000000  0.351282183
     0.375000000  0.625000000  0.450427394
[...]
  14.81750255 10.58392528 11.73035679
   8.46714264  8.46714256 11.73140751
  14.81749960 12.70071395  9.61678566
   8.46714263 14.81749960  9.61678566
  14.81749960 14.81749960  7.50000000
   8.46714263 12.70071395  7.50000000
  14.81771092 12.70071383 13.87988669
   8.46714250 14.81744287 13.87963679
  14.81750285 14.81750250 11.73035702
   8.46714262 12.70071387 11.73035421

--------------------------------------- Iteration      FINAL  ---------------------------------------

--------------------OUTCAR has been truncated-------------------------

[...]

--------------------OUTCAR has been truncated-------------------------

  DFT-D2 method for vdW energy calculation

  Parameters of vdW forcefield:
         C6(Jnm^6/mol)     R0(A)
   Mg       0.630          1.243
   O        0.700          1.342

  vdW correction parametrized for the method pbe

  IVDW =   1
  VDW_RADIUS =    50.000 A
  VDW_S6 =     0.750
  VDW_SR =     1.000
  VDW_D =    20.000
  LVDW_EWALD = F

  Number of pair interactions contributing to vdW energy: 2843040
  Edisp (eV):  -14.37247

  FORCE on cell =-STRESS in cart. coord.  units (eV):
  Direction    XX          YY          ZZ          XY          YZ          ZX
  Alpha Z  3476.24149  3476.24149  3476.24149
  Ewald  642729.31055642729.31055************    -0.00000     0.00000     0.00004
  Hartree683022.38906683022.38903************    -0.00000    -0.00000     0.00001
  E(xc)   -9823.34716 -9823.34716 -9843.80093    -0.00000     0.00000     0.00000
  Local  ************************************     0.00001     0.00001    -0.00002
  n-local-11241.80337-11241.80337-11319.95809    -0.00000    -0.00001     0.00000
  augment  4189.45430  4189.45430  4154.15298     0.00000     0.00000    -0.00000
  Kinetic 29188.53594 29188.53598 29361.35860    -0.00000    -0.00001    -0.00003
  Fock        0.00000     0.00000     0.00000     0.00000     0.00000     0.00000
  vdW       -20.95266   -20.95266   -17.11653     0.00000     0.00000     0.00000
  Total    -104.00171  -104.00165     8.23710    -0.00000    -0.00001    -0.00000
  in kB     -27.21524   -27.21523     2.15549    -0.00000    -0.00000    -0.00000

 VOLUME and BASIS-vectors are now :
  energy-cutoff  :      520.00
  volume of cell :     6122.64
      direct lattice vectors                 reciprocal lattice vectors
    16.934285261  0.000000000  0.000000000     0.059051798  0.000000000  0.000000000
     0.000000000 16.934285261  0.000000000     0.000000000  0.059051798  0.000000000
     0.000000000  0.000000000 21.350356973     0.000000000  0.000000000  0.046837624

  length of vectors
    16.934285261 16.934285261 21.350356973     0.059051798  0.059051798  0.046837624

 FORCES acting on ions:
    Electron-Ion                     Ewald-Force                    Non-Local-Force
   0.383E-02 0.119E-04 0.206E+04   -.391E-02 -.139E-04 -.205E+04   0.658E-04 0.467E-05 -.703E+01
   0.562E-04 -.109E-02 0.206E+04   -.491E-04 0.131E-02 -.205E+04   0.305E-05 0.142E-03 -.703E+01
   0.360E-02 0.352E-02 0.682E+03   -.310E-02 -.301E-02 -.683E+03   -.426E-03 -.419E-03 0.388E+00
   0.985E-04 0.543E-04 0.682E+03   -.999E-04 -.601E-04 -.683E+03   -.306E-05 -.230E-05 0.386E+00
   -.560E-01 -.216E-04 -.686E+03   0.564E-01 0.217E-04 0.687E+03   0.161E-02 0.719E-05 -.298E+00
   0.174E-03 -.704E-01 -.686E+03   -.179E-03 0.674E-01 0.687E+03   -.370E-05 0.369E-02 -.289E+00
   -.128E-01 -.130E-01 -.204E+04   0.122E-01 0.124E-01 0.204E+04   -.353E-03 -.356E-03 0.613E+01
   0.104E-03 0.116E-04 -.204E+04   -.987E-04 -.401E-05 0.204E+04   -.699E-05 -.967E-06 0.612E+01
   -.107E-02 0.384E-05 0.206E+04   0.128E-02 -.111E-04 -.205E+04   0.144E-03 -.818E-06 -.703E+01
   0.644E-04 0.111E-02 0.206E+04   -.605E-04 -.132E-02 -.205E+04   -.434E-05 -.147E-03 -.703E+01
   0.358E-02 -.351E-02 0.682E+03   -.307E-02 0.301E-02 -.683E+03   -.423E-03 0.425E-03 0.388E+00
   0.110E-03 0.919E-05 0.682E+03   -.116E-03 -.168E-04 -.683E+03   -.310E-05 -.524E-06 0.392E+00
   -.702E-01 0.210E-04 -.686E+03   0.672E-01 -.182E-04 0.687E+03   0.369E-02 -.381E-06 -.289E+00
   0.197E-03 0.703E-01 -.686E+03   -.198E-03 -.673E-01 0.687E+03   -.669E-05 -.369E-02 -.289E+00
   -.128E-01 0.128E-01 -.204E+04   0.122E-01 -.122E-01 0.204E+04   -.353E-03 0.356E-03 0.613E+01
   0.893E-04 0.231E-06 -.204E+04   -.862E-04 0.125E-04 0.204E+04   0.983E-06 -.724E-05 0.613E+01
   -.377E-02 0.195E-04 0.206E+04   0.385E-02 -.223E-04 -.205E+04   -.641E-04 -.410E-05 -.703E+01
   0.212E-04 0.380E-02 0.206E+04   -.247E-04 -.388E-02 -.205E+04   0.789E-06 0.606E-04 -.703E+01
   -.346E-02 0.355E-02 0.682E+03   0.295E-02 -.304E-02 -.683E+03   0.428E-03 -.422E-03 0.388E+00
   0.560E-04 -.638E-05 0.682E+03   -.524E-04 0.749E-05 -.683E+03   -.265E-05 0.728E-06 0.404E+00
   0.561E-01 0.111E-03 -.686E+03   -.565E-01 -.115E-03 0.687E+03   -.161E-02 -.397E-05 -.298E+00
   0.130E-03 -.561E-01 -.686E+03   -.133E-03 0.565E-01 0.687E+03   -.144E-05 0.161E-02 -.298E+00
   0.129E-01 -.130E-01 -.204E+04   -.123E-01 0.124E-01 0.204E+04   0.352E-03 -.346E-03 0.613E+01
   0.165E-03 -.299E-04 -.204E+04   -.168E-03 0.256E-04 0.204E+04   -.541E-05 -.252E-07 0.614E+01
   0.114E-02 0.124E-04 0.206E+04   -.136E-02 -.226E-04 -.205E+04   -.142E-03 -.233E-05 -.703E+01
   0.777E-05 -.378E-02 0.206E+04   -.650E-05 0.386E-02 -.205E+04   -.120E-05 -.619E-04 -.703E+01
   -.338E-02 -.349E-02 0.682E+03   0.287E-02 0.298E-02 -.683E+03   0.427E-03 0.416E-03 0.388E+00
   0.574E-04 0.446E-04 0.682E+03   -.553E-04 -.407E-04 -.683E+03   0.128E-06 -.209E-05 0.386E+00
   0.706E-01 0.193E-04 -.686E+03   -.675E-01 -.204E-04 0.687E+03   -.370E-02 -.597E-05 -.289E+00
   0.578E-04 0.560E-01 -.686E+03   -.525E-04 -.565E-01 0.687E+03   -.127E-04 -.161E-02 -.298E+00
   0.130E-01 0.128E-01 -.204E+04   -.124E-01 -.122E-01 0.204E+04   0.357E-03 0.361E-03 0.613E+01
   0.643E-04 0.227E-04 -.204E+04   -.561E-04 -.203E-04 0.204E+04   -.246E-05 -.492E-05 0.612E+01
   0.382E-02 -.236E-04 0.206E+04   -.390E-02 0.179E-04 -.205E+04   0.592E-04 0.187E-05 -.703E+01
   0.490E-04 -.114E-02 0.206E+04   -.553E-04 0.135E-02 -.205E+04   -.231E-05 0.145E-03 -.703E+01
   0.354E-02 0.346E-02 0.682E+03   -.303E-02 -.295E-02 -.683E+03   -.425E-03 -.425E-03 0.388E+00
   0.159E-03 -.644E-04 0.682E+03   -.159E-03 0.596E-04 -.683E+03   -.596E-05 -.205E-05 0.386E+00
   -.560E-01 -.180E-04 -.686E+03   0.565E-01 0.117E-04 0.687E+03   0.161E-02 -.398E-05 -.298E+00
   0.120E-03 -.705E-01 -.686E+03   -.121E-03 0.674E-01 0.687E+03   0.280E-05 0.370E-02 -.289E+00
   -.129E-01 -.128E-01 -.204E+04   0.123E-01 0.122E-01 0.204E+04   -.351E-03 -.351E-03 0.613E+01
   0.671E-04 -.327E-05 -.204E+04   -.593E-04 0.300E-05 0.204E+04   -.130E-05 0.339E-05 0.612E+01
   -.109E-02 -.185E-05 0.206E+04   0.130E-02 0.711E-05 -.205E+04   0.143E-03 0.541E-05 -.703E+01
   0.353E-04 0.113E-02 0.206E+04   -.417E-04 -.134E-02 -.205E+04   -.208E-05 -.145E-03 -.703E+01
   0.355E-02 -.345E-02 0.682E+03   -.303E-02 0.295E-02 -.683E+03   -.428E-03 0.420E-03 0.388E+00
   0.824E-04 -.771E-06 0.682E+03   -.900E-04 0.716E-05 -.683E+03   -.227E-05 0.477E-05 0.392E+00
   -.704E-01 -.809E-05 -.686E+03   0.673E-01 0.384E-05 0.687E+03   0.369E-02 -.468E-06 -.289E+00
   0.123E-03 0.705E-01 -.686E+03   -.121E-03 -.674E-01 0.687E+03   -.515E-05 -.369E-02 -.289E+00
   -.129E-01 0.129E-01 -.204E+04   0.123E-01 -.123E-01 0.204E+04   -.347E-03 0.354E-03 0.613E+01
   -.677E-04 0.624E-04 -.204E+04   0.693E-04 -.630E-04 0.204E+04   -.174E-05 -.235E-05 0.613E+01
   -.373E-02 -.218E-04 0.206E+04   0.381E-02 0.225E-04 -.205E+04   -.597E-04 -.854E-05 -.703E+01
   -.561E-05 0.376E-02 0.206E+04   0.474E-05 -.385E-02 -.205E+04   0.269E-05 0.625E-04 -.703E+01
   -.334E-02 0.339E-02 0.682E+03   0.283E-02 -.288E-02 -.683E+03   0.425E-03 -.423E-03 0.388E+00
   -.157E-04 -.162E-04 0.682E+03   0.152E-04 0.169E-04 -.683E+03   0.921E-07 -.252E-05 0.404E+00
   0.563E-01 -.432E-04 -.686E+03   -.567E-01 0.444E-04 0.687E+03   -.161E-02 0.822E-06 -.298E+00
   0.107E-04 -.560E-01 -.686E+03   -.950E-05 0.565E-01 0.687E+03   0.454E-05 0.161E-02 -.298E+00
   0.130E-01 -.129E-01 -.204E+04   -.124E-01 0.122E-01 0.204E+04   0.354E-03 -.355E-03 0.613E+01
   0.932E-04 0.172E-04 -.204E+04   -.944E-04 -.211E-04 0.204E+04   -.886E-05 0.508E-05 0.614E+01
   0.115E-02 -.324E-04 0.206E+04   -.136E-02 0.218E-04 -.205E+04   -.141E-03 0.232E-05 -.703E+01
   0.197E-04 -.379E-02 0.206E+04   -.138E-04 0.387E-02 -.205E+04   0.202E-05 -.604E-04 -.703E+01
   -.345E-02 -.346E-02 0.682E+03   0.294E-02 0.296E-02 -.683E+03   0.423E-03 0.419E-03 0.388E+00
   -.710E-05 -.167E-04 0.682E+03   0.555E-06 0.154E-04 -.683E+03   -.778E-05 -.197E-05 0.386E+00
[...]
   -.103E-02 0.983E-03 0.154E+04   0.957E-03 -.907E-03 -.155E+04   0.246E-02 -.246E-02 0.350E+01
   0.107E-04 -.158E-04 0.154E+04   -.668E-05 0.135E-04 -.155E+04   -.278E-05 0.135E-05 0.350E+01
   0.815E-02 0.235E-04 -.155E+04   -.754E-02 -.139E-04 0.156E+04   -.140E-02 -.506E-05 -.525E+01
   0.797E-04 -.838E-02 -.155E+04   -.850E-04 0.776E-02 0.156E+04   0.262E-05 0.141E-02 -.525E+01
   0.257E-01 -.258E-01 -.508E+03   -.260E-01 0.261E-01 0.507E+03   0.520E-03 -.516E-03 0.363E+00
   0.491E-04 -.384E-04 -.508E+03   -.499E-04 0.336E-04 0.508E+03   -.372E-07 -.598E-06 0.365E+00
   0.149E-01 -.381E-04 0.511E+03   -.148E-01 0.410E-04 -.511E+03   0.163E-02 0.258E-05 -.582E-01
   -.342E-04 -.184E-01 0.511E+03   0.311E-04 0.152E-01 -.511E+03   0.310E-05 0.182E-02 -.606E-01
   -.101E-02 -.101E-02 0.154E+04   0.937E-03 0.937E-03 -.155E+04   0.246E-02 0.246E-02 0.350E+01
   0.461E-05 -.292E-04 0.154E+04   0.159E-05 0.285E-04 -.155E+04   -.744E-05 -.154E-05 0.350E+01
   0.762E-01 -.313E-04 -.155E+04   -.755E-01 0.331E-04 0.156E+04   -.567E-03 -.355E-05 -.525E+01
   -.113E-03 0.833E-02 -.155E+04   0.995E-04 -.772E-02 0.156E+04   0.786E-05 -.140E-02 -.525E+01
   0.258E-01 0.257E-01 -.508E+03   -.261E-01 -.260E-01 0.507E+03   0.515E-03 0.521E-03 0.363E+00
   0.111E-04 -.108E-03 -.508E+03   -.177E-04 0.109E-03 0.507E+03   0.753E-05 -.597E-06 0.361E+00
   -.425E-04 -.394E-04 0.720E+02   -.339E-11 0.261E-11 -.246E-10   -.452E-04 -.396E-04 -.720E+02

 POSITION                                       TOTAL-FORCE (eV/Angst)
      2.11679      0.00000      7.50000        -0.000009      0.000003      0.392059
      4.23357      2.11679      7.50000         0.000011      0.000361      0.391987
      2.11679      2.11679      9.61679         0.000080      0.000091     -0.007695
      4.23357      0.00000      9.61679        -0.000004     -0.000008     -0.008211
      2.11661     16.93429     11.73879         0.001966      0.000008      0.002020
      4.23357      2.11666     11.73867        -0.000008      0.000597      0.001509
      2.11686      2.11686     13.82940        -0.000928     -0.000938      0.053886
      4.23357      0.00000     13.82932        -0.000002      0.000007      0.053600
      2.11679      4.23357      7.50000         0.000351     -0.000008      0.391982
      4.23357      6.35036      7.50000        -0.000000     -0.000354      0.391974
      2.11679      6.35036      9.61679         0.000080     -0.000078     -0.007682
      4.23357      4.23357      9.61679        -0.000009     -0.000008     -0.007315
      2.11666      4.23357     11.73867         0.000599      0.000003      0.001511
      4.23357      6.35048     11.73867        -0.000008     -0.000586      0.001516
      2.11686      6.35028     13.82940        -0.000917      0.000929      0.053894
      4.23357      4.23357     13.82926         0.000004      0.000006      0.054381
      6.35036      0.00000      7.50000         0.000020     -0.000007      0.392064
      0.00000      2.11679      7.50000        -0.000002     -0.000016      0.392050
      6.35036      2.11679      9.61679        -0.000081      0.000092     -0.007680
      0.00000      0.00000      9.61679         0.000001      0.000002     -0.007886
      6.35053      0.00000     11.73879        -0.001962     -0.000007      0.002027
      0.00000      2.11661     11.73879        -0.000004      0.001972      0.002025
      6.35028      2.11686     13.82940         0.000934     -0.000923      0.053896
      0.00000      0.00000     13.82960        -0.000008     -0.000004      0.054336
      6.35036      4.23357      7.50000        -0.000356     -0.000012      0.391975
      0.00000      6.35036      7.50000         0.000000      0.000018      0.392052
      6.35036      6.35036      9.61679        -0.000085     -0.000091     -0.007682
      0.00000      4.23357      9.61679         0.000003      0.000002     -0.008217
      6.35048      4.23357     11.73867        -0.000597     -0.000007      0.001518
     16.93429      6.35053     11.73879        -0.000007     -0.001974      0.002017
      6.35028      6.35028     13.82940         0.000927      0.000944      0.053886
      0.00000      4.23357     13.82932         0.000006     -0.000002      0.053598
      2.11679      8.46714      7.50000        -0.000023     -0.000004      0.392058
      4.23357     10.58393      7.50000        -0.000008      0.000359      0.391977
      2.11679     10.58393      9.61679         0.000083      0.000081     -0.007673
      4.23357      8.46714      9.61679        -0.000006     -0.000007     -0.008204
      2.11661      8.46714     11.73879         0.001990     -0.000010      0.002019
      4.23357     10.58381     11.73867         0.000002      0.000586      0.001507
      2.11686     10.58401     13.82940        -0.000920     -0.000931      0.053879
      4.23357      8.46714     13.82932         0.000007      0.000004      0.053599
      2.11679     12.70071      7.50000         0.000354      0.000011      0.391987
      4.23357     14.81750      7.50000        -0.000008     -0.000351      0.391990
      2.11679     14.81750      9.61679         0.000083     -0.000083     -0.007677
      4.23357     12.70071      9.61679        -0.000010      0.000012     -0.007324
      2.11666     12.70071     11.73867         0.000588     -0.000004      0.001505
      4.23357     14.81762     11.73867        -0.000003     -0.000596      0.001502
      2.11686     14.81742     13.82940        -0.000933      0.000931      0.053887
      4.23357     12.70071     13.82926         0.000000     -0.000003      0.054377
      6.35036      8.46714      7.50000         0.000018     -0.000008      0.392065
      0.00000     10.58393      7.50000         0.000002     -0.000020      0.392051
      6.35036     10.58393      9.61679        -0.000079      0.000082     -0.007682
      0.00000      8.46714      9.61679        -0.000000     -0.000002     -0.007892
      6.35053      8.46714     11.73879        -0.001983      0.000002      0.002030
      0.00000     10.58375     11.73879         0.000006      0.001973      0.002016
      6.35028     10.58401     13.82940         0.000938     -0.000937      0.053886
      0.00000      8.46714     13.82960        -0.000010      0.000002      0.054342
      6.35036     12.70071      7.50000        -0.000354     -0.000008      0.391979
      0.00000     14.81750      7.50000         0.000008      0.000022      0.392058
      6.35036     14.81750      9.61679        -0.000090     -0.000080     -0.007679
      0.00000     12.70071      9.61679        -0.000014     -0.000003     -0.008208
[...]
      8.46714     10.58393      9.61679        -0.000009      0.001349      0.026220
     14.81750     10.58393      7.50000         0.002390     -0.002388     -0.475400
      8.46714      8.46714      7.50000         0.000002     -0.000001     -0.477245
     14.81744      8.46714     13.87964        -0.000786      0.000005      0.008361
      8.46714     10.58398     13.87964        -0.000002      0.000795      0.008370
     14.81750     10.58393     11.73036         0.000221     -0.000223      0.001344
      8.46714      8.46714     11.73141        -0.000000     -0.000005      0.003117
     14.81750     12.70071      9.61679         0.001711      0.000006      0.028465
      8.46714     14.81750      9.61679         0.000000     -0.001339      0.026219
     14.81750     14.81750      7.50000         0.002390      0.002388     -0.475396
      8.46714     12.70071      7.50000        -0.000001     -0.000002     -0.477309
     14.81771     12.70071     13.87989         0.000130     -0.000001      0.008063
      8.46714     14.81744     13.87964        -0.000005     -0.000792      0.008366
     14.81750     14.81750     11.73036         0.000217      0.000220      0.001334
      8.46714     12.70071     11.73035         0.000001      0.000001     -0.001839
    total drift:                               -0.000088     -0.000079      0.003413

  FREE ENERGIE OF THE ION-ELECTRON SYSTEM (eV)
  free  energy   TOTEN  =     -1502.22014944 eV

  energy  without entropy=    -1502.22014944  energy(sigma->0) =    -1502.22014944