 vasp.6.3.0 20Jan22 (build Apr  1 2022 16:44:48) complex
 executed on        HPECrayEX_GCC date 2023.04.10  23:06:52

 INCAR:
   SYSTEM = TiO2
   ISMEAR = 0
   SIGMA = 0.05
   EDIFF = 1E-7
   ALGO = ALL
   ISTART = 0
   IBRION = 2
   NSW = 1000
   ISYM = 0
   ISIF = 2
   EDIFFG = -0.01
   DIPOL = 0.5 0.5 0.5
   IDIPOL = 3
   LDIPOL = .TRUE.
   GGA = RE
   IVDW = 13
   VDW_S8 = 1.7468
   VDW_A1 = 0.5363
   VDW_A2 = 3.0726
   ENCUT = 600
   PREC = Accurate
   LASPH = .TRUE.
   LREAL = .FALSE.
   ISPIN = 1
   NELM = 200
   NELMIN = 8
   NCORE = 8
   KPAR = 1
   LWAVE = .FALSE.
   LCHARG = .FALSE.

 POTCAR:    PAW_PBE H 15Jun2001
 POTCAR:    PAW_PBE O 08Apr2002
 POTCAR:    PAW_PBE Ti_pv 07Sep2000
 POTCAR:    PAW_PBE O 08Apr2002
 POTCAR:    PAW_PBE H 15Jun2001
   VRHFIN =H: ultrasoft test

   TITEL  = PAW_PBE H 15Jun2001
   POMASS =    1.000; ZVAL   =    1.000    mass and valenz
   ENMAX  =  250.000; ENMIN  =  200.000 eV

   TITEL  = PAW_PBE O 08Apr2002
   POMASS =   16.000; ZVAL   =    6.000    mass and valenz
   ENMAX  =  400.000; ENMIN  =  300.000 eV

   TITEL  = PAW_PBE Ti_pv 07Sep2000
   POMASS =   47.880; ZVAL   =   10.000    mass and valenz
   ENMAX  =  222.335; ENMIN  =  166.751 eV

   TITEL  = PAW_PBE O 08Apr2002
   POMASS =   16.000; ZVAL   =    6.000    mass and valenz
   ENMAX  =  400.000; ENMIN  =  300.000 eV

  PAW_PBE H 15Jun2001                   :
  PAW_PBE O 08Apr2002                   :
  PAW_PBE Ti_pv 07Sep2000               :
  PAW_PBE O 08Apr2002                   :

 POSCAR:  H  O Ti  O
  positions in direct lattice
|           W    W    AA    RRRRR   N    N  II  N    N   GGGG   !!!           |
|           W    W   A  A   R    R  NN   N  II  NN   N  G    G  !!!           |
|           W    W  A    A  R    R  N N  N  II  N N  N  G       !!!           |
|           W WW W  AAAAAA  RRRRR   N  N N  II  N  N N  G  GGG   !            |
|           WW  WW  A    A  R   R   N   NN  II  N   NN  G    G                |
|           W    W  A    A  R    R  N    N  II  N    N   GGGG   !!!           |
|     Specifying the vdW parameters                                           |
|     VDW_S8 = 1.747                                                          |
|     VDW_A1 = 0.536                                                          |
|     VDW_A2 = 3.073                                                          |
|     in the INCAR file will overwrite the defaults for revpbe. Please        |
|     make sure that is what you intended.                                    |

 ion  position               nearest neighbor table
   1  0.701  0.518  0.773-   3 0.98
   2  0.576  0.565  0.798-   3 0.97
   3  0.608  0.502  0.778-   2 0.97   1 0.98  51 2.42
   4  0.808  0.833  0.295-  88 1.94  54 1.94  56 1.94  53 1.99  55 1.99  21 3.05   7 3.05   5 3.05

   5  0.592  0.667  0.327-  52 1.94 119 1.94  55 1.94  57 1.94  56 1.99  58 1.99  36 3.05   6 3.05
                             4 3.05  10 3.08
   6  0.308  0.667  0.295- 124 1.94  58 1.94  60 1.94  52 1.99  59 1.99  39 3.05   5 3.05   7 3.05

   7  0.092  0.833  0.327-  53 1.94  91 1.94  59 1.94  61 1.94  60 1.99  54 1.99  22 3.05   4 3.05
                             6 3.05   8 3.08
   8  0.944  0.833  0.423-  62 1.92  96 1.93  64 1.93  54 1.98  63 1.99  61 2.00  11 3.00  25 3.05
                             9 3.05   7 3.08
   9  0.725  0.667  0.452-  57 1.89 127 1.94  63 1.94  65 1.97  66 1.98  64 2.01  10 3.00  40 3.05
                             8 3.05  14 3.11
  10  0.444  0.667  0.423-  66 1.92  68 1.93 132 1.93  58 1.98  67 1.99  57 2.00   9 3.00  11 3.05
                            43 3.05   5 3.08
  11  0.225  0.833  0.452-  61 1.89  67 1.94  99 1.94  69 1.97  62 1.98  68 2.01   8 3.00  10 3.05
                            26 3.05  12 3.11
  12  0.085  0.833  0.550-  70 1.92 104 1.93  72 1.93  71 1.98  62 2.00  69 2.01  15 2.95  29 3.05
                            13 3.05  11 3.11
  13  0.864  0.667  0.576-  65 1.86  71 1.94 135 1.94  74 1.95  73 2.01  72 2.02  14 2.95  12 3.05
                            44 3.05
  14  0.585  0.667  0.550-  74 1.92 140 1.93  76 1.93  75 1.98  66 2.00  65 2.01  13 2.95  15 3.05
                            47 3.05   9 3.11
  15  0.364  0.833  0.576-  69 1.86  75 1.94 107 1.94  70 1.95  77 2.01  76 2.02  12 2.95  14 3.05
                            30 3.05
  16  0.232  0.833  0.680-  78 1.86  80 1.93 112 1.93  79 2.00  77 2.09  70 2.09  19 2.84  17 3.07
                            33 3.07
  17  0.003  0.667  0.700-  73 1.78  81 1.83  79 1.98 143 1.98  80 2.06  18 2.84  16 3.07  48 3.07

[...]

  20  0.808  0.167  0.295-  88 1.94  86 1.94 120 1.94  85 1.99  87 1.99  21 3.05  23 3.05  37 3.05

[...]

  36  0.808  0.500  0.295-  56 1.94 120 1.94 118 1.94 119 1.99 117 1.99   5 3.05  37 3.05  39 3.05

  37  0.592  0.333  0.327- 116 1.94 119 1.94  87 1.94 121 1.94 120 1.99 122 1.99  36 3.05  38 3.05
                            20 3.05  42 3.08
  38  0.308  0.333  0.295- 124 1.94 122 1.94  92 1.94 123 1.99 116 1.99  39 3.05  37 3.05  23 3.05

  39  0.092  0.500  0.327- 117 1.94  59 1.94 123 1.94 125 1.94 124 1.99 118 1.99  38 3.05   6 3.05
                            36 3.05  40 3.08
  40  0.944  0.500  0.423- 126 1.92  64 1.93 128 1.93 118 1.98 127 1.99 125 2.00  43 3.00   9 3.05
                            41 3.05  39 3.08
  41  0.725  0.333  0.452- 121 1.89 127 1.94  95 1.94 129 1.97 130 1.98 128 2.01  42 3.00  40 3.05
                            24 3.05  46 3.11
  42  0.444  0.333  0.423- 130 1.92 100 1.93 132 1.93 122 1.98 131 1.99 121 2.00  41 3.00  27 3.05
                            43 3.05  37 3.08
  43  0.225  0.500  0.452- 125 1.89  67 1.94 131 1.94 133 1.97 126 1.98 132 2.01  40 3.00  10 3.05
                            42 3.05  44 3.11
  44  0.085  0.500  0.550- 134 1.92  72 1.93 136 1.93 135 1.98 126 2.00 133 2.01  47 2.95  45 3.05
                            13 3.05  43 3.11
  45  0.864  0.333  0.576- 129 1.86 103 1.94 135 1.94 138 1.95 137 2.01 136 2.02  46 2.95  28 3.05
                            44 3.05
  46  0.585  0.333  0.550- 138 1.92 140 1.93 108 1.93 139 1.98 130 2.00 129 2.01  45 2.95  31 3.05
                            47 3.05  41 3.11
  47  0.364  0.500  0.576- 133 1.86  75 1.94 139 1.94 134 1.95 141 2.01 140 2.02  44 2.95  14 3.05
                            46 3.05
  48  0.232  0.500  0.680- 142 1.86 144 1.93  80 1.93 143 2.00 141 2.09 134 2.09  51 2.84  17 3.07
                            49 3.07
  49  0.003  0.333  0.700- 137 1.78 145 1.83 143 1.98 111 1.98 144 2.06  50 2.84  48 3.07  32 3.07

  50  0.732  0.333  0.680- 145 1.86 115 1.93 147 1.93 146 2.00 137 2.09 138 2.09  49 2.84  35 3.07
                            51 3.07
  51  0.503  0.500  0.700- 141 1.78 142 1.83 146 1.98  82 1.98 147 2.06   3 2.42  48 2.84  18 3.07
                            50 3.07
  52  0.488  0.667  0.269-   5 1.94   6 1.99
  53  0.988  0.833  0.269-   7 1.94   4 1.99
  54  0.911  0.833  0.353-   4 1.94   8 1.98   7 1.99
  55  0.627  0.833  0.321-  21 1.94   5 1.94   4 1.99
  56  0.772  0.667  0.300-  36 1.94   4 1.94   5 1.99
  57  0.624  0.667  0.395-   9 1.89   5 1.94  10 2.00
  58  0.411  0.667  0.353-   6 1.94  10 1.98   5 1.99
  59  0.127  0.667  0.321-  39 1.94   7 1.94   6 1.99
  60  0.272  0.833  0.300-  22 1.94   6 1.94   7 1.99
  61  0.124  0.833  0.395-  11 1.89   7 1.94   8 2.00
  62  0.049  0.833  0.480-   8 1.92  11 1.98  12 2.00
  63  0.764  0.833  0.448-   9 1.94  25 1.94   8 1.99
  64  0.909  0.667  0.427-  40 1.93   8 1.93   9 2.01
  65  0.764  0.667  0.521-  13 1.86   9 1.97  14 2.01
  66  0.549  0.667  0.480-  10 1.92   9 1.98  14 2.00
  67  0.264  0.667  0.448-  43 1.94  11 1.94  10 1.99
  68  0.409  0.833  0.427-  10 1.93  26 1.93  11 2.01
  69  0.264  0.833  0.521-  15 1.86  11 1.97  12 2.01
  70  0.193  0.833  0.607-  12 1.92  15 1.95  16 2.09
  71  0.903  0.833  0.574-  13 1.94  29 1.94  12 1.98
  72  0.050  0.667  0.553-  44 1.93  12 1.93  13 2.02
  73  0.913  0.667  0.646-  17 1.78  13 2.01  18 2.09
  74  0.693  0.667  0.607-  14 1.92  13 1.95  18 2.09
  75  0.403  0.667  0.574-  15 1.94  47 1.94  14 1.98
  76  0.550  0.833  0.553-  30 1.93  14 1.93  15 2.02
  77  0.413  0.833  0.646-  19 1.78  15 2.01  16 2.09
  78  0.347  0.833  0.732-  19 1.83  16 1.86
  79  0.054  0.833  0.709-  33 1.98  17 1.98  16 2.00
  80  0.196  0.667  0.680-  16 1.93  48 1.93  17 2.06
  81  0.847  0.667  0.732-  17 1.83  18 1.86
  82  0.554  0.667  0.709-  51 1.98  19 1.98  18 2.00
  83  0.696  0.833  0.680-  18 1.93  34 1.93  19 2.06
  84  0.488  0.000  0.269-  21 1.94  22 1.99
  85  0.988  0.167  0.269-  23 1.94  20 1.99
  86  0.911  0.167  0.353-  20 1.94  24 1.98  23 1.99
  87  0.627  0.167  0.321-  21 1.94  37 1.94  20 1.99
  88  0.772  0.000  0.300-   4 1.94  20 1.94  21 1.99
  89  0.624  0.000  0.395-  25 1.89  21 1.94  26 2.00
  90  0.411  0.000  0.353-  22 1.94  26 1.98  21 1.99
  91  0.127  0.000  0.321-   7 1.94  23 1.94  22 1.99
  92  0.272  0.167  0.300-  22 1.94  38 1.94  23 1.99
  93  0.124  0.167  0.395-  27 1.89  23 1.94  24 2.00
  94  0.049  0.167  0.480-  24 1.92  27 1.98  28 2.00
  95  0.764  0.167  0.448-  25 1.94  41 1.94  24 1.99
  96  0.909  0.000  0.427-  24 1.93   8 1.93  25 2.01
  97  0.764  1.000  0.521-  29 1.86  25 1.97  30 2.01
  98  0.549  0.000  0.480-  26 1.92  25 1.98  30 2.00
  99  0.264  0.000  0.448-  27 1.94  11 1.94  26 1.99
 100  0.409  0.167  0.427-  42 1.93  26 1.93  27 2.01
 101  0.264  0.167  0.521-  31 1.86  27 1.97  28 2.01
 102  0.193  0.167  0.607-  28 1.92  31 1.95  32 2.09
 103  0.903  0.167  0.574-  45 1.94  29 1.94  28 1.98
 104  0.050  0.000  0.553-  12 1.93  28 1.93  29 2.02
 105  0.913  1.000  0.646-  33 1.78  29 2.01  34 2.09
 106  0.693  0.000  0.607-  30 1.92  29 1.95  34 2.09
 107  0.403  1.000  0.574-  15 1.94  31 1.94  30 1.98
 108  0.550  0.167  0.553-  46 1.93  30 1.93  31 2.02
 109  0.413  0.167  0.646-  35 1.78  31 2.01  32 2.09
 110  0.347  0.167  0.732-  35 1.83  32 1.86
 111  0.054  0.167  0.709-  33 1.98  49 1.98  32 2.00
[...]
 133  0.264  0.500  0.521-  47 1.86  43 1.97  44 2.01
 134  0.193  0.500  0.607-  44 1.92  47 1.95  48 2.09
 135  0.903  0.500  0.574-  45 1.94  13 1.94  44 1.98
 136  0.050  0.333  0.553-  28 1.93  44 1.93  45 2.02
 137  0.913  0.333  0.646-  49 1.78  45 2.01  50 2.09
 138  0.693  0.333  0.607-  46 1.92  45 1.95  50 2.09
 139  0.403  0.333  0.574-  31 1.94  47 1.94  46 1.98
 140  0.550  0.500  0.553-  46 1.93  14 1.93  47 2.02
 141  0.413  0.500  0.646-  51 1.78  47 2.01  48 2.09
 142  0.347  0.500  0.732-  51 1.83  48 1.86
 143  0.054  0.500  0.709-  17 1.98  49 1.98  48 2.00
 144  0.196  0.333  0.680-  32 1.93  48 1.93  49 2.06
 145  0.847  0.333  0.732-  49 1.83  50 1.86
 146  0.554  0.333  0.709-  35 1.98  51 1.98  50 2.00
 147  0.696  0.500  0.680-  50 1.93  18 1.93  51 2.06

IMPORTANT INFORMATION: All symmetrisations will be switched off!
NOSYMM: (Re-)initialisation of all symmetry stuff for point group C_1.

                                     Primitive cell

  volume of cell :    3260.9117

  direct lattice vectors                    reciprocal lattice vectors
    10.273755933  0.000000000  0.000000000     0.097335386 -0.000000000  0.000000000
[...]
   2.01172123  3.78960347 18.98111365
   8.69774538  3.78960338 20.42830848
   5.68916243  3.78960344 19.78041002
   7.14859660  5.68440507 18.98111371

--------------------------------------- Iteration      FINAL  ---------------------------------------

--------------------OUTCAR has been truncated-------------------------

[...]

--------------------OUTCAR has been truncated-------------------------

  FORCE on cell =-STRESS in cart. coord.  units (eV):
  Direction    XX          YY          ZZ          XY          YZ          ZX
  Alpha Z  2442.53637  2442.53637  2442.53637
  Ewald  486975.51660480476.57633************    -4.06634     9.15141 -1816.29365
  Hartree508205.03202504209.86668************    -1.88988     3.53756 -1230.68596
  E(xc)   -5196.92578 -5202.38727 -5213.16362    -0.01741     0.03094    -1.80795
  Local  ************************************     5.60036   -11.67338  3055.80229
  n-local -3252.45422 -3221.29842 -3264.38640    -0.03976     0.06591     1.91421
  augment  3137.22426  3132.29359  3124.54827     0.02136    -0.04974    -1.11987
  Kinetic 17185.60999 17233.98924 17313.08603     0.40304    -1.16692   -16.92599
  Fock        0.00000     0.00000     0.00000     0.00000     0.00000     0.00000
  vdW       -69.09672   -72.16750   -61.73595    -0.00114    -0.00339    -0.71482
  Total     -42.09251   -14.42583   -13.38084     0.01023    -0.10761    -9.83174
  in kB     -20.68123    -7.08782    -6.57438     0.00503    -0.05287    -4.83061

 VOLUME and BASIS-vectors are now :
  energy-cutoff  :      600.00
  volume of cell :     3260.91
      direct lattice vectors                 reciprocal lattice vectors
    10.273755933  0.000000000  0.000000000     0.097335386 -0.000000000  0.000000000
     0.000000000 11.368810418  0.000000000     0.000000000  0.087959950  0.000000000
     0.000000000  0.000000000 27.918672987     0.000000000  0.000000000  0.035818321

  length of vectors
    10.273755933 11.368810418 27.918672987     0.097335386  0.087959950  0.035818321

 FORCES acting on ions:
    Electron-Ion                     Ewald-Force                    Non-Local-Force
   -.528E+02 0.634E+02 -.358E+03   0.580E+02 -.698E+02 0.358E+03   -.518E+01 0.640E+01 0.447E+00
   -.492E+02 -.673E+02 -.360E+03   0.540E+02 0.741E+02 0.360E+03   -.481E+01 -.675E+01 0.856E-01
   0.143E+02 0.231E+01 -.218E+04   -.555E+02 -.403E+01 0.219E+04   0.412E+02 0.172E+01 -.990E+01
   0.652E+01 -.116E+00 0.337E+04   -.160E+01 0.120E+00 -.337E+04   -.113E+01 -.770E-03 -.348E+01
   0.497E+01 -.248E+00 0.277E+04   -.655E+01 0.252E+00 -.277E+04   -.709E-01 -.103E-02 -.226E-01
   0.653E+01 0.917E-01 0.337E+04   -.164E+01 -.926E-01 -.337E+04   -.112E+01 0.592E-03 -.347E+01
   0.324E+01 0.520E-01 0.277E+04   -.487E+01 -.573E-01 -.277E+04   -.615E-01 0.147E-02 -.278E-01
   -.215E+00 -.222E+00 0.126E+04   0.347E-01 0.219E+00 -.126E+04   0.179E+00 0.748E-03 0.255E-01
   0.164E+01 -.225E+01 0.805E+03   -.157E+01 0.223E+01 -.804E+03   -.470E-01 0.221E-01 -.158E+00
   0.200E+01 -.414E+00 0.127E+04   -.216E+01 0.408E+00 -.127E+04   0.163E+00 0.903E-02 -.554E-02
   -.638E+01 0.243E+00 0.792E+03   0.644E+01 -.247E+00 -.792E+03   -.235E-01 0.263E-02 -.147E+00
   -.597E+01 -.237E+01 -.782E+03   0.566E+01 0.236E+01 0.782E+03   0.315E+00 0.468E-02 0.130E+00
   -.140E+02 -.506E+01 -.117E+04   0.142E+02 0.510E+01 0.117E+04   -.951E-01 -.367E-01 -.247E+00
   0.300E+01 -.236E+01 -.747E+03   -.324E+01 0.236E+01 0.747E+03   0.265E+00 0.168E-02 0.802E-01
   -.110E+01 -.209E+01 -.120E+04   0.129E+01 0.210E+01 0.120E+04   -.113E+00 -.128E-01 -.281E+00
   0.286E+02 -.128E+02 -.279E+04   -.295E+02 0.128E+02 0.279E+04   0.945E+00 0.158E-01 -.187E+00
   -.917E+02 -.283E+02 -.318E+04   0.920E+02 0.282E+02 0.318E+04   0.375E-01 0.178E+00 0.789E+00
   -.110E+02 -.547E+02 -.268E+04   0.102E+02 0.548E+02 0.269E+04   0.784E+00 -.305E-01 -.560E-01
   -.582E+02 -.349E+02 -.318E+04   0.584E+02 0.349E+02 0.318E+04   0.756E-01 0.678E-02 0.839E+00
   0.652E+01 0.126E+00 0.337E+04   -.160E+01 -.130E+00 -.337E+04   -.113E+01 0.882E-03 -.348E+01
   0.488E+01 0.211E-01 0.277E+04   -.650E+01 -.217E-01 -.277E+04   -.624E-01 0.230E-03 -.306E-01
   0.639E+01 0.107E-01 0.337E+04   -.147E+01 -.110E-01 -.337E+04   -.112E+01 0.922E-04 -.348E+01
   0.325E+01 -.159E-01 0.277E+04   -.488E+01 0.195E-01 -.277E+04   -.615E-01 -.649E-03 -.280E-01
   -.333E+00 0.101E+00 0.126E+04   0.158E+00 -.105E+00 -.126E+04   0.178E+00 0.424E-02 0.250E-01
   -.198E+01 0.842E-02 0.799E+03   0.202E+01 -.112E-01 -.799E+03   -.782E-02 0.770E-03 -.158E+00
   0.205E+01 -.338E-01 0.126E+04   -.222E+01 0.315E-01 -.126E+04   0.168E+00 0.169E-02 0.472E-02
   -.630E+01 -.922E-01 0.792E+03   0.636E+01 0.962E-01 -.792E+03   -.231E-01 -.430E-02 -.148E+00
   -.617E+01 0.230E+01 -.782E+03   0.587E+01 -.229E+01 0.782E+03   0.315E+00 -.988E-03 0.131E+00
   -.115E+02 0.350E-01 -.119E+04   0.117E+02 -.351E-01 0.119E+04   -.663E-01 -.212E-03 -.255E+00
   -.895E+00 0.103E-01 -.770E+03   0.602E+00 -.116E-01 0.770E+03   0.301E+00 0.668E-03 0.152E+00
   -.996E+00 0.205E+01 -.120E+04   0.119E+01 -.206E+01 0.120E+04   -.112E+00 0.143E-01 -.283E+00
   0.289E+02 0.124E+02 -.279E+04   -.299E+02 -.124E+02 0.279E+04   0.944E+00 -.123E-01 -.186E+00
   -.760E+02 -.162E+00 -.319E+04   0.763E+02 0.160E+00 0.319E+04   0.133E-01 0.141E-02 0.797E+00
   0.106E+02 0.678E-01 -.278E+04   -.115E+02 -.645E-01 0.278E+04   0.873E+00 -.232E-02 -.134E+00
   -.585E+02 0.352E+02 -.318E+04   0.587E+02 -.353E+02 0.318E+04   0.752E-01 -.921E-02 0.843E+00
   0.652E+01 -.369E-02 0.337E+04   -.159E+01 0.424E-02 -.337E+04   -.113E+01 -.504E-04 -.347E+01
   0.496E+01 0.258E+00 0.277E+04   -.654E+01 -.262E+00 -.277E+04   -.714E-01 0.133E-02 -.224E-01
   0.653E+01 -.100E+00 0.337E+04   -.165E+01 0.102E+00 -.337E+04   -.112E+01 -.654E-03 -.347E+01
   0.223E+01 0.115E-01 0.277E+04   -.381E+01 -.120E-01 -.277E+04   -.801E-01 0.363E-03 -.212E-01
   0.576E+00 -.630E-01 0.126E+04   -.748E+00 0.615E-01 -.126E+04   0.161E+00 0.147E-02 0.659E-01
   0.186E+01 0.222E+01 0.805E+03   -.180E+01 -.221E+01 -.805E+03   -.478E-01 -.228E-01 -.157E+00
   0.188E+01 0.314E+00 0.127E+04   -.204E+01 -.311E+00 -.127E+04   0.162E+00 -.635E-02 -.599E-02
   -.916E+01 0.742E-01 0.776E+03   0.924E+01 -.724E-01 -.776E+03   -.344E-01 -.133E-02 -.471E-01
   -.308E+01 -.372E-01 -.785E+03   0.283E+01 0.350E-01 0.785E+03   0.237E+00 0.116E-02 0.158E+00
   -.138E+02 0.489E+01 -.116E+04   0.140E+02 -.494E+01 0.117E+04   -.945E-01 0.384E-01 -.242E+00
   0.296E+01 0.237E+01 -.747E+03   -.320E+01 -.237E+01 0.747E+03   0.261E+00 -.194E-02 0.782E-01
   -.177E+01 0.181E+00 -.124E+04   0.194E+01 -.178E+00 0.124E+04   -.102E+00 -.235E-02 -.119E+00
   0.440E+02 0.317E-01 -.279E+04   -.448E+02 -.293E-01 0.279E+04   0.747E+00 -.115E-02 -.708E-01
   -.916E+02 0.287E+02 -.318E+04   0.918E+02 -.285E+02 0.318E+04   0.412E-01 -.188E+00 0.795E+00
   -.117E+02 0.552E+02 -.268E+04   0.109E+02 -.552E+02 0.268E+04   0.780E+00 0.337E-01 -.480E-01
   0.285E+02 -.575E+00 -.314E+04   -.279E+02 0.568E+00 0.314E+04   -.344E+00 0.616E-02 0.517E+00
   -.321E+02 -.471E-01 0.228E+04   0.369E+02 0.482E-01 -.229E+04   -.657E+01 -.141E-02 0.171E+02
   -.325E+02 -.440E-01 0.228E+04   0.373E+02 0.433E-01 -.229E+04   -.656E+01 0.874E-03 0.171E+02
   0.814E+02 0.626E-01 0.138E+04   -.863E+02 -.853E-01 -.138E+04   0.388E+01 0.230E-01 -.449E+01
   0.749E+02 -.102E+00 0.169E+04   -.819E+02 0.106E+00 -.168E+04   0.741E+01 -.717E-02 -.270E+01
   -.861E+02 -.119E+00 0.194E+04   0.934E+02 0.119E+00 -.194E+04   -.698E+01 -.233E-02 -.160E+00
   -.686E+02 -.866E+00 0.106E+04   0.742E+02 0.897E+00 -.106E+04   -.569E+01 -.240E-01 0.428E+01
   0.822E+02 0.626E-01 0.138E+04   -.871E+02 -.538E-01 -.138E+04   0.385E+01 -.973E-02 -.430E+01
   0.738E+02 0.492E-01 0.169E+04   -.808E+02 -.542E-01 -.168E+04   0.743E+01 0.138E-01 -.272E+01
   -.863E+02 0.886E-02 0.194E+04   0.936E+02 -.653E-02 -.194E+04   -.696E+01 -.813E-02 -.165E+00
[...]
   0.874E+02 -.461E-01 -.108E+04   -.945E+02 0.550E-01 0.109E+04   0.701E+01 -.988E-02 -.745E+01
   0.686E+02 -.174E+00 -.715E+03   -.747E+02 0.189E+00 0.718E+03   0.603E+01 -.126E-01 -.319E+01
   -.829E+02 0.137E+01 -.459E+03   0.893E+02 -.145E+01 0.456E+03   -.647E+01 0.775E-01 0.279E+01
   -.705E+02 0.154E+02 -.128E+04   0.730E+02 -.161E+02 0.127E+04   -.254E+01 0.631E+00 0.986E+01
   0.804E+02 0.158E+02 -.104E+04   -.868E+02 -.166E+02 0.104E+04   0.636E+01 0.726E+00 -.554E+01
   0.808E+02 0.204E+01 -.733E+03   -.872E+02 -.216E+01 0.736E+03   0.643E+01 0.113E+00 -.340E+01
   -.721E+02 -.618E-01 -.462E+03   0.783E+02 0.668E-01 0.460E+03   -.616E+01 -.560E-02 0.227E+01
   -.536E+02 -.461E+00 -.131E+04   0.589E+02 0.498E+00 0.130E+04   -.521E+01 -.373E-01 0.711E+01
   0.110E+03 0.273E-02 -.228E+04   -.116E+03 -.117E-01 0.230E+04   0.619E+01 0.885E-02 -.209E+02
   0.409E+02 -.147E-01 -.201E+04   -.446E+02 0.225E-01 0.201E+04   0.374E+01 -.814E-02 -.738E+01
   -.492E+02 0.815E+01 -.166E+04   0.541E+02 -.806E+01 0.165E+04   -.484E+01 -.950E-01 0.309E+01
   0.369E+01 0.390E+02 -.225E+04   -.873E+01 -.388E+02 0.227E+04   0.505E+01 -.224E+00 -.189E+02
   0.836E+02 0.555E+02 -.196E+04   -.885E+02 -.555E+02 0.196E+04   0.485E+01 0.534E-02 -.681E+01
   -.563E+02 -.306E+00 -.152E+04   0.597E+02 0.301E+00 0.151E+04   -.351E+01 0.382E-02 0.525E+01
   -.420E+02 -.150E+01 0.749E+02   0.192E-12 -.505E-12 -.955E-11   0.420E+02 0.150E+01 -.749E+02

 POSITION                                       TOTAL-FORCE (eV/Angst)
      7.12601      4.92762     21.55423        -0.005437     -0.001493      0.002665
      7.07816      6.46372     21.59719         0.000196     -0.001885     -0.001388
      6.49485      5.67657     21.61376        -0.003166      0.002994     -0.001189
      8.29921      9.47401      8.23548         3.837413      0.003199      1.707344
      6.08023      7.57921      9.11607        -1.650633      0.002711     -1.856644
      3.16233      7.57921      8.23548         3.803346     -0.000226      1.683832
      0.94335      9.47401      9.11607        -1.692118     -0.003771     -1.859729
      9.70804      9.47696     11.79939        -0.002085      0.000443     -0.001112
      7.46680      7.57573     12.59376        -0.001209      0.000343      0.001226
      4.56313      7.57772     11.79452        -0.001360      0.000184      0.000808
      2.31691      9.47426     12.60946         0.002076      0.000135     -0.000427
      0.88581      9.47973     15.36543         0.000119     -0.001266     -0.000629
      8.89061      7.57665     16.05893         0.000870      0.000153      0.002311
      6.00361      7.58012     15.33207         0.000521     -0.000606     -0.000479
      3.73970      9.47663     16.10029         0.000071      0.001887     -0.001746
      2.37420      9.46848     19.00448         0.001816      0.001242      0.001025
      0.00061      7.57079     19.54914        -0.001431      0.001682      0.001068
      7.48719      7.56984     18.89699         0.003580      0.001321      0.002397
      5.17131      9.48586     19.55488        -0.003292      0.000081     -0.002058
      8.29921      1.89480      8.23548         3.836884     -0.003031      1.706743
      6.08023      0.00000      9.11607        -1.675573     -0.000399     -1.854503
      3.16233      0.00000      8.23548         3.828351     -0.000223      1.700152
      0.94335      1.89480      9.11607        -1.691584      0.002824     -1.859622
      9.70775      1.89443     11.79934         0.001318     -0.002576     -0.000791
      7.45840      0.00121     12.59926         0.000908     -0.001965     -0.002203
      4.56506      0.00071     11.79888        -0.000516     -0.000633     -0.000628
      2.31702      1.89600     12.60912         0.000621     -0.001298      0.001592
      0.88555      1.89426     15.36503         0.002217     -0.000243     -0.000697
      8.87554      0.00249     16.07756        -0.000840     -0.000223     -0.000856
      6.01053      0.00188     15.34967        -0.002619     -0.000640      0.002577
      3.73944      1.89581     16.10016        -0.001811     -0.002681     -0.003819
      2.37400      1.90629     19.00429        -0.001063     -0.000798      0.000217
      0.02796      0.00320     19.54922         0.001586     -0.000877      0.002565
      7.52089      0.00202     18.97289        -0.002529      0.000972      0.001150
      5.17094      1.88638     19.55435         0.000297      0.000220     -0.001240
      8.29921      5.68441      8.23548         3.843995      0.000509      1.698510
      6.08023      3.78960      9.11607        -1.649146     -0.002854     -1.856467
      3.16233      3.78960      8.23548         3.802302      0.000856      1.682656
      0.94335      5.68441      9.11607        -1.659250     -0.000089     -1.797958
      9.72335      5.68586     11.79347         0.000953      0.000381     -0.000368
      7.46718      3.79564     12.59351        -0.003223     -0.000282      0.002518
      4.56290      3.79264     11.79430         0.000268     -0.000146      0.000589
      2.32113      5.68515     12.63847        -0.000757      0.000490     -0.000654
      0.91611      5.68740     15.37096        -0.000508     -0.000354      0.000840
      8.89151      3.79737     16.05804        -0.001295     -0.001300      0.002053
      6.00291      3.79240     15.33113         0.002631      0.001266     -0.001676
      3.76101      5.68639     16.18358        -0.002068      0.000599     -0.001890
      2.40874      5.68700     19.01769        -0.003691      0.001079     -0.002726
     -0.00099      3.80414     19.54998        -0.002848     -0.001553     -0.002331
      7.48558      3.80345     18.89296         0.000911     -0.002338      0.000613
      5.18998      5.68612     19.72347         0.000562     -0.001467      0.001675
      5.01563      7.57921      7.50000        -1.754065     -0.000260      0.958990
     10.15251      9.47401      7.50000        -1.747296      0.000171      0.952580
      9.36381      9.47401      9.85155        -0.999278      0.000350     -0.169035
      6.44591      9.47401      8.97095         0.349814     -0.003605     -0.045871
      7.93353      7.57921      8.38059         0.266986     -0.002064     -1.067381
      6.41347      7.57921     11.02238        -0.074542      0.006885      0.424849
      4.22693      7.57921      9.85155        -1.007435     -0.000761     -0.156397
      1.30903      7.57921      8.97095         0.361822      0.009009     -0.053408
      2.79665      9.47401      8.38059         0.278719     -0.005809     -1.070492
[...]
      2.72799      5.68568     14.57069        -0.002308     -0.000288     -0.003320
      1.98509      5.68729     16.96420        -0.001598     -0.001064     -0.003240
      9.29014      5.68673     16.00732         0.000056      0.002497      0.001462
      0.52907      3.79466     15.44053        -0.000467     -0.001725     -0.001254
      9.38592      3.77763     18.00929         0.001233      0.000186      0.003415
      7.13023      3.76182     16.89922        -0.001836      0.000403      0.002331
      4.15795      3.79366     16.04770         0.000130     -0.002255     -0.002158
      5.65779      5.68618     15.46271         0.001948     -0.000681      0.000152
      4.24705      5.68812     18.11858        -0.000078     -0.000748      0.003318
      3.54204      5.68646     20.49770         0.000983     -0.000095     -0.002448
      0.52904      5.68717     19.77764        -0.000502     -0.000356      0.001832
      1.99939      3.79770     19.01108        -0.000904     -0.002372     -0.000654
      8.63879      3.86148     20.39754        -0.001326     -0.000630      0.001383
      5.69334      3.77385     19.75785        -0.002035     -0.001463     -0.001197
      7.11529      5.68720     18.85004        -0.000929     -0.001249     -0.000332
    total drift:                                0.006735     -0.001385      0.007866

  FREE ENERGIE OF THE ION-ELECTRON SYSTEM (eV)
  free  energy   TOTEN  =     -1289.40674110 eV

  energy  without entropy=    -1289.40674110  energy(sigma->0) =    -1289.40674110

 d Force = 0.4352674E-04[ 0.260E-04, 0.610E-04]  d Energy = 0.4431825E-04-0.792E-06
 d Force =-0.2685714E+01[-0.269E+01,-0.269E+01]  d Ewald  =-0.2685714E+01 0.128E-07

 Conjugate gradient step on ions:
 trial-energy change:   -0.000044  1 .order   -0.000044   -0.000061   -0.000026
  (g-gl).g = 0.749E-04      g.g   = 0.147E-03  gl.gl    = 0.203E-03
 g(Force)  = 0.147E-03   g(Stress)= 0.000E+00 ortho     = 0.171E-04
 gamma     =   0.36952
 trial     =   0.39851
 opt step  =   0.64195  (harmonic =   0.69520) maximal distance =0.00066344
 next E    = -1289.406749   (d E  =  -0.00005)

 reached required accuracy - stopping structural energy minimisation