 vasp.6.3.0 20Jan22 (build Dec 25 2023 18:06:01) complex
 executed on        HPECrayEX_GCC date 2024.11.20  21:22:49

 INCAR:
   SYSTEM = TiO2
   ISMEAR = 0
   SIGMA = 0.05
   EDIFF = 1E-7
   ALGO = Normal
   ISTART = 0
   IBRION = 2
   NSW = 1000
   ISYM = 0
   ISIF = 2
   EDIFFG = -0.01
   DIPOL = 0.5 0.5 0.5
   IDIPOL = 3
   LDIPOL = .TRUE.
   GGA = RE
   IVDW = 13
   VDW_S8 = 1.7468
   VDW_A1 = 0.5363
   VDW_A2 = 3.0726
   ENCUT = 600
   PREC = Accurate
   LASPH = .TRUE.
   LREAL = .FALSE.
   ISPIN = 1
   NELM = 200
   NELMIN = 8
   NCORE = 8
   KPAR = 1
   LWAVE = .FALSE.
   LCHARG = .FALSE.

 POTCAR:    PAW_PBE H 15Jun2001
 POTCAR:    PAW_PBE O 08Apr2002
 POTCAR:    PAW_PBE Ti_pv 07Sep2000
 POTCAR:    PAW_PBE O 08Apr2002
 POTCAR:    PAW_PBE H 15Jun2001
   VRHFIN =H: ultrasoft test

   TITEL  = PAW_PBE H 15Jun2001
   POMASS =    1.000; ZVAL   =    1.000    mass and valenz
   ENMAX  =  250.000; ENMIN  =  200.000 eV

   TITEL  = PAW_PBE O 08Apr2002
   POMASS =   16.000; ZVAL   =    6.000    mass and valenz
   ENMAX  =  400.000; ENMIN  =  300.000 eV

   TITEL  = PAW_PBE Ti_pv 07Sep2000
   POMASS =   47.880; ZVAL   =   10.000    mass and valenz
   ENMAX  =  222.335; ENMIN  =  166.751 eV

   TITEL  = PAW_PBE O 08Apr2002
   POMASS =   16.000; ZVAL   =    6.000    mass and valenz
   ENMAX  =  400.000; ENMIN  =  300.000 eV

  PAW_PBE H 15Jun2001                   :
  PAW_PBE O 08Apr2002                   :
  PAW_PBE Ti_pv 07Sep2000               :
  PAW_PBE O 08Apr2002                   :

 POSCAR:  H  O Ti  O
  positions in direct lattice
|           W    W    AA    RRRRR   N    N  II  N    N   GGGG   !!!           |
|           W    W   A  A   R    R  NN   N  II  NN   N  G    G  !!!           |
|           W    W  A    A  R    R  N N  N  II  N N  N  G       !!!           |
|           W WW W  AAAAAA  RRRRR   N  N N  II  N  N N  G  GGG   !            |
|           WW  WW  A    A  R   R   N   NN  II  N   NN  G    G                |
|           W    W  A    A  R    R  N    N  II  N    N   GGGG   !!!           |
|     Specifying the vdW parameters                                           |
|     VDW_S8 = 1.747                                                          |
|     VDW_A1 = 0.536                                                          |
|     VDW_A2 = 3.073                                                          |
|     in the INCAR file will overwrite the defaults for revpbe. Please        |
|     make sure that is what you intended.                                    |

 ion  position               nearest neighbor table
   1  0.688  0.568  0.767-   3 0.98
   2  0.688  0.432  0.767-   3 0.98
   3  0.629  0.500  0.768-   2 0.98   1 0.98  51 2.30
   4  0.808  0.833  0.295-  88 1.94  56 1.94  54 1.94  53 1.99  55 1.99  21 3.05   7 3.05   5 3.05

   5  0.592  0.667  0.327-  52 1.94 119 1.94  55 1.94  57 1.94  56 1.99  58 1.99  36 3.05   6 3.05
                             4 3.05  10 3.08
   6  0.308  0.667  0.295- 124 1.94  60 1.94  58 1.94  52 1.99  59 1.99  39 3.05   5 3.05   7 3.05

   7  0.092  0.833  0.327-  53 1.94  91 1.94  59 1.94  61 1.94  60 1.99  54 1.99  22 3.05   4 3.05
                             6 3.05   8 3.08
   8  0.944  0.833  0.423-  62 1.92  64 1.93  96 1.93  54 1.98  63 1.98  61 2.01  11 3.00   9 3.05
                            25 3.05   7 3.08
   9  0.725  0.667  0.451-  57 1.89 127 1.94  63 1.94  65 1.97  66 1.98  64 2.01  10 3.00  40 3.05
                             8 3.05  14 3.11
  10  0.444  0.667  0.423-  66 1.92  68 1.93 132 1.93  58 1.98  67 1.98  57 2.01   9 3.00  43 3.05
                            11 3.05   5 3.08
  11  0.225  0.833  0.451-  61 1.89  67 1.94  99 1.94  69 1.97  62 1.98  68 2.01   8 3.00  10 3.05
                            26 3.05  12 3.11
  12  0.085  0.833  0.550-  70 1.92 104 1.93  72 1.93  71 1.98  62 2.00  69 2.01  15 2.95  29 3.05
                            13 3.05  11 3.11
  13  0.863  0.667  0.576-  65 1.86  71 1.94 135 1.94  74 1.95  73 2.01  72 2.02  14 2.95  12 3.05
                            44 3.05
  14  0.585  0.667  0.550-  74 1.92  76 1.93 140 1.93  75 1.98  66 2.00  65 2.01  13 2.95  47 3.05
                            15 3.05   9 3.11
  15  0.363  0.833  0.576-  69 1.86 107 1.94  75 1.94  70 1.95  77 2.01  76 2.02  12 2.95  30 3.05
                            14 3.05
  16  0.232  0.833  0.680-  78 1.86 112 1.93  80 1.93  79 2.00  77 2.09  70 2.09  19 2.84  33 3.07
                            17 3.07
  17  0.003  0.667  0.700-  73 1.78  81 1.83  79 1.98 143 1.98  80 2.06  18 2.84  16 3.07  48 3.07

[...]

  20  0.808  0.167  0.295-  88 1.94 120 1.94  86 1.94  85 1.99  87 1.99  21 3.05  23 3.05  37 3.05

[...]

  36  0.808  0.500  0.295-  56 1.94 120 1.94 118 1.94 117 1.99 119 1.99  37 3.05   5 3.05  39 3.05

  37  0.592  0.333  0.327- 116 1.94 119 1.94  87 1.94 121 1.94 120 1.99 122 1.99  36 3.05  38 3.05
                            20 3.05  42 3.08
  38  0.308  0.333  0.295- 124 1.94  92 1.94 122 1.94 116 1.99 123 1.99  39 3.05  37 3.05  23 3.05

  39  0.092  0.500  0.327- 117 1.94  59 1.94 123 1.94 125 1.94 124 1.99 118 1.99   6 3.05  38 3.05
                            36 3.05  40 3.08
  40  0.944  0.500  0.423- 126 1.92 128 1.93  64 1.93 118 1.98 127 1.98 125 2.01  43 3.00   9 3.05
                            41 3.05  39 3.08
  41  0.725  0.333  0.451- 121 1.89  95 1.94 127 1.94 129 1.97 130 1.98 128 2.01  42 3.00  24 3.05
                            40 3.05  46 3.11
  42  0.444  0.333  0.423- 130 1.92 100 1.93 132 1.93 122 1.98 131 1.98 121 2.01  41 3.00  27 3.05
                            43 3.05  37 3.08
  43  0.225  0.500  0.451- 125 1.89  67 1.94 131 1.94 133 1.97 126 1.98 132 2.01  40 3.00  10 3.05
                            42 3.05  44 3.11
  44  0.085  0.500  0.550- 134 1.92 136 1.93  72 1.93 135 1.98 126 2.00 133 2.01  47 2.95  45 3.05
                            13 3.05  43 3.11
  45  0.863  0.333  0.576- 129 1.86 135 1.94 103 1.94 138 1.95 137 2.01 136 2.02  46 2.95  44 3.05
                            28 3.05
  46  0.585  0.333  0.550- 138 1.92 140 1.93 108 1.93 139 1.98 130 2.00 129 2.01  45 2.95  47 3.05
                            31 3.05  41 3.11
  47  0.363  0.500  0.576- 133 1.86 139 1.94  75 1.94 134 1.95 141 2.01 140 2.02  44 2.95  46 3.05
                            14 3.05
  48  0.232  0.500  0.680- 142 1.86 144 1.93  80 1.93 143 2.00 141 2.09 134 2.09  51 2.84  49 3.07
                            17 3.07
  49  0.003  0.333  0.700- 137 1.78 145 1.83 143 1.98 111 1.98 144 2.06  50 2.84  48 3.07  32 3.07

  50  0.732  0.333  0.680- 145 1.86 147 1.93 115 1.93 146 2.00 137 2.09 138 2.09  49 2.84  51 3.07
                            35 3.07
  51  0.503  0.500  0.700- 141 1.78 142 1.83  82 1.98 146 1.98 147 2.06   3 2.30  48 2.84  50 3.07
                            18 3.07
  52  0.488  0.667  0.269-   5 1.94   6 1.99
  53  0.988  0.833  0.269-   7 1.94   4 1.99
  54  0.911  0.833  0.353-   4 1.94   8 1.98   7 1.99
  55  0.627  0.833  0.321-  21 1.94   5 1.94   4 1.99
  56  0.772  0.667  0.300-  36 1.94   4 1.94   5 1.99
  57  0.624  0.667  0.395-   9 1.89   5 1.94  10 2.01
  58  0.411  0.667  0.353-   6 1.94  10 1.98   5 1.99
  59  0.127  0.667  0.321-  39 1.94   7 1.94   6 1.99
  60  0.272  0.833  0.300-  22 1.94   6 1.94   7 1.99
  61  0.124  0.833  0.395-  11 1.89   7 1.94   8 2.01
  62  0.049  0.833  0.480-   8 1.92  11 1.98  12 2.00
  63  0.763  0.833  0.448-   9 1.94  25 1.94   8 1.98
  64  0.908  0.667  0.427-   8 1.93  40 1.93   9 2.01
  65  0.763  0.667  0.521-  13 1.86   9 1.97  14 2.01
  66  0.549  0.667  0.480-  10 1.92   9 1.98  14 2.00
  67  0.263  0.667  0.448-  43 1.94  11 1.94  10 1.98
  68  0.408  0.833  0.427-  26 1.93  10 1.93  11 2.01
  69  0.263  0.833  0.521-  15 1.86  11 1.97  12 2.01
  70  0.193  0.833  0.606-  12 1.92  15 1.95  16 2.09
  71  0.903  0.833  0.574-  29 1.94  13 1.94  12 1.98
  72  0.050  0.667  0.553-  12 1.93  44 1.93  13 2.02
  73  0.913  0.667  0.646-  17 1.78  13 2.01  18 2.09
  74  0.693  0.667  0.606-  14 1.92  13 1.95  18 2.09
  75  0.403  0.667  0.574-  15 1.94  47 1.94  14 1.98
  76  0.550  0.833  0.553-  30 1.93  14 1.93  15 2.02
  77  0.413  0.833  0.646-  19 1.78  15 2.01  16 2.09
  78  0.346  0.833  0.732-  19 1.83  16 1.86
  79  0.054  0.833  0.708-  17 1.98  33 1.98  16 2.00
  80  0.196  0.667  0.680-  16 1.93  48 1.93  17 2.06
  81  0.846  0.667  0.732-  17 1.83  18 1.86
  82  0.554  0.667  0.708-  51 1.98  19 1.98  18 2.00
  83  0.696  0.833  0.680-  34 1.93  18 1.93  19 2.06
  84  0.488  0.000  0.269-  21 1.94  22 1.99
  85  0.988  0.167  0.269-  23 1.94  20 1.99
  86  0.911  0.167  0.353-  20 1.94  24 1.98  23 1.99
  87  0.627  0.167  0.321-  21 1.94  37 1.94  20 1.99
  88  0.772  0.000  0.300-   4 1.94  20 1.94  21 1.99
  89  0.624  0.000  0.395-  25 1.89  21 1.94  26 2.01
  90  0.411  0.000  0.353-  22 1.94  26 1.98  21 1.99
  91  0.127  0.000  0.321-   7 1.94  23 1.94  22 1.99
  92  0.272  0.167  0.300-  22 1.94  38 1.94  23 1.99
  93  0.124  0.167  0.395-  27 1.89  23 1.94  24 2.01
  94  0.049  0.167  0.480-  24 1.92  27 1.98  28 2.00
  95  0.763  0.167  0.448-  25 1.94  41 1.94  24 1.98
  96  0.908  1.000  0.427-  24 1.93   8 1.93  25 2.01
  97  0.763  1.000  0.521-  29 1.86  25 1.97  30 2.01
  98  0.549  1.000  0.480-  26 1.92  25 1.98  30 2.00
  99  0.263  0.000  0.448-  27 1.94  11 1.94  26 1.98
 100  0.408  0.167  0.427-  42 1.93  26 1.93  27 2.01
 101  0.263  0.167  0.521-  31 1.86  27 1.97  28 2.01
 102  0.193  0.167  0.606-  28 1.92  31 1.95  32 2.09
 103  0.903  0.167  0.574-  45 1.94  29 1.94  28 1.98
 104  0.050  1.000  0.553-  12 1.93  28 1.93  29 2.02
 105  0.913  1.000  0.646-  33 1.78  29 2.01  34 2.09
 106  0.693  1.000  0.606-  30 1.92  29 1.95  34 2.09
 107  0.403  1.000  0.574-  15 1.94  31 1.94  30 1.98
 108  0.550  0.167  0.553-  46 1.93  30 1.93  31 2.02
 109  0.413  0.167  0.646-  35 1.78  31 2.01  32 2.09
 110  0.346  0.167  0.732-  35 1.83  32 1.86
 111  0.054  0.167  0.708-  33 1.98  49 1.98  32 2.00
[...]
 133  0.263  0.500  0.521-  47 1.86  43 1.97  44 2.01
 134  0.193  0.500  0.606-  44 1.92  47 1.95  48 2.09
 135  0.903  0.500  0.574-  45 1.94  13 1.94  44 1.98
 136  0.050  0.333  0.553-  44 1.93  28 1.93  45 2.02
 137  0.913  0.333  0.646-  49 1.78  45 2.01  50 2.09
 138  0.693  0.333  0.606-  46 1.92  45 1.95  50 2.09
 139  0.403  0.333  0.574-  47 1.94  31 1.94  46 1.98
 140  0.550  0.500  0.553-  46 1.93  14 1.93  47 2.02
 141  0.413  0.500  0.646-  51 1.78  47 2.01  48 2.09
 142  0.346  0.500  0.732-  51 1.83  48 1.86
 143  0.054  0.500  0.708-  49 1.98  17 1.98  48 2.00
 144  0.196  0.333  0.680-  48 1.93  32 1.93  49 2.06
 145  0.846  0.333  0.732-  49 1.83  50 1.86
 146  0.554  0.333  0.708-  35 1.98  51 1.98  50 2.00
 147  0.696  0.500  0.680-  50 1.93  18 1.93  51 2.06

IMPORTANT INFORMATION: All symmetrisations will be switched off!
NOSYMM: (Re-)initialisation of all symmetry stuff for point group C_1.

                                     Primitive cell

  volume of cell :    3260.5577

  direct lattice vectors                    reciprocal lattice vectors
    10.272661001  0.000000000  0.000000000     0.097345761 -0.000000000  0.000000000
[...]
   0.146E+02 -.202E-02 -.218E+04   -.559E+02 0.424E-02 0.219E+04   0.413E+02 -.478E-03 -.969E+01   -.355E-03 -.421E-03 0.740E-05
   0.657E+01 -.108E+00 0.337E+04   -.162E+01 0.112E+00 -.337E+04   -.113E+01 -.907E-03 -.348E+01   -.136E-03 -.720E-04 -.107E-03
   0.487E+01 -.271E+00 0.277E+04   -.646E+01 0.276E+00 -.278E+04   -.714E-01 -.128E-02 -.224E-01   0.155E-03 0.288E-04 0.460E-04
   0.659E+01 0.739E-01 0.337E+04   -.168E+01 -.748E-01 -.337E+04   -.112E+01 0.563E-03 -.347E+01   -.205E-03 -.814E-05 -.424E-04
   0.327E+01 0.307E-01 0.277E+04   -.491E+01 -.348E-01 -.278E+04   -.612E-01 0.110E-02 -.280E-01   0.252E-03 -.850E-04 0.110E-03
   -.159E+00 -.227E-01 0.126E+04   -.142E-01 0.244E-01 -.126E+04   0.175E+00 -.212E-02 0.243E-01   0.128E-03 -.369E-04 0.298E-03
   0.149E+01 -.234E+01 0.804E+03   -.144E+01 0.232E+01 -.804E+03   -.465E-01 0.246E-01 -.156E+00   0.127E-03 0.115E-03 0.155E-03
   0.178E+01 -.357E+00 0.127E+04   -.194E+01 0.350E+00 -.127E+04   0.162E+00 0.758E-02 -.317E-02   0.133E-04 0.120E-03 0.181E-03
   -.592E+01 0.205E+00 0.793E+03   0.594E+01 -.212E+00 -.793E+03   -.220E-01 0.358E-02 -.151E+00   0.162E-03 0.100E-03 0.146E-03
   -.583E+01 -.219E+01 -.782E+03   0.552E+01 0.218E+01 0.782E+03   0.314E+00 0.304E-02 0.130E+00   0.122E-03 0.152E-03 0.146E-03
   -.137E+02 -.495E+01 -.117E+04   0.138E+02 0.499E+01 0.117E+04   -.960E-01 -.396E-01 -.244E+00   0.273E-03 0.228E-04 -.116E-03
   0.264E+01 -.235E+01 -.748E+03   -.289E+01 0.235E+01 0.748E+03   0.263E+00 0.338E-02 0.804E-01   0.518E-04 0.220E-03 -.170E-03
   -.109E+01 -.201E+01 -.120E+04   0.121E+01 0.202E+01 0.120E+04   -.109E+00 -.135E-01 -.282E+00   -.200E-03 0.423E-03 -.121E-03
   0.284E+02 -.127E+02 -.279E+04   -.293E+02 0.127E+02 0.279E+04   0.944E+00 0.136E-01 -.186E+00   -.191E-03 0.577E-04 -.235E-03
   -.919E+02 -.280E+02 -.318E+04   0.919E+02 0.279E+02 0.318E+04   0.444E-01 0.178E+00 0.799E+00   0.710E-03 -.213E-03 0.237E-03
   -.113E+02 -.546E+02 -.269E+04   0.105E+02 0.547E+02 0.269E+04   0.788E+00 -.314E-01 -.497E-01   0.500E-03 0.611E-04 -.215E-03
   -.581E+02 -.348E+02 -.318E+04   0.581E+02 0.348E+02 0.318E+04   0.732E-01 0.841E-02 0.837E+00   -.319E-03 0.301E-03 -.300E-03
   0.657E+01 0.108E+00 0.337E+04   -.162E+01 -.112E+00 -.337E+04   -.113E+01 0.907E-03 -.348E+01   -.137E-03 0.743E-04 -.109E-03
   0.482E+01 -.105E-04 0.277E+04   -.644E+01 0.916E-05 -.278E+04   -.628E-01 -.195E-06 -.303E-01   -.743E-04 0.181E-05 -.247E-03
   0.645E+01 -.459E-05 0.337E+04   -.151E+01 0.275E-05 -.337E+04   -.113E+01 -.135E-06 -.348E+01   -.517E-05 0.234E-05 0.553E-04
   0.327E+01 -.307E-01 0.277E+04   -.491E+01 0.348E-01 -.278E+04   -.612E-01 -.110E-02 -.280E-01   0.252E-03 0.868E-04 0.109E-03
   -.159E+00 0.227E-01 0.126E+04   -.142E-01 -.244E-01 -.126E+04   0.175E+00 0.212E-02 0.243E-01   0.128E-03 0.355E-04 0.292E-03
   -.206E+01 -.473E-05 0.799E+03   0.207E+01 0.770E-05 -.799E+03   -.781E-02 -.913E-07 -.159E+00   0.162E-03 -.280E-05 0.581E-03
   0.209E+01 -.185E-04 0.126E+04   -.225E+01 0.217E-04 -.126E+04   0.165E+00 -.353E-06 0.441E-02   -.246E-03 -.133E-05 0.180E-03
   -.592E+01 -.205E+00 0.793E+03   0.594E+01 0.212E+00 -.793E+03   -.220E-01 -.358E-02 -.151E+00   0.162E-03 -.103E-03 0.140E-03
   -.583E+01 0.219E+01 -.782E+03   0.552E+01 -.218E+01 0.782E+03   0.314E+00 -.304E-02 0.130E+00   0.126E-03 -.163E-03 0.133E-03
   -.116E+02 -.496E-05 -.119E+04   0.117E+02 0.271E-04 0.119E+04   -.653E-01 -.182E-05 -.257E+00   0.171E-03 -.167E-04 0.190E-03
   -.139E+01 0.290E-04 -.771E+03   0.109E+01 -.107E-04 0.771E+03   0.303E+00 -.178E-05 0.159E+00   0.135E-03 -.120E-04 0.804E-04
   -.109E+01 0.201E+01 -.120E+04   0.121E+01 -.202E+01 0.120E+04   -.109E+00 0.135E-01 -.282E+00   -.202E-03 -.438E-03 -.136E-03
   0.284E+02 0.127E+02 -.279E+04   -.293E+02 -.127E+02 0.279E+04   0.944E+00 -.136E-01 -.186E+00   -.190E-03 -.870E-04 -.265E-03
   -.764E+02 -.199E-04 -.319E+04   0.764E+02 0.799E-04 0.319E+04   0.144E-01 -.570E-06 0.804E+00   0.926E-03 -.489E-04 0.302E-03
   0.108E+02 -.203E-03 -.278E+04   -.116E+02 0.274E-03 0.278E+04   0.871E+00 -.230E-06 -.137E+00   -.822E-04 -.508E-04 0.537E-04
   -.581E+02 0.348E+02 -.318E+04   0.581E+02 -.348E+02 0.318E+04   0.732E-01 -.841E-02 0.837E+00   -.351E-03 -.376E-03 -.354E-03
   0.656E+01 0.129E-04 0.337E+04   -.160E+01 -.112E-04 -.337E+04   -.113E+01 0.167E-06 -.347E+01   -.335E-04 -.226E-05 -.372E-04
   0.487E+01 0.271E+00 0.277E+04   -.646E+01 -.276E+00 -.278E+04   -.714E-01 0.128E-02 -.224E-01   0.156E-03 -.307E-04 0.442E-04
   0.659E+01 -.739E-01 0.337E+04   -.168E+01 0.748E-01 -.337E+04   -.112E+01 -.563E-03 -.347E+01   -.205E-03 0.588E-05 -.435E-04
   0.232E+01 0.664E-05 0.277E+04   -.391E+01 -.525E-05 -.278E+04   -.797E-01 0.107E-06 -.217E-01   0.151E-03 -.184E-05 0.248E-03
   0.553E+00 0.676E-04 0.126E+04   -.714E+00 -.736E-04 -.126E+04   0.161E+00 0.985E-06 0.653E-01   0.305E-03 0.159E-05 0.139E-03
   0.149E+01 0.234E+01 0.804E+03   -.144E+01 -.232E+01 -.804E+03   -.465E-01 -.246E-01 -.156E+00   0.126E-03 -.112E-03 0.151E-03
   0.178E+01 0.357E+00 0.127E+04   -.194E+01 -.350E+00 -.127E+04   0.162E+00 -.758E-02 -.317E-02   0.132E-04 -.118E-03 0.176E-03
   -.883E+01 -.156E-04 0.776E+03   0.887E+01 0.890E-05 -.776E+03   -.337E-01 0.134E-05 -.488E-01   -.681E-03 0.262E-05 -.163E-03
   -.328E+01 0.889E-05 -.784E+03   0.306E+01 -.247E-04 0.784E+03   0.234E+00 0.153E-05 0.156E+00   -.662E-03 0.106E-04 0.313E-04
   -.137E+02 0.495E+01 -.117E+04   0.138E+02 -.499E+01 0.117E+04   -.960E-01 0.396E-01 -.244E+00   0.269E-03 -.512E-05 -.130E-03
   0.264E+01 0.235E+01 -.748E+03   -.289E+01 -.235E+01 0.748E+03   0.263E+00 -.338E-02 0.804E-01   0.565E-04 -.209E-03 -.183E-03
   -.172E+01 0.276E-05 -.124E+04   0.183E+01 -.247E-04 0.124E+04   -.994E-01 0.155E-05 -.127E+00   -.344E-03 0.150E-04 -.288E-03
   0.437E+02 -.809E-04 -.279E+04   -.445E+02 0.567E-04 0.279E+04   0.748E+00 -.245E-05 -.719E-01   -.211E-03 0.289E-04 0.204E-03
   -.919E+02 0.280E+02 -.318E+04   0.919E+02 -.279E+02 0.318E+04   0.445E-01 -.178E+00 0.799E+00   0.743E-03 0.260E-03 0.156E-03
   -.113E+02 0.546E+02 -.269E+04   0.105E+02 -.547E+02 0.269E+04   0.788E+00 0.314E-01 -.497E-01   0.507E-03 -.861E-05 -.296E-03
   0.277E+02 -.610E-03 -.314E+04   -.273E+02 0.507E-03 0.314E+04   -.344E+00 0.944E-05 0.507E+00   -.549E-03 0.605E-04 -.436E-03
   -.321E+02 -.507E-01 0.228E+04   0.369E+02 0.520E-01 -.230E+04   -.657E+01 -.151E-02 0.171E+02   -.193E-03 -.330E-05 0.444E-04
   -.325E+02 -.440E-01 0.228E+04   0.373E+02 0.437E-01 -.230E+04   -.656E+01 0.447E-03 0.171E+02   -.158E-03 -.475E-04 0.417E-04
   0.814E+02 0.565E-01 0.138E+04   -.863E+02 -.658E-01 -.138E+04   0.389E+01 0.726E-02 -.449E+01   -.739E-04 -.562E-04 -.161E-03
   0.748E+02 -.938E-01 0.169E+04   -.819E+02 0.974E-01 -.168E+04   0.741E+01 -.739E-02 -.270E+01   0.142E-03 -.358E-04 -.934E-04
   -.862E+02 -.121E+00 0.194E+04   0.934E+02 0.122E+00 -.194E+04   -.699E+01 -.300E-02 -.157E+00   0.501E-04 0.347E-04 -.464E-04
   -.688E+02 -.101E+01 0.106E+04   0.744E+02 0.106E+01 -.106E+04   -.570E+01 -.403E-01 0.428E+01   0.770E-04 0.220E-04 0.701E-04
   0.822E+02 -.844E-03 0.138E+04   -.871E+02 0.183E-01 -.138E+04   0.386E+01 -.193E-01 -.430E+01   -.180E-03 0.384E-04 -.157E-03
   0.738E+02 0.462E-01 0.169E+04   -.809E+02 -.512E-01 -.168E+04   0.743E+01 0.133E-01 -.272E+01   0.197E-03 -.487E-04 -.623E-05
   -.863E+02 -.499E-02 0.194E+04   0.936E+02 0.762E-02 -.194E+04   -.696E+01 -.877E-02 -.162E+00   0.367E-04 -.112E-03 0.570E-05
[...]
   0.874E+02 -.689E-05 -.108E+04   -.944E+02 -.494E-05 0.109E+04   0.701E+01 0.207E-05 -.738E+01   0.294E-03 0.989E-05 0.789E-03
   0.688E+02 -.177E-04 -.717E+03   -.749E+02 0.130E-04 0.720E+03   0.605E+01 0.128E-05 -.325E+01   0.203E-03 0.820E-05 -.605E-04
   -.827E+02 0.148E+01 -.458E+03   0.892E+02 -.158E+01 0.456E+03   -.647E+01 0.101E+00 0.281E+01   0.986E-04 0.139E-03 0.436E-03
   -.701E+02 0.153E+02 -.128E+04   0.726E+02 -.159E+02 0.127E+04   -.252E+01 0.621E+00 0.985E+01   0.126E-03 0.271E-03 0.530E-03
   0.803E+02 0.160E+02 -.104E+04   -.867E+02 -.167E+02 0.104E+04   0.636E+01 0.748E+00 -.561E+01   -.526E-04 0.751E-03 0.385E-04
   0.810E+02 0.199E+01 -.732E+03   -.874E+02 -.210E+01 0.735E+03   0.646E+01 0.108E+00 -.337E+01   -.126E-03 0.670E-04 0.369E-03
   -.724E+02 0.841E-04 -.463E+03   0.786E+02 -.985E-04 0.461E+03   -.619E+01 0.724E-05 0.223E+01   -.100E-03 0.617E-05 -.253E-05
   -.537E+02 0.559E-04 -.131E+04   0.589E+02 -.893E-04 0.130E+04   -.520E+01 0.121E-04 0.711E+01   -.187E-04 0.214E-04 0.724E-03
   0.110E+03 -.107E-03 -.228E+04   -.116E+03 0.623E-04 0.230E+04   0.623E+01 0.912E-05 -.209E+02   -.722E-03 0.363E-04 0.617E-03
   0.409E+02 -.375E-03 -.201E+04   -.447E+02 0.377E-03 0.201E+04   0.374E+01 -.128E-04 -.740E+01   -.198E-03 0.219E-04 0.745E-03
   -.495E+02 0.797E+01 -.166E+04   0.543E+02 -.785E+01 0.165E+04   -.485E+01 -.110E+00 0.311E+01   -.235E-03 0.118E-03 0.463E-03
   0.427E+01 0.386E+02 -.225E+04   -.934E+01 -.384E+02 0.227E+04   0.509E+01 -.242E+00 -.190E+02   0.262E-03 -.161E-03 0.831E-04
   0.835E+02 0.551E+02 -.196E+04   -.884E+02 -.551E+02 0.196E+04   0.486E+01 -.136E-01 -.681E+01   -.345E-03 -.726E-04 0.701E-03
   -.565E+02 -.403E-03 -.152E+04   0.600E+02 0.387E-03 0.152E+04   -.352E+01 0.216E-04 0.522E+01   -.273E-04 0.233E-04 0.102E-03
   -.422E+02 0.229E-03 0.747E+02   0.137E-11 0.126E-11 0.168E-10   0.422E+02 0.189E-03 -.747E+02   -.352E-02 -.378E-03 0.176E-01

 POSITION                                       TOTAL-FORCE (eV/Angst)
      7.09062      6.45318     21.57834        -0.004594     -0.003810     -0.000553
      7.09061      4.91565     21.57834        -0.003631      0.002557     -0.000599
      6.48305      5.68440     21.61313         0.008108      0.001316      0.002452
      8.29735      9.47401      8.23554         3.838028      0.003535      1.706270
      6.07868      7.57921      9.11612        -1.649037      0.003046     -1.856374
      3.16102      7.57921      8.23554         3.803091     -0.000316      1.681948
      0.94235      9.47401      9.11612        -1.691796     -0.002988     -1.859376
      9.70630      9.47572     11.79917        -0.000360      0.000594     -0.001096
      7.46554      7.57476     12.59387         0.000105     -0.001104     -0.001242
      4.56215      7.57684     11.79415         0.000499      0.000304      0.000399
      2.31729      9.47376     12.60831        -0.003901     -0.002856     -0.002423
      0.88481      9.47748     15.36316        -0.003520     -0.002033      0.000617
      8.88980      7.57457     16.05885        -0.000750      0.000193      0.001467
      6.00266      7.57808     15.33130         0.002626     -0.000654      0.000641
      3.73942      9.47482     16.09719        -0.000828      0.001364      0.002224
      2.37207      9.46523     19.00026         0.000566      0.004552      0.003512
     -0.00101      7.56806     19.54912        -0.002137     -0.000289      0.003499
      7.48462      7.56766     18.89491        -0.000879     -0.000111      0.001600
      5.16886      9.48459     19.55187         0.000253     -0.001695      0.001672
      8.29735      1.89480      8.23554         3.838028     -0.003535      1.706270
      6.07868      0.00000      9.11612        -1.674482      0.000000     -1.855305
      3.16102      0.00000      8.23554         3.828761      0.000000      1.698889
      0.94235      1.89480      9.11612        -1.691796      0.002987     -1.859376
      9.70630      1.89310     11.79917        -0.000360     -0.000591     -0.001096
      7.45767      0.00000     12.59902        -0.002238     -0.000000     -0.000311
      4.56466     -0.00000     11.79864         0.004013      0.000001      0.000101
      2.31729      1.89506     12.60831        -0.003901      0.002858     -0.002423
      0.88481      1.89133     15.36316        -0.003521      0.002036      0.000622
      8.87399     -0.00000     16.07777        -0.002208      0.000003      0.003522
      6.00999     -0.00000     15.34888         0.000220      0.000004      0.001584
      3.73942      1.89400     16.09719        -0.000826     -0.001359      0.002233
      2.37207      1.90358     19.00026         0.000572     -0.004553      0.003517
      0.02763     -0.00000     19.54896        -0.004620      0.000010     -0.000027
      7.51904     -0.00000     18.97406         0.006135      0.000019     -0.002990
      5.16886      1.88422     19.55187         0.000264      0.001721      0.001673
      8.29735      5.68441      8.23554         3.842916     -0.000001      1.696533
      6.07868      3.78960      9.11612        -1.649037     -0.003047     -1.856374
      3.16102      3.78960      8.23554         3.803092      0.000315      1.681948
      0.94235      5.68441      9.11612        -1.658248     -0.000001     -1.798958
      9.72078      5.68441     11.79322        -0.001177     -0.000004     -0.002023
      7.46554      3.79406     12.59387         0.000109      0.001103     -0.001245
      4.56216      3.79197     11.79415         0.000495     -0.000306      0.000400
      2.32057      5.68441     12.63661         0.001518     -0.000003      0.002081
      0.91331      5.68441     15.36816         0.003607     -0.000004      0.002806
      8.88980      3.79425     16.05885        -0.000743     -0.000197      0.001481
      6.00267      3.79073     15.33130         0.002621      0.000650      0.000646
      3.75979      5.68441     16.17957        -0.002030     -0.000006     -0.000816
      2.40558      5.68441     19.01172        -0.001526      0.000002      0.004683
     -0.00101      3.80075     19.54912        -0.002207      0.000277      0.003522
      7.48462      3.80115     18.89492        -0.000854      0.000096      0.001648
      5.18613      5.68441     19.71892         0.006944     -0.000033      0.002752
      5.01424      7.57921      7.50000        -1.754829     -0.000262      0.958949
     10.15057      9.47401      7.50000        -1.747869      0.000100      0.952466
      9.36179      9.47401      9.85165        -0.999281     -0.002159     -0.173395
      6.44412      9.47401      8.97107         0.350446     -0.003901     -0.046167
      7.93191      7.57921      8.38058         0.266095     -0.002592     -1.067189
      6.41224      7.57921     11.02232        -0.073565      0.005968      0.422370
      4.22546      7.57921      9.85165        -1.006727     -0.001838     -0.159820
      1.30779      7.57921      8.97107         0.362791      0.008453     -0.053723
      2.79558      9.47401      8.38058         0.278013     -0.006268     -1.070199
[...]
      2.72662      5.68441     14.56803        -0.000928      0.000001     -0.002495
      1.98399      5.68441     16.96075        -0.003461     -0.000000     -0.000701
      9.28901      5.68441     16.00908        -0.001085      0.000005     -0.000734
      0.52742      3.79188     15.43832        -0.000029      0.002696      0.000012
      9.38425      3.77494     18.00907        -0.001192      0.001105     -0.001009
      7.12834      3.75854     16.89957         0.001382      0.001556     -0.000815
      4.15661      3.79171     16.04368        -0.000901     -0.001157      0.001086
      5.65795      5.68441     15.46290        -0.001008     -0.000001     -0.001689
      4.24553      5.68441     18.11393        -0.002313     -0.000000      0.001331
      3.53874      5.68441     20.49245        -0.004072      0.000000      0.001353
      0.52859      5.68441     19.77605        -0.002883      0.000011      0.001972
      1.99783      3.79460     19.00644        -0.000425      0.000135     -0.000151
      8.63840      3.85571     20.39736        -0.001422      0.000662      0.001950
      5.69103      3.77166     19.75743        -0.001459     -0.000277      0.002697
      7.11464      5.68441     18.84986        -0.001892      0.000029      0.000841
    total drift:                                0.004110      0.000039      0.004961

  FREE ENERGIE OF THE ION-ELECTRON SYSTEM (eV)
  free  energy   TOTEN  =     -1289.40905570 eV

  energy  without entropy=    -1289.40905570  energy(sigma->0) =    -1289.40905570

 d Force = 0.3868268E-04[ 0.132E-04, 0.641E-04]  d Energy = 0.3921368E-04-0.531E-06
 d Force = 0.1604073E+02[ 0.160E+02, 0.160E+02]  d Ewald  = 0.1604073E+02-0.112E-05

 Conjugate gradient step on ions:
 trial-energy change:   -0.000039  1 .order   -0.000039   -0.000064   -0.000013
  (g-gl).g = 0.920E-04      g.g   = 0.910E-04  gl.gl    = 0.139E-03
 g(Force)  = 0.910E-04   g(Stress)= 0.000E+00 ortho     = 0.161E-05
 gamma     =   0.66287
 trial     =   0.69605
 opt step  =   0.86427  (harmonic =   0.87735) maximal distance =0.00070674
 next E    = -1289.409057   (d E  =  -0.00004)

 reached required accuracy - stopping structural energy minimisation