 vasp.6.3.0 20Jan22 (build Apr  1 2022 16:44:48) complex
 executed on        HPECrayEX_GCC date 2022.11.13  23:18:47

 INCAR:
   SYSTEM = MgO-rocksalt
   ISMEAR = 0
   SIGMA = 0.05
   EDIFF = 1E-6
   ALGO = ALL
   ISTART = 0
   IBRION = -1
   NSW = 0
   ISYM = 0
   DIPOL = 0.5 0.5 0.5
   IDIPOL = 3
   LDIPOL = .TRUE.
   LHFCALC = .TRUE.
   GGA = B5
   AEXX = 0.2
   AGGAX = 0.72
   AGGAC = 0.81
   ALDAC = 0.19
   IVDW = 1
   VDW_S6 = 1.05
   VDW_C6 = 1.23 0.70 0.63 0.70
   VDW_R0 = 1.397 1.342 1.243 1.342
   ENCUT = 600
   PREC = Accurate
   LASPH = .TRUE.
   LREAL = .FALSE.
   ISPIN = 2
   MAGMOM = 1.0 0.0 0.0 0.0 0.0 0.0 0.0 0.0 0.0 0.0 0.0 0.0 0.0 0.0 0.0 0.0 0.0 0.0 0.0 0.0 0.0 0.0 0.0 0.0 0.0 0.0 0.0 0.0 0.0 0.0 0.0 0.0 0.0 0.0 0.0 0.0 0.0 0.0 0.0 0.0 0.0 0.0 0.0 0.0 0.0 0.0 0.0 0.0 0.0 0.0 0.0 0.0 0.0 0.0 0.0 0.0 0.0 0.0 0.0 0.0 0.0 0.0 0.0 0.0 0.0 0.0
   NELM = 200
   NELMIN = 8
   NCORE = 8
   KPAR = 1
   LWAVE = .FALSE.
   LCHARG = .FALSE.

 POTCAR:    PAW_PBE N 08Apr2002
 POTCAR:    PAW_PBE O 08Apr2002
 POTCAR:    PAW_PBE Mg_pv 13Apr2007
 POTCAR:    PAW_PBE O 08Apr2002
 POTCAR:    PAW_PBE N 08Apr2002
   VRHFIN =N: s2p3

   TITEL  = PAW_PBE N 08Apr2002
   POMASS =   14.001; ZVAL   =    5.000    mass and valenz
   ENMAX  =  400.000; ENMIN  =  300.000 eV

[...]

   TITEL  = PAW_PBE Mg_pv 13Apr2007
   POMASS =   24.305; ZVAL   =    8.000    mass and valenz
   ENMAX  =  403.929; ENMIN  =  302.947 eV

   TITEL  = PAW_PBE O 08Apr2002
   POMASS =   16.000; ZVAL   =    6.000    mass and valenz
   ENMAX  =  400.000; ENMIN  =  300.000 eV

  PAW_PBE N 08Apr2002                   :
  PAW_PBE O 08Apr2002                   :
  PAW_PBE Mg_pv 13Apr2007               :
  PAW_PBE O 08Apr2002                   :

 POSCAR:  N  O Mg  O
  positions in direct lattice
 exchange correlation table for  LEXCH =       12
   RHO(1)=    0.500       N(1)  =     2000
   RHO(2)=  100.500       N(2)  =     4000

 ion  position               nearest neighbor table
   1  0.504  0.250  0.771-   2 1.16
   2  0.637  0.250  0.786-   1 1.16
   3  0.250  0.000  0.353-  37 2.09  38 2.09  45 2.09  54 2.09  35 2.09
   4  0.500  0.250  0.353-  37 2.09  38 2.09  46 2.09  53 2.09  36 2.09
   5  0.250  0.250  0.451-  35 2.09  36 2.09  43 2.09  52 2.09  37 2.09  41 2.09
   6  0.500  0.000  0.451-  35 2.09  36 2.09  44 2.09  51 2.09  38 2.09  42 2.09
   7  0.250  0.000  0.550-  41 2.09  58 2.09  49 2.09  42 2.09  35 2.10  39 2.12
   8  0.500  0.250  0.549-  41 2.09  42 2.09  50 2.09  57 2.09  36 2.10  40 2.13
   9  0.249  0.250  0.648-  56 2.08  41 2.09  39 2.09  47 2.09  40 2.10
  10  0.499  0.999  0.647-  48 2.08  42 2.08  39 2.09  55 2.09  40 2.09
  11  0.250  0.500  0.353-  37 2.09  45 2.09  46 2.09  62 2.09  43 2.09
  12  0.500  0.750  0.353-  38 2.09  45 2.09  46 2.09  61 2.09  44 2.09
  13  0.250  0.750  0.451-  35 2.09  43 2.09  44 2.09  60 2.09  45 2.09  49 2.09
  14  0.500  0.500  0.451-  36 2.09  43 2.09  44 2.09  59 2.09  46 2.09  50 2.09
  15  0.250  0.500  0.550-  41 2.09  66 2.09  49 2.09  50 2.09  43 2.10  47 2.12
  16  0.500  0.750  0.550-  49 2.09  65 2.09  50 2.09  42 2.09  44 2.10  48 2.12
  17  0.249  0.750  0.647-  49 2.08  64 2.09  47 2.09  39 2.09  48 2.09
  18  0.499  0.501  0.647-  48 2.08  50 2.08  47 2.09  63 2.09  40 2.09
  19  0.750  0.000  0.353-  38 2.09  53 2.09  54 2.09  61 2.09  51 2.09
  20  0.000  0.250  0.353-  37 2.09  53 2.09  54 2.09  62 2.09  52 2.09
  21  0.750  0.250  0.451-  36 2.09  51 2.09  52 2.09  59 2.09  53 2.09  57 2.09
  22  0.000  0.000  0.451-  35 2.09  51 2.09  52 2.09  60 2.09  54 2.09  58 2.09
  23  0.750  1.000  0.550-  65 2.09  42 2.09  58 2.09  57 2.09  51 2.10  55 2.12
  24  0.000  0.250  0.550-  41 2.09  66 2.09  58 2.09  57 2.09  52 2.10  56 2.12
  25  0.751  0.250  0.647-  57 2.08  56 2.08  55 2.09  63 2.09  40 2.10
  26  1.000  1.000  0.647-  58 2.08  64 2.09  39 2.09  56 2.09  55 2.09
  27  0.750  0.500  0.353-  46 2.09  53 2.09  61 2.09  62 2.09  59 2.09
  28  0.000  0.750  0.353-  45 2.09  54 2.09  61 2.09  62 2.09  60 2.09
  29  0.750  0.750  0.451-  44 2.09  51 2.09  59 2.09  60 2.09  61 2.09  65 2.09
  30  0.000  0.500  0.451-  43 2.09  52 2.09  59 2.09  60 2.09  62 2.09  66 2.09
  31  0.750  0.500  0.550-  65 2.09  50 2.09  66 2.09  57 2.09  59 2.10  63 2.12
  32  1.000  0.750  0.550-  49 2.09  66 2.09  58 2.09  65 2.09  60 2.10  64 2.12
  33  0.750  0.750  0.647-  65 2.08  64 2.09  48 2.09  55 2.09  63 2.09
  34  1.000  0.500  0.647-  66 2.08  64 2.09  47 2.09  56 2.09  63 2.09
  35  0.250  0.000  0.451-   5 2.09   6 2.09  13 2.09  22 2.09   3 2.09   7 2.10
  36  0.500  0.250  0.451-   5 2.09   6 2.09  14 2.09  21 2.09   4 2.09   8 2.10
  37  0.250  0.250  0.353-   3 2.09   4 2.09  11 2.09  20 2.09   5 2.09
  38  0.500  0.000  0.353-   3 2.09   4 2.09  12 2.09  19 2.09   6 2.09
  39  0.250  0.000  0.649-  10 2.09   9 2.09  17 2.09  26 2.09   7 2.12
  40  0.500  0.250  0.649-  18 2.09  10 2.09   9 2.10  25 2.10   8 2.13
  41  0.250  0.250  0.549-   8 2.09   9 2.09  24 2.09   7 2.09  15 2.09   5 2.09
  42  0.500  0.000  0.549-  10 2.08   8 2.09  23 2.09   7 2.09  16 2.09   6 2.09
  43  0.250  0.500  0.451-   5 2.09  13 2.09  14 2.09  30 2.09  11 2.09  15 2.10
  44  0.500  0.750  0.451-   6 2.09  13 2.09  14 2.09  29 2.09  12 2.09  16 2.10
  45  0.250  0.750  0.353-   3 2.09  11 2.09  12 2.09  28 2.09  13 2.09
  46  0.500  0.500  0.353-   4 2.09  11 2.09  12 2.09  27 2.09  14 2.09
  47  0.250  0.500  0.649-  18 2.09   9 2.09  17 2.09  34 2.09  15 2.12
  48  0.500  0.750  0.649-  18 2.08  10 2.08  33 2.09  17 2.09  16 2.12
  49  0.250  0.750  0.549-  17 2.08  16 2.09  32 2.09   7 2.09  15 2.09  13 2.09
  50  0.500  0.500  0.549-  18 2.08   8 2.09  31 2.09  15 2.09  16 2.09  14 2.09
  51  0.750  0.000  0.451-   6 2.09  21 2.09  22 2.09  29 2.09  19 2.09  23 2.10
  52  0.000  0.250  0.451-   5 2.09  21 2.09  22 2.09  30 2.09  20 2.09  24 2.10
  53  0.750  0.250  0.353-   4 2.09  19 2.09  20 2.09  27 2.09  21 2.09
  54  0.000  0.000  0.353-   3 2.09  19 2.09  20 2.09  28 2.09  22 2.09
  55  0.749  0.000  0.649-  25 2.09  10 2.09  26 2.09  33 2.09  23 2.12
  56  1.000  0.250  0.649-  25 2.08   9 2.08  26 2.09  34 2.09  24 2.12
  57  0.750  0.250  0.549-  25 2.08   8 2.09  31 2.09  23 2.09  24 2.09  21 2.09
  58  1.000  0.000  0.549-  26 2.08   7 2.09  24 2.09  23 2.09  32 2.09  22 2.09
  59  0.750  0.500  0.451-  14 2.09  21 2.09  29 2.09  30 2.09  27 2.09  31 2.10
  60  0.000  0.750  0.451-  13 2.09  22 2.09  29 2.09  30 2.09  28 2.09  32 2.10
  61  0.750  0.750  0.353-  12 2.09  19 2.09  27 2.09  28 2.09  29 2.09
  62  0.000  0.500  0.353-  11 2.09  20 2.09  27 2.09  28 2.09  30 2.09
  63  0.749  0.500  0.649-  25 2.09  18 2.09  34 2.09  33 2.09  31 2.12
  64  1.000  0.750  0.649-  26 2.09  34 2.09  17 2.09  33 2.09  32 2.12
  65  0.750  0.750  0.549-  33 2.08  31 2.09  23 2.09  16 2.09  32 2.09  29 2.09
  66  1.000  0.500  0.549-  34 2.08  15 2.09  24 2.09  31 2.09  32 2.09  30 2.09

IMPORTANT INFORMATION: All symmetrisations will be switched off!
NOSYMM: (Re-)initialisation of all symmetry stuff for point group C_1.

                                     Primitive cell

  volume of cell :    1482.1129

  direct lattice vectors                    reciprocal lattice vectors
     8.349111827  0.000000000  0.000000000     0.119773219  0.000000000  0.000000000
     0.000000000  8.349111827  0.000000000     0.000000000  0.119773219  0.000000000
     0.000000000  0.000000000 21.261833870     0.000000000  0.000000000  0.047032632

  length of vectors
     8.349111827  8.349111827 21.261833870     0.119773219  0.119773219  0.047032632

  position of ions in fractional coordinates (direct lattice)
     0.503724492  0.249995843  0.771163550
     0.637494189  0.250001939  0.785797175
     0.250000000  0.000000000  0.352744737
     0.500000000  0.250000000  0.352744737
     0.250000000  0.250000000  0.450914912
     0.500000000  0.000000000  0.450914912
     0.249731329  0.000036179  0.549677619
     0.499717006  0.250000175  0.549450589
     0.249113738  0.250000033  0.647509634
     0.499446662  0.999191583  0.647284810
     0.250000000  0.500000000  0.352744737
     0.500000000  0.750000000  0.352744737
     0.250000000  0.750000000  0.450914912
     0.500000000  0.500000000  0.450914912
     0.249731266  0.499963771  0.549677599
     0.499714285  0.750000092  0.549609040
     0.249438758  0.749999943  0.647246679
     0.499446591  0.500809392  0.647284041
     0.750000000  0.000000000  0.352744737
     0.000000000  0.250000000  0.352744737
     0.750000000  0.250000000  0.450914912
     0.000000000  0.000000000  0.450914912
     0.749760830  0.999924416  0.549692025
     0.000027863  0.249999989  0.549606963
     0.751230592  0.249999765  0.646894238
     0.999641651  0.999840370  0.647349605
     0.750000000  0.500000000  0.352744737
     0.000000000  0.750000000  0.352744737
     0.750000000  0.750000000  0.450914912
     0.000000000  0.500000000  0.450914912
     0.749760881  0.500075481  0.549692030
     0.999805518  0.749999976  0.549674061
     0.749699184  0.749999944  0.647301769
     0.999641681  0.500159562  0.647349593
     0.250000000  0.000000000  0.450914912
     0.500000000  0.250000000  0.450914912
     0.250000000  0.250000000  0.352744737
     0.500000000  0.000000000  0.352744737
     0.249697809  0.000050347  0.649315606
     0.500129402  0.250002275  0.649484958
     0.249952471  0.249999951  0.549409548
     0.499791764  0.000137190  0.549368732
     0.250000000  0.500000000  0.450914912
     0.500000000  0.750000000  0.450914912
     0.250000000  0.750000000  0.352744737
     0.500000000  0.500000000  0.352744737
     0.249697704  0.499949741  0.649315605
     0.499639283  0.750000056  0.649342039
     0.249795616  0.749999989  0.549302993
     0.499791793  0.499863187  0.549368494
     0.750000000  0.000000000  0.450914912
     0.000000000  0.250000000  0.450914912
     0.750000000  0.250000000  0.352744737
     0.000000000  0.000000000  0.352744737
     0.749477053  0.000189309  0.649377049
     0.999864245  0.249999956  0.649306691
     0.749736683  0.249999967  0.549301954
     0.999754382  0.000022026  0.549336892
     0.750000000  0.500000000  0.450914912
     0.000000000  0.750000000  0.450914912
     0.750000000  0.750000000  0.352744737
     0.000000000  0.500000000  0.352744737
     0.749477105  0.499810467  0.649377342
     0.999591835  0.749999975  0.649413952
     0.749756552  0.749999925  0.549334847
     0.999754333  0.499977944  0.549336886

  ion indices of the primitive-cell ions
   primitive index   ion index
                 1           1
                 2           2
                 3           3
                 4           4
                 5           5
                 6           6
                 7           7
                 8           8
                 9           9
                10          10
                11          11
                12          12
                13          13
                14          14
                15          15
                16          16
                17          17
                18          18
                19          19
                20          20
[...]
   0.74973668  0.24999997  0.54930195
   0.99975438  0.00002203  0.54933689
   0.75000000  0.50000000  0.45091491
   0.00000000  0.75000000  0.45091491
   0.75000000  0.75000000  0.35274474
   0.00000000  0.50000000  0.35274474
   0.74947711  0.49981047  0.64937734
   0.99959183  0.74999998  0.64941395
   0.74975655  0.74999993  0.54933485
   0.99975433  0.49997794  0.54933689

 position of ions in cartesian coordinates  (Angst):
   4.20565211  2.08724325 16.39635129
   5.32251027  2.08729414 16.70748898
   2.08727796  0.00000000  7.50000000
   4.17455591  2.08727796  7.50000000
   2.08727796  2.08727796  9.58727796
   4.17455591  0.00000000  9.58727796
   2.08503479  0.00030206 11.68715422
   4.17219316  2.08727942 11.68232714
   2.07987845  2.08727823 13.76724227
   4.16993603  8.34236226 13.76246210
   2.08727796  4.17455591  7.50000000
   4.17455591  6.26183387  7.50000000
   2.08727796  6.26183387  9.58727796
   4.17455591  4.17455591  9.58727796
   2.08503427  4.17425343 11.68715378
   4.17217045  6.26183464 11.68569609
   2.08259208  6.26183340 13.76165135
   4.16993544  4.18131362 13.76244574
   6.26183387  0.00000000  7.50000000
   0.00000000  2.08727796  7.50000000
   6.26183387  2.08727796  9.58727796
   0.00000000  0.00000000  9.58727796
   6.25983701  8.34848077 11.68746052
   0.00023264  2.08727787 11.68565194
   6.27210822  2.08727599 13.75415782
   8.34611993  8.34777906 13.76383975
   6.26183387  4.17455591  7.50000000
   0.00000000  6.26183387  7.50000000
   6.26183387  6.26183387  9.58727796
   0.00000000  4.17455591  9.58727796
   6.25983744  4.17518611 11.68746062
   8.34748807  6.26183367 11.68707856
   6.25932232  6.26183341 13.76282267
   8.34612018  4.17588811 13.76383950
   2.08727796  0.00000000  9.58727796
   4.17455591  2.08727796  9.58727796
   2.08727796  2.08727796  7.50000000
   4.17455591  0.00000000  7.50000000
   2.08475493  0.00042035 13.80564055
   4.17563631  2.08729695 13.80924127
   2.08688114  2.08727755 11.68145453
   4.17281733  0.00114542 11.68058672
   2.08727796  4.17455591  9.58727796
   4.17455591  6.26183387  9.58727796
   2.08727796  6.26183387  7.50000000
   4.17455591  4.17455591  7.50000000
   2.08475405  4.17413629 13.80564052
   4.17154425  6.26183434 13.80620257
   2.08557153  6.26183378 11.67918899
   4.17281757  4.17341365 11.68058166
   6.26183387  0.00000000  9.58727796
   0.00000000  2.08727796  9.58727796
   6.26183387  2.08727796  7.50000000
   0.00000000  0.00000000  7.50000000
   6.25746772  0.00158057 13.80694693
   8.34797839  2.08727759 13.80545099
   6.25963541  2.08727768 11.67916689
   8.34706113  0.00018389 11.67990974
   6.26183387  4.17455591  9.58727796
   0.00000000  6.26183387  9.58727796
   6.26183387  6.26183387  7.50000000
   0.00000000  4.17455591  7.50000000
   6.25746816  4.17297349 13.80695317
   8.34570401  6.26183366 13.80773156
   6.25980129  6.26183324 11.67986626
   8.34706072  4.17437177 11.67990960

--------------------------------------- Iteration      FINAL  ---------------------------------------

--------------------OUTCAR has been truncated-------------------------

[...]

--------------------OUTCAR has been truncated-------------------------

  DFT-D2 method for vdW energy calculation

  Parameters of vdW forcefield:
         C6(Jnm^6/mol)     R0(A)
   N        1.230          1.397
   O        0.700          1.342
   Mg       0.630          1.243
   O        0.700          1.342

  vdW correction parametrized for the method        |æy

  IVDW =   1
  VDW_RADIUS =    50.000 A
  VDW_S6 =     1.050
  VDW_SR =     1.000
  VDW_D =    20.000
  LVDW_EWALD = F

  Number of pair interactions contributing to vdW energy:  788834
  Edisp (eV):   -5.41605

 VOLUME and BASIS-vectors are now :
  energy-cutoff  :      600.00
  volume of cell :     1482.11
      direct lattice vectors                 reciprocal lattice vectors
     8.349111827  0.000000000  0.000000000     0.119773219  0.000000000  0.000000000
     0.000000000  8.349111827  0.000000000     0.000000000  0.119773219  0.000000000
     0.000000000  0.000000000 21.261833870     0.000000000  0.000000000  0.047032632

  length of vectors
     8.349111827  8.349111827 21.261833870     0.119773219  0.119773219  0.047032632

 FORCES acting on ions:
    Electron-Ion                     Ewald-Force                    Non-Local-Force
   0.261E+03 0.120E-01 -.126E+04   -.305E+03 -.140E-01 0.124E+04   0.404E+02 0.180E-02 0.978E+01
   -.246E+03 -.111E-01 -.157E+04   0.305E+03 0.139E-01 0.158E+04   -.522E+02 -.242E-02 -.150E+02
   0.228E+00 0.273E+00 0.214E+04   -.232E+00 -.275E+00 -.213E+04   0.233E-02 0.165E-02 -.644E+01
   0.117E+00 0.740E-04 0.214E+04   -.117E+00 -.717E-04 -.213E+04   0.139E-03 -.183E-05 -.643E+01
   0.121E+01 0.224E-03 0.743E+03   -.124E+01 -.227E-03 -.743E+03   0.133E-01 -.461E-06 0.429E+00
   0.442E+00 0.150E+01 0.743E+03   -.449E+00 -.151E+01 -.744E+03   0.398E-02 0.916E-02 0.419E+00
   0.440E+01 0.487E+01 -.650E+03   -.442E+01 -.487E+01 0.650E+03   0.178E-01 -.639E-02 -.259E+00
   0.305E+01 0.161E-02 -.635E+03   -.309E+01 -.163E-02 0.635E+03   0.390E-01 0.945E-05 0.172E+00
   0.306E+02 0.840E-03 -.202E+04   -.310E+02 -.730E-03 0.201E+04   0.420E+00 -.723E-04 0.545E+01
   0.108E+02 0.377E+02 -.201E+04   -.109E+02 -.381E+02 0.200E+04   0.370E-01 0.382E+00 0.544E+01
   0.228E+00 -.273E+00 0.214E+04   -.232E+00 0.275E+00 -.213E+04   0.232E-02 -.165E-02 -.644E+01
   0.922E-01 -.748E-04 0.214E+04   -.922E-01 0.715E-04 -.213E+04   0.203E-04 0.600E-05 -.644E+01
   0.837E+00 -.229E-03 0.741E+03   -.864E+00 0.228E-03 -.741E+03   0.169E-01 0.380E-05 0.381E+00
   0.442E+00 -.150E+01 0.743E+03   -.449E+00 0.151E+01 -.744E+03   0.398E-02 -.917E-02 0.419E+00
   0.440E+01 -.487E+01 -.650E+03   -.442E+01 0.487E+01 0.650E+03   0.178E-01 0.638E-02 -.259E+00
   0.143E+01 -.150E-02 -.650E+03   -.143E+01 0.152E-02 0.650E+03   0.733E-02 0.122E-05 -.187E+00
   0.103E+02 -.693E-03 -.205E+04   -.103E+02 0.638E-03 0.205E+04   0.442E-01 0.495E-04 0.537E+01
   0.108E+02 -.377E+02 -.201E+04   -.109E+02 0.381E+02 0.200E+04   0.370E-01 -.382E+00 0.544E+01
   -.231E+00 0.296E+00 0.214E+04   0.233E+00 -.299E+00 -.213E+04   -.150E-02 0.196E-02 -.644E+01
   -.116E+00 0.355E-04 0.214E+04   0.116E+00 -.362E-04 -.213E+04   0.218E-03 -.246E-07 -.644E+01
   -.128E+01 0.210E-03 0.744E+03   0.130E+01 -.207E-03 -.745E+03   -.780E-02 -.205E-05 0.404E+00
   -.458E+00 0.110E+01 0.741E+03   0.442E+00 -.112E+01 -.742E+03   0.944E-02 0.102E-01 0.388E+00
   -.456E+01 0.640E+01 -.646E+03   0.458E+01 -.645E+01 0.646E+03   -.117E-01 0.334E-01 -.226E+00
   -.280E+01 0.171E-03 -.647E+03   0.287E+01 -.176E-03 0.648E+03   -.590E-01 0.237E-05 -.202E+00
   -.364E+02 0.728E-03 -.198E+04   0.371E+02 -.570E-03 0.197E+04   -.532E+00 -.913E-04 0.556E+01
   -.873E+01 0.150E+02 -.205E+04   0.877E+01 -.151E+02 0.204E+04   -.335E-01 0.432E-01 0.538E+01
   -.231E+00 -.296E+00 0.214E+04   0.233E+00 0.299E+00 -.213E+04   -.150E-02 -.196E-02 -.644E+01
   -.932E-01 -.411E-04 0.214E+04   0.921E-01 0.362E-04 -.213E+04   0.719E-03 0.109E-05 -.645E+01
   -.884E+00 -.219E-03 0.742E+03   0.890E+00 0.207E-03 -.742E+03   -.480E-02 0.697E-05 0.392E+00
   -.458E+00 -.110E+01 0.741E+03   0.442E+00 0.112E+01 -.742E+03   0.945E-02 -.102E-01 0.388E+00
   -.456E+01 -.640E+01 -.646E+03   0.458E+01 0.645E+01 0.646E+03   -.117E-01 -.335E-01 -.226E+00
   -.140E+01 -.208E-03 -.656E+03   0.140E+01 0.206E-03 0.656E+03   -.395E-02 0.306E-05 -.186E+00
   -.108E+02 -.236E-03 -.205E+04   0.109E+02 0.178E-03 0.204E+04   -.339E-01 0.395E-04 0.539E+01
   -.873E+01 -.150E+02 -.205E+04   0.877E+01 0.151E+02 0.204E+04   -.335E-01 -.433E-01 0.538E+01
   0.705E+00 0.841E+00 0.556E+03   -.701E+00 -.854E+00 -.556E+03   -.432E-02 0.153E-01 -.993E-01
   0.400E+00 0.334E-03 0.559E+03   -.386E+00 -.336E-03 -.558E+03   -.164E-01 0.398E-05 -.366E-01
   0.189E+00 0.425E-04 0.161E+04   -.192E+00 -.401E-04 -.161E+04   0.360E-02 -.564E-05 0.311E+01
   0.795E-01 0.231E+00 0.161E+04   -.786E-01 -.234E+00 -.161E+04   -.115E-02 0.345E-02 0.311E+01
   0.152E+02 0.154E+02 -.155E+04   -.152E+02 -.154E+02 0.156E+04   0.383E-01 -.338E-02 -.473E+01
   0.161E+02 0.274E-02 -.147E+04   -.161E+02 -.270E-02 0.148E+04   -.191E-02 -.217E-03 -.435E+01
   0.402E+01 0.435E-03 -.479E+03   -.404E+01 -.450E-03 0.479E+03   0.285E-01 0.202E-04 0.198E+00
   0.172E+01 0.503E+01 -.477E+03   -.172E+01 -.505E+01 0.477E+03   0.462E-02 0.200E-01 0.266E+00
   0.705E+00 -.841E+00 0.556E+03   -.701E+00 0.854E+00 -.556E+03   -.433E-02 -.153E-01 -.993E-01
   0.233E+00 -.332E-03 0.556E+03   -.220E+00 0.310E-03 -.556E+03   -.150E-01 0.242E-04 -.746E-01
   0.157E+00 -.428E-04 0.161E+04   -.160E+00 0.400E-04 -.161E+04   0.337E-02 0.481E-05 0.310E+01
   0.795E-01 -.231E+00 0.161E+04   -.786E-01 0.234E+00 -.161E+04   -.114E-02 -.345E-02 0.311E+01
   0.152E+02 -.154E+02 -.155E+04   -.152E+02 0.154E+02 0.156E+04   0.382E-01 0.351E-02 -.473E+01
   0.410E+01 -.122E-02 -.155E+04   -.412E+01 0.129E-02 0.156E+04   0.184E-01 -.501E-04 -.469E+01
   0.252E+01 -.398E-03 -.484E+03   -.253E+01 0.393E-03 0.484E+03   0.119E-01 0.728E-05 0.270E+00
   0.172E+01 -.503E+01 -.477E+03   -.172E+01 0.505E+01 0.477E+03   0.462E-02 -.200E-01 0.266E+00
   -.767E+00 0.988E+00 0.556E+03   0.790E+00 -.992E+00 -.556E+03   -.273E-01 0.603E-02 -.105E+00
   -.398E+00 0.877E-04 0.556E+03   0.395E+00 -.857E-04 -.556E+03   0.312E-02 -.177E-05 -.767E-01
   -.190E+00 0.389E-04 0.161E+04   0.194E+00 -.378E-04 -.161E+04   -.392E-02 -.153E-05 0.311E+01
   -.776E-01 0.198E+00 0.161E+04   0.774E-01 -.201E+00 -.161E+04   0.200E-03 0.347E-02 0.310E+01
   -.167E+02 0.248E+02 -.154E+04   0.166E+02 -.249E+02 0.154E+04   0.196E-01 0.237E-01 -.475E+01
   -.115E+02 0.865E-04 -.155E+04   0.116E+02 -.529E-04 0.155E+04   -.874E-01 -.364E-04 -.473E+01
   -.416E+01 0.314E-03 -.472E+03   0.416E+01 -.325E-03 0.472E+03   -.692E-02 0.131E-04 0.374E+00
   -.153E+01 0.338E+01 -.483E+03   0.152E+01 -.338E+01 0.483E+03   0.101E-01 0.990E-03 0.245E+00
   -.767E+00 -.988E+00 0.556E+03   0.790E+00 0.992E+00 -.556E+03   -.273E-01 -.604E-02 -.105E+00
   -.273E+00 -.920E-04 0.555E+03   0.284E+00 0.914E-04 -.555E+03   -.135E-01 0.108E-05 -.108E+00
   -.157E+00 -.390E-04 0.161E+04   0.160E+00 0.376E-04 -.161E+04   -.415E-02 0.912E-06 0.310E+01
   -.776E-01 -.198E+00 0.161E+04   0.774E-01 0.201E+00 -.161E+04   0.197E-03 -.346E-02 0.310E+01
   -.167E+02 -.248E+02 -.154E+04   0.166E+02 0.249E+02 0.154E+04   0.198E-01 -.235E-01 -.475E+01
   -.363E+01 -.145E-03 -.156E+04   0.361E+01 0.108E-03 0.157E+04   0.120E-01 0.456E-04 -.469E+01
   -.253E+01 -.273E-03 -.483E+03   0.253E+01 0.268E-03 0.483E+03   -.374E-02 0.767E-05 0.264E+00
   -.153E+01 -.338E+01 -.483E+03   0.152E+01 0.338E+01 0.483E+03   0.101E-01 -.996E-03 0.245E+00
   0.152E+02 0.252E-03 0.262E+02   0.497E-12 -.369E-13 0.284E-12   -.119E+02 -.128E-03 -.227E+02

 POSITION                                       TOTAL-FORCE (eV/Angst)
      4.20565      2.08724     16.39635        -0.464223     -0.000023     -0.075145
      5.32251      2.08729     16.70749         0.440237      0.000028      0.165100
      2.08728      0.00000      7.50000        -0.000784     -0.000677      0.309349
      4.17456      2.08728      7.50000         0.000168      0.000001      0.305957
      2.08728      2.08728      9.58728        -0.006335     -0.000003      0.037519
      4.17456      0.00000      9.58728        -0.002369     -0.004735      0.037776
      2.08503      0.00030     11.68715        -0.002127     -0.001657      0.024265
      4.17219      2.08728     11.68233         0.000351     -0.000008      0.005749
      2.07988      2.08728     13.76724        -0.009086      0.000028      0.128772
      4.16994      8.34236     13.76246         0.000109     -0.011899      0.127924
      2.08728      4.17456      7.50000        -0.000789      0.000676      0.309348
      4.17456      6.26183      7.50000         0.000143      0.000003      0.308498
      2.08728      6.26183      9.58728        -0.007741      0.000004      0.042304
      4.17456      4.17456      9.58728        -0.002366      0.004740      0.037756
      2.08503      4.17425     11.68715        -0.002141      0.001661      0.024264
      4.17217      6.26183     11.68570         0.004877      0.000021      0.020595
      2.08259      6.26183     13.76165         0.005618     -0.000000      0.134810
      4.16994      4.18131     13.76245         0.000122      0.011885      0.128055
      6.26183      0.00000      7.50000         0.000782     -0.000730      0.309777
      0.00000      2.08728      7.50000        -0.000062     -0.000001      0.308588
      6.26183      2.08728      9.58728         0.004154      0.000000      0.036159
      0.00000      0.00000      9.58728        -0.004836     -0.004416      0.044481
      6.25984      8.34848     11.68746         0.006026     -0.004857      0.013031
      0.00023      2.08728     11.68565         0.003291     -0.000002      0.018544
      6.27211      2.08728     13.75416         0.018092      0.000053      0.131850
      8.34612      8.34778     13.76384         0.007932      0.003188      0.126029
      6.26183      4.17456      7.50000         0.000779      0.000730      0.309782
      0.00000      6.26183      7.50000        -0.000164     -0.000004      0.311419
      6.26183      6.26183      9.58728         0.001641     -0.000004      0.043127
      0.00000      4.17456      9.58728        -0.004837      0.004416      0.044468
      6.25984      4.17519     11.68746         0.006038      0.004860      0.013041
      8.34749      6.26183     11.68708        -0.002797      0.000001      0.012667
      6.25932      6.26183     13.76282         0.003561     -0.000014      0.127273
      8.34612      4.17589     13.76384         0.007914     -0.003192      0.126039
      2.08728      0.00000      9.58728        -0.000582      0.005160      0.058398
      4.17456      2.08728      9.58728        -0.004598      0.000003      0.054039
      2.08728      2.08728      7.50000         0.001270     -0.000004     -0.592257
      4.17456      0.00000      7.50000        -0.000323      0.001129     -0.592288
      2.08475      0.00042     13.80564         0.008213      0.002268      0.017048
      4.17564      2.08730     13.80924         0.004024     -0.000209     -0.001947
      2.08688      2.08728     11.68145         0.010938      0.000008      0.009601
      4.17282      0.00115     11.68059        -0.000009      0.004011      0.015022
      2.08728      4.17456      9.58728        -0.000584     -0.005162      0.058402
      4.17456      6.26183      9.58728        -0.004010      0.000005      0.059796
      2.08728      6.26183      7.50000         0.001163      0.000003     -0.593904
      4.17456      4.17456      7.50000        -0.000318     -0.001130     -0.592290
      2.08475      4.17414     13.80564         0.008178     -0.002239      0.017003
      4.17154      6.26183     13.80620         0.001911      0.000019      0.020114
      2.08557      6.26183     11.67919         0.002528      0.000002      0.017847
      4.17282      4.17341     11.68058        -0.000014     -0.004008      0.015023
      6.26183      0.00000      9.58728        -0.008524      0.002294      0.057990
      0.00000      2.08728      9.58728         0.000744     -0.000000      0.058734
      6.26183      2.08728      7.50000        -0.001234     -0.000001     -0.592443
      0.00000      0.00000      7.50000         0.000130      0.001127     -0.594133
      6.25747      0.00158     13.80695        -0.000348      0.005555      0.015056
      8.34798      2.08728     13.80545        -0.003985     -0.000008      0.012132
      6.25964      2.08728     11.67917        -0.002245      0.000003      0.018606
      8.34706      0.00018     11.67991         0.000650     -0.000356      0.014511
      6.26183      4.17456      9.58728        -0.008521     -0.002296      0.057983
      0.00000      6.26183      9.58728        -0.004184      0.000001      0.055058
      6.26183      6.26183      7.50000        -0.001282     -0.000000     -0.594234
      0.00000      4.17456      7.50000         0.000126     -0.001121     -0.594123
      6.25747      4.17297     13.80695        -0.000309     -0.005502      0.014972
      8.34570      6.26183     13.80773         0.001102      0.000014      0.020376
      6.25980      6.26183     11.67987        -0.001736      0.000003      0.016228
      8.34706      4.17437     11.67991         0.000654      0.000356      0.014511
    total drift:                               -0.005674      0.000008      0.021940

  FREE ENERGIE OF THE ION-ELECTRON SYSTEM (eV)
  free  energy   TOTEN  =      -455.00325041 eV

  energy  without entropy=     -455.00325041  energy(sigma->0) =     -455.00325041