 vasp.6.3.0 20Jan22 (build Apr  1 2022 16:44:48) complex
 executed on        HPECrayEX_GCC date 2022.11.13  00:53:00

 INCAR:
   SYSTEM = MgO-rocksalt
   ISMEAR = 0
   SIGMA = 0.05
   EDIFF = 1E-6
   ALGO = ALL
   ISTART = 0
   IBRION = -1
   NSW = 0
   ISYM = 0
   DIPOL = 0.5 0.5 0.5
   IDIPOL = 3
   LDIPOL = .TRUE.
   GGA = RE
   AGGAC = 0.0
   LUSE_VDW = .TRUE.
   LASPH = .TRUE.
   ENCUT = 600
   PREC = Accurate
   LASPH = .TRUE.
   LREAL = .FALSE.
   ISPIN = 1
   NELM = 200
   NELMIN = 8
   NCORE = 8
   KPAR = 1
   LWAVE = .FALSE.
   LCHARG = .FALSE.

 POTCAR:    PAW_PBE C 08Apr2002
 POTCAR:    PAW_PBE O 08Apr2002
 POTCAR:    PAW_PBE Mg_pv 13Apr2007
 POTCAR:    PAW_PBE O 08Apr2002
|               ----> ADVICE to this user running VASP <----                  |
|     You have switched on vdW-DFT.                                           |
|     This routine was written and supplied by Jiri Klimes. We recommend      |
|     that you carefully read and cite the following publications:            |
|       J. Klimes, D.R. Bowler, A. Michelides                                 |
|          J. Phys.: Cond Matt. 22 022201 (2010)                              |
|       J. Klimes, D.R. Bowler, A. Michelides                                 |
|          Phys. Rev. B. 83, 195131 (2011)                                    |
|     and references therein.                                                 |

   TITEL  = PAW_PBE C 08Apr2002
   POMASS =   12.011; ZVAL   =    4.000    mass and valenz
   ENMAX  =  400.000; ENMIN  =  300.000 eV

[...]

   TITEL  = PAW_PBE Mg_pv 13Apr2007
   POMASS =   24.305; ZVAL   =    8.000    mass and valenz
   ENMAX  =  403.929; ENMIN  =  302.947 eV

   TITEL  = PAW_PBE O 08Apr2002
   POMASS =   16.000; ZVAL   =    6.000    mass and valenz
   ENMAX  =  400.000; ENMIN  =  300.000 eV

  PAW_PBE C 08Apr2002                   :
  PAW_PBE O 08Apr2002                   :
  PAW_PBE Mg_pv 13Apr2007               :
  PAW_PBE O 08Apr2002                   :

 POSCAR:  C  O Mg  O
  positions in direct lattice
 exchange correlation table for  LEXCH =       40
   RHO(1)=    0.500       N(1)  =     2000
   RHO(2)=  100.500       N(2)  =     4000

 ion  position               nearest neighbor table
   1  0.500  0.250  0.721-   2 1.24   3 1.24  41 1.42
   2  0.500  0.387  0.744-   1 1.24  19 2.13
   3  0.500  0.113  0.744-   1 1.24  11 2.13
   4  0.250  0.000  0.353-  38 2.09  39 2.09  46 2.09  55 2.09  36 2.09
   5  0.500  0.250  0.353-  38 2.09  39 2.09  47 2.09  54 2.09  37 2.09
   6  0.250  0.250  0.451-  36 2.09  37 2.09  44 2.09  53 2.09  38 2.09  42 2.10
   7  0.500  0.000  0.451-  36 2.09  37 2.09  45 2.09  52 2.09  39 2.09  43 2.12
   8  0.252  0.999  0.550-  43 2.07  50 2.08  40 2.08  42 2.09  59 2.10  36 2.11
   9  0.500  0.250  0.547-  37 2.05  58 2.07  42 2.07  51 2.07  43 2.07
  10  0.236  0.250  0.646-  57 1.97  42 2.05  48 2.08  40 2.08  41 2.21
  11  0.500  0.988  0.657-  49 1.99  40 2.12  56 2.12   3 2.13  41 2.19
  12  0.250  0.500  0.353-  38 2.09  46 2.09  47 2.09  63 2.09  44 2.09
  13  0.500  0.750  0.353-  39 2.09  46 2.09  47 2.09  62 2.09  45 2.09
  14  0.250  0.750  0.451-  36 2.09  44 2.09  45 2.09  61 2.09  46 2.09  50 2.09
  15  0.500  0.500  0.451-  37 2.09  44 2.09  45 2.09  60 2.09  47 2.09  51 2.12
  16  0.252  0.501  0.550-  51 2.07  50 2.08  48 2.08  42 2.09  67 2.10  44 2.11
  17  0.500  0.750  0.551-  50 2.08  66 2.08  51 2.11  43 2.11  49 2.12  45 2.12
  18  0.248  0.750  0.647-  65 2.07  50 2.09  40 2.10  48 2.10  49 2.11
  19  0.500  0.512  0.657-  49 1.99  48 2.12  64 2.12   2 2.13  41 2.19
  20  0.750  0.000  0.353-  39 2.09  54 2.09  55 2.09  62 2.09  52 2.09
  21  0.000  0.250  0.353-  38 2.09  54 2.09  55 2.09  63 2.09  53 2.09
  22  0.750  0.250  0.451-  37 2.09  52 2.09  53 2.09  60 2.09  54 2.09  58 2.10
  23  0.000  0.000  0.451-  59 2.08  52 2.09  53 2.09  36 2.09  61 2.09  55 2.09
  24  0.748  0.999  0.550-  43 2.07  66 2.08  56 2.08  58 2.09  59 2.10  52 2.11
  25  1.000  0.250  0.548-  53 2.07  59 2.08  67 2.08  58 2.11  42 2.11  57 2.11
  26  0.764  0.250  0.646-  57 1.97  58 2.05  64 2.08  56 2.08  41 2.21
  27  0.000  0.998  0.647-  65 2.07  40 2.07  56 2.07  59 2.09  57 2.11
  28  0.750  0.500  0.353-  47 2.09  54 2.09  62 2.09  63 2.09  60 2.09
  29  0.000  0.750  0.353-  46 2.09  55 2.09  62 2.09  63 2.09  61 2.09
  30  0.750  0.750  0.451-  45 2.09  52 2.09  60 2.09  61 2.09  62 2.09  66 2.09
  31  0.000  0.500  0.451-  67 2.08  53 2.09  60 2.09  61 2.09  44 2.09  63 2.09
  32  0.748  0.501  0.550-  51 2.07  66 2.08  64 2.08  58 2.09  67 2.10  60 2.11
  33  0.000  0.750  0.549-  61 2.09  59 2.09  67 2.09  50 2.09  66 2.09  65 2.11
  34  0.752  0.750  0.647-  65 2.07  66 2.09  56 2.10  64 2.10  49 2.11
  35  0.000  0.502  0.647-  65 2.07  48 2.07  64 2.07  67 2.09  57 2.11
  36  0.250  0.000  0.451-   6 2.09   7 2.09  14 2.09  23 2.09   4 2.09   8 2.11
  37  0.500  0.250  0.451-   9 2.05   7 2.09   6 2.09  15 2.09  22 2.09   5 2.09
  38  0.250  0.250  0.353-   4 2.09   5 2.09  12 2.09  21 2.09   6 2.09
  39  0.500  0.000  0.353-   4 2.09   5 2.09  13 2.09  20 2.09   7 2.09
  40  0.248  0.002  0.648-  27 2.07  10 2.08   8 2.08  18 2.10  11 2.12
  41  0.500  0.250  0.654-   1 1.42  11 2.19  19 2.19  10 2.21  26 2.21
  42  0.252  0.250  0.550-  10 2.05   9 2.07  16 2.09   8 2.09   6 2.10  25 2.11
  43  0.500  0.002  0.551-   9 2.07   8 2.07  24 2.07  17 2.11   7 2.12
  44  0.250  0.500  0.451-   6 2.09  14 2.09  15 2.09  31 2.09  12 2.09  16 2.11
  45  0.500  0.750  0.451-   7 2.09  14 2.09  15 2.09  30 2.09  13 2.09  17 2.12
  46  0.250  0.750  0.353-   4 2.09  12 2.09  13 2.09  29 2.09  14 2.09
  47  0.500  0.500  0.353-   5 2.09  12 2.09  13 2.09  28 2.09  15 2.09
  48  0.248  0.498  0.648-  35 2.07  10 2.08  16 2.08  18 2.10  19 2.12
  49  0.500  0.750  0.650-  11 1.99  19 1.99  34 2.11  18 2.11  17 2.12
  50  0.251  0.750  0.549-  16 2.08   8 2.08  17 2.08  18 2.09  33 2.09  14 2.09
  51  0.500  0.498  0.551-   9 2.07  16 2.07  32 2.07  17 2.11  15 2.12
  52  0.750  0.000  0.451-   7 2.09  22 2.09  23 2.09  30 2.09  20 2.09  24 2.11
  53  0.000  0.250  0.451-  25 2.07  22 2.09  23 2.09   6 2.09  31 2.09  21 2.09
  54  0.750  0.250  0.353-   5 2.09  20 2.09  21 2.09  28 2.09  22 2.09
  55  0.000  0.000  0.353-   4 2.09  20 2.09  21 2.09  29 2.09  23 2.09
  56  0.752  0.002  0.648-  27 2.07  26 2.08  24 2.08  34 2.10  11 2.12
  57  0.000  0.250  0.648-  10 1.97  26 1.97  35 2.11  27 2.11  25 2.11
  58  0.748  0.250  0.550-  26 2.05   9 2.07  32 2.09  24 2.09  22 2.10  25 2.11
  59  0.000  0.001  0.549-  23 2.08  25 2.08  27 2.09  33 2.09   8 2.10  24 2.10
  60  0.750  0.500  0.451-  15 2.09  22 2.09  30 2.09  31 2.09  28 2.09  32 2.11
  61  0.000  0.750  0.451-  14 2.09  23 2.09  30 2.09  31 2.09  29 2.09  33 2.09
  62  0.750  0.750  0.353-  13 2.09  20 2.09  28 2.09  29 2.09  30 2.09
  63  0.000  0.500  0.353-  12 2.09  21 2.09  28 2.09  29 2.09  31 2.09
  64  0.752  0.498  0.648-  35 2.07  26 2.08  32 2.08  34 2.10  19 2.12
  65  1.000  0.750  0.649-  35 2.07  27 2.07  18 2.07  34 2.07  33 2.11
  66  0.749  0.750  0.549-  32 2.08  24 2.08  17 2.08  34 2.09  33 2.09  30 2.09
  67  0.000  0.499  0.549-  31 2.08  25 2.08  35 2.09  33 2.09  16 2.10  32 2.10

IMPORTANT INFORMATION: All symmetrisations will be switched off!
NOSYMM: (Re-)initialisation of all symmetry stuff for point group C_1.

                                     Primitive cell

  volume of cell :    1482.1129

  direct lattice vectors                    reciprocal lattice vectors
     8.349111827  0.000000000  0.000000000     0.119773219  0.000000000  0.000000000
     0.000000000  8.349111827  0.000000000     0.000000000  0.119773219  0.000000000
     0.000000000  0.000000000 21.261833870     0.000000000  0.000000000  0.047032632

  length of vectors
     8.349111827  8.349111827 21.261833870     0.119773219  0.119773219  0.047032632

  position of ions in fractional coordinates (direct lattice)
     0.499999965  0.249999309  0.720881969
     0.499999965  0.386582223  0.744165224
     0.499999972  0.113414839  0.744165231
     0.250000000  0.000000000  0.352744737
     0.500000000  0.250000000  0.352744737
     0.250000000  0.250000000  0.450914912
     0.500000000  0.000000000  0.450914912
     0.252056797  0.999201313  0.550312250
     0.500000011  0.250000048  0.547309283
     0.236462734  0.250000040  0.645793726
     0.499999984  0.988321117  0.656853763
     0.250000000  0.500000000  0.352744737
     0.500000000  0.750000000  0.352744737
     0.250000000  0.750000000  0.450914912
     0.500000000  0.500000000  0.450914912
     0.252056957  0.500798713  0.550312289
     0.499999993  0.749999814  0.550712308
     0.247591427  0.749999995  0.647497397
     0.499999980  0.511678338  0.656853918
     0.750000000  0.000000000  0.352744737
     0.000000000  0.250000000  0.352744737
     0.750000000  0.250000000  0.450914912
     0.000000000  0.000000000  0.450914912
     0.747943204  0.999201328  0.550312282
     0.999999996  0.250000000  0.548372917
     0.763537283  0.250000040  0.645793780
     0.000000013  0.997550927  0.647070679
     0.750000000  0.500000000  0.352744737
     0.000000000  0.750000000  0.352744737
     0.750000000  0.750000000  0.450914912
     0.000000000  0.500000000  0.450914912
     0.747943040  0.500798696  0.550312320
     0.000000005  0.750000056  0.549190581
     0.752408557  0.749999993  0.647497366
     0.000000012  0.502449069  0.647070710
     0.250000000  0.000000000  0.450914912
     0.500000000  0.250000000  0.450914912
     0.250000000  0.250000000  0.352744737
     0.500000000  0.000000000  0.352744737
     0.247939415  0.001521724  0.648261415
     0.499999970  0.249999504  0.653886641
     0.252344917  0.250000071  0.549754626
     0.499999993  0.002330405  0.550660114
     0.250000000  0.500000000  0.450914912
     0.500000000  0.750000000  0.450914912
     0.250000000  0.750000000  0.352744737
     0.500000000  0.500000000  0.352744737
     0.247939557  0.498478232  0.648261482
     0.500000002  0.749999785  0.650255363
     0.250591420  0.749999965  0.549430072
     0.499999992  0.497669423  0.550660153
     0.750000000  0.000000000  0.450914912
     0.000000000  0.250000000  0.450914912
     0.750000000  0.250000000  0.352744737
     0.000000000  0.000000000  0.352744737
     0.752060582  0.001521747  0.648261416
     0.000000011  0.250000107  0.647840125
     0.747655082  0.250000072  0.549754657
     0.000000008  0.000531991  0.548854135
     0.750000000  0.500000000  0.450914912
     0.000000000  0.750000000  0.450914912
     0.750000000  0.750000000  0.352744737
     0.000000000  0.500000000  0.352744737
     0.752060436  0.498478206  0.648261485
     0.999999998  0.749999963  0.648644762
     0.749408580  0.749999962  0.549430087
     0.000000005  0.499468098  0.548854191

  ion indices of the primitive-cell ions
   primitive index   ion index
                 1           1
                 2           2
                 3           3
                 4           4
                 5           5
                 6           6
                 7           7
                 8           8
[...]
   4.17455601  2.08727835 11.63679905
   1.97425381  2.08727829 13.73075891
   4.17455578  8.25160352 13.96591558
   2.08727796  4.17455591  7.50000000
   4.17455591  6.26183387  7.50000000
   2.08727796  6.26183387  9.58727796
   4.17455591  4.17455591  9.58727796
   2.10445172  4.18122445 11.70064846
   4.17455585  6.26183232 11.70915361
   2.06716852  6.26183383 13.76698209
   4.17455575  4.27205967 13.96591888
   6.26183387  0.00000000  7.50000000
   0.00000000  2.08727796  7.50000000
   6.26183387  2.08727796  9.58727796
   0.00000000  0.00000000  9.58727796
   6.24466145  8.34244362 11.70064833
   8.34911180  2.08727796 11.65941386
   6.37485816  2.08727829 13.73076007
   0.00000011  8.32866425 13.75790928
   6.26183387  4.17455591  7.50000000
   0.00000000  6.26183387  7.50000000
   6.26183387  6.26183387  9.58727796
   0.00000000  4.17455591  9.58727796
   6.24466008  4.18122431 11.70064913
   0.00000004  6.26183433 11.67679889
   6.28194318  6.26183381 13.76698144
   0.00000010  4.19500347 13.75790995
   2.08727796  0.00000000  9.58727796
   4.17455591  2.08727796  9.58727796
   2.08727796  2.08727796  7.50000000
   4.17455591  0.00000000  7.50000000
   2.07007390  0.01270505 13.78322651
   4.17455566  2.08727382 13.90282913
   2.10685593  2.08727855 11.68879153
   4.17455585  0.01945682 11.70804386
   2.08727796  4.17455591  9.58727796
   4.17455591  6.26183387  9.58727796
   2.08727796  6.26183387  7.50000000
   4.17455591  4.17455591  7.50000000
   2.07007509  4.16185051 13.78322793
   4.17455593  6.26183207 13.82562151
   2.09221579  6.26183358 11.68189091
   4.17455585  4.15509767 11.70804470
   6.26183387  0.00000000  9.58727796
   0.00000000  2.08727796  9.58727796
   6.26183387  2.08727796  7.50000000
   0.00000000  0.00000000  7.50000000
   6.27903790  0.01270523 13.78322653
   0.00000009  2.08727885 13.77426910
   6.24225588  2.08727856 11.68879219
   0.00000006  0.00444166 11.66964544
   6.26183387  4.17455591  9.58727796
   0.00000000  6.26183387  9.58727796
   6.26183387  6.26183387  7.50000000
   0.00000000  4.17455591  7.50000000
   6.27903668  4.16185028 13.78322800
   8.34911181  6.26183356 13.79137718
   6.25689604  6.26183355 11.68189124
   0.00000005  4.17011500 11.66964662

--------------------------------------- Iteration      FINAL  ---------------------------------------

--------------------OUTCAR has been truncated-------------------------

[...]

--------------------OUTCAR has been truncated-------------------------

  FORCE on cell =-STRESS in cart. coord.  units (eV):
  Direction    XX          YY          ZZ          XY          YZ          ZX
  Alpha Z   950.51164   950.51164   950.51164
  Ewald  165112.55511166001.18143************    -0.00001     0.00194    -0.00002
  Hartree175514.28583176027.98516************    -0.00000     0.00030    -0.00002
  E(xc)   -2606.47242 -2603.51331 -2606.97259    -0.00000     0.00001    -0.00000
  Local  ************************350938.42866     0.00001    -0.00186     0.00004
  n-local -2861.04213 -2865.44843 -2884.89540    -0.00000    -0.00008     0.00000
  augment  1090.01328  1088.75026  1082.31420     0.00000    -0.00000    -0.00000
  Kinetic  7695.92584  7657.91292  7717.35318    -0.00000     0.00011    -0.00000
  Fock        0.00000     0.00000     0.00000     0.00000     0.00000     0.00000
  Total      16.74534    17.71074    31.71027    -0.00001     0.00043     0.00001
  in kB      18.10186    19.14547    34.27909    -0.00001     0.00047     0.00001

 VOLUME and BASIS-vectors are now :
  energy-cutoff  :      600.00
  volume of cell :     1482.11
      direct lattice vectors                 reciprocal lattice vectors
     8.349111827  0.000000000  0.000000000     0.119773219  0.000000000  0.000000000
     0.000000000  8.349111827  0.000000000     0.000000000  0.119773219  0.000000000
     0.000000000  0.000000000 21.261833870     0.000000000  0.000000000  0.047032632

  length of vectors
     8.349111827  8.349111827 21.261833870     0.119773219  0.119773219  0.047032632

 FORCES acting on ions:
    Electron-Ion                     Ewald-Force                    Non-Local-Force
   0.344E-04 0.310E-02 -.114E+04   -.325E-04 -.374E-02 0.114E+04   -.170E-05 0.442E-04 -.264E+01
   0.209E-04 -.227E+03 -.186E+04   -.216E-04 0.271E+03 0.188E+04   0.406E-05 -.427E+02 -.278E+02
   0.847E-05 0.227E+03 -.186E+04   -.489E-05 -.271E+03 0.188E+04   -.279E-05 0.427E+02 -.278E+02
   -.221E-02 0.809E+00 0.216E+04   0.733E-03 -.847E+00 -.215E+04   0.851E-03 0.272E-01 -.656E+01
   -.138E-04 0.132E-05 0.216E+04   0.137E-04 0.123E-05 -.215E+04   -.153E-05 -.277E-05 -.638E+01
   0.249E+01 -.314E-04 0.773E+03   -.254E+01 0.352E-04 -.774E+03   0.265E-01 -.374E-05 0.743E+00
   -.639E-04 0.638E+01 0.768E+03   0.647E-04 -.668E+01 -.769E+03   -.285E-05 0.202E+00 0.611E+00
   0.515E+01 0.878E+01 -.607E+03   -.454E+01 -.902E+01 0.608E+03   -.612E+00 0.242E+00 -.127E+01
   -.442E-04 0.327E-03 -.588E+03   0.486E-04 -.331E-03 0.583E+03   -.731E-05 -.166E-04 0.488E+01
   0.486E+02 -.954E-04 -.194E+04   -.545E+02 0.654E-04 0.193E+04   0.592E+01 0.628E-05 0.655E+01
   -.460E-04 0.885E+02 -.194E+04   0.409E-04 -.920E+02 0.194E+04   0.150E-05 0.349E+01 0.780E+00
   -.218E-02 -.809E+00 0.216E+04   0.713E-03 0.847E+00 -.215E+04   0.855E-03 -.272E-01 -.656E+01
   -.940E-05 -.941E-05 0.216E+04   0.131E-04 -.117E-05 -.215E+04   0.759E-07 0.221E-06 -.656E+01
   -.120E+01 0.345E-04 0.769E+03   0.128E+01 -.380E-04 -.769E+03   -.597E-01 0.271E-05 0.374E+00
   -.598E-04 -.638E+01 0.768E+03   0.633E-04 0.668E+01 -.769E+03   -.324E-05 -.202E+00 0.611E+00
   0.515E+01 -.878E+01 -.607E+03   -.454E+01 0.902E+01 0.608E+03   -.612E+00 -.242E+00 -.127E+01
   -.385E-04 -.232E-03 -.615E+03   0.355E-04 0.246E-03 0.615E+03   0.284E-05 -.145E-05 -.491E+00
   0.297E+02 0.267E-03 -.202E+04   -.306E+02 -.244E-03 0.201E+04   0.864E+00 -.184E-04 0.569E+01
   -.375E-04 -.885E+02 -.194E+04   0.440E-04 0.920E+02 0.194E+04   0.248E-05 -.349E+01 0.780E+00
   0.220E-02 0.809E+00 0.216E+04   -.733E-03 -.847E+00 -.215E+04   -.851E-03 0.272E-01 -.656E+01
   0.156E-04 -.124E-04 0.216E+04   -.138E-04 0.214E-04 -.215E+04   -.201E-05 -.178E-05 -.643E+01
   -.249E+01 -.271E-04 0.773E+03   0.254E+01 0.336E-04 -.774E+03   -.265E-01 -.494E-05 0.743E+00
   0.635E-04 0.269E+01 0.772E+03   -.645E-04 -.286E+01 -.772E+03   0.157E-05 0.118E+00 0.717E-01
   -.515E+01 0.878E+01 -.607E+03   0.454E+01 -.902E+01 0.608E+03   0.612E+00 0.242E+00 -.127E+01
   0.668E-04 -.244E-03 -.586E+03   -.713E-04 0.254E-03 0.586E+03   0.272E-05 -.477E-05 0.174E+00
   -.486E+02 -.770E-04 -.194E+04   0.545E+02 0.610E-04 0.193E+04   -.592E+01 0.859E-05 0.655E+01
   0.440E-04 0.187E+02 -.203E+04   -.379E-04 -.195E+02 0.202E+04   -.464E-05 0.824E+00 0.557E+01
   0.219E-02 -.809E+00 0.216E+04   -.713E-03 0.847E+00 -.215E+04   -.851E-03 -.272E-01 -.656E+01
   0.801E-05 0.115E-04 0.216E+04   -.131E-04 -.214E-04 -.215E+04   -.226E-05 -.133E-06 -.654E+01
   0.120E+01 0.269E-04 0.769E+03   -.128E+01 -.365E-04 -.769E+03   0.597E-01 0.702E-05 0.374E+00
   0.571E-04 -.269E+01 0.772E+03   -.633E-04 0.286E+01 -.772E+03   0.485E-05 -.118E+00 0.717E-01
   -.515E+01 -.878E+01 -.607E+03   0.454E+01 0.902E+01 0.608E+03   0.612E+00 -.242E+00 -.127E+01
   0.401E-04 0.185E-03 -.611E+03   -.385E-04 -.214E-03 0.611E+03   -.261E-05 0.205E-04 -.125E+00
   -.297E+02 0.264E-03 -.202E+04   0.306E+02 -.246E-03 0.201E+04   -.864E+00 -.185E-04 0.569E+01
   0.421E-04 -.187E+02 -.203E+04   -.393E-04 0.195E+02 0.202E+04   -.100E-04 -.824E+00 0.557E+01
   0.178E+00 0.225E+01 0.576E+03   -.299E+00 -.234E+01 -.576E+03   0.162E+00 0.138E+00 -.300E+00
   -.432E-04 0.493E-04 0.587E+03   0.411E-04 -.446E-04 -.588E+03   0.692E-06 0.177E-05 0.534E+00
   0.168E+00 -.108E-04 0.162E+04   -.177E+00 0.858E-05 -.163E+04   0.133E-01 -.316E-06 0.358E+01
   -.115E-04 0.794E+00 0.162E+04   0.103E-04 -.841E+00 -.163E+04   0.315E-05 0.668E-01 0.353E+01
   0.381E+02 0.299E+02 -.150E+04   -.372E+02 -.300E+02 0.150E+04   -.881E+00 0.133E+00 -.526E+01
   -.392E-04 -.480E-03 -.126E+04   0.477E-04 0.480E-03 0.124E+04   -.345E-05 0.163E-05 0.244E+02
   0.320E+01 0.555E-04 -.442E+03   -.345E+01 -.670E-04 0.441E+03   0.237E+00 0.888E-06 0.873E+00
   -.503E-04 0.862E+01 -.472E+03   0.450E-04 -.903E+01 0.473E+03   0.870E-07 0.382E+00 -.183E+01
   0.178E+00 -.225E+01 0.576E+03   -.299E+00 0.234E+01 -.576E+03   0.162E+00 -.138E+00 -.300E+00
   -.400E-04 -.416E-04 0.573E+03   0.416E-04 0.561E-04 -.572E+03   -.570E-06 -.202E-04 -.257E+00
   -.150E+00 0.762E-05 0.162E+04   0.153E+00 -.856E-05 -.163E+04   -.458E-02 -.112E-05 0.348E+01
   -.175E-04 -.794E+00 0.162E+04   0.102E-04 0.841E+00 -.163E+04   0.282E-06 -.668E-01 0.353E+01
   0.381E+02 -.299E+02 -.150E+04   -.372E+02 0.300E+02 0.150E+04   -.881E+00 -.133E+00 -.526E+01
   -.433E-05 0.530E-03 -.150E+04   0.818E-05 -.555E-03 0.151E+04   0.159E-06 0.149E-04 -.411E+01
   0.293E+01 -.423E-04 -.452E+03   -.305E+01 0.579E-04 0.452E+03   0.113E+00 -.104E-04 0.329E+00
   -.365E-04 -.862E+01 -.472E+03   0.430E-04 0.903E+01 0.473E+03   0.988E-06 -.382E+00 -.183E+01
   -.178E+00 0.225E+01 0.576E+03   0.299E+00 -.234E+01 -.576E+03   -.162E+00 0.138E+00 -.300E+00
   0.438E-04 -.942E-04 0.582E+03   -.442E-04 0.998E-04 -.582E+03   -.213E-05 0.397E-06 0.346E+00
   -.168E+00 -.877E-05 0.162E+04   0.177E+00 0.847E-05 -.163E+04   -.133E-01 0.247E-05 0.358E+01
   0.828E-05 0.475E+00 0.162E+04   -.103E-04 -.510E+00 -.163E+04   0.585E-05 0.489E-01 0.351E+01
   -.381E+02 0.299E+02 -.150E+04   0.372E+02 -.300E+02 0.150E+04   0.881E+00 0.133E+00 -.526E+01
   -.136E-04 0.134E-03 -.153E+04   0.965E-05 -.149E-03 0.153E+04   0.354E-06 0.866E-05 -.524E+01
   -.320E+01 0.666E-04 -.442E+03   0.345E+01 -.716E-04 0.441E+03   -.237E+00 0.322E-05 0.873E+00
   0.470E-04 0.643E+01 -.449E+03   -.489E-04 -.651E+01 0.448E+03   0.120E-05 0.751E-01 0.689E-01
   -.178E+00 -.225E+01 0.576E+03   0.299E+00 0.234E+01 -.576E+03   -.162E+00 -.138E+00 -.300E+00
   0.435E-04 0.921E-04 0.577E+03   -.407E-04 -.103E-03 -.577E+03   -.111E-05 0.559E-05 -.583E-01
   0.150E+00 0.228E-04 0.162E+04   -.153E+00 -.845E-05 -.163E+04   0.458E-02 -.112E-04 0.348E+01
   0.129E-04 -.475E+00 0.162E+04   -.102E-04 0.510E+00 -.163E+04   -.239E-05 -.489E-01 0.351E+01
   -.381E+02 -.299E+02 -.150E+04   0.372E+02 0.300E+02 0.150E+04   0.881E+00 -.133E+00 -.526E+01
   0.374E-04 0.395E-04 -.154E+04   -.414E-04 -.249E-04 0.155E+04   0.294E-05 -.177E-04 -.514E+01
   -.293E+01 -.512E-04 -.452E+03   0.305E+01 0.599E-04 0.452E+03   -.113E+00 -.155E-04 0.329E+00
   0.466E-04 -.643E+01 -.449E+03   -.487E-04 0.651E+01 0.448E+03   -.269E-05 -.751E-01 0.689E-01
   -.100E-04 0.786E-03 0.549E+02   0.111E-12 -.163E-12 0.364E-11   -.137E-05 -.796E-03 -.549E+02

 POSITION                                       TOTAL-FORCE (eV/Angst)
      4.17456      2.08727     15.32727         0.000000     -0.000593      0.268859
      4.17456      3.22762     15.82232         0.000004      1.221262      0.765246
      4.17456      0.94691     15.82232         0.000001     -1.220629      0.764926
      2.08728      0.00000      7.50000        -0.000595     -0.010812     -0.009186
      4.17456      2.08728      7.50000        -0.000002     -0.000000     -0.047963
      2.08728      2.08728      9.58728        -0.025141      0.000000      0.005517
      4.17456      0.00000      9.58728        -0.000002     -0.096792      0.111966
      2.10445      8.34244     11.70065        -0.006904      0.002920      0.002209
      4.17456      2.08728     11.63680        -0.000003     -0.000020      0.136728
      1.97425      2.08728     13.73076         0.101025     -0.000023      0.344022
      4.17456      8.25160     13.96592        -0.000003      0.010861      0.192311
      2.08728      4.17456      7.50000        -0.000588      0.010818     -0.009201
      4.17456      6.26183      7.50000         0.000004     -0.000010     -0.004745
      2.08728      6.26183      9.58728         0.023788     -0.000001      0.081489
      4.17456      4.17456      9.58728         0.000000      0.096790      0.111948
      2.10445      4.18122     11.70065        -0.006930     -0.002920      0.002190
      4.17456      6.26183     11.70915         0.000000      0.000012      0.013140
      2.06717      6.26183     13.76698         0.007557      0.000005      0.379188
      4.17456      4.27206     13.96592         0.000009     -0.010835      0.192301
      6.26183      0.00000      7.50000         0.000587     -0.010824     -0.009189
      0.00000      2.08728      7.50000         0.000000      0.000008     -0.034827
      6.26183      2.08728      9.58728         0.025144      0.000002      0.005520
      0.00000      0.00000      9.58728         0.000001     -0.047909      0.074254
      6.24466      8.34244     11.70065         0.006911      0.002918      0.002202
      8.34911      2.08728     11.65941        -0.000002      0.000006      0.013730
      6.37486      2.08728     13.73076        -0.101017     -0.000007      0.344018
      0.00000      8.32866     13.75791         0.000002      0.009010      0.377663
      6.26183      4.17456      7.50000         0.000598      0.010827     -0.009195
      0.00000      6.26183      7.50000        -0.000007     -0.000010     -0.007543
      6.26183      6.26183      9.58728        -0.023789     -0.000002      0.081483
      0.00000      4.17456      9.58728        -0.000001      0.047914      0.074254
      6.24466      4.18122     11.70065         0.006930     -0.002921      0.002198
      0.00000      6.26183     11.67680        -0.000001     -0.000008      0.015179
      6.28194      6.26183     13.76698        -0.007559     -0.000000      0.379190
      0.00000      4.19500     13.75791        -0.000007     -0.009005      0.377652
      2.08728      0.00000      9.58728         0.041006      0.043074      0.079681
      4.17456      2.08728      9.58728        -0.000001      0.000007     -0.052831
      2.08728      2.08728      7.50000         0.003851     -0.000002     -0.705814
      4.17456      0.00000      7.50000         0.000002      0.019257     -0.719494
      2.07007      0.01271     13.78323         0.018394     -0.007845      0.198371
      4.17456      2.08727     13.90283         0.000005      0.000001     -1.154999
      2.10686      2.08728     11.68879        -0.016708     -0.000010     -0.023522
      4.17456      0.01946     11.70804        -0.000005     -0.020569      0.050621
      2.08728      4.17456      9.58728         0.041007     -0.043073      0.079683
      4.17456      6.26183      9.58728         0.000001     -0.000006      0.142512
      2.08728      6.26183      7.50000        -0.001436     -0.000002     -0.731031
      4.17456      4.17456      7.50000        -0.000007     -0.019256     -0.719498
      2.07008      4.16185     13.78323         0.018402      0.007838      0.198381
      4.17456      6.26183     13.82562         0.000004     -0.000009      0.185294
      2.09222      6.26183     11.68189        -0.007572      0.000005     -0.001035
      4.17456      4.15510     11.70804         0.000008      0.020581      0.050626
      6.26183      0.00000      9.58728        -0.041007      0.043081      0.079682
      0.00000      2.08728      9.58728        -0.000002      0.000006      0.045873
      6.26183      2.08728      7.50000        -0.003852      0.000002     -0.705810
      0.00000      0.00000      7.50000         0.000004      0.013967     -0.723968
      6.27904      0.01271     13.78323        -0.018397     -0.007848      0.198370
      0.00000      2.08728     13.77427        -0.000003     -0.000006      0.214181
      6.24226      2.08728     11.68879         0.016706     -0.000002     -0.023526
      0.00000      0.00444     11.66965        -0.000001     -0.003596     -0.000599
      6.26183      4.17456      9.58728        -0.041011     -0.043079      0.079687
      0.00000      6.26183      9.58728         0.000002     -0.000005      0.022921
      6.26183      6.26183      7.50000         0.001436      0.000003     -0.731037
      0.00000      4.17456      7.50000         0.000000     -0.013967     -0.723966
      6.27904      4.16185     13.78323        -0.018407      0.007837      0.198384
      8.34911      6.26183     13.79138        -0.000001     -0.000003      0.206959
      6.25690      6.26183     11.68189         0.007575     -0.000007     -0.001033
      0.00000      4.17012     11.66965        -0.000005      0.003595     -0.000599
    total drift:                               -0.000011     -0.000010     -0.003522

  FREE ENERGIE OF THE ION-ELECTRON SYSTEM (eV)
  free  energy   TOTEN  =      -244.32003143 eV

  energy  without entropy=     -244.32003143  energy(sigma->0) =     -244.32003143