 vasp.6.3.0 20Jan22 (build Dec 25 2023 18:06:01) complex
 executed on        HPECrayEX_GCC date 2024.01.24  03:03:17

 INCAR:
   SYSTEM = MgO-rocksalt
   ISMEAR = 0
   SIGMA = 0.05
   EDIFF = 1E-8
   ALGO = ALL
   ISTART = 0
   IBRION = 5
   POTIM = 0.01
   NFREE = 2
   ISYM = 0
   DIPOL = 0.5 0.5 0.5
   IDIPOL = 3
   LDIPOL = .TRUE.
   GGA = MK
   LUSE_VDW = .TRUE.
   PARAM1 = 0.1234
   PARAM2 = 0.711357
   ZAB_VDW = -1.8867
   AGGAC = 0.0
   ENCUT = 600
   PREC = Accurate
   LASPH = .TRUE.
   LREAL = .FALSE.
   ISPIN = 1
   NELM = 200
   NELMIN = 8
   NCORE = 8
   KPAR = 1
   LWAVE = .FALSE.
   LCHARG = .FALSE.

 POTCAR:    PAW_PBE H 15Jun2001
 POTCAR:    PAW_PBE O 08Apr2002
 POTCAR:    PAW_PBE Ti_pv 07Sep2000
 POTCAR:    PAW_PBE O 08Apr2002
|               ----> ADVICE to this user running VASP <----                  |
|     You have switched on vdW-DFT.                                           |
|     This routine was written and supplied by Jiri Klimes. We recommend      |
|     that you carefully read and cite the following publications:            |
|       J. Klimes, D.R. Bowler, A. Michelides                                 |
|          J. Phys.: Cond Matt. 22 022201 (2010)                              |
|       J. Klimes, D.R. Bowler, A. Michelides                                 |
|          Phys. Rev. B. 83, 195131 (2011)                                    |
|     and references therein.                                                 |

   TITEL  = PAW_PBE H 15Jun2001
   POMASS =    1.000; ZVAL   =    1.000    mass and valenz
   ENMAX  =  250.000; ENMIN  =  200.000 eV

   TITEL  = PAW_PBE O 08Apr2002
   POMASS =   16.000; ZVAL   =    6.000    mass and valenz
   ENMAX  =  400.000; ENMIN  =  300.000 eV

   TITEL  = PAW_PBE Ti_pv 07Sep2000
   POMASS =   47.880; ZVAL   =   10.000    mass and valenz
   ENMAX  =  222.335; ENMIN  =  166.751 eV

   TITEL  = PAW_PBE O 08Apr2002
   POMASS =   16.000; ZVAL   =    6.000    mass and valenz
   ENMAX  =  400.000; ENMIN  =  300.000 eV

  PAW_PBE H 15Jun2001                   :
  PAW_PBE O 08Apr2002                   :
  PAW_PBE Ti_pv 07Sep2000               :
  PAW_PBE O 08Apr2002                   :

 POSCAR:  H  O Ti  O
  positions in direct lattice
 exchange correlation table for  LEXCH =       43
   RHO(1)=    0.500       N(1)  =     2000
   RHO(2)=  100.500       N(2)  =     4000

 ion  position               nearest neighbor table
   1  0.513  0.550  0.802-   3 0.98
   2  0.615  0.496  0.782-   3 1.00
   3  0.539  0.492  0.782-   1 0.98   2 1.00  83 2.19
   4  0.750  0.625  0.287-  84 1.96  85 1.96 144 1.96 145 1.96 166 1.99  87 1.99  14 2.96  34 2.96

   5  0.000  0.750  0.287-  87 1.96 107 1.96 106 1.96  86 1.96  88 1.99  35 2.96  15 2.96
   6  0.000  0.625  0.393-  88 1.96  89 1.96 148 1.96 149 1.96  90 1.99  91 1.99  16 2.96  36 2.96

[...]

  84  0.750  0.750  0.245-   4 1.96  14 1.96
  85  0.750  0.750  0.328-   4 1.96  14 1.96   7 1.99
  86  0.098  0.625  0.287-   5 1.96  35 1.96  44 1.99
  87  0.902  0.625  0.287-   5 1.96  35 1.96   4 1.99
  88  0.000  0.750  0.352-   6 1.96  16 1.96   5 1.99
  89  0.000  0.750  0.435-   6 1.96  16 1.96   9 1.99
  90  0.848  0.625  0.393-   7 1.96  37 1.96   6 1.99
  91  0.152  0.625  0.393-  47 1.96  77 1.96   6 1.99
  92  0.750  0.750  0.458-   8 1.96  18 1.96   7 1.99
  93  0.750  0.750  0.542-   8 1.96  18 1.96  11 2.10
  94  0.098  0.625  0.500-   9 1.96  39 1.96  48 1.99
  95  0.902  0.625  0.500-   9 1.96  39 1.96   8 1.99
  96  0.001  0.750  0.565-  20 1.90  10 1.90   9 2.01
  97  1.000  0.750  0.649-  13 1.82  10 2.02  20 2.02
  98  0.851  0.625  0.607-  11 1.94  41 1.94  10 2.02
  99  0.151  0.625  0.607-  10 1.89  51 2.01  81 2.01
 100  0.754  0.751  0.672-  11 1.88  12 2.08  22 2.09
 101  0.749  0.749  0.755-  12 1.83  22 1.84
 102  0.095  0.625  0.719-  43 1.95  13 1.95  52 2.04
 103  0.907  0.624  0.720-  43 1.95  13 1.96  12 2.03
 104  0.750  0.000  0.245-  14 1.96  24 1.96
 105  0.750  0.000  0.328-  14 1.96  24 1.96  17 1.99
 106  0.098  0.875  0.287-   5 1.96  15 1.96  54 1.99
 107  0.902  0.875  0.287-   5 1.96  15 1.96  14 1.99
 108  0.000  0.000  0.352-  16 1.96  26 1.96  15 1.99
 109  0.000  0.000  0.435-  16 1.96  26 1.96  19 1.99
 110  0.848  0.875  0.393-   7 1.96  17 1.96  16 1.99
 111  0.152  0.875  0.393-  47 1.96  57 1.96  16 1.99
 112  0.750  0.000  0.458-  18 1.96  28 1.96  17 1.99
 113  0.750  0.000  0.542-  18 1.96  28 1.96  21 2.11
 114  0.098  0.875  0.500-   9 1.96  19 1.96  58 1.99
 115  0.902  0.875  0.500-   9 1.96  19 1.96  18 1.99
 116  0.001  1.000  0.565-  20 1.90  30 1.90  19 2.01
 117  0.000  1.000  0.649-  23 1.82  20 2.02  30 2.02
 118  0.851  0.875  0.607-  11 1.94  21 1.94  20 2.03
 119  0.150  0.875  0.607-  20 1.89  61 2.01  51 2.01
 120  0.751  1.000  0.672-  21 1.88  32 2.09  22 2.09
 121  0.750  1.000  0.756-  32 1.83  22 1.83
 122  0.094  0.875  0.719-  13 1.94  23 1.95  62 2.05
 123  0.907  0.875  0.719-  13 1.95  23 1.95  22 2.05
 124  0.750  0.250  0.245-  24 1.96  34 1.96
 125  0.750  0.250  0.328-  24 1.96  34 1.96  27 1.99
 126  0.098  0.125  0.287-  15 1.96  25 1.96  64 1.99
 127  0.902  0.125  0.287-  15 1.96  25 1.96  24 1.99
 128  0.000  0.250  0.352-  26 1.96  36 1.96  25 1.99
 129  0.000  0.250  0.435-  26 1.96  36 1.96  29 1.99
 130  0.848  0.125  0.393-  17 1.96  27 1.96  26 1.99
 131  0.152  0.125  0.393-  57 1.96  67 1.96  26 1.99
 132  0.750  0.250  0.458-  28 1.96  38 1.96  27 1.99
 133  0.750  0.250  0.542-  28 1.96  38 1.96  31 2.10
 134  0.098  0.125  0.500-  19 1.96  29 1.96  68 1.99
 135  0.902  0.125  0.500-  19 1.96  29 1.96  28 1.99
 136  0.001  0.250  0.565-  30 1.90  40 1.90  29 2.01
 137  0.000  0.250  0.649-  33 1.82  40 2.02  30 2.02
 138  0.851  0.125  0.607-  21 1.94  31 1.94  30 2.03
 139  0.150  0.125  0.607-  30 1.89  61 2.01  71 2.01
 140  0.753  0.250  0.672-  31 1.88  42 2.07  32 2.10
 141  0.749  0.251  0.755-  42 1.83  32 1.84
 142  0.094  0.125  0.719-  33 1.94  23 1.95  72 2.05
 143  0.907  0.125  0.719-  33 1.95  23 1.95  32 2.05
[...]
 229  0.500  0.500  0.435-  46 1.96  76 1.96  79 1.99
 230  0.348  0.375  0.393-  67 1.96  77 1.96  76 1.99
 231  0.652  0.375  0.393-  27 1.96  37 1.96  76 1.99
 232  0.250  0.500  0.458-  48 1.96  78 1.96  77 1.99
 233  0.250  0.500  0.542-  48 1.96  78 1.96  81 2.11
 234  0.598  0.375  0.500-  69 1.96  79 1.96  38 1.99
 235  0.402  0.375  0.500-  69 1.96  79 1.96  78 1.99
 236  0.501  0.500  0.566-  50 1.90  80 1.90  79 2.01
 237  0.500  0.500  0.650-  83 1.91  50 1.99  80 1.99
 238  0.350  0.375  0.607-  71 1.94  81 1.94  80 2.03
 239  0.651  0.375  0.608-  80 1.90  31 2.01  41 2.01
 240  0.251  0.500  0.672-  81 1.87  52 2.09  82 2.10
 241  0.252  0.500  0.756-  82 1.84  52 1.84
 242  0.597  0.371  0.714-  73 1.92  83 1.96  42 2.03
 243  0.407  0.374  0.718-  83 1.94  73 1.94  82 2.04

IMPORTANT INFORMATION: All symmetrisations will be switched off!
NOSYMM: (Re-)initialisation of all symmetry stuff for point group C_1.

                                     Primitive cell

  volume of cell :    4737.1524

  direct lattice vectors                    reciprocal lattice vectors
    13.061127704  0.000000000  0.000000000     0.076563067  0.000000000  0.000000000
     0.000000000 11.845298948  0.000000000     0.000000000  0.084421677  0.000000000
     0.000000000  0.000000000 30.618975621     0.000000000  0.000000000  0.032659486

  length of vectors
    13.061127704 11.845298948 30.618975621     0.076563067  0.084421677  0.032659486

  position of ions in fractional coordinates (direct lattice)
     0.512624882  0.550188198  0.801708925
     0.615442580  0.495789986  0.782168382
     0.538709299  0.491865763  0.782149821
     0.750000000  0.625000000  0.286715143
     0.000000000  0.750000000  0.286715143
     0.000000000  0.625000000  0.393357571
     0.750000000  0.750000000  0.393357571
     0.750000000  0.625000000  0.500000000
     0.000000000  0.750000000  0.500000000
     0.005638758  0.625035061  0.604416809
     0.754893248  0.750103789  0.610243765
     0.751228869  0.625854106  0.719206811
     0.000326318  0.750256976  0.708656100
     0.750000000  0.875000000  0.286715143
     0.000000000  0.000000000  0.286715143
     0.000000000  0.875000000  0.393357571
     0.750000000  0.000000000  0.393357571
     0.750000000  0.875000000  0.500000000
     0.000000000  0.000000000  0.500000000
     0.005503934  0.875008901  0.604468843
     0.754149504  0.000019186  0.610519194
     0.750018801  0.875023848  0.720184334
     0.000431576  0.999902341  0.708605784
     0.750000000  0.125000000  0.286715143
     0.000000000  0.250000000  0.286715143
     0.000000000  0.125000000  0.393357571
     0.750000000  0.250000000  0.393357571
     0.750000000  0.125000000  0.500000000
     0.000000000  0.250000000  0.500000000
     0.005510106  0.124940473  0.604457218
     0.754643660  0.249807522  0.610218954
     0.749905450  0.124282593  0.720177138
     0.000398169  0.249561244  0.708636163
     0.750000000  0.375000000  0.286715143
     0.000000000  0.500000000  0.286715143
     0.000000000  0.375000000  0.393357571
     0.750000000  0.500000000  0.393357571
     0.750000000  0.375000000  0.500000000
     0.000000000  0.500000000  0.500000000
     0.005524643  0.374967325  0.604403213
     0.755154782  0.499954802  0.610434641
     0.751798027  0.373388853  0.719255828
     0.001108345  0.500055693  0.708593659
     0.250000000  0.625000000  0.286715143
     0.500000000  0.750000000  0.286715143
     0.500000000  0.625000000  0.393357571
     0.250000000  0.750000000  0.393357571
     0.250000000  0.625000000  0.500000000
     0.500000000  0.750000000  0.500000000
     0.505783107  0.622743094  0.605633207
     0.254874477  0.749901494  0.610538265
     0.250749840  0.625143955  0.720282687
     0.500978395  0.750196006  0.707445814
     0.250000000  0.875000000  0.286715143
     0.500000000  0.000000000  0.286715143
     0.500000000  0.875000000  0.393357571
     0.250000000  0.000000000  0.393357571
     0.250000000  0.875000000  0.500000000
     0.500000000  0.000000000  0.500000000
     0.505352635  0.874050091  0.603468464
[...]
     0.500000000  0.500000000  0.435126570
     0.347918341  0.375000000  0.393357571
     0.652081659  0.375000000  0.393357571
     0.250000000  0.500000000  0.458231001
     0.250000000  0.500000000  0.541768999
     0.597918341  0.375000000  0.500000000
     0.402081659  0.375000000  0.500000000
     0.500847536  0.499797340  0.565682438
     0.499713966  0.500374159  0.649875089
     0.350075528  0.374973917  0.607284093
     0.651177097  0.374955781  0.607739180
     0.250722793  0.500388594  0.671839203
     0.251643452  0.499887673  0.755615512
     0.596866483  0.371262585  0.714495445
     0.406971979  0.374004315  0.718325035

  ion indices of the primitive-cell ions
   primitive index   ion index
                 1           1
                 2           2
                 3           3
                 4           4
                 5           5
                 6           6
                 7           7
                 8           8
                 9           9
                10          10
[...]
      9.85650      2.95904     18.68428        -0.001218     -0.001726      0.001435
      9.79461      1.47216     22.05109         0.000199      0.001729      0.001524
      0.00520      2.95613     21.69771         0.000938      0.001346      0.000659
      9.79585      4.44199      8.77892        -0.002335     -0.000073     -3.482098
      0.00000      5.92265      8.77892         0.001142     -0.000039      2.773642
      0.00000      4.44199     12.04421         0.005070      0.000057      0.517041
      9.79585      5.92265     12.04421        -0.006555      0.000355     -0.725646
      9.79585      4.44199     15.30949        -0.032466      0.023687      0.591877
      0.00000      5.92265     15.30949         0.004887      0.000690     -0.699352
      0.07216      4.44160     18.50621         0.000603     -0.000840     -0.000891
      9.86317      5.92211     18.69088         0.003291      0.000311      0.000786
      9.81933      4.42290     22.02288        -0.004683      0.000338     -0.001962
      0.01448      5.92331     21.69641         0.003246     -0.000493     -0.001219
      3.26528      7.40331      8.77892         0.002470     -0.000024     -3.479785
      6.53056      8.88397      8.77892        -0.000976      0.000294      2.779648
      6.53056      7.40331     12.04421        -0.004702      0.008522      0.538883
      3.26528      8.88397     12.04421         0.007276      0.000332     -0.710694
      3.26528      7.40331     15.30949         0.039940     -0.012019      0.643225
      6.53056      8.88397     15.30949        -0.019737     -0.039797     -0.574759
      6.60610      7.37658     18.54387        -0.002474      0.001448      0.002039
      3.32895      8.88281     18.69406        -0.001912      0.000431      0.000844
      3.27508      7.40502     22.05432         0.003766     -0.000334     -0.002969
      6.54334      8.88630     21.66127         0.002137     -0.001447      0.000694
      3.26528     10.36464      8.77892         0.002544      0.000210     -3.479917
      6.53056      0.00000      8.77892        -0.000970      0.000023      2.779729
      6.53056     10.36464     12.04421        -0.004881     -0.000289      0.540659
      3.26528      0.00000     12.04421         0.007559     -0.000116     -0.711142
      3.26528     10.36464     15.30949         0.032555      0.003580      0.637065
      6.53056      0.00000     15.30949        -0.022741     -0.002160     -0.756257
      6.60048     10.35338     18.47759         0.001751     -0.001590      0.000210
[...]
      6.53056      5.92265     13.32313         0.002760     -0.000781     -0.136532
      4.54421      4.44199     12.04421         0.415658      0.000174      0.049114
      8.51692      4.44199     12.04421        -0.410209      0.000191      0.050925
      3.26528      5.92265     14.03056        -0.009143      0.000310     -0.093864
      3.26528      5.92265     16.58841        -0.006554     -0.001982      0.013688
      7.80949      4.44199     15.30949        -0.407065      0.018914      0.061503
      5.25164      4.44199     15.30949         0.438163      0.020733      0.077097
      6.54163      5.92025     17.32062        -0.000265     -0.000369      0.000702
      6.52683      5.92708     19.89851        -0.001769     -0.000270     -0.012683
      4.57238      4.44168     18.59442         0.001730     -0.001558     -0.000041
      8.50511      4.44146     18.60835        -0.001435      0.003096      0.001358
      3.27472      5.92725     20.57103        -0.000664      0.000383      0.001085
      3.28675      5.92132     23.13617         0.002385      0.000079      0.002727
      7.79575      4.39772     21.87712         0.004396     -0.007557     -0.004180
      5.31551      4.43019     21.99438        -0.002002     -0.002466      0.000906
    total drift:                               -0.011459     -0.001948     -0.017741

  FREE ENERGIE OF THE ION-ELECTRON SYSTEM (eV)
  free  energy   TOTEN  =     -1753.75974173 eV

  energy  without entropy=    -1753.75974173  energy(sigma->0) =    -1753.75974173

 d Force = 0.1765507E-05[-0.541E-02, 0.541E-02]  d Energy = 0.5841226E-05-0.408E-05
 d Force =-0.5112101E+02[-0.512E+02,-0.511E+02]  d Ewald  =-0.5112086E+02-0.151E-03

 Finite differences progress:
  Degree of freedom:   9/  9
  Displacement:        2/  2
  Total:              18/ 18

 SECOND DERIVATIVES (NOT SYMMETRIZED)
               1X          1Y          1Z          2X          2Y          2Z          3X          3Y          3Z
  1X    -9.922021   11.689601    9.769124    0.787255   -2.973094   -2.492910    9.258487   -8.993360   -7.077325
  1Y    11.698245  -23.790231  -20.409732    0.468711    0.085961   -0.105835  -12.307034   23.600472   20.424564
  1Z     9.777392  -20.406448  -18.958901    0.231232   -0.025804    0.049001   -9.768414   19.796131   18.552978
  2X     0.787386    0.469684    0.231168  -34.885343   -0.722296   -1.265800   34.886635    0.249063   -1.011646
  2Y    -2.972846    0.087310   -0.026125   -0.719971   -3.675857   -1.744095    3.805972    2.984689    2.007137
  2Z    -2.492651   -0.102087    0.056309   -1.263170   -1.741876   -4.145979    2.357022    1.839217    3.607309
  3X     9.252213  -12.299928   -9.761506   34.878221    3.809425    2.369110  -48.204463    8.944904    8.378052
  3Y    -9.000613   23.599613   19.797413    0.247647    2.977623    1.834033    8.954722  -28.191149  -21.914955
  3Z    -7.078457   20.419802   18.542510   -1.014920    2.010820    3.592116    8.379731  -21.892389  -27.054933

 Eigenvectors and eigenvalues of the dynamical matrix

   1 f  =  111.604957 THz   701.234627 2PiTHz 3722.740657 cm-1   461.560808 meV
             X         Y         Z           dx          dy          dz
      6.695459  6.517144 24.547506    -0.356254    0.674968    0.593836
      8.038374  5.872781 23.949195    -0.073601   -0.023196   -0.018001
      7.036151  5.826297 23.948626     0.108245   -0.161584   -0.144068
      9.795846  7.403312  8.778924            0           0           0
      0.000000  8.883974  8.778924            0           0           0
      0.000000  7.403312 12.044206            0           0           0
      9.795846  8.883974 12.044206            0           0           0
      9.795846  7.403312 15.309488            0           0           0
      0.000000  8.883974 15.309488            0           0           0
      0.073649  7.403727 18.506624            0           0           0
      9.859757  8.885204 18.685039            0           0           0
      9.811896  7.413429 22.021376            0           0           0
      0.004262  8.887018 21.698324            0           0           0
      9.795846 10.364637  8.778924            0           0           0
      0.000000  0.000000  8.778924            0           0           0
      0.000000 10.364637 12.044206            0           0           0
      9.795846  0.000000 12.044206            0           0           0
      9.795846 10.364637 15.309488            0           0           0
      0.000000  0.000000 15.309488            0           0           0
      0.071888 10.364742 18.508217            0           0           0
      9.850043  0.000227 18.693472            0           0           0
      9.796091 10.364919 22.051307            0           0           0
      0.005637 11.844142 21.696783            0           0           0
      9.795846  1.480662  8.778924            0           0           0
      0.000000  2.961325  8.778924            0           0           0
      0.000000  1.480662 12.044206            0           0           0
      9.795846  2.961325 12.044206            0           0           0
      9.795846  1.480662 15.309488            0           0           0
      0.000000  2.961325 15.309488            0           0           0
      0.071968  1.479957 18.507861            0           0           0
      9.856497  2.959045 18.684279            0           0           0
      9.794611  1.472164 22.051086            0           0           0
      0.005201  2.956128 21.697713            0           0           0
      9.795846  4.441987  8.778924            0           0           0
      0.000000  5.922649  8.778924            0           0           0
      0.000000  4.441987 12.044206            0           0           0
      9.795846  5.922649 12.044206            0           0           0
      9.795846  4.441987 15.309488            0           0           0
      0.000000  5.922649 15.309488            0           0           0
      0.072158  4.441600 18.506207            0           0           0
      9.863173  5.922114 18.690883            0           0           0
      9.819330  4.422903 22.022877            0           0           0
      0.014476  5.923309 21.696412            0           0           0
      3.265282  7.403312  8.778924            0           0           0
      6.530564  8.883974  8.778924            0           0           0
      6.530564  7.403312 12.044206            0           0           0
      3.265282  8.883974 12.044206            0           0           0
      3.265282  7.403312 15.309488            0           0           0
      6.530564  8.883974 15.309488            0           0           0
      6.606098  7.376578 18.543868            0           0           0
      3.328948  8.882807 18.694056            0           0           0
      3.275076  7.405017 22.054318            0           0           0
      6.543343  8.886296 21.661266            0           0           0
      3.265282 10.364637  8.778924            0           0           0
      6.530564  0.000000  8.778924            0           0           0
      6.530564 10.364637 12.044206            0           0           0
      3.265282  0.000000 12.044206            0           0           0
      3.265282 10.364637 15.309488            0           0           0
      6.530564  0.000000 15.309488            0           0           0
      6.600475 10.353385 18.477586            0           0           0
[...]
      6.530564  5.922649 13.323130            0           0           0
      4.544206  4.441987 12.044206            0           0           0
      8.516922  4.441987 12.044206            0           0           0
      3.265282  5.922649 14.030564            0           0           0
      3.265282  5.922649 16.588412            0           0           0
      7.809488  4.441987 15.309488            0           0           0
      5.251640  4.441987 15.309488            0           0           0
      6.541634  5.920249 17.320617            0           0           0
      6.526828  5.927082 19.898510            0           0           0
      4.572381  4.441678 18.594417            0           0           0
      8.505107  4.441463 18.608351            0           0           0
      3.274722  5.927252 20.571028            0           0           0
      3.286747  5.921319 23.136173            0           0           0
      7.795749  4.397716 21.877119            0           0           0
      5.315513  4.430193 21.994377            0           0           0

[...]

   9 f  =    5.036632 THz    31.646094 2PiTHz  168.003971 cm-1    20.829828 meV
             X         Y         Z           dx          dy          dz
      6.695459  6.517144 24.547506     0.209366    0.313240   -0.113496
      8.038374  5.872781 23.949195     0.125749    0.124650   -0.101559
      7.036151  5.826297 23.948626     0.455891    0.764657   -0.104706
      9.795846  7.403312  8.778924            0           0           0
      0.000000  8.883974  8.778924            0           0           0
      0.000000  7.403312 12.044206            0           0           0
      9.795846  8.883974 12.044206            0           0           0
      9.795846  7.403312 15.309488            0           0           0
      0.000000  8.883974 15.309488            0           0           0
      0.073649  7.403727 18.506624            0           0           0
      9.859757  8.885204 18.685039            0           0           0
      9.811896  7.413429 22.021376            0           0           0
      0.004262  8.887018 21.698324            0           0           0
      9.795846 10.364637  8.778924            0           0           0
      0.000000  0.000000  8.778924            0           0           0
      0.000000 10.364637 12.044206            0           0           0
      9.795846  0.000000 12.044206            0           0           0
      9.795846 10.364637 15.309488            0           0           0
      0.000000  0.000000 15.309488            0           0           0
      0.071888 10.364742 18.508217            0           0           0
      9.850043  0.000227 18.693472            0           0           0
      9.796091 10.364919 22.051307            0           0           0
      0.005637 11.844142 21.696783            0           0           0
      9.795846  1.480662  8.778924            0           0           0
      0.000000  2.961325  8.778924            0           0           0
      0.000000  1.480662 12.044206            0           0           0
      9.795846  2.961325 12.044206            0           0           0
      9.795846  1.480662 15.309488            0           0           0
      0.000000  2.961325 15.309488            0           0           0
      0.071968  1.479957 18.507861            0           0           0
      9.856497  2.959045 18.684279            0           0           0
      9.794611  1.472164 22.051086            0           0           0
      0.005201  2.956128 21.697713            0           0           0
      9.795846  4.441987  8.778924            0           0           0
      0.000000  5.922649  8.778924            0           0           0
      0.000000  4.441987 12.044206            0           0           0
      9.795846  5.922649 12.044206            0           0           0
      9.795846  4.441987 15.309488            0           0           0
      0.000000  5.922649 15.309488            0           0           0
      0.072158  4.441600 18.506207            0           0           0
      9.863173  5.922114 18.690883            0           0           0
      9.819330  4.422903 22.022877            0           0           0
      0.014476  5.923309 21.696412            0           0           0
      3.265282  7.403312  8.778924            0           0           0
      6.530564  8.883974  8.778924            0           0           0
      6.530564  7.403312 12.044206            0           0           0
      3.265282  8.883974 12.044206            0           0           0
      3.265282  7.403312 15.309488            0           0           0
      6.530564  8.883974 15.309488            0           0           0
      6.606098  7.376578 18.543868            0           0           0
      3.328948  8.882807 18.694056            0           0           0
      3.275076  7.405017 22.054318            0           0           0
      6.543343  8.886296 21.661266            0           0           0
      3.265282 10.364637  8.778924            0           0           0
      6.530564  0.000000  8.778924            0           0           0
      6.530564 10.364637 12.044206            0           0           0
      3.265282  0.000000 12.044206            0           0           0
      3.265282 10.364637 15.309488            0           0           0
      6.530564  0.000000 15.309488            0           0           0
      6.600475 10.353385 18.477586            0           0           0
[...]
      6.530564  5.922649 13.323130            0           0           0
      4.544206  4.441987 12.044206            0           0           0
      8.516922  4.441987 12.044206            0           0           0
      3.265282  5.922649 14.030564            0           0           0
      3.265282  5.922649 16.588412            0           0           0
      7.809488  4.441987 15.309488            0           0           0
      5.251640  4.441987 15.309488            0           0           0
      6.541634  5.920249 17.320617            0           0           0
      6.526828  5.927082 19.898510            0           0           0
      4.572381  4.441678 18.594417            0           0           0
      8.505107  4.441463 18.608351            0           0           0
      3.274722  5.927252 20.571028            0           0           0
      3.286747  5.921319 23.136173            0           0           0
      7.795749  4.397716 21.877119            0           0           0
      5.315513  4.430193 21.994377            0           0           0

 Finite differences POTIM=   1.0000000000000000E-002