 vasp.6.3.0 20Jan22 (build Apr  1 2022 16:44:48) complex
 executed on        HPECrayEX_GCC date 2022.11.12  22:34:16

 INCAR:
   SYSTEM = MgO-rocksalt
   ISMEAR = 0
   SIGMA = 0.05
   EDIFF = 1E-6
   ALGO = ALL
   ISTART = 0
   IBRION = -1
   NSW = 0
   ISYM = 0
   DIPOL = 0.5 0.5 0.5
   IDIPOL = 3
   LDIPOL = .TRUE.
   GGA = PE
   IVDW = 1
   VDW_C6 = 1.75 0.14 0.63 0.70
   VDW_R0 = 1.452 1.001 1.243 1.342
   ENCUT = 600
   PREC = Accurate
   LASPH = .TRUE.
   LREAL = .FALSE.
   ISPIN = 1
   NELM = 200
   NELMIN = 8
   NCORE = 8
   KPAR = 1
   LWAVE = .FALSE.
   LCHARG = .FALSE.

 POTCAR:    PAW_PBE C 08Apr2002
 POTCAR:    PAW_PBE H 15Jun2001
 POTCAR:    PAW_PBE Mg_pv 13Apr2007
 POTCAR:    PAW_PBE O 08Apr2002
 POTCAR:    PAW_PBE C 08Apr2002
   VRHFIN =C: s2p2

   TITEL  = PAW_PBE C 08Apr2002
   POMASS =   12.011; ZVAL   =    4.000    mass and valenz
   ENMAX  =  400.000; ENMIN  =  300.000 eV

   TITEL  = PAW_PBE H 15Jun2001
   POMASS =    1.000; ZVAL   =    1.000    mass and valenz
   ENMAX  =  250.000; ENMIN  =  200.000 eV

   TITEL  = PAW_PBE Mg_pv 13Apr2007
   POMASS =   24.305; ZVAL   =    8.000    mass and valenz
   ENMAX  =  403.929; ENMIN  =  302.947 eV

   TITEL  = PAW_PBE O 08Apr2002
   POMASS =   16.000; ZVAL   =    6.000    mass and valenz
   ENMAX  =  400.000; ENMIN  =  300.000 eV

  PAW_PBE C 08Apr2002                   :
  PAW_PBE H 15Jun2001                   :
  PAW_PBE Mg_pv 13Apr2007               :
  PAW_PBE O 08Apr2002                   :

 POSCAR:  C  H Mg  O
  positions in direct lattice
 exchange correlation table for  LEXCH =        8
   RHO(1)=    0.500       N(1)  =     2000
   RHO(2)=  100.500       N(2)  =     4000

 ion  position               nearest neighbor table
   1  0.451  0.500  0.795-   5 1.09   3 1.09   4 1.09   2 1.51
   2  0.297  0.427  0.819-   6 1.09   7 1.09   8 1.09   1 1.51
   3  0.429  0.610  0.769-   1 1.09
   4  0.513  0.416  0.764-   1 1.09
   5  0.534  0.529  0.833-   1 1.09
   6  0.214  0.401  0.781-   2 1.09
   7  0.236  0.508  0.852-   2 1.09
   8  0.320  0.316  0.845-   2 1.09
   9  0.250  0.000  0.353-  43 2.09  44 2.09  60 2.09  41 2.09  51 2.09
  10  0.500  0.250  0.353-  59 2.09  44 2.09  52 2.09  43 2.09  42 2.09
  11  0.250  0.250  0.451-  41 2.09  42 2.09  49 2.09  58 2.09  43 2.09  47 2.09
  12  0.500  0.000  0.451-  57 2.09  42 2.09  41 2.09  44 2.09  50 2.09  48 2.10
  13  0.250  0.000  0.550-  48 2.09  47 2.09  55 2.09  64 2.09  41 2.10  45 2.12
  14  0.500  0.250  0.550-  63 2.09  56 2.09  48 2.09  47 2.09  42 2.10  46 2.12
  15  0.250  0.251  0.647-  47 2.08  62 2.08  46 2.09  45 2.09  53 2.09
  16  0.500  0.001  0.648-  46 2.09  54 2.09  48 2.09  45 2.09  61 2.09
  17  0.250  0.500  0.353-  51 2.09  43 2.09  52 2.09  68 2.09  49 2.09
  18  0.500  0.750  0.353-  52 2.09  67 2.09  51 2.09  50 2.09  44 2.09
  19  0.250  0.750  0.451-  49 2.09  50 2.09  66 2.09  51 2.09  41 2.09  55 2.09
  20  0.500  0.500  0.451-  50 2.09  65 2.09  42 2.09  49 2.09  52 2.09  56 2.10
  21  0.250  0.500  0.550-  56 2.09  55 2.09  47 2.09  72 2.09  49 2.10  53 2.12
  22  0.500  0.750  0.550-  71 2.09  48 2.09  56 2.09  55 2.09  50 2.10  54 2.12
  23  0.250  0.751  0.647-  55 2.08  70 2.08  54 2.09  53 2.09  45 2.09
  24  0.500  0.501  0.648-  54 2.09  46 2.09  56 2.09  53 2.09  69 2.09
  25  0.750  0.000  0.353-  44 2.09  59 2.09  57 2.09  60 2.09  67 2.09
  26  0.000  0.250  0.353-  43 2.09  60 2.09  68 2.09  58 2.09  59 2.09
  27  0.750  0.250  0.451-  42 2.09  57 2.09  65 2.09  59 2.09  58 2.09  63 2.10
  28  0.000  0.000  0.451-  41 2.09  58 2.09  60 2.09  57 2.09  66 2.09  64 2.09
  29  0.750  0.000  0.550-  48 2.09  63 2.09  71 2.09  64 2.09  57 2.10  61 2.12
  30  1.000  0.250  0.550-  63 2.09  72 2.09  64 2.09  47 2.09  58 2.10  62 2.12
  31  0.750  0.251  0.648-  69 2.09  61 2.09  63 2.09  62 2.09  46 2.09
  32  0.000  0.001  0.647-  64 2.08  45 2.08  61 2.09  70 2.09  62 2.09
  33  0.750  0.500  0.353-  52 2.09  67 2.09  59 2.09  65 2.09  68 2.09
  34  0.000  0.750  0.353-  68 2.09  51 2.09  66 2.09  67 2.09  60 2.09
  35  0.750  0.750  0.451-  50 2.09  65 2.09  67 2.09  66 2.09  57 2.09  71 2.10
  36  0.000  0.500  0.451-  66 2.09  58 2.09  49 2.09  68 2.09  65 2.09  72 2.09
  37  0.750  0.500  0.550-  56 2.09  71 2.09  63 2.09  72 2.09  65 2.10  69 2.12
  38  1.000  0.750  0.550-  71 2.09  72 2.09  64 2.09  55 2.09  66 2.10  70 2.12
  39  0.750  0.751  0.648-  61 2.09  69 2.09  71 2.09  70 2.09  54 2.09
  40  0.000  0.501  0.647-  72 2.08  53 2.08  69 2.09  62 2.09  70 2.09
  41  0.250  0.000  0.451-  11 2.09  12 2.09  28 2.09   9 2.09  19 2.09  13 2.10
  42  0.500  0.250  0.451-  27 2.09  12 2.09  20 2.09  11 2.09  10 2.09  14 2.10
  43  0.250  0.250  0.353-   9 2.09  10 2.09  17 2.09  26 2.09  11 2.09
  44  0.500  0.000  0.353-  25 2.09  10 2.09   9 2.09  12 2.09  18 2.09
  45  0.249  0.001  0.649-  32 2.08  15 2.09  23 2.09  16 2.09  13 2.12
  46  0.500  0.251  0.650-  16 2.09  15 2.09  24 2.09  31 2.09  14 2.12
  47  0.250  0.250  0.549-  15 2.08  21 2.09  13 2.09  14 2.09  30 2.09  11 2.09
  48  0.500  0.000  0.550-  29 2.09  13 2.09  22 2.09  14 2.09  16 2.09  12 2.10
  49  0.250  0.500  0.451-  19 2.09  11 2.09  20 2.09  36 2.09  17 2.09  21 2.10
  50  0.500  0.750  0.451-  20 2.09  35 2.09  19 2.09  18 2.09  12 2.09  22 2.10
  51  0.250  0.750  0.353-  17 2.09  18 2.09  34 2.09  19 2.09   9 2.09
  52  0.500  0.500  0.353-  18 2.09  33 2.09  10 2.09  17 2.09  20 2.09
  53  0.249  0.501  0.649-  40 2.08  23 2.09  15 2.09  24 2.09  21 2.12
  54  0.500  0.751  0.650-  24 2.09  23 2.09  16 2.09  39 2.09  22 2.12
  55  0.250  0.750  0.549-  23 2.08  21 2.09  13 2.09  22 2.09  38 2.09  19 2.09
  56  0.500  0.500  0.550-  37 2.09  21 2.09  14 2.09  22 2.09  24 2.09  20 2.10
  57  0.750  0.000  0.451-  12 2.09  27 2.09  25 2.09  28 2.09  35 2.09  29 2.10
  58  0.000  0.250  0.451-  11 2.09  28 2.09  36 2.09  26 2.09  27 2.09  30 2.10
  59  0.750  0.250  0.353-  10 2.09  25 2.09  33 2.09  27 2.09  26 2.09
  60  0.000  0.000  0.353-   9 2.09  26 2.09  28 2.09  25 2.09  34 2.09
  61  0.750  0.001  0.650-  39 2.09  32 2.09  31 2.09  16 2.09  29 2.12
  62  0.000  0.251  0.649-  15 2.08  40 2.09  32 2.09  31 2.09  30 2.12
  63  0.750  0.250  0.550-  14 2.09  30 2.09  29 2.09  37 2.09  31 2.09  27 2.10
  64  1.000  0.000  0.549-  32 2.08  38 2.09  30 2.09  29 2.09  13 2.09  28 2.09
  65  0.750  0.500  0.451-  20 2.09  35 2.09  27 2.09  33 2.09  36 2.09  37 2.10
  66  0.000  0.750  0.451-  36 2.09  19 2.09  34 2.09  35 2.09  28 2.09  38 2.10
  67  0.750  0.750  0.353-  18 2.09  33 2.09  35 2.09  34 2.09  25 2.09
  68  0.000  0.500  0.353-  34 2.09  26 2.09  17 2.09  36 2.09  33 2.09
  69  0.750  0.501  0.650-  31 2.09  40 2.09  39 2.09  24 2.09  37 2.12
  70  0.000  0.751  0.649-  23 2.08  32 2.09  40 2.09  39 2.09  38 2.12
  71  0.750  0.750  0.550-  22 2.09  38 2.09  37 2.09  29 2.09  39 2.09  35 2.10
  72  1.000  0.500  0.549-  40 2.08  30 2.09  38 2.09  37 2.09  21 2.09  36 2.09

IMPORTANT INFORMATION: All symmetrisations will be switched off!
NOSYMM: (Re-)initialisation of all symmetry stuff for point group C_1.

                                     Primitive cell

  volume of cell :    1482.1129

  direct lattice vectors                    reciprocal lattice vectors
     8.349111827  0.000000000  0.000000000     0.119773219  0.000000000  0.000000000
     0.000000000  8.349111827  0.000000000     0.000000000  0.119773219  0.000000000
     0.000000000  0.000000000 21.261833870     0.000000000  0.000000000  0.047032632

  length of vectors
     8.349111827  8.349111827 21.261833870     0.119773219  0.119773219  0.047032632

  position of ions in fractional coordinates (direct lattice)
     0.450863258  0.499800863  0.794829040
     0.297025587  0.427253550  0.819452779
     0.428743951  0.610190325  0.768653374
     0.512991911  0.415557173  0.763892356
     0.533685446  0.529054852  0.832835446
     0.214288055  0.401314744  0.781048453
     0.235701823  0.508338282  0.851723120
     0.319570976  0.315529137  0.844606823
     0.250000245  0.000000000  0.352744737
     0.500000489  0.250000245  0.352744737
     0.250000245  0.250000245  0.450915008
     0.500000489  0.000000000  0.450915008
     0.250142250  0.000395631  0.549666040
     0.500178303  0.250433109  0.549879424
     0.249766681  0.250701938  0.646966194
     0.499604381  0.000884115  0.647855093
     0.250000245  0.500000489  0.352744737
     0.500000489  0.749999536  0.352744737
     0.250000245  0.749999536  0.450915008
     0.500000489  0.500000489  0.450915008
     0.250134043  0.500396655  0.549666850
     0.500178456  0.750421910  0.549878367
     0.249766326  0.750704710  0.646966606
     0.499605858  0.500884173  0.647859919
     0.749999536  0.000000000  0.352744737
     0.000000000  0.250000245  0.352744737
     0.749999536  0.250000245  0.450915008
     0.000000000  0.000000000  0.450915008
     0.749734738  0.000427711  0.549878320
     0.999785017  0.250414276  0.549668534
     0.750227113  0.250889483  0.647884412
     0.000090467  0.000708863  0.646959371
     0.749999536  0.500000489  0.352744737
     0.000000000  0.749999536  0.352744737
     0.749999536  0.749999536  0.450915008
     0.000000000  0.500000489  0.450915008
     0.749744888  0.500427746  0.549885405
     0.999784933  0.750384903  0.549669449
     0.750227814  0.750890631  0.647884399
     0.000087848  0.500708496  0.646976660
     0.250000245  0.000000000  0.450915008
     0.500000489  0.250000245  0.450915008
     0.250000245  0.250000245  0.352744737
     0.500000489  0.000000000  0.352744737
     0.249364476  0.000730230  0.649391864
     0.499596950  0.250761746  0.649682668
     0.250021477  0.250396151  0.549345346
     0.499965977  0.000413963  0.549603059
     0.250000245  0.500000489  0.450915008
     0.500000489  0.749999536  0.450915008
     0.250000245  0.749999536  0.352744737
     0.500000489  0.500000489  0.352744737
     0.249352349  0.500730171  0.649387898
     0.499596978  0.750753488  0.649681921
     0.250022985  0.750384643  0.549345229
     0.499955508  0.500415948  0.549590505
     0.749999536  0.000000000  0.450915008
     0.000000000  0.250000245  0.450915008
     0.749999536  0.250000245  0.352744737
     0.000000000  0.000000000  0.352744737
     0.750221960  0.000762759  0.649692654
     0.000499707  0.250743453  0.649434586
     0.749972194  0.250410080  0.549607323
     0.999880445  0.000394031  0.549345760
     0.749999536  0.500000489  0.450915008
     0.000000000  0.749999536  0.450915008
     0.749999536  0.749999536  0.352744737
     0.000000000  0.500000489  0.352744737
     0.750231895  0.500762240  0.649685136
     0.000499983  0.750726359  0.649434558
     0.749971042  0.750420115  0.549607142
     0.999893731  0.500393302  0.549354902

  ion indices of the primitive-cell ions
   primitive index   ion index
                 1           1
                 2           2
                 3           3
                 4           4
                 5           5
                 6           6
                 7           7
                 8           8
                 9           9
                10          10
                11          11
[...]
   2.08187064  4.18065219 13.80717761
   4.17119104  6.26812483 13.81342907
   2.08746986  6.26504530 11.68008700
   4.17418445  4.17802871 11.68530202
   6.26183000  0.00000000  9.58728000
   0.00000000  2.08728000  9.58728000
   6.26183000  2.08728000  7.50000000
   0.00000000  0.00000000  7.50000000
   6.26368704  0.00636836 13.81365727
   0.00417211  2.09348513 13.80817028
   6.26160171  2.09070176 11.68565959
   8.34811365  0.00328981 11.68009829
   6.26183000  4.17456000  9.58728000
   0.00000000  6.26183000  9.58728000
   6.26183000  6.26183000  7.50000000
   0.00000000  4.17456000  7.50000000
   6.26376998  4.18091994 13.81349742
   0.00417442  6.26789832 13.80816968
   6.26159210  6.26534146 11.68565574
   8.34822457  4.17783963 11.68029266

--------------------------------------- Iteration      FINAL  ---------------------------------------

--------------------OUTCAR has been truncated-------------------------

[...]

--------------------OUTCAR has been truncated-------------------------

  DFT-D2 method for vdW energy calculation

  Parameters of vdW forcefield:
         C6(Jnm^6/mol)     R0(A)
   C        1.750          1.452
   H        0.140          1.001
   Mg       0.630          1.243
   O        0.700          1.342

  vdW correction parametrized for the method pbe

  IVDW =   1
  VDW_RADIUS =    50.000 A
  VDW_S6 =     0.750
  VDW_SR =     1.000
  VDW_D =    20.000
  LVDW_EWALD = F

  Number of pair interactions contributing to vdW energy:  935712
  Edisp (eV):   -3.99349

  FORCE on cell =-STRESS in cart. coord.  units (eV):
  Direction    XX          YY          ZZ          XY          YZ          ZX
  Alpha Z   942.93445   942.93445   942.93445
  Ewald  160763.73557160663.08555************    50.10574   -19.63542   -47.62842
  Hartree171008.79517170930.41272************    37.28524   -14.93772   -34.84844
  E(xc)   -2509.71945 -2509.75489 -2514.89467     0.03231    -0.00911    -0.02651
  Local  ************************341613.88475   -89.63423    35.36553    84.15800
  n-local -2835.38741 -2836.13452 -2857.33568     0.45194    -0.08422    -0.44129
  augment  1047.36651  1047.33371  1037.87110     0.02307     0.01216    -0.01836
  Kinetic  7511.05462  7508.25849  7546.74499     1.74918    -1.17777    -1.09898
  Fock        0.00000     0.00000     0.00000     0.00000     0.00000     0.00000
  vdW        -5.62543    -5.58203    -4.91364    -0.02746     0.01088     0.02517
  Total      -3.26564    -3.34632    16.44727    -0.01421    -0.45567     0.12118
  in kB      -3.53019    -3.61740    17.77964    -0.01536    -0.49259     0.13100

 VOLUME and BASIS-vectors are now :
  energy-cutoff  :      600.00
  volume of cell :     1482.11
      direct lattice vectors                 reciprocal lattice vectors
     8.349111827  0.000000000  0.000000000     0.119773219  0.000000000  0.000000000
     0.000000000  8.349111827  0.000000000     0.000000000  0.119773219  0.000000000
     0.000000000  0.000000000 21.261833870     0.000000000  0.000000000  0.047032632

  length of vectors
     8.349111827  8.349111827 21.261833870     0.119773219  0.119773219  0.047032632

 FORCES acting on ions:
    Electron-Ion                     Ewald-Force                    Non-Local-Force
   -.633E+02 -.308E+02 -.927E+03   0.632E+02 0.310E+02 0.927E+03   0.200E+00 -.146E+00 -.942E-01
   0.639E+02 0.304E+02 -.871E+03   -.641E+02 -.305E+02 0.871E+03   0.124E+00 0.556E-01 0.703E-01
   0.253E+01 -.522E+02 -.235E+03   -.346E+01 0.572E+02 0.232E+03   0.911E+00 -.475E+01 0.282E+01
   -.347E+02 0.337E+02 -.235E+03   0.375E+02 -.375E+02 0.231E+03   -.266E+01 0.363E+01 0.324E+01
   -.437E+02 -.166E+02 -.236E+03   0.475E+02 0.179E+02 0.241E+03   -.357E+01 -.127E+01 -.412E+01
   0.440E+02 0.152E+02 -.213E+03   -.477E+02 -.163E+02 0.209E+03   0.357E+01 0.108E+01 0.418E+01
   0.344E+02 -.323E+02 -.215E+03   -.372E+02 0.359E+02 0.219E+03   0.265E+01 -.344E+01 -.352E+01
   -.238E+01 0.528E+02 -.215E+03   0.332E+01 -.578E+02 0.218E+03   -.925E+00 0.478E+01 -.274E+01
   0.366E-01 0.523E-01 0.214E+04   -.349E-01 -.514E-01 -.213E+04   -.126E-02 -.727E-03 -.709E+01
   -.268E+00 0.256E+00 0.214E+04   0.270E+00 -.255E+00 -.213E+04   -.156E-02 -.110E-02 -.710E+01
   0.163E+00 0.107E+01 0.746E+03   -.147E+00 -.105E+01 -.746E+03   -.113E-01 -.118E-01 0.473E+00
   -.103E+01 0.212E+00 0.743E+03   0.104E+01 -.195E+00 -.744E+03   -.920E-02 -.110E-01 0.544E+00
   0.160E+01 0.101E+01 -.639E+03   -.153E+01 -.101E+01 0.640E+03   -.675E-01 0.333E-02 -.253E+00
   -.378E+01 0.549E+01 -.636E+03   0.384E+01 -.549E+01 0.636E+03   -.541E-01 0.145E-02 -.268E+00
   0.142E+02 0.272E+02 -.199E+04   -.143E+02 -.272E+02 0.198E+04   0.125E+00 -.876E-02 0.605E+01
   -.833E+01 0.404E+01 -.203E+04   0.827E+01 -.406E+01 0.202E+04   0.682E-01 0.158E-03 0.619E+01
   0.594E-01 -.468E-01 0.214E+04   -.576E-01 0.478E-01 -.213E+04   -.133E-02 -.885E-03 -.709E+01
   -.263E+00 -.256E+00 0.214E+04   0.265E+00 0.257E+00 -.213E+04   -.159E-02 -.289E-03 -.710E+01
   0.163E+00 -.994E+00 0.745E+03   -.147E+00 0.101E+01 -.746E+03   -.111E-01 -.895E-02 0.469E+00
   -.117E+01 -.139E+00 0.745E+03   0.118E+01 0.156E+00 -.746E+03   -.913E-02 -.117E-01 0.537E+00
   0.330E+01 -.104E+01 -.629E+03   -.326E+01 0.105E+01 0.629E+03   -.479E-01 -.471E-02 -.326E+00
   -.348E+01 -.549E+01 -.638E+03   0.352E+01 0.549E+01 0.638E+03   -.492E-01 -.495E-02 -.288E+00
   0.144E+02 -.257E+02 -.200E+04   -.145E+02 0.256E+02 0.200E+04   0.129E+00 0.397E-01 0.608E+01
   -.205E+02 -.486E+01 -.196E+04   0.204E+02 0.491E+01 0.195E+04   0.719E-01 -.388E-01 0.587E+01
   -.397E-01 0.475E-01 0.214E+04   0.375E-01 -.466E-01 -.213E+04   0.176E-02 -.756E-03 -.710E+01
   0.271E+00 0.233E+00 0.214E+04   -.272E+00 -.232E+00 -.213E+04   0.136E-02 -.963E-03 -.709E+01
   -.154E+00 0.925E+00 0.743E+03   0.138E+00 -.906E+00 -.744E+03   0.111E-01 -.125E-01 0.547E+00
   0.100E+01 0.212E+00 0.743E+03   -.102E+01 -.196E+00 -.744E+03   0.135E-01 -.102E-01 0.477E+00
   -.151E+01 0.658E+00 -.646E+03   0.145E+01 -.659E+00 0.647E+03   0.586E-01 -.399E-03 -.256E+00
   0.366E+01 0.383E+01 -.639E+03   -.372E+01 -.381E+01 0.639E+03   0.611E-01 -.151E-01 -.237E+00
   -.140E+02 0.169E+02 -.202E+04   0.141E+02 -.168E+02 0.202E+04   -.770E-01 -.448E-01 0.618E+01
   0.844E+01 0.328E+01 -.203E+04   -.831E+01 -.331E+01 0.203E+04   -.126E+00 0.250E-01 0.603E+01
   -.624E-01 -.417E-01 0.214E+04   0.601E-01 0.428E-01 -.213E+04   0.180E-02 -.989E-03 -.710E+01
   0.266E+00 -.234E+00 0.214E+04   -.267E+00 0.234E+00 -.213E+04   0.139E-02 -.302E-03 -.709E+01
   -.153E+00 -.854E+00 0.743E+03   0.137E+00 0.869E+00 -.743E+03   0.111E-01 -.968E-02 0.546E+00
   0.114E+01 -.138E+00 0.745E+03   -.116E+01 0.155E+00 -.745E+03   0.136E-01 -.111E-01 0.468E+00
   -.316E+01 -.747E+00 -.639E+03   0.312E+01 0.749E+00 0.639E+03   0.434E-01 -.166E-02 -.304E+00
   0.331E+01 -.375E+01 -.641E+03   -.337E+01 0.373E+01 0.641E+03   0.589E-01 0.138E-01 -.251E+00
   -.132E+02 -.158E+02 -.203E+04   0.133E+02 0.157E+02 0.202E+04   -.681E-01 0.151E-01 0.615E+01
   0.176E+02 -.442E+01 -.201E+04   -.175E+02 0.443E+01 0.200E+04   -.130E+00 -.677E-03 0.606E+01
   0.746E-01 0.179E+00 0.558E+03   -.798E-01 -.200E+00 -.558E+03   0.710E-02 0.273E-01 -.745E-01
   -.813E+00 0.833E+00 0.558E+03   0.802E+00 -.853E+00 -.558E+03   0.149E-01 0.265E-01 -.115E+00
   0.358E-01 0.188E+00 0.161E+04   -.339E-01 -.188E+00 -.161E+04   -.267E-02 0.174E-03 0.347E+01
   -.193E+00 0.356E-01 0.160E+04   0.194E+00 -.364E-01 -.161E+04   -.278E-02 0.110E-02 0.346E+01
   0.543E+01 0.392E+01 -.154E+04   -.544E+01 -.392E+01 0.154E+04   0.711E-01 -.117E-01 -.508E+01
   -.117E+02 0.239E+02 -.151E+04   0.117E+02 -.237E+02 0.152E+04   0.273E-01 -.161E+00 -.498E+01
   0.179E+01 0.389E+01 -.468E+03   -.179E+01 -.387E+01 0.468E+03   0.465E-02 -.237E-01 0.386E+00
   -.224E+01 0.643E+00 -.477E+03   0.223E+01 -.645E+00 0.476E+03   0.132E-01 0.342E-02 0.214E+00
   0.217E+00 -.109E+00 0.559E+03   -.223E+00 0.900E-01 -.559E+03   0.794E-02 0.251E-01 -.805E-01
   -.788E+00 -.759E+00 0.557E+03   0.776E+00 0.736E+00 -.557E+03   0.154E-01 0.304E-01 -.116E+00
   0.356E-01 -.192E+00 0.161E+04   -.337E-01 0.191E+00 -.161E+04   -.266E-02 0.150E-02 0.346E+01
   -.206E+00 -.350E-01 0.161E+04   0.208E+00 0.343E-01 -.161E+04   -.278E-02 0.901E-03 0.346E+01
   0.188E+02 -.532E+01 -.150E+04   -.187E+02 0.533E+01 0.150E+04   -.791E-01 -.150E-01 -.527E+01
   -.984E+01 -.235E+02 -.152E+04   0.990E+01 0.234E+02 0.153E+04   -.364E-01 0.951E-01 -.502E+01
   0.178E+01 -.388E+01 -.470E+03   -.178E+01 0.386E+01 0.469E+03   -.246E-04 0.179E-01 0.376E+00
   -.317E+01 -.662E+00 -.468E+03   0.316E+01 0.668E+00 0.468E+03   0.176E-01 -.851E-02 0.207E+00
   -.752E-01 0.157E+00 0.556E+03   0.889E-01 -.178E+00 -.556E+03   -.185E-01 0.287E-01 -.113E+00
   0.800E+00 0.689E+00 0.558E+03   -.789E+00 -.707E+00 -.558E+03   -.139E-01 0.236E-01 -.750E-01
   -.379E-01 0.175E+00 0.160E+04   0.360E-01 -.175E+00 -.161E+04   0.276E-02 0.276E-03 0.346E+01
   0.195E+00 0.355E-01 0.160E+04   -.197E+00 -.362E-01 -.161E+04   0.235E-02 0.102E-02 0.347E+01
   -.541E+01 0.161E+01 -.155E+04   0.537E+01 -.157E+01 0.155E+04   0.770E-02 -.353E-01 -.492E+01
   0.113E+02 0.115E+02 -.154E+04   -.113E+02 -.115E+02 0.154E+04   -.554E-01 -.221E-01 -.507E+01
   -.174E+01 0.302E+01 -.476E+03   0.174E+01 -.301E+01 0.476E+03   -.584E-02 -.179E-01 0.217E+00
   0.219E+01 0.588E+00 -.476E+03   -.218E+01 -.588E+00 0.475E+03   -.659E-02 0.862E-03 0.403E+00
   -.216E+00 -.801E-01 0.557E+03   0.230E+00 0.589E-01 -.557E+03   -.196E-01 0.279E-01 -.119E+00
   0.773E+00 -.619E+00 0.558E+03   -.763E+00 0.597E+00 -.557E+03   -.148E-01 0.294E-01 -.766E-01
   -.377E-01 -.179E+00 0.160E+04   0.358E-01 0.178E+00 -.161E+04   0.273E-02 0.158E-02 0.346E+01
   0.208E+00 -.346E-01 0.161E+04   -.210E+00 0.340E-01 -.161E+04   0.232E-02 0.795E-03 0.346E+01
   -.166E+02 -.264E+01 -.153E+04   0.165E+02 0.270E+01 0.153E+04   0.871E-01 -.761E-01 -.504E+01
   0.867E+01 -.107E+02 -.154E+04   -.866E+01 0.107E+02 0.155E+04   -.584E-01 0.160E-01 -.509E+01
   -.170E+01 -.297E+01 -.477E+03   0.171E+01 0.297E+01 0.477E+03   -.763E-02 0.912E-02 0.214E+00
   0.306E+01 -.664E+00 -.471E+03   -.304E+01 0.669E+00 0.470E+03   -.186E-01 -.730E-02 0.359E+00
   -.243E+00 0.185E+00 0.176E+02   -.270E-12 -.853E-13 -.523E-11   0.242E+00 -.181E+00 -.176E+02

 POSITION                                       TOTAL-FORCE (eV/Angst)
      3.76431      4.17289     16.89952         0.118918      0.041626     -0.000503
      2.47990      3.56719     17.42307        -0.102912     -0.046422      0.049575
      3.57963      5.09455     16.34298        -0.039983      0.231050     -0.166077
      4.28303      3.46953     16.24175         0.142043     -0.195840     -0.192207
      4.45580      4.41714     17.70761         0.190239      0.066659      0.224212
      1.78911      3.35062     16.60652        -0.191178     -0.061695     -0.246627
      1.96790      4.24417     18.10920        -0.126534      0.176868      0.185494
      2.66813      2.63439     17.95789         0.041418     -0.231486      0.140516
      2.08728      0.00000      7.50000         0.000435      0.000127      0.188654
      4.17456      2.08728      7.50000         0.000409      0.000290      0.189980
      2.08728      2.08728      9.58728         0.004758      0.005544      0.038485
      4.17456      0.00000      9.58728         0.003375      0.005382      0.051155
      2.08847      0.00330     11.68691         0.000584     -0.001784      0.017730
      4.17604      2.09089     11.69144         0.000580     -0.000700      0.013539
      2.08533      2.09314     13.75569        -0.000840      0.006561      0.226127
      4.17125      0.00738     13.77459         0.005384     -0.017865      0.096641
      2.08728      4.17456      7.50000         0.000450      0.000083      0.189078
      4.17456      6.26183      7.50000         0.000444      0.000059      0.190088
      2.08728      6.26183      9.58728         0.004673      0.004436      0.039351
      4.17456      4.17456      9.58728         0.003415      0.005581      0.051710
      2.08840      4.17787     11.68693        -0.004249      0.000930      0.033331
      4.17605      6.26536     11.69142        -0.001147      0.000111      0.018226
      2.08533      6.26772     13.75570        -0.009602     -0.010042      0.204924
      4.17127      4.18194     13.77469        -0.004866      0.006826      0.226215
      6.26183      0.00000      7.50000        -0.000477      0.000122      0.189796
      0.00000      2.08728      7.50000        -0.000411      0.000255      0.188697
      6.26183      2.08728      9.58728        -0.004425      0.006111      0.051082
      0.00000      0.00000      9.58728        -0.005725      0.004878      0.037109
      6.25962      0.00357     11.69142        -0.001200     -0.000922      0.011993
      8.34732      2.09074     11.68696         0.000874      0.003013      0.019005
      6.26373      2.09470     13.77521         0.000798     -0.004610      0.095005
      0.00076      0.00592     13.75554         0.004456     -0.003318      0.233643
      6.26183      4.17456      7.50000        -0.000522      0.000127      0.190224
      0.00000      6.26183      7.50000        -0.000429      0.000056      0.188825
      6.26183      6.26183      9.58728        -0.004403      0.004906      0.051349
      0.00000      4.17456      9.58728        -0.005778      0.005185      0.040722
      6.25970      4.17813     11.69157         0.002053     -0.000211      0.020624
      8.34732      6.26505     11.68698         0.001396     -0.003917      0.021898
      6.26374      6.26927     13.77521        -0.007304     -0.027550      0.113706
      0.00073      4.18047     13.75591         0.002340      0.005500      0.217676
      2.08728      0.00000      9.58728         0.001952      0.006735      0.070861
      4.17456      2.08728      9.58728         0.004090      0.006383      0.083545
      2.08728      2.08728      7.50000        -0.000761      0.000035     -0.669842
      4.17456      0.00000      7.50000        -0.000869      0.000290     -0.670614
      2.08197      0.00610     13.80726         0.056491     -0.005922      0.176015
      4.17119      2.09364     13.81344         0.036114     -0.034450      0.184472
      2.08746      2.09059     11.68009        -0.000333     -0.006330     -0.008508
      4.17427      0.00346     11.68557         0.002042      0.001554     -0.007738
      2.08728      4.17456      9.58728         0.002149      0.006052      0.069135
      4.17456      6.26183      9.58728         0.004228      0.007654      0.083044
      2.08728      6.26183      7.50000        -0.000767      0.000484     -0.669951
      4.17456      4.17456      7.50000        -0.000861      0.000179     -0.670909
      2.08187      4.18065     13.80718         0.015605     -0.006586      0.122469
      4.17119      6.26812     13.81343         0.020027      0.036826      0.174620
      2.08747      6.26505     11.68009        -0.001847      0.005351     -0.011525
      4.17418      4.17803     11.68530         0.004016     -0.002283     -0.004636
      6.26183      0.00000      9.58728        -0.004896      0.007061      0.083875
      0.00000      2.08728      9.58728        -0.003698      0.005666      0.070987
      6.26183      2.08728      7.50000         0.000877      0.000068     -0.670619
      0.00000      0.00000      7.50000         0.000674      0.000262     -0.669723
      6.26369      0.00637     13.81366        -0.026184      0.001449      0.196068
      0.00417      2.09349     13.80817        -0.051330     -0.008705      0.177410
      6.26160      2.09070     11.68566        -0.001729     -0.003907     -0.003194
      8.34811      0.00329     11.68010         0.001716      0.000732     -0.005544
      6.26183      4.17456      9.58728        -0.005168      0.006761      0.082949
      0.00000      6.26183      9.58728        -0.003951      0.007401      0.070629
      6.26183      6.26183      7.50000         0.000874      0.000502     -0.670733
      0.00000      4.17456      7.50000         0.000657      0.000148     -0.670022
      6.26377      4.18092     13.81350        -0.008690     -0.010618      0.169996
      0.00417      6.26790     13.80817        -0.052705      0.000872      0.168676
      6.26159      6.26534     11.68566        -0.002095      0.002155     -0.004097
      8.34822      4.17784     11.68029        -0.002684     -0.001738     -0.018068
    total drift:                               -0.000496      0.003697      0.010635

  FREE ENERGIE OF THE ION-ELECTRON SYSTEM (eV)
  free  energy   TOTEN  =      -416.58525218 eV

  energy  without entropy=     -416.58525218  energy(sigma->0) =     -416.58525218