 vasp.6.3.0 20Jan22 (build Aug 21 2024 11:13:42) complex
 executed on        HPECrayEX_GCC date 2024.11.27  23:08:09

 INCAR:
   SYSTEM = TiO2
   ISMEAR = 0
   SIGMA = 0.05
   EDIFF = 1E-4
   ALGO = Normal
   IBRION = -1
   NSW = 0
   ISYM = 0
   ISIF = 2
   EDIFFG = -0.01
   DIPOL = 0.5 0.5 0.5
   IDIPOL = 3
   LDIPOL = .TRUE.
   LHFCALC = .TRUE.
   HFSCREEN = 0.2
   GGA = PE
   IVDW = 13
   VDW_S8 = 1.19528249
   VDW_A1 = 0.38663183
   VDW_A2 = 5.19133469
   ENCUT = 520
   PREC = Normal
   PRECFOCK = Fast
   LASPH = .TRUE.
   LREAL = .FALSE.
   ISPIN = 1
   NKREDX = 2
   NKREDY = 2
   NELM = 200
   NELMIN = 8
   NCORE = 16
   KPAR = 1
   LWAVE = .FALSE.
   LCHARG = .FALSE.

 POTCAR:    PAW_PBE Ti 08Apr2002
 POTCAR:    PAW_PBE O 08Apr2002
 POTCAR:    PAW_PBE Ti 08Apr2002
   VRHFIN =Ti: d3 s1

   TITEL  = PAW_PBE Ti 08Apr2002
   POMASS =   47.880; ZVAL   =    4.000    mass and valenz
   ENMAX  =  178.330; ENMIN  =  133.747 eV

   TITEL  = PAW_PBE O 08Apr2002
   POMASS =   16.000; ZVAL   =    6.000    mass and valenz
   ENMAX  =  400.000; ENMIN  =  300.000 eV

  PAW_PBE Ti 08Apr2002                  :
  PAW_PBE O 08Apr2002                   :

 POSCAR: Ti  O
  positions in direct lattice
 WARNING: Using user supplied parameters
     VDW_S8 = 1.195
     VDW_A1 = 0.387
     VDW_A2 = 5.191
     because the xc functional is not supported. Required parameters not
     defined in the INCAR file will be replaced with PBE defaults ones.

 ion  position               nearest neighbor table
   1  0.750  0.625  0.287-  81 1.96  82 1.96 141 1.96 142 1.96  84 1.98 163 1.98  11 2.97  31 2.97

   2  0.000  0.750  0.287-  83 1.96  84 1.96 103 1.96 104 1.96  85 1.98  32 2.97  12 2.97
   3  0.000  0.625  0.393-  85 1.96  86 1.96 145 1.96 146 1.96  87 1.98  88 1.98  13 2.97  33 2.97

[...]

  80  0.500  0.499  0.710- 234 1.83 240 1.95 239 1.95 180 1.96 179 1.96  70 2.96  50 2.99
  81  0.750  0.750  0.245-   1 1.96  11 1.96
  82  0.750  0.750  0.329-   1 1.96  11 1.96   4 1.98
  83  0.098  0.625  0.287-   2 1.96  32 1.96  41 1.98
  84  0.902  0.625  0.287-   2 1.96  32 1.96   1 1.98
  85  0.000  0.750  0.352-   3 1.96  13 1.96   2 1.98
  86  0.000  0.750  0.435-   3 1.96  13 1.96   6 1.98
  87  0.848  0.625  0.393-   4 1.96  34 1.96   3 1.98
  88  0.152  0.625  0.393-  44 1.96  74 1.96   3 1.98
  89  0.750  0.750  0.458-   5 1.96  15 1.96   4 1.98
  90  0.750  0.750  0.542-   5 1.96  15 1.96   8 2.11
  91  0.098  0.625  0.500-   6 1.96  36 1.96  45 1.98
  92  0.902  0.625  0.500-   6 1.96  36 1.96   5 1.98
  93  1.000  0.750  0.566-   7 1.90  17 1.90   6 2.01
  94  1.000  0.750  0.649-  10 1.81  17 2.02   7 2.02
  95  0.850  0.625  0.607-   7 1.96   8 1.98  38 1.98
  96  0.150  0.625  0.607-   7 1.96  78 1.98  48 1.98
  97  0.750  0.750  0.672-   8 1.87   9 2.10  19 2.11
  98  0.750  0.750  0.756-   9 1.83  19 1.84
  99  0.094  0.625  0.719-  40 1.95  10 1.95  49 2.04
 100  0.906  0.625  0.719-  40 1.95  10 1.95   9 2.04
 101  0.750  0.000  0.245-  11 1.96  21 1.96
 102  0.750  0.000  0.329-  11 1.96  21 1.96  14 1.98
 103  0.098  0.875  0.287-   2 1.96  12 1.96  51 1.98
 104  0.902  0.875  0.287-   2 1.96  12 1.96  11 1.98
 105  0.000  0.000  0.352-  13 1.96  23 1.96  12 1.98
 106  0.000  0.000  0.435-  13 1.96  23 1.96  16 1.98
 107  0.848  0.875  0.393-   4 1.96  14 1.96  13 1.98
 108  0.152  0.875  0.393-  44 1.96  54 1.96  13 1.98
 109  0.750  0.000  0.458-  15 1.96  25 1.96  14 1.98
 110  0.750  0.000  0.542-  15 1.96  25 1.96  18 2.11
 111  0.098  0.875  0.500-   6 1.96  16 1.96  55 1.98
 112  0.902  0.875  0.500-   6 1.96  16 1.96  15 1.98
 113  1.000  0.000  0.566-  17 1.90  27 1.90  16 2.01
 114  1.000  0.000  0.649-  20 1.81  27 2.02  17 2.02
 115  0.850  0.875  0.607-  17 1.96   8 1.98  18 1.98
 116  0.150  0.875  0.607-  17 1.96  48 1.98  58 1.98
 117  0.750  0.000  0.672-  18 1.87  19 2.10  29 2.11
 118  0.750  0.000  0.756-  19 1.83  29 1.84
 119  0.094  0.875  0.719-  10 1.95  20 1.95  59 2.04
 120  0.906  0.875  0.719-  10 1.95  20 1.95  19 2.04
 121  0.750  0.250  0.245-  21 1.96  31 1.96
 122  0.750  0.250  0.329-  21 1.96  31 1.96  24 1.98
 123  0.098  0.125  0.287-  12 1.96  22 1.96  61 1.98
 124  0.902  0.125  0.287-  12 1.96  22 1.96  21 1.98
 125  0.000  0.250  0.352-  23 1.96  33 1.96  22 1.98
 126  0.000  0.250  0.435-  23 1.96  33 1.96  26 1.98
 127  0.848  0.125  0.393-  14 1.96  24 1.96  23 1.98
 128  0.152  0.125  0.393-  54 1.96  64 1.96  23 1.98
 129  0.750  0.250  0.458-  25 1.96  35 1.96  24 1.98
 130  0.750  0.250  0.542-  25 1.96  35 1.96  28 2.11
 131  0.098  0.125  0.500-  16 1.96  26 1.96  65 1.98
 132  0.902  0.125  0.500-  16 1.96  26 1.96  25 1.98
 133  1.000  0.250  0.566-  37 1.90  27 1.90  26 2.01
 134  1.000  0.250  0.649-  30 1.81  37 2.02  27 2.02
 135  0.850  0.125  0.607-  27 1.96  18 1.98  28 1.98
 136  0.150  0.125  0.607-  27 1.96  58 1.98  68 1.98
 137  0.751  0.250  0.672-  28 1.87  29 2.10  39 2.11
 138  0.750  0.251  0.756-  29 1.83  39 1.84
 139  0.094  0.125  0.719-  30 1.95  20 1.95  69 2.04
[...]
 226  0.500  0.500  0.435-  43 1.96  73 1.96  76 1.98
 227  0.348  0.375  0.393-  64 1.96  74 1.96  73 1.98
 228  0.652  0.375  0.393-  24 1.96  34 1.96  73 1.98
 229  0.250  0.500  0.458-  45 1.96  75 1.96  74 1.98
 230  0.250  0.500  0.542-  45 1.96  75 1.96  78 2.11
 231  0.598  0.375  0.500-  66 1.96  76 1.96  35 1.98
 232  0.402  0.375  0.500-  66 1.96  76 1.96  75 1.98
 233  0.500  0.500  0.566-  77 1.90  47 1.90  76 2.01
 234  0.500  0.500  0.650-  80 1.83  47 2.02  77 2.02
 235  0.350  0.375  0.607-  77 1.96  78 1.98  68 1.98
 236  0.650  0.375  0.607-  77 1.96  38 1.98  28 1.98
 237  0.249  0.500  0.672-  78 1.87  79 2.10  49 2.10
 238  0.251  0.501  0.756-  79 1.84  49 1.84
 239  0.594  0.374  0.718-  70 1.95  80 1.95  39 2.04
 240  0.406  0.374  0.718-  70 1.95  80 1.95  79 2.04

IMPORTANT INFORMATION: All symmetrisations will be switched off!
NOSYMM: (Re-)initialisation of all symmetry stuff for point group C_1.

                                     Primitive cell

  volume of cell :    4740.1649

  direct lattice vectors                    reciprocal lattice vectors
    13.042933829  0.000000000  0.000000000     0.076669867  0.000000000  0.000000000
     0.000000000 11.878216733  0.000000000     0.000000000  0.084187721  0.000000000
     0.000000000  0.000000000 30.596159140     0.000000000  0.000000000  0.032683841

  length of vectors
    13.042933829 11.878216733 30.596159140     0.076669867  0.084187721  0.032683841

  position of ions in fractional coordinates (direct lattice)
     0.750000000  0.625000000  0.286853412
     0.000000000  0.750000000  0.286853412
     0.000000000  0.625000000  0.393426706
     0.750000000  0.750000000  0.393426706
     0.750000000  0.625000000  0.500000000
     0.000000000  0.750000000  0.500000000
     0.000043924  0.625178631  0.604449050
     0.750075519  0.750224533  0.610697483
     0.750209880  0.625748007  0.720239460
     0.999996712  0.750451044  0.708594158
     0.750000000  0.875000000  0.286853412
     0.000000000  0.000000000  0.286853412
     0.000000000  0.875000000  0.393426706
     0.750000000  0.000000000  0.393426706
     0.750000000  0.875000000  0.500000000
     0.000000000  0.000000000  0.500000000
     0.000047150  0.875170496  0.604476035
     0.749996417  0.000206366  0.610780742
     0.749852630  0.875624897  0.720539469
     0.999996694  0.000319484  0.708622103
     0.750000000  0.125000000  0.286853412
     0.000000000  0.250000000  0.286853412
     0.000000000  0.125000000  0.393426706
     0.750000000  0.250000000  0.393426706
     0.750000000  0.125000000  0.500000000
     0.000000000  0.250000000  0.500000000
     0.000041024  0.125126742  0.604477991
     0.750091615  0.250170038  0.610771117
     0.749929091  0.125567196  0.720501838
     0.999996880  0.250246741  0.708607641
     0.750000000  0.375000000  0.286853412
     0.000000000  0.500000000  0.286853412
     0.000000000  0.375000000  0.393426706
     0.750000000  0.500000000  0.393426706
     0.750000000  0.375000000  0.500000000
     0.000000000  0.500000000  0.500000000
     0.000038565  0.375141681  0.604451020
     0.750069191  0.500193752  0.610727252
     0.750227616  0.375588714  0.720439397
     0.999996845  0.500389543  0.708577440
     0.250000000  0.625000000  0.286853412
     0.500000000  0.750000000  0.286853412
     0.500000000  0.625000000  0.393426706
     0.250000000  0.750000000  0.393426706
     0.250000000  0.625000000  0.500000000
     0.500000000  0.750000000  0.500000000
     0.500044663  0.624598327  0.604803382
     0.249999430  0.750224147  0.610697510
     0.249783596  0.625747933  0.720239461
     0.499996553  0.750721495  0.708204858
     0.250000000  0.875000000  0.286853412
     0.500000000  0.000000000  0.286853412
     0.500000000  0.875000000  0.393426706
     0.250000000  0.000000000  0.393426706
     0.250000000  0.875000000  0.500000000
     0.500000000  0.000000000  0.500000000
     0.500047216  0.874928350  0.604182258
     0.250074327  0.000206546  0.610780694
     0.250140591  0.875624922  0.720539408
     0.499996767  0.000289770  0.708331140
[...]
     0.500000000  0.500000000  0.435151311
     0.347877722  0.375000000  0.393426706
     0.652122278  0.375000000  0.393426706
     0.250000000  0.500000000  0.458275395
     0.250000000  0.500000000  0.541724605
     0.597877722  0.375000000  0.500000000
     0.402122278  0.375000000  0.500000000
     0.499993660  0.500023993  0.565728520
     0.499994897  0.500333782  0.649802493
     0.349950660  0.375167928  0.607403922
     0.650030524  0.375167864  0.607401977
     0.249326721  0.500308797  0.671712436
     0.250979237  0.500632383  0.755685350
     0.594259176  0.374289682  0.718255671
     0.405735000  0.374289929  0.718255839

  ion indices of the primitive-cell ions
   primitive index   ion index
                 1           1
                 2           2
                 3           3
                 4           4
                 5           5
                 6           6
                 7           7
                 8           8
                 9           9
                10          10
                11          11
                12          12
                13          13
                14          14
                15          15
                16          16
                17          17
                18          18
                19          19
                20          20
                21          21
                22          22
                23          23
                24          24
                25          25
                26          26
                27          27
                28          28
                29          29
                30          30
                31          31
                32          32
                33          33
                34          34
                35          35
                36          36
                37          37
                38          38
                39          39
                40          40
                41          41
                42          42
                43          43
[...]
     0.000000000  0.000000000 30.596159140     0.000000000  0.000000000  0.032683841

  length of vectors
    13.042933829 11.878216733 30.596159140     0.076669867  0.084187721  0.032683841

 FORCES acting on ions
    electron-ion (+dipol)            ewald-force                    non-local-force                 convergence-correction
   0.295E-02 0.314E-02 0.109E+04   -.308E-02 -.307E-02 -.109E+04   -.213E-04 0.379E-04 -.118E+01   -.198E-04 -.142E-05 0.101E+00
   -.122E-04 0.241E-02 0.116E+04   0.399E-05 -.232E-02 -.116E+04   0.101E-05 0.971E-05 -.175E+01   0.913E-05 -.420E-04 0.101E+00
   0.371E-04 0.877E-02 0.556E+03   0.240E-04 -.863E-02 -.556E+03   -.137E-04 0.108E-03 0.166E+00   -.724E-04 -.668E-04 0.232E-01
   0.905E-02 0.183E-01 0.552E+03   -.963E-02 -.178E-01 -.553E+03   -.101E-03 0.283E-03 -.160E+00   0.489E-04 -.326E-04 0.241E-01
   0.115E+00 0.791E-01 -.503E+01   -.118E+00 -.798E-01 0.559E+01   -.559E-03 -.220E-03 0.195E+00   -.312E-04 -.276E-04 -.489E-01
   -.128E-02 0.528E-01 -.478E+01   0.967E-03 -.482E-01 0.410E+01   0.452E-04 -.133E-02 -.610E-01   -.583E-05 0.567E-04 -.508E-01
   0.660E-01 0.120E-01 -.550E+03   -.679E-01 -.113E-01 0.551E+03   0.997E-03 0.705E-03 -.477E-01   0.311E-04 -.872E-05 -.103E+00
   0.174E+00 0.118E+00 -.563E+03   -.165E+00 -.116E+00 0.563E+03   -.106E-02 0.175E-02 0.617E-01   -.153E-03 -.453E-04 -.107E+00
   -.177E+00 0.107E+01 -.108E+04   0.155E+00 -.108E+01 0.108E+04   0.957E-02 0.744E-02 -.677E-01   -.416E-03 -.369E-04 -.120E+00
   -.168E-02 0.210E+00 -.110E+04   0.158E-02 -.213E+00 0.110E+04   0.510E-04 0.177E-02 0.679E+00   0.229E-04 -.560E-04 -.120E+00
   0.137E-02 0.191E-02 0.109E+04   -.161E-02 -.176E-02 -.109E+04   -.266E-04 0.770E-04 -.118E+01   -.265E-04 0.234E-04 0.101E+00
   0.279E-04 -.863E-03 0.116E+04   0.399E-05 0.864E-03 -.116E+04   -.129E-04 0.733E-05 -.175E+01   -.339E-04 0.689E-05 0.101E+00
   0.170E-04 0.221E-02 0.556E+03   0.223E-04 -.221E-02 -.556E+03   -.592E-07 0.138E-03 0.167E+00   -.344E-04 0.441E-04 0.232E-01
   -.132E-02 -.488E-02 0.552E+03   0.438E-03 0.499E-02 -.553E+03   -.173E-03 0.563E-04 -.160E+00   0.326E-04 -.237E-04 0.240E-01
   -.166E-01 0.373E-01 -.495E+01   0.152E-01 -.298E-01 0.552E+01   -.325E-03 0.403E-02 0.196E+00   -.172E-05 0.178E-05 -.488E-01
   -.131E-02 0.122E-01 -.482E+01   0.101E-02 -.972E-02 0.414E+01   0.335E-04 -.124E-02 -.605E-01   -.290E-04 -.546E-04 -.508E-01
   0.698E-01 -.665E-01 -.551E+03   -.719E-01 0.652E-01 0.551E+03   0.107E-02 0.649E-03 -.475E-01   0.996E-04 -.146E-04 -.103E+00
   0.543E-01 0.854E-01 -.564E+03   -.451E-01 -.947E-01 0.563E+03   0.353E-03 -.450E-03 0.655E-01   -.144E-03 0.354E-04 -.107E+00
   -.728E-01 0.595E+00 -.108E+04   0.818E-01 -.640E+00 0.108E+04   0.125E-01 -.139E-01 -.900E-01   -.235E-03 -.102E-03 -.120E+00
   -.163E-02 -.718E-01 -.110E+04   0.151E-02 0.636E-01 0.110E+04   0.548E-04 -.240E-02 0.685E+00   0.418E-04 0.119E-03 -.120E+00
   0.144E-02 -.310E-02 0.109E+04   -.168E-02 0.306E-02 -.109E+04   -.243E-04 -.426E-04 -.118E+01   -.107E-04 -.421E-04 0.101E+00
   0.154E-04 -.233E-02 0.116E+04   0.406E-05 0.232E-02 -.116E+04   -.488E-05 -.338E-04 -.175E+01   -.189E-04 -.373E-04 0.101E+00
   -.931E-05 -.871E-02 0.556E+03   0.251E-04 0.856E-02 -.556E+03   -.426E-05 -.180E-04 0.166E+00   -.308E-04 -.781E-05 0.232E-01
   0.102E-01 -.183E-01 0.552E+03   -.106E-01 0.178E-01 -.553E+03   -.107E-03 -.312E-03 -.159E+00   -.229E-04 0.118E-04 0.241E-01
   -.765E-02 -.743E-01 -.498E+01   0.655E-02 0.722E-01 0.556E+01   -.139E-03 -.101E-02 0.198E+00   0.170E-04 0.248E-04 -.488E-01
   -.141E-02 0.141E-01 -.483E+01   0.116E-02 -.146E-01 0.415E+01   0.341E-04 -.183E-02 -.604E-01   -.455E-04 0.171E-04 -.508E-01
   0.624E-01 -.109E+00 -.550E+03   -.642E-01 0.106E+00 0.551E+03   0.945E-03 0.151E-02 -.475E-01   0.544E-04 0.398E-04 -.103E+00
   0.178E+00 -.676E-01 -.563E+03   -.162E+00 0.563E-01 0.563E+03   -.910E-03 0.238E-02 0.597E-01   -.166E-03 0.296E-04 -.107E+00
   0.100E+00 0.267E+00 -.108E+04   -.749E-01 -.290E+00 0.108E+04   0.860E-02 -.307E-02 -.884E-01   -.319E-03 0.315E-03 -.120E+00
   -.133E-02 -.571E+00 -.110E+04   0.124E-02 0.577E+00 0.110E+04   0.374E-04 0.338E-02 0.678E+00   -.198E-05 -.190E-04 -.120E+00
   0.305E-02 -.196E-02 0.109E+04   -.315E-02 0.177E-02 -.109E+04   -.204E-04 -.732E-04 -.118E+01   -.372E-04 0.203E-04 0.101E+00
   -.302E-04 0.790E-03 0.116E+04   0.406E-05 -.866E-03 -.116E+04   0.928E-05 0.205E-04 -.175E+01   0.295E-04 0.710E-04 0.101E+00
   -.383E-04 -.254E-02 0.556E+03   0.266E-04 0.235E-02 -.556E+03   0.831E-05 -.316E-04 0.166E+00   0.160E-04 0.315E-04 0.232E-01
   0.207E-01 0.492E-02 0.552E+03   -.208E-01 -.502E-02 -.553E+03   -.757E-04 -.870E-04 -.160E+00   -.106E-04 0.430E-04 0.241E-01
   0.124E+00 -.429E-01 -.507E+01   -.126E+00 0.377E-01 0.565E+01   -.942E-03 -.253E-02 0.197E+00   -.515E-04 0.195E-05 -.489E-01
   -.138E-02 0.499E-01 -.479E+01   0.111E-02 -.491E-01 0.411E+01   0.443E-04 -.188E-02 -.611E-01   -.320E-04 -.212E-04 -.508E-01
   0.595E-01 -.335E-01 -.550E+03   -.611E-01 0.341E-01 0.551E+03   0.894E-03 0.101E-02 -.470E-01   0.256E-04 -.123E-04 -.103E+00
   0.294E+00 0.826E-01 -.563E+03   -.275E+00 -.800E-01 0.563E+03   0.541E-03 0.240E-02 0.575E-01   -.171E-03 -.222E-04 -.107E+00
   -.162E+00 -.292E+00 -.108E+04   0.260E+00 0.301E+00 0.108E+04   0.218E-01 0.268E-01 -.739E-01   -.495E-03 -.197E-03 -.120E+00
   -.145E-02 -.270E-01 -.110E+04   0.136E-02 0.306E-01 0.110E+04   0.340E-04 0.421E-02 0.672E+00   0.133E-05 -.383E-04 -.120E+00
   -.292E-02 0.317E-02 0.109E+04   0.308E-02 -.307E-02 -.109E+04   0.186E-04 0.341E-04 -.118E+01   -.604E-05 -.311E-04 0.101E+00
   -.211E-04 0.486E-02 0.116E+04   -.355E-05 -.461E-02 -.116E+04   0.139E-04 0.776E-04 -.175E+01   0.268E-04 -.402E-04 0.101E+00
   0.225E-05 0.308E-01 0.556E+03   -.124E-04 -.266E-01 -.556E+03   0.714E-05 0.127E-02 0.167E+00   0.189E-04 -.670E-04 0.233E-01
   -.912E-02 0.183E-01 0.552E+03   0.962E-02 -.178E-01 -.553E+03   0.120E-03 0.308E-03 -.160E+00   0.253E-04 0.467E-04 0.241E-01
   -.115E+00 0.790E-01 -.503E+01   0.117E+00 -.798E-01 0.559E+01   0.715E-03 -.219E-03 0.195E+00   0.744E-04 0.113E-06 -.488E-01
   -.982E-03 0.141E+00 -.479E+01   0.670E-03 -.153E+00 0.413E+01   0.322E-04 0.488E-02 -.622E-01   -.123E-04 -.167E-04 -.507E-01
   0.671E-01 0.448E+00 -.552E+03   -.690E-01 -.355E+00 0.552E+03   0.986E-03 -.199E-01 -.523E-01   0.241E-04 -.132E-03 -.103E+00
   -.937E-01 0.118E+00 -.563E+03   0.818E-01 -.115E+00 0.563E+03   0.141E-02 0.176E-02 0.616E-01   0.357E-04 -.984E-05 -.107E+00
   0.179E+00 0.107E+01 -.108E+04   -.156E+00 -.108E+01 0.108E+04   -.954E-02 0.743E-02 -.677E-01   0.403E-03 -.123E-03 -.120E+00
   -.175E-02 -.288E+00 -.110E+04   0.165E-02 0.226E+00 0.110E+04   0.436E-04 -.119E-01 0.708E+00   0.275E-04 -.361E-03 -.120E+00
   -.134E-02 0.192E-02 0.109E+04   0.161E-02 -.176E-02 -.109E+04   0.207E-04 0.750E-04 -.118E+01   -.761E-05 0.729E-05 0.101E+00
   -.383E-04 -.990E-03 0.116E+04   -.347E-05 0.976E-03 -.116E+04   0.183E-04 0.514E-05 -.175E+01   0.467E-04 0.120E-04 0.101E+00
   0.349E-04 0.201E-01 0.556E+03   -.135E-04 -.183E-01 -.556E+03   -.804E-05 0.503E-03 0.168E+00   -.305E-04 0.377E-04 0.233E-01
   0.125E-02 -.489E-02 0.552E+03   -.449E-03 0.499E-02 -.553E+03   0.194E-03 0.486E-04 -.160E+00   0.402E-04 -.378E-04 0.240E-01
   0.169E-01 0.374E-01 -.495E+01   -.152E-01 -.299E-01 0.552E+01   0.472E-03 0.403E-02 0.196E+00   -.138E-05 -.164E-04 -.488E-01
   -.127E-02 -.114E-01 -.434E+01   0.948E-03 0.133E-01 0.364E+01   0.429E-04 -.130E-02 -.802E-01   -.141E-04 -.240E-04 -.508E-01
   0.689E-01 -.561E+00 -.548E+03   -.709E-01 0.570E+00 0.549E+03   0.100E-02 -.120E-02 -.829E-01   0.409E-04 -.527E-04 -.103E+00
   0.230E-01 0.859E-01 -.564E+03   -.340E-01 -.952E-01 0.563E+03   -.496E-04 -.445E-03 0.655E-01   0.155E-04 0.189E-04 -.107E+00
   0.742E-01 0.595E+00 -.108E+04   -.833E-01 -.640E+00 0.108E+04   -.125E-01 -.139E-01 -.900E-01   0.169E-03 -.392E-04 -.120E+00
   -.163E-02 -.258E+00 -.110E+04   0.152E-02 0.234E+00 0.110E+04   0.476E-04 -.395E-02 0.667E+00   0.264E-04 0.266E-03 -.120E+00
[...]
   -.249E+02 -.224E-01 0.831E+03   0.291E+02 0.215E-01 -.831E+03   -.336E+01 0.120E-02 0.186E+00   0.860E-03 0.372E-04 0.358E-01
   0.249E+02 -.224E-01 0.831E+03   -.291E+02 0.215E-01 -.831E+03   0.336E+01 0.120E-02 0.186E+00   -.887E-03 0.344E-04 0.358E-01
   -.103E+00 0.205E-01 0.344E+03   0.105E+00 -.223E-01 -.348E+03   -.240E-02 0.333E-02 0.399E+01   0.820E-04 -.854E-05 -.334E-01
   -.448E+00 0.944E-01 -.364E+03   0.447E+00 -.108E+00 0.372E+03   0.334E-02 0.149E-01 -.687E+01   0.123E-03 -.154E-04 -.111E+00
   -.236E+02 -.271E+00 -.593E+01   0.287E+02 0.265E+00 0.570E+01   -.500E+01 0.159E-01 0.354E+00   0.391E-03 0.379E-04 -.752E-01
   0.236E+02 -.271E+00 -.593E+01   -.287E+02 0.265E+00 0.571E+01   0.500E+01 0.159E-01 0.354E+00   -.426E-03 0.127E-04 -.752E-01
   0.322E-01 0.280E-01 -.485E+03   -.432E-01 -.363E-01 0.478E+03   0.964E-02 0.164E-02 0.642E+01   0.543E-05 -.232E-04 -.131E+00
   0.211E-01 -.814E+00 -.118E+04   -.285E-01 0.952E+00 0.118E+04   0.641E-02 -.145E+00 0.240E+01   0.255E-04 -.129E-03 -.169E+00
   -.114E+02 -.319E+00 -.835E+03   0.144E+02 0.280E+00 0.835E+03   -.272E+01 0.348E-01 0.914E+00   -.273E-03 -.227E-04 -.157E+00
   0.113E+02 -.320E+00 -.835E+03   -.143E+02 0.282E+00 0.835E+03   0.267E+01 0.341E-01 0.912E+00   0.249E-03 -.126E-04 -.157E+00
   0.302E+00 -.759E-01 -.131E+04   -.423E+00 0.115E+00 0.131E+04   0.113E+00 -.457E-01 -.238E+01   0.434E-03 -.511E-04 -.172E+00
   -.233E+01 0.127E+00 -.190E+04   0.253E+01 0.711E-01 0.192E+04   -.172E+00 -.222E+00 -.198E+02   0.932E-03 -.202E-03 -.184E+00
   0.696E+01 -.120E+01 -.168E+04   -.250E+00 0.997E+00 0.168E+04   -.608E+01 0.283E+00 -.286E+01   0.130E-02 -.289E-04 -.182E+00
   -.696E+01 -.120E+01 -.168E+04   0.250E+00 0.998E+00 0.168E+04   0.608E+01 0.282E+00 -.286E+01   -.131E-02 0.230E-04 -.182E+00
   0.247E+00 0.319E+00 0.104E+03   0.455E-12 -.515E-12 0.255E-10   -.232E+00 -.308E+00 -.869E+02   -.118E-03 -.265E-04 -.947E+01

 POSITION                                       TOTAL-FORCE (eV/Angst)
      9.78220      7.42389      8.77661        -0.000169      0.000182     -3.821210
      0.00000      8.90866      8.77661         0.000005      0.000131      3.360072
      0.00000      7.42389     12.03735        -0.000023      0.000254      0.555561
      9.78220      8.90866     12.03735        -0.000641      0.000940     -0.826746
      9.78220      7.42389     15.29808        -0.002763     -0.000999      0.739361
      0.00000      8.90866     15.29808        -0.000284      0.003566     -0.838310
      0.00057      7.42601     18.49382         0.000920      0.001456     -0.004462
      9.78319      8.91133     18.68500         0.010387      0.005992      0.021834
      9.78494      7.43277     22.03656        -0.017518      0.014009     -0.105433
     13.04289      8.91402     21.68026        -0.000041      0.002398      0.047198
      9.78220     10.39344      8.77661        -0.000290      0.000332     -3.821007
      0.00000      0.00000      8.77661        -0.000012      0.000089      3.360122
      0.00000     10.39344     12.03735         0.000007      0.000260      0.555823
      9.78220      0.00000     12.03735        -0.001048      0.000217     -0.825314
      9.78220     10.39344     15.29808        -0.001806      0.012068      0.746128
      0.00000      0.00000     15.29808        -0.000297      0.001427     -0.837250
      0.00061     10.39546     18.49464         0.000973     -0.000891     -0.003938
      9.78215      0.00245     18.68754         0.009459     -0.007806      0.018026
      9.78028     10.40086     22.04574         0.018849     -0.045425     -0.162479
     13.04289      0.00379     21.68111        -0.000034     -0.012739      0.037236
      9.78220      1.48478      8.77661        -0.000279     -0.000053     -3.820906
      0.00000      2.96955      8.77661        -0.000001     -0.000014      3.360092
      0.00000      1.48478     12.03735        -0.000016     -0.000116      0.555815
      9.78220      2.96955     12.03735        -0.000581     -0.000827     -0.825367
      9.78220      1.48478     15.29808        -0.001261     -0.003289      0.752027
      0.00000      2.96955     15.29808        -0.000275     -0.002237     -0.838526
      0.00054      1.48628     18.49470         0.000889     -0.002193     -0.006101
      9.78340      2.97157     18.68725         0.016624     -0.008463      0.007332
      9.78128      1.49151     22.04459         0.032447     -0.017425     -0.173331
     13.04289      2.97249     21.68067        -0.000051     -0.000051      0.037410
      9.78220      4.45433      8.77661        -0.000160     -0.000177     -3.821124
      0.00000      5.93911      8.77661         0.000016      0.000089      3.360073
      0.00000      4.45433     12.03735         0.000016     -0.000123      0.555561
      9.78220      5.93911     12.03735        -0.000168     -0.000071     -0.826682
      9.78220      4.45433     15.29808        -0.003134     -0.008108      0.745098
      0.00000      5.93911     15.29808        -0.000264     -0.000920     -0.839407
      0.00050      4.45601     18.49388         0.000865      0.001182     -0.005408
      9.78310      5.94141     18.68591         0.020474      0.006318      0.018114
      9.78517      4.46132     22.04268         0.116262      0.043409     -0.155687
     13.04289      5.94374     21.67975        -0.000061      0.007472      0.047018
      3.26073      7.42389      8.77661         0.000177      0.000178     -3.821205
      6.52147      8.90866      8.77661         0.000020      0.000373      3.360588
      6.52147      7.42389     12.03735         0.000019      0.005732      0.555623
      3.26073      8.90866     12.03735         0.000662      0.000988     -0.826754
      3.26073      7.42389     15.29808         0.003136     -0.001003      0.739400
      6.52147      8.90866     15.29808        -0.000299     -0.007134     -0.816694
      6.52205      7.41911     18.50466         0.000940      0.064287     -0.044858
      3.26073      8.91133     18.68500        -0.009931      0.005974      0.021844
      3.25791      7.43277     22.03656         0.017427      0.014014     -0.105465
      6.52142      8.91723     21.66835        -0.000047     -0.087430      0.112736
      3.26073     10.39344      8.77661         0.000292      0.000323     -3.821009
      6.52147      0.00000      8.77661         0.000027      0.000075      3.361040
      6.52147     10.39344     12.03735        -0.000014      0.002543      0.559731
      3.26073      0.00000     12.03735         0.001073      0.000188     -0.825317
      3.26073     10.39344     15.29808         0.002201      0.012065      0.746135
      6.52147      0.00000     15.29808        -0.000300      0.000813     -0.866605
      6.52208     10.39259     18.48566         0.000967     -0.002680     -0.003098
      3.26170      0.00245     18.68754        -0.009044     -0.007799      0.018018
      3.26257     10.40086     22.04574        -0.018957     -0.045418     -0.162474
      6.52142      0.00344     21.67221        -0.000044     -0.032822      0.012311
[...]
      6.52147      5.93911     13.31396         0.000005      0.000132     -0.251435
      4.53735      4.45433     12.03735         0.308939      0.000693      0.057043
      8.50559      4.45433     12.03735        -0.308939      0.000702      0.057067
      3.26073      5.93911     14.02147        -0.000838      0.002163      0.068592
      3.26073      5.93911     16.57469         0.002172      0.003828     -0.222268
      7.79808      4.45433     15.29808        -0.710788      0.013189      0.111862
      5.24485      4.45433     15.29808         0.710740      0.013192      0.111674
      6.52138      5.93939     17.30912         0.000037     -0.006705      0.187485
      6.52140      5.94307     19.88146        -0.000008     -0.029705     -0.003844
      4.56438      4.45633     18.58423        -0.060374      0.001068      0.034577
      8.47831      4.45633     18.58417         0.059654      0.001071      0.034492
      3.25195      5.94278     20.55182         0.007437     -0.014223      0.091111
      3.27351      5.94662     23.12107         0.005700     -0.060527     -0.353099
      7.75088      4.44589     21.97586        -0.262143      0.122261      0.082866
      5.29197      4.44590     21.97587         0.262065      0.122244      0.082871
    total drift:                               -0.000753     -0.017217      0.038325

  FREE ENERGIE OF THE ION-ELECTRON SYSTEM (eV)
  free  energy   TOTEN  =     -2616.46735558 eV

  energy  without entropy=    -2616.46735558  energy(sigma->0) =    -2616.46735558