 vasp.6.3.0 20Jan22 (build Apr  1 2022 16:44:48) complex
 executed on        HPECrayEX_GCC date 2023.01.23  22:13:14

 INCAR:
   SYSTEM = MgO-rocksalt
   ISMEAR = 0
   SIGMA = 0.05
   EDIFF = 1E-8
   ALGO = ALL
   ISTART = 0
   IBRION = 5
   POTIM = 0.01
   NFREE = 2
   ISYM = 0
   DIPOL = 0.5 0.5 0.5
   IDIPOL = 3
   LDIPOL = .TRUE.
   GGA = MK
   LUSE_VDW = .TRUE.
   PARAM1 = 0.1234
   PARAM2 = 0.711357
   ZAB_VDW = -1.8867
   AGGAC = 0.0
   ENCUT = 600
   PREC = Accurate
   LASPH = .TRUE.
   LREAL = .FALSE.
   ISPIN = 1
   NELM = 200
   NELMIN = 8
   NCORE = 8
   KPAR = 1
   LWAVE = .FALSE.
   LCHARG = .FALSE.

 POTCAR:    PAW_PBE H 15Jun2001
 POTCAR:    PAW_PBE O 08Apr2002
 POTCAR:    PAW_PBE Mg_pv 13Apr2007
 POTCAR:    PAW_PBE O 08Apr2002
|               ----> ADVICE to this user running VASP <----                  |
|     You have switched on vdW-DFT.                                           |
|     This routine was written and supplied by Jiri Klimes. We recommend      |
|     that you carefully read and cite the following publications:            |
|       J. Klimes, D.R. Bowler, A. Michelides                                 |
|          J. Phys.: Cond Matt. 22 022201 (2010)                              |
|       J. Klimes, D.R. Bowler, A. Michelides                                 |
|          Phys. Rev. B. 83, 195131 (2011)                                    |
|     and references therein.                                                 |

   TITEL  = PAW_PBE H 15Jun2001
   POMASS =    1.000; ZVAL   =    1.000    mass and valenz
   ENMAX  =  250.000; ENMIN  =  200.000 eV

   TITEL  = PAW_PBE O 08Apr2002
   POMASS =   16.000; ZVAL   =    6.000    mass and valenz
   ENMAX  =  400.000; ENMIN  =  300.000 eV

   TITEL  = PAW_PBE Mg_pv 13Apr2007
   POMASS =   24.305; ZVAL   =    8.000    mass and valenz
   ENMAX  =  403.929; ENMIN  =  302.947 eV

   TITEL  = PAW_PBE O 08Apr2002
   POMASS =   16.000; ZVAL   =    6.000    mass and valenz
   ENMAX  =  400.000; ENMIN  =  300.000 eV

  PAW_PBE H 15Jun2001                   :
  PAW_PBE O 08Apr2002                   :
  PAW_PBE Mg_pv 13Apr2007               :
  PAW_PBE O 08Apr2002                   :

 POSCAR:  H  O Mg  O
  positions in direct lattice
 exchange correlation table for  LEXCH =       43
   RHO(1)=    0.500       N(1)  =     2000
   RHO(2)=  100.500       N(2)  =     4000

 ion  position               nearest neighbor table
   1  0.605  0.554  0.771-   3 0.97
   2  0.508  0.673  0.728-   3 1.01
   3  0.501  0.571  0.752-   1 0.97   2 1.01  19 2.21
   4  0.250  0.000  0.352-  36 2.11  38 2.11  39 2.11  46 2.11  55 2.11
   5  0.500  0.250  0.352-  37 2.11  38 2.11  39 2.11  47 2.11  54 2.11
   6  0.250  0.250  0.451-  38 2.11  37 2.11  36 2.11  44 2.11  53 2.11  42 2.11
   7  0.500  0.000  0.451-  39 2.11  37 2.11  36 2.11  45 2.11  52 2.11  43 2.12
   8  0.250  0.000  0.550-  42 2.11  43 2.11  50 2.11  59 2.11  36 2.12  40 2.14
   9  0.500  0.251  0.550-  51 2.11  42 2.11  58 2.11  43 2.12  37 2.12  41 2.13
  10  0.249  0.250  0.648-  57 2.10  42 2.11  40 2.11  48 2.11  41 2.12
  11  0.500  0.002  0.648-  41 2.07  49 2.09  43 2.10  40 2.12  56 2.12
  12  0.250  0.500  0.352-  44 2.11  38 2.11  46 2.11  47 2.11  63 2.11
  13  0.500  0.750  0.352-  45 2.11  39 2.11  46 2.11  47 2.11  62 2.11
  14  0.250  0.750  0.451-  46 2.11  44 2.11  45 2.11  36 2.11  61 2.11  50 2.12
  15  0.500  0.500  0.451-  47 2.11  44 2.11  45 2.11  37 2.11  60 2.11  51 2.14
  16  0.251  0.500  0.550-  51 2.10  48 2.10  42 2.11  50 2.11  67 2.12  44 2.13
  17  0.500  0.749  0.550-  51 2.10  50 2.10  66 2.11  43 2.11  45 2.13  49 2.19
  18  0.248  0.750  0.648-  65 2.09  50 2.09  48 2.11  40 2.11  49 2.14
  19  0.499  0.493  0.653-  41 2.07  48 2.12  64 2.14  51 2.19   3 2.21  49 2.21
  20  0.750  0.000  0.352-  52 2.11  39 2.11  54 2.11  55 2.11  62 2.11
  21  0.000  0.250  0.352-  53 2.11  38 2.11  54 2.11  55 2.11  63 2.11
  22  0.750  0.250  0.451-  54 2.11  52 2.11  53 2.11  37 2.11  60 2.11  58 2.11
  23  0.000  0.000  0.451-  55 2.11  52 2.11  53 2.11  36 2.11  61 2.11  59 2.11
  24  0.750  0.000  0.550-  58 2.11  43 2.11  59 2.11  66 2.11  52 2.12  56 2.14
  25  0.000  0.250  0.550-  42 2.11  67 2.11  58 2.11  59 2.11  53 2.11  57 2.14
  26  0.751  0.250  0.648-  58 2.10  57 2.10  56 2.11  64 2.12  41 2.12
  27  0.001  0.001  0.648-  40 2.10  59 2.10  57 2.10  56 2.11  65 2.11
  28  0.750  0.500  0.352-  60 2.11  54 2.11  47 2.11  62 2.11  63 2.11
  29  0.000  0.750  0.352-  61 2.11  55 2.11  46 2.11  62 2.11  63 2.11
  30  0.750  0.750  0.451-  62 2.11  52 2.11  60 2.11  61 2.11  45 2.11  66 2.12
  31  0.000  0.500  0.451-  67 2.11  63 2.11  60 2.11  61 2.11  44 2.11  53 2.11
  32  0.749  0.500  0.550-  51 2.10  58 2.11  66 2.11  67 2.12  60 2.13  64 2.13
  33  0.001  0.750  0.550-  67 2.11  59 2.11  61 2.11  50 2.11  66 2.12  65 2.14
  34  0.753  0.751  0.647-  66 2.08  65 2.09  56 2.11  64 2.12  49 2.14
  35  0.001  0.500  0.648-  48 2.09  64 2.10  67 2.10  57 2.11  65 2.12
  36  0.250  0.000  0.451-   4 2.11   6 2.11   7 2.11  14 2.11  23 2.11   8 2.12
  37  0.500  0.250  0.451-   5 2.11   6 2.11   7 2.11  15 2.11  22 2.11   9 2.12
  38  0.250  0.250  0.352-   6 2.11   5 2.11   4 2.11  12 2.11  21 2.11
  39  0.500  0.000  0.352-   7 2.11   5 2.11   4 2.11  13 2.11  20 2.11
  40  0.250  0.000  0.650-  27 2.10  10 2.11  18 2.11  11 2.12   8 2.14
  41  0.501  0.248  0.650-  11 2.07  19 2.07  26 2.12  10 2.12   9 2.13
  42  0.250  0.250  0.550-   8 2.11  10 2.11  25 2.11   9 2.11   6 2.11  16 2.11
  43  0.500  0.999  0.550-  11 2.10  24 2.11   8 2.11  17 2.11   7 2.12   9 2.12
  44  0.250  0.500  0.451-  12 2.11   6 2.11  14 2.11  15 2.11  31 2.11  16 2.13
  45  0.500  0.750  0.451-  13 2.11   7 2.11  14 2.11  15 2.11  30 2.11  17 2.13
  46  0.250  0.750  0.352-  14 2.11  12 2.11  13 2.11   4 2.11  29 2.11
  47  0.500  0.500  0.352-  15 2.11  12 2.11  13 2.11   5 2.11  28 2.11
  48  0.248  0.500  0.649-  35 2.09  16 2.10  18 2.11  10 2.11  19 2.12
  49  0.501  0.755  0.653-  11 2.09  34 2.14  18 2.14  17 2.19  19 2.21
  50  0.251  0.750  0.550-  18 2.09  17 2.10   8 2.11  33 2.11  16 2.11  14 2.12
  51  0.500  0.501  0.551-  17 2.10  32 2.10  16 2.10   9 2.11  15 2.14  19 2.19
  52  0.750  0.000  0.451-  20 2.11   7 2.11  22 2.11  23 2.11  30 2.11  24 2.12
  53  0.000  0.250  0.451-  21 2.11   6 2.11  22 2.11  23 2.11  31 2.11  25 2.11
  54  0.750  0.250  0.352-  22 2.11  20 2.11  21 2.11   5 2.11  28 2.11
  55  0.000  0.000  0.352-  23 2.11  20 2.11  21 2.11   4 2.11  29 2.11
  56  0.751  0.000  0.650-  34 2.11  27 2.11  26 2.11  11 2.12  24 2.14
  57  0.000  0.250  0.650-  26 2.10  27 2.10  10 2.10  35 2.11  25 2.14
  58  0.750  0.250  0.550-  26 2.10  24 2.11  32 2.11   9 2.11  25 2.11  22 2.11
  59  0.000  1.000  0.549-  27 2.10  23 2.11  33 2.11  24 2.11   8 2.11  25 2.11
  60  0.750  0.500  0.451-  28 2.11  22 2.11  15 2.11  30 2.11  31 2.11  32 2.13
  61  0.000  0.750  0.451-  29 2.11  23 2.11  14 2.11  30 2.11  31 2.11  33 2.11
  62  0.750  0.750  0.352-  30 2.11  20 2.11  28 2.11  29 2.11  13 2.11
  63  0.000  0.500  0.352-  31 2.11  21 2.11  28 2.11  29 2.11  12 2.11
  64  0.752  0.500  0.650-  35 2.10  34 2.12  26 2.12  32 2.13  19 2.14
  65  0.000  0.751  0.650-  34 2.09  18 2.09  27 2.11  35 2.12  33 2.14
  66  0.750  0.750  0.550-  34 2.08  17 2.11  24 2.11  32 2.11  30 2.12  33 2.12
  67  1.000  0.500  0.549-  35 2.10  33 2.11  31 2.11  25 2.11  32 2.12  16 2.12

IMPORTANT INFORMATION: All symmetrisations will be switched off!
NOSYMM: (Re-)initialisation of all symmetry stuff for point group C_1.

                                     Primitive cell

  volume of cell :    1519.6535

  direct lattice vectors                    reciprocal lattice vectors
     8.440582262  0.000000000  0.000000000     0.118475239  0.000000000  0.000000000
     0.000000000  8.440582262  0.000000000     0.000000000  0.118475239  0.000000000
     0.000000000  0.000000000 21.330436697     0.000000000  0.000000000  0.046881366

  length of vectors
     8.440582262  8.440582262 21.330436697     0.118475239  0.118475239  0.046881366

  position of ions in fractional coordinates (direct lattice)
     0.605158999  0.554067465  0.771204868
     0.508013591  0.673270021  0.727731706
     0.501310769  0.570779158  0.752330931
     0.250000000  0.000000000  0.351610242
     0.500000000  0.250000000  0.351610242
     0.250000000  0.250000000  0.450536747
     0.500000000  0.000000000  0.450536747
     0.250443671  0.000234700  0.549863667
     0.500127418  0.250726857  0.550140190
     0.249370171  0.249928275  0.648256506
     0.500218927  0.002231511  0.648240720
     0.250000000  0.500000000  0.351610242
     0.500000000  0.750000000  0.351610242
     0.250000000  0.750000000  0.450536747
     0.500000000  0.500000000  0.450536747
     0.251172918  0.499809327  0.550275388
     0.500073628  0.748942861  0.550308960
     0.247902624  0.750078790  0.647985275
     0.498815322  0.492985253  0.653426090
     0.750000000  0.000000000  0.351610242
     0.000000000  0.250000000  0.351610242
     0.750000000  0.250000000  0.450536747
     0.000000000  0.000000000  0.450536747
     0.750058423  0.000380019  0.549745321
     0.000396353  0.250266217  0.549684030
     0.751379424  0.249603600  0.647940336
     0.000599586  0.000539546  0.648052127
     0.750000000  0.500000000  0.351610242
     0.000000000  0.750000000  0.351610242
     0.750000000  0.750000000  0.450536747
     0.000000000  0.500000000  0.450536747
     0.749211491  0.499736173  0.550345284
     0.000556679  0.749778358  0.549553159
     0.753229513  0.750753423  0.647099760
     0.000900244  0.499611865  0.647878654
     0.250000000  0.000000000  0.450536747
     0.500000000  0.250000000  0.450536747
     0.250000000  0.250000000  0.351610242
     0.500000000  0.000000000  0.351610242
     0.249634776  0.000068177  0.649965239
     0.500514592  0.247666295  0.649906933
     0.250257006  0.249639082  0.549524704
     0.500318584  0.999347322  0.549772013
     0.250000000  0.500000000  0.450536747
     0.500000000  0.750000000  0.450536747
     0.250000000  0.750000000  0.351610242
     0.500000000  0.500000000  0.351610242
     0.248443818  0.500103926  0.648918891
     0.500701594  0.754826085  0.652930165
     0.250960897  0.750325172  0.549844235
     0.500456640  0.500567019  0.550657647
     0.750000000  0.000000000  0.450536747
     0.000000000  0.250000000  0.450536747
     0.750000000  0.250000000  0.351610242
     0.000000000  0.000000000  0.351610242
     0.751185725  0.000051405  0.649974854
     0.000263684  0.249620988  0.649863965
     0.750220670  0.249895587  0.549601060
     0.000165847  0.999841486  0.549473429
     0.750000000  0.500000000  0.450536747
     0.000000000  0.750000000  0.450536747
     0.750000000  0.750000000  0.351610242
     0.000000000  0.500000000  0.351610242
     0.752363077  0.500240580  0.650180424
     0.000261912  0.750504440  0.649797873
     0.749595911  0.750117344  0.549777748
     0.999912299  0.500236878  0.549321759

  ion indices of the primitive-cell ions
   primitive index   ion index
                 1           1
                 2           2
[...]
      2.10483      2.10954     13.82759        -0.004785      0.000380     -0.006270
      4.22214      0.01884     13.82726        -0.001982     -0.005498     -0.009648
      2.11015      4.22029      7.50000         0.001730     -0.000672      0.320231
      4.22029      6.33044      7.50000        -0.000336     -0.002322      0.321477
      2.11015      6.33044      9.61015         0.031112     -0.005423      0.025924
      4.22029      4.22029      9.61015         0.007887      0.009144      0.062796
      2.12005      4.21868     11.73761        -0.003500      0.001267     -0.002966
      4.22091      6.32151     11.73833        -0.001879      0.002812      0.003017
      2.09244      6.33110     13.82181         0.000042     -0.001108     -0.010170
      4.21029      4.16108     13.93786         0.001379      0.006196     -0.020822
      6.33044      0.00000      7.50000        -0.000777      0.000787      0.314809
      0.00000      2.11015      7.50000         0.000295      0.001272      0.319718
      6.33044      2.11015      9.61015         0.000952      0.018752      0.023278
      0.00000      0.00000      9.61015         0.008629      0.011553      0.015412
      6.33093      0.00321     11.72631        -0.000704     -0.003789      0.003409
      0.00335      2.11239     11.72500        -0.001763      0.001911      0.000518
      6.34208      2.10680     13.82085         0.000233      0.000181     -0.004630
      0.00506      0.00455     13.82323        -0.002772      0.000528     -0.004321
      6.33044      4.22029      7.50000        -0.001779     -0.000786      0.323213
      0.00000      6.33044      7.50000         0.000450     -0.001296      0.311104
      6.33044      6.33044      9.61015        -0.022429     -0.016770      0.023173
      0.00000      4.22029      9.61015        -0.004310     -0.010834      0.042306
      6.32378      4.21806     11.73911         0.001489      0.001457     -0.002156
      0.00470      6.32857     11.72221        -0.001795     -0.000809      0.005872
      6.35770      6.33680     13.80292        -0.006139     -0.001335     -0.008426
      0.00760      4.21702     13.81953        -0.002107     -0.003173     -0.010759
      2.11015      0.00000      9.61015         0.005159     -0.009436      0.040955
      4.22029      2.11015      9.61015         0.006979      0.010237      0.072985
      2.11015      2.11015      7.50000        -0.000272     -0.001786     -0.403794
      4.22029      0.00000      7.50000         0.001354      0.000899     -0.401974
      2.10706      0.00058     13.86404        -0.001136      0.000356      0.007762
      4.22463      2.09045     13.86280        -0.001651     -0.003354      0.004213
      2.11231      2.10710     11.72160         0.002612      0.002327      0.006866
      4.22298      8.43507     11.72688         0.001675      0.002410     -0.003030
      2.11015      4.22029      9.61015         0.025982      0.009333      0.064238
      4.22029      6.33044      9.61015         0.004879     -0.014098      0.067221
      2.11015      6.33044      7.50000        -0.004046      0.001751     -0.401863
      4.22029      4.22029      7.50000        -0.000576     -0.001142     -0.406463
      2.09701      4.22117     13.84172        -0.008096     -0.003820      0.006361
      4.22621      6.37117     13.92729        -0.002620      0.019024     -0.021487
      2.11826      6.33318     11.72842        -0.005380      0.002608     -0.003708
      4.22415      4.22508     11.74577        -0.000915     -0.008845     -0.002903
      6.33044      0.00000      9.61015         0.002529     -0.005712      0.046042
      0.00000      2.11015      9.61015         0.001196     -0.009009      0.030423
      6.33044      2.11015      7.50000         0.000495     -0.003632     -0.403302
      0.00000      0.00000      7.50000        -0.001179     -0.002701     -0.400722
      6.34044      0.00043     13.86425        -0.004469     -0.000627      0.004747
      0.00223      2.10695     13.86188         0.000853      0.002840      0.006709
      6.33230      2.10926     11.72323        -0.005036     -0.000600      0.001342
      0.00140      8.43924     11.72051        -0.002439     -0.003009     -0.002849
      6.33044      4.22029      9.61015        -0.021046      0.006928      0.059411
      0.00000      6.33044      9.61015         0.005162      0.010341      0.051726
      6.33044      6.33044      7.50000         0.004365      0.003662     -0.401115
      0.00000      4.22029      7.50000         0.000618      0.002712     -0.403713
      6.35038      4.22232     13.86863         0.004835     -0.003536      0.000889
      0.00221      6.33469     13.86047         0.000845      0.000147      0.005268
      6.32703      6.33143     11.72700         0.001868      0.005636     -0.004976
      8.43984      4.22229     11.71727         0.000410     -0.001391      0.003595
    total drift:                                0.005013      0.001564     -0.012818

  FREE ENERGIE OF THE ION-ELECTRON SYSTEM (eV)
  free  energy   TOTEN  =      -277.95212156 eV

  energy  without entropy=     -277.95212156  energy(sigma->0) =     -277.95212156

 d Force =-0.1790939E-04[-0.438E-02, 0.435E-02]  d Energy = 0.8704839E-05-0.266E-04
 d Force =-0.3418986E+02[-0.342E+02,-0.341E+02]  d Ewald  =-0.3418981E+02-0.521E-04

 Finite differences progress:
  Degree of freedom:   9/  9
  Displacement:        2/  2
  Total:              18/ 18

 SECOND DERIVATIVES (NOT SYMMETRIZED)
               1X          1Y          1Z          2X          2Y          2Z          3X          3Y          3Z
  1X   -38.345103    6.150182  -17.921054    0.157072    0.422448   -0.131945   38.070430   -6.709960   18.143129
  1Y     6.139043   -4.393761    4.334275   -3.317775    0.247977   -1.216372   -3.290526    3.992735   -2.872560
  1Z   -17.900358    4.334361   -9.776414    1.860806    0.195636    0.656104   15.598314   -4.150331    8.784814
  2X     0.155052   -3.317055    1.859449   -5.623698   -1.397133   -0.454080    4.385789    4.556946   -1.233337
  2Y     0.421813    0.250135    0.195687   -1.397643  -25.795582   11.071786    0.817419   24.147034  -13.868149
  2Z    -0.131903   -1.217171    0.655692   -0.453947   11.059195   -8.385128    0.675146  -11.506355    8.789157
  3X    38.068924   -3.296639   15.620636    4.384095    0.814919    0.677922  -42.840780    2.848346  -16.651968
  3Y    -6.701925    3.988462   -4.152013    4.561499   24.146438  -11.521521    2.839628  -29.459068   18.003219
  3Z    18.127523   -2.870410    8.781052   -1.235041  -13.856899    8.786303  -16.631987   17.991546  -21.833055

 Eigenvectors and eigenvalues of the dynamical matrix

   1 f  =  111.820005 THz   702.585812 2PiTHz 3729.913879 cm-1   462.450174 meV
             X         Y         Z           dx          dy          dz
      5.107894  4.676652 16.450137     0.860165   -0.159576    0.416918
      4.287931  5.682791 15.522835    -0.030037   -0.049327    0.014065
      4.231355  4.817708 16.047547    -0.206806    0.052018   -0.108734
      2.110146  0.000000  7.500000            0           0           0
      4.220291  2.110146  7.500000            0           0           0
      2.110146  2.110146  9.610146            0           0           0
      4.220291  0.000000  9.610146            0           0           0
      2.113890  0.001981 11.728832            0           0           0
      4.221367  2.116281 11.734730            0           0           0
      2.104829  2.109540 13.827594            0           0           0
      4.222139  0.018835 13.827258            0           0           0
      2.110146  4.220291  7.500000            0           0           0
      4.220291  6.330437  7.500000            0           0           0
      2.110146  6.330437  9.610146            0           0           0
      4.220291  4.220291  9.610146            0           0           0
      2.120046  4.218682 11.737614            0           0           0
      4.220913  6.321514 11.738330            0           0           0
      2.092442  6.331102 13.821809            0           0           0
      4.210292  4.161083 13.937864            0           0           0
      6.330437  0.000000  7.500000            0           0           0
      0.000000  2.110146  7.500000            0           0           0
      6.330437  2.110146  9.610146            0           0           0
      0.000000  0.000000  9.610146            0           0           0
      6.330930  0.003208 11.726308            0           0           0
      0.003345  2.112393 11.725000            0           0           0
      6.342080  2.106800 13.820850            0           0           0
      0.005061  0.004554 13.823235            0           0           0
      6.330437  4.220291  7.500000            0           0           0
      0.000000  6.330437  7.500000            0           0           0
      6.330437  6.330437  9.610146            0           0           0
      0.000000  4.220291  9.610146            0           0           0
      6.323781  4.218064 11.739105            0           0           0
      0.004699  6.328566 11.722209            0           0           0
      6.357696  6.336796 13.802920            0           0           0
      0.007599  4.217015 13.819535            0           0           0
      2.110146  0.000000  9.610146            0           0           0
      4.220291  2.110146  9.610146            0           0           0
      2.110146  2.110146  7.500000            0           0           0
      4.220291  0.000000  7.500000            0           0           0
      2.107063  0.000575 13.864042            0           0           0
      4.224635  2.090448 13.862799            0           0           0
      2.112315  2.107099 11.721602            0           0           0
      4.222980  8.435073 11.726877            0           0           0
      2.110146  4.220291  9.610146            0           0           0
      4.220291  6.330437  9.610146            0           0           0
      2.110146  6.330437  7.500000            0           0           0
      4.220291  4.220291  7.500000            0           0           0
      2.097010  4.221168 13.841723            0           0           0
      4.226213  6.371172 13.927286            0           0           0
      2.118256  6.333181 11.728418            0           0           0
      4.224145  4.225077 11.745768            0           0           0
      6.330437  0.000000  9.610146            0           0           0
      0.000000  2.110146  9.610146            0           0           0
      6.330437  2.110146  7.500000            0           0           0
      0.000000  0.000000  7.500000            0           0           0
      6.340445  0.000434 13.864247            0           0           0
      0.002226  2.106946 13.861882            0           0           0
      6.332299  2.109264 11.723231            0           0           0
      0.001400  8.439244 11.720508            0           0           0
      6.330437  4.220291  9.610146            0           0           0
      0.000000  6.330437  9.610146            0           0           0
      6.330437  6.330437  7.500000            0           0           0
      0.000000  4.220291  7.500000            0           0           0
      6.350382  4.222322 13.868632            0           0           0
      0.002211  6.334694 13.860472            0           0           0
      6.327026  6.331427 11.726999            0           0           0
      8.439842  4.222291 11.717273            0           0           0

[...]

   9 f  =    2.754112 THz    17.304596 2PiTHz   91.867289 cm-1    11.390087 meV
             X         Y         Z           dx          dy          dz
      5.107894  4.676652 16.450137     0.314275   -0.136688   -0.237991
      4.287931  5.682791 15.522835     0.116935   -0.053535    0.053590
      4.231355  4.817708 16.047547     0.837940   -0.322041    0.025352
      2.110146  0.000000  7.500000            0           0           0
      4.220291  2.110146  7.500000            0           0           0
      2.110146  2.110146  9.610146            0           0           0
      4.220291  0.000000  9.610146            0           0           0
      2.113890  0.001981 11.728832            0           0           0
      4.221367  2.116281 11.734730            0           0           0
      2.104829  2.109540 13.827594            0           0           0
      4.222139  0.018835 13.827258            0           0           0
      2.110146  4.220291  7.500000            0           0           0
      4.220291  6.330437  7.500000            0           0           0
      2.110146  6.330437  9.610146            0           0           0
      4.220291  4.220291  9.610146            0           0           0
      2.120046  4.218682 11.737614            0           0           0
      4.220913  6.321514 11.738330            0           0           0
      2.092442  6.331102 13.821809            0           0           0
      4.210292  4.161083 13.937864            0           0           0
      6.330437  0.000000  7.500000            0           0           0
      0.000000  2.110146  7.500000            0           0           0
      6.330437  2.110146  9.610146            0           0           0
      0.000000  0.000000  9.610146            0           0           0
      6.330930  0.003208 11.726308            0           0           0
      0.003345  2.112393 11.725000            0           0           0
      6.342080  2.106800 13.820850            0           0           0
      0.005061  0.004554 13.823235            0           0           0
      6.330437  4.220291  7.500000            0           0           0
      0.000000  6.330437  7.500000            0           0           0
      6.330437  6.330437  9.610146            0           0           0
      0.000000  4.220291  9.610146            0           0           0
      6.323781  4.218064 11.739105            0           0           0
      0.004699  6.328566 11.722209            0           0           0
      6.357696  6.336796 13.802920            0           0           0
      0.007599  4.217015 13.819535            0           0           0
      2.110146  0.000000  9.610146            0           0           0
      4.220291  2.110146  9.610146            0           0           0
      2.110146  2.110146  7.500000            0           0           0
      4.220291  0.000000  7.500000            0           0           0
      2.107063  0.000575 13.864042            0           0           0
      4.224635  2.090448 13.862799            0           0           0
      2.112315  2.107099 11.721602            0           0           0
      4.222980  8.435073 11.726877            0           0           0
      2.110146  4.220291  9.610146            0           0           0
      4.220291  6.330437  9.610146            0           0           0
      2.110146  6.330437  7.500000            0           0           0
      4.220291  4.220291  7.500000            0           0           0
      2.097010  4.221168 13.841723            0           0           0
      4.226213  6.371172 13.927286            0           0           0
      2.118256  6.333181 11.728418            0           0           0
      4.224145  4.225077 11.745768            0           0           0
      6.330437  0.000000  9.610146            0           0           0
      0.000000  2.110146  9.610146            0           0           0
      6.330437  2.110146  7.500000            0           0           0
      0.000000  0.000000  7.500000            0           0           0
      6.340445  0.000434 13.864247            0           0           0
      0.002226  2.106946 13.861882            0           0           0
      6.332299  2.109264 11.723231            0           0           0
      0.001400  8.439244 11.720508            0           0           0
      6.330437  4.220291  9.610146            0           0           0
      0.000000  6.330437  9.610146            0           0           0
      6.330437  6.330437  7.500000            0           0           0
      0.000000  4.220291  7.500000            0           0           0
      6.350382  4.222322 13.868632            0           0           0
      0.002211  6.334694 13.860472            0           0           0
      6.327026  6.331427 11.726999            0           0           0
      8.439842  4.222291 11.717273            0           0           0

 Finite differences POTIM=   1.0000000000000000E-002