 vasp.6.3.0 20Jan22 (build Dec 25 2023 18:06:01) complex
 executed on        HPECrayEX_GCC date 2024.01.24  03:03:17

 INCAR:
   SYSTEM = MgO-rocksalt
   ISMEAR = 0
   SIGMA = 0.05
   EDIFF = 1E-8
   ALGO = ALL
   ISTART = 0
   IBRION = 5
   POTIM = 0.01
   NFREE = 2
   ISYM = 0
   DIPOL = 0.5 0.5 0.5
   IDIPOL = 3
   LDIPOL = .TRUE.
   GGA = PE
   IVDW = 21
   LDAU = .TRUE.
   LDAUTYPE = 2
   LDAUL = -1 -1 2 -1
   LDAUU = 0.0 0.0 4.2 0.0
   LDAUPRINT = 1
   LMAXMIX = 4
   ENCUT = 600
   PREC = Accurate
   LASPH = .TRUE.
   LREAL = .FALSE.
   ISPIN = 1
   NELM = 200
   NELMIN = 8
   NCORE = 8
   KPAR = 1
   LWAVE = .FALSE.
   LCHARG = .FALSE.

 POTCAR:    PAW_PBE H 15Jun2001
 POTCAR:    PAW_PBE O 08Apr2002
 POTCAR:    PAW_PBE Ti_pv 07Sep2000
 POTCAR:    PAW_PBE O 08Apr2002
 POTCAR:    PAW_PBE H 15Jun2001
   VRHFIN =H: ultrasoft test

   TITEL  = PAW_PBE H 15Jun2001
   POMASS =    1.000; ZVAL   =    1.000    mass and valenz
   ENMAX  =  250.000; ENMIN  =  200.000 eV

   TITEL  = PAW_PBE O 08Apr2002
   POMASS =   16.000; ZVAL   =    6.000    mass and valenz
   ENMAX  =  400.000; ENMIN  =  300.000 eV

   TITEL  = PAW_PBE Ti_pv 07Sep2000
   POMASS =   47.880; ZVAL   =   10.000    mass and valenz
   ENMAX  =  222.335; ENMIN  =  166.751 eV

   TITEL  = PAW_PBE O 08Apr2002
   POMASS =   16.000; ZVAL   =    6.000    mass and valenz
   ENMAX  =  400.000; ENMIN  =  300.000 eV

  PAW_PBE H 15Jun2001                   :
  PAW_PBE O 08Apr2002                   :
  PAW_PBE Ti_pv 07Sep2000               :
  PAW_PBE O 08Apr2002                   :

 POSCAR:  H  O Ti  O
  positions in direct lattice
 exchange correlation table for  LEXCH =        8
   RHO(1)=    0.500       N(1)  =     2000
   RHO(2)=  100.500       N(2)  =     4000

 ion  position               nearest neighbor table
   1  0.688  0.567  0.772-   3 0.98
   2  0.688  0.433  0.772-   3 0.98
   3  0.630  0.500  0.774-   1 0.98   2 0.98  51 2.26
   4  0.804  0.833  0.293-  88 1.97  54 1.97  56 1.97  53 2.01  55 2.01  21 3.09   7 3.09   5 3.09

   5  0.588  0.667  0.325-  52 1.97 119 1.97  55 1.97  57 1.97  56 2.01  58 2.01  36 3.09   6 3.09
                             4 3.09  10 3.11
   6  0.304  0.667  0.293- 124 1.97  58 1.97  60 1.97  52 2.01  59 2.01  39 3.09   5 3.09   7 3.09

   7  0.088  0.833  0.325-  53 1.97  91 1.97  59 1.97  61 1.97  60 2.01  54 2.01  22 3.09   4 3.09
                             6 3.09   8 3.11
   8  0.942  0.833  0.421-  62 1.97  96 1.97  64 1.97  54 2.00  63 2.01  61 2.01  11 3.06   9 3.09
                            25 3.09   7 3.11
   9  0.725  0.666  0.451-  57 1.95 127 1.97  63 1.97  65 1.98  64 2.01  66 2.01  10 3.07   8 3.09
                            40 3.10  14 3.12
  10  0.442  0.667  0.421-  66 1.97 132 1.97  68 1.97  58 1.99  67 2.01  57 2.02   9 3.07  11 3.10
                            43 3.10   5 3.11
  11  0.225  0.833  0.452-  61 1.95  99 1.97  67 1.97  69 1.99  62 2.00  68 2.02   8 3.06  10 3.10
                            26 3.10  12 3.12
  12  0.083  0.834  0.549- 104 1.97  72 1.97  70 1.98  71 2.00  62 2.01  69 2.01  15 3.03  13 3.09
                            29 3.09  11 3.12
  13  0.864  0.666  0.577-  65 1.93 135 1.97  71 1.97  74 1.99  73 2.01  72 2.02  14 3.05  12 3.09
                            44 3.10
  14  0.581  0.667  0.549- 140 1.97  76 1.97  74 1.97  66 1.99  75 2.01  65 2.02  13 3.05  15 3.10
                            47 3.10   9 3.12
  15  0.363  0.833  0.578-  69 1.93 107 1.97  75 1.97  70 1.99  77 1.99  76 2.02  12 3.03  30 3.09
                            14 3.10
  16  0.226  0.833  0.680-  78 1.91  80 1.97 112 1.98  79 2.04  70 2.09  77 2.09  19 2.92  33 3.12
                            17 3.13
  17  0.998  0.666  0.703-  73 1.84  81 1.88 143 2.00  79 2.01  80 2.05  18 2.94  16 3.13  48 3.15

[...]

  20  0.804  0.167  0.293-  88 1.97  86 1.97 120 1.97  85 2.01  87 2.01  21 3.09  23 3.09  37 3.09

[...]

  36  0.804  0.500  0.293-  56 1.97 120 1.97 118 1.97 117 2.01 119 2.01  37 3.09   5 3.09  39 3.09

  37  0.588  0.333  0.325- 116 1.97 119 1.97  87 1.97 121 1.97 120 2.01 122 2.01  36 3.09  38 3.09
                            20 3.09  42 3.11
  38  0.304  0.333  0.293- 124 1.97 122 1.97  92 1.97 116 2.01 123 2.01  39 3.09  37 3.09  23 3.09

  39  0.088  0.500  0.325- 117 1.97  59 1.97 123 1.97 125 1.97 124 2.01 118 2.01   6 3.09  38 3.09
                            36 3.09  40 3.10
  40  0.943  0.500  0.421-  64 1.97 128 1.97 126 1.97 118 2.00 125 2.00 127 2.01  43 3.07   9 3.10
                            41 3.10  39 3.10
  41  0.725  0.334  0.451- 121 1.95 127 1.97  95 1.97 129 1.98 128 2.01 130 2.01  42 3.07  24 3.09
                            40 3.10  46 3.12
  42  0.442  0.333  0.421- 130 1.97 132 1.97 100 1.97 122 1.99 131 2.01 121 2.02  41 3.07  27 3.10
                            43 3.10  37 3.11
  43  0.225  0.500  0.453-  67 1.97 131 1.97 125 1.98 133 1.99 126 1.99 132 2.02  40 3.07  42 3.10
                            10 3.10  44 3.10
  44  0.085  0.500  0.550-  72 1.97 136 1.97 134 1.97 133 2.00 126 2.02 135 2.02  47 3.04  13 3.10
                            45 3.10  43 3.10
  45  0.864  0.334  0.577- 129 1.93 135 1.97 103 1.97 138 1.99 137 2.01 136 2.02  46 3.05  28 3.09
                            44 3.10
  46  0.581  0.333  0.549- 140 1.97 108 1.97 138 1.97 130 1.99 139 2.01 129 2.02  45 3.05  31 3.10
                            47 3.10  41 3.12
  47  0.365  0.500  0.581-  75 1.98 139 1.98 133 1.98 134 1.98 141 1.99 140 2.03  44 3.04  14 3.10
                            46 3.10  48 3.15
  48  0.230  0.500  0.681- 142 1.90  80 1.98 144 1.98 141 2.05 143 2.07 134 2.09  51 2.96  17 3.15
                            49 3.15  47 3.15
  49  0.998  0.334  0.703- 137 1.84 145 1.88 143 2.00 111 2.01 144 2.05  50 2.94  32 3.13  48 3.15

  50  0.724  0.334  0.677- 145 1.94 147 1.97 115 1.98 146 2.03 138 2.03 137 2.08  49 2.94  51 3.12
                            35 3.12
  51  0.504  0.500  0.709- 142 1.86 141 1.94  82 2.01 146 2.01 147 2.08   3 2.26  48 2.96  18 3.12
                            50 3.12
  52  0.483  0.667  0.267-   5 1.97   6 2.01
  53  0.983  0.833  0.267-   7 1.97   4 2.01
  54  0.909  0.833  0.351-   4 1.97   8 2.00   7 2.01
  55  0.625  0.833  0.319-  21 1.97   5 1.97   4 2.01
  56  0.768  0.667  0.298-  36 1.97   4 1.97   5 2.01
  57  0.621  0.667  0.394-   9 1.95   5 1.97  10 2.02
  58  0.409  0.667  0.351-   6 1.97  10 1.99   5 2.01
  59  0.125  0.667  0.319-  39 1.97   7 1.97   6 2.01
  60  0.268  0.833  0.298-  22 1.97   6 1.97   7 2.01
  61  0.121  0.833  0.394-  11 1.95   7 1.97   8 2.01
  62  0.047  0.834  0.479-   8 1.97  11 2.00  12 2.01
  63  0.762  0.833  0.447-  25 1.97   9 1.97   8 2.01
  64  0.906  0.667  0.426-   8 1.97  40 1.97   9 2.01
  65  0.760  0.666  0.520-  13 1.93   9 1.98  14 2.02
  66  0.547  0.666  0.479-  10 1.97  14 1.99   9 2.01
  67  0.262  0.667  0.447-  43 1.97  11 1.97  10 2.01
  68  0.405  0.833  0.426-  10 1.97  26 1.97  11 2.02
  69  0.260  0.833  0.521-  15 1.93  11 1.99  12 2.01
  70  0.189  0.833  0.608-  12 1.98  15 1.99  16 2.09
  71  0.901  0.833  0.573-  13 1.97  29 1.97  12 2.00
  72  0.047  0.667  0.553-  12 1.97  44 1.97  13 2.02
  73  0.906  0.668  0.646-  17 1.84  13 2.01  18 2.08
  74  0.690  0.669  0.606-  14 1.97  13 1.99  18 2.03
  75  0.402  0.667  0.575-  15 1.97  47 1.98  14 2.01
  76  0.545  0.833  0.553-  30 1.97  14 1.97  15 2.02
  77  0.406  0.834  0.647-  19 1.84  15 1.99  16 2.09
  78  0.342  0.833  0.733-  19 1.86  16 1.91
  79  0.047  0.833  0.710-  33 2.01  17 2.01  16 2.04
  80  0.187  0.666  0.682-  16 1.97  48 1.98  17 2.05
  81  0.836  0.660  0.732-  17 1.88  18 1.94
  82  0.550  0.669  0.709-  19 1.99  51 2.01  18 2.03
  83  0.688  0.834  0.681-  34 1.97  18 1.98  19 2.05
  84  0.483  0.000  0.267-  21 1.97  22 2.01
  85  0.983  0.167  0.267-  23 1.97  20 2.01
  86  0.909  0.167  0.351-  20 1.97  24 2.00  23 2.01
  87  0.625  0.167  0.319-  21 1.97  37 1.97  20 2.01
  88  0.768  0.000  0.298-   4 1.97  20 1.97  21 2.01
  89  0.621  0.000  0.394-  25 1.95  21 1.97  26 2.01
  90  0.409  0.000  0.351-  22 1.97  26 1.99  21 2.01
  91  0.125  0.000  0.319-   7 1.97  23 1.97  22 2.01
  92  0.268  0.167  0.298-  22 1.97  38 1.97  23 2.01
  93  0.121  0.167  0.394-  27 1.95  23 1.97  24 2.01
  94  0.047  0.166  0.479-  24 1.97  27 2.00  28 2.01
  95  0.762  0.167  0.447-  25 1.97  41 1.97  24 2.01
  96  0.906  0.000  0.426-  24 1.97   8 1.97  25 2.02
  97  0.759  1.000  0.521-  29 1.93  25 1.98  30 2.02
  98  0.547  0.000  0.479-  26 1.97  30 2.00  25 2.01
  99  0.262  0.000  0.447-  27 1.97  11 1.97  26 2.01
 100  0.405  0.167  0.426-  42 1.97  26 1.97  27 2.02
 101  0.260  0.167  0.521-  31 1.93  27 1.99  28 2.01
 102  0.189  0.167  0.608-  28 1.98  31 1.99  32 2.09
 103  0.901  0.167  0.573-  45 1.97  29 1.97  28 2.00
 104  0.046  1.000  0.554-  12 1.97  28 1.97  29 2.03
 105  0.907  0.000  0.647-  33 1.85  29 2.00  34 2.08
 106  0.690  0.000  0.607-  30 1.98  29 1.99  34 2.08
 107  0.401  0.000  0.574-  31 1.97  15 1.97  30 2.01
 108  0.545  0.167  0.553-  30 1.97  46 1.97  31 2.02
 109  0.406  0.166  0.647-  35 1.84  31 1.99  32 2.09
 110  0.342  0.167  0.733-  35 1.86  32 1.91
 111  0.047  0.167  0.710-  33 2.01  49 2.01  32 2.04
[...]
 133  0.261  0.500  0.522-  47 1.98  43 1.99  44 2.00
 134  0.190  0.500  0.608-  44 1.97  47 1.98  48 2.09
 135  0.902  0.500  0.574-  45 1.97  13 1.97  44 2.02
 136  0.047  0.333  0.553-  28 1.97  44 1.97  45 2.02
 137  0.906  0.332  0.646-  49 1.84  45 2.01  50 2.08
 138  0.690  0.331  0.606-  46 1.97  45 1.99  50 2.03
 139  0.402  0.333  0.575-  31 1.97  47 1.98  46 2.01
 140  0.546  0.500  0.554-  14 1.97  46 1.97  47 2.03
 141  0.407  0.500  0.650-  51 1.94  47 1.99  48 2.05
 142  0.341  0.500  0.735-  51 1.86  48 1.90
 143  0.048  0.500  0.710-  17 2.00  49 2.00  48 2.07
 144  0.187  0.334  0.682-  32 1.97  48 1.98  49 2.05
 145  0.836  0.340  0.732-  49 1.88  50 1.94
 146  0.550  0.331  0.709-  35 1.99  51 2.01  50 2.03
 147  0.684  0.500  0.676-  50 1.97  18 1.97  51 2.08

IMPORTANT INFORMATION: All symmetrisations will be switched off!
NOSYMM: (Re-)initialisation of all symmetry stuff for point group C_1.

                                     Primitive cell

  volume of cell :    3393.6075

  direct lattice vectors                    reciprocal lattice vectors
    10.417029087  0.000000000  0.000000000     0.095996660 -0.000000000  0.000000000
     0.000000000 11.576961846  0.000000000     0.000000000  0.086378448  0.000000000
     0.000000000  0.000000000 28.139937787     0.000000000  0.000000000  0.035536681

  length of vectors
    10.417029087 11.576961846 28.139937787     0.095996660  0.086378448  0.035536681

  position of ions in fractional coordinates (direct lattice)
     0.688449876  0.566635462  0.772210082
     0.688453087  0.433361418  0.772209633
     0.629965102  0.500001787  0.774328675
     0.803992356  0.833333333  0.293009548
     0.588300636  0.666666667  0.324854233
     0.303992356  0.666666667  0.293009548
     0.088300636  0.833333333  0.324854233
     0.942128050  0.833386652  0.421200123
     0.725117134  0.666382078  0.451319283
     0.441539099  0.666527063  0.421096401
[...]
      3.78024      1.92970     16.26921        -0.000305     -0.000696      0.003035
      2.35678      1.93615     19.14599        -0.002728     -0.001613      0.001147
     10.41301     11.57696     19.77002        -0.003180      0.000005      0.002704
      7.57437     11.57696     19.11726         0.003569     -0.000010      0.002247
      5.21260      1.92063     19.77172         0.000991      0.000105      0.000063
      8.37521      5.78848      8.24527         3.558954     -0.000003      1.516795
      6.12834      3.85899      9.14138        -1.495424      0.001316     -1.578056
      3.16670      3.85899      8.24527         3.520207      0.004769      1.499675
      0.91983      5.78848      9.14138        -1.511231     -0.000004     -1.520445
      9.82492      5.78848     11.85204         0.005230     -0.000029     -0.000201
      7.55357      3.86228     12.70010        -0.002120     -0.004938     -0.000559
      4.59953      3.86060     11.84963         0.001406      0.002538     -0.000116
      2.34323      5.78848     12.73593        -0.002872     -0.000009     -0.003550
      0.88647      5.78848     15.47433        -0.001968     -0.000009     -0.002677
      9.00067      3.86160     16.23498        -0.004443     -0.007157      0.000190
      6.05364      3.86055     15.44109        -0.001011     -0.002233      0.001860
      3.80106      5.78848     16.34665         0.004941     -0.000008      0.005058
      2.39753      5.78848     19.16866        -0.001121      0.000006     -0.004269
     10.39317      3.87220     19.77109        -0.001706     -0.000241      0.002561
      7.54525      3.86700     19.05713        -0.000673      0.008670      0.001273
      5.25210      5.78848     19.94300         0.000277      0.000029     -0.012981
      5.03536      7.71797      7.50000        -1.757722      0.000457      0.965390
     10.24388      9.64747      7.50000        -1.756513      0.000743      0.961133
      9.46820      9.64747      9.88665        -0.827867     -0.000796     -0.104831
      6.50655      9.64747      8.99054         0.367942     -0.000288     -0.103733
      7.99701      7.71797      8.39611         0.237877      0.004500     -1.061528
      6.46492      7.71797     11.08443        -0.091055      0.002795      0.315074
      4.25968      7.71797      9.88665        -0.834945     -0.001740     -0.109644
      1.29803      7.71797      8.99054         0.378160      0.011388     -0.111693
      2.78849      9.64747      8.39611         0.247348     -0.000270     -1.063454
[...]
      2.72222      5.78848     14.69022        -0.002162      0.000002      0.000080
      1.98015      5.78848     17.11827        -0.007195      0.000001     -0.001897
      9.39750      5.78848     16.15124        -0.001684      0.000002      0.000458
      0.48690      3.85988     15.57314        -0.001153     -0.002170     -0.001147
      9.44142      3.84672     18.19238        -0.000331      0.000251     -0.003998
      7.18962      3.82762     17.05539        -0.001222     -0.004836     -0.003157
      4.18841      3.85912     16.17838         0.001154      0.003905     -0.000735
      5.68881      5.78848     15.59452        -0.004399     -0.000021     -0.001444
      4.24416      5.78848     18.28831        -0.006138     -0.000000     -0.008988
      3.54860      5.78848     20.68343         0.000277      0.000001      0.001798
      0.49539      5.78848     19.97921         0.001298     -0.000030      0.002093
      1.94541      3.86315     19.20495        -0.003008      0.002579      0.003222
      8.71057      3.93495     20.60199         0.002108      0.000925      0.001424
      5.72991      3.83636     19.96145        -0.003136     -0.002198     -0.002141
      7.12729      5.78848     19.03287         0.001993     -0.000021     -0.015359
    total drift:                               -0.002447      0.000002      0.003532

  FREE ENERGIE OF THE ION-ELECTRON SYSTEM (eV)
  free  energy   TOTEN  =     -1160.14063518 eV

  energy  without entropy=    -1160.14063518  energy(sigma->0) =    -1160.14063518

 d Force = 0.9828305E-04[-0.123E-02, 0.142E-02]  d Energy =-0.1263189E-03 0.225E-03
 d Force =-0.4243976E+02[-0.425E+02,-0.424E+02]  d Ewald  =-0.4243988E+02 0.115E-03

 Finite differences progress:
  Degree of freedom:   9/  9
  Displacement:        2/  2
  Total:              18/ 18

 SECOND DERIVATIVES (NOT SYMMETRIZED)
               1X          1Y          1Z          2X          2Y          2Z          3X          3Y          3Z
  1X   -18.001635  -18.414560    0.474282   -1.256506   -2.311710    0.056645   19.171476   20.591771   -0.989231
  1Y   -18.416592  -30.412626    1.508830    2.308676    3.008260   -0.191304   16.071597   27.470949   -1.827636
  1Z     0.462625    1.499992   -1.756537    0.054160    0.192507   -0.183944   -1.198847   -2.404132    1.518918
  2X    -1.256015    2.309481    0.058950  -17.991888   18.399287    0.474525   19.164515  -20.577854   -0.984981
  2Y    -2.313499    3.008439    0.191184   18.402533  -30.395486   -1.507213  -16.054894   27.468847    1.823989
  2Z     0.052987   -0.193829   -0.185431    0.462138   -1.498652   -1.762115   -1.196564    2.403614    1.515861
  3X    19.148581   16.047490   -1.204076   19.139388  -16.032495   -1.203057  -40.570915   -0.015270    1.737427
  3Y    20.596770   27.463966   -2.414106  -20.581180   27.450913    2.413568   -0.009976  -57.587347   -0.000026
  3Z    -0.977248   -1.819971    1.504435   -0.973988    1.817906    1.507928    1.728908   -0.005847   -6.620860

 Eigenvectors and eigenvalues of the dynamical matrix

   1 f  =  107.099944 THz   672.928792 2PiTHz 3572.469578 cm-1   442.929577 meV
             X         Y         Z           dx          dy          dz
      7.171602  6.559917 21.729944    -0.420288   -0.544839    0.027751
      7.171636  5.017009 21.729931     0.411377   -0.531783   -0.027242
      6.562365  5.788502 21.789561     0.002217    0.270125   -0.000200
      8.375212  9.647468  8.245270            0           0           0
      6.128345  7.717975  9.141378            0           0           0
      3.166697  7.717975  8.245270            0           0           0
      0.919830  9.647468  9.141378            0           0           0
      9.814175  9.648085 11.852545            0           0           0
      7.553566  7.714680 12.700097            0           0           0
      4.599526  7.716358 11.849627            0           0           0
      2.339095  9.647306 12.712158            0           0           0
      0.860512  9.649529 15.462276            0           0           0
      9.000669  7.715357 16.234981            0           0           0
      6.053640  7.716411 15.441088            0           0           0
      3.780237  9.647265 16.269213            0           0           0
      2.356783  9.640813 19.145989            0           0           0
     10.393170  7.704758 19.771085            0           0           0
      7.545254  7.709963 19.057130            0           0           0
      5.212604  9.656332 19.771716            0           0           0
      8.375212  1.929494  8.245270            0           0           0
      6.128345  0.000000  9.141378            0           0           0
      3.166697  0.000000  8.245270            0           0           0
      0.919830  1.929494  9.141378            0           0           0
      9.814175  1.928876 11.852546            0           0           0
      7.549201 11.576962 12.704689            0           0           0
      4.601794 11.576962 11.851591            0           0           0
      2.339095  1.929655 12.712159            0           0           0
      0.860512  1.927432 15.462276            0           0           0
      8.988583 11.576962 16.250436            0           0           0
      6.057444  0.000000 15.451685            0           0           0
      3.780236  1.929696 16.269215            0           0           0
      2.356784  1.936150 19.145990            0           0           0
     10.413015 11.576962 19.770018            0           0           0
      7.574375 11.576962 19.117258            0           0           0
      5.212605  1.920630 19.771716            0           0           0
      8.375212  5.788481  8.245270            0           0           0
      6.128345  3.858987  9.141378            0           0           0
      3.166697  3.858987  8.245270            0           0           0
      0.919830  5.788481  9.141378            0           0           0
      9.824916  5.788482 11.852044            0           0           0
      7.553566  3.862282 12.700097            0           0           0
      4.599526  3.860604 11.849627            0           0           0
      2.343234  5.788481 12.735932            0           0           0
      0.886474  5.788481 15.474333            0           0           0
      9.000668  3.861603 16.234983            0           0           0
      6.053641  3.860551 15.441089            0           0           0
      3.801062  5.788481 16.346648            0           0           0
      2.397531  5.788481 19.168655            0           0           0
     10.393170  3.872204 19.771086            0           0           0
      7.545255  3.866998 19.057127            0           0           0
      5.252099  5.788480 19.943000            0           0           0
      5.035361  7.717975  7.500000            0           0           0
     10.243876  9.647468  7.500000            0           0           0
      9.468196  9.647468  9.886648            0           0           0
      6.506548  9.647468  8.990541            0           0           0
      7.997009  7.717975  8.396107            0           0           0
      6.464922  7.717975 11.084430            0           0           0
      4.259681  7.717975  9.886648            0           0           0
      1.298033  7.717975  8.990541            0           0           0
      2.788494  9.647468  8.396107            0           0           0
[...]
      2.722216  5.788481 14.690222            0           0           0
      1.980152  5.788480 17.118269            0           0           0
      9.397503  5.788480 16.151241            0           0           0
      0.486898  3.859876 15.573136            0           0           0
      9.441419  3.846717 18.192379            0           0           0
      7.189616  3.827616 17.055395            0           0           0
      4.188411  3.859122 16.178383            0           0           0
      5.688810  5.788481 15.594521            0           0           0
      4.244159  5.788481 18.288311            0           0           0
      3.548596  5.788479 20.683428            0           0           0
      0.495393  5.788482 19.979209            0           0           0
      1.945405  3.863151 19.204947            0           0           0
      8.710565  3.934953 20.601992            0           0           0
      5.729912  3.836361 19.961450            0           0           0
      7.127286  5.788480 19.032874            0           0           0

[...]

   9 f  =    4.305618 THz    27.052997 2PiTHz  143.619963 cm-1    17.806598 meV
             X         Y         Z           dx          dy          dz
      7.171602  6.559917 21.729944    -0.218161    0.000081    0.159807
      7.171636  5.017009 21.729931    -0.210020   -0.004554    0.148406
      6.562365  5.788502 21.789561    -0.847029   -0.022615    0.377816
      8.375212  9.647468  8.245270            0           0           0
      6.128345  7.717975  9.141378            0           0           0
      3.166697  7.717975  8.245270            0           0           0
      0.919830  9.647468  9.141378            0           0           0
      9.814175  9.648085 11.852545            0           0           0
      7.553566  7.714680 12.700097            0           0           0
      4.599526  7.716358 11.849627            0           0           0
      2.339095  9.647306 12.712158            0           0           0
      0.860512  9.649529 15.462276            0           0           0
      9.000669  7.715357 16.234981            0           0           0
      6.053640  7.716411 15.441088            0           0           0
      3.780237  9.647265 16.269213            0           0           0
      2.356783  9.640813 19.145989            0           0           0
     10.393170  7.704758 19.771085            0           0           0
      7.545254  7.709963 19.057130            0           0           0
      5.212604  9.656332 19.771716            0           0           0
      8.375212  1.929494  8.245270            0           0           0
      6.128345  0.000000  9.141378            0           0           0
      3.166697  0.000000  8.245270            0           0           0
      0.919830  1.929494  9.141378            0           0           0
      9.814175  1.928876 11.852546            0           0           0
      7.549201 11.576962 12.704689            0           0           0
      4.601794 11.576962 11.851591            0           0           0
      2.339095  1.929655 12.712159            0           0           0
      0.860512  1.927432 15.462276            0           0           0
      8.988583 11.576962 16.250436            0           0           0
      6.057444  0.000000 15.451685            0           0           0
      3.780236  1.929696 16.269215            0           0           0
      2.356784  1.936150 19.145990            0           0           0
     10.413015 11.576962 19.770018            0           0           0
      7.574375 11.576962 19.117258            0           0           0
      5.212605  1.920630 19.771716            0           0           0
      8.375212  5.788481  8.245270            0           0           0
      6.128345  3.858987  9.141378            0           0           0
      3.166697  3.858987  8.245270            0           0           0
      0.919830  5.788481  9.141378            0           0           0
      9.824916  5.788482 11.852044            0           0           0
      7.553566  3.862282 12.700097            0           0           0
      4.599526  3.860604 11.849627            0           0           0
      2.343234  5.788481 12.735932            0           0           0
      0.886474  5.788481 15.474333            0           0           0
      9.000668  3.861603 16.234983            0           0           0
      6.053641  3.860551 15.441089            0           0           0
      3.801062  5.788481 16.346648            0           0           0
      2.397531  5.788481 19.168655            0           0           0
     10.393170  3.872204 19.771086            0           0           0
      7.545255  3.866998 19.057127            0           0           0
      5.252099  5.788480 19.943000            0           0           0
      5.035361  7.717975  7.500000            0           0           0
     10.243876  9.647468  7.500000            0           0           0
      9.468196  9.647468  9.886648            0           0           0
      6.506548  9.647468  8.990541            0           0           0
      7.997009  7.717975  8.396107            0           0           0
      6.464922  7.717975 11.084430            0           0           0
      4.259681  7.717975  9.886648            0           0           0
      1.298033  7.717975  8.990541            0           0           0
      2.788494  9.647468  8.396107            0           0           0
[...]
      2.722216  5.788481 14.690222            0           0           0
      1.980152  5.788480 17.118269            0           0           0
      9.397503  5.788480 16.151241            0           0           0
      0.486898  3.859876 15.573136            0           0           0
      9.441419  3.846717 18.192379            0           0           0
      7.189616  3.827616 17.055395            0           0           0
      4.188411  3.859122 16.178383            0           0           0
      5.688810  5.788481 15.594521            0           0           0
      4.244159  5.788481 18.288311            0           0           0
      3.548596  5.788479 20.683428            0           0           0
      0.495393  5.788482 19.979209            0           0           0
      1.945405  3.863151 19.204947            0           0           0
      8.710565  3.934953 20.601992            0           0           0
      5.729912  3.836361 19.961450            0           0           0
      7.127286  5.788480 19.032874            0           0           0

 Finite differences POTIM=   1.0000000000000000E-002