 vasp.6.3.0 20Jan22 (build Dec 25 2023 18:06:01) complex
 executed on        HPECrayEX_GCC date 2024.11.22  13:19:05

 INCAR:
   SYSTEM = TiO2
   ISMEAR = 0
   SIGMA = 0.05
   EDIFF = 1E-7
   ALGO = Normal
   ISTART = 0
   IBRION = 2
   NSW = 1000
   ISYM = 0
   ISIF = 2
   EDIFFG = -0.01
   DIPOL = 0.5 0.5 0.5
   IDIPOL = 3
   LDIPOL = .TRUE.
   LHFCALC = .TRUE.
   HFSCREEN = 0.2
   GGA = PE
   IVDW = 13
   VDW_S8 = 1.19528249
   VDW_A1 = 0.38663183
   VDW_A2 = 5.19133469
   ENCUT = 520
   PREC = Normal
   PRECFOCK = Fast
   LASPH = .TRUE.
   LREAL = .FALSE.
   ISPIN = 1
   NKREDX = 3
   NKREDY = 3
   NELM = 200
   NELMIN = 8
   NCORE = 8
   KPAR = 1
   LWAVE = .FALSE.
   LCHARG = .FALSE.

 POTCAR:    PAW_PBE H 15Jun2001
 POTCAR:    PAW_PBE O 08Apr2002
 POTCAR:    PAW_PBE Ti 08Apr2002
 POTCAR:    PAW_PBE O 08Apr2002
 POTCAR:    PAW_PBE H 15Jun2001
   VRHFIN =H: ultrasoft test

   TITEL  = PAW_PBE H 15Jun2001
   POMASS =    1.000; ZVAL   =    1.000    mass and valenz
   ENMAX  =  250.000; ENMIN  =  200.000 eV

   TITEL  = PAW_PBE O 08Apr2002
   POMASS =   16.000; ZVAL   =    6.000    mass and valenz
   ENMAX  =  400.000; ENMIN  =  300.000 eV

[...]

   TITEL  = PAW_PBE O 08Apr2002
   POMASS =   16.000; ZVAL   =    6.000    mass and valenz
   ENMAX  =  400.000; ENMIN  =  300.000 eV

  PAW_PBE H 15Jun2001                   :
  PAW_PBE O 08Apr2002                   :
  PAW_PBE Ti 08Apr2002                  :
  PAW_PBE O 08Apr2002                   :

 POSCAR:  H  O Ti  O
  positions in direct lattice
  velocities in cartesian coordinates
|           W    W    AA    RRRRR   N    N  II  N    N   GGGG   !!!           |
|           W    W   A  A   R    R  NN   N  II  NN   N  G    G  !!!           |
|           W    W  A    A  R    R  N N  N  II  N N  N  G       !!!           |
|           W WW W  AAAAAA  RRRRR   N  N N  II  N  N N  G  GGG   !            |
|           WW  WW  A    A  R   R   N   NN  II  N   NN  G    G                |
|           W    W  A    A  R    R  N    N  II  N    N   GGGG   !!!           |
|     Specifying the vdW parameters                                           |
|     VDW_S8 = 1.195                                                          |
|     VDW_A1 = 0.387                                                          |
|     VDW_A2 = 5.191                                                          |
|     in the INCAR file will overwrite the defaults for hse06. Please         |
|     make sure that is what you intended.                                    |

 ion  position               nearest neighbor table
   1  0.689  0.568  0.807-   3 0.97
   2  0.689  0.432  0.807-   3 0.97
   3  0.631  0.500  0.807-   2 0.97   1 0.97  51 2.23
   4  0.815  0.833  0.271-  88 1.92  54 1.92  56 1.92  53 1.97  55 1.97  21 3.03   7 3.03   5 3.03

   5  0.598  0.667  0.306- 119 1.92  52 1.92  55 1.92  57 1.92  56 1.97  58 1.97  36 3.03   6 3.03
                             4 3.03  10 3.06
   6  0.315  0.667  0.271- 124 1.92  58 1.92  60 1.92  52 1.97  59 1.97  39 3.03   5 3.03   7 3.03

   7  0.098  0.833  0.306-  91 1.92  53 1.92  59 1.92  61 1.92  54 1.97  60 1.97  22 3.03   4 3.03
                             6 3.03   8 3.06
   8  0.951  0.833  0.414-  96 1.92  64 1.92  62 1.92  54 1.96  61 1.97  63 1.97  11 2.98   9 3.04
                            25 3.04   7 3.06
   9  0.731  0.666  0.446-  57 1.89 127 1.92  63 1.92  65 1.95  66 1.97  64 1.98  10 3.00   8 3.04
                            40 3.04  14 3.08
  10  0.450  0.667  0.413- 132 1.92  68 1.92  66 1.92  58 1.96  67 1.97  57 1.98   9 3.00  11 3.04
                            43 3.04   5 3.06
  11  0.231  0.833  0.447-  61 1.90  99 1.92  67 1.92  62 1.95  69 1.96  68 1.99   8 2.98  26 3.04
                            10 3.04  12 3.08
  12  0.091  0.834  0.557- 104 1.91  70 1.92  72 1.92  71 1.97  69 1.97  62 1.99  15 2.94  13 3.03
                            29 3.04  11 3.08
  13  0.870  0.666  0.585-  65 1.87 135 1.92  71 1.92  74 1.94  73 1.99  72 1.99  14 2.97  12 3.03
                            44 3.05  18 3.14
  14  0.590  0.667  0.555- 140 1.92  76 1.92  74 1.93  66 1.96  75 1.97  65 1.98  13 2.97  15 3.04
                            47 3.05   9 3.08
  15  0.369  0.833  0.587-  69 1.87 107 1.92  75 1.93  70 1.94  77 1.98  76 1.99  12 2.94  30 3.04
                            14 3.04
  16  0.236  0.833  0.703-  78 1.85  80 1.92 112 1.93  79 2.00  77 2.05  70 2.08  19 2.84  33 3.06
                            17 3.08
  17  0.004  0.666  0.725-  73 1.79  81 1.84 143 1.95  79 1.96  80 2.03  18 2.86  16 3.08  48 3.09

[...]

  20  0.815  0.167  0.271-  88 1.92  86 1.92 120 1.92  85 1.97  87 1.97  21 3.03  23 3.03  37 3.03

[...]

  36  0.815  0.500  0.271-  56 1.92 120 1.92 118 1.92 117 1.97 119 1.97  37 3.03   5 3.03  39 3.03

  37  0.598  0.333  0.306- 119 1.92 116 1.92  87 1.92 121 1.92 120 1.97 122 1.97  36 3.03  38 3.03
                            20 3.03  42 3.06
  38  0.315  0.333  0.271- 124 1.92 122 1.92  92 1.92 116 1.97 123 1.97  39 3.03  37 3.03  23 3.03

  39  0.098  0.500  0.306-  59 1.92 123 1.92 117 1.92 125 1.92 118 1.97 124 1.97   6 3.03  38 3.03
                            36 3.03  40 3.05
  40  0.952  0.500  0.413- 128 1.92  64 1.92 126 1.93 125 1.96 118 1.96 127 1.98  43 2.99  41 3.04
                             9 3.04  39 3.05
  41  0.731  0.334  0.446- 121 1.89 127 1.92  95 1.92 129 1.95 130 1.97 128 1.98  42 3.00  24 3.04
                            40 3.04  46 3.08
  42  0.450  0.333  0.413- 132 1.92 100 1.92 130 1.92 122 1.96 131 1.97 121 1.98  41 3.00  27 3.04
                            43 3.04  37 3.06
  43  0.231  0.500  0.448- 131 1.92  67 1.92 125 1.92 126 1.94 133 1.96 132 1.99  40 2.99  10 3.04
                            42 3.04  44 3.05
  44  0.094  0.500  0.557- 134 1.92 136 1.92  72 1.92 133 1.95 135 1.99 126 1.99  47 2.95  13 3.05
                            45 3.05  43 3.05
  45  0.870  0.334  0.585- 129 1.87 135 1.92 103 1.92 138 1.94 137 1.99 136 1.99  46 2.97  28 3.03
                            44 3.05  50 3.14
  46  0.590  0.333  0.555- 140 1.92 108 1.92 138 1.93 130 1.96 139 1.97 129 1.98  45 2.97  31 3.04
                            47 3.05  41 3.08
  47  0.371  0.500  0.590- 133 1.92 139 1.92  75 1.92 134 1.93 141 1.97 140 2.00  44 2.95  46 3.05
                            14 3.05  48 3.11
  48  0.239  0.500  0.703- 142 1.86 144 1.92  80 1.92 141 2.01 143 2.03 134 2.07  51 2.87  17 3.09
                            49 3.09  47 3.11
  49  0.004  0.334  0.725- 137 1.79 145 1.84 143 1.95 111 1.96 144 2.03  50 2.86  32 3.08  48 3.09

  50  0.733  0.334  0.699- 145 1.88 147 1.91 115 1.93 146 1.99 138 2.01 137 2.05  49 2.86  35 3.07
                            51 3.07  45 3.14
  51  0.510  0.500  0.732- 142 1.82 141 1.87  82 1.96 146 1.96 147 2.07   3 2.23  48 2.87  18 3.07
                            50 3.07
  52  0.494  0.667  0.242-   5 1.92   6 1.97
  53  0.994  0.833  0.242-   7 1.92   4 1.97
  54  0.919  0.833  0.336-   4 1.92   8 1.96   7 1.97
  55  0.636  0.833  0.300-  21 1.92   5 1.92   4 1.97
  56  0.778  0.667  0.277-  36 1.92   4 1.92   5 1.97
  57  0.628  0.667  0.383-   9 1.89   5 1.92  10 1.98
  58  0.419  0.667  0.336-   6 1.92  10 1.96   5 1.97
  59  0.136  0.667  0.300-  39 1.92   7 1.92   6 1.97
  60  0.278  0.833  0.277-  22 1.92   6 1.92   7 1.97
  61  0.128  0.833  0.383-  11 1.90   7 1.92   8 1.97
  62  0.055  0.834  0.478-   8 1.92  11 1.95  12 1.99
  63  0.770  0.833  0.441-  25 1.92   9 1.92   8 1.97
  64  0.913  0.667  0.419-   8 1.92  40 1.92   9 1.98
  65  0.767  0.666  0.523-  13 1.87   9 1.95  14 1.98
  66  0.555  0.666  0.478-  10 1.92  14 1.96   9 1.97
  67  0.270  0.667  0.442-  43 1.92  11 1.92  10 1.97
  68  0.412  0.833  0.419-  10 1.92  26 1.92  11 1.99
  69  0.267  0.833  0.524-  15 1.87  11 1.96  12 1.97
  70  0.198  0.833  0.620-  12 1.92  15 1.94  16 2.08
  71  0.909  0.833  0.582-  29 1.92  13 1.92  12 1.97
  72  0.054  0.667  0.561-  44 1.92  12 1.92  13 1.99
  73  0.914  0.668  0.663-  17 1.79  13 1.99  18 2.05
  74  0.699  0.669  0.619-  14 1.93  13 1.94  18 2.01
  75  0.410  0.667  0.584-  47 1.92  15 1.93  14 1.97
  76  0.552  0.833  0.560-  30 1.92  14 1.92  15 1.99
  77  0.413  0.835  0.664-  19 1.79  15 1.98  16 2.05
  78  0.350  0.833  0.760-  19 1.83  16 1.85
  79  0.056  0.833  0.734-  33 1.96  17 1.96  16 2.00
  80  0.196  0.666  0.704-  16 1.92  48 1.92  17 2.03
  81  0.845  0.661  0.759-  17 1.84  18 1.88
  82  0.559  0.669  0.734-  19 1.95  51 1.96  18 1.99
  83  0.696  0.834  0.701-  34 1.92  18 1.93  19 2.03
  84  0.494  0.000  0.242-  21 1.92  22 1.97
  85  0.994  0.167  0.242-  23 1.92  20 1.97
  86  0.919  0.167  0.336-  20 1.92  24 1.96  23 1.97
  87  0.636  0.167  0.300-  21 1.92  37 1.92  20 1.97
  88  0.778  0.000  0.277-   4 1.92  20 1.92  21 1.97
  89  0.628  0.000  0.383-  25 1.89  21 1.92  26 1.98
  90  0.419  0.000  0.336-  22 1.92  26 1.96  21 1.97
  91  0.136  0.000  0.300-   7 1.92  23 1.92  22 1.97
  92  0.278  0.167  0.277-  22 1.92  38 1.92  23 1.97
  93  0.128  0.167  0.383-  27 1.90  23 1.92  24 1.97
  94  0.055  0.166  0.478-  24 1.92  27 1.95  28 1.99
  95  0.770  0.167  0.441-  25 1.92  41 1.92  24 1.97
  96  0.913  1.000  0.419-   8 1.92  24 1.92  25 1.99
  97  0.766  0.000  0.524-  29 1.87  25 1.95  30 1.98
  98  0.555  0.000  0.478-  26 1.92  25 1.96  30 1.98
  99  0.270  1.000  0.442-  11 1.92  27 1.92  26 1.97
 100  0.412  0.167  0.419-  42 1.92  26 1.92  27 1.99
 101  0.267  0.167  0.524-  31 1.87  27 1.96  28 1.97
 102  0.198  0.167  0.620-  28 1.92  31 1.94  32 2.08
 103  0.909  0.167  0.582-  29 1.92  45 1.92  28 1.97
 104  0.054  0.000  0.561-  12 1.91  28 1.91  29 2.00
 105  0.914  1.000  0.664-  33 1.79  29 1.98  34 2.05
 106  0.698  0.000  0.619-  30 1.92  29 1.93  34 2.07
 107  0.409  0.000  0.583-  31 1.92  15 1.92  30 1.97
 108  0.552  0.167  0.560-  30 1.92  46 1.92  31 1.99
 109  0.413  0.165  0.664-  35 1.79  31 1.98  32 2.05
 110  0.350  0.167  0.760-  35 1.83  32 1.85
 111  0.056  0.167  0.734-  33 1.96  49 1.96  32 2.00
[...]
 133  0.269  0.500  0.525-  47 1.92  44 1.95  43 1.96
 134  0.198  0.500  0.621-  44 1.92  47 1.93  48 2.07
 135  0.910  0.500  0.582-  45 1.92  13 1.92  44 1.99
 136  0.054  0.333  0.561-  44 1.92  28 1.92  45 1.99
 137  0.914  0.332  0.663-  49 1.79  45 1.99  50 2.05
 138  0.699  0.331  0.619-  46 1.93  45 1.94  50 2.01
 139  0.410  0.333  0.584-  47 1.92  31 1.93  46 1.97
 140  0.553  0.500  0.561-  46 1.92  14 1.92  47 2.00
 141  0.415  0.500  0.668-  51 1.87  47 1.97  48 2.01
 142  0.348  0.500  0.763-  51 1.82  48 1.86
 143  0.056  0.500  0.734-  17 1.95  49 1.95  48 2.03
 144  0.196  0.334  0.704-  32 1.92  48 1.92  49 2.03
 145  0.845  0.339  0.759-  49 1.84  50 1.88
 146  0.559  0.331  0.734-  35 1.95  51 1.96  50 1.99
 147  0.693  0.500  0.697-  50 1.91  18 1.91  51 2.07

IMPORTANT INFORMATION: All symmetrisations will be switched off!
NOSYMM: (Re-)initialisation of all symmetry stuff for point group C_1.

                                     Primitive cell

  volume of cell :    2859.6974

  direct lattice vectors                    reciprocal lattice vectors
    10.250982430  0.000000000  0.000000000     0.097551626 -0.000000000  0.000000000
[...]
   0.442E+02 -.272E-02 -.135E+04   -.861E+02 0.458E-02 0.136E+04   0.367E+02 -.488E-03 -.770E+01   0.260E-03 -.157E-03 -.719E-03
   0.958E+01 -.870E-01 0.884E+03   -.639E+01 0.884E-01 -.881E+03   0.959E+00 0.555E-03 -.204E+01   -.145E-05 -.883E-05 0.106E-03
   -.153E+01 -.987E-01 0.712E+03   0.467E+00 0.100E+00 -.713E+03   -.736E+00 -.152E-03 -.873E+00   0.128E-04 0.195E-05 0.348E-03
   0.970E+01 -.365E-01 0.884E+03   -.653E+01 0.344E-01 -.881E+03   0.948E+00 -.495E-03 -.204E+01   -.725E-05 -.556E-05 0.915E-04
   -.198E+01 -.254E-01 0.712E+03   0.884E+00 0.212E-01 -.713E+03   -.745E+00 -.765E-03 -.876E+00   -.403E-05 -.654E-05 0.363E-03
   -.533E+00 -.381E-01 0.326E+03   0.386E+00 0.318E-01 -.326E+03   0.137E+00 0.695E-03 0.426E-01   0.115E-05 0.374E-04 0.940E-03
   0.361E+00 -.820E+00 0.208E+03   -.253E+00 0.815E+00 -.207E+03   -.681E-01 0.113E-01 -.115E+00   0.142E-04 0.157E-04 0.104E-02
   0.421E+00 -.187E+00 0.327E+03   -.548E+00 0.190E+00 -.327E+03   0.123E+00 0.289E-02 0.190E-01   -.340E-05 -.361E-06 0.900E-03
   -.124E+01 0.678E-01 0.204E+03   0.137E+01 -.695E-01 -.204E+03   -.697E-01 -.741E-05 -.103E+00   0.399E-04 0.105E-03 0.100E-02
   -.278E+01 -.958E+00 -.199E+03   0.253E+01 0.945E+00 0.199E+03   0.231E+00 0.750E-02 0.147E+00   0.689E-04 0.235E-04 0.967E-03
   -.456E+01 -.170E+01 -.297E+03   0.484E+01 0.175E+01 0.297E+03   -.152E+00 -.375E-01 -.221E+00   -.657E-04 0.603E-04 0.826E-03
   0.552E+00 -.121E+01 -.189E+03   -.729E+00 0.121E+01 0.189E+03   0.177E+00 -.174E-02 0.818E-01   0.236E-04 0.535E-04 0.102E-02
   0.102E+01 -.977E+00 -.306E+03   -.731E+00 0.981E+00 0.307E+03   -.168E+00 -.843E-02 -.236E+00   0.703E-04 0.444E-04 0.832E-03
   0.976E+01 -.487E+01 -.710E+03   -.105E+02 0.488E+01 0.709E+03   0.594E+00 0.630E-03 0.302E-01   0.117E-04 0.254E-04 0.128E-03
   -.331E+02 -.109E+02 -.818E+03   0.338E+02 0.108E+02 0.818E+03   -.141E+00 0.126E+00 0.696E+00   -.957E-04 -.120E-04 -.884E-04
   -.626E+01 -.208E+02 -.676E+03   0.568E+01 0.209E+02 0.676E+03   0.481E+00 -.351E-01 0.109E+00   -.128E-04 -.361E-04 0.333E-03
   -.195E+02 -.145E+02 -.816E+03   0.201E+02 0.145E+02 0.816E+03   -.929E-01 0.273E-01 0.716E+00   -.200E-04 -.403E-04 -.990E-04
   0.958E+01 0.870E-01 0.884E+03   -.639E+01 -.884E-01 -.881E+03   0.959E+00 -.555E-03 -.204E+01   -.128E-05 0.101E-04 0.106E-03
   -.159E+01 -.448E-05 0.712E+03   0.506E+00 0.456E-05 -.713E+03   -.740E+00 0.425E-06 -.876E+00   -.821E-05 0.127E-05 0.375E-03
   0.967E+01 -.224E-05 0.884E+03   -.649E+01 0.239E-05 -.881E+03   0.956E+00 0.336E-06 -.204E+01   0.158E-04 0.126E-05 0.118E-03
   -.198E+01 0.254E-01 0.712E+03   0.884E+00 -.212E-01 -.713E+03   -.745E+00 0.766E-03 -.876E+00   -.417E-05 0.781E-05 0.364E-03
   -.533E+00 0.381E-01 0.326E+03   0.386E+00 -.318E-01 -.326E+03   0.137E+00 -.694E-03 0.426E-01   0.143E-05 -.349E-04 0.942E-03
   -.489E+00 -.239E-04 0.206E+03   0.601E+00 0.292E-04 -.206E+03   -.539E-01 0.127E-05 -.111E+00   -.357E-04 0.317E-05 0.101E-02
   0.323E+00 -.641E-06 0.326E+03   -.462E+00 0.355E-05 -.326E+03   0.128E+00 0.807E-06 0.304E-01   0.694E-04 0.237E-05 0.997E-03
   -.124E+01 -.678E-01 0.204E+03   0.137E+01 0.695E-01 -.204E+03   -.697E-01 0.783E-05 -.103E+00   0.397E-04 -.102E-03 0.101E-02
   -.278E+01 0.958E+00 -.199E+03   0.253E+01 -.945E+00 0.199E+03   0.231E+00 -.750E-02 0.147E+00   0.687E-04 -.153E-04 0.976E-03
   -.323E+01 0.123E-06 -.304E+03   0.352E+01 -.584E-05 0.305E+03   -.150E+00 -.128E-05 -.215E+00   -.463E-04 0.109E-04 0.753E-03
   -.100E+01 0.390E-04 -.196E+03   0.774E+00 -.449E-04 0.196E+03   0.214E+00 -.133E-05 0.152E+00   -.548E-05 0.833E-05 0.964E-03
   0.102E+01 0.977E+00 -.306E+03   -.731E+00 -.981E+00 0.307E+03   -.168E+00 0.842E-02 -.236E+00   0.716E-04 -.343E-04 0.846E-03
   0.976E+01 0.487E+01 -.710E+03   -.105E+02 -.488E+01 0.709E+03   0.594E+00 -.629E-03 0.302E-01   0.155E-04 -.157E-05 0.144E-03
   -.274E+02 -.117E-04 -.822E+03   0.281E+02 -.147E-05 0.822E+03   -.135E+00 0.538E-05 0.676E+00   -.643E-04 0.273E-04 -.567E-04
   0.296E+01 -.485E-05 -.706E+03   -.368E+01 -.685E-05 0.706E+03   0.543E+00 0.502E-05 0.683E-01   -.139E-03 0.291E-04 0.913E-04
   -.195E+02 0.145E+02 -.816E+03   0.201E+02 -.145E+02 0.816E+03   -.930E-01 -.273E-01 0.716E+00   -.130E-04 0.816E-04 -.792E-04
   0.956E+01 0.232E-05 0.884E+03   -.636E+01 -.249E-05 -.881E+03   0.962E+00 -.312E-06 -.204E+01   0.102E-04 -.128E-05 0.919E-04
   -.153E+01 0.987E-01 0.712E+03   0.467E+00 -.100E+00 -.713E+03   -.736E+00 0.152E-03 -.873E+00   0.127E-04 -.322E-05 0.348E-03
   0.970E+01 0.365E-01 0.884E+03   -.653E+01 -.344E-01 -.881E+03   0.948E+00 0.495E-03 -.204E+01   -.708E-05 0.430E-05 0.913E-04
   -.214E+01 0.243E-05 0.711E+03   0.107E+01 -.231E-05 -.713E+03   -.744E+00 -.376E-06 -.848E+00   -.149E-04 -.127E-05 0.331E-03
   -.579E+00 0.814E-05 0.325E+03   0.405E+00 -.120E-04 -.326E+03   0.141E+00 -.136E-05 0.674E-01   -.106E-04 -.247E-05 0.872E-03
   0.361E+00 0.820E+00 0.208E+03   -.253E+00 -.815E+00 -.207E+03   -.681E-01 -.113E-01 -.115E+00   0.142E-04 -.189E-04 0.104E-02
   0.421E+00 0.187E+00 0.327E+03   -.548E+00 -.190E+00 -.327E+03   0.123E+00 -.289E-02 0.190E-01   -.311E-05 -.200E-05 0.902E-03
   -.168E+01 -.546E-05 0.200E+03   0.183E+01 0.435E-05 -.200E+03   -.811E-01 -.164E-06 -.186E-01   -.553E-04 -.304E-05 0.986E-03
   -.211E+01 0.414E-04 -.200E+03   0.184E+01 -.357E-04 0.199E+03   0.209E+00 -.702E-06 0.158E+00   -.185E-03 -.816E-05 0.872E-03
   -.456E+01 0.170E+01 -.297E+03   0.484E+01 -.175E+01 0.297E+03   -.152E+00 0.375E-01 -.221E+00   -.678E-04 -.713E-04 0.844E-03
   0.552E+00 0.121E+01 -.189E+03   -.729E+00 -.121E+01 0.189E+03   0.177E+00 0.174E-02 0.818E-01   0.268E-04 -.619E-04 0.103E-02
   0.149E+01 -.671E-04 -.316E+03   -.123E+01 0.732E-04 0.316E+03   -.157E+00 0.191E-05 -.729E-01   -.951E-04 -.104E-04 0.721E-03
   0.154E+02 -.233E-04 -.706E+03   -.160E+02 0.393E-04 0.706E+03   0.470E+00 -.125E-05 0.932E-01   -.953E-04 -.238E-04 0.167E-03
   -.331E+02 0.109E+02 -.818E+03   0.338E+02 -.108E+02 0.818E+03   -.141E+00 -.126E+00 0.696E+00   -.111E-03 -.165E-04 -.729E-04
   -.626E+01 0.208E+02 -.676E+03   0.568E+01 -.209E+02 0.676E+03   0.481E+00 0.351E-01 0.109E+00   -.133E-04 0.471E-05 0.355E-03
   0.176E+02 -.222E-03 -.787E+03   -.166E+02 0.232E-03 0.787E+03   -.491E+00 -.368E-05 0.336E+00   0.257E-04 -.411E-04 0.411E-04
   -.671E+01 -.169E+00 0.142E+04   0.119E+02 0.170E+00 -.144E+04   -.629E+01 -.150E-02 0.164E+02   0.528E-05 -.757E-05 -.130E-03
   -.710E+01 -.155E+00 0.142E+04   0.123E+02 0.154E+00 -.144E+04   -.628E+01 0.226E-02 0.164E+02   -.100E-04 -.184E-04 -.110E-03
   0.452E+02 -.243E-01 0.898E+03   -.499E+02 0.161E-01 -.894E+03   0.316E+01 0.726E-02 -.392E+01   0.479E-06 -.493E-05 0.795E-03
   0.322E+02 -.118E+00 0.109E+04   -.394E+02 0.121E+00 -.109E+04   0.666E+01 -.435E-02 -.235E+01   0.100E-04 -.164E-06 0.486E-03
   -.445E+02 -.167E+00 0.125E+04   0.518E+02 0.165E+00 -.125E+04   -.605E+01 -.400E-03 -.392E+00   0.616E-05 -.181E-04 0.233E-03
   -.382E+02 -.559E+00 0.672E+03   0.442E+02 0.600E+00 -.676E+03   -.531E+01 -.333E-01 0.384E+01   0.998E-05 0.296E-04 0.116E-02
   0.460E+02 0.554E-01 0.898E+03   -.507E+02 -.374E-01 -.894E+03   0.313E+01 -.198E-01 -.376E+01   0.109E-04 0.271E-04 0.777E-03
   0.316E+02 -.119E-01 0.109E+04   -.389E+02 0.250E-02 -.109E+04   0.668E+01 0.167E-01 -.237E+01   -.772E-05 -.321E-05 0.460E-03
   -.445E+02 -.643E-01 0.125E+04   0.517E+02 0.670E-01 -.125E+04   -.602E+01 -.481E-02 -.395E+00   0.143E-05 0.694E-05 0.251E-03
[...]
   0.472E+02 0.734E-05 -.672E+03   -.548E+02 0.137E-04 0.679E+03   0.660E+01 0.943E-06 -.679E+01   0.978E-04 -.203E-04 0.100E-02
   0.328E+02 0.157E-03 -.446E+03   -.387E+02 -.146E-03 0.449E+03   0.512E+01 0.475E-05 -.261E+01   0.779E-05 -.151E-04 0.119E-02
   -.446E+02 0.113E+01 -.301E+03   0.509E+02 -.115E+01 0.299E+03   -.555E+01 0.159E-01 0.224E+01   0.220E-04 -.195E-03 0.138E-02
   -.532E+02 0.113E+02 -.843E+03   0.559E+02 -.119E+02 0.833E+03   -.238E+01 0.534E+00 0.871E+01   0.696E-06 -.432E-04 0.643E-03
   0.433E+02 0.111E+02 -.646E+03   -.502E+02 -.118E+02 0.652E+03   0.596E+01 0.598E+00 -.523E+01   -.911E-05 -.109E-04 0.968E-03
   0.429E+02 0.154E+01 -.456E+03   -.492E+02 -.160E+01 0.459E+03   0.549E+01 0.520E-01 -.268E+01   0.115E-03 -.817E-04 0.124E-02
   -.366E+02 0.880E-04 -.299E+03   0.426E+02 -.755E-04 0.296E+03   -.522E+01 -.548E-06 0.184E+01   0.655E-04 -.116E-04 0.126E-02
   -.236E+02 0.308E-03 -.848E+03   0.295E+02 -.337E-03 0.841E+03   -.508E+01 0.556E-04 0.611E+01   0.348E-04 -.323E-04 0.656E-03
   0.716E+02 -.362E-03 -.139E+04   -.783E+02 0.432E-03 0.141E+04   0.582E+01 -.749E-05 -.199E+02   0.221E-03 -.535E-04 -.154E-03
   0.163E+02 -.258E-03 -.126E+04   -.194E+02 0.305E-03 0.127E+04   0.277E+01 0.139E-04 -.686E+01   0.146E-04 -.368E-04 -.198E-03
   -.214E+02 0.822E+01 -.107E+04   0.262E+02 -.807E+01 0.106E+04   -.412E+01 -.129E+00 0.255E+01   0.383E-04 0.307E-04 0.147E-03
   -.311E+02 0.420E+02 -.138E+04   0.256E+02 -.417E+02 0.140E+04   0.483E+01 -.273E+00 -.182E+02   -.157E-03 -.232E-04 -.302E-03
   0.559E+02 0.554E+02 -.122E+04   -.603E+02 -.553E+02 0.123E+04   0.386E+01 -.793E-01 -.631E+01   0.873E-04 0.109E-05 0.100E-03
   -.357E+02 -.245E-03 -.959E+03   0.389E+02 0.307E-03 0.953E+03   -.274E+01 0.855E-05 0.502E+01   -.211E-04 -.382E-04 0.379E-03
   -.396E+02 0.156E-03 0.747E+02   -.782E-13 0.675E-12 0.500E-11   0.372E+02 0.573E-04 -.677E+02   0.140E-02 -.184E-03 0.994E-01

 POSITION                                       TOTAL-FORCE (eV/Angst)
      7.05788      6.39339     19.99423        -0.007563     -0.003566      0.005311
      7.05787      4.85984     19.99423        -0.006722      0.002433      0.005297
      6.46285      5.62660     20.00360         0.000058      0.001185      0.002709
      8.35277      9.37768      6.72231         4.337123      0.002008      1.782192
      6.13317      7.50214      7.59504        -1.913534      0.001287     -2.133220
      3.22728      7.50214      6.72231         4.302579     -0.002672      1.759376
      1.00768      9.37768      7.59504        -1.953871     -0.005075     -2.137021
      9.74404      9.37891     10.25231         0.001576     -0.002669      0.002745
      7.49860      7.49864     11.05855        -0.000811     -0.001302      0.000881
      4.61100      7.50016     10.24801         0.000245      0.001648      0.002724
      2.36301      9.37744     11.07230        -0.000566     -0.000271      0.001814
      0.93593      9.37978     13.79874         0.001395      0.000156      0.000073
      8.91709      7.49844     14.50936        -0.001393      0.001091      0.001459
      6.04317      7.50062     13.76945        -0.000459     -0.002994      0.001219
      3.77817      9.37781     14.54729        -0.000835      0.000231     -0.000519
      2.41416      9.37057     17.41649        -0.000626      0.000117      0.001198
      0.04528      7.49173     17.97724         0.000047     -0.002868      0.002512
      7.51802      7.49260     17.31685         0.000475      0.000056      0.002598
      5.20142      9.38785     17.98095        -0.001335      0.002434      0.000978
      8.35277      1.87554      6.72231         4.337124     -0.002006      1.782194
      6.13317      0.00000      7.59504        -1.939102      0.000002     -2.131459
      3.22728      0.00000      6.72231         4.329244      0.000002      1.775360
      1.00768      1.87554      7.59504        -1.953871      0.005076     -2.137018
      9.74404      1.87430     10.25231         0.001572      0.002676      0.002745
      7.49206     -0.00000     11.06343         0.000295      0.000009      0.001034
      4.61327      0.00000     10.25163        -0.000514      0.000006      0.000029
      2.36301      1.87578     11.07231        -0.000565      0.000275      0.001810
      0.93593      1.87343     13.79874         0.001392     -0.000152      0.000073
      8.90392     -0.00000     14.52581         0.000238      0.000004      0.001098
      6.04922      0.00000     13.78520        -0.000201      0.000002      0.001707
      3.77817      1.87540     14.54729        -0.000830     -0.000228     -0.000508
      2.41416      1.88264     17.41649        -0.000601     -0.000110      0.001233
      0.06895     -0.00000     17.97711        -0.001292      0.000019      0.000274
      7.54871     -0.00000     17.38509        -0.002135      0.000021      0.001816
      5.20142      1.86536     17.98096        -0.001362     -0.002403      0.001005
      8.35277      5.62661      6.72231         4.347863     -0.000002      1.778703
      6.13317      3.75107      7.59504        -1.913536     -0.001289     -2.133215
      3.22728      3.75107      6.72231         4.302582      0.002670      1.759378
      1.00768      5.62661      7.59504        -1.927799     -0.000002     -2.064708
      9.75673      5.62661     10.24849        -0.004025     -0.000008      0.000301
      7.49860      3.75457     11.05855        -0.000813      0.001292      0.000873
      4.61100      3.75305     10.24801         0.000249     -0.001655      0.002724
      2.36698      5.62661     11.09929         0.001662     -0.000005      0.001933
      0.96306      5.62660     13.80542        -0.000353     -0.000004      0.000623
      8.91709      3.75477     14.50937        -0.001382     -0.001095      0.001478
      6.04317      3.75260     13.76945        -0.000463      0.002991      0.001217
      3.79843      5.62661     14.62785        -0.001162     -0.000003      0.000665
      2.44790      5.62661     17.43052        -0.001676     -0.000009      0.000385
      0.04529      3.76148     17.97724        -0.000048      0.002849      0.002563
      7.51803      3.76061     17.31685         0.000525     -0.000077      0.002677
      5.22541      5.62660     18.14861        -0.003766     -0.000036     -0.001288
      5.06431      7.50214      6.00000        -2.045080     -0.001435      1.042904
     10.18980      9.37768      6.00000        -2.038947      0.001763      1.036816
      9.42163      9.37768      8.31734        -1.129839      0.000179     -0.092508
      6.51574      9.37768      7.44462         0.416436     -0.001781     -0.074778
      7.97020      7.50214      6.87273         0.360159     -0.001532     -1.192689
      6.43691      7.50214      9.49092        -0.054253      0.002311      0.606133
      4.29614      7.50214      8.31734        -1.138886     -0.004784     -0.088287
      1.39025      7.50214      7.44462         0.429469      0.010278     -0.082895
      2.84471      9.37768      6.87273         0.372181     -0.003134     -1.195098
[...]
      2.75221      5.62661     13.02053        -0.001435      0.000000     -0.000735
      2.03329      5.62661     15.39841        -0.001554      0.000002     -0.000933
      9.32725      5.62661     14.43728        -0.001521      0.000002      0.001206
      0.55804      3.75285     13.89783        -0.000538     -0.000782     -0.000488
      9.37342      3.73800     16.44339        -0.001327     -0.000188     -0.000602
      7.16476      3.72381     15.33466        -0.001420     -0.001824     -0.001029
      4.20191      3.75270     14.47315        -0.000125      0.000138     -0.000143
      5.67301      5.62661     13.91598        -0.000390      0.000000      0.001898
      4.25365      5.62660     16.54817        -0.001656      0.000002     -0.004047
      3.57218      5.62661     18.90589        -0.000943      0.000008     -0.000343
      0.57166      5.62661     18.19814        -0.000564      0.000027     -0.000239
      2.00595      3.75550     17.44870        -0.001378      0.000321      0.000339
      8.66176      3.81525     18.81338         0.000674      0.000146     -0.000257
      5.72691      3.72991     18.18696        -0.001833      0.001314     -0.000842
      7.10386      5.62660     17.28553        -0.000449      0.000034      0.000921
    total drift:                                0.002586      0.000025      0.023312

  FREE ENERGIE OF THE ION-ELECTRON SYSTEM (eV)
  free  energy   TOTEN  =     -1590.08553635 eV

  energy  without entropy=    -1590.08553635  energy(sigma->0) =    -1590.08553635

 d Force = 0.2150514E-04[ 0.134E-04, 0.296E-04]  d Energy = 0.2169757E-04-0.192E-06
 d Force = 0.1305496E+01[ 0.131E+01, 0.131E+01]  d Ewald  = 0.1305496E+01-0.386E-06

 Conjugate gradient step on ions:
 trial-energy change:   -0.000022  1 .order   -0.000022   -0.000030   -0.000013
  (g-gl).g = 0.597E-04      g.g   = 0.570E-04  gl.gl    = 0.632E-04
 g(Force)  = 0.570E-04   g(Stress)= 0.000E+00 ortho     = 0.743E-06
 gamma     =   0.94402
 trial     =   0.51275
 opt step  =   0.93958  (harmonic =   0.93958) maximal distance =0.00052177
 next E    = -1590.085542   (d E  =  -0.00003)

 reached required accuracy - stopping structural energy minimisation