 vasp.6.3.0 20Jan22 (build Apr  1 2022 16:44:48) complex
 executed on        HPECrayEX_GCC date 2022.11.13  08:19:50

 INCAR:
   SYSTEM = MgO-rocksalt
   ISMEAR = 0
   SIGMA = 0.05
   EDIFF = 1E-6
   ALGO = ALL
   ISTART = 0
   IBRION = -1
   NSW = 0
   ISYM = 0
   DIPOL = 0.5 0.5 0.5
   IDIPOL = 3
   LDIPOL = .TRUE.
   LHFCALC = .TRUE.
   GGA = B5
   AEXX = 0.2
   AGGAX = 0.72
   AGGAC = 0.81
   ALDAC = 0.19
   IVDW = 1
   VDW_S6 = 1.05
   VDW_C6 = 1.23 0.70 0.63 0.70
   VDW_R0 = 1.397 1.342 1.243 1.342
   ENCUT = 600
   PREC = Accurate
   LASPH = .TRUE.
   LREAL = .FALSE.
   ISPIN = 2
   MAGMOM = 1.0 0.0 0.0 0.0 0.0 0.0 0.0 0.0 0.0 0.0 0.0 0.0 0.0 0.0 0.0 0.0 0.0 0.0 0.0 0.0 0.0 0.0 0.0 0.0 0.0 0.0 0.0 0.0 0.0 0.0 0.0 0.0 0.0 0.0 0.0 0.0 0.0 0.0 0.0 0.0 0.0 0.0 0.0 0.0 0.0 0.0 0.0 0.0 0.0 0.0 0.0 0.0 0.0 0.0 0.0 0.0 0.0 0.0 0.0 0.0 0.0 0.0 0.0 0.0 0.0 0.0
   NELM = 200
   NELMIN = 8
   NCORE = 8
   KPAR = 1
   LWAVE = .FALSE.
   LCHARG = .FALSE.

 POTCAR:    PAW_PBE N 08Apr2002
 POTCAR:    PAW_PBE O 08Apr2002
 POTCAR:    PAW_PBE Mg_pv 13Apr2007
 POTCAR:    PAW_PBE O 08Apr2002
 POTCAR:    PAW_PBE N 08Apr2002
   VRHFIN =N: s2p3

   TITEL  = PAW_PBE N 08Apr2002
   POMASS =   14.001; ZVAL   =    5.000    mass and valenz
   ENMAX  =  400.000; ENMIN  =  300.000 eV

[...]

   TITEL  = PAW_PBE Mg_pv 13Apr2007
   POMASS =   24.305; ZVAL   =    8.000    mass and valenz
   ENMAX  =  403.929; ENMIN  =  302.947 eV

   TITEL  = PAW_PBE O 08Apr2002
   POMASS =   16.000; ZVAL   =    6.000    mass and valenz
   ENMAX  =  400.000; ENMIN  =  300.000 eV

  PAW_PBE N 08Apr2002                   :
  PAW_PBE O 08Apr2002                   :
  PAW_PBE Mg_pv 13Apr2007               :
  PAW_PBE O 08Apr2002                   :

 POSCAR:  N  O Mg  O
  positions in direct lattice
 exchange correlation table for  LEXCH =       12
   RHO(1)=    0.500       N(1)  =     2000
   RHO(2)=  100.500       N(2)  =     4000

 ion  position               nearest neighbor table
   1  0.507  0.508  0.763-   2 1.17
   2  0.438  0.442  0.803-   1 1.17
   3  0.250  0.000  0.351-  35 2.12  37 2.12  38 2.12  45 2.12  54 2.12
   4  0.500  0.250  0.351-  36 2.12  37 2.12  38 2.12  46 2.12  53 2.12
   5  0.250  0.250  0.450-  37 2.12  36 2.12  35 2.12  43 2.12  52 2.12  41 2.12
   6  0.500  0.000  0.450-  38 2.12  36 2.12  35 2.12  44 2.12  51 2.12  42 2.12
   7  0.250  1.000  0.550-  42 2.12  41 2.12  49 2.12  58 2.12  35 2.13  39 2.15
   8  0.500  0.250  0.550-  50 2.11  41 2.12  57 2.12  42 2.12  36 2.13  40 2.14
   9  0.250  0.250  0.648-  41 2.10  56 2.12  39 2.12  47 2.12  40 2.12
  10  0.500  0.000  0.648-  42 2.11  40 2.11  48 2.11  39 2.12  55 2.12
  11  0.250  0.500  0.351-  43 2.12  37 2.12  45 2.12  46 2.12  62 2.12
  12  0.500  0.750  0.351-  44 2.12  38 2.12  45 2.12  46 2.12  61 2.12
  13  0.250  0.750  0.450-  45 2.12  43 2.12  44 2.12  35 2.12  60 2.12  49 2.12
  14  0.500  0.500  0.450-  46 2.12  43 2.12  44 2.12  36 2.12  59 2.12  50 2.13
  15  0.250  0.500  0.550-  50 2.11  41 2.12  49 2.12  66 2.12  43 2.13  47 2.14
  16  0.500  0.750  0.550-  50 2.11  65 2.12  49 2.12  42 2.12  44 2.13  48 2.15
  17  0.250  0.750  0.648-  49 2.10  64 2.11  39 2.12  48 2.12  47 2.12
  18  0.500  0.500  0.650-  40 2.12  63 2.12  48 2.13  47 2.13  50 2.14
  19  0.750  0.000  0.351-  51 2.12  38 2.12  53 2.12  54 2.12  61 2.12
  20  0.000  0.250  0.351-  52 2.12  37 2.12  53 2.12  54 2.12  62 2.12
  21  0.750  0.250  0.450-  53 2.12  51 2.12  52 2.12  36 2.12  59 2.12  57 2.12
  22  0.000  0.000  0.450-  54 2.12  51 2.12  52 2.12  35 2.12  60 2.12  58 2.12
  23  0.750  1.000  0.550-  42 2.12  65 2.12  57 2.12  58 2.12  51 2.13  55 2.15
  24  1.000  0.250  0.550-  66 2.12  41 2.12  57 2.12  58 2.12  52 2.13  56 2.15
  25  0.750  0.250  0.648-  57 2.10  55 2.12  56 2.12  63 2.12  40 2.12
  26  1.000  1.000  0.648-  58 2.11  56 2.12  39 2.12  64 2.12  55 2.12
  27  0.750  0.500  0.351-  59 2.12  53 2.12  46 2.12  61 2.12  62 2.12
  28  0.000  0.750  0.351-  60 2.12  54 2.12  45 2.12  61 2.12  62 2.12
  29  0.750  0.750  0.450-  61 2.12  51 2.12  59 2.12  60 2.12  44 2.12  65 2.12
  30  0.000  0.500  0.450-  62 2.12  52 2.12  59 2.12  60 2.12  43 2.12  66 2.12
  31  0.750  0.500  0.550-  50 2.11  65 2.12  57 2.12  66 2.12  59 2.13  63 2.14
  32  1.000  0.750  0.550-  66 2.12  65 2.12  58 2.12  49 2.12  60 2.13  64 2.15
  33  0.750  0.750  0.649-  65 2.11  64 2.12  55 2.12  63 2.12  48 2.12
  34  1.000  0.500  0.648-  66 2.11  47 2.11  63 2.11  56 2.12  64 2.12
  35  0.250  0.000  0.450-   3 2.12   5 2.12   6 2.12  13 2.12  22 2.12   7 2.13
  36  0.500  0.250  0.450-   4 2.12   5 2.12   6 2.12  14 2.12  21 2.12   8 2.13
  37  0.250  0.250  0.351-   5 2.12   4 2.12   3 2.12  11 2.12  20 2.12
  38  0.500  0.000  0.351-   6 2.12   4 2.12   3 2.12  12 2.12  19 2.12
  39  0.250  1.000  0.651-  17 2.12   9 2.12  26 2.12  10 2.12   7 2.15
  40  0.500  0.249  0.651-  10 2.11  25 2.12   9 2.12  18 2.12   8 2.14
  41  0.250  0.250  0.550-   9 2.10   7 2.12   8 2.12  24 2.12  15 2.12   5 2.12
  42  0.500  1.000  0.550-  10 2.11  23 2.12   7 2.12  16 2.12   6 2.12   8 2.12
  43  0.250  0.500  0.450-  11 2.12   5 2.12  13 2.12  14 2.12  30 2.12  15 2.13
  44  0.500  0.750  0.450-  12 2.12   6 2.12  13 2.12  14 2.12  29 2.12  16 2.13
  45  0.250  0.750  0.351-  13 2.12  11 2.12  12 2.12   3 2.12  28 2.12
  46  0.500  0.500  0.351-  14 2.12  11 2.12  12 2.12   4 2.12  27 2.12
  47  0.249  0.500  0.651-  34 2.11  17 2.12   9 2.12  18 2.13  15 2.14
  48  0.500  0.751  0.651-  10 2.11  17 2.12  33 2.12  18 2.13  16 2.15
  49  0.250  0.750  0.550-  17 2.10   7 2.12  16 2.12  15 2.12  32 2.12  13 2.12
  50  0.500  0.500  0.550-  16 2.11  31 2.11  15 2.11   8 2.11  14 2.13  18 2.14
  51  0.750  0.000  0.450-  19 2.12   6 2.12  21 2.12  22 2.12  29 2.12  23 2.13
  52  0.000  0.250  0.450-  20 2.12   5 2.12  21 2.12  22 2.12  30 2.12  24 2.13
  53  0.750  0.250  0.351-  21 2.12  19 2.12  20 2.12   4 2.12  27 2.12
  54  0.000  0.000  0.351-  22 2.12  19 2.12  20 2.12   3 2.12  28 2.12
  55  0.750  1.000  0.651-  25 2.12  33 2.12  26 2.12  10 2.12  23 2.15
  56  1.000  0.250  0.651-  25 2.12   9 2.12  26 2.12  34 2.12  24 2.15
  57  0.750  0.250  0.550-  25 2.10   8 2.12  24 2.12  31 2.12  23 2.12  21 2.12
  58  1.000  1.000  0.550-  26 2.11  32 2.12  23 2.12  24 2.12   7 2.12  22 2.12
  59  0.750  0.500  0.450-  27 2.12  21 2.12  14 2.12  29 2.12  30 2.12  31 2.13
  60  0.000  0.750  0.450-  28 2.12  22 2.12  13 2.12  29 2.12  30 2.12  32 2.13
  61  0.750  0.750  0.351-  29 2.12  19 2.12  27 2.12  28 2.12  12 2.12
  62  0.000  0.500  0.351-  30 2.12  20 2.12  27 2.12  28 2.12  11 2.12
  63  0.751  0.500  0.651-  34 2.11  25 2.12  33 2.12  18 2.12  31 2.14
  64  1.000  0.750  0.651-  17 2.11  33 2.12  26 2.12  34 2.12  32 2.15
  65  0.750  0.750  0.550-  33 2.11  16 2.12  23 2.12  31 2.12  32 2.12  29 2.12
  66  1.000  0.500  0.550-  34 2.11  32 2.12  24 2.12  31 2.12  30 2.12  15 2.12

IMPORTANT INFORMATION: All symmetrisations will be switched off!
NOSYMM: (Re-)initialisation of all symmetry stuff for point group C_1.

                                     Primitive cell

  volume of cell :    1530.6606

  direct lattice vectors                    reciprocal lattice vectors
     8.467142631  0.000000000  0.000000000     0.118103597  0.000000000  0.000000000
     0.000000000  8.467142631  0.000000000     0.000000000  0.118103597  0.000000000
     0.000000000  0.000000000 21.350356973     0.000000000  0.000000000  0.046837624

  length of vectors
     8.467142631  8.467142631 21.350356973     0.118103597  0.118103597  0.046837624

  position of ions in fractional coordinates (direct lattice)
     0.506728250  0.507766947  0.763077687
     0.437910601  0.441780684  0.802812510
     0.250000000  0.000000000  0.351282183
     0.500000000  0.250000000  0.351282183
     0.250000000  0.250000000  0.450427394
     0.500000000  0.000000000  0.450427394
     0.249976214  0.999998779  0.550091834
     0.499938950  0.250347911  0.550241517
     0.249704015  0.249765954  0.648371138
     0.499857512  0.000017737  0.648395919
     0.250000000  0.500000000  0.351282183
     0.500000000  0.750000000  0.351282183
     0.250000000  0.750000000  0.450427394
     0.500000000  0.500000000  0.450427394
     0.250322239  0.499961507  0.550240847
     0.499921014  0.749548371  0.550184579
     0.249521795  0.750197785  0.648225983
     0.499920471  0.499915240  0.650202683
     0.750000000  0.000000000  0.351282183
     0.000000000  0.250000000  0.351282183
     0.750000000  0.250000000  0.450427394
     0.000000000  0.000000000  0.450427394
     0.749867328  0.999859997  0.550109492
     0.999977636  0.249995321  0.550083704
     0.750185436  0.249596253  0.648224002
     0.999897469  0.999940362  0.648404608
     0.750000000  0.500000000  0.351282183
     0.000000000  0.750000000  0.351282183
     0.750000000  0.750000000  0.450427394
     0.000000000  0.500000000  0.450427394
     0.749534291  0.499944639  0.550184431
     0.999839056  0.749899115  0.550103348
     0.750073454  0.750070711  0.648543886
     0.999954973  0.499887405  0.648362911
     0.250000000  0.000000000  0.450427394
     0.500000000  0.250000000  0.450427394
     0.250000000  0.250000000  0.351282183
     0.500000000  0.000000000  0.351282183
     0.249708747  0.999960999  0.650673531
     0.500031132  0.248990721  0.650674766
     0.249963471  0.249969533  0.549796419
     0.499937159  0.999904646  0.549749564
     0.250000000  0.500000000  0.450427394
     0.500000000  0.750000000  0.450427394
     0.250000000  0.750000000  0.351282183
     0.500000000  0.500000000  0.351282183
     0.248933240  0.500064769  0.650644678
     0.499632931  0.750896471  0.650668185
     0.249907650  0.749994250  0.549757194
     0.499953872  0.499981392  0.550129229
     0.750000000  0.000000000  0.450427394
     0.000000000  0.250000000  0.450427394
     0.750000000  0.250000000  0.351282183
     0.000000000  0.000000000  0.351282183
     0.750042487  0.999878240  0.650701227
     0.999930052  0.249736988  0.650662818
     0.749951822  0.249904086  0.549753331
     0.999917851  0.999937115  0.549749600
     0.750000000  0.500000000  0.450427394
     0.000000000  0.750000000  0.450427394
     0.750000000  0.750000000  0.351282183
     0.000000000  0.500000000  0.351282183
     0.750884779  0.499673509  0.650611001
     0.999851430  0.750088950  0.650695853
     0.749849252  0.749902206  0.549853193
     0.999901973  0.499959683  0.549733541

  ion indices of the primitive-cell ions
   primitive index   ion index
                 1           1
                 2           2
                 3           3
                 4           4
                 5           5
                 6           6
                 7           7
                 8           8
                 9           9
                10          10
                11          11
                12          12
                13          13
                14          14
                15          15
                16          16
                17          17
                18          18
                19          19
                20          20
[...]
   0.74995182  0.24990409  0.54975333
   0.99991785  0.99993711  0.54974960
   0.75000000  0.50000000  0.45042739
   0.00000000  0.75000000  0.45042739
   0.75000000  0.75000000  0.35128218
   0.00000000  0.50000000  0.35128218
   0.75088478  0.49967351  0.65061100
   0.99985143  0.75008895  0.65069585
   0.74984925  0.74990221  0.54985319
   0.99990197  0.49995968  0.54973354

 position of ions in cartesian coordinates  (Angst):
   4.29054036  4.29933516 16.29198102
   3.70785152  3.74062007 17.14033366
   2.11678566  0.00000000  7.50000000
   4.23357132  2.11678566  7.50000000
   2.11678566  2.11678566  9.61678566
   4.23357132  0.00000000  9.61678566
   2.11658425  8.46713230 11.74465702
   4.23305440  2.11973147 11.74785281
   2.11427951  2.11480396 13.84295525
   4.23236485  0.00015018 13.84348433
   2.11678566  4.23357132  7.50000000
   4.23357132  6.35035697  7.50000000
   2.11678566  6.35035697  9.61678566
   4.23357132  4.23357132  9.61678566
   2.11951410  4.23324539 11.74783849
   4.23290253  6.34653296 11.74663716
   2.11273663  6.35203165 13.83985614
   4.23289794  4.23285364 13.88205940
   6.35035697  0.00000000  7.50000000
   0.00000000  2.11678566  7.50000000
   6.35035697  2.11678566  9.61678566
   0.00000000  0.00000000  9.61678566
   6.34923362  8.46595721 11.74503403
   8.46695327  2.11674604 11.74448344
   6.35192709  2.11336707 13.83981385
   8.46627449  8.46663767 13.84366984
   6.35035697  4.23357132  7.50000000
   0.00000000  6.35035697  7.50000000
   6.35035697  6.35035697  9.61678566
   0.00000000  4.23357132  9.61678566
   6.34641375  4.23310257 11.74663401
   8.46577990  6.34950277 11.74490286
   6.35097892  6.35095569 13.84664348
   8.46676138  4.23261796 13.84277959
   2.11678566  0.00000000  9.61678566
   4.23357132  2.11678566  9.61678566
   2.11678566  2.11678566  7.50000000
   4.23357132  0.00000000  7.50000000
   2.11431958  8.46681241 13.89211215
   4.23383491  2.10823995 13.89213853
   2.11647636  2.11652769 11.73834981
   4.23303923  8.46633526 11.73734944
   2.11678566  4.23357132  9.61678566
   4.23357132  6.35035697  9.61678566
   2.11678566  6.35035697  7.50000000
   4.23357132  4.23357132  7.50000000
   2.10775325  4.23411972 13.89149614
   4.23046329  6.35794752 13.89199801
   2.11600372  6.35030829 11.73751233
   4.23318075  4.23341376 11.74545541
   6.35035697  0.00000000  9.61678566
   0.00000000  2.11678566  9.61678566
   6.35035697  2.11678566  7.50000000
   0.00000000  0.00000000  7.50000000
   6.35071672  8.46611167 13.89270348
   8.46655037  2.11455870 13.89188344
   6.34994904  2.11597354 11.73742987
   8.46644706  8.46661017 11.73735020
   6.35035697  4.23357132  9.61678566
   0.00000000  6.35035697  9.61678566
   6.35035697  6.35035697  7.50000000
   0.00000000  4.23357132  7.50000000
   6.35784853  4.23080687 13.89077713
   8.46588467  6.35111012 13.89258874
   6.34908057  6.34952894 11.73956194
   8.46631262  4.23322994 11.73700735

--------------------------------------- Iteration      FINAL  ---------------------------------------

--------------------OUTCAR has been truncated-------------------------

[...]

--------------------OUTCAR has been truncated-------------------------

  DFT-D2 method for vdW energy calculation

  Parameters of vdW forcefield:
         C6(Jnm^6/mol)     R0(A)
   N        1.230          1.397
   O        0.700          1.342
   Mg       0.630          1.243
   O        0.700          1.342

  vdW correction parametrized for the method        üªé

  IVDW =   1
  VDW_RADIUS =    50.000 A
  VDW_S6 =     1.050
  VDW_SR =     1.000
  VDW_D =    20.000
  LVDW_EWALD = F

  Number of pair interactions contributing to vdW energy:  763801
  Edisp (eV):   -5.11753

 VOLUME and BASIS-vectors are now :
  energy-cutoff  :      600.00
  volume of cell :     1530.66
      direct lattice vectors                 reciprocal lattice vectors
     8.467142631  0.000000000  0.000000000     0.118103597  0.000000000  0.000000000
     0.000000000  8.467142631  0.000000000     0.000000000  0.118103597  0.000000000
     0.000000000  0.000000000 21.350356973     0.000000000  0.000000000  0.046837624

  length of vectors
     8.467142631  8.467142631 21.350356973     0.118103597  0.118103597  0.046837624

 FORCES acting on ions:
    Electron-Ion                     Ewald-Force                    Non-Local-Force
   -.134E+03 -.128E+03 -.115E+04   0.155E+03 0.149E+03 0.112E+04   -.206E+02 -.197E+02 0.284E+02
   0.125E+03 0.120E+03 -.153E+04   -.155E+03 -.149E+03 0.157E+04   0.272E+02 0.261E+02 -.395E+02
   0.171E+00 0.315E-01 0.207E+04   -.170E+00 -.311E-01 -.206E+04   -.186E-03 -.281E-03 -.638E+01
   -.342E-01 0.200E+00 0.207E+04   0.337E-01 -.198E+00 -.206E+04   0.374E-03 -.132E-02 -.638E+01
   0.746E+00 0.778E+00 0.717E+03   -.735E+00 -.768E+00 -.717E+03   -.661E-02 -.632E-02 0.429E+00
   -.168E+00 0.876E-01 0.716E+03   0.168E+00 -.852E-01 -.717E+03   0.324E-03 -.148E-02 0.381E+00
   0.344E+01 0.605E+00 -.630E+03   -.340E+01 -.610E+00 0.630E+03   -.311E-01 0.260E-02 -.168E+00
   -.691E+00 0.615E+01 -.621E+03   0.696E+00 -.607E+01 0.621E+03   -.199E-02 -.859E-01 -.258E+00
   0.243E+02 0.247E+02 -.196E+04   -.245E+02 -.248E+02 0.195E+04   0.112E+00 0.103E+00 0.550E+01
   -.207E+01 0.391E+01 -.197E+04   0.206E+01 -.394E+01 0.197E+04   0.546E-02 0.125E-01 0.544E+01
   0.193E+00 -.316E-01 0.207E+04   -.191E+00 0.311E-01 -.206E+04   -.136E-02 0.322E-03 -.638E+01
   -.441E-01 -.200E+00 0.207E+04   0.438E-01 0.198E+00 -.206E+04   0.208E-03 0.150E-02 -.638E+01
   0.801E+00 -.781E+00 0.717E+03   -.802E+00 0.771E+00 -.717E+03   0.409E-03 0.676E-02 0.411E+00
   -.123E+00 -.104E+00 0.718E+03   0.115E+00 0.968E-01 -.718E+03   0.501E-02 0.412E-02 0.491E+00
   0.605E+01 -.641E+00 -.621E+03   -.596E+01 0.646E+00 0.621E+03   -.850E-01 -.156E-02 -.272E+00
   -.829E+00 -.609E+01 -.622E+03   0.846E+00 0.601E+01 0.623E+03   -.140E-01 0.794E-01 -.258E+00
   0.214E+02 -.236E+02 -.196E+04   -.215E+02 0.237E+02 0.196E+04   0.619E-01 -.832E-01 0.550E+01
   -.578E+01 -.509E+01 -.187E+04   0.578E+01 0.509E+01 0.187E+04   0.203E-01 0.247E-01 0.431E+01
   -.171E+00 0.405E-01 0.207E+04   0.170E+00 -.407E-01 -.206E+04   0.383E-03 0.156E-03 -.638E+01
   0.342E-01 0.177E+00 0.207E+04   -.338E-01 -.177E+00 -.206E+04   -.263E-03 -.135E-03 -.638E+01
   -.757E+00 0.820E+00 0.717E+03   0.744E+00 -.822E+00 -.717E+03   0.827E-02 0.124E-02 0.410E+00
   0.157E+00 0.151E+00 0.715E+03   -.163E+00 -.156E+00 -.715E+03   0.347E-02 0.284E-02 0.411E+00
   -.345E+01 0.731E+00 -.631E+03   0.341E+01 -.747E+00 0.631E+03   0.325E-01 0.135E-01 -.168E+00
   0.678E+00 0.351E+01 -.630E+03   -.682E+00 -.347E+01 0.630E+03   0.109E-02 -.283E-01 -.167E+00
   -.233E+02 0.215E+02 -.196E+04   0.234E+02 -.215E+02 0.196E+04   -.899E-01 0.521E-01 0.550E+01
   0.188E+01 0.173E+01 -.199E+04   -.187E+01 -.172E+01 0.198E+04   -.823E-02 -.912E-02 0.542E+01
   -.193E+00 -.415E-01 0.207E+04   0.191E+00 0.412E-01 -.206E+04   0.160E-02 0.164E-03 -.638E+01
   0.432E-01 -.178E+00 0.207E+04   -.434E-01 0.177E+00 -.206E+04   0.180E-03 0.277E-03 -.638E+01
   -.821E+00 -.832E+00 0.716E+03   0.811E+00 0.825E+00 -.716E+03   0.640E-02 0.434E-02 0.438E+00
   0.108E+00 -.162E+00 0.716E+03   -.106E+00 0.163E+00 -.717E+03   -.158E-02 -.197E-03 0.377E+00
   -.601E+01 -.776E+00 -.622E+03   0.593E+01 0.793E+00 0.623E+03   0.808E-01 -.138E-01 -.281E+00
   0.806E+00 -.350E+01 -.631E+03   -.820E+00 0.346E+01 0.631E+03   0.117E-01 0.283E-01 -.166E+00
   -.209E+02 -.210E+02 -.197E+04   0.210E+02 0.211E+02 0.196E+04   -.101E+00 -.922E-01 0.549E+01
   0.423E+01 -.192E+01 -.197E+04   -.427E+01 0.191E+01 0.197E+04   0.167E-01 0.802E-02 0.544E+01
   0.519E+00 0.782E-01 0.536E+03   -.509E+00 -.806E-01 -.536E+03   -.123E-01 0.298E-02 -.824E-01
   -.911E-01 0.714E+00 0.537E+03   0.959E-01 -.736E+00 -.537E+03   -.569E-02 0.265E-01 -.111E+00
   0.134E+00 0.139E+00 0.155E+04   -.132E+00 -.138E+00 -.156E+04   -.200E-02 -.180E-02 0.313E+01
   -.306E-01 0.241E-01 0.155E+04   0.308E-01 -.234E-01 -.156E+04   -.268E-03 -.806E-03 0.313E+01
   0.900E+01 0.239E+01 -.151E+04   -.894E+01 -.239E+01 0.151E+04   -.605E-01 0.793E-02 -.465E+01
   -.348E+01 0.313E+02 -.147E+04   0.347E+01 -.311E+02 0.147E+04   0.614E-02 -.158E+00 -.455E+01
   0.355E+01 0.361E+01 -.462E+03   -.354E+01 -.360E+01 0.462E+03   -.975E-02 -.115E-01 0.386E+00
   -.440E+00 0.520E+00 -.464E+03   0.440E+00 -.531E+00 0.464E+03   -.567E-03 0.169E-01 0.342E+00
   0.686E+00 -.830E-01 0.537E+03   -.707E+00 0.864E-01 -.537E+03   0.257E-01 -.409E-02 -.112E+00
   -.158E+00 -.719E+00 0.537E+03   0.160E+00 0.746E+00 -.537E+03   -.177E-02 -.328E-01 -.101E+00
   0.139E+00 -.139E+00 0.155E+04   -.138E+00 0.138E+00 -.156E+04   -.135E-02 0.179E-02 0.313E+01
   -.266E-01 -.241E-01 0.155E+04   0.260E-01 0.236E-01 -.156E+04   0.684E-03 0.631E-03 0.313E+01
   0.313E+02 -.322E+01 -.147E+04   -.311E+02 0.322E+01 0.147E+04   -.166E+00 0.353E-02 -.455E+01
   -.227E+01 -.304E+02 -.148E+04   0.231E+01 0.302E+02 0.148E+04   -.392E-01 0.167E+00 -.458E+01
   0.344E+01 -.359E+01 -.462E+03   -.343E+01 0.359E+01 0.462E+03   -.162E-01 0.841E-02 0.408E+00
   -.616E+00 -.560E+00 -.460E+03   0.620E+00 0.565E+00 0.460E+03   -.734E-02 -.830E-02 -.570E-01
   -.534E+00 0.131E+00 0.536E+03   0.532E+00 -.120E+00 -.536E+03   0.339E-02 -.132E-01 -.877E-01
   0.853E-01 0.545E+00 0.536E+03   -.866E-01 -.536E+00 -.536E+03   0.172E-02 -.114E-01 -.801E-01
   -.134E+00 0.144E+00 0.155E+04   0.132E+00 -.143E+00 -.156E+04   0.190E-02 -.105E-02 0.313E+01
   0.309E-01 0.293E-01 0.155E+04   -.309E-01 -.293E-01 -.156E+04   0.306E-04 0.493E-04 0.313E+01
   -.884E+01 0.173E+01 -.151E+04   0.878E+01 -.176E+01 0.151E+04   0.629E-01 0.278E-01 -.464E+01
   0.260E+01 0.907E+01 -.151E+04   -.260E+01 -.901E+01 0.151E+04   0.675E-02 -.616E-01 -.465E+01
   -.355E+01 0.347E+01 -.462E+03   0.354E+01 -.345E+01 0.462E+03   0.848E-02 -.166E-01 0.408E+00
   0.455E+00 0.413E+00 -.469E+03   -.457E+00 -.413E+00 0.469E+03   0.276E-02 0.133E-02 0.349E+00
   -.697E+00 -.150E+00 0.537E+03   0.726E+00 0.150E+00 -.537E+03   -.340E-01 -.127E-03 -.100E+00
   0.139E+00 -.553E+00 0.536E+03   -.127E+00 0.549E+00 -.536E+03   -.145E-01 0.528E-02 -.851E-01
   -.139E+00 -.143E+00 0.155E+04   0.138E+00 0.142E+00 -.156E+04   0.844E-03 0.632E-03 0.313E+01
   0.268E-01 -.292E-01 0.155E+04   -.260E-01 0.294E-01 -.156E+04   -.904E-03 -.211E-03 0.313E+01
   -.301E+02 -.200E+01 -.148E+04   0.299E+02 0.204E+01 0.148E+04   0.174E+00 -.406E-01 -.459E+01
   0.194E+01 -.891E+01 -.151E+04   -.197E+01 0.885E+01 0.151E+04   0.271E-01 0.615E-01 -.464E+01
   -.340E+01 -.342E+01 -.465E+03   0.338E+01 0.339E+01 0.465E+03   0.270E-01 0.255E-01 0.320E+00
   0.592E+00 -.423E+00 -.464E+03   -.604E+00 0.423E+00 0.463E+03   0.155E-01 -.827E-03 0.344E+00
   -.846E+01 -.812E+01 0.330E+02   0.270E-12 0.234E-12 -.142E-11   0.667E+01 0.640E+01 -.280E+02

 POSITION                                       TOTAL-FORCE (eV/Angst)
      4.29054      4.29934     16.29198        -0.787989     -0.757846      1.258193
      3.70785      3.74062     17.14033         0.784730      0.754078     -1.138354
      2.11679      0.00000      7.50000         0.000189      0.000143      0.508480
      4.23357      2.11679      7.50000        -0.000076      0.000454      0.509651
      2.11679      2.11679      9.61679         0.003064      0.003008      0.025046
      4.23357      0.00000      9.61679        -0.000320      0.000751      0.036092
      2.11658      8.46713     11.74466         0.008391     -0.002580     -0.020697
      4.23305      2.11973     11.74785         0.002225     -0.004849     -0.014234
      2.11428      2.11480     13.84296        -0.005487     -0.005736     -0.093093
      4.23236      0.00015     13.84348         0.000142     -0.015658     -0.093386
      2.11679      4.23357      7.50000         0.000491     -0.000077      0.509651
      4.23357      6.35036      7.50000        -0.000045     -0.000421      0.508840
      2.11679      6.35036      9.61679        -0.000526     -0.003039      0.026722
      4.23357      4.23357      9.61679        -0.002406     -0.002051      0.034740
      2.11951      4.23325     11.74784        -0.003813      0.002280     -0.013687
      4.23290      6.34653     11.74664         0.001996      0.006814      0.004148
      2.11274      6.35203     13.83986         0.007156      0.008224     -0.100033
      4.23290      4.23285     13.88206         0.014468      0.015941     -0.199682
      6.35036      0.00000      7.50000        -0.000157     -0.000005      0.508735
      0.00000      2.11679      7.50000         0.000143      0.000158      0.508370
      6.35036      2.11679      9.61679        -0.003685     -0.000736      0.026635
      0.00000      0.00000      9.61679        -0.001590     -0.001262      0.022684
      6.34923      8.46596     11.74503        -0.007605     -0.001853     -0.020951
      8.46695      2.11675     11.74448        -0.002394      0.007367     -0.020433
      6.35193      2.11337     13.83981         0.008241      0.005433     -0.099371
      8.46627      8.46664     13.84367         0.000424      0.000090     -0.077949
      6.35036      4.23357      7.50000        -0.000443     -0.000043      0.508875
      0.00000      6.35036      7.50000         0.000004     -0.000124      0.508581
      6.35036      6.35036      9.61679        -0.003141     -0.002315      0.027189
      0.00000      4.23357      9.61679         0.000703     -0.000025      0.035441
      6.34641      4.23310     11.74663         0.005955      0.002071      0.003497
      8.46578      6.34950     11.74490        -0.001629     -0.007192     -0.020820
      6.35098      6.35096     13.84664        -0.008753     -0.007328     -0.097497
      8.46676      4.23262     13.84278        -0.013381     -0.000020     -0.090563
      2.11679      0.00000      9.61679        -0.003889      0.001066      0.047320
      4.23357      2.11679      9.61679        -0.001722      0.007920      0.053211
      2.11679      2.11679      7.50000        -0.000632     -0.000576     -0.394195
      4.23357      0.00000      7.50000        -0.000063     -0.000241     -0.394101
      2.11432      8.46681     13.89211        -0.005837      0.003823     -0.116415
      4.23383      2.10824     13.89214        -0.002518      0.019724     -0.092046
      2.11648      2.11653     11.73835        -0.002210     -0.001996      0.024466
      4.23304      8.46634     11.73735        -0.001004      0.007870      0.017492
      2.11679      4.23357      9.61679         0.007797     -0.001239      0.052987
      4.23357      6.35036      9.61679        -0.000254     -0.009771      0.051035
      2.11679      6.35036      7.50000        -0.000426      0.000629     -0.393976
      4.23357      4.23357      7.50000         0.000268      0.000223     -0.394807
      2.10775      4.23412     13.89150         0.019078     -0.002970     -0.092706
      4.23046      6.35795     13.89200        -0.005247     -0.010063     -0.108714
      2.11600      6.35031     11.73751        -0.006955      0.001597      0.022070
      4.23318      4.23341     11.74546        -0.004270     -0.004891      0.007141
      6.35036      0.00000      9.61679         0.001351     -0.004137      0.047425
      0.00000      2.11679      9.61679         0.000715     -0.003681      0.047288
      6.35036      2.11679      7.50000         0.000677     -0.000320     -0.393959
      0.00000      0.00000      7.50000         0.000050      0.000042     -0.393790
      6.35072      8.46611     13.89270         0.006931      0.005963     -0.114880
      8.46655      2.11456     13.89188         0.003083     -0.005764     -0.116649
      6.34995      2.11597     11.73743         0.002800     -0.005698      0.022519
      8.46645      8.46661     11.73735         0.000983      0.000939      0.023454
      6.35036      4.23357      9.61679        -0.010149      0.000240      0.051237
      0.00000      6.35036      9.61679        -0.004499      0.001914      0.047718
      6.35036      6.35036      7.50000         0.000324      0.000238     -0.393944
      0.00000      4.23357      7.50000        -0.000271     -0.000048     -0.394057
      6.35785      4.23081     13.89078        -0.009131     -0.005754     -0.108281
      8.46588      6.35111     13.89259         0.005191      0.005859     -0.115317
      6.34908      6.34953     11.73956         0.008487      0.006208      0.014282
      8.46631      4.23323     11.73701         0.006460     -0.000759      0.017370
    total drift:                               -0.002857     -0.002062      0.015890

  FREE ENERGIE OF THE ION-ELECTRON SYSTEM (eV)
  free  energy   TOTEN  =      -454.25734732 eV

  energy  without entropy=     -454.25734732  energy(sigma->0) =     -454.25734732