 vasp.6.3.0 20Jan22 (build Apr  1 2022 16:44:48) complex
 executed on        HPECrayEX_GCC date 2023.04.10  22:59:20

 INCAR:
   SYSTEM = TiO2
   ISMEAR = 0
   SIGMA = 0.05
   EDIFF = 1E-7
   ALGO = ALL
   ISTART = 0
   IBRION = 2
   NSW = 1000
   ISYM = 0
   ISIF = 2
   EDIFFG = -0.01
   DIPOL = 0.5 0.5 0.5
   IDIPOL = 3
   LDIPOL = .TRUE.
   GGA = RE
   IVDW = 13
   VDW_S8 = 1.7468
   VDW_A1 = 0.5363
   VDW_A2 = 3.0726
   ENCUT = 600
   PREC = Accurate
   LASPH = .TRUE.
   LREAL = .FALSE.
   ISPIN = 1
   NELM = 200
   NELMIN = 8
   NCORE = 8
   KPAR = 1
   LWAVE = .FALSE.
   LCHARG = .FALSE.

 POTCAR:    PAW_PBE C 08Apr2002
 POTCAR:    PAW_PBE O 08Apr2002
 POTCAR:    PAW_PBE H 15Jun2001
 POTCAR:    PAW_PBE Ti_pv 07Sep2000
 POTCAR:    PAW_PBE O 08Apr2002
 POTCAR:    PAW_PBE C 08Apr2002
   VRHFIN =C: s2p2

   TITEL  = PAW_PBE C 08Apr2002
   POMASS =   12.011; ZVAL   =    4.000    mass and valenz
   ENMAX  =  400.000; ENMIN  =  300.000 eV

[...]

   TITEL  = PAW_PBE H 15Jun2001
   POMASS =    1.000; ZVAL   =    1.000    mass and valenz
   ENMAX  =  250.000; ENMIN  =  200.000 eV

   TITEL  = PAW_PBE Ti_pv 07Sep2000
   POMASS =   47.880; ZVAL   =   10.000    mass and valenz
   ENMAX  =  222.335; ENMIN  =  166.751 eV

   TITEL  = PAW_PBE O 08Apr2002
   POMASS =   16.000; ZVAL   =    6.000    mass and valenz
   ENMAX  =  400.000; ENMIN  =  300.000 eV

  PAW_PBE C 08Apr2002                   :
  PAW_PBE O 08Apr2002                   :
  PAW_PBE H 15Jun2001                   :
  PAW_PBE Ti_pv 07Sep2000               :
  PAW_PBE O 08Apr2002                   :

 POSCAR:  C  O  H Ti  O
  positions in direct lattice
|           W    W    AA    RRRRR   N    N  II  N    N   GGGG   !!!           |
|           W    W   A  A   R    R  NN   N  II  NN   N  G    G  !!!           |
|           W    W  A    A  R    R  N N  N  II  N N  N  G       !!!           |
|           W WW W  AAAAAA  RRRRR   N  N N  II  N  N N  G  GGG   !            |
|           WW  WW  A    A  R   R   N   NN  II  N   NN  G    G                |
|           W    W  A    A  R    R  N    N  II  N    N   GGGG   !!!           |
|     Specifying the vdW parameters                                           |
|     VDW_S8 = 1.747                                                          |
|     VDW_A1 = 0.536                                                          |
|     VDW_A2 = 3.073                                                          |
|     in the INCAR file will overwrite the defaults for revpbe. Please        |
|     make sure that is what you intended.                                    |

 ion  position               nearest neighbor table
   1  0.509  0.591  0.807-   3 1.09   5 1.10   6 1.10   2 1.45
   2  0.537  0.499  0.778-   4 1.00   1 1.45  86 2.18
   3  0.426  0.602  0.804-   1 1.09
   4  0.614  0.494  0.777-   2 1.00
   5  0.530  0.568  0.840-   1 1.10
   6  0.549  0.670  0.798-   1 1.10
   7  0.750  0.625  0.287-  88 1.95 148 1.95 147 1.95  87 1.95  90 1.98 169 1.98  17 2.96  37 2.96

   8  0.000  0.750  0.287-  89 1.95  90 1.95 109 1.95 110 1.95  91 1.98  38 2.96  18 2.96
   9  0.000  0.625  0.394-  91 1.95 151 1.95  92 1.95 152 1.95  93 1.98  94 1.98  19 2.96  39 2.96

[...]

  87  0.750  0.750  0.245-   7 1.95  17 1.95
  88  0.750  0.750  0.329-   7 1.95  17 1.95  10 1.98
  89  0.098  0.625  0.287-   8 1.95  38 1.95  47 1.98
  90  0.902  0.625  0.287-   8 1.95  38 1.95   7 1.98
  91  0.000  0.750  0.352-   9 1.95  19 1.95   8 1.98
  92  0.000  0.750  0.435-   9 1.95  19 1.95  12 1.98
  93  0.848  0.625  0.394-  10 1.95  40 1.95   9 1.98
  94  0.152  0.625  0.394-  50 1.95  80 1.95   9 1.98
  95  0.750  0.750  0.458-  11 1.95  21 1.95  10 1.98
  96  0.750  0.750  0.542-  11 1.95  21 1.95  14 2.11
  97  0.098  0.625  0.500-  12 1.95  42 1.95  51 1.98
  98  0.902  0.625  0.500-  12 1.95  42 1.95  11 1.98
  99  1.000  0.750  0.565-  13 1.89  23 1.89  12 2.00
 100  0.000  0.750  0.649-  16 1.81  23 2.02  13 2.02
 101  0.850  0.625  0.607-  13 1.95  44 1.97  14 1.97
 102  0.150  0.625  0.607-  13 1.95  54 1.97  84 1.97
 103  0.750  0.750  0.672-  14 1.86  25 2.10  15 2.10
 104  0.750  0.750  0.756-  15 1.83  25 1.83
 105  0.094  0.625  0.719-  16 1.95  46 1.95  55 2.03
 106  0.906  0.625  0.719-  16 1.95  46 1.95  15 2.03
 107  0.750  0.000  0.245-  17 1.95  27 1.95
 108  0.750  0.000  0.329-  17 1.95  27 1.95  20 1.98
 109  0.098  0.875  0.287-   8 1.95  18 1.95  57 1.98
 110  0.902  0.875  0.287-   8 1.95  18 1.95  17 1.98
 111  0.000  0.000  0.352-  19 1.95  29 1.95  18 1.98
 112  0.000  0.000  0.435-  19 1.95  29 1.95  22 1.98
 113  0.848  0.875  0.394-  10 1.95  20 1.95  19 1.98
 114  0.152  0.875  0.394-  50 1.95  60 1.95  19 1.98
 115  0.750  0.000  0.458-  21 1.95  31 1.95  20 1.98
 116  0.750  0.000  0.542-  21 1.95  31 1.95  24 2.11
 117  0.098  0.875  0.500-  12 1.95  22 1.95  61 1.98
 118  0.902  0.875  0.500-  12 1.95  22 1.95  21 1.98
 119  1.000  0.000  0.565-  33 1.89  23 1.89  22 2.00
 120  0.000  1.000  0.649-  26 1.81  23 2.02  33 2.02
 121  0.850  0.875  0.607-  23 1.95  24 1.97  14 1.97
 122  0.150  0.875  0.607-  23 1.95  54 1.97  64 1.97
 123  0.750  0.000  0.672-  24 1.86  35 2.10  25 2.10
 124  0.750  1.000  0.756-  25 1.83  35 1.83
 125  0.094  0.875  0.719-  26 1.95  16 1.95  65 2.03
 126  0.906  0.875  0.719-  26 1.95  16 1.95  25 2.03
 127  0.750  0.250  0.245-  27 1.95  37 1.95
 128  0.750  0.250  0.329-  27 1.95  37 1.95  30 1.98
 129  0.098  0.125  0.287-  18 1.95  28 1.95  67 1.98
 130  0.902  0.125  0.287-  18 1.95  28 1.95  27 1.98
 131  0.000  0.250  0.352-  29 1.95  39 1.95  28 1.98
 132  0.000  0.250  0.435-  29 1.95  39 1.95  32 1.98
 133  0.848  0.125  0.394-  20 1.95  30 1.95  29 1.98
 134  0.152  0.125  0.394-  60 1.95  70 1.95  29 1.98
 135  0.750  0.250  0.458-  31 1.95  41 1.95  30 1.98
 136  0.750  0.250  0.542-  31 1.95  41 1.95  34 2.11
 137  0.098  0.125  0.500-  22 1.95  32 1.95  71 1.98
 138  0.902  0.125  0.500-  22 1.95  32 1.95  31 1.98
 139  1.000  0.250  0.565-  43 1.89  33 1.89  32 2.00
 140  1.000  0.250  0.649-  36 1.81  33 2.02  43 2.02
 141  0.850  0.125  0.607-  33 1.95  34 1.97  24 1.97
 142  0.150  0.125  0.607-  33 1.95  64 1.97  74 1.97
 143  0.750  0.250  0.672-  34 1.86  35 2.10  45 2.10
 144  0.750  0.250  0.756-  45 1.83  35 1.83
 145  0.094  0.125  0.719-  26 1.95  36 1.95  75 2.03
 146  0.906  0.125  0.719-  36 1.95  26 1.95  35 2.03
[...]
 232  0.500  0.500  0.435-  49 1.95  79 1.95  82 1.98
 233  0.348  0.375  0.394-  70 1.95  80 1.95  79 1.98
 234  0.652  0.375  0.394-  30 1.95  40 1.95  79 1.98
 235  0.250  0.500  0.458-  51 1.95  81 1.95  80 1.98
 236  0.250  0.500  0.542-  51 1.95  81 1.95  84 2.11
 237  0.598  0.375  0.500-  72 1.95  82 1.95  41 1.98
 238  0.402  0.375  0.500-  72 1.95  82 1.95  81 1.98
 239  0.500  0.500  0.565-  83 1.89  53 1.89  82 2.00
 240  0.500  0.500  0.649-  86 1.81  53 2.02  83 2.02
 241  0.350  0.375  0.607-  83 1.95  74 1.97  84 1.97
 242  0.650  0.375  0.607-  83 1.95  44 1.97  34 1.97
 243  0.250  0.500  0.672-  84 1.86  55 2.10  85 2.10
 244  0.250  0.500  0.756-  55 1.83  85 1.83
 245  0.594  0.375  0.719-  76 1.95  86 1.95  45 2.03
 246  0.406  0.375  0.719-  76 1.95  86 1.95  85 2.03

IMPORTANT INFORMATION: All symmetrisations will be switched off!
NOSYMM: (Re-)initialisation of all symmetry stuff for point group C_1.

                                     Primitive cell

  volume of cell :    4700.2961

  direct lattice vectors                    reciprocal lattice vectors
    13.003980404  0.000000000  0.000000000     0.076899531  0.000000000  0.000000000
     0.000000000 11.830378115  0.000000000     0.000000000  0.084528152  0.000000000
     0.000000000  0.000000000 30.552748813     0.000000000  0.000000000  0.032730279

  length of vectors
    13.003980404 11.830378115 30.552748813     0.076899531  0.084528152  0.032730279

  position of ions in fractional coordinates (direct lattice)
     0.508847186  0.591245552  0.806842560
     0.537337584  0.499483788  0.777743980
     0.425538066  0.602150118  0.804313892
     0.613998427  0.494437546  0.776569962
     0.530045800  0.568458334  0.840493874
     0.549041273  0.669562927  0.797533117
     0.750000000  0.625000000  0.287188045
     0.000000000  0.750000000  0.287188045
     0.000000000  0.625000000  0.393594023
     0.750000000  0.750000000  0.393594023
     0.750000000  0.625000000  0.500000000
     0.000000000  0.750000000  0.500000000
     0.999999955  0.625000002  0.604130556
     0.749999964  0.750000003  0.610777676
     0.750000006  0.625000015  0.720488722
     0.000000007  0.749999999  0.708137356
     0.750000000  0.875000000  0.287188045
     0.000000000  0.000000000  0.287188045
     0.000000000  0.875000000  0.393594023
     0.750000000  0.000000000  0.393594023
     0.750000000  0.875000000  0.500000000
     0.000000000  0.000000000  0.500000000
     0.999999988  0.875000010  0.604130566
     0.750000007  0.000000005  0.610777698
     0.750000008  0.875000003  0.720488715
     0.000000013  0.000000002  0.708137369
     0.750000000  0.125000000  0.287188045
     0.000000000  0.250000000  0.287188045
     0.000000000  0.125000000  0.393594023
     0.750000000  0.250000000  0.393594023
     0.750000000  0.125000000  0.500000000
     0.000000000  0.250000000  0.500000000
     0.000000025  0.125000008  0.604130562
     0.750000035  0.250000018  0.610777675
     0.750000000  0.125000012  0.720488716
     0.999999975  0.249999992  0.708137360
     0.750000000  0.375000000  0.287188045
     0.000000000  0.500000000  0.287188045
     0.000000000  0.375000000  0.393594023
     0.750000000  0.500000000  0.393594023
     0.750000000  0.375000000  0.500000000
     0.000000000  0.500000000  0.500000000
     0.000000044  0.374999984  0.604130557
     0.749999994  0.499999982  0.610777696
     0.749999991  0.374999994  0.720488723
     0.000000003  0.499999993  0.708137373
     0.250000000  0.625000000  0.287188045
     0.500000000  0.750000000  0.287188045
     0.500000000  0.625000000  0.393594023
     0.250000000  0.750000000  0.393594023
     0.250000000  0.625000000  0.500000000
     0.500000000  0.750000000  0.500000000
     0.499999991  0.624999998  0.604130558
     0.249999964  0.749999998  0.610777689
     0.250000005  0.625000004  0.720488721
     0.500000001  0.750000008  0.708137359
     0.250000000  0.875000000  0.287188045
     0.500000000  0.000000000  0.287188045
     0.500000000  0.875000000  0.393594023
     0.250000000  0.000000000  0.393594023
[...]
     0.500000000  0.500000000  0.435304973
     0.347999548  0.375000000  0.393594023
     0.652000452  0.375000000  0.393594023
     0.250000000  0.500000000  0.458289049
     0.250000000  0.500000000  0.541710951
     0.597999548  0.375000000  0.500000000
     0.402000452  0.375000000  0.500000000
     0.499999995  0.499999996  0.565347940
     0.500000004  0.499999996  0.648994558
     0.350197920  0.374999994  0.607139181
     0.649802075  0.374999993  0.607139172
     0.249999993  0.499999995  0.671650649
     0.249999997  0.500000011  0.755932774
     0.594073977  0.374999992  0.718728066
     0.405926019  0.375000002  0.718728071

  ion indices of the primitive-cell ions
[...]
   3.25099501  5.91518900 20.52077357
   3.25099506  5.91518919 23.09582416
   7.72532635  4.43639170 21.95911805
   5.27865399  4.43639182 21.95911821

--------------------------------------- Iteration      FINAL  ---------------------------------------

--------------------OUTCAR has been truncated-------------------------

[...]

--------------------OUTCAR has been truncated-------------------------

  FORCE on cell =-STRESS in cart. coord.  units (eV):
  Direction    XX          YY          ZZ          XY          YZ          ZX
  Alpha Z  4711.39482  4711.39482  4711.39482
  Ewald  975073.37112992493.99983************   -70.65177   132.68342   -80.57161
  Hartree************************************   -38.33105    77.75234   -52.87154
  E(xc)   -8676.32297 -8649.62661 -8690.64126    -0.12814     0.24375    -0.22126
  Local  ************************************   103.40349  -201.35035   130.54448
  n-local -5380.20162 -5301.12354 -5422.16115    -1.01701     1.80693    -0.71632
  augment  5221.18642  5208.31116  5225.35832     0.42870    -0.76935     0.04748
  Kinetic 28871.01288 28411.11096 28930.14189     6.23017   -10.49572     4.02430
  Fock        0.00000     0.00000     0.00000     0.00000     0.00000     0.00000
  vdW      -131.47729  -130.86606  -118.31750     0.01734    -0.01328     0.05382
  Total      18.97771   -27.88298   -31.52720    -0.04827    -0.14225     0.28935
  in kB       6.46888    -9.50440   -10.74659    -0.01645    -0.04849     0.09863

 VOLUME and BASIS-vectors are now :
  energy-cutoff  :      600.00
  volume of cell :     4700.30
      direct lattice vectors                 reciprocal lattice vectors
    13.003980404  0.000000000  0.000000000     0.076899531  0.000000000  0.000000000
     0.000000000 11.830378115  0.000000000     0.000000000  0.084528152  0.000000000
     0.000000000  0.000000000 30.552748813     0.000000000  0.000000000  0.032730279

  length of vectors
    13.003980404 11.830378115 30.552748813     0.076899531  0.084528152  0.032730279

 FORCES acting on ions:
    Electron-Ion                     Ewald-Force                    Non-Local-Force
   0.373E+02 -.909E+02 -.161E+04   -.397E+02 0.959E+02 0.161E+04   0.242E+01 -.507E+01 -.459E+01
   0.252E+02 0.126E+03 -.251E+04   -.483E+02 -.151E+03 0.250E+04   0.231E+02 0.257E+02 0.101E+02
   0.580E+02 -.156E+02 -.394E+03   -.638E+02 0.162E+02 0.393E+03   0.588E+01 -.625E+00 0.231E+00
   -.695E+02 0.160E+02 -.428E+03   0.770E+02 -.166E+02 0.427E+03   -.755E+01 0.604E+00 0.381E+00
   -.117E+02 0.630E+01 -.385E+03   0.132E+02 -.771E+01 0.390E+03   -.154E+01 0.142E+01 -.534E+01
   -.190E+02 -.611E+02 -.392E+03   0.215E+02 0.659E+02 0.391E+03   -.259E+01 -.484E+01 0.134E+01
   -.202E+00 -.190E-01 0.380E+04   0.198E+00 0.192E-01 -.380E+04   0.115E-02 -.208E-04 0.454E+00
   -.604E-01 -.654E-01 0.398E+04   0.617E-01 0.656E-01 -.397E+04   -.250E-03 -.167E-04 -.403E+01
   -.177E+00 -.488E-01 0.194E+04   0.182E+00 0.489E-01 -.194E+04   -.889E-03 0.985E-04 -.456E-01
   -.478E+00 -.740E-01 0.194E+04   0.468E+00 0.743E-01 -.194E+04   0.283E-02 0.407E-04 0.211E+00
   -.192E+01 -.114E+00 0.160E+02   0.188E+01 0.982E-01 -.152E+02   0.118E-01 0.993E-03 -.129E+00
   0.117E+01 -.939E+00 0.237E+02   -.117E+01 0.944E+00 -.248E+02   0.108E-02 -.303E-02 0.349E+00
   0.136E+02 -.193E+01 -.186E+04   -.137E+02 0.194E+01 0.186E+04   0.315E-01 -.756E-02 0.801E-01
   -.118E+01 -.977E+01 -.191E+04   0.113E+01 0.978E+01 0.191E+04   -.354E-01 -.102E-01 -.113E+00
   -.100E+03 -.173E+02 -.371E+04   0.999E+02 0.172E+02 0.371E+04   0.191E+00 0.108E+00 -.191E-01
   -.530E+01 -.550E+01 -.378E+04   0.535E+01 0.550E+01 0.378E+04   -.553E-01 -.197E-01 0.996E+00
   -.209E+00 -.703E-01 0.380E+04   0.205E+00 0.704E-01 -.380E+04   0.119E-02 0.950E-05 0.454E+00
   -.579E-01 -.324E-01 0.398E+04   0.592E-01 0.324E-01 -.397E+04   -.257E-03 -.762E-05 -.403E+01
   -.144E+00 -.152E+00 0.194E+04   0.149E+00 0.152E+00 -.194E+04   -.870E-03 0.961E-04 -.457E-01
   -.562E+00 -.856E-01 0.194E+04   0.552E+00 0.851E-01 -.194E+04   0.265E-02 -.628E-04 0.211E+00
   -.328E+01 -.996E+00 0.145E+02   0.326E+01 0.102E+01 -.137E+02   0.854E-02 -.908E-03 -.132E+00
   0.158E+01 -.286E+00 0.223E+02   -.159E+01 0.286E+00 -.233E+02   0.580E-03 -.420E-03 0.346E+00
   0.164E+02 -.303E+01 -.186E+04   -.165E+02 0.304E+01 0.186E+04   0.290E-01 -.959E-02 0.841E-01
   0.240E+01 -.177E+01 -.193E+04   -.244E+01 0.177E+01 0.193E+04   -.439E-01 0.394E-03 -.123E+00
   -.303E+02 -.297E+02 -.376E+04   0.303E+02 0.297E+02 0.376E+04   0.595E-01 0.113E-01 -.146E+00
   -.466E+01 -.229E+01 -.378E+04   0.464E+01 0.229E+01 0.378E+04   0.264E-01 -.175E-02 0.104E+01
   -.204E+00 0.189E-01 0.380E+04   0.200E+00 -.193E-01 -.380E+04   0.117E-02 0.349E-04 0.454E+00
   -.610E-01 0.654E-01 0.398E+04   0.624E-01 -.655E-01 -.397E+04   -.270E-03 0.167E-04 -.403E+01
   -.148E+00 0.520E-01 0.194E+04   0.154E+00 -.520E-01 -.194E+04   -.100E-02 -.535E-04 -.456E-01
   -.440E+00 0.743E-01 0.194E+04   0.430E+00 -.746E-01 -.194E+04   0.270E-02 -.662E-04 0.211E+00
   -.312E+01 0.432E+00 0.140E+02   0.309E+01 -.472E+00 -.132E+02   0.964E-02 0.277E-02 -.131E+00
   0.116E+01 0.967E+00 0.232E+02   -.116E+01 -.972E+00 -.243E+02   0.183E-03 0.271E-02 0.350E+00
   0.176E+02 0.156E+01 -.186E+04   -.178E+02 -.157E+01 0.186E+04   0.322E-01 0.811E-02 0.887E-01
   -.606E-01 0.913E+01 -.191E+04   0.871E-02 -.913E+01 0.191E+04   -.308E-01 -.675E-03 -.126E+00
   -.223E+02 0.149E+02 -.376E+04   0.222E+02 -.149E+02 0.376E+04   0.534E-01 -.985E-02 -.161E+00
   -.443E+01 0.491E+01 -.378E+04   0.446E+01 -.491E+01 0.378E+04   -.424E-01 0.174E-01 0.998E+00
   -.196E+00 0.703E-01 0.380E+04   0.192E+00 -.703E-01 -.380E+04   0.113E-02 -.235E-04 0.454E+00
   -.635E-01 0.324E-01 0.398E+04   0.648E-01 -.324E-01 -.397E+04   -.261E-03 0.745E-05 -.403E+01
   -.182E+00 0.149E+00 0.194E+04   0.188E+00 -.149E+00 -.194E+04   -.100E-02 -.105E-03 -.456E-01
   -.360E+00 0.853E-01 0.194E+04   0.350E+00 -.848E-01 -.194E+04   0.257E-02 -.194E-04 0.211E+00
   -.173E+01 0.683E+00 0.155E+02   0.168E+01 -.653E+00 -.148E+02   0.125E-01 -.188E-02 -.128E+00
   0.101E+01 0.301E+00 0.246E+02   -.102E+01 -.300E+00 -.257E+02   -.634E-03 -.540E-03 0.348E+00
   0.140E+02 0.342E+01 -.186E+04   -.141E+02 -.342E+01 0.186E+04   0.297E-01 0.642E-02 0.809E-01
   -.238E+01 0.183E+01 -.190E+04   0.238E+01 -.184E+01 0.190E+04   -.889E-01 0.290E-02 -.116E+00
   -.842E+02 0.260E+02 -.372E+04   0.842E+02 -.258E+02 0.372E+04   0.120E+00 -.151E+00 -.195E-01
   -.729E+01 0.292E+01 -.377E+04   0.726E+01 -.292E+01 0.377E+04   0.336E-01 0.406E-02 0.943E+00
   0.196E+00 -.146E-01 0.380E+04   -.192E+00 0.145E-01 -.380E+04   -.107E-02 0.172E-04 0.454E+00
   0.660E-01 -.538E-01 0.398E+04   -.672E-01 0.541E-01 -.397E+04   0.247E-03 -.438E-04 -.403E+01
   0.303E+00 0.149E+00 0.195E+04   -.309E+00 -.136E+00 -.194E+04   0.588E-03 -.277E-02 -.475E-01
   0.356E+00 -.269E-01 0.194E+04   -.346E+00 0.273E-01 -.194E+04   -.175E-02 -.311E-04 0.207E+00
   0.528E+00 0.160E+00 0.135E+02   -.471E+00 -.176E+00 -.127E+02   -.920E-02 0.119E-02 -.139E+00
   0.343E+01 0.882E+00 0.286E+02   -.346E+01 -.966E+00 -.294E+02   0.306E-02 0.399E-01 0.266E+00
   0.217E+02 -.133E+02 -.184E+04   -.218E+02 0.134E+02 0.184E+04   0.732E-02 -.784E-01 0.566E-01
   0.217E+02 -.679E+01 -.192E+04   -.217E+02 0.678E+01 0.192E+04   -.430E-01 0.832E-02 -.121E+00
   0.653E+02 -.154E+02 -.373E+04   -.654E+02 0.154E+02 0.373E+04   0.734E-01 0.833E-02 -.170E+00
   0.247E+02 -.818E+02 -.368E+04   -.246E+02 0.820E+02 0.368E+04   -.178E+00 -.595E-01 0.116E+01
   0.203E+00 -.662E-01 0.380E+04   -.200E+00 0.666E-01 -.380E+04   -.111E-02 -.173E-04 0.454E+00
   0.636E-01 -.408E-01 0.398E+04   -.649E-01 0.408E-01 -.397E+04   0.253E-03 0.119E-05 -.403E+01
   0.274E+00 -.216E-01 0.195E+04   -.280E+00 0.215E-01 -.194E+04   0.742E-03 -.103E-02 -.484E-01
   0.434E+00 -.955E-01 0.194E+04   -.424E+00 0.955E-01 -.194E+04   -.177E-02 0.883E-04 0.207E+00
[...]
   -.531E+02 0.306E-01 0.116E+04   0.571E+02 -.314E-01 -.116E+04   -.357E+01 0.123E-02 0.153E+00
   0.532E+02 0.406E-01 0.116E+04   -.573E+02 -.411E-01 -.116E+04   0.358E+01 0.691E-03 0.160E+00
   0.151E+00 0.161E+00 0.514E+03   -.126E+00 -.163E+00 -.518E+03   -.355E-01 0.414E-02 0.417E+01
   0.299E+01 0.674E+00 -.513E+03   -.324E+01 -.677E+00 0.521E+03   0.236E+00 0.316E-02 -.710E+01
   -.547E+02 0.558E-02 0.160E+02   0.594E+02 -.755E-02 -.162E+02   -.508E+01 0.223E-01 0.274E+00
   0.558E+02 -.621E-01 0.130E+02   -.605E+02 0.562E-01 -.132E+02   0.511E+01 0.289E-01 0.229E+00
   0.128E+02 0.150E+01 -.608E+03   -.140E+02 -.158E+01 0.601E+03   0.111E+01 0.758E-01 0.686E+01
   0.191E+02 0.297E+01 -.159E+04   -.203E+02 -.289E+01 0.160E+04   0.119E+01 -.777E-01 -.199E+01
   -.487E+02 0.395E+01 -.111E+04   0.551E+02 -.398E+01 0.111E+04   -.632E+01 0.290E-01 0.128E+01
   0.230E+00 0.634E+01 -.112E+04   -.202E+00 -.650E+01 0.112E+04   -.632E-02 0.162E+00 0.523E+00
   0.256E+02 0.287E+01 -.180E+04   -.261E+02 -.292E+01 0.180E+04   0.454E+00 0.473E-01 -.210E+01
   0.594E+02 0.103E+02 -.271E+04   -.591E+02 -.103E+02 0.273E+04   -.265E+00 0.341E-01 -.205E+02
   -.517E+02 0.573E+02 -.221E+04   0.576E+02 -.570E+02 0.221E+04   -.590E+01 -.352E+00 -.598E+00
   0.701E+02 0.494E+02 -.228E+04   -.763E+02 -.495E+02 0.229E+04   0.618E+01 0.105E+00 -.304E+01
   0.941E+01 -.181E+02 0.856E+02   -.153E-11 -.102E-11 -.114E-10   -.941E+01 0.181E+02 -.856E+02

 POSITION                                       TOTAL-FORCE (eV/Angst)
      6.63633      6.95574     24.79223        -0.002524     -0.008134     -0.004137
      7.00487      5.88813     23.88106         0.005885      0.005162      0.005750
      5.54934      7.06644     24.74098        -0.000576      0.000436     -0.001372
      8.00232      5.83242     23.83817        -0.003537     -0.000469      0.000782
      6.94062      6.67717     25.81012        -0.004967      0.001724     -0.003249
      7.13587      7.89552     24.50954        -0.001331      0.001735     -0.002674
      9.75299      7.39399      8.77438        -0.002698      0.000207     -3.377976
      0.00000      8.87278      8.77438         0.001108      0.000116      2.808388
      0.00000      7.39399     12.02538         0.004714      0.000171      0.540530
      9.75299      8.87278     12.02538        -0.007667      0.000365     -0.724067
      9.75299      7.39399     15.27637        -0.034117     -0.014834      0.628540
      0.00000      8.87278     15.27637        -0.004288      0.001940     -0.741453
      0.09095      7.39486     18.45527         0.001168      0.000710     -0.001129
      9.83275      8.87414     18.64353         0.001047      0.000788      0.000226
      9.76287      7.40343     21.97055         0.001725      0.004134     -0.004075
     -0.00028      8.87683     21.63677         0.001795     -0.001066     -0.002278
      9.75299     10.35158      8.77438        -0.002769      0.000152     -3.378041
      0.00000      0.00000      8.77438         0.001118      0.000055      2.808184
      0.00000     10.35158     12.02538         0.004608     -0.000174      0.540653
      9.75299      0.00000     12.02538        -0.007832     -0.000567     -0.725207
      9.75299     10.35158     15.27637        -0.018880      0.023698      0.636225
      0.00000      0.00000     15.27637        -0.003732     -0.000239     -0.737383
      0.09239     10.35216     18.45696        -0.001853      0.001229     -0.000040
      9.82711      0.00059     18.65307        -0.004393      0.000031      0.000984
      9.74816     10.35087     22.00312         0.001702      0.000286      0.000578
      0.00323     -0.00064     21.63577         0.002846      0.001386     -0.001132
      9.75299      1.47880      8.77438        -0.002731     -0.000361     -3.378355
      0.00000      2.95759      8.77438         0.001160     -0.000132      2.808215
      0.00000      1.47880     12.02538         0.004918     -0.000036      0.540560
      9.75299      2.95759     12.02538        -0.007354     -0.000374     -0.726186
      9.75299      1.47880     15.27637        -0.018379     -0.037549      0.626737
      0.00000      2.95759     15.27637        -0.000659     -0.002449     -0.741065
      0.09457      1.47842     18.45725        -0.005319     -0.001131     -0.002153
      9.83128      2.95605     18.64146        -0.002014     -0.000203      0.001989
      9.74767      1.46953     22.00330         0.001441     -0.000838      0.000411
      0.00250      2.95323     21.63650         0.002321      0.000859     -0.000704
      9.75299      4.43639      8.77438        -0.002661     -0.000015     -3.378289
      0.00000      5.91519      8.77438         0.001153     -0.000051      2.808408
      0.00000      4.43639     12.02538         0.005065      0.000029      0.540365
      9.75299      5.91519     12.02538        -0.007335      0.000527     -0.724973
      9.75299      4.43639     15.27637        -0.034520      0.028432      0.620455
      0.00000      5.91519     15.27637        -0.002368      0.000630     -0.744428
      0.09083      4.43619     18.45473         0.000578     -0.000374      0.000006
      9.83569      5.91529     18.64852        -0.000807     -0.000479     -0.002516
      9.77174      4.41537     21.97161         0.001756     -0.006755     -0.003650
      0.01069      5.91668     21.63470         0.002106     -0.001725     -0.000368
      3.25100      7.39399      8.77438         0.002790     -0.000094     -3.376022
      6.50199      8.87278      8.77438        -0.000986      0.000260      2.815203
      6.50199      7.39399     12.02538        -0.004588      0.009470      0.565097
      3.25100      8.87278     12.02538         0.008285      0.000396     -0.710620
      3.25100      7.39399     15.27637         0.047356     -0.014307      0.669657
      6.50199      8.87278     15.27637        -0.025440     -0.046599     -0.608246
      6.59514      7.36648     18.49572         0.005175      0.000317      0.004984
      3.33092      8.87269     18.65124        -0.000692     -0.003717     -0.000021
      3.25537      7.39781     22.00010        -0.000068     -0.002002     -0.001211
      6.51186      8.87430     21.59708         0.001686      0.000079     -0.000409
      3.25100     10.35158      8.77438         0.002868      0.000353     -3.376166
      6.50199      0.00000      8.77438        -0.000982      0.000007      2.815143
      6.50199     10.35158     12.02538        -0.004886     -0.001083      0.566627
      3.25100      0.00000     12.02538         0.008566      0.000060     -0.709793
[...]
      6.50199      5.91519     13.29976         0.003110     -0.000662     -0.126915
      4.52538      4.43639     12.02538         0.431644      0.000434      0.048064
      8.47860      4.43639     12.02538        -0.426168      0.000196      0.049993
      3.25100      5.91519     14.00199        -0.010728      0.002409     -0.103504
      3.25100      5.91519     16.55076        -0.009356      0.000121      0.038463
      7.77637      4.43639     15.27637        -0.429900      0.020342      0.065064
      5.22761      4.43639     15.27637         0.464236      0.023174      0.080961
      6.51379      5.91397     17.27821         0.000617     -0.000627      0.002432
      6.50129      5.91934     19.84480        -0.000707      0.000848     -0.004805
      4.55311      4.43707     18.55134         0.000235     -0.000575      0.001027
      8.46902      4.43627     18.56161        -0.003943      0.000352      0.001553
      3.25382      5.91924     20.51845         0.002361      0.000427      0.003545
      3.27789      5.91810     23.08995         0.000864      0.001123      0.000275
      7.75933      4.39470     21.83016         0.000120      0.000144     -0.001090
      5.28648      4.42570     21.93276         0.002033     -0.001378      0.001432
    total drift:                               -0.007595      0.000346     -0.043306

  FREE ENERGIE OF THE ION-ELECTRON SYSTEM (eV)
  free  energy   TOTEN  =     -2157.30382702 eV

  energy  without entropy=    -2157.30382702  energy(sigma->0) =    -2157.30382702

 d Force = 0.6256467E-04[ 0.283E-04, 0.968E-04]  d Energy = 0.6438289E-04-0.182E-05
 d Force =-0.2647000E+01[-0.265E+01,-0.265E+01]  d Ewald  =-0.2646999E+01-0.549E-06

 Conjugate gradient step on ions:
 trial-energy change:   -0.000064  1 .order   -0.000063   -0.000097   -0.000028
  (g-gl).g = 0.147E-03      g.g   = 0.160E-03  gl.gl    = 0.177E-03
 g(Force)  = 0.160E-03   g(Stress)= 0.000E+00 ortho     =-0.513E-05
 gamma     =   0.82808
 trial     =   0.62089
 opt step  =   0.83224  (harmonic =   0.87735) maximal distance =0.00091960
 next E    = -2157.303832   (d E  =  -0.00007)

 reached required accuracy - stopping structural energy minimisation