 vasp.6.3.0 20Jan22 (build Aug 21 2024 11:13:42) complex
 executed on        HPECrayEX_GCC date 2024.11.27  01:05:24

 INCAR:
   SYSTEM = TiO2
   ISMEAR = 0
   SIGMA = 0.05
   EDIFF = 1E-4
   ALGO = ALL
   ISTART = 0
   IBRION = -1
   NSW = 0
   ISYM = 0
   ISIF = 2
   EDIFFG = -0.01
   DIPOL = 0.5 0.5 0.5
   IDIPOL = 3
   LDIPOL = .TRUE.
   METAGGA = R2SCAN
   LUSE_VDW = .TRUE.
   BPARAM = 11.95
   CPARAM = 0.0093
   LASPH = .TRUE.
   ENCUT = 600
   PREC = Accurate
   LASPH = .TRUE.
   LREAL = .FALSE.
   ISPIN = 1
   NELM = 200
   NELMIN = 8
   NCORE = 16
   KPAR = 1
   LWAVE = .FALSE.
   LCHARG = .FALSE.

 POTCAR:    PAW_PBE C 08Apr2002
 POTCAR:    PAW_PBE H 15Jun2001
 POTCAR:    PAW_PBE Ti_pv 07Sep2000
 POTCAR:    PAW_PBE O 08Apr2002
|               ----> ADVICE to this user running VASP <----                  |
|     You have switched on vdW-DFT.                                           |
|     This routine was written and supplied by Jiri Klimes. We recommend      |
|     that you carefully read and cite the following publications:            |
|       J. Klimes, D.R. Bowler, A. Michelides                                 |
|          J. Phys.: Cond Matt. 22 022201 (2010)                              |
|       J. Klimes, D.R. Bowler, A. Michelides                                 |
|          Phys. Rev. B. 83, 195131 (2011)                                    |
|     and references therein.                                                 |

   TITEL  = PAW_PBE C 08Apr2002
   POMASS =   12.011; ZVAL   =    4.000    mass and valenz
   ENMAX  =  400.000; ENMIN  =  300.000 eV

   TITEL  = PAW_PBE H 15Jun2001
   POMASS =    1.000; ZVAL   =    1.000    mass and valenz
   ENMAX  =  250.000; ENMIN  =  200.000 eV

   TITEL  = PAW_PBE Ti_pv 07Sep2000
   POMASS =   47.880; ZVAL   =   10.000    mass and valenz
   ENMAX  =  222.335; ENMIN  =  166.751 eV

   TITEL  = PAW_PBE O 08Apr2002
   POMASS =   16.000; ZVAL   =    6.000    mass and valenz
   ENMAX  =  400.000; ENMIN  =  300.000 eV

  PAW_PBE C 08Apr2002                   :
  PAW_PBE H 15Jun2001                   :
  PAW_PBE Ti_pv 07Sep2000               :
  PAW_PBE O 08Apr2002                   :

 POSCAR:  C  H Ti  O
  positions in direct lattice

 METAGGA = R2SCA    LMAXTAU =  6    LMIXTAU =  F

 ion  position               nearest neighbor table
   1  0.500  0.500  0.808-   3 1.09   2 1.09   5 1.09   4 1.09
   2  0.497  0.575  0.828-   1 1.09
   3  0.503  0.425  0.828-   1 1.09
   4  0.571  0.503  0.788-   1 1.09
   5  0.429  0.497  0.788-   1 1.09
   6  0.750  0.625  0.287-  87 1.95 147 1.95 146 1.95  86 1.95  89 1.97 168 1.97  16 2.96  36 2.96

   7  0.000  0.750  0.287-  88 1.95  89 1.95 108 1.95 109 1.95  90 1.97  37 2.96  17 2.96
   8  0.000  0.625  0.394-  90 1.95  91 1.95 150 1.95 151 1.95  92 1.97  93 1.97  18 2.96  38 2.96

[...]

  85  0.500  0.500  0.709- 239 1.83 244 1.94 185 1.94 184 1.94 245 1.94  55 2.96  75 2.96
  86  0.750  0.750  0.246-   6 1.95  16 1.95
  87  0.750  0.750  0.329-   6 1.95  16 1.95   9 1.97
  88  0.098  0.625  0.287-   7 1.95  37 1.95  46 1.97
  89  0.902  0.625  0.287-   7 1.95  37 1.95   6 1.97
  90  0.000  0.750  0.352-   8 1.95  18 1.95   7 1.97
  91  0.000  0.750  0.435-   8 1.95  18 1.95  11 1.97
  92  0.848  0.625  0.394-   9 1.95  39 1.95   8 1.97
  93  0.152  0.625  0.394-  49 1.95  79 1.95   8 1.97
  94  0.750  0.750  0.458-  10 1.95  20 1.95   9 1.97
  95  0.750  0.750  0.542-  10 1.95  20 1.95  13 2.09
  96  0.098  0.625  0.500-  11 1.95  41 1.95  50 1.97
  97  0.902  0.625  0.500-  11 1.95  41 1.95  10 1.97
  98  0.000  0.750  0.565-  12 1.90  22 1.90  11 1.99
  99  0.000  0.750  0.649-  15 1.81  12 2.01  22 2.01
 100  0.850  0.625  0.607-  12 1.95  13 1.97  43 1.97
 101  0.150  0.625  0.607-  12 1.95  53 1.97  83 1.97
 102  0.751  0.750  0.671-  13 1.87  14 2.09  24 2.09
 103  0.750  0.750  0.755-  14 1.83  24 1.83
 104  0.094  0.625  0.718-  45 1.94  15 1.94  54 2.03
 105  0.906  0.625  0.718-  45 1.94  15 1.94  14 2.03
 106  0.750  0.000  0.246-  16 1.95  26 1.95
 107  0.750  0.000  0.329-  16 1.95  26 1.95  19 1.97
 108  0.098  0.875  0.287-   7 1.95  17 1.95  56 1.97
 109  0.902  0.875  0.287-   7 1.95  17 1.95  16 1.97
 110  0.000  0.000  0.352-  18 1.95  28 1.95  17 1.97
 111  0.000  0.000  0.435-  18 1.95  28 1.95  21 1.97
 112  0.848  0.875  0.394-   9 1.95  19 1.95  18 1.97
 113  0.152  0.875  0.394-  49 1.95  59 1.95  18 1.97
 114  0.750  0.000  0.458-  20 1.95  30 1.95  19 1.97
 115  0.750  0.000  0.542-  20 1.95  30 1.95  23 2.09
 116  0.098  0.875  0.500-  11 1.95  21 1.95  60 1.97
 117  0.902  0.875  0.500-  11 1.95  21 1.95  20 1.97
 118  0.000  1.000  0.565-  22 1.90  32 1.90  21 1.99
 119  0.000  1.000  0.649-  25 1.81  22 2.01  32 2.01
 120  0.850  0.875  0.607-  22 1.95  13 1.97  23 1.97
 121  0.150  0.875  0.607-  22 1.95  63 1.97  53 1.97
 122  0.750  0.000  0.671-  23 1.87  24 2.09  34 2.09
 123  0.750  0.000  0.755-  24 1.83  34 1.83
 124  0.094  0.875  0.718-  15 1.94  25 1.94  64 2.03
 125  0.906  0.875  0.718-  15 1.94  25 1.94  24 2.03
 126  0.750  0.250  0.246-  26 1.95  36 1.95
 127  0.750  0.250  0.329-  26 1.95  36 1.95  29 1.97
 128  0.098  0.125  0.287-  17 1.95  27 1.95  66 1.97
 129  0.902  0.125  0.287-  17 1.95  27 1.95  26 1.97
 130  0.000  0.250  0.352-  28 1.95  38 1.95  27 1.97
 131  0.000  0.250  0.435-  28 1.95  38 1.95  31 1.97
 132  0.848  0.125  0.394-  19 1.95  29 1.95  28 1.97
 133  0.152  0.125  0.394-  59 1.95  69 1.95  28 1.97
 134  0.750  0.250  0.458-  30 1.95  40 1.95  29 1.97
 135  0.750  0.250  0.542-  30 1.95  40 1.95  33 2.09
 136  0.098  0.125  0.500-  21 1.95  31 1.95  70 1.97
 137  0.902  0.125  0.500-  21 1.95  31 1.95  30 1.97
 138  1.000  0.250  0.565-  42 1.90  32 1.90  31 1.99
 139  1.000  0.250  0.649-  35 1.81  42 2.01  32 2.01
 140  0.850  0.125  0.607-  32 1.95  23 1.97  33 1.97
 141  0.150  0.125  0.607-  32 1.95  73 1.97  63 1.97
 142  0.750  0.250  0.671-  33 1.87  44 2.09  34 2.09
 143  0.750  0.250  0.755-  44 1.83  34 1.83
 144  0.094  0.125  0.718-  35 1.94  25 1.94  74 2.03
[...]
 231  0.500  0.500  0.435-  48 1.95  78 1.95  81 1.97
 232  0.348  0.375  0.394-  69 1.95  79 1.95  78 1.97
 233  0.652  0.375  0.394-  29 1.95  39 1.95  78 1.97
 234  0.250  0.500  0.458-  50 1.95  80 1.95  79 1.97
 235  0.250  0.500  0.542-  50 1.95  80 1.95  83 2.09
 236  0.598  0.375  0.500-  71 1.95  81 1.95  40 1.97
 237  0.402  0.375  0.500-  71 1.95  81 1.95  80 1.97
 238  0.500  0.500  0.565-  52 1.90  82 1.90  81 2.00
 239  0.500  0.500  0.649-  85 1.83  82 2.01  52 2.01
 240  0.350  0.375  0.607-  82 1.95  83 1.97  73 1.97
 241  0.650  0.375  0.607-  82 1.95  43 1.97  33 1.97
 242  0.249  0.500  0.671-  83 1.87  54 2.09  84 2.09
 243  0.251  0.500  0.755-  54 1.83  84 1.83
 244  0.594  0.374  0.718-  75 1.94  85 1.94  44 2.03
 245  0.406  0.374  0.718-  75 1.93  85 1.94  84 2.03

IMPORTANT INFORMATION: All symmetrisations will be switched off!
NOSYMM: (Re-)initialisation of all symmetry stuff for point group C_1.

                                     Primitive cell

  volume of cell :    4687.7932

  direct lattice vectors                    reciprocal lattice vectors
    12.981765453  0.000000000  0.000000000     0.077031125  0.000000000  0.000000000
     0.000000000 11.829918508  0.000000000     0.000000000  0.084531436  0.000000000
     0.000000000  0.000000000 30.524807391     0.000000000  0.000000000  0.032760239

  length of vectors
    12.981765453 11.829918508 30.524807391     0.077031125  0.084531436  0.032760239

  position of ions in fractional coordinates (direct lattice)
     0.500030367  0.499993223  0.807618025
     0.497281551  0.575477499  0.828046018
     0.502787386  0.424530634  0.828046749
     0.570958377  0.502985483  0.788291430
     0.429104342  0.497009128  0.788294819
     0.750000000  0.625000000  0.287357127
     0.000000000  0.750000000  0.287357127
     0.000000000  0.625000000  0.393678564
     0.750000000  0.750000000  0.393678564
     0.750000000  0.625000000  0.500000000
     0.000000000  0.750000000  0.500000000
     0.000007815  0.625017482  0.604147518
     0.750058639  0.750024164  0.610083972
     0.750255827  0.625219464  0.719461817
     0.000067704  0.750113925  0.708053355
     0.750000000  0.875000000  0.287357127
     0.000000000  0.000000000  0.287357127
     0.000000000  0.875000000  0.393678564
     0.750000000  0.000000000  0.393678564
     0.750000000  0.875000000  0.500000000
     0.000000000  0.000000000  0.500000000
     0.000002975  0.875020307  0.604162830
     0.749958143  0.000004750  0.610146234
     0.749906995  0.875082734  0.719689218
     0.000002722  0.999999957  0.708050845
     0.750000000  0.125000000  0.287357127
     0.000000000  0.250000000  0.287357127
     0.000000000  0.125000000  0.393678564
     0.750000000  0.250000000  0.393678564
     0.750000000  0.125000000  0.500000000
     0.000000000  0.250000000  0.500000000
     0.999996239  0.124979600  0.604162822
     0.750026141  0.249978725  0.610096114
     0.749826858  0.124943578  0.719696491
     0.999940144  0.249885963  0.708053353
     0.750000000  0.375000000  0.287357127
     0.000000000  0.500000000  0.287357127
     0.000000000  0.375000000  0.393678564
     0.750000000  0.500000000  0.393678564
     0.750000000  0.375000000  0.500000000
     0.000000000  0.500000000  0.500000000
     0.999991626  0.374982466  0.604147511
     0.750072915  0.499998134  0.610111564
     0.750146371  0.374826761  0.719498258
     0.000005140  0.499999878  0.708038623
     0.250000000  0.625000000  0.287357127
     0.500000000  0.750000000  0.287357127
     0.500000000  0.625000000  0.393678564
     0.250000000  0.750000000  0.393678564
     0.250000000  0.625000000  0.500000000
     0.500000000  0.750000000  0.500000000
     0.500005993  0.624473144  0.604626112
     0.249973900  0.750021081  0.610096323
     0.249864177  0.625172706  0.719498812
     0.500051610  0.750163943  0.707781109
     0.250000000  0.875000000  0.287357127
     0.500000000  0.000000000  0.287357127
     0.500000000  0.875000000  0.393678564
     0.250000000  0.000000000  0.393678564
     0.250000000  0.875000000  0.500000000
[...]
     0.500000000  0.500000000  0.435333895
     0.347946691  0.375000000  0.393678564
     0.652053309  0.375000000  0.393678564
     0.250000000  0.500000000  0.458344669
     0.250000000  0.500000000  0.541655331
     0.597946691  0.375000000  0.500000000
     0.402053309  0.375000000  0.500000000
     0.500000833  0.499999936  0.565361218
     0.500000938  0.499999970  0.649283527
     0.349934641  0.375021079  0.606993342
     0.650063401  0.375035852  0.606983506
     0.249182003  0.500025808  0.671225700
     0.251274706  0.499949440  0.754806321
     0.594164512  0.374047481  0.717685760
     0.405733633  0.374016016  0.717560592

  ion indices of the primitive-cell ions
   primitive index   ion index
                 1           1
                 2           2
                 3           3
                 4           4
                 5           5
                 6           6
                 7           7
                 8           8
                 9           9
[...]
   3.24510254  8.87268827 18.62307276
   3.24367814  7.39574217 21.96256266
   6.49155272  8.87437832 21.60488202
   3.24544136 10.35117869  8.77152097
   6.49088273  0.00000000  8.77152097
   6.49088273 10.35117869 12.01696233
   3.24544136  0.00000000 12.01696233
   3.24544136 10.35117869 15.26240370
[...]
   6.49088273  5.91495925 13.28848330
   4.51696233  4.43621944 12.01696233
   8.46480312  4.43621944 12.01696233
   3.24544136  5.91495925 13.99088273
   3.24544136  5.91495925 16.53392466
   7.76240370  4.43621944 15.26240370
   5.21936176  4.43621944 15.26240370
   6.49089355  5.91495850 17.25754228
   6.49089490  5.91495890 19.81925461
   4.54276943  4.43646881 18.52835486
   8.43897060  4.43664357 18.52805460
   3.23482232  5.91526456 20.48903520
   3.26198930  5.91436113 23.04031756
   7.71330433  4.42495121 21.90721960
   5.26713886  4.42457899 21.90339886

--------------------------------------- Iteration      FINAL  ---------------------------------------

--------------------OUTCAR has been truncated-------------------------

[...]

--------------------OUTCAR has been truncated-------------------------

  FORCE on cell =-STRESS in cart. coord.  units (eV):
  Direction    XX          YY          ZZ          XY          YZ          ZX
  Alpha Z  4699.24897  4699.24897  4699.24897
  Ewald  980427.37431998074.41056************    -0.35269    -0.00911     0.04969
  Hartree************************************    -0.25002     0.00012     0.01046
  E(xc)   -9157.41861 -9166.92203 -9155.23844    -0.00223     0.00001    -0.00016
  Local  ************************************     0.62667     0.00551    -0.05682
  n-local -5185.78531 -5090.81135 -5230.82908    -0.00167     0.00037     0.00053
  augment  5516.59706  5483.79502  5520.56611    -0.00144     0.00010     0.00000
  Kinetic 28775.56357 28287.25513 28821.70730    -0.00714     0.00039    -0.00543
  Fock        0.00000     0.00000     0.00000     0.00000     0.00000     0.00000
  Total       4.91032   -45.20432   -36.29530     0.01148    -0.00260    -0.00172
  in kB       1.67823   -15.44977   -12.40488     0.00392    -0.00089    -0.00059

 VOLUME and BASIS-vectors are now :
  energy-cutoff  :      600.00
  volume of cell :     4687.79
      direct lattice vectors                 reciprocal lattice vectors
    12.981765453  0.000000000  0.000000000     0.077031125  0.000000000  0.000000000
     0.000000000 11.829918508  0.000000000     0.000000000  0.084531436  0.000000000
     0.000000000  0.000000000 30.524807391     0.000000000  0.000000000  0.032760239

  length of vectors
    12.981765453 11.829918508 30.524807391     0.077031125  0.084531436  0.032760239

 FORCES acting on ions:
    Electron-Ion                     Ewald-Force                    Non-Local-Force
   0.742E-02 -.334E-02 -.156E+04   -.552E-02 0.586E-02 0.156E+04   0.339E-03 0.335E-02 -.959E+00
   0.158E+01 -.439E+02 -.383E+03   -.177E+01 0.487E+02 0.387E+03   0.192E+00 -.473E+01 -.334E+01
   -.159E+01 0.439E+02 -.383E+03   0.178E+01 -.487E+02 0.387E+03   -.193E+00 0.474E+01 -.335E+01
   -.359E+02 -.172E+01 -.397E+03   0.409E+02 0.191E+01 0.395E+03   -.498E+01 -.187E+00 0.280E+01
   0.359E+02 0.172E+01 -.397E+03   -.409E+02 -.190E+01 0.395E+03   0.498E+01 0.187E+00 0.280E+01
   -.104E+00 -.297E-01 0.381E+04   0.104E+00 0.298E-01 -.381E+04   -.803E-04 -.282E-05 0.444E+00
   -.362E-03 -.423E-01 0.399E+04   0.135E-03 0.424E-01 -.398E+04   0.272E-03 -.935E-06 -.402E+01
   -.803E-03 -.435E-01 0.194E+04   0.889E-03 0.438E-01 -.194E+04   -.836E-04 -.887E-05 -.621E-01
   -.140E+00 -.287E-01 0.193E+04   0.139E+00 0.293E-01 -.194E+04   0.502E-03 -.265E-04 0.217E+00
   -.379E+00 -.148E+00 -.336E+00   0.371E+00 0.146E+00 0.112E+01   0.130E-02 0.116E-03 -.126E+00
   -.105E-01 -.403E+00 0.104E+02   0.106E-01 0.406E+00 -.115E+02   0.132E-03 -.681E-03 0.314E+00
   -.278E-01 -.127E+01 -.188E+04   0.278E-01 0.128E+01 0.188E+04   -.140E-03 -.220E-02 0.134E+00
   -.423E+01 -.349E+01 -.194E+04   0.423E+01 0.349E+01 0.194E+04   -.396E-02 -.401E-02 -.163E+00
   -.362E+02 -.140E+02 -.376E+04   0.362E+02 0.140E+02 0.376E+04   0.107E-01 0.694E-02 -.280E+00
   -.155E-01 -.470E+01 -.380E+04   0.137E-01 0.470E+01 0.380E+04   0.146E-02 -.253E-02 0.118E+01
   -.105E+00 -.298E-01 0.381E+04   0.105E+00 0.300E-01 -.381E+04   -.492E-04 -.350E-04 0.444E+00
   -.313E-03 0.990E-05 0.399E+04   0.430E-04 0.113E-05 -.398E+04   0.272E-03 0.306E-05 -.402E+01
   -.835E-03 -.444E-01 0.194E+04   0.923E-03 0.446E-01 -.194E+04   -.853E-04 -.187E-04 -.622E-01
   -.178E+00 -.110E-02 0.193E+04   0.176E+00 0.113E-02 -.194E+04   0.609E-03 -.381E-05 0.217E+00
   -.824E+00 -.203E+00 -.823E+00   0.821E+00 0.211E+00 0.162E+01   0.650E-03 -.485E-03 -.127E+00
   -.334E-04 -.874E-04 0.997E+01   -.178E-03 0.838E-04 -.110E+02   0.218E-03 0.248E-05 0.313E+00
   -.525E-01 -.124E+01 -.188E+04   0.526E-01 0.124E+01 0.188E+04   -.113E-03 -.258E-02 0.132E+00
   -.337E+01 0.182E-02 -.195E+04   0.337E+01 -.163E-02 0.195E+04   0.196E-02 -.225E-03 -.158E+00
   -.128E+02 -.101E+02 -.378E+04   0.128E+02 0.101E+02 0.378E+04   0.188E-01 0.111E-02 -.294E+00
   -.495E-02 0.239E-03 -.381E+04   0.469E-02 -.210E-03 0.381E+04   0.292E-03 0.645E-05 0.118E+01
   -.105E+00 0.297E-01 0.381E+04   0.105E+00 -.298E-01 -.381E+04   -.339E-04 0.423E-05 0.444E+00
   -.231E-03 0.423E-01 0.399E+04   -.457E-04 -.424E-01 -.398E+04   0.249E-03 0.373E-05 -.402E+01
   0.678E-03 0.444E-01 0.194E+04   -.649E-03 -.446E-01 -.194E+04   -.812E-04 0.135E-04 -.622E-01
   -.140E+00 0.287E-01 0.193E+04   0.139E+00 -.294E-01 -.194E+04   0.494E-03 0.338E-04 0.217E+00
   -.833E+00 0.186E+00 -.846E+00   0.830E+00 -.193E+00 0.164E+01   0.754E-03 0.372E-03 -.128E+00
   0.101E-01 0.403E+00 0.104E+02   -.106E-01 -.406E+00 -.115E+02   0.305E-03 0.683E-03 0.314E+00
   0.401E-01 0.124E+01 -.188E+04   -.403E-01 -.124E+01 0.188E+04   0.247E-03 0.258E-02 0.132E+00
   -.435E+01 0.349E+01 -.194E+04   0.435E+01 -.350E+01 0.194E+04   -.351E-02 0.316E-02 -.163E+00
   -.127E+02 0.101E+02 -.378E+04   0.127E+02 -.101E+02 0.378E+04   0.183E-01 -.779E-03 -.295E+00
   0.382E-02 0.470E+01 -.380E+04   -.263E-02 -.470E+01 0.380E+04   -.835E-03 0.256E-02 0.118E+01
   -.104E+00 0.298E-01 0.381E+04   0.104E+00 -.300E-01 -.381E+04   -.619E-04 0.167E-04 0.444E+00
   -.316E-03 0.174E-04 0.399E+04   0.466E-04 -.114E-05 -.398E+04   0.254E-03 0.305E-05 -.402E+01
   0.612E-03 0.435E-01 0.194E+04   -.581E-03 -.438E-01 -.194E+04   -.662E-04 0.163E-04 -.621E-01
   -.103E+00 0.101E-02 0.193E+04   0.102E+00 -.104E-02 -.194E+04   0.354E-03 -.716E-05 0.217E+00
   -.387E+00 0.164E+00 -.351E+00   0.378E+00 -.164E+00 0.114E+01   0.141E-02 0.136E-04 -.126E+00
   -.262E-03 0.426E-04 0.108E+02   0.737E-04 -.440E-04 -.119E+02   0.217E-03 -.739E-06 0.314E+00
   0.139E-01 0.127E+01 -.188E+04   -.141E-01 -.128E+01 0.188E+04   0.252E-03 0.219E-02 0.134E+00
   -.558E+01 0.767E-02 -.194E+04   0.558E+01 -.852E-02 0.194E+04   -.161E-02 0.870E-03 -.168E+00
   -.360E+02 0.142E+02 -.376E+04   0.359E+02 -.142E+02 0.376E+04   0.836E-02 -.668E-02 -.282E+00
   -.577E-02 -.340E-03 -.380E+04   0.542E-02 0.375E-03 0.380E+04   0.319E-03 0.125E-05 0.117E+01
   0.105E+00 -.299E-01 0.381E+04   -.104E+00 0.300E-01 -.381E+04   -.263E-03 -.630E-06 0.444E+00
   -.124E-03 -.414E-01 0.399E+04   -.130E-03 0.418E-01 -.398E+04   0.248E-03 -.403E-04 -.402E+01
   0.785E-03 0.215E-01 0.194E+04   -.765E-03 -.158E-01 -.194E+04   -.619E-04 -.112E-02 -.624E-01
   0.140E+00 -.287E-01 0.193E+04   -.139E+00 0.293E-01 -.194E+04   -.255E-04 -.273E-04 0.217E+00
   0.387E+00 -.164E+00 -.352E+00   -.379E+00 0.163E+00 0.114E+01   -.174E-02 -.758E-05 -.126E+00
   0.108E-01 0.135E+00 0.116E+02   -.112E-01 -.165E+00 -.126E+02   0.235E-03 0.161E-01 0.299E+00
   0.204E-02 -.284E+01 -.188E+04   -.202E-02 0.287E+01 0.188E+04   -.626E-04 -.331E-01 0.144E+00
   0.435E+01 -.349E+01 -.194E+04   -.435E+01 0.350E+01 0.194E+04   0.391E-02 -.315E-02 -.163E+00
   0.359E+02 -.142E+02 -.376E+04   -.359E+02 0.142E+02 0.376E+04   -.828E-02 0.666E-02 -.282E+00
   0.203E+00 -.366E+02 -.377E+04   -.202E+00 0.366E+02 0.377E+04   -.165E-02 -.128E-01 0.124E+01
   0.105E+00 -.297E-01 0.381E+04   -.105E+00 0.298E-01 -.381E+04   -.295E-03 -.373E-04 0.444E+00
   -.226E-03 0.115E-04 0.399E+04   -.435E-04 0.709E-06 -.398E+04   0.269E-03 0.456E-05 -.402E+01
   0.809E-03 0.181E-01 0.194E+04   -.787E-03 -.153E-01 -.194E+04   -.689E-04 -.740E-03 -.626E-01
   0.178E+00 0.109E-02 0.193E+04   -.176E+00 -.111E-02 -.194E+04   -.137E-03 -.146E-04 0.217E+00
   0.834E+00 -.186E+00 -.847E+00   -.830E+00 0.193E+00 0.164E+01   -.109E-02 -.367E-03 -.128E+00
[...]
   -.531E+02 -.273E-03 0.116E+04   0.571E+02 -.380E-03 -.116E+04   -.361E+01 0.986E-03 0.181E+00
   0.531E+02 0.410E-03 0.116E+04   -.571E+02 -.110E-02 -.116E+04   0.361E+01 0.105E-02 0.181E+00
   0.112E+00 -.205E-02 0.508E+03   -.109E+00 0.231E-02 -.512E+03   -.463E-02 -.582E-03 0.431E+01
   0.407E+00 -.667E-02 -.522E+03   -.398E+00 0.698E-02 0.530E+03   -.884E-02 -.608E-03 -.715E+01
   -.549E+02 -.166E+00 0.575E+01   0.597E+02 0.163E+00 -.598E+01   -.530E+01 0.148E-01 0.319E+00
   0.549E+02 -.171E+00 0.575E+01   -.597E+02 0.168E+00 -.598E+01   0.530E+01 0.146E-01 0.320E+00
   -.231E-02 0.895E-04 -.630E+03   0.262E-02 -.109E-03 0.623E+03   -.302E-03 0.218E-04 0.661E+01
   0.606E-02 -.313E-03 -.161E+04   -.660E-02 0.282E-03 0.160E+04   0.545E-03 0.337E-04 0.185E+01
   -.263E+02 0.185E+01 -.114E+04   0.293E+02 -.190E+01 0.114E+04   -.304E+01 0.435E-01 0.847E+00
   0.263E+02 0.183E+01 -.114E+04   -.294E+02 -.187E+01 0.114E+04   0.304E+01 0.403E-01 0.857E+00
   0.124E+02 -.127E+00 -.181E+04   -.125E+02 0.134E+00 0.181E+04   0.107E+00 -.671E-02 -.227E+01
   0.404E+02 0.260E-01 -.272E+04   -.404E+02 -.314E-01 0.274E+04   -.340E-01 0.552E-02 -.213E+02
   -.422E+02 0.239E+02 -.231E+04   0.484E+02 -.239E+02 0.232E+04   -.630E+01 -.158E-02 -.346E+01
   0.423E+02 0.236E+02 -.231E+04   -.486E+02 -.236E+02 0.231E+04   0.631E+01 -.290E-01 -.337E+01
   -.167E-01 -.474E-02 0.974E+02   -.232E-11 0.127E-11 -.487E-10   0.178E-01 0.460E-02 -.975E+02

 POSITION                                       TOTAL-FORCE (eV/Angst)
      6.49128      5.91488     24.65238         0.002232      0.005850     -0.003447
      6.45559      6.80785     25.27595         0.001698     -0.001486     -0.003121
      6.52707      5.02216     25.27597        -0.001758     -0.003766      0.000192
      7.41205      5.95028     24.06244         0.002676     -0.001876     -0.006004
      5.57053      5.87958     24.06255        -0.005063      0.001363     -0.007304
      9.73632      7.39370      8.77152        -0.000253      0.000151     -3.755742
      0.00000      8.87244      8.77152         0.000037      0.000076      2.944429
      0.00000      7.39370     12.01696        -0.000001      0.000238      0.543687
      9.73632      8.87244     12.01696        -0.000951      0.000562     -0.754435
      9.73632      7.39370     15.26240        -0.006993     -0.001960      0.656519
      0.00000      8.87244     15.26240         0.000184      0.001794     -0.738742
      0.00010      7.39391     18.44149        -0.000059     -0.000065     -0.000382
      9.73709      8.87272     18.62270        -0.001130      0.000944      0.000106
      9.73965      7.39630     21.96143         0.001618     -0.003006      0.001266
      0.00088      8.87379     21.61319        -0.000282      0.000413     -0.000254
      9.73632     10.35118      8.77152        -0.000377      0.000094     -3.755634
      0.00000      0.00000      8.77152        -0.000005      0.000015      2.944517
      0.00000     10.35118     12.01696        -0.000001      0.000239      0.543995
      9.73632      0.00000     12.01696        -0.001264      0.000021     -0.754158
      9.73632     10.35118     15.26240        -0.003118      0.008175      0.660569
      0.00000      0.00000     15.26240        -0.000001     -0.000001     -0.738392
      0.00004     10.35142     18.44195        -0.000056     -0.000172     -0.000940
      9.73578      0.00006     18.62460         0.000699      0.000000     -0.000555
      9.73512     10.35216     21.96837        -0.000465     -0.004120     -0.001154
      0.00004     11.82992     21.61312         0.000018      0.000037      0.000078
      9.73632      1.47874      8.77152        -0.000316     -0.000156     -3.755663
      0.00000      2.95748      8.77152        -0.000035     -0.000112      2.944454
      0.00000      1.47874     12.01696        -0.000055     -0.000239      0.544016
      9.73632      2.95748     12.01696        -0.000969     -0.000576     -0.754246
      9.73632      1.47874     15.26240        -0.003155     -0.006604      0.661605
      0.00000      2.95748     15.26240        -0.000185     -0.001794     -0.738761
     12.98172      1.47850     18.44195         0.000063      0.000168     -0.000959
      9.73666      2.95723     18.62307        -0.001001     -0.000970      0.000095
      9.73408      1.47807     21.96860        -0.000014      0.003900     -0.001274
     12.98099      2.95613     21.61319         0.000301     -0.000374     -0.000255
      9.73632      4.43622      8.77152        -0.000245     -0.000118     -3.755718
      0.00000      5.91496      8.77152        -0.000024      0.000020      2.944445
      0.00000      4.43622     12.01696        -0.000039     -0.000224      0.543701
      9.73632      5.91496     12.01696        -0.000621     -0.000034     -0.754498
      9.73632      4.43622     15.26240        -0.006978      0.000392      0.657683
      0.00000      5.91496     15.26240         0.000021     -0.000002     -0.739212
     12.98166      4.43601     18.44149         0.000052      0.000064     -0.000367
      9.73727      5.91494     18.62354        -0.000796      0.000003      0.000980
      9.73822      4.43417     21.96255         0.001914      0.003024      0.001202
      0.00007      5.91496     21.61274        -0.000048      0.000036     -0.000899
      3.24544      7.39370      8.77152         0.000155      0.000088     -3.755925
      6.49088      8.87244      8.77152        -0.000014      0.000292      2.945625
      6.49088      7.39370     12.01696        -0.000045      0.004605      0.545342
      3.24544      8.87244     12.01696         0.000920      0.000557     -0.754257
      3.24544      7.39370     15.26240         0.006867     -0.000391      0.657717
      6.49088      8.87244     15.26240        -0.000223     -0.013536     -0.699407
      6.49096      7.38747     18.45610        -0.000059     -0.000951     -0.003017
      3.24510      8.87269     18.62307         0.000996      0.000970      0.000060
      3.24368      7.39574     21.96256        -0.001966     -0.003025      0.001261
      6.49155      8.87438     21.60488        -0.000122     -0.001254     -0.001888
      3.24544     10.35118      8.77152         0.000284      0.000054     -3.755804
      6.49088      0.00000      8.77152        -0.000008      0.000017      2.945634
      6.49088     10.35118     12.01696        -0.000050      0.002068      0.548213
      3.24544      0.00000     12.01696         0.001224     -0.000037     -0.754149
      3.24544     10.35118     15.26240         0.003051      0.006593      0.661642
[...]
      6.49088      5.91496     13.28848         0.000008      0.000015     -0.124354
      4.51696      4.43622     12.01696         0.448451      0.000333      0.057111
      8.46480      4.43622     12.01696        -0.448403      0.000365      0.057094
      3.24544      5.91496     13.99088        -0.001356     -0.000321     -0.081426
      3.24544      5.91496     16.53392         0.000651     -0.000290      0.039159
      7.76240      4.43622     15.26240        -0.458247      0.011735      0.086195
      5.21936      4.43622     15.26240         0.457936      0.011717      0.086234
      6.49089      5.91496     17.25754         0.000005      0.000002     -0.003583
      6.49089      5.91496     19.81925        -0.000006      0.000003      0.001671
      4.54277      4.43647     18.52835        -0.000185     -0.000911     -0.001255
      8.43897      4.43664     18.52805         0.000231     -0.000985     -0.001180
      3.23482      5.91526     20.48904        -0.001015     -0.000005     -0.001979
      3.26199      5.91436     23.04032        -0.001595      0.000171     -0.001048
      7.71330      4.42495     21.90722         0.000798     -0.000373     -0.001885
      5.26714      4.42458     21.90340        -0.000424     -0.000504     -0.001428
    total drift:                                0.001053     -0.000145     -0.079312

  FREE ENERGIE OF THE ION-ELECTRON SYSTEM (eV)
  free  energy   TOTEN  =     -2735.41371468 eV

  energy  without entropy=    -2735.41371468  energy(sigma->0) =    -2735.41371468