 vasp.6.3.0 20Jan22 (build Mar 11 2022 13:48:16) complex

 executed on             LinuxIFC date 2024.01.22  08:40:20

 INCAR:
   SYSTEM = TiO2
   ISMEAR = 0
   SIGMA = 0.05
   EDIFF = 1E-5
   ALGO = ALL
   ISTART = 0
   IBRION = -1
   NSW = 0
   ISYM = 0
   ISIF = 2
   EDIFFG = -0.01
   DIPOL = 0.5 0.5 0.5
   IDIPOL = 3
   LDIPOL = .TRUE.
   METAGGA = R2SCAN
   LUSE_VDW = .TRUE.
   BPARAM = 11.95
   CPARAM = 0.0093
   LASPH = .TRUE.
   ENCUT = 600
   PREC = Accurate
   LASPH = .TRUE.
   LREAL = .FALSE.
   ISPIN = 1
   NELM = 200
   NELMIN = 8
   NCORE = 2
   KPAR = 1
   LWAVE = .FALSE.
   LCHARG = .FALSE.

 POTCAR:    PAW_PBE C 08Apr2002
 POTCAR:    PAW_PBE H 15Jun2001
 POTCAR:    PAW_PBE Ti_pv 07Sep2000
 POTCAR:    PAW_PBE O 08Apr2002
|           W    W    AA    RRRRR   N    N  II  N    N   GGGG   !!!           |
|           W    W   A  A   R    R  NN   N  II  NN   N  G    G  !!!           |
|           W    W  A    A  R    R  N N  N  II  N N  N  G       !!!           |
|           W WW W  AAAAAA  RRRRR   N  N N  II  N  N N  G  GGG   !            |
|           WW  WW  A    A  R   R   N   NN  II  N   NN  G    G                |
|           W    W  A    A  R    R  N    N  II  N    N   GGGG   !!!           |
|     For optimal performance we recommend to set                             |
|       NCORE = 2 up to number-of-cores-per-socket                            |
|     This setting can greatly improve the performance of VASP for DFT.       |
|     The default, NCORE=1 might be grossly inefficient on modern             |
|     multi-core architectures or massively parallel machines. Do your        |
|     Unfortunately you need to use the default for GW and RPA                |
|     calculations (for HF NCORE is supported but not extensively tested      |
|     yet).                                                                   |

   TITEL  = PAW_PBE C 08Apr2002
   POMASS =   12.011; ZVAL   =    4.000    mass and valenz
   ENMAX  =  400.000; ENMIN  =  300.000 eV

   TITEL  = PAW_PBE H 15Jun2001
   POMASS =    1.000; ZVAL   =    1.000    mass and valenz
   ENMAX  =  250.000; ENMIN  =  200.000 eV

   TITEL  = PAW_PBE Ti_pv 07Sep2000
   POMASS =   47.880; ZVAL   =   10.000    mass and valenz
   ENMAX  =  222.335; ENMIN  =  166.751 eV

   TITEL  = PAW_PBE O 08Apr2002
   POMASS =   16.000; ZVAL   =    6.000    mass and valenz
   ENMAX  =  400.000; ENMIN  =  300.000 eV

  PAW_PBE C 08Apr2002                   :
  PAW_PBE H 15Jun2001                   :
  PAW_PBE Ti_pv 07Sep2000               :
  PAW_PBE O 08Apr2002                   :

 POSCAR:  C  H Ti  O
  positions in direct lattice

 METAGGA = R2SCA    LMAXTAU =  6    LMIXTAU =  F

 ion  position               nearest neighbor table
   1  0.500  0.500  0.808-   3 1.09   2 1.09   5 1.09   4 1.09
   2  0.497  0.575  0.828-   1 1.09
   3  0.503  0.425  0.828-   1 1.09
   4  0.571  0.503  0.788-   1 1.09
   5  0.429  0.497  0.788-   1 1.09
   6  0.750  0.625  0.287-  87 1.95 147 1.95 146 1.95  86 1.95  89 1.97 168 1.97  16 2.96  36 2.96

   7  0.000  0.750  0.287-  88 1.95  89 1.95 108 1.95 109 1.95  90 1.97  37 2.96  17 2.96
   8  0.000  0.625  0.394-  90 1.95  91 1.95 150 1.95 151 1.95  92 1.97  93 1.97  18 2.96  38 2.96

[...]

  85  0.500  0.500  0.709- 239 1.83 244 1.94 185 1.94 184 1.94 245 1.94  55 2.96  75 2.96
  86  0.750  0.750  0.246-   6 1.95  16 1.95
  87  0.750  0.750  0.329-   6 1.95  16 1.95   9 1.97
  88  0.098  0.625  0.287-   7 1.95  37 1.95  46 1.97
  89  0.902  0.625  0.287-   7 1.95  37 1.95   6 1.97
  90  0.000  0.750  0.352-   8 1.95  18 1.95   7 1.97
  91  0.000  0.750  0.435-   8 1.95  18 1.95  11 1.97
  92  0.848  0.625  0.394-   9 1.95  39 1.95   8 1.97
  93  0.152  0.625  0.394-  49 1.95  79 1.95   8 1.97
  94  0.750  0.750  0.458-  10 1.95  20 1.95   9 1.97
  95  0.750  0.750  0.542-  10 1.95  20 1.95  13 2.09
  96  0.098  0.625  0.500-  11 1.95  41 1.95  50 1.97
  97  0.902  0.625  0.500-  11 1.95  41 1.95  10 1.97
  98  0.000  0.750  0.565-  22 1.90  12 1.90  11 1.99
  99  0.000  0.750  0.649-  15 1.81  12 2.01  22 2.01
 100  0.850  0.625  0.607-  12 1.95  13 1.97  43 1.97
 101  0.150  0.625  0.607-  12 1.95  53 1.97  83 1.97
 102  0.751  0.750  0.671-  13 1.87  14 2.09  24 2.09
 103  0.750  0.750  0.755-  14 1.83  24 1.83
 104  0.094  0.625  0.719-  45 1.94  15 1.94  54 2.03
 105  0.906  0.625  0.719-  45 1.94  15 1.94  14 2.02
 106  0.750  0.000  0.246-  16 1.95  26 1.95
 107  0.750  0.000  0.329-  16 1.95  26 1.95  19 1.97
 108  0.098  0.875  0.287-   7 1.95  17 1.95  56 1.97
 109  0.902  0.875  0.287-   7 1.95  17 1.95  16 1.97
 110  0.000  0.000  0.352-  18 1.95  28 1.95  17 1.97
 111  0.000  0.000  0.435-  18 1.95  28 1.95  21 1.97
 112  0.848  0.875  0.394-   9 1.95  19 1.95  18 1.97
 113  0.152  0.875  0.394-  49 1.95  59 1.95  18 1.97
 114  0.750  0.000  0.458-  20 1.95  30 1.95  19 1.97
 115  0.750  0.000  0.542-  20 1.95  30 1.95  23 2.09
 116  0.098  0.875  0.500-  11 1.95  21 1.95  60 1.97
 117  0.902  0.875  0.500-  11 1.95  21 1.95  20 1.97
 118  0.000  1.000  0.565-  32 1.90  22 1.90  21 1.99
 119  0.000  1.000  0.649-  25 1.81  22 2.01  32 2.01
 120  0.850  0.875  0.607-  22 1.95  23 1.97  13 1.97
 121  0.150  0.875  0.607-  22 1.95  63 1.97  53 1.97
 122  0.750  0.000  0.671-  23 1.87  24 2.09  34 2.09
 123  0.750  0.000  0.755-  24 1.83  34 1.83
 124  0.094  0.875  0.718-  15 1.94  25 1.94  64 2.03
 125  0.906  0.875  0.718-  15 1.94  25 1.94  24 2.03
 126  0.750  0.250  0.246-  26 1.95  36 1.95
 127  0.750  0.250  0.329-  26 1.95  36 1.95  29 1.97
 128  0.098  0.125  0.287-  17 1.95  27 1.95  66 1.97
 129  0.902  0.125  0.287-  17 1.95  27 1.95  26 1.97
 130  0.000  0.250  0.352-  28 1.95  38 1.95  27 1.97
 131  0.000  0.250  0.435-  28 1.95  38 1.95  31 1.97
 132  0.848  0.125  0.394-  19 1.95  29 1.95  28 1.97
 133  0.152  0.125  0.394-  59 1.95  69 1.95  28 1.97
 134  0.750  0.250  0.458-  30 1.95  40 1.95  29 1.97
 135  0.750  0.250  0.542-  30 1.95  40 1.95  33 2.09
 136  0.098  0.125  0.500-  21 1.95  31 1.95  70 1.97
 137  0.902  0.125  0.500-  21 1.95  31 1.95  30 1.97
 138  1.000  0.250  0.565-  32 1.90  42 1.90  31 1.99
 139  1.000  0.250  0.649-  35 1.81  42 2.01  32 2.01
 140  0.850  0.125  0.607-  32 1.95  23 1.97  33 1.97
 141  0.150  0.125  0.607-  32 1.95  63 1.97  73 1.97
 142  0.750  0.250  0.671-  33 1.87  44 2.09  34 2.09
 143  0.750  0.250  0.755-  44 1.83  34 1.83
 144  0.094  0.125  0.718-  35 1.94  25 1.94  74 2.03
[...]
 231  0.500  0.500  0.435-  48 1.95  78 1.95  81 1.97
 232  0.348  0.375  0.394-  69 1.95  79 1.95  78 1.97
 233  0.652  0.375  0.394-  29 1.95  39 1.95  78 1.97
 234  0.250  0.500  0.458-  50 1.95  80 1.95  79 1.97
 235  0.250  0.500  0.542-  50 1.95  80 1.95  83 2.09
 236  0.598  0.375  0.500-  71 1.95  81 1.95  40 1.97
 237  0.402  0.375  0.500-  71 1.95  81 1.95  80 1.97
 238  0.500  0.500  0.565-  52 1.90  82 1.90  81 1.99
 239  0.500  0.500  0.649-  85 1.83  82 2.01  52 2.01
 240  0.350  0.375  0.607-  82 1.95  83 1.97  73 1.97
 241  0.650  0.375  0.607-  82 1.95  43 1.97  33 1.97
 242  0.249  0.500  0.671-  83 1.87  54 2.09  84 2.09
 243  0.251  0.500  0.755-  54 1.83  84 1.83
 244  0.594  0.374  0.718-  75 1.94  85 1.94  44 2.03
 245  0.406  0.374  0.718-  75 1.93  85 1.94  84 2.03

IMPORTANT INFORMATION: All symmetrisations will be switched off!
NOSYMM: (Re-)initialisation of all symmetry stuff for point group C_1.

                                     Primitive cell

  volume of cell :    4687.8040

  direct lattice vectors                    reciprocal lattice vectors
    12.981773603  0.000000000  0.000000000     0.077031077  0.000000000  0.000000000
     0.000000000 11.829932295  0.000000000     0.000000000  0.084531338  0.000000000
     0.000000000  0.000000000 30.524823105     0.000000000  0.000000000  0.032760223

  length of vectors
    12.981773603 11.829932295 30.524823105     0.077031077  0.084531338  0.032760223

  position of ions in fractional coordinates (direct lattice)
     0.500029137  0.500001008  0.807737636
     0.497206294  0.575440730  0.828187792
     0.502867711  0.424569392  0.828189344
     0.570964372  0.503073322  0.788404236
     0.429105296  0.496925645  0.788408348
     0.750000000  0.625000000  0.287357103
     0.000000000  0.750000000  0.287357103
     0.000000000  0.625000000  0.393678552
     0.750000000  0.750000000  0.393678552
     0.750000000  0.625000000  0.500000000
     0.000000000  0.750000000  0.500000000
     0.000010380  0.625012610  0.604155931
     0.750052984  0.750024092  0.610084122
     0.750326532  0.625215565  0.719468139
     0.000086866  0.750164744  0.708064681
     0.750000000  0.875000000  0.287357103
     0.000000000  0.000000000  0.287357103
     0.000000000  0.875000000  0.393678552
     0.750000000  0.000000000  0.393678552
     0.750000000  0.875000000  0.500000000
     0.000000000  0.000000000  0.500000000
     0.000000605  0.875015487  0.604168170
     0.750002029  0.000008864  0.610134916
     0.749849059  0.875074234  0.719664087
     0.000001867  0.999999916  0.708063545
     0.750000000  0.125000000  0.287357103
     0.000000000  0.250000000  0.287357103
     0.000000000  0.125000000  0.393678552
     0.750000000  0.250000000  0.393678552
     0.750000000  0.125000000  0.500000000
     0.000000000  0.250000000  0.500000000
     0.999998493  0.124984374  0.604168126
     0.750014360  0.249978650  0.610101233
     0.749744121  0.124964070  0.719674974
     0.999920320  0.249835089  0.708064612
     0.750000000  0.375000000  0.287357103
     0.000000000  0.500000000  0.287357103
     0.000000000  0.375000000  0.393678552
     0.750000000  0.500000000  0.393678552
     0.750000000  0.375000000  0.500000000
     0.000000000  0.500000000  0.500000000
     0.999988993  0.374987317  0.604155898
     0.750061695  0.499998786  0.610117495
     0.750189507  0.374846722  0.719514453
     0.000005549  0.499999895  0.708041253
     0.250000000  0.625000000  0.287357103
     0.500000000  0.750000000  0.287357103
     0.500000000  0.625000000  0.393678552
     0.250000000  0.750000000  0.393678552
     0.250000000  0.625000000  0.500000000
     0.500000000  0.750000000  0.500000000
     0.500004481  0.624480321  0.604611823
     0.249985548  0.750021040  0.610101709
     0.249821220  0.625152642  0.719515435
     0.500065581  0.750115182  0.707759182
     0.250000000  0.875000000  0.287357103
     0.500000000  0.000000000  0.287357103
     0.500000000  0.875000000  0.393678552
     0.250000000  0.000000000  0.393678552
     0.250000000  0.875000000  0.500000000
[...]
     0.500000000  0.500000000  0.435333986
     0.347946921  0.375000000  0.393678552
     0.652053079  0.375000000  0.393678552
     0.250000000  0.500000000  0.458344566
     0.250000000  0.500000000  0.541655434
     0.597946921  0.375000000  0.500000000
     0.402053079  0.375000000  0.500000000
     0.500000684  0.499999909  0.565355037
     0.500000692  0.499999890  0.649284550
     0.349936601  0.375004031  0.606992392
     0.650059643  0.375022602  0.606978510
     0.249131410  0.500035274  0.671236232
     0.251322370  0.499935915  0.754822091
     0.594174206  0.374036212  0.717655259
[...]
   3.24525579  8.87269812 18.62324674
   3.24312252  7.39551343 21.96308136
   6.49173816  8.87381181 21.60422382
   3.24544340 10.35119076  8.77152475
   6.49088680  0.00000000  8.77152475
   6.49088680 10.35119076 12.01696815
   3.24544340  0.00000000 12.01696815
   3.24544340 10.35119076 15.26241155
[...]
   6.49088680  5.91496615 13.28849290
   4.51696815  4.43622461 12.01696815
   8.46480545  4.43622461 12.01696815
   3.24544340  5.91496615 13.99088680
   3.24544340  5.91496615 16.53393630
   7.76241155  4.43622461 15.26241155
   5.21936205  4.43622461 15.26241155
   6.49089569  5.91496507 17.25736250
   6.49089579  5.91496485 19.81929602
   4.54279773  4.43627230 18.52833540
   8.43892712  4.43649200 18.52791165
   3.23416757  5.91538344 20.48936726
   3.26261011  5.91420803 23.04081081
   7.71343503  4.42482307 21.90629983
   5.26674344  4.42440406 21.90169922

--------------------------------------- Iteration      FINAL  ---------------------------------------

--------------------OUTCAR has been truncated-------------------------

[...]

--------------------OUTCAR has been truncated-------------------------

  FORCE on cell =-STRESS in cart. coord.  units (eV):
  Direction    XX          YY          ZZ          XY          YZ          ZX
  Alpha Z  4699.23812  4699.23812  4699.23812
  Ewald  980447.07765998093.01123************    -0.43582    -0.00087     0.04768
  Hartree************************************    -0.30912     0.00038     0.00738
  E(xc)   -9157.43474 -9166.93616 -9155.25484    -0.00237     0.00000    -0.00017
  Local  ************************************     0.77003    -0.00007    -0.04988
  n-local -5185.69962 -5090.72191 -5230.72869    -0.00198     0.00008     0.00035
  augment  5516.60404  5483.77543  5520.56473    -0.00182     0.00003    -0.00008
  Kinetic 28775.58073 28287.30429 28821.73662    -0.00905    -0.00007    -0.00541
  Fock        0.00000     0.00000     0.00000     0.00000     0.00000     0.00000
  Total       5.06340   -45.01443   -36.01756     0.00986    -0.00051    -0.00013
  in kB       1.73055   -15.38484   -12.30993     0.00337    -0.00017    -0.00004

 VOLUME and BASIS-vectors are now :
  energy-cutoff  :      600.00
  volume of cell :     4687.80
      direct lattice vectors                 reciprocal lattice vectors
    12.981773603  0.000000000  0.000000000     0.077031077  0.000000000  0.000000000
     0.000000000 11.829932295  0.000000000     0.000000000  0.084531338  0.000000000
     0.000000000  0.000000000 30.524823105     0.000000000  0.000000000  0.032760223

  length of vectors
    12.981773603 11.829932295 30.524823105     0.077031077  0.084531338  0.032760223

 FORCES acting on ions:
    Electron-Ion                     Ewald-Force                    Non-Local-Force
   0.472E-02 -.220E-02 -.156E+04   -.144E-02 0.300E-02 0.156E+04   0.237E-02 0.628E-03 -.950E+00
   0.163E+01 -.439E+02 -.383E+03   -.182E+01 0.486E+02 0.386E+03   0.197E+00 -.473E+01 -.335E+01
   -.163E+01 0.439E+02 -.383E+03   0.183E+01 -.486E+02 0.386E+03   -.198E+00 0.473E+01 -.335E+01
   -.359E+02 -.177E+01 -.397E+03   0.409E+02 0.196E+01 0.394E+03   -.498E+01 -.192E+00 0.280E+01
   0.359E+02 0.177E+01 -.397E+03   -.409E+02 -.196E+01 0.394E+03   0.498E+01 0.192E+00 0.280E+01
   -.108E+00 -.297E-01 0.381E+04   0.108E+00 0.298E-01 -.381E+04   -.498E-04 -.332E-04 0.443E+00
   -.469E-03 -.422E-01 0.399E+04   0.190E-03 0.422E-01 -.398E+04   0.254E-03 -.152E-04 -.402E+01
   -.119E-02 -.425E-01 0.194E+04   0.127E-02 0.425E-01 -.194E+04   -.823E-04 0.182E-04 -.628E-01
   -.158E+00 -.280E-01 0.193E+04   0.156E+00 0.285E-01 -.194E+04   0.588E-03 -.407E-04 0.217E+00
   -.462E+00 -.142E+00 -.322E+00   0.453E+00 0.138E+00 0.111E+01   0.143E-02 0.197E-03 -.127E+00
   -.147E-01 -.368E+00 0.103E+02   0.149E-01 0.370E+00 -.114E+02   0.900E-04 -.846E-03 0.315E+00
   -.345E-01 -.139E+01 -.188E+04   0.346E-01 0.139E+01 0.188E+04   -.174E-03 -.121E-02 0.134E+00
   -.438E+01 -.351E+01 -.194E+04   0.438E+01 0.352E+01 0.194E+04   -.258E-02 -.270E-02 -.164E+00
   -.361E+02 -.140E+02 -.376E+04   0.361E+02 0.140E+02 0.376E+04   0.993E-02 0.675E-02 -.278E+00
   -.107E-01 -.451E+01 -.380E+04   0.810E-02 0.450E+01 0.380E+04   0.198E-02 -.142E-02 0.118E+01
   -.109E+00 -.298E-01 0.381E+04   0.108E+00 0.300E-01 -.381E+04   0.451E-05 -.106E-04 0.443E+00
   -.310E-03 0.477E-05 0.399E+04   0.580E-04 -.281E-05 -.398E+04   0.260E-03 0.571E-05 -.402E+01
   -.123E-02 -.427E-01 0.194E+04   0.131E-02 0.428E-01 -.194E+04   -.766E-04 0.136E-04 -.628E-01
   -.194E+00 -.153E-02 0.193E+04   0.192E+00 0.157E-02 -.194E+04   0.685E-03 0.575E-05 0.217E+00
   -.876E+00 -.199E+00 -.801E+00   0.871E+00 0.207E+00 0.160E+01   0.867E-03 -.389E-03 -.127E+00
   -.459E-03 0.714E-04 0.989E+01   0.254E-03 -.786E-04 -.109E+02   0.226E-03 0.804E-06 0.314E+00
   -.757E-01 -.122E+01 -.188E+04   0.759E-01 0.123E+01 0.188E+04   -.114E-03 -.274E-02 0.133E+00
   -.317E+01 0.174E-01 -.195E+04   0.317E+01 -.173E-01 0.195E+04   0.206E-04 -.272E-03 -.159E+00
   -.131E+02 -.102E+02 -.378E+04   0.131E+02 0.102E+02 0.378E+04   0.233E-01 0.519E-03 -.296E+00
   -.533E-02 -.267E-04 -.381E+04   0.509E-02 0.726E-05 0.381E+04   0.286E-03 -.490E-05 0.119E+01
   -.109E+00 0.297E-01 0.381E+04   0.108E+00 -.298E-01 -.381E+04   0.927E-05 0.102E-04 0.443E+00
   -.171E-03 0.421E-01 0.399E+04   -.694E-04 -.422E-01 -.398E+04   0.260E-03 0.159E-04 -.402E+01
   0.894E-03 0.427E-01 0.194E+04   -.886E-03 -.428E-01 -.194E+04   -.634E-04 -.873E-05 -.628E-01
   -.158E+00 0.281E-01 0.193E+04   0.157E+00 -.286E-01 -.194E+04   0.583E-03 0.437E-04 0.217E+00
   -.888E+00 0.177E+00 -.831E+00   0.883E+00 -.181E+00 0.163E+01   0.101E-02 0.226E-03 -.128E+00
   0.134E-01 0.368E+00 0.103E+02   -.140E-01 -.370E+00 -.114E+02   0.355E-03 0.851E-03 0.315E+00
   0.629E-01 0.122E+01 -.188E+04   -.632E-01 -.123E+01 0.188E+04   0.247E-03 0.273E-02 0.133E+00
   -.452E+01 0.351E+01 -.194E+04   0.452E+01 -.351E+01 0.194E+04   -.211E-02 0.161E-02 -.164E+00
   -.129E+02 0.102E+02 -.378E+04   0.129E+02 -.102E+02 0.378E+04   0.222E-01 -.109E-03 -.297E+00
   -.393E-03 0.451E+01 -.380E+04   0.241E-02 -.450E+01 0.380E+04   -.137E-02 0.140E-02 0.118E+01
   -.108E+00 0.298E-01 0.381E+04   0.108E+00 -.300E-01 -.381E+04   -.547E-04 0.175E-04 0.443E+00
   -.323E-03 -.563E-05 0.399E+04   0.630E-04 0.281E-05 -.398E+04   0.260E-03 -.584E-05 -.402E+01
   0.800E-03 0.424E-01 0.194E+04   -.788E-03 -.425E-01 -.194E+04   -.637E-04 -.250E-04 -.628E-01
   -.122E+00 0.140E-02 0.193E+04   0.121E+00 -.144E-02 -.194E+04   0.412E-03 -.720E-05 0.217E+00
   -.472E+00 0.164E+00 -.343E+00   0.463E+00 -.164E+00 0.114E+01   0.156E-02 -.187E-04 -.127E+00
   -.781E-03 -.126E-03 0.107E+02   0.583E-03 0.127E-03 -.118E+02   0.225E-03 -.497E-05 0.314E+00
   0.199E-01 0.139E+01 -.188E+04   -.201E-01 -.139E+01 0.188E+04   0.297E-03 0.122E-02 0.134E+00
   -.547E+01 0.128E-01 -.194E+04   0.548E+01 -.140E-01 0.194E+04   -.586E-02 0.114E-02 -.169E+00
   -.358E+02 0.142E+02 -.376E+04   0.358E+02 -.142E+02 0.376E+04   0.772E-02 -.601E-02 -.279E+00
   -.529E-02 -.518E-04 -.380E+04   0.493E-02 0.776E-04 0.380E+04   0.358E-03 -.545E-06 0.116E+01
   0.109E+00 -.298E-01 0.381E+04   -.108E+00 0.300E-01 -.381E+04   -.276E-03 -.454E-04 0.443E+00
   -.823E-04 -.416E-01 0.399E+04   -.184E-03 0.419E-01 -.398E+04   0.269E-03 -.503E-04 -.402E+01
   0.111E-02 0.212E-01 0.194E+04   -.111E-02 -.153E-01 -.194E+04   -.655E-04 -.114E-02 -.631E-01
   0.158E+00 -.281E-01 0.193E+04   -.157E+00 0.286E-01 -.194E+04   -.112E-03 -.388E-04 0.217E+00
   0.473E+00 -.164E+00 -.346E+00   -.463E+00 0.163E+00 0.114E+01   -.188E-02 0.209E-04 -.127E+00
   0.166E-01 0.946E-01 0.117E+02   -.171E-01 -.125E+00 -.127E+02   0.215E-03 0.166E-01 0.298E+00
   -.831E-02 -.259E+01 -.188E+04   0.840E-02 0.263E+01 0.188E+04   -.228E-04 -.348E-01 0.141E+00
   0.452E+01 -.351E+01 -.194E+04   -.452E+01 0.351E+01 0.194E+04   0.250E-02 -.159E-02 -.164E+00
   0.358E+02 -.142E+02 -.376E+04   -.358E+02 0.142E+02 0.376E+04   -.765E-02 0.601E-02 -.279E+00
   0.230E+00 -.368E+02 -.377E+04   -.229E+00 0.368E+02 0.377E+04   -.189E-02 -.123E-01 0.124E+01
   0.109E+00 -.297E-01 0.381E+04   -.108E+00 0.298E-01 -.381E+04   -.327E-03 0.135E-04 0.443E+00
   -.196E-03 -.305E-05 0.399E+04   -.581E-04 -.188E-05 -.398E+04   0.262E-03 0.778E-05 -.402E+01
   0.115E-02 0.174E-01 0.194E+04   -.114E-02 -.145E-01 -.194E+04   -.699E-04 -.768E-03 -.633E-01
   0.194E+00 0.155E-02 0.193E+04   -.192E+00 -.160E-02 -.194E+04   -.210E-03 -.434E-05 0.216E+00
   0.888E+00 -.176E+00 -.833E+00   -.883E+00 0.181E+00 0.163E+01   -.133E-02 -.226E-03 -.128E+00
[...]
   -.531E+02 -.390E-03 0.116E+04   0.571E+02 -.243E-03 -.116E+04   -.361E+01 0.926E-03 0.180E+00
   0.531E+02 0.597E-03 0.116E+04   -.571E+02 -.127E-02 -.116E+04   0.361E+01 0.102E-02 0.180E+00
   0.142E+00 -.295E-02 0.508E+03   -.138E+00 0.333E-02 -.512E+03   -.524E-02 -.819E-03 0.431E+01
   0.472E+00 -.106E-01 -.522E+03   -.464E+00 0.111E-01 0.530E+03   -.690E-02 -.872E-03 -.715E+01
   -.549E+02 -.169E+00 0.581E+01   0.598E+02 0.167E+00 -.604E+01   -.530E+01 0.149E-01 0.318E+00
   0.549E+02 -.177E+00 0.581E+01   -.598E+02 0.175E+00 -.604E+01   0.530E+01 0.146E-01 0.319E+00
   -.175E-02 0.135E-03 -.630E+03   0.203E-02 -.166E-03 0.623E+03   -.272E-03 0.341E-04 0.661E+01
   0.740E-02 0.357E-04 -.161E+04   -.806E-02 -.277E-04 0.160E+04   0.667E-03 -.205E-05 0.187E+01
   -.262E+02 0.176E+01 -.114E+04   0.292E+02 -.181E+01 0.114E+04   -.304E+01 0.450E-01 0.846E+00
   0.262E+02 0.174E+01 -.114E+04   -.293E+02 -.178E+01 0.114E+04   0.304E+01 0.414E-01 0.860E+00
   0.124E+02 -.149E+00 -.181E+04   -.125E+02 0.157E+00 0.181E+04   0.114E+00 -.843E-02 -.226E+01
   0.400E+02 0.698E-01 -.272E+04   -.399E+02 -.795E-01 0.274E+04   -.607E-01 0.996E-02 -.213E+02
   -.422E+02 0.237E+02 -.231E+04   0.485E+02 -.237E+02 0.232E+04   -.632E+01 -.343E-02 -.344E+01
   0.424E+02 0.234E+02 -.231E+04   -.487E+02 -.233E+02 0.231E+04   0.634E+01 -.398E-01 -.333E+01
   -.193E-01 -.145E-02 0.976E+02   0.309E-11 -.799E-12 -.118E-10   0.202E-01 0.131E-02 -.975E+02

 POSITION                                       TOTAL-FORCE (eV/Angst)
      6.49127      5.91498     24.65605         0.005625      0.001418     -0.002996
      6.45462      6.80742     25.28029         0.001401      0.002074     -0.007907
      6.52811      5.02263     25.28033        -0.001921     -0.003297     -0.007063
      7.41213      5.95132     24.06590        -0.003378     -0.001860     -0.002895
      5.57055      5.87860     24.06603        -0.002005      0.001662     -0.005812
      9.73633      7.39371      8.77152        -0.000340      0.000081     -3.752528
      0.00000      8.87245      8.77152        -0.000033      0.000070      2.942352
      0.00000      7.39371     12.01697        -0.000006      0.000025      0.543823
      9.73633      8.87245     12.01697        -0.001206      0.000481     -0.753592
      9.73633      7.39371     15.26241        -0.007657     -0.002999      0.657846
      0.00000      8.87245     15.26241         0.000283      0.000972     -0.736689
      0.00013      7.39386     18.44175        -0.000110      0.000849     -0.002084
      9.73702      8.87273     18.62271         0.000180     -0.000965     -0.002212
      9.74057      7.39626     21.96164        -0.001488     -0.002559     -0.003014
      0.00113      8.87440     21.61355        -0.000573     -0.005261     -0.001746
      9.73633     10.35119      8.77152        -0.000444      0.000134     -3.752548
      0.00000      0.00000      8.77152         0.000000      0.000008      2.942349
      0.00000     10.35119     12.01697         0.000006      0.000111      0.543917
      9.73633      0.00000     12.01697        -0.001551      0.000042     -0.753432
      9.73633     10.35119     15.26241        -0.004013      0.006694      0.660105
      0.00000      0.00000     15.26241         0.000013     -0.000006     -0.736287
      0.00001     10.35137     18.44213         0.000031      0.000813      0.001340
      9.73636      0.00010     18.62426        -0.003939     -0.000104     -0.002170
      9.73437     10.35207     21.96762         0.002982     -0.002012     -0.003139
      0.00002     11.82993     21.61351         0.000033     -0.000024     -0.004204
      9.73633      1.47874      8.77152        -0.000431     -0.000109     -3.752523
      0.00000      2.95748      8.77152         0.000013     -0.000077      2.942357
      0.00000      1.47874     12.01697        -0.000058     -0.000097      0.543911
      9.73633      2.95748     12.01697        -0.001208     -0.000486     -0.753306
      9.73633      1.47874     15.26241        -0.004037     -0.004442      0.661603
      0.00000      2.95748     15.26241        -0.000257     -0.000961     -0.736696
     12.98175      1.47856     18.44213        -0.000032     -0.000816      0.001335
      9.73652      2.95723     18.62323         0.000346      0.001011     -0.002430
      9.73301      1.47832     21.96795         0.003568      0.001817     -0.003300
     12.98074      2.95553     21.61355         0.000578      0.005197     -0.001739
      9.73633      4.43622      8.77152        -0.000342     -0.000131     -3.752544
      0.00000      5.91497      8.77152        -0.000008     -0.000008      2.942402
      0.00000      4.43622     12.01697        -0.000056     -0.000032      0.543836
      9.73633      5.91497     12.01697        -0.000878     -0.000043     -0.753364
      9.73633      4.43622     15.26241        -0.007663      0.000750      0.659470
      0.00000      5.91497     15.26241         0.000020     -0.000003     -0.736617
     12.98163      4.43607     18.44175         0.000097     -0.000846     -0.002083
      9.73713      5.91495     18.62373         0.001995     -0.000027      0.000568
      9.73879      4.43441     21.96305        -0.000600      0.002143     -0.003565
      0.00007      5.91496     21.61283        -0.000010      0.000026      0.003049
      3.24544      7.39371      8.77152         0.000262      0.000125     -3.752530
      6.49089      8.87245      8.77152        -0.000005      0.000279      2.943777
      6.49089      7.39371     12.01697        -0.000060      0.004680      0.546102
      3.24544      8.87245     12.01697         0.001158      0.000489     -0.753259
      3.24544      7.39371     15.26241         0.007576     -0.000762      0.659554
      6.49089      8.87245     15.26241        -0.000326     -0.013968     -0.701935
      6.49094      7.38756     18.45567         0.000032     -0.004166     -0.000032
      3.24526      8.87270     18.62325        -0.000357     -0.000997     -0.002491
      3.24312      7.39551     21.96308         0.000571     -0.002168     -0.003578
      6.49174      8.87381     21.60422        -0.000350      0.002966      0.000006
      3.24544     10.35119      8.77152         0.000386      0.000113     -3.752548
      6.49089      0.00000      8.77152         0.000000      0.000003      2.943816
      6.49089     10.35119     12.01697        -0.000058      0.002128      0.549080
      3.24544      0.00000     12.01697         0.001511     -0.000055     -0.753414
      3.24544     10.35119     15.26241         0.003928      0.004391      0.661658
[...]
      6.49089      5.91497     13.28849        -0.000002      0.000004     -0.124927
      4.51697      4.43622     12.01697         0.448158      0.000294      0.056977
      8.46481      4.43622     12.01697        -0.448131      0.000348      0.056969
      3.24544      5.91497     13.99089        -0.001522     -0.000441     -0.081138
      3.24544      5.91497     16.53394         0.000986     -0.000373      0.038331
      7.76241      4.43622     15.26241        -0.458724      0.011966      0.085741
      5.21936      4.43622     15.26241         0.458275      0.011938      0.085783
      6.49090      5.91497     17.25736         0.000004      0.000003     -0.002972
      6.49090      5.91496     19.81930         0.000004      0.000007     -0.006010
      4.54280      4.43627     18.52834        -0.000896      0.001965     -0.000342
      8.43893      4.43649     18.52791         0.000911      0.001857     -0.000123
      3.23417      5.91538     20.48937         0.000024     -0.000214     -0.001528
      3.26261      5.91421     23.04081        -0.002652      0.000295     -0.000701
      7.71344      4.42482     21.90630        -0.003001      0.002414      0.002534
      5.26674      4.42440     21.90170         0.003534      0.002819      0.004326
    total drift:                                0.000951     -0.000138      0.088779

  FREE ENERGIE OF THE ION-ELECTRON SYSTEM (eV)
  free  energy   TOTEN  =     -2735.41345757 eV

  energy  without entropy=    -2735.41345757  energy(sigma->0) =    -2735.41345757