 vasp.6.3.0 20Jan22 (build Apr  1 2022 16:44:48) complex
 executed on        HPECrayEX_GCC date 2023.02.26  11:40:05

 INCAR:
   SYSTEM = MgO-rocksalt
   ISMEAR = 0
   SIGMA = 0.05
   EDIFF = 1E-7
   ALGO = ALL
   ISTART = 0
   IBRION = 2
   NSW = 1000
   ISYM = 0
   ISIF = 2
   EDIFFG = -0.01
   DIPOL = 0.5 0.5 0.5
   IDIPOL = 3
   LDIPOL = .TRUE.
   GGA = PE
   IVDW = 1
   VDW_C6 = 1.23 0.70 0.63 0.70
   VDW_R0 = 1.397 1.342 1.243 1.342
   ENCUT = 600
   PREC = Accurate
   LASPH = .TRUE.
   LREAL = .FALSE.
   ISPIN = 1
   NELM = 200
   NELMIN = 8
   NCORE = 8
   KPAR = 1
   LWAVE = .FALSE.
   LCHARG = .FALSE.

 POTCAR:    PAW_PBE N 08Apr2002
 POTCAR:    PAW_PBE O 08Apr2002
 POTCAR:    PAW_PBE Mg_pv 13Apr2007
 POTCAR:    PAW_PBE O 08Apr2002
 POTCAR:    PAW_PBE N 08Apr2002
   VRHFIN =N: s2p3

   TITEL  = PAW_PBE N 08Apr2002
   POMASS =   14.001; ZVAL   =    5.000    mass and valenz
   ENMAX  =  400.000; ENMIN  =  300.000 eV

[...]

   TITEL  = PAW_PBE Mg_pv 13Apr2007
   POMASS =   24.305; ZVAL   =    8.000    mass and valenz
   ENMAX  =  403.929; ENMIN  =  302.947 eV

   TITEL  = PAW_PBE O 08Apr2002
   POMASS =   16.000; ZVAL   =    6.000    mass and valenz
   ENMAX  =  400.000; ENMIN  =  300.000 eV

  PAW_PBE N 08Apr2002                   :
  PAW_PBE O 08Apr2002                   :
  PAW_PBE Mg_pv 13Apr2007               :
  PAW_PBE O 08Apr2002                   :

 POSCAR:  N  O Mg  O
  positions in direct lattice
 exchange correlation table for  LEXCH =        8
   RHO(1)=    0.500       N(1)  =     2000
   RHO(2)=  100.500       N(2)  =     4000

 ion  position               nearest neighbor table
   1  0.524  0.547  0.790-   2 1.14
   2  0.623  0.638  0.783-   1 1.14   3 1.20
   3  0.727  0.732  0.774-   2 1.20
   4  0.250  0.000  0.351-  36 2.12  38 2.12  39 2.12  46 2.12  55 2.12
   5  0.500  0.250  0.351-  37 2.12  38 2.12  39 2.12  47 2.12  54 2.12
   6  0.250  0.250  0.450-  38 2.12  37 2.12  36 2.12  44 2.12  53 2.12  42 2.12
   7  0.500  0.000  0.450-  39 2.12  37 2.12  36 2.12  45 2.12  52 2.12  43 2.12
   8  0.250  0.000  0.550-  42 2.12  43 2.12  50 2.12  59 2.12  36 2.13  40 2.15
   9  0.500  0.250  0.550-  42 2.12  43 2.12  51 2.12  58 2.12  37 2.13  41 2.15
  10  0.250  0.250  0.649-  42 2.11  41 2.12  40 2.12  48 2.12  57 2.12
  11  0.500  0.000  0.649-  43 2.11  41 2.12  40 2.12  49 2.12  56 2.12
  12  0.250  0.500  0.351-  44 2.12  38 2.12  46 2.12  47 2.12  63 2.12
  13  0.500  0.750  0.351-  45 2.12  39 2.12  46 2.12  47 2.12  62 2.12
  14  0.250  0.750  0.450-  46 2.12  44 2.12  45 2.12  36 2.12  61 2.12  50 2.12
  15  0.500  0.500  0.450-  47 2.12  44 2.12  45 2.12  37 2.12  60 2.12  51 2.12
  16  0.250  0.500  0.550-  42 2.12  50 2.12  51 2.12  67 2.12  44 2.13  48 2.15
  17  0.500  0.750  0.550-  43 2.12  50 2.12  51 2.12  66 2.12  45 2.13  49 2.15
  18  0.250  0.750  0.649-  50 2.11  48 2.12  49 2.12  40 2.12  65 2.12
  19  0.500  0.500  0.649-  51 2.11  48 2.12  49 2.12  41 2.12  64 2.12
  20  0.750  0.000  0.351-  52 2.12  39 2.12  54 2.12  55 2.12  62 2.12
  21  0.000  0.250  0.351-  53 2.12  38 2.12  54 2.12  55 2.12  63 2.12
  22  0.750  0.250  0.450-  54 2.12  52 2.12  53 2.12  37 2.12  60 2.12  58 2.12
  23  0.000  0.000  0.450-  55 2.12  52 2.12  53 2.12  36 2.12  61 2.12  59 2.12
  24  0.750  0.000  0.550-  43 2.12  58 2.12  59 2.12  66 2.12  52 2.13  56 2.15
  25  0.000  0.250  0.550-  42 2.12  58 2.12  59 2.12  67 2.12  53 2.13  57 2.15
  26  0.750  0.250  0.649-  58 2.11  56 2.12  57 2.12  41 2.12  64 2.12
  27  0.000  0.000  0.649-  59 2.11  56 2.12  57 2.12  40 2.12  65 2.12
  28  0.750  0.500  0.351-  60 2.12  54 2.12  47 2.12  62 2.12  63 2.12
  29  0.000  0.750  0.351-  61 2.12  55 2.12  46 2.12  62 2.12  63 2.12
  30  0.750  0.750  0.450-  62 2.12  52 2.12  60 2.12  61 2.12  45 2.12  66 2.12
  31  0.000  0.500  0.450-  63 2.12  53 2.12  60 2.12  61 2.12  44 2.12  67 2.12
  32  0.750  0.500  0.550-  51 2.12  58 2.12  66 2.12  67 2.12  60 2.13  64 2.15
  33  0.000  0.750  0.550-  50 2.12  59 2.12  66 2.12  67 2.12  61 2.13  65 2.15
  34  0.750  0.750  0.649-  66 2.11  56 2.12  64 2.12  65 2.12  49 2.12
  35  0.000  0.500  0.649-  67 2.11  57 2.12  64 2.12  65 2.12  48 2.12
  36  0.250  0.000  0.450-   4 2.12   6 2.12   7 2.12  14 2.12  23 2.12   8 2.13
  37  0.500  0.250  0.450-   5 2.12   6 2.12   7 2.12  15 2.12  22 2.12   9 2.13
  38  0.250  0.250  0.351-   6 2.12   5 2.12   4 2.12  12 2.12  21 2.12
  39  0.500  0.000  0.351-   7 2.12   5 2.12   4 2.12  13 2.12  20 2.12
  40  0.250  0.000  0.651-  10 2.12  11 2.12  18 2.12  27 2.12   8 2.15
  41  0.500  0.250  0.651-  10 2.12  11 2.12  19 2.12  26 2.12   9 2.15
  42  0.250  0.250  0.550-  10 2.11   9 2.12   8 2.12  16 2.12  25 2.12   6 2.12
  43  0.500  0.000  0.550-  11 2.11   9 2.12   8 2.12  17 2.12  24 2.12   7 2.12
  44  0.250  0.500  0.450-  12 2.12   6 2.12  14 2.12  15 2.12  31 2.12  16 2.13
  45  0.500  0.750  0.450-  13 2.12   7 2.12  14 2.12  15 2.12  30 2.12  17 2.13
  46  0.250  0.750  0.351-  14 2.12  12 2.12  13 2.12   4 2.12  29 2.12
  47  0.500  0.500  0.351-  15 2.12  12 2.12  13 2.12   5 2.12  28 2.12
  48  0.250  0.500  0.651-  10 2.12  18 2.12  19 2.12  35 2.12  16 2.15
  49  0.500  0.750  0.651-  11 2.12  18 2.12  19 2.12  34 2.12  17 2.15
  50  0.250  0.750  0.550-  18 2.11  16 2.12  17 2.12   8 2.12  33 2.12  14 2.12
  51  0.500  0.500  0.550-  19 2.11  16 2.12  17 2.12   9 2.12  32 2.12  15 2.12
  52  0.750  0.000  0.450-  20 2.12   7 2.12  22 2.12  23 2.12  30 2.12  24 2.13
  53  0.000  0.250  0.450-  21 2.12   6 2.12  22 2.12  23 2.12  31 2.12  25 2.13
  54  0.750  0.250  0.351-  22 2.12  20 2.12  21 2.12   5 2.12  28 2.12
  55  0.000  0.000  0.351-  23 2.12  20 2.12  21 2.12   4 2.12  29 2.12
  56  0.750  0.000  0.651-  11 2.12  26 2.12  27 2.12  34 2.12  24 2.15
  57  0.000  0.250  0.651-  10 2.12  26 2.12  27 2.12  35 2.12  25 2.15
  58  0.750  0.250  0.550-  26 2.11  24 2.12  25 2.12   9 2.12  32 2.12  22 2.12
  59  0.000  0.000  0.550-  27 2.11  24 2.12  25 2.12   8 2.12  33 2.12  23 2.12
  60  0.750  0.500  0.450-  28 2.12  22 2.12  15 2.12  30 2.12  31 2.12  32 2.13
  61  0.000  0.750  0.450-  29 2.12  23 2.12  14 2.12  30 2.12  31 2.12  33 2.13
  62  0.750  0.750  0.351-  30 2.12  20 2.12  28 2.12  29 2.12  13 2.12
  63  0.000  0.500  0.351-  31 2.12  21 2.12  28 2.12  29 2.12  12 2.12
  64  0.750  0.500  0.651-  19 2.12  26 2.12  34 2.12  35 2.12  32 2.15
  65  0.000  0.750  0.651-  18 2.12  27 2.12  34 2.12  35 2.12  33 2.15
  66  0.750  0.750  0.550-  34 2.11  24 2.12  32 2.12  33 2.12  17 2.12  30 2.12
  67  0.000  0.500  0.550-  35 2.11  25 2.12  32 2.12  33 2.12  16 2.12  31 2.12

IMPORTANT INFORMATION: All symmetrisations will be switched off!
NOSYMM: (Re-)initialisation of all symmetry stuff for point group C_1.

                                     Primitive cell

  volume of cell :    1530.6606

  direct lattice vectors                    reciprocal lattice vectors
     8.467142631  0.000000000  0.000000000     0.118103597  0.000000000  0.000000000
     0.000000000  8.467142631  0.000000000     0.000000000  0.118103597  0.000000000
     0.000000000  0.000000000 21.350356973     0.000000000  0.000000000  0.046837624

  length of vectors
     8.467142631  8.467142631 21.350356973     0.118103597  0.118103597  0.046837624

  position of ions in fractional coordinates (direct lattice)
     0.524466722  0.547266631  0.790459999
     0.623187089  0.637541327  0.782848924
     0.726712326  0.732252689  0.774014951
     0.250000000  0.000000000  0.351282183
     0.500000000  0.250000000  0.351282183
     0.250000000  0.250000000  0.450427394
     0.500000000  0.000000000  0.450427394
     0.250000000  0.000000000  0.550191116
     0.500000000  0.250000000  0.550191116
     0.250000000  0.250000000  0.648532086
     0.500000000  0.000000000  0.648532086
     0.250000000  0.500000000  0.351282183
     0.500000000  0.750000000  0.351282183
     0.250000000  0.750000000  0.450427394
     0.500000000  0.500000000  0.450427394
     0.250000000  0.500000000  0.550191116
     0.500000000  0.750000000  0.550191116
     0.250000000  0.750000000  0.648532086
     0.500000000  0.500000000  0.648532086
     0.750000000  0.000000000  0.351282183
     0.000000000  0.250000000  0.351282183
     0.750000000  0.250000000  0.450427394
     0.000000000  0.000000000  0.450427394
     0.750000000  0.000000000  0.550191116
     0.000000000  0.250000000  0.550191116
     0.750000000  0.250000000  0.648532086
     0.000000000  0.000000000  0.648532086
     0.750000000  0.500000000  0.351282183
     0.000000000  0.750000000  0.351282183
     0.750000000  0.750000000  0.450427394
     0.000000000  0.500000000  0.450427394
     0.750000000  0.500000000  0.550191116
     0.000000000  0.750000000  0.550191116
     0.750000000  0.750000000  0.648532086
     0.000000000  0.500000000  0.648532086
     0.250000000  0.000000000  0.450427394
     0.500000000  0.250000000  0.450427394
     0.250000000  0.250000000  0.351282183
     0.500000000  0.000000000  0.351282183
     0.250000000  0.000000000  0.650785562
     0.500000000  0.250000000  0.650785562
     0.250000000  0.250000000  0.549814593
     0.500000000  0.000000000  0.549814593
     0.250000000  0.500000000  0.450427394
     0.500000000  0.750000000  0.450427394
     0.250000000  0.750000000  0.351282183
     0.500000000  0.500000000  0.351282183
     0.250000000  0.500000000  0.650785562
     0.500000000  0.750000000  0.650785562
     0.250000000  0.750000000  0.549814593
     0.500000000  0.500000000  0.549814593
     0.750000000  0.000000000  0.450427394
     0.000000000  0.250000000  0.450427394
     0.750000000  0.250000000  0.351282183
     0.000000000  0.000000000  0.351282183
     0.750000000  0.000000000  0.650785562
     0.000000000  0.250000000  0.650785562
     0.750000000  0.250000000  0.549814593
     0.000000000  0.000000000  0.549814593
     0.750000000  0.500000000  0.450427394
     0.000000000  0.750000000  0.450427394
     0.750000000  0.750000000  0.351282183
     0.000000000  0.500000000  0.351282183
     0.750000000  0.500000000  0.650785562
     0.000000000  0.750000000  0.650785562
     0.750000000  0.750000000  0.549814593
     0.000000000  0.500000000  0.549814593

  ion indices of the primitive-cell ions
   primitive index   ion index
                 1           1
                 2           2
                 3           3
                 4           4
                 5           5
                 6           6
                 7           7
                 8           8
                 9           9
                10          10
                11          11
                12          12
                13          13
                14          14
                15          15
                16          16
                17          17
                18          18
                19          19
                20          20
                21          21
                22          22
                23          23
                24          24
                25          25
                26          26
                27          27
                28          28
[...]
   4.23357132  4.23357132 13.84639155
   6.35035697  0.00000000  7.50000000
   0.00000000  2.11678566  7.50000000
   6.35035697  2.11678566  9.61678566
   0.00000000  0.00000000  9.61678566
   6.35035697  0.00000000 11.74677673
   0.00000000  2.11678566 11.74677673
   6.35035697  2.11678566 13.84639155
   0.00000000  0.00000000 13.84639155
   6.35035697  4.23357132  7.50000000
   0.00000000  6.35035697  7.50000000
   6.35035697  6.35035697  9.61678566
   0.00000000  4.23357132  9.61678566
   6.35035697  4.23357132 11.74677673
   0.00000000  6.35035697 11.74677673
   6.35035697  6.35035697 13.84639155
   0.00000000  4.23357132 13.84639155
   2.11678566  0.00000000  9.61678566
   4.23357132  2.11678566  9.61678566
   2.11678566  2.11678566  7.50000000
   4.23357132  0.00000000  7.50000000
   2.11678566  0.00000000 13.89450407
   4.23357132  2.11678566 13.89450407
   2.11678566  2.11678566 11.73873783
   4.23357132  0.00000000 11.73873783
   2.11678566  4.23357132  9.61678566
   4.23357132  6.35035697  9.61678566
   2.11678566  6.35035697  7.50000000
   4.23357132  4.23357132  7.50000000
   2.11678566  4.23357132 13.89450407
   4.23357132  6.35035697 13.89450407
   2.11678566  6.35035697 11.73873783
   4.23357132  4.23357132 11.73873783
   6.35035697  0.00000000  9.61678566
   0.00000000  2.11678566  9.61678566
   6.35035697  2.11678566  7.50000000
   0.00000000  0.00000000  7.50000000
   6.35035697  0.00000000 13.89450407
   0.00000000  2.11678566 13.89450407
   6.35035697  2.11678566 11.73873783
   0.00000000  0.00000000 11.73873783
   6.35035697  4.23357132  9.61678566
   0.00000000  6.35035697  9.61678566
   6.35035697  6.35035697  7.50000000
   0.00000000  4.23357132  7.50000000
   6.35035697  4.23357132 13.89450407
   0.00000000  6.35035697 13.89450407
   6.35035697  6.35035697 11.73873783
   0.00000000  4.23357132 11.73873783

--------------------------------------- Iteration      FINAL  ---------------------------------------

--------------------OUTCAR has been truncated-------------------------

[...]

--------------------OUTCAR has been truncated-------------------------

  Number of pair interactions contributing to vdW energy:  786635
  Edisp (eV):   -3.70263

  FORCE on cell =-STRESS in cart. coord.  units (eV):
  Direction    XX          YY          ZZ          XY          YZ          ZX
  Alpha Z   920.18334   920.18334   920.18334
  Ewald  156312.47223156298.58481************   404.61007   -89.38564   -91.88198
  Hartree166756.06279166749.32169************   180.54087   -40.97735   -41.96546
  E(xc)   -2527.45261 -2527.48922 -2533.48768     1.14855    -0.24345    -0.24696
  Local  ************************332296.89960  -543.16263   121.41433   124.63870
  n-local -2860.58499 -2860.49581 -2877.86263    -2.74507     0.57131     0.55169
  augment  1055.39478  1055.44086  1047.67954    -1.45253     0.33071     0.34110
  Kinetic  7608.94232  7610.16993  7686.98443   -38.76968     8.25682     8.60982
  Fock        0.00000     0.00000     0.00000     0.00000     0.00000     0.00000
  vdW        -5.33319    -5.33379    -4.61840     0.01192    -0.00588    -0.00633
  Total     -29.32145   -29.31730    -2.81387     0.18150    -0.03913     0.04057
  in kB     -30.69143   -30.68708    -2.94535     0.18998    -0.04096     0.04247

 VOLUME and BASIS-vectors are now :
  energy-cutoff  :      600.00
  volume of cell :     1530.66
      direct lattice vectors                 reciprocal lattice vectors
     8.467142631  0.000000000  0.000000000     0.118103597  0.000000000  0.000000000
     0.000000000  8.467142631  0.000000000     0.000000000  0.118103597  0.000000000
     0.000000000  0.000000000 21.350356973     0.000000000  0.000000000  0.046837624

  length of vectors
     8.467142631  8.467142631 21.350356973     0.118103597  0.118103597  0.046837624

 FORCES acting on ions:
    Electron-Ion                     Ewald-Force                    Non-Local-Force
   0.208E+03 0.204E+03 -.124E+04   -.243E+03 -.240E+03 0.124E+04   0.358E+02 0.352E+02 -.739E+01
   0.164E+02 0.161E+02 -.124E+04   -.162E+02 -.159E+02 0.124E+04   -.161E+00 -.167E+00 -.992E-01
   -.213E+03 -.210E+03 -.149E+04   0.258E+03 0.255E+03 0.148E+04   -.453E+02 -.446E+02 0.862E+01
   0.170E+00 -.186E+00 0.208E+04   -.169E+00 0.185E+00 -.207E+04   -.358E-03 0.744E-03 -.703E+01
   0.173E+00 0.177E+00 0.208E+04   -.172E+00 -.177E+00 -.207E+04   -.632E-03 -.104E-03 -.702E+01
   0.788E+00 0.729E+00 0.733E+03   -.802E+00 -.741E+00 -.733E+03   0.996E-02 0.909E-02 0.478E+00
   0.806E+00 -.832E+00 0.734E+03   -.809E+00 0.795E+00 -.735E+03   0.250E-02 0.262E-01 0.502E+00
   0.306E+01 -.403E+01 -.607E+03   -.307E+01 0.403E+01 0.607E+03   0.928E-02 0.611E-02 -.253E+00
   0.382E+01 0.476E+01 -.599E+03   -.381E+01 -.477E+01 0.599E+03   -.627E-02 0.135E-01 -.335E+00
   0.138E+02 0.136E+02 -.196E+04   -.139E+02 -.136E+02 0.195E+04   0.179E-01 0.154E-01 0.608E+01
   0.214E+02 -.279E+02 -.193E+04   -.214E+02 0.280E+02 0.193E+04   0.225E-01 -.145E+00 0.610E+01
   0.193E+00 0.186E+00 0.208E+04   -.193E+00 -.185E+00 -.207E+04   0.342E-04 -.685E-03 -.702E+01
   0.194E+00 -.180E+00 0.208E+04   -.192E+00 0.179E+00 -.207E+04   -.197E-02 0.533E-03 -.704E+01
   0.766E+00 -.728E+00 0.734E+03   -.737E+00 0.739E+00 -.735E+03   -.203E-01 -.829E-02 0.475E+00
   0.788E+00 0.851E+00 0.736E+03   -.761E+00 -.823E+00 -.736E+03   -.197E-01 -.201E-01 0.523E+00
   0.502E+01 0.405E+01 -.598E+03   -.504E+01 -.404E+01 0.599E+03   0.150E-01 -.575E-02 -.346E+00
   0.652E+01 -.494E+01 -.591E+03   -.646E+01 0.495E+01 0.591E+03   -.519E-01 -.539E-02 -.176E+00
   0.214E+02 -.149E+02 -.193E+04   -.216E+02 0.149E+02 0.193E+04   0.123E+00 -.838E-02 0.608E+01
   0.328E+02 0.350E+02 -.186E+04   -.330E+02 -.352E+02 0.186E+04   0.246E+00 0.258E+00 0.603E+01
   -.169E+00 -.205E+00 0.208E+04   0.169E+00 0.203E+00 -.207E+04   0.209E-03 0.147E-02 -.702E+01
   -.174E+00 0.154E+00 0.208E+04   0.172E+00 -.153E+00 -.207E+04   0.841E-03 -.474E-03 -.703E+01
   -.793E+00 0.698E+00 0.734E+03   0.802E+00 -.666E+00 -.735E+03   -.705E-02 -.230E-01 0.478E+00
   -.809E+00 -.853E+00 0.733E+03   0.815E+00 0.860E+00 -.733E+03   -.456E-02 -.529E-02 0.486E+00
   -.306E+01 -.661E+01 -.596E+03   0.307E+01 0.657E+01 0.597E+03   -.112E-01 0.442E-01 -.450E+00
   -.382E+01 0.281E+01 -.607E+03   0.381E+01 -.281E+01 0.607E+03   0.790E-02 0.629E-02 -.257E+00
   -.150E+02 0.195E+02 -.194E+04   0.151E+02 -.197E+02 0.193E+04   -.993E-02 0.133E+00 0.607E+01
   -.200E+02 -.201E+02 -.195E+04   0.200E+02 0.202E+02 0.194E+04   -.192E-01 -.219E-01 0.611E+01
   -.196E+00 0.207E+00 0.208E+04   0.195E+00 -.205E+00 -.207E+04   0.597E-03 -.206E-02 -.704E+01
   -.192E+00 -.153E+00 0.208E+04   0.190E+00 0.153E+00 -.207E+04   0.159E-02 0.174E-03 -.702E+01
   -.780E+00 -.705E+00 0.736E+03   0.760E+00 0.686E+00 -.736E+03   0.149E-01 0.146E-01 0.562E+00
   -.779E+00 0.860E+00 0.734E+03   0.738E+00 -.861E+00 -.734E+03   0.287E-01 0.110E-02 0.508E+00
   -.521E+01 0.675E+01 -.591E+03   0.522E+01 -.670E+01 0.592E+03   -.627E-02 -.524E-01 -.160E+00
   -.638E+01 -.281E+01 -.596E+03   0.634E+01 0.282E+01 0.597E+03   0.450E-01 -.816E-02 -.439E+00
   -.302E+02 -.276E+02 -.184E+04   0.305E+02 0.279E+02 0.183E+04   -.280E+00 -.269E+00 0.569E+01
   -.260E+02 0.214E+02 -.193E+04   0.262E+02 -.214E+02 0.193E+04   -.151E+00 0.226E-01 0.610E+01
   0.501E+00 -.594E+00 0.549E+03   -.504E+00 0.592E+00 -.549E+03   0.322E-02 0.325E-02 -.916E-01
   0.543E+00 0.591E+00 0.550E+03   -.537E+00 -.585E+00 -.550E+03   -.787E-02 -.703E-02 -.641E-01
   0.138E+00 0.127E+00 0.156E+04   -.139E+00 -.128E+00 -.156E+04   0.163E-02 0.178E-02 0.350E+01
   0.139E+00 -.144E+00 0.156E+04   -.139E+00 0.141E+00 -.156E+04   0.149E-03 0.490E-02 0.349E+01
   0.848E+01 -.106E+02 -.149E+04   -.846E+01 0.106E+02 0.150E+04   -.188E-01 0.364E-01 -.512E+01
   0.109E+02 0.201E+02 -.147E+04   -.109E+02 -.201E+02 0.148E+04   -.347E-01 0.561E-01 -.519E+01
   0.280E+01 0.269E+01 -.449E+03   -.280E+01 -.269E+01 0.448E+03   0.702E-03 0.153E-03 0.329E+00
   0.360E+01 -.395E+01 -.443E+03   -.358E+01 0.396E+01 0.442E+03   -.155E-01 -.430E-02 0.406E+00
   0.640E+00 0.590E+00 0.550E+03   -.631E+00 -.585E+00 -.550E+03   -.117E-01 -.555E-02 -.638E-01
   0.708E+00 -.623E+00 0.551E+03   -.726E+00 0.630E+00 -.551E+03   0.242E-01 -.930E-02 -.139E+00
   0.134E+00 -.127E+00 0.156E+04   -.132E+00 0.128E+00 -.156E+04   -.316E-02 -.185E-02 0.349E+01
   0.136E+00 0.146E+00 0.156E+04   -.132E+00 -.142E+00 -.156E+04   -.594E-02 -.563E-02 0.349E+01
   0.209E+02 0.117E+02 -.147E+04   -.210E+02 -.116E+02 0.148E+04   0.586E-01 -.348E-01 -.519E+01
   0.357E+02 -.257E+02 -.142E+04   -.356E+02 0.256E+02 0.143E+04   -.127E+00 0.342E-01 -.487E+01
   0.306E+01 -.270E+01 -.443E+03   -.307E+01 0.269E+01 0.442E+03   0.996E-02 0.770E-02 0.396E+00
   0.386E+01 0.411E+01 -.434E+03   -.388E+01 -.412E+01 0.434E+03   0.123E-01 0.871E-02 0.458E+00
   -.490E+00 -.718E+00 0.550E+03   0.488E+00 0.722E+00 -.550E+03   0.241E-02 -.562E-02 -.883E-01
   -.557E+00 0.452E+00 0.549E+03   0.557E+00 -.457E+00 -.549E+03   0.555E-04 0.702E-02 -.917E-01
   -.138E+00 0.122E+00 0.156E+04   0.139E+00 -.119E+00 -.156E+04   -.188E-02 -.321E-02 0.349E+01
   -.139E+00 -.148E+00 0.156E+04   0.139E+00 0.148E+00 -.156E+04   0.513E-04 0.216E-03 0.349E+01
   -.963E+01 -.303E+02 -.146E+04   0.961E+01 0.303E+02 0.147E+04   0.200E-01 0.103E-01 -.517E+01
   -.999E+01 0.780E+01 -.149E+04   0.995E+01 -.778E+01 0.150E+04   0.351E-01 -.182E-01 -.512E+01
   -.280E+01 0.279E+01 -.443E+03   0.279E+01 -.280E+01 0.443E+03   0.807E-02 0.128E-01 0.394E+00
   -.360E+01 -.369E+01 -.447E+03   0.360E+01 0.368E+01 0.446E+03   0.664E-02 0.618E-02 0.352E+00
   -.681E+00 0.755E+00 0.551E+03   0.690E+00 -.776E+00 -.551E+03   -.120E-01 0.277E-01 -.141E+00
   -.681E+00 -.435E+00 0.550E+03   0.688E+00 0.431E+00 -.550E+03   -.984E-02 0.406E-02 -.891E-01
   -.136E+00 -.123E+00 0.156E+04   0.133E+00 0.120E+00 -.156E+04   0.380E-02 0.413E-02 0.349E+01
   -.134E+00 0.148E+00 0.156E+04   0.130E+00 -.148E+00 -.156E+04   0.495E-02 0.163E-03 0.349E+01
   -.263E+02 0.361E+02 -.142E+04   0.263E+02 -.360E+02 0.143E+04   0.294E-01 -.125E+00 -.489E+01
   -.294E+02 -.879E+01 -.146E+04   0.294E+02 0.877E+01 0.147E+04   0.891E-02 0.183E-01 -.516E+01
   -.320E+01 -.293E+01 -.435E+03   0.321E+01 0.295E+01 0.435E+03   -.133E-01 -.175E-01 0.173E+00
   -.370E+01 0.369E+01 -.443E+03   0.371E+01 -.367E+01 0.443E+03   -.713E-02 -.150E-01 0.399E+00
   0.978E+01 0.968E+01 0.159E+02   -.195E-12 -.178E-13 0.472E-11   -.978E+01 -.968E+01 -.159E+02

 POSITION                                       TOTAL-FORCE (eV/Angst)
      4.51451      4.58752     16.85809         0.007256      0.003806     -0.000855
      5.31949      5.37982     16.69465        -0.001349     -0.004563      0.002140
      6.16349      6.21045     16.50439        -0.001210     -0.004787      0.000691
      2.11679      0.00000      7.50000         0.000128     -0.000319      0.393888
      4.23357      2.11679      7.50000         0.000299      0.000011      0.391773
      2.11679      2.11679      9.61679        -0.003836     -0.003366      0.018340
      4.23357      0.00000      9.61679        -0.000136     -0.010813      0.022002
      2.11687     -0.00037     11.74566        -0.001401      0.001366     -0.005607
      4.23328      2.11578     11.74494         0.001495     -0.000234     -0.004373
      2.11544      2.11613     13.84569         0.000740      0.000555     -0.003207
      4.23375      0.00162     13.84345         0.002839      0.001941     -0.002837
      2.11679      4.23357      7.50000         0.000002      0.000283      0.391706
      4.23357      6.35036      7.50000         0.000636     -0.000200      0.395778
      2.11679      6.35036      9.61679         0.008117      0.002827      0.025610
      4.23357      4.23357      9.61679         0.006655      0.007035      0.023121
      2.11528      4.23363     11.74501        -0.000305      0.001325     -0.004403
      4.23594      6.34980     11.75064         0.000365     -0.000227     -0.007262
      2.11498      6.35035     13.84329        -0.001701     -0.002294     -0.003580
      4.22330      4.22401     13.84252         0.001818      0.001962     -0.002029
      6.35036      0.00000      7.50000        -0.000092     -0.000477      0.392624
      0.00000      2.11679      7.50000        -0.000317      0.000128      0.393829
      6.35036      2.11679      9.61679         0.002295      0.009202      0.025815
      0.00000      0.00000      9.61679         0.001364      0.001766      0.021335
      6.35096     -0.00051     11.74748        -0.001672      0.000439     -0.004629
     -0.00078      2.11732     11.74578         0.001492     -0.001242     -0.005561
      6.34980      2.11582     13.84367        -0.002402     -0.001746     -0.003601
      0.00130      0.00200     13.84472        -0.000224     -0.000475     -0.004931
      6.35036      4.23357      7.50000        -0.000190      0.000632      0.395862
      0.00000      6.35036      7.50000        -0.000485     -0.000111      0.392679
      6.35036      6.35036      9.61679        -0.004825     -0.004447      0.031827
      0.00000      4.23357      9.61679        -0.011807      0.000429      0.022513
      6.34938      4.23642     11.75076        -0.000179      0.000168     -0.007231
     -0.00100      6.35124     11.74749         0.000540     -0.001632     -0.004421
      6.36042      6.36118     13.86646        -0.002138     -0.001848     -0.004679
      0.00077      4.23436     13.84426         0.001876      0.002587     -0.003420
      2.11679      0.00000      9.61679         0.001041      0.000881      0.054019
      4.23357      2.11679      9.61679        -0.001942     -0.001427      0.059277
      2.11679      2.11679      7.50000         0.000471      0.000491     -0.475306
      4.23357      0.00000      7.50000         0.000053      0.001379     -0.476058
      2.11730      0.00058     13.89417         0.000034     -0.000409      0.004268
      4.23193      2.11463     13.88933        -0.000690     -0.000319      0.000337
      2.11627      2.11662     11.73759         0.000227      0.000256      0.005403
      4.23338     -0.00137     11.73879        -0.000622     -0.000952      0.004290
      2.11679      4.23357      9.61679        -0.002592     -0.001429      0.059752
      4.23357      6.35036      9.61679         0.006380     -0.002605      0.063734
      2.11679      6.35036      7.50000        -0.000895     -0.000544     -0.476053
      4.23357      4.23357      7.50000        -0.001704     -0.001638     -0.476301
      2.11389      4.23254     13.88893         0.000286     -0.000425      0.000818
      4.23124      6.34841     13.90600         0.000274     -0.000461     -0.000144
      2.11832      6.35037     11.73793         0.001297      0.000567      0.006281
      4.23344      4.23377     11.73966         0.000201      0.000292      0.008297
      6.35036      0.00000      9.61679         0.000296     -0.001779      0.064652
      0.00000      2.11679      9.61679         0.000122      0.001983      0.054620
      6.35036      2.11679      7.50000        -0.000530     -0.000934     -0.476058
      0.00000      0.00000      7.50000         0.000018      0.000043     -0.475807
      6.35128      0.00599     13.88787        -0.000299      0.000140      0.003090
     -0.00003      2.11794     13.89421        -0.000582      0.000053      0.004427
      6.35001      2.11893     11.73809         0.000365      0.001269      0.006442
      0.00065      0.00099     11.73820         0.000243      0.000240     -0.000386
      6.35036      4.23357      9.61679        -0.003196      0.007187      0.063682
      0.00000      6.35036      9.61679        -0.002813      0.000636      0.064422
      6.35036      6.35036      7.50000         0.001108      0.001180     -0.477225
      0.00000      4.23357      7.50000         0.001415      0.000035     -0.476053
      6.34717      4.23247     13.90722         0.000088      0.000149     -0.000388
      0.00511      6.35187     13.88842         0.000334     -0.000007      0.003416
      6.34988      6.35019     11.74419        -0.001099     -0.000780      0.006301
     -0.00195      4.23378     11.73915        -0.000939     -0.000749      0.003342
    total drift:                               -0.000481      0.001239      0.015201

  FREE ENERGIE OF THE ION-ELECTRON SYSTEM (eV)
  free  energy   TOTEN  =      -397.25686878 eV

  energy  without entropy=     -397.25686878  energy(sigma->0) =     -397.25686878

 d Force = 0.9775573E-05[ 0.746E-05, 0.121E-04]  d Energy = 0.9744338E-05 0.312E-07
 d Force =-0.1233697E+00[-0.123E+00,-0.123E+00]  d Ewald  =-0.1233697E+00 0.388E-08

 reached required accuracy - stopping structural energy minimisation