 vasp.6.3.0 20Jan22 (build Aug 21 2024 11:13:42) complex
 executed on        HPECrayEX_GCC date 2024.11.26  21:18:15

 INCAR:
   SYSTEM = TiO2
   ISMEAR = 0
   SIGMA = 0.05
   EDIFF = 1E-4
   ALGO = ALL
   ISTART = 0
   IBRION = -1
   NSW = 0
   ISYM = 0
   ISIF = 2
   EDIFFG = -0.01
   DIPOL = 0.5 0.5 0.5
   IDIPOL = 3
   LDIPOL = .TRUE.
   GGA = RE
   IVDW = 13
   VDW_S8 = 1.7468
   VDW_A1 = 0.5363
   VDW_A2 = 3.0726
   ENCUT = 600
   PREC = Accurate
   LASPH = .TRUE.
   LREAL = .FALSE.
   ISPIN = 1
   NELM = 200
   NELMIN = 8
   NCORE = 16
   KPAR = 1
   LWAVE = .FALSE.
   LCHARG = .FALSE.

 POTCAR:    PAW_PBE C 08Apr2002
 POTCAR:    PAW_PBE H 15Jun2001
 POTCAR:    PAW_PBE Ti_pv 07Sep2000
 POTCAR:    PAW_PBE O 08Apr2002
 POTCAR:    PAW_PBE C 08Apr2002
   VRHFIN =C: s2p2

   TITEL  = PAW_PBE C 08Apr2002
   POMASS =   12.011; ZVAL   =    4.000    mass and valenz
   ENMAX  =  400.000; ENMIN  =  300.000 eV

   TITEL  = PAW_PBE H 15Jun2001
   POMASS =    1.000; ZVAL   =    1.000    mass and valenz
   ENMAX  =  250.000; ENMIN  =  200.000 eV

   TITEL  = PAW_PBE Ti_pv 07Sep2000
   POMASS =   47.880; ZVAL   =   10.000    mass and valenz
   ENMAX  =  222.335; ENMIN  =  166.751 eV

   TITEL  = PAW_PBE O 08Apr2002
   POMASS =   16.000; ZVAL   =    6.000    mass and valenz
   ENMAX  =  400.000; ENMIN  =  300.000 eV

  PAW_PBE C 08Apr2002                   :
  PAW_PBE H 15Jun2001                   :
  PAW_PBE Ti_pv 07Sep2000               :
  PAW_PBE O 08Apr2002                   :

 POSCAR:  C  H Ti  O
  positions in direct lattice
|           W    W    AA    RRRRR   N    N  II  N    N   GGGG   !!!           |
|           W    W   A  A   R    R  NN   N  II  NN   N  G    G  !!!           |
|           W    W  A    A  R    R  N N  N  II  N N  N  G       !!!           |
|           W WW W  AAAAAA  RRRRR   N  N N  II  N  N N  G  GGG   !            |
|           WW  WW  A    A  R   R   N   NN  II  N   NN  G    G                |
|           W    W  A    A  R    R  N    N  II  N    N   GGGG   !!!           |
|     Specifying the vdW parameters                                           |
|     VDW_S8 = 1.747                                                          |
|     VDW_A1 = 0.536                                                          |
|     VDW_A2 = 3.073                                                          |
|     in the INCAR file will overwrite the defaults for revpbe. Please        |
|     make sure that is what you intended.                                    |

 ion  position               nearest neighbor table
   1  0.500  0.500  0.812-   3 1.10   2 1.10   5 1.10   4 1.10
   2  0.496  0.576  0.832-   1 1.10
   3  0.504  0.424  0.832-   1 1.10
   4  0.571  0.504  0.792-   1 1.10
   5  0.429  0.496  0.792-   1 1.10
   6  0.750  0.625  0.287-  86 1.95 146 1.95  87 1.95 147 1.95 168 1.98  89 1.98  16 2.96  36 2.96

   7  0.000  0.750  0.287-  89 1.95 109 1.95 108 1.95  88 1.95  90 1.98  37 2.96  17 2.96
   8  0.000  0.625  0.394-  90 1.95 150 1.95  91 1.95 151 1.95  92 1.98  93 1.98  18 2.96  38 2.96

[...]

  85  0.500  0.500  0.709- 239 1.82 244 1.95 185 1.95 184 1.95 245 1.95  55 2.96  75 2.96
  86  0.750  0.750  0.245-   6 1.95  16 1.95
  87  0.750  0.750  0.329-   6 1.95  16 1.95   9 1.98
  88  0.098  0.625  0.287-   7 1.95  37 1.95  46 1.98
  89  0.902  0.625  0.287-   7 1.95  37 1.95   6 1.98
  90  0.000  0.750  0.352-   8 1.95  18 1.95   7 1.98
  91  0.000  0.750  0.435-   8 1.95  18 1.95  11 1.98
  92  0.848  0.625  0.394-   9 1.95  39 1.95   8 1.98
  93  0.152  0.625  0.394-  49 1.95  79 1.95   8 1.98
  94  0.750  0.750  0.458-  10 1.95  20 1.95   9 1.98
  95  0.750  0.750  0.542-  10 1.95  20 1.95  13 2.11
  96  0.098  0.625  0.500-  11 1.95  41 1.95  50 1.98
  97  0.902  0.625  0.500-  11 1.95  41 1.95  10 1.98
  98  0.000  0.750  0.565-  22 1.90  12 1.90  11 2.00
  99  0.000  0.750  0.649-  15 1.81  12 2.02  22 2.02
 100  0.850  0.625  0.607-  12 1.95  13 1.97  43 1.97
 101  0.150  0.625  0.607-  12 1.95  53 1.97  83 1.97
 102  0.750  0.750  0.672-  13 1.86  14 2.10  24 2.10
 103  0.750  0.750  0.756-  14 1.83  24 1.83
 104  0.094  0.625  0.719-  45 1.95  15 1.95  54 2.03
 105  0.906  0.625  0.719-  45 1.95  15 1.95  14 2.03
 106  0.750  0.000  0.245-  16 1.95  26 1.95
 107  0.750  0.000  0.329-  16 1.95  26 1.95  19 1.98
 108  0.098  0.875  0.287-   7 1.95  17 1.95  56 1.98
 109  0.902  0.875  0.287-   7 1.95  17 1.95  16 1.98
 110  0.000  0.000  0.352-  18 1.95  28 1.95  17 1.98
 111  0.000  0.000  0.435-  18 1.95  28 1.95  21 1.98
 112  0.848  0.875  0.394-   9 1.95  19 1.95  18 1.98
 113  0.152  0.875  0.394-  49 1.95  59 1.95  18 1.98
 114  0.750  0.000  0.458-  20 1.95  30 1.95  19 1.98
 115  0.750  0.000  0.542-  20 1.95  30 1.95  23 2.11
 116  0.098  0.875  0.500-  11 1.95  21 1.95  60 1.98
 117  0.902  0.875  0.500-  11 1.95  21 1.95  20 1.98
 118  0.000  1.000  0.565-  32 1.89  22 1.89  21 2.00
 119  1.000  0.000  0.649-  25 1.81  32 2.02  22 2.02
 120  0.850  0.875  0.607-  22 1.95  23 1.97  13 1.97
 121  0.150  0.875  0.607-  22 1.95  53 1.97  63 1.97
 122  0.750  0.000  0.672-  23 1.86  24 2.10  34 2.10
 123  0.750  0.000  0.756-  24 1.83  34 1.83
 124  0.094  0.875  0.719-  15 1.95  25 1.95  64 2.03
 125  0.906  0.875  0.719-  15 1.95  25 1.95  24 2.03
 126  0.750  0.250  0.245-  26 1.95  36 1.95
 127  0.750  0.250  0.329-  26 1.95  36 1.95  29 1.98
 128  0.098  0.125  0.287-  17 1.95  27 1.95  66 1.98
 129  0.902  0.125  0.287-  17 1.95  27 1.95  26 1.98
 130  0.000  0.250  0.352-  28 1.95  38 1.95  27 1.98
 131  0.000  0.250  0.435-  28 1.95  38 1.95  31 1.98
 132  0.848  0.125  0.394-  19 1.95  29 1.95  28 1.98
 133  0.152  0.125  0.394-  59 1.95  69 1.95  28 1.98
 134  0.750  0.250  0.458-  30 1.95  40 1.95  29 1.98
 135  0.750  0.250  0.542-  30 1.95  40 1.95  33 2.11
 136  0.098  0.125  0.500-  21 1.95  31 1.95  70 1.98
 137  0.902  0.125  0.500-  21 1.95  31 1.95  30 1.98
 138  0.000  0.250  0.565-  32 1.90  42 1.90  31 2.00
 139  1.000  0.250  0.649-  35 1.81  42 2.02  32 2.02
 140  0.850  0.125  0.607-  32 1.95  33 1.97  23 1.97
 141  0.150  0.125  0.607-  32 1.95  63 1.97  73 1.97
 142  0.750  0.250  0.672-  33 1.86  44 2.10  34 2.10
 143  0.750  0.250  0.756-  44 1.83  34 1.83
 144  0.094  0.125  0.719-  35 1.95  25 1.95  74 2.03
[...]
 231  0.500  0.500  0.435-  48 1.95  78 1.95  81 1.98
 232  0.348  0.375  0.394-  69 1.95  79 1.95  78 1.98
 233  0.652  0.375  0.394-  29 1.95  39 1.95  78 1.98
 234  0.250  0.500  0.458-  50 1.95  80 1.95  79 1.98
 235  0.250  0.500  0.542-  50 1.95  80 1.95  83 2.11
 236  0.598  0.375  0.500-  71 1.95  81 1.95  40 1.98
 237  0.402  0.375  0.500-  71 1.95  81 1.95  80 1.98
 238  0.500  0.500  0.565-  82 1.90  52 1.90  81 2.00
 239  0.500  0.500  0.649-  85 1.82  82 2.02  52 2.02
 240  0.350  0.375  0.607-  82 1.95  83 1.97  73 1.97
 241  0.650  0.375  0.607-  82 1.95  43 1.97  33 1.97
 242  0.249  0.500  0.672-  83 1.86  84 2.10  54 2.10
 243  0.251  0.500  0.756-  54 1.84  84 1.84
 244  0.594  0.374  0.718-  75 1.94  85 1.95  44 2.03
 245  0.406  0.374  0.718-  75 1.94  85 1.95  84 2.03

IMPORTANT INFORMATION: All symmetrisations will be switched off!
NOSYMM: (Re-)initialisation of all symmetry stuff for point group C_1.

                                     Primitive cell

  volume of cell :    4700.2642

  direct lattice vectors                    reciprocal lattice vectors
    13.003962940  0.000000000  0.000000000     0.076899635  0.000000000  0.000000000
     0.000000000 11.830322230  0.000000000     0.000000000  0.084528551  0.000000000
     0.000000000  0.000000000 30.552726600     0.000000000  0.000000000  0.032730303

  length of vectors
    13.003962940 11.830322230 30.552726600     0.076899635  0.084528551  0.032730303

  position of ions in fractional coordinates (direct lattice)
     0.500054181  0.499991615  0.811837592
     0.496254990  0.575800755  0.832419822
     0.503869532  0.424210026  0.832421078
     0.570623675  0.504129207  0.792162233
     0.429483306  0.495863185  0.792169603
     0.750000000  0.625000000  0.287188176
     0.000000000  0.750000000  0.287188176
     0.000000000  0.625000000  0.393594088
     0.750000000  0.750000000  0.393594088
     0.750000000  0.625000000  0.500000000
     0.000000000  0.750000000  0.500000000
     0.999998837  0.625017872  0.604126421
     0.750022868  0.750042355  0.610708306
     0.750126498  0.625141223  0.720263330
     0.000025167  0.750090308  0.708155069
     0.750000000  0.875000000  0.287188176
     0.000000000  0.000000000  0.287188176
     0.000000000  0.875000000  0.393594088
     0.750000000  0.000000000  0.393594088
     0.750000000  0.875000000  0.500000000
     0.000000000  0.000000000  0.500000000
     0.999995626  0.875021439  0.604143759
     0.749958937  0.000003686  0.610770040
     0.749863857  0.875037753  0.720477321
     0.999999844  0.999999993  0.708164464
     0.750000000  0.125000000  0.287188176
     0.000000000  0.250000000  0.287188176
     0.000000000  0.125000000  0.393594088
     0.750000000  0.250000000  0.393594088
     0.750000000  0.125000000  0.500000000
     0.000000000  0.250000000  0.500000000
     0.000004466  0.124978555  0.604143757
     0.750022192  0.249960079  0.610719754
     0.749844529  0.124980119  0.720481821
     0.999975771  0.249909689  0.708155064
     0.750000000  0.375000000  0.287188176
     0.000000000  0.500000000  0.287188176
     0.000000000  0.375000000  0.393594088
     0.750000000  0.500000000  0.393594088
     0.750000000  0.375000000  0.500000000
     0.000000000  0.500000000  0.500000000
     0.000001085  0.374982132  0.604126418
     0.750048746  0.499996788  0.610710147
     0.750070715  0.374901721  0.720299353
     0.000000646  0.500000004  0.708135902
     0.250000000  0.625000000  0.287188176
     0.500000000  0.750000000  0.287188176
     0.500000000  0.625000000  0.393594088
     0.250000000  0.750000000  0.393594088
     0.250000000  0.625000000  0.500000000
     0.500000000  0.750000000  0.500000000
     0.499998992  0.624678786  0.604435867
     0.249977873  0.750039752  0.610719962
     0.249930964  0.625097786  0.720300091
     0.500006915  0.749980500  0.708009809
     0.250000000  0.875000000  0.287188176
     0.500000000  0.000000000  0.287188176
     0.500000000  0.875000000  0.393594088
     0.250000000  0.000000000  0.393594088
     0.250000000  0.875000000  0.500000000
[...]
     0.500000000  0.500000000  0.435304992
     0.347999497  0.375000000  0.393594088
     0.652000503  0.375000000  0.393594088
     0.250000000  0.500000000  0.458289097
     0.250000000  0.500000000  0.541710903
     0.597999497  0.375000000  0.500000000
     0.402000503  0.375000000  0.500000000
     0.500000020  0.499999991  0.565487275
     0.499999753  0.500000003  0.649405262
     0.350130245  0.374995664  0.607234684
     0.649870524  0.375002822  0.607229364
     0.249455521  0.500024046  0.671576992
     0.250884930  0.499952723  0.755784681
     0.594300946  0.374401960  0.718241168
     0.405623704  0.374356559  0.718135013

  ion indices of the primitive-cell ions
   primitive index   ion index
                 1           1
                 2           2
[...]
   6.50207140  8.87251098 21.63163011
   3.25099073 10.35153195  8.77438183
   6.50198147  0.00000000  8.77438183
   6.50198147 10.35153195 12.02537257
   3.25099073  0.00000000 12.02537257
   3.25099073 10.35153195 15.27636330
[...]
   6.50198147  5.91516111 13.29975440
   4.52537257  4.43637084 12.02537257
   8.47859037  4.43637084 12.02537257
   3.25099073  5.91516111 14.00198147
   3.25099073  5.91516111 16.55074513
   7.77636330  4.43637084 15.27636330
   5.22759964  4.43637084 15.27636330
   6.50198173  5.91516101 17.27717810
   6.50197825  5.91516115 19.84110144
   4.55308073  4.43631954 18.55267527
   8.45089221  4.43640422 18.55251275
   3.24391036  5.91544559 20.51850822
   3.26249833  5.91460182 23.09128272
   7.72826748  4.42929583 21.94422605
   5.27471561  4.42875873 21.94098271

--------------------------------------- Iteration      FINAL  ---------------------------------------

--------------------OUTCAR has been truncated-------------------------

[...]

--------------------OUTCAR has been truncated-------------------------

  FORCE on cell =-STRESS in cart. coord.  units (eV):
  Direction    XX          YY          ZZ          XY          YZ          ZX
  Alpha Z  4686.78064  4686.78064  4686.78064
  Ewald  975510.59677993102.69012************    -0.35144    -0.01141    -0.03883
  Hartree************************************    -0.22874    -0.00000    -0.04041
  E(xc)   -8645.62815 -8618.47377 -8659.95547    -0.00182     0.00001    -0.00006
  Local  ************************************     0.60024     0.00709     0.08205
  n-local -5354.43629 -5278.13445 -5400.62891    -0.00278     0.00029     0.00004
  augment  5215.64442  5201.61809  5217.99586    -0.00223     0.00012     0.00004
  Kinetic 28743.97386 28271.62659 28793.69613    -0.00240     0.00057    -0.00188
  Fock        0.00000     0.00000     0.00000     0.00000     0.00000     0.00000
  vdW      -131.00102  -130.43900  -117.84616     0.00119    -0.00000     0.00005
  Total      13.62285   -30.08071   -32.02478     0.01202    -0.00333     0.00100
  in kB       4.64362   -10.25360   -10.91628     0.00410    -0.00114     0.00034

 VOLUME and BASIS-vectors are now :
  energy-cutoff  :      600.00
  volume of cell :     4700.26
      direct lattice vectors                 reciprocal lattice vectors
    13.003962940  0.000000000  0.000000000     0.076899635  0.000000000  0.000000000
     0.000000000 11.830322230  0.000000000     0.000000000  0.084528551  0.000000000
     0.000000000  0.000000000 30.552726600     0.000000000  0.000000000  0.032730303

  length of vectors
    13.003962940 11.830322230 30.552726600     0.076899635  0.084528551  0.032730303

 FORCES acting on ions:
    Electron-Ion                     Ewald-Force                    Non-Local-Force
   0.172E-01 -.402E-02 -.153E+04   -.144E-01 0.694E-02 0.153E+04   0.220E-03 0.398E-02 -.598E+00
   0.217E+01 -.434E+02 -.374E+03   -.242E+01 0.480E+02 0.377E+03   0.252E+00 -.452E+01 -.320E+01
   -.218E+01 0.434E+02 -.374E+03   0.243E+01 -.480E+02 0.377E+03   -.253E+00 0.452E+01 -.320E+01
   -.355E+02 -.235E+01 -.389E+03   0.402E+02 0.260E+01 0.387E+03   -.475E+01 -.248E+00 0.282E+01
   0.355E+02 0.235E+01 -.389E+03   -.402E+02 -.259E+01 0.387E+03   0.475E+01 0.248E+00 0.282E+01
   -.113E+00 -.361E-01 0.379E+04   0.113E+00 0.362E-01 -.380E+04   0.379E-04 -.554E-04 0.453E+00
   -.841E-04 -.490E-01 0.398E+04   0.142E-03 0.491E-01 -.397E+04   -.322E-05 -.157E-05 -.403E+01
   -.789E-03 -.564E-01 0.194E+04   0.854E-03 0.565E-01 -.193E+04   -.175E-05 0.150E-04 -.469E-01
   -.149E+00 -.644E-01 0.193E+04   0.148E+00 0.648E-01 -.193E+04   0.701E-04 -.364E-05 0.204E+00
   -.539E+00 -.265E+00 -.336E+01   0.535E+00 0.266E+00 0.421E+01   0.562E-03 -.719E-04 -.139E+00
   -.117E-01 -.424E+00 0.767E+01   0.120E-01 0.427E+00 -.877E+01   -.693E-04 -.955E-03 0.356E+00
   -.317E-01 -.131E+01 -.187E+04   0.319E-01 0.131E+01 0.187E+04   -.624E-04 -.111E-02 0.130E-01
   -.437E+01 -.339E+01 -.194E+04   0.437E+01 0.339E+01 0.194E+04   -.303E-02 -.244E-02 -.850E-01
   -.345E+02 -.141E+02 -.375E+04   0.345E+02 0.141E+02 0.375E+04   -.353E-03 0.277E-02 -.206E+00
   -.546E-01 -.472E+01 -.379E+04   0.540E-01 0.472E+01 0.379E+04   0.670E-03 -.182E-02 0.104E+01
   -.111E+00 -.362E-01 0.380E+04   0.111E+00 0.363E-01 -.380E+04   0.649E-04 -.160E-04 0.453E+00
   -.193E-05 0.277E-04 0.398E+04   0.585E-04 -.142E-05 -.397E+04   -.877E-05 0.102E-04 -.403E+01
   -.802E-03 -.569E-01 0.194E+04   0.868E-03 0.570E-01 -.193E+04   0.935E-05 0.968E-05 -.470E-01
   -.167E+00 -.101E-02 0.193E+04   0.166E+00 0.103E-02 -.193E+04   0.153E-03 -.307E-05 0.204E+00
   -.754E+00 -.303E+00 -.400E+01   0.752E+00 0.312E+00 0.485E+01   0.371E-03 -.502E-03 -.140E+00
   -.495E-03 0.179E-04 0.722E+01   0.498E-03 -.169E-04 -.832E+01   -.121E-04 0.524E-05 0.355E+00
   -.524E-01 -.124E+01 -.187E+04   0.525E-01 0.124E+01 0.187E+04   -.868E-04 -.162E-02 0.119E-01
   -.332E+01 -.818E-03 -.194E+04   0.332E+01 0.905E-03 0.194E+04   0.726E-04 -.130E-03 -.807E-01
   -.127E+02 -.999E+01 -.377E+04   0.127E+02 0.999E+01 0.377E+04   0.129E-01 0.957E-04 -.221E+00
   -.315E-02 0.758E-04 -.379E+04   0.323E-02 -.932E-04 0.379E+04   0.203E-04 0.814E-05 0.104E+01
   -.111E+00 0.361E-01 0.380E+04   0.111E+00 -.362E-01 -.380E+04   -.189E-04 0.778E-05 0.453E+00
   0.142E-04 0.490E-01 0.398E+04   -.177E-04 -.491E-01 -.397E+04   -.679E-06 0.488E-05 -.403E+01
   0.603E-03 0.569E-01 0.194E+04   -.561E-03 -.570E-01 -.193E+04   0.154E-04 -.721E-05 -.470E-01
   -.149E+00 0.644E-01 0.193E+04   0.148E+00 -.649E-01 -.193E+04   0.950E-04 0.454E-06 0.204E+00
   -.759E+00 0.288E+00 -.402E+01   0.757E+00 -.295E+00 0.488E+01   0.438E-03 0.404E-03 -.141E+00
   0.102E-01 0.424E+00 0.767E+01   -.104E-01 -.427E+00 -.877E+01   0.584E-04 0.955E-03 0.356E+00
   0.488E-01 0.124E+01 -.187E+04   -.489E-01 -.124E+01 0.187E+04   0.697E-04 0.162E-02 0.119E-01
   -.441E+01 0.339E+01 -.194E+04   0.441E+01 -.339E+01 0.194E+04   -.291E-02 0.170E-02 -.849E-01
   -.127E+02 0.992E+01 -.377E+04   0.127E+02 -.992E+01 0.377E+04   0.135E-01 0.141E-03 -.221E+00
   0.426E-01 0.472E+01 -.379E+04   -.421E-01 -.472E+01 0.379E+04   -.691E-03 0.183E-02 0.104E+01
   -.113E+00 0.362E-01 0.379E+04   0.113E+00 -.363E-01 -.380E+04   0.815E-05 0.233E-04 0.453E+00
   -.578E-04 0.151E-04 0.398E+04   0.652E-04 0.142E-05 -.397E+04   0.660E-05 0.236E-05 -.403E+01
   0.491E-03 0.564E-01 0.194E+04   -.486E-03 -.565E-01 -.193E+04   0.309E-05 -.124E-04 -.469E-01
   -.130E+00 0.939E-03 0.193E+04   0.130E+00 -.955E-03 -.193E+04   -.242E-04 -.114E-04 0.204E+00
   -.542E+00 0.280E+00 -.337E+01   0.539E+00 -.283E+00 0.422E+01   0.596E-03 0.176E-03 -.139E+00
   -.943E-03 -.227E-04 0.813E+01   0.976E-03 0.179E-04 -.923E+01   -.451E-06 0.859E-05 0.356E+00
   0.248E-01 0.131E+01 -.187E+04   -.249E-01 -.131E+01 0.187E+04   0.425E-04 0.111E-02 0.130E-01
   -.566E+01 0.182E-02 -.193E+04   0.566E+01 -.248E-02 0.193E+04   -.337E-02 0.797E-03 -.881E-01
   -.343E+02 0.142E+02 -.375E+04   0.343E+02 -.142E+02 0.375E+04   -.118E-02 -.251E-02 -.208E+00
   -.830E-02 -.131E-03 -.378E+04   0.831E-02 0.103E-03 0.378E+04   0.510E-05 -.500E-05 0.103E+01
   0.113E+00 -.361E-01 0.379E+04   -.113E+00 0.363E-01 -.380E+04   -.141E-04 -.434E-04 0.453E+00
   0.110E-03 -.531E-01 0.398E+04   -.137E-03 0.532E-01 -.397E+04   -.153E-04 -.494E-04 -.403E+01
   0.717E-03 -.233E-01 0.194E+04   -.752E-03 0.270E-01 -.193E+04   0.138E-04 -.783E-03 -.470E-01
   0.149E+00 -.644E-01 0.193E+04   -.148E+00 0.649E-01 -.193E+04   -.812E-04 -.266E-05 0.204E+00
   0.542E+00 -.280E+00 -.338E+01   -.539E+00 0.282E+00 0.422E+01   -.600E-03 -.199E-03 -.139E+00
   0.794E-02 -.202E+00 0.888E+01   -.820E-02 0.188E+00 -.995E+01   0.290E-04 0.936E-02 0.347E+00
   0.935E-02 -.318E+01 -.186E+04   -.934E-02 0.321E+01 0.186E+04   0.119E-04 -.224E-01 0.226E-01
   0.441E+01 -.339E+01 -.194E+04   -.441E+01 0.339E+01 0.194E+04   0.290E-02 -.168E-02 -.849E-01
   0.343E+02 -.142E+02 -.375E+04   -.343E+02 0.142E+02 0.375E+04   0.119E-02 0.253E-02 -.208E+00
   0.209E+00 -.346E+02 -.375E+04   -.207E+00 0.346E+02 0.375E+04   -.261E-02 -.193E-01 0.109E+01
   0.111E+00 -.361E-01 0.380E+04   -.111E+00 0.362E-01 -.380E+04   -.482E-04 -.166E-05 0.453E+00
   0.977E-05 -.114E-04 0.398E+04   -.584E-04 -.161E-05 -.397E+04   0.261E-07 -.103E-04 -.403E+01
   0.693E-03 -.255E-01 0.194E+04   -.750E-03 0.274E-01 -.193E+04   -.122E-05 -.535E-03 -.471E-01
   0.167E+00 0.996E-03 0.193E+04   -.166E+00 -.104E-02 -.193E+04   -.153E-03 -.925E-05 0.204E+00
   0.759E+00 -.288E+00 -.402E+01   -.758E+00 0.294E+00 0.488E+01   -.427E-03 -.383E-03 -.141E+00
[...]
   -.532E+02 0.208E-01 0.116E+04   0.572E+02 -.212E-01 -.116E+04   -.356E+01 0.706E-03 0.157E+00
   0.532E+02 0.214E-01 0.116E+04   -.572E+02 -.219E-01 -.116E+04   0.356E+01 0.781E-03 0.157E+00
   0.168E+00 -.195E-02 0.505E+03   -.167E+00 0.220E-02 -.510E+03   -.205E-02 -.530E-03 0.415E+01
   0.626E+00 -.608E-02 -.525E+03   -.622E+00 0.626E-02 0.532E+03   -.281E-02 -.452E-03 -.720E+01
   -.555E+02 0.219E-01 0.455E+01   0.602E+02 -.237E-01 -.480E+01   -.520E+01 0.930E-02 0.351E+00
   0.555E+02 0.173E-01 0.455E+01   -.602E+02 -.189E-01 -.480E+01   0.520E+01 0.902E-02 0.351E+00
   0.108E-02 -.579E-04 -.626E+03   -.108E-02 0.705E-04 0.619E+03   0.472E-06 0.405E-06 0.654E+01
   0.716E-02 -.133E-03 -.159E+04   -.747E-02 0.141E-03 0.159E+04   0.304E-03 0.219E-04 0.241E+01
   -.247E+02 0.183E+01 -.113E+04   0.277E+02 -.185E+01 0.113E+04   -.298E+01 0.233E-01 0.873E+00
   0.247E+02 0.186E+01 -.113E+04   -.277E+02 -.189E+01 0.113E+04   0.298E+01 0.258E-01 0.878E+00
   0.116E+02 -.133E+00 -.181E+04   -.116E+02 0.139E+00 0.181E+04   0.757E-01 -.651E-02 -.229E+01
   0.397E+02 -.905E-02 -.271E+04   -.397E+02 0.593E-02 0.273E+04   0.176E-01 0.312E-02 -.207E+02
   -.396E+02 0.220E+02 -.231E+04   0.456E+02 -.220E+02 0.231E+04   -.593E+01 -.268E-01 -.350E+01
   0.396E+02 0.218E+02 -.231E+04   -.456E+02 -.218E+02 0.231E+04   0.594E+01 -.345E-01 -.341E+01
   -.812E-03 -.533E-02 0.964E+02   0.338E-11 0.242E-11 -.400E-10   0.767E-03 0.545E-02 -.963E+02

 POSITION                                       TOTAL-FORCE (eV/Angst)
      6.50269      5.91506     24.80385         0.003058      0.006848     -0.003244
      6.45328      6.81191     25.43270         0.001761     -0.001731      0.001223
      6.55230      5.01854     25.43273        -0.001828     -0.004367      0.005057
      7.42037      5.96401     24.20272        -0.001264     -0.002141      0.003987
      5.58498      5.86622     24.20294        -0.002031      0.001441      0.002136
      9.75297      7.39395      8.77438         0.000175      0.000020     -3.371961
      0.00000      8.87274      8.77438         0.000055      0.000063      2.815785
      0.00000      7.39395     12.02537         0.000064      0.000126      0.543294
      9.75297      8.87274     12.02537        -0.000332      0.000484     -0.705729
      9.75297      7.39395     15.27636        -0.002767      0.000844      0.704338
      0.00000      8.87274     15.27636         0.000209      0.001987     -0.760455
     13.00395      7.39416     18.45771        -0.000011     -0.000449     -0.002212
      9.75327      8.87324     18.65880         0.001534     -0.003523     -0.001349
      9.75462      7.39562     22.00601         0.000751      0.000234     -0.002263
      0.00033      8.87381     21.63607         0.000092     -0.001975     -0.003490
      9.75297     10.35153      8.77438        -0.000085      0.000062     -3.371617
      0.00000      0.00000      8.77438         0.000048      0.000036      2.815932
      0.00000     10.35153     12.02537         0.000075      0.000114      0.543511
      9.75297      0.00000     12.02537        -0.000515      0.000013     -0.705101
      9.75297     10.35153     15.27636        -0.001266      0.007911      0.709810
      0.00000      0.00000     15.27636        -0.000010      0.000006     -0.759984
     13.00391     10.35179     18.45824        -0.000113     -0.000639     -0.002404
      9.75244      0.00004     18.66069         0.003507      0.000069     -0.001476
      9.75120     10.35198     22.01255        -0.000190     -0.000530     -0.001772
     13.00396     11.83032     21.63636         0.000097     -0.000010     -0.003761
      9.75297      1.47879      8.77438        -0.000201     -0.000093     -3.371835
      0.00000      2.95758      8.77438        -0.000005     -0.000057      2.815839
      0.00000      1.47879     12.02537         0.000057     -0.000124      0.543517
      9.75297      2.95758     12.02537        -0.000293     -0.000495     -0.705547
      9.75297      1.47879     15.27636        -0.001217     -0.006440      0.710754
      0.00000      2.95758     15.27636        -0.000171     -0.001975     -0.760429
      0.00006      1.47854     18.45824         0.000098      0.000667     -0.002405
      9.75326      2.95711     18.65915         0.001560      0.003501     -0.001238
      9.75095      1.47856     22.01268        -0.000502      0.000864     -0.001806
     13.00365      2.95651     21.63607        -0.000235      0.002010     -0.003310
      9.75297      4.43637      8.77438        -0.000021     -0.000126     -3.371730
      0.00000      5.91516      8.77438         0.000014      0.000019      2.815863
      0.00000      4.43637     12.02537         0.000008     -0.000088      0.543336
      9.75297      5.91516     12.02537        -0.000118     -0.000028     -0.706110
      9.75297      4.43637     15.27636        -0.002753     -0.002327      0.705302
      0.00000      5.91516     15.27636         0.000033      0.000003     -0.761142
      0.00001      4.43616     18.45771        -0.000033      0.000400     -0.002210
      9.75361      5.91512     18.65886         0.000170      0.000009     -0.001382
      9.75389      4.43521     22.00711         0.000401     -0.000023     -0.002181
      0.00001      5.91516     21.63548         0.000018     -0.000034     -0.001981
      3.25099      7.39395      8.77438        -0.000004      0.000169     -3.371597
      6.50198      8.87274      8.77438        -0.000043      0.000130      2.816184
      6.50198      7.39395     12.02537        -0.000021      0.002964      0.543365
      3.25099      8.87274     12.02537         0.000304      0.000495     -0.705525
      3.25099      7.39395     15.27636         0.002743      0.002290      0.705324
      6.50198      8.87274     15.27636        -0.000220     -0.005466     -0.735818
      6.50197      7.39015     18.46716        -0.000001      0.000672     -0.001643
      3.25070      8.87321     18.65916        -0.001580     -0.003494     -0.001284
      3.25009      7.39511     22.00713        -0.000451     -0.000007     -0.002216
      6.50207      8.87251     21.63163         0.000047      0.000158     -0.001112
      3.25099     10.35153      8.77438         0.000041      0.000059     -3.371672
      6.50198      0.00000      8.77438        -0.000049     -0.000024      2.816472
      6.50198     10.35153     12.02537        -0.000057      0.001385      0.545559
      3.25099      0.00000     12.02537         0.000545     -0.000052     -0.705058
      3.25099     10.35153     15.27636         0.001266      0.006441      0.710753
[...]
      6.50198      5.91516     13.29975         0.000011     -0.000021     -0.103123
      4.52537      4.43637     12.02537         0.439555      0.000273      0.049129
      8.47859      4.43637     12.02537        -0.439561      0.000312      0.049111
      3.25099      5.91516     14.00198        -0.000648     -0.000287     -0.116890
      3.25099      5.91516     16.55075         0.001436     -0.000281      0.020526
      7.77636      4.43637     15.27636        -0.494399      0.007481      0.095911
      5.22760      4.43637     15.27636         0.494093      0.007403      0.095972
      6.50198      5.91516     17.27718        -0.000002      0.000012     -0.004287
      6.50198      5.91516     19.84110        -0.000002      0.000030     -0.000493
      4.55308      4.43632     18.55268        -0.001529     -0.000009     -0.003893
      8.45089      4.43640     18.55251         0.001544     -0.000034     -0.004049
      3.24391      5.91545     20.51851        -0.000766      0.000040      0.000941
      3.26250      5.91460     23.09128        -0.001002     -0.000019      0.002055
      7.72827      4.42930     21.94423         0.000632      0.000388     -0.002394
      5.27472      4.42876     21.94098        -0.000591      0.000561     -0.002553
    total drift:                               -0.000045      0.000122      0.066520

  FREE ENERGIE OF THE ION-ELECTRON SYSTEM (eV)
  free  energy   TOTEN  =     -2150.32030141 eV

  energy  without entropy=    -2150.32030141  energy(sigma->0) =    -2150.32030141