 vasp.6.3.0 20Jan22 (build Apr  1 2022 16:44:48) gamma-only
 executed on        HPECrayEX_GCC date 2023.03.12  09:55:34

 INCAR:
   SYSTEM = MgO-rocksalt
   ISMEAR = 0
   SIGMA = 0.05
   EDIFF = 1E-7
   ALGO = ALL
   ISTART = 0
   IBRION = 2
   NSW = 1000
   ISYM = 0
   ISIF = 2
   EDIFFG = -0.02
   DIPOL = 0.5 0.5 0.5
   IDIPOL = 3
   LDIPOL = .TRUE.
   LHFCALC = .TRUE.
   GGA = B5
   AEXX = 0.2
   AGGAX = 0.72
   AGGAC = 0.81
   ALDAC = 0.19
   IVDW = 1
   VDW_S6 = 1.05
   VDW_C6 = 1.75 0.14 0.63 0.70
   VDW_R0 = 1.452 1.001 1.243 1.342
   ENCUT = 520
   PREC = Accurate
   LASPH = .TRUE.
   LREAL = Auto
   ISPIN = 1
   NELM = 200
   NELMIN = 8
   NCORE = 8
   KPAR = 1
   LWAVE = .FALSE.
   LCHARG = .FALSE.

 POTCAR:    PAW_PBE C 08Apr2002
 POTCAR:    PAW_PBE H 15Jun2001
 POTCAR:    PAW_PBE Mg 13Apr2007
 POTCAR:    PAW_PBE O 08Apr2002
 POTCAR:    PAW_PBE C 08Apr2002
   VRHFIN =C: s2p2

   TITEL  = PAW_PBE C 08Apr2002
   POMASS =   12.011; ZVAL   =    4.000    mass and valenz
   ENMAX  =  400.000; ENMIN  =  300.000 eV

   TITEL  = PAW_PBE H 15Jun2001
   POMASS =    1.000; ZVAL   =    1.000    mass and valenz
   ENMAX  =  250.000; ENMIN  =  200.000 eV

[...]

   TITEL  = PAW_PBE O 08Apr2002
   POMASS =   16.000; ZVAL   =    6.000    mass and valenz
   ENMAX  =  400.000; ENMIN  =  300.000 eV

 Optimization of the real space projectors (new method)

 maximal supplied QI-value         = 25.13
 optimisation between [QCUT,QGAM] = [ 11.56, 23.12] = [ 37.43,149.72] Ry
 Optimized for a Real-space Cutoff    1.04 Angstroem

   l    n(q)    QCUT    max X(q) W(low)/X(q) W(high)/X(q)  e(spline)
   0      7    11.561   115.676    0.20E-03    0.60E-03    0.21E-06
   0      7    11.561    87.132    0.20E-03    0.59E-03    0.21E-06
   1      7    11.561     4.429    0.23E-03    0.35E-03    0.15E-06
   1      7    11.561     2.733    0.18E-03    0.25E-03    0.12E-06
 Optimization of the real space projectors (new method)

[...]

   l    n(q)    QCUT    max X(q) W(low)/X(q) W(high)/X(q)  e(spline)
   0      9    11.527    28.265    0.62E-04    0.53E-04    0.73E-07
   0      9    11.527    10.429    0.52E-04    0.40E-04    0.58E-07
   1      8    11.527    13.073    0.98E-04    0.18E-03    0.86E-07
   1      8    11.527     9.625    0.79E-04    0.15E-03    0.74E-07
   2      8    11.527     4.652    0.22E-03    0.72E-04    0.47E-07
 Optimization of the real space projectors (new method)

 maximal supplied QI-value         = 24.76
 optimisation between [QCUT,QGAM] = [ 11.64, 23.27] = [ 37.91,151.63] Ry
 Optimized for a Real-space Cutoff    1.14 Angstroem

   l    n(q)    QCUT    max X(q) W(low)/X(q) W(high)/X(q)  e(spline)
   0      8    11.635    20.381    0.10E-03    0.33E-03    0.24E-06
   0      8    11.635    15.268    0.11E-03    0.35E-03    0.26E-06
   1      7    11.635     5.964    0.24E-03    0.31E-03    0.30E-06
   1      7    11.635     5.382    0.22E-03    0.25E-03    0.26E-06
|               ----> ADVICE to this user running VASP <----                  |
|     You enforced a specific xc type in the INCAR file but a different       |
|     type was found in the POTCAR file.                                      |
|     I HOPE YOU KNOW WHAT YOU ARE DOING!                                     |

  PAW_PBE C 08Apr2002                   :
  PAW_PBE H 15Jun2001                   :
  PAW_PBE Mg 13Apr2007                  :
  PAW_PBE O 08Apr2002                   :

 POSCAR:  C  H Mg  O
  positions in direct lattice
  velocities in cartesian coordinates
 exchange correlation table for  LEXCH =       12
   RHO(1)=    0.500       N(1)  =     2000
   RHO(2)=  100.500       N(2)  =     4000

 ion  position               nearest neighbor table
   1  0.479  0.469  0.795-   7 1.08   2 1.39   6 1.39
   2  0.561  0.458  0.794-   8 1.08   1 1.39   3 1.39
   3  0.593  0.382  0.795-   9 1.08   4 1.39   2 1.39
   4  0.544  0.316  0.799-  10 1.08   3 1.39   5 1.39
   5  0.461  0.326  0.801-  11 1.08   6 1.39   4 1.39
   6  0.429  0.402  0.799-  12 1.08   5 1.39   1 1.39
   7  0.454  0.528  0.794-   1 1.08
   8  0.600  0.510  0.790-   2 1.08
   9  0.657  0.374  0.794-   3 1.08
  10  0.569  0.257  0.800-   4 1.08
  11  0.423  0.275  0.803-   5 1.08
  12  0.365  0.411  0.800-   6 1.08
  13  0.125  0.000  0.352- 143 2.10 144 2.10 160 2.10 183 2.10 141 2.10  30 2.97  54 2.97  70 2.97
                            14 2.97  16 2.97  55 2.97  15 2.97  32 2.97
  14  0.250  0.125  0.352- 143 2.10 144 2.10 152 2.10 159 2.10 142 2.10  21 2.97  29 2.97  37 2.97
                            13 2.97  16 2.97  31 2.97  15 2.97  24 2.97
  15  0.125  0.125  0.451- 141 2.10 142 2.10 149 2.10 158 2.10 143 2.10 147 2.10  32 2.97  40 2.97
                            16 2.97  24 2.97  13 2.97  21 2.97  14 2.97  30 2.97  17 2.98  34 2.98
  16  0.250  0.000  0.451- 141 2.10 142 2.10 157 2.10 182 2.10 144 2.10 148 2.10  55 2.97  71 2.97
                            15 2.97  31 2.97  13 2.97  29 2.97  14 2.97  54 2.97  17 2.98  58 2.98
  17  0.125  0.000  0.550- 147 2.10 148 2.10 187 2.10 164 2.10 141 2.11 145 2.13  59 2.96  36 2.96
                            19 2.96  20 2.96  58 2.97  74 2.97  18 2.97  34 2.97  15 2.98  16 2.98
  18  0.250  0.125  0.550- 163 2.10 156 2.10 148 2.10 147 2.10 142 2.11 146 2.13  35 2.96  28 2.96
                            20 2.96  19 2.96  33 2.97  25 2.97  17 2.97  41 2.97  31 2.98  24 2.98
  19  0.125  0.125  0.647- 147 2.09 153 2.10 146 2.10 145 2.10 162 2.10  25 2.96  18 2.96  17 2.96
                            34 2.96  20 2.97  36 2.97  44 2.97  28 2.97
  20  0.250  0.000  0.647- 148 2.09 161 2.10 146 2.10 186 2.10 145 2.10  18 2.96  33 2.96  58 2.96
                            17 2.96  75 2.97  19 2.97  59 2.97  35 2.97
  21  0.125  0.250  0.352- 143 2.10 151 2.10 152 2.10 168 2.10 149 2.10  22 2.97  30 2.97  38 2.97
                            14 2.97  15 2.97  23 2.97  40 2.97  24 2.97
  22  0.250  0.375  0.352- 151 2.10 152 2.10 167 2.10 176 2.10 150 2.10  37 2.97  45 2.97  61 2.97
                            21 2.97  24 2.97  48 2.97  23 2.97  39 2.97
  23  0.125  0.375  0.451- 149 2.10 150 2.10 166 2.10 173 2.10 151 2.10 155 2.10  48 2.97  64 2.97
                            24 2.97  40 2.97  21 2.97  38 2.97  22 2.97  45 2.97  49 2.98  25 2.98
  24  0.250  0.250  0.451- 142 2.10 149 2.10 150 2.10 165 2.10 152 2.10 156 2.10  31 2.97  39 2.97
                            15 2.97  23 2.97  37 2.97  22 2.97  14 2.97  21 2.97  18 2.98  25 2.98
  25  0.125  0.250  0.550- 156 2.10 155 2.10 172 2.10 147 2.10 149 2.11 153 2.13  19 2.96  28 2.96
                            27 2.96  44 2.96  42 2.97  34 2.97  18 2.97  26 2.97  23 2.98  24 2.98
  26  0.250  0.375  0.550- 171 2.09 180 2.10 156 2.10 155 2.10 150 2.11 154 2.13  52 2.95  28 2.95
                            27 2.96  43 2.96  65 2.97  41 2.97  49 2.97  25 2.97  39 2.98  48 2.98
  27  0.125  0.375  0.647- 155 2.09 154 2.10 177 2.10 153 2.10 170 2.10  49 2.96  25 2.96  26 2.96
                            42 2.96  52 2.97  28 2.97  68 2.97  44 2.97
  28  0.250  0.250  0.647- 156 2.08 169 2.10 154 2.10 146 2.10 153 2.10  26 2.95  41 2.96  18 2.96
                            25 2.96  35 2.97  27 2.97  19 2.97  43 2.98
  29  0.375  0.000  0.352- 144 2.10 159 2.10 199 2.10 224 2.10 157 2.10  54 2.97  94 2.97 134 2.97
                            14 2.97  31 2.97  96 2.97  16 2.97  71 2.97
  30  0.000  0.125  0.352- 143 2.10 160 2.10 168 2.10 223 2.10 158 2.10  21 2.97  93 2.97 101 2.97
                            13 2.97  15 2.97  95 2.97  32 2.97  40 2.97
  31  0.375  0.125  0.451- 142 2.10 157 2.10 165 2.10 222 2.10 159 2.10 163 2.10  96 2.97 104 2.97
                            16 2.97  24 2.97  14 2.97  29 2.97  37 2.97  94 2.97  33 2.98  18 2.98
  32  0.000  0.000  0.451- 141 2.10 158 2.10 198 2.10 221 2.10 160 2.10 164 2.10  95 2.97 135 2.97
                            15 2.97  55 2.97  30 2.97  13 2.97  70 2.97  93 2.97  74 2.98  97 2.98
  33  0.375  0.000  0.550- 163 2.10 228 2.10 203 2.10 148 2.10 157 2.11 161 2.13  35 2.96  20 2.96
                           100 2.96  75 2.96 138 2.97  18 2.97  58 2.97  98 2.97  31 2.98  96 2.98
  34  1.000  0.125  0.550- 227 2.10 172 2.10 147 2.10 164 2.10 158 2.11 162 2.13  36 2.96  99 2.96
                            44 2.96  19 2.96  25 2.97  97 2.97 105 2.97  17 2.97  40 2.98  95 2.98
  35  0.375  0.125  0.647- 163 2.09 169 2.10 226 2.10 146 2.10 161 2.10  98 2.95  41 2.96  18 2.96
                            33 2.96 100 2.97  28 2.97  20 2.97 108 2.98
  36  0.000  0.000  0.647- 164 2.09 145 2.10 225 2.10 162 2.10 202 2.10  34 2.96  17 2.96  97 2.96
                            74 2.96 139 2.97  59 2.97  19 2.97  99 2.97
  37  0.375  0.250  0.352- 152 2.10 159 2.10 167 2.10 232 2.10 165 2.10  22 2.97  94 2.97 102 2.97
                            14 2.97  24 2.97  31 2.97 104 2.97  39 2.97
  38  0.000  0.375  0.352- 151 2.10 168 2.10 192 2.10 231 2.10 166 2.10  45 2.97 101 2.97 125 2.97
                            21 2.97  40 2.97 103 2.97  23 2.97  64 2.97
  39  0.375  0.375  0.451- 171 2.10 165 2.10 150 2.10 189 2.10 230 2.10 167 2.10 104 2.97 128 2.97
                            24 2.97  48 2.97  37 2.97  22 2.97  61 2.97 102 2.97  26 2.98  41 2.98
  40  0.000  0.250  0.451- 149 2.10 158 2.10 166 2.10 229 2.10 168 2.10 172 2.10  95 2.97 103 2.97
                            15 2.97  23 2.97 101 2.97  30 2.97  38 2.97  21 2.97  34 2.98  42 2.98
  41  0.375  0.250  0.550- 171 2.10 236 2.10 156 2.10 163 2.10 165 2.11 169 2.13  28 2.96  35 2.96
                           108 2.96  43 2.96  26 2.97  98 2.97 106 2.97  18 2.97  39 2.98 104 2.98
  42  0.000  0.375  0.550- 172 2.10 235 2.10 155 2.10 196 2.10 166 2.11 170 2.13  44 2.96  68 2.96
                           107 2.96  27 2.96  25 2.97 105 2.97 129 2.97  49 2.97  23 2.98  40 2.98
  43  0.376  0.375  0.647- 234 2.09 171 2.09 193 2.10 169 2.10 154 2.11 106 2.95  65 2.96 132 2.96
                            41 2.96 108 2.96  26 2.96  52 2.98  28 2.98
  44  1.000  0.250  0.647- 172 2.09 233 2.10 170 2.10 153 2.10 162 2.10  42 2.96  34 2.96  25 2.96
                           105 2.96  99 2.97  19 2.97 107 2.97  27 2.97
  45  0.125  0.500  0.352- 151 2.10 175 2.10 176 2.10 192 2.10 173 2.10  38 2.97  46 2.97  62 2.97
                            22 2.97  48 2.97  23 2.97  64 2.97  47 2.97
  46  0.250  0.625  0.352- 175 2.10 176 2.10 184 2.10 191 2.10 174 2.10  53 2.97  61 2.97  69 2.97
                            45 2.97  48 2.97  63 2.97  47 2.97  56 2.97
  47  0.125  0.625  0.451- 173 2.10 174 2.10 181 2.10 190 2.10 175 2.10 179 2.10  64 2.97  72 2.97
                            48 2.97  56 2.97  45 2.97  53 2.97  46 2.97  62 2.97  50 2.98  66 2.98
  48  0.250  0.500  0.451- 180 2.10 173 2.10 174 2.10 150 2.10 189 2.10 176 2.10  47 2.97  63 2.97
                            23 2.97  39 2.97  61 2.97  45 2.97  46 2.97  22 2.97  50 2.98  49 2.98
  49  0.125  0.500  0.550- 180 2.10 155 2.10 196 2.10 179 2.10 173 2.11 177 2.13  52 2.96  27 2.96
                            68 2.96  51 2.96  50 2.97  42 2.97  66 2.97  26 2.97  48 2.98  23 2.98
  50  0.250  0.625  0.550- 180 2.10 195 2.10 179 2.10 188 2.10 174 2.11 178 2.13  67 2.95  52 2.95
[...]
   8.40484598 12.60727916 11.70379015

--------------------------------------- Iteration      FINAL  ---------------------------------------

--------------------OUTCAR has been truncated-------------------------

[...]

--------------------OUTCAR has been truncated-------------------------

  Number of pair interactions contributing to vdW energy: 3163855
  Edisp (eV):  -21.29908

  FORCE on cell =-STRESS in cart. coord.  units (eV):
  Direction    XX          YY          ZZ          XY          YZ          ZX
  Alpha Z  1047.49720  1047.49720  1047.49720
  Ewald  206180.47410206178.52580************    -1.95749   -64.27001   -47.84912
  Hartree221208.14033221207.01245************    -0.92540   -38.06986   -28.17717
  E(xc)   -3896.12541 -3896.13741 -3896.38278    -0.00740    -0.19137    -0.14281
  Local  ************************429964.46564     2.69548    99.94404    74.25844
  n-local -1953.40887 -1953.40897 -2030.72108     0.00516     0.19568     0.13510
  augment   851.92322   851.92446   859.82521     0.00048    -0.00354     0.00230
  Kinetic 18526.03480 18526.18930 18753.34819     0.17646     2.01519     1.57503
  Fock    -1432.84025 -1432.83677 -1422.75490     0.00652     0.13228     0.09751
  vdW       -30.44509   -30.44405   -26.10471    -0.00058    -0.00946    -0.00571
  Total    -122.37776  -122.40074    -0.12693    -0.00677    -0.25706    -0.10644
  in kB     -32.57151   -32.57763    -0.03378    -0.00180    -0.06842    -0.02833

 VOLUME and BASIS-vectors are now :
  energy-cutoff  :      520.00
  volume of cell :     6019.70
      direct lattice vectors                 reciprocal lattice vectors
    16.809723990  0.000000000  0.000000000     0.059489377  0.000000000  0.000000000
     0.000000000 16.809723990  0.000000000     0.000000000  0.059489377  0.000000000
     0.000000000  0.000000000 21.303646496     0.000000000  0.000000000  0.046940321

  length of vectors
    16.809723990 16.809723990 21.303646496     0.059489377  0.059489377  0.046940321

 FORCES acting on ions:
    Electron-Ion                     Ewald-Force                    Non-Local-Force
   0.695E+02 -.164E+03 -.529E+03   -.699E+02 0.165E+03 0.530E+03   0.404E+00 -.738E+00 -.582E-01
   -.107E+03 -.141E+03 -.530E+03   0.107E+03 0.142E+03 0.530E+03   -.632E+00 -.764E+00 -.470E-01
   -.177E+03 0.218E+02 -.529E+03   0.178E+03 -.219E+02 0.529E+03   -.733E+00 0.116E+00 -.183E-01
   -.692E+02 0.164E+03 -.531E+03   0.695E+02 -.165E+03 0.531E+03   -.334E+00 0.737E+00 -.649E-01
   0.107E+03 0.142E+03 -.531E+03   -.108E+03 -.143E+03 0.531E+03   0.526E+00 0.671E+00 -.808E-01
   0.177E+03 -.222E+02 -.530E+03   -.178E+03 0.223E+02 0.530E+03   0.697E+00 -.109E+00 -.313E-01
   0.313E+02 -.737E+02 -.132E+03   -.337E+02 0.793E+02 0.132E+03   0.232E+01 -.542E+01 0.182E+00
   -.482E+02 -.639E+02 -.132E+03   0.520E+02 0.688E+02 0.132E+03   -.359E+01 -.471E+01 0.431E+00
   -.793E+02 0.985E+01 -.132E+03   0.853E+02 -.106E+02 0.132E+03   -.584E+01 0.722E+00 0.167E+00
   -.313E+02 0.737E+02 -.132E+03   0.337E+02 -.794E+02 0.133E+03   -.234E+01 0.543E+01 -.114E+00
   0.482E+02 0.638E+02 -.133E+03   -.519E+02 -.687E+02 0.133E+03   0.357E+01 0.470E+01 -.274E+00
   0.794E+02 -.989E+01 -.132E+03   -.855E+02 0.107E+02 0.133E+03   0.584E+01 -.749E+00 -.138E+00
   0.733E+00 0.702E+00 0.306E+03   -.732E+00 -.701E+00 -.304E+03   0.628E-03 -.275E-03 -.226E+01
   0.138E+01 0.139E+01 0.307E+03   -.138E+01 -.139E+01 -.305E+03   -.888E-03 -.138E-02 -.226E+01
   0.140E+01 0.169E+01 0.103E+03   -.140E+01 -.168E+01 -.103E+03   0.125E-02 0.153E-02 0.127E+00
   0.168E+01 0.135E+01 0.103E+03   -.168E+01 -.135E+01 -.103E+03   -.330E-03 -.442E-03 0.128E+00
   0.174E+01 0.168E+01 -.955E+02   -.174E+01 -.168E+01 0.956E+02   -.444E-03 -.292E-02 -.633E-01
   0.433E+01 0.436E+01 -.921E+02   -.432E+01 -.435E+01 0.922E+02   -.694E-02 -.633E-02 -.547E-01
   0.430E+01 0.449E+01 -.296E+03   -.429E+01 -.449E+01 0.294E+03   -.456E-02 -.266E-02 0.228E+01
   0.444E+01 0.418E+01 -.296E+03   -.444E+01 -.418E+01 0.294E+03   -.141E-02 -.332E-02 0.229E+01
   0.107E+01 0.908E+00 0.307E+03   -.106E+01 -.907E+00 -.304E+03   -.127E-02 -.443E-03 -.226E+01
   0.183E+01 0.164E+00 0.307E+03   -.182E+01 -.164E+00 -.305E+03   -.127E-02 0.311E-03 -.226E+01
   0.204E+01 0.217E+00 0.104E+03   -.203E+01 -.217E+00 -.104E+03   -.495E-03 -.193E-02 0.129E+00
   0.297E+01 0.191E+01 0.106E+03   -.296E+01 -.190E+01 -.106E+03   -.175E-02 -.123E-02 0.126E+00
   0.361E+01 0.241E+01 -.928E+02   -.360E+01 -.240E+01 0.929E+02   -.100E-01 -.425E-02 -.580E-01
   0.795E+01 0.643E+00 -.874E+02   -.789E+01 -.642E+00 0.874E+02   -.656E-01 -.273E-02 -.249E-01
   0.818E+01 0.621E+00 -.292E+03   -.817E+01 -.621E+00 0.291E+03   -.541E-02 -.584E-04 0.229E+01
   0.140E+02 0.812E+01 -.287E+03   -.139E+02 -.811E+01 0.285E+03   -.306E-01 -.156E-01 0.229E+01
   0.872E+00 0.102E+01 0.307E+03   -.870E+00 -.102E+01 -.304E+03   -.129E-02 -.808E-03 -.226E+01
   -.972E-01 0.105E+01 0.306E+03   0.970E-01 -.105E+01 -.304E+03   0.572E-04 0.541E-03 -.226E+01
   0.182E+01 0.297E+01 0.106E+03   -.182E+01 -.296E+01 -.106E+03   -.293E-02 0.180E-03 0.126E+00
   -.121E+00 0.915E+00 0.102E+03   0.121E+00 -.914E+00 -.102E+03   0.252E-04 -.808E-05 0.131E+00
   0.229E+01 0.347E+01 -.929E+02   -.228E+01 -.346E+01 0.929E+02   -.365E-02 -.850E-02 -.573E-01
   -.285E+00 0.238E+01 -.950E+02   0.284E+00 -.238E+01 0.950E+02   -.959E-04 0.601E-03 -.625E-01
   0.765E+01 0.139E+02 -.287E+03   -.763E+01 -.139E+02 0.285E+03   -.147E-01 -.311E-01 0.229E+01
   -.291E+00 0.209E+01 -.297E+03   0.290E+00 -.209E+01 0.296E+03   0.973E-03 -.834E-03 0.229E+01
   0.131E+01 0.136E+01 0.308E+03   -.131E+01 -.136E+01 -.306E+03   -.521E-03 -.104E-02 -.226E+01
   -.126E+00 0.122E+00 0.307E+03   0.125E+00 -.122E+00 -.304E+03   0.114E-03 -.990E-03 -.226E+01
   0.273E+01 0.383E+00 0.109E+03   -.273E+01 -.382E+00 -.109E+03   -.496E-03 -.187E-02 0.935E-01
   -.202E+00 0.121E+01 0.103E+03   0.202E+00 -.121E+01 -.103E+03   0.256E-03 -.155E-03 0.128E+00
   0.590E+01 0.617E+01 -.835E+02   -.588E+01 -.614E+01 0.836E+02   -.275E-01 -.334E-01 -.517E-01
   -.454E+00 0.297E+00 -.933E+02   0.453E+00 -.299E+00 0.934E+02   0.797E-03 0.891E-03 -.606E-01
   0.220E+02 0.309E+01 -.261E+03   -.219E+02 -.308E+01 0.259E+03   -.133E+00 -.106E-01 0.228E+01
   -.689E+00 0.299E+01 -.295E+03   0.688E+00 -.299E+01 0.293E+03   0.641E-03 0.113E-02 0.229E+01
   0.111E+01 -.724E+00 0.307E+03   -.111E+01 0.723E+00 -.305E+03   0.479E-04 0.316E-03 -.226E+01
   0.147E+01 -.140E+01 0.307E+03   -.146E+01 0.140E+01 -.305E+03   -.102E-02 0.489E-03 -.226E+01
   0.153E+01 -.171E+01 0.103E+03   -.152E+01 0.171E+01 -.103E+03   0.112E-02 0.215E-02 0.125E+00
   0.312E+01 -.152E+01 0.106E+03   -.311E+01 0.151E+01 -.106E+03   -.117E-02 0.929E-03 0.118E+00
   0.392E+01 -.192E+01 -.925E+02   -.390E+01 0.192E+01 0.925E+02   -.152E-01 0.356E-02 -.546E-01
   0.492E+01 -.456E+01 -.912E+02   -.492E+01 0.456E+01 0.913E+02   -.640E-02 0.818E-02 -.483E-01
   0.496E+01 -.468E+01 -.295E+03   -.495E+01 0.468E+01 0.293E+03   -.432E-02 0.325E-02 0.229E+01
   0.158E+02 -.685E+01 -.285E+03   -.158E+02 0.685E+01 0.283E+03   -.536E-01 0.105E-01 0.229E+01
   0.768E+00 -.885E+00 0.306E+03   -.766E+00 0.884E+00 -.304E+03   -.775E-03 0.371E-03 -.226E+01
   0.106E+01 -.153E+00 0.306E+03   -.105E+01 0.152E+00 -.304E+03   -.341E-03 0.536E-03 -.226E+01
   0.965E+00 -.191E+00 0.102E+03   -.965E+00 0.191E+00 -.102E+03   0.175E-02 -.163E-02 0.127E+00
   0.181E+01 -.173E+01 0.103E+03   -.181E+01 0.173E+01 -.103E+03   -.376E-03 0.880E-03 0.124E+00
   0.191E+01 -.216E+01 -.953E+02   -.191E+01 0.216E+01 0.953E+02   0.111E-02 0.153E-02 -.617E-01
   0.241E+01 -.436E+00 -.949E+02   -.241E+01 0.435E+00 0.950E+02   0.210E-04 0.139E-03 -.623E-01
   0.218E+01 -.435E+00 -.297E+03   -.218E+01 0.435E+00 0.296E+03   0.226E-02 0.765E-03 0.228E+01
   0.515E+01 -.551E+01 -.295E+03   -.515E+01 0.550E+01 0.293E+03   -.298E-02 0.844E-02 0.228E+01
[...]
   -.327E+01 -.354E+01 0.886E+03   0.327E+01 0.353E+01 -.890E+03   0.549E-02 0.553E-02 0.303E+01
   0.394E+00 -.356E+01 0.891E+03   -.393E+00 0.356E+01 -.895E+03   -.853E-03 0.621E-02 0.302E+01
   -.270E+02 -.112E+02 -.855E+03   0.270E+02 0.112E+02 0.860E+03   0.156E-01 0.380E-03 -.457E+01
   0.333E+01 -.629E+02 -.814E+03   -.333E+01 0.628E+02 0.819E+03   -.992E-03 0.148E+00 -.454E+01
   -.101E+02 -.944E+01 -.278E+03   0.101E+02 0.943E+01 0.277E+03   0.750E-02 0.114E-01 0.288E+00
   0.216E+01 -.186E+02 -.230E+03   -.215E+01 0.184E+02 0.230E+03   -.965E-02 0.116E+00 0.270E-01
   -.402E+01 -.411E+01 0.308E+03   0.402E+01 0.411E+01 -.308E+03   0.596E-02 0.647E-02 -.447E-01
   0.364E+00 -.105E+01 0.311E+03   -.364E+00 0.105E+01 -.311E+03   0.575E-03 0.483E-02 -.362E-01
   -.238E+01 -.391E+00 0.885E+03   0.238E+01 0.391E+00 -.889E+03   0.226E-02 0.658E-03 0.303E+01
   0.270E+00 -.419E+01 0.887E+03   -.270E+00 0.418E+01 -.891E+03   -.133E-03 0.129E-01 0.303E+01
   -.106E+02 -.108E+02 -.868E+03   0.106E+02 0.108E+02 0.873E+03   0.758E-02 0.588E-02 -.457E+01
   0.882E+00 -.371E+01 -.862E+03   -.882E+00 0.372E+01 0.867E+03   -.310E-03 -.575E-02 -.457E+01
   -.527E+01 -.947E+00 -.284E+03   0.527E+01 0.948E+00 0.284E+03   -.745E-03 -.669E-03 0.291E+00
   0.831E+00 -.156E+02 -.271E+03   -.828E+00 0.155E+02 0.270E+03   -.241E-02 0.407E-01 0.302E+00
   0.170E-01 -.280E-01 0.462E+02   -.497E-13 0.989E-12 0.191E-10   -.162E-01 0.712E-02 -.401E+02

 POSITION                                       TOTAL-FORCE (eV/Angst)
      8.04631      7.86755     16.95939        -0.006635     -0.010760      0.014678
      9.42637      7.69537     16.92190         0.002973     -0.007985      0.002078
      9.96959      6.41282     16.96035        -0.001166     -0.003855      0.010340
      9.13265      5.30404     17.04045         0.004751      0.001746     -0.002948
      7.75087      5.47589     17.07895        -0.002378     -0.004114      0.017566
      7.20879      6.75630     17.03739        -0.000403      0.002924     -0.008778
      7.62282      8.86230     16.92520        -0.002006      0.003086      0.003147
     10.07797      8.55433     16.84945         0.002393     -0.000324      0.004625
     11.04344      6.28001     16.92630         0.002697     -0.003054      0.006140
      9.55712      4.30966     17.06263         0.002406     -0.009607      0.006987
      7.09875      4.61491     17.13101        -0.006510     -0.010106      0.006869
      6.13525      6.89192     17.06044        -0.001604     -0.002676      0.010491
      2.10122      0.00000      7.50000         0.001586      0.000762      0.454400
      4.20243      2.10122      7.50000         0.002456      0.002240      0.455993
      2.10122      2.10122      9.60122         0.003624      0.003006      0.014610
      4.20243      0.00000      9.60122         0.000804      0.001903      0.015749
      2.10137      0.00040     11.70864         0.000757     -0.001046     -0.001413
      4.20279      2.10167     11.70816         0.002596      0.001852      0.000209
      2.10186      2.10206     13.78851         0.001514      0.000089      0.001101
      4.20300      0.00065     13.78847         0.002036      0.001756      0.000875
      2.10122      4.20243      7.50000         0.001935      0.001552      0.455680
      4.20243      6.30365      7.50000         0.003904      0.000811      0.459247
      2.10122      6.30365      9.60122         0.009577     -0.001542      0.015206
      4.20243      4.20243      9.60122         0.007976      0.005968      0.016200
      2.10161      4.20277     11.70822         0.001711      0.000868     -0.000182
      4.20449      6.30414     11.70801         0.003594     -0.001932      0.001659
      2.10200      6.30424     13.78792         0.001425     -0.000099      0.002555
      4.20448      4.20425     13.78615         0.002538      0.000485     -0.000235
      6.30365      0.00000      7.50000         0.000413      0.002248      0.454268
      0.00000      2.10122      7.50000        -0.000180      0.001897      0.454198
      6.30365      2.10122      9.60122         0.002692      0.010356      0.017089
      0.00000      0.00000      9.60122         0.000278      0.000663      0.015813
      6.30385      0.00040     11.70804         0.000164      0.001577      0.001902
      0.00016      2.10146     11.70849        -0.001267      0.000705     -0.001325
      6.30517      2.10320     13.78559         0.002035      0.000429      0.000175
      0.00024      0.00077     13.78887         0.000046     -0.000949      0.001074
      6.30365      4.20243      7.50000         0.002976      0.002952      0.459551
      0.00000      6.30365      7.50000        -0.000306     -0.000524      0.453545
      6.30365      6.30365      9.60122        -0.002816     -0.000244      0.021710
      0.00000      4.20243      9.60122        -0.000268      0.000601      0.014743
      6.30528      4.20456     11.70798         0.001389      0.001413      0.003616
      0.00006      6.30371     11.70839        -0.000477     -0.000409      0.000212
      6.31298      6.30581     13.79116         0.001946     -0.000505     -0.000834
      0.00017      4.20292     13.78839        -0.000470      0.001419      0.001100
      2.10122      8.40486      7.50000         0.003219     -0.001060      0.454425
      4.20243     10.50608      7.50000         0.002798     -0.002960      0.456036
      2.10122     10.50608      9.60122         0.002772      0.001654      0.013999
      4.20243      8.40486      9.60122         0.008777     -0.004660      0.016966
      2.10137      8.40486     11.70769         0.000495      0.001133      0.000049
      4.20239     10.50620     11.70731         0.000179      0.000324      0.000514
      2.10131     10.50619     13.78814         0.001946     -0.000440      0.000292
      4.20378      8.40495     13.78355         0.001319     -0.000482      0.000530
      2.10122     12.60729      7.50000         0.000522     -0.000979      0.455852
      4.20243     14.70851      7.50000         0.000926      0.000125      0.455617
      2.10122     14.70851      9.60122         0.002023     -0.001360      0.015454
      4.20243     12.60729      9.60122         0.000767     -0.000825      0.013288
      2.10108     12.60765     11.70851         0.002008     -0.000765     -0.001643
      4.20241     14.70876     11.70845         0.000663     -0.000590     -0.001280
      2.10138     14.70897     13.78884        -0.000256      0.000960      0.000062
      4.20274     12.60743     13.78826         0.000203     -0.001879     -0.000909
[...]
      8.40486     10.50608      9.60122        -0.001084      0.014383      0.017451
     14.70851     10.50608      7.50000         0.001780      0.001813     -0.503716
      8.40486      8.40486      7.50000        -0.000295      0.002061     -0.511952
     14.70840      8.40530     13.83431         0.001048      0.000002      0.001623
      8.40498     10.50561     13.84001        -0.000115      0.002134      0.001699
     14.70909     10.50648     11.70201        -0.000222      0.001303      0.001754
      8.40461      8.40968     11.70045        -0.000186      0.002561     -0.000870
     14.70851     12.60729      9.60122         0.002516      0.002114      0.031995
      8.40486     14.70851      9.60122         0.000136      0.002396      0.034221
     14.70851     14.70851      7.50000         0.000729      0.000279     -0.503754
      8.40486     12.60729      7.50000        -0.000055      0.004299     -0.504734
     14.70893     12.60783     13.83469         0.000119      0.000946     -0.000209
      8.40510     14.70893     13.83487        -0.000503     -0.002659      0.000224
     14.70887     14.70894     11.70211        -0.001349     -0.000050      0.003892
      8.40484     12.60715     11.70256        -0.000116      0.001236      0.000234
    total drift:                                0.004503     -0.012351      0.004252

  FREE ENERGIE OF THE ION-ELECTRON SYSTEM (eV)
  free  energy   TOTEN  =     -1841.56005539 eV

  energy  without entropy=    -1841.56005539  energy(sigma->0) =    -1841.56005539

 d Force = 0.4680379E-04[ 0.408E-04, 0.529E-04]  d Energy = 0.4919930E-04-0.240E-05
 d Force = 0.2133104E+01[ 0.213E+01, 0.213E+01]  d Ewald  = 0.2133105E+01-0.486E-06

 Conjugate gradient step on ions:
 trial-energy change:   -0.000049  1 .order   -0.000047   -0.000053   -0.000041
  (g-gl).g = 0.170E-03      g.g   = 0.222E-03  gl.gl    = 0.326E-03
 g(Force)  = 0.222E-03   g(Stress)= 0.000E+00 ortho     =-0.323E-04
 gamma     =   0.52159
 trial     =   0.25734
 opt step  =   1.02935  (harmonic =   1.12423) maximal distance =0.00165391
 next E    = -1841.560122   (d E  =  -0.00012)

 reached required accuracy - stopping structural energy minimisation