 vasp.6.3.0 20Jan22 (build Mar 11 2022 13:48:16) complex

 executed on             LinuxIFC date 2023.12.26  17:35:43

 INCAR:
   SYSTEM = MgO-rocksalt
   ISMEAR = 0
   SIGMA = 0.05
   EDIFF = 1E-5
   ALGO = ALL
   ISTART = 0
   IBRION = -1
   NSW = 0
   ISYM = 2
   ISIF = 2
   DIPOL = 0.5 0.5 0.5
   IDIPOL = 3
   LDIPOL = .TRUE.
   GGA = MK
   LUSE_VDW = .TRUE.
   PARAM1 = 0.1234
   PARAM2 = 0.711357
   ZAB_VDW = -1.8867
   AGGAC = 0.0
   ENCUT = 600
   PREC = Accurate
   LASPH = .TRUE.
   LREAL = .FALSE.
   ISPIN = 1
   NELM = 200
   NELMIN = 8
   NCORE = 2
   KPAR = 1
   LWAVE = .FALSE.
   LCHARG = .FALSE.

 POTCAR:    PAW_PBE C 08Apr2002
 POTCAR:    PAW_PBE O 08Apr2002
 POTCAR:    PAW_PBE Mg_pv 13Apr2007
 POTCAR:    PAW_PBE O 08Apr2002
|           W    W    AA    RRRRR   N    N  II  N    N   GGGG   !!!           |
|           W    W   A  A   R    R  NN   N  II  NN   N  G    G  !!!           |
|           W    W  A    A  R    R  N N  N  II  N N  N  G       !!!           |
|           W WW W  AAAAAA  RRRRR   N  N N  II  N  N N  G  GGG   !            |
|           WW  WW  A    A  R   R   N   NN  II  N   NN  G    G                |
|           W    W  A    A  R    R  N    N  II  N    N   GGGG   !!!           |
|     For optimal performance we recommend to set                             |
|       NCORE = 2 up to number-of-cores-per-socket                            |
|     This setting can greatly improve the performance of VASP for DFT.       |
|     The default, NCORE=1 might be grossly inefficient on modern             |
|     multi-core architectures or massively parallel machines. Do your        |
|     Unfortunately you need to use the default for GW and RPA                |
|     calculations (for HF NCORE is supported but not extensively tested      |
|     yet).                                                                   |

   TITEL  = PAW_PBE C 08Apr2002
   POMASS =   12.011; ZVAL   =    4.000    mass and valenz
   ENMAX  =  400.000; ENMIN  =  300.000 eV

[...]

   TITEL  = PAW_PBE Mg_pv 13Apr2007
   POMASS =   24.305; ZVAL   =    8.000    mass and valenz
   ENMAX  =  403.929; ENMIN  =  302.947 eV

   TITEL  = PAW_PBE O 08Apr2002
   POMASS =   16.000; ZVAL   =    6.000    mass and valenz
   ENMAX  =  400.000; ENMIN  =  300.000 eV

  PAW_PBE C 08Apr2002                   :
  PAW_PBE O 08Apr2002                   :
  PAW_PBE Mg_pv 13Apr2007               :
  PAW_PBE O 08Apr2002                   :

 POSCAR:  C  O Mg  O
  positions in direct lattice
 exchange correlation table for  LEXCH =       43
   RHO(1)=    0.500       N(1)  =     2000
   RHO(2)=  100.500       N(2)  =     4000

 ion  position               nearest neighbor table
   1  0.500  0.500  0.769-   2 1.14
   2  0.500  0.500  0.822-   1 1.14
   3  0.000  0.750  0.350-  35 2.14  37 2.14  38 2.14  45 2.14  54 2.14
   4  0.250  0.000  0.350-  36 2.14  37 2.14  38 2.14  46 2.14  53 2.14
   5  0.000  0.000  0.450-  37 2.14  36 2.14  35 2.14  43 2.14  52 2.14  41 2.14
   6  0.250  0.750  0.450-  38 2.14  36 2.14  35 2.14  44 2.14  51 2.14  42 2.14
   7  0.000  0.750  0.550-  49 2.14  42 2.14  58 2.14  41 2.14  35 2.14  39 2.17
   8  0.250  0.000  0.550-  57 2.14  50 2.14  42 2.14  41 2.14  36 2.14  40 2.17
   9  0.000  0.000  0.650-  41 2.13  40 2.13  39 2.13  47 2.13  56 2.13
  10  0.250  0.750  0.649-  42 2.12  40 2.13  39 2.13  48 2.14  55 2.14
  11  0.000  0.250  0.350-  43 2.14  37 2.14  45 2.14  46 2.14  62 2.14
  12  0.250  0.500  0.350-  44 2.14  38 2.14  45 2.14  46 2.14  61 2.14
  13  0.000  0.500  0.450-  45 2.14  43 2.14  44 2.14  35 2.14  60 2.14  49 2.14
  14  0.250  0.250  0.450-  46 2.14  43 2.14  44 2.14  36 2.14  59 2.14  50 2.14
  15  0.000  0.250  0.550-  49 2.14  50 2.14  66 2.14  41 2.14  43 2.14  47 2.17
  16  0.251  0.500  0.551-  65 2.13  50 2.14  42 2.14  49 2.14  44 2.15  48 2.16
  17  0.000  0.500  0.649-  48 2.13  64 2.13  49 2.13  47 2.14  39 2.14
  18  0.250  0.250  0.649-  50 2.12  47 2.13  40 2.13  48 2.14  63 2.14
  19  0.500  0.750  0.350-  51 2.14  38 2.14  53 2.14  54 2.14  61 2.14
  20  0.750  0.000  0.350-  52 2.14  37 2.14  53 2.14  54 2.14  62 2.14
  21  0.500  0.000  0.450-  53 2.14  51 2.14  52 2.14  36 2.14  59 2.14  57 2.14
  22  0.750  0.750  0.450-  54 2.14  51 2.14  52 2.14  35 2.14  60 2.14  58 2.14
  23  0.500  0.749  0.551-  65 2.13  58 2.14  42 2.14  57 2.14  51 2.15  55 2.16
  24  0.750  0.000  0.550-  57 2.14  58 2.14  66 2.14  41 2.14  52 2.14  56 2.17
  25  0.500  0.000  0.649-  55 2.13  63 2.13  57 2.13  40 2.14  56 2.14
  26  0.750  0.750  0.649-  58 2.12  56 2.13  39 2.13  55 2.14  64 2.14
  27  0.500  0.250  0.350-  59 2.14  53 2.14  46 2.14  61 2.14  62 2.14
  28  0.750  0.500  0.350-  60 2.14  54 2.14  45 2.14  61 2.14  62 2.14
  29  0.500  0.500  0.450-  61 2.14  51 2.14  59 2.14  60 2.14  44 2.14  65 2.15
  30  0.750  0.250  0.450-  62 2.14  52 2.14  59 2.14  60 2.14  43 2.14  66 2.14
  31  0.500  0.251  0.551-  65 2.13  50 2.14  66 2.14  57 2.14  59 2.15  63 2.16
  32  0.749  0.500  0.551-  65 2.13  58 2.14  66 2.14  49 2.14  60 2.15  64 2.16
  33  0.500  0.500  0.652-  48 2.15  55 2.15  63 2.15  64 2.15  65 2.18
  34  0.750  0.250  0.649-  66 2.12  56 2.13  47 2.13  64 2.14  63 2.14
  35  0.000  0.750  0.450-   3 2.14   5 2.14   6 2.14  13 2.14  22 2.14   7 2.14
  36  0.250  0.000  0.450-   4 2.14   5 2.14   6 2.14  14 2.14  21 2.14   8 2.14
  37  0.000  0.000  0.350-   5 2.14   4 2.14   3 2.14  11 2.14  20 2.14
  38  0.250  0.750  0.350-   6 2.14   4 2.14   3 2.14  12 2.14  19 2.14
  39  0.000  0.750  0.651-  10 2.13  26 2.13   9 2.13  17 2.14   7 2.17
  40  0.250  0.000  0.651-  10 2.13  18 2.13   9 2.13  25 2.14   8 2.17
  41  0.000  0.000  0.550-   9 2.13   8 2.14   7 2.14  15 2.14  24 2.14   5 2.14
  42  0.250  0.750  0.550-  10 2.12   8 2.14   7 2.14  16 2.14  23 2.14   6 2.14
  43  0.000  0.250  0.450-  11 2.14   5 2.14  13 2.14  14 2.14  30 2.14  15 2.14
  44  0.250  0.500  0.450-  12 2.14   6 2.14  13 2.14  14 2.14  29 2.14  16 2.15
  45  0.000  0.500  0.350-  13 2.14  11 2.14  12 2.14   3 2.14  28 2.14
  46  0.250  0.250  0.350-  14 2.14  11 2.14  12 2.14   4 2.14  27 2.14
  47  0.000  0.250  0.651-  18 2.13  34 2.13   9 2.13  17 2.14  15 2.17
  48  0.249  0.500  0.651-  17 2.13  10 2.14  18 2.14  33 2.15  16 2.16
  49  0.000  0.500  0.550-  17 2.13  15 2.14   7 2.14  13 2.14  16 2.14  32 2.14
  50  0.250  0.250  0.550-  18 2.12  15 2.14   8 2.14  16 2.14  31 2.14  14 2.14
  51  0.500  0.750  0.450-  19 2.14   6 2.14  21 2.14  22 2.14  29 2.14  23 2.15
  52  0.750  0.000  0.450-  20 2.14   5 2.14  21 2.14  22 2.14  30 2.14  24 2.14
  53  0.500  0.000  0.350-  21 2.14  19 2.14  20 2.14   4 2.14  27 2.14
  54  0.750  0.750  0.350-  22 2.14  19 2.14  20 2.14   3 2.14  28 2.14
  55  0.500  0.751  0.651-  25 2.13  10 2.14  26 2.14  33 2.15  23 2.16
  56  0.750  0.000  0.651-  26 2.13  34 2.13   9 2.13  25 2.14  24 2.17
  57  0.500  0.000  0.550-  25 2.13  24 2.14   8 2.14  21 2.14  23 2.14  31 2.14
  58  0.750  0.750  0.550-  26 2.12  24 2.14   7 2.14  23 2.14  32 2.14  22 2.14
  59  0.500  0.250  0.450-  27 2.14  21 2.14  14 2.14  29 2.14  30 2.14  31 2.15
  60  0.750  0.500  0.450-  28 2.14  22 2.14  13 2.14  29 2.14  30 2.14  32 2.15
  61  0.500  0.500  0.350-  29 2.14  19 2.14  27 2.14  28 2.14  12 2.14
  62  0.750  0.250  0.350-  30 2.14  20 2.14  27 2.14  28 2.14  11 2.14
  63  0.500  0.249  0.651-  25 2.13  18 2.14  34 2.14  33 2.15  31 2.16
  64  0.751  0.500  0.651-  17 2.13  26 2.14  34 2.14  33 2.15  32 2.16
  65  0.500  0.500  0.551-  16 2.13  23 2.13  31 2.13  32 2.13  29 2.15  33 2.18
  66  0.750  0.250  0.550-  34 2.12  24 2.14  15 2.14  32 2.14  31 2.14  30 2.14

  LATTYP: Found a simple tetragonal cell.
 ALAT       =     8.5461136257
 C/A-ratio  =     2.5051837779

  Lattice vectors:

 A1 = (   8.5461136257,   0.0000000000,   0.0000000000)
 A2 = (   0.0000000000,   8.5461136257,   0.0000000000)
 A3 = (   0.0000000000,   0.0000000000,  21.4095852193)

Analysis of symmetry for initial positions (statically):
 Subroutine PRICEL returns:
 Original cell was already a primitive cell.

 Routine SETGRP: Setting up the symmetry group for a
 simple tetragonal supercell.

 Subroutine GETGRP returns: Found  8 space group operations
 (whereof  8 operations were pure point group operations)
 out of a pool of 16 trial point group operations.

The static configuration has the point symmetry C_4v.

Analysis of symmetry for dynamics (positions and initial velocities):
 Subroutine PRICEL returns:
 Original cell was already a primitive cell.

[...]

The dynamic configuration has the point symmetry C_4v.

Analysis of constrained symmetry for selective dynamics:
 Subroutine PRICEL returns:
 Original cell was already a primitive cell.

 Routine SETGRP: Setting up the symmetry group for a
 simple tetragonal supercell.

 Subroutine GETGRP returns: Found  8 space group operations
 (whereof  8 operations were pure point group operations)
 out of a pool of 16 trial point group operations.

The constrained configuration has the point symmetry C_4v.

 Subroutine INISYM returns: Found  8 space group operations
 (whereof  8 operations are pure point group operations),
 and found     1 'primitive' translations

                                     Primitive cell

  volume of cell :    1563.6717

  direct lattice vectors                    reciprocal lattice vectors
     8.546113626  0.000000000  0.000000000     0.117012252  0.000000000  0.000000000
     0.000000000  8.546113626  0.000000000     0.000000000  0.117012252  0.000000000
     0.000000000  0.000000000 21.409585219     0.000000000  0.000000000  0.046708051

  length of vectors
     8.546113626  8.546113626 21.409585219     0.117012252  0.117012252  0.046708051

  position of ions in fractional coordinates (direct lattice)
     0.500000000  0.500000000  0.768736416
     0.500000000  0.500000000  0.822210893
     0.000000000  0.750000000  0.350310383
     0.250000000  0.000000000  0.350310383
     0.000000000  0.000000000  0.450103461
     0.250000000  0.750000000  0.450103461
     0.000000000  0.749911102  0.550256625
     0.250088898  0.000000000  0.550256625
     0.000000000  0.000000000  0.649548573
     0.249625761  0.750374239  0.649258508
     0.000000000  0.250000000  0.350310383
     0.250000000  0.500000000  0.350310383
     0.000000000  0.500000000  0.450103461
     0.250000000  0.250000000  0.450103461
     0.000000000  0.250088898  0.550256625
     0.250518455  0.500000000  0.550555343
     0.000000000  0.500000000  0.649424303
     0.249625761  0.249625761  0.649258508
     0.500000000  0.750000000  0.350310383
     0.750000000  0.000000000  0.350310383
     0.500000000  0.000000000  0.450103461
     0.750000000  0.750000000  0.450103461
     0.500000000  0.749481545  0.550555343
     0.749911102  0.000000000  0.550256625
     0.500000000  0.000000000  0.649424303
     0.750374239  0.750374239  0.649258508
     0.500000000  0.250000000  0.350310383
     0.750000000  0.500000000  0.350310383
     0.500000000  0.500000000  0.450103461
     0.750000000  0.250000000  0.450103461
     0.500000000  0.250518455  0.550555343
     0.749481545  0.500000000  0.550555343
[...]
   0.00000000  6.40958522  7.50000000
   2.13652841  0.00000000  7.50000000
   0.00000000  0.00000000  9.63652841
   2.13652841  6.40958522  9.63652841
   0.00000000  6.40882549 11.78076611
   2.13728814  0.00000000 11.78076611
   0.00000000  0.00000000 13.90656552
   2.13333012  6.41278351 13.90035536
   0.00000000  2.13652841  7.50000000
   2.13652841  4.27305681  7.50000000
   0.00000000  4.27305681  9.63652841
   2.13652841  2.13652841  9.63652841
   0.00000000  2.13728814 11.78076611
   2.14095919  4.27305681 11.78716154
   0.00000000  4.27305681 13.90390495
   2.13333012  2.13333012 13.90035536
   4.27305681  6.40958522  7.50000000
   6.40958522  0.00000000  7.50000000
   4.27305681  0.00000000  9.63652841
   6.40958522  6.40958522  9.63652841
   4.27305681  6.40515444 11.78716154
   6.40882549  0.00000000 11.78076611
   4.27305681  0.00000000 13.90390495
   6.41278351  6.41278351 13.90035536
   4.27305681  2.13652841  7.50000000
   6.40958522  4.27305681  7.50000000
   4.27305681  4.27305681  9.63652841
   6.40958522  2.13652841  9.63652841
   4.27305681  2.14095919 11.78716154
   6.40515444  4.27305681 11.78716154
   4.27305681  4.27305681 13.96307000
   6.41278351  2.13333012 13.90035536
   0.00000000  6.40958522  9.63652841
   2.13652841  0.00000000  9.63652841
   0.00000000  0.00000000  7.50000000
   2.13652841  6.40958522  7.50000000
   0.00000000  6.41214658 13.94722536
   2.13396704  0.00000000 13.94722536
   0.00000000  0.00000000 11.77644312
   2.13602859  6.41008504 11.77751844
   0.00000000  2.13652841  9.63652841
   2.13652841  4.27305681  9.63652841
   0.00000000  4.27305681  7.50000000
   2.13652841  2.13652841  7.50000000
   0.00000000  2.13396704 13.94722536
   2.12578960  4.27305681 13.94774509
   0.00000000  4.27305681 11.77612271
   2.13602859  2.13602859 11.77751844
   4.27305681  6.40958522  9.63652841
   6.40958522  0.00000000  9.63652841
   4.27305681  0.00000000  7.50000000
   6.40958522  6.40958522  7.50000000
   4.27305681  6.42032403 13.94774509
   6.41214658  0.00000000 13.94722536
   4.27305681  0.00000000 11.77612271
   6.41008504  6.41008504 11.77751844
   4.27305681  2.13652841  9.63652841
   6.40958522  4.27305681  9.63652841
   4.27305681  4.27305681  7.50000000
   6.40958522  2.13652841  7.50000000
   4.27305681  2.12578960 13.94774509
   6.42032403  4.27305681 13.94774509
   4.27305681  4.27305681 11.78744215
   6.41008504  2.13602859 11.77751844

--------------------------------------- Iteration      FINAL  ---------------------------------------

--------------------OUTCAR has been truncated-------------------------

[...]

--------------------OUTCAR has been truncated-------------------------

  FORCE on cell =-STRESS in cart. coord.  units (eV):
  Direction    XX          YY          ZZ          XY          YZ          ZX
  Alpha Z   882.50101   882.50101   882.50101
  Ewald  152672.62194152672.62194************    -0.00000    -0.00000     0.00000
  Hartree163119.95789163119.95789************    -0.00000    -0.00000    -0.00000
  E(xc)   -2495.32278 -2495.32278 -2494.31205    -0.00000     0.00000     0.00000
  Local  ************************325022.59098    -0.00000    -0.00000    -0.00000
  n-local -2852.59989 -2853.48621 -2882.03206     0.00001     0.00001     0.00001
  augment  1058.48204  1058.48204  1048.91438     0.00000     0.00000    -0.00000
  Kinetic  7473.17020  7475.95364  7497.73669    -0.00001     0.00002    -0.00002
  Fock        0.00000     0.00000     0.00000     0.00000     0.00000     0.00000
  Total     -50.53152   -50.53152   -19.05242     0.00000     0.00000     0.00000
  in kB     -51.77587   -51.77587   -19.52159     0.00000     0.00000     0.00000

 VOLUME and BASIS-vectors are now :
  energy-cutoff  :      600.00
  volume of cell :     1563.67
      direct lattice vectors                 reciprocal lattice vectors
     8.546113626  0.000000000  0.000000000     0.117012252  0.000000000  0.000000000
     0.000000000  8.546113626  0.000000000     0.000000000  0.117012252  0.000000000
     0.000000000  0.000000000 21.409585219     0.000000000  0.000000000  0.046708051

  length of vectors
     8.546113626  8.546113626 21.409585219     0.117012252  0.117012252  0.046708051

 FORCES acting on ions:
    Electron-Ion                     Ewald-Force                    Non-Local-Force
   0.935E-13 0.134E-11 -.794E+03   0.222E-15 0.124E-13 0.767E+03   0.135E-22 0.667E-22 0.270E+02
   0.392E-12 0.399E-12 -.139E+04   -.799E-14 -.444E-15 0.145E+04   0.586E-22 -.712E-23 -.605E+02
   -.448E-13 -.707E-01 0.202E+04   0.671E-13 0.686E-01 -.201E+04   -.665E-22 0.148E-02 -.673E+01
   0.707E-01 -.525E-12 0.202E+04   -.686E-01 0.306E-13 -.201E+04   -.148E-02 -.255E-22 -.673E+01
   -.407E-13 0.211E-12 0.693E+03   0.284E-13 0.817E-13 -.694E+03   0.196E-22 -.112E-21 0.435E+00
   0.172E+00 -.172E+00 0.694E+03   -.151E+00 0.151E+00 -.694E+03   -.145E-01 0.145E-01 0.465E+00
   -.452E-13 -.236E+01 -.622E+03   -.160E-13 0.234E+01 0.622E+03   -.148E-21 0.219E-01 -.189E+00
   0.236E+01 0.515E-12 -.622E+03   -.234E+01 -.711E-14 0.622E+03   -.219E-01 0.158E-21 -.189E+00
   -.351E-13 0.599E-13 -.195E+04   0.124E-12 0.121E-12 0.194E+04   -.140E-21 0.828E-24 0.593E+01
   0.164E+02 -.164E+02 -.193E+04   -.165E+02 0.165E+02 0.192E+04   0.121E+00 -.121E+00 0.599E+01
   -.400E-13 0.707E-01 0.202E+04   0.595E-13 -.686E-01 -.201E+04   0.170E-21 -.148E-02 -.673E+01
   0.693E-01 0.532E-13 0.202E+04   -.646E-01 0.338E-13 -.201E+04   -.352E-02 0.295E-22 -.674E+01
   -.550E-13 0.788E-12 0.694E+03   -.146E-11 -.147E-11 -.694E+03   -.742E-22 0.284E-22 0.405E+00
   0.172E+00 0.172E+00 0.694E+03   -.151E+00 -.151E+00 -.694E+03   -.145E-01 -.145E-01 0.465E+00
   -.509E-13 0.236E+01 -.622E+03   -.139E-11 -.234E+01 0.622E+03   -.209E-21 -.219E-01 -.189E+00
   0.344E+01 0.313E-12 -.617E+03   -.331E+01 0.147E-10 0.618E+03   -.127E+00 -.583E-22 -.339E+00
   -.134E-13 0.831E-12 -.194E+04   -.959E-13 -.320E-13 0.193E+04   -.508E-22 -.357E-22 0.592E+01
   0.164E+02 0.164E+02 -.193E+04   -.165E+02 -.165E+02 0.192E+04   0.121E+00 0.121E+00 0.599E+01
   0.684E-12 -.693E-01 0.202E+04   0.222E-14 0.646E-01 -.201E+04   0.737E-22 0.352E-02 -.674E+01
   -.707E-01 -.539E-12 0.202E+04   0.686E-01 0.213E-13 -.201E+04   0.148E-02 -.796E-22 -.673E+01
   0.614E-12 -.838E-12 0.694E+03   0.300E-11 0.355E-14 -.694E+03   -.384E-22 -.254E-22 0.405E+00
   -.172E+00 -.172E+00 0.694E+03   0.151E+00 0.151E+00 -.694E+03   0.145E-01 0.145E-01 0.465E+00
   0.594E-12 -.344E+01 -.617E+03   -.162E-10 0.331E+01 0.618E+03   0.104E-21 0.127E+00 -.339E+00
   -.236E+01 0.579E-12 -.622E+03   0.234E+01 0.284E-13 0.622E+03   0.219E-01 -.882E-22 -.189E+00
   0.655E-12 0.732E-13 -.194E+04   -.107E-12 0.639E-13 0.193E+04   -.875E-23 -.388E-22 0.592E+01
   -.164E+02 -.164E+02 -.193E+04   0.165E+02 0.165E+02 0.192E+04   -.121E+00 -.121E+00 0.599E+01
   0.688E-12 0.693E-01 0.202E+04   0.409E-13 -.646E-01 -.201E+04   -.605E-22 -.352E-02 -.674E+01
   -.693E-01 -.182E-11 0.202E+04   0.646E-01 0.124E-13 -.201E+04   0.352E-02 0.623E-22 -.674E+01
   0.652E-12 0.154E-11 0.694E+03   0.148E-11 -.139E-11 -.694E+03   -.347E-22 0.528E-22 0.532E+00
   -.172E+00 0.172E+00 0.694E+03   0.151E+00 -.151E+00 -.694E+03   0.145E-01 -.145E-01 0.465E+00
   0.598E-12 0.344E+01 -.617E+03   -.148E-10 -.331E+01 0.618E+03   -.246E-22 -.127E+00 -.339E+00
   -.344E+01 0.644E-11 -.617E+03   0.331E+01 0.148E-10 0.618E+03   0.127E+00 -.170E-21 -.339E+00
   0.665E-12 -.532E-12 -.187E+04   -.586E-12 0.394E-12 0.186E+04   0.814E-22 0.507E-22 0.426E+01
   -.164E+02 0.164E+02 -.193E+04   0.165E+02 -.165E+02 0.192E+04   -.121E+00 0.121E+00 0.599E+01
   -.196E-13 -.214E+00 0.520E+03   -.231E-13 0.206E+00 -.520E+03   -.424E-22 0.116E-01 -.545E-01
   0.214E+00 -.228E-12 0.520E+03   -.206E+00 -.231E-13 -.520E+03   -.116E-01 -.111E-21 -.545E-01
   -.263E-14 -.126E-11 0.151E+04   -.226E-13 -.711E-14 -.152E+04   -.202E-21 0.424E-22 0.363E+01
   0.510E-01 -.510E-01 0.151E+04   -.473E-01 0.473E-01 -.152E+04   -.499E-02 0.499E-02 0.362E+01
   -.200E-13 -.659E+01 -.148E+04   0.133E-13 0.651E+01 0.148E+04   -.204E-21 0.826E-01 -.494E+01
   0.659E+01 0.865E-12 -.148E+04   -.651E+01 -.124E-13 0.148E+04   -.826E-01 0.399E-22 -.494E+01
   -.383E-13 -.471E-12 -.464E+03   0.814E-11 -.810E-11 0.464E+03   -.111E-22 0.723E-23 0.235E+00
   0.205E+01 -.205E+01 -.459E+03   -.203E+01 0.203E+01 0.458E+03   -.172E-01 0.172E-01 0.376E+00
   -.243E-13 0.214E+00 0.520E+03   -.568E-13 -.206E+00 -.520E+03   -.129E-21 -.116E-01 -.545E-01
   0.218E+00 -.143E-12 0.520E+03   -.242E+00 -.373E-13 -.520E+03   0.315E-01 -.131E-21 -.119E+00
   -.738E-14 -.825E-12 0.151E+04   -.977E-14 -.426E-13 -.152E+04   0.108E-21 -.140E-22 0.362E+01
   0.510E-01 0.510E-01 0.151E+04   -.473E-01 -.473E-01 -.152E+04   -.499E-02 -.499E-02 0.362E+01
   -.327E-13 0.659E+01 -.148E+04   0.711E-14 -.651E+01 0.148E+04   0.334E-21 -.826E-01 -.494E+01
   0.218E+02 0.160E-11 -.145E+04   -.215E+02 -.797E-11 0.145E+04   -.309E+00 -.105E-22 -.489E+01
   -.366E-13 -.948E-13 -.459E+03   0.905E-11 0.426E-13 0.459E+03   0.606E-22 0.247E-23 0.297E+00
   0.205E+01 0.205E+01 -.459E+03   -.203E+01 -.203E+01 0.458E+03   -.172E-01 -.172E-01 0.376E+00
   0.288E-12 -.218E+00 0.520E+03   0.754E-12 0.242E+00 -.520E+03   -.113E-21 -.315E-01 -.119E+00
   -.214E+00 -.213E-12 0.520E+03   0.206E+00 -.497E-13 -.520E+03   0.116E-01 0.129E-22 -.545E-01
   0.327E-12 0.931E-13 0.151E+04   -.711E-14 -.377E-13 -.152E+04   0.123E-23 0.139E-21 0.362E+01
   -.510E-01 -.510E-01 0.151E+04   0.473E-01 0.473E-01 -.152E+04   0.499E-02 0.499E-02 0.362E+01
   0.308E-12 -.218E+02 -.145E+04   0.798E-11 0.215E+02 0.145E+04   0.320E-22 0.309E+00 -.489E+01
   -.659E+01 0.104E-11 -.148E+04   0.651E+01 -.249E-13 0.148E+04   0.826E-01 -.172E-21 -.494E+01
   0.280E-12 0.120E-11 -.459E+03   -.895E-12 -.816E-11 0.459E+03   0.618E-24 0.547E-22 0.297E+00
   -.205E+01 -.205E+01 -.459E+03   0.203E+01 0.203E+01 0.458E+03   0.172E-01 0.172E-01 0.376E+00
   0.280E-12 0.218E+00 0.520E+03   0.739E-12 -.242E+00 -.520E+03   -.773E-22 0.315E-01 -.119E+00
   -.218E+00 0.142E-11 0.520E+03   0.242E+00 -.860E-12 -.520E+03   -.315E-01 0.842E-22 -.119E+00
   0.305E-12 0.585E-12 0.151E+04   -.315E-13 -.266E-13 -.152E+04   -.564E-22 0.258E-22 0.362E+01
   -.510E-01 0.510E-01 0.151E+04   0.473E-01 -.473E-01 -.152E+04   0.499E-02 -.499E-02 0.362E+01
   0.314E-12 0.218E+02 -.145E+04   0.797E-11 -.215E+02 0.145E+04   0.237E-22 -.309E+00 -.489E+01
   -.218E+02 0.453E-11 -.145E+04   0.215E+02 -.797E-11 0.145E+04   0.309E+00 0.158E-23 -.489E+01
   0.268E-12 0.253E-11 -.462E+03   0.121E-12 0.355E-13 0.462E+03   0.304E-22 0.132E-22 -.334E+00
   -.205E+01 0.205E+01 -.459E+03   0.203E+01 -.203E+01 0.458E+03   0.172E-01 -.172E-01 0.376E+00
   0.273E-10 0.332E-10 0.489E+02   -.330E-12 -.746E-13 -.500E-11   0.555E-16 -.590E-16 -.489E+02

 POSITION                                       TOTAL-FORCE (eV/Angst)
      4.27306      4.27306     16.45833        -0.000000     -0.000000      0.264879
      4.27306      4.27306     17.60319        -0.000000     -0.000000     -0.397810
      0.00000      6.40959      7.50000        -0.000000     -0.000647      0.479658
      2.13653      0.00000      7.50000         0.000647     -0.000000      0.479658
      0.00000      0.00000      9.63653        -0.000000     -0.000000      0.015448
      2.13653      6.40959      9.63653         0.006327     -0.006327      0.018804
      0.00000      6.40883     11.78077        -0.000000     -0.000222      0.000661
      2.13729      0.00000     11.78077         0.000222     -0.000000      0.000661
      0.00000      0.00000     13.90657        -0.000000     -0.000000     -0.175790
      2.13333      6.41278     13.90036         0.003256     -0.003256     -0.161733
      0.00000      2.13653      7.50000        -0.000000      0.000647      0.479658
      2.13653      4.27306      7.50000         0.001178     -0.000000      0.482107
      0.00000      4.27306      9.63653        -0.000000     -0.000000      0.029876
      2.13653      2.13653      9.63653         0.006327      0.006327      0.018804
      0.00000      2.13729     11.78077        -0.000000      0.000222      0.000661
      2.14096      4.27306     11.78716         0.001046     -0.000000     -0.004213
      0.00000      4.27306     13.90390        -0.000000     -0.000000     -0.167906
      2.13333      2.13333     13.90036         0.003256      0.003256     -0.161733
      4.27306      6.40959      7.50000        -0.000000     -0.001178      0.482107
      6.40959      0.00000      7.50000        -0.000647     -0.000000      0.479658
      4.27306      0.00000      9.63653        -0.000000     -0.000000      0.029876
      6.40959      6.40959      9.63653        -0.006327     -0.006327      0.018804
      4.27306      6.40515     11.78716        -0.000000     -0.001046     -0.004213
      6.40883      0.00000     11.78077        -0.000222     -0.000000      0.000661
      4.27306      0.00000     13.90390        -0.000000     -0.000000     -0.167906
      6.41278      6.41278     13.90036        -0.003256     -0.003256     -0.161733
      4.27306      2.13653      7.50000        -0.000000      0.001178      0.482107
      6.40959      4.27306      7.50000        -0.001178     -0.000000      0.482107
      4.27306      4.27306      9.63653        -0.000000     -0.000000      0.036259
      6.40959      2.13653      9.63653        -0.006327      0.006327      0.018804
      4.27306      2.14096     11.78716        -0.000000      0.001046     -0.004213
      6.40515      4.27306     11.78716        -0.001046     -0.000000     -0.004213
      4.27306      4.27306     13.96307        -0.000000     -0.000000     -0.096865
      6.41278      2.13333     13.90036        -0.003256      0.003256     -0.161733
      0.00000      6.40959      9.63653        -0.000000      0.003262      0.040600
      2.13653      0.00000      9.63653        -0.003262     -0.000000      0.040600
      0.00000      0.00000      7.50000        -0.000000     -0.000000     -0.247881
      2.13653      6.40959      7.50000        -0.001361      0.001361     -0.248998
      0.00000      6.41215     13.94723        -0.000000     -0.000298     -0.137884
      2.13397      0.00000     13.94723         0.000298     -0.000000     -0.137884
      0.00000      0.00000     11.77644        -0.000000     -0.000000      0.002594
      2.13603      6.41009     11.77752         0.001343     -0.001343      0.005764
      0.00000      2.13653      9.63653        -0.000000     -0.003262      0.040600
      2.13653      4.27306      9.63653         0.007513     -0.000000      0.050235
      0.00000      4.27306      7.50000        -0.000000     -0.000000     -0.249190
      2.13653      2.13653      7.50000        -0.001361     -0.001361     -0.248998
      0.00000      2.13397     13.94723        -0.000000      0.000298     -0.137884
      2.12579      4.27306     13.94775         0.002683     -0.000000     -0.120534
      0.00000      4.27306     11.77612        -0.000000     -0.000000      0.004991
      2.13603      2.13603     11.77752         0.001343      0.001343      0.005764
      4.27306      6.40959      9.63653        -0.000000     -0.007513      0.050235
      6.40959      0.00000      9.63653         0.003262     -0.000000      0.040600
      4.27306      0.00000      7.50000        -0.000000     -0.000000     -0.249190
      6.40959      6.40959      7.50000         0.001361      0.001361     -0.248998
      4.27306      6.42032     13.94775        -0.000000     -0.002683     -0.120534
      6.41215      0.00000     13.94723        -0.000298     -0.000000     -0.137884
      4.27306      0.00000     11.77612        -0.000000     -0.000000      0.004991
      6.41009      6.41009     11.77752        -0.001343     -0.001343      0.005764
      4.27306      2.13653      9.63653        -0.000000      0.007513      0.050235
      6.40959      4.27306      9.63653        -0.007513     -0.000000      0.050235
      4.27306      4.27306      7.50000        -0.000000     -0.000000     -0.251237
      6.40959      2.13653      7.50000         0.001361     -0.001361     -0.248998
      4.27306      2.12579     13.94775        -0.000000      0.002683     -0.120534
      6.42032      4.27306     13.94775        -0.002683     -0.000000     -0.120534
      4.27306      4.27306     11.78744        -0.000000     -0.000000     -0.003009
      6.41009      2.13603     11.77752        -0.001343      0.001343      0.005764
    total drift:                                0.000000      0.000000     -0.011797

  FREE ENERGIE OF THE ION-ELECTRON SYSTEM (eV)
  free  energy   TOTEN  =      -276.39973090 eV

  energy  without entropy=     -276.39973090  energy(sigma->0) =     -276.39973090