 vasp.6.3.0 20Jan22 (build Apr  1 2022 16:44:48) complex
 executed on        HPECrayEX_GCC date 2022.11.13  00:25:46

 INCAR:
   SYSTEM = MgO-rocksalt
   ISMEAR = 0
   SIGMA = 0.05
   EDIFF = 1E-6
   ALGO = ALL
   ISTART = 0
   IBRION = -1
   NSW = 0
   ISYM = 0
   DIPOL = 0.5 0.5 0.5
   IDIPOL = 3
   LDIPOL = .TRUE.
   GGA = RE
   IVDW = 13
   VDW_S8 = 1.7468
   VDW_A1 = 0.5363
   VDW_A2 = 3.0726
   ENCUT = 600
   PREC = Accurate
   LASPH = .TRUE.
   LREAL = .FALSE.
   ISPIN = 1
   NELM = 200
   NELMIN = 8
   NCORE = 8
   KPAR = 1
   LWAVE = .FALSE.
   LCHARG = .FALSE.

 POTCAR:    PAW_PBE C 08Apr2002
 POTCAR:    PAW_PBE O 08Apr2002
 POTCAR:    PAW_PBE Mg_pv 13Apr2007
 POTCAR:    PAW_PBE O 08Apr2002
 POTCAR:    PAW_PBE C 08Apr2002
   VRHFIN =C: s2p2

   TITEL  = PAW_PBE C 08Apr2002
   POMASS =   12.011; ZVAL   =    4.000    mass and valenz
   ENMAX  =  400.000; ENMIN  =  300.000 eV

[...]

   TITEL  = PAW_PBE Mg_pv 13Apr2007
   POMASS =   24.305; ZVAL   =    8.000    mass and valenz
   ENMAX  =  403.929; ENMIN  =  302.947 eV

   TITEL  = PAW_PBE O 08Apr2002
   POMASS =   16.000; ZVAL   =    6.000    mass and valenz
   ENMAX  =  400.000; ENMIN  =  300.000 eV

  PAW_PBE C 08Apr2002                   :
  PAW_PBE O 08Apr2002                   :
  PAW_PBE Mg_pv 13Apr2007               :
  PAW_PBE O 08Apr2002                   :

 POSCAR:  C  O Mg  O
  positions in direct lattice
|           W    W    AA    RRRRR   N    N  II  N    N   GGGG   !!!           |
|           W    W   A  A   R    R  NN   N  II  NN   N  G    G  !!!           |
|           W    W  A    A  R    R  N N  N  II  N N  N  G       !!!           |
|           W WW W  AAAAAA  RRRRR   N  N N  II  N  N N  G  GGG   !            |
|           WW  WW  A    A  R   R   N   NN  II  N   NN  G    G                |
|           W    W  A    A  R    R  N    N  II  N    N   GGGG   !!!           |
|     Specifying the vdW parameters                                           |
|     VDW_S8 = 1.747                                                          |
|     VDW_A1 = 0.536                                                          |
|     VDW_A2 = 3.073                                                          |
|     in the INCAR file will overwrite the defaults for revpbe. Please        |
|     make sure that is what you intended.                                    |

 ion  position               nearest neighbor table
   1  0.625  0.625  0.782-   3 1.18   2 1.18
   2  0.527  0.527  0.783-   1 1.18
   3  0.723  0.723  0.783-   1 1.18
   4  0.000  0.750  0.350-  36 2.14  38 2.14  39 2.14  46 2.14  55 2.14
   5  0.250  0.000  0.350-  37 2.14  38 2.14  39 2.14  47 2.14  54 2.14
   6  0.000  0.000  0.450-  38 2.14  37 2.14  36 2.14  44 2.14  53 2.14  42 2.14
   7  0.250  0.750  0.450-  39 2.14  37 2.14  36 2.14  45 2.14  52 2.14  43 2.14
   8  0.000  0.750  0.550-  42 2.14  50 2.14  59 2.14  43 2.14  36 2.15  40 2.16
   9  0.250  1.000  0.550-  42 2.14  51 2.14  43 2.14  58 2.14  37 2.15  41 2.16
  10  0.000  0.000  0.650-  42 2.13  41 2.14  48 2.14  40 2.14  57 2.14
  11  0.250  0.750  0.649-  43 2.13  40 2.13  41 2.14  49 2.14  56 2.14
  12  0.000  0.250  0.350-  44 2.14  38 2.14  46 2.14  47 2.14  63 2.14
  13  0.250  0.500  0.350-  45 2.14  39 2.14  46 2.14  47 2.14  62 2.14
  14  0.000  0.500  0.450-  46 2.14  44 2.14  45 2.14  36 2.14  61 2.14  50 2.14
  15  0.250  0.250  0.450-  47 2.14  44 2.14  45 2.14  37 2.14  60 2.14  51 2.14
  16  1.000  0.250  0.550-  42 2.14  51 2.14  67 2.14  50 2.14  44 2.15  48 2.16
  17  0.250  0.500  0.550-  51 2.14  43 2.14  66 2.14  50 2.14  45 2.15  49 2.16
  18  0.000  0.500  0.649-  50 2.13  49 2.13  48 2.14  40 2.14  65 2.14
  19  0.250  0.250  0.650-  51 2.13  48 2.14  41 2.14  49 2.14  64 2.14
  20  0.500  0.750  0.350-  52 2.14  39 2.14  54 2.14  55 2.14  62 2.14
  21  0.750  0.000  0.350-  53 2.14  38 2.14  54 2.14  55 2.14  63 2.14
  22  0.500  0.000  0.450-  54 2.14  52 2.14  53 2.14  37 2.14  60 2.14  58 2.14
  23  0.750  0.750  0.450-  55 2.14  52 2.14  53 2.14  36 2.14  61 2.14  59 2.14
  24  0.500  0.750  0.551-  59 2.13  66 2.13  58 2.14  43 2.14  52 2.15  56 2.18
  25  0.750  0.000  0.550-  42 2.14  58 2.14  59 2.14  67 2.14  53 2.15  57 2.16
  26  0.500  0.000  0.649-  58 2.13  64 2.13  41 2.14  57 2.14  56 2.14
  27  0.752  0.752  0.650-  40 2.13  57 2.13  59 2.13  65 2.15  56 2.15
  28  0.500  0.250  0.350-  60 2.14  54 2.14  47 2.14  62 2.14  63 2.14
  29  0.750  0.500  0.350-  61 2.14  55 2.14  46 2.14  62 2.14  63 2.14
  30  0.500  0.500  0.450-  62 2.14  52 2.14  60 2.14  61 2.14  45 2.14  66 2.14
  31  0.750  0.250  0.450-  63 2.14  53 2.14  60 2.14  61 2.14  44 2.14  67 2.14
  32  0.500  0.250  0.550-  51 2.14  67 2.14  66 2.14  58 2.14  60 2.15  64 2.16
  33  0.750  0.500  0.551-  59 2.13  66 2.13  50 2.14  67 2.14  61 2.15  65 2.18
  34  0.498  0.498  0.650-  49 2.13  64 2.13  66 2.13  56 2.15  65 2.15
  35  0.750  0.250  0.649-  67 2.13  57 2.13  48 2.14  64 2.14  65 2.14
  36  0.000  0.750  0.450-   4 2.14   6 2.14   7 2.14  14 2.14  23 2.14   8 2.15
  37  0.250  0.000  0.450-   5 2.14   6 2.14   7 2.14  15 2.14  22 2.14   9 2.15
  38  0.000  0.000  0.350-   6 2.14   5 2.14   4 2.14  12 2.14  21 2.14
  39  0.250  0.750  0.350-   7 2.14   5 2.14   4 2.14  13 2.14  20 2.14
  40  0.000  0.750  0.651-  27 2.13  11 2.13  10 2.14  18 2.14   8 2.16
  41  0.250  1.000  0.651-  19 2.14  10 2.14  11 2.14  26 2.14   9 2.16
  42  0.000  0.000  0.550-  10 2.13  16 2.14   9 2.14   8 2.14  25 2.14   6 2.14
  43  0.250  0.750  0.550-  11 2.13  24 2.14   9 2.14  17 2.14   8 2.14   7 2.14
  44  0.000  0.250  0.450-  12 2.14   6 2.14  14 2.14  15 2.14  31 2.14  16 2.15
  45  0.250  0.500  0.450-  13 2.14   7 2.14  14 2.14  15 2.14  30 2.14  17 2.15
  46  0.000  0.500  0.350-  14 2.14  12 2.14  13 2.14   4 2.14  29 2.14
  47  0.250  0.250  0.350-  15 2.14  12 2.14  13 2.14   5 2.14  28 2.14
  48  1.000  0.250  0.651-  19 2.14  10 2.14  35 2.14  18 2.14  16 2.16
  49  0.250  0.500  0.651-  34 2.13  18 2.13  19 2.14  11 2.14  17 2.16
  50  1.000  0.500  0.550-  18 2.13  33 2.14  16 2.14   8 2.14  17 2.14  14 2.14
  51  0.250  0.250  0.550-  19 2.13  16 2.14   9 2.14  32 2.14  17 2.14  15 2.14
  52  0.500  0.750  0.450-  20 2.14   7 2.14  22 2.14  23 2.14  30 2.14  24 2.15
  53  0.750  0.000  0.450-  21 2.14   6 2.14  22 2.14  23 2.14  31 2.14  25 2.15
  54  0.500  0.000  0.350-  22 2.14  20 2.14  21 2.14   5 2.14  28 2.14
  55  0.750  0.750  0.350-  23 2.14  20 2.14  21 2.14   4 2.14  29 2.14
  56  0.500  0.750  0.652-  26 2.14  11 2.14  34 2.15  27 2.15  24 2.18
  57  0.750  0.000  0.651-  27 2.13  35 2.13  10 2.14  26 2.14  25 2.16
  58  0.500  1.000  0.550-  26 2.13  24 2.14   9 2.14  25 2.14  32 2.14  22 2.14
  59  0.750  0.750  0.550-  27 2.13  33 2.13  24 2.13  25 2.14   8 2.14  23 2.14
  60  0.500  0.250  0.450-  28 2.14  22 2.14  15 2.14  30 2.14  31 2.14  32 2.15
  61  0.750  0.500  0.450-  29 2.14  23 2.14  14 2.14  30 2.14  31 2.14  33 2.15
  62  0.500  0.500  0.350-  30 2.14  20 2.14  28 2.14  29 2.14  13 2.14
  63  0.750  0.250  0.350-  31 2.14  21 2.14  28 2.14  29 2.14  12 2.14
  64  0.500  0.250  0.651-  34 2.13  26 2.13  19 2.14  35 2.14  32 2.16
  65  0.750  0.500  0.652-  18 2.14  35 2.14  34 2.15  27 2.15  33 2.18
  66  0.500  0.500  0.550-  34 2.13  33 2.13  24 2.13  17 2.14  32 2.14  30 2.14
  67  0.750  0.250  0.550-  35 2.13  33 2.14  16 2.14  32 2.14  25 2.14  31 2.14

IMPORTANT INFORMATION: All symmetrisations will be switched off!
NOSYMM: (Re-)initialisation of all symmetry stuff for point group C_1.

                                     Primitive cell

  volume of cell :    1563.6717

  direct lattice vectors                    reciprocal lattice vectors
     8.546113626  0.000000000  0.000000000     0.117012252  0.000000000  0.000000000
     0.000000000  8.546113626  0.000000000     0.000000000  0.117012252  0.000000000
     0.000000000  0.000000000 21.409585219     0.000000000  0.000000000  0.046708051

  length of vectors
     8.546113626  8.546113626 21.409585219     0.117012252  0.117012252  0.046708051

  position of ions in fractional coordinates (direct lattice)
     0.625001202  0.625001176  0.782410767
     0.527381710  0.527381695  0.782868106
     0.722618972  0.722618947  0.782864475
     0.000000000  0.750000000  0.350310383
     0.250000000  0.000000000  0.350310383
     0.000000000  0.000000000  0.450103461
     0.250000000  0.750000000  0.450103461
     0.000126397  0.750045481  0.550364384
     0.250020198  0.999979876  0.550369020
     0.000153514  0.000153508  0.649560948
     0.249706705  0.749926150  0.649462994
     0.000000000  0.250000000  0.350310383
     0.250000000  0.500000000  0.350310383
     0.000000000  0.500000000  0.450103461
     0.250000000  0.250000000  0.450103461
     0.999979886  0.250020189  0.550369018
     0.249873462  0.499954848  0.550364380
     0.000293418  0.500074338  0.649463019
     0.249846636  0.249846645  0.649560929
     0.500000000  0.750000000  0.350310383
     0.750000000  0.000000000  0.350310383
     0.500000000  0.000000000  0.450103461
     0.750000000  0.750000000  0.450103461
     0.500197926  0.749802498  0.550584063
     0.750045473  0.000126395  0.550364389
     0.500074323  0.000293415  0.649463029
     0.751609463  0.751609452  0.649775867
     0.500000000  0.250000000  0.350310383
     0.750000000  0.500000000  0.350310383
     0.500000000  0.500000000  0.450103461
     0.750000000  0.250000000  0.450103461
     0.499954834  0.249873459  0.550364381
     0.749802489  0.500197933  0.550584061
     0.498390847  0.498390852  0.649775304
     0.749926144  0.249706712  0.649462986
     0.000000000  0.750000000  0.450103461
     0.250000000  0.000000000  0.450103461
     0.000000000  0.000000000  0.350310383
     0.250000000  0.750000000  0.350310383
     0.000492848  0.750157003  0.651068122
     0.250051487  0.999948683  0.651427282
     0.000074949  0.000074944  0.550048256
     0.250303439  0.749994628  0.550095432
     0.000000000  0.250000000  0.450103461
     0.250000000  0.500000000  0.450103461
     0.000000000  0.500000000  0.350310383
     0.250000000  0.250000000  0.350310383
     0.999948677  0.250051489  0.651427265
     0.249507344  0.499843384  0.651068059
     0.999696612  0.500005653  0.550095444
     0.249925156  0.249925155  0.550048288
     0.500000000  0.750000000  0.450103461
     0.750000000  0.000000000  0.450103461
     0.500000000  0.000000000  0.350310383
     0.750000000  0.750000000  0.350310383
     0.500218844  0.749781368  0.652186552
     0.750157005  0.000492840  0.651068120
     0.500005643  0.999696608  0.550095447
     0.749959505  0.749959506  0.550250793
     0.500000000  0.250000000  0.450103461
     0.750000000  0.500000000  0.450103461
     0.500000000  0.500000000  0.350310383
     0.750000000  0.250000000  0.350310383
     0.499843390  0.249507343  0.651068057
     0.749781364  0.500218864  0.652186559
     0.500040711  0.500040716  0.550250721
     0.749994620  0.250303442  0.550095433

  ion indices of the primitive-cell ions
   primitive index   ion index
                 1           1
                 2           2
                 3           3
[...]
   2.13402188  6.40895409 13.90473331
   0.00000000  2.13652841  7.50000000
   2.13652841  4.27305681  7.50000000
   0.00000000  4.27305681  9.63652841
   2.13652841  2.13652841  9.63652841
   8.54594173  2.13670094 11.78317240
   2.13544700  4.27267093 11.78307309
   0.00250758  4.27369211 13.90473386
   2.13521774  2.13521782 13.90683007
   4.27305681  6.40958522  7.50000000
   6.40958522  0.00000000  7.50000000
   4.27305681  0.00000000  9.63652841
   6.40958522  6.40958522  9.63652841
   4.27474831  6.40789734 11.78777643
   6.40997383  0.00108019 11.78307329
   4.27369199  0.00250756 13.90473407
   6.42333987  6.42333978 13.91143179
   4.27305681  2.13652841  7.50000000
   6.40958522  4.27305681  7.50000000
   4.27305681  4.27305681  9.63652841
   6.40958522  2.13652841  9.63652841
   4.27267082  2.13544697 11.78307311
   6.40789727  4.27474837 11.78777638
   4.25930481  4.25930485 13.91141975
   6.40895403  2.13402194 13.90473314
   0.00000000  6.40958522  9.63652841
   2.13652841  0.00000000  9.63652841
   0.00000000  0.00000000  7.50000000
   2.13652841  6.40958522  7.50000000
   0.00421193  6.41092699 13.93909844
   2.13696842  8.54567506 13.94678790
   0.00064053  0.00064048 11.77630502
   2.13912163  6.40953931 11.77731503
   0.00000000  2.13652841  9.63652841
   2.13652841  4.27305681  9.63652841
   0.00000000  4.27305681  7.50000000
   2.13652841  2.13652841  7.50000000
   8.54567501  2.13696844 13.94678755
   2.13231811  4.27171836 13.93909709
   8.54352083  4.27310512 11.77731528
   2.13588878  2.13588877 11.77630571
   4.27305681  6.40958522  9.63652841
   6.40958522  0.00000000  9.63652841
   4.27305681  0.00000000  7.50000000
   6.40958522  6.40958522  7.50000000
   4.27492708  6.40771676 13.96304356
   6.41092700  0.00421186 13.93909839
   4.27310504  8.54352080 11.77731535
   6.40923915  6.40923915 11.78064125
   4.27305681  2.13652841  9.63652841
   6.40958522  4.27305681  9.63652841
   4.27305681  4.27305681  7.50000000
   6.40958522  2.13652841  7.50000000
   4.27171840  2.13231810 13.93909704
   6.40771673  4.27492725 13.96304372
   4.27340473  4.27340478 11.78063970
   6.40953924  2.13912166 11.77731505

--------------------------------------- Iteration      FINAL  ---------------------------------------

--------------------OUTCAR has been truncated-------------------------

[...]

--------------------OUTCAR has been truncated-------------------------

  FORCE on cell =-STRESS in cart. coord.  units (eV):
  Direction    XX          YY          ZZ          XY          YZ          ZX
  Alpha Z   900.93433   900.93433   900.93433
  Ewald  152364.56109152364.56101************   385.10589    -0.01922    -0.01921
  Hartree162891.64432162891.64426************   174.22538    -0.00923    -0.00922
  E(xc)   -2535.60982 -2535.60982 -2544.55146     1.33272    -0.00006    -0.00006
  Local  ************************324258.49042  -523.15558     0.02676     0.02674
  n-local -2847.88061 -2847.88061 -2864.85431    -2.86093     0.00014     0.00013
  augment  1058.78610  1058.78610  1051.01007    -1.37174     0.00007     0.00007
  Kinetic  7599.84888  7599.84890  7674.63847   -33.01471     0.00150     0.00150
  Fock        0.00000     0.00000     0.00000     0.00000     0.00000     0.00000
  vdW       -20.62214   -20.62216   -16.24816    -0.01524     0.00000     0.00000
  Total     -46.40216   -46.40217   -15.94976     0.24579    -0.00004    -0.00004
  in kB     -47.54482   -47.54483   -16.34253     0.25184    -0.00004    -0.00005

 VOLUME and BASIS-vectors are now :
  energy-cutoff  :      600.00
  volume of cell :     1563.67
      direct lattice vectors                 reciprocal lattice vectors
     8.546113626  0.000000000  0.000000000     0.117012252  0.000000000  0.000000000
     0.000000000  8.546113626  0.000000000     0.000000000  0.117012252  0.000000000
     0.000000000  0.000000000 21.409585219     0.000000000  0.000000000  0.046708051

  length of vectors
     8.546113626  8.546113626 21.409585219     0.117012252  0.117012252  0.046708051

 FORCES acting on ions:
    Electron-Ion                     Ewald-Force                    Non-Local-Force
   0.526E-02 0.529E-02 -.963E+03   -.668E-02 -.671E-02 0.963E+03   0.539E-04 0.525E-04 0.154E+00
   0.189E+03 0.189E+03 -.145E+04   -.233E+03 -.233E+03 0.145E+04   0.445E+02 0.445E+02 -.118E+01
   -.189E+03 -.189E+03 -.145E+04   0.233E+03 0.233E+03 0.145E+04   -.445E+02 -.445E+02 -.118E+01
   -.184E+00 -.164E+00 0.203E+04   0.184E+00 0.164E+00 -.202E+04   0.387E-03 0.311E-03 -.708E+01
   0.163E+00 -.163E+00 0.203E+04   -.163E+00 0.163E+00 -.202E+04   -.443E-03 0.443E-03 -.709E+01
   -.771E+00 -.771E+00 0.716E+03   0.786E+00 0.786E+00 -.717E+03   -.115E-01 -.115E-01 0.458E+00
   0.716E+00 -.795E+00 0.717E+03   -.674E+00 0.808E+00 -.718E+03   -.293E-01 -.951E-02 0.481E+00
   -.546E+01 -.327E+01 -.583E+03   0.546E+01 0.328E+01 0.583E+03   0.294E-02 -.761E-02 -.454E+00
   0.316E+01 -.316E+01 -.593E+03   -.317E+01 0.317E+01 0.593E+03   0.940E-02 -.937E-02 -.283E+00
   -.168E+02 -.168E+02 -.191E+04   0.169E+02 0.169E+02 0.191E+04   -.164E-01 -.164E-01 0.634E+01
   0.219E+02 -.181E+02 -.189E+04   -.221E+02 0.181E+02 0.189E+04   0.213E+00 -.142E-01 0.634E+01
   -.163E+00 0.163E+00 0.203E+04   0.163E+00 -.163E+00 -.202E+04   0.436E-03 -.443E-03 -.709E+01
   0.184E+00 0.164E+00 0.203E+04   -.184E+00 -.164E+00 -.202E+04   -.388E-03 -.314E-03 -.708E+01
   -.716E+00 0.795E+00 0.717E+03   0.674E+00 -.808E+00 -.718E+03   0.293E-01 0.950E-02 0.481E+00
   0.770E+00 0.770E+00 0.716E+03   -.786E+00 -.786E+00 -.717E+03   0.115E-01 0.115E-01 0.458E+00
   -.316E+01 0.316E+01 -.593E+03   0.317E+01 -.317E+01 0.593E+03   -.938E-02 0.940E-02 -.283E+00
   0.546E+01 0.327E+01 -.583E+03   -.546E+01 -.328E+01 0.583E+03   -.289E-02 0.759E-02 -.454E+00
   -.219E+02 0.181E+02 -.189E+04   0.221E+02 -.181E+02 0.189E+04   -.213E+00 0.141E-01 0.634E+01
   0.168E+02 0.168E+02 -.191E+04   -.169E+02 -.169E+02 0.191E+04   0.164E-01 0.164E-01 0.634E+01
   0.188E+00 -.188E+00 0.203E+04   -.186E+00 0.186E+00 -.202E+04   -.110E-02 0.111E-02 -.710E+01
   -.164E+00 -.184E+00 0.203E+04   0.164E+00 0.184E+00 -.202E+04   0.314E-03 0.389E-03 -.708E+01
   0.795E+00 -.716E+00 0.717E+03   -.808E+00 0.674E+00 -.718E+03   0.950E-02 0.293E-01 0.481E+00
   -.738E+00 -.738E+00 0.719E+03   0.712E+00 0.712E+00 -.719E+03   0.195E-01 0.195E-01 0.534E+00
   0.562E+01 -.562E+01 -.578E+03   -.561E+01 0.561E+01 0.578E+03   -.127E-01 0.127E-01 -.103E+00
   -.327E+01 -.546E+01 -.583E+03   0.328E+01 0.546E+01 0.583E+03   -.761E-02 0.294E-02 -.454E+00
   0.181E+02 -.219E+02 -.189E+04   -.181E+02 0.221E+02 0.189E+04   0.141E-01 -.213E+00 0.634E+01
   -.288E+02 -.288E+02 -.181E+04   0.292E+02 0.292E+02 0.181E+04   -.344E+00 -.344E+00 0.622E+01
   0.164E+00 0.184E+00 0.203E+04   -.164E+00 -.184E+00 -.202E+04   -.311E-03 -.386E-03 -.708E+01
   -.188E+00 0.188E+00 0.203E+04   0.186E+00 -.186E+00 -.202E+04   0.111E-02 -.111E-02 -.710E+01
   0.738E+00 0.738E+00 0.719E+03   -.712E+00 -.712E+00 -.719E+03   -.195E-01 -.195E-01 0.534E+00
   -.795E+00 0.716E+00 0.717E+03   0.808E+00 -.674E+00 -.718E+03   -.950E-02 -.293E-01 0.481E+00
   0.327E+01 0.546E+01 -.583E+03   -.328E+01 -.546E+01 0.583E+03   0.758E-02 -.288E-02 -.454E+00
   -.562E+01 0.562E+01 -.578E+03   0.561E+01 -.561E+01 0.578E+03   0.127E-01 -.127E-01 -.103E+00
   0.288E+02 0.288E+02 -.181E+04   -.292E+02 -.292E+02 0.181E+04   0.344E+00 0.344E+00 0.622E+01
   -.181E+02 0.219E+02 -.189E+04   0.181E+02 -.221E+02 0.189E+04   -.142E-01 0.213E+00 0.634E+01
   -.609E+00 -.488E+00 0.538E+03   0.604E+00 0.487E+00 -.538E+03   0.565E-02 0.110E-02 -.664E-01
   0.481E+00 -.481E+00 0.537E+03   -.483E+00 0.483E+00 -.536E+03   0.357E-02 -.356E-02 -.971E-01
   -.135E+00 -.135E+00 0.152E+04   0.136E+00 0.136E+00 -.153E+04   -.209E-02 -.209E-02 0.343E+01
   0.126E+00 -.135E+00 0.152E+04   -.123E+00 0.137E+00 -.153E+04   -.433E-02 -.219E-02 0.343E+01
   -.245E+02 -.966E+01 -.143E+04   0.245E+02 0.962E+01 0.144E+04   -.332E-01 0.336E-01 -.486E+01
   0.872E+01 -.872E+01 -.146E+04   -.869E+01 0.869E+01 0.146E+04   -.256E-01 0.256E-01 -.476E+01
   -.313E+01 -.313E+01 -.438E+03   0.312E+01 0.312E+01 0.438E+03   0.116E-01 0.116E-01 0.251E+00
   0.301E+01 -.324E+01 -.434E+03   -.302E+01 0.324E+01 0.434E+03   0.109E-01 0.421E-02 0.326E+00
   -.481E+00 0.481E+00 0.537E+03   0.483E+00 -.483E+00 -.536E+03   -.356E-02 0.357E-02 -.971E-01
   0.609E+00 0.488E+00 0.538E+03   -.604E+00 -.487E+00 -.538E+03   -.566E-02 -.108E-02 -.664E-01
   -.126E+00 0.135E+00 0.152E+04   0.123E+00 -.137E+00 -.153E+04   0.433E-02 0.219E-02 0.343E+01
   0.135E+00 0.135E+00 0.152E+04   -.136E+00 -.136E+00 -.153E+04   0.209E-02 0.209E-02 0.343E+01
   -.872E+01 0.872E+01 -.146E+04   0.869E+01 -.869E+01 0.146E+04   0.256E-01 -.256E-01 -.476E+01
   0.245E+02 0.966E+01 -.143E+04   -.245E+02 -.963E+01 0.144E+04   0.332E-01 -.336E-01 -.486E+01
   -.302E+01 0.325E+01 -.434E+03   0.302E+01 -.324E+01 0.434E+03   -.109E-01 -.420E-02 0.326E+00
   0.313E+01 0.313E+01 -.438E+03   -.312E+01 -.312E+01 0.438E+03   -.116E-01 -.116E-01 0.251E+00
   0.659E+00 -.659E+00 0.539E+03   -.675E+00 0.675E+00 -.538E+03   0.217E-01 -.217E-01 -.138E+00
   -.488E+00 -.609E+00 0.538E+03   0.487E+00 0.604E+00 -.538E+03   0.110E-02 0.565E-02 -.664E-01
   0.135E+00 -.126E+00 0.152E+04   -.137E+00 0.123E+00 -.153E+04   0.219E-02 0.433E-02 0.343E+01
   -.129E+00 -.129E+00 0.152E+04   0.125E+00 0.125E+00 -.153E+04   0.553E-02 0.553E-02 0.343E+01
   0.297E+02 -.297E+02 -.139E+04   -.296E+02 0.296E+02 0.140E+04   -.905E-01 0.906E-01 -.452E+01
   -.966E+01 -.245E+02 -.143E+04   0.962E+01 0.245E+02 0.144E+04   0.336E-01 -.333E-01 -.486E+01
   0.325E+01 -.302E+01 -.434E+03   -.324E+01 0.302E+01 0.434E+03   -.420E-02 -.109E-01 0.326E+00
   -.319E+01 -.319E+01 -.426E+03   0.321E+01 0.321E+01 0.426E+03   -.237E-01 -.237E-01 0.296E+00
   0.488E+00 0.609E+00 0.538E+03   -.487E+00 -.604E+00 -.538E+03   -.108E-02 -.566E-02 -.664E-01
   -.659E+00 0.659E+00 0.539E+03   0.675E+00 -.675E+00 -.538E+03   -.217E-01 0.217E-01 -.138E+00
   0.129E+00 0.129E+00 0.152E+04   -.125E+00 -.125E+00 -.153E+04   -.553E-02 -.553E-02 0.343E+01
   -.135E+00 0.126E+00 0.152E+04   0.137E+00 -.123E+00 -.153E+04   -.219E-02 -.433E-02 0.343E+01
   0.966E+01 0.245E+02 -.143E+04   -.963E+01 -.245E+02 0.144E+04   -.336E-01 0.332E-01 -.486E+01
   -.297E+02 0.297E+02 -.139E+04   0.296E+02 -.296E+02 0.140E+04   0.906E-01 -.905E-01 -.452E+01
   0.319E+01 0.319E+01 -.426E+03   -.322E+01 -.322E+01 0.426E+03   0.238E-01 0.238E-01 0.296E+00
   -.324E+01 0.301E+01 -.434E+03   0.324E+01 -.302E+01 0.434E+03   0.421E-02 0.109E-01 0.326E+00
   0.918E-03 0.938E-03 0.160E+02   0.146E-12 0.000E+00 -.642E-11   -.927E-03 -.943E-03 -.160E+02

 POSITION                                       TOTAL-FORCE (eV/Angst)
      5.34133      5.34133     16.75109        -0.001356     -0.001355     -0.119425
      4.50706      4.50706     16.76088         0.008741      0.008736     -0.015538
      6.17558      6.17558     16.76080        -0.007380     -0.007385     -0.015497
      0.00000      6.40959      7.50000        -0.000075     -0.000125      0.500281
      2.13653      0.00000      7.50000         0.000128     -0.000124      0.503055
      0.00000      0.00000      9.63653         0.004019      0.004017      0.050219
      2.13653      6.40959      9.63653         0.012078      0.003289      0.052511
      0.00108      6.40997     11.78307        -0.001927      0.001945     -0.033727
      2.13670      8.54594     11.78317        -0.000427      0.000433     -0.037394
      0.00131      0.00131     13.90683        -0.000739     -0.000747     -0.184306
      2.13402      6.40895     13.90473         0.007705     -0.004258     -0.174581
      0.00000      2.13653      7.50000        -0.000133      0.000126      0.503056
      2.13653      4.27306      7.50000         0.000076      0.000121      0.500274
      0.00000      4.27306      9.63653        -0.012074     -0.003285      0.052500
      2.13653      2.13653      9.63653        -0.004013     -0.004017      0.050232
      8.54594      2.13670     11.78317         0.000436     -0.000430     -0.037412
      2.13545      4.27267     11.78307         0.001943     -0.001949     -0.033719
      0.00251      4.27369     13.90473        -0.007679      0.004242     -0.174599
      2.13522      2.13522     13.90683         0.000759      0.000753     -0.184289
      4.27306      6.40959      7.50000         0.000339     -0.000328      0.504680
      6.40959      0.00000      7.50000        -0.000125     -0.000074      0.500286
      4.27306      0.00000      9.63653        -0.003285     -0.012077      0.052503
      6.40959      6.40959      9.63653        -0.005864     -0.005863      0.055599
      4.27475      6.40790     11.78778         0.001138     -0.001155     -0.038004
      6.40997      0.00108     11.78307         0.001938     -0.001928     -0.033719
      4.27369      0.00251     13.90473         0.004234     -0.007695     -0.174594
      6.42334      6.42334     13.91143        -0.016819     -0.016814     -0.148954
      4.27306      2.13653      7.50000         0.000121      0.000077      0.500279
      6.40959      4.27306      7.50000        -0.000335      0.000337      0.504679
      4.27306      4.27306      9.63653         0.005865      0.005862      0.055601
      6.40959      2.13653      9.63653         0.003287      0.012077      0.052509
      4.27267      2.13545     11.78307        -0.001954      0.001943     -0.033718
      6.40790      4.27475     11.78778        -0.001161      0.001144     -0.038011
      4.25930      4.25930     13.91142         0.016805      0.016809     -0.148861
      6.40895      2.13402     13.90473        -0.004257      0.007697     -0.174593
      0.00000      6.40959      9.63653         0.000947      0.000054      0.059305
      2.13653      0.00000      9.63653         0.001158     -0.001155      0.049755
      0.00000      0.00000      7.50000        -0.000586     -0.000588     -0.347605
      2.13653      6.40959      7.50000        -0.001263     -0.000611     -0.347960
      0.00421      6.41093     13.93910         0.000004     -0.000080     -0.040320
      2.13697      8.54568     13.94679         0.000875     -0.000880     -0.036888
      0.00064      0.00064     11.77631         0.000491      0.000489     -0.006875
      2.13912      6.40954     11.77732         0.000707      0.000149     -0.003943
      0.00000      2.13653      9.63653        -0.001155      0.001156      0.049756
      2.13653      4.27306      9.63653        -0.000952     -0.000049      0.059298
      0.00000      4.27306      7.50000         0.001263      0.000609     -0.347970
      2.13653      2.13653      7.50000         0.000591      0.000590     -0.347599
      8.54568      2.13697     13.94679        -0.000880      0.000884     -0.036899
      2.13232      4.27172     13.93910        -0.000009      0.000072     -0.040317
      8.54352      4.27311     11.77732        -0.000700     -0.000155     -0.003939
      2.13589      2.13589     11.77631        -0.000489     -0.000485     -0.006881
      4.27306      6.40959      9.63653         0.005754     -0.005750      0.058256
      6.40959      0.00000      9.63653         0.000051      0.000951      0.059306
      4.27306      0.00000      7.50000         0.000610      0.001266     -0.347966
      6.40959      6.40959      7.50000         0.001604      0.001605     -0.348465
      4.27493      6.40772     13.96304         0.006100     -0.006095     -0.015839
      6.41093      0.00421     13.93910        -0.000080      0.000001     -0.040315
      4.27311      8.54352     11.77732        -0.000154     -0.000702     -0.003940
      6.40924      6.40924     11.78064        -0.000632     -0.000630     -0.005149
      4.27306      2.13653      9.63653        -0.000049     -0.000953      0.059304
      6.40959      4.27306      9.63653        -0.005746      0.005755      0.058260
      4.27306      4.27306      7.50000        -0.001605     -0.001610     -0.348473
      6.40959      2.13653      7.50000        -0.000610     -0.001263     -0.347959
      4.27172      2.13232     13.93910         0.000068     -0.000003     -0.040317
      6.40772      4.27493     13.96304        -0.006100      0.006098     -0.015846
      4.27340      4.27340     11.78064         0.000629      0.000629     -0.005153
      6.40954      2.13912     11.77732         0.000148      0.000702     -0.003946
    total drift:                               -0.000010     -0.000005      0.002629

  FREE ENERGIE OF THE ION-ELECTRON SYSTEM (eV)
  free  energy   TOTEN  =      -393.19632495 eV

  energy  without entropy=     -393.19632495  energy(sigma->0) =     -393.19632495