 vasp.6.3.0 20Jan22 (build Apr  1 2022 16:44:48) complex
 executed on        HPECrayEX_GCC date 2022.10.25  00:45:26

 INCAR:
   SYSTEM = MgO-rocksalt
   ISMEAR = 0
   SIGMA = 0.05
   EDIFF = 1E-6
   ALGO = ALL
   ISTART = 0
   IBRION = -1
   NSW = 0
   ISYM = 0
   DIPOL = 0.5 0.5 0.5
   IDIPOL = 3
   LDIPOL = .TRUE.
   GGA = PE
   IVDW = 1
   VDW_C6 = 0.14 0.70 0.63 0.70
   VDW_R0 = 1.001 1.342 1.243 1.342
   ENCUT = 600
   PREC = Accurate
   LASPH = .TRUE.
   LREAL = .FALSE.
   ISPIN = 1
   NELM = 200
   NELMIN = 8
   NCORE = 8
   KPAR = 1
   LWAVE = .FALSE.
   LCHARG = .FALSE.

 POTCAR:    PAW_PBE H 15Jun2001
 POTCAR:    PAW_PBE O 08Apr2002
 POTCAR:    PAW_PBE Mg_pv 13Apr2007
 POTCAR:    PAW_PBE O 08Apr2002
 POTCAR:    PAW_PBE H 15Jun2001
   VRHFIN =H: ultrasoft test

   TITEL  = PAW_PBE H 15Jun2001
   POMASS =    1.000; ZVAL   =    1.000    mass and valenz
   ENMAX  =  250.000; ENMIN  =  200.000 eV

   TITEL  = PAW_PBE O 08Apr2002
   POMASS =   16.000; ZVAL   =    6.000    mass and valenz
   ENMAX  =  400.000; ENMIN  =  300.000 eV

   TITEL  = PAW_PBE Mg_pv 13Apr2007
   POMASS =   24.305; ZVAL   =    8.000    mass and valenz
   ENMAX  =  403.929; ENMIN  =  302.947 eV

   TITEL  = PAW_PBE O 08Apr2002
   POMASS =   16.000; ZVAL   =    6.000    mass and valenz
   ENMAX  =  400.000; ENMIN  =  300.000 eV

  PAW_PBE H 15Jun2001                   :
  PAW_PBE O 08Apr2002                   :
  PAW_PBE Mg_pv 13Apr2007               :
  PAW_PBE O 08Apr2002                   :

 POSCAR:  H  O Mg  O
  positions in direct lattice
 exchange correlation table for  LEXCH =        8
   RHO(1)=    0.500       N(1)  =     2000
   RHO(2)=  100.500       N(2)  =     4000

 ion  position               nearest neighbor table
   1  0.617  0.554  0.767-   3 0.97
   2  0.510  0.673  0.728-   3 1.01
   3  0.508  0.572  0.754-   1 0.97   2 1.01  34 2.25
   4  0.000  0.750  0.352-  36 2.11  38 2.11  39 2.11  46 2.11  55 2.11
   5  0.250  0.000  0.352-  37 2.11  38 2.11  39 2.11  47 2.11  54 2.11
   6  0.000  0.000  0.451-  38 2.11  37 2.11  36 2.11  44 2.11  53 2.11  42 2.11
   7  0.250  0.750  0.451-  39 2.11  37 2.11  36 2.11  45 2.11  52 2.11  43 2.12
   8  0.000  0.750  0.550-  50 2.11  42 2.11  43 2.11  36 2.12  59 2.12  40 2.15
   9  0.250  0.000  0.550-  51 2.11  43 2.11  58 2.11  42 2.11  37 2.12  41 2.15
  10  0.000  0.000  0.649-  48 2.10  41 2.10  57 2.11  42 2.11  40 2.11
  11  0.248  0.750  0.648-  40 2.09  43 2.10  49 2.11  41 2.11  56 2.13
  12  0.000  0.250  0.352-  44 2.11  38 2.11  46 2.11  47 2.11  63 2.11
  13  0.250  0.500  0.352-  45 2.11  39 2.11  46 2.11  47 2.11  62 2.11
  14  0.000  0.500  0.451-  46 2.11  44 2.11  45 2.11  36 2.11  61 2.11  50 2.11
  15  0.250  0.250  0.451-  47 2.11  44 2.11  45 2.11  37 2.11  60 2.11  51 2.12
  16  0.000  0.250  0.550-  51 2.11  50 2.11  67 2.11  42 2.11  44 2.12  48 2.15
  17  0.251  0.500  0.550-  66 2.11  51 2.11  43 2.11  49 2.12  50 2.12  45 2.13
  18  0.000  0.500  0.648-  49 2.09  65 2.10  50 2.11  48 2.11  40 2.12
  19  0.249  0.250  0.649-  48 2.10  41 2.11  51 2.11  49 2.11  64 2.12
  20  0.500  0.750  0.352-  52 2.11  39 2.11  54 2.11  55 2.11  62 2.11
  21  0.750  0.000  0.352-  53 2.11  38 2.11  54 2.11  55 2.11  63 2.11
  22  0.500  0.000  0.451-  54 2.11  52 2.11  53 2.11  37 2.11  60 2.11  58 2.12
  23  0.750  0.750  0.451-  55 2.11  52 2.11  53 2.11  36 2.11  61 2.11  59 2.12
  24  0.500  0.749  0.550-  66 2.10  43 2.10  59 2.11  58 2.11  52 2.13  56 2.20
  25  0.750  0.000  0.550-  67 2.11  58 2.11  42 2.11  59 2.11  53 2.12  57 2.15
  26  0.500  0.002  0.649-  64 2.07  56 2.09  58 2.11  41 2.11  57 2.12
  27  0.752  0.751  0.648-  59 2.08  40 2.09  57 2.10  65 2.11  56 2.13
  28  0.500  0.250  0.352-  60 2.11  54 2.11  47 2.11  62 2.11  63 2.11
  29  0.750  0.500  0.352-  61 2.11  55 2.11  46 2.11  62 2.11  63 2.11
  30  0.500  0.500  0.451-  62 2.11  52 2.11  60 2.11  61 2.11  45 2.11  66 2.14
  31  0.750  0.250  0.451-  63 2.11  53 2.11  60 2.11  61 2.11  44 2.11  67 2.12
  32  0.500  0.251  0.550-  51 2.11  66 2.11  67 2.11  58 2.12  60 2.13  64 2.14
  33  0.749  0.500  0.550-  66 2.10  67 2.11  59 2.11  50 2.12  61 2.13  65 2.15
  34  0.498  0.494  0.653-  64 2.08  49 2.11  65 2.14  66 2.19  56 2.20   3 2.25
  35  0.751  0.250  0.648-  48 2.10  67 2.10  57 2.11  64 2.12  65 2.12
  36  0.000  0.750  0.451-   4 2.11   6 2.11   7 2.11  14 2.11  23 2.11   8 2.12
  37  0.250  0.000  0.451-   5 2.11   6 2.11   7 2.11  15 2.11  22 2.11   9 2.12
  38  0.000  0.000  0.352-   6 2.11   5 2.11   4 2.11  12 2.11  21 2.11
  39  0.250  0.750  0.352-   7 2.11   5 2.11   4 2.11  13 2.11  20 2.11
  40  1.000  0.750  0.651-  27 2.09  11 2.09  10 2.11  18 2.12   8 2.15
  41  0.249  1.000  0.651-  10 2.10  19 2.11  11 2.11  26 2.11   9 2.15
  42  1.000  1.000  0.550-  10 2.11   8 2.11  25 2.11   9 2.11  16 2.11   6 2.11
  43  0.251  0.750  0.550-  11 2.10  24 2.10   9 2.11   8 2.11  17 2.11   7 2.12
  44  0.000  0.250  0.451-  12 2.11   6 2.11  14 2.11  15 2.11  31 2.11  16 2.12
  45  0.250  0.500  0.451-  13 2.11   7 2.11  14 2.11  15 2.11  30 2.11  17 2.13
  46  0.000  0.500  0.352-  14 2.11  12 2.11  13 2.11   4 2.11  29 2.11
  47  0.250  0.250  0.352-  15 2.11  12 2.11  13 2.11   5 2.11  28 2.11
  48  1.000  0.250  0.651-  35 2.10  10 2.10  19 2.10  18 2.11  16 2.15
  49  0.248  0.500  0.650-  18 2.09  11 2.11  34 2.11  19 2.11  17 2.12
  50  1.000  0.500  0.550-   8 2.11  18 2.11  16 2.11  14 2.11  33 2.12  17 2.12
  51  0.250  0.250  0.550-   9 2.11  32 2.11  16 2.11  17 2.11  19 2.11  15 2.12
  52  0.500  0.750  0.451-  20 2.11   7 2.11  22 2.11  23 2.11  30 2.11  24 2.13
  53  0.750  0.000  0.451-  21 2.11   6 2.11  22 2.11  23 2.11  31 2.11  25 2.12
  54  0.500  0.000  0.352-  22 2.11  20 2.11  21 2.11   5 2.11  28 2.11
  55  0.750  0.750  0.352-  23 2.11  20 2.11  21 2.11   4 2.11  29 2.11
  56  0.500  0.754  0.653-  26 2.09  11 2.13  27 2.13  24 2.20  34 2.20
  57  0.750  1.000  0.651-  27 2.10  10 2.11  35 2.11  26 2.12  25 2.15
  58  0.500  0.999  0.550-  26 2.11  25 2.11   9 2.11  24 2.11  22 2.12  32 2.12
  59  0.749  0.750  0.550-  27 2.08  24 2.11  25 2.11  33 2.11   8 2.12  23 2.12
  60  0.500  0.250  0.451-  28 2.11  22 2.11  15 2.11  30 2.11  31 2.11  32 2.13
  61  0.750  0.500  0.451-  29 2.11  23 2.11  14 2.11  30 2.11  31 2.11  33 2.13
  62  0.500  0.500  0.352-  30 2.11  20 2.11  28 2.11  29 2.11  13 2.11
  63  0.750  0.250  0.352-  31 2.11  21 2.11  28 2.11  29 2.11  12 2.11
  64  0.500  0.248  0.651-  26 2.07  34 2.08  35 2.12  19 2.12  32 2.14
  65  0.752  0.500  0.651-  18 2.10  27 2.11  35 2.12  34 2.14  33 2.15
  66  0.500  0.500  0.551-  24 2.10  33 2.10  17 2.11  32 2.11  30 2.14  34 2.19
  67  0.750  0.250  0.550-  35 2.10  25 2.11  33 2.11  32 2.11  16 2.11  31 2.12

IMPORTANT INFORMATION: All symmetrisations will be switched off!
NOSYMM: (Re-)initialisation of all symmetry stuff for point group C_1.

                                     Primitive cell

  volume of cell :    1519.8199

  direct lattice vectors                    reciprocal lattice vectors
     8.440984654  0.000000000  0.000000000     0.118469591  0.000000000  0.000000000
     0.000000000  8.440984654  0.000000000     0.000000000  0.118469591  0.000000000
     0.000000000  0.000000000 21.330738491     0.000000000  0.000000000  0.046880702

  length of vectors
     8.440984654  8.440984654 21.330738491     0.118469591  0.118469591  0.046880702

  position of ions in fractional coordinates (direct lattice)
     0.616747350  0.554373542  0.766913467
     0.509929304  0.672789327  0.728458732
     0.507505033  0.572133215  0.754100542
     0.000000000  0.750000000  0.351605267
     0.250000000  0.000000000  0.351605267
     0.000000000  0.000000000  0.450535089
     0.250000000  0.750000000  0.450535089
     0.000207284  0.749768794  0.549791295
     0.250042949  0.000125680  0.550039895
     0.000073806  0.000410042  0.648595353
     0.247683155  0.749917871  0.648435248
     0.000000000  0.250000000  0.351605267
     0.250000000  0.500000000  0.351605267
     0.000000000  0.500000000  0.450535089
     0.250000000  0.250000000  0.450535089
     0.000031262  0.250140480  0.549909578
     0.250686002  0.499742672  0.550400910
     0.000425668  0.499513881  0.648371969
     0.248982972  0.249855834  0.648744198
     0.500000000  0.750000000  0.351605267
     0.750000000  0.000000000  0.351605267
     0.500000000  0.000000000  0.450535089
     0.750000000  0.750000000  0.450535089
     0.499726028  0.748980267  0.550355635
     0.749777797  0.000284338  0.549933824
     0.499677098  0.001992687  0.648655524
     0.752464721  0.750671887  0.647526815
     0.500000000  0.250000000  0.351605267
     0.750000000  0.500000000  0.351605267
     0.500000000  0.500000000  0.450535089
     0.750000000  0.250000000  0.450535089
     0.499781674  0.250547524  0.550270665
     0.749015091  0.499678732  0.550464135
     0.498120585  0.493518517  0.653381840
     0.750669226  0.249556903  0.648459532
     0.000000000  0.750000000  0.450535089
     0.250000000  0.000000000  0.450535089
     0.000000000  0.000000000  0.351605267
     0.250000000  0.750000000  0.351605267
     0.999772439  0.750337934  0.650565869
     0.249261806  0.999887658  0.650737238
     0.999830501  0.999774756  0.549663713
     0.250559146  0.750233236  0.549968787
     0.000000000  0.250000000  0.450535089
     0.250000000  0.500000000  0.450535089
     0.000000000  0.500000000  0.351605267
     0.250000000  0.250000000  0.351605267
     0.999743677  0.249577840  0.650728320
     0.248180911  0.500092169  0.649707399
     0.999581945  0.500107963  0.549555474
     0.249909182  0.249616938  0.549731899
     0.500000000  0.750000000  0.450535089
     0.750000000  0.000000000  0.450535089
     0.500000000  0.000000000  0.351605267
     0.750000000  0.750000000  0.351605267
     0.500123741  0.754388696  0.653283345
     0.750494219  0.999865950  0.650705881
     0.499995285  0.999294473  0.549889090
     0.749328569  0.750031466  0.549907032
     0.500000000  0.250000000  0.450535089
     0.750000000  0.500000000  0.450535089
     0.500000000  0.500000000  0.351605267
     0.750000000  0.250000000  0.351605267
     0.500015049  0.247731826  0.650515981
     0.751682008  0.500293977  0.651056757
     0.500150597  0.500452340  0.550757543
     0.749901199  0.249887127  0.549801611

  ion indices of the primitive-cell ions
   primitive index   ion index
                 1           1
                 2           2
                 3           3
                 4           4
                 5           5
                 6           6
                 7           7
                 8           8
                 9           9
                10          10
                11          11
                12          12
                13          13
                14          14
                15          15
                16          16
                17          17
                18          18
                19          19
                20          20
                21          21
                22          22
                23          23
                24          24
[...]
   4.21817974  6.32213094 11.73949212
   6.32886287  0.00240009 11.73049459
   4.21776672  0.01682024 13.83630135
   6.35154316  6.33640988 13.81222516
   4.22049233  2.11024616  7.50000000
   6.33073849  4.22049233  7.50000000
   4.22049233  4.22049233  9.61024616
   6.33073849  2.11024616  9.61024616
   4.21864944  2.11486781 11.73767965
   6.32242489  4.21778051 11.74180651
   4.20462822  4.16578223 13.93711716
   6.33638741  2.10650599 13.83212070
   0.00000000  6.33073849  9.61024616
   2.11024616  0.00000000  9.61024616
   0.00000000  0.00000000  7.50000000
   2.11024616  6.33073849  7.50000000
   8.43906381  6.33359099 13.87705043
   2.10401508  8.44003638 13.88070586
   8.43955392  8.43908338 11.72473292
   2.11496591  6.33270723 11.73124038
   0.00000000  2.11024616  9.61024616
   2.11024616  4.22049233  9.61024616
   0.00000000  4.22049233  7.50000000
   2.11024616  2.11024616  7.50000000
   8.43882104  2.10668272 13.88051562
   2.09489126  4.22127032 13.85873863
   8.43745586  4.22140364 11.72242410
   2.10947957  2.10701274 11.72618737
   4.22049233  6.33073849  9.61024616
   6.33073849  0.00000000  9.61024616
   4.22049233  0.00000000  7.50000000
   6.33073849  6.33073849  7.50000000
   4.22153682  6.36778340 13.93501619
   6.33491019  8.43985314 13.88003698
   4.22045253  8.43502931 11.72954038
   6.32507095  6.33100409 11.72992309
   4.22049233  2.11024616  9.61024616
   6.33073849  4.22049233  9.61024616
   4.22049233  4.22049233  7.50000000
   6.33073849  2.11024616  7.50000000
   4.22061936  2.09110054 13.87598627
   6.34493629  4.22297378 13.88752142
   4.22176351  4.22431052 11.74806512
   6.32990452  2.10929340 11.72767439

--------------------------------------- Iteration      FINAL  ---------------------------------------

--------------------OUTCAR has been truncated-------------------------

[...]

--------------------OUTCAR has been truncated-------------------------

  DFT-D2 method for vdW energy calculation

  Parameters of vdW forcefield:
         C6(Jnm^6/mol)     R0(A)
   H        0.140          1.001
   O        0.700          1.342
   Mg       0.630          1.243
   O        0.700          1.342

  vdW correction parametrized for the method pbe

  IVDW =   1
  VDW_RADIUS =    50.000 A
  VDW_S6 =     0.750
  VDW_SR =     1.000
  VDW_D =    20.000
  LVDW_EWALD = F

  Number of pair interactions contributing to vdW energy:  791489
  Edisp (eV):   -3.72498

  FORCE on cell =-STRESS in cart. coord.  units (eV):
  Direction    XX          YY          ZZ          XY          YZ          ZX
  Alpha Z   899.29934   899.29934   899.29934
  Ewald  160252.11361160264.72282************   -13.83408   -25.87346    31.07552
  Hartree170491.19663170507.38747************    -2.98357    -0.57047     6.78233
  E(xc)   -2493.17016 -2493.18050 -2498.17316    -0.05999    -0.26261     0.09538
  Local  ************************340610.92134    13.10436    16.11398   -29.85861
  n-local -2842.90422 -2842.65296 -2863.11328    -0.22647     0.26139     0.37690
  augment  1054.22241  1054.60637  1046.06846     0.23787     0.65808    -0.54724
  Kinetic  7449.15435  7454.49048  7501.46655     3.79052     9.72196    -7.87207
  Fock        0.00000     0.00000     0.00000     0.00000     0.00000     0.00000
  vdW        -5.43404    -5.35026    -4.44418    -0.00181     0.00191     0.00939
  Total     -23.34303   -23.11997    -0.17571     0.02684     0.05078     0.06160
  in kB     -24.60796   -24.37282    -0.18523     0.02829     0.05353     0.06494

 VOLUME and BASIS-vectors are now :
  energy-cutoff  :      600.00
  volume of cell :     1519.82
      direct lattice vectors                 reciprocal lattice vectors
     8.440984654  0.000000000  0.000000000     0.118469591  0.000000000  0.000000000
     0.000000000  8.440984654  0.000000000     0.000000000  0.118469591  0.000000000
     0.000000000  0.000000000 21.330738491     0.000000000  0.000000000  0.046880702

  length of vectors
     8.440984654  8.440984654 21.330738491     0.118469591  0.118469591  0.046880702

 FORCES acting on ions:
    Electron-Ion                     Ewald-Force                    Non-Local-Force
   -.819E+02 0.154E+02 -.292E+03   0.897E+02 -.169E+02 0.295E+03   -.778E+01 0.146E+01 -.243E+01
   0.679E+00 -.672E+02 -.264E+03   -.800E+00 0.731E+02 0.260E+03   0.103E+00 -.597E+01 0.377E+01
   0.486E+02 0.273E+02 -.170E+04   -.858E+02 -.473E+02 0.171E+04   0.372E+02 0.201E+02 -.111E+02
   -.169E-01 -.206E-01 0.208E+04   0.185E-01 0.173E-01 -.208E+04   -.112E-02 0.235E-02 -.702E+01
   -.321E-01 -.300E-01 0.208E+04   0.336E-01 0.322E-01 -.208E+04   -.100E-02 -.152E-02 -.705E+01
   -.148E+00 -.258E+00 0.715E+03   0.164E+00 0.294E+00 -.715E+03   -.116E-01 -.259E-01 0.447E+00
   -.344E-01 -.867E-03 0.715E+03   0.114E+00 -.985E-02 -.715E+03   -.588E-01 0.600E-02 0.594E+00
   -.398E+00 -.284E+01 -.640E+03   0.479E+00 0.278E+01 0.640E+03   -.782E-01 0.514E-01 -.136E+00
   0.256E+01 -.107E+01 -.645E+03   -.252E+01 0.114E+01 0.646E+03   -.390E-01 -.707E-01 -.249E+00
   -.927E+00 -.433E+01 -.202E+04   0.994E+00 0.448E+01 0.201E+04   -.671E-01 -.152E+00 0.599E+01
   0.250E+02 -.211E+02 -.198E+04   -.260E+02 0.212E+02 0.198E+04   0.947E+00 -.288E-01 0.615E+01
   -.957E-02 0.199E-01 0.208E+04   0.103E-01 -.168E-01 -.208E+04   -.483E-03 -.217E-02 -.705E+01
   -.636E-01 0.306E-01 0.208E+04   0.698E-01 -.331E-01 -.208E+04   -.478E-02 0.174E-02 -.705E+01
   -.914E-01 0.249E+00 0.716E+03   0.611E-01 -.289E+00 -.716E+03   0.222E-01 0.285E-01 0.354E+00
   -.154E+00 -.317E-01 0.715E+03   0.149E+00 0.379E-01 -.716E+03   0.446E-02 -.275E-02 0.454E+00
   -.653E-01 0.285E+01 -.646E+03   0.108E+00 -.279E+01 0.646E+03   -.416E-01 -.575E-01 -.136E+00
   0.355E+01 0.111E+01 -.636E+03   -.334E+01 -.117E+01 0.637E+03   -.210E+00 0.597E-01 -.968E+00
   -.120E+01 0.513E+01 -.200E+04   0.138E+01 -.527E+01 0.200E+04   -.175E+00 0.143E+00 0.602E+01
   0.165E+02 0.180E+02 -.201E+04   -.168E+02 -.181E+02 0.200E+04   0.303E+00 0.520E-01 0.608E+01
   0.177E-01 0.939E-02 0.208E+04   -.193E-01 -.180E-01 -.208E+04   0.121E-02 0.646E-02 -.705E+01
   0.311E-01 -.375E-01 0.208E+04   -.329E-01 0.405E-01 -.208E+04   0.134E-02 -.214E-02 -.703E+01
   0.141E+00 -.306E+00 0.715E+03   -.164E+00 0.261E+00 -.715E+03   0.162E-01 0.329E-01 0.499E+00
   0.250E-02 0.486E-01 0.715E+03   -.838E-01 -.102E+00 -.716E+03   0.600E-01 0.377E-01 0.610E+00
   0.412E+00 -.295E+01 -.645E+03   -.483E+00 0.273E+01 0.644E+03   0.710E-01 0.221E+00 0.903E+00
   -.256E+01 -.142E+01 -.643E+03   0.253E+01 0.153E+01 0.643E+03   0.368E-01 -.105E+00 -.193E+00
   0.117E+01 -.112E+02 -.200E+04   -.124E+01 0.116E+02 0.199E+04   0.631E-01 -.453E+00 0.589E+01
   -.259E+02 -.221E+02 -.197E+04   0.270E+02 0.223E+02 0.196E+04   -.103E+01 -.250E+00 0.619E+01
   0.930E-02 -.130E-01 0.208E+04   -.104E-01 0.206E-01 -.208E+04   0.793E-03 -.572E-02 -.704E+01
   0.620E-01 0.389E-01 0.208E+04   -.690E-01 -.419E-01 -.208E+04   0.535E-02 0.217E-02 -.706E+01
   0.753E-01 0.336E+00 0.713E+03   -.578E-01 -.308E+00 -.714E+03   -.139E-01 -.228E-01 0.707E+00
   0.132E+00 -.855E-01 0.715E+03   -.134E+00 0.139E+00 -.716E+03   0.119E-03 -.373E-01 0.510E+00
   0.684E-01 0.364E+01 -.638E+03   -.106E+00 -.346E+01 0.639E+03   0.375E-01 -.175E+00 -.493E+00
   -.339E+01 0.148E+01 -.641E+03   0.317E+01 -.158E+01 0.641E+03   0.218E+00 0.905E-01 -.359E+00
   0.479E+01 0.302E+02 -.191E+04   -.518E+01 -.320E+02 0.191E+04   0.386E+00 0.180E+01 0.259E+01
   -.168E+02 0.182E+02 -.200E+04   0.171E+02 -.184E+02 0.199E+04   -.280E+00 0.199E+00 0.608E+01
   -.222E-01 -.220E+00 0.537E+03   0.200E-01 0.206E+00 -.537E+03   0.159E-02 0.208E-01 0.193E-01
   -.215E-01 -.187E-01 0.536E+03   0.252E-01 0.378E-01 -.536E+03   -.424E-02 -.283E-01 -.108E+00
   -.148E-01 -.271E-01 0.156E+04   0.181E-01 0.337E-01 -.157E+04   -.460E-02 -.919E-02 0.349E+01
   -.328E-01 -.432E-02 0.156E+04   0.411E-01 0.111E-02 -.157E+04   -.116E-01 0.445E-02 0.349E+01
   -.224E+01 -.716E+01 -.153E+04   0.230E+01 0.706E+01 0.153E+04   -.540E-01 0.105E+00 -.508E+01
   0.841E+01 -.583E+01 -.153E+04   -.820E+01 0.578E+01 0.153E+04   -.205E+00 0.531E-01 -.506E+01
   -.374E+00 -.124E+01 -.480E+03   0.384E+00 0.127E+01 0.480E+03   -.105E-01 -.274E-01 0.179E+00
   0.200E+01 -.245E+01 -.475E+03   -.209E+01 0.240E+01 0.474E+03   0.899E-01 0.561E-01 0.434E+00
   0.110E-01 0.211E+00 0.536E+03   -.184E-02 -.192E+00 -.536E+03   -.134E-01 -.274E-01 -.854E-01
   -.181E+00 0.198E-01 0.535E+03   0.131E+00 -.329E-01 -.535E+03   0.682E-01 0.204E-01 -.161E+00
   -.726E-02 0.276E-01 0.156E+04   0.614E-02 -.341E-01 -.157E+04   0.158E-02 0.894E-02 0.348E+01
   -.359E-01 0.371E-02 0.156E+04   0.361E-01 -.350E-03 -.157E+04   -.329E-03 -.468E-02 0.348E+01
   -.934E+00 0.659E+01 -.153E+04   0.934E+00 -.649E+01 0.154E+04   0.197E-02 -.941E-01 -.504E+01
   0.294E+02 0.816E+01 -.149E+04   -.291E+02 -.810E+01 0.150E+04   -.383E+00 -.683E-01 -.518E+01
   0.283E-01 0.125E+01 -.474E+03   0.729E-02 -.128E+01 0.473E+03   -.358E-01 0.312E-01 0.242E+00
   0.234E+01 0.240E+01 -.476E+03   -.234E+01 -.234E+01 0.476E+03   -.488E-02 -.592E-01 0.195E+00
   0.301E-01 -.748E-01 0.536E+03   -.260E-01 0.124E+00 -.536E+03   -.432E-02 -.646E-01 -.143E+00
   0.908E-03 -.563E-01 0.536E+03   0.474E-02 0.647E-01 -.536E+03   -.806E-02 -.142E-01 -.522E-01
   0.156E-01 -.292E-01 0.156E+04   -.186E-01 0.280E-01 -.157E+04   0.416E-02 0.163E-02 0.349E+01
   0.321E-01 0.271E-02 0.156E+04   -.404E-01 -.106E-01 -.157E+04   0.116E-01 0.110E-01 0.349E+01
   0.381E+01 -.371E+02 -.147E+04   -.391E+01 0.369E+02 0.147E+04   0.102E+00 0.238E+00 -.204E+01
   -.853E+01 -.718E+01 -.153E+04   0.832E+01 0.719E+01 0.153E+04   0.219E+00 -.507E-02 -.508E+01
   0.411E+00 -.618E+00 -.476E+03   -.429E+00 0.664E+00 0.476E+03   0.207E-01 -.488E-01 0.315E+00
   -.200E+01 -.206E+01 -.471E+03   0.209E+01 0.204E+01 0.471E+03   -.873E-01 0.187E-01 0.748E+00
   -.243E-01 0.171E-02 0.535E+03   0.240E-01 -.287E-01 -.535E+03   0.177E-02 0.364E-01 -.964E-01
   0.153E+00 0.720E-01 0.535E+03   -.872E-01 -.802E-01 -.535E+03   -.897E-01 0.137E-01 -.196E+00
   0.841E-02 0.318E-01 0.156E+04   -.673E-02 -.299E-01 -.157E+04   -.240E-02 -.263E-02 0.348E+01
   0.360E-01 -.387E-02 0.156E+04   -.360E-01 0.117E-01 -.157E+04   -.300E-04 -.109E-01 0.349E+01
   0.113E+01 0.263E+02 -.151E+04   -.114E+01 -.263E+02 0.151E+04   0.107E-01 0.307E-01 -.495E+01
   -.310E+02 0.106E+02 -.149E+04   0.304E+02 -.106E+02 0.150E+04   0.631E+00 -.533E-01 -.482E+01
   -.135E+00 0.147E+00 -.484E+03   0.869E-01 -.219E+00 0.484E+03   0.494E-01 0.719E-01 -.759E+00
   -.235E+01 0.201E+01 -.476E+03   0.234E+01 -.199E+01 0.476E+03   0.776E-02 -.216E-01 0.332E+00
   -.299E+02 -.171E+02 0.271E+02   -.711E-14 0.160E-12 0.625E-12   0.299E+02 0.171E+02 -.271E+02

 POSITION                                       TOTAL-FORCE (eV/Angst)
      5.20595      4.67946     16.35883         0.008467     -0.026360      0.003054
      4.30431      5.67900     15.53856        -0.017858      0.018864     -0.015690
      4.28384      4.82937     16.08552         0.002473      0.010568     -0.019858
      0.00000      6.33074      7.50000         0.000440     -0.001013      0.343771
      2.11025      0.00000      7.50000         0.000465      0.000669      0.350685
      0.00000      0.00000      9.61025         0.004275      0.009863      0.025877
      2.11025      6.33074      9.61025         0.020695     -0.004520      0.032533
      0.00175      6.32879     11.72745         0.002397     -0.001207      0.037538
      2.11061      0.00106     11.73276         0.002458      0.001714      0.041553
      0.00062      0.00346     13.83502         0.000466     -0.001332     -0.015078
      2.09069      6.33005     13.83160        -0.010241      0.005053     -0.012056
      0.00000      2.11025      7.50000         0.000262      0.000924      0.351752
      2.11025      4.22049      7.50000         0.001440     -0.000725      0.351185
      0.00000      4.22049      9.61025        -0.007871     -0.011179      0.049577
      2.11025      2.11025      9.61025        -0.000540      0.003353      0.037885
      0.00026      2.11143     11.72998         0.001569      0.000631      0.038445
      2.11604      4.21832     11.74046         0.002201     -0.000971      0.040872
      0.00359      4.21639     13.83025         0.003486      0.001871     -0.015052
      2.10166      2.10903     13.83819         0.003105     -0.003921     -0.011542
      4.22049      6.33074      7.50000        -0.000370     -0.002091      0.351708
      6.33074      0.00000      7.50000        -0.000481      0.000835      0.347005
      4.22049      0.00000      9.61025        -0.006706     -0.011526      0.051691
      6.33074      6.33074      9.61025        -0.020778     -0.015223      0.028554
      4.21818      6.32213     11.73949        -0.000962      0.002329      0.027597
      6.32886      0.00240     11.73049        -0.000777      0.002565      0.041075
      4.21777      0.01682     13.83630         0.000940      0.011285     -0.014816
      6.35154      6.33641     13.81223         0.010472      0.007925     -0.011663
      4.22049      2.11025      7.50000        -0.000267      0.001849      0.348310
      6.33074      4.22049      7.50000        -0.001543     -0.000837      0.353910
      4.22049      4.22049      9.61025         0.003559      0.005244      0.068599
      6.33074      2.11025      9.61025        -0.001504      0.015652      0.033338
      4.21865      2.11487     11.73768        -0.000798      0.001890      0.042280
      6.32242      4.21778     11.74181        -0.000098     -0.001440      0.035490
      4.20463      4.16578     13.93712        -0.000442     -0.028613      0.029749
      6.33639      2.10651     13.83212        -0.000679     -0.007825     -0.014179
      0.00000      6.33074      9.61025        -0.000585      0.006697      0.066077
      2.11025      0.00000      9.61025        -0.000573     -0.009418      0.053074
      0.00000      0.00000      7.50000        -0.001271     -0.002605     -0.515158
      2.11025      6.33074      7.50000        -0.003294      0.001230     -0.515556
      8.43906      6.33359     13.87705         0.002234      0.000021      0.021712
      2.10402      8.44004     13.88071        -0.001150      0.001318      0.019586
      8.43955      8.43908     11.72473        -0.000376     -0.000323      0.010901
      2.11497      6.33271     11.73124         0.000963      0.000593      0.011703
      0.00000      2.11025      9.61025        -0.004292     -0.008381      0.046019
      2.11025      4.22049      9.61025         0.018567      0.007330      0.076910
      0.00000      4.22049      7.50000         0.000491      0.002499     -0.517324
      2.11025      2.11025      7.50000        -0.000066     -0.001329     -0.517525
      8.43882      2.10668     13.88052         0.001549      0.004772      0.016548
      2.09489      4.22127     13.85874        -0.010793     -0.001093      0.019965
      8.43746      4.22140     11.72242        -0.000450      0.002606      0.010196
      2.10948      2.10701     11.72619         0.000077      0.001496      0.008968
      4.22049      6.33074      9.61025        -0.000137     -0.015743      0.074784
      6.33074      0.00000      9.61025        -0.002349     -0.005884      0.058842
      4.22049      0.00000      7.50000         0.001205      0.000476     -0.515657
      6.33074      6.33074      7.50000         0.003358      0.003117     -0.514839
      4.22154      6.36778     13.93502         0.001292      0.017925      0.037314
      6.33491      8.43985     13.88004         0.003925      0.001419      0.021793
      4.22045      8.43503     11.72954         0.002252     -0.002476      0.010200
      6.32507      6.33100     11.72992         0.000475      0.000486      0.012242
      4.22049      2.11025      9.61025         0.001489      0.009365      0.083191
      6.33074      4.22049      9.61025        -0.023824      0.005566      0.071437
      4.22049      4.22049      7.50000        -0.000685     -0.000814     -0.519398
      6.33074      2.11025      7.50000         0.000026     -0.003115     -0.517024
      4.22062      2.09110     13.87599         0.000617     -0.004183      0.020266
      6.34494      4.22297     13.88752         0.010747      0.000723      0.031748
      4.22176      4.22431     11.74807         0.001938      0.001500      0.005551
      6.32990      2.10929     11.72767         0.001387      0.001922      0.009359
    total drift:                               -0.002381      0.000790      0.004701

  FREE ENERGIE OF THE ION-ELECTRON SYSTEM (eV)
  free  energy   TOTEN  =      -390.57867053 eV

  energy  without entropy=     -390.57867053  energy(sigma->0) =     -390.57867053