 vasp.6.4.2 20Jul23 (build Feb 22 2024 13:53:45) complex
 executed on              LinuxNV date 2024.08.27  20:34:28
 OpenACC runtime initialized ...    4 GPUs detected

 INCAR:
   SYSTEM = Oxide-Surface
   ISMEAR = 0
   SIGMA = 0.05
   EDIFF = 1E-5
   ALGO = Normal
   IBRION = -1
   NSW = 0
   ISYM = 0
   DIPOL = 0.5 0.5 0.5
   IDIPOL = 3
   LDIPOL = .TRUE.
   ISTART = 1
   METAGGA = R2SCAN
   ENCUT = 1000
   PREC = Normal
   PRECFOCK = Normal
   LASPH = .TRUE.
   LREAL = Auto
   ISPIN = 1
   NELM = 200
   NELMIN = 8
   NCORE = 1
   KPAR = 1
   LWAVE = .FALSE.
   LCHARG = .FALSE.

 POTCAR:    PAW_PBE N_h 06Feb2004
 POTCAR:    PAW_PBE H_h 06Feb2004
 POTCAR:    PAW_PBE Mg_sv 12Apr2007
 POTCAR:    PAW_PBE O_h 06Feb2004
 POTCAR:    PAW_PBE N_h 06Feb2004
   VRHFIN =N: s2p3

   TITEL  = PAW_PBE N_h 06Feb2004
   POMASS =   14.001; ZVAL   =    5.000    mass and valenz
   ENMAX  =  700.000; ENMIN  =  500.000 eV

[...]

   TITEL  = PAW_PBE Mg_sv 12Apr2007
   POMASS =   24.305; ZVAL   =   10.000    mass and valenz
   ENMAX  =  495.223; ENMIN  =  371.417 eV

   TITEL  = PAW_PBE O_h 06Feb2004
   POMASS =   16.000; ZVAL   =    6.000    mass and valenz
   ENMAX  =  700.000; ENMIN  =  500.000 eV

 Optimization of the real space projectors (new method)

 maximal supplied QI-value         = 34.20
 optimisation between [QCUT,QGAM] = [ 16.08, 32.15] = [ 72.37,289.48] Ry
 Optimized for a Real-space Cutoff    0.71 Angstroem

   l    n(q)    QCUT    max X(q) W(low)/X(q) W(high)/X(q)  e(spline)
   0      7    16.076   148.539    0.44E-03    0.75E-03    0.58E-07
   0      7    16.076   106.192    0.44E-03    0.75E-03    0.58E-07
   1      6    16.076    73.877    0.23E-03    0.61E-03    0.11E-06
   1      6    16.076    50.042    0.22E-03    0.60E-03    0.11E-06
 Optimization of the real space projectors (new method)

[...]

   l    n(q)    QCUT    max X(q) W(low)/X(q) W(high)/X(q)  e(spline)
   0      9    16.140     8.730    0.14E-04    0.12E-04    0.27E-07
   0      9    16.140     8.910    0.19E-04    0.17E-04    0.41E-07
   1      9    16.140     2.513    0.16E-04    0.28E-04    0.54E-07
   1      9    16.140     3.341    0.27E-04    0.13E-03    0.17E-06
   2      9    16.140     3.683    0.18E-03    0.21E-03    0.81E-07
 Optimization of the real space projectors (new method)

 maximal supplied QI-value         = 34.20
 optimisation between [QCUT,QGAM] = [ 16.08, 32.15] = [ 72.37,289.48] Ry
 Optimized for a Real-space Cutoff    0.71 Angstroem

   l    n(q)    QCUT    max X(q) W(low)/X(q) W(high)/X(q)  e(spline)
   0      7    16.076   280.207    0.42E-03    0.69E-03    0.60E-07
   0      7    16.076   228.978    0.42E-03    0.69E-03    0.61E-07
   1      6    16.076    86.127    0.11E-03    0.66E-03    0.10E-06
   1      6    16.076    65.368    0.11E-03    0.65E-03    0.10E-06
  PAW_PBE N_h 06Feb2004                 :
  PAW_PBE H_h 06Feb2004                 :
  PAW_PBE Mg_sv 12Apr2007               :
  PAW_PBE O_h 06Feb2004                 :

 POSCAR:  N  H Mg  O
  positions in direct lattice

 METAGGA = R2SCAN                                      LMAXTAU =  6    LMIXTAU =  F

 ion  position               nearest neighbor table
   1  0.500  0.516  0.743-   4 1.02   3 1.02   2 1.02
   2  0.500  0.635  0.753-   1 1.02
   3  0.402  0.469  0.770-   1 1.02
   4  0.598  0.469  0.770-   1 1.02
   5  0.000  0.750  0.230-
   6  0.250  0.000  0.230-
   7  0.000  0.000  0.354-
   8  0.250  0.750  0.354-
   9  0.000  0.750  0.479-
  10  0.250  1.000  0.479-
  11  0.000  1.000  0.603-
  12  0.250  0.750  0.602-
  13  0.000  0.250  0.230-
  14  0.250  0.500  0.230-
  15  0.000  0.500  0.354-
  16  0.250  0.250  0.354-
  17  1.000  0.250  0.479-
  18  0.251  0.500  0.480-
  19  0.000  0.500  0.602-
  20  0.250  0.250  0.602-
  21  0.500  0.750  0.230-
  22  0.750  0.000  0.230-
  23  0.500  0.000  0.354-
  24  0.750  0.750  0.354-
  25  0.500  0.749  0.480-
  26  0.750  1.000  0.479-
  27  0.500  0.000  0.602-
  28  0.750  0.750  0.602-
  29  0.500  0.250  0.230-
  30  0.750  0.500  0.230-
  31  0.500  0.500  0.354-
  32  0.750  0.250  0.354-
  33  0.500  0.251  0.480-
  34  0.749  0.500  0.480-
  35  0.500  0.499  0.611-
  36  0.750  0.250  0.602-
  37  0.000  0.750  0.354-
  38  0.250  0.000  0.354-
  39  0.000  0.000  0.230-
  40  0.250  0.750  0.230-
  41  1.000  0.750  0.606-
  42  0.249  1.000  0.606-
  43  1.000  1.000  0.479-
  44  0.250  0.750  0.479-
  45  0.000  0.250  0.354-
  46  0.250  0.500  0.354-
  47  0.000  0.500  0.230-
  48  0.250  0.250  0.230-
  49  0.000  0.249  0.606-
  50  0.247  0.500  0.606-
  51  0.000  0.500  0.479-
  52  0.250  0.250  0.479-
  53  0.500  0.750  0.354-
  54  0.750  0.000  0.354-
  55  0.500  0.000  0.230-
  56  0.750  0.750  0.230-
  57  0.500  0.753  0.606-
  58  0.751  1.000  0.606-
  59  0.500  1.000  0.479-
  60  0.750  0.750  0.479-
  61  0.500  0.250  0.354-
  62  0.750  0.500  0.354-
  63  0.500  0.500  0.230-
  64  0.750  0.250  0.230-
  65  0.500  0.247  0.606-
  66  0.753  0.500  0.606-
  67  0.500  0.500  0.480-
  68  0.750  0.250  0.479-

IMPORTANT INFORMATION: All symmetrisations will be switched off!
NOSYMM: (Re-)initialisation of all symmetry stuff for point group C_1.

                                     Primitive cell

  volume of cell :    1211.2538

  direct lattice vectors                    reciprocal lattice vectors
     8.440984654  0.000000000  0.000000000     0.118469591  0.000000000  0.000000000
     0.000000000  8.440984654  0.000000000     0.000000000  0.118469591  0.000000000
     0.000000000  0.000000000 17.000000000     0.000000000  0.000000000  0.058823529

  length of vectors
     8.440984654  8.440984654 17.000000000     0.118469591  0.118469591  0.058823529

  position of ions in fractional coordinates (direct lattice)
     0.500000238  0.515521052  0.743122297
     0.499999982  0.635072459  0.752584339
     0.402069062  0.469398098  0.769809164
     0.597931074  0.469398359  0.769809375
     0.000000001  0.750005063  0.230190625
     0.250000001  0.000005063  0.230190625
     0.000000001  0.000005063  0.354322752
     0.250000001  0.750005063  0.354322752
     0.000000003  0.749688989  0.478992539
     0.250263523  0.999994937  0.479012029
     0.000000001  0.999958952  0.602562889
     0.249680170  0.750040946  0.602146405
     0.000000001  0.250005063  0.230190625
     0.250000001  0.500005063  0.230190625
     0.000000001  0.500005063  0.354322752
     0.250000001  0.250005063  0.354322752
     0.999999996  0.250234310  0.479017192
     0.251264403  0.499912485  0.479817993
     0.000000018  0.499894003  0.602327959
     0.249874846  0.249737023  0.602282337
     0.500000001  0.750005063  0.230190625
     0.750000001  0.000005063  0.230190625
     0.500000001  0.000005063  0.354322752
     0.750000001  0.750005063  0.354322752
     0.499999997  0.748694190  0.479856547
     0.749736478  0.999994937  0.479012045
     0.499999996  0.000235948  0.602315670
     0.750319839  0.750040932  0.602146398
     0.500000001  0.250005063  0.230190625
     0.750000001  0.500005063  0.230190625
     0.500000001  0.500005063  0.354322752
     0.750000001  0.250005063  0.354322752
     0.500000000  0.251193808  0.479761393
     0.748735611  0.499912479  0.479818037
     0.500000034  0.498643644  0.610784368
     0.750125162  0.249737020  0.602282348
     0.000000001  0.750005063  0.354322752
     0.250000001  0.000005063  0.354322752
     0.000000001  0.000005063  0.230190625
     0.250000001  0.750005063  0.230190625
     0.999999999  0.750491851  0.605981896
     0.249403678  0.999911150  0.606023354
     0.999999998  0.999937384  0.478809541
     0.249933155  0.750101855  0.478982330
     0.000000001  0.250005063  0.354322752
     0.250000001  0.500005063  0.354322752
     0.000000001  0.500005063  0.230190625
     0.250000001  0.250005063  0.230190625
     0.000000003  0.249368438  0.606057731
     0.247373171  0.499932707  0.606018755
     0.000000006  0.499983562  0.478713219
     0.249818530  0.249806475  0.478943030
     0.500000001  0.750005063  0.354322752
     0.750000001  0.000005063  0.354322752
     0.500000001  0.000005063  0.230190625
     0.750000001  0.750005063  0.230190625
     0.499999997  0.752922771  0.606464953
     0.750596323  0.999911142  0.606023376
     0.500000001  0.999876204  0.478718645
     0.750066840  0.750101852  0.478982337
     0.500000001  0.250005063  0.354322752
     0.750000001  0.500005063  0.354322752
     0.500000001  0.500005063  0.230190625
     0.750000001  0.250005063  0.230190625
     0.500000003  0.247335548  0.605753670
     0.752626877  0.499932691  0.606018757
     0.500000006  0.500046709  0.480056781
     0.750181474  0.249806464  0.478943037

  ion indices of the primitive-cell ions
   primitive index   ion index
                 1           1
                 2           2
                 3           3
                 4           4
                 5           5
                 6           6
                 7           7
                 8           8
                 9           9
                10          10
                11          11
                12          12
                13          13
                14          14
                15          15
                16          16
                17          17
                18          18
                19          19
                20          20
                21          21
                22          22
                23          23
                24          24
                25          25
                26          26
                27          27
                28          28
                29          29
                30          30
                31          31
                32          32
                33          33
                34          34
                35          35
                36          36
                37          37
                38          38
                39          39
                40          40
                41          41
                42          42
                43          43
                44          44
                45          45
                46          46
                47          47
                48          48
                49          49
                50          50
                51          51
                52          52
                53          53
                54          54
                55          55
                56          56
                57          57
                58          58
                59          59
                60          60
                61          61
                62          62
                63          63
                64          64
                65          65
                66          66
                67          67
                68          68

 KPOINTS: pymatgen v2020.8.13 with grid density =

Automatic generation of k-mesh.
 Grid dimensions read from file:
 generate k-points for:    2    2    1

 Generating k-lattice:

  Cartesian coordinates                     Fractional coordinates (reciprocal lattice)
[...]
  E(xc)   -3478.86707 -3478.83573 -3479.47155    -0.00000     0.09016     0.00002
  Local  ************************244428.69884     0.00005     1.38023    -0.00026
  n-local -5526.10880 -5526.31960 -5530.43431     0.00001    -0.64604    -0.00003
  augment   831.60896   831.65487   824.80585     0.00001     0.01469     0.00019
  Kinetic 12624.29357 12625.85186 12657.48813    -0.00000     4.76224    -0.00010
  Fock        0.00000     0.00000     0.00000     0.00000     0.00000     0.00000
  Total     -38.53589   -38.44265    -8.30739     0.00002     0.11928     0.00015
  in kB     -50.97308   -50.84975   -10.98854     0.00003     0.15777     0.00020

 VOLUME and BASIS-vectors are now :
  energy-cutoff  :     1000.00
  volume of cell :     1211.25
      direct lattice vectors                 reciprocal lattice vectors
     8.440984654  0.000000000  0.000000000     0.118469591  0.000000000  0.000000000
     0.000000000  8.440984654  0.000000000     0.000000000  0.118469591  0.000000000
     0.000000000  0.000000000 17.000000000     0.000000000  0.000000000  0.058823529

  length of vectors
     8.440984654  8.440984654 17.000000000     0.118469591  0.118469591  0.058823529

 FORCES acting on ions
    electron-ion (+dipol)            ewald-force                    non-local-force                 convergence-correction
   -.117E-03 0.669E+01 -.111E+04   0.992E-04 -.121E+02 0.108E+04   0.974E-05 0.537E+01 0.278E+02   0.567E-05 -.548E-06 0.749E-03
   0.144E-03 -.706E+02 -.223E+03   -.154E-03 0.776E+02 0.224E+03   0.438E-04 -.728E+01 -.886E+00   0.701E-06 0.360E-03 0.414E-03
   0.583E+02 0.280E+02 -.222E+03   -.641E+02 -.307E+02 0.224E+03   0.602E+01 0.286E+01 -.306E+01   -.331E-03 -.171E-03 0.637E-03
   -.583E+02 0.280E+02 -.222E+03   0.641E+02 -.307E+02 0.224E+03   -.602E+01 0.286E+01 -.306E+01   0.332E-03 -.170E-03 0.636E-03
   0.979E-05 -.281E+00 0.245E+04   -.867E-05 0.277E+00 -.244E+04   -.785E-06 0.252E-02 -.957E+01   0.796E-06 0.139E-04 -.377E-02
   0.282E+00 -.340E-01 0.245E+04   -.277E+00 0.330E-01 -.244E+04   -.329E-02 0.744E-03 -.958E+01   -.278E-04 0.927E-05 -.378E-02
   0.292E-04 -.468E-01 0.831E+03   -.292E-04 0.532E-01 -.832E+03   0.390E-05 -.513E-02 0.775E+00   0.826E-06 -.461E-05 -.642E-02
   -.641E+00 0.619E+00 0.831E+03   0.723E+00 -.689E+00 -.832E+03   -.629E-01 0.530E-01 0.847E+00   0.135E-04 -.300E-04 -.633E-02
   0.149E-04 -.331E+01 -.776E+03   -.119E-04 0.319E+01 0.776E+03   0.866E-05 0.114E+00 0.132E+00   -.223E-05 -.931E-04 -.646E-02
   0.334E+01 -.220E+00 -.777E+03   -.322E+01 0.239E+00 0.777E+03   -.112E+00 -.188E-01 0.141E+00   0.729E-04 -.446E-05 -.646E-02
   -.210E-04 -.114E+01 -.239E+04   0.346E-04 0.115E+01 0.238E+04   -.152E-04 -.125E-01 0.797E+01   -.455E-05 -.436E-05 -.507E-02
   0.260E+02 -.251E+02 -.235E+04   -.262E+02 0.252E+02 0.235E+04   0.172E+00 -.803E-01 0.818E+01   0.249E-03 -.229E-03 -.494E-02
   0.789E-05 0.280E+00 0.245E+04   -.814E-05 -.277E+00 -.244E+04   0.440E-05 -.245E-02 -.958E+01   0.151E-05 -.265E-04 -.379E-02
   0.353E+00 0.337E-01 0.245E+04   -.342E+00 -.329E-01 -.244E+04   -.801E-02 -.606E-03 -.962E+01   -.445E-04 0.441E-05 -.364E-02
   0.628E-04 0.404E-01 0.832E+03   -.604E-04 -.510E-01 -.832E+03   0.640E-05 0.812E-02 0.629E+00   -.143E-06 0.162E-04 -.627E-02
   -.554E+00 -.623E+00 0.831E+03   0.609E+00 0.688E+00 -.832E+03   -.412E-01 -.493E-01 0.820E+00   0.368E-04 0.169E-04 -.635E-02
   -.180E-04 0.331E+01 -.777E+03   0.163E-04 -.319E+01 0.777E+03   0.236E-04 -.116E+00 0.158E+00   -.394E-06 0.824E-04 -.647E-02
   0.233E+01 0.195E+00 -.773E+03   -.186E+01 -.212E+00 0.774E+03   -.482E+00 0.215E-01 -.468E+00   0.647E-04 0.184E-04 -.638E-02
   -.716E-05 0.129E+01 -.237E+04   0.129E-03 -.131E+01 0.236E+04   -.104E-03 0.174E-01 0.796E+01   -.177E-05 -.222E-05 -.502E-02
   0.239E+02 0.245E+02 -.236E+04   -.240E+02 -.246E+02 0.235E+04   0.718E-01 0.960E-01 0.817E+01   0.253E-03 0.247E-03 -.496E-02
   -.855E-05 -.351E+00 0.245E+04   0.871E-05 0.342E+00 -.244E+04   -.902E-06 0.727E-02 -.963E+01   -.152E-05 0.336E-04 -.363E-02
   -.282E+00 -.340E-01 0.245E+04   0.277E+00 0.330E-01 -.244E+04   0.331E-02 0.745E-03 -.958E+01   0.268E-04 0.937E-05 -.378E-02
   -.318E-04 0.603E-01 0.832E+03   0.317E-04 -.790E-01 -.832E+03   0.206E-04 0.144E-01 0.634E+00   -.106E-05 0.265E-04 -.624E-02
   0.641E+00 0.619E+00 0.831E+03   -.723E+00 -.689E+00 -.832E+03   0.629E-01 0.531E-01 0.847E+00   -.140E-04 -.332E-04 -.631E-02
   -.298E-05 -.203E+01 -.775E+03   0.186E-05 0.157E+01 0.775E+03   0.560E-05 0.477E+00 -.281E+00   0.331E-05 -.855E-04 -.635E-02
   -.334E+01 -.220E+00 -.777E+03   0.322E+01 0.239E+00 0.777E+03   0.112E+00 -.188E-01 0.141E+00   -.748E-04 -.670E-05 -.645E-02
   -.197E-05 -.295E+01 -.237E+04   -.112E-04 0.298E+01 0.236E+04   0.104E-04 -.338E-01 0.795E+01   0.445E-05 -.326E-04 -.502E-02
   -.260E+02 -.251E+02 -.235E+04   0.262E+02 0.252E+02 0.235E+04   -.172E+00 -.803E-01 0.818E+01   -.250E-03 -.229E-03 -.493E-02
   -.751E-05 0.351E+00 0.245E+04   0.838E-05 -.342E+00 -.244E+04   0.102E-04 -.713E-02 -.962E+01   -.185E-05 -.444E-04 -.363E-02
   -.353E+00 0.337E-01 0.245E+04   0.342E+00 -.329E-01 -.244E+04   0.803E-02 -.632E-03 -.962E+01   0.450E-04 0.579E-05 -.364E-02
   -.658E-04 -.629E-01 0.828E+03   0.646E-04 0.769E-01 -.829E+03   -.234E-05 -.112E-01 0.944E+00   -.301E-06 -.678E-05 -.628E-02
   0.554E+00 -.623E+00 0.831E+03   -.609E+00 0.688E+00 -.832E+03   0.412E-01 -.493E-01 0.820E+00   -.363E-04 0.172E-04 -.634E-02
   -.868E-05 0.236E+01 -.772E+03   0.134E-04 -.190E+01 0.773E+03   -.180E-04 -.469E+00 -.542E+00   -.482E-05 0.864E-04 -.644E-02
   -.233E+01 0.195E+00 -.773E+03   0.186E+01 -.212E+00 0.774E+03   0.482E+00 0.215E-01 -.468E+00   -.655E-04 0.209E-04 -.639E-02
   0.255E-03 0.676E+01 -.226E+04   -.193E-03 -.716E+01 0.226E+04   0.121E-04 0.380E+00 0.116E+01   0.385E-06 -.486E-04 -.352E-02
   -.239E+02 0.245E+02 -.236E+04   0.240E+02 -.246E+02 0.235E+04   -.718E-01 0.960E-01 0.817E+01   -.254E-03 0.243E-03 -.495E-02
   0.193E-04 0.153E-01 0.499E+03   -.217E-04 -.439E-01 -.499E+03   -.678E-06 0.375E-01 0.738E-02   0.277E-06 -.280E-04 -.345E-02
   -.148E-01 0.185E-01 0.499E+03   0.463E-01 -.135E-01 -.499E+03   -.413E-01 -.684E-02 -.599E-02   0.205E-04 0.108E-04 -.345E-02
   -.469E-06 -.211E-01 0.148E+04   -.422E-05 0.220E-01 -.149E+04   0.853E-05 -.123E-02 0.240E+01   0.207E-05 -.352E-05 -.226E-02
   0.186E+00 -.185E+00 0.148E+04   -.174E+00 0.176E+00 -.148E+04   -.147E-01 0.116E-01 0.236E+01   -.280E-04 0.156E-04 -.218E-02
   -.491E-04 -.735E+01 -.147E+04   0.431E-04 0.720E+01 0.147E+04   0.196E-04 0.154E+00 -.448E+01   -.147E-05 -.115E-03 -.333E-02
   0.738E+01 -.117E+01 -.147E+04   -.721E+01 0.115E+01 0.147E+04   -.166E+00 0.226E-01 -.447E+01   0.119E-03 -.146E-04 -.335E-02
   0.259E-05 -.235E+00 -.463E+03   -.545E-06 0.239E+00 0.462E+03   -.113E-04 -.689E-02 0.380E+00   -.209E-07 -.213E-05 -.364E-02
   0.160E+01 -.163E+01 -.456E+03   -.158E+01 0.160E+01 0.455E+03   -.142E-01 0.256E-01 0.602E+00   0.565E-04 -.610E-04 -.361E-02
   0.158E-04 -.262E-01 0.499E+03   -.165E-04 0.604E-01 -.499E+03   -.653E-06 -.447E-01 -.144E-01   0.566E-06 0.192E-04 -.345E-02
   -.772E-01 -.320E-01 0.497E+03   0.149E-01 0.338E-01 -.496E+03   0.767E-01 -.208E-02 -.131E+00   0.476E-05 -.178E-05 -.341E-02
   0.563E-05 0.214E-01 0.148E+04   -.650E-05 -.220E-01 -.148E+04   0.108E-04 0.753E-03 0.237E+01   -.123E-05 0.506E-05 -.219E-02
   0.187E+00 0.185E+00 0.148E+04   -.178E+00 -.176E+00 -.148E+04   -.108E-01 -.122E-01 0.236E+01   -.170E-04 -.240E-04 -.220E-02
   -.377E-04 0.725E+01 -.147E+04   0.422E-04 -.710E+01 0.147E+04   -.234E-05 -.153E+00 -.446E+01   -.214E-05 0.106E-03 -.336E-02
   0.248E+02 0.161E+01 -.143E+04   -.241E+02 -.161E+01 0.143E+04   -.792E+00 -.930E-02 -.447E+01   0.226E-03 0.110E-04 -.313E-02
   -.257E-05 0.235E+00 -.455E+03   0.633E-05 -.239E+00 0.455E+03   -.179E-04 0.433E-02 0.456E+00   0.172E-05 0.406E-05 -.360E-02
   0.174E+01 0.164E+01 -.456E+03   -.171E+01 -.162E+01 0.456E+03   -.285E-01 -.221E-01 0.544E+00   0.625E-04 0.586E-04 -.361E-02
   -.190E-04 0.817E-01 0.496E+03   0.218E-04 -.165E-01 -.496E+03   -.385E-05 -.804E-01 -.140E+00   -.231E-06 -.117E-04 -.341E-02
   0.148E-01 0.186E-01 0.499E+03   -.463E-01 -.135E-01 -.499E+03   0.413E-01 -.684E-02 -.606E-02   -.205E-04 0.107E-04 -.345E-02
   -.858E-05 -.198E-01 0.148E+04   0.428E-05 0.178E-01 -.148E+04   0.382E-05 0.251E-02 0.237E+01   0.248E-06 0.634E-05 -.221E-02
   -.186E+00 -.185E+00 0.148E+04   0.174E+00 0.176E+00 -.148E+04   0.147E-01 0.116E-01 0.236E+01   0.285E-04 0.131E-04 -.218E-02
   0.283E-04 -.248E+02 -.142E+04   -.268E-04 0.239E+02 0.143E+04   -.382E-06 0.952E+00 -.437E+01   0.103E-05 -.196E-03 -.309E-02
   -.738E+01 -.117E+01 -.147E+04   0.721E+01 0.115E+01 0.147E+04   0.166E+00 0.226E-01 -.447E+01   -.120E-03 -.133E-04 -.335E-02
   -.129E-04 -.136E-01 -.455E+03   0.123E-04 0.158E-01 0.455E+03   -.421E-05 -.852E-02 0.464E+00   0.109E-05 -.388E-06 -.359E-02
   -.160E+01 -.163E+01 -.456E+03   0.158E+01 0.160E+01 0.455E+03   0.142E-01 0.256E-01 0.602E+00   -.580E-04 -.606E-04 -.361E-02
   -.184E-04 -.969E-01 0.497E+03   0.208E-04 0.383E-01 -.497E+03   0.167E-05 0.721E-01 -.118E+00   -.742E-06 -.637E-06 -.342E-02
   0.772E-01 -.320E-01 0.497E+03   -.149E-01 0.338E-01 -.496E+03   -.767E-01 -.208E-02 -.131E+00   -.490E-05 0.115E-06 -.341E-02
   -.112E-04 0.205E-01 0.148E+04   0.662E-05 -.181E-01 -.148E+04   0.727E-05 -.350E-02 0.233E+01   -.523E-07 -.104E-05 -.209E-02
   -.187E+00 0.185E+00 0.148E+04   0.178E+00 -.176E+00 -.148E+04   0.108E-01 -.122E-01 0.236E+01   0.188E-04 -.229E-04 -.220E-02
   0.472E-04 0.245E+02 -.143E+04   -.464E-04 -.238E+02 0.144E+04   -.829E-05 -.668E+00 -.450E+01   0.170E-07 0.239E-03 -.312E-02
   -.248E+02 0.161E+01 -.143E+04   0.241E+02 -.161E+01 0.143E+04   0.792E+00 -.930E-02 -.447E+01   -.224E-03 0.115E-04 -.313E-02
   0.161E-04 -.190E+00 -.473E+03   -.190E-05 0.184E+00 0.474E+03   -.476E-05 0.847E-02 -.109E+01   -.263E-05 0.555E-05 -.353E-02
   -.174E+01 0.164E+01 -.456E+03   0.171E+01 -.162E+01 0.456E+03   0.285E-01 -.221E-01 0.544E+00   -.602E-04 0.567E-04 -.361E-02
   0.280E-03 -.449E+01 0.922E+01   0.384E-12 -.444E-12 -.398E-11   -.311E-03 0.450E+01 -.795E+01   -.248E-05 0.545E-05 -.267E+00

 POSITION                                       TOTAL-FORCE (eV/Angst)
      4.22049      4.35151     12.63308        -0.000011      0.063286      0.243952
      4.22049      5.36064     12.79393         0.000035     -0.311530     -0.051584
      3.39386      3.96218     13.08676         0.260335      0.128805     -0.138382
      5.04713      3.96218     13.08676        -0.260356      0.128774     -0.138380
      0.00000      6.33078      3.91324         0.000002     -0.001022      0.440964
      2.11025      0.00004      3.91324         0.001054     -0.000380      0.441942
      0.00000      0.00004      6.02349         0.000005      0.001173      0.088133
      2.11025      6.33078      6.02349         0.019676     -0.017417      0.097661
      0.00000      6.32811      8.14287         0.000010     -0.003353      0.064412
      2.11247      8.44094      8.14320         0.002318     -0.000053      0.066182
      0.00000      8.44064     10.24357        -0.000006      0.002394     -0.134231
      2.10755      6.33108     10.23649        -0.003596      0.004553     -0.123445
      0.00000      2.11029      3.91324         0.000006      0.000620      0.442891
      2.11025      4.22054      3.91324         0.002074      0.000021      0.451973
      0.00000      4.22054      6.02349         0.000009     -0.002584      0.125596
      2.11025      2.11029      6.02349         0.013784      0.015760      0.097925
      8.44098      2.11222      8.14329         0.000022      0.001431      0.066243
      2.12092      4.21975      8.15691        -0.012672      0.004758      0.065409
      0.00000      4.21960     10.23958         0.000017      0.002087     -0.132687
      2.10919      2.10803     10.23880        -0.002260     -0.003333     -0.133809
      4.22049      6.33078      3.91324        -0.000002     -0.002024      0.452202
      6.33074      0.00004      3.91324        -0.001030     -0.000377      0.441762
      4.22049      0.00004      6.02349         0.000020     -0.004405      0.125145
      6.33074      6.33078      6.02349        -0.019647     -0.017405      0.097634
      4.22049      6.31972      8.15756         0.000008      0.014220      0.058954
      6.32851      8.44094      8.14320        -0.002370     -0.000057      0.066233
      4.22049      0.00199     10.23937         0.000002      0.002966     -0.131954
      6.33344      6.33108     10.23649         0.003602      0.004582     -0.123369
      4.22049      2.11029      3.91324         0.000010      0.001650      0.451422
      6.33074      4.22054      3.91324        -0.002057     -0.000005      0.452161
      4.22049      4.22054      6.02349        -0.000003      0.002673      0.142004
      6.33074      2.11029      6.02349        -0.013791      0.015763      0.097932
      4.22049      2.12032      8.15594        -0.000018     -0.012943      0.073954
      6.32007      4.21975      8.15691         0.012635      0.004744      0.065631
      4.22049      4.20904     10.38333         0.000075     -0.017679      0.016605
      6.33179      2.10803     10.23880         0.002247     -0.003331     -0.133933
      0.00000      6.33078      6.02349        -0.000002      0.009149      0.039929
      2.11025      0.00004      6.02349        -0.010114     -0.001928      0.037882
      0.00000      0.00004      3.91324         0.000005     -0.000496     -0.398569
      2.11025      6.33078      3.91324        -0.003427      0.002482     -0.414430
      8.44098      6.33489     10.30169         0.000012      0.004309     -0.149925
      2.10521      8.44023     10.30240        -0.003780      0.002584     -0.149996
      8.44098      8.44046      8.13976        -0.000009     -0.003208      0.018232
      2.10968      6.33160      8.14270         0.001170     -0.000614      0.017654
      0.00000      2.11029      6.02349         0.000000     -0.011087      0.036156
      2.11025      4.22054      6.02349         0.015143     -0.000436      0.060498
      0.00000      4.22054      3.91324         0.000011     -0.000021     -0.404968
      2.11025      2.11029      3.91324        -0.002530     -0.003085     -0.414709
      0.00000      2.10492     10.30298         0.000001     -0.004398     -0.146969
      2.08807      4.21992     10.30232        -0.019963     -0.000795     -0.148342
      0.00000      4.22035      8.13812        -0.000009      0.000350      0.012511
      2.10871      2.10861      8.14203         0.003259      0.003848      0.016862
      4.22049      6.33078      6.02349        -0.000001     -0.016126      0.061239
      6.33074      0.00004      6.02349         0.010128     -0.001928      0.037841
      4.22049      0.00004      3.91324        -0.000001      0.000377     -0.404469
      6.33074      6.33078      3.91324         0.003436      0.002482     -0.414373
      4.22049      6.35541     10.30990         0.000002      0.019805     -0.153898
      6.33577      8.44023     10.30240         0.003737      0.002581     -0.150001
      4.22049      8.43994      8.13822        -0.000003     -0.006321      0.015982
      6.33130      6.33160      8.14270        -0.001176     -0.000617      0.017631
      4.22049      2.11029      6.02349         0.000004      0.013997      0.059269
      6.33074      4.22054      6.02349        -0.015137     -0.000431      0.060496
      4.22049      4.22054      3.91324         0.000000     -0.001328     -0.410228
      6.33074      2.11029      3.91324         0.002529     -0.003074     -0.414706
      4.22049      2.08776     10.29781        -0.000007     -0.014036     -0.147950
      6.35291      4.21992     10.30232         0.019856     -0.000806     -0.148331
      4.22049      4.22089      8.16097         0.000003      0.002560     -0.030336
      6.33227      2.10861      8.14203        -0.003264      0.003850      0.016865
    total drift:                               -0.000033      0.008652      1.005642

  FREE ENERGIE OF THE ION-ELECTRON SYSTEM (eV)
  free  energy   TOTEN  =      -528.26790902 eV

  energy  without entropy=     -528.26790902  energy(sigma->0) =     -528.26790902

     |            E. Caldeweyher, S. Ehlert & S. Grimme          |
     |          Mulliken Center for Theoretical Chemistry        |
     |                    University of Bonn                     |

Rational (Becke-Johnson) damping: r2scan-D4-ATM
  s6         1.0000
  s8         0.6019
  s9         1.0000
  a1         0.5156
  a2         5.7734
 alp        16.0000

Dispersion energy:      -1.1557443958505E-01 Eh