 vasp.6.3.0 20Jan22 (build Mar 11 2022 13:48:16) complex

 executed on             LinuxIFC date 2024.08.23  19:53:32

 INCAR:
   SYSTEM = MgO-rocksalt
   ISMEAR = 0
   SIGMA = 0.05
   EDIFF = 1E-7
   ALGO = ALL
   ISTART = 0
   IBRION = 2
   NSW = 1000
   ISYM = 0
   ISIF = 2
   EDIFFG = -0.01
   DIPOL = 0.5 0.5 0.5
   IDIPOL = 3
   LDIPOL = .TRUE.
   GGA = RE
   IVDW = 13
   VDW_S8 = 1.7468
   VDW_A1 = 0.5363
   VDW_A2 = 3.0726
   ENCUT = 600
   PREC = Accurate
   LASPH = .TRUE.
   LREAL = .FALSE.
   ISPIN = 1
   NELM = 200
   NELMIN = 8
   NCORE = 8
   KPAR = 1
   LWAVE = .FALSE.
   LCHARG = .FALSE.

 POTCAR:    PAW_PBE Ti_pv 07Sep2000
 POTCAR:    PAW_PBE O 08Apr2002
|           W    W    AA    RRRRR   N    N  II  N    N   GGGG   !!!           |
|           W    W   A  A   R    R  NN   N  II  NN   N  G    G  !!!           |
|           W    W  A    A  R    R  N N  N  II  N N  N  G       !!!           |
|           W WW W  AAAAAA  RRRRR   N  N N  II  N  N N  G  GGG   !            |
|           WW  WW  A    A  R   R   N   NN  II  N   NN  G    G                |
|           W    W  A    A  R    R  N    N  II  N    N   GGGG   !!!           |
|     For optimal performance we recommend to set                             |
|       NCORE = 2 up to number-of-cores-per-socket                            |
|     This setting can greatly improve the performance of VASP for DFT.       |
|     The default, NCORE=1 might be grossly inefficient on modern             |
|     multi-core architectures or massively parallel machines. Do your        |
|     Unfortunately you need to use the default for GW and RPA                |
|     calculations (for HF NCORE is supported but not extensively tested      |
|     yet).                                                                   |

   TITEL  = PAW_PBE Ti_pv 07Sep2000
   POMASS =   47.880; ZVAL   =   10.000    mass and valenz
   ENMAX  =  222.335; ENMIN  =  166.751 eV

   TITEL  = PAW_PBE O 08Apr2002
   POMASS =   16.000; ZVAL   =    6.000    mass and valenz
   ENMAX  =  400.000; ENMIN  =  300.000 eV

  PAW_PBE Ti_pv 07Sep2000               :
  PAW_PBE O 08Apr2002                   :

 POSCAR: Ti  O
  positions in direct lattice
|           W    W    AA    RRRRR   N    N  II  N    N   GGGG   !!!           |
|           W    W   A  A   R    R  NN   N  II  NN   N  G    G  !!!           |
|           W    W  A    A  R    R  N N  N  II  N N  N  G       !!!           |
|           W WW W  AAAAAA  RRRRR   N  N N  II  N  N N  G  GGG   !            |
|           WW  WW  A    A  R   R   N   NN  II  N   NN  G    G                |
|           W    W  A    A  R    R  N    N  II  N    N   GGGG   !!!           |
|     Specifying the vdW parameters                                           |
|     VDW_S8 = 1.747                                                          |
|     VDW_A1 = 0.536                                                          |
|     VDW_A2 = 3.073                                                          |
|     in the INCAR file will overwrite the defaults for revpbe. Please        |
|     make sure that is what you intended.                                    |

 ion  position               nearest neighbor table
   1  0.808  0.833  0.295-  85 1.94  53 1.94  51 1.94  50 1.99  52 1.99  18 3.05   4 3.05   2 3.05

   2  0.592  0.667  0.327-  49 1.94 116 1.94  52 1.94  54 1.94  53 1.99  55 1.99   7 3.05  33 3.05
                             3 3.05   1 3.05
   3  0.308  0.667  0.295- 121 1.94  57 1.94  55 1.94  49 1.99  56 1.99  36 3.05   2 3.05   4 3.05

   4  0.092  0.833  0.327-  50 1.94  88 1.94  56 1.94  58 1.94  57 1.99  51 1.99   5 3.05  19 3.05
                             1 3.05   3 3.05
   5  0.944  0.833  0.421-  51 1.94  59 1.94  93 1.94  61 1.94  58 1.99  60 1.99   4 3.05  22 3.05
                             8 3.05   6 3.05
   6  0.728  0.667  0.453-  62 1.94 124 1.94  54 1.94  60 1.94  63 1.99  61 1.99  37 3.05  11 3.05
                             7 3.05   5 3.05
   7  0.444  0.667  0.421-  55 1.94  63 1.94 129 1.94  65 1.94  54 1.99  64 1.99   2 3.05  40 3.05
                             6 3.05   8 3.05
   8  0.228  0.833  0.453-  66 1.94  96 1.94  58 1.94  64 1.94  59 1.99  65 1.99  23 3.05   9 3.05
                             5 3.05   7 3.05
   9  0.080  0.833  0.547- 101 1.94  67 1.94  69 1.94  59 1.94  68 1.99  66 1.99  26 3.05   8 3.05
                            12 3.05  10 3.05
  10  0.864  0.667  0.579-  70 1.94 132 1.94  68 1.94  62 1.94  71 1.99  69 1.99  15 3.05  41 3.05
                            11 3.05   9 3.05
  11  0.580  0.667  0.547- 137 1.94  71 1.94  73 1.94  63 1.94  72 1.99  62 1.99  44 3.05   6 3.05
                            10 3.05  12 3.05
  12  0.364  0.833  0.579-  74 1.94 104 1.94  72 1.94  66 1.94  67 1.99  73 1.99  13 3.05  27 3.05
                             9 3.05  11 3.05
  13  0.216  0.833  0.673- 109 1.94  75 1.94  77 1.94  67 1.94  76 1.99  74 1.99  12 3.05  30 3.05
                            16 3.05  14 3.05
  14  0.000  0.667  0.705- 140 1.94  76 1.94  70 1.94  78 1.99  77 1.99  45 3.05  15 3.05  13 3.05

[...]

  17  0.808  0.167  0.295-  85 1.94 117 1.94  83 1.94  82 1.99  84 1.99  18 3.05  20 3.05  34 3.05

[...]

  36  0.092  0.500  0.327- 114 1.94  56 1.94 120 1.94 122 1.94 121 1.99 115 1.99  37 3.05  35 3.05
                             3 3.05  33 3.05
  37  0.944  0.500  0.421- 115 1.94 123 1.94  61 1.94 125 1.94 122 1.99 124 1.99  36 3.05   6 3.05
                            38 3.05  40 3.05
  38  0.728  0.333  0.453- 126 1.94 124 1.94 118 1.94  92 1.94 127 1.99 125 1.99  37 3.05  43 3.05
                            39 3.05  21 3.05
  39  0.444  0.333  0.421- 119 1.94 127 1.94 129 1.94  97 1.94 118 1.99 128 1.99  34 3.05  40 3.05
                            38 3.05  24 3.05
  40  0.228  0.500  0.453- 130 1.94 128 1.94  64 1.94 122 1.94 123 1.99 129 1.99   7 3.05  39 3.05
                            41 3.05  37 3.05
  41  0.080  0.500  0.547-  69 1.94 133 1.94 131 1.94 123 1.94 132 1.99 130 1.99  10 3.05  42 3.05
                            40 3.05  44 3.05
  42  0.864  0.333  0.579- 134 1.94 132 1.94 100 1.94 126 1.94 135 1.99 133 1.99  47 3.05  41 3.05
                            43 3.05  25 3.05
  43  0.580  0.333  0.547- 137 1.94 135 1.94 105 1.94 127 1.94 136 1.99 126 1.99  44 3.05  38 3.05
                            42 3.05  28 3.05
  44  0.364  0.500  0.579- 138 1.94 136 1.94  72 1.94 130 1.94 131 1.99 137 1.99  45 3.05  43 3.05
                            11 3.05  41 3.05
  45  0.216  0.500  0.673-  77 1.94 141 1.94 139 1.94 131 1.94 140 1.99 138 1.99  44 3.05  14 3.05
                            46 3.05  48 3.05
  46  0.000  0.333  0.705- 140 1.94 108 1.94 134 1.94 142 1.99 141 1.99  45 3.05  47 3.05  29 3.05

  47  0.716  0.333  0.673- 142 1.94 144 1.94 112 1.94 135 1.94 143 1.99 134 1.99  42 3.05  48 3.05
                            46 3.05  32 3.05
  48  0.500  0.500  0.705-  79 1.94 143 1.94 138 1.94 139 1.99 144 1.99  47 3.05  15 3.05  45 3.05

  49  0.488  0.667  0.269-   2 1.94   3 1.99
  50  0.988  0.833  0.269-   4 1.94   1 1.99
  51  0.911  0.833  0.353-   5 1.94   1 1.94   4 1.99
  52  0.627  0.833  0.321-  18 1.94   2 1.94   1 1.99
  53  0.772  0.667  0.300-  33 1.94   1 1.94   2 1.99
  54  0.624  0.667  0.395-   6 1.94   2 1.94   7 1.99
  55  0.411  0.667  0.353-   7 1.94   3 1.94   2 1.99
  56  0.127  0.667  0.321-  36 1.94   4 1.94   3 1.99
  57  0.272  0.833  0.300-  19 1.94   3 1.94   4 1.99
  58  0.124  0.833  0.395-   8 1.94   4 1.94   5 1.99
  59  0.047  0.833  0.479-   5 1.94   9 1.94   8 1.99
  60  0.763  0.833  0.447-  22 1.94   6 1.94   5 1.99
  61  0.908  0.667  0.426-  37 1.94   5 1.94   6 1.99
  62  0.760  0.667  0.521-   6 1.94  10 1.94  11 1.99
  63  0.547  0.667  0.479-   7 1.94  11 1.94   6 1.99
  64  0.263  0.667  0.447-  40 1.94   8 1.94   7 1.99
  65  0.408  0.833  0.426-  23 1.94   7 1.94   8 1.99
  66  0.260  0.833  0.521-   8 1.94  12 1.94   9 1.99
  67  0.184  0.833  0.605-   9 1.94  13 1.94  12 1.99
  68  0.899  0.833  0.574-  26 1.94  10 1.94   9 1.99
  69  0.044  0.667  0.553-  41 1.94   9 1.94  10 1.99
  70  0.896  0.667  0.647-  10 1.94  14 1.94  15 1.99
  71  0.684  0.667  0.605-  11 1.94  15 1.94  10 1.99
  72  0.399  0.667  0.574-  44 1.94  12 1.94  11 1.99
  73  0.544  0.833  0.553-  27 1.94  11 1.94  12 1.99
  74  0.396  0.833  0.647-  12 1.94  16 1.94  13 1.99
  75  0.320  0.833  0.731-  13 1.94  16 1.99
  76  0.036  0.833  0.700-  30 1.94  14 1.94  13 1.99
  77  0.180  0.667  0.679-  45 1.94  13 1.94  14 1.99
  78  0.820  0.667  0.731-  15 1.94  14 1.99
  79  0.536  0.667  0.700-  48 1.94  16 1.94  15 1.99
  80  0.680  0.833  0.679-  31 1.94  15 1.94  16 1.99
  81  0.488  0.000  0.269-  18 1.94  19 1.99
  82  0.988  0.167  0.269-  20 1.94  17 1.99
  83  0.911  0.167  0.353-  21 1.94  17 1.94  20 1.99
  84  0.627  0.167  0.321-  18 1.94  34 1.94  17 1.99
  85  0.772  0.000  0.300-   1 1.94  17 1.94  18 1.99
  86  0.624  0.000  0.395-  22 1.94  18 1.94  23 1.99
  87  0.411  0.000  0.353-  23 1.94  19 1.94  18 1.99
  88  0.127  0.000  0.321-   4 1.94  20 1.94  19 1.99
  89  0.272  0.167  0.300-  19 1.94  35 1.94  20 1.99
  90  0.124  0.167  0.395-  24 1.94  20 1.94  21 1.99
  91  0.047  0.167  0.479-  21 1.94  25 1.94  24 1.99
  92  0.763  0.167  0.447-  22 1.94  38 1.94  21 1.99
  93  0.908  0.000  0.426-   5 1.94  21 1.94  22 1.99
  94  0.760  0.000  0.521-  22 1.94  26 1.94  27 1.99
  95  0.547  0.000  0.479-  23 1.94  27 1.94  22 1.99
  96  0.263  0.000  0.447-   8 1.94  24 1.94  23 1.99
  97  0.408  0.167  0.426-  23 1.94  39 1.94  24 1.99
  98  0.260  0.167  0.521-  24 1.94  28 1.94  25 1.99
  99  0.184  0.167  0.605-  25 1.94  29 1.94  28 1.99
 100  0.899  0.167  0.574-  26 1.94  42 1.94  25 1.99
 101  0.044  0.000  0.553-   9 1.94  25 1.94  26 1.99
 102  0.896  0.000  0.647-  26 1.94  30 1.94  31 1.99
 103  0.684  0.000  0.605-  27 1.94  31 1.94  26 1.99
 104  0.399  0.000  0.574-  12 1.94  28 1.94  27 1.99
 105  0.544  0.167  0.553-  27 1.94  43 1.94  28 1.99
 106  0.396  0.167  0.647-  28 1.94  32 1.94  29 1.99
 107  0.320  0.167  0.731-  29 1.94  32 1.99
 108  0.036  0.167  0.700-  30 1.94  46 1.94  29 1.99
[...]
 130  0.260  0.500  0.521-  40 1.94  44 1.94  41 1.99
 131  0.184  0.500  0.605-  41 1.94  45 1.94  44 1.99
 132  0.899  0.500  0.574-  10 1.94  42 1.94  41 1.99
 133  0.044  0.333  0.553-  41 1.94  25 1.94  42 1.99
 134  0.896  0.333  0.647-  42 1.94  46 1.94  47 1.99
 135  0.684  0.333  0.605-  43 1.94  47 1.94  42 1.99
 136  0.399  0.333  0.574-  44 1.94  28 1.94  43 1.99
 137  0.544  0.500  0.553-  11 1.94  43 1.94  44 1.99
 138  0.396  0.500  0.647-  44 1.94  48 1.94  45 1.99
 139  0.320  0.500  0.731-  45 1.94  48 1.99
 140  0.036  0.500  0.700-  14 1.94  46 1.94  45 1.99
 141  0.180  0.333  0.679-  45 1.94  29 1.94  46 1.99
 142  0.820  0.333  0.731-  47 1.94  46 1.99
 143  0.536  0.333  0.700-  48 1.94  32 1.94  47 1.99
 144  0.680  0.500  0.679-  15 1.94  47 1.94  48 1.99

IMPORTANT INFORMATION: All symmetrisations will be switched off!
NOSYMM: (Re-)initialisation of all symmetry stuff for point group C_1.

                                     Primitive cell

  volume of cell :    3260.5577

[...]
   1.85322510  3.78960495 18.94753249
   8.41943591  3.78960495 20.41860665
   5.50177247  3.78960495 19.53802722
   6.98955560  5.68440742 18.94753249

--------------------------------------- Iteration      FINAL  ---------------------------------------

--------------------OUTCAR has been truncated-------------------------

[...]

--------------------OUTCAR has been truncated-------------------------

  FORCE on cell =-STRESS in cart. coord.  units (eV):
  Direction    XX          YY          ZZ          XY          YZ          ZX
  Alpha Z  2415.35607  2415.35607  2415.35607
  Ewald  489044.45490482481.12530************     0.00057    -0.00043 -1818.09951
  Hartree509983.41927505995.13679************     0.00030    -0.00022 -1241.76598
  E(xc)   -5160.52862 -5166.27607 -5177.09048     0.00000    -0.00000    -1.76919
  Local  ************************************    -0.00087     0.00064  3069.83543
  n-local -3221.54075 -3191.18794 -3235.44798     0.00000    -0.00000     1.26089
  augment  3130.16601  3125.48112  3115.82762     0.00000    -0.00000    -0.96069
  Kinetic 17036.68062 17097.32485 17148.73916    -0.00001     0.00002   -16.35691
  Fock        0.00000     0.00000     0.00000     0.00000     0.00000     0.00000
  vdW       -68.58998   -71.67560   -61.09588    -0.00000     0.00000    -0.72987
  Total     -38.16063   -13.42593   -13.30002     0.00000     0.00001    -8.58583
  in kB     -18.75142    -6.59725    -6.53538     0.00000     0.00000    -4.21891

 VOLUME and BASIS-vectors are now :
  energy-cutoff  :      600.00
  volume of cell :     3260.56
      direct lattice vectors                 reciprocal lattice vectors
    10.272661001  0.000000000  0.000000000     0.097345761 -0.000000000  0.000000000
     0.000000000 11.368814841  0.000000000     0.000000000  0.087959916  0.000000000
     0.000000000  0.000000000 27.918606646     0.000000000  0.000000000  0.035818406

  length of vectors
    10.272661001 11.368814841 27.918606646     0.097345761  0.087959916  0.035818406

 FORCES acting on ions:
    Electron-Ion                     Ewald-Force                    Non-Local-Force
   0.648E+01 0.541E-06 0.337E+04   -.157E+01 -.581E-06 -.337E+04   -.113E+01 0.624E-08 -.348E+01
   0.418E+01 -.335E-05 0.277E+04   -.580E+01 0.356E-05 -.277E+04   -.625E-01 -.654E-07 -.296E-01
   0.648E+01 0.294E-05 0.337E+04   -.157E+01 -.306E-05 -.337E+04   -.113E+01 0.275E-07 -.348E+01
   0.418E+01 -.428E-05 0.277E+04   -.580E+01 0.471E-05 -.277E+04   -.625E-01 -.125E-06 -.296E-01
   -.422E-01 -.225E-04 0.125E+04   -.134E+00 0.244E-04 -.125E+04   0.184E+00 -.603E-06 0.745E-02
   -.358E+01 -.238E-04 0.773E+03   0.364E+01 0.274E-04 -.773E+03   -.190E-01 -.765E-06 -.144E+00
   -.425E-01 0.132E-04 0.125E+04   -.134E+00 -.147E-04 -.125E+04   0.184E+00 0.427E-07 0.745E-02
   -.358E+01 -.113E-04 0.773E+03   0.364E+01 0.148E-04 -.773E+03   -.191E-01 -.776E-06 -.144E+00
   -.239E+01 0.370E-04 -.807E+03   0.209E+01 -.375E-04 0.807E+03   0.308E+00 -.199E-07 0.128E+00
   -.763E+01 0.753E-04 -.123E+04   0.783E+01 -.787E-04 0.123E+04   -.102E+00 0.256E-06 -.256E+00
   -.239E+01 0.125E-04 -.807E+03   0.209E+01 -.116E-04 0.807E+03   0.308E+00 -.267E-06 0.128E+00
   -.763E+01 0.107E-03 -.123E+04   0.783E+01 -.112E-03 0.123E+04   -.102E+00 0.394E-06 -.256E+00
   0.183E+02 0.127E-03 -.281E+04   -.193E+02 -.138E-03 0.281E+04   0.929E+00 0.133E-05 -.162E+00
   -.721E+02 0.340E-04 -.321E+04   0.723E+02 -.351E-04 0.321E+04   0.602E-01 -.300E-06 0.813E+00
   0.183E+02 0.894E-04 -.281E+04   -.193E+02 -.963E-04 0.281E+04   0.929E+00 0.657E-06 -.162E+00
   -.721E+02 0.564E-04 -.321E+04   0.723E+02 -.551E-04 0.321E+04   0.603E-01 -.823E-06 0.813E+00
   0.648E+01 0.103E-05 0.337E+04   -.157E+01 -.119E-05 -.337E+04   -.113E+01 0.218E-07 -.348E+01
   0.418E+01 0.563E-05 0.277E+04   -.580E+01 -.589E-05 -.277E+04   -.625E-01 0.194E-07 -.296E-01
   0.648E+01 -.317E-05 0.337E+04   -.157E+01 0.336E-05 -.337E+04   -.113E+01 -.635E-07 -.348E+01
   0.418E+01 -.696E-05 0.277E+04   -.580E+01 0.726E-05 -.277E+04   -.625E-01 -.900E-07 -.296E-01
   -.424E-01 -.110E-04 0.125E+04   -.134E+00 0.108E-04 -.125E+04   0.184E+00 -.117E-06 0.745E-02
   -.358E+01 0.123E-03 0.773E+03   0.364E+01 -.129E-03 -.773E+03   -.191E-01 0.662E-06 -.144E+00
   -.424E-01 0.554E-05 0.125E+04   -.134E+00 -.183E-05 -.125E+04   0.184E+00 -.850E-06 0.745E-02
   -.358E+01 -.283E-04 0.773E+03   0.364E+01 0.312E-04 -.773E+03   -.191E-01 -.392E-06 -.144E+00
   -.239E+01 0.156E-04 -.807E+03   0.209E+01 -.148E-04 0.807E+03   0.308E+00 -.180E-06 0.128E+00
   -.763E+01 -.694E-04 -.123E+04   0.783E+01 0.783E-04 0.123E+04   -.102E+00 -.157E-05 -.256E+00
   -.239E+01 -.679E-04 -.807E+03   0.209E+01 0.681E-04 0.807E+03   0.308E+00 -.177E-06 0.128E+00
   -.763E+01 0.729E-04 -.123E+04   0.783E+01 -.797E-04 0.123E+04   -.102E+00 0.115E-05 -.256E+00
   0.183E+02 0.648E-04 -.281E+04   -.193E+02 -.698E-04 0.281E+04   0.929E+00 0.515E-06 -.162E+00
   -.721E+02 0.532E-05 -.321E+04   0.723E+02 -.705E-05 0.321E+04   0.602E-01 -.570E-06 0.813E+00
   0.183E+02 -.134E-03 -.281E+04   -.193E+02 0.152E-03 0.281E+04   0.929E+00 -.279E-05 -.162E+00
   -.721E+02 0.175E-04 -.321E+04   0.723E+02 -.149E-04 0.321E+04   0.603E-01 -.710E-06 0.813E+00
   0.648E+01 -.260E-05 0.337E+04   -.157E+01 0.269E-05 -.337E+04   -.113E+01 -.456E-07 -.348E+01
   0.418E+01 -.903E-05 0.277E+04   -.580E+01 0.933E-05 -.277E+04   -.625E-01 -.769E-07 -.296E-01
   0.648E+01 -.626E-06 0.337E+04   -.157E+01 0.495E-06 -.337E+04   -.113E+01 0.290E-07 -.348E+01
   0.418E+01 0.399E-05 0.277E+04   -.580E+01 -.438E-05 -.277E+04   -.625E-01 0.262E-07 -.296E-01
   -.423E-01 0.553E-04 0.125E+04   -.134E+00 -.548E-04 -.125E+04   0.184E+00 -.410E-06 0.745E-02
   -.358E+01 -.660E-04 0.773E+03   0.364E+01 0.698E-04 -.773E+03   -.191E-01 -.494E-06 -.144E+00
   -.423E-01 -.328E-04 0.125E+04   -.134E+00 0.323E-04 -.125E+04   0.184E+00 0.249E-07 0.745E-02
   -.358E+01 0.736E-04 0.773E+03   0.364E+01 -.801E-04 -.773E+03   -.191E-01 0.107E-05 -.144E+00
   -.239E+01 -.615E-04 -.807E+03   0.209E+01 0.618E-04 0.807E+03   0.308E+00 -.341E-06 0.128E+00
   -.763E+01 0.638E-04 -.123E+04   0.783E+01 -.707E-04 0.123E+04   -.102E+00 0.130E-05 -.256E+00
   -.239E+01 0.128E-04 -.807E+03   0.209E+01 -.136E-04 0.807E+03   0.308E+00 0.389E-06 0.128E+00
   -.763E+01 -.127E-03 -.123E+04   0.783E+01 0.138E-03 0.123E+04   -.102E+00 -.153E-05 -.256E+00
   0.183E+02 -.141E-03 -.281E+04   -.193E+02 0.157E-03 0.281E+04   0.929E+00 -.261E-05 -.162E+00
   -.721E+02 0.375E-04 -.321E+04   0.723E+02 -.359E-04 0.321E+04   0.602E-01 -.125E-05 0.813E+00
   0.183E+02 0.152E-03 -.281E+04   -.193E+02 -.164E-03 0.281E+04   0.929E+00 0.131E-05 -.162E+00
   -.721E+02 -.657E-05 -.321E+04   0.723E+02 0.253E-05 0.321E+04   0.603E-01 0.880E-07 0.813E+00
   -.323E+02 0.181E-06 0.228E+04   0.371E+02 -.140E-06 -.230E+04   -.657E+01 -.411E-07 0.171E+02
   -.323E+02 -.211E-06 0.228E+04   0.371E+02 0.305E-06 -.230E+04   -.657E+01 -.114E-06 0.171E+02
   0.813E+02 -.109E-04 0.138E+04   -.861E+02 0.132E-04 -.137E+04   0.384E+01 -.260E-05 -.443E+01
   0.745E+02 0.411E-05 0.168E+04   -.816E+02 -.445E-05 -.168E+04   0.742E+01 0.701E-06 -.270E+01
   -.862E+02 -.173E-05 0.194E+04   0.935E+02 0.176E-05 -.194E+04   -.698E+01 -.897E-07 -.164E+00
   -.706E+02 -.283E-04 0.105E+04   0.764E+02 0.323E-04 -.106E+04   -.579E+01 -.433E-05 0.441E+01
   0.813E+02 0.142E-05 0.138E+04   -.861E+02 -.300E-06 -.137E+04   0.384E+01 -.135E-05 -.443E+01
   0.745E+02 0.370E-05 0.168E+04   -.816E+02 -.393E-05 -.168E+04   0.742E+01 0.453E-06 -.270E+01
   -.862E+02 -.242E-06 0.194E+04   0.935E+02 0.206E-06 -.194E+04   -.698E+01 0.131E-06 -.164E+00
   -.706E+02 -.215E-04 0.105E+04   0.764E+02 0.252E-04 -.106E+04   -.579E+01 -.418E-05 0.441E+01
   0.785E+02 0.189E-05 0.145E+03   -.849E+02 -.201E-05 -.140E+03   0.639E+01 0.200E-06 -.494E+01
   0.783E+02 -.627E-04 0.468E+03   -.848E+02 0.650E-04 -.465E+03   0.653E+01 0.179E-05 -.309E+01
[...]
   0.824E+02 -.638E-04 -.109E+04   -.888E+02 0.709E-04 0.110E+04   0.638E+01 -.821E-05 -.734E+01
   0.774E+02 -.177E-03 -.745E+03   -.840E+02 0.188E-03 0.748E+03   0.651E+01 -.204E-05 -.329E+01
   -.780E+02 0.516E-04 -.478E+03   0.843E+02 -.561E-04 0.475E+03   -.625E+01 0.360E-05 0.271E+01
   -.545E+02 0.443E-04 -.131E+04   0.566E+02 -.491E-04 0.130E+04   -.213E+01 0.528E-05 0.986E+01
   0.824E+02 0.393E-04 -.109E+04   -.888E+02 -.438E-04 0.110E+04   0.638E+01 0.503E-05 -.734E+01
   0.774E+02 0.903E-04 -.745E+03   -.840E+02 -.926E-04 0.748E+03   0.651E+01 -.448E-05 -.329E+01
   -.780E+02 -.762E-04 -.478E+03   0.843E+02 0.819E-04 0.475E+03   -.625E+01 -.402E-05 0.271E+01
   -.545E+02 -.403E-04 -.131E+04   0.566E+02 0.435E-04 0.130E+04   -.213E+01 -.395E-05 0.986E+01
   0.467E+02 -.407E-04 -.230E+04   -.520E+02 0.453E-04 0.232E+04   0.531E+01 -.571E-05 -.212E+02
   0.605E+02 -.109E-03 -.203E+04   -.653E+02 0.121E-03 0.204E+04   0.479E+01 -.122E-04 -.795E+01
   -.588E+02 0.436E-04 -.166E+04   0.642E+02 -.469E-04 0.166E+04   -.536E+01 -.151E-05 0.353E+01
   0.467E+02 0.381E-04 -.230E+04   -.520E+02 -.435E-04 0.232E+04   0.531E+01 0.625E-05 -.212E+02
   0.605E+02 0.164E-04 -.203E+04   -.653E+02 -.192E-04 0.204E+04   0.479E+01 0.414E-05 -.795E+01
   -.588E+02 -.247E-03 -.166E+04   0.642E+02 0.263E-03 0.166E+04   -.536E+01 -.200E-05 0.353E+01
   -.166E+02 0.570E-04 0.732E+02   -.753E-12 -.245E-11 -.932E-11   0.166E+02 -.565E-04 -.732E+02

 POSITION                                       TOTAL-FORCE (eV/Angst)
      8.29735      9.47401      8.23554         3.827179     -0.000000      1.698384
      6.07868      7.57921      9.11612        -1.679405      0.000000     -1.853556
      3.16102      7.57921      8.23554         3.827183     -0.000000      1.698383
      0.94235      9.47401      9.11612        -1.679406      0.000000     -1.853565
      9.69934      9.47401     11.79854         0.002942      0.000001     -0.000534
      7.45100      7.57921     12.60520        -0.000026      0.000003     -0.002146
      4.56301      7.57921     11.79854         0.002964     -0.000001     -0.000530
      2.31467      9.47401     12.60520        -0.000006      0.000003     -0.002106
      0.87122      9.47401     15.35883         0.000949     -0.000000     -0.000657
      8.86730      7.57921     16.08949         0.005716     -0.000003      0.004803
      6.00755      7.57921     15.35883         0.000821      0.000001     -0.000691
      3.73097      9.47401     16.08949         0.005723     -0.000004      0.004860
      2.38315      9.47401     18.98756         0.001740     -0.000009      0.002712
      0.03290      7.57921     19.55475        -0.002769     -0.000001      0.002110
      7.51948      7.57921     18.98756         0.001739     -0.000006      0.002716
      5.16924      9.47401     19.55475        -0.003199      0.000001      0.001924
      8.29735      1.89480      8.23554         3.827180     -0.000000      1.698384
      6.07868      0.00000      9.11612        -1.679405     -0.000000     -1.853558
      3.16102      0.00000      8.23554         3.827182      0.000000      1.698383
      0.94235      1.89480      9.11612        -1.679405      0.000000     -1.853561
      9.69934      1.89480     11.79854         0.002955     -0.000000     -0.000534
      7.45100     -0.00000     12.60520        -0.000020     -0.000005     -0.002144
      4.56301     -0.00000     11.79854         0.002956      0.000003     -0.000530
      2.31467      1.89480     12.60520        -0.000011      0.000002     -0.002114
      0.87122      1.89480     15.35883         0.000932      0.000001     -0.000665
      8.86730     -0.00000     16.08949         0.005712      0.000007      0.004812
      6.00755     -0.00000     15.35883         0.000831     -0.000000     -0.000683
      3.73097      1.89480     16.08949         0.005727     -0.000005      0.004850
      2.38315      1.89480     18.98756         0.001729     -0.000004      0.002714
      0.03290     -0.00000     19.55475        -0.002798     -0.000002      0.002102
      7.51948     -0.00000     18.98756         0.001747      0.000015      0.002715
      5.16924      1.89480     19.55475        -0.003156      0.000002      0.001939
      8.29735      5.68441      8.23554         3.827179      0.000000      1.698383
      6.07868      3.78960      9.11612        -1.679405      0.000000     -1.853559
      3.16102      3.78960      8.23554         3.827182     -0.000000      1.698383
      0.94235      5.68441      9.11612        -1.679405     -0.000000     -1.853563
      9.69934      5.68441     11.79854         0.002948      0.000000     -0.000533
      7.45100      3.78960     12.60520        -0.000019      0.000003     -0.002140
      4.56301      3.78960     11.79854         0.002952     -0.000001     -0.000530
      2.31467      5.68441     12.60520        -0.000007     -0.000005     -0.002109
      0.87122      5.68441     15.35883         0.000943     -0.000000     -0.000660
      8.86730      3.78960     16.08949         0.005711     -0.000005      0.004814
      6.00755      3.78960     15.35883         0.000840     -0.000000     -0.000683
      3.73097      5.68441     16.08949         0.005723      0.000009      0.004856
      2.38315      5.68441     18.98756         0.001734      0.000013      0.002714
      0.03290      3.78960     19.55475        -0.002815      0.000000      0.002098
      7.51948      3.78960     18.98756         0.001750     -0.000010      0.002716
      5.16924      5.68441     19.55475        -0.003183     -0.000004      0.001928
      5.01424      7.57921      7.50000        -1.749462     -0.000000      0.955366
     10.15057      9.47401      7.50000        -1.749461     -0.000000      0.955367
      9.36179      9.47401      9.85165        -1.004634     -0.000000     -0.169308
      6.44412      9.47401      8.97107         0.354674      0.000000     -0.046465
      7.93191      7.57921      8.38058         0.271909     -0.000000     -1.069699
      6.41224      7.57921     11.02232        -0.047325     -0.000000      0.478496
      4.22546      7.57921      9.85165        -1.004636     -0.000000     -0.169311
      1.30779      7.57921      8.97107         0.354673      0.000000     -0.046464
      2.79558      9.47401      8.38058         0.271908      0.000000     -1.069699
      1.27591      9.47401     11.02232        -0.047323     -0.000001      0.478497
      0.50009      9.47401     13.39211         0.004196      0.000000      0.005211
      7.84268      9.47401     12.49941        -0.001843      0.000004      0.001599
[...]
      2.70443      5.68441     14.53607         0.005301     -0.000000     -0.000453
      1.97758      5.68441     16.93243         0.004105     -0.000001      0.000365
      9.27732      5.68441     16.01665         0.001934      0.000009      0.000208
      0.51003      3.78960     15.44076        -0.003942     -0.000001      0.002077
      9.38128      3.78960     18.03320         0.002560      0.000001     -0.004619
      7.11391      3.78960     16.93243         0.004189      0.000001      0.000440
      4.14098      3.78960     16.01665         0.001976     -0.000007      0.000181
      5.64636      5.68441     15.44076        -0.003894      0.000002      0.002066
      4.24495      5.68441     18.03320         0.002744     -0.000001     -0.004327
      3.55820      5.68441     20.42834         0.003839     -0.000001     -0.004572
      0.55032      5.68441     19.78031         0.001261     -0.000000      0.000001
      2.00902      3.78960     18.97996         0.002464     -0.000005     -0.000591
      8.69453      3.78960     20.42834         0.003644      0.000001     -0.004525
      5.68665      3.78960     19.78031         0.001309      0.000001      0.000015
      7.14535      5.68441     18.97996         0.002482      0.000015     -0.000592
    total drift:                                0.011264      0.000001      0.004040

  FREE ENERGIE OF THE ION-ELECTRON SYSTEM (eV)
  free  energy   TOTEN  =     -1274.32020150 eV

  energy  without entropy=    -1274.32020150  energy(sigma->0) =    -1274.32020150

 d Force = 0.8408993E-04[ 0.296E-04, 0.139E-03]  d Energy = 0.9098144E-04-0.689E-05
 d Force =-0.1463622E+02[-0.146E+02,-0.146E+02]  d Ewald  =-0.1463621E+02-0.787E-05

 Conjugate gradient step on ions:
 trial-energy change:   -0.000091  1 .order   -0.000084   -0.000139   -0.000030
  (g-gl).g = 0.206E-03      g.g   = 0.189E-03  gl.gl    = 0.219E-03
 g(Force)  = 0.189E-03   g(Stress)= 0.000E+00 ortho     =-0.106E-05
 gamma     =   0.93982
 trial     =   0.73794
 opt step  =   0.87610  (harmonic =   0.93833) maximal distance =0.00107655
 next E    = -1274.320204   (d E  =  -0.00009)

 reached required accuracy - stopping structural energy minimisation