 vasp.6.3.0 20Jan22 (build Aug 21 2024 11:13:42) complex
 executed on        HPECrayEX_GCC date 2024.11.28  14:45:06

 INCAR:
   SYSTEM = MgO-rocksalt
   ISMEAR = 0
   SIGMA = 0.05
   EDIFF = 1E-8
   ALGO = ALL
   ISTART = 0
   IBRION = 5
   POTIM = 0.01
   NFREE = 2
   ISYM = 0
   DIPOL = 0.5 0.5 0.5
   IDIPOL = 3
   LDIPOL = .TRUE.
   GGA = PE
   IVDW = 21
   ENCUT = 600
   PREC = Accurate
   LASPH = .TRUE.
   LREAL = .FALSE.
   ISPIN = 1
   NELM = 200
   NELMIN = 8
   NCORE = 8
   KPAR = 1
   LWAVE = .FALSE.
   LCHARG = .FALSE.

 POTCAR:    PAW_PBE C 08Apr2002
 POTCAR:    PAW_PBE O 08Apr2002
 POTCAR:    PAW_PBE Ti_pv 07Sep2000
 POTCAR:    PAW_PBE O 08Apr2002
 POTCAR:    PAW_PBE C 08Apr2002
   VRHFIN =C: s2p2

   TITEL  = PAW_PBE C 08Apr2002
   POMASS =   12.011; ZVAL   =    4.000    mass and valenz
   ENMAX  =  400.000; ENMIN  =  300.000 eV

[...]

   TITEL  = PAW_PBE Ti_pv 07Sep2000
   POMASS =   47.880; ZVAL   =   10.000    mass and valenz
   ENMAX  =  222.335; ENMIN  =  166.751 eV

   TITEL  = PAW_PBE O 08Apr2002
   POMASS =   16.000; ZVAL   =    6.000    mass and valenz
   ENMAX  =  400.000; ENMIN  =  300.000 eV

  PAW_PBE C 08Apr2002                   :
  PAW_PBE O 08Apr2002                   :
  PAW_PBE Ti_pv 07Sep2000               :
  PAW_PBE O 08Apr2002                   :

 POSCAR:  C  O Ti  O
  positions in direct lattice
 exchange correlation table for  LEXCH =        8
   RHO(1)=    0.500       N(1)  =     2000
   RHO(2)=  100.500       N(2)  =     4000

 ion  position               nearest neighbor table
   1  0.430  0.500  0.821-   2 1.17   3 1.18
   2  0.374  0.500  0.850-   1 1.17
   3  0.490  0.500  0.792-   1 1.18  83 2.50
   4  0.750  0.625  0.287-  84 1.96  85 1.96 144 1.96 145 1.96  87 1.98 166 1.98  14 2.97  34 2.97

   5  0.000  0.750  0.287-  86 1.96  87 1.96 106 1.96 107 1.96  88 1.98  35 2.97  15 2.97
   6  0.000  0.625  0.393-  88 1.96  89 1.96 148 1.96 149 1.96  90 1.98  91 1.98  16 2.97  36 2.97

[...]

  84  0.750  0.750  0.245-   4 1.96  14 1.96
  85  0.750  0.750  0.329-   4 1.96  14 1.96   7 1.98
  86  0.098  0.625  0.287-   5 1.96  35 1.96  44 1.98
  87  0.902  0.625  0.287-   5 1.96  35 1.96   4 1.98
  88  0.000  0.750  0.352-   6 1.96  16 1.96   5 1.98
  89  0.000  0.750  0.435-   6 1.96  16 1.96   9 1.98
  90  0.848  0.625  0.393-   7 1.96  37 1.96   6 1.98
  91  0.152  0.625  0.393-  47 1.96  77 1.96   6 1.98
  92  0.750  0.750  0.458-   8 1.96  18 1.96   7 1.98
  93  0.750  0.750  0.542-   8 1.96  18 1.96  11 2.11
  94  0.098  0.625  0.500-   9 1.96  39 1.96  48 1.98
  95  0.902  0.625  0.500-   9 1.96  39 1.96   8 1.98
  96  0.000  0.750  0.566-  20 1.90  10 1.90   9 2.00
  97  0.000  0.750  0.649-  13 1.81  10 2.02  20 2.02
  98  0.850  0.625  0.607-  11 1.94  41 1.94  10 2.04
  99  0.150  0.625  0.607-  10 1.88  51 2.02  81 2.02
 100  0.750  0.750  0.672-  11 1.87  22 2.10  12 2.10
 101  0.749  0.750  0.756-  12 1.84  22 1.84
 102  0.093  0.625  0.720-  43 1.95  13 1.96  52 2.03
 103  0.906  0.625  0.719-  43 1.95  13 1.95  12 2.04
 104  0.750  0.000  0.245-  14 1.96  24 1.96
 105  0.750  0.000  0.329-  14 1.96  24 1.96  17 1.98
 106  0.098  0.875  0.287-   5 1.96  15 1.96  54 1.98
 107  0.902  0.875  0.287-   5 1.96  15 1.96  14 1.98
 108  0.000  0.000  0.352-  16 1.96  26 1.96  15 1.98
 109  0.000  0.000  0.435-  16 1.96  26 1.96  19 1.98
 110  0.848  0.875  0.393-   7 1.96  17 1.96  16 1.98
 111  0.152  0.875  0.393-  47 1.96  57 1.96  16 1.98
 112  0.750  0.000  0.458-  18 1.96  28 1.96  17 1.98
 113  0.750  0.000  0.542-  18 1.96  28 1.96  21 2.11
 114  0.098  0.875  0.500-   9 1.96  19 1.96  58 1.98
 115  0.902  0.875  0.500-   9 1.96  19 1.96  18 1.98
 116  0.000  1.000  0.566-  30 1.90  20 1.90  19 2.00
 117  0.000  0.000  0.649-  23 1.81  30 2.02  20 2.02
 118  0.850  0.875  0.607-  21 1.94  11 1.94  20 2.04
 119  0.150  0.875  0.607-  20 1.88  61 2.02  51 2.02
 120  0.750  0.000  0.672-  21 1.87  32 2.10  22 2.10
 121  0.750  0.000  0.756-  32 1.84  22 1.84
 122  0.093  0.875  0.719-  13 1.95  23 1.95  62 2.04
 123  0.906  0.875  0.719-  13 1.95  23 1.95  22 2.04
 124  0.750  0.250  0.245-  24 1.96  34 1.96
 125  0.750  0.250  0.329-  24 1.96  34 1.96  27 1.98
 126  0.098  0.125  0.287-  15 1.96  25 1.96  64 1.98
 127  0.902  0.125  0.287-  15 1.96  25 1.96  24 1.98
 128  0.000  0.250  0.352-  26 1.96  36 1.96  25 1.98
 129  0.000  0.250  0.435-  26 1.96  36 1.96  29 1.98
 130  0.848  0.125  0.393-  17 1.96  27 1.96  26 1.98
 131  0.152  0.125  0.393-  57 1.96  67 1.96  26 1.98
 132  0.750  0.250  0.458-  28 1.96  38 1.96  27 1.98
 133  0.750  0.250  0.542-  28 1.96  38 1.96  31 2.11
 134  0.098  0.125  0.500-  19 1.96  29 1.96  68 1.98
 135  0.902  0.125  0.500-  19 1.96  29 1.96  28 1.98
 136  0.000  0.250  0.566-  30 1.90  40 1.90  29 2.00
 137  0.000  0.250  0.649-  33 1.81  40 2.02  30 2.02
 138  0.850  0.125  0.607-  21 1.94  31 1.94  30 2.04
 139  0.150  0.125  0.607-  30 1.88  61 2.02  71 2.02
 140  0.750  0.250  0.672-  31 1.87  32 2.10  42 2.10
 141  0.749  0.250  0.756-  42 1.84  32 1.84
 142  0.093  0.125  0.719-  33 1.95  23 1.95  72 2.04
 143  0.906  0.125  0.719-  33 1.95  23 1.95  32 2.04
[...]
 229  0.500  0.500  0.435-  46 1.96  76 1.96  79 1.98
 230  0.348  0.375  0.393-  67 1.96  77 1.96  76 1.98
 231  0.652  0.375  0.393-  27 1.96  37 1.96  76 1.98
 232  0.250  0.500  0.458-  48 1.96  78 1.96  77 1.98
 233  0.250  0.500  0.542-  48 1.96  78 1.96  81 2.11
 234  0.598  0.375  0.500-  69 1.96  79 1.96  38 1.98
 235  0.402  0.375  0.500-  69 1.96  79 1.96  78 1.98
 236  0.500  0.500  0.566-  50 1.90  80 1.90  79 2.01
 237  0.501  0.500  0.650-  83 1.84  50 2.02  80 2.02
 238  0.350  0.375  0.607-  81 1.94  71 1.94  80 2.04
 239  0.650  0.375  0.607-  80 1.88  41 2.02  31 2.02
 240  0.248  0.500  0.672-  81 1.87  52 2.10  82 2.10
 241  0.252  0.500  0.755-  52 1.84  82 1.84
 242  0.594  0.374  0.719-  73 1.94  83 1.96  42 2.03
 243  0.405  0.373  0.718-  73 1.94  83 1.96  82 2.04

IMPORTANT INFORMATION: All symmetrisations will be switched off!
NOSYMM: (Re-)initialisation of all symmetry stuff for point group C_1.

                                     Primitive cell

  volume of cell :    4740.1649

  direct lattice vectors                    reciprocal lattice vectors
    13.042933829  0.000000000  0.000000000     0.076669867  0.000000000  0.000000000
     0.000000000 11.878216733  0.000000000     0.000000000  0.084187721  0.000000000
     0.000000000  0.000000000 30.596159140     0.000000000  0.000000000  0.032683841

  length of vectors
    13.042933829 11.878216733 30.596159140     0.076669867  0.084187721  0.032683841

  position of ions in fractional coordinates (direct lattice)
     0.430031875  0.500000036  0.820678613
     0.374037150  0.500000200  0.850466528
     0.489609449  0.499999850  0.791558383
     0.750000000  0.625000000  0.286853412
     0.000000000  0.750000000  0.286853412
     0.000000000  0.625000000  0.393426706
     0.750000000  0.750000000  0.393426706
     0.750000000  0.625000000  0.500000000
     0.000000000  0.750000000  0.500000000
     0.006217938  0.625002366  0.604363989
     0.755082827  0.749985455  0.610673294
     0.749323856  0.625079392  0.720315051
     0.999539375  0.750176496  0.708473973
     0.750000000  0.875000000  0.286853412
     0.000000000  0.000000000  0.286853412
     0.000000000  0.875000000  0.393426706
     0.750000000  0.000000000  0.393426706
     0.750000000  0.875000000  0.500000000
     0.000000000  0.000000000  0.500000000
     0.006181753  0.875010113  0.604373113
     0.755061073  0.999999943  0.610704621
     0.749300506  0.875050804  0.720388640
     0.999737458  0.000000026  0.708479079
     0.750000000  0.125000000  0.286853412
     0.000000000  0.250000000  0.286853412
     0.000000000  0.125000000  0.393426706
     0.750000000  0.250000000  0.393426706
     0.750000000  0.125000000  0.500000000
     0.000000000  0.250000000  0.500000000
     0.006181778  0.124989861  0.604373091
     0.755082751  0.250014356  0.610673284
     0.749300462  0.124949163  0.720388635
     0.999539308  0.249823447  0.708473967
     0.750000000  0.375000000  0.286853412
     0.000000000  0.500000000  0.286853412
     0.000000000  0.375000000  0.393426706
     0.750000000  0.500000000  0.393426706
     0.750000000  0.375000000  0.500000000
     0.000000000  0.500000000  0.500000000
     0.006217859  0.374997667  0.604363996
     0.755028127  0.499999888  0.610713194
     0.749323784  0.374920465  0.720315054
     0.999136029  0.500000016  0.708466459
     0.250000000  0.625000000  0.286853412
     0.500000000  0.750000000  0.286853412
     0.500000000  0.625000000  0.393426706
     0.250000000  0.750000000  0.393426706
     0.250000000  0.625000000  0.500000000
     0.500000000  0.750000000  0.500000000
     0.506272279  0.624304904  0.604896379
     0.254957808  0.750080455  0.610561033
     0.248854389  0.625301301  0.719949818
     0.499685764  0.750124398  0.708004364
     0.250000000  0.875000000  0.286853412
     0.500000000  0.000000000  0.286853412
     0.500000000  0.875000000  0.393426706
     0.250000000  0.000000000  0.393426706
     0.250000000  0.875000000  0.500000000
     0.500000000  0.000000000  0.500000000
     0.506418866  0.874694326  0.603993303
[...]
     0.500000000  0.500000000  0.435151311
     0.347877722  0.375000000  0.393426706
     0.652122278  0.375000000  0.393426706
     0.250000000  0.500000000  0.458275395
     0.250000000  0.500000000  0.541724605
     0.597877722  0.375000000  0.500000000
     0.402122278  0.375000000  0.500000000
     0.500072503  0.500000035  0.565722966
     0.500505850  0.500000045  0.649903738
     0.349828846  0.374996472  0.607493220
     0.650413935  0.375019148  0.607145419
     0.248309295  0.500000021  0.671501729
     0.252094576  0.500000093  0.755464981
     0.593553234  0.373962166  0.718546935
     0.404937441  0.373412230  0.717631447

  ion indices of the primitive-cell ions
   primitive index   ion index
                 1           1
                 2           2
                 3           3
                 4           4
                 5           5
                 6           6
                 7           7
                 8           8
                 9           9
                10          10
                11          11
                12          12
                13          13
                14          14
                15          15
                16          16
                17          17
                18          18
                19          19
                20          20
                21          21
                22          22
                23          23
                24          24
                25          25
                26          26
                27          27
                28          28
                29          29
                30          30
                31          31
                32          32
                33          33
                34          34
                35          35
                36          36
                37          37
                38          38
                39          39
[...]

 Eigenvectors and eigenvalues of the dynamical matrix

   1 f  =   71.084694 THz   446.638308 2PiTHz 2371.130178 cm-1   293.982542 meV
             X         Y         Z           dx          dy          dz
      5.608877  5.939109 25.109613    -0.540360   -0.000003    0.661126
      4.878542  5.939111 26.021009     0.243623   -0.000009   -0.304985
      6.385944  5.939107 24.218646     0.222291    0.000012   -0.262947
      9.782200  7.423885  8.776613            0           0           0
      0.000000  8.908663  8.776613            0           0           0
      0.000000  7.423885 12.037346            0           0           0
      9.782200  8.908663 12.037346            0           0           0
      9.782200  7.423885 15.298080            0           0           0
      0.000000  8.908663 15.298080            0           0           0
      0.081100  7.423914 18.491217            0           0           0
      9.848495  8.908490 18.684257            0           0           0
      9.773381  7.424828 22.038874            0           0           0
     13.036926  8.910759 21.676582            0           0           0
      9.782200 10.393440  8.776613            0           0           0
      0.000000  0.000000  8.776613            0           0           0
      0.000000 10.393440 12.037346            0           0           0
      9.782200  0.000000 12.037346            0           0           0
      9.782200 10.393440 15.298080            0           0           0
      0.000000  0.000000 15.298080            0           0           0
      0.080628 10.393560 18.491496            0           0           0
      9.848212 11.878216 18.685216            0           0           0
      9.773077 10.394043 22.041125            0           0           0
     13.039510  0.000000 21.676739            0           0           0
      9.782200  1.484777  8.776613            0           0           0
      0.000000  2.969554  8.776613            0           0           0
      0.000000  1.484777 12.037346            0           0           0
      9.782200  2.969554 12.037346            0           0           0
      9.782200  1.484777 15.298080            0           0           0
      0.000000  2.969554 15.298080            0           0           0
      0.080629  1.484657 18.491495            0           0           0
      9.848494  2.969725 18.684257            0           0           0
      9.773076  1.484173 22.041125            0           0           0
     13.036925  2.967457 21.676582            0           0           0
      9.782200  4.454331  8.776613            0           0           0
      0.000000  5.939108  8.776613            0           0           0
      0.000000  4.454331 12.037346            0           0           0
      9.782200  5.939108 12.037346            0           0           0
      9.782200  4.454331 15.298080            0           0           0
      0.000000  5.939108 15.298080            0           0           0
      0.081099  4.454304 18.491217            0           0           0
      9.847782  5.939107 18.685478            0           0           0
      9.773381  4.453387 22.038874            0           0           0
     13.031665  5.939109 21.676353            0           0           0
      3.260733  7.423885  8.776613            0           0           0
      6.521467  8.908663  8.776613            0           0           0
      6.521467  7.423885 12.037346            0           0           0
      3.260733  8.908663 12.037346            0           0           0
      3.260733  7.423885 15.298080            0           0           0
      6.521467  8.908663 15.298080            0           0           0
      6.603276  7.415629 18.507506            0           0           0
      3.325398  8.909618 18.680823            0           0           0
      3.245791  7.427464 22.027699            0           0           0
      6.517368  8.910140 21.662214            0           0           0
      3.260733 10.393440  8.776613            0           0           0
      6.521467  0.000000  8.776613            0           0           0
      6.521467 10.393440 12.037346            0           0           0
      3.260733  0.000000 12.037346            0           0           0
      3.260733 10.393440 15.298080            0           0           0
      6.521467  0.000000 15.298080            0           0           0
      6.605188 10.389809 18.479875            0           0           0
[...]
      6.521467  5.939108 13.313959            0           0           0
      4.537346  4.454331 12.037346            0           0           0
      8.505588  4.454331 12.037346            0           0           0
      3.260733  5.939108 14.021467            0           0           0
      3.260733  5.939108 16.574692            0           0           0
      7.798080  4.454331 15.298080            0           0           0
      5.244854  4.454331 15.298080            0           0           0
      6.522413  5.939109 17.308950            0           0           0
      6.528065  5.939109 19.884558            0           0           0
      4.562794  4.454289 18.586959            0           0           0
      8.483306  4.454559 18.576318            0           0           0
      3.238682  5.939109 20.545374            0           0           0
      3.288053  5.939109 23.114327            0           0           0
      7.741676  4.442004 21.984776            0           0           0
      5.281572  4.435471 21.956766            0           0           0

[...]

   8 f  =    1.029960 THz     6.471433 2PiTHz   34.355784 cm-1     4.259572 meV
             X         Y         Z           dx          dy          dz
      5.608877  5.939109 25.109613     0.431982   -0.010281    0.159846
      4.878542  5.939111 26.021009     0.759520   -0.022190    0.394553
      6.385944  5.939107 24.218646     0.229332   -0.001251   -0.045885
      9.782200  7.423885  8.776613            0           0           0
      0.000000  8.908663  8.776613            0           0           0
      0.000000  7.423885 12.037346            0           0           0
      9.782200  8.908663 12.037346            0           0           0
      9.782200  7.423885 15.298080            0           0           0
      0.000000  8.908663 15.298080            0           0           0
      0.081100  7.423914 18.491217            0           0           0
      9.848495  8.908490 18.684257            0           0           0
      9.773381  7.424828 22.038874            0           0           0
     13.036926  8.910759 21.676582            0           0           0
      9.782200 10.393440  8.776613            0           0           0
      0.000000  0.000000  8.776613            0           0           0
      0.000000 10.393440 12.037346            0           0           0
      9.782200  0.000000 12.037346            0           0           0
      9.782200 10.393440 15.298080            0           0           0
      0.000000  0.000000 15.298080            0           0           0
      0.080628 10.393560 18.491496            0           0           0
      9.848212 11.878216 18.685216            0           0           0
      9.773077 10.394043 22.041125            0           0           0
     13.039510  0.000000 21.676739            0           0           0
      9.782200  1.484777  8.776613            0           0           0
      0.000000  2.969554  8.776613            0           0           0
      0.000000  1.484777 12.037346            0           0           0
      9.782200  2.969554 12.037346            0           0           0
      9.782200  1.484777 15.298080            0           0           0
      0.000000  2.969554 15.298080            0           0           0
      0.080629  1.484657 18.491495            0           0           0
      9.848494  2.969725 18.684257            0           0           0
      9.773076  1.484173 22.041125            0           0           0
     13.036925  2.967457 21.676582            0           0           0
      9.782200  4.454331  8.776613            0           0           0
      0.000000  5.939108  8.776613            0           0           0
      0.000000  4.454331 12.037346            0           0           0
      9.782200  5.939108 12.037346            0           0           0
      9.782200  4.454331 15.298080            0           0           0
      0.000000  5.939108 15.298080            0           0           0
      0.081099  4.454304 18.491217            0           0           0
      9.847782  5.939107 18.685478            0           0           0
      9.773381  4.453387 22.038874            0           0           0
     13.031665  5.939109 21.676353            0           0           0
      3.260733  7.423885  8.776613            0           0           0
      6.521467  8.908663  8.776613            0           0           0
      6.521467  7.423885 12.037346            0           0           0
      3.260733  8.908663 12.037346            0           0           0
      3.260733  7.423885 15.298080            0           0           0
      6.521467  8.908663 15.298080            0           0           0
      6.603276  7.415629 18.507506            0           0           0
      3.325398  8.909618 18.680823            0           0           0
      3.245791  7.427464 22.027699            0           0           0
      6.517368  8.910140 21.662214            0           0           0
      3.260733 10.393440  8.776613            0           0           0
      6.521467  0.000000  8.776613            0           0           0
      6.521467 10.393440 12.037346            0           0           0
      3.260733  0.000000 12.037346            0           0           0
      3.260733 10.393440 15.298080            0           0           0
      6.521467  0.000000 15.298080            0           0           0
      6.605188 10.389809 18.479875            0           0           0
[...]
      6.521467  5.939108 13.313959            0           0           0
      4.537346  4.454331 12.037346            0           0           0
      8.505588  4.454331 12.037346            0           0           0
      3.260733  5.939108 14.021467            0           0           0
      3.260733  5.939108 16.574692            0           0           0
      7.798080  4.454331 15.298080            0           0           0
      5.244854  4.454331 15.298080            0           0           0
      6.522413  5.939109 17.308950            0           0           0
      6.528065  5.939109 19.884558            0           0           0
      4.562794  4.454289 18.586959            0           0           0
      8.483306  4.454559 18.576318            0           0           0
      3.238682  5.939109 20.545374            0           0           0
      3.288053  5.939109 23.114327            0           0           0
      7.741676  4.442004 21.984776            0           0           0
      5.281572  4.435471 21.956766            0           0           0

   9 f/i=    0.661830 THz     4.158402 2PiTHz   22.076280 cm-1     2.737109 meV
             X         Y         Z           dx          dy          dz
      5.608877  5.939109 25.109613     0.007022    0.380047    0.008297
      4.878542  5.939111 26.021009     0.017787    0.923184    0.017478
      6.385944  5.939107 24.218646    -0.001664   -0.050502    0.001192
      9.782200  7.423885  8.776613            0           0           0
      0.000000  8.908663  8.776613            0           0           0
      0.000000  7.423885 12.037346            0           0           0
      9.782200  8.908663 12.037346            0           0           0
      9.782200  7.423885 15.298080            0           0           0
      0.000000  8.908663 15.298080            0           0           0
      0.081100  7.423914 18.491217            0           0           0
      9.848495  8.908490 18.684257            0           0           0
      9.773381  7.424828 22.038874            0           0           0
     13.036926  8.910759 21.676582            0           0           0
      9.782200 10.393440  8.776613            0           0           0
      0.000000  0.000000  8.776613            0           0           0
      0.000000 10.393440 12.037346            0           0           0
      9.782200  0.000000 12.037346            0           0           0
      9.782200 10.393440 15.298080            0           0           0
      0.000000  0.000000 15.298080            0           0           0
      0.080628 10.393560 18.491496            0           0           0
      9.848212 11.878216 18.685216            0           0           0
      9.773077 10.394043 22.041125            0           0           0
     13.039510  0.000000 21.676739            0           0           0
      9.782200  1.484777  8.776613            0           0           0
      0.000000  2.969554  8.776613            0           0           0
      0.000000  1.484777 12.037346            0           0           0
      9.782200  2.969554 12.037346            0           0           0
      9.782200  1.484777 15.298080            0           0           0
      0.000000  2.969554 15.298080            0           0           0
      0.080629  1.484657 18.491495            0           0           0
      9.848494  2.969725 18.684257            0           0           0
      9.773076  1.484173 22.041125            0           0           0
     13.036925  2.967457 21.676582            0           0           0
      9.782200  4.454331  8.776613            0           0           0
      0.000000  5.939108  8.776613            0           0           0
      0.000000  4.454331 12.037346            0           0           0
      9.782200  5.939108 12.037346            0           0           0
      9.782200  4.454331 15.298080            0           0           0
      0.000000  5.939108 15.298080            0           0           0
      0.081099  4.454304 18.491217            0           0           0
      9.847782  5.939107 18.685478            0           0           0
      9.773381  4.453387 22.038874            0           0           0
     13.031665  5.939109 21.676353            0           0           0
      3.260733  7.423885  8.776613            0           0           0
      6.521467  8.908663  8.776613            0           0           0
      6.521467  7.423885 12.037346            0           0           0
      3.260733  8.908663 12.037346            0           0           0
      3.260733  7.423885 15.298080            0           0           0
      6.521467  8.908663 15.298080            0           0           0
      6.603276  7.415629 18.507506            0           0           0
      3.325398  8.909618 18.680823            0           0           0
      3.245791  7.427464 22.027699            0           0           0
      6.517368  8.910140 21.662214            0           0           0
      3.260733 10.393440  8.776613            0           0           0
      6.521467  0.000000  8.776613            0           0           0
      6.521467 10.393440 12.037346            0           0           0
      3.260733  0.000000 12.037346            0           0           0
      3.260733 10.393440 15.298080            0           0           0
      6.521467  0.000000 15.298080            0           0           0
      6.605188 10.389809 18.479875            0           0           0
[...]
      6.521467  5.939108 13.313959            0           0           0
      4.537346  4.454331 12.037346            0           0           0
      8.505588  4.454331 12.037346            0           0           0
      3.260733  5.939108 14.021467            0           0           0
      3.260733  5.939108 16.574692            0           0           0
      7.798080  4.454331 15.298080            0           0           0
      5.244854  4.454331 15.298080            0           0           0
      6.522413  5.939109 17.308950            0           0           0
      6.528065  5.939109 19.884558            0           0           0
      4.562794  4.454289 18.586959            0           0           0
      8.483306  4.454559 18.576318            0           0           0
      3.238682  5.939109 20.545374            0           0           0
      3.288053  5.939109 23.114327            0           0           0
      7.741676  4.442004 21.984776            0           0           0
      5.281572  4.435471 21.956766            0           0           0

 Finite differences POTIM=   1.0000000000000000E-002