 vasp.6.3.0 20Jan22 (build Apr  1 2022 16:44:48) complex
 executed on        HPECrayEX_GCC date 2022.11.13  19:56:54

 INCAR:
   SYSTEM = MgO-rocksalt
   ISMEAR = 0
   SIGMA = 0.05
   EDIFF = 1E-6
   ALGO = ALL
   ISTART = 0
   IBRION = -1
   NSW = 0
   ISYM = 0
   DIPOL = 0.5 0.5 0.5
   IDIPOL = 3
   LDIPOL = .TRUE.
   LHFCALC = .TRUE.
   GGA = B5
   AEXX = 0.2
   AGGAX = 0.72
   AGGAC = 0.81
   ALDAC = 0.19
   IVDW = 1
   VDW_S6 = 1.05
   VDW_C6 = 1.23 0.70 0.63 0.70
   VDW_R0 = 1.397 1.342 1.243 1.342
   ENCUT = 600
   PREC = Accurate
   LASPH = .TRUE.
   LREAL = .FALSE.
   ISPIN = 2
   MAGMOM = 1.0 0.0 0.0 0.0 0.0 0.0 0.0 0.0 0.0 0.0 0.0 0.0 0.0 0.0 0.0 0.0 0.0 0.0 0.0 0.0 0.0 0.0 0.0 0.0 0.0 0.0 0.0 0.0 0.0 0.0 0.0 0.0 0.0 0.0 0.0 0.0 0.0 0.0 0.0 0.0 0.0 0.0 0.0 0.0 0.0 0.0 0.0 0.0 0.0 0.0 0.0 0.0 0.0 0.0 0.0 0.0 0.0 0.0 0.0 0.0 0.0 0.0 0.0 0.0 0.0 0.0
   NELM = 200
   NELMIN = 8
   NCORE = 8
   KPAR = 1
   LWAVE = .FALSE.
   LCHARG = .FALSE.

 POTCAR:    PAW_PBE N 08Apr2002
 POTCAR:    PAW_PBE O 08Apr2002
 POTCAR:    PAW_PBE Mg_pv 13Apr2007
 POTCAR:    PAW_PBE O 08Apr2002
 POTCAR:    PAW_PBE N 08Apr2002
   VRHFIN =N: s2p3

   TITEL  = PAW_PBE N 08Apr2002
   POMASS =   14.001; ZVAL   =    5.000    mass and valenz
   ENMAX  =  400.000; ENMIN  =  300.000 eV

[...]

   TITEL  = PAW_PBE Mg_pv 13Apr2007
   POMASS =   24.305; ZVAL   =    8.000    mass and valenz
   ENMAX  =  403.929; ENMIN  =  302.947 eV

   TITEL  = PAW_PBE O 08Apr2002
   POMASS =   16.000; ZVAL   =    6.000    mass and valenz
   ENMAX  =  400.000; ENMIN  =  300.000 eV

  PAW_PBE N 08Apr2002                   :
  PAW_PBE O 08Apr2002                   :
  PAW_PBE Mg_pv 13Apr2007               :
  PAW_PBE O 08Apr2002                   :

 POSCAR:  N  O Mg  O
  positions in direct lattice
 exchange correlation table for  LEXCH =       12
   RHO(1)=    0.500       N(1)  =     2000
   RHO(2)=  100.500       N(2)  =     4000

 ion  position               nearest neighbor table
   1  0.496  0.250  0.757-   2 1.19
   2  0.630  0.250  0.775-   1 1.19
   3  0.250  0.000  0.352-  35 2.11  37 2.11  38 2.11  45 2.11  54 2.11
   4  0.500  0.250  0.352-  36 2.11  37 2.11  38 2.11  46 2.11  53 2.11
   5  0.250  0.250  0.451-  37 2.11  36 2.11  35 2.11  43 2.11  52 2.11  41 2.12
   6  0.500  0.000  0.451-  38 2.11  36 2.11  35 2.11  44 2.11  51 2.11  42 2.12
   7  0.250  0.000  0.550-  58 2.11  41 2.11  49 2.11  42 2.11  35 2.12  39 2.13
   8  0.500  0.250  0.549-  36 2.10  41 2.11  50 2.11  42 2.11  57 2.11  40 2.14
   9  0.248  0.250  0.649-  56 2.09  47 2.11  39 2.11  41 2.11  40 2.13
  10  0.500  0.998  0.649-  48 2.09  39 2.11  42 2.11  55 2.11  40 2.13
  11  0.250  0.500  0.352-  43 2.11  37 2.11  45 2.11  46 2.11  62 2.11
  12  0.500  0.750  0.352-  44 2.11  38 2.11  45 2.11  46 2.11  61 2.11
  13  0.250  0.750  0.451-  45 2.11  43 2.11  44 2.11  35 2.11  60 2.11  49 2.12
  14  0.500  0.500  0.451-  46 2.11  43 2.11  44 2.11  36 2.11  59 2.11  50 2.12
  15  0.250  0.500  0.550-  66 2.11  41 2.11  49 2.11  50 2.11  43 2.12  47 2.13
  16  0.500  0.750  0.550-  65 2.11  49 2.11  42 2.11  50 2.11  44 2.12  48 2.13
  17  0.250  0.750  0.649-  49 2.11  64 2.11  48 2.11  39 2.11  47 2.11
  18  0.500  0.502  0.649-  48 2.09  47 2.11  50 2.11  63 2.11  40 2.13
  19  0.750  0.000  0.352-  51 2.11  38 2.11  53 2.11  54 2.11  61 2.11
  20  0.000  0.250  0.352-  52 2.11  37 2.11  53 2.11  54 2.11  62 2.11
  21  0.750  0.250  0.451-  53 2.11  51 2.11  52 2.11  36 2.11  59 2.11  57 2.12
  22  0.000  0.000  0.451-  54 2.11  51 2.11  52 2.11  35 2.11  60 2.11  58 2.12
  23  0.750  1.000  0.550-  65 2.11  58 2.11  42 2.11  57 2.11  51 2.12  55 2.13
  24  0.000  0.250  0.550-  66 2.11  58 2.11  41 2.11  57 2.11  52 2.12  56 2.13
  25  0.753  0.250  0.649-  56 2.09  57 2.11  63 2.11  55 2.11  40 2.13
  26  1.000  1.000  0.649-  64 2.11  58 2.11  39 2.11  56 2.11  55 2.11
  27  0.750  0.500  0.352-  59 2.11  53 2.11  46 2.11  61 2.11  62 2.11
  28  0.000  0.750  0.352-  60 2.11  54 2.11  45 2.11  61 2.11  62 2.11
  29  0.750  0.750  0.451-  61 2.11  51 2.11  59 2.11  60 2.11  44 2.11  65 2.12
  30  0.000  0.500  0.451-  62 2.11  52 2.11  59 2.11  60 2.11  43 2.11  66 2.12
  31  0.750  0.500  0.550-  65 2.11  66 2.11  50 2.11  57 2.11  59 2.12  63 2.13
  32  0.000  0.750  0.550-  58 2.11  66 2.11  65 2.11  49 2.11  60 2.12  64 2.13
  33  0.750  0.750  0.649-  65 2.11  64 2.11  48 2.11  63 2.11  55 2.11
  34  1.000  0.500  0.649-  64 2.11  66 2.11  47 2.11  56 2.11  63 2.11
  35  0.250  0.000  0.451-   3 2.11   5 2.11   6 2.11  13 2.11  22 2.11   7 2.12
  36  0.500  0.250  0.451-   8 2.10   4 2.11   6 2.11   5 2.11  14 2.11  21 2.11
  37  0.250  0.250  0.352-   5 2.11   4 2.11   3 2.11  11 2.11  20 2.11
  38  0.500  0.000  0.352-   6 2.11   4 2.11   3 2.11  12 2.11  19 2.11
  39  0.250  0.000  0.650-  10 2.11   9 2.11  26 2.11  17 2.11   7 2.13
  40  0.500  0.250  0.650-  18 2.13  10 2.13   9 2.13  25 2.13   8 2.14
  41  0.250  0.250  0.550-   8 2.11   7 2.11  15 2.11   9 2.11  24 2.11   5 2.12
  42  0.500  0.000  0.550-   8 2.11  10 2.11  23 2.11   7 2.11  16 2.11   6 2.12
  43  0.250  0.500  0.451-  11 2.11   5 2.11  13 2.11  14 2.11  30 2.11  15 2.12
  44  0.500  0.750  0.451-  12 2.11   6 2.11  13 2.11  14 2.11  29 2.11  16 2.12
  45  0.250  0.750  0.352-  13 2.11  11 2.11  12 2.11   3 2.11  28 2.11
  46  0.500  0.500  0.352-  14 2.11  11 2.11  12 2.11   4 2.11  27 2.11
  47  0.250  0.500  0.650-  18 2.11   9 2.11  34 2.11  17 2.11  15 2.13
  48  0.500  0.750  0.650-  10 2.09  18 2.09  17 2.11  33 2.11  16 2.13
  49  0.250  0.750  0.550-  17 2.11  16 2.11  15 2.11   7 2.11  32 2.11  13 2.12
  50  0.500  0.500  0.550-   8 2.11  18 2.11  31 2.11  15 2.11  16 2.11  14 2.12
  51  0.750  0.000  0.451-  19 2.11   6 2.11  21 2.11  22 2.11  29 2.11  23 2.12
  52  0.000  0.250  0.451-  20 2.11   5 2.11  21 2.11  22 2.11  30 2.11  24 2.12
  53  0.750  0.250  0.352-  21 2.11  19 2.11  20 2.11   4 2.11  27 2.11
  54  0.000  0.000  0.352-  22 2.11  19 2.11  20 2.11   3 2.11  28 2.11
  55  0.750  0.000  0.650-  25 2.11  10 2.11  33 2.11  26 2.11  23 2.13
  56  0.000  0.250  0.650-  25 2.09   9 2.09  34 2.11  26 2.11  24 2.13
  57  0.750  0.250  0.550-  25 2.11   8 2.11  23 2.11  31 2.11  24 2.11  21 2.12
  58  1.000  0.000  0.550-  26 2.11  24 2.11  23 2.11   7 2.11  32 2.11  22 2.12
  59  0.750  0.500  0.451-  27 2.11  21 2.11  14 2.11  29 2.11  30 2.11  31 2.12
  60  0.000  0.750  0.451-  28 2.11  22 2.11  13 2.11  29 2.11  30 2.11  32 2.12
  61  0.750  0.750  0.352-  29 2.11  19 2.11  27 2.11  28 2.11  12 2.11
  62  0.000  0.500  0.352-  30 2.11  20 2.11  27 2.11  28 2.11  11 2.11
  63  0.750  0.500  0.650-  25 2.11  18 2.11  33 2.11  34 2.11  31 2.13
  64  1.000  0.750  0.650-  17 2.11  33 2.11  26 2.11  34 2.11  32 2.13
  65  0.750  0.750  0.550-  33 2.11  16 2.11  31 2.11  23 2.11  32 2.11  29 2.12
  66  1.000  0.500  0.550-  34 2.11  24 2.11  31 2.11  15 2.11  32 2.11  30 2.12

IMPORTANT INFORMATION: All symmetrisations will be switched off!
NOSYMM: (Re-)initialisation of all symmetry stuff for point group C_1.

                                     Primitive cell

  volume of cell :    1519.6535

  direct lattice vectors                    reciprocal lattice vectors
     8.440582262  0.000000000  0.000000000     0.118475239  0.000000000  0.000000000
     0.000000000  8.440582262  0.000000000     0.000000000  0.118475239  0.000000000
     0.000000000  0.000000000 21.330436697     0.000000000  0.000000000  0.046881366

  length of vectors
     8.440582262  8.440582262 21.330436697     0.118475239  0.118475239  0.046881366

  position of ions in fractional coordinates (direct lattice)
     0.496095416  0.249999999  0.757474999
     0.629522530  0.250000001  0.775133528
     0.250000000  0.000000000  0.351610242
     0.500000000  0.250000000  0.351610242
     0.250000000  0.250000000  0.450536747
     0.500000000  0.000000000  0.450536747
     0.249953960  0.000003730  0.550033670
     0.499913688  0.250000001  0.549155913
     0.248354353  0.250000000  0.648783680
     0.499673941  0.998104123  0.648660026
     0.250000000  0.500000000  0.351610242
     0.500000000  0.750000000  0.351610242
     0.250000000  0.750000000  0.450536747
     0.500000000  0.500000000  0.450536747
     0.249953961  0.499996270  0.550033665
     0.500008343  0.750000000  0.549920880
     0.249718327  0.750000000  0.648521549
     0.499673942  0.501895874  0.648659994
     0.750000000  0.000000000  0.351610242
     0.000000000  0.250000000  0.351610242
     0.750000000  0.250000000  0.450536747
     0.000000000  0.000000000  0.450536747
     0.749987699  0.999960572  0.550048308
     0.000102316  0.250000001  0.549910668
     0.752910016  0.250000001  0.648515817
     0.999986652  0.999771400  0.648566533
     0.750000000  0.500000000  0.351610242
     0.000000000  0.750000000  0.351610242
     0.750000000  0.750000000  0.450536747
     0.000000000  0.500000000  0.450536747
     0.749987702  0.500039430  0.550048303
     0.000000602  0.750000000  0.549996683
     0.750231141  0.750000000  0.648533477
     0.999986651  0.500228600  0.648566534
     0.250000000  0.000000000  0.450536747
     0.500000000  0.250000000  0.450536747
     0.250000000  0.250000000  0.351610242
     0.500000000  0.000000000  0.351610242
     0.250184871  0.000258567  0.649903240
     0.500422480  0.249999999  0.649698709
     0.250331671  0.250000000  0.549801157
     0.499975405  0.000351305  0.549806781
     0.250000000  0.500000000  0.450536747
     0.500000000  0.750000000  0.450536747
     0.250000000  0.750000000  0.351610242
     0.500000000  0.500000000  0.351610242
     0.250184870  0.499741432  0.649903244
     0.499970918  0.750000000  0.649989195
     0.250099955  0.750000000  0.549713460
     0.499975405  0.499648694  0.549806790
     0.750000000  0.000000000  0.450536747
     0.000000000  0.250000000  0.450536747
     0.750000000  0.250000000  0.351610242
     0.000000000  0.000000000  0.351610242
     0.749552626  0.000363258  0.649950610
     0.000168722  0.250000001  0.649897615
     0.749647013  0.249999999  0.549805588
     0.999969366  0.000082941  0.549716737
     0.750000000  0.500000000  0.450536747
     0.000000000  0.750000000  0.450536747
     0.750000000  0.750000000  0.351610242
     0.000000000  0.500000000  0.351610242
     0.749552631  0.499636743  0.649950614
     0.999979803  0.750000001  0.650042269
     0.749907401  0.750000000  0.549713147
     0.999969367  0.499917059  0.549716738

  ion indices of the primitive-cell ions
   primitive index   ion index
                 1           1
                 2           2
                 3           3
                 4           4
                 5           5
                 6           6
                 7           7
                 8           8
                 9           9
                10          10
                11          11
                12          12
                13          13
                14          14
                15          15
                16          16
                17          17
                18          18
                19          19
                20          20
[...]
   0.74964701  0.25000000  0.54980559
   0.99996937  0.00008294  0.54971674
   0.75000000  0.50000000  0.45053675
   0.00000000  0.75000000  0.45053675
   0.75000000  0.75000000  0.35161024
   0.00000000  0.50000000  0.35161024
   0.74955263  0.49963674  0.64995061
   0.99997980  0.75000000  0.65004227
   0.74990740  0.75000000  0.54971315
   0.99996937  0.49991706  0.54971674

 position of ions in cartesian coordinates  (Angst):
   4.18733417  2.11014556 16.15727252
   5.31353670  2.11014558 16.53393664
   2.11014557  0.00000000  7.50000000
   4.22029113  2.11014557  7.50000000
   2.11014557  2.11014557  9.61014557
   4.22029113  0.00000000  9.61014557
   2.10975696  0.00003148 11.73245839
   4.21956261  2.11014557 11.71373545
   2.09625535  2.11014557 13.83883922
   4.21753901  8.42457995 13.83620161
   2.11014557  4.22029113  7.50000000
   4.22029113  6.33043670  7.50000000
   2.11014557  6.33043670  9.61014557
   4.22029113  4.22029113  9.61014557
   2.10975697  4.22025965 11.73245828
   4.22036155  6.33043670 11.73005252
   2.10776808  6.33043669 13.83324785
   4.21753901  4.23629341 13.83620094
   6.33043670  0.00000000  7.50000000
   0.00000000  2.11014557  7.50000000
   6.33043670  2.11014557  9.61014557
   0.00000000  0.00000000  9.61014557
   6.33033287  8.44024947 11.73277060
   0.00086360  2.11014557 11.72983469
   6.35499892  2.11014557 13.83312558
   8.44046960  8.43865275 13.83420738
   6.33043670  4.22029113  7.50000000
   0.00000000  6.33043670  7.50000000
   6.33043670  6.33043670  9.61014557
   0.00000000  4.22029113  9.61014557
   6.33033289  4.22062394 11.73277050
   0.00000508  6.33043670 11.73166942
   6.33238766  6.33043670 13.83350228
   8.44046959  4.22222064 13.83420739
   2.11014557  0.00000000  9.61014557
   4.22029113  2.11014557  9.61014557
   2.11014557  2.11014557  7.50000000
   4.22029113  0.00000000  7.50000000
   2.11170598  0.00218246 13.86271991
   4.22385711  2.11014556 13.85835718
   2.11294506  2.11014556 11.72749877
   4.22008353  0.00296522 11.72761874
   2.11014557  4.22029113  9.61014557
   4.22029113  6.33043670  9.61014557
   2.11014557  6.33043670  7.50000000
   4.22029113  4.22029113  7.50000000
   2.11170598  4.21810867 13.86272000
   4.22004566  6.33043670 13.86455338
   2.11098925  6.33043670 11.72562816
   4.22008354  4.21732590 11.72761893
   6.33043670  0.00000000  9.61014557
   0.00000000  2.11014557  9.61014557
   6.33043670  2.11014557  7.50000000
   0.00000000  0.00000000  7.50000000
   6.32666060  0.00306611 13.86373035
   0.00142411  2.11014557 13.86259994
   6.32745728  2.11014556 11.72759330
   8.44032370  0.00070007 11.72569806
   6.33043670  4.22029113  9.61014557
   0.00000000  6.33043670  9.61014557
   6.33043670  6.33043670  7.50000000
   0.00000000  4.22029113  7.50000000
   6.32666064  4.21722503 13.86373044
   8.44041179  6.33043670 13.86568546
   6.32965510  6.33043670 11.72562148
   8.44032370  4.21959106 11.72569809

--------------------------------------- Iteration      FINAL  ---------------------------------------

--------------------OUTCAR has been truncated-------------------------

[...]

--------------------OUTCAR has been truncated-------------------------

  DFT-D2 method for vdW energy calculation

  Parameters of vdW forcefield:
         C6(Jnm^6/mol)     R0(A)
   N        1.230          1.397
   O        0.700          1.342
   Mg       0.630          1.243
   O        0.700          1.342

  vdW correction parametrized for the method        Ìb

  IVDW =   1
  VDW_RADIUS =    50.000 A
  VDW_S6 =     1.050
  VDW_SR =     1.000
  VDW_D =    20.000
  LVDW_EWALD = F

  Number of pair interactions contributing to vdW energy:  768383
  Edisp (eV):   -5.21089

 VOLUME and BASIS-vectors are now :
  energy-cutoff  :      600.00
  volume of cell :     1519.65
      direct lattice vectors                 reciprocal lattice vectors
     8.440582262  0.000000000  0.000000000     0.118475239  0.000000000  0.000000000
     0.000000000  8.440582262  0.000000000     0.000000000  0.118475239  0.000000000
     0.000000000  0.000000000 21.330436697     0.000000000  0.000000000  0.046881366

  length of vectors
     8.440582262  8.440582262 21.330436697     0.118475239  0.118475239  0.046881366

 FORCES acting on ions:
    Electron-Ion                     Ewald-Force                    Non-Local-Force
   0.246E+03 0.687E-05 -.129E+04   -.287E+03 0.116E-04 0.128E+04   0.387E+02 -.101E-04 0.938E+01
   -.231E+03 -.239E-04 -.161E+04   0.285E+03 0.148E-04 0.163E+04   -.486E+02 0.146E-04 -.175E+02
   0.332E+00 0.386E+00 0.209E+04   -.339E+00 -.393E+00 -.208E+04   0.473E-02 0.450E-02 -.640E+01
   0.108E+00 0.154E-03 0.209E+04   -.107E+00 -.646E-06 -.208E+04   -.133E-03 -.109E-03 -.635E+01
   0.217E+01 0.221E-04 0.727E+03   -.224E+01 -.574E-05 -.727E+03   0.459E-01 -.122E-04 0.417E+00
   0.444E+00 0.246E+01 0.727E+03   -.444E+00 -.253E+01 -.727E+03   0.693E-04 0.457E-01 0.422E+00
   0.552E+01 0.601E+01 -.629E+03   -.551E+01 -.598E+01 0.630E+03   -.683E-02 -.200E-01 -.386E+00
   0.306E+01 0.297E-04 -.607E+03   -.307E+01 -.331E-04 0.607E+03   0.152E-01 0.214E-05 0.420E+00
   0.364E+02 -.200E-05 -.197E+04   -.372E+02 0.912E-06 0.196E+04   0.789E+00 -.104E-05 0.579E+01
   0.114E+02 0.443E+02 -.196E+04   -.114E+02 -.451E+02 0.195E+04   0.270E-01 0.741E+00 0.576E+01
   0.332E+00 -.386E+00 0.209E+04   -.339E+00 0.393E+00 -.208E+04   0.461E-02 -.449E-02 -.640E+01
   0.944E-01 -.150E-03 0.209E+04   -.941E-01 0.636E-06 -.208E+04   -.203E-03 0.108E-03 -.639E+01
   0.110E+01 -.232E-04 0.724E+03   -.112E+01 0.561E-05 -.724E+03   0.101E-01 0.132E-04 0.380E+00
   0.444E+00 -.246E+01 0.727E+03   -.444E+00 0.253E+01 -.727E+03   0.728E-04 -.457E-01 0.423E+00
   0.552E+01 -.601E+01 -.629E+03   -.551E+01 0.598E+01 0.630E+03   -.683E-02 0.200E-01 -.386E+00
   0.154E+01 -.261E-04 -.628E+03   -.154E+01 0.288E-04 0.629E+03   0.668E-03 0.922E-07 -.239E+00
   0.123E+02 0.368E-05 -.201E+04   -.124E+02 -.457E-05 0.200E+04   0.950E-01 0.595E-06 0.563E+01
   0.114E+02 -.443E+02 -.196E+04   -.114E+02 0.451E+02 0.195E+04   0.270E-01 -.741E+00 0.576E+01
   -.332E+00 0.400E+00 0.209E+04   0.339E+00 -.407E+00 -.208E+04   -.462E-02 0.454E-02 -.640E+01
   -.107E+00 -.114E-04 0.209E+04   0.107E+00 -.941E-06 -.208E+04   0.114E-03 0.598E-05 -.639E+01
   -.218E+01 0.205E-04 0.728E+03   0.226E+01 -.505E-05 -.728E+03   -.472E-01 -.132E-04 0.421E+00
   -.442E+00 0.138E+01 0.725E+03   0.438E+00 -.140E+01 -.725E+03   0.230E-02 0.104E-01 0.378E+00
   -.557E+01 0.761E+01 -.625E+03   0.555E+01 -.760E+01 0.625E+03   0.134E-01 -.705E-02 -.402E+00
   -.299E+01 0.594E-05 -.626E+03   0.303E+01 -.358E-05 0.626E+03   -.383E-01 -.124E-05 -.274E+00
   -.444E+02 0.518E-05 -.192E+04   0.455E+02 -.336E-06 0.191E+04   -.981E+00 -.573E-05 0.582E+01
   -.890E+01 0.174E+02 -.200E+04   0.891E+01 -.175E+02 0.199E+04   -.194E-01 0.815E-01 0.562E+01
   -.332E+00 -.400E+00 0.209E+04   0.339E+00 0.407E+00 -.208E+04   -.450E-02 -.453E-02 -.640E+01
   -.941E-01 0.103E-04 0.209E+04   0.938E-01 0.940E-06 -.208E+04   0.185E-03 -.103E-04 -.640E+01
   -.111E+01 -.228E-04 0.725E+03   0.113E+01 0.582E-05 -.725E+03   -.106E-01 0.132E-04 0.380E+00
   -.442E+00 -.138E+01 0.725E+03   0.438E+00 0.140E+01 -.725E+03   0.230E-02 -.104E-01 0.378E+00
   -.557E+01 -.761E+01 -.625E+03   0.555E+01 0.760E+01 0.625E+03   0.134E-01 0.705E-02 -.402E+00
   -.153E+01 -.329E-05 -.636E+03   0.153E+01 0.114E-05 0.637E+03   0.350E-02 0.252E-05 -.271E+00
   -.127E+02 -.275E-06 -.200E+04   0.128E+02 -.216E-05 0.199E+04   -.863E-01 -.359E-06 0.562E+01
   -.890E+01 -.174E+02 -.200E+04   0.891E+01 0.175E+02 0.199E+04   -.194E-01 -.815E-01 0.562E+01
   0.104E+01 0.121E+01 0.543E+03   -.106E+01 -.122E+01 -.543E+03   0.201E-01 0.215E-01 -.125E+00
   0.370E+00 0.376E-04 0.549E+03   -.368E+00 -.134E-05 -.549E+03   -.154E-02 -.485E-04 0.845E-01
   0.300E+00 0.181E-04 0.157E+04   -.311E+00 -.707E-06 -.157E+04   0.132E-01 -.236E-04 0.313E+01
   0.759E-01 0.347E+00 0.157E+04   -.755E-01 -.357E+00 -.157E+04   -.474E-03 0.129E-01 0.313E+01
   0.182E+02 0.183E+02 -.151E+04   -.182E+02 -.183E+02 0.151E+04   0.148E-01 -.262E-01 -.435E+01
   0.179E+02 0.104E-04 -.140E+04   -.178E+02 -.434E-05 0.141E+04   -.948E-01 -.683E-05 -.331E+01
   0.530E+01 0.834E-05 -.465E+03   -.531E+01 -.680E-05 0.465E+03   -.399E-02 -.260E-05 0.657E-01
   0.167E+01 0.633E+01 -.463E+03   -.165E+01 -.632E+01 0.463E+03   -.191E-01 -.246E-01 0.987E-01
   0.104E+01 -.121E+01 0.543E+03   -.106E+01 0.122E+01 -.543E+03   0.201E-01 -.215E-01 -.125E+00
   0.291E+00 -.381E-04 0.544E+03   -.291E+00 0.890E-06 -.544E+03   0.826E-04 0.480E-04 -.816E-01
   0.207E+00 -.145E-04 0.157E+04   -.212E+00 0.699E-06 -.157E+04   0.597E-02 0.231E-04 0.312E+01
   0.759E-01 -.347E+00 0.157E+04   -.755E-01 0.357E+00 -.157E+04   -.476E-03 -.129E-01 0.313E+01
   0.182E+02 -.183E+02 -.151E+04   -.182E+02 0.183E+02 0.151E+04   0.148E-01 0.262E-01 -.435E+01
   0.382E+01 0.438E-05 -.151E+04   -.378E+01 -.527E-05 0.152E+04   -.358E-01 0.318E-05 -.432E+01
   0.316E+01 -.859E-05 -.471E+03   -.316E+01 0.627E-05 0.471E+03   0.804E-03 0.272E-05 0.207E+00
   0.167E+01 -.633E+01 -.463E+03   -.165E+01 0.632E+01 0.463E+03   -.191E-01 0.246E-01 0.987E-01
   -.105E+01 0.129E+01 0.544E+03   0.107E+01 -.131E+01 -.544E+03   -.253E-01 0.209E-01 -.128E+00
   -.361E+00 0.272E-05 0.544E+03   0.358E+00 -.267E-05 -.544E+03   0.362E-02 -.427E-05 -.828E-01
   -.301E+00 0.145E-04 0.157E+04   0.312E+00 -.680E-06 -.157E+04   -.131E-01 -.227E-04 0.313E+01
   -.754E-01 0.253E+00 0.157E+04   0.752E-01 -.258E+00 -.157E+04   0.277E-03 0.568E-02 0.312E+01
   -.199E+02 0.290E+02 -.149E+04   0.199E+02 -.290E+02 0.150E+04   0.540E-01 -.391E-01 -.442E+01
   -.125E+02 0.294E-05 -.151E+04   0.126E+02 -.311E-05 0.151E+04   -.777E-01 -.136E-05 -.437E+01
   -.527E+01 0.809E-05 -.459E+03   0.523E+01 -.368E-05 0.459E+03   0.531E-01 -.403E-05 0.125E+00
   -.162E+01 0.412E+01 -.469E+03   0.162E+01 -.413E+01 0.469E+03   0.462E-02 -.299E-02 0.190E+00
   -.105E+01 -.129E+01 0.544E+03   0.107E+01 0.131E+01 -.544E+03   -.253E-01 -.209E-01 -.128E+00
   -.287E+00 -.350E-05 0.542E+03   0.286E+00 0.246E-05 -.542E+03   0.134E-02 0.473E-05 -.116E+00
   -.207E+00 -.153E-04 0.157E+04   0.212E+00 0.693E-06 -.157E+04   -.589E-02 0.225E-04 0.312E+01
   -.754E-01 -.253E+00 0.157E+04   0.752E-01 0.258E+00 -.157E+04   0.277E-03 -.568E-02 0.312E+01
   -.199E+02 -.290E+02 -.149E+04   0.199E+02 0.290E+02 0.150E+04   0.541E-01 0.391E-01 -.442E+01
   -.357E+01 0.105E-05 -.152E+04   0.357E+01 -.179E-05 0.153E+04   0.767E-02 0.150E-05 -.434E+01
   -.320E+01 -.114E-04 -.469E+03   0.321E+01 0.854E-05 0.469E+03   -.105E-01 0.355E-05 0.200E+00
   -.162E+01 -.412E+01 -.469E+03   0.162E+01 0.413E+01 0.469E+03   0.462E-02 0.298E-02 0.190E+00
   0.132E+02 0.202E-04 0.239E+02   -.924E-13 -.586E-13 -.279E-11   -.101E+02 0.137E-04 -.207E+02

 POSITION                                       TOTAL-FORCE (eV/Angst)
      4.18733      2.11015     16.15727         1.248141      0.000007      0.582370
      5.31354      2.11015     16.53394        -1.273863      0.000008     -0.403268
      2.11015      0.00000      7.50000        -0.001997     -0.001903      0.468079
      4.22029      2.11015      7.50000         0.000097      0.000030      0.457262
      2.11015      2.11015      9.61015        -0.022136      0.000002      0.032467
      4.22029      0.00000      9.61015        -0.000046     -0.022111      0.033057
      2.10976      0.00003     11.73246         0.003765      0.007720      0.009508
      4.21956      2.11015     11.71374         0.005315     -0.000001      0.058352
      2.09626      2.11015     13.83884         0.020597     -0.000002     -0.144461
      4.21754      8.42458     13.83620         0.009956      0.021108     -0.156378
      2.11015      4.22029      7.50000        -0.001965      0.001904      0.468125
      4.22029      6.33044      7.50000         0.000107     -0.000030      0.467196
      2.11015      6.33044      9.61015        -0.004446     -0.000003      0.042916
      4.22029      4.22029      9.61015        -0.000044      0.022112      0.033030
      2.10976      4.22026     11.73246         0.003765     -0.007722      0.009507
      4.22036      6.33044     11.73005        -0.000571      0.000002     -0.004471
      2.10777      6.33044     13.83325        -0.011091     -0.000001     -0.138249
      4.21754      4.23629     13.83620         0.009953     -0.021111     -0.156392
      6.33044      0.00000      7.50000         0.001970     -0.001903      0.468257
      0.00000      2.11015      7.50000        -0.000025     -0.000006      0.467373
      6.33044      2.11015      9.61015         0.022714     -0.000000      0.034844
      0.00000      0.00000      9.61015        -0.001244     -0.004651      0.043751
      6.33033      8.44025     11.73277        -0.008616      0.007549      0.014713
      0.00086      2.11015     11.72983         0.006055     -0.000000     -0.005624
      6.35500      2.11015     13.83313        -0.016066     -0.000001     -0.123768
      8.44047      8.43865     13.83421        -0.003672     -0.007780     -0.132709
      6.33044      4.22029      7.50000         0.001935      0.001908      0.468296
      0.00000      6.33044      7.50000        -0.000054     -0.000001      0.470175
      6.33044      6.33044      9.61015         0.004992     -0.000003      0.042875
      0.00000      4.22029      9.61015        -0.001244      0.004654      0.043759
      6.33033      4.22062     11.73277        -0.008620     -0.007544      0.014709
      0.00001      6.33044     11.73167        -0.001452      0.000000     -0.005428
      6.33239      6.33044     13.83350         0.003982     -0.000004     -0.131012
      8.44047      4.22222     13.83421        -0.003677      0.007782     -0.132699
      2.11015      0.00000      9.61015         0.006833      0.007094      0.040679
      4.22029      2.11015      9.61015         0.000020     -0.000020      0.018609
      2.11015      2.11015      7.50000         0.004462     -0.000010     -0.433953
      4.22029      0.00000      7.50000        -0.000148      0.004335     -0.433876
      2.11171      0.00218     13.86272        -0.008191     -0.012808      0.017756
      4.22386      2.11015     13.85836        -0.006654     -0.000002     -0.044880
      2.11295      2.11015     11.72750        -0.011933     -0.000002     -0.013006
      4.22008      0.00297     11.72762        -0.004208     -0.018700     -0.013801
      2.11015      4.22029      9.61015         0.006820     -0.007092      0.040693
      4.22029      6.33044      9.61015         0.000049      0.000017      0.045135
      2.11015      6.33044      7.50000         0.001966      0.000012     -0.438360
      4.22029      4.22029      7.50000        -0.000146     -0.004338     -0.433755
      2.11171      4.21811     13.86272        -0.008193      0.012810      0.017760
      4.22005      6.33044     13.86455        -0.008264      0.000002      0.013472
      2.11099      6.33044     11.72563        -0.004212      0.000000      0.006906
      4.22008      4.21733     11.72762        -0.004208      0.018698     -0.013800
      6.33044      0.00000      9.61015        -0.008377      0.007126      0.041068
      0.00000      2.11015      9.61015         0.000615     -0.000006      0.043605
      6.33044      2.11015      7.50000        -0.004401     -0.000013     -0.433928
      0.00000      0.00000      7.50000         0.000097      0.001859     -0.438420
      6.32666      0.00307     13.86373         0.017150     -0.020202      0.000388
      0.00142      2.11015     13.86260         0.013909     -0.000002      0.002023
      6.32746      2.11015     11.72759         0.023985     -0.000001     -0.019675
      8.44032      0.00070     11.72570         0.000322     -0.005149      0.005635
      6.33044      4.22029      9.61015        -0.008363     -0.007128      0.041083
      0.00000      6.33044      9.61015         0.000417      0.000004      0.040261
      6.33044      6.33044      7.50000        -0.001916      0.000011     -0.438429
      0.00000      4.22029      7.50000         0.000097     -0.001856     -0.438447
      6.32666      4.21723     13.86373         0.017150      0.020202      0.000390
      8.44041      6.33044     13.86569         0.001062      0.000001      0.010544
      6.32966      6.33044     11.72562         0.001419      0.000000      0.006524
      8.44032      4.21959     11.72570         0.000324      0.005147      0.005637
    total drift:                               -0.000837      0.000037      0.007051

  FREE ENERGIE OF THE ION-ELECTRON SYSTEM (eV)
  free  energy   TOTEN  =      -454.44256595 eV

  energy  without entropy=     -454.44256595  energy(sigma->0) =     -454.44256595