 vasp.6.3.0 20Jan22 (build Mar 11 2022 13:48:16) complex

 executed on             LinuxIFC date 2024.02.11  17:04:40

 INCAR:
   SYSTEM = Oxide-Surface
   ISMEAR = 0
   SIGMA = 0.05
   EDIFF = 1E-5
   ALGO = ALL
   ISTART = 0
   IBRION = -1
   NSW = 0
   ISYM = 2
   DIPOL = 0.5 0.5 0.5
   IDIPOL = 3
   LDIPOL = .TRUE.
   METAGGA = R2SCAN
   LUSE_VDW = .TRUE.
   BPARAM = 11.95
   CPARAM = 0.0093
   LASPH = .TRUE.
   ENCUT = 600
   PREC = Accurate
   LASPH = .TRUE.
   LREAL = .FALSE.
   ISPIN = 1
   NELM = 200
   NELMIN = 8
   NCORE = 19
   KPAR = 1
   LWAVE = .FALSE.
   LCHARG = .FALSE.

 POTCAR:    PAW_PBE Mg_pv 13Apr2007
 POTCAR:    PAW_PBE O 08Apr2002
|               ----> ADVICE to this user running VASP <----                  |
|     You have switched on vdW-DFT.                                           |
|     This routine was written and supplied by Jiri Klimes. We recommend      |
|     that you carefully read and cite the following publications:            |
|       J. Klimes, D.R. Bowler, A. Michelides                                 |
|          J. Phys.: Cond Matt. 22 022201 (2010)                              |
|       J. Klimes, D.R. Bowler, A. Michelides                                 |
|          Phys. Rev. B. 83, 195131 (2011)                                    |
|     and references therein.                                                 |

   TITEL  = PAW_PBE Mg_pv 13Apr2007
   POMASS =   24.305; ZVAL   =    8.000    mass and valenz
   ENMAX  =  403.929; ENMIN  =  302.947 eV

   TITEL  = PAW_PBE O 08Apr2002
   POMASS =   16.000; ZVAL   =    6.000    mass and valenz
   ENMAX  =  400.000; ENMIN  =  300.000 eV

  PAW_PBE Mg_pv 13Apr2007               :
  PAW_PBE O 08Apr2002                   :

 POSCAR: Mg  O
  positions in direct lattice

 METAGGA = R2SCA    LMAXTAU =  6    LMIXTAU =  F

 ion  position               nearest neighbor table
   1  0.000  0.750  0.352-  33 2.11  35 2.11  36 2.11  43 2.11  52 2.11
   2  0.250  0.000  0.352-  34 2.11  35 2.11  36 2.11  44 2.11  51 2.11
   3  0.000  0.000  0.451-  35 2.11  34 2.11  33 2.11  41 2.11  50 2.11  39 2.12
   4  0.250  0.750  0.451-  36 2.11  34 2.11  33 2.11  42 2.11  49 2.11  40 2.12
   5  1.000  0.750  0.550-  56 2.11  40 2.11  47 2.11  39 2.11  33 2.12  37 2.15
   6  0.250  1.000  0.550-  40 2.11  48 2.11  55 2.11  39 2.11  34 2.12  38 2.15
   7  1.000  1.000  0.649-  38 2.11  54 2.11  39 2.11  37 2.11  45 2.11
   8  0.250  0.750  0.649-  40 2.11  46 2.11  37 2.11  38 2.11  53 2.11
   9  0.000  0.250  0.352-  41 2.11  35 2.11  43 2.11  44 2.11  60 2.11
  10  0.250  0.500  0.352-  42 2.11  36 2.11  43 2.11  44 2.11  59 2.11
  11  0.000  0.500  0.451-  43 2.11  41 2.11  42 2.11  33 2.11  58 2.11  47 2.12
  12  0.250  0.250  0.451-  44 2.11  41 2.11  42 2.11  34 2.11  57 2.11  48 2.12
  13  1.000  0.250  0.550-  64 2.11  48 2.11  47 2.11  39 2.11  41 2.12  45 2.15
  14  0.250  0.500  0.550-  63 2.11  48 2.11  40 2.11  47 2.11  42 2.13  46 2.15
  15  0.000  0.500  0.649-  46 2.11  47 2.11  62 2.11  37 2.11  45 2.11
  16  0.250  0.250  0.649-  48 2.11  45 2.11  46 2.11  38 2.11  61 2.11
  17  0.500  0.750  0.352-  49 2.11  36 2.11  51 2.11  52 2.11  59 2.11
  18  0.750  0.000  0.352-  50 2.11  35 2.11  51 2.11  52 2.11  60 2.11
  19  0.500  0.000  0.451-  51 2.11  49 2.11  50 2.11  34 2.11  57 2.11  55 2.12
  20  0.750  0.750  0.451-  52 2.11  49 2.11  50 2.11  33 2.11  58 2.11  56 2.12
  21  0.500  0.750  0.550-  63 2.11  56 2.11  40 2.11  55 2.11  49 2.13  53 2.15
  22  0.750  1.000  0.550-  56 2.11  64 2.11  39 2.11  55 2.11  50 2.13  54 2.15
  23  0.500  1.000  0.649-  61 2.11  53 2.11  55 2.11  38 2.11  54 2.11
  24  0.750  0.750  0.649-  56 2.11  37 2.11  54 2.11  62 2.11  53 2.11
  25  0.500  0.250  0.352-  57 2.11  51 2.11  44 2.11  59 2.11  60 2.11
  26  0.750  0.500  0.352-  58 2.11  52 2.11  43 2.11  59 2.11  60 2.11
  27  0.500  0.500  0.451-  59 2.11  49 2.11  57 2.11  58 2.11  42 2.11  63 2.12
  28  0.750  0.250  0.451-  60 2.11  50 2.11  57 2.11  58 2.11  41 2.11  64 2.12
  29  0.500  0.250  0.550-  63 2.11  64 2.11  48 2.11  55 2.11  57 2.13  61 2.15
  30  0.750  0.500  0.550-  63 2.11  64 2.11  56 2.11  47 2.11  58 2.13  62 2.15
  31  0.500  0.500  0.649-  46 2.11  53 2.11  61 2.11  62 2.11  63 2.12
  32  0.750  0.250  0.649-  64 2.11  45 2.11  54 2.11  62 2.11  61 2.11
  33  0.000  0.750  0.451-   1 2.11   3 2.11   4 2.11  11 2.11  20 2.11   5 2.12
  34  0.250  0.000  0.451-   2 2.11   3 2.11   4 2.11  12 2.11  19 2.11   6 2.12
  35  0.000  0.000  0.352-   3 2.11   2 2.11   1 2.11   9 2.11  18 2.11
  36  0.250  0.750  0.352-   4 2.11   2 2.11   1 2.11  10 2.11  17 2.11
  37  1.000  0.750  0.651-  24 2.11   8 2.11  15 2.11   7 2.11   5 2.15
  38  0.250  1.000  0.651-   7 2.11  23 2.11  16 2.11   8 2.11   6 2.15
  39  1.000  1.000  0.550-  22 2.11   5 2.11  13 2.11   6 2.11   7 2.11   3 2.12
  40  0.250  0.750  0.550-   8 2.11   6 2.11   5 2.11  21 2.11  14 2.11   4 2.12
  41  0.000  0.250  0.451-   9 2.11   3 2.11  11 2.11  12 2.11  28 2.11  13 2.12
  42  0.250  0.500  0.451-  10 2.11   4 2.11  11 2.11  12 2.11  27 2.11  14 2.13
  43  0.000  0.500  0.352-  11 2.11   9 2.11  10 2.11   1 2.11  26 2.11
  44  0.250  0.250  0.352-  12 2.11   9 2.11  10 2.11   2 2.11  25 2.11
  45  1.000  0.250  0.651-  32 2.11  16 2.11  15 2.11   7 2.11  13 2.15
  46  0.250  0.500  0.651-  15 2.11   8 2.11  16 2.11  31 2.11  14 2.15
  47  1.000  0.500  0.550-  15 2.11  13 2.11   5 2.11  30 2.11  14 2.11  11 2.12
  48  0.250  0.250  0.550-  16 2.11   6 2.11  13 2.11  29 2.11  14 2.11  12 2.12
  49  0.500  0.750  0.451-  17 2.11   4 2.11  19 2.11  20 2.11  27 2.11  21 2.13
  50  0.750  0.000  0.451-  18 2.11   3 2.11  19 2.11  20 2.11  28 2.11  22 2.13
  51  0.500  0.000  0.352-  19 2.11  17 2.11  18 2.11   2 2.11  25 2.11
  52  0.750  0.750  0.352-  20 2.11  17 2.11  18 2.11   1 2.11  26 2.11
  53  0.500  0.750  0.651-  23 2.11  24 2.11   8 2.11  31 2.11  21 2.15
  54  0.750  1.000  0.651-  32 2.11   7 2.11  24 2.11  23 2.11  22 2.15
  55  0.500  1.000  0.550-  23 2.11  22 2.11   6 2.11  21 2.11  29 2.11  19 2.12
  56  0.750  0.750  0.550-  24 2.11  22 2.11   5 2.11  21 2.11  30 2.11  20 2.12
  57  0.500  0.250  0.451-  25 2.11  19 2.11  12 2.11  27 2.11  28 2.11  29 2.13
  58  0.750  0.500  0.451-  26 2.11  20 2.11  11 2.11  27 2.11  28 2.11  30 2.13
  59  0.500  0.500  0.352-  27 2.11  17 2.11  25 2.11  26 2.11  10 2.11
  60  0.750  0.250  0.352-  28 2.11  18 2.11  25 2.11  26 2.11   9 2.11
  61  0.500  0.250  0.651-  23 2.11  32 2.11  16 2.11  31 2.11  29 2.15
  62  0.750  0.500  0.651-  15 2.11  24 2.11  32 2.11  31 2.11  30 2.15
  63  0.500  0.500  0.550-  30 2.11  21 2.11  29 2.11  14 2.11  31 2.12  27 2.12
  64  0.750  0.250  0.550-  32 2.11  22 2.11  13 2.11  29 2.11  30 2.11  28 2.12

  LATTYP: Found a simple tetragonal cell.
 ALAT       =     8.4409846542
 C/A-ratio  =     2.5270438657

  Lattice vectors:

 A1 = (   8.4409846542,   0.0000000000,   0.0000000000)
 A2 = (   0.0000000000,   8.4409846542,   0.0000000000)
 A3 = (   0.0000000000,   0.0000000000,  21.3307384906)

Analysis of symmetry for initial positions (statically):
 Subroutine PRICEL returns:
 Original cell was already a primitive cell.

 Routine SETGRP: Setting up the symmetry group for a
 simple tetragonal supercell.

 Subroutine GETGRP returns: Found  1 space group operations
 (whereof  1 operations were pure point group operations)
 out of a pool of 16 trial point group operations.

The static configuration has the point symmetry C_1 .

Analysis of symmetry for dynamics (positions and initial velocities):
 Subroutine PRICEL returns:
 Original cell was already a primitive cell.

[...]

The dynamic configuration has the point symmetry C_1 .

Analysis of constrained symmetry for selective dynamics:
 Subroutine PRICEL returns:
 Original cell was already a primitive cell.

 Routine SETGRP: Setting up the symmetry group for a
 simple tetragonal supercell.

 Subroutine GETGRP returns: Found  1 space group operations
 (whereof  1 operations were pure point group operations)
 out of a pool of 16 trial point group operations.

The constrained configuration has the point symmetry C_1 .

 Subroutine INISYM returns: Found  1 space group operations
 (whereof  1 operations are pure point group operations),
 and found     1 'primitive' translations

                                     Primitive cell

  volume of cell :    1519.8199

  direct lattice vectors                    reciprocal lattice vectors
     8.440984654  0.000000000  0.000000000     0.118469591  0.000000000  0.000000000
     0.000000000  8.440984654  0.000000000     0.000000000  0.118469591  0.000000000
     0.000000000  0.000000000 21.330738491     0.000000000  0.000000000  0.046880702

  length of vectors
     8.440984654  8.440984654 21.330738491     0.118469591  0.118469591  0.046880702

  position of ions in fractional coordinates (direct lattice)
     0.000000000  0.750000000  0.351605267
     0.250000000  0.000000000  0.351605267
     0.000000000  0.000000000  0.450535089
     0.250000000  0.750000000  0.450535089
     0.999969335  0.749932564  0.550143009
     0.249979009  0.999932854  0.550153760
     0.999984729  0.999879620  0.648880782
     0.249865610  0.749814499  0.648764798
     0.000000000  0.250000000  0.351605267
     0.250000000  0.500000000  0.351605267
     0.000000000  0.500000000  0.450535089
     0.250000000  0.250000000  0.450535089
     0.999969716  0.249949331  0.550140365
     0.250119639  0.499932684  0.550205747
     0.000137590  0.499892464  0.648694835
     0.249861482  0.249941717  0.648759231
     0.500000000  0.750000000  0.351605267
     0.750000000  0.000000000  0.351605267
     0.500000000  0.000000000  0.450535089
     0.750000000  0.750000000  0.450535089
     0.499983604  0.749784240  0.550199518
     0.749978902  0.999929979  0.550160720
     0.499953859  0.999865553  0.648719052
     0.750035499  0.749892856  0.648802828
     0.500000000  0.250000000  0.351605267
     0.750000000  0.500000000  0.351605267
     0.500000000  0.500000000  0.450535089
     0.750000000  0.250000000  0.450535089
     0.499985367  0.250051482  0.550198962
     0.749853021  0.499929383  0.550227143
     0.499835929  0.499867681  0.649468757
     0.750050535  0.249858113  0.648796072
     0.000000000  0.750000000  0.450535089
     0.250000000  0.000000000  0.450535089
     0.000000000  0.000000000  0.351605267
     0.250000000  0.750000000  0.351605267
     0.999935709  0.749855480  0.651031248
     0.249938454  0.999880825  0.651034598
     0.999963400  0.999937428  0.549922155
     0.249957400  0.750009151  0.549898012
     0.000000000  0.250000000  0.450535089
     0.250000000  0.500000000  0.450535089
     0.000000000  0.500000000  0.351605267
     0.250000000  0.250000000  0.351605267
     0.999938240  0.249914393  0.651023838
     0.249711433  0.499880155  0.650777859
     0.999963453  0.499938781  0.549848970
     0.249949301  0.249857489  0.549894283
     0.500000000  0.750000000  0.450535089
     0.750000000  0.000000000  0.450535089
     0.500000000  0.000000000  0.351605267
     0.750000000  0.750000000  0.351605267
     0.499982066  0.750187993  0.650991390
[...]
   0.50000000  0.25000000  0.45053509
   0.75000000  0.50000000  0.45053509
   0.50000000  0.50000000  0.35160527
   0.75000000  0.25000000  0.35160527
   0.49998941  0.24952449  0.65096407
   0.75019965  0.49987876  0.65090838
   0.50000777  0.49992986  0.55004552
   0.75000762  0.24986231  0.54991216

 position of ions in cartesian coordinates  (Angst):
   0.00000000  6.33073849  7.50000000
   2.11024616  0.00000000  7.50000000
   0.00000000  0.00000000  9.61024616
   2.11024616  6.33073849  9.61024616
   8.44072581  6.33016927 11.73495665
   2.11006897  8.44041787 11.73518599
   8.44085575  8.43996853 13.84110626
   2.10911178  6.32917268 13.83863224
   0.00000000  2.11024616  7.50000000
   2.11024616  4.22049233  7.50000000
   0.00000000  4.22049233  9.61024616
   2.11024616  2.11024616  9.61024616
   8.44072903  2.10981847 11.73490027
   2.11125603  4.21992411 11.73629491
   0.00116139  4.21958462 13.83713988
   2.10907694  2.10975420 13.83851350
   4.22049233  6.33073849  7.50000000
   6.33073849  0.00000000  7.50000000
   4.22049233  0.00000000  9.61024616
   6.33073849  6.33073849  9.61024616
   4.22035393  6.32891726 11.73616204
   6.33056040  8.44039361 11.73533446
   4.22010285  8.43984979 13.83765645
   6.33103814  6.32983409 13.83944346
   4.22049233  2.11024616  7.50000000
   6.33073849  4.22049233  7.50000000
   4.22049233  4.22049233  9.61024616
   6.33073849  2.11024616  9.61024616
   4.22036881  2.11068072 11.73615017
   6.32949784  4.21989625 11.73675130
   4.21910740  4.21937542 13.85364820
   6.33116506  2.10904849 13.83929935
   0.00000000  6.33073849  9.61024616
   2.11024616  0.00000000  9.61024616
   0.00000000  0.00000000  7.50000000
   2.11024616  6.33073849  7.50000000
   8.44044197  6.32951860 13.88697731
   2.10972665  8.43997870 13.88704876
   8.44067571  8.44045649 11.73024569
   2.10988658  6.33081573 11.72973070
   0.00000000  2.11024616  9.61024616
   2.11024616  4.22049233  9.61024616
   0.00000000  4.22049233  7.50000000
   2.11024616  2.11024616  7.50000000
   8.44046334  2.10952356 13.88681923
   2.10781037  4.21948072 13.88157232
   8.44067617  4.21997558 11.72868458
   2.10981821  2.10904323 11.72965114
   4.22049233  6.33073849  9.61024616
   6.33073849  0.00000000  9.61024616
   4.22049233  0.00000000  7.50000000
   6.33073849  6.33073849  7.50000000
   4.22034095  6.33232534 13.88612710
   6.33073059  8.43995481 13.88762338
   4.22039784  8.44027584 11.72906685
   6.33071641  6.33073421 11.73011252
   4.22049233  2.11024616  9.61024616
   6.33073849  4.22049233  9.61024616
   4.22049233  4.22049233  7.50000000
   6.33073849  2.11024616  7.50000000
   4.22040296  2.10623240 13.88554438
   6.33242376  4.21946895 13.88435643
   4.22055787  4.21990030 11.73287708
   6.33080282  2.10908395 11.73003243

--------------------------------------- Iteration      FINAL  ---------------------------------------

--------------------OUTCAR has been truncated-------------------------

[...]

--------------------OUTCAR has been truncated-------------------------

  FORCE on cell =-STRESS in cart. coord.  units (eV):
  Direction    XX          YY          ZZ          XY          YZ          ZX
  Alpha Z   875.25928   875.25928   875.25928
  Ewald  161094.91791161094.93868************     0.00012    -0.38451    -0.10822
  Hartree171198.19813171198.21050************     0.00017    -0.22410    -0.06185
  E(xc)   -2654.53487 -2654.53486 -2652.72978     0.00009     0.00231     0.00081
  Local  ************************342549.05909    -0.00050     0.61423     0.17083
  n-local -2786.04908 -2786.04939 -2807.52205     0.00000    -0.01480    -0.00414
  augment  1177.50582  1177.50696  1168.25235     0.00214    -0.01631    -0.00158
  Kinetic  7317.11854  7317.11889  7353.87296     0.00032     0.07939     0.02406
  Fock        0.00000     0.00000     0.00000     0.00000     0.00000     0.00000
  Total     -45.46263   -45.46153   -14.48785     0.00235     0.05620     0.01991
  in kB     -47.92620   -47.92505   -15.27293     0.00248     0.05925     0.02099

 VOLUME and BASIS-vectors are now :
  energy-cutoff  :      600.00
  volume of cell :     1519.82
      direct lattice vectors                 reciprocal lattice vectors
     8.440984654  0.000000000  0.000000000     0.118469591  0.000000000  0.000000000
     0.000000000  8.440984654  0.000000000     0.000000000  0.118469591  0.000000000
     0.000000000  0.000000000 21.330738491     0.000000000  0.000000000  0.046880702

  length of vectors
     8.440984654  8.440984654 21.330738491     0.118469591  0.118469591  0.046880702

 FORCES acting on ions:
    Electron-Ion                     Ewald-Force                    Non-Local-Force
   0.883E-02 0.173E-01 0.207E+04   -.916E-02 -.173E-01 -.206E+04   0.166E-03 0.550E-04 -.715E+01
   -.246E-01 0.981E-03 0.207E+04   0.247E-01 -.114E-02 -.206E+04   0.753E-04 -.157E-03 -.716E+01
   0.195E-01 0.130E-02 0.683E+03   -.216E-01 -.359E-02 -.683E+03   0.144E-02 0.165E-02 0.405E+00
   -.158E+00 0.125E+00 0.683E+03   0.160E+00 -.126E+00 -.683E+03   -.150E-02 0.920E-03 0.401E+00
   0.756E-01 -.992E-01 -.690E+03   -.842E-01 0.110E+00 0.690E+03   0.100E-01 0.530E-03 -.130E+00
   -.360E-01 0.868E-02 -.690E+03   0.311E-01 -.990E-02 0.690E+03   0.560E-02 0.852E-02 -.142E+00
   -.351E-01 -.108E-01 -.205E+04   0.379E-01 0.119E-01 0.204E+04   -.307E-02 0.458E-03 0.613E+01
   -.460E+00 -.138E+00 -.205E+04   0.423E+00 0.207E+00 0.204E+04   0.386E-01 -.426E-01 0.613E+01
   0.870E-02 -.177E-01 0.207E+04   -.908E-02 0.174E-01 -.206E+04   0.182E-03 0.303E-04 -.715E+01
   -.441E-01 -.129E-02 0.207E+04   0.450E-01 0.123E-02 -.206E+04   -.721E-03 0.138E-03 -.715E+01
   0.468E-01 -.156E-01 0.683E+03   -.509E-01 0.131E-01 -.684E+03   0.272E-02 0.184E-02 0.379E+00
   -.167E+00 -.137E+00 0.683E+03   0.169E+00 0.134E+00 -.683E+03   -.106E-02 0.263E-02 0.399E+00
   0.705E-01 0.113E+00 -.690E+03   -.789E-01 -.126E+00 0.690E+03   0.997E-02 0.133E-01 -.132E+00
   -.537E+00 -.450E-02 -.690E+03   0.587E+00 0.364E-02 0.690E+03   -.601E-01 0.910E-02 -.218E+00
   0.586E+00 0.267E-01 -.205E+04   -.599E+00 -.243E-01 0.204E+04   -.101E-01 -.448E-03 0.608E+01
   -.489E+00 0.123E+00 -.205E+04   0.449E+00 -.190E+00 0.204E+04   0.416E-01 0.444E-01 0.613E+01
   -.905E-02 0.367E-01 0.207E+04   0.927E-02 -.375E-01 -.206E+04   0.146E-03 0.639E-03 -.716E+01
   0.246E-01 0.103E-02 0.207E+04   -.247E-01 -.121E-02 -.206E+04   0.110E-03 -.179E-04 -.716E+01
   -.260E-01 -.526E-02 0.683E+03   0.262E-01 0.143E-02 -.683E+03   -.319E-03 0.246E-02 0.382E+00
   0.155E+00 0.151E+00 0.683E+03   -.159E+00 -.155E+00 -.683E+03   0.268E-02 0.252E-02 0.403E+00
   -.673E-01 0.407E+00 -.691E+03   0.753E-01 -.447E+00 0.691E+03   -.476E-02 0.649E-01 -.170E+00
   0.497E-01 0.108E-01 -.690E+03   -.431E-01 -.121E-01 0.691E+03   -.230E-02 0.882E-02 -.137E+00
   0.503E-01 0.198E-01 -.205E+04   -.545E-01 -.143E-01 0.204E+04   0.447E-02 -.277E-02 0.606E+01
   0.394E+00 0.298E+00 -.205E+04   -.356E+00 -.261E+00 0.204E+04   -.356E-01 -.286E-01 0.612E+01
   -.903E-02 -.374E-01 0.207E+04   0.918E-02 0.378E-01 -.206E+04   -.236E-03 -.584E-03 -.716E+01
   0.442E-01 -.155E-02 0.207E+04   -.450E-01 0.133E-02 -.206E+04   0.704E-03 0.217E-04 -.716E+01
   -.504E-01 -.425E-02 0.682E+03   0.534E-01 0.134E-02 -.683E+03   -.212E-02 0.157E-02 0.435E+00
   0.164E+00 -.164E+00 0.683E+03   -.168E+00 0.162E+00 -.683E+03   0.229E-02 0.103E-02 0.403E+00
   -.629E-01 -.436E+00 -.691E+03   0.710E-01 0.475E+00 0.691E+03   -.471E-02 -.429E-01 -.177E+00
   0.508E+00 -.879E-02 -.691E+03   -.560E+00 0.824E-02 0.691E+03   0.649E-01 0.897E-02 -.212E+00
   -.395E+00 0.599E-01 -.206E+04   0.416E+00 -.553E-01 0.205E+04   0.145E-01 0.121E-01 0.625E+01
   0.424E+00 -.315E+00 -.205E+04   -.384E+00 0.280E+00 0.204E+04   -.385E-01 0.301E-01 0.612E+01
   0.269E-01 0.131E-01 0.512E+03   -.260E-01 -.131E-01 -.512E+03   -.131E-02 0.286E-03 -.904E-01
   -.472E-01 -.125E-02 0.512E+03   0.519E-01 0.474E-02 -.512E+03   -.645E-02 -.481E-02 -.962E-01
   0.540E-02 0.131E-02 0.155E+04   -.558E-02 -.121E-02 -.156E+04   0.355E-03 -.195E-03 0.342E+01
   -.257E-01 0.200E-01 0.155E+04   0.261E-01 -.201E-01 -.156E+04   -.740E-03 -.132E-03 0.341E+01
   0.450E-01 -.102E+00 -.156E+04   -.633E-01 0.112E+00 0.156E+04   0.262E-01 -.917E-02 -.509E+01
   -.964E-01 0.243E-03 -.156E+04   0.118E+00 -.274E-02 0.156E+04   -.251E-01 0.402E-02 -.510E+01
   -.242E-03 0.147E-02 -.512E+03   -.214E-03 0.278E-03 0.512E+03   0.229E-02 -.126E-02 0.246E+00
   -.226E+00 0.841E-01 -.512E+03   0.229E+00 -.837E-01 0.512E+03   -.197E-02 -.586E-02 0.291E+00
   0.264E-01 -.210E-01 0.512E+03   -.255E-01 0.270E-01 -.512E+03   -.146E-02 -.832E-02 -.905E-01
   -.166E+00 -.947E-02 0.512E+03   0.157E+00 0.128E-01 -.511E+03   0.123E-01 -.436E-02 -.100E+00
   0.776E-02 -.116E-02 0.155E+04   -.814E-02 0.124E-02 -.156E+04   0.558E-03 -.156E-03 0.341E+01
   -.263E-01 -.198E-01 0.155E+04   0.268E-01 0.200E-01 -.156E+04   -.655E-03 -.259E-03 0.342E+01
   0.371E-01 0.101E+00 -.156E+04   -.541E-01 -.114E+00 0.156E+04   0.247E-01 0.153E-01 -.509E+01
   -.738E+00 0.237E-01 -.156E+04   0.720E+00 -.259E-01 0.156E+04   0.506E-01 0.373E-02 -.493E+01
   0.150E+00 -.165E-01 -.511E+03   -.155E+00 0.166E-01 0.511E+03   0.812E-02 0.921E-03 0.310E+00
   -.246E+00 -.868E-01 -.512E+03   0.249E+00 0.853E-01 0.512E+03   -.202E-02 0.858E-02 0.291E+00
   -.315E-01 0.129E+00 0.512E+03   0.330E-01 -.115E+00 -.511E+03   -.193E-02 -.194E-01 -.101E+00
   0.453E-01 -.117E-02 0.512E+03   -.478E-01 0.480E-02 -.512E+03   0.349E-02 -.501E-02 -.986E-01
   -.536E-02 0.733E-03 0.155E+04   0.563E-02 -.654E-03 -.156E+04   -.529E-03 -.236E-03 0.341E+01
   0.257E-01 0.224E-01 0.155E+04   -.262E-01 -.226E-01 -.156E+04   0.673E-03 0.334E-03 0.341E+01
   0.213E-01 0.663E+00 -.156E+04   -.122E-01 -.631E+00 0.156E+04   -.150E-01 -.718E-01 -.498E+01
   0.809E-01 0.247E-02 -.156E+04   -.100E+00 -.508E-02 0.156E+04   0.227E-01 0.451E-02 -.510E+01
   -.768E-02 0.124E-01 -.512E+03   0.703E-02 -.147E-01 0.511E+03   0.217E-03 0.398E-02 0.303E+00
   0.223E+00 0.216E+00 -.512E+03   -.227E+00 -.221E+00 0.512E+03   0.399E-02 0.116E-02 0.278E+00
   -.309E-01 -.146E+00 0.512E+03   0.321E-01 0.140E+00 -.511E+03   -.177E-02 0.796E-02 -.100E+00
   0.164E+00 -.105E-01 0.512E+03   -.154E+00 0.140E-01 -.511E+03   -.140E-01 -.458E-02 -.108E+00
   -.753E-02 -.254E-03 0.155E+04   0.817E-02 0.464E-03 -.156E+04   -.743E-03 -.300E-03 0.341E+01
   0.264E-01 -.222E-01 0.155E+04   -.269E-01 0.226E-01 -.156E+04   0.638E-03 -.583E-03 0.341E+01
   0.245E-01 -.702E+00 -.156E+04   -.145E-01 0.662E+00 0.156E+04   -.165E-01 0.875E-01 -.498E+01
   0.580E+00 0.241E-01 -.156E+04   -.551E+00 -.269E-01 0.156E+04   -.584E-01 0.432E-02 -.497E+01
   -.133E+00 0.217E-01 -.515E+03   0.140E+00 -.257E-01 0.515E+03   -.104E-01 0.498E-02 0.110E+00
   0.243E+00 -.215E+00 -.512E+03   -.248E+00 0.218E+00 0.512E+03   0.411E-02 0.301E-02 0.279E+00
   0.675E-02 -.757E-02 0.183E+02   0.201E-13 -.146E-12 0.517E-11   0.370E-01 0.113E+00 -.180E+02

 POSITION                                       TOTAL-FORCE (eV/Angst)
      0.00000      6.33074      7.50000        -0.000843     -0.001607      0.536630
      2.11025      0.00000      7.50000        -0.000470     -0.001964      0.536691
      0.00000      0.00000      9.61025        -0.001281     -0.002277     -0.038508
      2.11025      6.33074      9.61025        -0.000079     -0.002324     -0.038945
      8.44073      6.33017     11.73496         0.000846      0.009533      0.056461
      2.11007      8.44042     11.73519         0.000094      0.005835      0.058944
      8.44086      8.43997     13.84111        -0.000873      0.000286     -0.063602
      2.10911      6.32917     13.83863         0.001244      0.024895     -0.078754
      0.00000      2.11025      7.50000        -0.000880     -0.001951      0.536330
      2.11025      4.22049      7.50000        -0.000505     -0.001565      0.536531
      0.00000      4.22049      9.61025        -0.002028     -0.002243     -0.037944
      2.11025      2.11025      9.61025        -0.000274     -0.002813     -0.039292
      8.44073      2.10982     11.73490         0.000923     -0.000864      0.056562
      2.11126      4.21992     11.73629        -0.011129      0.006783      0.037301
      0.00116      4.21958     13.83714        -0.023147      0.000688     -0.078328
      2.10908      2.10975     13.83851         0.000942     -0.023532     -0.080455
      4.22049      6.33074      7.50000        -0.000319     -0.001835      0.536810
      6.33074      0.00000      7.50000        -0.000728     -0.001844      0.536894
      4.22049      0.00000      9.61025        -0.000789     -0.002989     -0.036625
      6.33074      6.33074      9.61025        -0.002145     -0.003146     -0.037989
      4.22035      6.32892     11.73616         0.002589      0.024026      0.055189
      6.33056      8.44039     11.73533         0.003639      0.006100      0.059710
      4.22010      8.43985     13.83766        -0.000283      0.001592     -0.066875
      6.33104      6.32983     13.83944         0.001895      0.007600     -0.072076
      4.22049      2.11025      7.50000        -0.000771     -0.001827      0.536784
      6.33074      4.22049      7.50000        -0.000842     -0.001846      0.537104
      4.22049      4.22049      9.61025         0.000218     -0.002965     -0.033621
      6.33074      2.11025      9.61025        -0.001772     -0.002156     -0.037486
      4.22037      2.11068     11.73615         0.002700     -0.005790      0.055924
      6.32950      4.21990     11.73675         0.012831      0.006959      0.048994
      4.21911      4.21938     13.85365         0.035622      0.015419     -0.202741
      6.33117      2.10905     13.83930         0.000860     -0.006171     -0.073086
      0.00000      6.33074      9.61025        -0.001054     -0.001377      0.070461
      2.11025      0.00000      9.61025        -0.002368     -0.002953      0.069801
      0.00000      0.00000      7.50000        -0.000513     -0.001737     -0.355869
      2.11025      6.33074      7.50000        -0.000953     -0.001830     -0.355912
      8.44044      6.32952     13.88698         0.007240     -0.001475     -0.201394
      2.10973      8.43998     13.88705        -0.003953     -0.000124     -0.203786
      8.44068      8.44046     11.73025         0.001149     -0.001155      0.001021
      2.10989      6.33082     11.72973         0.000217     -0.007007      0.003712
      0.00000      2.11025      9.61025        -0.001190     -0.003947      0.070223
      2.11025      4.22049      9.61025         0.002606     -0.002718      0.073773
      0.00000      4.22049      7.50000        -0.000500     -0.001719     -0.355867
      2.11025      2.11025      7.50000        -0.000868     -0.001691     -0.355866
      8.44046      2.10952     13.88682         0.007020      0.001428     -0.200836
      2.10781      4.21948     13.88157         0.032453     -0.000137     -0.145887
      8.44068      4.21998     11.72868         0.002380     -0.000668      0.009314
      2.10982      2.10904     11.72965         0.000809      0.005458      0.003740
      4.22049      6.33074      9.61025        -0.001116     -0.006714      0.072881
      6.33074      0.00000      9.61025         0.000360     -0.003017      0.069801
      4.22049      0.00000      7.50000        -0.000945     -0.001801     -0.355908
      6.33074      6.33074      7.50000        -0.000469     -0.001545     -0.356126
      4.22034      6.33233     13.88613        -0.006533     -0.041193     -0.172525
      6.33073      8.43995     13.88762         0.002625      0.000247     -0.204808
      4.22040      8.44028     11.72907        -0.001114      0.000057      0.007561
      6.33072      6.33073     11.73011        -0.000857     -0.005181      0.001239
      4.22049      2.11025      9.61025        -0.001211      0.000417      0.073091
      6.33074      4.22049      9.61025        -0.004340     -0.002774      0.073435
      4.22049      4.22049      7.50000        -0.000791     -0.001734     -0.356240
      6.33074      2.11025      7.50000        -0.000523     -0.001857     -0.355986
      4.22040      2.10623     13.88554        -0.007149      0.045619     -0.169516
      6.33242      4.21947     13.88436        -0.029941     -0.000121     -0.162281
      4.22056      4.21990     11.73288        -0.004303     -0.000674      0.001117
      6.33080      2.10908     11.73003        -0.001411      0.003917      0.001105
    total drift:                                0.043738      0.105249      0.329355

  FREE ENERGIE OF THE ION-ELECTRON SYSTEM (eV)
  free  energy   TOTEN  =      -491.22636870 eV

  energy  without entropy=     -491.22636870  energy(sigma->0) =     -491.22636870