 vasp.6.3.0 20Jan22 (build Apr  1 2022 16:44:48) complex
 executed on        HPECrayEX_GCC date 2022.11.13  08:08:43

 INCAR:
   SYSTEM = MgO-rocksalt
   ISMEAR = 0
   SIGMA = 0.05
   EDIFF = 1E-6
   ALGO = ALL
   ISTART = 0
   IBRION = -1
   NSW = 0
   ISYM = 0
   DIPOL = 0.5 0.5 0.5
   IDIPOL = 3
   LDIPOL = .TRUE.
   LHFCALC = .TRUE.
   GGA = B5
   AEXX = 0.2
   AGGAX = 0.72
   AGGAC = 0.81
   ALDAC = 0.19
   IVDW = 1
   VDW_S6 = 1.05
   VDW_C6 = 1.23 0.70 0.63 0.70
   VDW_R0 = 1.397 1.342 1.243 1.342
   ENCUT = 600
   PREC = Accurate
   LASPH = .TRUE.
   LREAL = .FALSE.
   ISPIN = 2
   MAGMOM = 1.0 0.0 0.0 0.0 0.0 0.0 0.0 0.0 0.0 0.0 0.0 0.0 0.0 0.0 0.0 0.0 0.0 0.0 0.0 0.0 0.0 0.0 0.0 0.0 0.0 0.0 0.0 0.0 0.0 0.0 0.0 0.0 0.0 0.0 0.0 0.0 0.0 0.0 0.0 0.0 0.0 0.0 0.0 0.0 0.0 0.0 0.0 0.0 0.0 0.0 0.0 0.0 0.0 0.0 0.0 0.0 0.0 0.0 0.0 0.0 0.0 0.0 0.0 0.0 0.0 0.0
   NELM = 200
   NELMIN = 8
   NCORE = 8
   KPAR = 1
   LWAVE = .FALSE.
   LCHARG = .FALSE.

 POTCAR:    PAW_PBE N 08Apr2002
 POTCAR:    PAW_PBE O 08Apr2002
 POTCAR:    PAW_PBE Mg_pv 13Apr2007
 POTCAR:    PAW_PBE O 08Apr2002
 POTCAR:    PAW_PBE N 08Apr2002
   VRHFIN =N: s2p3

   TITEL  = PAW_PBE N 08Apr2002
   POMASS =   14.001; ZVAL   =    5.000    mass and valenz
   ENMAX  =  400.000; ENMIN  =  300.000 eV

[...]

   TITEL  = PAW_PBE Mg_pv 13Apr2007
   POMASS =   24.305; ZVAL   =    8.000    mass and valenz
   ENMAX  =  403.929; ENMIN  =  302.947 eV

   TITEL  = PAW_PBE O 08Apr2002
   POMASS =   16.000; ZVAL   =    6.000    mass and valenz
   ENMAX  =  400.000; ENMIN  =  300.000 eV

  PAW_PBE N 08Apr2002                   :
  PAW_PBE O 08Apr2002                   :
  PAW_PBE Mg_pv 13Apr2007               :
  PAW_PBE O 08Apr2002                   :

 POSCAR:  N  O Mg  O
  positions in direct lattice
 exchange correlation table for  LEXCH =       12
   RHO(1)=    0.500       N(1)  =     2000
   RHO(2)=  100.500       N(2)  =     4000

 ion  position               nearest neighbor table
   1  0.500  0.500  0.760-   2 1.17
   2  0.500  0.500  0.815-   1 1.17
   3  0.250  0.000  0.351-  35 2.12  37 2.12  38 2.12  45 2.12  54 2.12
   4  0.500  0.250  0.351-  36 2.12  37 2.12  38 2.12  46 2.12  53 2.12
   5  0.250  0.250  0.450-  37 2.12  36 2.12  35 2.12  43 2.12  52 2.12  41 2.12
   6  0.500  0.000  0.450-  38 2.12  36 2.12  35 2.12  44 2.12  51 2.12  42 2.12
   7  0.250  1.000  0.550-  49 2.12  42 2.12  41 2.12  58 2.12  35 2.13  39 2.15
   8  0.500  0.250  0.550-  50 2.11  57 2.12  41 2.12  42 2.12  36 2.13  40 2.14
   9  0.250  0.250  0.648-  41 2.10  56 2.11  39 2.11  47 2.12  40 2.12
  10  0.500  0.000  0.648-  42 2.11  40 2.11  48 2.11  39 2.12  55 2.12
  11  0.250  0.500  0.351-  43 2.12  37 2.12  45 2.12  46 2.12  62 2.12
  12  0.500  0.750  0.351-  44 2.12  38 2.12  45 2.12  46 2.12  61 2.12
  13  0.250  0.750  0.450-  45 2.12  43 2.12  44 2.12  35 2.12  60 2.12  49 2.12
  14  0.500  0.500  0.450-  46 2.12  43 2.12  44 2.12  36 2.12  59 2.12  50 2.13
  15  0.250  0.500  0.550-  50 2.11  49 2.12  41 2.12  66 2.12  43 2.13  47 2.14
  16  0.500  0.750  0.550-  50 2.11  49 2.12  65 2.12  42 2.12  44 2.13  48 2.14
  17  0.250  0.750  0.649-  49 2.11  64 2.12  39 2.12  47 2.12  48 2.12
  18  0.500  0.500  0.650-  40 2.13  48 2.13  47 2.13  63 2.13  50 2.14
  19  0.750  0.000  0.351-  51 2.12  38 2.12  53 2.12  54 2.12  61 2.12
  20  0.000  0.250  0.351-  52 2.12  37 2.12  53 2.12  54 2.12  62 2.12
  21  0.750  0.250  0.450-  53 2.12  51 2.12  52 2.12  36 2.12  59 2.12  57 2.12
  22  0.000  0.000  0.450-  54 2.12  51 2.12  52 2.12  35 2.12  60 2.12  58 2.12
  23  0.750  0.000  0.550-  57 2.12  42 2.12  65 2.12  58 2.12  51 2.13  55 2.15
  24  1.000  0.250  0.550-  57 2.12  66 2.12  41 2.12  58 2.12  52 2.13  56 2.15
  25  0.750  0.250  0.649-  57 2.11  56 2.12  55 2.12  63 2.12  40 2.12
  26  0.000  0.000  0.648-  58 2.11  56 2.12  64 2.12  39 2.12  55 2.12
  27  0.750  0.500  0.351-  59 2.12  53 2.12  46 2.12  61 2.12  62 2.12
  28  0.000  0.750  0.351-  60 2.12  54 2.12  45 2.12  61 2.12  62 2.12
  29  0.750  0.750  0.450-  61 2.12  51 2.12  59 2.12  60 2.12  44 2.12  65 2.12
  30  0.000  0.500  0.450-  62 2.12  52 2.12  59 2.12  60 2.12  43 2.12  66 2.12
  31  0.750  0.500  0.550-  50 2.11  57 2.12  65 2.12  66 2.12  59 2.13  63 2.14
  32  0.000  0.750  0.550-  49 2.12  66 2.12  65 2.12  58 2.12  60 2.13  64 2.15
  33  0.750  0.750  0.648-  65 2.10  64 2.11  55 2.11  63 2.12  48 2.12
  34  0.000  0.500  0.648-  66 2.11  47 2.11  63 2.11  56 2.12  64 2.12
  35  0.250  0.000  0.450-   3 2.12   5 2.12   6 2.12  13 2.12  22 2.12   7 2.13
  36  0.500  0.250  0.450-   4 2.12   5 2.12   6 2.12  14 2.12  21 2.12   8 2.13
  37  0.250  0.250  0.351-   5 2.12   4 2.12   3 2.12  11 2.12  20 2.12
  38  0.500  0.000  0.351-   6 2.12   4 2.12   3 2.12  12 2.12  19 2.12
  39  0.250  1.000  0.651-   9 2.11  17 2.12  26 2.12  10 2.12   7 2.15
  40  0.500  0.249  0.651-  10 2.11   9 2.12  25 2.12  18 2.13   8 2.14
  41  0.250  0.250  0.550-   9 2.10   7 2.12  24 2.12   8 2.12  15 2.12   5 2.12
  42  0.500  0.000  0.550-  10 2.11  23 2.12   7 2.12   8 2.12  16 2.12   6 2.12
  43  0.250  0.500  0.450-  11 2.12   5 2.12  13 2.12  14 2.12  30 2.12  15 2.13
  44  0.500  0.750  0.450-  12 2.12   6 2.12  13 2.12  14 2.12  29 2.12  16 2.13
  45  0.250  0.750  0.351-  13 2.12  11 2.12  12 2.12   3 2.12  28 2.12
  46  0.500  0.500  0.351-  14 2.12  11 2.12  12 2.12   4 2.12  27 2.12
  47  0.249  0.500  0.651-  34 2.11   9 2.12  17 2.12  18 2.13  15 2.14
  48  0.500  0.751  0.651-  10 2.11  33 2.12  17 2.12  18 2.13  16 2.14
  49  0.250  0.750  0.550-  17 2.11   7 2.12  32 2.12  16 2.12  15 2.12  13 2.12
  50  0.500  0.500  0.550-   8 2.11  16 2.11  15 2.11  31 2.11  14 2.13  18 2.14
  51  0.750  0.000  0.450-  19 2.12   6 2.12  21 2.12  22 2.12  29 2.12  23 2.13
  52  0.000  0.250  0.450-  20 2.12   5 2.12  21 2.12  22 2.12  30 2.12  24 2.13
  53  0.750  0.250  0.351-  21 2.12  19 2.12  20 2.12   4 2.12  27 2.12
  54  0.000  0.000  0.351-  22 2.12  19 2.12  20 2.12   3 2.12  28 2.12
  55  0.750  0.000  0.651-  33 2.11  25 2.12  26 2.12  10 2.12  23 2.15
  56  1.000  0.250  0.651-   9 2.11  25 2.12  26 2.12  34 2.12  24 2.15
  57  0.750  0.250  0.550-  25 2.11  23 2.12  24 2.12   8 2.12  31 2.12  21 2.12
  58  1.000  1.000  0.550-  26 2.11  23 2.12   7 2.12  32 2.12  24 2.12  22 2.12
  59  0.750  0.500  0.450-  27 2.12  21 2.12  14 2.12  29 2.12  30 2.12  31 2.13
  60  0.000  0.750  0.450-  28 2.12  22 2.12  13 2.12  29 2.12  30 2.12  32 2.13
  61  0.750  0.750  0.351-  29 2.12  19 2.12  27 2.12  28 2.12  12 2.12
  62  0.000  0.500  0.351-  30 2.12  20 2.12  27 2.12  28 2.12  11 2.12
  63  0.751  0.500  0.651-  34 2.11  33 2.12  25 2.12  18 2.13  31 2.14
  64  0.000  0.750  0.651-  33 2.11  17 2.12  26 2.12  34 2.12  32 2.15
  65  0.750  0.750  0.550-  33 2.10  23 2.12  32 2.12  16 2.12  31 2.12  29 2.12
  66  0.000  0.500  0.550-  34 2.11  32 2.12  24 2.12  15 2.12  31 2.12  30 2.12

IMPORTANT INFORMATION: All symmetrisations will be switched off!
NOSYMM: (Re-)initialisation of all symmetry stuff for point group C_1.

                                     Primitive cell

  volume of cell :    1530.6606

  direct lattice vectors                    reciprocal lattice vectors
     8.467142631  0.000000000  0.000000000     0.118103597  0.000000000  0.000000000
     0.000000000  8.467142631  0.000000000     0.000000000  0.118103597  0.000000000
     0.000000000  0.000000000 21.350356973     0.000000000  0.000000000  0.046837624

  length of vectors
     8.467142631  8.467142631 21.350356973     0.118103597  0.118103597  0.046837624

  position of ions in fractional coordinates (direct lattice)
     0.500000039  0.500000015  0.760469582
     0.499999992  0.499999967  0.815362531
     0.250000000  0.000000000  0.351282183
     0.500000000  0.250000000  0.351282183
     0.250000000  0.250000000  0.450427394
     0.500000000  0.000000000  0.450427394
     0.250047005  0.999906921  0.550112484
     0.499986885  0.250452920  0.550203293
     0.249617440  0.249618035  0.648233776
     0.499999997  0.000000007  0.648368363
     0.250000000  0.500000000  0.351282183
     0.500000000  0.750000000  0.351282183
     0.250000000  0.750000000  0.450427394
     0.500000000  0.500000000  0.450427394
     0.250452684  0.499986883  0.550203340
     0.500013121  0.749547082  0.550203310
     0.249926952  0.750072444  0.648539027
     0.499999997  0.499999998  0.650393270
     0.750000000  0.000000000  0.351282183
     0.000000000  0.250000000  0.351282183
     0.750000000  0.250000000  0.450427394
     0.000000000  0.000000000  0.450427394
     0.749952997  0.000093079  0.550112488
     0.999906921  0.250047028  0.550112417
     0.750073048  0.249927553  0.648539026
     0.000000003  0.000000003  0.648467728
     0.750000000  0.500000000  0.351282183
     0.000000000  0.750000000  0.351282183
     0.750000000  0.750000000  0.450427394
     0.000000000  0.500000000  0.450427394
     0.749547320  0.500013122  0.550203356
     0.000093078  0.749952973  0.550112422
     0.750382564  0.750381970  0.648233743
     0.000000008  0.499999999  0.648368053
     0.250000000  0.000000000  0.450427394
     0.500000000  0.250000000  0.450427394
     0.250000000  0.250000000  0.351282183
     0.500000000  0.000000000  0.351282183
     0.249844990  0.999921192  0.650754325
     0.499662185  0.248970281  0.650581725
     0.249914125  0.249913788  0.549768950
     0.500000002  0.000000005  0.549760596
     0.250000000  0.500000000  0.450427394
     0.500000000  0.750000000  0.450427394
     0.250000000  0.750000000  0.351282183
     0.500000000  0.500000000  0.351282183
     0.248969517  0.499662200  0.650580817
     0.500337819  0.751029725  0.650581706
     0.250020149  0.749980179  0.549860114
     0.499999997  0.499999999  0.550148442
     0.750000000  0.000000000  0.450427394
     0.000000000  0.250000000  0.450427394
     0.750000000  0.250000000  0.351282183
     0.000000000  0.000000000  0.351282183
     0.750155011  0.000078810  0.650754326
     0.999921194  0.249844687  0.650754259
     0.749979850  0.250019820  0.549860114
     0.999999999  0.999999999  0.549790395
     0.750000000  0.500000000  0.450427394
     0.000000000  0.750000000  0.450427394
     0.750000000  0.750000000  0.351282183
     0.000000000  0.500000000  0.351282183
     0.751030491  0.500337807  0.650580797
     0.000078807  0.750155315  0.650754261
     0.750085882  0.750086215  0.549768949
     0.000000005  0.500000003  0.549760278

  ion indices of the primitive-cell ions
   primitive index   ion index
                 1           1
                 2           2
                 3           3
                 4           4
                 5           5
                 6           6
                 7           7
                 8           8
                 9           9
                10          10
                11          11
                12          12
                13          13
                14          14
                15          15
                16          16
                17          17
                18          18
                19          19
                20          20
[...]
   0.74997985  0.25001982  0.54986011
   1.00000000  1.00000000  0.54979039
   0.75000000  0.50000000  0.45042739
   0.00000000  0.75000000  0.45042739
   0.75000000  0.75000000  0.35128218
   0.00000000  0.50000000  0.35128218
   0.75103049  0.50033781  0.65058080
   0.00007881  0.75015532  0.65075426
   0.75008588  0.75008622  0.54976895
   0.00000001  0.50000000  0.54976028

 position of ions in cartesian coordinates  (Angst):
   4.23357165  4.23357144 16.23629704
   4.23357125  4.23357103 17.40828110
   2.11678566  0.00000000  7.50000000
   4.23357132  2.11678566  7.50000000
   2.11678566  2.11678566  9.61678566
   4.23357132  0.00000000  9.61678566
   2.11718366  8.46635452 11.74509790
   4.23346027  2.12062059 11.74703672
   2.11354646  2.11355150 13.84002252
   4.23357129  0.00000006 13.84289599
   2.11678566  4.23357132  7.50000000
   4.23357132  6.35035697  7.50000000
   2.11678566  6.35035697  9.61678566
   4.23357132  4.23357132  9.61678566
   2.12061860  4.23346025 11.74703772
   4.23368241  6.34652205 11.74703708
   2.11616715  6.35097037 13.84653974
   4.23357129  4.23357130 13.88612848
   6.35035697  0.00000000  7.50000000
   0.00000000  2.11678566  7.50000000
   6.35035697  2.11678566  9.61678566
   0.00000000  0.00000000  9.61678566
   6.34995899  0.00078811 11.74509800
   8.46635452  2.11718385 11.74509649
   6.35097548  2.11617224 13.84653972
   0.00000002  0.00000003 13.84501748
   6.35035697  4.23357132  7.50000000
   0.00000000  6.35035697  7.50000000
   6.35035697  6.35035697  9.61678566
   0.00000000  4.23357132  9.61678566
   6.34652407  4.23368242 11.74703806
   0.00078810  6.34995879 11.74509658
   6.35359620  6.35359117 13.84002180
   0.00000007  4.23357131 13.84288939
   2.11678566  0.00000000  9.61678566
   4.23357132  2.11678566  9.61678566
   2.11678566  2.11678566  7.50000000
   4.23357132  0.00000000  7.50000000
   2.11547316  8.46647535 13.89383713
   4.23071099  2.10806688 13.89015206
   2.11605854  2.11605569 11.73776332
   4.23357133  0.00000005 11.73758498
   2.11678566  4.23357132  9.61678566
   4.23357132  6.35035697  9.61678566
   2.11678566  6.35035697  7.50000000
   4.23357132  4.23357132  7.50000000
   2.10806041  4.23071111 13.89013268
   4.23643167  6.35907580 13.89015165
   2.11695626  6.35018914 11.73970973
   4.23357129  4.23357130 11.74586563
   6.35035697  0.00000000  9.61678566
   0.00000000  2.11678566  9.61678566
   6.35035697  2.11678566  7.50000000
   0.00000000  0.00000000  7.50000000
   6.35166947  0.00066730 13.89383716
   8.46647537  2.11547060 13.89383573
   6.35018636  2.11695348 11.73970973
   8.46714262  8.46714262 11.73822119
   6.35035697  4.23357132  9.61678566
   0.00000000  6.35035697  9.61678566
   6.35035697  6.35035697  7.50000000
   0.00000000  4.23357132  7.50000000
   6.35908229  4.23643157 13.89013225
   0.00066727  6.35167205 13.89383576
   6.35108415  6.35108697 11.73776331
   0.00000004  4.23357134 11.73757818

--------------------------------------- Iteration      FINAL  ---------------------------------------

--------------------OUTCAR has been truncated-------------------------

[...]

--------------------OUTCAR has been truncated-------------------------

  DFT-D2 method for vdW energy calculation

  Parameters of vdW forcefield:
         C6(Jnm^6/mol)     R0(A)
   N        1.230          1.397
   O        0.700          1.342
   Mg       0.630          1.243
   O        0.700          1.342

  vdW correction parametrized for the method        üä¶

  IVDW =   1
  VDW_RADIUS =    50.000 A
  VDW_S6 =     1.050
  VDW_SR =     1.000
  VDW_D =    20.000
  LVDW_EWALD = F

  Number of pair interactions contributing to vdW energy:  763758
  Edisp (eV):   -5.11224

 VOLUME and BASIS-vectors are now :
  energy-cutoff  :      600.00
  volume of cell :     1530.66
      direct lattice vectors                 reciprocal lattice vectors
     8.467142631  0.000000000  0.000000000     0.118103597  0.000000000  0.000000000
     0.000000000  8.467142631  0.000000000     0.000000000  0.118103597  0.000000000
     0.000000000  0.000000000 21.350356973     0.000000000  0.000000000  0.046837624

  length of vectors
     8.467142631  8.467142631 21.350356973     0.118103597  0.118103597  0.046837624

 FORCES acting on ions:
    Electron-Ion                     Ewald-Force                    Non-Local-Force
   -.118E-03 -.109E-03 -.109E+04   0.126E-03 0.124E-03 0.105E+04   -.192E-04 -.119E-04 0.394E+02
   0.665E-04 0.721E-04 -.151E+04   -.983E-04 -.101E-03 0.157E+04   0.201E-04 0.350E-04 -.548E+02
   0.182E+00 0.755E-02 0.207E+04   -.182E+00 -.797E-02 -.206E+04   0.120E-03 0.300E-03 -.638E+01
   -.818E-02 0.207E+00 0.207E+04   0.830E-02 -.206E+00 -.206E+04   -.961E-04 -.123E-02 -.638E+01
   0.796E+00 0.796E+00 0.715E+03   -.797E+00 -.797E+00 -.716E+03   0.679E-03 0.617E-03 0.410E+00
   -.210E-05 0.124E-04 0.715E+03   0.237E-06 -.152E-04 -.715E+03   0.825E-06 0.236E-05 0.380E+00
   0.343E+01 0.210E+00 -.632E+03   -.339E+01 -.219E+00 0.632E+03   -.280E-01 0.797E-02 -.160E+00
   -.236E+00 0.600E+01 -.623E+03   0.241E+00 -.591E+01 0.623E+03   -.559E-02 -.902E-01 -.286E+00
   0.221E+02 0.221E+02 -.196E+04   -.222E+02 -.222E+02 0.196E+04   0.700E-01 0.681E-01 0.551E+01
   0.128E-05 0.290E-05 -.197E+04   -.316E-05 -.199E-05 0.197E+04   0.227E-05 0.972E-06 0.544E+01
   0.207E+00 -.817E-02 0.207E+04   -.206E+00 0.830E-02 -.206E+04   -.121E-02 -.986E-04 -.638E+01
   0.817E-02 -.207E+00 0.207E+04   -.830E-02 0.206E+00 -.206E+04   0.100E-03 0.123E-02 -.638E+01
   0.802E+00 -.802E+00 0.715E+03   -.796E+00 0.797E+00 -.715E+03   -.297E-02 0.303E-02 0.441E+00
   -.159E-04 -.129E-04 0.716E+03   0.139E-04 0.141E-04 -.717E+03   0.390E-06 -.740E-06 0.494E+00
   0.600E+01 -.236E+00 -.623E+03   -.591E+01 0.241E+00 0.623E+03   -.896E-01 -.558E-02 -.288E+00
   0.236E+00 -.600E+01 -.623E+03   -.241E+00 0.591E+01 0.623E+03   0.559E-02 0.902E-01 -.286E+00
   0.219E+02 -.219E+02 -.196E+04   -.220E+02 0.220E+02 0.196E+04   0.113E+00 -.111E+00 0.551E+01
   -.607E-06 0.141E-05 -.187E+04   -.362E-05 -.305E-05 0.187E+04   0.937E-06 -.142E-07 0.465E+01
   -.182E+00 -.755E-02 0.207E+04   0.182E+00 0.797E-02 -.206E+04   -.123E-03 -.300E-03 -.638E+01
   0.756E-02 0.182E+00 0.207E+04   -.797E-02 -.182E+00 -.206E+04   0.298E-03 0.109E-03 -.638E+01
   -.802E+00 0.802E+00 0.715E+03   0.796E+00 -.797E+00 -.715E+03   0.297E-02 -.303E-02 0.441E+00
   0.194E-05 0.555E-06 0.714E+03   0.109E-06 0.317E-06 -.714E+03   0.352E-06 0.808E-06 0.420E+00
   -.343E+01 -.210E+00 -.632E+03   0.339E+01 0.219E+00 0.632E+03   0.280E-01 -.797E-02 -.160E+00
   0.210E+00 0.343E+01 -.632E+03   -.219E+00 -.339E+01 0.632E+03   0.797E-02 -.284E-01 -.161E+00
   -.219E+02 0.219E+02 -.196E+04   0.220E+02 -.220E+02 0.196E+04   -.113E+00 0.111E+00 0.551E+01
   -.127E-05 0.277E-05 -.199E+04   0.469E-05 0.106E-05 0.198E+04   -.115E-05 -.274E-05 0.541E+01
   -.207E+00 0.817E-02 0.207E+04   0.206E+00 -.830E-02 -.206E+04   0.121E-02 0.975E-04 -.638E+01
   -.755E-02 -.182E+00 0.207E+04   0.797E-02 0.182E+00 -.206E+04   -.303E-03 -.110E-03 -.638E+01
   -.796E+00 -.796E+00 0.715E+03   0.797E+00 0.797E+00 -.716E+03   -.675E-03 -.616E-03 0.410E+00
   0.167E-04 -.159E-05 0.715E+03   -.131E-04 -.102E-05 -.715E+03   -.208E-05 0.105E-05 0.379E+00
   -.600E+01 0.236E+00 -.623E+03   0.591E+01 -.241E+00 0.623E+03   0.896E-01 0.558E-02 -.288E+00
   -.210E+00 -.343E+01 -.632E+03   0.219E+00 0.339E+01 0.632E+03   -.797E-02 0.284E-01 -.161E+00
   -.221E+02 -.221E+02 -.196E+04   0.222E+02 0.222E+02 0.196E+04   -.700E-01 -.681E-01 0.551E+01
   -.229E-05 0.398E-05 -.197E+04   0.419E-05 -.521E-05 0.197E+04   -.837E-06 0.302E-06 0.544E+01
   0.545E+00 0.452E-01 0.535E+03   -.538E+00 -.362E-01 -.535E+03   -.821E-02 -.109E-01 -.889E-01
   -.549E-01 0.728E+00 0.536E+03   0.530E-01 -.757E+00 -.536E+03   0.249E-02 0.335E-01 -.103E+00
   0.146E+00 0.146E+00 0.155E+04   -.145E+00 -.145E+00 -.156E+04   -.770E-03 -.802E-03 0.313E+01
   -.732E-05 0.334E-06 0.155E+04   0.316E-06 -.164E-05 -.156E+04   0.356E-06 -.222E-05 0.313E+01
   0.867E+01 0.244E+00 -.151E+04   -.861E+01 -.263E+00 0.151E+04   -.600E-01 0.164E-01 -.464E+01
   -.290E+00 0.302E+02 -.147E+04   0.321E+00 -.300E+02 0.148E+04   -.260E-01 -.163E+00 -.456E+01
   0.344E+01 0.344E+01 -.463E+03   -.343E+01 -.343E+01 0.463E+03   -.147E-01 -.154E-01 0.398E+00
   0.122E-04 -.488E-05 -.465E+03   -.137E-04 0.483E-05 0.464E+03   0.456E-06 0.324E-06 0.338E+00
   0.728E+00 -.549E-01 0.536E+03   -.756E+00 0.530E-01 -.536E+03   0.337E-01 0.249E-02 -.103E+00
   0.549E-01 -.728E+00 0.536E+03   -.530E-01 0.757E+00 -.536E+03   -.249E-02 -.335E-01 -.103E+00
   0.145E+00 -.145E+00 0.155E+04   -.145E+00 0.145E+00 -.156E+04   -.486E-03 0.519E-03 0.313E+01
   -.260E-05 0.170E-05 0.155E+04   0.149E-05 0.161E-05 -.156E+04   -.365E-05 0.220E-05 0.313E+01
   0.302E+02 -.290E+00 -.147E+04   -.300E+02 0.321E+00 0.148E+04   -.164E+00 -.261E-01 -.456E+01
   0.290E+00 -.302E+02 -.147E+04   -.321E+00 0.300E+02 0.148E+04   0.260E-01 0.163E+00 -.456E+01
   0.342E+01 -.342E+01 -.465E+03   -.340E+01 0.340E+01 0.464E+03   -.162E-01 0.169E-01 0.329E+00
   0.643E-05 0.115E-04 -.461E+03   -.597E-05 -.110E-04 0.462E+03   -.126E-05 -.170E-06 -.111E+00
   -.545E+00 -.452E-01 0.535E+03   0.538E+00 0.362E-01 -.535E+03   0.821E-02 0.109E-01 -.889E-01
   0.452E-01 0.545E+00 0.535E+03   -.362E-01 -.538E+00 -.535E+03   -.109E-01 -.836E-02 -.890E-01
   -.145E+00 0.145E+00 0.155E+04   0.145E+00 -.145E+00 -.156E+04   0.488E-03 -.520E-03 0.313E+01
   0.442E-05 0.849E-06 0.155E+04   -.300E-06 -.292E-06 -.156E+04   -.492E-06 0.102E-05 0.313E+01
   -.867E+01 -.244E+00 -.151E+04   0.861E+01 0.263E+00 0.151E+04   0.600E-01 -.164E-01 -.464E+01
   0.244E+00 0.867E+01 -.151E+04   -.263E+00 -.861E+01 0.151E+04   0.164E-01 -.613E-01 -.464E+01
   -.342E+01 0.342E+01 -.465E+03   0.340E+01 -.340E+01 0.464E+03   0.162E-01 -.169E-01 0.329E+00
   -.143E-04 -.129E-04 -.470E+03   0.161E-04 0.147E-04 0.470E+03   -.807E-06 -.785E-06 0.341E+00
   -.728E+00 0.549E-01 0.536E+03   0.756E+00 -.530E-01 -.536E+03   -.337E-01 -.249E-02 -.103E+00
   -.452E-01 -.545E+00 0.535E+03   0.362E-01 0.538E+00 -.535E+03   0.109E-01 0.836E-02 -.890E-01
   -.146E+00 -.146E+00 0.155E+04   0.145E+00 0.145E+00 -.156E+04   0.769E-03 0.804E-03 0.313E+01
   -.324E-05 -.128E-05 0.155E+04   -.146E-05 0.272E-06 -.156E+04   0.284E-05 -.172E-05 0.313E+01
   -.302E+02 0.290E+00 -.147E+04   0.300E+02 -.321E+00 0.148E+04   0.164E+00 0.261E-01 -.456E+01
   -.244E+00 -.867E+01 -.151E+04   0.263E+00 0.861E+01 0.151E+04   -.164E-01 0.613E-01 -.464E+01
   -.344E+01 -.344E+01 -.463E+03   0.343E+01 0.343E+01 0.463E+03   0.147E-01 0.154E-01 0.398E+00
   -.129E-04 0.167E-04 -.465E+03   0.109E-04 -.177E-04 0.464E+03   0.903E-07 0.536E-06 0.337E+00
   -.251E-04 -.227E-04 0.381E+02   -.595E-12 0.112E-12 -.398E-11   -.119E-04 0.301E-04 -.321E+02

 POSITION                                       TOTAL-FORCE (eV/Angst)
      4.23357      4.23357     16.23630        -0.000013      0.000003      1.735632
      4.23357      4.23357     17.40828        -0.000008      0.000011     -1.579383
      2.11679      0.00000      7.50000         0.000000     -0.000086      0.509020
      4.23357      2.11679      7.50000         0.000022      0.000334      0.509120
      2.11679      2.11679      9.61679        -0.000368     -0.000339      0.029092
      4.23357      0.00000      9.61679        -0.000000     -0.000001      0.038774
      2.11718      8.46635     11.74510         0.007371     -0.000090     -0.017906
      4.23346      2.12062     11.74704        -0.001242     -0.008225     -0.001665
      2.11355      2.11355     13.84002        -0.001548     -0.000968     -0.101261
      4.23357      0.00000     13.84290         0.000001      0.000002     -0.092185
      2.11679      4.23357      7.50000         0.000336      0.000020      0.509167
      4.23357      6.35036      7.50000        -0.000024     -0.000336      0.509109
      2.11679      6.35036      9.61679         0.001716     -0.001740      0.028263
      4.23357      4.23357      9.61679        -0.000001      0.000000      0.034629
      2.12062      4.23346     11.74704        -0.008416     -0.001244     -0.001220
      4.23368      6.34652     11.74704         0.001241      0.008223     -0.001665
      2.11617      6.35097     13.84654        -0.000593      0.000014     -0.104117
      4.23357      4.23357     13.88613        -0.000003     -0.000002     -0.229867
      6.35036      0.00000      7.50000        -0.000000      0.000082      0.509018
      0.00000      2.11679      7.50000        -0.000080      0.000006      0.508998
      6.35036      2.11679      9.61679        -0.001712      0.001741      0.028265
      0.00000      0.00000      9.61679         0.000003      0.000002      0.025700
      6.34996      0.00079     11.74510        -0.007373      0.000091     -0.017908
      8.46635      2.11718     11.74510        -0.000089      0.007519     -0.017794
      6.35098      2.11617     13.84654         0.000593     -0.000015     -0.104118
      0.00000      0.00000     13.84502         0.000003      0.000001     -0.080843
      6.35036      4.23357      7.50000        -0.000330     -0.000022      0.509138
      0.00000      6.35036      7.50000         0.000085     -0.000006      0.509002
      6.35036      6.35036      9.61679         0.000367      0.000340      0.029099
      0.00000      4.23357      9.61679         0.000002     -0.000002      0.038889
      6.34652      4.23368     11.74704         0.008421      0.001241     -0.001223
      0.00079      6.34996     11.74510         0.000092     -0.007520     -0.017795
      6.35360      6.35359     13.84002         0.001547      0.000970     -0.101264
      0.00000      4.23357     13.84289         0.000001     -0.000001     -0.092104
      2.11679      0.00000      9.61679        -0.002757     -0.003537      0.047590
      4.23357      2.11679      9.61679         0.000950      0.009817      0.052706
      2.11679      2.11679      7.50000        -0.000253     -0.000266     -0.392960
      4.23357      0.00000      7.50000        -0.000006     -0.000004     -0.393081
      2.11547      8.46648     13.89384        -0.006638     -0.000347     -0.119522
      4.23071      2.10807     13.89015         0.002042      0.019061     -0.095913
      2.11606      2.11606     11.73776        -0.002912     -0.003139      0.017251
      4.23357      0.00000     11.73758        -0.000000      0.000000      0.011190
      2.11679      4.23357      9.61679         0.009873      0.000949      0.052648
      4.23357      6.35036      9.61679        -0.000954     -0.009814      0.052706
      2.11679      6.35036      7.50000        -0.000140      0.000167     -0.393050
      4.23357      4.23357      7.50000        -0.000005      0.000006     -0.393502
      2.10806      4.23071     13.89013         0.018748      0.002035     -0.097287
      4.23643      6.35908     13.89015        -0.002044     -0.019062     -0.095918
      2.11696      6.35019     11.73971        -0.001631      0.001859      0.014463
      4.23357      4.23357     11.74587        -0.000000      0.000000      0.004432
      6.35036      0.00000      9.61679         0.002756      0.003536      0.047594
      0.00000      2.11679      9.61679        -0.003532     -0.002811      0.047564
      6.35036      2.11679      7.50000         0.000152     -0.000160     -0.393055
      0.00000      0.00000      7.50000         0.000004      0.000002     -0.393162
      6.35167      0.00067     13.89384         0.006635      0.000348     -0.119523
      8.46648      2.11547     13.89384        -0.000347     -0.007029     -0.119623
      6.35019      2.11695     11.73971         0.001633     -0.001859      0.014460
      8.46714      8.46714     11.73822         0.000002      0.000001      0.020057
      6.35036      4.23357      9.61679        -0.009874     -0.000953      0.052659
      0.00000      6.35036      9.61679         0.003540      0.002810      0.047567
      6.35036      6.35036      7.50000         0.000248      0.000262     -0.392980
      0.00000      4.23357      7.50000        -0.000001     -0.000003     -0.393072
      6.35908      4.23643     13.89013        -0.018747     -0.002037     -0.097288
      0.00067      6.35167     13.89384         0.000350      0.007026     -0.119625
      6.35108      6.35109     11.73776         0.002912      0.003139      0.017252
      0.00000      4.23357     11.73758        -0.000001     -0.000001      0.010828
    total drift:                               -0.000039      0.000012      0.013236

  FREE ENERGIE OF THE ION-ELECTRON SYSTEM (eV)
  free  energy   TOTEN  =      -454.20675939 eV

  energy  without entropy=     -454.20675939  energy(sigma->0) =     -454.20675939