 vasp.6.3.0 20Jan22 (build Aug 21 2024 11:13:42) complex
 executed on        HPECrayEX_GCC date 2024.11.28  14:45:03

 INCAR:
   SYSTEM = MgO-rocksalt
   ISMEAR = 0
   SIGMA = 0.05
   EDIFF = 1E-8
   ALGO = ALL
   ISTART = 0
   IBRION = 5
   POTIM = 0.01
   NFREE = 2
   ISYM = 0
   DIPOL = 0.5 0.5 0.5
   IDIPOL = 3
   LDIPOL = .TRUE.
   GGA = PE
   IVDW = 21
   ENCUT = 600
   PREC = Accurate
   LASPH = .TRUE.
   LREAL = .FALSE.
   ISPIN = 1
   NELM = 200
   NELMIN = 8
   NCORE = 8
   KPAR = 1
   LWAVE = .FALSE.
   LCHARG = .FALSE.

 POTCAR:    PAW_PBE C 08Apr2002
 POTCAR:    PAW_PBE O 08Apr2002
 POTCAR:    PAW_PBE Ti_pv 07Sep2000
 POTCAR:    PAW_PBE O 08Apr2002
 POTCAR:    PAW_PBE C 08Apr2002
   VRHFIN =C: s2p2

   TITEL  = PAW_PBE C 08Apr2002
   POMASS =   12.011; ZVAL   =    4.000    mass and valenz
   ENMAX  =  400.000; ENMIN  =  300.000 eV

[...]

   TITEL  = PAW_PBE Ti_pv 07Sep2000
   POMASS =   47.880; ZVAL   =   10.000    mass and valenz
   ENMAX  =  222.335; ENMIN  =  166.751 eV

   TITEL  = PAW_PBE O 08Apr2002
   POMASS =   16.000; ZVAL   =    6.000    mass and valenz
   ENMAX  =  400.000; ENMIN  =  300.000 eV

  PAW_PBE C 08Apr2002                   :
  PAW_PBE O 08Apr2002                   :
  PAW_PBE Ti_pv 07Sep2000               :
  PAW_PBE O 08Apr2002                   :

 POSCAR:  C  O Ti  O
  positions in direct lattice
 exchange correlation table for  LEXCH =        8
   RHO(1)=    0.500       N(1)  =     2000
   RHO(2)=  100.500       N(2)  =     4000

 ion  position               nearest neighbor table
   1  0.500  0.595  0.808-   2 1.17   3 1.18
   2  0.500  0.688  0.820-   1 1.17
   3  0.500  0.502  0.794-   1 1.18
   4  0.750  0.625  0.287-  84 1.96  85 1.96 144 1.96 145 1.96  87 1.98 166 1.98  14 2.97  34 2.97

   5  0.000  0.750  0.287-  86 1.96  87 1.96 106 1.96 107 1.96  88 1.98  35 2.97  15 2.97
   6  0.000  0.625  0.393-  88 1.96  89 1.96 148 1.96 149 1.96  90 1.98  91 1.98  16 2.97  36 2.97

[...]

  83  0.500  0.499  0.710- 237 1.83 243 1.95 242 1.95 183 1.96 182 1.96  73 2.96  53 2.99
  84  0.750  0.750  0.245-   4 1.96  14 1.96
  85  0.750  0.750  0.329-   4 1.96  14 1.96   7 1.98
  86  0.098  0.625  0.287-   5 1.96  35 1.96  44 1.98
  87  0.902  0.625  0.287-   5 1.96  35 1.96   4 1.98
  88  0.000  0.750  0.352-   6 1.96  16 1.96   5 1.98
  89  0.000  0.750  0.435-   6 1.96  16 1.96   9 1.98
  90  0.848  0.625  0.393-   7 1.96  37 1.96   6 1.98
  91  0.152  0.625  0.393-  47 1.96  77 1.96   6 1.98
  92  0.750  0.750  0.458-   8 1.96  18 1.96   7 1.98
  93  0.750  0.750  0.542-   8 1.96  18 1.96  11 2.11
  94  0.098  0.625  0.500-   9 1.96  39 1.96  48 1.98
  95  0.902  0.625  0.500-   9 1.96  39 1.96   8 1.98
  96  1.000  0.750  0.566-  10 1.90  20 1.90   9 2.01
  97  1.000  0.750  0.649-  13 1.81  20 2.02  10 2.02
  98  0.850  0.625  0.607-  10 1.96  11 1.98  41 1.98
  99  0.150  0.625  0.607-  10 1.96  81 1.98  51 1.98
 100  0.750  0.750  0.672-  11 1.87  12 2.10  22 2.11
 101  0.750  0.750  0.756-  12 1.83  22 1.84
 102  0.094  0.625  0.719-  43 1.95  13 1.95  52 2.04
 103  0.906  0.625  0.719-  43 1.95  13 1.95  12 2.04
 104  0.750  0.000  0.245-  14 1.96  24 1.96
 105  0.750  0.000  0.329-  14 1.96  24 1.96  17 1.98
 106  0.098  0.875  0.287-   5 1.96  15 1.96  54 1.98
 107  0.902  0.875  0.287-   5 1.96  15 1.96  14 1.98
 108  0.000  0.000  0.352-  16 1.96  26 1.96  15 1.98
 109  0.000  0.000  0.435-  16 1.96  26 1.96  19 1.98
 110  0.848  0.875  0.393-   7 1.96  17 1.96  16 1.98
 111  0.152  0.875  0.393-  47 1.96  57 1.96  16 1.98
 112  0.750  0.000  0.458-  18 1.96  28 1.96  17 1.98
 113  0.750  0.000  0.542-  18 1.96  28 1.96  21 2.11
 114  0.098  0.875  0.500-   9 1.96  19 1.96  58 1.98
 115  0.902  0.875  0.500-   9 1.96  19 1.96  18 1.98
 116  1.000  0.000  0.566-  20 1.90  30 1.90  19 2.01
 117  1.000  0.000  0.649-  23 1.81  30 2.02  20 2.02
 118  0.850  0.875  0.607-  20 1.96  11 1.98  21 1.98
 119  0.150  0.875  0.607-  20 1.96  51 1.98  61 1.98
 120  0.750  0.000  0.672-  21 1.87  22 2.10  32 2.11
 121  0.750  0.000  0.756-  22 1.83  32 1.84
 122  0.094  0.875  0.719-  13 1.95  23 1.95  62 2.04
 123  0.906  0.875  0.719-  13 1.95  23 1.95  22 2.04
 124  0.750  0.250  0.245-  24 1.96  34 1.96
 125  0.750  0.250  0.329-  24 1.96  34 1.96  27 1.98
 126  0.098  0.125  0.287-  15 1.96  25 1.96  64 1.98
 127  0.902  0.125  0.287-  15 1.96  25 1.96  24 1.98
 128  0.000  0.250  0.352-  26 1.96  36 1.96  25 1.98
 129  0.000  0.250  0.435-  26 1.96  36 1.96  29 1.98
 130  0.848  0.125  0.393-  17 1.96  27 1.96  26 1.98
 131  0.152  0.125  0.393-  57 1.96  67 1.96  26 1.98
 132  0.750  0.250  0.458-  28 1.96  38 1.96  27 1.98
 133  0.750  0.250  0.542-  28 1.96  38 1.96  31 2.11
 134  0.098  0.125  0.500-  19 1.96  29 1.96  68 1.98
 135  0.902  0.125  0.500-  19 1.96  29 1.96  28 1.98
 136  1.000  0.250  0.566-  40 1.90  30 1.90  29 2.01
 137  1.000  0.250  0.649-  33 1.81  40 2.02  30 2.02
 138  0.850  0.125  0.607-  30 1.96  21 1.98  31 1.98
 139  0.150  0.125  0.607-  30 1.96  61 1.98  71 1.98
 140  0.751  0.250  0.672-  31 1.87  32 2.10  42 2.11
 141  0.750  0.251  0.756-  32 1.83  42 1.84
 142  0.094  0.125  0.719-  33 1.95  23 1.95  72 2.04
[...]
 229  0.500  0.500  0.435-  46 1.96  76 1.96  79 1.98
 230  0.348  0.375  0.393-  67 1.96  77 1.96  76 1.98
 231  0.652  0.375  0.393-  27 1.96  37 1.96  76 1.98
 232  0.250  0.500  0.458-  48 1.96  78 1.96  77 1.98
 233  0.250  0.500  0.542-  48 1.96  78 1.96  81 2.11
 234  0.598  0.375  0.500-  69 1.96  79 1.96  38 1.98
 235  0.402  0.375  0.500-  69 1.96  79 1.96  78 1.98
 236  0.500  0.500  0.566-  80 1.90  50 1.90  79 2.01
 237  0.500  0.500  0.650-  83 1.83  50 2.02  80 2.02
 238  0.350  0.375  0.607-  80 1.96  81 1.98  71 1.98
 239  0.650  0.375  0.607-  80 1.96  41 1.98  31 1.98
 240  0.249  0.500  0.672-  81 1.87  82 2.10  52 2.10
 241  0.251  0.501  0.756-  82 1.84  52 1.84
 242  0.594  0.374  0.718-  73 1.95  83 1.95  42 2.04
 243  0.406  0.374  0.718-  73 1.95  83 1.95  82 2.04

IMPORTANT INFORMATION: All symmetrisations will be switched off!
NOSYMM: (Re-)initialisation of all symmetry stuff for point group C_1.

                                     Primitive cell

  volume of cell :    4740.1649

  direct lattice vectors                    reciprocal lattice vectors
    13.042933829  0.000000000  0.000000000     0.076669867  0.000000000  0.000000000
     0.000000000 11.878216733  0.000000000     0.000000000  0.084187721  0.000000000
     0.000000000  0.000000000 30.596159140     0.000000000  0.000000000  0.032683841

  length of vectors
    13.042933829 11.878216733 30.596159140     0.076669867  0.084187721  0.032683841

  position of ions in fractional coordinates (direct lattice)
     0.499999780  0.595100811  0.807718152
     0.500000091  0.688052312  0.820421259
     0.499999374  0.501733848  0.794369770
     0.750000000  0.625000000  0.286853412
     0.000000000  0.750000000  0.286853412
     0.000000000  0.625000000  0.393426706
     0.750000000  0.750000000  0.393426706
     0.750000000  0.625000000  0.500000000
     0.000000000  0.750000000  0.500000000
     0.000043924  0.625178631  0.604449050
     0.750075519  0.750224533  0.610697483
     0.750209880  0.625748007  0.720239460
     0.999996712  0.750451044  0.708594158
     0.750000000  0.875000000  0.286853412
     0.000000000  0.000000000  0.286853412
     0.000000000  0.875000000  0.393426706
     0.750000000  0.000000000  0.393426706
     0.750000000  0.875000000  0.500000000
     0.000000000  0.000000000  0.500000000
     0.000047150  0.875170496  0.604476035
     0.749996417  0.000206366  0.610780742
     0.749852630  0.875624897  0.720539469
     0.999996694  0.000319484  0.708622103
     0.750000000  0.125000000  0.286853412
     0.000000000  0.250000000  0.286853412
     0.000000000  0.125000000  0.393426706
     0.750000000  0.250000000  0.393426706
     0.750000000  0.125000000  0.500000000
     0.000000000  0.250000000  0.500000000
     0.000041024  0.125126742  0.604477991
     0.750091615  0.250170038  0.610771117
     0.749929091  0.125567196  0.720501838
     0.999996880  0.250246741  0.708607641
     0.750000000  0.375000000  0.286853412
     0.000000000  0.500000000  0.286853412
     0.000000000  0.375000000  0.393426706
     0.750000000  0.500000000  0.393426706
     0.750000000  0.375000000  0.500000000
     0.000000000  0.500000000  0.500000000
     0.000038565  0.375141681  0.604451020
     0.750069191  0.500193752  0.610727252
     0.750227616  0.375588714  0.720439397
     0.999996845  0.500389543  0.708577440
     0.250000000  0.625000000  0.286853412
     0.500000000  0.750000000  0.286853412
     0.500000000  0.625000000  0.393426706
     0.250000000  0.750000000  0.393426706
     0.250000000  0.625000000  0.500000000
     0.500000000  0.750000000  0.500000000
     0.500044663  0.624598327  0.604803382
     0.249999430  0.750224147  0.610697510
     0.249783596  0.625747933  0.720239461
     0.499996553  0.750721495  0.708204858
     0.250000000  0.875000000  0.286853412
     0.500000000  0.000000000  0.286853412
     0.500000000  0.875000000  0.393426706
     0.250000000  0.000000000  0.393426706
     0.250000000  0.875000000  0.500000000
     0.500000000  0.000000000  0.500000000
     0.500047216  0.874928350  0.604182258
[...]
     0.500000000  0.500000000  0.435151311
     0.347877722  0.375000000  0.393426706
     0.652122278  0.375000000  0.393426706
     0.250000000  0.500000000  0.458275395
     0.250000000  0.500000000  0.541724605
     0.597877722  0.375000000  0.500000000
     0.402122278  0.375000000  0.500000000
     0.499993660  0.500023993  0.565728520
     0.499994897  0.500333782  0.649802493
     0.349950660  0.375167928  0.607403922
     0.650030524  0.375167864  0.607401977
     0.249326721  0.500308797  0.671712436
     0.250979237  0.500632383  0.755685350
     0.594259176  0.374289682  0.718255671
     0.405735000  0.374289929  0.718255839

  ion indices of the primitive-cell ions
   primitive index   ion index
                 1           1
                 2           2
                 3           3
                 4           4
                 5           5
                 6           6
                 7           7
                 8           8
                 9           9
                10          10
                11          11
                12          12
                13          13
                14          14
                15          15
                16          16
                17          17
                18          18
                19          19
                20          20
                21          21
                22          22
                23          23
                24          24
                25          25
                26          26
                27          27
                28          28
                29          29
                30          30
                31          31
                32          32
                33          33
                34          34
                35          35
                36          36
                37          37
                38          38
[...]
      9.78340      2.97157     18.68725         0.000272     -0.000423      0.000098
      9.78128      1.49151     22.04459        -0.000649      0.001715     -0.003373
     13.04289      2.97249     21.68067        -0.000036     -0.003202     -0.001676
      9.78220      4.45433      8.77661        -0.000307     -0.000385     -3.416617
      0.00000      5.93911      8.77661         0.000002     -0.000075      2.831313
      0.00000      4.45433     12.03735        -0.000003     -0.000263      0.520081
      9.78220      5.93911     12.03735        -0.000888     -0.000286     -0.704873
      9.78220      4.45433     15.29808        -0.006728     -0.007539      0.681277
      0.00000      5.93911     15.29808        -0.000205     -0.001378     -0.698816
      0.00050      4.45601     18.49388         0.000526     -0.001358     -0.000674
      9.78310      5.94141     18.68591         0.000677     -0.000271     -0.000681
      9.78517      4.46132     22.04268        -0.001329     -0.003378     -0.003300
     13.04289      5.94374     21.67975        -0.000035     -0.005955     -0.001474
      3.26073      7.42389      8.77661         0.000317      0.000074     -3.416698
      6.52147      8.90866      8.77661         0.000002      0.000296      2.832422
      6.52147      7.42389     12.03735        -0.000002      0.003977      0.522610
      3.26073      8.90866     12.03735         0.001186      0.000557     -0.705207
      3.26073      7.42389     15.29808         0.006343     -0.002284      0.674753
      6.52147      8.90866     15.29808        -0.000218     -0.006558     -0.669609
      6.52205      7.41911     18.50466         0.000567     -0.001148     -0.000792
      3.26073      8.91133     18.68500         0.001014     -0.000120     -0.001815
      3.25791      7.43277     22.03656         0.002596     -0.004292     -0.004357
      6.52142      8.91723     21.66835        -0.000039     -0.001963     -0.003068
      3.26073     10.39344      8.77661         0.000405      0.000307     -3.416695
      6.52147      0.00000      8.77661         0.000003      0.000010      2.832550
      6.52147     10.39344     12.03735        -0.000003      0.001725      0.525308
      3.26073      0.00000     12.03735         0.001474      0.000159     -0.703938
      3.26073     10.39344     15.29808         0.004773      0.010782      0.680079
      6.52147      0.00000     15.29808        -0.000219      0.001528     -0.716927
      6.52208     10.39259     18.48566         0.000579      0.000413     -0.000838
[...]
      6.52147      5.93911     13.31396        -0.000000      0.000182     -0.107077
      4.53735      4.45433     12.03735         0.426467      0.000430      0.054982
      8.50559      4.45433     12.03735        -0.426473      0.000430      0.054983
      3.26073      5.93911     14.02147        -0.001342      0.002180     -0.106243
      3.26073      5.93911     16.57469         0.000386      0.003954      0.001066
      7.79808      4.45433     15.29808        -0.477418      0.011117      0.087262
      5.24485      4.45433     15.29808         0.477345      0.011117      0.087104
      6.52138      5.93939     17.30912        -0.000098     -0.000773     -0.002457
      6.52140      5.94307     19.88146        -0.000078     -0.000445     -0.004648
      4.56438      4.45633     18.58423         0.000564     -0.000651      0.000476
      8.47831      4.45633     18.58417        -0.000792     -0.000650      0.000413
      3.25195      5.94278     20.55182         0.001043     -0.000165      0.000696
      3.27351      5.94662     23.12107         0.000227      0.001362     -0.000165
      7.75088      4.44589     21.97586         0.001017     -0.002640     -0.003489
      5.29197      4.44590     21.97587        -0.001091     -0.002637     -0.003489
    total drift:                               -0.000468      0.011063     -0.025252

  FREE ENERGIE OF THE ION-ELECTRON SYSTEM (eV)
  free  energy   TOTEN  =     -2178.17703845 eV

  energy  without entropy=    -2178.17703845  energy(sigma->0) =    -2178.17703845

 d Force =-0.1589888E-03[-0.307E-02, 0.275E-02]  d Energy = 0.2760736E-03-0.435E-03
 d Force =-0.4705307E+02[-0.471E+02,-0.470E+02]  d Ewald  =-0.4705275E+02-0.321E-03

 Finite differences progress:
  Degree of freedom:   9/  9
  Displacement:        2/  2
  Total:              18/ 18

 SECOND DERIVATIVES (NOT SYMMETRIZED)
               1X          1Y          1Z          2X          2Y          2Z          3X          3Y          3Z
  1X   -11.839780   -0.000281   -0.001269    6.084314   -0.000194   -0.001573    5.873285    0.000958   -0.001024
  1Y    -0.000025 -158.631415  -53.598953   -0.002998   82.204696   27.290037   -0.001629   75.452592   25.049030
  1Z    -0.000252  -53.530099  -32.256160    0.000113   26.968900   15.812002    0.000131   26.128946   15.781339
  2X     6.092893    0.000400   -0.001385   -3.195181   -0.002073   -0.002866   -2.921318    0.002783   -0.001588
  2Y    -0.000873   82.188296   26.973476   -0.001591  -87.527068  -30.117297    0.001650    5.553581    3.807028
  2Z     0.000123   27.238325   15.796118   -0.000107  -30.082805  -13.823759    0.000024    2.728777   -1.852719
  3X     5.872905   -0.003178   -0.001525   -2.920850   -0.004600    0.000206   -3.528878    0.001986    0.001120
  3Y    -0.001045   75.448479   26.186854   -0.003949    5.546691    2.718728    0.009257  -81.141719  -28.328468
  3Z     0.000143   25.017843   15.789515    0.000007    3.796885   -1.854258   -0.000109  -28.301398  -14.538190

 Eigenvectors and eigenvalues of the dynamical matrix

   1 f  =   70.508297 THz   443.016697 2PiTHz 2351.903634 cm-1   291.598755 meV
             X         Y         Z           dx          dy          dz
      6.521464  7.068736 24.713073    -0.000000    0.801852    0.293696
      6.521468  8.172834 25.101739     0.000001   -0.365263   -0.131288
      6.521459  5.959703 24.304664     0.000012   -0.325979   -0.117725
      9.782200  7.423885  8.776613            0           0           0
      0.000000  8.908663  8.776613            0           0           0
      0.000000  7.423885 12.037346            0           0           0
      9.782200  8.908663 12.037346            0           0           0
      9.782200  7.423885 15.298080            0           0           0
      0.000000  8.908663 15.298080            0           0           0
      0.000573  7.426007 18.493819            0           0           0
      9.783185  8.911330 18.684997            0           0           0
      9.784938  7.432770 22.036561            0           0           0
     13.042891  8.914020 21.680260            0           0           0
      9.782200 10.393440  8.776613            0           0           0
      0.000000  0.000000  8.776613            0           0           0
      0.000000 10.393440 12.037346            0           0           0
      9.782200  0.000000 12.037346            0           0           0
      9.782200 10.393440 15.298080            0           0           0
      0.000000  0.000000 15.298080            0           0           0
      0.000615 10.395465 18.494645            0           0           0
      9.782154  0.002451 18.687545            0           0           0
      9.780278 10.400862 22.045740            0           0           0
     13.042891  0.003795 21.681115            0           0           0
      9.782200  1.484777  8.776613            0           0           0
      0.000000  2.969554  8.776613            0           0           0
      0.000000  1.484777 12.037346            0           0           0
      9.782200  2.969554 12.037346            0           0           0
      9.782200  1.484777 15.298080            0           0           0
      0.000000  2.969554 15.298080            0           0           0
      0.000535  1.486283 18.494705            0           0           0
      9.783395  2.971574 18.687250            0           0           0
      9.781276  1.491514 22.044589            0           0           0
     13.042893  2.972485 21.680672            0           0           0
      9.782200  4.454331  8.776613            0           0           0
      0.000000  5.939108  8.776613            0           0           0
      0.000000  4.454331 12.037346            0           0           0
      9.782200  5.939108 12.037346            0           0           0
      9.782200  4.454331 15.298080            0           0           0
      0.000000  5.939108 15.298080            0           0           0
      0.000503  4.456014 18.493880            0           0           0
      9.783103  5.941410 18.685908            0           0           0
      9.785169  4.461324 22.042678            0           0           0
     13.042893  5.943735 21.679748            0           0           0
      3.260733  7.423885  8.776613            0           0           0
      6.521467  8.908663  8.776613            0           0           0
      6.521467  7.423885 12.037346            0           0           0
      3.260733  8.908663 12.037346            0           0           0
      3.260733  7.423885 15.298080            0           0           0
      6.521467  8.908663 15.298080            0           0           0
      6.522049  7.419114 18.504661            0           0           0
      3.260726  8.911325 18.684998            0           0           0
      3.257911  7.432770 22.036561            0           0           0
      6.521422  8.917233 21.668349            0           0           0
      3.260733 10.393440  8.776613            0           0           0
      6.521467  0.000000  8.776613            0           0           0
      6.521467 10.393440 12.037346            0           0           0
      3.260733  0.000000 12.037346            0           0           0
      3.260733 10.393440 15.298080            0           0           0
      6.521467  0.000000 15.298080            0           0           0
      6.522083 10.392589 18.485657            0           0           0
[...]
      6.521467  5.939108 13.313959            0           0           0
      4.537346  4.454331 12.037346            0           0           0
      8.505588  4.454331 12.037346            0           0           0
      3.260733  5.939108 14.021467            0           0           0
      3.260733  5.939108 16.574692            0           0           0
      7.798080  4.454331 15.298080            0           0           0
      5.244854  4.454331 15.298080            0           0           0
      6.521384  5.939393 17.309120            0           0           0
      6.521400  5.943073 19.881461            0           0           0
      4.564383  4.456326 18.584227            0           0           0
      8.478305  4.456325 18.584168            0           0           0
      3.251952  5.942776 20.551821            0           0           0
      3.273506  5.946620 23.121069            0           0           0
      7.750883  4.445894 21.975865            0           0           0
      5.291975  4.445897 21.975870            0           0           0

[...]

   9 f  =    0.520667 THz     3.271448 2PiTHz   17.367584 cm-1     2.153305 meV
             X         Y         Z           dx          dy          dz
      6.521464  7.068736 24.713073     0.007699   -0.327555    0.232875
      6.521468  8.172834 25.101739     0.014721   -0.531939    0.694874
      6.521459  5.959703 24.304664     0.002681   -0.228361   -0.142252
      9.782200  7.423885  8.776613            0           0           0
      0.000000  8.908663  8.776613            0           0           0
      0.000000  7.423885 12.037346            0           0           0
      9.782200  8.908663 12.037346            0           0           0
      9.782200  7.423885 15.298080            0           0           0
      0.000000  8.908663 15.298080            0           0           0
      0.000573  7.426007 18.493819            0           0           0
      9.783185  8.911330 18.684997            0           0           0
      9.784938  7.432770 22.036561            0           0           0
     13.042891  8.914020 21.680260            0           0           0
      9.782200 10.393440  8.776613            0           0           0
      0.000000  0.000000  8.776613            0           0           0
      0.000000 10.393440 12.037346            0           0           0
      9.782200  0.000000 12.037346            0           0           0
      9.782200 10.393440 15.298080            0           0           0
      0.000000  0.000000 15.298080            0           0           0
      0.000615 10.395465 18.494645            0           0           0
      9.782154  0.002451 18.687545            0           0           0
      9.780278 10.400862 22.045740            0           0           0
     13.042891  0.003795 21.681115            0           0           0
      9.782200  1.484777  8.776613            0           0           0
      0.000000  2.969554  8.776613            0           0           0
      0.000000  1.484777 12.037346            0           0           0
      9.782200  2.969554 12.037346            0           0           0
      9.782200  1.484777 15.298080            0           0           0
      0.000000  2.969554 15.298080            0           0           0
      0.000535  1.486283 18.494705            0           0           0
      9.783395  2.971574 18.687250            0           0           0
      9.781276  1.491514 22.044589            0           0           0
     13.042893  2.972485 21.680672            0           0           0
      9.782200  4.454331  8.776613            0           0           0
      0.000000  5.939108  8.776613            0           0           0
      0.000000  4.454331 12.037346            0           0           0
      9.782200  5.939108 12.037346            0           0           0
      9.782200  4.454331 15.298080            0           0           0
      0.000000  5.939108 15.298080            0           0           0
      0.000503  4.456014 18.493880            0           0           0
      9.783103  5.941410 18.685908            0           0           0
      9.785169  4.461324 22.042678            0           0           0
     13.042893  5.943735 21.679748            0           0           0
      3.260733  7.423885  8.776613            0           0           0
      6.521467  8.908663  8.776613            0           0           0
      6.521467  7.423885 12.037346            0           0           0
      3.260733  8.908663 12.037346            0           0           0
      3.260733  7.423885 15.298080            0           0           0
      6.521467  8.908663 15.298080            0           0           0
      6.522049  7.419114 18.504661            0           0           0
      3.260726  8.911325 18.684998            0           0           0
      3.257911  7.432770 22.036561            0           0           0
      6.521422  8.917233 21.668349            0           0           0
      3.260733 10.393440  8.776613            0           0           0
      6.521467  0.000000  8.776613            0           0           0
      6.521467 10.393440 12.037346            0           0           0
      3.260733  0.000000 12.037346            0           0           0
      3.260733 10.393440 15.298080            0           0           0
      6.521467  0.000000 15.298080            0           0           0
      6.522083 10.392589 18.485657            0           0           0
[...]
      6.521467  5.939108 13.313959            0           0           0
      4.537346  4.454331 12.037346            0           0           0
      8.505588  4.454331 12.037346            0           0           0
      3.260733  5.939108 14.021467            0           0           0
      3.260733  5.939108 16.574692            0           0           0
      7.798080  4.454331 15.298080            0           0           0
      5.244854  4.454331 15.298080            0           0           0
      6.521384  5.939393 17.309120            0           0           0
      6.521400  5.943073 19.881461            0           0           0
      4.564383  4.456326 18.584227            0           0           0
      8.478305  4.456325 18.584168            0           0           0
      3.251952  5.942776 20.551821            0           0           0
      3.273506  5.946620 23.121069            0           0           0
      7.750883  4.445894 21.975865            0           0           0
      5.291975  4.445897 21.975870            0           0           0

 Finite differences POTIM=   1.0000000000000000E-002