 vasp.6.4.1 05Apr23 (build Sep 19 2024 10:44:22) complex

 executed on             LinuxIFC date 2024.10.18  19:30:19

 INCAR:
   SYSTEM = TiO2
   ISMEAR = 0
   SIGMA = 0.05
   EDIFF = 1E-7
   ALGO = ALL
   ISTART = 0
   IBRION = 2
   NSW = 1000
   ISYM = 0
   ISIF = 2
   EDIFFG = -0.01
   DIPOL = 0.5 0.5 0.5
   IDIPOL = 3
   LDIPOL = .TRUE.
   METAGGA = R2SCAN
   LUSE_VDW = .TRUE.
   BPARAM = 11.95
   CPARAM = 0.0093
   LASPH = .TRUE.
   ENCUT = 600
   PREC = Accurate
   LASPH = .TRUE.
   LREAL = .FALSE.
   ISPIN = 1
   NELM = 200
   NELMIN = 8
   NCORE = 8
   KPAR = 1
   LWAVE = .FALSE.
   LCHARG = .FALSE.

 POTCAR:    PAW_PBE C 08Apr2002
 POTCAR:    PAW_PBE O 08Apr2002
 POTCAR:    PAW_PBE H 15Jun2001
 POTCAR:    PAW_PBE Ti_pv 07Sep2000
 POTCAR:    PAW_PBE O 08Apr2002
|           W    W    AA    RRRRR   N    N  II  N    N   GGGG   !!!           |
|           W    W   A  A   R    R  NN   N  II  NN   N  G    G  !!!           |
|           W    W  A    A  R    R  N N  N  II  N N  N  G       !!!           |
|           W WW W  AAAAAA  RRRRR   N  N N  II  N  N N  G  GGG   !            |
|           WW  WW  A    A  R   R   N   NN  II  N   NN  G    G                |
|           W    W  A    A  R    R  N    N  II  N    N   GGGG   !!!           |
|     For optimal performance we recommend to set                             |
|       NCORE = 2 up to number-of-cores-per-socket                            |
|     This setting can greatly improve the performance of VASP for DFT.       |
|     The default, NCORE=1 might be grossly inefficient on modern             |
|     multi-core architectures or massively parallel machines. Do your        |
|     Unfortunately you need to use the default for GW and RPA                |
|     calculations (for HF NCORE is supported but not extensively tested      |
|     yet).                                                                   |

   TITEL  = PAW_PBE C 08Apr2002
   POMASS =   12.011; ZVAL   =    4.000    mass and valenz
   ENMAX  =  400.000; ENMIN  =  300.000 eV

[...]

   TITEL  = PAW_PBE H 15Jun2001
   POMASS =    1.000; ZVAL   =    1.000    mass and valenz
   ENMAX  =  250.000; ENMIN  =  200.000 eV

   TITEL  = PAW_PBE Ti_pv 07Sep2000
   POMASS =   47.880; ZVAL   =   10.000    mass and valenz
   ENMAX  =  222.335; ENMIN  =  166.751 eV

   TITEL  = PAW_PBE O 08Apr2002
   POMASS =   16.000; ZVAL   =    6.000    mass and valenz
   ENMAX  =  400.000; ENMIN  =  300.000 eV

  PAW_PBE C 08Apr2002                   :
  PAW_PBE O 08Apr2002                   :
  PAW_PBE H 15Jun2001                   :
  PAW_PBE Ti_pv 07Sep2000               :
  PAW_PBE O 08Apr2002                   :

 POSCAR:  C  O  H Ti  O
  positions in direct lattice

 METAGGA = R2SCAN                                      LMAXTAU =  6    LMIXTAU =  F

 ion  position               nearest neighbor table
   1  0.510  0.588  0.807-   3 1.09   5 1.10   6 1.10   2 1.45
   2  0.538  0.498  0.778-   4 1.00   1 1.45  86 2.18
   3  0.426  0.598  0.806-   1 1.09
   4  0.615  0.494  0.776-   2 1.00
   5  0.533  0.565  0.841-   1 1.10
   6  0.548  0.668  0.798-   1 1.10
   7  0.750  0.625  0.287-  88 1.95 148 1.95 147 1.95  87 1.95  90 1.97 169 1.97  17 2.96  37 2.96

   8  0.000  0.750  0.287-  89 1.95  90 1.95 109 1.95 110 1.95  91 1.97  38 2.96  18 2.96
   9  0.000  0.625  0.394-  91 1.95  92 1.95 151 1.95 152 1.95  93 1.97  94 1.97  19 2.96  39 2.96

[...]

  87  0.750  0.750  0.246-   7 1.95  17 1.95
  88  0.750  0.750  0.329-   7 1.95  17 1.95  10 1.97
  89  0.098  0.625  0.287-   8 1.95  38 1.95  47 1.97
  90  0.902  0.625  0.287-   8 1.95  38 1.95   7 1.97
  91  0.000  0.750  0.352-   9 1.95  19 1.95   8 1.97
  92  0.000  0.750  0.435-   9 1.95  19 1.95  12 1.97
  93  0.848  0.625  0.394-  10 1.95  40 1.95   9 1.97
  94  0.152  0.625  0.394-  50 1.95  80 1.95   9 1.97
  95  0.750  0.750  0.458-  11 1.95  21 1.95  10 1.97
  96  0.750  0.750  0.542-  11 1.95  21 1.95  14 2.09
  97  0.098  0.625  0.500-  12 1.95  42 1.95  51 1.97
  98  0.902  0.625  0.500-  12 1.95  42 1.95  11 1.97
  99  1.000  0.750  0.565-  23 1.90  13 1.90  12 1.99
 100  0.000  0.750  0.649-  16 1.81  13 2.01  23 2.01
 101  0.850  0.625  0.607-  13 1.95  14 1.97  44 1.97
 102  0.150  0.625  0.607-  13 1.95  84 1.97  54 1.97
 103  0.750  0.750  0.671-  14 1.87  25 2.09  15 2.09
 104  0.750  0.750  0.755-  25 1.83  15 1.83
 105  0.094  0.625  0.718-  46 1.94  16 1.94  55 2.03
 106  0.906  0.625  0.718-  46 1.94  16 1.94  15 2.03
 107  0.750  0.000  0.246-  17 1.95  27 1.95
 108  0.750  0.000  0.329-  17 1.95  27 1.95  20 1.97
 109  0.098  0.875  0.287-   8 1.95  18 1.95  57 1.97
 110  0.902  0.875  0.287-   8 1.95  18 1.95  17 1.97
 111  0.000  0.000  0.352-  19 1.95  29 1.95  18 1.97
 112  0.000  0.000  0.435-  19 1.95  29 1.95  22 1.97
 113  0.848  0.875  0.394-  10 1.95  20 1.95  19 1.97
 114  0.152  0.875  0.394-  50 1.95  60 1.95  19 1.97
 115  0.750  0.000  0.458-  21 1.95  31 1.95  20 1.97
 116  0.750  0.000  0.542-  21 1.95  31 1.95  24 2.09
 117  0.098  0.875  0.500-  12 1.95  22 1.95  61 1.97
 118  0.902  0.875  0.500-  12 1.95  22 1.95  21 1.97
 119  1.000  0.000  0.565-  23 1.90  33 1.90  22 1.99
 120  0.000  1.000  0.649-  26 1.81  33 2.01  23 2.01
 121  0.850  0.875  0.607-  23 1.95  24 1.97  14 1.97
 122  0.150  0.875  0.607-  23 1.95  64 1.97  54 1.97
 123  0.750  0.000  0.671-  24 1.87  35 2.09  25 2.09
 124  0.750  1.000  0.755-  35 1.83  25 1.83
 125  0.094  0.875  0.718-  16 1.94  26 1.94  65 2.03
 126  0.906  0.875  0.718-  26 1.94  16 1.94  25 2.03
 127  0.750  0.250  0.246-  27 1.95  37 1.95
 128  0.750  0.250  0.329-  27 1.95  37 1.95  30 1.97
 129  0.098  0.125  0.287-  18 1.95  28 1.95  67 1.97
 130  0.902  0.125  0.287-  18 1.95  28 1.95  27 1.97
 131  0.000  0.250  0.352-  29 1.95  39 1.95  28 1.97
 132  0.000  0.250  0.435-  29 1.95  39 1.95  32 1.97
 133  0.848  0.125  0.394-  20 1.95  30 1.95  29 1.97
 134  0.152  0.125  0.394-  60 1.95  70 1.95  29 1.97
 135  0.750  0.250  0.458-  31 1.95  41 1.95  30 1.97
 136  0.750  0.250  0.542-  31 1.95  41 1.95  34 2.09
 137  0.098  0.125  0.500-  22 1.95  32 1.95  71 1.97
 138  0.902  0.125  0.500-  22 1.95  32 1.95  31 1.97
 139  1.000  0.250  0.565-  43 1.90  33 1.90  32 1.99
 140  0.000  0.250  0.649-  36 1.81  33 2.01  43 2.01
 141  0.850  0.125  0.607-  33 1.95  34 1.97  24 1.97
 142  0.150  0.125  0.607-  33 1.95  64 1.97  74 1.97
 143  0.750  0.250  0.671-  34 1.87  45 2.09  35 2.09
 144  0.750  0.250  0.755-  45 1.83  35 1.83
 145  0.094  0.125  0.718-  36 1.94  26 1.94  75 2.03
 146  0.906  0.125  0.718-  26 1.94  36 1.94  35 2.03
[...]
 232  0.500  0.500  0.435-  49 1.95  79 1.95  82 1.97
 233  0.348  0.375  0.394-  70 1.95  80 1.95  79 1.97
 234  0.652  0.375  0.394-  30 1.95  40 1.95  79 1.97
 235  0.250  0.500  0.458-  51 1.95  81 1.95  80 1.97
 236  0.250  0.500  0.542-  51 1.95  81 1.95  84 2.09
 237  0.598  0.375  0.500-  72 1.95  82 1.95  41 1.97
 238  0.402  0.375  0.500-  72 1.95  82 1.95  81 1.97
 239  0.500  0.500  0.565-  83 1.90  53 1.90  82 1.99
 240  0.500  0.500  0.649-  86 1.81  53 2.01  83 2.01
 241  0.350  0.375  0.607-  83 1.95  74 1.97  84 1.97
 242  0.650  0.375  0.607-  83 1.95  44 1.97  34 1.97
 243  0.250  0.500  0.671-  84 1.87  85 2.09  55 2.09
 244  0.250  0.500  0.755-  55 1.83  85 1.83
 245  0.594  0.375  0.718-  86 1.94  76 1.94  45 2.03
 246  0.406  0.375  0.718-  76 1.94  86 1.94  85 2.03

IMPORTANT INFORMATION: All symmetrisations will be switched off!
NOSYMM: (Re-)initialisation of all symmetry stuff for point group C_1.

                                     Primitive cell

  volume of cell :    4687.7932

  direct lattice vectors                    reciprocal lattice vectors
    12.981765453  0.000000000  0.000000000     0.077031125  0.000000000  0.000000000
     0.000000000 11.829918508  0.000000000     0.000000000  0.084531436  0.000000000
     0.000000000  0.000000000 30.524807391     0.000000000  0.000000000  0.032760239

  length of vectors
    12.981765453 11.829918508 30.524807391     0.077031125  0.084531436  0.032760239

  position of ions in fractional coordinates (direct lattice)
     0.509590635  0.588488577  0.807440688
     0.537979525  0.498242168  0.777590564
     0.425858336  0.597845798  0.805761843
     0.614814195  0.493532515  0.776185537
     0.533030101  0.564940497  0.840786984
     0.548070217  0.667929504  0.798179840
     0.750000000  0.625000000  0.287357127
     0.000000000  0.750000000  0.287357127
     0.000000000  0.625000000  0.393678564
     0.750000000  0.750000000  0.393678564
     0.750000000  0.625000000  0.500000000
     0.000000000  0.750000000  0.500000000
     0.999999975  0.624999996  0.604133439
     0.749999938  0.749999994  0.610202908
     0.750000066  0.624999975  0.719737307
     0.000000051  0.749999998  0.707967630
     0.750000000  0.875000000  0.287357127
     0.000000000  0.000000000  0.287357127
     0.000000000  0.875000000  0.393678564
     0.750000000  0.000000000  0.393678564
     0.750000000  0.875000000  0.500000000
     0.000000000  0.000000000  0.500000000
     0.999999953  0.875000007  0.604133430
     0.749999934  0.999999993  0.610202922
     0.750000020  0.874999952  0.719737329
     0.999999999  0.999999991  0.707967643
     0.750000000  0.125000000  0.287357127
     0.000000000  0.250000000  0.287357127
     0.000000000  0.125000000  0.393678564
     0.750000000  0.250000000  0.393678564
     0.750000000  0.125000000  0.500000000
     0.000000000  0.250000000  0.500000000
     0.999999971  0.124999995  0.604133456
     0.749999939  0.249999987  0.610202920
     0.750000026  0.124999981  0.719737342
     0.000000064  0.250000002  0.707967647
     0.750000000  0.375000000  0.287357127
     0.000000000  0.500000000  0.287357127
     0.000000000  0.375000000  0.393678564
     0.750000000  0.500000000  0.393678564
     0.750000000  0.375000000  0.500000000
     0.000000000  0.500000000  0.500000000
     0.999999958  0.374999994  0.604133442
     0.749999936  0.500000001  0.610202903
     0.750000076  0.374999948  0.719737327
     0.000000077  0.500000004  0.707967634
     0.250000000  0.625000000  0.287357127
     0.500000000  0.750000000  0.287357127
     0.500000000  0.625000000  0.393678564
     0.250000000  0.750000000  0.393678564
     0.250000000  0.625000000  0.500000000
     0.500000000  0.750000000  0.500000000
     0.499999960  0.625000000  0.604133443
     0.249999931  0.750000018  0.610202917
     0.250000052  0.625000010  0.719737319
     0.500000061  0.750000004  0.707967626
     0.250000000  0.875000000  0.287357127
     0.500000000  0.000000000  0.287357127
     0.500000000  0.875000000  0.393678564
     0.250000000  0.000000000  0.393678564
[...]
     0.500000000  0.500000000  0.435333895
     0.347946691  0.375000000  0.393678564
     0.652053309  0.375000000  0.393678564
     0.250000000  0.500000000  0.458344669
     0.250000000  0.500000000  0.541655331
     0.597946691  0.375000000  0.500000000
     0.402053309  0.375000000  0.500000000
     0.499999903  0.499999995  0.565135701
     0.500000068  0.500000001  0.648583822
     0.350049465  0.374999983  0.606878662
     0.649950581  0.374999992  0.606878611
[...]
   4.54426006  4.43621924 18.52485426
   8.43750600  4.43621934 18.52485272
   3.24544213  5.91495918 20.49160707
   3.24543952  5.91495932 23.04502496
   7.70921927  4.43621963 21.92548873
   5.27254931  4.43621956 21.92549300

--------------------------------------- Iteration      FINAL  ---------------------------------------

--------------------OUTCAR has been truncated-------------------------

[...]

--------------------OUTCAR has been truncated-------------------------

  FORCE on cell =-STRESS in cart. coord.  units (eV):
  Direction    XX          YY          ZZ          XY          YZ          ZX
  Alpha Z  4723.96072  4723.96072  4723.96072
  Ewald  979202.61990996683.92501************   -75.22899   133.45891   -75.69181
  Hartree************************************   -40.48642    77.79647   -48.57054
  E(xc)   -9189.09093 -9198.49900 -9186.77446     0.17543    -0.26794     0.01074
  Local  ************************************   109.67843  -202.05898   121.26605
  n-local -5209.85872 -5113.46938 -5251.52970    -1.09363     1.87160    -0.65983
  augment  5523.40111  5491.47174  5528.67834     0.48651    -0.77902     0.10379
  Kinetic 28898.93538 28424.98785 28957.41541     6.44357    -9.98849     3.77888
  Fock        0.00000     0.00000     0.00000     0.00000     0.00000     0.00000
  Total       4.34385   -45.05648   -35.59099    -0.02511     0.03255     0.23727
  in kB       1.48463   -15.39924   -12.16416    -0.00858     0.01112     0.08109

 VOLUME and BASIS-vectors are now :
  energy-cutoff  :      600.00
  volume of cell :     4687.79
      direct lattice vectors                 reciprocal lattice vectors
    12.981765453  0.000000000  0.000000000     0.077031125  0.000000000  0.000000000
     0.000000000 11.829918508  0.000000000     0.000000000  0.084531436  0.000000000
     0.000000000  0.000000000 30.524807391     0.000000000  0.000000000  0.032760239

  length of vectors
    12.981765453 11.829918508 30.524807391     0.077031125  0.084531436  0.032760239

 FORCES acting on ions:
    Electron-Ion                     Ewald-Force                    Non-Local-Force
   0.386E+02 -.929E+02 -.163E+04   -.412E+02 0.981E+02 0.163E+04   0.263E+01 -.520E+01 -.478E+01
   0.222E+02 0.127E+03 -.253E+04   -.449E+02 -.153E+03 0.252E+04   0.227E+02 0.258E+02 0.924E+01
   0.584E+02 -.154E+02 -.398E+03   -.645E+02 0.160E+02 0.398E+03   0.613E+01 -.612E+00 0.306E+00
   -.700E+02 0.166E+02 -.431E+03   0.777E+02 -.172E+02 0.431E+03   -.768E+01 0.672E+00 0.315E+00
   -.114E+02 0.554E+01 -.391E+03   0.130E+02 -.696E+01 0.396E+03   -.160E+01 0.142E+01 -.564E+01
   -.191E+02 -.615E+02 -.397E+03   0.218E+02 0.665E+02 0.395E+03   -.270E+01 -.500E+01 0.143E+01
   -.203E+00 -.176E-01 0.381E+04   0.199E+00 0.177E-01 -.381E+04   0.112E-02 0.245E-04 0.444E+00
   -.594E-01 -.634E-01 0.399E+04   0.608E-01 0.636E-01 -.398E+04   -.570E-04 -.244E-04 -.402E+01
   -.235E+00 -.412E-01 0.195E+04   0.242E+00 0.407E-01 -.195E+04   -.122E-02 0.128E-03 -.610E-01
   -.444E+00 -.747E-01 0.194E+04   0.432E+00 0.749E-01 -.194E+04   0.290E-02 0.488E-04 0.222E+00
   -.105E+01 -.728E-01 0.180E+02   0.995E+00 0.500E-01 -.173E+02   0.992E-02 0.125E-02 -.116E+00
   -.112E+01 -.909E+00 0.254E+02   0.114E+01 0.911E+00 -.264E+02   -.598E-02 -.190E-02 0.320E+00
   -.578E+01 -.185E+01 -.187E+04   0.578E+01 0.185E+01 0.187E+04   -.294E-02 -.591E-02 0.155E+00
   -.822E+01 -.972E+01 -.191E+04   0.823E+01 0.972E+01 0.191E+04   -.113E-01 -.605E-02 -.166E+00
   -.103E+03 -.157E+02 -.371E+04   0.103E+03 0.155E+02 0.371E+04   0.212E+00 0.126E+00 -.858E-01
   -.580E+01 -.576E+01 -.379E+04   0.586E+01 0.578E+01 0.379E+04   -.641E-01 -.239E-01 0.115E+01
   -.210E+00 -.697E-01 0.381E+04   0.205E+00 0.699E-01 -.381E+04   0.115E-02 0.475E-05 0.444E+00
   -.568E-01 -.331E-01 0.399E+04   0.582E-01 0.332E-01 -.398E+04   -.572E-04 -.664E-05 -.402E+01
   -.203E+00 -.150E+00 0.195E+04   0.210E+00 0.150E+00 -.195E+04   -.120E-02 0.115E-03 -.610E-01
   -.521E+00 -.915E-01 0.194E+04   0.509E+00 0.913E-01 -.194E+04   0.273E-02 -.116E-04 0.222E+00
   -.223E+01 -.994E+00 0.166E+02   0.219E+01 0.102E+01 -.159E+02   0.735E-02 -.137E-02 -.117E+00
   -.768E+00 -.324E+00 0.239E+02   0.791E+00 0.324E+00 -.250E+02   -.598E-02 -.792E-04 0.319E+00
   -.348E+01 -.286E+01 -.187E+04   0.348E+01 0.287E+01 0.187E+04   0.657E-03 -.108E-01 0.158E+00
   -.523E+01 -.198E+01 -.193E+04   0.525E+01 0.198E+01 0.193E+04   -.181E-01 0.182E-02 -.175E+00
   -.310E+02 -.290E+02 -.377E+04   0.309E+02 0.290E+02 0.377E+04   0.595E-01 0.161E-01 -.232E+00
   -.518E+01 -.224E+01 -.380E+04   0.516E+01 0.224E+01 0.380E+04   0.237E-01 -.325E-02 0.118E+01
   -.205E+00 0.175E-01 0.381E+04   0.200E+00 -.177E-01 -.381E+04   0.114E-02 0.401E-04 0.444E+00
   -.597E-01 0.634E-01 0.399E+04   0.611E-01 -.635E-01 -.398E+04   -.698E-04 0.244E-04 -.402E+01
   -.204E+00 0.437E-01 0.195E+04   0.212E+00 -.432E-01 -.195E+04   -.128E-02 -.131E-03 -.610E-01
   -.409E+00 0.751E-01 0.194E+04   0.397E+00 -.753E-01 -.194E+04   0.280E-02 -.394E-04 0.223E+00
   -.209E+01 0.356E+00 0.160E+02   0.205E+01 -.392E+00 -.153E+02   0.861E-02 0.202E-02 -.117E+00
   -.112E+01 0.875E+00 0.248E+02   0.114E+01 -.879E+00 -.258E+02   -.623E-02 0.293E-02 0.320E+00
   -.239E+01 0.138E+01 -.187E+04   0.239E+01 -.139E+01 0.187E+04   0.207E-02 0.824E-02 0.161E+00
   -.749E+01 0.930E+01 -.191E+04   0.750E+01 -.930E+01 0.191E+04   -.824E-02 -.162E-02 -.177E+00
   -.225E+02 0.150E+02 -.377E+04   0.225E+02 -.150E+02 0.377E+04   0.552E-01 -.276E-02 -.249E+00
   -.490E+01 0.547E+01 -.380E+04   0.496E+01 -.548E+01 0.380E+04   -.529E-01 0.191E-01 0.115E+01
   -.198E+00 0.698E-01 0.381E+04   0.194E+00 -.699E-01 -.381E+04   0.111E-02 -.549E-04 0.444E+00
   -.623E-01 0.331E-01 0.399E+04   0.637E-01 -.332E-01 -.398E+04   -.671E-04 0.112E-04 -.402E+01
   -.237E+00 0.148E+00 0.195E+04   0.245E+00 -.147E+00 -.195E+04   -.129E-02 -.162E-03 -.611E-01
   -.336E+00 0.911E-01 0.194E+04   0.325E+00 -.908E-01 -.194E+04   0.262E-02 -.251E-04 0.222E+00
   -.877E+00 0.716E+00 0.175E+02   0.819E+00 -.687E+00 -.168E+02   0.108E-01 -.183E-02 -.116E+00
   -.122E+01 0.311E+00 0.262E+02   0.125E+01 -.312E+00 -.273E+02   -.708E-02 0.288E-03 0.317E+00
   -.541E+01 0.351E+01 -.187E+04   0.541E+01 -.351E+01 0.187E+04   -.209E-02 0.500E-02 0.155E+00
   -.895E+01 0.203E+01 -.190E+04   0.901E+01 -.204E+01 0.190E+04   -.583E-01 0.527E-02 -.171E+00
   -.868E+02 0.264E+02 -.373E+04   0.866E+02 -.262E+02 0.373E+04   0.140E+00 -.152E+00 -.863E-01
   -.749E+01 0.301E+01 -.379E+04   0.746E+01 -.302E+01 0.379E+04   0.360E-01 0.299E-02 0.110E+01
   0.204E+00 -.133E-01 0.381E+04   -.200E+00 0.132E-01 -.381E+04   -.142E-02 0.201E-04 0.444E+00
   0.580E-01 -.530E-01 0.399E+04   -.599E-01 0.534E-01 -.398E+04   0.564E-03 -.387E-04 -.402E+01
   0.213E+00 0.140E+00 0.195E+04   -.219E+00 -.129E+00 -.195E+04   0.956E-03 -.236E-02 -.636E-01
   0.466E+00 -.266E-01 0.194E+04   -.455E+00 0.266E-01 -.194E+04   -.230E-02 0.229E-04 0.217E+00
   0.185E+01 0.163E+00 0.156E+02   -.180E+01 -.178E+00 -.148E+02   -.131E-01 0.101E-02 -.126E+00
   0.906E+00 0.706E+00 0.305E+02   -.917E+00 -.799E+00 -.314E+02   -.901E-03 0.406E-01 0.236E+00
   0.305E+01 -.129E+02 -.185E+04   -.306E+01 0.130E+02 0.185E+04   0.298E-02 -.769E-01 0.976E-01
   0.146E+02 -.674E+01 -.192E+04   -.146E+02 0.674E+01 0.192E+04   -.189E-01 0.917E-02 -.166E+00
   0.666E+02 -.155E+02 -.373E+04   -.667E+02 0.155E+02 0.374E+04   0.600E-01 0.747E-02 -.256E+00
   0.240E+02 -.838E+02 -.370E+04   -.238E+02 0.838E+02 0.370E+04   -.180E+00 -.334E-01 0.132E+01
   0.211E+00 -.655E-01 0.381E+04   -.206E+00 0.658E-01 -.381E+04   -.148E-02 -.785E-05 0.444E+00
   0.554E-01 -.410E-01 0.399E+04   -.573E-01 0.411E-01 -.398E+04   0.575E-03 0.185E-05 -.402E+01
   0.182E+00 -.286E-01 0.195E+04   -.188E+00 0.282E-01 -.195E+04   0.894E-03 -.827E-03 -.645E-01
   0.540E+00 -.970E-01 0.194E+04   -.529E+00 0.971E-01 -.194E+04   -.233E-02 0.510E-04 0.217E+00
[...]
   -.529E+02 0.336E-01 0.117E+04   0.569E+02 -.344E-01 -.117E+04   -.362E+01 0.102E-02 0.173E+00
   0.530E+02 0.459E-01 0.117E+04   -.571E+02 -.465E-01 -.117E+04   0.363E+01 0.810E-03 0.183E+00
   0.489E+00 0.162E+00 0.516E+03   -.467E+00 -.163E+00 -.520E+03   -.289E-01 0.322E-02 0.431E+01
   0.232E+01 0.655E+00 -.511E+03   -.227E+01 -.653E+00 0.519E+03   -.642E-01 -.344E-02 -.711E+01
   -.545E+02 0.722E-01 0.158E+02   0.593E+02 -.766E-01 -.160E+02   -.518E+01 0.240E-01 0.234E+00
   0.555E+02 0.150E-01 0.153E+02   -.603E+02 -.236E-01 -.154E+02   0.524E+01 0.306E-01 0.226E+00
   0.496E+00 0.148E+01 -.610E+03   -.450E+00 -.155E+01 0.603E+03   -.462E-01 0.768E-01 0.689E+01
   0.111E+02 0.345E+01 -.160E+04   -.115E+02 -.335E+01 0.161E+04   0.375E+00 -.103E+00 -.259E+01
   -.241E+02 0.509E+01 -.112E+04   0.275E+02 -.525E+01 0.112E+04   -.334E+01 0.161E+00 0.107E+01
   0.269E+02 0.557E+01 -.112E+04   -.302E+02 -.562E+01 0.112E+04   0.324E+01 0.522E-01 0.654E+00
   0.217E+02 0.316E+01 -.180E+04   -.217E+02 -.324E+01 0.180E+04   0.234E-01 0.757E-01 -.206E+01
   0.609E+02 0.112E+02 -.272E+04   -.608E+02 -.113E+02 0.274E+04   -.127E+00 0.984E-01 -.212E+02
   -.525E+02 0.612E+02 -.222E+04   0.587E+02 -.610E+02 0.222E+04   -.622E+01 -.159E+00 -.760E+00
   0.704E+02 0.485E+02 -.229E+04   -.767E+02 -.484E+02 0.230E+04   0.634E+01 -.852E-01 -.324E+01
   -.169E+02 -.179E+02 0.879E+02   -.303E-11 0.490E-12 -.637E-11   0.170E+02 0.178E+02 -.879E+02

 POSITION                                       TOTAL-FORCE (eV/Angst)
      6.61336      6.97683     24.70531        -0.002432     -0.003983     -0.000353
      6.99476      5.90749     23.81322        -0.001244      0.002574      0.000197
      5.53184      7.07943     24.64254         0.006276     -0.001155      0.003508
      7.98809      5.84450     23.77593         0.006146      0.002284      0.001574
      6.91141      6.71195     25.72008         0.001464     -0.003931      0.005013
      7.11130      7.90921     24.41350         0.001736      0.003084     -0.000155
      9.73632      7.39370      8.77152        -0.003294      0.000146     -3.756720
      0.00000      8.87244      8.77152         0.001096      0.000125      2.940149
      0.00000      7.39370     12.01696         0.005760     -0.000328      0.538002
      9.73632      8.87244     12.01696        -0.009342      0.000240     -0.771250
      9.73632      7.39370     15.26240        -0.046278     -0.021361      0.592688
      0.00000      8.87244     15.26240         0.015799      0.000551     -0.735813
      0.00316      7.39393     18.44135         0.000075     -0.002198      0.001550
      9.74106      8.87332     18.60982         0.000064      0.000147      0.001677
      9.74606      7.40483     21.92785         0.003264     -0.000853     -0.001202
     -0.00185      8.87394     21.61771         0.001662     -0.000099     -0.000182
      9.73632     10.35118      8.77152        -0.003396      0.000297     -3.756886
      0.00000      0.00000      8.77152         0.001092      0.000111      2.939866
      0.00000     10.35118     12.01696         0.005637     -0.000421      0.537610
      9.73632      0.00000     12.01696        -0.009557     -0.000264     -0.771946
      9.73632     10.35118     15.26240        -0.033417      0.027092      0.598512
      0.00000      0.00000     15.26240         0.016333      0.000455     -0.731607
      0.00063     10.35123     18.44325         0.000183     -0.001594      0.002210
      9.73261     -0.00018     18.61878         0.002092      0.000612      0.004245
      9.73280     10.35144     21.96211         0.002174      0.002082      0.000204
      0.00187     -0.00178     21.61647         0.002649      0.001867      0.004542
      9.73632      1.47874      8.77152        -0.003364     -0.000208     -3.757084
      0.00000      2.95748      8.77152         0.001132     -0.000096      2.939985
      0.00000      1.47874     12.01696         0.005867      0.000410      0.537597
      9.73632      2.95748     12.01696        -0.009097     -0.000208     -0.772105
      9.73632      1.47874     15.26240        -0.033557     -0.032982      0.594243
      0.00000      2.95748     15.26240         0.018468     -0.000971     -0.735202
      0.00073      1.47797     18.44341         0.000748      0.001742      0.002983
      9.73766      2.95555     18.60924        -0.000558      0.000151      0.003367
      9.73119      1.46964     21.96264         0.001743      0.002121      0.000099
      0.00004      2.95322     21.61774         0.002464      0.000341      0.000605
      9.73632      4.43622      8.77152        -0.003256     -0.000164     -3.756933
      0.00000      5.91496      8.77152         0.001122     -0.000069      2.940185
      0.00000      4.43622     12.01696         0.006014      0.000403      0.537930
      9.73632      5.91496     12.01696        -0.008985      0.000288     -0.771268
      9.73632      4.43622     15.26240        -0.046841      0.027260      0.589550
      0.00000      5.91496     15.26240         0.016805     -0.000136     -0.738100
      0.00196      4.43564     18.44126         0.000596      0.000936      0.001641
      9.74529      5.91425     18.61640         0.001700     -0.000340      0.001971
      9.75286      4.41480     21.93267         0.003090     -0.001165     -0.000828
      0.01174      5.91472     21.61544         0.001637     -0.001629     -0.002839
      3.24544      7.39370      8.77152         0.002790     -0.000107     -3.754188
      6.49088      8.87244      8.77152        -0.001560      0.000300      2.947701
      6.49088      7.39370     12.01696        -0.006027      0.008566      0.565332
      3.24544      8.87244     12.01696         0.008631      0.000076     -0.753847
      3.24544      7.39370     15.26240         0.043893     -0.013894      0.646013
      6.49088      8.87244     15.26240        -0.012397     -0.051275     -0.597675
      6.49396      7.36545     18.47952        -0.000422      0.001187      0.002675
      3.25010      8.87132     18.61890        -0.000155      0.001110      0.001039
      3.25248      7.39473     21.96041         0.001631     -0.000827     -0.001759
      6.49576      8.87470     21.57630         0.000102     -0.001326      0.006174
      3.24544     10.35118      8.77152         0.002868      0.000362     -3.754471
      6.49088      0.00000      8.77152        -0.001540      0.000079      2.947464
      6.49088     10.35118     12.01696        -0.005942     -0.001147      0.565689
      3.24544      0.00000     12.01696         0.008807      0.000148     -0.753527
[...]
      6.49088      5.91496     13.28848         0.002028     -0.000681     -0.149271
      4.51696      4.43622     12.01696         0.442307      0.000317      0.055685
      8.46480      4.43622     12.01696        -0.435978      0.000252      0.058088
      3.24544      5.91496     13.99088        -0.008051      0.001759     -0.079594
      3.24544      5.91496     16.53392        -0.019473     -0.001485      0.046702
      7.76240      4.43622     15.26240        -0.403253      0.019622      0.065723
      5.21936      4.43622     15.26240         0.434882      0.022034      0.067405
      6.49440      5.91293     17.25640        -0.000198      0.000989     -0.001577
      6.48255      5.91692     19.81727        -0.002273      0.000417     -0.002327
      4.53725      4.43536     18.52617         0.001829     -0.000233     -0.000520
      8.44536      4.43523     18.53870         0.001183     -0.002341      0.001519
      3.24254      5.91754     20.49272        -0.000983      0.000598     -0.002403
      3.26870      5.91580     23.04316         0.004250      0.001854      0.001885
      7.74004      4.38967     21.80530         0.002037      0.000930      0.000738
      5.27807      4.42171     21.90623        -0.000828     -0.001439      0.000020
    total drift:                                0.055309     -0.004272     -0.065309

  FREE ENERGIE OF THE ION-ELECTRON SYSTEM (eV)
  free  energy   TOTEN  =     -2743.48317027 eV

  energy  without entropy=    -2743.48317027  energy(sigma->0) =    -2743.48317027

 d Force = 0.4536531E-04[ 0.276E-04, 0.631E-04]  d Energy = 0.4518733E-04 0.178E-06
 d Force = 0.1203016E+02[ 0.120E+02, 0.120E+02]  d Ewald  = 0.1203016E+02 0.116E-05

 Conjugate gradient step on ions:
 trial-energy change:   -0.000045  1 .order   -0.000045   -0.000063   -0.000028
  (g-gl).g = 0.145E-03      g.g   = 0.137E-03  gl.gl    = 0.118E-03
 g(Force)  = 0.137E-03   g(Stress)= 0.000E+00 ortho     =-0.115E-05
 gamma     =   1.22524
 trial     =   0.46395
 opt step  =   0.82557  (harmonic =   0.82557) maximal distance =0.00201255
 next E    = -2743.483181   (d E  =  -0.00006)

 reached required accuracy - stopping structural energy minimisation