 vasp.6.3.0 20Jan22 (build Mar 11 2022 13:48:16) complex

 executed on             LinuxIFC date 2023.12.29  11:42:08

 INCAR:
   SYSTEM = TiO2
   ISMEAR = 0
   SIGMA = 0.05
   EDIFF = 1E-7
   ALGO = ALL
   ISTART = 0
   IBRION = 2
   NSW = 1000
   ISYM = 0
   ISIF = 2
   EDIFFG = -0.01
   DIPOL = 0.5 0.5 0.5
   IDIPOL = 3
   LDIPOL = .TRUE.
   METAGGA = R2SCAN
   LUSE_VDW = .TRUE.
   BPARAM = 11.95
   CPARAM = 0.0093
   LASPH = .TRUE.
   ENCUT = 600
   PREC = Accurate
   LASPH = .TRUE.
   LREAL = .FALSE.
   ISPIN = 1
   NELM = 200
   NELMIN = 8
   NCORE = 19
   KPAR = 1
   LWAVE = .FALSE.
   LCHARG = .FALSE.

 POTCAR:    PAW_PBE C 08Apr2002
 POTCAR:    PAW_PBE O 08Apr2002
 POTCAR:    PAW_PBE H 15Jun2001
 POTCAR:    PAW_PBE Ti_pv 07Sep2000
 POTCAR:    PAW_PBE O 08Apr2002
|               ----> ADVICE to this user running VASP <----                  |
|     You have switched on vdW-DFT.                                           |
|     This routine was written and supplied by Jiri Klimes. We recommend      |
|     that you carefully read and cite the following publications:            |
|       J. Klimes, D.R. Bowler, A. Michelides                                 |
|          J. Phys.: Cond Matt. 22 022201 (2010)                              |
|       J. Klimes, D.R. Bowler, A. Michelides                                 |
|          Phys. Rev. B. 83, 195131 (2011)                                    |
|     and references therein.                                                 |

   TITEL  = PAW_PBE C 08Apr2002
   POMASS =   12.011; ZVAL   =    4.000    mass and valenz
   ENMAX  =  400.000; ENMIN  =  300.000 eV

[...]

   TITEL  = PAW_PBE H 15Jun2001
   POMASS =    1.000; ZVAL   =    1.000    mass and valenz
   ENMAX  =  250.000; ENMIN  =  200.000 eV

   TITEL  = PAW_PBE Ti_pv 07Sep2000
   POMASS =   47.880; ZVAL   =   10.000    mass and valenz
   ENMAX  =  222.335; ENMIN  =  166.751 eV

   TITEL  = PAW_PBE O 08Apr2002
   POMASS =   16.000; ZVAL   =    6.000    mass and valenz
   ENMAX  =  400.000; ENMIN  =  300.000 eV

  PAW_PBE C 08Apr2002                   :
  PAW_PBE O 08Apr2002                   :
  PAW_PBE H 15Jun2001                   :
  PAW_PBE Ti_pv 07Sep2000               :
  PAW_PBE O 08Apr2002                   :

 POSCAR:  C  O  H Ti  O
  positions in direct lattice
  velocities in cartesian coordinates

 METAGGA = R2SCA    LMAXTAU =  6    LMIXTAU =  F

 ion  position               nearest neighbor table
   1  0.509  0.590  0.809-   3 1.09   5 1.09   6 1.10   2 1.44
   2  0.539  0.499  0.780-   4 1.00   1 1.44  86 2.13
   3  0.426  0.598  0.807-   1 1.09
   4  0.615  0.494  0.779-   2 1.00
   5  0.532  0.567  0.843-   1 1.09
   6  0.548  0.668  0.800-   1 1.10
   7  0.750  0.625  0.287-  88 1.95 148 1.95 147 1.95  87 1.95  90 1.97 169 1.97  17 2.96  37 2.96

   8  0.000  0.750  0.287-  89 1.95  90 1.95 109 1.95 110 1.95  91 1.97  38 2.96  18 2.96
   9  0.000  0.625  0.394-  91 1.95  92 1.95 151 1.95 152 1.95  93 1.97  94 1.97  19 2.96  39 2.96

[...]

  87  0.750  0.750  0.246-   7 1.95  17 1.95
  88  0.750  0.750  0.329-   7 1.95  17 1.95  10 1.97
  89  0.098  0.625  0.287-   8 1.95  38 1.95  47 1.97
  90  0.902  0.625  0.287-   8 1.95  38 1.95   7 1.97
  91  0.000  0.750  0.352-   9 1.95  19 1.95   8 1.97
  92  0.000  0.750  0.435-   9 1.95  19 1.95  12 1.97
  93  0.848  0.625  0.394-  10 1.95  40 1.95   9 1.97
  94  0.152  0.625  0.394-  50 1.95  80 1.95   9 1.97
  95  0.750  0.750  0.458-  11 1.95  21 1.95  10 1.97
  96  0.750  0.750  0.542-  11 1.95  21 1.95  14 2.08
  97  0.098  0.625  0.500-  12 1.95  42 1.95  51 1.97
  98  0.902  0.625  0.500-  12 1.95  42 1.95  11 1.97
  99  0.000  0.750  0.565-  23 1.90  13 1.90  12 1.99
 100  0.999  0.750  0.649-  16 1.81  13 2.01  23 2.01
 101  0.850  0.625  0.606-  13 1.95  14 1.97  44 1.97
 102  0.150  0.625  0.607-  13 1.94  54 1.97  84 1.97
 103  0.754  0.751  0.671-  14 1.88  15 2.06  25 2.08
 104  0.748  0.749  0.755-  15 1.83  25 1.84
 105  0.094  0.625  0.719-  46 1.94  16 1.95  55 2.03
 106  0.906  0.624  0.719-  46 1.94  16 1.95  15 2.02
 107  0.750  0.000  0.246-  17 1.95  27 1.95
 108  0.750  0.000  0.329-  17 1.95  27 1.95  20 1.97
 109  0.098  0.875  0.287-   8 1.95  18 1.95  57 1.97
 110  0.902  0.875  0.287-   8 1.95  18 1.95  17 1.97
 111  0.000  0.000  0.352-  19 1.95  29 1.95  18 1.97
 112  0.000  0.000  0.435-  19 1.95  29 1.95  22 1.97
 113  0.848  0.875  0.394-  10 1.95  20 1.95  19 1.97
 114  0.152  0.875  0.394-  50 1.95  60 1.95  19 1.97
 115  0.750  0.000  0.458-  21 1.95  31 1.95  20 1.97
 116  0.750  0.000  0.542-  21 1.95  31 1.95  24 2.08
 117  0.098  0.875  0.500-  12 1.95  22 1.95  61 1.97
 118  0.902  0.875  0.500-  12 1.95  22 1.95  21 1.97
 119  0.000  1.000  0.565-  33 1.90  23 1.90  22 1.99
 120  1.000  1.000  0.649-  26 1.81  23 2.01  33 2.01
 121  0.850  0.875  0.607-  23 1.95  24 1.97  14 1.97
 122  0.150  0.875  0.607-  23 1.94  64 1.97  54 1.97
 123  0.750  1.000  0.671-  24 1.88  35 2.08  25 2.08
 124  0.750  1.000  0.755-  35 1.83  25 1.83
 125  0.094  0.874  0.718-  16 1.94  26 1.94  65 2.04
 126  0.906  0.875  0.719-  16 1.94  26 1.94  25 2.03
 127  0.750  0.250  0.246-  27 1.95  37 1.95
 128  0.750  0.250  0.329-  27 1.95  37 1.95  30 1.97
 129  0.098  0.125  0.287-  18 1.95  28 1.95  67 1.97
 130  0.902  0.125  0.287-  18 1.95  28 1.95  27 1.97
 131  0.000  0.250  0.352-  29 1.95  39 1.95  28 1.97
 132  0.000  0.250  0.435-  29 1.95  39 1.95  32 1.97
 133  0.848  0.125  0.394-  20 1.95  30 1.95  29 1.97
 134  0.152  0.125  0.394-  60 1.95  70 1.95  29 1.97
 135  0.750  0.250  0.458-  31 1.95  41 1.95  30 1.97
 136  0.750  0.250  0.542-  31 1.95  41 1.95  34 2.07
 137  0.098  0.125  0.500-  22 1.95  32 1.95  71 1.97
 138  0.902  0.125  0.500-  22 1.95  32 1.95  31 1.97
 139  0.000  0.250  0.565-  33 1.90  43 1.90  32 1.99
 140  0.999  0.250  0.649-  36 1.81  43 2.01  33 2.01
 141  0.850  0.125  0.607-  33 1.95  24 1.97  34 1.97
 142  0.150  0.125  0.607-  33 1.94  64 1.97  74 1.97
 143  0.753  0.250  0.671-  34 1.88  45 2.06  35 2.09
 144  0.749  0.250  0.755-  45 1.82  35 1.84
 145  0.094  0.125  0.718-  36 1.94  26 1.94  75 2.04
 146  0.906  0.125  0.719-  36 1.94  26 1.94  35 2.03
[...]
 232  0.500  0.500  0.435-  49 1.95  79 1.95  82 1.97
 233  0.348  0.375  0.394-  70 1.95  80 1.95  79 1.97
 234  0.652  0.375  0.394-  30 1.95  40 1.95  79 1.97
 235  0.250  0.500  0.458-  51 1.95  81 1.95  80 1.97
 236  0.250  0.500  0.542-  51 1.95  81 1.95  84 2.09
 237  0.598  0.375  0.500-  72 1.95  82 1.95  41 1.97
 238  0.402  0.375  0.500-  72 1.95  82 1.95  81 1.97
 239  0.500  0.500  0.565-  53 1.90  83 1.90  82 1.99
 240  0.499  0.500  0.649-  86 1.92  53 1.97  83 1.97
 241  0.349  0.375  0.607-  83 1.96  74 1.96  84 1.97
 242  0.651  0.375  0.607-  83 1.95  34 1.97  44 1.97
 243  0.250  0.500  0.671-  84 1.87  55 2.08  85 2.09
 244  0.252  0.500  0.755-  55 1.83  85 1.83
 245  0.596  0.371  0.714-  76 1.92  86 1.96  45 2.02
 246  0.406  0.374  0.718-  76 1.93  86 1.94  85 2.03

IMPORTANT INFORMATION: All symmetrisations will be switched off!
NOSYMM: (Re-)initialisation of all symmetry stuff for point group C_1.

                                     Primitive cell

  volume of cell :    4687.8040

  direct lattice vectors                    reciprocal lattice vectors
    12.981773603  0.000000000  0.000000000     0.077031077  0.000000000  0.000000000
     0.000000000 11.829932295  0.000000000     0.000000000  0.084531338  0.000000000
     0.000000000  0.000000000 30.524823105     0.000000000  0.000000000  0.032760223

  length of vectors
    12.981773603 11.829932295 30.524823105     0.077031077  0.084531338  0.032760223

  position of ions in fractional coordinates (direct lattice)
     0.509323832  0.589677647  0.809250740
     0.538596206  0.499107350  0.780092222
     0.426041441  0.598463715  0.807190591
     0.615098363  0.493656986  0.778916738
     0.532289055  0.567435226  0.842510209
     0.547777211  0.668367650  0.799594852
     0.750000000  0.625000000  0.287357103
     0.000000000  0.750000000  0.287357103
     0.000000000  0.625000000  0.393678552
     0.750000000  0.750000000  0.393678552
     0.750000000  0.625000000  0.500000000
     0.000000000  0.750000000  0.500000000
     0.000230512  0.625041005  0.604138564
     0.750316390  0.750097174  0.609660879
     0.750683810  0.625937627  0.718347941
     0.999767740  0.750175996  0.708205930
     0.750000000  0.875000000  0.287357103
     0.000000000  0.000000000  0.287357103
     0.000000000  0.875000000  0.393678552
     0.750000000  0.000000000  0.393678552
     0.750000000  0.875000000  0.500000000
     0.000000000  0.000000000  0.500000000
     0.000052633  0.875017729  0.604224012
     0.749771840  0.000000806  0.609959098
     0.749610064  0.875030891  0.719483890
     0.000111437  0.999876534  0.708176279
     0.750000000  0.125000000  0.287357103
     0.000000000  0.250000000  0.287357103
     0.000000000  0.125000000  0.393678552
     0.750000000  0.250000000  0.393678552
     0.750000000  0.125000000  0.500000000
     0.000000000  0.250000000  0.500000000
     0.000080241  0.124952416  0.604222948
     0.750086054  0.249844578  0.609632675
     0.749526347  0.124264281  0.719491264
     0.999961827  0.249644793  0.708201608
     0.750000000  0.375000000  0.287357103
     0.000000000  0.500000000  0.287357103
     0.000000000  0.375000000  0.393678552
     0.750000000  0.500000000  0.393678552
     0.750000000  0.375000000  0.500000000
     0.000000000  0.500000000  0.500000000
     0.000153750  0.374966858  0.604135210
     0.750708112  0.499961212  0.609855007
     0.751251178  0.373223052  0.718483979
     0.000806128  0.500010053  0.708113778
     0.250000000  0.625000000  0.287357103
     0.500000000  0.750000000  0.287357103
     0.500000000  0.625000000  0.393678552
     0.250000000  0.750000000  0.393678552
     0.250000000  0.625000000  0.500000000
     0.500000000  0.750000000  0.500000000
     0.500203885  0.622628243  0.605380367
     0.250332315  0.749933733  0.609963111
     0.250395968  0.625103818  0.719431043
     0.500271015  0.750133411  0.706850178
     0.250000000  0.875000000  0.287357103
     0.500000000  0.000000000  0.287357103
     0.500000000  0.875000000  0.393678552
     0.250000000  0.000000000  0.393678552
[...]
     0.500000000  0.500000000  0.435333986
     0.347946921  0.375000000  0.393678552
     0.652053079  0.375000000  0.393678552
     0.250000000  0.500000000  0.458344566
     0.250000000  0.500000000  0.541655434
     0.597946921  0.375000000  0.500000000
     0.402053079  0.375000000  0.500000000
     0.500261466  0.499835029  0.565307432
     0.499289177  0.500168597  0.649201628
     0.349497167  0.374940989  0.606917542
     0.650538109  0.374905256  0.607328187
     0.249598897  0.500228196  0.671343636
     0.251821673  0.500089235  0.754904765
     0.596173482  0.371087520  0.714304898
     0.406472466  0.373731587  0.717609224

  ion indices of the primitive-cell ions
   primitive index   ion index
                 1           1
                 2           2
                 3           3
                 4           4
                 5           5
[...]
   3.25058376  7.39493584 21.96050532
   6.49440506  8.87402747 21.57647664
   3.24544340 10.35119076  8.77152475
   6.49088680  0.00000000  8.77152475
   6.49088680 10.35119076 12.01696815
   3.24544340  0.00000000 12.01696815
[...]
   6.49088680  5.91496615 13.28849290
   4.51696815  4.43622461 12.01696815
   8.46480545  4.43622461 12.01696815
   3.24544340  5.91496615 13.99088680
   3.24544340  5.91496615 16.53393630
   7.76241155  4.43622461 15.26241155
   5.21936205  4.43622461 15.26241155
   6.49428110  5.91301455 17.25590936
   6.48165906  5.91696064 19.81676485
   4.53709309  4.43552651 18.52605060
   8.44513846  4.43510380 18.53858548
   3.24023637  5.91766569 20.49264574
   3.26909195  5.91602179 23.04333440
   7.73938917  4.38994023 21.80403064
   5.27673352  4.42121937 21.90489462

--------------------------------------- Iteration      FINAL  ---------------------------------------

--------------------OUTCAR has been truncated-------------------------

[...]

--------------------OUTCAR has been truncated-------------------------

  FORCE on cell =-STRESS in cart. coord.  units (eV):
  Direction    XX          YY          ZZ          XY          YZ          ZX
  Alpha Z  4723.94982  4723.94982  4723.94982
  Ewald  979246.09228996726.80034************   -75.11451   133.12736   -75.77474
  Hartree************************************   -40.33087    77.58997   -48.47355
  E(xc)   -9189.10273 -9198.51206 -9186.78167     0.17654    -0.26730     0.01251
  Local  ************************************   109.36699  -201.53114   121.26797
  n-local -5209.85857 -5113.46363 -5251.51714    -1.09144     1.86579    -0.66255
  augment  5523.40251  5491.45778  5528.67424     0.48938    -0.77775     0.10327
  Kinetic 28898.97621 28424.97667 28957.51840     6.47929    -9.95907     3.80400
  Fock        0.00000     0.00000     0.00000     0.00000     0.00000     0.00000
  Total       4.35642   -45.02143   -35.45539    -0.02464     0.04786     0.27690
  in kB       1.48892   -15.38723   -12.11779    -0.00842     0.01636     0.09464

 VOLUME and BASIS-vectors are now :
  energy-cutoff  :      600.00
  volume of cell :     4687.80
      direct lattice vectors                 reciprocal lattice vectors
    12.981773603  0.000000000  0.000000000     0.077031077  0.000000000  0.000000000
     0.000000000 11.829932295  0.000000000     0.000000000  0.084531338  0.000000000
     0.000000000  0.000000000 30.524823105     0.000000000  0.000000000  0.032760223

  length of vectors
    12.981773603 11.829932295 30.524823105     0.077031077  0.084531338  0.032760223

 FORCES acting on ions:
    Electron-Ion                     Ewald-Force                    Non-Local-Force
   0.385E+02 -.931E+02 -.163E+04   -.411E+02 0.983E+02 0.163E+04   0.263E+01 -.522E+01 -.477E+01
   0.222E+02 0.127E+03 -.253E+04   -.450E+02 -.153E+03 0.252E+04   0.228E+02 0.258E+02 0.924E+01
   0.584E+02 -.155E+02 -.398E+03   -.645E+02 0.161E+02 0.398E+03   0.614E+01 -.621E+00 0.307E+00
   -.701E+02 0.168E+02 -.432E+03   0.778E+02 -.174E+02 0.431E+03   -.769E+01 0.685E+00 0.305E+00
   -.115E+02 0.542E+01 -.391E+03   0.131E+02 -.683E+01 0.397E+03   -.160E+01 0.141E+01 -.564E+01
   -.191E+02 -.615E+02 -.397E+03   0.218E+02 0.665E+02 0.395E+03   -.270E+01 -.499E+01 0.145E+01
   -.205E+00 -.185E-01 0.381E+04   0.200E+00 0.186E-01 -.381E+04   0.113E-02 0.209E-04 0.444E+00
   -.603E-01 -.643E-01 0.399E+04   0.617E-01 0.645E-01 -.398E+04   -.569E-04 -.311E-04 -.402E+01
   -.239E+00 -.472E-01 0.195E+04   0.247E+00 0.471E-01 -.195E+04   -.125E-02 0.105E-03 -.610E-01
   -.453E+00 -.791E-01 0.194E+04   0.441E+00 0.794E-01 -.194E+04   0.292E-02 0.500E-04 0.222E+00
   -.108E+01 -.105E+00 0.181E+02   0.102E+01 0.856E-01 -.174E+02   0.100E-01 0.969E-03 -.116E+00
   -.112E+01 -.922E+00 0.253E+02   0.115E+01 0.927E+00 -.264E+02   -.602E-02 -.310E-02 0.320E+00
   -.567E+01 -.198E+01 -.187E+04   0.567E+01 0.199E+01 0.187E+04   -.311E-02 -.603E-02 0.155E+00
   -.836E+01 -.969E+01 -.191E+04   0.837E+01 0.970E+01 0.191E+04   -.102E-01 -.540E-02 -.166E+00
   -.103E+03 -.157E+02 -.372E+04   0.103E+03 0.156E+02 0.372E+04   0.209E+00 0.125E+00 -.866E-01
   -.572E+01 -.567E+01 -.379E+04   0.579E+01 0.569E+01 0.379E+04   -.656E-01 -.232E-01 0.114E+01
   -.211E+00 -.697E-01 0.381E+04   0.207E+00 0.700E-01 -.381E+04   0.115E-02 -.116E-05 0.444E+00
   -.576E-01 -.325E-01 0.399E+04   0.591E-01 0.326E-01 -.398E+04   -.587E-04 -.691E-05 -.402E+01
   -.207E+00 -.152E+00 0.195E+04   0.215E+00 0.152E+00 -.195E+04   -.120E-02 0.740E-04 -.610E-01
   -.531E+00 -.883E-01 0.194E+04   0.519E+00 0.880E-01 -.194E+04   0.271E-02 -.935E-05 0.222E+00
   -.229E+01 -.100E+01 0.166E+02   0.225E+01 0.103E+01 -.159E+02   0.732E-02 -.139E-02 -.117E+00
   -.810E+00 -.308E+00 0.239E+02   0.832E+00 0.308E+00 -.249E+02   -.545E-02 0.165E-05 0.317E+00
   -.336E+01 -.299E+01 -.187E+04   0.336E+01 0.300E+01 0.187E+04   0.386E-03 -.106E-01 0.160E+00
   -.523E+01 -.191E+01 -.193E+04   0.524E+01 0.191E+01 0.193E+04   -.172E-01 0.203E-02 -.175E+00
   -.310E+02 -.289E+02 -.377E+04   0.310E+02 0.288E+02 0.377E+04   0.600E-01 0.161E-01 -.234E+00
   -.504E+01 -.220E+01 -.380E+04   0.502E+01 0.220E+01 0.380E+04   0.252E-01 -.308E-02 0.119E+01
   -.206E+00 0.184E-01 0.381E+04   0.202E+00 -.187E-01 -.381E+04   0.113E-02 0.420E-04 0.444E+00
   -.606E-01 0.643E-01 0.399E+04   0.620E-01 -.644E-01 -.398E+04   -.784E-04 0.254E-04 -.402E+01
   -.209E+00 0.492E-01 0.195E+04   0.217E+00 -.492E-01 -.195E+04   -.129E-02 -.674E-04 -.610E-01
   -.418E+00 0.794E-01 0.194E+04   0.406E+00 -.797E-01 -.194E+04   0.282E-02 -.373E-04 0.223E+00
   -.216E+01 0.392E+00 0.160E+02   0.211E+01 -.429E+00 -.153E+02   0.849E-02 0.216E-02 -.117E+00
   -.112E+01 0.904E+00 0.248E+02   0.115E+01 -.910E+00 -.258E+02   -.633E-02 0.355E-02 0.321E+00
   -.224E+01 0.156E+01 -.187E+04   0.224E+01 -.157E+01 0.187E+04   0.156E-02 0.895E-02 0.163E+00
   -.759E+01 0.929E+01 -.191E+04   0.760E+01 -.928E+01 0.191E+04   -.721E-02 -.179E-02 -.175E+00
   -.226E+02 0.151E+02 -.377E+04   0.226E+02 -.151E+02 0.377E+04   0.545E-01 -.617E-03 -.250E+00
   -.473E+01 0.540E+01 -.380E+04   0.478E+01 -.541E+01 0.380E+04   -.534E-01 0.184E-01 0.115E+01
   -.199E+00 0.698E-01 0.381E+04   0.195E+00 -.700E-01 -.381E+04   0.112E-02 -.577E-04 0.444E+00
   -.631E-01 0.325E-01 0.399E+04   0.646E-01 -.326E-01 -.398E+04   -.703E-04 0.118E-04 -.402E+01
   -.242E+00 0.150E+00 0.195E+04   0.250E+00 -.150E+00 -.195E+04   -.132E-02 -.125E-03 -.610E-01
   -.344E+00 0.881E-01 0.194E+04   0.332E+00 -.877E-01 -.194E+04   0.267E-02 -.279E-04 0.222E+00
   -.899E+00 0.720E+00 0.176E+02   0.840E+00 -.693E+00 -.169E+02   0.108E-01 -.166E-02 -.116E+00
   -.124E+01 0.308E+00 0.262E+02   0.126E+01 -.308E+00 -.273E+02   -.724E-02 -.125E-04 0.318E+00
   -.528E+01 0.359E+01 -.187E+04   0.528E+01 -.360E+01 0.187E+04   -.240E-02 0.566E-02 0.156E+00
   -.882E+01 0.203E+01 -.190E+04   0.888E+01 -.204E+01 0.190E+04   -.578E-01 0.471E-02 -.170E+00
   -.864E+02 0.265E+02 -.373E+04   0.863E+02 -.263E+02 0.373E+04   0.135E+00 -.151E+00 -.876E-01
   -.756E+01 0.297E+01 -.379E+04   0.753E+01 -.298E+01 0.379E+04   0.353E-01 0.264E-02 0.110E+01
   0.206E+00 -.143E-01 0.381E+04   -.201E+00 0.142E-01 -.381E+04   -.144E-02 0.201E-04 0.444E+00
   0.589E-01 -.536E-01 0.399E+04   -.609E-01 0.539E-01 -.398E+04   0.565E-03 -.297E-04 -.402E+01
   0.218E+00 0.135E+00 0.195E+04   -.225E+00 -.124E+00 -.195E+04   0.989E-03 -.229E-02 -.636E-01
   0.474E+00 -.311E-01 0.194E+04   -.463E+00 0.311E-01 -.194E+04   -.232E-02 0.134E-04 0.217E+00
   0.186E+01 0.129E+00 0.156E+02   -.180E+01 -.145E+00 -.149E+02   -.132E-01 0.101E-02 -.127E+00
   0.952E+00 0.722E+00 0.306E+02   -.964E+00 -.815E+00 -.315E+02   -.988E-03 0.403E-01 0.237E+00
   0.303E+01 -.128E+02 -.185E+04   -.303E+01 0.129E+02 0.185E+04   0.379E-02 -.767E-01 0.959E-01
   0.144E+02 -.673E+01 -.192E+04   -.144E+02 0.672E+01 0.192E+04   -.185E-01 0.110E-01 -.165E+00
   0.666E+02 -.155E+02 -.374E+04   -.667E+02 0.155E+02 0.374E+04   0.591E-01 0.656E-02 -.255E+00
   0.239E+02 -.841E+02 -.370E+04   -.237E+02 0.842E+02 0.370E+04   -.180E+00 -.336E-01 0.132E+01
   0.213E+00 -.656E-01 0.381E+04   -.208E+00 0.659E-01 -.381E+04   -.148E-02 -.536E-05 0.444E+00
   0.563E-01 -.404E-01 0.399E+04   -.583E-01 0.405E-01 -.398E+04   0.573E-03 0.627E-05 -.402E+01
   0.187E+00 -.281E-01 0.195E+04   -.194E+00 0.275E-01 -.195E+04   0.904E-03 -.800E-03 -.645E-01
   0.550E+00 -.939E-01 0.194E+04   -.538E+00 0.940E-01 -.194E+04   -.231E-02 0.601E-04 0.217E+00
[...]
   -.529E+02 0.339E-01 0.117E+04   0.569E+02 -.346E-01 -.117E+04   -.362E+01 0.939E-03 0.173E+00
   0.530E+02 0.460E-01 0.117E+04   -.571E+02 -.465E-01 -.117E+04   0.363E+01 0.785E-03 0.183E+00
   0.496E+00 0.157E+00 0.516E+03   -.474E+00 -.158E+00 -.520E+03   -.293E-01 0.320E-02 0.431E+01
   0.226E+01 0.637E+00 -.511E+03   -.221E+01 -.636E+00 0.519E+03   -.699E-01 -.230E-02 -.711E+01
   -.545E+02 0.667E-01 0.159E+02   0.593E+02 -.709E-01 -.161E+02   -.518E+01 0.231E-01 0.234E+00
   0.555E+02 0.188E-01 0.153E+02   -.603E+02 -.268E-01 -.155E+02   0.524E+01 0.291E-01 0.225E+00
   0.499E+00 0.149E+01 -.610E+03   -.453E+00 -.156E+01 0.604E+03   -.454E-01 0.779E-01 0.688E+01
   0.111E+02 0.335E+01 -.160E+04   -.115E+02 -.324E+01 0.161E+04   0.382E+00 -.108E+00 -.257E+01
   -.241E+02 0.501E+01 -.112E+04   0.274E+02 -.516E+01 0.112E+04   -.334E+01 0.150E+00 0.107E+01
   0.269E+02 0.536E+01 -.112E+04   -.301E+02 -.540E+01 0.112E+04   0.323E+01 0.460E-01 0.646E+00
   0.218E+02 0.314E+01 -.180E+04   -.218E+02 -.322E+01 0.180E+04   0.451E-01 0.733E-01 -.206E+01
   0.605E+02 0.112E+02 -.272E+04   -.603E+02 -.113E+02 0.274E+04   -.170E+00 0.925E-01 -.212E+02
   -.527E+02 0.610E+02 -.222E+04   0.590E+02 -.609E+02 0.222E+04   -.625E+01 -.170E+00 -.744E+00
   0.706E+02 0.485E+02 -.229E+04   -.769E+02 -.484E+02 0.229E+04   0.637E+01 -.799E-01 -.322E+01
   -.169E+02 -.178E+02 0.879E+02   -.398E-12 -.445E-11 -.241E-10   0.170E+02 0.178E+02 -.880E+02

 POSITION                                       TOTAL-FORCE (eV/Angst)
      6.61193      6.97585     24.70224         0.007138      0.001006      0.001084
      6.99193      5.90441     23.81218         0.004650      0.002404      0.002583
      5.53077      7.07979     24.63935        -0.001503     -0.001728      0.004238
      7.98507      5.83993     23.77630         0.003105      0.004484     -0.001642
      6.91006      6.71272     25.71748         0.001068     -0.001931      0.004037
      7.11112      7.90674     24.40749         0.000312      0.002641      0.006921
      9.73633      7.39371      8.77152        -0.003312      0.000198     -3.756889
      0.00000      8.87245      8.77152         0.001151      0.000148      2.939900
      0.00000      7.39371     12.01697         0.005915     -0.000013      0.537856
      9.73633      8.87245     12.01697        -0.009375      0.000342     -0.771326
      9.73633      7.39371     15.26241        -0.047041     -0.018090      0.591348
      0.00000      8.87245     15.26241         0.015986      0.002582     -0.734078
      0.00299      7.39419     18.44122        -0.000871      0.001631     -0.001015
      9.74044      8.87360     18.60979        -0.001009     -0.001990     -0.000501
      9.74521      7.40480     21.92744        -0.000785      0.000293     -0.000098
     12.97876      8.87453     21.61786         0.003447     -0.000988     -0.000720
      9.73633     10.35119      8.77152        -0.003389      0.000306     -3.757014
      0.00000      0.00000      8.77152         0.001145      0.000100      2.939668
      0.00000     10.35119     12.01697         0.005734     -0.000052      0.537964
      9.73633      0.00000     12.01697        -0.009485     -0.000313     -0.771852
      9.73633     10.35119     15.26241        -0.032635      0.027037      0.599211
      0.00000      0.00000     15.26241         0.016169     -0.000030     -0.728288
      0.00068     10.35140     18.44383         0.000308      0.001946     -0.002909
      9.73337      0.00001     18.61889        -0.003071     -0.000423      0.001551
      9.73127     10.35156     21.96212         0.004102      0.000503      0.000476
      0.00145     11.82847     21.61696         0.002575     -0.000844     -0.001489
      9.73633      1.47874      8.77152        -0.003365     -0.000262     -3.757240
      0.00000      2.95748      8.77152         0.001174     -0.000130      2.939700
      0.00000      1.47874     12.01697         0.005974     -0.000035      0.537883
      9.73633      2.95748     12.01697        -0.009138     -0.000299     -0.772404
      9.73633      1.47874     15.26241        -0.032582     -0.034190      0.594101
      0.00000      2.95748     15.26241         0.018722     -0.002682     -0.734077
      0.00104      1.47818     18.44380        -0.000470     -0.003107     -0.002446
      9.73745      2.95564     18.60893        -0.000191      0.001744     -0.000721
      9.73018      1.47004     21.96234         0.003694     -0.001095      0.001480
     12.98128      2.95328     21.61773         0.000238      0.000283     -0.000411
      9.73633      4.43622      8.77152        -0.003279     -0.000190     -3.757153
      0.00000      5.91497      8.77152         0.001167     -0.000062      2.939884
      0.00000      4.43622     12.01697         0.006182      0.000178      0.537740
      9.73633      5.91497     12.01697        -0.009136      0.000330     -0.771739
      9.73633      4.43622     15.26241        -0.047603      0.025257      0.587389
      0.00000      5.91497     15.26241         0.017442      0.000120     -0.737778
      0.00200      4.43583     18.44112        -0.001470     -0.001936     -0.001329
      9.74552      5.91451     18.61572        -0.000839      0.000140      0.000719
      9.75257      4.41520     21.93160        -0.000336      0.000829      0.000080
      0.01046      5.91509     21.61505         0.002977      0.000713      0.003366
      3.24544      7.39371      8.77152         0.002839     -0.000106     -3.754304
      6.49089      8.87245      8.77152        -0.001570      0.000293      2.947493
      6.49089      7.39371     12.01697        -0.006131      0.008153      0.565783
      3.24544      8.87245     12.01697         0.008714      0.000090     -0.753616
      3.24544      7.39371     15.26241         0.044677     -0.014162      0.646922
      6.49089      8.87245     15.26241        -0.012509     -0.051882     -0.599466
      6.49353      7.36565     18.47913         0.000505     -0.000102      0.002258
      3.24976      8.87167     18.61902         0.001240     -0.002548     -0.001976
      3.25058      7.39494     21.96051         0.001394      0.001800     -0.001048
      6.49441      8.87403     21.57648         0.001627      0.004053      0.001777
      3.24544     10.35119      8.77152         0.002895      0.000355     -3.754579
      6.49089      0.00000      8.77152        -0.001552      0.000082      2.947233
      6.49089     10.35119     12.01697        -0.006012     -0.001357      0.565758
      3.24544      0.00000     12.01697         0.008791      0.000131     -0.753362
[...]
      6.49089      5.91497     13.28849         0.002085     -0.000672     -0.150822
      4.51697      4.43622     12.01697         0.442125      0.000295      0.055721
      8.46481      4.43622     12.01697        -0.435607      0.000260      0.058198
      3.24544      5.91497     13.99089        -0.008113      0.001753     -0.079674
      3.24544      5.91497     16.53394        -0.020138     -0.001145      0.045267
      7.76241      4.43622     15.26241        -0.402117      0.018894      0.065596
      5.21936      4.43622     15.26241         0.434789      0.021079      0.066879
      6.49428      5.91301     17.25591         0.000329     -0.000320      0.004997
      6.48166      5.91696     19.81676         0.000388      0.000136     -0.004468
      4.53709      4.43553     18.52605        -0.001324     -0.000512      0.001383
      8.44514      4.43510     18.53859         0.001419      0.002482      0.000918
      3.24024      5.91767     20.49265         0.001699     -0.000104      0.001042
      3.26909      5.91602     23.04333         0.001770     -0.001124      0.000103
      7.73939      4.38994     21.80403        -0.000999     -0.000173      0.002379
      5.27673      4.42122     21.90489         0.001828     -0.000211      0.001499
    total drift:                                0.050491     -0.004057     -0.067249

  FREE ENERGIE OF THE ION-ELECTRON SYSTEM (eV)
  free  energy   TOTEN  =     -2743.48286847 eV

  energy  without entropy=    -2743.48286847  energy(sigma->0) =    -2743.48286847

 reached required accuracy - stopping structural energy minimisation