 vasp.6.4.2 20Jul23 (build Nov 17 2023 15:39:20) complex
 executed on              LinuxNV date 2024.02.28  00:10:14
 OpenACC runtime initialized ...    4 GPUs detected

 INCAR:
   SYSTEM = Oxide-Surface
   ISMEAR = 0
   SIGMA = 0.05
   EDIFF = 1E-4
   ALGO = Normal
   ISTART = 2
   IBRION = -1
   NSW = 0
   ISYM = 0
   DIPOL = 0.5 0.5 0.5
   IDIPOL = 3
   LDIPOL = .TRUE.
   LHFCALC = .TRUE.
   HFSCREEN = 0.2
   GGA = PE
   ENCUT = 450
   PREC = Normal
   LASPH = .TRUE.
   LREAL = Auto
   ISPIN = 1
   NELM = 200
   NELMIN = 8
   NCORE = 1
   KPAR = 1
   LWAVE = .FALSE.
   LCHARG = .FALSE.

 POTCAR:    PAW_PBE N 08Apr2002
 POTCAR:    PAW_PBE H 15Jun2001
 POTCAR:    PAW_PBE Mg_pv 13Apr2007
 POTCAR:    PAW_PBE O 08Apr2002
 POTCAR:    PAW_PBE N 08Apr2002
   VRHFIN =N: s2p3

   TITEL  = PAW_PBE N 08Apr2002
   POMASS =   14.001; ZVAL   =    5.000    mass and valenz
   ENMAX  =  400.000; ENMIN  =  300.000 eV

   TITEL  = PAW_PBE H 15Jun2001
   POMASS =    1.000; ZVAL   =    1.000    mass and valenz
   ENMAX  =  250.000; ENMIN  =  200.000 eV

   TITEL  = PAW_PBE Mg_pv 13Apr2007
   POMASS =   24.305; ZVAL   =    8.000    mass and valenz
   ENMAX  =  403.929; ENMIN  =  302.947 eV

   TITEL  = PAW_PBE O 08Apr2002
   POMASS =   16.000; ZVAL   =    6.000    mass and valenz
   ENMAX  =  400.000; ENMIN  =  300.000 eV

 Optimization of the real space projectors (new method)

 maximal supplied QI-value         = 25.13
 optimisation between [QCUT,QGAM] = [ 10.81, 21.61] = [ 32.71,130.83] Ry
 Optimized for a Real-space Cutoff    1.23 Angstroem

   l    n(q)    QCUT    max X(q) W(low)/X(q) W(high)/X(q)  e(spline)
   0      8    10.807    79.467    0.34E-03    0.68E-03    0.21E-06
   0      8    10.807    66.151    0.34E-03    0.67E-03    0.21E-06
   1      7    10.807    14.030    0.45E-03    0.13E-02    0.11E-05
   1      7    10.807     9.831    0.48E-03    0.13E-02    0.11E-05
 Optimization of the real space projectors (new method)

[...]

   l    n(q)    QCUT    max X(q) W(low)/X(q) W(high)/X(q)  e(spline)
   1      7    10.771     2.974    0.18E-03    0.56E-05    0.13E-06
   1      7    10.771     4.279    0.39E-03    0.94E-04    0.28E-06
   0      8    10.771    16.381    0.27E-03    0.38E-03    0.44E-07
   0      8    10.771     5.611    0.18E-03    0.26E-03    0.32E-07
   2      7    10.771     4.652    0.12E-03    0.23E-03    0.45E-07
 Optimization of the real space projectors (new method)

 maximal supplied QI-value         = 24.76
 optimisation between [QCUT,QGAM] = [ 10.64, 21.54] = [ 31.73,129.89] Ry
 Optimized for a Real-space Cutoff    1.23 Angstroem

   l    n(q)    QCUT    max X(q) W(low)/X(q) W(high)/X(q)  e(spline)
   0      8    10.645    20.381    0.38E-03    0.60E-03    0.15E-06
   0      8    10.645    15.268    0.40E-03    0.65E-03    0.17E-06
   1      7    10.645     5.964    0.30E-03    0.63E-03    0.18E-06
   1      7    10.645     5.382    0.24E-03    0.53E-03    0.16E-06
  PAW_PBE N 08Apr2002                   :
  PAW_PBE H 15Jun2001                   :
  PAW_PBE Mg_pv 13Apr2007               :
  PAW_PBE O 08Apr2002                   :

 POSCAR:  N  H Mg  O
  positions in direct lattice
 exchange correlation table for  LEXCH =        8
   RHO(1)=    0.500       N(1)  =     2000
   RHO(2)=  100.500       N(2)  =     4000

 ion  position               nearest neighbor table
   1  0.500  0.516  0.760-   4 1.02   3 1.02   2 1.02
   2  0.500  0.635  0.768-   1 1.02
   3  0.402  0.469  0.782-   1 1.02
   4  0.598  0.469  0.782-   1 1.02
   5  0.000  0.750  0.352-  37 2.11  39 2.11  40 2.11  47 2.11  56 2.11
   6  0.250  0.000  0.352-  38 2.11  39 2.11  40 2.11  48 2.11  55 2.11
   7  0.000  0.000  0.451-  39 2.11  38 2.11  37 2.11  45 2.11  54 2.11  43 2.12
   8  0.250  0.750  0.451-  40 2.11  38 2.11  37 2.11  46 2.11  53 2.11  44 2.12
   9  0.000  0.750  0.550-  51 2.11  44 2.11  60 2.11  43 2.11  37 2.12  41 2.16
  10  0.250  1.000  0.550-  59 2.11  52 2.11  44 2.11  43 2.11  38 2.12  42 2.16
  11  0.000  1.000  0.648-  43 2.10  42 2.11  58 2.11  49 2.11  41 2.11
  12  0.250  0.750  0.648-  44 2.09  41 2.11  42 2.11  50 2.11  57 2.11
  13  0.000  0.250  0.352-  45 2.11  39 2.11  47 2.11  48 2.11  64 2.11
  14  0.250  0.500  0.352-  46 2.11  40 2.11  47 2.11  48 2.11  63 2.11
  15  0.000  0.500  0.451-  47 2.11  45 2.11  46 2.11  37 2.11  62 2.11  51 2.11
  16  0.250  0.250  0.451-  48 2.11  45 2.11  46 2.11  38 2.11  61 2.11  52 2.12
  17  1.000  0.250  0.550-  51 2.11  68 2.11  52 2.11  43 2.11  45 2.12  49 2.16
  18  0.251  0.500  0.551-  67 2.10  52 2.11  44 2.11  51 2.12  46 2.13  50 2.15
  19  0.000  0.500  0.648-  66 2.09  50 2.09  51 2.10  49 2.12  41 2.12
  20  0.250  0.250  0.648-  52 2.10  42 2.11  49 2.11  65 2.11  50 2.11
  21  0.500  0.750  0.352-  53 2.11  40 2.11  55 2.11  56 2.11  63 2.11
  22  0.750  0.000  0.352-  54 2.11  39 2.11  55 2.11  56 2.11  64 2.11
  23  0.500  0.000  0.451-  55 2.11  53 2.11  54 2.11  38 2.11  61 2.11  59 2.11
  24  0.750  0.750  0.451-  56 2.11  53 2.11  54 2.11  37 2.11  62 2.11  60 2.12
  25  0.500  0.749  0.551-  67 2.10  60 2.11  44 2.11  59 2.12  53 2.13  57 2.15
  26  0.750  1.000  0.550-  59 2.11  68 2.11  60 2.11  43 2.11  54 2.12  58 2.16
  27  0.500  0.000  0.648-  65 2.09  57 2.09  59 2.10  42 2.12  58 2.12
  28  0.750  0.750  0.648-  60 2.09  41 2.11  58 2.11  66 2.11  57 2.11
  29  0.500  0.250  0.352-  61 2.11  55 2.11  48 2.11  63 2.11  64 2.11
  30  0.750  0.500  0.352-  62 2.11  56 2.11  47 2.11  63 2.11  64 2.11
  31  0.500  0.500  0.451-  63 2.11  53 2.11  61 2.11  62 2.11  46 2.11  67 2.14
  32  0.750  0.250  0.451-  64 2.11  54 2.11  61 2.11  62 2.11  45 2.11  68 2.12
  33  0.500  0.251  0.551-  67 2.10  52 2.11  68 2.11  59 2.12  61 2.13  65 2.14
  34  0.749  0.500  0.551-  67 2.10  68 2.11  60 2.11  51 2.12  62 2.13  66 2.15
  35  0.500  0.499  0.655-  65 2.12  66 2.13  50 2.13  57 2.15  67 2.22
  36  0.750  0.250  0.648-  68 2.10  58 2.11  49 2.11  65 2.11  66 2.11
  37  0.000  0.750  0.451-   5 2.11   7 2.11   8 2.11  15 2.11  24 2.11   9 2.12
  38  0.250  0.000  0.451-   6 2.11   7 2.11   8 2.11  16 2.11  23 2.11  10 2.12
  39  0.000  0.000  0.352-   7 2.11   6 2.11   5 2.11  13 2.11  22 2.11
  40  0.250  0.750  0.352-   8 2.11   6 2.11   5 2.11  14 2.11  21 2.11
  41  1.000  0.750  0.651-  11 2.11  28 2.11  12 2.11  19 2.12   9 2.16
  42  0.249  1.000  0.651-  11 2.11  20 2.11  12 2.11  27 2.12  10 2.16
  43  1.000  1.000  0.550-  11 2.10   9 2.11  26 2.11  10 2.11  17 2.11   7 2.12
  44  0.250  0.750  0.550-  12 2.09  10 2.11   9 2.11  25 2.11  18 2.11   8 2.12
  45  0.000  0.250  0.451-  13 2.11   7 2.11  15 2.11  16 2.11  32 2.11  17 2.12
  46  0.250  0.500  0.451-  14 2.11   8 2.11  15 2.11  16 2.11  31 2.11  18 2.13
  47  0.000  0.500  0.352-  15 2.11  13 2.11  14 2.11   5 2.11  30 2.11
  48  0.250  0.250  0.352-  16 2.11  13 2.11  14 2.11   6 2.11  29 2.11
  49  0.000  0.249  0.651-  11 2.11  36 2.11  20 2.11  19 2.12  17 2.16
  50  0.247  0.500  0.651-  19 2.09  12 2.11  20 2.11  35 2.13  18 2.15
  51  0.000  0.500  0.550-  19 2.10   9 2.11  17 2.11  15 2.11  34 2.12  18 2.12
  52  0.250  0.250  0.550-  20 2.10  10 2.11  17 2.11  18 2.11  33 2.11  16 2.12
  53  0.500  0.750  0.451-  21 2.11   8 2.11  23 2.11  24 2.11  31 2.11  25 2.13
  54  0.750  0.000  0.451-  22 2.11   7 2.11  23 2.11  24 2.11  32 2.11  26 2.12
  55  0.500  0.000  0.352-  23 2.11  21 2.11  22 2.11   6 2.11  29 2.11
  56  0.750  0.750  0.352-  24 2.11  21 2.11  22 2.11   5 2.11  30 2.11
  57  0.500  0.753  0.651-  27 2.09  12 2.11  28 2.11  35 2.15  25 2.15
  58  0.751  1.000  0.651-  11 2.11  36 2.11  28 2.11  27 2.12  26 2.16
  59  0.500  1.000  0.550-  27 2.10  26 2.11  10 2.11  23 2.11  25 2.12  33 2.12
  60  0.750  0.750  0.550-  28 2.09  26 2.11   9 2.11  25 2.11  34 2.11  24 2.12
  61  0.500  0.250  0.451-  29 2.11  23 2.11  16 2.11  31 2.11  32 2.11  33 2.13
  62  0.750  0.500  0.451-  30 2.11  24 2.11  15 2.11  31 2.11  32 2.11  34 2.13
  63  0.500  0.500  0.352-  31 2.11  21 2.11  29 2.11  30 2.11  14 2.11
  64  0.750  0.250  0.352-  32 2.11  22 2.11  29 2.11  30 2.11  13 2.11
  65  0.500  0.247  0.651-  27 2.09  20 2.11  36 2.11  35 2.12  33 2.14
  66  0.753  0.500  0.651-  19 2.09  28 2.11  36 2.11  35 2.13  34 2.15
  67  0.500  0.500  0.551-  25 2.10  18 2.10  34 2.10  33 2.10  31 2.14  35 2.22
  68  0.750  0.250  0.550-  36 2.10  26 2.11  17 2.11  34 2.11  33 2.11  32 2.12

IMPORTANT INFORMATION: All symmetrisations will be switched off!
NOSYMM: (Re-)initialisation of all symmetry stuff for point group C_1.

                                     Primitive cell

  volume of cell :    1519.8199

  direct lattice vectors                    reciprocal lattice vectors
     8.440984654  0.000000000  0.000000000     0.118469591  0.000000000  0.000000000
     0.000000000  8.440984654  0.000000000     0.000000000  0.118469591  0.000000000
     0.000000000  0.000000000 21.330738491     0.000000000  0.000000000  0.046880702

  length of vectors
     8.440984654  8.440984654 21.330738491     0.118469591  0.118469591  0.046880702

  position of ions in fractional coordinates (direct lattice)
     0.500000238  0.515515988  0.760397415
     0.499999981  0.635067396  0.767938398
     0.402069061  0.469393035  0.781666100
     0.597931073  0.469393296  0.781666268
     0.000000000  0.750000000  0.351605267
     0.250000000  0.000000000  0.351605267
     0.000000000  0.000000000  0.450535089
     0.250000000  0.750000000  0.450535089
     0.000000002  0.749683926  0.549893410
     0.250263522  0.999989873  0.549908943
     0.000000001  0.999953889  0.648375512
     0.249680169  0.750035883  0.648043586
     0.000000000  0.250000000  0.351605267
     0.250000000  0.500000000  0.351605267
     0.000000000  0.500000000  0.450535089
     0.250000000  0.250000000  0.450535089
     0.999999995  0.250229246  0.549913058
     0.251264402  0.499907421  0.550551274
     0.000000017  0.499888939  0.648188279
     0.249874845  0.249731960  0.648151920
     0.500000000  0.750000000  0.351605267
     0.750000000  0.000000000  0.351605267
     0.500000000  0.000000000  0.450535089
     0.750000000  0.750000000  0.450535089
     0.499999996  0.748689127  0.550582001
     0.749736477  0.999989873  0.549908956
     0.499999995  0.000230885  0.648178485
     0.750319838  0.750035869  0.648043580
     0.500000000  0.250000000  0.351605267
     0.750000000  0.500000000  0.351605267
     0.500000000  0.500000000  0.450535089
     0.750000000  0.250000000  0.450535089
     0.499999999  0.251188744  0.550506166
     0.748735610  0.499907415  0.550551309
     0.500000034  0.498638580  0.654927800
     0.750125161  0.249731957  0.648151929
     0.000000000  0.750000000  0.450535089
     0.250000000  0.000000000  0.450535089
     0.000000000  0.000000000  0.351605267
     0.250000000  0.750000000  0.351605267
     0.999999998  0.750486788  0.651100364
     0.249403677  0.999906086  0.651133405
     0.999999997  0.999932321  0.549747566
     0.249933154  0.750096792  0.549885275
     0.000000000  0.250000000  0.450535089
     0.250000000  0.500000000  0.450535089
     0.000000000  0.500000000  0.351605267
     0.250000000  0.250000000  0.351605267
[...]
   6.33577203  8.44019186 13.88915676
   4.22049233  8.43989696 11.72497634
   6.33130268  6.33155548 11.72945910
   4.22049233  2.11024616  9.61024616
   6.33073849  4.22049233  9.61024616
   4.22049233  4.22049233  7.50000000
   6.33073849  2.11024616  7.50000000
   4.22049234  2.08771283 13.88457177
   6.35291191  4.21988143 13.88907825
   4.22049237  4.22084386 11.74772465
   6.33227030  2.10856979 11.72879100

--------------------------------------- Iteration      FINAL  ---------------------------------------

--------------------OUTCAR has been truncated-------------------------

[...]

--------------------OUTCAR has been truncated-------------------------

 VOLUME and BASIS-vectors are now :
  energy-cutoff  :      450.00
  volume of cell :     1519.82
      direct lattice vectors                 reciprocal lattice vectors
     8.440984654  0.000000000  0.000000000     0.118469591  0.000000000  0.000000000
     0.000000000  8.440984654  0.000000000     0.000000000  0.118469591  0.000000000
     0.000000000  0.000000000 21.330738491     0.000000000  0.000000000  0.046880702

  length of vectors
     8.440984654  8.440984654 21.330738491     0.118469591  0.118469591  0.046880702

 FORCES acting on ions
    electron-ion (+dipol)            ewald-force                    non-local-force                 convergence-correction
   -.698E-04 0.804E+01 -.133E+04   0.922E-04 -.130E+02 0.131E+04   -.802E-04 0.460E+01 0.228E+02   0.825E-07 0.303E-03 0.198E+00
   0.141E-03 -.701E+02 -.274E+03   -.154E-03 0.771E+02 0.274E+03   0.152E-04 -.698E+01 -.858E+00   -.106E-06 -.337E-04 0.394E-01
   0.581E+02 0.279E+02 -.279E+03   -.638E+02 -.307E+02 0.282E+03   0.577E+01 0.274E+01 -.294E+01   -.377E-04 0.901E-05 0.386E-01
   -.581E+02 0.279E+02 -.279E+03   0.638E+02 -.307E+02 0.282E+03   -.577E+01 0.274E+01 -.294E+01   0.376E-04 0.904E-05 0.386E-01
   0.528E-05 0.426E-01 0.208E+04   -.611E-05 -.498E-01 -.207E+04   0.188E-06 0.447E-02 -.679E+01   0.627E-06 -.985E-05 -.256E+00
   -.399E-01 0.147E-05 0.208E+04   0.470E-01 -.817E-04 -.207E+04   -.440E-02 0.475E-04 -.680E+01   0.675E-05 -.977E-05 -.256E+00
   0.169E-04 -.415E-01 0.712E+03   -.191E-04 0.468E-01 -.713E+03   0.806E-06 -.351E-02 0.502E+00   0.778E-06 -.236E-04 -.115E+00
   -.353E+00 0.353E+00 0.713E+03   0.422E+00 -.412E+00 -.713E+03   -.429E-01 0.363E-01 0.558E+00   0.855E-04 -.736E-04 -.115E+00
   0.107E-04 -.276E+01 -.645E+03   -.995E-05 0.267E+01 0.645E+03   -.177E-05 0.742E-01 0.435E-01   0.107E-05 -.213E-03 0.660E-01
   0.279E+01 -.236E+00 -.646E+03   -.271E+01 0.251E+00 0.646E+03   -.731E-01 -.134E-01 0.476E-01   0.241E-03 -.800E-04 0.660E-01
   -.251E-04 -.949E+00 -.201E+04   0.243E-04 0.961E+00 0.200E+04   -.298E-07 -.107E-01 0.573E+01   0.875E-06 -.342E-05 0.224E+00
   0.208E+02 -.199E+02 -.198E+04   -.210E+02 0.200E+02 0.198E+04   0.118E+00 -.575E-01 0.587E+01   0.932E-03 -.696E-03 0.223E+00
   0.560E-05 -.429E-01 0.208E+04   -.576E-05 0.499E-01 -.207E+04   -.586E-06 -.434E-02 -.680E+01   0.827E-06 0.999E-05 -.256E+00
   -.735E-01 -.308E-03 0.208E+04   0.853E-01 0.166E-03 -.207E+04   -.766E-02 0.933E-04 -.683E+01   0.697E-05 0.892E-05 -.256E+00
   0.361E-04 0.326E-01 0.713E+03   -.399E-04 -.415E-01 -.713E+03   0.223E-05 0.558E-02 0.410E+00   0.310E-06 0.249E-04 -.115E+00
   -.321E+00 -.363E+00 0.713E+03   0.367E+00 0.417E+00 -.713E+03   -.283E-01 -.338E-01 0.539E+00   0.792E-04 0.744E-04 -.115E+00
   -.136E-04 0.276E+01 -.647E+03   0.122E-04 -.267E+01 0.646E+03   0.354E-06 -.761E-01 0.593E-01   0.120E-05 0.212E-03 0.660E-01
   0.273E+01 0.233E+00 -.644E+03   -.237E+01 -.246E+00 0.644E+03   -.322E+00 0.118E-01 -.367E+00   0.326E-03 0.802E-04 0.678E-01
   -.978E-04 0.107E+01 -.200E+04   0.939E-04 -.108E+01 0.199E+04   0.259E-05 0.108E-01 0.571E+01   0.788E-06 0.683E-05 0.223E+00
   0.188E+02 0.194E+02 -.199E+04   -.188E+02 -.194E+02 0.198E+04   0.491E-01 0.650E-01 0.586E+01   0.581E-03 0.648E-03 0.223E+00
   -.543E-05 0.762E-01 0.208E+04   0.612E-05 -.881E-01 -.207E+04   -.384E-06 0.771E-02 -.683E+01   -.270E-06 -.119E-04 -.256E+00
   0.399E-01 0.223E-05 0.208E+04   -.470E-01 -.820E-04 -.207E+04   0.441E-02 0.476E-04 -.680E+01   -.715E-05 -.105E-04 -.256E+00
   -.183E-04 0.689E-02 0.713E+03   0.209E-04 -.220E-01 -.713E+03   -.672E-06 0.971E-02 0.412E+00   -.112E-05 -.314E-04 -.115E+00
   0.353E+00 0.353E+00 0.713E+03   -.422E+00 -.412E+00 -.713E+03   0.429E-01 0.363E-01 0.558E+00   -.855E-04 -.739E-04 -.115E+00
   0.102E-05 -.251E+01 -.644E+03   0.470E-06 0.215E+01 0.645E+03   -.947E-07 0.319E+00 -.231E+00   -.109E-05 -.289E-03 0.681E-01
   -.279E+01 -.236E+00 -.646E+03   0.271E+01 0.251E+00 0.646E+03   0.731E-01 -.134E-01 0.476E-01   -.240E-03 -.805E-04 0.660E-01
   0.896E-05 -.265E+01 -.200E+04   -.806E-05 0.268E+01 0.199E+04   0.120E-05 -.243E-01 0.570E+01   -.170E-05 -.319E-03 0.223E+00
   -.208E+02 -.199E+02 -.198E+04   0.210E+02 0.200E+02 0.198E+04   -.118E+00 -.575E-01 0.587E+01   -.932E-03 -.696E-03 0.223E+00
   -.514E-05 -.766E-01 0.208E+04   0.592E-05 0.883E-01 -.207E+04   -.552E-06 -.754E-02 -.682E+01   -.305E-07 0.135E-04 -.256E+00
   0.735E-01 -.308E-03 0.208E+04   -.853E-01 0.166E-03 -.207E+04   0.766E-02 0.925E-04 -.683E+01   -.776E-05 0.954E-05 -.256E+00
   -.375E-04 -.136E-01 0.711E+03   0.418E-04 0.246E-01 -.711E+03   -.228E-05 -.730E-02 0.624E+00   -.406E-06 0.266E-04 -.114E+00
   0.321E+00 -.363E+00 0.713E+03   -.367E+00 0.417E+00 -.713E+03   0.283E-01 -.338E-01 0.539E+00   -.787E-04 0.753E-04 -.115E+00
   -.744E-05 0.271E+01 -.643E+03   0.892E-05 -.235E+01 0.643E+03   -.151E-06 -.313E+00 -.424E+00   -.640E-06 0.299E-03 0.676E-01
   -.273E+01 0.233E+00 -.644E+03   0.237E+01 -.246E+00 0.644E+03   0.322E+00 0.118E-01 -.367E+00   -.327E-03 0.796E-04 0.678E-01
   0.145E-03 0.593E+01 -.192E+04   -.136E-03 -.624E+01 0.192E+04   -.668E-05 0.270E+00 0.909E+00   -.560E-06 0.686E-03 0.241E+00
   -.188E+02 0.194E+02 -.199E+04   0.188E+02 -.194E+02 0.198E+04   -.491E-01 0.650E-01 0.586E+01   -.581E-03 0.649E-03 0.223E+00
   0.170E-04 -.401E-01 0.535E+03   -.183E-04 0.181E-01 -.534E+03   0.540E-06 0.274E-01 0.350E-02   0.780E-06 -.515E-04 -.840E-01
   0.445E-01 0.544E-02 0.535E+03   -.203E-01 -.149E-02 -.534E+03   -.299E-01 -.492E-02 -.723E-02   0.559E-04 -.227E-04 -.841E-01
   0.383E-05 -.247E-02 0.156E+04   -.374E-05 0.350E-02 -.157E+04   0.929E-06 -.125E-02 0.318E+01   -.408E-06 -.739E-05 -.192E+00
   -.488E-01 0.489E-01 0.156E+04   0.596E-01 -.585E-01 -.157E+04   -.131E-01 0.116E-01 0.316E+01   0.217E-05 -.491E-05 -.192E+00
   -.399E-04 -.751E+01 -.153E+04   0.386E-04 0.736E+01 0.153E+04   0.887E-06 0.135E+00 -.460E+01   0.427E-06 -.621E-04 0.171E+00
   0.758E+01 -.130E+01 -.153E+04   -.742E+01 0.129E+01 0.154E+04   -.145E+00 0.171E-01 -.459E+01   0.110E-03 -.641E-04 0.171E+00
   0.701E-06 -.244E+00 -.481E+03   -.116E-05 0.249E+00 0.481E+03   -.619E-06 -.323E-02 0.304E+00   0.907E-06 -.278E-04 0.481E-01
   0.186E+01 -.186E+01 -.475E+03   -.185E+01 0.184E+01 0.474E+03   -.151E-01 0.251E-01 0.516E+00   0.303E-03 -.241E-03 0.486E-01
   0.131E-04 0.330E-01 0.534E+03   -.140E-04 -.656E-02 -.534E+03   -.118E-05 -.325E-01 -.132E-01   0.101E-05 0.486E-04 -.841E-01
   -.107E+00 -.135E-01 0.533E+03   0.586E-01 0.150E-01 -.533E+03   0.545E-01 -.138E-02 -.149E+00   0.852E-04 0.190E-04 -.839E-01
   0.522E-05 0.257E-02 0.156E+04   -.566E-05 -.352E-02 -.157E+04   -.318E-06 0.114E-02 0.316E+01   0.987E-06 0.742E-05 -.192E+00
   -.443E-01 -.487E-01 0.156E+04   0.529E-01 0.585E-01 -.157E+04   -.104E-01 -.118E-01 0.316E+01   0.397E-05 0.543E-05 -.192E+00
   -.401E-04 0.741E+01 -.153E+04   0.380E-04 -.726E+01 0.154E+04   0.337E-06 -.135E+00 -.458E+01   0.126E-05 0.611E-04 0.171E+00
   0.256E+02 0.180E+01 -.149E+04   -.248E+02 -.179E+01 0.150E+04   -.668E+00 -.115E-01 -.450E+01   0.179E-02 0.106E-03 0.171E+00
   -.573E-05 0.247E+00 -.475E+03   0.521E-05 -.251E+00 0.474E+03   -.244E-06 0.828E-03 0.385E+00   0.106E-05 0.308E-04 0.483E-01
   0.194E+01 0.187E+01 -.476E+03   -.191E+01 -.184E+01 0.475E+03   -.334E-01 -.280E-01 0.461E+00   0.229E-03 0.245E-03 0.485E-01
   -.179E-04 0.115E+00 0.533E+03   0.180E-04 -.639E-01 -.533E+03   -.118E-05 -.570E-01 -.157E+00   -.127E-07 -.736E-04 -.839E-01
   -.445E-01 0.544E-02 0.535E+03   0.203E-01 -.150E-02 -.534E+03   0.299E-01 -.492E-02 -.724E-02   -.552E-04 -.234E-04 -.841E-01
   -.338E-05 0.221E-02 0.156E+04   0.379E-05 -.332E-02 -.157E+04   0.136E-05 0.137E-02 0.316E+01   -.834E-06 -.871E-05 -.192E+00
   0.488E-01 0.489E-01 0.156E+04   -.596E-01 -.585E-01 -.157E+04   0.131E-01 0.116E-01 0.316E+01   -.260E-05 -.544E-05 -.192E+00
   0.273E-04 -.259E+02 -.149E+04   -.254E-04 0.250E+02 0.150E+04   -.110E-05 0.804E+00 -.435E+01   -.307E-06 -.187E-02 0.171E+00
   -.758E+01 -.130E+01 -.153E+04   0.742E+01 0.129E+01 0.154E+04   0.145E+00 0.171E-01 -.459E+01   -.109E-03 -.649E-04 0.171E+00
   -.105E-04 -.105E+00 -.475E+03   0.107E-04 0.109E+00 0.474E+03   0.380E-06 -.552E-02 0.389E+00   -.579E-06 -.107E-03 0.483E-01
   -.186E+01 -.186E+01 -.475E+03   0.185E+01 0.184E+01 0.474E+03   0.151E-01 0.251E-01 0.516E+00   -.303E-03 -.241E-03 0.486E-01
   -.166E-04 -.126E+00 0.533E+03   0.174E-04 0.798E-01 -.533E+03   -.252E-05 0.509E-01 -.135E+00   0.573E-08 0.825E-04 -.839E-01
   0.107E+00 -.135E-01 0.533E+03   -.586E-01 0.150E-01 -.533E+03   -.545E-01 -.138E-02 -.149E+00   -.843E-04 0.183E-04 -.839E-01
   -.529E-05 -.196E-02 0.156E+04   0.574E-05 0.323E-02 -.157E+04   -.119E-05 -.155E-02 0.314E+01   0.869E-06 0.268E-05 -.192E+00
   0.443E-01 -.487E-01 0.156E+04   -.529E-01 0.585E-01 -.157E+04   0.104E-01 -.118E-01 0.316E+01   -.321E-05 0.564E-05 -.192E+00
   0.418E-04 0.249E+02 -.150E+04   -.407E-04 -.243E+02 0.150E+04   -.580E-06 -.565E+00 -.455E+01   -.567E-06 0.165E-02 0.171E+00
   -.256E+02 0.180E+01 -.149E+04   0.248E+02 -.179E+01 0.150E+04   0.668E+00 -.115E-01 -.450E+01   -.179E-02 0.106E-03 0.171E+00
   0.243E-05 -.502E-01 -.489E+03   -.150E-05 0.439E-01 0.490E+03   0.372E-07 0.455E-02 -.105E+01   -.467E-06 0.101E-03 0.503E-01
   -.194E+01 0.187E+01 -.476E+03   0.191E+01 -.184E+01 0.475E+03   0.334E-01 -.280E-01 0.461E+00   -.226E-03 0.245E-03 0.485E-01
   0.977E-04 -.402E+01 0.541E+01   0.213E-12 -.423E-12 -.119E-11   -.108E-03 0.360E+01 -.355E+01   0.102E-04 0.433E-03 -.767E+00

 POSITION                                       TOTAL-FORCE (eV/Angst)
      4.22049      4.35146     16.21984        -0.000064      0.079324      0.366341
      4.22049      5.36059     16.38069         0.000003     -0.313019     -0.059948
      3.39386      3.96214     16.67352         0.253910      0.117395     -0.146586
      5.04713      3.96214     16.67352        -0.253855      0.117371     -0.146561
      0.00000      6.33074      7.50000         0.000000     -0.001987      0.490994
      2.11025      0.00000      7.50000         0.002078      0.000072      0.491866
      0.00000      0.00000      9.61025        -0.000000      0.001433      0.006566
      2.11025      6.33074      9.61025         0.019707     -0.017350      0.016911
      0.00000      6.32807     11.72963        -0.000000     -0.004037      0.032518
      2.11247      8.44090     11.72996         0.003038      0.000299      0.032114
      0.00000      8.44060     13.83033         0.000000      0.000473     -0.115527
      2.10755      6.33104     13.82325        -0.007181      0.004598     -0.141723
      0.00000      2.11025      7.50000         0.000000      0.002150      0.492539
      2.11025      4.22049      7.50000         0.003075      0.000082      0.500975
      0.00000      4.22049      9.61025        -0.000001     -0.002416      0.042004
      2.11025      2.11025      9.61025         0.013951      0.016081      0.017804
      8.44098      2.11218     11.73005         0.000000      0.002536      0.031902
      2.12092      4.21971     11.74367         0.004444      0.000003      0.040226
      0.00000      4.21955     13.82633        -0.000000     -0.000685     -0.130620
      2.10919      2.10798     13.82556        -0.003778     -0.005690     -0.137514
      4.22049      6.33074      7.50000         0.000000     -0.002987      0.501980
      6.33074      0.00000      7.50000        -0.002078      0.000072      0.491867
      4.22049      0.00000      9.61025         0.000001     -0.004011      0.041659
      6.33074      6.33074      9.61025        -0.019706     -0.017350      0.016911
      4.22049      6.31967     11.74432         0.000000     -0.003363      0.039995
      6.32851      8.44090     11.72996        -0.003038      0.000299      0.032125
      4.22049      0.00195     13.82613         0.000001      0.004918     -0.129953
      6.33344      6.33104     13.82325         0.007181      0.004600     -0.141741
      4.22049      2.11025      7.50000         0.000000      0.003188      0.499936
      6.33074      4.22049      7.50000        -0.003075      0.000082      0.500975
      4.22049      4.22049      9.61025         0.000001      0.002849      0.062622
      6.33074      2.11025      9.61025        -0.013951      0.016082      0.017805
      4.22049      2.12028     11.74270         0.000001      0.004131      0.041631
      6.32007      4.21971     11.74367        -0.004443      0.000003      0.040287
      4.22049      4.20900     13.97009         0.000001      0.000715     -0.017498
      6.33179      2.10798     13.82556         0.003778     -0.005691     -0.137521
      0.00000      6.33074      9.61025         0.000000      0.010056      0.080224
      2.11025      0.00000      9.61025        -0.010592     -0.001681      0.077926
      0.00000      0.00000      7.50000         0.000001     -0.000318     -0.441347
      2.11025      6.33074      7.50000        -0.004395      0.003978     -0.443988
      8.44098      6.33485     13.88845         0.000000      0.001381     -0.094740
      2.10521      8.44019     13.88916        -0.000660      0.002520     -0.095285
      8.44098      8.44041     11.72652        -0.000000      0.000764      0.022249
      2.10968      6.33156     11.72946        -0.001968      0.001364      0.022532
      0.00000      2.11025      9.61025        -0.000001     -0.011285      0.076178
      2.11025      4.22049      9.61025         0.014620      0.000034      0.094688
      0.00000      4.22049      7.50000         0.000000      0.000487     -0.445646
      2.11025      2.11025      7.50000        -0.003472     -0.003849     -0.444511
      0.00000      2.10487     13.88974        -0.000000     -0.001304     -0.094362
      2.08807      4.21988     13.88908        -0.034357     -0.001387     -0.108043
      0.00000      4.22031     11.72488         0.000000     -0.002504      0.024921
      2.10871      2.10857     11.72879        -0.004057     -0.003501      0.020862
      4.22049      6.33074      9.61025        -0.000001     -0.015202      0.094215
      6.33074      0.00000      9.61025         0.010592     -0.001680      0.077928
      4.22049      0.00000      7.50000         0.000001      0.000580     -0.445540
      6.33074      6.33074      7.50000         0.004397      0.003978     -0.443988
      4.22049      6.35537     13.89666         0.000000      0.040190     -0.097207
      6.33577      8.44019     13.88916         0.000659      0.002521     -0.095288
      4.22049      8.43990     11.72498         0.000000     -0.001033      0.024409
      6.33130      6.33156     11.72946         0.001968      0.001365      0.022531
      4.22049      2.11025      9.61025        -0.000002      0.013753      0.095122
      6.33074      4.22049      9.61025        -0.014620      0.000035      0.094689
      4.22049      4.22049      7.50000         0.000000     -0.000416     -0.452907
      6.33074      2.11025      7.50000         0.003470     -0.003850     -0.444510
      4.22049      2.08771     13.88457         0.000000     -0.029418     -0.108062
      6.35291      4.21988     13.88908         0.034357     -0.001387     -0.108051
      4.22049      4.22084     11.74772         0.000001     -0.000862     -0.031219
      6.33227      2.10857     11.72879         0.004055     -0.003500      0.020860
    total drift:                               -0.000010     -0.007306     -0.064236

  FREE ENERGIE OF THE ION-ELECTRON SYSTEM (eV)
  free  energy   TOTEN  =      -469.76810340 eV

  energy  without entropy=     -469.76810340  energy(sigma->0) =     -469.76810340

     |            E. Caldeweyher, S. Ehlert & S. Grimme          |
     |          Mulliken Center for Theoretical Chemistry        |
     |                    University of Bonn                     |

Rational (Becke-Johnson) damping: hse06-D4-ATM
  s6         1.0000
  s8         1.1953
  s9         1.0000
  a1         0.3866
  a2         5.1913
 alp        16.0000

Dispersion energy:      -2.7355740450389E-01 Eh