 vasp.6.3.0 20Jan22 (build Apr  1 2022 16:44:48) complex
 executed on        HPECrayEX_GCC date 2023.02.07  23:01:35

 INCAR:
   SYSTEM = MgO-rocksalt
   ISMEAR = 0
   SIGMA = 0.05
   EDIFF = 1E-7
   ALGO = ALL
   ISTART = 0
   IBRION = 5
   POTIM = 0.01
   NFREE = 2
   ISYM = 0
   DIPOL = 0.5 0.5 0.5
   IDIPOL = 3
   LDIPOL = .TRUE.
   GGA = RE
   AGGAC = 0.0
   LUSE_VDW = .TRUE.
   LASPH = .TRUE.
   ENCUT = 600
   PREC = Accurate
   LASPH = .TRUE.
   LREAL = .FALSE.
   ISPIN = 1
   NELM = 200
   NELMIN = 8
   NCORE = 8
   KPAR = 1
   LWAVE = .FALSE.
   LCHARG = .FALSE.

 POTCAR:    PAW_PBE C 08Apr2002
 POTCAR:    PAW_PBE H 15Jun2001
 POTCAR:    PAW_PBE Mg_pv 13Apr2007
 POTCAR:    PAW_PBE O 08Apr2002
|               ----> ADVICE to this user running VASP <----                  |
|     You have switched on vdW-DFT.                                           |
|     This routine was written and supplied by Jiri Klimes. We recommend      |
|     that you carefully read and cite the following publications:            |
|       J. Klimes, D.R. Bowler, A. Michelides                                 |
|          J. Phys.: Cond Matt. 22 022201 (2010)                              |
|       J. Klimes, D.R. Bowler, A. Michelides                                 |
|          Phys. Rev. B. 83, 195131 (2011)                                    |
|     and references therein.                                                 |

   TITEL  = PAW_PBE C 08Apr2002
   POMASS =   12.011; ZVAL   =    4.000    mass and valenz
   ENMAX  =  400.000; ENMIN  =  300.000 eV

   TITEL  = PAW_PBE H 15Jun2001
   POMASS =    1.000; ZVAL   =    1.000    mass and valenz
   ENMAX  =  250.000; ENMIN  =  200.000 eV

   TITEL  = PAW_PBE Mg_pv 13Apr2007
   POMASS =   24.305; ZVAL   =    8.000    mass and valenz
   ENMAX  =  403.929; ENMIN  =  302.947 eV

   TITEL  = PAW_PBE O 08Apr2002
   POMASS =   16.000; ZVAL   =    6.000    mass and valenz
   ENMAX  =  400.000; ENMIN  =  300.000 eV

  PAW_PBE C 08Apr2002                   :
  PAW_PBE H 15Jun2001                   :
  PAW_PBE Mg_pv 13Apr2007               :
  PAW_PBE O 08Apr2002                   :

 POSCAR:  C  H Mg  O
  positions in direct lattice
 exchange correlation table for  LEXCH =       40
   RHO(1)=    0.500       N(1)  =     2000
   RHO(2)=  100.500       N(2)  =     4000

 ion  position               nearest neighbor table
   1  0.500  0.500  0.813-   6 1.10   5 1.10   7 1.10   8 1.10
   2  0.000  0.500  0.813-  10 1.10   9 1.10  12 1.10  11 1.10
   3  0.500  1.000  0.813-  14 1.10  13 1.10  16 1.10  15 1.10
   4  0.000  1.000  0.813-  18 1.10  17 1.10  19 1.10  20 1.10
   5  0.500  0.605  0.842-   1 1.10
   6  0.500  0.395  0.842-   1 1.10
   7  0.605  0.500  0.784-   1 1.10
   8  0.395  0.500  0.784-   1 1.10
   9  0.895  0.500  0.842-   2 1.10
  10  0.105  0.500  0.842-   2 1.10
  11  1.000  0.605  0.784-   2 1.10
  12  1.000  0.395  0.784-   2 1.10
  13  0.395  1.000  0.842-   3 1.10
  14  0.605  1.000  0.842-   3 1.10
  15  0.500  0.105  0.784-   3 1.10
  16  0.500  0.895  0.784-   3 1.10
  17  1.000  0.105  0.842-   4 1.10
  18  1.000  0.895  0.842-   4 1.10
  19  0.105  0.000  0.784-   4 1.10
  20  0.895  0.000  0.784-   4 1.10
  21  0.000  0.750  0.350-  53 2.14  55 2.14  56 2.14  63 2.14  72 2.14
  22  0.250  0.000  0.350-  54 2.14  55 2.14  56 2.14  64 2.14  71 2.14
  23  0.000  0.000  0.450-  55 2.14  54 2.14  53 2.14  61 2.14  70 2.14  59 2.14
  24  0.250  0.750  0.450-  56 2.14  54 2.14  53 2.14  62 2.14  69 2.14  60 2.14
  25  0.000  0.750  0.550-  67 2.14  59 2.14  60 2.14  76 2.14  53 2.15  57 2.16
  26  0.250  1.000  0.550-  75 2.14  60 2.14  68 2.14  59 2.14  54 2.15  58 2.16
  27  0.000  1.000  0.650-  59 2.13  58 2.14  74 2.14  65 2.14  57 2.14
  28  0.250  0.750  0.649-  60 2.13  57 2.14  58 2.14  66 2.14  73 2.14
  29  0.000  0.250  0.350-  61 2.14  55 2.14  63 2.14  64 2.14  80 2.14
  30  0.250  0.500  0.350-  62 2.14  56 2.14  63 2.14  64 2.14  79 2.14
  31  0.000  0.500  0.450-  63 2.14  61 2.14  62 2.14  53 2.14  78 2.14  67 2.14
  32  0.250  0.250  0.450-  64 2.14  61 2.14  62 2.14  54 2.14  77 2.14  68 2.14
  33  1.000  0.250  0.550-  67 2.14  59 2.14  68 2.14  84 2.14  61 2.15  65 2.16
  34  0.250  0.500  0.550-  83 2.14  60 2.14  68 2.14  67 2.14  62 2.15  66 2.16
  35  1.000  0.500  0.650-  67 2.13  65 2.14  57 2.14  82 2.14  66 2.14
  36  0.250  0.250  0.649-  68 2.13  65 2.14  58 2.14  66 2.14  81 2.14
  37  0.500  0.750  0.350-  69 2.14  56 2.14  71 2.14  72 2.14  79 2.14
  38  0.750  0.000  0.350-  70 2.14  55 2.14  71 2.14  72 2.14  80 2.14
  39  0.500  0.000  0.450-  71 2.14  69 2.14  70 2.14  54 2.14  77 2.14  75 2.14
  40  0.750  0.750  0.450-  72 2.14  69 2.14  70 2.14  53 2.14  78 2.14  76 2.14
  41  0.500  0.750  0.550-  76 2.14  60 2.14  83 2.14  75 2.14  69 2.15  73 2.16
  42  0.750  1.000  0.550-  75 2.14  76 2.14  84 2.14  59 2.14  70 2.15  74 2.16
  43  0.500  1.000  0.650-  75 2.13  81 2.14  73 2.14  58 2.14  74 2.14
  44  0.750  0.750  0.649-  76 2.13  57 2.14  74 2.14  82 2.14  73 2.14
  45  0.500  0.250  0.350-  77 2.14  71 2.14  64 2.14  79 2.14  80 2.14
  46  0.750  0.500  0.350-  78 2.14  72 2.14  63 2.14  79 2.14  80 2.14
  47  0.500  0.500  0.450-  79 2.14  69 2.14  77 2.14  78 2.14  62 2.14  83 2.14
  48  0.750  0.250  0.450-  80 2.14  70 2.14  77 2.14  78 2.14  61 2.14  84 2.14
  49  0.500  0.250  0.550-  84 2.14  68 2.14  83 2.14  75 2.14  77 2.15  81 2.16
  50  0.750  0.500  0.550-  83 2.14  76 2.14  84 2.14  67 2.14  78 2.15  82 2.16
  51  0.500  0.500  0.650-  83 2.13  82 2.14  66 2.14  81 2.14  73 2.14
  52  0.750  0.250  0.649-  84 2.13  65 2.14  74 2.14  82 2.14  81 2.14
  53  0.000  0.750  0.450-  21 2.14  23 2.14  24 2.14  31 2.14  40 2.14  25 2.15
  54  0.250  0.000  0.450-  22 2.14  23 2.14  24 2.14  32 2.14  39 2.14  26 2.15
  55  0.000  0.000  0.350-  23 2.14  22 2.14  21 2.14  29 2.14  38 2.14
  56  0.250  0.750  0.350-  24 2.14  22 2.14  21 2.14  30 2.14  37 2.14
  57  0.000  0.750  0.651-  35 2.14  28 2.14  44 2.14  27 2.14  25 2.16
  58  0.250  1.000  0.652-  27 2.14  36 2.14  28 2.14  43 2.14  26 2.16
  59  0.000  1.000  0.550-  27 2.13  26 2.14  42 2.14  25 2.14  33 2.14  23 2.14
  60  0.250  0.750  0.550-  28 2.13  41 2.14  34 2.14  26 2.14  25 2.14  24 2.14
[...]
  70  0.750  0.000  0.450-  38 2.14  23 2.14  39 2.14  40 2.14  48 2.14  42 2.15
  71  0.500  0.000  0.350-  39 2.14  37 2.14  38 2.14  22 2.14  45 2.14
  72  0.750  0.750  0.350-  40 2.14  37 2.14  38 2.14  21 2.14  46 2.14
  73  0.500  0.750  0.652-  43 2.14  51 2.14  44 2.14  28 2.14  41 2.16
  74  0.750  1.000  0.652-  27 2.14  44 2.14  52 2.14  43 2.14  42 2.16
  75  0.500  1.000  0.550-  43 2.13  42 2.14  26 2.14  49 2.14  41 2.14  39 2.14
  76  0.750  0.750  0.550-  44 2.13  41 2.14  50 2.14  42 2.14  25 2.14  40 2.14
  77  0.500  0.250  0.450-  45 2.14  39 2.14  32 2.14  47 2.14  48 2.14  49 2.15
  78  0.750  0.500  0.450-  46 2.14  40 2.14  31 2.14  47 2.14  48 2.14  50 2.15
  79  0.500  0.500  0.350-  47 2.14  37 2.14  45 2.14  46 2.14  30 2.14
  80  0.750  0.250  0.350-  48 2.14  38 2.14  45 2.14  46 2.14  29 2.14
  81  0.500  0.250  0.652-  43 2.14  51 2.14  52 2.14  36 2.14  49 2.16
  82  0.750  0.500  0.652-  35 2.14  51 2.14  52 2.14  44 2.14  50 2.16
  83  0.500  0.500  0.550-  51 2.13  50 2.14  34 2.14  41 2.14  49 2.14  47 2.14
  84  0.750  0.250  0.550-  52 2.13  49 2.14  50 2.14  42 2.14  33 2.14  48 2.14

IMPORTANT INFORMATION: All symmetrisations will be switched off!
NOSYMM: (Re-)initialisation of all symmetry stuff for point group C_1.

                                     Primitive cell

  volume of cell :    1563.6717

  direct lattice vectors                    reciprocal lattice vectors
     8.546113626  0.000000000  0.000000000     0.117012252  0.000000000  0.000000000
     0.000000000  8.546113626  0.000000000     0.000000000  0.117012252  0.000000000
     0.000000000  0.000000000 21.409585219     0.000000000  0.000000000  0.046708051

  length of vectors
     8.546113626  8.546113626 21.409585219     0.117012252  0.117012252  0.046708051

  position of ions in fractional coordinates (direct lattice)
     0.499999992  0.499995173  0.812957077
     0.000004571  0.499999654  0.812956974
     0.500004628  0.999999675  0.812957779
     0.000000017  0.999994796  0.812957654
     0.499999965  0.604786728  0.842403149
     0.499999936  0.395217980  0.842401828
     0.605043634  0.500000410  0.783604678
     0.394955776  0.500000441  0.783604753
     0.895212616  0.499999767  0.842400949
     0.104782235  0.499999808  0.842399686
     0.999999371  0.605048982  0.783605576
     0.999999411  0.394951332  0.783605494
     0.395219729  0.999999770  0.842405511
     0.604774872  0.999999781  0.842404222
     0.499999328  0.105045767  0.783602828
     0.499999336  0.894954544  0.783602726
     0.999999914  0.104790116  0.842399663
     0.999999986  0.895214993  0.842398281
     0.105049248  0.000000470  0.783605837
     0.894950058  0.000000401  0.783605915
     0.000000000  0.750000000  0.350310383
     0.250000000  0.000000000  0.350310383
     0.000000000  0.000000000  0.450103461
     0.250000000  0.750000000  0.450103461
     0.000000007  0.749980482  0.550432276
     0.250008357  0.999999967  0.550447732
     0.000000003  0.999999999  0.649617973
     0.249982409  0.750015029  0.649414934
     0.000000000  0.250000000  0.350310383
     0.250000000  0.500000000  0.350310383
     0.000000000  0.500000000  0.450103461
     0.250000000  0.250000000  0.450103461
     0.999999997  0.250019482  0.550432262
     0.250037239  0.499999992  0.550469826
     0.999999967  0.499999963  0.649654673
     0.249982376  0.249984939  0.649414905
     0.500000000  0.750000000  0.350310383
     0.750000000  0.000000000  0.350310383
     0.500000000  0.000000000  0.450103461
     0.750000000  0.750000000  0.450103461
     0.500000002  0.749987509  0.550474791
     0.749991634  0.999999961  0.550447738
     0.499999989  0.999999990  0.649718202
     0.750017586  0.750014997  0.649414946
     0.500000000  0.250000000  0.350310383
     0.750000000  0.500000000  0.350310383
     0.500000000  0.500000000  0.450103461
     0.750000000  0.250000000  0.450103461
     0.500000001  0.250012460  0.550474776
     0.749962768  0.500000003  0.550469829
     0.500000003  0.499999971  0.649766482
     0.750017607  0.249984948  0.649414911
     0.000000000  0.750000000  0.450103461
     0.250000000  0.000000000  0.450103461
     0.000000000  0.000000000  0.350310383
     0.250000000  0.750000000  0.350310383
     0.000000013  0.749988030  0.651497110
     0.249925099  0.999999986  0.651512329
     0.000000012  0.999999968  0.550128539
     0.250035447  0.749992776  0.550136681
[...]
     0.750000000  0.000000000  0.450103461
     0.500000000  0.000000000  0.350310383
     0.750000000  0.750000000  0.350310383
     0.500000004  0.750030262  0.651595830
     0.750074884  0.999999972  0.651512336
     0.500000004  0.999999985  0.550212568
     0.749964548  0.749992777  0.550136690
     0.500000000  0.250000000  0.450103461
     0.750000000  0.500000000  0.450103461
     0.500000000  0.500000000  0.350310383
     0.750000000  0.250000000  0.350310383
[...]

[...]

  56 f  =    1.537685 THz     9.661560 2PiTHz   51.291651 cm-1     6.359351 meV
             X         Y         Z           dx          dy          dz
      4.273057  4.273016 17.405074    -0.135816    0.053923   -0.006703
      0.000039  4.273054 17.405072     0.584260   -0.015642   -0.021500
      4.273096  8.546111 17.405089     0.424269   -0.019835   -0.017227
      0.000000  8.546069 17.405086    -0.064986    0.023057   -0.017255
      4.273057  5.168576 18.035502    -0.124642    0.004394    0.013886
      4.273056  3.377578 18.035474    -0.019365    0.004413   -0.017760
      5.170772  4.273060 16.776651    -0.007333    0.079096    0.043277
      3.375337  4.273061 16.776653    -0.007374   -0.025633   -0.047068
      7.650589  4.273055 18.035455     0.044335    0.091937   -0.182575
      0.895481  4.273055 18.035428     0.044256   -0.107729    0.170238
      8.546108  5.170817 16.776670     0.392545   -0.001142   -0.001406
      8.546109  3.375299 16.776669     0.193823   -0.001266   -0.010825
      3.377593  8.546112 18.035553     0.043868    0.055634   -0.116426
      5.168475  8.546112 18.035525     0.043827   -0.075419    0.106514
      4.273051  0.897733 16.776612     0.266415   -0.001601    0.000893
      4.273051  7.648383 16.776609     0.135946   -0.001677   -0.010722
      8.546113  0.895548 18.035427    -0.097111    0.001435    0.002401
      8.546114  7.650609 18.035398     0.008131    0.001426   -0.012412
      0.897763  0.000004 16.776676     0.006008    0.064324    0.030218
      7.648345  0.000003 16.776678     0.005959   -0.040566   -0.040084
      0.000000  6.409585  7.500000            0           0           0
      2.136528  0.000000  7.500000            0           0           0
      0.000000  0.000000  9.636528            0           0           0
      2.136528  6.409585  9.636528            0           0           0
      0.000000  6.409418 11.784527            0           0           0
      2.136600  8.546113 11.784858            0           0           0
      0.000000  8.546114 13.908051            0           0           0
      2.136378  6.409714 13.903704            0           0           0
      0.000000  2.136528  7.500000            0           0           0
      2.136528  4.273057  7.500000            0           0           0
      0.000000  4.273057  9.636528            0           0           0
      2.136528  2.136528  9.636528            0           0           0
      8.546114  2.136695 11.784526            0           0           0
      2.136847  4.273057 11.785331            0           0           0
      8.546113  4.273056 13.908837            0           0           0
      2.136378  2.136400 13.903704            0           0           0
      4.273057  6.409585  7.500000            0           0           0
      6.409585  0.000000  7.500000            0           0           0
      4.273057  0.000000  9.636528            0           0           0
      6.409585  6.409585  9.636528            0           0           0
      4.273057  6.409478 11.785437            0           0           0
      6.409514  8.546113 11.784858            0           0           0
      4.273057  8.546114 13.910197            0           0           0
      6.409736  6.409713 13.903705            0           0           0
      4.273057  2.136528  7.500000            0           0           0
      6.409585  4.273057  7.500000            0           0           0
      4.273057  4.273057  9.636528            0           0           0
      6.409585  2.136528  9.636528            0           0           0
      4.273057  2.136635 11.785437            0           0           0
      6.409267  4.273057 11.785331            0           0           0
      4.273057  4.273057 13.911231            0           0           0
      6.409736  2.136400 13.903704            0           0           0
      0.000000  6.409585  9.636528            0           0           0
      2.136528  0.000000  9.636528            0           0           0
      0.000000  0.000000  7.500000            0           0           0
      2.136528  6.409585  7.500000            0           0           0
      0.000000  6.409483 13.948283            0           0           0
      2.135888  8.546114 13.948609            0           0           0
      0.000000  8.546113 11.778024            0           0           0
      2.136831  6.409523 11.778198            0           0           0
[...]
      6.409585  0.000000  9.636528            0           0           0
      4.273057  0.000000  7.500000            0           0           0
      6.409585  6.409585  7.500000            0           0           0
      4.273057  6.409844 13.950396            0           0           0
      6.410225  8.546113 13.948609            0           0           0
      4.273057  8.546113 11.779823            0           0           0
      6.409282  6.409523 11.778198            0           0           0
      4.273057  2.136528  9.636528            0           0           0
      6.409585  4.273057  9.636528            0           0           0
      4.273057  4.273057  7.500000            0           0           0
      6.409585  2.136528  7.500000            0           0           0
      4.273057  2.136270 13.950396            0           0           0
      6.409627  4.273057 13.949467            0           0           0
      4.273057  4.273057 11.780192            0           0           0
      6.409282  2.136590 11.778198            0           0           0

  57 f/i=    0.320353 THz     2.012837 2PiTHz   10.685824 cm-1     1.324873 meV
             X         Y         Z           dx          dy          dz
      4.273057  4.273016 17.405074    -0.395548    0.110030   -0.000970
      0.000039  4.273054 17.405072    -0.137717    0.243575   -0.004167
      4.273096  8.546111 17.405089    -0.221589    0.277785   -0.004469
      0.000000  8.546069 17.405086    -0.534784    0.076805   -0.000837
      4.273057  5.168576 18.035502    -0.145717    0.074641   -0.061205
      4.273056  3.377578 18.035474    -0.129502    0.074676    0.060743
      5.170772  4.273060 16.776651    -0.090128   -0.003081    0.033761
      3.375337  4.273061 16.776653    -0.090132   -0.019246   -0.034330
      7.650589  4.273055 18.035455    -0.100218    0.086906   -0.087134
      0.895481  4.273055 18.035428    -0.100226    0.080867    0.084765
      8.546108  5.170817 16.776670     0.023811    0.056364   -0.020927
      8.546109  3.375299 16.776669     0.017783    0.056331    0.018571
      3.377593  8.546112 18.035553    -0.133436    0.094896   -0.100026
      5.168475  8.546112 18.035525    -0.133452    0.094872    0.097484
      4.273051  0.897733 16.776612     0.005591    0.064996   -0.022765
      4.273051  7.648383 16.776609     0.005455    0.064975    0.020223
      8.546113  0.895548 18.035427    -0.199127    0.063725   -0.059272
      8.546114  7.650609 18.035398    -0.173710    0.063738    0.058873
      0.897763  0.000004 16.776676    -0.121525   -0.006761    0.046288
      7.648345  0.000003 16.776678    -0.121512   -0.032103   -0.046798
      0.000000  6.409585  7.500000            0           0           0
      2.136528  0.000000  7.500000            0           0           0
      0.000000  0.000000  9.636528            0           0           0
      2.136528  6.409585  9.636528            0           0           0
      0.000000  6.409418 11.784527            0           0           0
      2.136600  8.546113 11.784858            0           0           0
      0.000000  8.546114 13.908051            0           0           0
      2.136378  6.409714 13.903704            0           0           0
      0.000000  2.136528  7.500000            0           0           0
      2.136528  4.273057  7.500000            0           0           0
      0.000000  4.273057  9.636528            0           0           0
      2.136528  2.136528  9.636528            0           0           0
      8.546114  2.136695 11.784526            0           0           0
      2.136847  4.273057 11.785331            0           0           0
      8.546113  4.273056 13.908837            0           0           0
      2.136378  2.136400 13.903704            0           0           0
      4.273057  6.409585  7.500000            0           0           0
      6.409585  0.000000  7.500000            0           0           0
      4.273057  0.000000  9.636528            0           0           0
      6.409585  6.409585  9.636528            0           0           0
      4.273057  6.409478 11.785437            0           0           0
      6.409514  8.546113 11.784858            0           0           0
      4.273057  8.546114 13.910197            0           0           0
      6.409736  6.409713 13.903705            0           0           0
      4.273057  2.136528  7.500000            0           0           0
      6.409585  4.273057  7.500000            0           0           0
      4.273057  4.273057  9.636528            0           0           0
      6.409585  2.136528  9.636528            0           0           0
      4.273057  2.136635 11.785437            0           0           0
      6.409267  4.273057 11.785331            0           0           0
      4.273057  4.273057 13.911231            0           0           0
      6.409736  2.136400 13.903704            0           0           0
      0.000000  6.409585  9.636528            0           0           0
      2.136528  0.000000  9.636528            0           0           0
      0.000000  0.000000  7.500000            0           0           0
      2.136528  6.409585  7.500000            0           0           0
      0.000000  6.409483 13.948283            0           0           0
      2.135888  8.546114 13.948609            0           0           0
      0.000000  8.546113 11.778024            0           0           0
      2.136831  6.409523 11.778198            0           0           0
[...]
      6.409585  0.000000  9.636528            0           0           0
      4.273057  0.000000  7.500000            0           0           0
      6.409585  6.409585  7.500000            0           0           0
      4.273057  6.409844 13.950396            0           0           0
      6.410225  8.546113 13.948609            0           0           0
      4.273057  8.546113 11.779823            0           0           0
      6.409282  6.409523 11.778198            0           0           0
      4.273057  2.136528  9.636528            0           0           0
      6.409585  4.273057  9.636528            0           0           0
      4.273057  4.273057  7.500000            0           0           0
      6.409585  2.136528  7.500000            0           0           0
      4.273057  2.136270 13.950396            0           0           0
      6.409627  4.273057 13.949467            0           0           0
      4.273057  4.273057 11.780192            0           0           0
      6.409282  2.136590 11.778198            0           0           0

[...]

  60 f/i=    0.727342 THz     4.570023 2PiTHz   24.261507 cm-1     3.008042 meV
             X         Y         Z           dx          dy          dz
      4.273057  4.273016 17.405074    -0.170351    0.260430    0.008435
      0.000039  4.273054 17.405072    -0.105117   -0.506095   -0.000478
      4.273096  8.546111 17.405089     0.093123    0.492404    0.003874
      0.000000  8.546069 17.405086     0.154817   -0.262234   -0.009671
      4.273057  5.168576 18.035502    -0.061392    0.121427   -0.063310
      4.273056  3.377578 18.035474    -0.055411    0.121488    0.068276
      5.170772  4.273060 16.776651    -0.039613    0.032048    0.015996
      3.375337  4.273061 16.776653    -0.039590    0.026063   -0.011186
      7.650589  4.273055 18.035455    -0.045578   -0.185276   -0.021801
      0.895481  4.273055 18.035428    -0.045538   -0.167024    0.021484
      8.546108  5.170817 16.776670    -0.024177   -0.115290    0.043592
      8.546109  3.375299 16.776669    -0.006172   -0.115239   -0.043915
      3.377593  8.546112 18.035553     0.038317    0.179100    0.017389
      5.168475  8.546112 18.035525     0.038291    0.163508   -0.015105
      4.273051  0.897733 16.776612     0.023191    0.112218   -0.041361
      4.273051  7.648383 16.776609     0.007834    0.112176    0.043636
      8.546113  0.895548 18.035427     0.062654   -0.125197    0.067573
      8.546114  7.650609 18.035398     0.045749   -0.125266   -0.073273
      0.897763  0.000004 16.776676     0.034951   -0.034734   -0.016622
      7.648345  0.000003 16.776678     0.034937   -0.017923    0.011086
      0.000000  6.409585  7.500000            0           0           0
      2.136528  0.000000  7.500000            0           0           0
      0.000000  0.000000  9.636528            0           0           0
      2.136528  6.409585  9.636528            0           0           0
      0.000000  6.409418 11.784527            0           0           0
      2.136600  8.546113 11.784858            0           0           0
      0.000000  8.546114 13.908051            0           0           0
      2.136378  6.409714 13.903704            0           0           0
      0.000000  2.136528  7.500000            0           0           0
      2.136528  4.273057  7.500000            0           0           0
      0.000000  4.273057  9.636528            0           0           0
      2.136528  2.136528  9.636528            0           0           0
      8.546114  2.136695 11.784526            0           0           0
      2.136847  4.273057 11.785331            0           0           0
      8.546113  4.273056 13.908837            0           0           0
      2.136378  2.136400 13.903704            0           0           0
      4.273057  6.409585  7.500000            0           0           0
      6.409585  0.000000  7.500000            0           0           0
      4.273057  0.000000  9.636528            0           0           0
      6.409585  6.409585  9.636528            0           0           0
      4.273057  6.409478 11.785437            0           0           0
      6.409514  8.546113 11.784858            0           0           0
      4.273057  8.546114 13.910197            0           0           0
      6.409736  6.409713 13.903705            0           0           0
      4.273057  2.136528  7.500000            0           0           0
      6.409585  4.273057  7.500000            0           0           0
      4.273057  4.273057  9.636528            0           0           0
      6.409585  2.136528  9.636528            0           0           0
      4.273057  2.136635 11.785437            0           0           0
      6.409267  4.273057 11.785331            0           0           0
      4.273057  4.273057 13.911231            0           0           0
      6.409736  2.136400 13.903704            0           0           0
      0.000000  6.409585  9.636528            0           0           0
      2.136528  0.000000  9.636528            0           0           0
      0.000000  0.000000  7.500000            0           0           0
      2.136528  6.409585  7.500000            0           0           0
      0.000000  6.409483 13.948283            0           0           0
      2.135888  8.546114 13.948609            0           0           0
      0.000000  8.546113 11.778024            0           0           0
      2.136831  6.409523 11.778198            0           0           0
[...]
      6.409585  0.000000  9.636528            0           0           0
      4.273057  0.000000  7.500000            0           0           0
      6.409585  6.409585  7.500000            0           0           0
      4.273057  6.409844 13.950396            0           0           0
      6.410225  8.546113 13.948609            0           0           0
      4.273057  8.546113 11.779823            0           0           0
      6.409282  6.409523 11.778198            0           0           0
      4.273057  2.136528  9.636528            0           0           0
      6.409585  4.273057  9.636528            0           0           0
      4.273057  4.273057  7.500000            0           0           0
      6.409585  2.136528  7.500000            0           0           0
      4.273057  2.136270 13.950396            0           0           0
      6.409627  4.273057 13.949467            0           0           0
      4.273057  4.273057 11.780192            0           0           0
      6.409282  2.136590 11.778198            0           0           0

 Finite differences POTIM=   1.0000000000000000E-002