 vasp.6.3.0 20Jan22 (build Mar 11 2022 13:48:16) complex

 executed on             LinuxIFC date 2024.01.22  06:25:23

 INCAR:
   SYSTEM = TiO2
   ISMEAR = 0
   SIGMA = 0.05
   EDIFF = 1E-5
   ALGO = ALL
   ISTART = 0
   IBRION = -1
   NSW = 0
   ISYM = 0
   ISIF = 2
   EDIFFG = -0.01
   DIPOL = 0.5 0.5 0.5
   IDIPOL = 3
   LDIPOL = .TRUE.
   GGA = MK
   LUSE_VDW = .TRUE.
   PARAM1 = 0.1234
   PARAM2 = 0.711357
   ZAB_VDW = -1.8867
   AGGAC = 0.0
   ENCUT = 600
   PREC = Accurate
   LASPH = .TRUE.
   LREAL = .FALSE.
   ISPIN = 1
   NELM = 200
   NELMIN = 8
   NCORE = 2
   KPAR = 1
   LWAVE = .FALSE.
   LCHARG = .FALSE.

 POTCAR:    PAW_PBE Ti_pv 07Sep2000
 POTCAR:    PAW_PBE O 08Apr2002
|           W    W    AA    RRRRR   N    N  II  N    N   GGGG   !!!           |
|           W    W   A  A   R    R  NN   N  II  NN   N  G    G  !!!           |
|           W    W  A    A  R    R  N N  N  II  N N  N  G       !!!           |
|           W WW W  AAAAAA  RRRRR   N  N N  II  N  N N  G  GGG   !            |
|           WW  WW  A    A  R   R   N   NN  II  N   NN  G    G                |
|           W    W  A    A  R    R  N    N  II  N    N   GGGG   !!!           |
|     For optimal performance we recommend to set                             |
|       NCORE = 2 up to number-of-cores-per-socket                            |
|     This setting can greatly improve the performance of VASP for DFT.       |
|     The default, NCORE=1 might be grossly inefficient on modern             |
|     multi-core architectures or massively parallel machines. Do your        |
|     Unfortunately you need to use the default for GW and RPA                |
|     calculations (for HF NCORE is supported but not extensively tested      |
|     yet).                                                                   |

   TITEL  = PAW_PBE Ti_pv 07Sep2000
   POMASS =   47.880; ZVAL   =   10.000    mass and valenz
   ENMAX  =  222.335; ENMIN  =  166.751 eV

   TITEL  = PAW_PBE O 08Apr2002
   POMASS =   16.000; ZVAL   =    6.000    mass and valenz
   ENMAX  =  400.000; ENMIN  =  300.000 eV

  PAW_PBE Ti_pv 07Sep2000               :
  PAW_PBE O 08Apr2002                   :

 POSCAR: Ti  O
  positions in direct lattice
 exchange correlation table for  LEXCH =       43
   RHO(1)=    0.500       N(1)  =     2000
   RHO(2)=  100.500       N(2)  =     4000

 ion  position               nearest neighbor table
   1  0.810  0.833  0.295-  51 1.94  85 1.94  53 1.94  52 2.00  50 2.00   4 3.06  18 3.06   2 3.06

   2  0.594  0.667  0.326-  54 1.94 116 1.94  49 1.94  52 1.94  55 2.00  53 2.00   3 3.06  33 3.06
                             1 3.06   7 3.09
   3  0.310  0.667  0.295-  55 1.94 121 1.94  57 1.94  56 2.00  49 2.00   2 3.06  36 3.06   4 3.06

   4  0.094  0.833  0.326-  58 1.94  88 1.94  50 1.94  56 1.94  51 2.00  57 2.00   1 3.06  19 3.06
                             3 3.06   5 3.09
   5  0.946  0.833  0.422-  59 1.93  93 1.94  61 1.94  51 1.98  60 1.99  58 2.00   8 3.01   6 3.05
                            22 3.06   4 3.09
   6  0.728  0.666  0.451-  54 1.90 124 1.94  60 1.94  62 1.96  63 2.00  61 2.00   7 3.02   5 3.05
                            37 3.06  11 3.11
   7  0.446  0.666  0.422-  63 1.93 129 1.94  65 1.94  55 1.98  64 1.99  54 2.00   6 3.02   8 3.06
                            40 3.06   2 3.09
   8  0.227  0.833  0.452-  58 1.90  96 1.94  64 1.94  66 1.97  59 1.98  65 2.01   5 3.01  23 3.06
                             7 3.06   9 3.11
   9  0.087  0.834  0.550-  67 1.93 101 1.93  69 1.94  68 1.98  66 2.00  59 2.01  12 2.96  10 3.05
                            26 3.06   8 3.11
  10  0.866  0.666  0.575-  62 1.87 132 1.94  68 1.95  71 1.96  70 2.01  69 2.01  11 2.99   9 3.05
                            41 3.06  15 3.17
  11  0.585  0.667  0.549- 137 1.94  71 1.94  73 1.94  63 1.98  72 1.98  62 2.02  10 2.99  12 3.06
                            44 3.07   6 3.11
  12  0.365  0.833  0.577-  66 1.87 104 1.94  72 1.95  67 1.96  74 2.00  73 2.01   9 2.96  27 3.06
                            11 3.06
  13  0.231  0.833  0.681-  75 1.86  77 1.93 109 1.94  76 2.00  74 2.10  67 2.10  16 2.86  30 3.08
                            14 3.10
  14  0.001  0.666  0.700-  70 1.78  78 1.84 140 1.97  76 1.99  77 2.06  15 2.87  13 3.10  45 3.11

[...]

  17  0.810  0.167  0.295-  83 1.94  85 1.94 117 1.94  84 2.00  82 2.00  20 3.06  18 3.06  34 3.06

[...]

  36  0.094  0.500  0.326- 122 1.94 120 1.94  56 1.94 114 1.94 115 2.00 121 2.00  33 3.06   3 3.06
                            35 3.06  37 3.07
  37  0.948  0.500  0.422- 123 1.93  61 1.94 125 1.94 115 1.98 122 1.98 124 2.00  40 3.01   6 3.06
                            38 3.06  36 3.07
  38  0.728  0.334  0.451- 118 1.90 124 1.94  92 1.94 126 1.96 127 2.00 125 2.00  39 3.02  21 3.05
                            37 3.06  43 3.11
  39  0.446  0.334  0.422- 127 1.93 129 1.94  97 1.94 119 1.98 128 1.99 118 2.00  38 3.02  24 3.06
                            40 3.06  34 3.09
  40  0.227  0.500  0.453- 122 1.93  64 1.94 128 1.94 123 1.97 130 1.97 129 2.01  37 3.01   7 3.06
                            39 3.06  41 3.08
  41  0.090  0.500  0.550- 131 1.93 133 1.94  69 1.94 130 1.98 132 2.00 123 2.01  44 2.97  10 3.06
                            42 3.06  40 3.08
  42  0.866  0.334  0.575- 126 1.87 132 1.94 100 1.95 135 1.96 134 2.01 133 2.01  43 2.99  25 3.05
                            41 3.06  47 3.17
  43  0.585  0.333  0.549- 137 1.94 135 1.94 105 1.94 127 1.98 136 1.98 126 2.02  42 2.99  28 3.06
                            44 3.07  38 3.11
  44  0.367  0.500  0.580- 130 1.93 136 1.94  72 1.94 131 1.95 138 1.99 137 2.03  41 2.97  43 3.07
                            11 3.07  45 3.15
  45  0.235  0.500  0.681- 139 1.86 141 1.94  77 1.94 140 2.03 138 2.05 131 2.09  48 2.88  46 3.11
                            14 3.11  44 3.15
  46  0.001  0.334  0.700- 134 1.78 142 1.84 140 1.97 108 1.99 141 2.06  47 2.87  29 3.10  45 3.11

  47  0.729  0.334  0.677- 142 1.89 144 1.93 112 1.95 143 1.99 135 2.03 134 2.09  46 2.87  32 3.09
                            48 3.09  42 3.17
  48  0.506  0.500  0.706- 139 1.82 138 1.87  79 1.98 143 1.98 144 2.11  45 2.88  47 3.09  15 3.09

  49  0.490  0.667  0.268-   2 1.94   3 2.00
  50  0.990  0.833  0.268-   4 1.94   1 2.00
  51  0.914  0.833  0.353-   1 1.94   5 1.98   4 2.00
  52  0.630  0.833  0.321-  18 1.94   2 1.94   1 2.00
  53  0.773  0.667  0.300-  33 1.94   1 1.94   2 2.00
  54  0.625  0.667  0.395-   6 1.90   2 1.94   7 2.00
  55  0.414  0.667  0.353-   3 1.94   7 1.98   2 2.00
  56  0.130  0.667  0.321-  36 1.94   4 1.94   3 2.00
  57  0.273  0.833  0.300-  19 1.94   3 1.94   4 2.00
  58  0.125  0.833  0.395-   8 1.90   4 1.94   5 2.00
  59  0.051  0.834  0.480-   5 1.93   8 1.98   9 2.01
  60  0.766  0.833  0.447-  22 1.94   6 1.94   5 1.99
  61  0.910  0.667  0.427-   5 1.94  37 1.94   6 2.00
  62  0.764  0.666  0.520-  10 1.87   6 1.96  11 2.02
  63  0.551  0.666  0.479-   7 1.93  11 1.98   6 2.00
  64  0.266  0.667  0.448-  40 1.94   8 1.94   7 1.99
  65  0.409  0.833  0.427-   7 1.94  23 1.94   8 2.01
  66  0.264  0.833  0.521-  12 1.87   8 1.97   9 2.00
  67  0.194  0.833  0.607-   9 1.93  12 1.96  13 2.10
  68  0.905  0.833  0.573-  26 1.94  10 1.95   9 1.98
  69  0.052  0.666  0.553-  41 1.94   9 1.94  10 2.01
  70  0.913  0.668  0.645-  14 1.78  10 2.01  15 2.09
  71  0.695  0.669  0.605-  11 1.94  10 1.96  15 2.03
  72  0.406  0.666  0.574-  44 1.94  12 1.95  11 1.98
  73  0.549  0.833  0.553-  27 1.94  11 1.94  12 2.01
  74  0.412  0.834  0.646-  16 1.79  12 2.00  13 2.10
  75  0.347  0.833  0.732-  16 1.84  13 1.86
  76  0.052  0.833  0.708-  30 1.98  14 1.99  13 2.00
  77  0.194  0.666  0.681-  13 1.93  45 1.94  14 2.06
  78  0.842  0.661  0.730-  14 1.84  15 1.89
  79  0.555  0.668  0.707-  16 1.97  48 1.98  15 1.99
  80  0.695  0.834  0.679-  31 1.93  15 1.95  16 2.05
  81  0.490  0.000  0.268-  18 1.94  19 2.00
  82  0.990  0.167  0.268-  20 1.94  17 2.00
  83  0.914  0.167  0.353-  17 1.94  21 1.98  20 2.00
  84  0.630  0.167  0.321-  18 1.94  34 1.94  17 2.00
  85  0.773  0.000  0.300-   1 1.94  17 1.94  18 2.00
  86  0.625  0.000  0.395-  22 1.90  18 1.94  23 2.00
  87  0.414  0.000  0.353-  19 1.94  23 1.98  18 2.00
  88  0.130  0.000  0.321-   4 1.94  20 1.94  19 2.00
  89  0.273  0.167  0.300-  19 1.94  35 1.94  20 2.00
  90  0.125  0.167  0.395-  24 1.90  20 1.94  21 2.00
  91  0.051  0.166  0.480-  21 1.93  24 1.98  25 2.01
  92  0.766  0.167  0.447-  22 1.94  38 1.94  21 1.99
  93  0.910  0.000  0.427-  21 1.94   5 1.94  22 2.00
  94  0.764  1.000  0.520-  26 1.87  22 1.97  27 2.01
  95  0.551  1.000  0.479-  23 1.93  22 1.99  27 2.00
  96  0.266  1.000  0.448-  24 1.94   8 1.94  23 1.99
  97  0.409  0.167  0.427-  39 1.94  23 1.94  24 2.01
  98  0.264  0.167  0.521-  28 1.87  24 1.97  25 2.00
  99  0.194  0.167  0.607-  25 1.93  28 1.96  29 2.10
 100  0.905  0.167  0.573-  26 1.94  42 1.95  25 1.98
 101  0.052  1.000  0.553-  25 1.93   9 1.93  26 2.02
 102  0.913  0.000  0.645-  30 1.79  26 2.01  31 2.09
 103  0.694  1.000  0.606-  27 1.93  26 1.95  31 2.09
 104  0.405  1.000  0.574-  12 1.94  28 1.94  27 1.98
 105  0.549  0.167  0.553-  27 1.94  43 1.94  28 2.01
 106  0.412  0.166  0.646-  32 1.79  28 2.00  29 2.10
 107  0.347  0.167  0.732-  32 1.84  29 1.86
 108  0.052  0.167  0.708-  30 1.98  46 1.99  29 2.00
[...]
 130  0.266  0.500  0.522-  44 1.93  40 1.97  41 1.98
 131  0.194  0.500  0.608-  41 1.93  44 1.95  45 2.09
 132  0.906  0.500  0.573-  10 1.94  42 1.94  41 2.00
 133  0.052  0.334  0.553-  41 1.94  25 1.94  42 2.01
 134  0.913  0.332  0.645-  46 1.78  42 2.01  47 2.09
 135  0.695  0.331  0.605-  43 1.94  42 1.96  47 2.03
 136  0.406  0.334  0.574-  44 1.94  28 1.95  43 1.98
 137  0.551  0.500  0.554-  11 1.94  43 1.94  44 2.03
 138  0.413  0.500  0.649-  48 1.87  44 1.99  45 2.05
 139  0.345  0.500  0.734-  48 1.82  45 1.86
 140  0.052  0.500  0.708-  14 1.97  46 1.97  45 2.03
 141  0.194  0.334  0.681-  29 1.93  45 1.94  46 2.06
 142  0.842  0.339  0.730-  46 1.84  47 1.89
 143  0.555  0.332  0.707-  32 1.97  48 1.98  47 1.99
 144  0.692  0.500  0.675-  15 1.93  47 1.93  48 2.11

IMPORTANT INFORMATION: All symmetrisations will be switched off!
NOSYMM: (Re-)initialisation of all symmetry stuff for point group C_1.

                                     Primitive cell

  volume of cell :    3284.6826

  direct lattice vectors                    reciprocal lattice vectors
    10.317568932  0.000000000  0.000000000     0.096922057 -0.000000000  0.000000000
     0.000000000 11.392502081  0.000000000     0.000000000  0.087777030  0.000000000
     0.000000000  0.000000000 27.944536660     0.000000000  0.000000000  0.035785170

  length of vectors
    10.317568932 11.392502081 27.944536660     0.096922057  0.087777030  0.035785170

  position of ions in fractional coordinates (direct lattice)
     0.809724695  0.833333333  0.294673730
     0.593592026  0.666666667  0.326262387
     0.309724695  0.666666667  0.294673730
     0.093592026  0.833333333  0.326262387
     0.946366358  0.833462593  0.422411219
     0.728207801  0.666278468  0.451011677
     0.445609191  0.666455784  0.422240068
[...]
   7.97998172  7.59500139  8.38273038
   6.44887506  7.59500139 11.03092153
   4.26887158  7.59500139  9.85177208
   1.34005082  7.59500139  8.96904170
   2.82119725  9.49375173  8.38273038
   1.29009059  9.49375173 11.03092153
   0.52778674  9.49682832 13.40105992
   7.90173173  9.49320911 12.49536587
[...]
   2.74048625  5.69625051 14.58105333
   2.00456044  5.69625071 16.97747614
   9.34428215  5.69625079 16.01697864
   0.53296518  3.79943307 15.45660320
   9.41924550  3.78083963 18.02219307
   7.17224799  3.76553577 16.91490554
   4.18759974  3.79956037 16.04949920
   5.68532190  5.69625083 15.48225012
   4.25938983  5.69625142 18.12694258
   3.56470272  5.69625427 20.50164494
   0.53483716  5.69625066 19.77557087
   2.00278039  3.80187348 19.04016619
   8.68748311  3.86678156 20.40773494
   5.72304274  3.77940230 19.76832058
   7.14072922  5.69625190 18.87118785

--------------------------------------- Iteration      FINAL  ---------------------------------------

--------------------OUTCAR has been truncated-------------------------

[...]

--------------------OUTCAR has been truncated-------------------------

  FORCE on cell =-STRESS in cart. coord.  units (eV):
  Direction    XX          YY          ZZ          XY          YZ          ZX
  Alpha Z  2397.61609  2397.61609  2397.61609
  Ewald  486147.42459479475.37202************     0.00031    -0.00040 -1961.47421
  Hartree507024.57446502989.16062************     0.00019    -0.00023 -1311.45720
  E(xc)   -5157.24688 -5157.99852 -5156.50467     0.00000    -0.00000    -0.34480
  Local  ************************************    -0.00049     0.00064  3282.61651
  n-local -3300.21352 -3269.38009 -3311.65962     0.00001    -0.00000     1.50489
  augment  3148.91259  3145.64045  3137.63734    -0.00000    -0.00000    -1.37377
  Kinetic 16997.51731 17056.12164 17103.30784    -0.00003     0.00001   -18.88306
  Fock        0.00000     0.00000     0.00000     0.00000     0.00000     0.00000
  Total     -48.65125   -20.41333   -16.12386    -0.00001     0.00001    -9.41163
  in kB     -23.73073    -9.95706    -7.86477    -0.00000     0.00001    -4.59073

 VOLUME and BASIS-vectors are now :
  energy-cutoff  :      600.00
  volume of cell :     3284.68
      direct lattice vectors                 reciprocal lattice vectors
    10.317568932  0.000000000  0.000000000     0.096922057 -0.000000000  0.000000000
     0.000000000 11.392502081  0.000000000     0.000000000  0.087777030  0.000000000
     0.000000000  0.000000000 27.944536660     0.000000000  0.000000000  0.035785170

  length of vectors
    10.317568932 11.392502081 27.944536660     0.096922057  0.087777030  0.035785170

 FORCES acting on ions:
    Electron-Ion                     Ewald-Force                    Non-Local-Force
   0.568E+01 -.811E-02 0.335E+04   -.887E+00 0.127E-01 -.334E+04   -.101E+01 -.923E-03 -.314E+01
   0.493E+01 -.120E+00 0.275E+04   -.642E+01 0.125E+00 -.275E+04   -.124E+00 -.143E-02 -.991E-01
   0.561E+01 0.197E+00 0.335E+04   -.854E+00 -.198E+00 -.334E+04   -.101E+01 0.539E-03 -.314E+01
   0.337E+01 0.165E+00 0.275E+04   -.491E+01 -.169E+00 -.275E+04   -.114E+00 0.935E-03 -.104E+00
   0.127E+00 0.299E+00 0.124E+04   -.293E+00 -.295E+00 -.124E+04   0.162E+00 -.189E-02 0.225E-01
   0.221E+01 -.147E+01 0.777E+03   -.215E+01 0.146E+01 -.777E+03   -.427E-01 0.213E-01 -.154E+00
   0.155E+01 0.257E+00 0.124E+04   -.169E+01 -.255E+00 -.124E+04   0.146E+00 0.516E-02 -.153E-03
   -.543E+01 0.898E+00 0.768E+03   0.548E+01 -.894E+00 -.768E+03   -.281E-01 0.655E-03 -.150E+00
   -.589E+01 0.191E+00 -.807E+03   0.557E+01 -.185E+00 0.806E+03   0.300E+00 0.452E-04 0.127E+00
   -.662E+01 0.874E+00 -.120E+04   0.679E+01 -.819E+00 0.120E+04   -.982E-01 -.414E-01 -.270E+00
   0.137E+01 0.185E+01 -.782E+03   -.155E+01 -.182E+01 0.781E+03   0.231E+00 -.164E-02 0.890E-01
   -.183E+01 0.224E+01 -.122E+04   0.197E+01 -.219E+01 0.122E+04   -.109E+00 -.169E-01 -.295E+00
   0.225E+02 -.124E+01 -.280E+04   -.236E+02 0.127E+01 0.280E+04   0.101E+01 0.739E-02 -.686E-01
   -.642E+02 -.863E+01 -.319E+04   0.642E+02 0.845E+01 0.319E+04   -.739E-01 0.165E+00 0.652E+00
   0.109E+02 -.719E+01 -.276E+04   -.113E+02 0.732E+01 0.276E+04   0.804E+00 -.339E-01 0.153E-01
   -.710E+02 -.223E+01 -.319E+04   0.713E+02 0.242E+01 0.319E+04   -.109E+00 -.502E-01 0.677E+00
   0.568E+01 0.809E-02 0.335E+04   -.887E+00 -.127E-01 -.334E+04   -.101E+01 0.921E-03 -.314E+01
   0.483E+01 -.313E-04 0.275E+04   -.636E+01 0.369E-04 -.275E+04   -.116E+00 -.120E-05 -.107E+00
   0.548E+01 0.128E-05 0.335E+04   -.692E+00 0.108E-04 -.334E+04   -.101E+01 -.438E-05 -.314E+01
   0.337E+01 -.165E+00 0.275E+04   -.491E+01 0.169E+00 -.275E+04   -.114E+00 -.940E-03 -.104E+00
   0.127E+00 -.300E+00 0.124E+04   -.293E+00 0.295E+00 -.124E+04   0.162E+00 0.188E-02 0.225E-01
   -.112E+01 -.208E-03 0.773E+03   0.115E+01 0.224E-03 -.773E+03   -.126E-01 -.246E-05 -.158E+00
   0.175E+01 -.116E-03 0.124E+04   -.189E+01 0.118E-03 -.124E+04   0.152E+00 0.729E-07 0.700E-02
   -.543E+01 -.898E+00 0.768E+03   0.548E+01 0.894E+00 -.768E+03   -.281E-01 -.655E-03 -.150E+00
   -.589E+01 -.191E+00 -.807E+03   0.557E+01 0.185E+00 0.806E+03   0.300E+00 -.489E-04 0.127E+00
   -.651E+01 0.179E-04 -.121E+04   0.664E+01 -.130E-04 0.121E+04   -.731E-01 0.289E-05 -.278E+00
   -.224E+01 0.554E-05 -.797E+03   0.198E+01 -.328E-05 0.797E+03   0.276E+00 0.102E-05 0.152E+00
   -.183E+01 -.224E+01 -.122E+04   0.197E+01 0.219E+01 0.122E+04   -.109E+00 0.169E-01 -.295E+00
   0.225E+02 0.124E+01 -.280E+04   -.236E+02 -.127E+01 0.280E+04   0.101E+01 -.739E-02 -.686E-01
   -.686E+02 -.315E-03 -.319E+04   0.689E+02 0.314E-03 0.319E+04   -.139E+00 0.232E-05 0.664E+00
   0.151E+02 -.492E-03 -.279E+04   -.159E+02 0.483E-03 0.279E+04   0.908E+00 0.831E-05 -.425E-02
   -.710E+02 0.223E+01 -.319E+04   0.713E+02 -.242E+01 0.319E+04   -.109E+00 0.502E-01 0.677E+00
   0.567E+01 0.322E-04 0.335E+04   -.870E+00 -.265E-04 -.334E+04   -.101E+01 0.586E-05 -.314E+01
   0.493E+01 0.120E+00 0.275E+04   -.642E+01 -.125E+00 -.275E+04   -.124E+00 0.143E-02 -.991E-01
   0.561E+01 -.197E+00 0.335E+04   -.854E+00 0.198E+00 -.334E+04   -.101E+01 -.537E-03 -.314E+01
   0.239E+01 0.220E-04 0.275E+04   -.388E+01 -.264E-04 -.275E+04   -.133E+00 0.227E-05 -.966E-01
   0.694E+00 0.188E-03 0.124E+04   -.873E+00 -.209E-03 -.124E+04   0.157E+00 0.663E-05 0.577E-01
   0.221E+01 0.147E+01 0.777E+03   -.215E+01 -.146E+01 -.777E+03   -.427E-01 -.213E-01 -.154E+00
   0.155E+01 -.256E+00 0.124E+04   -.169E+01 0.254E+00 -.124E+04   0.146E+00 -.516E-02 -.157E-03
   -.815E+01 0.621E-04 0.749E+03   0.823E+01 -.705E-04 -.749E+03   -.504E-01 0.346E-06 -.413E-01
   -.297E+01 0.121E-03 -.813E+03   0.262E+01 -.124E-03 0.812E+03   0.254E+00 0.170E-05 0.148E+00
   -.662E+01 -.874E+00 -.120E+04   0.679E+01 0.819E+00 0.120E+04   -.982E-01 0.414E-01 -.270E+00
   0.137E+01 -.185E+01 -.782E+03   -.155E+01 0.182E+01 0.781E+03   0.231E+00 0.163E-02 0.890E-01
   -.550E+01 0.714E-04 -.127E+04   0.559E+01 -.684E-04 0.127E+04   -.116E+00 -.321E-05 -.957E-02
   0.253E+02 0.636E-03 -.281E+04   -.268E+02 -.623E-03 0.281E+04   0.948E+00 -.470E-05 0.170E-01
   -.642E+02 0.863E+01 -.319E+04   0.642E+02 -.845E+01 0.319E+04   -.739E-01 -.165E+00 0.652E+00
   0.109E+02 0.719E+01 -.276E+04   -.113E+02 -.732E+01 0.276E+04   0.804E+00 0.339E-01 0.153E-01
   -.822E+02 0.648E-03 -.329E+04   0.813E+02 -.624E-03 0.328E+04   0.449E+00 -.107E-04 0.214E+01
   -.327E+02 0.138E-01 0.226E+04   0.374E+02 -.124E-01 -.228E+04   -.649E+01 -.163E-02 0.170E+02
   -.330E+02 0.141E-01 0.226E+04   0.377E+02 -.143E-01 -.228E+04   -.648E+01 0.277E-03 0.170E+02
   0.818E+02 0.130E+00 0.137E+04   -.864E+02 -.137E+00 -.137E+04   0.367E+01 0.584E-02 -.435E+01
   0.749E+02 -.144E-01 0.167E+04   -.817E+02 0.181E-01 -.167E+04   0.713E+01 -.768E-02 -.256E+01
   -.862E+02 -.541E-01 0.193E+04   0.933E+02 0.546E-01 -.193E+04   -.675E+01 -.310E-02 -.117E+00
   -.692E+02 -.786E+00 0.104E+04   0.747E+02 0.833E+00 -.105E+04   -.554E+01 -.426E-01 0.407E+01
   0.824E+02 0.141E+00 0.137E+04   -.870E+02 -.122E+00 -.137E+04   0.363E+01 -.219E-01 -.416E+01
   0.739E+02 0.144E+00 0.167E+04   -.807E+02 -.149E+00 -.167E+04   0.715E+01 0.128E-01 -.258E+01
   -.865E+02 0.683E-01 0.193E+04   0.935E+02 -.657E-01 -.193E+04   -.673E+01 -.873E-02 -.122E+00
   -.739E+02 0.365E+00 0.104E+04   0.797E+02 -.371E+00 -.105E+04   -.572E+01 0.349E-02 0.419E+01
   0.785E+02 -.415E+00 0.145E+03   -.848E+02 0.458E+00 -.140E+03   0.632E+01 -.451E-01 -.488E+01
   0.806E+02 0.315E+00 0.471E+03   -.870E+02 -.370E+00 -.468E+03   0.646E+01 0.521E-01 -.291E+01
[...]
   0.854E+02 -.226E-04 -.109E+04   -.923E+02 0.234E-04 0.110E+04   0.700E+01 -.733E-05 -.688E+01
   0.728E+02 0.233E-03 -.734E+03   -.787E+02 -.206E-03 0.737E+03   0.587E+01 -.149E-04 -.311E+01
   -.825E+02 -.523E+00 -.477E+03   0.888E+02 0.449E+00 0.474E+03   -.625E+01 0.958E-01 0.263E+01
   -.602E+02 0.701E+01 -.130E+04   0.625E+02 -.767E+01 0.129E+04   -.232E+01 0.673E+00 0.917E+01
   0.823E+02 0.907E+01 -.106E+04   -.884E+02 -.986E+01 0.107E+04   0.600E+01 0.807E+00 -.548E+01
   0.787E+02 -.144E+01 -.746E+03   -.850E+02 0.132E+01 0.749E+03   0.626E+01 0.179E+00 -.302E+01
   -.744E+02 0.134E-03 -.488E+03   0.804E+02 -.134E-03 0.485E+03   -.605E+01 0.974E-05 0.216E+01
   -.705E+02 0.135E-03 -.134E+04   0.751E+02 -.117E-03 0.133E+04   -.419E+01 -.251E-04 0.795E+01
   0.589E+02 -.143E-03 -.229E+04   -.654E+02 0.215E-03 0.231E+04   0.687E+01 -.857E-04 -.200E+02
   0.572E+02 0.257E-04 -.201E+04   -.612E+02 -.237E-04 0.201E+04   0.418E+01 0.447E-05 -.726E+01
   -.562E+02 0.557E+00 -.167E+04   0.608E+02 -.484E+00 0.167E+04   -.451E+01 0.104E-01 0.264E+01
   0.510E+02 -.557E+01 -.228E+04   -.570E+02 0.668E+01 0.230E+04   0.619E+01 -.124E+01 -.206E+02
   0.579E+02 0.120E+01 -.200E+04   -.624E+02 -.154E+01 0.201E+04   0.442E+01 0.864E+00 -.614E+01
   -.437E+02 0.254E-03 -.160E+04   0.474E+02 -.231E-03 0.160E+04   -.403E+01 -.284E-04 0.584E+01
   -.139E+02 0.238E-06 0.637E+02   0.853E-13 0.102E-11 -.773E-11   0.139E+02 0.263E-04 -.636E+02

 POSITION                                       TOTAL-FORCE (eV/Angst)
      8.35439      9.49375      8.23452         3.804244      0.003655      1.710300
      6.12443      7.59500      9.11725        -1.616246      0.003301     -1.934376
      3.19561      7.59500      8.23452         3.771678     -0.000335      1.687078
      0.96564      9.49375      9.11725        -1.657701     -0.002709     -1.939804
      9.76420      9.49522     11.80409        -0.001701      0.004001      0.002354
      7.51333      7.59058     12.60331         0.003475      0.003038      0.009733
      4.59760      7.59260     11.79930         0.005880      0.005339     -0.002871
      2.34304      9.49346     12.61729        -0.005770      0.004720      0.000278
      0.89963      9.49673     15.37421        -0.018005      0.008959      0.016441
      8.93980      7.59079     16.07344         0.020134      0.010387      0.092785
      6.03989      7.59343     15.34347         0.051434      0.028925      0.002131
      3.76726      9.49422     16.11122        -0.015802      0.036748      0.005516
      2.38773      9.48587     19.01810        -0.078486      0.034282      0.032545
      0.00627      7.58429     19.55971        -0.352514     -0.029258      0.229200
      7.52429      7.58421     18.91343         0.455208      0.080758      0.483836
      5.19665      9.50384     19.56343         0.018222      0.142620      0.040077
      8.35439      1.89875      8.23452         3.804261     -0.003654      1.710300
      6.12443      0.00000      9.11725        -1.641037      0.000004     -1.932707
      3.19561      0.00000      8.23452         3.797092      0.000008      1.703776
      0.96564      1.89875      9.11725        -1.657675      0.002727     -1.939819
      9.76420      1.89728     11.80409        -0.001722     -0.003977      0.002337
      7.50579     11.39250     12.60861         0.001276      0.000013      0.012946
      4.60037     11.39250     11.80361         0.006037      0.000001      0.002662
      2.34304      1.89904     12.61729        -0.005764     -0.004706      0.000263
      0.89963      1.89577     15.37421        -0.018024     -0.008956      0.016446
      8.92529     11.39250     16.09175         0.002354      0.000008      0.047864
      6.04711     11.39250     15.36082         0.024412      0.000003      0.019769
      3.76726      1.89828     16.11122        -0.015811     -0.036750      0.005515
      2.38773      1.90663     19.01810        -0.078477     -0.034294      0.032572
      0.03192     11.39250     19.56031        -0.024380      0.000000      0.058648
      7.55616     11.39250     18.99029         0.059721     -0.000001      0.052467
      5.19665      1.88866     19.56343         0.018173     -0.142639      0.040065
      8.35439      5.69625      8.23452         3.808871      0.000011      1.700867
      6.12443      3.79750      9.11725        -1.616258     -0.003307     -1.934395
      3.19561      3.79750      8.23452         3.771655      0.000321      1.687065
      0.96564      5.69625      9.11725        -1.625652     -0.000002     -1.879055
      9.77853      5.69625     11.79839        -0.011113     -0.000014     -0.009357
      7.51333      3.80192     12.60331         0.003485     -0.003053      0.009746
      4.59760      3.79990     11.79930         0.005899     -0.005338     -0.002865
      2.34637      5.69625     12.64675        -0.005274     -0.000008     -0.039829
      0.92767      5.69625     15.37959        -0.079845     -0.000002     -0.027054
      8.93980      3.80171     16.07344         0.020144     -0.010398      0.092768
      6.03989      3.79907     15.34347         0.051428     -0.028942      0.002113
      3.78750      5.69625     16.19648        -0.069133     -0.000001     -0.284403
      2.42115      5.69625     19.03025        -0.450126      0.000009     -0.085914
      0.00628      3.80821     19.55971        -0.352505      0.029262      0.229207
      7.52429      3.80829     18.91343         0.455211     -0.080750      0.483823
      5.21834      5.69625     19.73418        -0.618628      0.000013     -1.754548
      5.05116      7.59500      7.50000        -1.771933     -0.000260      1.096871
     10.20995      9.49375      7.50000        -1.764549      0.000073      1.091065
      9.42766      9.49375      9.85177        -0.969893     -0.001635     -0.181873
      6.49884      9.49375      8.96904         0.357814     -0.004001     -0.057627
      7.97998      7.59500      8.38273         0.258832     -0.002616     -1.038446
      6.44888      7.59500     11.03092        -0.086891      0.004654      0.351222
      4.26887      7.59500      9.85177        -0.979100     -0.002749     -0.168465
      1.34005      7.59500      8.96904         0.369369      0.007865     -0.064418
      2.82120      9.49375      8.38273         0.269979     -0.006134     -1.041061
      1.29009      9.49375     11.03092         0.000423     -0.002818      0.416420
      0.52779      9.49683     13.40106         0.001715     -0.002346     -0.005318
      7.90173      9.49321     12.49537         0.000297     -0.003144     -0.001925
[...]
      2.74049      5.69625     14.58105         0.059118      0.000002      0.072957
      2.00456      5.69625     16.97748         0.103364     -0.000007      0.075789
      9.34428      5.69625     16.01698         0.017214      0.000012     -0.020142
      0.53297      3.79943     15.45660         0.017283      0.021681     -0.008354
      9.41925      3.78084     18.02219        -0.055757      0.009108     -0.152297
      7.17225      3.76554     16.91491        -0.047357      0.022427     -0.057127
      4.18760      3.79956     16.04950        -0.017854      0.054802      0.023195
      5.68532      5.69625     15.48225        -0.037608      0.000009      0.018271
      4.25939      5.69625     18.12694         0.332910     -0.000007      0.676079
      3.56470      5.69625     20.50164         0.415044     -0.000014      0.246763
      0.53484      5.69625     19.77557         0.166637      0.000006     -0.068772
      2.00278      3.80187     19.04017         0.142432      0.084149     -0.028454
      8.68748      3.86678     20.40773         0.188185     -0.125845     -0.463273
      5.72304      3.77940     19.76832        -0.130459      0.527701      0.282029
      7.14073      5.69625     18.87119        -0.333208     -0.000006      0.423486
    total drift:                               -0.008158      0.000027      0.079552

  FREE ENERGIE OF THE ION-ELECTRON SYSTEM (eV)
  free  energy   TOTEN  =     -1043.81609925 eV

  energy  without entropy=    -1043.81609925  energy(sigma->0) =    -1043.81609925