 vasp.6.3.0 20Jan22 (build Apr  1 2022 16:44:48) complex
 executed on        HPECrayEX_GCC date 2023.02.21  02:00:46

 INCAR:
   SYSTEM = MgO-rocksalt
   ISMEAR = 0
   SIGMA = 0.05
   EDIFF = 1E-6
   ALGO = ALL
   ISTART = 0
   IBRION = -1
   NSW = 0
   ISYM = 0
   DIPOL = 0.5 0.5 0.5
   IDIPOL = 3
   LDIPOL = .TRUE.
   GGA = PE
   IVDW = 1
   VDW_C6 = 1.23 0.14 0.63 0.70
   VDW_R0 = 1.397 1.001 1.243 1.342
   ENCUT = 600
   PREC = Accurate
   LASPH = .TRUE.
   LREAL = .FALSE.
   ISPIN = 1
   NELM = 200
   NELMIN = 8
   NCORE = 8
   KPAR = 1
   LWAVE = .FALSE.
   LCHARG = .FALSE.

 POTCAR:    PAW_PBE N 08Apr2002
 POTCAR:    PAW_PBE H 15Jun2001
 POTCAR:    PAW_PBE Mg_pv 13Apr2007
 POTCAR:    PAW_PBE O 08Apr2002
 POTCAR:    PAW_PBE N 08Apr2002
   VRHFIN =N: s2p3

   TITEL  = PAW_PBE N 08Apr2002
   POMASS =   14.001; ZVAL   =    5.000    mass and valenz
   ENMAX  =  400.000; ENMIN  =  300.000 eV

   TITEL  = PAW_PBE H 15Jun2001
   POMASS =    1.000; ZVAL   =    1.000    mass and valenz
   ENMAX  =  250.000; ENMIN  =  200.000 eV

   TITEL  = PAW_PBE Mg_pv 13Apr2007
   POMASS =   24.305; ZVAL   =    8.000    mass and valenz
   ENMAX  =  403.929; ENMIN  =  302.947 eV

   TITEL  = PAW_PBE O 08Apr2002
   POMASS =   16.000; ZVAL   =    6.000    mass and valenz
   ENMAX  =  400.000; ENMIN  =  300.000 eV

  PAW_PBE N 08Apr2002                   :
  PAW_PBE H 15Jun2001                   :
  PAW_PBE Mg_pv 13Apr2007               :
  PAW_PBE O 08Apr2002                   :

 POSCAR:  N  H Mg  O
  positions in direct lattice
 exchange correlation table for  LEXCH =        8
   RHO(1)=    0.500       N(1)  =     2000
   RHO(2)=  100.500       N(2)  =     4000

 ion  position               nearest neighbor table
   1  0.500  0.516  0.760-   4 1.02   3 1.02   2 1.02
   2  0.500  0.635  0.768-   1 1.02
   3  0.402  0.469  0.782-   1 1.02
   4  0.598  0.469  0.782-   1 1.02
   5  0.000  0.750  0.352-  37 2.11  39 2.11  40 2.11  47 2.11  56 2.11
   6  0.250  0.000  0.352-  38 2.11  39 2.11  40 2.11  48 2.11  55 2.11
   7  0.000  0.000  0.451-  39 2.11  38 2.11  37 2.11  45 2.11  54 2.11  43 2.12
   8  0.250  0.750  0.451-  40 2.11  38 2.11  37 2.11  46 2.11  53 2.11  44 2.12
   9  0.000  0.750  0.550-  51 2.11  44 2.11  60 2.11  43 2.11  37 2.12  41 2.16
  10  0.250  1.000  0.550-  59 2.11  52 2.11  44 2.11  43 2.11  38 2.12  42 2.16
  11  0.000  1.000  0.648-  43 2.10  42 2.11  58 2.11  49 2.11  41 2.11
  12  0.250  0.750  0.648-  44 2.09  41 2.11  42 2.11  50 2.11  57 2.11
  13  0.000  0.250  0.352-  45 2.11  39 2.11  47 2.11  48 2.11  64 2.11
  14  0.250  0.500  0.352-  46 2.11  40 2.11  47 2.11  48 2.11  63 2.11
  15  0.000  0.500  0.451-  47 2.11  45 2.11  46 2.11  37 2.11  62 2.11  51 2.11
  16  0.250  0.250  0.451-  48 2.11  45 2.11  46 2.11  38 2.11  61 2.11  52 2.12
  17  1.000  0.250  0.550-  51 2.11  68 2.11  52 2.11  43 2.11  45 2.12  49 2.16
  18  0.251  0.500  0.551-  67 2.10  52 2.11  44 2.11  51 2.12  46 2.13  50 2.15
  19  0.000  0.500  0.648-  66 2.09  50 2.09  51 2.10  49 2.12  41 2.12
  20  0.250  0.250  0.648-  52 2.10  42 2.11  49 2.11  65 2.11  50 2.11
  21  0.500  0.750  0.352-  53 2.11  40 2.11  55 2.11  56 2.11  63 2.11
  22  0.750  0.000  0.352-  54 2.11  39 2.11  55 2.11  56 2.11  64 2.11
  23  0.500  0.000  0.451-  55 2.11  53 2.11  54 2.11  38 2.11  61 2.11  59 2.11
  24  0.750  0.750  0.451-  56 2.11  53 2.11  54 2.11  37 2.11  62 2.11  60 2.12
  25  0.500  0.749  0.551-  67 2.10  60 2.11  44 2.11  59 2.12  53 2.13  57 2.15
  26  0.750  1.000  0.550-  59 2.11  68 2.11  60 2.11  43 2.11  54 2.12  58 2.16
  27  0.500  0.000  0.648-  65 2.09  57 2.09  59 2.10  42 2.12  58 2.12
  28  0.750  0.750  0.648-  60 2.09  41 2.11  58 2.11  66 2.11  57 2.11
  29  0.500  0.250  0.352-  61 2.11  55 2.11  48 2.11  63 2.11  64 2.11
  30  0.750  0.500  0.352-  62 2.11  56 2.11  47 2.11  63 2.11  64 2.11
  31  0.500  0.500  0.451-  63 2.11  53 2.11  61 2.11  62 2.11  46 2.11  67 2.14
  32  0.750  0.250  0.451-  64 2.11  54 2.11  61 2.11  62 2.11  45 2.11  68 2.12
  33  0.500  0.251  0.551-  67 2.10  52 2.11  68 2.11  59 2.12  61 2.13  65 2.14
  34  0.749  0.500  0.551-  67 2.10  68 2.11  60 2.11  51 2.12  62 2.13  66 2.15
  35  0.500  0.499  0.655-  65 2.12  66 2.13  50 2.13  57 2.15  67 2.22
  36  0.750  0.250  0.648-  68 2.10  58 2.11  49 2.11  65 2.11  66 2.11
  37  0.000  0.750  0.451-   5 2.11   7 2.11   8 2.11  15 2.11  24 2.11   9 2.12
  38  0.250  0.000  0.451-   6 2.11   7 2.11   8 2.11  16 2.11  23 2.11  10 2.12
  39  0.000  0.000  0.352-   7 2.11   6 2.11   5 2.11  13 2.11  22 2.11
  40  0.250  0.750  0.352-   8 2.11   6 2.11   5 2.11  14 2.11  21 2.11
  41  1.000  0.750  0.651-  11 2.11  28 2.11  12 2.11  19 2.12   9 2.16
  42  0.249  1.000  0.651-  11 2.11  20 2.11  12 2.11  27 2.12  10 2.16
  43  1.000  1.000  0.550-  11 2.10   9 2.11  26 2.11  10 2.11  17 2.11   7 2.12
  44  0.250  0.750  0.550-  12 2.09  10 2.11   9 2.11  25 2.11  18 2.11   8 2.12
  45  0.000  0.250  0.451-  13 2.11   7 2.11  15 2.11  16 2.11  32 2.11  17 2.12
  46  0.250  0.500  0.451-  14 2.11   8 2.11  15 2.11  16 2.11  31 2.11  18 2.13
  47  0.000  0.500  0.352-  15 2.11  13 2.11  14 2.11   5 2.11  30 2.11
  48  0.250  0.250  0.352-  16 2.11  13 2.11  14 2.11   6 2.11  29 2.11
  49  0.000  0.249  0.651-  11 2.11  36 2.11  20 2.11  19 2.12  17 2.16
  50  0.247  0.500  0.651-  19 2.09  12 2.11  20 2.11  35 2.13  18 2.15
  51  0.000  0.500  0.550-  19 2.10   9 2.11  17 2.11  15 2.11  34 2.12  18 2.12
  52  0.250  0.250  0.550-  20 2.10  10 2.11  17 2.11  18 2.11  33 2.11  16 2.12
  53  0.500  0.750  0.451-  21 2.11   8 2.11  23 2.11  24 2.11  31 2.11  25 2.13
  54  0.750  0.000  0.451-  22 2.11   7 2.11  23 2.11  24 2.11  32 2.11  26 2.12
  55  0.500  0.000  0.352-  23 2.11  21 2.11  22 2.11   6 2.11  29 2.11
  56  0.750  0.750  0.352-  24 2.11  21 2.11  22 2.11   5 2.11  30 2.11
  57  0.500  0.753  0.651-  27 2.09  12 2.11  28 2.11  35 2.15  25 2.15
  58  0.751  1.000  0.651-  11 2.11  36 2.11  28 2.11  27 2.12  26 2.16
  59  0.500  1.000  0.550-  27 2.10  26 2.11  10 2.11  23 2.11  25 2.12  33 2.12
  60  0.750  0.750  0.550-  28 2.09  26 2.11   9 2.11  25 2.11  34 2.11  24 2.12
  61  0.500  0.250  0.451-  29 2.11  23 2.11  16 2.11  31 2.11  32 2.11  33 2.13
  62  0.750  0.500  0.451-  30 2.11  24 2.11  15 2.11  31 2.11  32 2.11  34 2.13
  63  0.500  0.500  0.352-  31 2.11  21 2.11  29 2.11  30 2.11  14 2.11
  64  0.750  0.250  0.352-  32 2.11  22 2.11  29 2.11  30 2.11  13 2.11
  65  0.500  0.247  0.651-  27 2.09  20 2.11  36 2.11  35 2.12  33 2.14
  66  0.753  0.500  0.651-  19 2.09  28 2.11  36 2.11  35 2.13  34 2.15
  67  0.500  0.500  0.551-  25 2.10  18 2.10  34 2.10  33 2.10  31 2.14  35 2.22
  68  0.750  0.250  0.550-  36 2.10  26 2.11  17 2.11  34 2.11  33 2.11  32 2.12

IMPORTANT INFORMATION: All symmetrisations will be switched off!
NOSYMM: (Re-)initialisation of all symmetry stuff for point group C_1.

                                     Primitive cell

  volume of cell :    1519.8199

  direct lattice vectors                    reciprocal lattice vectors
     8.440984654  0.000000000  0.000000000     0.118469591  0.000000000  0.000000000
     0.000000000  8.440984654  0.000000000     0.000000000  0.118469591  0.000000000
     0.000000000  0.000000000 21.330738491     0.000000000  0.000000000  0.046880702

  length of vectors
     8.440984654  8.440984654 21.330738491     0.118469591  0.118469591  0.046880702

  position of ions in fractional coordinates (direct lattice)
     0.500000238  0.515515988  0.760397415
     0.499999981  0.635067396  0.767938398
     0.402069061  0.469393035  0.781666100
     0.597931073  0.469393296  0.781666268
     0.000000000  0.750000000  0.351605267
     0.250000000  0.000000000  0.351605267
     0.000000000  0.000000000  0.450535089
     0.250000000  0.750000000  0.450535089
     0.000000002  0.749683926  0.549893410
     0.250263522  0.999989873  0.549908943
     0.000000001  0.999953889  0.648375512
     0.249680169  0.750035883  0.648043586
     0.000000000  0.250000000  0.351605267
     0.250000000  0.500000000  0.351605267
     0.000000000  0.500000000  0.450535089
     0.250000000  0.250000000  0.450535089
     0.999999995  0.250229246  0.549913058
     0.251264402  0.499907421  0.550551274
     0.000000017  0.499888939  0.648188279
     0.249874845  0.249731960  0.648151920
     0.500000000  0.750000000  0.351605267
     0.750000000  0.000000000  0.351605267
     0.500000000  0.000000000  0.450535089
     0.750000000  0.750000000  0.450535089
     0.499999996  0.748689127  0.550582001
     0.749736477  0.999989873  0.549908956
     0.499999995  0.000230885  0.648178485
     0.750319838  0.750035869  0.648043580
     0.500000000  0.250000000  0.351605267
     0.750000000  0.500000000  0.351605267
     0.500000000  0.500000000  0.450535089
     0.750000000  0.250000000  0.450535089
     0.499999999  0.251188744  0.550506166
     0.748735610  0.499907415  0.550551309
     0.500000034  0.498638580  0.654927800
     0.750125161  0.249731957  0.648151929
     0.000000000  0.750000000  0.450535089
     0.250000000  0.000000000  0.450535089
     0.000000000  0.000000000  0.351605267
     0.250000000  0.750000000  0.351605267
     0.999999998  0.750486788  0.651100364
     0.249403677  0.999906086  0.651133405
     0.999999997  0.999932321  0.549747566
     0.249933154  0.750096792  0.549885275
     0.000000000  0.250000000  0.450535089
     0.250000000  0.500000000  0.450535089
     0.000000000  0.500000000  0.351605267
     0.250000000  0.250000000  0.351605267
     0.000000002  0.249363374  0.651160803
     0.247373170  0.499927644  0.651129740
     0.000000005  0.499978499  0.549670801
     0.249818529  0.249801412  0.549853953
     0.500000000  0.750000000  0.450535089
     0.750000000  0.000000000  0.450535089
     0.500000000  0.000000000  0.351605267
     0.750000000  0.750000000  0.351605267
     0.499999996  0.752917707  0.651485348
     0.750596322  0.999906078  0.651133423
     0.500000000  0.999871141  0.549675125
     0.750066839  0.750096789  0.549885280
     0.500000000  0.250000000  0.450535089
     0.750000000  0.500000000  0.450535089
     0.500000000  0.500000000  0.351605267
     0.750000000  0.250000000  0.351605267
     0.500000002  0.247330485  0.650918475
     0.752626876  0.499927627  0.651129742
     0.500000005  0.500041645  0.550741581
     0.750181473  0.249801401  0.549853959

  ion indices of the primitive-cell ions
   primitive index   ion index
                 1           1
                 2           2
                 3           3
                 4           4
                 5           5
                 6           6
                 7           7
                 8           8
                 9           9
                10          10
                11          11
                12          12
                13          13
                14          14
                15          15
                16          16
                17          17
                18          18
                19          19
                20          20
                21          21
                22          22
[...]
   6.33073849  4.22049233  7.50000000
   4.22049233  4.22049233  9.61024616
   6.33073849  2.11024616  9.61024616
   4.22049232  2.12028034 11.74270306
   6.32006580  4.21971082 11.74366600
   4.22049261  4.20900061 13.97009364
   6.33179497  2.10798362 13.82555929
   0.00000000  6.33073849  9.61024616
   2.11024616  0.00000000  9.61024616
   0.00000000  0.00000000  7.50000000
   2.11024616  6.33073849  7.50000000
   8.44098464  6.33484746 13.88845160
   2.10521261  8.44019193 13.88915639
   8.44098463  8.44041337 11.72652157
   2.10968191  6.33155551 11.72945899
   0.00000000  2.11024616  9.61024616
   2.11024616  4.22049233  9.61024616
   0.00000000  4.22049233  7.50000000
   2.11024616  2.11024616  7.50000000
   0.00000002  2.10487242 13.88974081
   2.08807314  4.21988157 13.88907820
   0.00000005  4.22031084 11.72488410
   2.10871437  2.10856989 11.72879088
   4.22049233  6.33073849  9.61024616
   6.33073849  0.00000000  9.61024616
   4.22049233  0.00000000  7.50000000
   6.33073849  6.33073849  7.50000000
   4.22049229  6.35536681 13.89666358
   6.33577203  8.44019186 13.88915676
   4.22049233  8.43989696 11.72497634
   6.33130268  6.33155548 11.72945910
   4.22049233  2.11024616  9.61024616
   6.33073849  4.22049233  9.61024616
   4.22049233  4.22049233  7.50000000
   6.33073849  2.11024616  7.50000000
   4.22049234  2.08771283 13.88457177
   6.35291191  4.21988143 13.88907825
   4.22049237  4.22084386 11.74772465
   6.33227030  2.10856979 11.72879100

--------------------------------------- Iteration      FINAL  ---------------------------------------

--------------------OUTCAR has been truncated-------------------------

[...]

--------------------OUTCAR has been truncated-------------------------

  DFT-D2 method for vdW energy calculation

  Parameters of vdW forcefield:
         C6(Jnm^6/mol)     R0(A)
   N        1.230          1.397
   H        0.140          1.001
   Mg       0.630          1.243
   O        0.700          1.342

  vdW correction parametrized for the method pbe

  IVDW =   1
  VDW_RADIUS =    50.000 A
  VDW_S6 =     0.750
  VDW_SR =     1.000
  VDW_D =    20.000
  LVDW_EWALD = F

  Number of pair interactions contributing to vdW energy:  814665
  Edisp (eV):   -3.73314

  FORCE on cell =-STRESS in cart. coord.  units (eV):
  Direction    XX          YY          ZZ          XY          YZ          ZX
  Alpha Z   899.54725   899.54725   899.54725
  Ewald  159550.27078159547.74557************    -0.00005    -9.90923     0.00026
  Hartree169861.46781169861.63655************    -0.00001    -0.81566     0.00004
  E(xc)   -2487.69320 -2487.70416 -2492.90642    -0.00000    -0.06156     0.00000
  Local  ************************339293.33579     0.00003     6.92226    -0.00023
  n-local -2834.37805 -2834.48379 -2855.66060     0.00000    -0.27007     0.00000
  augment  1048.92635  1048.96365  1040.32946     0.00000     0.09595    -0.00000
  Kinetic  7425.04491  7426.37056  7484.30104     0.00001     4.08751    -0.00006
  Fock        0.00000     0.00000     0.00000     0.00000     0.00000     0.00000
  vdW        -5.38601    -5.38673    -4.60933     0.00000    -0.00434     0.00000
  Total     -23.49296   -23.46168    -0.33662    -0.00001     0.04486     0.00001
  in kB     -24.76602   -24.73305    -0.35486    -0.00001     0.04729     0.00001

 VOLUME and BASIS-vectors are now :
  energy-cutoff  :      600.00
  volume of cell :     1519.82
      direct lattice vectors                 reciprocal lattice vectors
     8.440984654  0.000000000  0.000000000     0.118469591  0.000000000  0.000000000
     0.000000000  8.440984654  0.000000000     0.000000000  0.118469591  0.000000000
     0.000000000  0.000000000 21.330738491     0.000000000  0.000000000  0.046880702

  length of vectors
     8.440984654  8.440984654 21.330738491     0.118469591  0.118469591  0.046880702

 FORCES acting on ions:
    Electron-Ion                     Ewald-Force                    Non-Local-Force
   -.717E-04 0.810E+01 -.133E+04   0.922E-04 -.130E+02 0.131E+04   -.798E-04 0.488E+01 0.244E+02
   0.140E-03 -.698E+02 -.273E+03   -.154E-03 0.771E+02 0.274E+03   0.157E-04 -.720E+01 -.883E+00
   0.579E+02 0.279E+02 -.279E+03   -.638E+02 -.307E+02 0.282E+03   0.595E+01 0.283E+01 -.303E+01
   -.579E+02 0.279E+02 -.279E+03   0.638E+02 -.307E+02 0.282E+03   -.595E+01 0.283E+01 -.303E+01
   -.312E-06 0.440E-01 0.208E+04   -.611E-05 -.498E-01 -.207E+04   -.167E-05 0.413E-02 -.702E+01
   -.413E-01 -.925E-05 0.208E+04   0.470E-01 -.817E-04 -.207E+04   -.405E-02 0.801E-04 -.703E+01
   0.155E-04 -.413E-01 0.712E+03   -.191E-04 0.468E-01 -.713E+03   0.277E-05 -.411E-02 0.518E+00
   -.356E+00 0.356E+00 0.713E+03   0.422E+00 -.412E+00 -.713E+03   -.460E-01 0.387E-01 0.577E+00
   0.954E-05 -.276E+01 -.645E+03   -.995E-05 0.267E+01 0.645E+03   0.289E-05 0.823E-01 0.110E-01
   0.279E+01 -.236E+00 -.646E+03   -.271E+01 0.251E+00 0.646E+03   -.796E-01 -.150E-01 0.164E-01
   -.247E-04 -.950E+00 -.201E+04   0.243E-04 0.961E+00 0.200E+04   0.205E-08 -.112E-01 0.592E+01
   0.208E+02 -.199E+02 -.198E+04   -.210E+02 0.200E+02 0.198E+04   0.144E+00 -.729E-01 0.607E+01
   0.415E-05 -.442E-01 0.208E+04   -.576E-05 0.499E-01 -.207E+04   0.779E-06 -.397E-02 -.703E+01
   -.735E-01 -.315E-03 0.208E+04   0.853E-01 0.166E-03 -.207E+04   -.884E-02 0.115E-03 -.706E+01
   0.345E-04 0.326E-01 0.713E+03   -.399E-04 -.415E-01 -.713E+03   0.734E-05 0.631E-02 0.416E+00
   -.323E+00 -.365E+00 0.713E+03   0.367E+00 0.417E+00 -.713E+03   -.298E-01 -.360E-01 0.557E+00
   -.144E-04 0.275E+01 -.646E+03   0.122E-04 -.267E+01 0.646E+03   0.474E-05 -.827E-01 0.288E-01
   0.269E+01 0.233E+00 -.643E+03   -.237E+01 -.246E+00 0.644E+03   -.331E+00 0.135E-01 -.406E+00
   -.958E-04 0.107E+01 -.200E+04   0.939E-04 -.108E+01 0.199E+04   0.322E-05 0.115E-01 0.591E+01
   0.188E+02 0.194E+02 -.199E+04   -.188E+02 -.194E+02 0.198E+04   0.613E-01 0.813E-01 0.607E+01
   -.595E-06 0.762E-01 0.208E+04   0.612E-05 -.881E-01 -.207E+04   -.456E-05 0.892E-02 -.706E+01
   0.413E-01 -.821E-05 0.208E+04   -.470E-01 -.820E-04 -.207E+04   0.405E-02 0.725E-04 -.703E+01
   -.174E-04 0.748E-02 0.713E+03   0.209E-04 -.220E-01 -.713E+03   -.311E-05 0.105E-01 0.419E+00
   0.356E+00 0.356E+00 0.713E+03   -.422E+00 -.412E+00 -.713E+03   0.460E-01 0.388E-01 0.577E+00
   0.275E-05 -.248E+01 -.644E+03   0.470E-06 0.215E+01 0.645E+03   -.531E-05 0.327E+00 -.252E+00
   -.279E+01 -.236E+00 -.646E+03   0.271E+01 0.251E+00 0.646E+03   0.796E-01 -.150E-01 0.164E-01
   0.100E-04 -.264E+01 -.199E+04   -.806E-05 0.268E+01 0.199E+04   -.840E-06 -.354E-01 0.590E+01
   -.208E+02 -.199E+02 -.198E+04   0.210E+02 0.200E+02 0.198E+04   -.144E+00 -.729E-01 0.607E+01
   0.129E-05 -.766E-01 0.208E+04   0.592E-05 0.883E-01 -.207E+04   0.223E-05 -.874E-02 -.706E+01
   0.735E-01 -.314E-03 0.208E+04   -.853E-01 0.166E-03 -.207E+04   0.884E-02 0.110E-03 -.706E+01
   -.354E-04 -.138E-01 0.711E+03   0.418E-04 0.246E-01 -.711E+03   -.393E-05 -.803E-02 0.649E+00
   0.323E+00 -.365E+00 0.713E+03   -.367E+00 0.417E+00 -.713E+03   0.298E-01 -.360E-01 0.557E+00
   -.552E-05 0.267E+01 -.643E+03   0.892E-05 -.235E+01 0.643E+03   -.370E-05 -.322E+00 -.473E+00
   -.269E+01 0.233E+00 -.643E+03   0.237E+01 -.246E+00 0.644E+03   0.331E+00 0.135E-01 -.406E+00
   0.146E-03 0.594E+01 -.192E+04   -.136E-03 -.624E+01 0.192E+04   -.108E-04 0.300E+00 0.872E+00
   -.188E+02 0.194E+02 -.199E+04   0.188E+02 -.194E+02 0.198E+04   -.613E-01 0.813E-01 0.607E+01
   0.132E-04 -.383E-01 0.535E+03   -.183E-04 0.181E-01 -.534E+03   0.122E-05 0.293E-01 -.197E-01
   0.425E-01 0.550E-02 0.534E+03   -.203E-01 -.149E-02 -.534E+03   -.319E-01 -.581E-02 -.320E-01
   0.642E-05 -.242E-02 0.156E+04   -.374E-05 0.350E-02 -.157E+04   -.217E-05 -.152E-02 0.350E+01
   -.494E-01 0.495E-01 0.156E+04   0.596E-01 -.585E-01 -.157E+04   -.142E-01 0.125E-01 0.349E+01
   -.431E-04 -.750E+01 -.153E+04   0.386E-04 0.736E+01 0.153E+04   0.807E-06 0.149E+00 -.503E+01
   0.758E+01 -.130E+01 -.153E+04   -.742E+01 0.129E+01 0.154E+04   -.162E+00 0.163E-01 -.503E+01
   0.182E-05 -.244E+00 -.481E+03   -.116E-05 0.249E+00 0.481E+03   -.221E-06 -.489E-02 0.317E+00
   0.186E+01 -.186E+01 -.475E+03   -.185E+01 0.184E+01 0.474E+03   -.885E-02 0.225E-01 0.555E+00
   0.872E-05 0.310E-01 0.534E+03   -.140E-04 -.656E-02 -.534E+03   -.173E-06 -.349E-01 -.391E-01
   -.106E+00 -.137E-01 0.533E+03   0.586E-01 0.150E-01 -.533E+03   0.606E-01 -.117E-02 -.186E+00
   0.451E-05 0.255E-02 0.156E+04   -.566E-05 -.352E-02 -.157E+04   0.138E-05 0.135E-02 0.349E+01
   -.449E-01 -.493E-01 0.156E+04   0.529E-01 0.585E-01 -.157E+04   -.112E-01 -.128E-01 0.349E+01
   -.449E-04 0.741E+01 -.153E+04   0.380E-04 -.726E+01 0.154E+04   0.437E-05 -.149E+00 -.502E+01
   0.255E+02 0.180E+01 -.149E+04   -.248E+02 -.179E+01 0.150E+04   -.727E+00 -.104E-01 -.491E+01
   -.743E-05 0.247E+00 -.475E+03   0.521E-05 -.251E+00 0.474E+03   0.101E-05 0.468E-02 0.402E+00
   0.194E+01 0.186E+01 -.476E+03   -.191E+01 -.184E+01 0.475E+03   -.297E-01 -.233E-01 0.493E+00
   -.802E-05 0.113E+00 0.533E+03   0.180E-04 -.639E-01 -.533E+03   -.274E-05 -.631E-01 -.196E+00
   -.425E-01 0.550E-02 0.534E+03   0.203E-01 -.150E-02 -.534E+03   0.319E-01 -.582E-02 -.320E-01
   -.245E-05 0.226E-02 0.156E+04   0.379E-05 -.332E-02 -.157E+04   0.106E-05 0.149E-02 0.349E+01
   0.494E-01 0.495E-01 0.156E+04   -.596E-01 -.585E-01 -.157E+04   0.142E-01 0.125E-01 0.349E+01
   0.267E-04 -.259E+02 -.149E+04   -.254E-04 0.250E+02 0.150E+04   -.219E-05 0.870E+00 -.474E+01
   -.757E+01 -.130E+01 -.153E+04   0.742E+01 0.129E+01 0.154E+04   0.162E+00 0.163E-01 -.503E+01
   -.630E-05 -.103E+00 -.474E+03   0.107E-04 0.109E+00 0.474E+03   -.769E-06 -.700E-02 0.407E+00
   -.186E+01 -.186E+01 -.475E+03   0.185E+01 0.184E+01 0.474E+03   0.885E-02 0.225E-01 0.555E+00
   -.115E-04 -.124E+00 0.533E+03   0.174E-04 0.798E-01 -.533E+03   -.172E-05 0.565E-01 -.172E+00
   0.106E+00 -.137E-01 0.533E+03   -.586E-01 0.150E-01 -.533E+03   -.606E-01 -.117E-02 -.186E+00
   -.549E-05 -.204E-02 0.156E+04   0.574E-05 0.323E-02 -.157E+04   0.689E-06 -.168E-02 0.347E+01
   0.449E-01 -.493E-01 0.156E+04   -.529E-01 0.585E-01 -.157E+04   0.112E-01 -.128E-01 0.349E+01
   0.439E-04 0.249E+02 -.150E+04   -.407E-04 -.243E+02 0.150E+04   0.130E-05 -.617E+00 -.498E+01
   -.255E+02 0.180E+01 -.149E+04   0.248E+02 -.179E+01 0.150E+04   0.727E+00 -.104E-01 -.491E+01
   0.500E-05 -.526E-01 -.489E+03   -.150E-05 0.439E-01 0.490E+03   -.723E-06 0.943E-02 -.115E+01
   -.194E+01 0.186E+01 -.476E+03   0.191E+01 -.184E+01 0.475E+03   0.297E-01 -.233E-01 0.493E+00
   0.968E-04 -.388E+01 0.377E+01   0.185E-12 -.163E-12 0.182E-11   -.948E-04 0.388E+01 -.375E+01

 POSITION                                       TOTAL-FORCE (eV/Angst)
      4.22049      4.35146     16.21984        -0.000059      0.001682      0.053867
      4.22049      5.36059     16.38069         0.000003      0.034879     -0.040381
      3.39386      3.96214     16.67352        -0.031209     -0.016810     -0.016420
      5.04713      3.96214     16.67352         0.031262     -0.016833     -0.016394
      0.00000      6.33074      7.50000        -0.000008     -0.001653      0.345602
      2.11025      0.00000      7.50000         0.001665      0.000019      0.346470
      0.00000      0.00000      9.61025        -0.000001      0.001460      0.018218
      2.11025      6.33074      9.61025         0.018893     -0.016609      0.031051
      0.00000      6.32807     11.72963         0.000002     -0.001407      0.035534
      2.11247      8.44090     11.72996         0.001297      0.000465      0.035127
      0.00000      8.44060     13.83033        -0.000000      0.000150     -0.005940
      2.10755      6.33104     13.82325        -0.005221      0.003815     -0.019336
      0.00000      2.11025      7.50000        -0.000001      0.001671      0.347136
      2.11025      4.22049      7.50000         0.002930     -0.000001      0.352983
      0.00000      4.22049      9.61025         0.000002     -0.002468      0.052747
      2.11025      2.11025      9.61025         0.013227      0.015318      0.031185
      8.44098      2.11218     11.73005         0.000002      0.001171      0.034590
      2.12092      4.21971     11.74367        -0.002671     -0.000183      0.034509
      0.00000      4.21955     13.82633         0.000001      0.000144     -0.016330
      2.10919      2.10798     13.82556        -0.001783     -0.003195     -0.019034
      4.22049      6.33074      7.50000         0.000001     -0.002918      0.353582
      6.33074      0.00000      7.50000        -0.001664      0.000012      0.346458
      4.22049      0.00000      9.61025         0.000000     -0.003941      0.052486
      6.33074      6.33074      9.61025        -0.018893     -0.016611      0.031042
      4.22049      6.31967     11.74432        -0.000002      0.003040      0.032837
      6.32851      8.44090     11.72996        -0.001302      0.000465      0.035128
      4.22049      0.00195     13.82613         0.000001      0.003703     -0.016381
      6.33344      6.33104     13.82325         0.005220      0.003828     -0.019342
      4.22049      2.11025      7.50000         0.000009      0.002938      0.352184
      6.33074      4.22049      7.50000        -0.002932     -0.000005      0.352976
      4.22049      4.22049      9.61025         0.000002      0.002707      0.074589
      6.33074      2.11025      9.61025        -0.013228      0.015317      0.031179
      4.22049      2.12028     11.74270        -0.000000     -0.002511      0.035871
      6.32007      4.21971     11.74367         0.002672     -0.000185      0.034509
      4.22049      4.20900     13.97009        -0.000001      0.001151      0.071259
      6.33179      2.10798     13.82556         0.001794     -0.003197     -0.019032
      0.00000      6.33074      9.61025        -0.000004      0.009286      0.064080
      2.11025      0.00000      9.61025        -0.009845     -0.001792      0.061861
      0.00000      0.00000      7.50000         0.000000     -0.000405     -0.513122
      2.11025      6.33074      7.50000        -0.004041      0.003579     -0.516437
      8.44098      6.33485     13.88845        -0.000004      0.002147      0.017492
      2.10521      8.44019     13.88916        -0.002257      0.000615      0.017470
      8.44098      8.44041     11.72652         0.000000     -0.000186      0.016342
      2.10968      6.33156     11.72946         0.000946     -0.000638      0.012617
      0.00000      2.11025      9.61025        -0.000005     -0.010600      0.060072
      2.11025      4.22049      9.61025         0.013619      0.000100      0.083456
      0.00000      4.22049      7.50000         0.000000      0.000404     -0.517070
      2.11025      2.11025      7.50000        -0.003160     -0.003599     -0.516565
      0.00000      2.10487     13.88974        -0.000002     -0.001591      0.017635
      2.08807      4.21988     13.88908        -0.015625     -0.000530      0.012982
      0.00000      4.22031     11.72488        -0.000001      0.000334      0.014945
      2.10871      2.10857     11.72879         0.000323      0.000755      0.012300
      4.22049      6.33074      9.61025         0.000007     -0.014196      0.083427
      6.33074      0.00000      9.61025         0.009841     -0.001791      0.061864
      4.22049      0.00000      7.50000         0.000002      0.000456     -0.517016
      6.33074      6.33074      7.50000         0.004041      0.003578     -0.516433
      4.22049      6.35537     13.89666        -0.000001      0.014833      0.021826
      6.33577      8.44019     13.88916         0.002256      0.000612      0.017465
      4.22049      8.43990     11.72498         0.000004     -0.000418      0.014728
      6.33130      6.33156     11.72946        -0.000944     -0.000638      0.012618
      4.22049      2.11025      9.61025         0.000004      0.012732      0.083570
      6.33074      4.22049      9.61025        -0.013622      0.000099      0.083460
      4.22049      4.22049      7.50000         0.000001     -0.000462     -0.522962
      6.33074      2.11025      7.50000         0.003152     -0.003600     -0.516561
      4.22049      2.08771     13.88457         0.000004     -0.015712      0.009687
      6.35291      4.21988     13.88908         0.015625     -0.000532      0.012982
      4.22049      4.22084     11.74772         0.000003      0.000996     -0.003543
      6.33227      2.10857     11.72879        -0.000325      0.000753      0.012301
    total drift:                                0.000002     -0.001922      0.012050

  FREE ENERGIE OF THE ION-ELECTRON SYSTEM (eV)
  free  energy   TOTEN  =      -395.87633739 eV

  energy  without entropy=     -395.87633739  energy(sigma->0) =     -395.87633739