 vasp.6.4.2 20Jul23 (build Nov 17 2023 15:39:20) complex
 executed on              LinuxNV date 2024.02.25  10:45:08
 OpenACC runtime initialized ...    4 GPUs detected

 INCAR:
   SYSTEM = Oxide-Surface
   ISMEAR = 0
   SIGMA = 0.05
   EDIFF = 1E-4
   ALGO = Normal
   ISTART = 2
   IBRION = -1
   NSW = 0
   ISYM = 0
   DIPOL = 0.5 0.5 0.5
   IDIPOL = 3
   LDIPOL = .TRUE.
   LHFCALC = .TRUE.
   HFSCREEN = 0.2
   GGA = PE
   ENCUT = 450
   PREC = Normal
   LASPH = .TRUE.
   LREAL = Auto
   ISPIN = 1
   NELM = 200
   NELMIN = 8
   NCORE = 1
   KPAR = 1
   LWAVE = .FALSE.
   LCHARG = .FALSE.

 POTCAR:    PAW_PBE H 15Jun2001
 POTCAR:    PAW_PBE O 08Apr2002
 POTCAR:    PAW_PBE Ti_pv 07Sep2000
 POTCAR:    PAW_PBE O 08Apr2002
 POTCAR:    PAW_PBE H 15Jun2001
   VRHFIN =H: ultrasoft test

   TITEL  = PAW_PBE H 15Jun2001
   POMASS =    1.000; ZVAL   =    1.000    mass and valenz
   ENMAX  =  250.000; ENMIN  =  200.000 eV

   TITEL  = PAW_PBE O 08Apr2002
   POMASS =   16.000; ZVAL   =    6.000    mass and valenz
   ENMAX  =  400.000; ENMIN  =  300.000 eV

   TITEL  = PAW_PBE Ti_pv 07Sep2000
   POMASS =   47.880; ZVAL   =   10.000    mass and valenz
   ENMAX  =  222.335; ENMIN  =  166.751 eV

   TITEL  = PAW_PBE O 08Apr2002
   POMASS =   16.000; ZVAL   =    6.000    mass and valenz
   ENMAX  =  400.000; ENMIN  =  300.000 eV

 Optimization of the real space projectors (new method)

 maximal supplied QI-value         = 34.20
 optimisation between [QCUT,QGAM] = [ 10.60, 21.55] = [ 31.48,130.03] Ry
 Optimized for a Real-space Cutoff    1.23 Angstroem

   l    n(q)    QCUT    max X(q) W(low)/X(q) W(high)/X(q)  e(spline)
   0      8    10.603    19.460    0.37E-03    0.59E-03    0.23E-06
   0      8    10.603    12.209    0.35E-03    0.56E-03    0.22E-06
   1      7    10.603     4.655    0.70E-04    0.28E-03    0.29E-06
 Optimization of the real space projectors (new method)

[...]

   l    n(q)    QCUT    max X(q) W(low)/X(q) W(high)/X(q)  e(spline)
   1      9    10.734     4.216    0.90E-04    0.17E-04    0.73E-07
   1      9    10.734     5.422    0.20E-03    0.95E-04    0.21E-06
   2      9    10.734    72.084    0.40E-03    0.60E-03    0.19E-06
   2      9    10.734    65.965    0.40E-03    0.59E-03    0.19E-06
   0      9    10.734    41.531    0.93E-04    0.36E-04    0.17E-06
   0      9    10.734    16.290    0.71E-04    0.26E-04    0.13E-06
 Optimization of the real space projectors (new method)

 maximal supplied QI-value         = 24.76
 optimisation between [QCUT,QGAM] = [ 10.64, 21.54] = [ 31.73,129.89] Ry
 Optimized for a Real-space Cutoff    1.23 Angstroem

   l    n(q)    QCUT    max X(q) W(low)/X(q) W(high)/X(q)  e(spline)
   0      8    10.645    20.381    0.38E-03    0.60E-03    0.15E-06
   0      8    10.645    15.268    0.40E-03    0.65E-03    0.17E-06
   1      7    10.645     5.964    0.30E-03    0.63E-03    0.18E-06
   1      7    10.645     5.382    0.24E-03    0.53E-03    0.16E-06
  PAW_PBE H 15Jun2001                   :
  PAW_PBE O 08Apr2002                   :
  PAW_PBE Ti_pv 07Sep2000               :
  PAW_PBE O 08Apr2002                   :

 POSCAR:  H  O Ti  O
  positions in direct lattice
 exchange correlation table for  LEXCH =        8
   RHO(1)=    0.500       N(1)  =     2000
   RHO(2)=  100.500       N(2)  =     4000

 ion  position               nearest neighbor table
   1  0.511  0.550  0.802-   3 0.97
   2  0.614  0.496  0.783-   3 1.00
   3  0.537  0.491  0.783-   1 0.97   2 1.00  83 2.23
   4  0.750  0.625  0.287-  85 1.95 145 1.95 144 1.95  84 1.95  87 1.98 166 1.98  14 2.96  34 2.96

   5  0.000  0.750  0.287-  86 1.95  87 1.95 106 1.95 107 1.95  88 1.98  35 2.96  15 2.96
   6  0.000  0.625  0.394-  88 1.95 148 1.95  89 1.95 149 1.95  90 1.98  91 1.98  16 2.96  36 2.96

[...]

  84  0.750  0.750  0.245-   4 1.95  14 1.95
  85  0.750  0.750  0.329-   4 1.95  14 1.95   7 1.98
  86  0.098  0.625  0.287-   5 1.95  35 1.95  44 1.98
  87  0.902  0.625  0.287-   5 1.95  35 1.95   4 1.98
  88  0.000  0.750  0.352-   6 1.95  16 1.95   5 1.98
  89  0.000  0.750  0.435-   6 1.95  16 1.95   9 1.98
  90  0.848  0.625  0.394-   7 1.95  37 1.95   6 1.98
  91  0.152  0.625  0.394-  47 1.95  77 1.95   6 1.98
  92  0.750  0.750  0.458-   8 1.95  18 1.95   7 1.98
  93  0.750  0.750  0.542-   8 1.95  18 1.95  11 2.10
  94  0.098  0.625  0.500-   9 1.95  39 1.95  48 1.98
  95  0.902  0.625  0.500-   9 1.95  39 1.95   8 1.98
  96  0.001  0.750  0.565-  20 1.90  10 1.90   9 2.00
  97  0.000  0.750  0.649-  13 1.81  10 2.02  20 2.02
  98  0.851  0.625  0.607-  11 1.93  41 1.93  10 2.03
  99  0.151  0.625  0.607-  10 1.87  51 2.02  81 2.02
 100  0.754  0.751  0.671-  11 1.87  12 2.08  22 2.09
 101  0.750  0.749  0.756-  12 1.83  22 1.84
 102  0.095  0.625  0.719-  43 1.94  13 1.95  52 2.03
 103  0.907  0.624  0.720-  43 1.95  13 1.96  12 2.02
 104  0.750  0.000  0.245-  14 1.95  24 1.95
 105  0.750  0.000  0.329-  14 1.95  24 1.95  17 1.98
 106  0.098  0.875  0.287-   5 1.95  15 1.95  54 1.98
 107  0.902  0.875  0.287-   5 1.95  15 1.95  14 1.98
 108  0.000  0.000  0.352-  16 1.95  26 1.95  15 1.98
 109  0.000  0.000  0.435-  16 1.95  26 1.95  19 1.98
 110  0.848  0.875  0.394-   7 1.95  17 1.95  16 1.98
 111  0.152  0.875  0.394-  47 1.95  57 1.95  16 1.98
 112  0.750  0.000  0.458-  18 1.95  28 1.95  17 1.98
 113  0.750  0.000  0.542-  18 1.95  28 1.95  21 2.10
 114  0.098  0.875  0.500-   9 1.95  19 1.95  58 1.98
 115  0.902  0.875  0.500-   9 1.95  19 1.95  18 1.98
 116  0.001  1.000  0.565-  30 1.90  20 1.90  19 2.00
 117  0.000  1.000  0.649-  23 1.81  20 2.02  30 2.02
 118  0.851  0.875  0.607-  21 1.93  11 1.93  20 2.04
 119  0.151  0.875  0.607-  20 1.87  51 2.02  61 2.02
 120  0.752  1.000  0.672-  21 1.87  32 2.09  22 2.10
 121  0.751  1.000  0.756-  32 1.83  22 1.84
 122  0.095  0.875  0.718-  13 1.94  23 1.95  62 2.04
 123  0.907  0.875  0.719-  13 1.94  23 1.95  22 2.04
 124  0.750  0.250  0.245-  24 1.95  34 1.95
 125  0.750  0.250  0.329-  24 1.95  34 1.95  27 1.98
 126  0.098  0.125  0.287-  15 1.95  25 1.95  64 1.98
 127  0.902  0.125  0.287-  15 1.95  25 1.95  24 1.98
 128  0.000  0.250  0.352-  26 1.95  36 1.95  25 1.98
 129  0.000  0.250  0.435-  26 1.95  36 1.95  29 1.98
 130  0.848  0.125  0.394-  17 1.95  27 1.95  26 1.98
 131  0.152  0.125  0.394-  57 1.95  67 1.95  26 1.98
 132  0.750  0.250  0.458-  28 1.95  38 1.95  27 1.98
 133  0.750  0.250  0.542-  28 1.95  38 1.95  31 2.10
 134  0.098  0.125  0.500-  19 1.95  29 1.95  68 1.98
 135  0.902  0.125  0.500-  19 1.95  29 1.95  28 1.98
 136  0.001  0.250  0.565-  40 1.90  30 1.90  29 2.00
 137  0.000  0.250  0.649-  33 1.81  40 2.02  30 2.02
 138  0.851  0.125  0.607-  21 1.93  31 1.93  30 2.04
 139  0.151  0.125  0.607-  30 1.87  61 2.02  71 2.02
 140  0.754  0.250  0.671-  31 1.87  42 2.07  32 2.10
 141  0.750  0.251  0.756-  42 1.83  32 1.84
 142  0.095  0.125  0.719-  33 1.94  23 1.95  72 2.04
 143  0.907  0.125  0.719-  33 1.94  23 1.95  32 2.04
[...]
 229  0.500  0.500  0.435-  46 1.95  76 1.95  79 1.98
 230  0.348  0.375  0.394-  67 1.95  77 1.95  76 1.98
 231  0.652  0.375  0.394-  27 1.95  37 1.95  76 1.98
 232  0.250  0.500  0.458-  48 1.95  78 1.95  77 1.98
 233  0.250  0.500  0.542-  48 1.95  78 1.95  81 2.11
 234  0.598  0.375  0.500-  69 1.95  79 1.95  38 1.98
 235  0.402  0.375  0.500-  69 1.95  79 1.95  78 1.98
 236  0.501  0.500  0.566-  50 1.90  80 1.90  79 2.00
 237  0.500  0.500  0.650-  83 1.89  50 1.99  80 1.99
 238  0.350  0.375  0.607-  71 1.92  81 1.93  80 2.04
 239  0.651  0.375  0.608-  80 1.87  31 2.02  41 2.02
 240  0.251  0.500  0.672-  81 1.86  52 2.09  82 2.10
 241  0.252  0.500  0.756-  82 1.84  52 1.84
 242  0.598  0.371  0.714-  73 1.92  83 1.96  42 2.02
 243  0.407  0.374  0.718-  83 1.93  73 1.94  82 2.03

IMPORTANT INFORMATION: All symmetrisations will be switched off!
NOSYMM: (Re-)initialisation of all symmetry stuff for point group C_1.

                                     Primitive cell

  volume of cell :    4700.2961

  direct lattice vectors                    reciprocal lattice vectors
    13.003980404  0.000000000  0.000000000     0.076899531  0.000000000  0.000000000
     0.000000000 11.830378115  0.000000000     0.000000000  0.084528152  0.000000000
     0.000000000  0.000000000 30.552748813     0.000000000  0.000000000  0.032730279

  length of vectors
    13.003980404 11.830378115 30.552748813     0.076899531  0.084528152  0.032730279

  position of ions in fractional coordinates (direct lattice)
     0.510874486  0.549744949  0.802031162
     0.613779755  0.496082292  0.783151407
     0.537360385  0.491119463  0.782809003
     0.750000000  0.625000000  0.287188045
     0.000000000  0.750000000  0.287188045
     0.000000000  0.625000000  0.393594023
     0.750000000  0.750000000  0.393594023
     0.750000000  0.625000000  0.500000000
     0.000000000  0.750000000  0.500000000
     0.007153851  0.625014308  0.604051248
     0.756304002  0.750075782  0.610262489
     0.751644692  0.625562917  0.719252858
     0.000794862  0.750172552  0.708180947
     0.750000000  0.875000000  0.287188045
     0.000000000  0.000000000  0.287188045
     0.000000000  0.875000000  0.393594023
     0.750000000  0.000000000  0.393594023
     0.750000000  0.875000000  0.500000000
     0.000000000  0.000000000  0.500000000
     0.007277969  0.874988203  0.604120477
     0.755823970  0.999936719  0.610540702
     0.750558456  0.874801778  0.720210742
     0.000972366  0.999860664  0.708137749
     0.750000000  0.125000000  0.287188045
     0.000000000  0.250000000  0.287188045
     0.000000000  0.125000000  0.393594023
     0.750000000  0.250000000  0.393594023
     0.750000000  0.125000000  0.500000000
     0.000000000  0.250000000  0.500000000
     0.007298258  0.124917644  0.604100230
     0.756284959  0.249808457  0.610237489
     0.750454270  0.124164987  0.720199614
     0.000891816  0.249547152  0.708163781
     0.750000000  0.375000000  0.287188045
     0.000000000  0.500000000  0.287188045
     0.000000000  0.375000000  0.393594023
     0.750000000  0.500000000  0.393594023
     0.750000000  0.375000000  0.500000000
     0.000000000  0.500000000  0.500000000
     0.007178713  0.374943068  0.604052437
     0.756563247  0.499958319  0.610421053
     0.752182607  0.373375021  0.719287257
     0.001629605  0.499997807  0.708113155
     0.250000000  0.625000000  0.287188045
     0.500000000  0.750000000  0.287188045
     0.500000000  0.625000000  0.393594023
     0.250000000  0.750000000  0.393594023
     0.250000000  0.625000000  0.500000000
     0.500000000  0.750000000  0.500000000
     0.507320083  0.622908111  0.605197857
     0.256313719  0.749863999  0.610535728
     0.251324883  0.625073828  0.720260147
     0.501526304  0.750046487  0.706999378
     0.250000000  0.875000000  0.287188045
     0.500000000  0.000000000  0.287188045
     0.500000000  0.875000000  0.393594023
     0.250000000  0.000000000  0.393594023
     0.250000000  0.875000000  0.500000000
     0.500000000  0.000000000  0.500000000
     0.507087916  0.874087949  0.603151519
[...]
     0.500000000  0.500000000  0.435304973
     0.347999548  0.375000000  0.393594023
[...]
   -.639E+02 -.245E+01 -.436E+03   0.714E+02 0.265E+01 0.436E+03   -.754E+01 -.245E+00 0.343E-02   0.708E-03 0.370E-03 -.333E-01
   0.530E+02 0.397E+02 -.257E+04   -.720E+02 -.722E+02 0.256E+04   0.168E+02 0.288E+02 0.127E+02   0.300E-02 0.349E-02 -.201E+00
   -.107E+00 -.154E-01 0.380E+04   0.103E+00 0.155E-01 -.380E+04   0.114E-02 0.720E-07 0.585E+00   0.117E-03 0.744E-04 0.310E+00
   -.498E-01 -.301E-01 0.398E+04   0.513E-01 0.302E-01 -.397E+04   -.286E-03 -.186E-04 -.420E+01   -.605E-04 -.272E-04 0.309E+00
   -.141E+00 -.484E-01 0.194E+04   0.148E+00 0.484E-01 -.194E+04   -.133E-02 0.457E-04 -.103E+00   -.763E-04 -.259E-04 0.197E+00
   -.340E+00 -.101E-01 0.193E+04   0.330E+00 0.102E-01 -.193E+04   0.261E-02 0.248E-04 0.238E+00   0.284E-03 0.598E-04 0.200E+00
   -.131E+01 -.122E+00 0.217E+01   0.126E+01 0.104E+00 -.136E+01   0.104E-01 0.178E-02 -.149E+00   0.441E-03 0.308E-04 0.372E-01
   0.153E+01 -.656E+00 0.107E+02   -.153E+01 0.660E+00 -.119E+02   -.624E-02 -.222E-02 0.382E+00   0.234E-05 0.676E-04 0.377E-01
   0.137E+02 -.183E+01 -.187E+04   -.137E+02 0.184E+01 0.187E+04   -.103E+00 -.100E-01 0.238E+00   0.518E-03 0.134E-03 -.139E+00
   0.382E+01 -.713E+01 -.193E+04   -.376E+01 0.714E+01 0.193E+04   -.128E+00 -.284E-02 -.247E+00   0.210E-03 0.766E-04 -.150E+00
   -.686E+02 -.171E+02 -.374E+04   0.684E+02 0.171E+02 0.374E+04   0.193E+00 0.857E-01 -.266E+00   0.473E-03 0.129E-02 -.289E+00
   -.516E+01 -.228E+01 -.379E+04   0.523E+01 0.232E+01 0.379E+04   -.750E-01 -.378E-01 0.122E+01   -.907E-03 -.925E-04 -.281E+00
   -.118E+00 -.199E-01 0.380E+04   0.114E+00 0.202E-01 -.380E+04   0.119E-02 -.452E-05 0.585E+00   0.113E-03 -.103E-03 0.310E+00
   -.473E-01 -.231E-02 0.398E+04   0.488E-01 0.238E-02 -.397E+04   -.288E-03 -.753E-05 -.420E+01   -.525E-04 -.394E-05 0.309E+00
   -.110E+00 -.612E-01 0.194E+04   0.116E+00 0.609E-01 -.194E+04   -.129E-02 0.597E-04 -.103E+00   -.113E-03 0.333E-04 0.197E+00
   -.431E+00 -.154E-01 0.193E+04   0.420E+00 0.151E-01 -.193E+04   0.257E-02 0.285E-04 0.239E+00   0.296E-03 -.418E-04 0.201E+00
   -.264E+01 -.460E+00 0.119E+01   0.262E+01 0.485E+00 -.382E+00   0.642E-02 -.199E-02 -.151E+00   0.461E-03 0.698E-04 0.372E-01
   0.193E+01 -.331E-01 0.987E+01   -.193E+01 0.296E-01 -.111E+02   -.639E-02 0.146E-02 0.379E+00   0.834E-05 -.147E-04 0.377E-01
   0.166E+02 -.145E+01 -.188E+04   -.166E+02 0.147E+01 0.188E+04   -.105E+00 -.891E-02 0.258E+00   0.515E-03 -.102E-03 -.139E+00
   0.556E+01 0.329E-01 -.194E+04   -.549E+01 -.277E-01 0.194E+04   -.144E+00 -.293E-02 -.259E+00   0.179E-03 -.237E-03 -.151E+00
   -.153E+02 -.164E+02 -.378E+04   0.153E+02 0.164E+02 0.378E+04   0.578E-01 0.585E-02 -.415E+00   0.983E-03 -.131E-02 -.291E+00
   -.461E+01 0.308E+00 -.380E+04   0.459E+01 -.303E+00 0.380E+04   0.137E-02 -.246E-02 0.126E+01   -.766E-03 -.486E-03 -.282E+00
   -.117E+00 0.152E-01 0.380E+04   0.112E+00 -.156E-01 -.380E+04   0.117E-02 0.288E-04 0.585E+00   0.142E-03 0.849E-04 0.310E+00
   -.500E-01 0.300E-01 0.398E+04   0.515E-01 -.302E-01 -.397E+04   -.295E-03 0.175E-04 -.420E+01   -.570E-04 0.293E-04 0.309E+00
   -.110E+00 0.510E-01 0.194E+04   0.116E+00 -.509E-01 -.194E+04   -.134E-02 -.479E-04 -.103E+00   -.860E-04 -.353E-04 0.197E+00
   -.322E+00 0.942E-02 0.193E+04   0.311E+00 -.954E-02 -.193E+04   0.253E-02 -.228E-04 0.239E+00   0.286E-03 0.470E-06 0.200E+00
   -.258E+01 0.380E+00 0.119E+01   0.255E+01 -.412E+00 -.387E+00   0.682E-02 0.288E-02 -.150E+00   0.494E-03 -.126E-03 0.371E-01
   0.157E+01 0.632E+00 0.107E+02   -.156E+01 -.635E+00 -.120E+02   -.657E-02 0.222E-02 0.382E+00   -.166E-04 -.792E-04 0.376E-01
   0.173E+02 0.153E+01 -.188E+04   -.173E+02 -.154E+01 0.188E+04   -.104E+00 0.881E-02 0.255E+00   0.539E-03 -.107E-03 -.139E+00
   0.361E+01 0.681E+01 -.193E+04   -.355E+01 -.682E+01 0.193E+04   -.131E+00 -.485E-02 -.257E+00   0.319E-03 -.468E-04 -.150E+00
   -.155E+02 0.142E+02 -.378E+04   0.154E+02 -.142E+02 0.378E+04   0.708E-01 -.233E-01 -.423E+00   0.156E-02 0.578E-04 -.291E+00
   -.465E+01 0.216E+01 -.379E+04   0.470E+01 -.220E+01 0.379E+04   -.672E-01 0.212E-01 0.122E+01   -.933E-03 -.233E-04 -.282E+00
   -.106E+00 0.201E-01 0.380E+04   0.102E+00 -.202E-01 -.380E+04   0.113E-02 -.296E-04 0.585E+00   0.116E-03 -.509E-04 0.310E+00
   -.524E-01 0.234E-02 0.398E+04   0.539E-01 -.241E-02 -.397E+04   -.295E-03 0.101E-04 -.420E+01   -.605E-04 0.230E-05 0.309E+00
   -.142E+00 0.588E-01 0.194E+04   0.149E+00 -.585E-01 -.194E+04   -.137E-02 -.112E-03 -.103E+00   -.672E-04 0.314E-04 0.197E+00
   -.234E+00 0.161E-01 0.193E+04   0.224E+00 -.157E-01 -.193E+04   0.237E-02 -.459E-04 0.238E+00   0.290E-03 -.173E-04 0.200E+00
   -.121E+01 0.210E+00 0.207E+01   0.116E+01 -.184E+00 -.127E+01   0.108E-01 -.242E-02 -.148E+00   0.420E-03 0.271E-04 0.371E-01
   0.138E+01 -.859E-02 0.116E+02   -.137E+01 0.831E-02 -.128E+02   -.746E-02 0.421E-03 0.380E+00   -.152E-04 0.298E-04 0.376E-01
   0.142E+02 0.190E+01 -.187E+04   -.141E+02 -.191E+01 0.187E+04   -.104E+00 0.506E-02 0.244E+00   0.491E-03 0.716E-04 -.139E+00
   0.255E+01 -.191E-01 -.192E+04   -.244E+01 0.180E-01 0.192E+04   -.158E+00 -.256E-02 -.270E+00   0.294E-03 0.201E-03 -.150E+00
   -.686E+02 0.138E+02 -.374E+04   0.684E+02 -.137E+02 0.374E+04   0.149E+00 -.116E+00 -.282E+00   0.951E-03 -.734E-04 -.290E+00
   -.728E+01 0.248E+00 -.379E+04   0.726E+01 -.251E+00 0.379E+04   0.299E-01 -.595E-03 0.118E+01   -.921E-03 0.600E-03 -.282E+00
   0.101E+00 -.116E-01 0.380E+04   -.976E-01 0.114E-01 -.380E+04   -.110E-02 0.205E-04 0.585E+00   -.114E-03 0.663E-04 0.310E+00
   0.556E-01 -.134E-01 0.398E+04   -.570E-01 0.138E-01 -.397E+04   0.282E-03 -.580E-04 -.421E+01   0.660E-04 0.606E-06 0.309E+00
   0.274E+00 0.130E+00 0.194E+04   -.280E+00 -.118E+00 -.194E+04   0.901E-03 -.251E-02 -.107E+00   0.241E-04 0.241E-04 0.197E+00
   0.212E+00 0.348E-01 0.193E+04   -.202E+00 -.347E-01 -.193E+04   -.203E-02 -.260E-04 0.234E+00   -.201E-03 0.159E-04 0.200E+00
   -.954E-01 0.110E+00 -.408E-01   0.156E+00 -.125E+00 0.906E+00   -.133E-01 0.159E-02 -.161E+00   -.457E-03 0.539E-04 0.373E-01
   0.349E+01 0.107E+01 0.141E+02   -.351E+01 -.116E+01 -.151E+02   -.213E-02 0.373E-01 0.304E+00   0.506E-04 0.340E-04 0.373E-01
   0.211E+02 -.115E+02 -.187E+04   -.210E+02 0.116E+02 0.187E+04   -.108E+00 -.210E-01 0.154E+00   0.763E-03 0.845E-04 -.141E+00
   0.182E+02 -.493E+01 -.194E+04   -.182E+02 0.491E+01 0.194E+04   -.137E+00 0.145E-01 -.258E+00   -.145E-02 0.102E-03 -.151E+00
   0.368E+02 -.141E+02 -.376E+04   -.369E+02 0.141E+02 0.376E+04   0.713E-01 0.587E-02 -.451E+00   -.777E-03 0.715E-03 -.292E+00
   0.198E+02 -.547E+02 -.375E+04   -.196E+02 0.547E+02 0.375E+04   -.214E+00 0.239E-02 0.134E+01   0.106E-02 -.469E-03 -.279E+00
   0.112E+00 -.163E-01 0.380E+04   -.108E+00 0.165E-01 -.380E+04   -.116E-02 0.347E-05 0.585E+00   -.101E-03 -.733E-04 0.310E+00
   0.532E-01 -.457E-02 0.398E+04   -.547E-01 0.463E-02 -.397E+04   0.284E-03 -.158E-05 -.420E+01   0.493E-04 -.321E-04 0.309E+00
   0.247E+00 0.804E-01 0.194E+04   -.253E+00 -.799E-01 -.194E+04   0.994E-03 -.748E-03 -.108E+00   0.352E-04 0.342E-04 0.197E+00
   0.297E+00 -.175E-01 0.193E+04   -.287E+00 0.173E-01 -.193E+04   -.211E-02 0.500E-04 0.234E+00   -.192E-03 0.897E-05 0.201E+00
   0.971E+00 -.147E-01 -.312E+00   -.929E+00 0.186E-01 0.117E+01   -.828E-02 -.579E-03 -.159E+00   -.502E-03 0.750E-04 0.373E-01
   0.305E+01 -.241E+00 0.171E+02   -.309E+01 0.237E+00 -.183E+02   0.562E-02 0.762E-03 0.324E+00   0.714E-04 -.613E-04 0.371E-01
   0.176E+02 -.104E+02 -.185E+04   -.175E+02 0.104E+02 0.185E+04   -.114E+00 0.456E-01 0.907E-01   0.802E-03 -.423E-04 -.138E+00
[...]
   -.530E+02 -.308E-01 0.116E+04   0.572E+02 0.301E-01 -.116E+04   -.342E+01 0.776E-03 0.163E+00   0.460E-03 -.153E-04 0.119E+00
   0.531E+02 -.185E-01 0.116E+04   -.573E+02 0.178E-01 -.116E+04   0.343E+01 0.728E-03 0.169E+00   -.418E-03 -.857E-05 0.119E+00
   -.392E-01 0.339E-01 0.507E+03   0.639E-01 -.344E-01 -.512E+03   -.299E-01 0.785E-03 0.401E+01   -.218E-03 0.168E-04 0.627E-01
   0.246E+01 0.197E+00 -.523E+03   -.277E+01 -.193E+00 0.531E+03   0.271E+00 -.662E-02 -.692E+01   -.519E-03 0.641E-04 -.202E-01
   -.544E+02 -.341E+00 0.790E+01   0.594E+02 0.336E+00 -.816E+01   -.497E+01 0.209E-01 0.270E+00   0.374E-03 -.124E-04 0.222E-01
   0.553E+02 -.427E+00 0.496E+01   -.603E+02 0.420E+00 -.516E+01   0.501E+01 0.242E-01 0.234E+00   -.320E-03 -.713E-05 0.221E-01
   0.121E+02 0.596E+00 -.621E+03   -.133E+02 -.692E+00 0.614E+03   0.107E+01 0.892E-01 0.657E+01   0.177E-03 0.640E-04 -.453E-01
   0.195E+02 -.189E+01 -.161E+04   -.210E+02 0.196E+01 0.161E+04   0.133E+01 -.688E-01 -.118E+01   0.435E-03 0.307E-03 -.124E+00
   -.491E+02 0.197E+01 -.113E+04   0.558E+02 -.202E+01 0.113E+04   -.595E+01 0.452E-01 0.129E+01   -.999E-04 0.963E-04 -.872E-01
   0.989E+00 0.406E+01 -.114E+04   -.875E+00 -.422E+01 0.114E+04   -.522E-01 0.139E+00 0.402E+00   0.138E-03 0.861E-04 -.874E-01
   0.184E+02 -.540E+00 -.181E+04   -.188E+02 0.514E+00 0.182E+04   0.392E+00 0.245E-01 -.214E+01   -.869E-03 0.342E-03 -.143E+00
   0.369E+02 0.606E+00 -.272E+04   -.367E+02 -.670E+00 0.275E+04   -.187E+00 0.569E-01 -.199E+02   -.337E-03 0.992E-03 -.197E+00
   -.470E+02 0.418E+02 -.223E+04   0.535E+02 -.415E+02 0.223E+04   -.593E+01 -.279E+00 -.590E+00   0.106E-02 0.273E-03 -.174E+00
   0.629E+02 0.336E+02 -.231E+04   -.696E+02 -.338E+02 0.231E+04   0.608E+01 0.851E-01 -.319E+01   0.401E-03 0.503E-03 -.177E+00
   0.158E+02 -.276E+02 0.832E+02   0.384E-12 0.251E-11 -.323E-10   -.156E+02 0.236E+02 -.793E+02   0.317E-02 0.432E-02 0.368E+01

 POSITION                                       TOTAL-FORCE (eV/Angst)
      6.64340      6.50369     24.50426         0.119242     -0.338347     -0.261805
      7.98158      5.86884     23.92743        -0.376722     -0.056633     -0.032840
      6.98782      5.81013     23.91697         0.250334      0.415369      0.084769
      9.75299      7.39399      8.77438        -0.002518      0.000151     -4.031714
      0.00000      8.87278      8.77438         0.001281      0.000154      3.242054
      0.00000      7.39399     12.02538         0.005355      0.000079      0.561115
      9.75299      8.87278     12.02538        -0.007741      0.000271     -0.817979
      9.75299      7.39399     15.27637        -0.036037     -0.017361      0.705090
      0.00000      8.87278     15.27637        -0.000539      0.002102     -0.813501
      0.09303      7.39416     18.45543         0.075654      0.002054     -0.002264
      9.83496      8.87368     18.64520        -0.012033      0.002048      0.149942
      9.77437      7.40065     21.97515        -0.051383      0.080098      0.340979
      0.01034      8.87482     21.63687         0.008204      0.016371     -0.100177
      9.75299     10.35158      8.77438        -0.002637      0.000262     -4.031870
      0.00000      0.00000      8.77438         0.001277      0.000114      3.241859
      0.00000     10.35158     12.02538         0.005173     -0.000172      0.561164
      9.75299      0.00000     12.02538        -0.007855     -0.000324     -0.819101
      9.75299     10.35158     15.27637        -0.018230      0.024482      0.712175
      0.00000      0.00000     15.27637        -0.001467     -0.001935     -0.810093
      0.09464     10.35144     18.45754         0.072174      0.003053      0.000299
      9.82872     11.82963     18.65370        -0.015645      0.002347      0.151057
      9.76025     10.34924     22.00442        -0.005767      0.014583      0.366650
      0.01264     11.82873     21.63555        -0.002866      0.002877     -0.103323
      9.75299      1.47880      8.77438        -0.002620     -0.000137     -4.032079
      0.00000      2.95759      8.77438         0.001302     -0.000044      3.241868
      0.00000      1.47880     12.02538         0.005315     -0.000012      0.560898
      9.75299      2.95759     12.02538        -0.007527     -0.000106     -0.819057
      9.75299      1.47880     15.27637        -0.017221     -0.030655      0.708242
      0.00000      2.95759     15.27637         0.001011     -0.000601     -0.814265
      0.09491      1.47782     18.45692         0.073024     -0.003659     -0.000105
      9.83471      2.95533     18.64443        -0.016842     -0.001355      0.154354
      9.75889      1.46892     22.00408        -0.003933     -0.020891      0.364470
      0.01160      2.95224     21.63635         0.006924     -0.017637     -0.099185
      9.75299      4.43639      8.77438        -0.002499     -0.000053     -4.031919
      0.00000      5.91519      8.77438         0.001313      0.000000      3.242088
      0.00000      4.43639     12.02538         0.005498      0.000334      0.560934
      9.75299      5.91519     12.02538        -0.007413      0.000387     -0.817645
      9.75299      4.43639     15.27637        -0.037748      0.023762      0.701710
      0.00000      5.91519     15.27637         0.000723      0.000266     -0.816791
      0.09335      4.43572     18.45546         0.073962     -0.001404     -0.002181
      9.83833      5.91470     18.65004        -0.010758     -0.002636      0.157321
      9.78137      4.41717     21.97620        -0.063158     -0.101416      0.338710
      0.02119      5.91516     21.63480         0.009402     -0.001590     -0.086611
      3.25100      7.39399      8.77438         0.002740     -0.000010     -4.029511
      6.50199      8.87278      8.77438        -0.001017      0.000411      3.248321
      6.50199      7.39399     12.02538        -0.005030      0.009507      0.583383
      3.25100      8.87278     12.02538         0.008051      0.000155     -0.802237
      3.25100      7.39399     15.27637         0.047078     -0.013908      0.757013
      6.50199      8.87278     15.27637        -0.026999     -0.051561     -0.688523
      6.59718      7.36924     18.49046         0.055543     -0.017941      0.004209
      3.33310      8.87117     18.65354        -0.004798     -0.007600      0.154783
      3.26822      7.39486     22.00593         0.000277      0.003559      0.384765
      6.52184      8.87333     21.60077         0.009228     -0.008064     -0.103869
      3.25100     10.35158      8.77438         0.002872      0.000230     -4.029746
      6.50199      0.00000      8.77438        -0.001008      0.000082      3.248394
      6.50199     10.35158     12.02538        -0.005180     -0.000248      0.585440
      3.25100      0.00000     12.02538         0.008292     -0.000098     -0.803404
      3.25100     10.35158     15.27637         0.034653      0.003483      0.750463
      6.50199      0.00000     15.27637        -0.032362     -0.002984     -0.871946
      6.59416     10.34079     18.42794         0.052502     -0.008817      0.013819
[...]
      6.50199      5.91519     13.29976         0.003991     -0.000677     -0.310161
      4.52538      4.43639     12.02538         0.295102      0.000241      0.060493
      8.47860      4.43639     12.02538        -0.288737      0.000259      0.062332
      3.25100      5.91519     14.00199        -0.009946      0.000552      0.050985
      3.25100      5.91519     16.55076         0.004609     -0.002701     -0.216367
      7.77637      4.43639     15.27637        -0.664882      0.020211      0.074136
      5.22761      4.43639     15.27637         0.705427      0.022142      0.093081
      6.51652      5.91257     17.27859         0.027742      0.006195      0.208125
      6.49826      5.91976     19.84679         0.036134     -0.006508     -0.086447
      4.55649      4.43633     18.54881        -0.166910     -0.000075      0.038656
      8.46983      4.43629     18.56617         0.050004      0.002328      0.013558
      3.26637      5.91968     20.51974         0.020131      0.001666     -0.039046
      3.28156      5.91325     23.09083        -0.024481      0.002864     -0.623476
      7.77014      4.39492     21.81608        -0.308918     -0.029850      0.042894
      5.29699      4.42315     21.93300         0.301050     -0.012170     -0.038653
    total drift:                               -0.029181     -0.013826     -0.393119

  FREE ENERGIE OF THE ION-ELECTRON SYSTEM (eV)
  free  energy   TOTEN  =     -2637.58248697 eV

  energy  without entropy=    -2637.58248697  energy(sigma->0) =    -2637.58248697

     |            E. Caldeweyher, S. Ehlert & S. Grimme          |
     |          Mulliken Center for Theoretical Chemistry        |
     |                    University of Bonn                     |

Rational (Becke-Johnson) damping: hse06-D4-ATM
  s6         1.0000
  s8         1.1953
  s9         1.0000
  a1         0.3866
  a2         5.1913
 alp        16.0000

Dispersion energy:      -1.4403792028091E+00 Eh