 vasp.6.3.0 20Jan22 (build Apr  1 2022 16:44:48) complex
 executed on        HPECrayEX_GCC date 2022.11.13  10:30:12

 INCAR:
   SYSTEM = MgO-rocksalt
   ISMEAR = 0
   SIGMA = 0.05
   EDIFF = 1E-6
   ALGO = ALL
   ISTART = 0
   IBRION = -1
   NSW = 0
   ISYM = 0
   DIPOL = 0.5 0.5 0.5
   IDIPOL = 3
   LDIPOL = .TRUE.
   LHFCALC = .TRUE.
   GGA = B5
   AEXX = 0.2
   AGGAX = 0.72
   AGGAC = 0.81
   ALDAC = 0.19
   IVDW = 1
   VDW_S6 = 1.05
   VDW_C6 = 0.63 0.70
   VDW_R0 = 1.243 1.342
   ENCUT = 600
   PREC = Accurate
   LASPH = .TRUE.
   LREAL = .FALSE.
   ISPIN = 1
   NELM = 200
   NELMIN = 8
   NCORE = 8
   KPAR = 1
   LWAVE = .FALSE.
   LCHARG = .FALSE.

 POTCAR:    PAW_PBE Mg_pv 13Apr2007
 POTCAR:    PAW_PBE O 08Apr2002
 POTCAR:    PAW_PBE Mg_pv 13Apr2007
   VRHFIN =Mg: p6s2

   TITEL  = PAW_PBE Mg_pv 13Apr2007
   POMASS =   24.305; ZVAL   =    8.000    mass and valenz
   ENMAX  =  403.929; ENMIN  =  302.947 eV

   TITEL  = PAW_PBE O 08Apr2002
   POMASS =   16.000; ZVAL   =    6.000    mass and valenz
   ENMAX  =  400.000; ENMIN  =  300.000 eV

  PAW_PBE Mg_pv 13Apr2007               :
  PAW_PBE O 08Apr2002                   :

 POSCAR: Mg  O
  positions in direct lattice
 exchange correlation table for  LEXCH =       12
   RHO(1)=    0.500       N(1)  =     2000
   RHO(2)=  100.500       N(2)  =     4000

 ion  position               nearest neighbor table
   1  0.250  0.000  0.353-  35 2.09  36 2.09  43 2.09  52 2.09  33 2.09
   2  0.500  0.250  0.353-  35 2.09  36 2.09  44 2.09  51 2.09  34 2.09
   3  0.250  0.250  0.451-  33 2.09  34 2.09  41 2.09  50 2.09  35 2.09  39 2.09
   4  0.500  0.000  0.451-  33 2.09  34 2.09  42 2.09  49 2.09  36 2.09  40 2.09
   5  0.250  1.000  0.550-  56 2.09  39 2.09  40 2.09  47 2.09  33 2.10  37 2.12
   6  0.500  0.250  0.550-  39 2.09  55 2.09  48 2.09  40 2.09  34 2.10  38 2.11
   7  0.250  0.250  0.647-  39 2.08  54 2.09  37 2.09  45 2.09  38 2.09
   8  0.500  0.000  0.647-  38 2.08  40 2.08  37 2.09  53 2.09  46 2.09
   9  0.250  0.500  0.353-  35 2.09  43 2.09  44 2.09  60 2.09  41 2.09
  10  0.500  0.750  0.353-  36 2.09  43 2.09  44 2.09  59 2.09  42 2.09
  11  0.250  0.750  0.451-  33 2.09  41 2.09  42 2.09  58 2.09  43 2.09  47 2.09
  12  0.500  0.500  0.451-  34 2.09  41 2.09  42 2.09  57 2.09  44 2.09  48 2.10
  13  0.250  0.500  0.550-  39 2.09  47 2.09  48 2.09  64 2.09  41 2.10  45 2.11
  14  0.500  0.750  0.550-  63 2.08  48 2.08  40 2.09  47 2.09  42 2.11  46 2.14
  15  0.250  0.750  0.647-  62 2.08  47 2.08  37 2.09  45 2.09  46 2.09
  16  0.498  0.498  0.648-  38 2.08  45 2.08  48 2.09  61 2.10  46 2.10
  17  0.750  0.000  0.353-  36 2.09  51 2.09  52 2.09  59 2.09  49 2.09
  18  0.000  0.250  0.353-  35 2.09  51 2.09  52 2.09  60 2.09  50 2.09
  19  0.750  0.250  0.451-  34 2.09  49 2.09  50 2.09  57 2.09  51 2.09  55 2.09
  20  0.000  0.000  0.451-  33 2.09  49 2.09  50 2.09  58 2.09  52 2.09  56 2.09
  21  0.750  0.000  0.550-  56 2.09  40 2.09  63 2.09  55 2.09  49 2.10  53 2.11
  22  1.000  0.250  0.550-  56 2.09  39 2.09  64 2.09  55 2.09  50 2.10  54 2.12
  23  0.750  0.250  0.647-  53 2.08  55 2.08  54 2.09  38 2.09  61 2.09
  24  0.000  0.000  0.647-  56 2.08  54 2.09  37 2.09  62 2.09  53 2.09
  25  0.750  0.500  0.353-  44 2.09  51 2.09  59 2.09  60 2.09  57 2.09
  26  0.000  0.750  0.353-  43 2.09  52 2.09  59 2.09  60 2.09  58 2.09
  27  0.750  0.750  0.451-  42 2.09  49 2.09  57 2.09  58 2.09  59 2.09  63 2.10
  28  0.000  0.500  0.451-  41 2.09  50 2.09  57 2.09  58 2.09  60 2.09  64 2.09
  29  0.750  0.500  0.550-  63 2.08  48 2.08  64 2.09  55 2.09  57 2.11  61 2.14
  30  0.000  0.750  0.550-  56 2.09  64 2.09  63 2.09  47 2.09  58 2.10  62 2.11
  31  0.752  0.752  0.648-  53 2.08  62 2.08  63 2.09  46 2.10  61 2.10
  32  0.000  0.500  0.647-  45 2.08  64 2.08  54 2.09  62 2.09  61 2.09
  33  0.250  0.000  0.451-   3 2.09   4 2.09  11 2.09  20 2.09   1 2.09   5 2.10
  34  0.500  0.250  0.451-   3 2.09   4 2.09  12 2.09  19 2.09   2 2.09   6 2.10
  35  0.250  0.250  0.353-   1 2.09   2 2.09   9 2.09  18 2.09   3 2.09
  36  0.500  0.000  0.353-   1 2.09   2 2.09  10 2.09  17 2.09   4 2.09
  37  0.250  1.000  0.650-   7 2.09  24 2.09   8 2.09  15 2.09   5 2.12
  38  0.500  0.249  0.649-  16 2.08   8 2.08   7 2.09  23 2.09   6 2.11
  39  0.250  0.250  0.549-   7 2.08  22 2.09   5 2.09  13 2.09   6 2.09   3 2.09
  40  0.500  1.000  0.549-   8 2.08  14 2.09   5 2.09  21 2.09   6 2.09   4 2.09
  41  0.250  0.500  0.451-   3 2.09  11 2.09  12 2.09  28 2.09   9 2.09  13 2.10
  42  0.500  0.750  0.451-   4 2.09  11 2.09  12 2.09  27 2.09  10 2.09  14 2.11
  43  0.250  0.750  0.353-   1 2.09   9 2.09  10 2.09  26 2.09  11 2.09
  44  0.500  0.500  0.353-   2 2.09   9 2.09  10 2.09  25 2.09  12 2.09
  45  0.249  0.500  0.649-  16 2.08  32 2.08   7 2.09  15 2.09  13 2.11
  46  0.500  0.750  0.650-   8 2.09  15 2.09  16 2.10  31 2.10  14 2.14
  47  0.250  0.750  0.549-  15 2.08  14 2.09   5 2.09  13 2.09  30 2.09  11 2.09
  48  0.500  0.500  0.550-  29 2.08  14 2.08  16 2.09   6 2.09  13 2.09  12 2.10
  49  0.750  0.000  0.451-   4 2.09  19 2.09  20 2.09  27 2.09  17 2.09  21 2.10
  50  0.000  0.250  0.451-   3 2.09  19 2.09  20 2.09  28 2.09  18 2.09  22 2.10
  51  0.750  0.250  0.353-   2 2.09  17 2.09  18 2.09  25 2.09  19 2.09
  52  0.000  0.000  0.353-   1 2.09  17 2.09  18 2.09  26 2.09  20 2.09
  53  0.750  0.001  0.649-  31 2.08  23 2.08  24 2.09   8 2.09  21 2.11
  54  1.000  0.250  0.650-   7 2.09  24 2.09  32 2.09  23 2.09  22 2.12
  55  0.750  0.250  0.549-  23 2.08  29 2.09  22 2.09   6 2.09  21 2.09  19 2.09
  56  0.000  0.000  0.549-  24 2.08   5 2.09  22 2.09  30 2.09  21 2.09  20 2.09
  57  0.750  0.500  0.451-  12 2.09  19 2.09  27 2.09  28 2.09  25 2.09  29 2.11
  58  0.000  0.750  0.451-  11 2.09  20 2.09  27 2.09  28 2.09  26 2.09  30 2.10
  59  0.750  0.750  0.353-  10 2.09  17 2.09  25 2.09  26 2.09  27 2.09
  60  0.000  0.500  0.353-   9 2.09  18 2.09  25 2.09  26 2.09  28 2.09
  61  0.750  0.500  0.650-  32 2.09  23 2.09  16 2.10  31 2.10  29 2.14
  62  0.001  0.750  0.649-  31 2.08  15 2.08  24 2.09  32 2.09  30 2.11
  63  0.750  0.750  0.550-  14 2.08  29 2.08  31 2.09  21 2.09  30 2.09  27 2.10
  64  1.000  0.500  0.549-  32 2.08  29 2.09  22 2.09  30 2.09  13 2.09  28 2.09

IMPORTANT INFORMATION: All symmetrisations will be switched off!
NOSYMM: (Re-)initialisation of all symmetry stuff for point group C_1.

                                     Primitive cell

  volume of cell :    1482.1129

  direct lattice vectors                    reciprocal lattice vectors
     8.349111827  0.000000000  0.000000000     0.119773219  0.000000000  0.000000000
     0.000000000  8.349111827  0.000000000     0.000000000  0.119773219  0.000000000
     0.000000000  0.000000000 21.261833870     0.000000000  0.000000000  0.047032632

  length of vectors
     8.349111827  8.349111827 21.261833870     0.119773219  0.119773219  0.047032632

  position of ions in fractional coordinates (direct lattice)
     0.250000000  0.000000000  0.352744737
     0.500000000  0.250000000  0.352744737
     0.250000000  0.250000000  0.450914912
     0.500000000  0.000000000  0.450914912
     0.250062449  0.999936690  0.549666215
     0.499921587  0.249849112  0.549667335
     0.249756302  0.249756302  0.647318159
     0.500157064  0.000281170  0.647218062
     0.250000000  0.500000000  0.352744737
     0.500000000  0.750000000  0.352744737
     0.250000000  0.750000000  0.450914912
     0.500000000  0.500000000  0.450914912
     0.249849094  0.499921568  0.549667335
     0.500301750  0.749697801  0.549921991
     0.249715158  0.749840134  0.647217613
     0.497810754  0.497810749  0.647717265
     0.750000000  0.000000000  0.352744737
     0.000000000  0.250000000  0.352744737
     0.750000000  0.250000000  0.450914912
     0.000000000  0.000000000  0.450914912
     0.750077631  0.000149648  0.549667152
     0.999936686  0.250062443  0.549666214
     0.749840143  0.249715168  0.647217606
     0.000241465  0.000241468  0.647318174
     0.750000000  0.500000000  0.352744737
     0.000000000  0.750000000  0.352744737
     0.750000000  0.750000000  0.450914912
     0.000000000  0.500000000  0.450914912
     0.749697800  0.500301746  0.549921990
     0.000149665  0.750077649  0.549667150
     0.752188562  0.752188567  0.647717173
     0.000281175  0.500157070  0.647218071
     0.250000000  0.000000000  0.450914912
     0.500000000  0.250000000  0.450914912
     0.250000000  0.250000000  0.352744737
     0.500000000  0.000000000  0.352744737
     0.250115311  0.999882549  0.649592991
     0.499767654  0.249204261  0.649067907
     0.249868479  0.249868491  0.549340716
     0.500009833  0.999602795  0.549396571
     0.250000000  0.500000000  0.450914912
     0.500000000  0.750000000  0.450914912
     0.250000000  0.750000000  0.352744737
     0.500000000  0.500000000  0.352744737
     0.249204265  0.499767648  0.649067910
     0.500239080  0.749759557  0.650388467
     0.250395400  0.749989153  0.549396665
     0.500014827  0.500014828  0.549614152
     0.750000000  0.000000000  0.450914912
     0.000000000  0.250000000  0.450914912
     0.750000000  0.250000000  0.352744737
     0.000000000  0.000000000  0.352744737
     0.750230666  0.000793426  0.649067803
     0.999882553  0.250115312  0.649592991
     0.749989152  0.250395412  0.549396662
     0.000130749  0.000130739  0.549340477
     0.750000000  0.500000000  0.450914912
     0.000000000  0.750000000  0.450914912
     0.750000000  0.750000000  0.352744737
     0.000000000  0.500000000  0.352744737
     0.749759554  0.500239078  0.650388467
     0.000793422  0.750230677  0.649067806
     0.749984512  0.749984516  0.549613904
     0.999602809  0.500009832  0.549396572

  ion indices of the primitive-cell ions
   primitive index   ion index
                 1           1
                 2           2
                 3           3
                 4           4
                 5           5
                 6           6
                 7           7
                 8           8
                 9           9
                10          10
                11          11
                12          12
                13          13
                14          14
                15          15
                16          16
                17          17
                18          18
                19          19
                20          20
                21          21
                22          22
                23          23
                24          24
                25          25
                26          26
                27          27
                28          28
                29          29
                30          30
                31          31
                32          32
                33          33
                34          34
                35          35
                36          36
                37          37
                38          38
                39          39
                40          40
                41          41
                42          42
                43          43
                44          44
[...]
   0.50000000  0.75000000  0.45091491
   0.25000000  0.75000000  0.35274474
   0.50000000  0.50000000  0.35274474
   0.24920426  0.49976765  0.64906791
   0.50023908  0.74975956  0.65038847
   0.25039540  0.74998915  0.54939667
   0.50001483  0.50001483  0.54961415
   0.75000000  0.00000000  0.45091491
   0.00000000  0.25000000  0.45091491
   0.75000000  0.25000000  0.35274474
   0.00000000  0.00000000  0.35274474
   0.75023067  0.00079343  0.64906780
   0.99988255  0.25011531  0.64959299
   0.74998915  0.25039541  0.54939666
   0.00013075  0.00013074  0.54934048
   0.75000000  0.50000000  0.45091491
   0.00000000  0.75000000  0.45091491
   0.75000000  0.75000000  0.35274474
   0.00000000  0.50000000  0.35274474
   0.74975955  0.50023908  0.65038847
   0.00079342  0.75023068  0.64906781
   0.74998451  0.74998452  0.54961390
   0.99960281  0.50000983  0.54939657

 position of ions in cartesian coordinates  (Angst):
   2.08727796  0.00000000  7.50000000
   4.17455591  2.08727796  7.50000000
   2.08727796  2.08727796  9.58727796
   4.17455591  0.00000000  9.58727796
   2.08779935  8.34858324 11.68691174
   4.17390124  2.08601817 11.68693557
   2.08524329  2.08524330 13.76317116
   4.17586726  0.00234752 13.76104292
   2.08727796  4.17455591  7.50000000
   4.17455591  6.26183387  7.50000000
   2.08727796  6.26183387  9.58727796
   4.17455591  4.17455591  9.58727796
   2.08601802  4.17390107 11.68693556
   4.17707526  6.25931077 11.69235001
   2.08489978  6.26049913 13.76103335
   4.15627765  4.15627761 13.77165689
   6.26183387  0.00000000  7.50000000
   0.00000000  2.08727796  7.50000000
   6.26183387  2.08727796  9.58727796
   0.00000000  0.00000000  9.58727796
   6.26248202  0.00124943 11.68693166
   8.34858321  2.08779930 11.68691173
   6.26049920  2.08489987 13.76103321
   0.00201602  0.00201604 13.76317148
   6.26183387  4.17455591  7.50000000
   0.00000000  6.26183387  7.50000000
   6.26183387  6.26183387  9.58727796
   0.00000000  4.17455591  9.58727796
   6.25931077  4.17707522 11.69234999
   0.00124957  6.26248217 11.68693164
   6.28010642  6.28010646 13.77165492
   0.00234756  4.17586731 13.76104310
   2.08727796  0.00000000  9.58727796
   4.17455591  2.08727796  9.58727796
   2.08727796  2.08727796  7.50000000
   4.17455591  0.00000000  7.50000000
   2.08824070  8.34813121 13.81153825
   4.17261603  2.08063424 13.80037401
   2.08617987  2.08617998 11.67999104
   4.17463801  8.34579552 11.68117862
   2.08727796  4.17455591  9.58727796
   4.17455591  6.26183387  9.58727796
   2.08727796  6.26183387  7.50000000
   4.17455591  4.17455591  7.50000000
   2.08063427  4.17261598 13.80037406
   4.17655202  6.25982638 13.82845154
   2.09057920  6.26174331 11.68118062
   4.17467971  4.17467971 11.68580479
   6.26183387  0.00000000  9.58727796
   0.00000000  2.08727796  9.58727796
   6.26183387  2.08727796  7.50000000
   0.00000000  0.00000000  7.50000000
   6.26375973  0.00662441 13.80037180
   8.34813125  2.08824071 13.81153825
   6.26174330  2.09057929 11.68118056
   0.00109164  0.00109156 11.67998595
   6.26183387  4.17455591  9.58727796
   0.00000000  6.26183387  9.58727796
   6.26183387  6.26183387  7.50000000
   0.00000000  4.17455591  7.50000000
   6.25982636  4.17655200 13.82845153
   0.00662437  6.26375981 13.80037186
   6.26170456  6.26170460 11.68579952
   8.34579563  4.17463800 11.68117865

--------------------------------------- Iteration      FINAL  ---------------------------------------

--------------------OUTCAR has been truncated-------------------------

[...]

--------------------OUTCAR has been truncated-------------------------

  DFT-D2 method for vdW energy calculation

  Parameters of vdW forcefield:
         C6(Jnm^6/mol)     R0(A)
   Mg       0.630          1.243
   O        0.700          1.342

  vdW correction parametrized for the method ê^þ      

  IVDW =   1
  VDW_RADIUS =    50.000 A
  VDW_S6 =     1.050
  VDW_SR =     1.000
  VDW_D =    20.000
  LVDW_EWALD = F

  Number of pair interactions contributing to vdW energy:  742636
  Edisp (eV):   -5.30708

 VOLUME and BASIS-vectors are now :
  energy-cutoff  :      600.00
  volume of cell :     1482.11
      direct lattice vectors                 reciprocal lattice vectors
     8.349111827  0.000000000  0.000000000     0.119773219  0.000000000  0.000000000
     0.000000000  8.349111827  0.000000000     0.000000000  0.119773219  0.000000000
     0.000000000  0.000000000 21.261833870     0.000000000  0.000000000  0.047032632

  length of vectors
     8.349111827  8.349111827 21.261833870     0.119773219  0.119773219  0.047032632

 FORCES acting on ions:
    Electron-Ion                     Ewald-Force                    Non-Local-Force
   -.794E-01 0.792E-01 0.212E+04   0.809E-01 -.808E-01 -.212E+04   -.103E-02 0.104E-02 -.644E+01
   -.793E-01 -.948E-01 0.212E+04   0.806E-01 0.960E-01 -.212E+04   -.793E-03 -.808E-03 -.643E+01
   -.265E+00 -.265E+00 0.703E+03   0.248E+00 0.247E+00 -.704E+03   0.119E-01 0.119E-01 0.405E+00
   -.248E+00 0.490E+00 0.703E+03   0.237E+00 -.548E+00 -.703E+03   0.778E-02 0.366E-01 0.415E+00
   -.643E+00 0.641E+00 -.709E+03   0.655E+00 -.653E+00 0.709E+03   -.601E-02 0.603E-02 -.131E+00
   -.694E+00 -.877E+00 -.706E+03   0.707E+00 0.921E+00 0.706E+03   -.707E-02 -.316E-01 -.244E+00
   0.335E+00 0.335E+00 -.211E+04   -.516E+00 -.516E+00 0.210E+04   0.124E+00 0.124E+00 0.545E+01
   0.699E-01 0.382E+01 -.211E+04   -.240E+00 -.392E+01 0.210E+04   0.116E+00 0.253E-02 0.536E+01
   -.948E-01 -.793E-01 0.212E+04   0.960E-01 0.806E-01 -.212E+04   -.809E-03 -.804E-03 -.643E+01
   -.909E-01 0.911E-01 0.212E+04   0.934E-01 -.937E-01 -.212E+04   -.170E-02 0.171E-02 -.645E+01
   -.491E+00 0.249E+00 0.703E+03   0.549E+00 -.237E+00 -.703E+03   -.366E-01 -.774E-02 0.415E+00
   -.490E+00 -.490E+00 0.701E+03   0.522E+00 0.522E+00 -.702E+03   -.213E-01 -.213E-01 0.474E+00
   -.877E+00 -.694E+00 -.706E+03   0.921E+00 0.707E+00 0.706E+03   -.315E-01 -.706E-02 -.244E+00
   -.121E+01 0.122E+01 -.715E+03   0.126E+01 -.126E+01 0.715E+03   -.351E-01 0.349E-01 -.141E+00
   -.382E+01 -.698E-01 -.211E+04   0.393E+01 0.240E+00 0.210E+04   -.216E-02 -.115E+00 0.536E+01
   -.623E+01 -.623E+01 -.211E+04   0.642E+01 0.642E+01 0.210E+04   0.607E-01 0.607E-01 0.540E+01
   0.794E-01 0.945E-01 0.212E+04   -.807E-01 -.958E-01 -.212E+04   0.802E-03 0.807E-03 -.643E+01
   0.792E-01 -.794E-01 0.212E+04   -.808E-01 0.809E-01 -.212E+04   0.103E-02 -.104E-02 -.644E+01
   0.249E+00 -.491E+00 0.703E+03   -.237E+00 0.549E+00 -.703E+03   -.775E-02 -.366E-01 0.415E+00
   0.265E+00 0.264E+00 0.703E+03   -.247E+00 -.247E+00 -.704E+03   -.119E-01 -.118E-01 0.405E+00
   0.696E+00 0.875E+00 -.706E+03   -.709E+00 -.919E+00 0.706E+03   0.706E-02 0.315E-01 -.244E+00
   0.641E+00 -.642E+00 -.709E+03   -.653E+00 0.654E+00 0.709E+03   0.603E-02 -.602E-02 -.131E+00
   -.698E-01 -.382E+01 -.211E+04   0.240E+00 0.393E+01 0.210E+04   -.115E+00 -.216E-02 0.536E+01
   -.337E+00 -.338E+00 -.211E+04   0.518E+00 0.518E+00 0.210E+04   -.124E+00 -.124E+00 0.545E+01
   0.911E-01 -.909E-01 0.212E+04   -.937E-01 0.934E-01 -.212E+04   0.171E-02 -.171E-02 -.645E+01
   0.945E-01 0.794E-01 0.212E+04   -.958E-01 -.807E-01 -.212E+04   0.806E-03 0.802E-03 -.643E+01
   0.491E+00 0.491E+00 0.701E+03   -.523E+00 -.523E+00 -.702E+03   0.213E-01 0.213E-01 0.474E+00
   0.490E+00 -.248E+00 0.703E+03   -.548E+00 0.237E+00 -.703E+03   0.366E-01 0.777E-02 0.415E+00
   0.122E+01 -.121E+01 -.715E+03   -.126E+01 0.126E+01 0.715E+03   0.349E-01 -.351E-01 -.141E+00
   0.876E+00 0.696E+00 -.706E+03   -.919E+00 -.709E+00 0.706E+03   0.315E-01 0.705E-02 -.244E+00
   0.624E+01 0.624E+01 -.211E+04   -.642E+01 -.642E+01 0.210E+04   -.610E-01 -.610E-01 0.540E+01
   0.382E+01 0.698E-01 -.211E+04   -.392E+01 -.240E+00 0.210E+04   0.254E-02 0.116E+00 0.536E+01
   -.241E+00 0.241E+00 0.527E+03   0.241E+00 -.240E+00 -.527E+03   0.144E-02 -.148E-02 -.943E-01
   -.251E+00 -.356E+00 0.527E+03   0.257E+00 0.365E+00 -.527E+03   -.781E-02 -.995E-02 -.669E-01
   -.528E-01 -.528E-01 0.160E+04   0.517E-01 0.517E-01 -.160E+04   0.132E-02 0.132E-02 0.311E+01
   -.526E-01 0.771E-01 0.160E+04   0.513E-01 -.815E-01 -.160E+04   0.155E-02 0.543E-02 0.310E+01
   -.768E+00 0.767E+00 -.160E+04   0.875E+00 -.875E+00 0.161E+04   -.119E+00 0.119E+00 -.470E+01
   -.973E+00 -.842E-01 -.160E+04   0.108E+01 -.696E-01 0.161E+04   -.117E+00 0.167E+00 -.447E+01
   -.777E-01 -.776E-01 -.525E+03   0.759E-01 0.759E-01 0.524E+03   0.693E-02 0.693E-02 0.278E+00
   -.994E-01 0.135E+01 -.525E+03   0.953E-01 -.140E+01 0.525E+03   0.899E-02 0.718E-01 0.316E+00
   -.356E+00 -.251E+00 0.527E+03   0.365E+00 0.257E+00 -.527E+03   -.996E-02 -.781E-02 -.669E-01
   -.303E+00 0.304E+00 0.525E+03   0.282E+00 -.283E+00 -.525E+03   0.258E-01 -.259E-01 -.152E+00
   -.773E-01 0.527E-01 0.160E+04   0.816E-01 -.515E-01 -.160E+04   -.544E-02 -.155E-02 0.310E+01
   -.745E-01 -.745E-01 0.160E+04   0.798E-01 0.798E-01 -.160E+04   -.670E-02 -.670E-02 0.310E+01
   -.842E-01 -.973E+00 -.160E+04   -.696E-01 0.108E+01 0.161E+04   0.167E+00 -.117E+00 -.447E+01
   -.271E+01 0.272E+01 -.161E+04   0.303E+01 -.303E+01 0.161E+04   -.304E+00 0.304E+00 -.487E+01
   -.135E+01 0.100E+00 -.525E+03   0.140E+01 -.961E-01 0.525E+03   -.718E-01 -.905E-02 0.316E+00
   -.150E+01 -.150E+01 -.528E+03   0.153E+01 0.153E+01 0.528E+03   -.480E-01 -.480E-01 0.208E+00
   0.251E+00 0.355E+00 0.527E+03   -.258E+00 -.364E+00 -.527E+03   0.775E-02 0.989E-02 -.669E-01
   0.241E+00 -.241E+00 0.527E+03   -.240E+00 0.241E+00 -.527E+03   -.148E-02 0.144E-02 -.943E-01
   0.527E-01 -.773E-01 0.160E+04   -.515E-01 0.816E-01 -.160E+04   -.155E-02 -.544E-02 0.310E+01
   0.526E-01 0.526E-01 0.160E+04   -.516E-01 -.516E-01 -.160E+04   -.132E-02 -.132E-02 0.311E+01
   0.976E+00 0.823E-01 -.160E+04   -.108E+01 0.714E-01 0.161E+04   0.118E+00 -.167E+00 -.447E+01
   0.767E+00 -.768E+00 -.160E+04   -.875E+00 0.875E+00 0.161E+04   0.119E+00 -.119E+00 -.470E+01
   0.100E+00 -.135E+01 -.525E+03   -.961E-01 0.140E+01 0.525E+03   -.905E-02 -.718E-01 0.316E+00
   0.764E-01 0.764E-01 -.525E+03   -.746E-01 -.746E-01 0.524E+03   -.697E-02 -.698E-02 0.278E+00
   0.304E+00 -.303E+00 0.525E+03   -.283E+00 0.282E+00 -.525E+03   -.259E-01 0.258E-01 -.152E+00
   0.355E+00 0.251E+00 0.527E+03   -.364E+00 -.258E+00 -.527E+03   0.989E-02 0.775E-02 -.669E-01
   0.746E-01 0.746E-01 0.160E+04   -.799E-01 -.799E-01 -.160E+04   0.670E-02 0.670E-02 0.310E+01
   0.771E-01 -.526E-01 0.160E+04   -.815E-01 0.513E-01 -.160E+04   0.544E-02 0.156E-02 0.310E+01
   0.272E+01 -.271E+01 -.161E+04   -.303E+01 0.303E+01 0.161E+04   0.304E+00 -.304E+00 -.487E+01
   0.823E-01 0.976E+00 -.160E+04   0.714E-01 -.108E+01 0.161E+04   -.167E+00 0.118E+00 -.447E+01
   0.150E+01 0.150E+01 -.528E+03   -.153E+01 -.153E+01 0.528E+03   0.481E-01 0.481E-01 0.208E+00
   0.135E+01 -.994E-01 -.525E+03   -.140E+01 0.954E-01 0.525E+03   0.718E-01 0.900E-02 0.316E+00
   -.414E-03 -.396E-03 0.196E+02   0.499E-12 0.666E-14 0.909E-12   0.377E-03 0.358E-03 -.172E+02

 POSITION                                       TOTAL-FORCE (eV/Angst)
      2.08728      0.00000      7.50000         0.000421     -0.000408      0.312251
      4.17456      2.08728      7.50000         0.000375      0.000352      0.309348
      2.08728      2.08728      9.58728        -0.004621     -0.004628      0.040131
      4.17456      0.00000      9.58728        -0.002618     -0.016823      0.048530
      2.08780      8.34858     11.68691         0.004956     -0.004956      0.018439
      4.17390      2.08602     11.68694         0.004855      0.008079     -0.013740
      2.08524      2.08524     13.76317        -0.042306     -0.042307      0.082657
      4.17587      0.00235     13.76104        -0.040299     -0.097099      0.136515
      2.08728      4.17456      7.50000         0.000348      0.000364      0.309358
      4.17456      6.26183      7.50000         0.000605     -0.000590      0.315228
      2.08728      6.26183      9.58728         0.016810      0.002608      0.048461
      4.17456      4.17456      9.58728         0.007399      0.007390      0.058083
      2.08602      4.17390     11.68694         0.008074      0.004859     -0.013742
      4.17708      6.25931     11.69235         0.005322     -0.005309      0.062290
      2.08490      6.26050     13.76103         0.097136      0.040302      0.136533
      4.15628      4.15628     13.77166         0.233593      0.233592      0.089166
      6.26183      0.00000      7.50000        -0.000363     -0.000343      0.309346
      0.00000      2.08728      7.50000        -0.000414      0.000413      0.312224
      6.26183      2.08728      9.58728         0.002601      0.016819      0.048458
      0.00000      0.00000      9.58728         0.004622      0.004625      0.040192
      6.26248      0.00125     11.68693        -0.004856     -0.008085     -0.013747
      8.34858      2.08780     11.68691        -0.004954      0.004955      0.018444
      6.26050      2.08490     13.76103         0.040310      0.097146      0.136538
      0.00202      0.00202     13.76317         0.042323      0.042327      0.082641
      6.26183      4.17456      7.50000        -0.000590      0.000589      0.315227
      0.00000      6.26183      7.50000        -0.000343     -0.000365      0.309370
      6.26183      6.26183      9.58728        -0.007402     -0.007410      0.057987
      0.00000      4.17456      9.58728        -0.016826     -0.002613      0.048538
      6.25931      4.17708     11.69235        -0.005313      0.005320      0.062302
      0.00125      6.26248     11.68693        -0.008085     -0.004865     -0.013742
      6.28011      6.28011     13.77165        -0.233618     -0.233620      0.089118
      0.00235      4.17587     13.76104        -0.097107     -0.040303      0.136525
      2.08728      0.00000      9.58728         0.000689     -0.000703      0.059029
      4.17456      2.08728      9.58728        -0.002133     -0.002321      0.070350
      2.08728      2.08728      7.50000         0.000441      0.000436     -0.590661
      4.17456      0.00000      7.50000         0.000518      0.001829     -0.591444
      2.08824      8.34813     13.81154        -0.027211      0.027218      0.007692
      4.17262      2.08063     13.80037        -0.026554      0.035749      0.103080
      2.08618      2.08618     11.67999         0.006362      0.006368      0.018882
      4.17464      8.34580     11.68118         0.006351      0.028498      0.007949
      2.08728      4.17456      9.58728        -0.002323     -0.002128      0.070358
      4.17456      6.26183      9.58728         0.008309     -0.008331      0.068438
      2.08728      6.26183      7.50000        -0.001830     -0.000514     -0.591432
      4.17456      4.17456      7.50000        -0.002298     -0.002300     -0.592355
      2.08063      4.17262     13.80037         0.035743     -0.026547      0.103083
      4.17655      6.25983     13.82845        -0.029449      0.029427     -0.079601
      2.09058      6.26174     11.68118        -0.028479     -0.006352      0.007934
      4.17468      4.17468     11.68580        -0.023849     -0.023847     -0.010751
      6.26183      0.00000      9.58728         0.002118      0.002302      0.070337
      0.00000      2.08728      9.58728        -0.000698      0.000691      0.059025
      6.26183      2.08728      7.50000        -0.000518     -0.001824     -0.591442
      0.00000      0.00000      7.50000        -0.000432     -0.000433     -0.590670
      6.26376      0.00662     13.80037         0.026550     -0.035742      0.103077
      8.34813      2.08824     13.81154         0.027217     -0.027213      0.007709
      6.26174      2.09058     11.68118        -0.006349     -0.028473      0.007935
      0.00109      0.00109     11.67999        -0.006364     -0.006374      0.018897
      6.26183      4.17456      9.58728        -0.008332      0.008321      0.068437
      0.00000      6.26183      9.58728         0.002310      0.002118      0.070336
      6.26183      6.26183      7.50000         0.002302      0.002306     -0.592347
      0.00000      4.17456      7.50000         0.001833      0.000522     -0.591446
      6.25983      4.17655     13.82845         0.029426     -0.029452     -0.079611
      0.00662      6.26376     13.80037        -0.035740      0.026547      0.103071
      6.26170      6.26170     11.68580         0.023852      0.023847     -0.010740
      8.34580      4.17464     11.68118         0.028500      0.006361      0.007952
    total drift:                               -0.000179     -0.000179      0.012724

  FREE ENERGIE OF THE ION-ELECTRON SYSTEM (eV)
  free  energy   TOTEN  =      -438.95746070 eV

  energy  without entropy=     -438.95746070  energy(sigma->0) =     -438.95746070