 vasp.6.3.0 20Jan22 (build Mar 11 2022 13:48:16) complex

 executed on             LinuxIFC date 2024.08.23  21:10:42

 INCAR:
   SYSTEM = MgO-rocksalt
   ISMEAR = 0
   SIGMA = 0.05
   EDIFF = 1E-7
   ALGO = ALL
   ISTART = 0
   IBRION = 2
   NSW = 1000
   ISYM = 0
   ISIF = 2
   EDIFFG = -0.01
   DIPOL = 0.5 0.5 0.5
   IDIPOL = 3
   LDIPOL = .TRUE.
   METAGGA = R2SCAN
   LUSE_VDW = .TRUE.
   BPARAM = 11.95
   CPARAM = 0.0093
   LASPH = .TRUE.
   ENCUT = 600
   PREC = Accurate
   LASPH = .TRUE.
   LREAL = .FALSE.
   ISPIN = 1
   NELM = 200
   NELMIN = 8
   NCORE = 8
   KPAR = 1
   LWAVE = .FALSE.
   LCHARG = .FALSE.

 POTCAR:    PAW_PBE Ti_pv 07Sep2000
 POTCAR:    PAW_PBE O 08Apr2002
|           W    W    AA    RRRRR   N    N  II  N    N   GGGG   !!!           |
|           W    W   A  A   R    R  NN   N  II  NN   N  G    G  !!!           |
|           W    W  A    A  R    R  N N  N  II  N N  N  G       !!!           |
|           W WW W  AAAAAA  RRRRR   N  N N  II  N  N N  G  GGG   !            |
|           WW  WW  A    A  R   R   N   NN  II  N   NN  G    G                |
|           W    W  A    A  R    R  N    N  II  N    N   GGGG   !!!           |
|     For optimal performance we recommend to set                             |
|       NCORE = 2 up to number-of-cores-per-socket                            |
|     This setting can greatly improve the performance of VASP for DFT.       |
|     The default, NCORE=1 might be grossly inefficient on modern             |
|     multi-core architectures or massively parallel machines. Do your        |
|     Unfortunately you need to use the default for GW and RPA                |
|     calculations (for HF NCORE is supported but not extensively tested      |
|     yet).                                                                   |

   TITEL  = PAW_PBE Ti_pv 07Sep2000
   POMASS =   47.880; ZVAL   =   10.000    mass and valenz
   ENMAX  =  222.335; ENMIN  =  166.751 eV

   TITEL  = PAW_PBE O 08Apr2002
   POMASS =   16.000; ZVAL   =    6.000    mass and valenz
   ENMAX  =  400.000; ENMIN  =  300.000 eV

  PAW_PBE Ti_pv 07Sep2000               :
  PAW_PBE O 08Apr2002                   :

 POSCAR: Ti  O
  positions in direct lattice

 METAGGA = R2SCA    LMAXTAU =  6    LMIXTAU =  F

 ion  position               nearest neighbor table
   1  0.807  0.833  0.295-  85 1.93  53 1.93  51 1.93  50 1.99  52 1.99   4 3.04  18 3.04   2 3.04

   2  0.591  0.667  0.327-  49 1.93 116 1.93  52 1.93  54 1.93  53 1.99  55 1.99   3 3.04   7 3.04
                            33 3.04   1 3.04
   3  0.307  0.667  0.295- 121 1.93  57 1.93  55 1.93  49 1.99  56 1.99   2 3.04  36 3.04   4 3.04

   4  0.091  0.833  0.327-  88 1.93  50 1.93  56 1.93  58 1.93  57 1.99  51 1.99  19 3.04   5 3.04
                             3 3.04   1 3.04
   5  0.943  0.833  0.421-  51 1.93  93 1.93  61 1.93  59 1.93  58 1.99  60 1.99   4 3.04   8 3.04
                            22 3.04   6 3.04
   6  0.728  0.667  0.453-  54 1.93 124 1.93  60 1.93  62 1.93  61 1.99  63 1.99   7 3.04  37 3.04
                             5 3.04  11 3.04
   7  0.443  0.667  0.421-  55 1.93 129 1.93  65 1.93  63 1.93  54 1.99  64 1.99   6 3.04   2 3.04
                            40 3.04   8 3.04
   8  0.228  0.833  0.453-  66 1.93  96 1.93  64 1.93  58 1.93  59 1.99  65 1.99   9 3.04   5 3.04
                            23 3.04   7 3.04
   9  0.080  0.833  0.547- 101 1.93  67 1.93  69 1.93  59 1.93  68 1.99  66 1.99  26 3.04   8 3.04
                            10 3.04  12 3.04
  10  0.864  0.667  0.579-  70 1.93 132 1.93  68 1.93  62 1.93  71 1.99  69 1.99  41 3.04  15 3.04
                             9 3.04  11 3.04
  11  0.580  0.667  0.547- 137 1.93  71 1.93  73 1.93  63 1.93  72 1.99  62 1.99  44 3.04  12 3.04
                            10 3.04   6 3.04
  12  0.364  0.833  0.579-  74 1.93 104 1.93  72 1.93  66 1.93  67 1.99  73 1.99  27 3.04  13 3.04
                            11 3.04   9 3.04
  13  0.216  0.833  0.673-  75 1.93 109 1.93  77 1.93  67 1.93  76 1.99  74 1.99  30 3.04  12 3.04
                            14 3.04  16 3.04
  14  0.000  0.667  0.705- 140 1.93  76 1.93  70 1.93  78 1.99  77 1.99  45 3.04  13 3.04  15 3.04

[...]

  17  0.807  0.167  0.295-  85 1.93 117 1.93  83 1.93  82 1.99  84 1.99  20 3.04  18 3.04  34 3.04

[...]

  36  0.091  0.500  0.327-  56 1.93 120 1.93 114 1.93 122 1.93 121 1.99 115 1.99   3 3.04  35 3.04
                            37 3.04  33 3.04
  37  0.943  0.500  0.421- 115 1.93  61 1.93 125 1.93 123 1.93 122 1.99 124 1.99  36 3.04  40 3.04
                            38 3.04   6 3.04
  38  0.728  0.333  0.453- 118 1.93 124 1.93  92 1.93 126 1.93 125 1.99 127 1.99  39 3.04  37 3.04
                            21 3.04  43 3.04
  39  0.443  0.333  0.421- 119 1.93 129 1.93  97 1.93 127 1.93 118 1.99 128 1.99  38 3.04  34 3.04
                            40 3.04  24 3.04
  40  0.228  0.500  0.453- 130 1.93 128 1.93  64 1.93 122 1.93 123 1.99 129 1.99  41 3.04  37 3.04
                            39 3.04   7 3.04
  41  0.080  0.500  0.547-  69 1.93 133 1.93 131 1.93 123 1.93 132 1.99 130 1.99  10 3.04  42 3.04
                            40 3.04  44 3.04
  42  0.864  0.333  0.579- 134 1.93 132 1.93 100 1.93 126 1.93 135 1.99 133 1.99  41 3.04  47 3.04
                            25 3.04  43 3.04
  43  0.580  0.333  0.547- 137 1.93 135 1.93 105 1.93 127 1.93 136 1.99 126 1.99  44 3.04  28 3.04
                            42 3.04  38 3.04
  44  0.364  0.500  0.579- 138 1.93 136 1.93  72 1.93 130 1.93 131 1.99 137 1.99  11 3.04  43 3.04
                            45 3.04  41 3.04
  45  0.216  0.500  0.673- 139 1.93  77 1.93 141 1.93 131 1.93 140 1.99 138 1.99  14 3.04  46 3.04
                            44 3.04  48 3.04
  46  0.000  0.333  0.705- 140 1.93 108 1.93 134 1.93 142 1.99 141 1.99  45 3.04  29 3.04  47 3.04

  47  0.716  0.333  0.673- 142 1.93 144 1.93 112 1.93 135 1.93 143 1.99 134 1.99  48 3.04  42 3.04
                            32 3.04  46 3.04
  48  0.500  0.500  0.705-  79 1.93 143 1.93 138 1.93 139 1.99 144 1.99  47 3.04  15 3.04  45 3.04

  49  0.487  0.667  0.269-   2 1.93   3 1.99
  50  0.987  0.833  0.269-   4 1.93   1 1.99
  51  0.911  0.833  0.353-   5 1.93   1 1.93   4 1.99
  52  0.627  0.833  0.321-  18 1.93   2 1.93   1 1.99
  53  0.771  0.667  0.300-  33 1.93   1 1.93   2 1.99
  54  0.623  0.667  0.395-   6 1.93   2 1.93   7 1.99
  55  0.411  0.667  0.353-   7 1.93   3 1.93   2 1.99
  56  0.127  0.667  0.321-  36 1.93   4 1.93   3 1.99
  57  0.271  0.833  0.300-  19 1.93   3 1.93   4 1.99
  58  0.123  0.833  0.395-   4 1.93   8 1.93   5 1.99
  59  0.048  0.833  0.479-   9 1.93   5 1.93   8 1.99
  60  0.764  0.833  0.447-  22 1.93   6 1.93   5 1.99
  61  0.907  0.667  0.426-  37 1.93   5 1.93   6 1.99
  62  0.760  0.667  0.521-   6 1.93  10 1.93  11 1.99
  63  0.548  0.667  0.479-  11 1.93   7 1.93   6 1.99
  64  0.264  0.667  0.447-  40 1.93   8 1.93   7 1.99
  65  0.407  0.833  0.426-  23 1.93   7 1.93   8 1.99
  66  0.260  0.833  0.521-   8 1.93  12 1.93   9 1.99
  67  0.184  0.833  0.605-   9 1.93  13 1.93  12 1.99
  68  0.900  0.833  0.574-  26 1.93  10 1.93   9 1.99
  69  0.044  0.667  0.553-  41 1.93   9 1.93  10 1.99
  70  0.896  0.667  0.647-  10 1.93  14 1.93  15 1.99
  71  0.684  0.667  0.605-  11 1.93  15 1.93  10 1.99
  72  0.400  0.667  0.574-  44 1.93  12 1.93  11 1.99
  73  0.544  0.833  0.553-  27 1.93  11 1.93  12 1.99
  74  0.396  0.833  0.647-  12 1.93  16 1.93  13 1.99
  75  0.320  0.833  0.731-  13 1.93  16 1.99
  76  0.036  0.833  0.700-  30 1.93  14 1.93  13 1.99
  77  0.180  0.667  0.679-  45 1.93  13 1.93  14 1.99
  78  0.820  0.667  0.731-  15 1.93  14 1.99
  79  0.536  0.667  0.700-  48 1.93  16 1.93  15 1.99
  80  0.680  0.833  0.679-  31 1.93  15 1.93  16 1.99
  81  0.487  0.000  0.269-  18 1.93  19 1.99
  82  0.987  0.167  0.269-  20 1.93  17 1.99
  83  0.911  0.167  0.353-  21 1.93  17 1.93  20 1.99
  84  0.627  0.167  0.321-  18 1.93  34 1.93  17 1.99
  85  0.771  0.000  0.300-   1 1.93  17 1.93  18 1.99
  86  0.623  0.000  0.395-  22 1.93  18 1.93  23 1.99
  87  0.411  0.000  0.353-  23 1.93  19 1.93  18 1.99
  88  0.127  0.000  0.321-   4 1.93  20 1.93  19 1.99
  89  0.271  0.167  0.300-  19 1.93  35 1.93  20 1.99
  90  0.123  0.167  0.395-  20 1.93  24 1.93  21 1.99
  91  0.048  0.167  0.479-  25 1.93  21 1.93  24 1.99
  92  0.764  0.167  0.447-  22 1.93  38 1.93  21 1.99
  93  0.907  0.000  0.426-   5 1.93  21 1.93  22 1.99
  94  0.760  0.000  0.521-  22 1.93  26 1.93  27 1.99
  95  0.548  0.000  0.479-  27 1.93  23 1.93  22 1.99
  96  0.264  0.000  0.447-   8 1.93  24 1.93  23 1.99
  97  0.407  0.167  0.426-  23 1.93  39 1.93  24 1.99
  98  0.260  0.167  0.521-  24 1.93  28 1.93  25 1.99
  99  0.184  0.167  0.605-  25 1.93  29 1.93  28 1.99
 100  0.900  0.167  0.574-  26 1.93  42 1.93  25 1.99
 101  0.044  0.000  0.553-   9 1.93  25 1.93  26 1.99
 102  0.896  0.000  0.647-  26 1.93  30 1.93  31 1.99
 103  0.684  0.000  0.605-  27 1.93  31 1.93  26 1.99
 104  0.400  0.000  0.574-  12 1.93  28 1.93  27 1.99
 105  0.544  0.167  0.553-  27 1.93  43 1.93  28 1.99
 106  0.396  0.167  0.647-  28 1.93  32 1.93  29 1.99
 107  0.320  0.167  0.731-  29 1.93  32 1.99
 108  0.036  0.167  0.700-  30 1.93  46 1.93  29 1.99
[...]
 130  0.260  0.500  0.521-  40 1.93  44 1.93  41 1.99
 131  0.184  0.500  0.605-  41 1.93  45 1.93  44 1.99
 132  0.900  0.500  0.574-  10 1.93  42 1.93  41 1.99
 133  0.044  0.333  0.553-  41 1.93  25 1.93  42 1.99
 134  0.896  0.333  0.647-  42 1.93  46 1.93  47 1.99
 135  0.684  0.333  0.605-  43 1.93  47 1.93  42 1.99
 136  0.400  0.333  0.574-  44 1.93  28 1.93  43 1.99
 137  0.544  0.500  0.553-  11 1.93  43 1.93  44 1.99
 138  0.396  0.500  0.647-  44 1.93  48 1.93  45 1.99
 139  0.320  0.500  0.731-  45 1.93  48 1.99
 140  0.036  0.500  0.700-  14 1.93  46 1.93  45 1.99
 141  0.180  0.333  0.679-  45 1.93  29 1.93  46 1.99
 142  0.820  0.333  0.731-  47 1.93  46 1.99
 143  0.536  0.333  0.700-  48 1.93  32 1.93  47 1.99
 144  0.680  0.500  0.679-  15 1.93  47 1.93  48 1.99

IMPORTANT INFORMATION: All symmetrisations will be switched off!
NOSYMM: (Re-)initialisation of all symmetry stuff for point group C_1.

                                     Primitive cell

  volume of cell :    3249.0644

  direct lattice vectors                    reciprocal lattice vectors
    10.255507753  0.000000000  0.000000000     0.097508580 -0.000000000  0.000000000
     0.000000000 11.355710084  0.000000000     0.000000000  0.088061424  0.000000000
     0.000000000  0.000000000 27.898885647     0.000000000  0.000000000  0.035843726

  length of vectors
    10.255507753 11.355710084 27.898885647     0.097508580  0.088061424  0.035843726

  position of ions in fractional coordinates (direct lattice)
     0.807253528  0.833333333  0.295092107
     0.591310949  0.666666667  0.326616398
     0.307253528  0.666666667  0.295092107
     0.091310949  0.833333333  0.326616398
     0.943483211  0.833333333  0.421189272
     0.727540632  0.666666667  0.452713563
     0.443483211  0.666666667  0.421189272
     0.227540632  0.833333333  0.452713563
     0.079712895  0.833333333  0.547286437
[...]
   0.48847099  9.46309174 13.36294488
   7.83082566  9.46309174 12.48345228
[...]
   2.66256994  5.67785504 14.53594077
   1.88557557  5.67785504 16.88091526
   9.22793024  5.67785504 16.00142267
   0.44796915  3.78523669 15.41543337
   9.18742840  3.78523669 18.05391116
   7.01332945  3.78523669 16.88091526
   4.10017636  3.78523669 16.00142267
   5.57572303  5.67785504 15.41543337
   4.05967452  5.67785504 18.05391116
   3.28268015  5.67785504 20.39888565
   0.36952707  5.67785504 19.51939305
   1.84507373  3.78523669 18.93340375
   8.41043403  3.78523669 20.39888565
   5.49728094  3.78523669 19.51939305
   6.97282760  5.67785504 18.93340375

--------------------------------------- Iteration      FINAL  ---------------------------------------

--------------------OUTCAR has been truncated-------------------------

[...]

--------------------OUTCAR has been truncated-------------------------

  FORCE on cell =-STRESS in cart. coord.  units (eV):
  Direction    XX          YY          ZZ          XY          YZ          ZX
  Alpha Z  2423.90019  2423.90019  2423.90019
  Ewald  491874.94914485074.93780************    -0.00010     0.00012 -1985.01085
  Hartree512628.04944508576.28651************    -0.00006     0.00006 -1310.48373
  E(xc)   -5477.77987 -5477.52120 -5475.98658     0.00000    -0.00000    -1.27520
  Local  ************************************     0.00016    -0.00018  3302.95277
  n-local -3111.29329 -3085.75822 -3131.53206    -0.00000     0.00000     1.68733
  augment  3304.98967  3301.88781  3296.53041     0.00000     0.00000    -2.24941
  Kinetic 17046.40848 17119.31609 17167.63760     0.00000    -0.00000   -14.64197
  Fock        0.00000     0.00000     0.00000     0.00000     0.00000     0.00000
  Total     -46.44142   -20.31847   -17.00228     0.00000    -0.00000    -9.02107
  in kB     -22.90117   -10.01944    -8.38416     0.00000    -0.00000    -4.44847

 VOLUME and BASIS-vectors are now :
  energy-cutoff  :      600.00
  volume of cell :     3249.06
      direct lattice vectors                 reciprocal lattice vectors
    10.255507753  0.000000000  0.000000000     0.097508580 -0.000000000  0.000000000
     0.000000000 11.355710084  0.000000000     0.000000000  0.088061424  0.000000000
     0.000000000  0.000000000 27.898885647     0.000000000  0.000000000  0.035843726

  length of vectors
    10.255507753 11.355710084 27.898885647     0.097508580  0.088061424  0.035843726

 FORCES acting on ions:
    Electron-Ion                     Ewald-Force                    Non-Local-Force
   0.650E+01 0.841E-05 0.338E+04   -.129E+01 -.861E-05 -.338E+04   -.114E+01 0.569E-07 -.349E+01
   0.360E+01 -.157E-05 0.278E+04   -.528E+01 0.159E-05 -.278E+04   -.834E-01 -.289E-07 -.782E-01
   0.650E+01 -.118E-04 0.338E+04   -.129E+01 0.122E-04 -.338E+04   -.114E+01 -.817E-07 -.349E+01
   0.360E+01 -.719E-05 0.278E+04   -.528E+01 0.752E-05 -.278E+04   -.834E-01 -.427E-07 -.782E-01
   0.878E+00 0.421E-04 0.125E+04   -.103E+01 -.472E-04 -.125E+04   0.146E+00 0.551E-06 -.147E-01
   -.233E+01 0.132E-03 0.776E+03   0.235E+01 -.147E-03 -.776E+03   -.789E-02 0.234E-05 -.106E+00
   0.878E+00 -.114E-03 0.125E+04   -.103E+01 0.119E-03 -.125E+04   0.146E+00 -.407E-06 -.147E-01
   -.233E+01 -.490E-04 0.776E+03   0.235E+01 0.602E-04 -.776E+03   -.789E-02 -.243E-05 -.106E+00
   -.315E+01 0.837E-04 -.807E+03   0.289E+01 -.860E-04 0.807E+03   0.261E+00 -.215E-06 0.112E+00
   -.285E+01 0.884E-04 -.123E+04   0.292E+01 -.983E-04 0.123E+04   -.499E-01 0.122E-05 -.209E+00
   -.315E+01 0.615E-04 -.807E+03   0.289E+01 -.727E-04 0.807E+03   0.261E+00 0.121E-05 0.112E+00
   -.285E+01 0.101E-03 -.123E+04   0.292E+01 -.110E-03 0.123E+04   -.500E-01 0.947E-06 -.209E+00
   0.192E+02 0.115E-03 -.282E+04   -.201E+02 -.130E-03 0.282E+04   0.927E+00 0.178E-05 -.114E+00
   -.699E+02 -.811E-04 -.323E+04   0.699E+02 0.852E-04 0.323E+04   0.121E+00 -.620E-06 0.962E+00
   0.192E+02 0.914E-04 -.282E+04   -.201E+02 -.108E-03 0.282E+04   0.927E+00 0.213E-05 -.114E+00
   -.699E+02 0.147E-03 -.323E+04   0.699E+02 -.157E-03 0.323E+04   0.121E+00 0.787E-06 0.962E+00
   0.650E+01 0.564E-05 0.338E+04   -.129E+01 -.580E-05 -.338E+04   -.114E+01 0.214E-07 -.349E+01
   0.360E+01 0.190E-04 0.278E+04   -.528E+01 -.196E-04 -.278E+04   -.834E-01 0.176E-06 -.782E-01
   0.650E+01 0.751E-05 0.338E+04   -.129E+01 -.776E-05 -.338E+04   -.114E+01 0.481E-07 -.349E+01
   0.360E+01 0.138E-04 0.278E+04   -.528E+01 -.142E-04 -.278E+04   -.834E-01 0.118E-06 -.782E-01
   0.878E+00 -.825E-05 0.125E+04   -.103E+01 0.983E-05 -.125E+04   0.146E+00 0.211E-06 -.147E-01
   -.233E+01 -.262E-04 0.776E+03   0.235E+01 0.265E-04 -.776E+03   -.789E-02 0.357E-06 -.106E+00
   0.878E+00 0.384E-04 0.125E+04   -.103E+01 -.424E-04 -.125E+04   0.146E+00 0.995E-06 -.147E-01
   -.233E+01 -.477E-04 0.776E+03   0.235E+01 0.437E-04 -.776E+03   -.789E-02 0.128E-05 -.106E+00
   -.315E+01 -.888E-04 -.807E+03   0.289E+01 0.101E-03 0.807E+03   0.261E+00 -.159E-05 0.112E+00
   -.285E+01 -.752E-04 -.123E+04   0.292E+01 0.816E-04 0.123E+04   -.499E-01 -.618E-06 -.209E+00
   -.315E+01 -.735E-04 -.807E+03   0.289E+01 0.844E-04 0.807E+03   0.261E+00 -.137E-05 0.112E+00
   -.286E+01 -.138E-03 -.123E+04   0.292E+01 0.157E-03 0.123E+04   -.500E-01 -.250E-05 -.209E+00
   0.192E+02 -.174E-03 -.282E+04   -.201E+02 0.191E-03 0.282E+04   0.927E+00 -.184E-05 -.114E+00
   -.699E+02 0.226E-04 -.323E+04   0.699E+02 -.253E-04 0.323E+04   0.121E+00 0.751E-06 0.962E+00
   0.192E+02 -.817E-04 -.282E+04   -.201E+02 0.941E-04 0.282E+04   0.927E+00 -.107E-05 -.114E+00
   -.699E+02 -.127E-03 -.323E+04   0.699E+02 0.142E-03 0.323E+04   0.121E+00 -.197E-05 0.962E+00
   0.650E+01 -.145E-04 0.338E+04   -.129E+01 0.148E-04 -.338E+04   -.114E+01 -.878E-07 -.349E+01
   0.360E+01 -.148E-04 0.278E+04   -.528E+01 0.153E-04 -.278E+04   -.834E-01 -.765E-07 -.782E-01
   0.650E+01 0.460E-05 0.338E+04   -.129E+01 -.471E-05 -.338E+04   -.114E+01 0.287E-07 -.349E+01
   0.360E+01 -.651E-05 0.278E+04   -.528E+01 0.659E-05 -.278E+04   -.834E-01 -.291E-07 -.782E-01
   0.878E+00 -.693E-04 0.125E+04   -.103E+01 0.734E-04 -.125E+04   0.146E+00 -.868E-06 -.147E-01
   -.233E+01 -.101E-03 0.776E+03   0.235E+01 0.114E-03 -.776E+03   -.789E-02 -.241E-05 -.106E+00
   0.878E+00 0.477E-04 0.125E+04   -.103E+01 -.491E-04 -.125E+04   0.146E+00 -.247E-06 -.147E-01
   -.233E+01 0.628E-04 0.776E+03   0.235E+01 -.707E-04 -.776E+03   -.789E-02 0.145E-05 -.106E+00
   -.315E+01 0.504E-04 -.807E+03   0.289E+01 -.605E-04 0.807E+03   0.261E+00 0.168E-05 0.112E+00
   -.285E+01 -.645E-05 -.123E+04   0.292E+01 0.101E-04 0.123E+04   -.499E-01 -.879E-06 -.209E+00
   -.315E+01 0.529E-04 -.807E+03   0.289E+01 -.531E-04 0.807E+03   0.261E+00 0.151E-06 0.112E+00
   -.285E+01 0.461E-04 -.123E+04   0.292E+01 -.553E-04 0.123E+04   -.500E-01 0.134E-05 -.209E+00
   0.192E+02 0.386E-04 -.282E+04   -.201E+02 -.413E-04 0.282E+04   0.927E+00 0.560E-06 -.114E+00
   -.699E+02 0.949E-05 -.323E+04   0.699E+02 -.110E-04 0.323E+04   0.121E+00 0.652E-06 0.962E+00
   0.192E+02 0.253E-04 -.282E+04   -.201E+02 -.201E-04 0.282E+04   0.927E+00 -.142E-05 -.114E+00
   -.699E+02 0.231E-04 -.323E+04   0.699E+02 -.282E-04 0.323E+04   0.121E+00 0.373E-06 0.962E+00
   -.334E+02 -.234E-05 0.229E+04   0.385E+02 0.240E-05 -.230E+04   -.702E+01 -.652E-07 0.178E+02
   -.334E+02 -.126E-06 0.229E+04   0.385E+02 0.200E-06 -.230E+04   -.702E+01 -.981E-07 0.178E+02
   0.836E+02 0.919E-05 0.138E+04   -.885E+02 -.964E-05 -.138E+04   0.388E+01 0.626E-06 -.435E+01
   0.755E+02 0.134E-04 0.169E+04   -.827E+02 -.138E-04 -.169E+04   0.758E+01 0.872E-06 -.275E+01
   -.876E+02 -.312E-05 0.195E+04   0.949E+02 0.323E-05 -.195E+04   -.709E+01 -.375E-06 -.337E+00
   -.750E+02 0.316E-04 0.105E+04   0.810E+02 -.361E-04 -.106E+04   -.612E+01 0.504E-05 0.431E+01
   0.836E+02 -.198E-04 0.138E+04   -.885E+02 0.201E-04 -.138E+04   0.388E+01 -.291E-06 -.435E+01
   0.755E+02 -.137E-04 0.169E+04   -.827E+02 0.139E-04 -.169E+04   0.758E+01 -.379E-06 -.275E+01
   -.876E+02 -.202E-06 0.195E+04   0.949E+02 0.185E-06 -.195E+04   -.709E+01 0.124E-06 -.337E+00
   -.750E+02 -.223E-04 0.105E+04   0.810E+02 0.252E-04 -.106E+04   -.612E+01 -.355E-05 0.431E+01
   0.811E+02 -.448E-04 0.150E+03   -.877E+02 0.515E-04 -.145E+03   0.661E+01 -.741E-05 -.467E+01
   0.795E+02 -.536E-04 0.474E+03   -.861E+02 0.609E-04 -.471E+03   0.658E+01 -.446E-05 -.298E+01
[...]
   0.846E+02 0.356E-04 -.109E+04   -.912E+02 -.413E-04 0.110E+04   0.653E+01 0.675E-05 -.705E+01
   0.795E+02 -.129E-03 -.743E+03   -.861E+02 0.133E-03 0.746E+03   0.663E+01 0.714E-05 -.312E+01
   -.810E+02 0.160E-03 -.482E+03   0.874E+02 -.165E-03 0.479E+03   -.640E+01 -.725E-05 0.265E+01
   -.581E+02 -.201E-04 -.132E+04   0.603E+02 0.230E-04 0.131E+04   -.220E+01 -.319E-05 0.943E+01
   0.846E+02 -.249E-04 -.109E+04   -.912E+02 0.268E-04 0.110E+04   0.653E+01 -.222E-05 -.705E+01
   0.795E+02 0.188E-03 -.743E+03   -.861E+02 -.199E-03 0.746E+03   0.663E+01 -.130E-05 -.312E+01
   -.810E+02 -.162E-03 -.482E+03   0.874E+02 0.170E-03 0.479E+03   -.640E+01 0.422E-05 0.265E+01
   -.581E+02 0.401E-04 -.132E+04   0.603E+02 -.476E-04 0.131E+04   -.220E+01 0.848E-05 0.943E+01
   0.480E+02 -.729E-06 -.231E+04   -.537E+02 0.258E-05 0.233E+04   0.566E+01 -.214E-05 -.219E+02
   0.621E+02 -.110E-05 -.204E+04   -.670E+02 -.150E-05 0.204E+04   0.491E+01 0.460E-05 -.786E+01
   -.623E+02 0.758E-04 -.168E+04   0.678E+02 -.825E-04 0.168E+04   -.552E+01 0.190E-05 0.322E+01
   0.480E+02 0.268E-04 -.231E+04   -.536E+02 -.285E-04 0.233E+04   0.566E+01 0.158E-05 -.219E+02
   0.621E+02 0.178E-03 -.204E+04   -.670E+02 -.188E-03 0.204E+04   0.491E+01 -.117E-05 -.786E+01
   -.623E+02 -.191E-03 -.168E+04   0.678E+02 0.204E-03 0.168E+04   -.552E+01 -.244E-05 0.322E+01
   -.134E+02 0.118E-05 0.749E+02   0.483E-12 -.426E-12 0.909E-12   0.134E+02 -.264E-05 -.750E+02

 POSITION                                       TOTAL-FORCE (eV/Angst)
      8.27879      9.46309      8.23274         4.044432     -0.000000      1.742089
      6.06419      7.57047      9.11223        -1.742631      0.000000     -1.987342
      3.15104      7.57047      8.23274         4.044430      0.000000      1.742088
      0.93644      9.46309      9.11223        -1.742633      0.000000     -1.987344
      9.68613      9.46309     11.78444        -0.005118     -0.000004     -0.004588
      7.44526      7.57047     12.60270         0.005947     -0.000012     -0.003861
      4.55838      7.57047     11.78444        -0.005104      0.000004     -0.004589
      2.31751      9.46309     12.60270         0.005934      0.000009     -0.003884
      0.87551      9.46309     15.33579         0.001480     -0.000002      0.003537
      8.86570      7.57047     16.08179        -0.002274     -0.000009      0.001368
      6.00327      7.57047     15.33579         0.001543     -0.000010      0.003564
      3.73795      9.46309     16.08179        -0.002232     -0.000007      0.001352
      2.38295      9.46309     18.95483         0.003291     -0.000013     -0.004606
      0.04131      7.57047     19.52906        -0.000883      0.000003     -0.005867
      7.51071      7.57047     18.95483         0.003270     -0.000015     -0.004613
      5.16906      9.46309     19.52905        -0.000658     -0.000010     -0.005800
      8.27879      1.89262      8.23274         4.044432     -0.000000      1.742088
      6.06419      0.00000      9.11223        -1.742631     -0.000000     -1.987346
      3.15104      0.00000      8.23274         4.044430     -0.000000      1.742088
      0.93644      1.89262      9.11223        -1.742632     -0.000000     -1.987341
      9.68613      1.89262     11.78444        -0.005111      0.000002     -0.004584
      7.44527      0.00000     12.60270         0.005937      0.000001     -0.003849
      4.55838      0.00000     11.78444        -0.005112     -0.000003     -0.004580
      2.31751      1.89262     12.60270         0.005924     -0.000003     -0.003886
      0.87551      1.89262     15.33579         0.001469      0.000010      0.003534
      8.86570     -0.00000     16.08179        -0.002274      0.000006      0.001367
      6.00327     -0.00000     15.33579         0.001550      0.000009      0.003553
      3.73795      1.89262     16.08179        -0.002216      0.000016      0.001361
      2.38295      1.89262     18.95483         0.003312      0.000015     -0.004601
      0.04131      0.00000     19.52906        -0.000910     -0.000002     -0.005860
      7.51071     -0.00000     18.95483         0.003292      0.000011     -0.004602
      5.16906      1.89262     19.52905        -0.000661      0.000013     -0.005801
      8.27879      5.67786      8.23274         4.044431      0.000000      1.742088
      6.06419      3.78524      9.11223        -1.742629      0.000000     -1.987343
      3.15104      3.78524      8.23274         4.044429     -0.000000      1.742087
      0.93644      5.67786      9.11223        -1.742632      0.000000     -1.987344
      9.68613      5.67785     11.78444        -0.005123      0.000003     -0.004574
      7.44527      3.78524     12.60270         0.005934      0.000011     -0.003844
      4.55838      3.78524     11.78444        -0.005102     -0.000002     -0.004575
      2.31751      5.67786     12.60270         0.005920     -0.000006     -0.003872
      0.87551      5.67786     15.33579         0.001479     -0.000008      0.003538
      8.86570      3.78524     16.08179        -0.002276      0.000003      0.001366
      6.00327      3.78524     15.33579         0.001545      0.000000      0.003559
      3.73795      5.67786     16.08179        -0.002227     -0.000008      0.001372
      2.38295      5.67786     18.95483         0.003323     -0.000002     -0.004611
      0.04131      3.78524     19.52906        -0.000890     -0.000001     -0.005874
      7.51071      3.78524     18.95483         0.003272      0.000004     -0.004617
      5.16906      5.67786     19.52905        -0.000668     -0.000005     -0.005823
      4.99611      7.57047      7.50000        -1.898647     -0.000000      1.159751
     10.12387      9.46309      7.50000        -1.898647     -0.000000      1.159751
      9.34687      9.46309      9.84497        -1.024329      0.000000     -0.162157
      6.43372      9.46309      8.96548         0.391328      0.000000     -0.072224
      7.90927      7.57047      8.37949         0.265904     -0.000000     -1.113390
      6.39322      7.57047     11.01797        -0.041142      0.000001      0.443862
      4.21912      7.57047      9.84497        -1.024330      0.000000     -0.162153
      1.30597      7.57047      8.96548         0.391329     -0.000000     -0.072225
      2.78151      9.46309      8.37949         0.265905      0.000000     -1.113390
      1.26547      9.46309     11.01797        -0.041135     -0.000001      0.443866
      0.50483      9.46309     13.38256        -0.004318     -0.000001     -0.001054
      7.83419      9.46309     12.48627         0.000095      0.000003      0.000246
[...]
      2.69600      5.67786     14.52430         0.001167      0.000001      0.009150
      1.98020      5.67786     16.91742         0.001604      0.000001      0.000947
      9.26839      5.67785     15.99426        -0.001929      0.000011     -0.000320
      0.50744      3.78524     15.43180         0.000034     -0.000013     -0.003305
      9.35743      3.78524     18.00779         0.002397     -0.000000      0.001256
      7.10796      3.78524     16.91742         0.001587     -0.000000      0.000899
      4.14063      3.78524     15.99426        -0.001960     -0.000012     -0.000308
      5.63520      5.67785     15.43180         0.000005      0.000012     -0.003302
      4.22968      5.67785     18.00780         0.002293      0.000001      0.001123
      3.56058      5.67786     20.38922        -0.002893     -0.000000     -0.001285
      0.55082      5.67786     19.74019         0.003060      0.000002     -0.003287
      2.00039      3.78524     18.97109         0.003061     -0.000005     -0.000244
      8.68833      3.78524     20.38922        -0.002751     -0.000000     -0.001317
      5.67858      3.78524     19.74019         0.003032     -0.000011     -0.003293
      7.12815      5.67785     18.97110         0.003054      0.000010     -0.000243
    total drift:                               -0.004714     -0.000001     -0.124233

  FREE ENERGIE OF THE ION-ELECTRON SYSTEM (eV)
  free  energy   TOTEN  =     -1624.81858306 eV

  energy  without entropy=    -1624.81858306  energy(sigma->0) =    -1624.81858306

 d Force = 0.1115122E-04[ 0.381E-05, 0.185E-04]  d Energy = 0.5987167E-05 0.516E-05
 d Force = 0.1199880E+02[ 0.120E+02, 0.120E+02]  d Ewald  = 0.1199879E+02 0.287E-05

 reached required accuracy - stopping structural energy minimisation