 vasp.6.3.0 20Jan22 (build Apr  1 2022 16:44:48) complex
 executed on        HPECrayEX_GCC date 2022.11.16  22:26:31

 INCAR:
   SYSTEM = MgO-rocksalt
   ISMEAR = 0
   SIGMA = 0.05
   EDIFF = 1E-6
   ALGO = ALL
   ISTART = 0
   IBRION = -1
   NSW = 0
   ISYM = 0
   DIPOL = 0.5 0.5 0.5
   IDIPOL = 3
   LDIPOL = .TRUE.
   LHFCALC = .TRUE.
   GGA = PE
   IVDW = 13
   VDW_S8 = 1.2007
   VDW_A1 = 0.4009
   VDW_A2 = 5.0293
   ENCUT = 600
   PREC = Accurate
   LASPH = .TRUE.
   LREAL = .FALSE.
   ISPIN = 2
   MAGMOM = 1.0 0.0 0.0 0.0 0.0 0.0 0.0 0.0 0.0 0.0 0.0 0.0 0.0 0.0 0.0 0.0 0.0 0.0 0.0 0.0 0.0 0.0 0.0 0.0 0.0 0.0 0.0 0.0 0.0 0.0 0.0 0.0 0.0 0.0 0.0 0.0 0.0 0.0 0.0 0.0 0.0 0.0 0.0 0.0 0.0 0.0 0.0 0.0 0.0 0.0 0.0 0.0 0.0 0.0 0.0 0.0 0.0 0.0 0.0 0.0 0.0 0.0 0.0 0.0 0.0 0.0
   NELM = 200
   NELMIN = 8
   NCORE = 8
   KPAR = 1
   LWAVE = .FALSE.
   LCHARG = .FALSE.

 POTCAR:    PAW_PBE N 08Apr2002
 POTCAR:    PAW_PBE O 08Apr2002
 POTCAR:    PAW_PBE Mg_pv 13Apr2007
 POTCAR:    PAW_PBE O 08Apr2002
 POTCAR:    PAW_PBE N 08Apr2002
   VRHFIN =N: s2p3

   TITEL  = PAW_PBE N 08Apr2002
   POMASS =   14.001; ZVAL   =    5.000    mass and valenz
   ENMAX  =  400.000; ENMIN  =  300.000 eV

[...]

   TITEL  = PAW_PBE Mg_pv 13Apr2007
   POMASS =   24.305; ZVAL   =    8.000    mass and valenz
   ENMAX  =  403.929; ENMIN  =  302.947 eV

   TITEL  = PAW_PBE O 08Apr2002
   POMASS =   16.000; ZVAL   =    6.000    mass and valenz
   ENMAX  =  400.000; ENMIN  =  300.000 eV

  PAW_PBE N 08Apr2002                   :
  PAW_PBE O 08Apr2002                   :
  PAW_PBE Mg_pv 13Apr2007               :
  PAW_PBE O 08Apr2002                   :

 POSCAR:  N  O Mg  O
  positions in direct lattice
|           W    W    AA    RRRRR   N    N  II  N    N   GGGG   !!!           |
|           W    W   A  A   R    R  NN   N  II  NN   N  G    G  !!!           |
|           W    W  A    A  R    R  N N  N  II  N N  N  G       !!!           |
|           W WW W  AAAAAA  RRRRR   N  N N  II  N  N N  G  GGG   !            |
|           WW  WW  A    A  R   R   N   NN  II  N   NN  G    G                |
|           W    W  A    A  R    R  N    N  II  N    N   GGGG   !!!           |
|     Specifying the vdW parameters                                           |
|     VDW_S8 = 1.201                                                          |
|     VDW_A1 = 0.401                                                          |
|     VDW_A2 = 5.029                                                          |
|     in the INCAR file will overwrite the defaults for pbe0. Please make     |
|     sure that is what you intended.                                         |

 ion  position               nearest neighbor table
   1  0.625  0.625  0.770-   2 1.16
   2  0.625  0.625  0.825-   1 1.16
   3  0.250  0.000  0.352-  37 2.10  38 2.10  45 2.10  54 2.10  35 2.10
   4  0.500  0.250  0.352-  37 2.10  38 2.10  46 2.10  53 2.10  36 2.10
   5  0.250  0.250  0.451-  35 2.10  36 2.10  43 2.10  52 2.10  37 2.10  41 2.11
   6  0.500  0.000  0.451-  35 2.10  36 2.10  44 2.10  51 2.10  38 2.10  42 2.10
   7  0.250  0.000  0.550-  58 2.10  41 2.10  42 2.10  49 2.10  35 2.11  39 2.13
   8  0.500  0.250  0.550-  50 2.10  41 2.10  57 2.10  42 2.10  36 2.11  40 2.13
   9  0.250  0.250  0.648-  41 2.09  39 2.10  56 2.10  40 2.10  47 2.10
  10  0.500  0.000  0.647-  42 2.09  48 2.10  40 2.10  39 2.10  55 2.10
  11  0.250  0.500  0.352-  37 2.10  45 2.10  46 2.10  62 2.10  43 2.10
  12  0.500  0.750  0.352-  38 2.10  45 2.10  46 2.10  61 2.10  44 2.10
  13  0.250  0.750  0.451-  35 2.10  43 2.10  44 2.10  60 2.10  45 2.10  49 2.10
  14  0.500  0.500  0.451-  36 2.10  43 2.10  44 2.10  59 2.10  46 2.10  50 2.11
  15  0.250  0.500  0.550-  50 2.10  41 2.10  49 2.10  66 2.10  43 2.11  47 2.13
  16  0.500  0.750  0.550-  50 2.10  65 2.10  49 2.10  42 2.10  44 2.11  48 2.12
  17  0.250  0.750  0.647-  49 2.09  48 2.10  64 2.10  39 2.10  47 2.10
  18  0.500  0.500  0.648-  40 2.10  47 2.10  50 2.10  48 2.11  63 2.11
  19  0.750  0.000  0.352-  38 2.10  53 2.10  54 2.10  61 2.10  51 2.10
  20  0.000  0.250  0.352-  37 2.10  53 2.10  54 2.10  62 2.10  52 2.10
  21  0.750  0.250  0.451-  36 2.10  51 2.10  52 2.10  59 2.10  53 2.10  57 2.10
  22  0.000  0.000  0.451-  35 2.10  51 2.10  52 2.10  60 2.10  54 2.10  58 2.11
  23  0.750  1.000  0.550-  65 2.10  58 2.10  42 2.10  57 2.10  51 2.11  55 2.13
  24  0.000  0.250  0.550-  58 2.10  41 2.10  66 2.10  57 2.10  52 2.11  56 2.13
  25  0.750  0.250  0.647-  57 2.09  63 2.10  55 2.10  56 2.10  40 2.10
  26  1.000  1.000  0.648-  58 2.09  56 2.10  39 2.10  55 2.10  64 2.10
  27  0.750  0.500  0.352-  46 2.10  53 2.10  61 2.10  62 2.10  59 2.10
  28  0.000  0.750  0.352-  45 2.10  54 2.10  61 2.10  62 2.10  60 2.10
  29  0.750  0.750  0.451-  44 2.10  51 2.10  59 2.10  60 2.10  61 2.10  65 2.11
  30  0.000  0.500  0.451-  43 2.10  52 2.10  59 2.10  60 2.10  62 2.10  66 2.10
  31  0.750  0.500  0.550-  50 2.10  65 2.10  57 2.10  66 2.10  59 2.11  63 2.12
  32  1.000  0.750  0.550-  65 2.10  58 2.10  66 2.10  49 2.10  60 2.11  64 2.13
  33  0.750  0.750  0.648-  64 2.10  55 2.10  65 2.10  63 2.11  48 2.11
  34  0.000  0.500  0.647-  66 2.09  63 2.10  47 2.10  56 2.10  64 2.10
  35  0.250  0.000  0.451-   5 2.10   6 2.10  13 2.10  22 2.10   3 2.10   7 2.11
  36  0.500  0.250  0.451-   5 2.10   6 2.10  14 2.10  21 2.10   4 2.10   8 2.11
  37  0.250  0.250  0.352-   3 2.10   4 2.10  11 2.10  20 2.10   5 2.10
  38  0.500  0.000  0.352-   3 2.10   4 2.10  12 2.10  19 2.10   6 2.10
  39  0.250  0.000  0.650-   9 2.10  26 2.10  10 2.10  17 2.10   7 2.13
  40  0.500  0.250  0.650-  10 2.10   9 2.10  25 2.10  18 2.10   8 2.13
  41  0.250  0.250  0.550-   9 2.09  24 2.10   7 2.10  15 2.10   8 2.10   5 2.11
  42  0.500  0.000  0.549-  10 2.09   7 2.10  23 2.10   8 2.10  16 2.10   6 2.10
  43  0.250  0.500  0.451-   5 2.10  13 2.10  14 2.10  30 2.10  11 2.10  15 2.11
  44  0.500  0.750  0.451-   6 2.10  13 2.10  14 2.10  29 2.10  12 2.10  16 2.11
  45  0.250  0.750  0.352-   3 2.10  11 2.10  12 2.10  28 2.10  13 2.10
  46  0.500  0.500  0.352-   4 2.10  11 2.10  12 2.10  27 2.10  14 2.10
  47  0.250  0.500  0.650-  34 2.10   9 2.10  17 2.10  18 2.10  15 2.13
  48  0.499  0.751  0.649-  10 2.10  17 2.10  18 2.11  33 2.11  16 2.12
  49  0.250  0.750  0.549-  17 2.09   7 2.10  15 2.10  32 2.10  16 2.10  13 2.10
  50  0.500  0.500  0.550-   8 2.10  15 2.10  16 2.10  31 2.10  18 2.10  14 2.11
  51  0.750  0.000  0.451-   6 2.10  21 2.10  22 2.10  29 2.10  19 2.10  23 2.11
  52  0.000  0.250  0.451-   5 2.10  21 2.10  22 2.10  30 2.10  20 2.10  24 2.11
  53  0.750  0.250  0.352-   4 2.10  19 2.10  20 2.10  27 2.10  21 2.10
  54  0.000  0.000  0.352-   3 2.10  19 2.10  20 2.10  28 2.10  22 2.10
  55  0.750  1.000  0.650-  25 2.10  26 2.10  10 2.10  33 2.10  23 2.13
  56  0.000  0.250  0.650-  26 2.10   9 2.10  25 2.10  34 2.10  24 2.13
  57  0.750  0.250  0.549-  25 2.09  24 2.10   8 2.10  23 2.10  31 2.10  21 2.10
  58  1.000  1.000  0.550-  26 2.09   7 2.10  24 2.10  23 2.10  32 2.10  22 2.11
  59  0.750  0.500  0.451-  14 2.10  21 2.10  29 2.10  30 2.10  27 2.10  31 2.11
  60  0.000  0.750  0.451-  13 2.10  22 2.10  29 2.10  30 2.10  28 2.10  32 2.11
  61  0.750  0.750  0.352-  12 2.10  19 2.10  27 2.10  28 2.10  29 2.10
  62  0.000  0.500  0.352-  11 2.10  20 2.10  27 2.10  28 2.10  30 2.10
  63  0.751  0.499  0.649-  34 2.10  25 2.10  18 2.11  33 2.11  31 2.12
  64  1.000  0.750  0.650-  17 2.10  26 2.10  34 2.10  33 2.10  32 2.13
  65  0.750  0.750  0.550-  32 2.10  23 2.10  31 2.10  16 2.10  33 2.10  29 2.11
  66  0.000  0.500  0.549-  34 2.09  24 2.10  32 2.10  15 2.10  31 2.10  30 2.10

IMPORTANT INFORMATION: All symmetrisations will be switched off!
NOSYMM: (Re-)initialisation of all symmetry stuff for point group C_1.

                                     Primitive cell

  volume of cell :    1504.9259

  direct lattice vectors                    reciprocal lattice vectors
     8.404861995  0.000000000  0.000000000     0.118978753  0.000000000  0.000000000
     0.000000000  8.404861995  0.000000000     0.000000000  0.118978753  0.000000000
     0.000000000  0.000000000 21.303646496     0.000000000  0.000000000  0.046940321

  length of vectors
     8.404861995  8.404861995 21.303646496     0.118978753  0.118978753  0.046940321

  position of ions in fractional coordinates (direct lattice)
     0.624962409  0.624963470  0.770454712
     0.624922922  0.624927707  0.824812539
     0.250000000  0.000000000  0.352052406
     0.500000000  0.250000000  0.352052406
     0.250000000  0.250000000  0.450684135
     0.500000000  0.000000000  0.450684135
     0.249923310  0.000078096  0.549765924
     0.500048651  0.250277810  0.549820739
     0.250077788  0.250077774  0.647720210
     0.499830449  0.000308408  0.647475850
     0.250000000  0.500000000  0.352052406
     0.500000000  0.750000000  0.352052406
     0.250000000  0.750000000  0.450684135
     0.500000000  0.500000000  0.450684135
     0.250277762  0.500048639  0.549820801
     0.500020078  0.749980691  0.549814322
     0.249692672  0.750171242  0.647475788
     0.500212368  0.500212353  0.648326648
     0.750000000  0.000000000  0.352052406
     0.000000000  0.250000000  0.352052406
     0.750000000  0.250000000  0.450684135
     0.000000000  0.000000000  0.450684135
     0.749952476  0.999724318  0.549820532
     0.000078108  0.249923368  0.549765980
     0.750171541  0.249692721  0.647475874
     0.999924073  0.999924320  0.647720011
     0.750000000  0.500000000  0.352052406
     0.000000000  0.750000000  0.352052406
     0.750000000  0.750000000  0.450684135
     0.000000000  0.500000000  0.450684135
     0.749980770  0.500020117  0.549814343
     0.999724345  0.749952404  0.549820610
     0.749790556  0.749790489  0.648324447
     0.000308414  0.499830680  0.647475823
     0.250000000  0.000000000  0.450684135
     0.500000000  0.250000000  0.450684135
     0.250000000  0.250000000  0.352052406
     0.500000000  0.000000000  0.352052406
     0.249872651  0.000129224  0.649790115
     0.500108082  0.250077901  0.649846632
     0.250036081  0.250036171  0.549547182
     0.499937812  0.000213373  0.549460824
     0.250000000  0.500000000  0.450684135
     0.500000000  0.750000000  0.450684135
     0.250000000  0.750000000  0.352052406
     0.500000000  0.500000000  0.352052406
     0.250077853  0.500108189  0.649846530
     0.499240320  0.750761754  0.649353462
     0.249787584  0.750063084  0.549461146
     0.500034633  0.500034655  0.549612133
     0.750000000  0.000000000  0.450684135
     0.000000000  0.250000000  0.450684135
     0.750000000  0.250000000  0.352052406
     0.000000000  0.000000000  0.352052406
     0.749893939  0.999924042  0.649846159
     0.000129161  0.249872598  0.649790132
     0.750063208  0.249787662  0.549461125
     0.999965596  0.999965567  0.549546849
     0.750000000  0.500000000  0.450684135
     0.000000000  0.750000000  0.450684135
     0.750000000  0.750000000  0.352052406
     0.000000000  0.500000000  0.352052406
     0.750761802  0.499240426  0.649353395
     0.999924021  0.749893754  0.649846006
     0.749966486  0.749966404  0.549611906
[...]
   0.50000000  0.75000000  0.45068414
   0.25000000  0.75000000  0.35205241
   0.50000000  0.50000000  0.35205241
   0.25007785  0.50010819  0.64984653
   0.49924032  0.75076175  0.64935346
   0.24978758  0.75006308  0.54946115
   0.50003463  0.50003466  0.54961213
   0.75000000  0.00000000  0.45068414
   0.00000000  0.25000000  0.45068414
   0.75000000  0.25000000  0.35205241
   0.00000000  0.00000000  0.35205241
   0.74989394  0.99992404  0.64984616
   0.00012916  0.24987260  0.64979013
   0.75006321  0.24978766  0.54946113
   0.99996560  0.99996557  0.54954685
   0.75000000  0.50000000  0.45068414
   0.00000000  0.75000000  0.45068414
   0.75000000  0.75000000  0.35205241
   0.00000000  0.50000000  0.35205241
   0.75076180  0.49924043  0.64935339
   0.99992402  0.74989375  0.64984601
   0.74996649  0.74996640  0.54961191
   0.00021343  0.49993786  0.54946088

 position of ions in cartesian coordinates  (Angst):
   5.25272280  5.25273171 16.41349482
   5.25239092  5.25243114 17.57151475
   2.10121550  0.00000000  7.50000000
   4.20243100  2.10121550  7.50000000
   2.10121550  2.10121550  9.60121550
   4.20243100  0.00000000  9.60121550
   2.10057093  0.00065639 11.71201889
   4.20283991  2.10355045 11.71318666
   2.10186929  2.10186918 13.79880238
   4.20100595  0.00259213 13.79359662
   2.10121550  4.20243100  7.50000000
   4.20243100  6.30364650  7.50000000
   2.10121550  6.30364650  9.60121550
   4.20243100  4.20243100  9.60121550
   2.10355005  4.20283980 11.71318797
   4.20259975  6.30348420 11.71304995
   2.09863245  6.30508576 13.79359530
   4.20421592  4.20421579 13.81172173
   6.30364650  0.00000000  7.50000000
   0.00000000  2.10121550  7.50000000
   6.30364650  2.10121550  9.60121550
   0.00000000  0.00000000  9.60121550
   6.30324707  8.40254492 11.71318225
   0.00065649  2.10057142 11.71202010
   6.30508827  2.09863287 13.79359714
   8.40422384  8.40422591 13.79879814
   6.30364650  4.20243100  7.50000000
   0.00000000  6.30364650  7.50000000
   6.30364650  6.30364650  9.60121550
   0.00000000  4.20243100  9.60121550
   6.30348487  4.20260008 11.71305039
   8.40254515  6.30324646 11.71318390
   6.30188615  6.30188558 13.81167483
   0.00259218  4.20100789 13.79359604
   2.10121550  0.00000000  9.60121550
   4.20243100  2.10121550  9.60121550
   2.10121550  2.10121550  7.50000000
   4.20243100  0.00000000  7.50000000
   2.10014515  0.00108611 13.84289890
   4.20333941  2.10187025 13.84410292
   2.10151876  2.10151951 11.70735889
   4.20190832  0.00179337 11.70551917
   2.10121550  4.20243100  9.60121550
   4.20243100  6.30364650  9.60121550
   2.10121550  6.30364650  7.50000000
   4.20243100  4.20243100  7.50000000
   2.10186984  4.20334031 13.84410076
   4.19604599  6.31004893 13.83359660
   2.09943017  6.30417671 11.70552603
   4.20272208  4.20272227 11.70874259
   6.30364650  0.00000000  9.60121550
   0.00000000  2.10121550  9.60121550
   6.30364650  2.10121550  7.50000000
   0.00000000  0.00000000  7.50000000
   6.30275506  8.40422358 13.84409284
   0.00108558  2.10014470 13.84289928
   6.30417775  2.09943083 11.70552557
   8.40457283  8.40457259 11.70735180
   6.30364650  4.20243100  9.60121550
   0.00000000  6.30364650  9.60121550
   6.30364650  6.30364650  7.50000000
   0.00000000  4.20243100  7.50000000
   6.31004934  4.19604688 13.83359517
   8.40422340  6.30275352 13.84408958
   6.30336481  6.30336413 11.70873776
   0.00179385  4.20190870 11.70552036

--------------------------------------- Iteration      FINAL  ---------------------------------------

--------------------OUTCAR has been truncated-------------------------

[...]

--------------------OUTCAR has been truncated-------------------------

 VOLUME and BASIS-vectors are now :
  energy-cutoff  :      600.00
  volume of cell :     1504.93
      direct lattice vectors                 reciprocal lattice vectors
     8.404861995  0.000000000  0.000000000     0.118978753  0.000000000  0.000000000
     0.000000000  8.404861995  0.000000000     0.000000000  0.118978753  0.000000000
     0.000000000  0.000000000 21.303646496     0.000000000  0.000000000  0.046940321

  length of vectors
     8.404861995  8.404861995 21.303646496     0.118978753  0.118978753  0.046940321

 FORCES acting on ions:
    Electron-Ion                     Ewald-Force                    Non-Local-Force
   -.800E-01 -.727E-01 -.104E+04   0.933E-01 0.847E-01 0.992E+03   -.121E-01 -.110E-01 0.406E+02
   0.730E-01 0.660E-01 -.147E+04   -.908E-01 -.821E-01 0.153E+04   0.153E-01 0.138E-01 -.534E+02
   0.146E+00 -.146E+00 0.210E+04   -.147E+00 0.146E+00 -.210E+04   0.167E-03 -.164E-03 -.679E+01
   0.147E+00 0.148E+00 0.210E+04   -.147E+00 -.147E+00 -.210E+04   -.155E-05 -.801E-03 -.680E+01
   0.495E+00 0.495E+00 0.725E+03   -.484E+00 -.484E+00 -.726E+03   -.647E-02 -.647E-02 0.429E+00
   0.501E+00 -.647E+00 0.727E+03   -.496E+00 0.663E+00 -.727E+03   -.341E-02 -.998E-02 0.393E+00
   0.254E+01 -.254E+01 -.646E+03   -.255E+01 0.255E+01 0.646E+03   0.369E-02 -.370E-02 -.205E+00
   0.268E+01 0.331E+01 -.643E+03   -.269E+01 -.327E+01 0.643E+03   0.133E-02 -.356E-01 -.211E+00
   0.845E+01 0.845E+01 -.202E+04   -.848E+01 -.848E+01 0.202E+04   0.211E-01 0.209E-01 0.592E+01
   0.951E+01 -.176E+02 -.201E+04   -.953E+01 0.176E+02 0.200E+04   0.195E-01 0.373E-01 0.594E+01
   0.148E+00 0.147E+00 0.210E+04   -.147E+00 -.147E+00 -.210E+04   -.797E-03 -.131E-04 -.680E+01
   0.147E+00 -.147E+00 0.210E+04   -.146E+00 0.146E+00 -.210E+04   -.296E-03 0.301E-03 -.679E+01
   0.647E+00 -.501E+00 0.727E+03   -.663E+00 0.496E+00 -.727E+03   0.995E-02 0.341E-02 0.393E+00
   0.663E+00 0.663E+00 0.727E+03   -.664E+00 -.664E+00 -.728E+03   0.170E-02 0.169E-02 0.430E+00
   0.331E+01 0.268E+01 -.643E+03   -.327E+01 -.269E+01 0.643E+03   -.356E-01 0.131E-02 -.211E+00
   0.351E+01 -.351E+01 -.633E+03   -.347E+01 0.347E+01 0.633E+03   -.342E-01 0.342E-01 -.374E+00
   0.176E+02 -.952E+01 -.201E+04   -.176E+02 0.954E+01 0.200E+04   -.369E-01 -.192E-01 0.594E+01
   0.255E+02 0.255E+02 -.197E+04   -.256E+02 -.256E+02 0.196E+04   0.109E+00 0.109E+00 0.587E+01
   -.147E+00 -.148E+00 0.210E+04   0.147E+00 0.147E+00 -.210E+04   0.837E-05 0.803E-03 -.680E+01
   -.146E+00 0.146E+00 0.210E+04   0.146E+00 -.147E+00 -.210E+04   -.165E-03 0.153E-03 -.679E+01
   -.501E+00 0.647E+00 0.727E+03   0.496E+00 -.663E+00 -.727E+03   0.340E-02 0.994E-02 0.393E+00
   -.494E+00 -.494E+00 0.725E+03   0.484E+00 0.484E+00 -.726E+03   0.643E-02 0.643E-02 0.429E+00
   -.269E+01 -.331E+01 -.643E+03   0.269E+01 0.327E+01 0.643E+03   -.123E-02 0.354E-01 -.211E+00
   -.254E+01 0.254E+01 -.646E+03   0.255E+01 -.255E+01 0.646E+03   -.371E-02 0.368E-02 -.205E+00
   -.952E+01 0.176E+02 -.201E+04   0.954E+01 -.176E+02 0.200E+04   -.195E-01 -.371E-01 0.594E+01
   -.844E+01 -.844E+01 -.202E+04   0.847E+01 0.847E+01 0.202E+04   -.211E-01 -.210E-01 0.592E+01
   -.147E+00 0.147E+00 0.210E+04   0.146E+00 -.146E+00 -.210E+04   0.290E-03 -.300E-03 -.679E+01
   -.148E+00 -.147E+00 0.210E+04   0.147E+00 0.147E+00 -.210E+04   0.801E-03 0.391E-05 -.680E+01
   -.663E+00 -.663E+00 0.727E+03   0.664E+00 0.664E+00 -.728E+03   -.172E-02 -.170E-02 0.430E+00
   -.646E+00 0.501E+00 0.727E+03   0.663E+00 -.496E+00 -.727E+03   -.999E-02 -.341E-02 0.393E+00
   -.351E+01 0.351E+01 -.633E+03   0.347E+01 -.347E+01 0.633E+03   0.343E-01 -.341E-01 -.374E+00
   -.331E+01 -.269E+01 -.643E+03   0.327E+01 0.269E+01 0.643E+03   0.354E-01 -.120E-02 -.211E+00
   -.255E+02 -.255E+02 -.197E+04   0.257E+02 0.257E+02 0.196E+04   -.109E+00 -.109E+00 0.588E+01
   -.176E+02 0.951E+01 -.201E+04   0.176E+02 -.953E+01 0.200E+04   0.371E-01 0.192E-01 0.594E+01
   0.438E+00 -.438E+00 0.544E+03   -.429E+00 0.429E+00 -.544E+03   -.109E-01 0.110E-01 -.835E-01
   0.460E+00 0.469E+00 0.544E+03   -.457E+00 -.487E+00 -.544E+03   -.353E-02 0.207E-01 -.102E+00
   0.102E+00 0.102E+00 0.158E+04   -.101E+00 -.101E+00 -.158E+04   -.121E-02 -.122E-02 0.302E+01
   0.103E+00 -.118E+00 0.158E+04   -.102E+00 0.118E+00 -.158E+04   -.141E-02 -.330E-03 0.302E+01
   0.667E+01 -.666E+01 -.154E+04   -.666E+01 0.666E+01 0.154E+04   -.368E-02 0.378E-02 -.442E+01
   0.752E+01 0.131E+02 -.153E+04   -.750E+01 -.131E+02 0.153E+04   -.177E-01 -.538E-01 -.440E+01
   0.166E+01 0.166E+01 -.480E+03   -.166E+01 -.166E+01 0.479E+03   -.775E-02 -.782E-02 0.292E+00
   0.177E+01 -.275E+01 -.475E+03   -.177E+01 0.274E+01 0.474E+03   -.633E-03 0.134E-01 0.334E+00
   0.469E+00 0.460E+00 0.544E+03   -.487E+00 -.457E+00 -.544E+03   0.207E-01 -.355E-02 -.102E+00
   0.449E+00 -.449E+00 0.545E+03   -.449E+00 0.449E+00 -.545E+03   0.484E-04 -.111E-05 -.918E-01
   0.118E+00 -.103E+00 0.158E+04   -.118E+00 0.102E+00 -.158E+04   0.330E-03 0.141E-02 0.302E+01
   0.117E+00 0.117E+00 0.158E+04   -.118E+00 -.118E+00 -.158E+04   0.110E-02 0.110E-02 0.302E+01
   0.131E+02 0.752E+01 -.153E+04   -.131E+02 -.750E+01 0.153E+04   -.538E-01 -.180E-01 -.441E+01
   0.194E+02 -.194E+02 -.149E+04   -.193E+02 0.193E+02 0.149E+04   -.847E-01 0.862E-01 -.440E+01
   0.275E+01 -.178E+01 -.475E+03   -.274E+01 0.178E+01 0.474E+03   -.134E-01 0.659E-03 0.334E+00
   0.284E+01 0.284E+01 -.472E+03   -.280E+01 -.280E+01 0.472E+03   -.311E-01 -.311E-01 0.136E+00
   -.460E+00 -.468E+00 0.544E+03   0.457E+00 0.487E+00 -.544E+03   0.362E-02 -.206E-01 -.102E+00
   -.438E+00 0.438E+00 0.544E+03   0.429E+00 -.429E+00 -.544E+03   0.109E-01 -.109E-01 -.835E-01
   -.103E+00 0.118E+00 0.158E+04   0.102E+00 -.118E+00 -.158E+04   0.141E-02 0.324E-03 0.302E+01
   -.102E+00 -.102E+00 0.158E+04   0.101E+00 0.101E+00 -.158E+04   0.121E-02 0.120E-02 0.302E+01
   -.752E+01 -.131E+02 -.153E+04   0.751E+01 0.131E+02 0.153E+04   0.178E-01 0.537E-01 -.440E+01
   -.666E+01 0.667E+01 -.154E+04   0.666E+01 -.666E+01 0.154E+04   0.357E-02 -.389E-02 -.442E+01
   -.178E+01 0.275E+01 -.475E+03   0.178E+01 -.274E+01 0.474E+03   0.593E-03 -.135E-01 0.334E+00
   -.166E+01 -.166E+01 -.480E+03   0.165E+01 0.165E+01 0.479E+03   0.772E-02 0.780E-02 0.292E+00
   -.449E+00 0.449E+00 0.545E+03   0.449E+00 -.449E+00 -.545E+03   -.148E-04 0.426E-04 -.918E-01
   -.468E+00 -.460E+00 0.544E+03   0.486E+00 0.457E+00 -.544E+03   -.206E-01 0.363E-02 -.102E+00
   -.117E+00 -.117E+00 0.158E+04   0.118E+00 0.118E+00 -.158E+04   -.109E-02 -.109E-02 0.302E+01
   -.118E+00 0.103E+00 0.158E+04   0.118E+00 -.102E+00 -.158E+04   -.332E-03 -.140E-02 0.302E+01
   -.194E+02 0.194E+02 -.149E+04   0.193E+02 -.193E+02 0.149E+04   0.849E-01 -.861E-01 -.440E+01
   -.131E+02 -.753E+01 -.153E+04   0.131E+02 0.751E+01 0.153E+04   0.537E-01 0.181E-01 -.441E+01
   -.284E+01 -.284E+01 -.472E+03   0.281E+01 0.281E+01 0.472E+03   0.311E-01 0.311E-01 0.137E+00
   -.275E+01 0.178E+01 -.475E+03   0.274E+01 -.177E+01 0.474E+03   0.133E-01 -.702E-03 0.334E+00
   -.432E-02 -.379E-02 0.354E+02   -.254E-12 0.158E-12 -.398E-11   0.307E-02 0.273E-02 -.281E+02

 POSITION                                       TOTAL-FORCE (eV/Angst)
      5.25272      5.25273     16.41349        -0.000200     -0.000185      0.493542
      5.25239      5.25243     17.57151         0.000128      0.000121     -0.493083
      2.10122      0.00000      7.50000        -0.000020      0.000026      0.523745
      4.20243      2.10122      7.50000         0.000023      0.000275      0.525132
      2.10122      2.10122      9.60122         0.003192      0.003196      0.043900
      4.20243      0.00000      9.60122         0.001287      0.004831      0.046854
      2.10057      0.00066     11.71202         0.002241     -0.002256     -0.015167
      4.20284      2.10355     11.71319        -0.000513     -0.000513     -0.016708
      2.10187      2.10187     13.79880        -0.001415     -0.001355     -0.115111
      4.20101      0.00259     13.79360         0.002093     -0.005672     -0.108597
      2.10122      4.20243      7.50000         0.000283      0.000025      0.525135
      4.20243      6.30365      7.50000         0.000079     -0.000083      0.524019
      2.10122      6.30365      9.60122        -0.004809     -0.001275      0.046775
      4.20243      4.20243      9.60122         0.000633      0.000629      0.048579
      2.10355      4.20284     11.71319        -0.000523     -0.000518     -0.016662
      4.20260      6.30348     11.71305         0.002442     -0.002443     -0.014441
      2.09863      6.30509     13.79360         0.005672     -0.002187     -0.108391
      4.20422      4.20422     13.81172        -0.003520     -0.003214     -0.122223
      6.30365      0.00000      7.50000        -0.000021     -0.000281      0.525109
      0.00000      2.10122      7.50000         0.000028     -0.000023      0.523743
      6.30365      2.10122      9.60122        -0.001261     -0.004809      0.046773
      0.00000      0.00000      9.60122        -0.003170     -0.003166      0.043964
      6.30325      8.40254     11.71318         0.000501      0.000508     -0.016729
      0.00066      2.10057     11.71202        -0.002252      0.002245     -0.015184
      6.30509      2.09863     13.79360        -0.002126      0.005702     -0.108602
      8.40422      8.40423     13.79880         0.001468      0.001385     -0.115059
      6.30365      4.20243      7.50000        -0.000089      0.000069      0.524032
      0.00000      6.30365      7.50000        -0.000271     -0.000023      0.525144
      6.30365      6.30365      9.60122        -0.000626     -0.000613      0.048486
      0.00000      4.20243      9.60122         0.004835      0.001280      0.046867
      6.30348      4.20260     11.71305        -0.002462      0.002421     -0.014443
      8.40255      6.30325     11.71318         0.000518      0.000499     -0.016684
      6.30189      6.30189     13.81167         0.003489      0.003184     -0.122258
      0.00259      4.20101     13.79360        -0.005638      0.002178     -0.108395
      2.10122      0.00000      9.60122        -0.003535      0.003561      0.050552
      4.20243      2.10122      9.60122        -0.001395      0.006266      0.049812
      2.10122      2.10122      7.50000        -0.000401     -0.000401     -0.471470
      4.20243      0.00000      7.50000        -0.000476     -0.000123     -0.471364
      2.10015      0.00109     13.84290         0.000429     -0.000388     -0.019513
      4.20334      2.10187     13.84410        -0.001256     -0.002023     -0.016469
      2.10152      2.10152     11.70736        -0.000521     -0.000564     -0.005165
      4.20191      0.00179     11.70552         0.000017      0.000002     -0.003520
      2.10122      4.20243      9.60122         0.006278     -0.001408      0.049838
      4.20243      6.30365      9.60122        -0.000043      0.000069      0.053372
      2.10122      6.30365      7.50000         0.000118      0.000482     -0.471494
      4.20243      4.20243      7.50000         0.000386      0.000392     -0.471623
      2.10187      4.20334     13.84410        -0.002024     -0.001353     -0.016655
      4.19605      6.31005     13.83360        -0.005167      0.005676     -0.020180
      2.09943      6.30418     11.70553         0.000017      0.000027     -0.003567
      4.20272      4.20272     11.70874        -0.001494     -0.001500      0.000351
      6.30365      0.00000      9.60122         0.001417     -0.006234      0.049820
      0.00000      2.10122      9.60122         0.003538     -0.003550      0.050555
      6.30365      2.10122      7.50000         0.000480      0.000108     -0.471481
      0.00000      0.00000      7.50000         0.000397      0.000401     -0.471346
      6.30276      8.40422     13.84409         0.001246      0.001975     -0.016483
      0.00109      2.10014     13.84290        -0.000436      0.000364     -0.019503
      6.30418      2.09943     11.70553        -0.000005     -0.000062     -0.003521
      8.40457      8.40457     11.70735         0.000519      0.000571     -0.005172
      6.30365      4.20243      9.60122         0.000057     -0.000066      0.053373
      0.00000      6.30365      9.60122        -0.006242      0.001440      0.049834
      6.30365      6.30365      7.50000        -0.000405     -0.000387     -0.471730
      0.00000      4.20243      7.50000        -0.000107     -0.000485     -0.471368
      6.31005      4.19605     13.83360         0.005201     -0.005637     -0.020147
      8.40422      6.30275     13.84409         0.001970      0.001376     -0.016657
      6.30336      6.30336     11.70874         0.001480      0.001510      0.000404
      0.00179      4.20191     11.70552        -0.000043      0.000002     -0.003544
    total drift:                                0.000004      0.000072      0.003889

  FREE ENERGIE OF THE ION-ELECTRON SYSTEM (eV)
  free  energy   TOTEN  =      -489.42415420 eV

  energy  without entropy=     -489.42415420  energy(sigma->0) =     -489.42415420