 vasp.6.3.0 20Jan22 (build Apr  1 2022 16:44:48) gamma-only
 executed on        HPECrayEX_GCC date 2023.02.22  16:19:13

 INCAR:
   SYSTEM = MgO-rocksalt
   ISMEAR = 0
   SIGMA = 0.05
   EDIFF = 1E-6
   ALGO = ALL
   ISTART = 0
   NSW = 0
   ISYM = 0
   ISIF = 2
   EDIFFG = -0.01
   DIPOL = 0.5 0.5 0.5
   IDIPOL = 3
   LDIPOL = .TRUE.
   GGA = RE
   AGGAC = 0.0
   LUSE_VDW = .TRUE.
   LASPH = .TRUE.
   ENCUT = 520
   PREC = Accurate
   LASPH = .TRUE.
   LREAL = Auto
   ISPIN = 1
   NELM = 200
   NELMIN = 8
   NCORE = 8
   KPAR = 1
   LWAVE = .FALSE.
   LCHARG = .FALSE.

 POTCAR:    PAW_PBE Mg_pv 13Apr2007
 POTCAR:    PAW_PBE O 08Apr2002
|               ----> ADVICE to this user running VASP <----                  |
|     You have switched on vdW-DFT.                                           |
|     This routine was written and supplied by Jiri Klimes. We recommend      |
|     that you carefully read and cite the following publications:            |
|       J. Klimes, D.R. Bowler, A. Michelides                                 |
|          J. Phys.: Cond Matt. 22 022201 (2010)                              |
|       J. Klimes, D.R. Bowler, A. Michelides                                 |
|          Phys. Rev. B. 83, 195131 (2011)                                    |
|     and references therein.                                                 |

   TITEL  = PAW_PBE Mg_pv 13Apr2007
   POMASS =   24.305; ZVAL   =    8.000    mass and valenz
   ENMAX  =  403.929; ENMIN  =  302.947 eV

   TITEL  = PAW_PBE O 08Apr2002
   POMASS =   16.000; ZVAL   =    6.000    mass and valenz
   ENMAX  =  400.000; ENMIN  =  300.000 eV

 Optimization of the real space projectors (new method)

 maximal supplied QI-value         = 18.90
 optimisation between [QCUT,QGAM] = [ 11.53, 23.24] = [ 37.21,151.29] Ry
 Optimized for a Real-space Cutoff    1.28 Angstroem

   l    n(q)    QCUT    max X(q) W(low)/X(q) W(high)/X(q)  e(spline)
   1      8    11.527     2.974    0.44E-04    0.56E-04    0.12E-06
   1      8    11.527     4.279    0.12E-03    0.12E-03    0.26E-06
   0      9    11.527    16.381    0.46E-04    0.64E-04    0.78E-07
   0      9    11.527     5.611    0.26E-04    0.43E-04    0.55E-07
   2      8    11.527     4.652    0.22E-03    0.72E-04    0.47E-07
 Optimization of the real space projectors (new method)

 maximal supplied QI-value         = 24.76
 optimisation between [QCUT,QGAM] = [ 11.64, 23.27] = [ 37.91,151.63] Ry
 Optimized for a Real-space Cutoff    1.14 Angstroem

   l    n(q)    QCUT    max X(q) W(low)/X(q) W(high)/X(q)  e(spline)
   0      8    11.635    20.381    0.10E-03    0.33E-03    0.24E-06
   0      8    11.635    15.268    0.11E-03    0.35E-03    0.26E-06
   1      7    11.635     5.964    0.24E-03    0.31E-03    0.30E-06
   1      7    11.635     5.382    0.22E-03    0.25E-03    0.26E-06
|               ----> ADVICE to this user running VASP <----                  |
|     You enforced a specific xc type in the INCAR file but a different       |
|     type was found in the POTCAR file.                                      |
|     I HOPE YOU KNOW WHAT YOU ARE DOING!                                     |

  PAW_PBE Mg_pv 13Apr2007               :
  PAW_PBE O 08Apr2002                   :

 POSCAR: Mg  O
  positions in direct lattice
  velocities in cartesian coordinates
 exchange correlation table for  LEXCH =       40
   RHO(1)=    0.500       N(1)  =     2000
   RHO(2)=  100.500       N(2)  =     4000

 ion  position               nearest neighbor table
   1  0.000  0.375  0.350- 129 2.14 132 2.14 139 2.14 163 2.14 212 2.14
   2  0.125  0.000  0.350- 130 2.14 131 2.14 140 2.14 147 2.14 164 2.14
   3  0.000  0.000  0.450- 131 2.14 130 2.14 137 2.14 161 2.14 210 2.14 135 2.14
   4  0.125  0.375  0.450- 132 2.14 129 2.14 138 2.14 145 2.14 162 2.14 136 2.14
   5  0.000  0.375  0.550- 167 2.14 136 2.14 216 2.14 143 2.14 129 2.14 133 2.16
   6  0.125  0.000  0.550- 144 2.14 135 2.14 151 2.14 168 2.14 130 2.14 134 2.16
   7  0.000  1.000  0.649- 135 2.12 165 2.14 141 2.14 134 2.14 214 2.14
   8  0.125  0.375  0.649- 136 2.12 142 2.14 149 2.14 166 2.14 133 2.14
   9  0.000  0.125  0.350- 137 2.14 131 2.14 139 2.14 140 2.14 220 2.14
  10  0.125  0.250  0.350- 138 2.14 132 2.14 139 2.14 140 2.14 155 2.14
  11  0.000  0.250  0.450- 139 2.14 137 2.14 138 2.14 129 2.14 218 2.14 143 2.14
  12  0.125  0.125  0.450- 140 2.14 137 2.14 138 2.14 130 2.14 153 2.14 144 2.14
  13  0.000  0.125  0.550- 144 2.14 135 2.14 143 2.14 224 2.14 137 2.14 141 2.16
  14  0.125  0.250  0.550- 159 2.14 136 2.14 144 2.14 143 2.14 138 2.14 142 2.16
  15  0.000  0.250  0.649- 143 2.12 142 2.14 133 2.14 222 2.14 141 2.14
  16  0.125  0.125  0.649- 144 2.12 157 2.14 141 2.14 134 2.14 142 2.14
  17  0.250  0.375  0.350- 145 2.14 132 2.14 148 2.14 155 2.14 179 2.14
  18  0.375  0.000  0.350- 146 2.14 147 2.14 156 2.14 180 2.14 195 2.14
  19  0.250  0.000  0.450- 147 2.14 146 2.14 130 2.14 153 2.14 177 2.14 151 2.14
  20  0.375  0.375  0.450- 148 2.14 145 2.14 154 2.14 178 2.14 193 2.14 152 2.14
  21  0.250  0.375  0.550- 136 2.14 159 2.14 152 2.14 183 2.14 145 2.14 149 2.16
  22  0.375  0.000  0.550- 160 2.14 151 2.14 184 2.14 199 2.14 146 2.14 150 2.16
  23  0.250  0.000  0.649- 151 2.12 134 2.14 157 2.14 150 2.14 181 2.14
  24  0.375  0.375  0.649- 152 2.12 149 2.14 182 2.14 197 2.14 158 2.14
  25  0.250  0.125  0.350- 153 2.14 147 2.14 140 2.14 155 2.14 156 2.14
  26  0.375  0.250  0.350- 154 2.14 148 2.14 155 2.14 156 2.14 203 2.14
  27  0.250  0.250  0.450- 155 2.14 145 2.14 153 2.14 154 2.14 138 2.14 159 2.14
  28  0.375  0.125  0.450- 156 2.14 153 2.14 154 2.14 146 2.14 201 2.14 160 2.14
  29  0.250  0.125  0.550- 144 2.14 160 2.14 151 2.14 159 2.14 153 2.14 157 2.16
  30  0.375  0.250  0.550- 159 2.14 160 2.14 152 2.14 207 2.14 154 2.14 158 2.16
  31  0.250  0.250  0.649- 159 2.12 142 2.14 149 2.14 158 2.14 157 2.14
  32  0.375  0.125  0.649- 160 2.12 150 2.14 158 2.14 205 2.14 157 2.14
  33  0.000  0.875  0.350- 161 2.14 131 2.14 164 2.14 171 2.14 244 2.14
  34  0.125  0.500  0.350- 162 2.14 132 2.14 163 2.14 172 2.14 179 2.14
  35  0.000  0.500  0.450- 163 2.14 162 2.14 129 2.14 169 2.14 242 2.14 167 2.14
  36  0.125  0.875  0.450- 164 2.14 161 2.14 130 2.14 170 2.14 177 2.14 168 2.14
  37  1.000  0.875  0.550- 248 2.14 168 2.14 135 2.14 175 2.14 161 2.14 165 2.16
  38  0.125  0.500  0.550- 167 2.14 176 2.14 136 2.14 183 2.14 162 2.14 166 2.16
  39  0.000  0.500  0.649- 167 2.12 166 2.14 173 2.14 133 2.14 246 2.14
  40  0.125  0.875  0.649- 168 2.12 165 2.14 134 2.14 174 2.14 181 2.14
  41  0.000  0.625  0.350- 169 2.14 163 2.14 171 2.14 172 2.14 252 2.14
  42  0.125  0.750  0.350- 170 2.14 164 2.14 171 2.14 172 2.14 187 2.14
  43  0.000  0.750  0.450- 171 2.14 169 2.14 170 2.14 161 2.14 250 2.14 175 2.14
  44  0.125  0.625  0.450- 172 2.14 169 2.14 170 2.14 162 2.14 185 2.14 176 2.14
  45  1.000  0.625  0.550- 256 2.14 176 2.14 167 2.14 175 2.14 169 2.14 173 2.16
  46  0.125  0.750  0.550- 175 2.14 168 2.14 176 2.14 191 2.14 170 2.14 174 2.16
  47  1.000  0.750  0.649- 175 2.12 254 2.14 174 2.14 173 2.14 165 2.14
  48  0.125  0.625  0.649- 176 2.12 173 2.14 166 2.14 189 2.14 174 2.14
  49  0.250  0.875  0.350- 177 2.14 164 2.14 147 2.14 180 2.14 187 2.14
  50  0.375  0.500  0.350- 178 2.14 148 2.14 179 2.14 188 2.14 227 2.14
  51  0.250  0.500  0.450- 179 2.14 162 2.14 178 2.14 145 2.14 185 2.14 183 2.14
  52  0.375  0.875  0.450- 180 2.14 177 2.14 146 2.14 186 2.14 225 2.14 184 2.14
  53  0.250  0.875  0.550- 151 2.14 184 2.14 168 2.14 191 2.14 177 2.14 181 2.16
  54  0.375  0.500  0.550- 152 2.14 192 2.14 231 2.14 183 2.14 178 2.14 182 2.16
  55  0.250  0.500  0.649- 183 2.12 149 2.14 166 2.14 182 2.14 189 2.14
  56  0.375  0.875  0.649- 184 2.12 229 2.14 181 2.14 190 2.14 150 2.14
  57  0.250  0.625  0.350- 185 2.14 179 2.14 172 2.14 187 2.14 188 2.14
  58  0.375  0.750  0.350- 186 2.14 180 2.14 187 2.14 188 2.14 235 2.14
  59  0.250  0.750  0.450- 187 2.14 177 2.14 185 2.14 186 2.14 170 2.14 191 2.14
  60  0.375  0.625  0.450- 188 2.14 185 2.14 186 2.14 178 2.14 233 2.14 192 2.14
[...]
 242  0.875  0.500  0.450- 114 2.14  84 2.14  35 2.14 115 2.14 124 2.14 118 2.14
 243  0.750  0.500  0.350- 115 2.14  98 2.14 114 2.14  81 2.14 121 2.14
 244  0.875  0.875  0.350- 116 2.14  82 2.14 113 2.14  33 2.14 122 2.14
 245  0.750  0.875  0.651-  87 2.14 104 2.14 120 2.14 127 2.14 117 2.16
 246  0.875  0.500  0.651- 119 2.14  88 2.14 128 2.14  39 2.14 118 2.16
 247  0.750  0.500  0.550- 119 2.12  85 2.14 102 2.14 125 2.14 118 2.14 115 2.14
 248  0.875  0.875  0.550- 120 2.12 126 2.14  37 2.14  86 2.14 117 2.14 116 2.14
 249  0.750  0.625  0.450- 121 2.14 115 2.14 108 2.14 123 2.14 124 2.14 125 2.14
 250  0.875  0.750  0.450- 122 2.14 116 2.14  43 2.14 123 2.14 124 2.14 126 2.14
 251  0.750  0.750  0.350- 123 2.14 113 2.14 121 2.14 122 2.14 106 2.14
 252  0.875  0.625  0.350- 124 2.14 114 2.14 121 2.14 122 2.14  41 2.14
 253  0.750  0.625  0.651- 128 2.14 127 2.14 119 2.14 112 2.14 125 2.16
 254  0.875  0.750  0.651-  47 2.14 120 2.14 127 2.14 128 2.14 126 2.16
 255  0.750  0.750  0.550- 127 2.12 126 2.14 117 2.14 110 2.14 125 2.14 123 2.14
 256  0.875  0.625  0.550- 128 2.12  45 2.14 126 2.14 125 2.14 118 2.14 124 2.14

IMPORTANT INFORMATION: All symmetrisations will be switched off!
NOSYMM: (Re-)initialisation of all symmetry stuff for point group C_1.

                                     Primitive cell

  volume of cell :    6254.6868

  direct lattice vectors                    reciprocal lattice vectors
    17.092227251  0.000000000  0.000000000     0.058506126  0.000000000  0.000000000
     0.000000000 17.092227251  0.000000000     0.000000000  0.058506126  0.000000000
     0.000000000  0.000000000 21.409585219     0.000000000  0.000000000  0.046708051

  length of vectors
    17.092227251 17.092227251 21.409585219     0.058506126  0.058506126  0.046708051

  position of ions in fractional coordinates (direct lattice)
     0.000000000  0.375000000  0.350310383
     0.125000000  0.000000000  0.350310383
     0.000000000  0.000000000  0.450103461
     0.125000000  0.375000000  0.450103461
     0.000000005  0.375000009  0.550278694
     0.125000003  0.000000003  0.550278690
     0.000000013  0.999999993  0.649202511
     0.125000012  0.375000005  0.649202524
     0.000000000  0.125000000  0.350310383
     0.125000000  0.250000000  0.350310383
     0.000000000  0.250000000  0.450103461
     0.125000000  0.125000000  0.450103461
     0.000000009  0.124999993  0.550278692
     0.125000009  0.250000006  0.550278694
     0.000000019  0.250000008  0.649202517
     0.125000010  0.125000005  0.649202517
     0.250000000  0.375000000  0.350310383
     0.375000000  0.000000000  0.350310383
     0.250000000  0.000000000  0.450103461
     0.375000000  0.375000000  0.450103461
     0.249999999  0.374999998  0.550278694
     0.375000003  0.000000003  0.550278694
     0.249999993  0.000000017  0.649202506
     0.374999990  0.375000000  0.649202517
     0.250000000  0.125000000  0.350310383
     0.375000000  0.250000000  0.350310383
     0.250000000  0.250000000  0.450103461
     0.375000000  0.125000000  0.450103461
[...]
   4.27305684 14.95569904 11.78123856
   6.40958515  8.54611355 11.78123866
   4.27305673  8.54611343 13.89915694
   6.40958537 14.95569900 13.89915629
   4.27305681 10.68264203  7.50000000
   6.40958522 12.81917044  7.50000000
   4.27305681 12.81917044  9.63652841
   6.40958522 10.68264203  9.63652841
[...]
  14.95569884  8.54611363  9.63652841
  12.81917044  8.54611363  7.50000000
  14.95569884 14.95569884  7.50000000
  12.81917044 14.95569914 13.94123253
  14.95569873  8.54611355 13.94123111
  12.81917039  8.54611353 11.77502347
  14.95569887 14.95569872 11.77502361
  12.81917044 10.68264203  9.63652841
  14.95569884 12.81917044  9.63652841
  12.81917044 12.81917044  7.50000000
  14.95569884 10.68264203  7.50000000
  12.81917092 10.68264223 13.94123155
  14.95569906 12.81917056 13.94123266
  12.81917064 12.81917061 11.77502369
  14.95569909 10.68264217 11.77502355

--------------------------------------- Iteration      FINAL  ---------------------------------------

--------------------OUTCAR has been truncated-------------------------

[...]

--------------------OUTCAR has been truncated-------------------------

  FORCE on cell =-STRESS in cart. coord.  units (eV):
  Direction    XX          YY          ZZ          XY          YZ          ZX
  Alpha Z  3402.85350  3402.85350  3402.85350
  Ewald  626002.50004626002.50004************     0.00000     0.00005     0.00001
  Hartree666406.60915666406.60916************     0.00002     0.00002     0.00001
  E(xc)  -10073.74584-10073.74584-10083.33058    -0.00000     0.00000    -0.00000
  Local  ************************************    -0.00007    -0.00005    -0.00003
  n-local-11254.60490-11254.60491-11327.68209     0.00000     0.00000     0.00000
  augment  4312.27281  4312.27281  4278.28712     0.00001    -0.00000     0.00000
  Kinetic 29219.21174 29219.21173 29372.15140     0.00006    -0.00004     0.00002
  Fock        0.00000     0.00000     0.00000     0.00000     0.00000     0.00000
  Total    -110.52360  -110.52360     4.36780     0.00001    -0.00003     0.00001
  in kB     -28.31132   -28.31132     1.11884     0.00000    -0.00001     0.00000

 VOLUME and BASIS-vectors are now :
  energy-cutoff  :      520.00
  volume of cell :     6254.69
      direct lattice vectors                 reciprocal lattice vectors
    17.092227251  0.000000000  0.000000000     0.058506126  0.000000000  0.000000000
     0.000000000 17.092227251  0.000000000     0.000000000  0.058506126  0.000000000
     0.000000000  0.000000000 21.409585219     0.000000000  0.000000000  0.046708051

  length of vectors
    17.092227251 17.092227251 21.409585219     0.058506126  0.058506126  0.046708051

 FORCES acting on ions:
    Electron-Ion                     Ewald-Force                    Non-Local-Force
   0.116E-04 0.770E-05 0.201E+04   -.784E-05 -.605E-05 -.200E+04   0.628E-06 -.322E-05 -.641E+01
   0.967E-05 -.499E-06 0.201E+04   -.286E-05 -.139E-05 -.200E+04   -.219E-05 -.143E-05 -.641E+01
   0.306E-04 -.211E-04 0.666E+03   -.322E-04 0.228E-04 -.666E+03   -.438E-05 -.746E-05 0.407E+00
   0.282E-04 -.614E-05 0.666E+03   -.202E-04 0.452E-05 -.666E+03   -.529E-05 0.940E-06 0.407E+00
   0.728E-04 0.108E-03 -.669E+03   -.682E-04 -.108E-03 0.670E+03   -.317E-05 -.166E-05 -.295E+00
   0.806E-05 0.176E-04 -.669E+03   -.129E-04 -.179E-04 0.670E+03   0.202E-05 -.543E-06 -.295E+00
   0.625E-04 -.951E-04 -.200E+04   -.652E-04 0.982E-04 0.199E+04   0.470E-06 -.191E-05 0.562E+01
   0.130E-03 -.202E-04 -.200E+04   -.132E-03 0.212E-04 0.199E+04   0.584E-07 -.433E-05 0.562E+01
   0.200E-04 -.892E-05 0.201E+04   -.149E-04 0.827E-05 -.200E+04   -.269E-05 0.597E-05 -.641E+01
   0.458E-05 -.401E-05 0.201E+04   -.966E-05 0.499E-05 -.200E+04   0.413E-05 -.408E-05 -.641E+01
   0.316E-04 -.524E-05 0.666E+03   -.357E-04 0.249E-05 -.666E+03   -.125E-05 0.977E-06 0.407E+00
   0.317E-04 -.160E-04 0.666E+03   -.308E-04 0.169E-04 -.666E+03   0.687E-05 0.193E-05 0.407E+00
   0.142E-03 -.705E-04 -.669E+03   -.139E-03 0.758E-04 0.670E+03   -.992E-06 -.179E-05 -.295E+00
   0.148E-03 0.313E-04 -.669E+03   -.153E-03 -.217E-04 0.670E+03   0.455E-05 -.426E-05 -.295E+00
   0.159E-03 0.109E-03 -.200E+04   -.159E-03 -.931E-04 0.199E+04   -.429E-06 -.630E-05 0.562E+01
   0.142E-03 -.961E-05 -.200E+04   -.134E-03 0.550E-05 0.199E+04   -.497E-05 0.796E-05 0.562E+01
   -.142E-04 -.100E-04 0.201E+04   0.111E-04 0.123E-04 -.200E+04   -.976E-06 0.230E-05 -.641E+01
   -.968E-05 0.265E-05 0.201E+04   0.781E-05 -.443E-05 -.200E+04   -.288E-05 0.216E-05 -.641E+01
   -.718E-05 0.223E-04 0.666E+03   0.875E-05 -.205E-04 -.666E+03   0.519E-05 -.260E-05 0.407E+00
   -.565E-04 -.161E-04 0.666E+03   0.558E-04 0.193E-04 -.666E+03   -.136E-05 -.343E-06 0.407E+00
   -.488E-04 -.810E-04 -.669E+03   0.523E-04 0.790E-04 0.670E+03   0.829E-06 0.147E-05 -.295E+00
   0.143E-04 0.348E-04 -.669E+03   -.150E-04 -.351E-04 0.670E+03   0.518E-05 -.308E-05 -.295E+00
   -.990E-04 0.104E-03 -.200E+04   0.890E-04 -.107E-03 0.199E+04   0.913E-05 0.630E-05 0.562E+01
   -.102E-03 0.370E-04 -.200E+04   0.985E-04 -.341E-04 0.199E+04   0.166E-05 -.533E-08 0.562E+01
   -.124E-04 -.555E-05 0.201E+04   0.467E-05 0.310E-05 -.200E+04   -.464E-05 -.394E-05 -.641E+01
   -.189E-04 -.101E-04 0.201E+04   0.203E-04 0.118E-04 -.200E+04   0.284E-05 -.360E-05 -.641E+01
   -.166E-04 -.357E-05 0.666E+03   0.172E-04 0.119E-04 -.666E+03   0.587E-05 -.776E-05 0.407E+00
   -.358E-04 -.299E-04 0.666E+03   0.409E-04 0.272E-04 -.666E+03   0.574E-06 0.200E-06 0.407E+00
   -.330E-04 -.140E-05 -.669E+03   0.329E-04 -.188E-07 0.670E+03   0.355E-05 0.426E-05 -.295E+00
   -.165E-03 -.145E-04 -.669E+03   0.168E-03 0.161E-04 0.670E+03   0.662E-05 -.590E-06 -.295E+00
   -.149E-03 0.597E-04 -.200E+04   0.147E-03 -.578E-04 0.199E+04   0.593E-05 0.791E-06 0.562E+01
   -.142E-04 -.893E-04 -.200E+04   0.191E-04 0.829E-04 0.199E+04   -.235E-05 0.271E-05 0.562E+01
   0.986E-05 -.978E-05 0.201E+04   -.511E-05 -.143E-05 -.200E+04   -.249E-05 0.329E-05 -.641E+01
   -.927E-05 -.602E-05 0.201E+04   0.952E-05 0.385E-05 -.200E+04   0.127E-05 0.371E-05 -.641E+01
   -.195E-06 0.265E-04 0.666E+03   -.244E-06 -.219E-04 -.666E+03   0.937E-06 -.158E-05 0.407E+00
   -.312E-04 0.310E-04 0.666E+03   0.288E-04 -.359E-04 -.666E+03   0.270E-05 0.697E-06 0.407E+00
   0.202E-04 0.164E-04 -.669E+03   -.156E-04 -.173E-04 0.670E+03   -.474E-05 -.316E-05 -.295E+00
   -.612E-04 -.440E-04 -.669E+03   0.662E-04 0.425E-04 0.670E+03   -.245E-05 0.363E-05 -.295E+00
   0.137E-03 0.106E-04 -.200E+04   -.129E-03 -.118E-04 0.199E+04   -.675E-05 -.281E-05 0.562E+01
   -.146E-03 0.135E-03 -.200E+04   0.146E-03 -.133E-03 0.199E+04   0.498E-05 -.295E-05 0.562E+01
   0.257E-06 0.363E-05 0.201E+04   0.237E-05 -.813E-06 -.200E+04   -.173E-05 -.262E-05 -.641E+01
   -.196E-04 0.138E-05 0.201E+04   0.130E-04 -.765E-05 -.200E+04   0.863E-06 0.228E-05 -.641E+01
   -.267E-04 0.305E-06 0.666E+03   0.234E-04 -.542E-06 -.666E+03   -.686E-05 0.343E-06 0.407E+00
   -.509E-04 -.256E-04 0.666E+03   0.535E-04 0.217E-04 -.666E+03   -.146E-05 0.300E-05 0.407E+00
   -.773E-04 -.283E-04 -.669E+03   0.749E-04 0.286E-04 0.670E+03   0.283E-05 0.407E-05 -.295E+00
   -.131E-03 0.557E-04 -.669E+03   0.137E-03 -.559E-04 0.670E+03   -.930E-06 0.264E-05 -.295E+00
   -.710E-04 0.219E-05 -.200E+04   0.687E-04 0.235E-06 0.199E+04   0.234E-05 -.143E-05 0.562E+01
   -.113E-03 -.145E-03 -.200E+04   0.114E-03 0.144E-03 0.199E+04   0.292E-05 0.516E-05 0.562E+01
   -.393E-05 0.191E-04 0.201E+04   0.717E-05 -.162E-04 -.200E+04   0.308E-05 -.426E-05 -.641E+01
   -.146E-04 -.137E-04 0.201E+04   0.140E-04 0.750E-05 -.200E+04   0.147E-05 0.489E-05 -.641E+01
   -.330E-04 -.276E-04 0.666E+03   0.307E-04 0.334E-04 -.666E+03   0.551E-05 -.109E-05 0.407E+00
   0.661E-05 0.443E-04 0.666E+03   -.108E-04 -.464E-04 -.666E+03   0.350E-05 -.956E-07 0.407E+00
   0.487E-05 0.128E-03 -.669E+03   -.596E-05 -.140E-03 0.670E+03   -.546E-06 0.271E-06 -.295E+00
   -.177E-04 -.805E-04 -.669E+03   0.178E-04 0.761E-04 0.670E+03   -.999E-07 0.191E-05 -.295E+00
   -.564E-04 -.177E-03 -.200E+04   0.580E-04 0.174E-03 0.199E+04   0.292E-05 0.919E-06 0.562E+01
   0.816E-04 0.479E-04 -.200E+04   -.821E-04 -.464E-04 0.199E+04   0.307E-05 0.445E-05 0.562E+01
   -.149E-04 0.543E-06 0.201E+04   0.134E-04 0.855E-06 -.200E+04   -.424E-05 -.687E-05 -.641E+01
   -.548E-05 0.215E-04 0.201E+04   0.629E-05 -.149E-04 -.200E+04   0.306E-05 0.122E-05 -.641E+01
   -.106E-04 0.326E-04 0.666E+03   0.105E-04 -.261E-04 -.666E+03   0.186E-05 -.152E-05 0.407E+00
   -.120E-04 0.152E-05 0.666E+03   0.111E-04 -.576E-06 -.666E+03   0.226E-05 -.529E-06 0.407E+00
[...]
   0.145E-04 0.215E-05 0.151E+04   -.146E-04 -.283E-06 -.151E+04   -.162E-05 0.300E-05 0.357E+01
   0.180E-04 0.669E-05 0.151E+04   -.102E-04 0.769E-06 -.151E+04   -.142E-05 -.200E-05 0.357E+01
   -.833E-05 0.805E-04 -.152E+04   0.139E-05 -.867E-04 0.152E+04   0.680E-06 0.210E-05 -.501E+01
   -.395E-04 0.166E-05 -.152E+04   0.438E-04 0.257E-06 0.152E+04   -.290E-05 -.497E-06 -.501E+01
   0.674E-04 -.157E-04 -.497E+03   -.733E-04 0.180E-04 0.496E+03   -.695E-06 -.595E-06 0.289E+00
   0.461E-04 0.197E-05 -.497E+03   -.616E-04 -.390E-05 0.496E+03   0.145E-05 0.665E-05 0.289E+00
   0.528E-04 -.259E-04 0.499E+03   -.511E-04 0.145E-04 -.499E+03   0.166E-05 0.392E-05 -.662E-01
   0.373E-04 0.508E-05 0.499E+03   -.404E-04 0.413E-05 -.499E+03   0.273E-05 -.500E-05 -.662E-01
   0.110E-04 -.186E-05 0.151E+04   -.130E-04 -.518E-05 -.151E+04   0.260E-05 -.284E-05 0.357E+01
   0.681E-05 -.112E-04 0.151E+04   -.131E-04 -.673E-06 -.151E+04   0.234E-05 0.267E-05 0.357E+01
   0.140E-03 0.480E-04 -.152E+04   -.139E-03 -.426E-04 0.152E+04   -.708E-06 -.232E-05 -.501E+01
   0.357E-04 0.314E-06 -.152E+04   -.434E-04 -.103E-04 0.152E+04   0.151E-05 0.668E-05 -.501E+01
   0.803E-04 0.277E-04 -.497E+03   -.774E-04 -.251E-04 0.496E+03   -.117E-05 0.233E-05 0.289E+00
   0.748E-04 0.125E-05 -.497E+03   -.741E-04 0.271E-05 0.496E+03   0.108E-05 0.206E-05 0.289E+00
   -.463E-05 -.194E-03 0.600E+02   0.168E-11 -.150E-11 -.628E-10   0.349E-04 0.345E-04 -.603E+02

 POSITION                                       TOTAL-FORCE (eV/Angst)
      0.00000      6.40959      7.50000         0.000004     -0.000001      0.322100
      2.13653      0.00000      7.50000         0.000005     -0.000003      0.322103
      0.00000      0.00000      9.63653        -0.000006     -0.000005      0.015806
      2.13653      6.40959      9.63653         0.000003     -0.000000      0.015809
      0.00000      6.40959     11.78124         0.000001     -0.000001      0.000132
      2.13653      0.00000     11.78124        -0.000003     -0.000000      0.000137
      0.00000     17.09223     13.89916        -0.000002      0.000002      0.037033
      2.13653      6.40959     13.89916        -0.000002     -0.000003      0.037035
      0.00000      2.13653      7.50000         0.000002      0.000006      0.322108
      2.13653      4.27306      7.50000        -0.000001     -0.000003      0.322111
      0.00000      4.27306      9.63653        -0.000006     -0.000001      0.015808
      2.13653      2.13653      9.63653         0.000008      0.000003      0.015797
      0.00000      2.13653     11.78124         0.000002      0.000004      0.000122
      2.13653      4.27306     11.78124        -0.000001      0.000006      0.000132
      0.00000      4.27306     13.89916        -0.000001      0.000010      0.037032
      2.13653      2.13653     13.89916         0.000004      0.000004      0.037030
      4.27306      6.40959      7.50000        -0.000004      0.000005      0.322096
      6.40959      0.00000      7.50000        -0.000005      0.000001      0.322107
      4.27306      0.00000      9.63653         0.000007     -0.000000      0.015801
      6.40959      6.40959      9.63653        -0.000002      0.000004      0.015807
      4.27306      6.40959     11.78124         0.000004      0.000000      0.000125
      6.40959      0.00000     11.78124         0.000004     -0.000003      0.000124
      4.27306      0.00000     13.89916        -0.000001      0.000004      0.037039
      6.40959      6.40959     13.89916        -0.000002      0.000004      0.037021
      4.27306      2.13653      7.50000        -0.000013     -0.000006      0.322110
      6.40959      4.27306      7.50000         0.000004     -0.000001      0.322108
      4.27306      4.27306      9.63653         0.000006      0.000001      0.015804
      6.40959      2.13653      9.63653         0.000006     -0.000002      0.015810
      4.27306      2.13653     11.78124         0.000003      0.000003      0.000130
      6.40958      4.27306     11.78124         0.000010      0.000002      0.000127
      4.27306      4.27306     13.89916         0.000004      0.000003      0.037039
      6.40959      2.13653     13.89916         0.000002     -0.000003      0.037041
      0.00000     14.95570      7.50000         0.000002     -0.000007      0.322108
      2.13653      8.54611      7.50000         0.000001      0.000002      0.322107
      0.00000      8.54611      9.63653         0.000000      0.000004      0.015805
      2.13653     14.95570      9.63653         0.000000     -0.000004      0.015813
     17.09223     14.95570     11.78124        -0.000000     -0.000003      0.000123
      2.13653      8.54611     11.78124         0.000003      0.000003      0.000130
      0.00000      8.54611     13.89916         0.000000     -0.000003      0.037033
      2.13653     14.95570     13.89916         0.000005      0.000000      0.037036
      0.00000     10.68264      7.50000         0.000001      0.000001      0.322110
      2.13653     12.81917      7.50000        -0.000006     -0.000003      0.322105
      0.00000     12.81917      9.63653        -0.000010      0.000001      0.015820
      2.13653     10.68264      9.63653         0.000001     -0.000000      0.015808
     17.09223     10.68264     11.78124         0.000000      0.000005      0.000128
      2.13653     12.81917     11.78124         0.000004      0.000003      0.000125
     17.09223     12.81917     13.89916        -0.000000      0.000002      0.037037
      2.13653     10.68264     13.89916         0.000003      0.000005      0.037034
      4.27306     14.95570      7.50000         0.000006     -0.000001      0.322098
      6.40959      8.54611      7.50000         0.000001     -0.000001      0.322099
      4.27306      8.54611      9.63653         0.000003      0.000005      0.015807
      6.40959     14.95570      9.63653        -0.000001     -0.000002      0.015807
      4.27306     14.95570     11.78124        -0.000002     -0.000012      0.000123
      6.40959      8.54611     11.78124        -0.000000     -0.000002      0.000131
      4.27306      8.54611     13.89916         0.000004     -0.000002      0.037036
      6.40959     14.95570     13.89916         0.000002      0.000007      0.037036
      4.27306     10.68264      7.50000        -0.000006     -0.000005      0.322114
      6.40959     12.81917      7.50000         0.000004      0.000009      0.322107
      4.27306     12.81917      9.63653         0.000002      0.000006      0.015811
      6.40959     10.68264      9.63653         0.000001      0.000001      0.015809
[...]
     14.95570      8.54611      9.63653         0.000005     -0.000006      0.039579
     12.81917      8.54611      7.50000        -0.000002      0.000005     -0.401344
     14.95570     14.95570      7.50000         0.000006      0.000006     -0.401340
     12.81917     14.95570     13.94123        -0.000006     -0.000004     -0.005929
     14.95570      8.54611     13.94123         0.000001      0.000002     -0.005916
     12.81917      8.54611     11.77502        -0.000007      0.000002     -0.007385
     14.95570     14.95570     11.77502        -0.000014      0.000005     -0.007384
     12.81917     10.68264      9.63653         0.000003     -0.000007      0.039584
     14.95570     12.81917      9.63653        -0.000001      0.000005      0.039586
     12.81917     12.81917      7.50000         0.000001     -0.000009     -0.401352
     14.95570     10.68264      7.50000        -0.000004     -0.000009     -0.401336
     12.81917     10.68264     13.94123         0.000000      0.000004     -0.005932
     14.95570     12.81917     13.94123        -0.000006     -0.000003     -0.005924
     12.81917     12.81917     11.77502         0.000002      0.000006     -0.007386
     14.95570     10.68264     11.77502         0.000002      0.000007     -0.007389
    total drift:                                0.000030     -0.000160     -0.245407

  FREE ENERGIE OF THE ION-ELECTRON SYSTEM (eV)
  free  energy   TOTEN  =      -908.50163586 eV

  energy  without entropy=     -908.50163586  energy(sigma->0) =     -908.50163586