 vasp.6.3.0 20Jan22 (build Apr  1 2022 16:44:48) complex
 executed on        HPECrayEX_GCC date 2022.10.25  01:02:23

 INCAR:
   SYSTEM = MgO-rocksalt
   ISMEAR = 0
   SIGMA = 0.05
   EDIFF = 1E-6
   ALGO = ALL
   ISTART = 0
   IBRION = -1
   NSW = 0
   ISYM = 0
   DIPOL = 0.5 0.5 0.5
   IDIPOL = 3
   LDIPOL = .TRUE.
   LHFCALC = .TRUE.
   GGA = B5
   AEXX = 0.2
   AGGAX = 0.72
   AGGAC = 0.81
   ALDAC = 0.19
   IVDW = 1
   VDW_S6 = 1.05
   VDW_C6 = 0.63 0.70
   VDW_R0 = 1.243 1.342
   ENCUT = 600
   PREC = Accurate
   LASPH = .TRUE.
   LREAL = .FALSE.
   ISPIN = 1
   NELM = 200
   NELMIN = 8
   NCORE = 8
   KPAR = 1
   LWAVE = .FALSE.
   LCHARG = .FALSE.

 POTCAR:    PAW_PBE Mg_pv 13Apr2007
 POTCAR:    PAW_PBE O 08Apr2002
 POTCAR:    PAW_PBE Mg_pv 13Apr2007
   VRHFIN =Mg: p6s2

   TITEL  = PAW_PBE Mg_pv 13Apr2007
   POMASS =   24.305; ZVAL   =    8.000    mass and valenz
   ENMAX  =  403.929; ENMIN  =  302.947 eV

   TITEL  = PAW_PBE O 08Apr2002
   POMASS =   16.000; ZVAL   =    6.000    mass and valenz
   ENMAX  =  400.000; ENMIN  =  300.000 eV

  PAW_PBE Mg_pv 13Apr2007               :
  PAW_PBE O 08Apr2002                   :

 POSCAR: Mg  O
  positions in direct lattice
 exchange correlation table for  LEXCH =       12
   RHO(1)=    0.500       N(1)  =     2000
   RHO(2)=  100.500       N(2)  =     4000

 ion  position               nearest neighbor table
   1  0.000  0.750  0.352-  33 2.11  35 2.11  36 2.11  43 2.11  52 2.11
   2  0.250  0.000  0.352-  34 2.11  35 2.11  36 2.11  44 2.11  51 2.11
   3  0.000  0.000  0.451-  35 2.11  34 2.11  33 2.11  41 2.11  50 2.11  39 2.12
   4  0.250  0.750  0.451-  36 2.11  34 2.11  33 2.11  42 2.11  49 2.11  40 2.12
   5  1.000  0.750  0.550-  56 2.11  40 2.11  47 2.11  39 2.11  33 2.12  37 2.15
   6  0.250  1.000  0.550-  40 2.11  48 2.11  55 2.11  39 2.11  34 2.12  38 2.15
   7  1.000  1.000  0.649-  38 2.11  54 2.11  39 2.11  37 2.11  45 2.11
   8  0.250  0.750  0.649-  40 2.11  46 2.11  37 2.11  38 2.11  53 2.11
   9  0.000  0.250  0.352-  41 2.11  35 2.11  43 2.11  44 2.11  60 2.11
  10  0.250  0.500  0.352-  42 2.11  36 2.11  43 2.11  44 2.11  59 2.11
  11  0.000  0.500  0.451-  43 2.11  41 2.11  42 2.11  33 2.11  58 2.11  47 2.12
  12  0.250  0.250  0.451-  44 2.11  41 2.11  42 2.11  34 2.11  57 2.11  48 2.12
  13  1.000  0.250  0.550-  64 2.11  48 2.11  47 2.11  39 2.11  41 2.12  45 2.15
  14  0.250  0.500  0.550-  63 2.11  48 2.11  40 2.11  47 2.11  42 2.13  46 2.15
  15  0.000  0.500  0.649-  46 2.11  47 2.11  62 2.11  37 2.11  45 2.11
  16  0.250  0.250  0.649-  48 2.11  45 2.11  46 2.11  38 2.11  61 2.11
  17  0.500  0.750  0.352-  49 2.11  36 2.11  51 2.11  52 2.11  59 2.11
  18  0.750  0.000  0.352-  50 2.11  35 2.11  51 2.11  52 2.11  60 2.11
  19  0.500  0.000  0.451-  51 2.11  49 2.11  50 2.11  34 2.11  57 2.11  55 2.12
  20  0.750  0.750  0.451-  52 2.11  49 2.11  50 2.11  33 2.11  58 2.11  56 2.12
  21  0.500  0.750  0.550-  63 2.11  56 2.11  40 2.11  55 2.11  49 2.13  53 2.15
  22  0.750  1.000  0.550-  56 2.11  64 2.11  39 2.11  55 2.11  50 2.13  54 2.15
  23  0.500  1.000  0.649-  61 2.11  53 2.11  55 2.11  38 2.11  54 2.11
  24  0.750  0.750  0.649-  56 2.11  37 2.11  54 2.11  62 2.11  53 2.11
  25  0.500  0.250  0.352-  57 2.11  51 2.11  44 2.11  59 2.11  60 2.11
  26  0.750  0.500  0.352-  58 2.11  52 2.11  43 2.11  59 2.11  60 2.11
  27  0.500  0.500  0.451-  59 2.11  49 2.11  57 2.11  58 2.11  42 2.11  63 2.12
  28  0.750  0.250  0.451-  60 2.11  50 2.11  57 2.11  58 2.11  41 2.11  64 2.12
  29  0.500  0.250  0.550-  63 2.11  64 2.11  48 2.11  55 2.11  57 2.13  61 2.15
  30  0.750  0.500  0.550-  63 2.11  64 2.11  56 2.11  47 2.11  58 2.13  62 2.15
  31  0.500  0.500  0.649-  46 2.11  53 2.11  61 2.11  62 2.11  63 2.12
  32  0.750  0.250  0.649-  64 2.11  45 2.11  54 2.11  62 2.11  61 2.11
  33  0.000  0.750  0.451-   1 2.11   3 2.11   4 2.11  11 2.11  20 2.11   5 2.12
  34  0.250  0.000  0.451-   2 2.11   3 2.11   4 2.11  12 2.11  19 2.11   6 2.12
  35  0.000  0.000  0.352-   3 2.11   2 2.11   1 2.11   9 2.11  18 2.11
  36  0.250  0.750  0.352-   4 2.11   2 2.11   1 2.11  10 2.11  17 2.11
  37  1.000  0.750  0.651-  24 2.11   8 2.11  15 2.11   7 2.11   5 2.15
  38  0.250  1.000  0.651-   7 2.11  23 2.11  16 2.11   8 2.11   6 2.15
  39  1.000  1.000  0.550-  22 2.11   5 2.11  13 2.11   6 2.11   7 2.11   3 2.12
  40  0.250  0.750  0.550-   8 2.11   6 2.11   5 2.11  21 2.11  14 2.11   4 2.12
  41  0.000  0.250  0.451-   9 2.11   3 2.11  11 2.11  12 2.11  28 2.11  13 2.12
  42  0.250  0.500  0.451-  10 2.11   4 2.11  11 2.11  12 2.11  27 2.11  14 2.13
  43  0.000  0.500  0.352-  11 2.11   9 2.11  10 2.11   1 2.11  26 2.11
  44  0.250  0.250  0.352-  12 2.11   9 2.11  10 2.11   2 2.11  25 2.11
  45  1.000  0.250  0.651-  32 2.11  16 2.11  15 2.11   7 2.11  13 2.15
  46  0.250  0.500  0.651-  15 2.11   8 2.11  16 2.11  31 2.11  14 2.15
  47  1.000  0.500  0.550-  15 2.11  13 2.11   5 2.11  30 2.11  14 2.11  11 2.12
  48  0.250  0.250  0.550-  16 2.11   6 2.11  13 2.11  29 2.11  14 2.11  12 2.12
  49  0.500  0.750  0.451-  17 2.11   4 2.11  19 2.11  20 2.11  27 2.11  21 2.13
  50  0.750  0.000  0.451-  18 2.11   3 2.11  19 2.11  20 2.11  28 2.11  22 2.13
  51  0.500  0.000  0.352-  19 2.11  17 2.11  18 2.11   2 2.11  25 2.11
  52  0.750  0.750  0.352-  20 2.11  17 2.11  18 2.11   1 2.11  26 2.11
  53  0.500  0.750  0.651-  23 2.11  24 2.11   8 2.11  31 2.11  21 2.15
  54  0.750  1.000  0.651-  32 2.11   7 2.11  24 2.11  23 2.11  22 2.15
  55  0.500  1.000  0.550-  23 2.11  22 2.11   6 2.11  21 2.11  29 2.11  19 2.12
  56  0.750  0.750  0.550-  24 2.11  22 2.11   5 2.11  21 2.11  30 2.11  20 2.12
  57  0.500  0.250  0.451-  25 2.11  19 2.11  12 2.11  27 2.11  28 2.11  29 2.13
  58  0.750  0.500  0.451-  26 2.11  20 2.11  11 2.11  27 2.11  28 2.11  30 2.13
  59  0.500  0.500  0.352-  27 2.11  17 2.11  25 2.11  26 2.11  10 2.11
  60  0.750  0.250  0.352-  28 2.11  18 2.11  25 2.11  26 2.11   9 2.11
  61  0.500  0.250  0.651-  23 2.11  32 2.11  16 2.11  31 2.11  29 2.15
  62  0.750  0.500  0.651-  15 2.11  24 2.11  32 2.11  31 2.11  30 2.15
  63  0.500  0.500  0.550-  30 2.11  21 2.11  29 2.11  14 2.11  31 2.12  27 2.12
  64  0.750  0.250  0.550-  32 2.11  22 2.11  13 2.11  29 2.11  30 2.11  28 2.12

IMPORTANT INFORMATION: All symmetrisations will be switched off!
NOSYMM: (Re-)initialisation of all symmetry stuff for point group C_1.

                                     Primitive cell

  volume of cell :    1519.8199

  direct lattice vectors                    reciprocal lattice vectors
     8.440984654  0.000000000  0.000000000     0.118469591  0.000000000  0.000000000
     0.000000000  8.440984654  0.000000000     0.000000000  0.118469591  0.000000000
     0.000000000  0.000000000 21.330738491     0.000000000  0.000000000  0.046880702

  length of vectors
     8.440984654  8.440984654 21.330738491     0.118469591  0.118469591  0.046880702

  position of ions in fractional coordinates (direct lattice)
     0.000000000  0.750000000  0.351605267
     0.250000000  0.000000000  0.351605267
     0.000000000  0.000000000  0.450535089
     0.250000000  0.750000000  0.450535089
     0.999969335  0.749932564  0.550143009
     0.249979009  0.999932854  0.550153760
     0.999984729  0.999879620  0.648880782
     0.249865610  0.749814499  0.648764798
     0.000000000  0.250000000  0.351605267
     0.250000000  0.500000000  0.351605267
     0.000000000  0.500000000  0.450535089
     0.250000000  0.250000000  0.450535089
     0.999969716  0.249949331  0.550140365
     0.250119639  0.499932684  0.550205747
     0.000137590  0.499892464  0.648694835
     0.249861482  0.249941717  0.648759231
     0.500000000  0.750000000  0.351605267
     0.750000000  0.000000000  0.351605267
     0.500000000  0.000000000  0.450535089
     0.750000000  0.750000000  0.450535089
     0.499983604  0.749784240  0.550199518
     0.749978902  0.999929979  0.550160720
     0.499953859  0.999865553  0.648719052
     0.750035499  0.749892856  0.648802828
     0.500000000  0.250000000  0.351605267
     0.750000000  0.500000000  0.351605267
     0.500000000  0.500000000  0.450535089
     0.750000000  0.250000000  0.450535089
     0.499985367  0.250051482  0.550198962
     0.749853021  0.499929383  0.550227143
     0.499835929  0.499867681  0.649468757
     0.750050535  0.249858113  0.648796072
     0.000000000  0.750000000  0.450535089
     0.250000000  0.000000000  0.450535089
     0.000000000  0.000000000  0.351605267
     0.250000000  0.750000000  0.351605267
     0.999935709  0.749855480  0.651031248
     0.249938454  0.999880825  0.651034598
     0.999963400  0.999937428  0.549922155
     0.249957400  0.750009151  0.549898012
     0.000000000  0.250000000  0.450535089
     0.250000000  0.500000000  0.450535089
     0.000000000  0.500000000  0.351605267
     0.250000000  0.250000000  0.351605267
     0.999938240  0.249914393  0.651023838
     0.249711433  0.499880155  0.650777859
     0.999963453  0.499938781  0.549848970
     0.249949301  0.249857489  0.549894283
     0.500000000  0.750000000  0.450535089
     0.750000000  0.000000000  0.450535089
     0.500000000  0.000000000  0.351605267
     0.750000000  0.750000000  0.351605267
     0.499982066  0.750187993  0.650991390
     0.749999064  0.999877994  0.651061537
     0.499988807  0.999916028  0.549866891
     0.749997384  0.749999493  0.549915913
     0.500000000  0.250000000  0.450535089
     0.750000000  0.500000000  0.450535089
     0.500000000  0.500000000  0.351605267
     0.750000000  0.250000000  0.351605267
     0.499989412  0.249524492  0.650964072
     0.750199653  0.499878761  0.650908380
     0.500007765  0.499929862  0.550045517
     0.750007621  0.249862313  0.549912158

  ion indices of the primitive-cell ions
   primitive index   ion index
                 1           1
                 2           2
                 3           3
                 4           4
                 5           5
                 6           6
                 7           7
                 8           8
                 9           9
                10          10
                11          11
                12          12
                13          13
                14          14
                15          15
                16          16
                17          17
                18          18
                19          19
                20          20
                21          21
                22          22
                23          23
                24          24
                25          25
                26          26
                27          27
                28          28
                29          29
                30          30
                31          31
                32          32
                33          33
                34          34
                35          35
                36          36
                37          37
                38          38
                39          39
                40          40
                41          41
                42          42
                43          43
                44          44
[...]
   0.25000000  0.50000000  0.45053509
   0.00000000  0.50000000  0.35160527
   0.25000000  0.25000000  0.35160527
   0.99993824  0.24991439  0.65102384
   0.24971143  0.49988016  0.65077786
   0.99996345  0.49993878  0.54984897
   0.24994930  0.24985749  0.54989428
   0.50000000  0.75000000  0.45053509
   0.75000000  0.00000000  0.45053509
   0.50000000  0.00000000  0.35160527
   0.75000000  0.75000000  0.35160527
   0.49998207  0.75018799  0.65099139
   0.74999906  0.99987799  0.65106154
   0.49998881  0.99991603  0.54986689
   0.74999738  0.74999949  0.54991591
   0.50000000  0.25000000  0.45053509
   0.75000000  0.50000000  0.45053509
   0.50000000  0.50000000  0.35160527
   0.75000000  0.25000000  0.35160527
   0.49998941  0.24952449  0.65096407
   0.75019965  0.49987876  0.65090838
   0.50000777  0.49992986  0.55004552
   0.75000762  0.24986231  0.54991216

 position of ions in cartesian coordinates  (Angst):
   0.00000000  6.33073849  7.50000000
   2.11024616  0.00000000  7.50000000
   0.00000000  0.00000000  9.61024616
   2.11024616  6.33073849  9.61024616
   8.44072581  6.33016927 11.73495665
   2.11006897  8.44041787 11.73518599
   8.44085575  8.43996853 13.84110626
   2.10911178  6.32917268 13.83863224
   0.00000000  2.11024616  7.50000000
   2.11024616  4.22049233  7.50000000
   0.00000000  4.22049233  9.61024616
   2.11024616  2.11024616  9.61024616
   8.44072903  2.10981847 11.73490027
   2.11125603  4.21992411 11.73629491
   0.00116139  4.21958462 13.83713988
   2.10907694  2.10975420 13.83851350
   4.22049233  6.33073849  7.50000000
   6.33073849  0.00000000  7.50000000
   4.22049233  0.00000000  9.61024616
   6.33073849  6.33073849  9.61024616
   4.22035393  6.32891726 11.73616204
   6.33056040  8.44039361 11.73533446
   4.22010285  8.43984979 13.83765645
   6.33103814  6.32983409 13.83944346
   4.22049233  2.11024616  7.50000000
   6.33073849  4.22049233  7.50000000
   4.22049233  4.22049233  9.61024616
   6.33073849  2.11024616  9.61024616
   4.22036881  2.11068072 11.73615017
   6.32949784  4.21989625 11.73675130
   4.21910740  4.21937542 13.85364820
   6.33116506  2.10904849 13.83929935
   0.00000000  6.33073849  9.61024616
   2.11024616  0.00000000  9.61024616
   0.00000000  0.00000000  7.50000000
   2.11024616  6.33073849  7.50000000
   8.44044197  6.32951860 13.88697731
   2.10972665  8.43997870 13.88704876
   8.44067571  8.44045649 11.73024569
   2.10988658  6.33081573 11.72973070
   0.00000000  2.11024616  9.61024616
   2.11024616  4.22049233  9.61024616
   0.00000000  4.22049233  7.50000000
   2.11024616  2.11024616  7.50000000
   8.44046334  2.10952356 13.88681923
   2.10781037  4.21948072 13.88157232
   8.44067617  4.21997558 11.72868458
   2.10981821  2.10904323 11.72965114
   4.22049233  6.33073849  9.61024616
   6.33073849  0.00000000  9.61024616
   4.22049233  0.00000000  7.50000000
   6.33073849  6.33073849  7.50000000
   4.22034095  6.33232534 13.88612710
   6.33073059  8.43995481 13.88762338
   4.22039784  8.44027584 11.72906685
   6.33071641  6.33073421 11.73011252
   4.22049233  2.11024616  9.61024616
   6.33073849  4.22049233  9.61024616
   4.22049233  4.22049233  7.50000000
   6.33073849  2.11024616  7.50000000
   4.22040296  2.10623240 13.88554438
   6.33242376  4.21946895 13.88435643
   4.22055787  4.21990030 11.73287708
   6.33080282  2.10908395 11.73003243

--------------------------------------- Iteration      FINAL  ---------------------------------------

--------------------OUTCAR has been truncated-------------------------

[...]

--------------------OUTCAR has been truncated-------------------------

  DFT-D2 method for vdW energy calculation

  Parameters of vdW forcefield:
         C6(Jnm^6/mol)     R0(A)
   Mg       0.630          1.243
   O        0.700          1.342

  vdW correction parametrized for the method /Ñÿ      

  IVDW =   1
  VDW_RADIUS =    50.000 A
  VDW_S6 =     1.050
  VDW_SR =     1.000
  VDW_D =    20.000
  LVDW_EWALD = F

  Number of pair interactions contributing to vdW energy:  723305
  Edisp (eV):   -5.06726

 VOLUME and BASIS-vectors are now :
  energy-cutoff  :      600.00
  volume of cell :     1519.82
      direct lattice vectors                 reciprocal lattice vectors
     8.440984654  0.000000000  0.000000000     0.118469591  0.000000000  0.000000000
     0.000000000  8.440984654  0.000000000     0.000000000  0.118469591  0.000000000
     0.000000000  0.000000000 21.330738491     0.000000000  0.000000000  0.046880702

  length of vectors
     8.440984654  8.440984654 21.330738491     0.118469591  0.118469591  0.046880702

 FORCES acting on ions:
    Electron-Ion                     Ewald-Force                    Non-Local-Force
   0.882E-02 0.173E-01 0.207E+04   -.916E-02 -.173E-01 -.206E+04   0.226E-03 0.217E-04 -.639E+01
   -.246E-01 0.995E-03 0.207E+04   0.247E-01 -.114E-02 -.206E+04   -.425E-04 0.108E-03 -.639E+01
   0.194E-01 0.110E-02 0.683E+03   -.216E-01 -.359E-02 -.683E+03   0.141E-02 0.150E-02 0.461E+00
   -.158E+00 0.125E+00 0.683E+03   0.160E+00 -.126E+00 -.683E+03   -.128E-02 0.713E-03 0.458E+00
   0.756E-01 -.981E-01 -.690E+03   -.842E-01 0.110E+00 0.690E+03   0.614E-02 -.710E-02 -.135E+00
   -.353E-01 0.975E-02 -.690E+03   0.311E-01 -.990E-02 0.690E+03   0.257E-02 -.176E-05 -.147E+00
   -.353E-01 -.108E-01 -.205E+04   0.379E-01 0.119E-01 0.204E+04   -.312E-02 -.204E-03 0.531E+01
   -.462E+00 -.137E+00 -.205E+04   0.423E+00 0.207E+00 0.204E+04   0.350E-01 -.405E-01 0.533E+01
   0.873E-02 -.176E-01 0.207E+04   -.908E-02 0.174E-01 -.206E+04   0.222E-03 0.149E-03 -.639E+01
   -.442E-01 -.136E-02 0.207E+04   0.450E-01 0.123E-02 -.206E+04   -.561E-03 0.947E-04 -.639E+01
   0.467E-01 -.157E-01 0.683E+03   -.509E-01 0.131E-01 -.684E+03   0.273E-02 0.156E-02 0.438E+00
   -.167E+00 -.138E+00 0.683E+03   0.169E+00 0.134E+00 -.683E+03   -.868E-03 0.268E-02 0.457E+00
   0.705E-01 0.114E+00 -.690E+03   -.789E-01 -.126E+00 0.690E+03   0.613E-02 0.644E-02 -.136E+00
   -.537E+00 -.342E-02 -.690E+03   0.587E+00 0.364E-02 0.690E+03   -.421E-01 -.221E-03 -.217E+00
   0.587E+00 0.268E-01 -.205E+04   -.599E+00 -.243E-01 0.204E+04   -.995E-02 -.234E-02 0.530E+01
   -.490E+00 0.123E+00 -.205E+04   0.449E+00 -.190E+00 0.204E+04   0.379E-01 0.394E-01 0.533E+01
   -.903E-02 0.367E-01 0.207E+04   0.927E-02 -.375E-01 -.206E+04   -.150E-03 0.557E-03 -.639E+01
   0.245E-01 0.106E-02 0.207E+04   -.247E-01 -.121E-02 -.206E+04   0.108E-03 0.101E-03 -.639E+01
   -.259E-01 -.548E-02 0.683E+03   0.262E-01 0.143E-02 -.683E+03   -.266E-03 0.245E-02 0.441E+00
   0.155E+00 0.151E+00 0.683E+03   -.159E+00 -.155E+00 -.683E+03   0.252E-02 0.235E-02 0.461E+00
   -.664E-01 0.409E+00 -.691E+03   0.753E-01 -.447E+00 0.691E+03   -.628E-02 0.346E-01 -.173E+00
   0.497E-01 0.120E-01 -.690E+03   -.431E-01 -.121E-01 0.691E+03   -.466E-02 0.360E-04 -.143E+00
   0.506E-01 0.206E-01 -.205E+04   -.545E-01 -.143E-01 0.204E+04   0.352E-02 -.484E-02 0.527E+01
   0.396E+00 0.300E+00 -.205E+04   -.356E+00 -.261E+00 0.204E+04   -.336E-01 -.280E-01 0.532E+01
   -.893E-02 -.374E-01 0.207E+04   0.918E-02 0.378E-01 -.206E+04   -.157E-03 -.311E-03 -.639E+01
   0.442E-01 -.147E-02 0.207E+04   -.450E-01 0.133E-02 -.206E+04   0.589E-03 0.981E-04 -.639E+01
   -.502E-01 -.432E-02 0.682E+03   0.534E-01 0.134E-02 -.683E+03   -.209E-02 0.170E-02 0.489E+00
   0.164E+00 -.164E+00 0.683E+03   -.168E+00 0.162E+00 -.683E+03   0.203E-02 0.120E-02 0.459E+00
   -.621E-01 -.436E+00 -.691E+03   0.710E-01 0.475E+00 0.691E+03   -.632E-02 -.348E-01 -.181E+00
   0.509E+00 -.746E-02 -.691E+03   -.560E+00 0.824E-02 0.691E+03   0.431E-01 -.479E-03 -.211E+00
   -.393E+00 0.621E-01 -.206E+04   0.416E+00 -.553E-01 0.205E+04   -.503E-02 -.563E-02 0.545E+01
   0.426E+00 -.316E+00 -.205E+04   -.384E+00 0.280E+00 0.204E+04   -.359E-01 0.269E-01 0.532E+01
   0.270E-01 0.131E-01 0.512E+03   -.260E-01 -.131E-01 -.512E+03   -.122E-02 0.264E-03 -.993E-01
   -.471E-01 -.121E-02 0.512E+03   0.519E-01 0.474E-02 -.512E+03   -.590E-02 -.420E-02 -.105E+00
   0.541E-02 0.129E-02 0.155E+04   -.558E-02 -.121E-02 -.156E+04   0.217E-03 -.121E-03 0.313E+01
   -.256E-01 0.201E-01 0.155E+04   0.261E-01 -.201E-01 -.156E+04   -.624E-03 -.983E-04 0.313E+01
   0.453E-01 -.103E+00 -.156E+04   -.633E-01 0.112E+00 0.156E+04   0.224E-01 -.886E-02 -.462E+01
   -.959E-01 0.426E-03 -.156E+04   0.118E+00 -.274E-02 0.156E+04   -.233E-01 0.264E-02 -.463E+01
   -.200E-03 0.157E-02 -.512E+03   -.214E-03 0.278E-03 0.512E+03   0.169E-02 -.197E-02 0.229E+00
   -.225E+00 0.838E-01 -.512E+03   0.229E+00 -.837E-01 0.512E+03   -.260E-02 -.500E-02 0.270E+00
   0.265E-01 -.210E-01 0.512E+03   -.255E-01 0.270E-01 -.512E+03   -.118E-02 -.739E-02 -.994E-01
   -.166E+00 -.950E-02 0.512E+03   0.157E+00 0.128E-01 -.511E+03   0.110E-01 -.384E-02 -.108E+00
   0.769E-02 -.118E-02 0.155E+04   -.814E-02 0.124E-02 -.156E+04   0.555E-03 -.823E-04 0.313E+01
   -.264E-01 -.199E-01 0.155E+04   0.268E-01 0.200E-01 -.156E+04   -.541E-03 -.130E-03 0.313E+01
   0.373E-01 0.102E+00 -.156E+04   -.541E-01 -.114E+00 0.156E+04   0.212E-01 0.126E-01 -.462E+01
   -.738E+00 0.238E-01 -.156E+04   0.720E+00 -.259E-01 0.156E+04   0.430E-01 0.226E-02 -.448E+01
   0.150E+00 -.165E-01 -.511E+03   -.155E+00 0.166E-01 0.511E+03   0.683E-02 0.107E-03 0.288E+00
   -.245E+00 -.862E-01 -.512E+03   0.249E+00 0.853E-01 0.512E+03   -.252E-02 0.581E-02 0.270E+00
   -.315E-01 0.130E+00 0.512E+03   0.330E-01 -.115E+00 -.511E+03   -.174E-02 -.174E-01 -.109E+00
   0.452E-01 -.114E-02 0.512E+03   -.478E-01 0.480E-02 -.512E+03   0.320E-02 -.436E-02 -.107E+00
   -.538E-02 0.721E-03 0.155E+04   0.563E-02 -.654E-03 -.156E+04   -.295E-03 -.911E-04 0.313E+01
   0.258E-01 0.225E-01 0.155E+04   -.262E-01 -.226E-01 -.156E+04   0.532E-03 0.213E-03 0.313E+01
   0.213E-01 0.663E+00 -.156E+04   -.122E-01 -.631E+00 0.156E+04   -.135E-01 -.630E-01 -.453E+01
   0.805E-01 0.265E-02 -.156E+04   -.100E+00 -.508E-02 0.156E+04   0.204E-01 0.279E-02 -.463E+01
   -.759E-02 0.126E-01 -.512E+03   0.703E-02 -.147E-01 0.511E+03   -.690E-04 0.250E-02 0.281E+00
   0.222E+00 0.216E+00 -.512E+03   -.227E+00 -.221E+00 0.512E+03   0.383E-02 0.112E-02 0.259E+00
   -.308E-01 -.146E+00 0.512E+03   0.321E-01 0.140E+00 -.511E+03   -.159E-02 0.735E-02 -.108E+00
   0.164E+00 -.105E-01 0.512E+03   -.154E+00 0.140E-01 -.511E+03   -.125E-01 -.409E-02 -.115E+00
   -.770E-02 -.301E-03 0.155E+04   0.817E-02 0.464E-03 -.156E+04   -.595E-03 -.204E-03 0.313E+01
   0.265E-01 -.222E-01 0.155E+04   -.269E-01 0.226E-01 -.156E+04   0.459E-03 -.458E-03 0.313E+01
   0.244E-01 -.701E+00 -.156E+04   -.145E-01 0.662E+00 0.156E+04   -.146E-01 0.738E-01 -.452E+01
   0.581E+00 0.242E-01 -.156E+04   -.551E+00 -.269E-01 0.156E+04   -.512E-01 0.291E-02 -.451E+01
   -.133E+00 0.219E-01 -.515E+03   0.140E+00 -.257E-01 0.515E+03   -.911E-02 0.360E-02 0.105E+00
   0.243E+00 -.214E+00 -.512E+03   -.248E+00 0.218E+00 0.512E+03   0.393E-02 0.939E-03 0.259E+00
   0.122E-01 0.180E-02 0.189E+02   0.110E-12 0.380E-13 -.159E-11   -.121E-01 -.427E-02 -.166E+02

 POSITION                                       TOTAL-FORCE (eV/Angst)
      0.00000      6.33074      7.50000        -0.000076      0.000039      0.468139
      2.11025      0.00000      7.50000         0.000050      0.000015      0.468566
      0.00000      0.00000      9.61025        -0.000612     -0.000738      0.046347
      2.11025      6.33074      9.61025         0.000637     -0.000762      0.046009
      8.44073      6.33017     11.73496        -0.001723      0.003546      0.027833
      2.11007      8.44042     11.73519        -0.001253     -0.000089      0.029549
      8.44086      8.43997     13.84111        -0.000770      0.000831     -0.076757
      2.10911      6.32917     13.83863        -0.000119      0.023931     -0.071968
      0.00000      2.11025      7.50000        -0.000084     -0.000009      0.468213
      2.11025      4.22049      7.50000         0.000209      0.000020      0.468227
      0.00000      4.22049      9.61025        -0.001129     -0.000713      0.047516
      2.11025      2.11025      9.61025         0.000514     -0.000940      0.045941
      8.44073      2.10982     11.73490        -0.001592     -0.004421      0.028014
      2.11126      4.21992     11.73629         0.003468      0.000018      0.013259
      0.00116      4.21958     13.83714        -0.020676     -0.000050     -0.059648
      2.10908      2.10975     13.83851        -0.000132     -0.022678     -0.072191
      4.22049      6.33074      7.50000         0.000081     -0.000112      0.468546
      6.33074      0.00000      7.50000        -0.000052      0.000009      0.468686
      4.22049      0.00000      9.61025         0.000070     -0.001219      0.048890
      6.33074      6.33074      9.61025        -0.001311     -0.001483      0.047377
      4.22035      6.32892     11.73616         0.001886      0.000166      0.027173
      6.33056      8.44039     11.73533         0.001406     -0.000015      0.029590
      4.22010      8.43985     13.83766        -0.000032      0.001002     -0.053259
      6.33104      6.32983     13.83944         0.002711      0.007835     -0.071778
      4.22049      2.11025      7.50000         0.000085      0.000124      0.468464
      6.33074      4.22049      7.50000        -0.000186      0.000015      0.468800
      4.22049      4.22049      9.61025         0.000882     -0.000983      0.050372
      6.33074      2.11025      9.61025        -0.001144     -0.000319      0.047240
      4.22037      2.11068     11.73615         0.001834      0.001280      0.027012
      6.32950      4.21990     11.73675        -0.003916      0.000271      0.023208
      4.21911      4.21938     13.85365         0.016882      0.000658     -0.180975
      6.33117      2.10905     13.83930         0.002140     -0.006398     -0.071733
      0.00000      6.33074      9.61025        -0.000348      0.000413      0.061943
      2.11025      0.00000      9.61025        -0.001977     -0.001210      0.061131
      0.00000      0.00000      7.50000         0.000090     -0.000010     -0.433924
      2.11025      6.33074      7.50000        -0.000202      0.000001     -0.433890
      8.44044      6.32952     13.88698         0.007574     -0.000867     -0.126705
      2.10973      8.43998     13.88705        -0.004022      0.000698     -0.129327
      8.44068      8.44046     11.73025         0.001590     -0.000333      0.016948
      2.10989      6.33082     11.72973         0.000397     -0.005617      0.020760
      0.00000      2.11025      9.61025        -0.000340     -0.002470      0.061604
      2.11025      4.22049      9.61025         0.003559     -0.001073      0.065825
      0.00000      4.22049      7.50000         0.000201      0.000011     -0.433913
      2.11025      2.11025      7.50000        -0.000178     -0.000011     -0.433887
      8.44046      2.10952     13.88682         0.007436      0.002349     -0.125960
      2.10781      4.21948     13.88157         0.032539      0.000483     -0.071763
      8.44068      4.21998     11.72868         0.002798      0.000287      0.026869
      2.10982      2.10904     11.72965         0.001094      0.005870      0.020857
      4.22049      6.33074      9.61025        -0.000486     -0.005325      0.064778
      6.33074      0.00000      9.61025         0.001178     -0.001254      0.061163
      4.22049      0.00000      7.50000        -0.000072      0.000005     -0.434010
      6.33074      6.33074      7.50000         0.000188      0.000110     -0.434031
      4.22034      6.33233     13.88613        -0.006398     -0.040690     -0.098456
      6.33073      8.43995     13.88762         0.003423      0.000753     -0.130473
      4.22040      8.44028     11.72907        -0.000645      0.000789      0.024967
      6.33072      6.33073     11.73011        -0.000110     -0.003835      0.017767
      4.22049      2.11025      9.61025        -0.000436      0.002482      0.065028
      6.33074      4.22049      9.61025        -0.003988     -0.001144      0.065555
      4.22049      4.22049      7.50000        -0.000196     -0.000025     -0.434298
      6.33074      2.11025      7.50000         0.000169     -0.000125     -0.434029
      4.22040      2.10623     13.88554        -0.006879      0.045732     -0.095378
      6.33242      4.21947     13.88436        -0.029625      0.000587     -0.088585
      4.22056      4.21990     11.73288        -0.003609      0.000235      0.010978
      6.33080      2.10908     11.73003        -0.000774      0.004354      0.017796
    total drift:                               -0.000897     -0.002711      0.011538

  FREE ENERGIE OF THE ION-ELECTRON SYSTEM (eV)
  free  energy   TOTEN  =      -438.43431594 eV

  energy  without entropy=     -438.43431594  energy(sigma->0) =     -438.43431594