 vasp.6.3.0 20Jan22 (build Mar 11 2022 13:48:16) complex

 executed on             LinuxIFC date 2024.02.15  12:31:15

 INCAR:
   SYSTEM = Oxide-Surface
   ISMEAR = 0
   SIGMA = 0.05
   EDIFF = 1E-5
   ALGO = ALL
   ISTART = 0
   IBRION = -1
   NSW = 0
   ISYM = 2
   DIPOL = 0.5 0.5 0.5
   IDIPOL = 3
   LDIPOL = .TRUE.
   GGA = MK
   LUSE_VDW = .TRUE.
   PARAM1 = 0.1234
   PARAM2 = 0.711357
   ZAB_VDW = -1.8867
   AGGAC = 0.0
   ENCUT = 600
   PREC = Accurate
   LASPH = .TRUE.
   LREAL = .FALSE.
   ISPIN = 1
   NELM = 200
   NELMIN = 8
   NCORE = 19
   KPAR = 1
   LWAVE = .FALSE.
   LCHARG = .FALSE.

 POTCAR:    PAW_PBE C 08Apr2002
 POTCAR:    PAW_PBE O 08Apr2002
 POTCAR:    PAW_PBE Ti_pv 07Sep2000
 POTCAR:    PAW_PBE O 08Apr2002
|               ----> ADVICE to this user running VASP <----                  |
|     You have switched on vdW-DFT.                                           |
|     This routine was written and supplied by Jiri Klimes. We recommend      |
|     that you carefully read and cite the following publications:            |
|       J. Klimes, D.R. Bowler, A. Michelides                                 |
|          J. Phys.: Cond Matt. 22 022201 (2010)                              |
|       J. Klimes, D.R. Bowler, A. Michelides                                 |
|          Phys. Rev. B. 83, 195131 (2011)                                    |
|     and references therein.                                                 |

   TITEL  = PAW_PBE C 08Apr2002
   POMASS =   12.011; ZVAL   =    4.000    mass and valenz
   ENMAX  =  400.000; ENMIN  =  300.000 eV

[...]

   TITEL  = PAW_PBE Ti_pv 07Sep2000
   POMASS =   47.880; ZVAL   =   10.000    mass and valenz
   ENMAX  =  222.335; ENMIN  =  166.751 eV

   TITEL  = PAW_PBE O 08Apr2002
   POMASS =   16.000; ZVAL   =    6.000    mass and valenz
   ENMAX  =  400.000; ENMIN  =  300.000 eV

  PAW_PBE C 08Apr2002                   :
  PAW_PBE O 08Apr2002                   :
  PAW_PBE Ti_pv 07Sep2000               :
  PAW_PBE O 08Apr2002                   :

 POSCAR:  C  O Ti  O
  positions in direct lattice
 exchange correlation table for  LEXCH =       43
   RHO(1)=    0.500       N(1)  =     2000
   RHO(2)=  100.500       N(2)  =     4000

 ion  position               nearest neighbor table
   1  0.500  0.610  0.803-   2 1.18   3 1.18
   2  0.500  0.709  0.808-   1 1.18
   3  0.500  0.512  0.796-   1 1.18
   4  0.750  0.625  0.287-  85 1.95 145 1.95 144 1.95  84 1.95  87 1.98 166 1.98  14 2.96  34 2.96

   5  0.000  0.750  0.287-  86 1.95  87 1.95 106 1.95 107 1.95  88 1.98  35 2.96  15 2.96
   6  0.000  0.625  0.394-  88 1.95 148 1.95  89 1.95 149 1.95  90 1.98  91 1.98  16 2.96  36 2.96

[...]

  83  0.500  0.499  0.709- 237 1.82 243 1.94 242 1.94 183 1.96 182 1.96  73 2.95  53 2.98
  84  0.750  0.750  0.245-   4 1.95  14 1.95
  85  0.750  0.750  0.329-   4 1.95  14 1.95   7 1.98
  86  0.098  0.625  0.287-   5 1.95  35 1.95  44 1.98
  87  0.902  0.625  0.287-   5 1.95  35 1.95   4 1.98
  88  0.000  0.750  0.352-   6 1.95  16 1.95   5 1.98
  89  0.000  0.750  0.435-   6 1.95  16 1.95   9 1.98
  90  0.848  0.625  0.394-   7 1.95  37 1.95   6 1.98
  91  0.152  0.625  0.394-  47 1.95  77 1.95   6 1.98
  92  0.750  0.750  0.458-   8 1.95  18 1.95   7 1.98
  93  0.750  0.750  0.542-   8 1.95  18 1.95  11 2.11
  94  0.098  0.625  0.500-   9 1.95  39 1.95  48 1.98
  95  0.902  0.625  0.500-   9 1.95  39 1.95   8 1.98
  96  1.000  0.750  0.565-  20 1.89  10 1.89   9 2.00
  97  0.000  0.750  0.649-  13 1.81  10 2.02  20 2.02
  98  0.850  0.625  0.607-  10 1.95  11 1.97  41 1.97
  99  0.150  0.625  0.607-  10 1.95  51 1.97  81 1.97
 100  0.750  0.750  0.672-  11 1.86  12 2.10  22 2.10
 101  0.749  0.750  0.756-  12 1.83  22 1.83
 102  0.094  0.625  0.719-  43 1.95  13 1.95  52 2.03
 103  0.906  0.625  0.719-  43 1.95  13 1.95  12 2.03
 104  0.750  0.000  0.245-  14 1.95  24 1.95
 105  0.750  0.000  0.329-  14 1.95  24 1.95  17 1.98
 106  0.098  0.875  0.287-   5 1.95  15 1.95  54 1.98
 107  0.902  0.875  0.287-   5 1.95  15 1.95  14 1.98
 108  0.000  0.000  0.352-  16 1.95  26 1.95  15 1.98
 109  0.000  0.000  0.435-  16 1.95  26 1.95  19 1.98
 110  0.848  0.875  0.394-   7 1.95  17 1.95  16 1.98
 111  0.152  0.875  0.394-  47 1.95  57 1.95  16 1.98
 112  0.750  0.000  0.458-  18 1.95  28 1.95  17 1.98
 113  0.750  0.000  0.542-  18 1.95  28 1.95  21 2.11
 114  0.098  0.875  0.500-   9 1.95  19 1.95  58 1.98
 115  0.902  0.875  0.500-   9 1.95  19 1.95  18 1.98
 116  1.000  0.000  0.565-  30 1.89  20 1.89  19 2.00
 117  1.000  1.000  0.649-  23 1.81  20 2.02  30 2.02
 118  0.850  0.875  0.607-  20 1.95  11 1.97  21 1.97
 119  0.150  0.875  0.607-  20 1.95  51 1.97  61 1.97
 120  0.750  0.000  0.672-  21 1.86  32 2.10  22 2.10
 121  0.750  1.000  0.756-  22 1.83  32 1.83
 122  0.094  0.875  0.719-  13 1.95  23 1.95  62 2.03
 123  0.906  0.875  0.719-  13 1.95  23 1.95  22 2.03
 124  0.750  0.250  0.245-  24 1.95  34 1.95
 125  0.750  0.250  0.329-  24 1.95  34 1.95  27 1.98
 126  0.098  0.125  0.287-  15 1.95  25 1.95  64 1.98
 127  0.902  0.125  0.287-  15 1.95  25 1.95  24 1.98
 128  0.000  0.250  0.352-  26 1.95  36 1.95  25 1.98
 129  0.000  0.250  0.435-  26 1.95  36 1.95  29 1.98
 130  0.848  0.125  0.394-  17 1.95  27 1.95  26 1.98
 131  0.152  0.125  0.394-  57 1.95  67 1.95  26 1.98
 132  0.750  0.250  0.458-  28 1.95  38 1.95  27 1.98
 133  0.750  0.250  0.542-  28 1.95  38 1.95  31 2.11
 134  0.098  0.125  0.500-  19 1.95  29 1.95  68 1.98
 135  0.902  0.125  0.500-  19 1.95  29 1.95  28 1.98
 136  1.000  0.250  0.565-  40 1.89  30 1.89  29 2.00
 137  1.000  0.250  0.649-  33 1.81  40 2.02  30 2.02
 138  0.850  0.125  0.607-  30 1.95  21 1.97  31 1.97
 139  0.150  0.125  0.607-  30 1.95  61 1.97  71 1.97
 140  0.750  0.250  0.672-  31 1.86  32 2.10  42 2.10
 141  0.750  0.250  0.756-  42 1.83  32 1.83
 142  0.094  0.125  0.719-  33 1.95  23 1.95  72 2.03
[...]
 229  0.500  0.500  0.435-  46 1.95  76 1.95  79 1.98
 230  0.348  0.375  0.394-  67 1.95  77 1.95  76 1.98
 231  0.652  0.375  0.394-  27 1.95  37 1.95  76 1.98
 232  0.250  0.500  0.458-  48 1.95  78 1.95  77 1.98
 233  0.250  0.500  0.542-  48 1.95  78 1.95  81 2.11
 234  0.598  0.375  0.500-  69 1.95  79 1.95  38 1.98
 235  0.402  0.375  0.500-  69 1.95  79 1.95  78 1.98
 236  0.500  0.500  0.565-  80 1.89  50 1.90  79 2.00
 237  0.500  0.500  0.649-  83 1.82  50 2.01  80 2.01
 238  0.350  0.375  0.607-  80 1.95  81 1.97  71 1.97
 239  0.650  0.375  0.607-  80 1.95  41 1.97  31 1.97
 240  0.249  0.500  0.672-  81 1.86  52 2.10  82 2.10
 241  0.251  0.500  0.756-  82 1.83  52 1.84
 242  0.594  0.374  0.718-  83 1.94  73 1.94  42 2.03
 243  0.406  0.374  0.718-  83 1.94  73 1.94  82 2.03

  LATTYP: Found a simple orthorhombic cell.
 ALAT       =    11.8303781148
 B/A-ratio  =     1.0992024327
 C/A-ratio  =     2.5825673970

  Lattice vectors:

 A1 = (   0.0000000000, -11.8303781148,   0.0000000000)
 A2 = (  13.0039804036,   0.0000000000,   0.0000000000)
 A3 = (   0.0000000000,   0.0000000000,  30.5527488131)

Analysis of symmetry for initial positions (statically):
 Subroutine PRICEL returns:
 Original cell was already a primitive cell.

 Routine SETGRP: Setting up the symmetry group for a
 simple orthorhombic supercell.

 Subroutine GETGRP returns: Found  2 space group operations
 (whereof  2 operations were pure point group operations)
 out of a pool of  8 trial point group operations.

The static configuration has the point symmetry C_1h.

Analysis of symmetry for dynamics (positions and initial velocities):
 Subroutine PRICEL returns:
 Original cell was already a primitive cell.

[...]

The dynamic configuration has the point symmetry C_1h.

Analysis of constrained symmetry for selective dynamics:
 Subroutine PRICEL returns:
 Original cell was already a primitive cell.

 Routine SETGRP: Setting up the symmetry group for a
 simple orthorhombic supercell.

 Subroutine GETGRP returns: Found  2 space group operations
 (whereof  2 operations were pure point group operations)
 out of a pool of  8 trial point group operations.

The constrained configuration has the point symmetry C_1h.

 Subroutine INISYM returns: Found  2 space group operations
 (whereof  2 operations are pure point group operations),
 and found     1 'primitive' translations

                                     Primitive cell

  volume of cell :    4700.2961

  direct lattice vectors                    reciprocal lattice vectors
    13.003980404  0.000000000  0.000000000     0.076899531  0.000000000  0.000000000
     0.000000000 11.830378115  0.000000000     0.000000000  0.084528152  0.000000000
     0.000000000  0.000000000 30.552748813     0.000000000  0.000000000  0.032730279

  length of vectors
    13.003980404 11.830378115 30.552748813     0.076899531  0.084528152  0.032730279

  position of ions in fractional coordinates (direct lattice)
     0.499999660  0.610168759  0.802732442
     0.499999549  0.708561239  0.808141469
     0.499999786  0.511620407  0.796353529
     0.750000000  0.625000000  0.287188045
     0.000000000  0.750000000  0.287188045
     0.000000000  0.625000000  0.393594023
     0.750000000  0.750000000  0.393594023
     0.750000000  0.625000000  0.500000000
     0.000000000  0.750000000  0.500000000
     0.999999939  0.625012602  0.604131190
     0.750021775  0.750035515  0.610696778
     0.750003064  0.625099460  0.720187232
     0.000000016  0.750048202  0.708165271
     0.750000000  0.875000000  0.287188045
     0.000000000  0.000000000  0.287188045
     0.000000000  0.875000000  0.393594023
     0.750000000  0.000000000  0.393594023
     0.750000000  0.875000000  0.500000000
     0.000000000  0.000000000  0.500000000
     0.999999991  0.875008991  0.604144304
     0.749983712  0.000012875  0.610796716
     0.749876203  0.874991967  0.720525488
     0.999999989  0.999985733  0.708180187
     0.750000000  0.125000000  0.287188045
     0.000000000  0.250000000  0.287188045
     0.000000000  0.125000000  0.393594023
     0.750000000  0.250000000  0.393594023
     0.750000000  0.125000000  0.500000000
     0.000000000  0.250000000  0.500000000
     0.000000067  0.124986485  0.604150370
     0.750020773  0.249966864  0.610793409
     0.749936140  0.125009463  0.720500285
     0.000000014  0.249968494  0.708178592
     0.750000000  0.375000000  0.287188045
     0.000000000  0.500000000  0.287188045
     0.000000000  0.375000000  0.393594023
     0.750000000  0.500000000  0.393594023
     0.750000000  0.375000000  0.500000000
     0.000000000  0.500000000  0.500000000
     0.000000084  0.374994155  0.604134382
     0.750042567  0.499977077  0.610710241
     0.750059276  0.375070994  0.720471486
     0.999999993  0.500046918  0.708154109
     0.250000000  0.625000000  0.287188045
     0.500000000  0.750000000  0.287188045
     0.500000000  0.625000000  0.393594023
     0.250000000  0.750000000  0.393594023
     0.250000000  0.625000000  0.500000000
     0.500000000  0.750000000  0.500000000
     0.499999957  0.624723114  0.604426797
     0.249978087  0.750035507  0.610696776
     0.249996934  0.625099468  0.720187222
     0.500000013  0.750558309  0.708051210
[...]
   6.50199036  8.87938859 21.63291076
   3.25099510 10.35158085  8.77438420
   6.50199020  0.00000000  8.77438420
   6.50199020 10.35158085 12.02537931
   3.25099510  0.00000000 12.02537931
   3.25099510 10.35158085 15.27637441
   6.50199020  0.00000000 15.27637441
   6.50198968 10.34956484 18.45418034
[...]
   6.50199020  5.91518906 13.29976351
   4.52537931  4.43639179 12.02537931
   8.47860110  4.43639179 12.02537931
   3.25099510  5.91518906 14.00199020
   3.25099510  5.91518906 16.55075861
   7.77637441  4.43639179 15.27637441
   5.22760600  4.43639179 15.27637441
   6.50199004  5.91530680 17.27591230
   6.50199033  5.91455267 19.83683155
   4.55288322  4.43640225 18.55266361
   8.45109701  4.43640221 18.55266318
   3.24421045  5.91558211 20.51998956
   3.26640132  5.91880495 23.09439213
   7.72931080  4.42764771 21.93714797
   5.27466957  4.42764778 21.93714791

--------------------------------------- Iteration      FINAL  ---------------------------------------

--------------------OUTCAR has been truncated-------------------------

[...]

--------------------OUTCAR has been truncated-------------------------

  FORCE on cell =-STRESS in cart. coord.  units (eV):
  Direction    XX          YY          ZZ          XY          YZ          ZX
  Alpha Z  4721.77504  4721.77504  4721.77504
  Ewald  971201.58764989393.71688************    -0.00102   118.73900     0.00045
  Hartree************************************    -0.00006    55.74660     0.00006
  E(xc)   -8682.46645 -8675.11399 -8679.18929     0.00000     0.29268    -0.00000
  Local  ************************************     0.00070  -163.70568    -0.00055
  n-local -5513.56567 -5445.69410 -5558.88237    -0.00003    -0.88475    -0.00001
  augment  5263.73097  5236.17051  5267.91274     0.00001    -0.42233    -0.00000
  Kinetic 28941.20340 28408.02040 28979.21867     0.00008    -9.85616     0.00007
  Fock        0.00000     0.00000     0.00000     0.00000     0.00000     0.00000
  Total      37.77714   -11.55051    -7.06348     0.00000    -0.09065     0.00000
  in kB      12.87699    -3.93719    -2.40771     0.00000    -0.03090     0.00000

 VOLUME and BASIS-vectors are now :
  energy-cutoff  :      600.00
  volume of cell :     4700.30
      direct lattice vectors                 reciprocal lattice vectors
    13.003980404  0.000000000  0.000000000     0.076899531  0.000000000  0.000000000
     0.000000000 11.830378115  0.000000000     0.000000000  0.084528152  0.000000000
     0.000000000  0.000000000 30.552748813     0.000000000  0.000000000  0.032730279

  length of vectors
    13.003980404 11.830378115 30.552748813     0.076899531  0.084528152  0.032730279

 FORCES acting on ions:
    Electron-Ion                     Ewald-Force                    Non-Local-Force
   0.308E-02 0.361E+01 -.160E+04   0.842E-04 -.355E+01 0.160E+04   0.588E-21 -.501E-02 -.178E-01
   0.886E-02 -.272E+03 -.237E+04   -.191E-03 0.335E+03 0.238E+04   0.432E-19 -.636E+02 -.105E+02
   0.416E-02 0.269E+03 -.242E+04   0.579E-03 -.331E+03 0.241E+04   -.297E-19 0.623E+02 0.705E+01
   -.240E+00 -.213E-02 0.379E+04   0.240E+00 0.219E-02 -.380E+04   0.931E-04 0.121E-05 0.371E+00
   0.452E-07 -.658E-01 0.398E+04   -.494E-06 0.659E-01 -.397E+04   0.146E-22 -.202E-04 -.370E+01
   0.246E-06 -.871E-02 0.194E+04   -.125E-05 0.874E-02 -.194E+04   0.893E-22 0.120E-04 -.418E-01
   -.463E+00 -.144E+00 0.194E+04   0.461E+00 0.145E+00 -.194E+04   0.259E-03 0.198E-04 0.194E+00
   -.211E+01 -.199E-01 0.169E+02   0.210E+01 0.193E-01 -.160E+02   0.127E-02 0.764E-04 -.131E+00
   0.314E-07 -.724E+00 0.263E+02   0.141E-05 0.727E+00 -.274E+02   -.539E-24 -.707E-03 0.340E+00
   0.136E-03 -.401E+00 -.185E+04   0.862E-04 0.401E+00 0.185E+04   -.337E-21 -.471E-03 0.227E-01
   -.128E+02 -.562E+01 -.190E+04   0.128E+02 0.562E+01 0.190E+04   -.200E-02 -.295E-02 -.230E-01
   -.854E+02 -.464E+01 -.370E+04   0.854E+02 0.464E+01 0.370E+04   0.111E-01 0.111E-02 -.106E+00
   -.126E-04 -.755E+01 -.376E+04   -.159E-03 0.755E+01 0.376E+04   0.156E-20 -.260E-02 0.867E+00
   -.235E+00 -.960E-01 0.379E+04   0.235E+00 0.965E-01 -.380E+04   0.124E-03 -.333E-04 0.371E+00
   0.170E-07 -.613E-01 0.398E+04   -.398E-06 0.614E-01 -.397E+04   0.604E-22 -.118E-04 -.370E+01
   0.559E-07 -.196E+00 0.194E+04   -.733E-06 0.196E+00 -.194E+04   -.173E-21 -.587E-05 -.419E-01
   -.455E+00 -.147E+00 0.194E+04   0.454E+00 0.147E+00 -.194E+04   0.323E-03 0.300E-04 0.194E+00
   -.212E+01 -.116E+01 0.156E+02   0.212E+01 0.117E+01 -.148E+02   0.927E-03 -.105E-02 -.133E+00
   0.947E-06 -.613E+00 0.251E+02   0.273E-05 0.616E+00 -.261E+02   -.159E-22 -.402E-03 0.340E+00
   0.342E-04 -.364E+01 -.185E+04   -.544E-04 0.364E+01 0.185E+04   -.160E-21 -.122E-02 0.221E-01
   -.876E+01 -.404E+01 -.191E+04   0.876E+01 0.403E+01 0.191E+04   0.160E-02 -.181E-03 -.175E-01
   -.459E+02 -.316E+02 -.374E+04   0.459E+02 0.316E+02 0.374E+04   0.186E-01 0.181E-03 -.136E+00
   0.310E-04 -.581E+01 -.377E+04   -.410E-04 0.581E+01 0.377E+04   -.254E-22 -.721E-03 0.875E+00
   -.229E+00 0.211E-02 0.379E+04   0.228E+00 -.218E-02 -.380E+04   0.130E-03 -.178E-05 0.371E+00
   0.190E-07 0.657E-01 0.398E+04   -.393E-06 -.659E-01 -.397E+04   -.293E-23 0.180E-04 -.370E+01
   -.684E-07 0.863E-02 0.194E+04   -.239E-06 -.869E-02 -.194E+04   0.104E-22 0.247E-05 -.420E-01
   -.439E+00 0.144E+00 0.194E+04   0.438E+00 -.145E+00 -.194E+04   0.284E-03 -.154E-04 0.194E+00
   -.194E+01 0.219E-01 0.145E+02   0.194E+01 -.227E-01 -.136E+02   0.109E-02 0.143E-04 -.134E+00
   0.347E-05 0.722E+00 0.252E+02   -.214E-05 -.725E+00 -.263E+02   -.104E-21 0.712E-03 0.340E+00
   -.126E-03 0.309E+00 -.185E+04   -.217E-03 -.309E+00 0.185E+04   -.343E-20 0.100E-02 0.247E-01
   -.924E+01 0.525E+01 -.191E+04   0.924E+01 -.525E+01 0.191E+04   -.673E-03 0.147E-02 -.179E-01
   -.244E+02 0.320E+01 -.375E+04   0.244E+02 -.320E+01 0.375E+04   0.983E-02 -.184E-02 -.134E+00
   -.194E-04 0.664E+01 -.377E+04   -.964E-04 -.663E+01 0.377E+04   0.118E-20 0.155E-02 0.870E+00
   -.233E+00 0.960E-01 0.379E+04   0.233E+00 -.965E-01 -.380E+04   0.108E-03 0.283E-04 0.371E+00
   0.475E-07 0.613E-01 0.398E+04   -.490E-06 -.614E-01 -.397E+04   -.104E-21 0.132E-04 -.370E+01
   0.145E-06 0.196E+00 0.194E+04   -.833E-06 -.196E+00 -.194E+04   -.889E-22 -.500E-05 -.419E-01
   -.447E+00 0.146E+00 0.194E+04   0.446E+00 -.147E+00 -.194E+04   0.182E-03 -.338E-04 0.194E+00
   -.193E+01 0.116E+01 0.157E+02   0.192E+01 -.117E+01 -.149E+02   0.107E-02 0.101E-02 -.133E+00
   0.314E-05 0.620E+00 0.265E+02   -.440E-05 -.623E+00 -.276E+02   0.253E-22 0.291E-03 0.340E+00
   -.146E-03 0.368E+01 -.185E+04   -.319E-03 -.368E+01 0.185E+04   -.128E-20 0.779E-03 0.227E-01
   -.133E+02 0.438E+01 -.190E+04   0.133E+02 -.438E+01 0.190E+04   -.276E-02 0.929E-03 -.256E-01
   -.551E+02 0.332E+02 -.373E+04   0.551E+02 -.332E+02 0.373E+04   0.139E-01 0.260E-02 -.130E+00
   0.262E-04 0.657E+01 -.376E+04   -.936E-04 -.657E+01 0.376E+04   -.201E-21 0.297E-02 0.861E+00
   0.240E+00 -.213E-02 0.379E+04   -.240E+00 0.219E-02 -.380E+04   -.931E-04 0.121E-05 0.371E+00
   -.414E-07 -.731E-01 0.398E+04   0.493E-06 0.734E-01 -.397E+04   -.352E-22 -.283E-04 -.370E+01
   -.196E-06 0.188E-01 0.195E+04   0.127E-05 -.164E-01 -.194E+04   -.916E-22 -.479E-03 -.420E-01
   0.463E+00 -.144E+00 0.194E+04   -.461E+00 0.145E+00 -.194E+04   -.259E-03 0.198E-04 0.194E+00
   0.211E+01 -.199E-01 0.169E+02   -.210E+01 0.193E-01 -.160E+02   -.127E-02 0.764E-04 -.131E+00
   -.331E-05 -.758E+00 0.307E+02   0.185E-04 0.746E+00 -.317E+02   0.147E-21 0.778E-02 0.329E+00
   0.970E-04 -.142E+01 -.182E+04   0.973E-04 0.144E+01 0.182E+04   -.222E-20 -.170E-01 0.231E-01
   0.128E+02 -.562E+01 -.190E+04   -.128E+02 0.562E+01 0.190E+04   0.200E-02 -.295E-02 -.230E-01
   0.854E+02 -.464E+01 -.370E+04   -.854E+02 0.464E+01 0.370E+04   -.111E-01 0.111E-02 -.106E+00
   -.498E-04 -.685E+02 -.362E+04   0.201E-03 0.686E+02 0.362E+04   -.167E-20 -.152E-01 0.948E+00
   0.235E+00 -.960E-01 0.379E+04   -.235E+00 0.965E-01 -.380E+04   -.124E-03 -.333E-04 0.371E+00
   -.907E-08 -.717E-01 0.398E+04   0.386E-06 0.719E-01 -.397E+04   -.216E-21 -.163E-04 -.370E+01
   0.410E-07 -.205E+00 0.195E+04   0.661E-06 0.207E+00 -.194E+04   -.201E-21 -.512E-03 -.422E-01
   0.455E+00 -.147E+00 0.194E+04   -.454E+00 0.147E+00 -.194E+04   -.323E-03 0.300E-04 0.194E+00
   0.212E+01 -.116E+01 0.156E+02   -.212E+01 0.117E+01 -.148E+02   -.927E-03 -.105E-02 -.133E+00
   0.440E-05 -.924E+00 0.296E+02   -.141E-05 0.926E+00 -.307E+02   0.918E-23 0.446E-03 0.330E+00
   0.940E-04 -.105E+02 -.183E+04   0.804E-04 0.105E+02 0.183E+04   0.164E-20 -.447E-02 -.743E-02
[...]
   -.531E+02 0.124E+00 0.116E+04   0.571E+02 -.125E+00 -.116E+04   -.351E+01 0.110E-02 0.156E+00
   0.531E+02 0.124E+00 0.116E+04   -.571E+02 -.125E+00 -.116E+04   0.351E+01 0.110E-02 0.156E+00
   0.656E+00 0.241E+00 0.515E+03   -.653E+00 -.242E+00 -.519E+03   -.352E-02 0.455E-02 0.410E+01
   0.232E+01 0.938E+00 -.511E+03   -.231E+01 -.939E+00 0.518E+03   -.516E-02 0.247E-02 -.708E+01
   -.561E+02 0.656E+00 0.168E+02   0.608E+02 -.659E+00 -.170E+02   -.513E+01 0.105E-01 0.343E+00
   0.561E+02 0.656E+00 0.168E+02   -.608E+02 -.659E+00 -.170E+02   0.513E+01 0.105E-01 0.343E+00
   0.237E-03 0.139E+01 -.607E+03   -.404E-04 -.135E+01 0.601E+03   -.403E-21 -.441E-01 0.639E+01
   -.185E-03 0.760E+01 -.156E+04   0.787E-04 -.749E+01 0.156E+04   -.162E-21 -.110E+00 0.232E+01
   -.216E+02 0.526E+01 -.111E+04   0.246E+02 -.529E+01 0.111E+04   -.297E+01 0.265E-01 0.868E+00
   0.216E+02 0.526E+01 -.111E+04   -.246E+02 -.529E+01 0.111E+04   0.297E+01 0.265E-01 0.868E+00
   0.232E+02 0.759E+01 -.179E+04   -.232E+02 -.768E+01 0.179E+04   0.768E-01 0.823E-01 -.215E+01
   0.691E+02 0.208E+02 -.270E+04   -.689E+02 -.208E+02 0.272E+04   -.184E+00 0.949E-02 -.206E+02
   -.531E+02 0.484E+02 -.228E+04   0.591E+02 -.484E+02 0.229E+04   -.596E+01 0.729E-01 -.353E+01
   0.531E+02 0.484E+02 -.228E+04   -.591E+02 -.484E+02 0.229E+04   0.596E+01 0.729E-01 -.353E+01
   0.208E-01 0.937E+00 0.942E+02   -.316E-11 0.398E-12 0.496E-10   -.888E-15 -.935E+00 -.942E+02

 POSITION                                       TOTAL-FORCE (eV/Angst)
      6.50199      7.21853     24.52568         0.000000      0.059085      0.014099
      6.50198      8.38255     24.69094         0.000000     -0.328081     -0.062798
      6.50199      6.05266     24.33079         0.000000      0.274758     -0.014837
      9.75299      7.39399      8.77438        -0.000242      0.000053     -3.541633
      0.00000      8.87278      8.77438         0.000000      0.000117      2.690998
      0.00000      7.39399     12.02538         0.000000      0.000035      0.521240
      9.75299      8.87278     12.02538        -0.000910      0.000572     -0.710175
      9.75299      7.39399     15.27637        -0.005322     -0.000525      0.697624
      0.00000      8.87278     15.27637         0.000000      0.002545     -0.739586
     13.00398      7.39414     18.45787         0.000000     -0.000163      0.090976
      9.75327      8.87320     18.65847        -0.000579     -0.000462     -0.079422
      9.75303      7.39516     22.00370         0.016457      0.003348      0.049529
      0.00000      8.87335     21.63640         0.000000      0.000812      0.170388
      9.75299     10.35158      8.77438        -0.000302      0.000425     -3.541550
      0.00000      0.00000      8.77438         0.000000      0.000080      2.690909
      0.00000     10.35158     12.02538         0.000000      0.000298      0.521416
      9.75299      0.00000     12.02538        -0.001118      0.000381     -0.708338
      9.75299     10.35158     15.27637        -0.004055      0.014076      0.706327
      0.00000      0.00000     15.27637         0.000000      0.002197     -0.738242
     13.00398     10.35169     18.45827         0.000000      0.000020      0.091395
      9.75277      0.00015     18.66152         0.000174     -0.000655     -0.080577
      9.75138     10.35149     22.01403         0.004282      0.006004      0.056772
     13.00398     11.83021     21.63685         0.000000     -0.001420      0.170491
      9.75299      1.47880      8.77438        -0.000296     -0.000077     -3.541462
      0.00000      2.95759      8.77438         0.000000     -0.000157      2.690935
      0.00000      1.47880     12.02538         0.000000     -0.000062      0.521530
      9.75299      2.95759     12.02538        -0.000987     -0.000580     -0.708301
      9.75299      1.47880     15.27637        -0.004078     -0.000834      0.715324
      0.00000      2.95759     15.27637         0.000000     -0.002625     -0.738372
      0.00000      1.47864     18.45845         0.000000      0.000465      0.091524
      9.75326      2.95720     18.66142         0.000198      0.000396     -0.081744
      9.75215      1.47891     22.01326         0.000392     -0.001080      0.061425
      0.00000      2.95722     21.63680         0.000000      0.001466      0.169774
      9.75299      4.43639      8.77438        -0.000264     -0.000438     -3.541511
      0.00000      5.91519      8.77438         0.000000     -0.000075      2.691044
      0.00000      4.43639     12.02538         0.000000     -0.000294      0.521353
      9.75299      5.91519     12.02538        -0.000788     -0.000400     -0.710039
      9.75299      4.43639     15.27637        -0.005233     -0.012764      0.706373
      0.00000      5.91519     15.27637         0.000000     -0.002164     -0.739790
      0.00000      4.43632     18.45797         0.000000      0.000021      0.091143
      9.75354      5.91492     18.65888        -0.000393      0.000880     -0.080515
      9.75376      4.43723     22.01238         0.006035     -0.007946      0.055059
     13.00398      5.91574     21.63605         0.000000      0.000026      0.170063
      3.25100      7.39399      8.77438         0.000242      0.000053     -3.541633
      6.50199      8.87278      8.77438         0.000000      0.000280      2.691937
      6.50199      7.39399     12.02538         0.000000      0.001858      0.523538
      3.25100      8.87278     12.02538         0.000910      0.000572     -0.710175
      3.25100      7.39399     15.27637         0.005322     -0.000525      0.697624
      6.50199      8.87278     15.27637         0.000000     -0.003875     -0.713077
      6.50199      7.39071     18.46690         0.000000     -0.000476      0.088093
      3.25071      8.87320     18.65847         0.000579     -0.000462     -0.079422
      3.25096      7.39516     22.00370        -0.016457      0.003348      0.049529
      6.50199      8.87939     21.63291         0.000000      0.013152      0.188841
      3.25100     10.35158      8.77438         0.000302      0.000425     -3.541550
      6.50199      0.00000      8.77438         0.000000      0.000131      2.691976
      6.50199     10.35158     12.02538         0.000000      0.001616      0.525097
      3.25100      0.00000     12.02538         0.001118      0.000381     -0.708338
      3.25100     10.35158     15.27637         0.004055      0.014076      0.706327
      6.50199      0.00000     15.27637         0.000000      0.002275     -0.743594
      6.50199     10.34956     18.45418         0.000000      0.000878      0.090355
[...]
      6.50199      5.91519     13.29976         0.000000      0.000300     -0.090404
      4.52538      4.43639     12.02538         0.450846      0.000497      0.049541
      8.47860      4.43639     12.02538        -0.450846      0.000497      0.049541
      3.25100      5.91519     14.00199        -0.001012      0.002568     -0.132223
      3.25100      5.91519     16.55076         0.000456      0.001778      0.090457
      7.77637      4.43639     15.27637        -0.460604      0.007037      0.093358
      5.22761      4.43639     15.27637         0.460604      0.007037      0.093358
      6.50199      5.91531     17.27591         0.000000     -0.000575     -0.068508
      6.50199      5.91455     19.83683         0.000000      0.000856     -0.092829
      4.55288      4.43640     18.55266        -0.009960     -0.000219     -0.006940
      8.45110      4.43640     18.55266         0.009960     -0.000219     -0.006940
      3.24421      5.91558     20.51999        -0.000603     -0.001110      0.109557
      3.26640      5.91880     23.09439        -0.002236     -0.001783     -0.025841
      7.72931      4.42765     21.93715         0.026162     -0.010912      0.015117
      5.27467      4.42765     21.93715        -0.026162     -0.010912      0.015117
    total drift:                                0.020756      0.001422     -0.077350

  FREE ENERGIE OF THE ION-ELECTRON SYSTEM (eV)
  free  energy   TOTEN  =     -1759.39222926 eV

  energy  without entropy=    -1759.39222926  energy(sigma->0) =    -1759.39222926