 vasp.6.3.0 20Jan22 (build Apr  1 2022 16:44:48) complex
 executed on        HPECrayEX_GCC date 2022.10.10  22:31:31

 INCAR:
   SYSTEM = MgO-rocksalt
   ISMEAR = 0
   SIGMA = 0.05
   EDIFF = 1E-6
   ALGO = ALL
   ISTART = 0
   IBRION = -1
   NSW = 0
   ISYM = 0
   DIPOL = 0.5 0.5 0.5
   IDIPOL = 3
   LDIPOL = .TRUE.
   LHFCALC = .TRUE.
   GGA = B5
   AEXX = 0.2
   AGGAX = 0.72
   AGGAC = 0.81
   ALDAC = 0.19
   IVDW = 1
   VDW_S6 = 1.05
   VDW_C6 = 0.14 0.70 0.63 0.70
   VDW_R0 = 1.001 1.342 1.243 1.342
   ENCUT = 600
   PREC = Accurate
   LASPH = .TRUE.
   LREAL = .FALSE.
   ISPIN = 1
   NELM = 200
   NELMIN = 8
   NCORE = 8
   KPAR = 1
   LWAVE = .FALSE.
   LCHARG = .FALSE.

 POTCAR:    PAW_PBE H 15Jun2001
 POTCAR:    PAW_PBE O 08Apr2002
 POTCAR:    PAW_PBE Mg_pv 13Apr2007
 POTCAR:    PAW_PBE O 08Apr2002
 POTCAR:    PAW_PBE H 15Jun2001
   VRHFIN =H: ultrasoft test

   TITEL  = PAW_PBE H 15Jun2001
   POMASS =    1.000; ZVAL   =    1.000    mass and valenz
   ENMAX  =  250.000; ENMIN  =  200.000 eV

   TITEL  = PAW_PBE O 08Apr2002
   POMASS =   16.000; ZVAL   =    6.000    mass and valenz
   ENMAX  =  400.000; ENMIN  =  300.000 eV

   TITEL  = PAW_PBE Mg_pv 13Apr2007
   POMASS =   24.305; ZVAL   =    8.000    mass and valenz
   ENMAX  =  403.929; ENMIN  =  302.947 eV

   TITEL  = PAW_PBE O 08Apr2002
   POMASS =   16.000; ZVAL   =    6.000    mass and valenz
   ENMAX  =  400.000; ENMIN  =  300.000 eV

  PAW_PBE H 15Jun2001                   :
  PAW_PBE O 08Apr2002                   :
  PAW_PBE Mg_pv 13Apr2007               :
  PAW_PBE O 08Apr2002                   :

 POSCAR:  H  O Mg  O
  positions in direct lattice
 exchange correlation table for  LEXCH =       12
   RHO(1)=    0.500       N(1)  =     2000
   RHO(2)=  100.500       N(2)  =     4000

 ion  position               nearest neighbor table
   1  0.612  0.552  0.767-   3 0.96
   2  0.509  0.672  0.727-   3 1.00
   3  0.506  0.570  0.751-   1 0.96   2 1.00  19 2.21
   4  0.250  0.000  0.353-  38 2.09  39 2.09  46 2.09  55 2.09  36 2.09
   5  0.500  0.250  0.353-  38 2.09  39 2.09  47 2.09  54 2.09  37 2.09
   6  0.250  0.250  0.451-  36 2.09  37 2.09  44 2.09  53 2.09  38 2.09  42 2.09
   7  0.500  0.000  0.451-  36 2.09  37 2.09  45 2.09  52 2.09  39 2.09  43 2.10
   8  0.250  0.000  0.550-  42 2.08  50 2.09  43 2.09  59 2.09  36 2.10  40 2.12
   9  0.500  0.251  0.550-  51 2.09  42 2.09  58 2.09  43 2.10  37 2.10  41 2.11
  10  0.249  0.250  0.647-  57 2.08  42 2.09  40 2.09  48 2.09  41 2.10
  11  0.500  0.002  0.647-  41 2.05  49 2.07  43 2.08  40 2.09  56 2.09
  12  0.250  0.500  0.353-  38 2.09  46 2.09  47 2.09  63 2.09  44 2.09
  13  0.500  0.750  0.353-  39 2.09  46 2.09  47 2.09  62 2.09  45 2.09
  14  0.250  0.750  0.451-  36 2.09  44 2.09  45 2.09  61 2.09  46 2.09  50 2.10
  15  0.500  0.500  0.451-  37 2.09  44 2.09  45 2.09  60 2.09  47 2.09  51 2.11
  16  0.251  0.500  0.550-  51 2.08  42 2.09  48 2.09  50 2.09  67 2.10  44 2.11
  17  0.500  0.749  0.550-  51 2.08  50 2.08  66 2.08  43 2.09  45 2.11  49 2.17
  18  0.248  0.750  0.647-  65 2.07  50 2.07  48 2.09  40 2.09  49 2.11
  19  0.498  0.494  0.652-  41 2.05  48 2.09  64 2.12  51 2.16  49 2.18   3 2.21
  20  0.750  0.000  0.353-  39 2.09  54 2.09  55 2.09  62 2.09  52 2.09
  21  0.000  0.250  0.353-  38 2.09  54 2.09  55 2.09  63 2.09  53 2.09
  22  0.750  0.250  0.451-  37 2.09  52 2.09  53 2.09  60 2.09  54 2.09  58 2.09
  23  0.000  0.000  0.451-  36 2.09  52 2.09  53 2.09  61 2.09  55 2.09  59 2.09
  24  0.750  0.000  0.550-  58 2.08  43 2.09  59 2.09  66 2.09  52 2.10  56 2.12
  25  0.000  0.250  0.550-  42 2.09  67 2.09  58 2.09  59 2.09  53 2.10  57 2.12
  26  0.751  0.250  0.647-  58 2.08  57 2.08  56 2.08  41 2.09  64 2.09
  27  0.000  0.001  0.647-  40 2.08  57 2.08  59 2.08  56 2.08  65 2.09
  28  0.750  0.500  0.353-  47 2.09  54 2.09  62 2.09  63 2.09  60 2.09
  29  0.000  0.750  0.353-  46 2.09  55 2.09  62 2.09  63 2.09  61 2.09
  30  0.750  0.750  0.451-  45 2.09  52 2.09  60 2.09  61 2.09  62 2.09  66 2.10
  31  0.000  0.500  0.451-  44 2.09  53 2.09  60 2.09  61 2.09  63 2.09  67 2.09
  32  0.749  0.500  0.550-  51 2.08  58 2.09  66 2.09  67 2.09  60 2.11  64 2.12
  33  0.000  0.750  0.549-  67 2.08  59 2.09  50 2.09  61 2.09  66 2.09  65 2.12
  34  0.753  0.751  0.646-  66 2.05  65 2.06  56 2.08  64 2.09  49 2.11
  35  0.001  0.500  0.647-  48 2.07  64 2.08  67 2.08  57 2.09  65 2.09
  36  0.250  0.000  0.451-   6 2.09   7 2.09  14 2.09  23 2.09   4 2.09   8 2.10
  37  0.500  0.250  0.451-   6 2.09   7 2.09  15 2.09  22 2.09   5 2.09   9 2.10
  38  0.250  0.250  0.353-   4 2.09   5 2.09  12 2.09  21 2.09   6 2.09
  39  0.500  0.000  0.353-   4 2.09   5 2.09  13 2.09  20 2.09   7 2.09
  40  0.249  0.000  0.649-  27 2.08  10 2.09  18 2.09  11 2.09   8 2.12
  41  0.500  0.248  0.649-  11 2.05  19 2.05  26 2.09  10 2.10   9 2.11
  42  0.250  0.250  0.549-   8 2.08  10 2.09   9 2.09  25 2.09  16 2.09   6 2.09
  43  0.500  0.999  0.549-  11 2.08  24 2.09   8 2.09  17 2.09   7 2.10   9 2.10
  44  0.250  0.500  0.451-   6 2.09  14 2.09  15 2.09  31 2.09  12 2.09  16 2.11
  45  0.500  0.750  0.451-   7 2.09  14 2.09  15 2.09  30 2.09  13 2.09  17 2.11
  46  0.250  0.750  0.353-   4 2.09  12 2.09  13 2.09  29 2.09  14 2.09
  47  0.500  0.500  0.353-   5 2.09  12 2.09  13 2.09  28 2.09  15 2.09
  48  0.248  0.500  0.648-  35 2.07  18 2.09  10 2.09  16 2.09  19 2.09
  49  0.500  0.754  0.652-  11 2.07  34 2.11  18 2.11  17 2.17  19 2.18
  50  0.251  0.750  0.550-  18 2.07  17 2.08   8 2.09  33 2.09  16 2.09  14 2.10
  51  0.500  0.500  0.550-  17 2.08  32 2.08  16 2.08   9 2.09  15 2.11  19 2.16
  52  0.750  0.000  0.451-   7 2.09  22 2.09  23 2.09  30 2.09  20 2.09  24 2.10
  53  0.000  0.250  0.451-   6 2.09  22 2.09  23 2.09  31 2.09  21 2.09  25 2.10
  54  0.750  0.250  0.353-   5 2.09  20 2.09  21 2.09  28 2.09  22 2.09
  55  0.000  0.000  0.353-   4 2.09  20 2.09  21 2.09  29 2.09  23 2.09
  56  0.751  1.000  0.649-  34 2.08  27 2.08  26 2.08  11 2.09  24 2.12
  57  1.000  0.250  0.649-  26 2.08  27 2.08  10 2.08  35 2.09  25 2.12
  58  0.750  0.250  0.549-  26 2.08  24 2.08  32 2.09   9 2.09  25 2.09  22 2.09
  59  1.000  1.000  0.549-  27 2.08  33 2.09  24 2.09   8 2.09  23 2.09  25 2.09
  60  0.750  0.500  0.451-  15 2.09  22 2.09  30 2.09  31 2.09  28 2.09  32 2.11
  61  0.000  0.750  0.451-  14 2.09  23 2.09  30 2.09  31 2.09  29 2.09  33 2.09
  62  0.750  0.750  0.353-  13 2.09  20 2.09  28 2.09  29 2.09  30 2.09
  63  0.000  0.500  0.353-  12 2.09  21 2.09  28 2.09  29 2.09  31 2.09
  64  0.752  0.500  0.650-  35 2.08  34 2.09  26 2.09  32 2.12  19 2.12
  65  0.000  0.750  0.649-  34 2.06  18 2.07  27 2.09  35 2.09  33 2.12
  66  0.749  0.750  0.549-  34 2.05  17 2.08  24 2.09  32 2.09  33 2.09  30 2.10
  67  1.000  0.500  0.549-  35 2.08  33 2.08  25 2.09  31 2.09  32 2.09  16 2.10

IMPORTANT INFORMATION: All symmetrisations will be switched off!
NOSYMM: (Re-)initialisation of all symmetry stuff for point group C_1.

                                     Primitive cell

  volume of cell :    1482.1129

  direct lattice vectors                    reciprocal lattice vectors
     8.349111827  0.000000000  0.000000000     0.119773219  0.000000000  0.000000000
     0.000000000  8.349111827  0.000000000     0.000000000  0.119773219  0.000000000
     0.000000000  0.000000000 21.261833870     0.000000000  0.000000000  0.047032632

  length of vectors
     8.349111827  8.349111827 21.261833870     0.119773219  0.119773219  0.047032632

  position of ions in fractional coordinates (direct lattice)
     0.612221123  0.552231022  0.767038541
     0.509203961  0.671630706  0.726770524
     0.505565831  0.570385089  0.751482088
     0.250000000  0.000000000  0.352744737
     0.500000000  0.250000000  0.352744737
     0.250000000  0.250000000  0.450914912
     0.500000000  0.000000000  0.450914912
     0.250226467  0.000227283  0.549648568
     0.499913642  0.250664511  0.549892455
     0.249259852  0.249959277  0.647354194
     0.499939998  0.002067227  0.647248606
     0.250000000  0.500000000  0.352744737
     0.500000000  0.750000000  0.352744737
     0.250000000  0.750000000  0.450914912
     0.500000000  0.500000000  0.450914912
     0.250883701  0.499793153  0.550011055
     0.499866682  0.749035740  0.550011684
     0.247807254  0.750047746  0.647020682
     0.498464522  0.493575696  0.652090302
     0.750000000  0.000000000  0.352744737
     0.000000000  0.250000000  0.352744737
     0.750000000  0.250000000  0.450914912
     0.000000000  0.000000000  0.450914912
     0.749912286  0.000381249  0.549522231
     0.000217790  0.250247017  0.549504294
     0.750918598  0.249615922  0.647011879
     0.000307989  0.000501944  0.647125799
     0.750000000  0.500000000  0.352744737
     0.000000000  0.750000000  0.352744737
     0.750000000  0.750000000  0.450914912
     0.000000000  0.500000000  0.450914912
     0.749133350  0.499726192  0.550071421
     0.000388624  0.749798609  0.549347960
     0.752818851  0.750785661  0.646096415
     0.000631545  0.499628325  0.646926377
     0.250000000  0.000000000  0.450914912
     0.500000000  0.250000000  0.450914912
     0.250000000  0.250000000  0.352744737
     0.500000000  0.000000000  0.352744737
     0.249480615  0.000009120  0.649386985
     0.500255328  0.247729539  0.649229299
     0.250082552  0.249677117  0.549283816
     0.500162818  0.999364462  0.549483293
     0.250000000  0.500000000  0.450914912
     0.500000000  0.750000000  0.450914912
     0.250000000  0.750000000  0.352744737
     0.500000000  0.500000000  0.352744737
     0.248181966  0.500105283  0.648319003
     0.500432096  0.754453210  0.652095541
     0.250706674  0.750315598  0.549542858
     0.500290179  0.500499298  0.550351189
     0.750000000  0.000000000  0.450914912
     0.000000000  0.250000000  0.450914912
     0.750000000  0.250000000  0.352744737
     0.000000000  0.000000000  0.352744737
     0.750784228  0.999989205  0.649383848
     0.999989872  0.249681331  0.649328509
     0.750037231  0.249930577  0.549342364
     0.999977816  0.999833092  0.549224586
     0.750000000  0.500000000  0.450914912
     0.000000000  0.750000000  0.450914912
     0.750000000  0.750000000  0.352744737
     0.000000000  0.500000000  0.352744737
     0.752113666  0.500282769  0.649635840
     0.000010038  0.750453223  0.649238472
     0.749496947  0.750125617  0.549464977
     0.999737915  0.500213924  0.549093649

  ion indices of the primitive-cell ions
   primitive index   ion index
                 1           1
                 2           2
                 3           3
                 4           4
                 5           5
                 6           6
                 7           7
                 8           8
                 9           9
                10          10
                11          11
                12          12
                13          13
                14          14
                15          15
                16          16
                17          17
                18          18
                19          19
                20          20
                21          21
[...]
   0.75211367  0.50028277  0.64963584
   0.00001004  0.75045322  0.64923847
   0.74949695  0.75012562  0.54946498
   0.99973791  0.50021392  0.54909365

 position of ions in cartesian coordinates  (Angst):
   5.11150262  4.61063855 16.30864604
   4.25140081  5.60751987 15.45247415
   4.22102566  4.76220889 15.97788732
   2.08727796  0.00000000  7.50000000
   4.17455591  2.08727796  7.50000000
   2.08727796  2.08727796  9.58727796
   4.17455591  0.00000000  9.58727796
   2.08916876  0.00189761 11.68653654
   4.17383490  2.09282603 11.69172203
   2.08109838  2.08693796 13.76393733
   4.17405495  0.01725951 13.76169234
   2.08727796  4.17455591  7.50000000
   4.17455591  6.26183387  7.50000000
   2.08727796  6.26183387  9.58727796
   4.17455591  4.17455591  9.58727796
   2.09465608  4.17282892 11.69424369
   4.17344283  6.25378315 11.69425705
   2.06897047  6.26223251 13.75684626
   4.16173603  4.12091868 13.86463566
   6.26183387  0.00000000  7.50000000
   0.00000000  2.08727796  7.50000000
   6.26183387  2.08727796  9.58727796
   0.00000000  0.00000000  9.58727796
   6.26110153  0.00318309 11.68385039
   0.00181835  2.08934033 11.68346901
   6.26950335  2.08407125 13.75665909
   0.00257143  0.00419079 13.75908122
   6.26183387  4.17455591  7.50000000
   0.00000000  6.26183387  7.50000000
   6.26183387  6.26183387  9.58727796
   0.00000000  4.17455591  9.58727796
   6.25459812  4.17226986 11.69552717
   0.00324467  6.26015243 11.68014506
   6.28536878  6.26839344 13.73719464
   0.00527284  4.17145276 13.75484115
   2.08727796  0.00000000  9.58727796
   4.17455591  2.08727796  9.58727796
   2.08727796  2.08727796  7.50000000
   4.17455591  0.00000000  7.50000000
   2.08294155  0.00007614 13.80715819
   4.17668767  2.06832163 13.80380550
   2.08796720  2.08458217 11.67878124
   4.17591530  8.34380565 11.68302249
   2.08727796  4.17455591  9.58727796
   4.17455591  6.26183387  9.58727796
   2.08727796  6.26183387  7.50000000
   4.17455591  4.17455591  7.50000000
   2.07209899  4.17543493 13.78445094
   4.17816353  6.29901421 13.86474705
   2.09317806  6.26446883 11.68428895
   4.17697865  4.17872461 11.70147555
   6.26183387  0.00000000  9.58727796
   0.00000000  2.08727796  9.58727796
   6.26183387  2.08727796  7.50000000
   0.00000000  0.00000000  7.50000000
   6.26838148  8.34902170 13.80709149
   8.34902727  2.08461735 13.80591489
   6.26214471  2.08669834 11.68002607
   8.34892661  8.34771830 11.67752191
   6.26183387  4.17455591  9.58727796
   0.00000000  6.26183387  9.58727796
   6.26183387  6.26183387  7.50000000
   0.00000000  4.17455591  7.50000000
   6.27948110  4.17691678 13.81244930
   0.00008381  6.26561788 13.80400053
   6.25763382  6.26288266 11.68263306
   8.34692365  4.17634199 11.67473794

--------------------------------------- Iteration      FINAL  ---------------------------------------

--------------------OUTCAR has been truncated-------------------------

[...]

--------------------OUTCAR has been truncated-------------------------

  DFT-D2 method for vdW energy calculation

  Parameters of vdW forcefield:
         C6(Jnm^6/mol)     R0(A)
   H        0.140          1.001
   O        0.700          1.342
   Mg       0.630          1.243
   O        0.700          1.342

  vdW correction parametrized for the method        ã¼

  IVDW =   1
  VDW_RADIUS =    50.000 A
  VDW_S6 =     1.050
  VDW_SR =     1.000
  VDW_D =    20.000
  LVDW_EWALD = F

  Number of pair interactions contributing to vdW energy:  812620
  Edisp (eV):   -5.45568

 VOLUME and BASIS-vectors are now :
  energy-cutoff  :      600.00
  volume of cell :     1482.11
      direct lattice vectors                 reciprocal lattice vectors
     8.349111827  0.000000000  0.000000000     0.119773219  0.000000000  0.000000000
     0.000000000  8.349111827  0.000000000     0.000000000  0.119773219  0.000000000
     0.000000000  0.000000000 21.261833870     0.000000000  0.000000000  0.047032632

  length of vectors
     8.349111827  8.349111827 21.261833870     0.119773219  0.119773219  0.047032632

 FORCES acting on ions:
    Electron-Ion                     Ewald-Force                    Non-Local-Force
   -.815E+02 0.160E+02 -.304E+03   0.896E+02 -.176E+02 0.307E+03   -.775E+01 0.153E+01 -.301E+01
   -.264E+00 -.695E+02 -.273E+03   0.212E+00 0.761E+02 0.269E+03   0.308E-01 -.629E+01 0.386E+01
   0.486E+02 0.278E+02 -.175E+04   -.870E+02 -.491E+02 0.176E+04   0.340E+02 0.189E+02 -.760E+01
   -.620E-01 -.151E-01 0.214E+04   0.649E-01 0.183E-01 -.213E+04   -.189E-02 -.204E-02 -.644E+01
   0.939E-02 -.148E-01 0.214E+04   -.104E-01 0.225E-01 -.213E+04   0.665E-03 -.521E-02 -.644E+01
   -.226E+00 -.675E-02 0.736E+03   0.230E+00 0.189E-01 -.736E+03   -.158E-02 -.604E-02 0.363E+00
   0.176E+00 -.201E+00 0.735E+03   -.194E+00 0.155E+00 -.735E+03   0.118E-01 0.307E-01 0.422E+00
   0.249E+01 -.896E+00 -.663E+03   -.244E+01 0.976E+00 0.663E+03   -.445E-01 -.740E-01 -.187E+00
   -.212E-01 0.378E+01 -.656E+03   -.269E-01 -.357E+01 0.657E+03   0.439E-01 -.192E+00 -.419E+00
   0.171E+02 0.188E+02 -.206E+04   -.174E+02 -.189E+02 0.206E+04   0.303E+00 0.278E-01 0.545E+01
   0.997E+00 -.107E+02 -.205E+04   -.107E+01 0.112E+02 0.205E+04   0.644E-01 -.438E+00 0.528E+01
   -.101E+00 0.162E-01 0.214E+04   0.107E+00 -.193E-01 -.213E+04   -.423E-02 0.202E-02 -.645E+01
   0.184E-01 0.123E-01 0.214E+04   -.198E-01 -.206E-01 -.213E+04   0.901E-03 0.566E-02 -.645E+01
   -.221E+00 -.131E-01 0.735E+03   0.320E+00 0.235E-02 -.736E+03   -.645E-01 0.550E-02 0.506E+00
   0.679E-01 0.220E+00 0.734E+03   -.439E-01 -.187E+00 -.734E+03   -.163E-01 -.234E-01 0.635E+00
   0.336E+01 0.910E+00 -.653E+03   -.312E+01 -.979E+00 0.654E+03   -.221E+00 0.638E-01 -.938E+00
   0.295E+00 -.297E+01 -.664E+03   -.378E+00 0.272E+01 0.663E+03   0.753E-01 0.232E+00 0.887E+00
   0.250E+02 -.218E+02 -.204E+04   -.260E+02 0.218E+02 0.203E+04   0.947E+00 -.273E-01 0.554E+01
   0.373E+01 0.303E+02 -.196E+04   -.417E+01 -.324E+02 0.196E+04   0.391E+00 0.187E+01 0.224E+01
   0.619E-01 -.233E-01 0.214E+04   -.645E-01 0.270E-01 -.213E+04   0.168E-02 -.246E-02 -.643E+01
   -.870E-02 0.248E-01 0.214E+04   0.100E-01 -.200E-01 -.213E+04   -.889E-03 -.310E-02 -.644E+01
   0.233E+00 -.962E-01 0.736E+03   -.231E+00 0.158E+00 -.736E+03   -.202E-02 -.388E-01 0.413E+00
   -.154E+00 -.253E+00 0.736E+03   0.178E+00 0.297E+00 -.736E+03   -.152E-01 -.287E-01 0.362E+00
   -.250E+01 -.120E+01 -.661E+03   0.245E+01 0.132E+01 0.661E+03   0.451E-01 -.107E+00 -.108E+00
   0.113E-01 0.302E+01 -.663E+03   0.390E-01 -.295E+01 0.663E+03   -.463E-01 -.641E-01 -.861E-01
   -.172E+02 0.186E+02 -.205E+04   0.176E+02 -.188E+02 0.205E+04   -.285E+00 0.177E+00 0.546E+01
   -.829E+00 -.434E+01 -.207E+04   0.896E+00 0.451E+01 0.207E+04   -.605E-01 -.154E+00 0.536E+01
   0.100E+00 0.250E-01 0.214E+04   -.106E+00 -.285E-01 -.213E+04   0.424E-02 0.229E-02 -.646E+01
   -.167E-01 -.254E-01 0.214E+04   0.186E-01 0.207E-01 -.213E+04   -.134E-02 0.300E-02 -.641E+01
   0.217E+00 0.727E-01 0.736E+03   -.304E+00 -.129E+00 -.736E+03   0.574E-01 0.356E-01 0.511E+00
   -.632E-01 0.269E+00 0.737E+03   0.374E-01 -.311E+00 -.737E+03   0.173E-01 0.273E-01 0.256E+00
   -.318E+01 0.123E+01 -.658E+03   0.293E+01 -.134E+01 0.658E+03   0.230E+00 0.942E-01 -.358E+00
   -.290E+00 -.309E+01 -.657E+03   0.377E+00 0.302E+01 0.657E+03   -.797E-01 0.667E-01 -.386E-01
   -.256E+02 -.221E+02 -.202E+04   0.268E+02 0.223E+02 0.201E+04   -.102E+01 -.249E+00 0.564E+01
   -.742E+00 0.503E+01 -.206E+04   0.934E+00 -.520E+01 0.205E+04   -.173E+00 0.153E+00 0.539E+01
   -.900E-01 0.449E-01 0.551E+03   0.853E-01 -.282E-01 -.551E+03   0.634E-02 -.229E-01 -.100E+00
   -.184E-01 0.147E-01 0.551E+03   0.111E-01 -.488E-01 -.551E+03   0.995E-02 0.408E-01 -.936E-01
   -.567E-01 0.556E-02 0.161E+04   0.568E-01 -.187E-02 -.161E+04   -.235E-03 -.458E-02 0.310E+01
   0.172E-01 -.142E-01 0.161E+04   -.205E-01 0.130E-01 -.161E+04   0.409E-02 0.154E-02 0.311E+01
   0.850E+01 -.579E+01 -.157E+04   -.828E+01 0.574E+01 0.158E+04   -.201E+00 0.402E-01 -.469E+01
   0.880E+00 0.271E+02 -.155E+04   -.890E+00 -.271E+02 0.155E+04   0.979E-02 0.363E-01 -.460E+01
   0.232E+01 0.251E+01 -.489E+03   -.232E+01 -.244E+01 0.488E+03   -.297E-02 -.665E-01 0.232E+00
   0.391E+00 -.430E+00 -.489E+03   -.408E+00 0.477E+00 0.488E+03   0.148E-01 -.419E-01 0.355E+00
   -.284E+00 -.309E-01 0.551E+03   0.219E+00 0.127E-01 -.550E+03   0.797E-01 0.245E-01 -.152E+00
   0.407E-01 -.593E-01 0.551E+03   -.427E-01 0.109E+00 -.550E+03   0.332E-02 -.586E-01 -.141E+00
   -.641E-01 -.640E-02 0.161E+04   0.728E-01 0.265E-02 -.161E+04   -.109E-01 0.466E-02 0.311E+01
   0.654E-02 0.160E-01 0.161E+04   -.515E-02 -.144E-01 -.161E+04   -.176E-02 -.208E-02 0.309E+01
   0.299E+02 0.802E+01 -.153E+04   -.295E+02 -.795E+01 0.154E+04   -.363E+00 -.631E-01 -.482E+01
   0.325E+01 -.383E+02 -.151E+04   -.336E+01 0.381E+02 0.152E+04   0.962E-01 0.225E+00 -.207E+01
   0.173E+01 -.256E+01 -.487E+03   -.181E+01 0.250E+01 0.487E+03   0.676E-01 0.571E-01 0.457E+00
   -.239E+00 -.177E+00 -.497E+03   0.196E+00 0.118E+00 0.498E+03   0.396E-01 0.527E-01 -.675E+00
   0.968E-01 0.387E-02 0.552E+03   -.988E-01 0.952E-03 -.551E+03   0.163E-02 -.883E-02 -.478E-01
   0.323E-01 0.253E+00 0.551E+03   -.322E-01 -.235E+00 -.551E+03   -.138E-02 -.240E-01 -.798E-01
   0.562E-01 -.539E-02 0.161E+04   -.566E-01 0.136E-01 -.161E+04   0.509E-03 -.102E-01 0.310E+01
   -.170E-01 -.223E-01 0.161E+04   0.201E-01 0.294E-01 -.161E+04   -.389E-02 -.874E-02 0.311E+01
   -.859E+01 -.695E+01 -.157E+04   0.837E+01 0.696E+01 0.158E+04   0.203E+00 -.919E-02 -.471E+01
   -.821E+00 0.686E+01 -.158E+04   0.833E+00 -.674E+01 0.158E+04   -.107E-01 -.109E+00 -.467E+01
   -.234E+01 0.205E+01 -.488E+03   0.234E+01 -.201E+01 0.488E+03   -.220E-02 -.365E-01 0.372E+00
   -.370E+00 -.121E+01 -.492E+03   0.385E+00 0.124E+01 0.492E+03   -.134E-01 -.295E-01 0.237E+00
   0.286E+00 0.239E-01 0.551E+03   -.220E+00 -.356E-01 -.550E+03   -.815E-01 0.167E-01 -.183E+00
   -.407E-02 -.258E+00 0.552E+03   -.858E-02 0.237E+00 -.552E+03   0.138E-01 0.272E-01 0.233E-01
   0.629E-01 0.406E-02 0.161E+04   -.719E-01 -.125E-01 -.161E+04   0.114E-01 0.105E-01 0.311E+01
   -.606E-02 0.228E-01 0.161E+04   0.477E-02 -.299E-01 -.161E+04   0.165E-02 0.882E-02 0.310E+01
   -.312E+02 0.101E+02 -.153E+04   0.306E+02 -.101E+02 0.154E+04   0.554E+00 -.490E-01 -.451E+01
   -.196E+01 -.737E+01 -.157E+04   0.203E+01 0.725E+01 0.158E+04   -.633E-01 0.108E+00 -.471E+01
   -.175E+01 -.209E+01 -.484E+03   0.183E+01 0.206E+01 0.483E+03   -.744E-01 0.258E-01 0.755E+00
   0.935E-01 0.127E+01 -.486E+03   -.543E-01 -.130E+01 0.485E+03   -.356E-01 0.294E-01 0.277E+00
   -.307E+02 -.180E+02 0.277E+02   0.585E-13 0.782E-13 0.739E-12   0.267E+02 0.157E+02 -.244E+02

 POSITION                                       TOTAL-FORCE (eV/Angst)
      5.11150      4.61064     16.30865         0.114194     -0.041213      0.052597
      4.25140      5.60752     15.45247        -0.020164      0.103276      0.006844
      4.22103      4.76221     15.97789        -0.098079     -0.051791      0.074711
      2.08728      0.00000      7.50000         0.000762      0.000852      0.309986
      4.17456      2.08728      7.50000        -0.000274      0.001849      0.308079
      2.08728      2.08728      9.58728         0.002189      0.005006      0.046965
      4.17456      0.00000      9.58728        -0.005104     -0.012042      0.064157
      2.08917      0.00190     11.68654         0.001774     -0.000932      0.011138
      4.17383      2.09283     11.69172        -0.000280      0.000254      0.011684
      2.08110      2.08694     13.76394        -0.003186     -0.000570      0.108393
      4.17405      0.01726     13.76169        -0.001753      0.000389      0.108671
      2.08728      4.17456      7.50000         0.001333     -0.000872      0.311199
      4.17456      6.26183      7.50000        -0.000322     -0.002008      0.311702
      2.08728      6.26183      9.58728         0.026530     -0.004324      0.043169
      4.17456      4.17456      9.58728         0.005760      0.007159      0.083440
      2.09466      4.17283     11.69424         0.000511      0.000393      0.012110
      4.17344      6.25378     11.69426        -0.000389      0.000690      0.011796
      2.06897      6.26223     13.75685         0.001015     -0.000886      0.109125
      4.16174      4.12092     13.86464        -0.008164     -0.059393      0.068094
      6.26183      0.00000      7.50000        -0.000695      0.000944      0.306229
      0.00000      2.08728      7.50000         0.000357      0.001303      0.311376
      6.26183      2.08728      9.58728        -0.000110      0.018139      0.042372
      0.00000      0.00000      9.58728         0.006771      0.012381      0.033817
      6.26110      0.00318     11.68385        -0.001244     -0.000734      0.012215
      0.00182      2.08934     11.68347        -0.000158      0.000417      0.009524
      6.26950      2.08407     13.75666         0.002738     -0.002461      0.108719
      0.00257      0.00419     13.75908         0.001251      0.002628      0.115494
      6.26183      4.17456      7.50000        -0.001365     -0.000932      0.313993
      0.00000      6.26183      7.50000         0.000454     -0.001343      0.302645
      6.26183      6.26183      9.58728        -0.022066     -0.015787      0.038640
      0.00000      4.17456      9.58728        -0.006445     -0.011806      0.059613
      6.25460      4.17227     11.69553        -0.000247      0.000058      0.010860
      0.00324      6.26015     11.68015         0.000209     -0.000322      0.013363
      6.28537      6.26839     13.73719        -0.001789      0.001334      0.109153
      0.00527      4.17145     13.75484         0.002858     -0.004006      0.108156
      2.08728      0.00000      9.58728         0.002546     -0.009707      0.055381
      4.17456      2.08728      9.58728         0.004086      0.012584      0.088875
      2.08728      2.08728      7.50000        -0.000091     -0.001556     -0.592776
      4.17456      0.00000      7.50000         0.001383      0.000535     -0.590619
      2.08294      0.00008     13.80716        -0.002910     -0.001243      0.025059
      4.17669      2.06832     13.80381         0.001987      0.008819      0.021048
      2.08797      2.08458     11.67878        -0.000330     -0.001188      0.013043
      4.17592      8.34381     11.68302         0.000518     -0.000187      0.007811
      2.08728      4.17456      9.58728         0.026056      0.009936      0.081194
      4.17456      6.26183      9.58728         0.001872     -0.017547      0.081842
      2.08728      6.26183      7.50000        -0.003698      0.001530     -0.590369
      4.17456      4.17456      7.50000        -0.000596     -0.000786     -0.594401
      2.07210      4.17543     13.78445         0.012674      0.007515      0.026750
      4.17816      6.29901     13.86475         0.001219      0.032132     -0.035307
      2.09318      6.26447     11.68429        -0.001921      0.001905      0.009823
      4.17698      4.17872     11.70148         0.001482      0.000980      0.006047
      6.26183      0.00000      9.58728        -0.000132     -0.005390      0.059584
      0.00000      2.08728      9.58728        -0.001551     -0.009089      0.045802
      6.26183      2.08728      7.50000         0.000230     -0.003462     -0.592158
      0.00000      0.00000      7.50000        -0.001279     -0.002922     -0.589617
      6.26838      8.34902     13.80709         0.001819     -0.002106      0.023026
      8.34903      2.08462     13.80591        -0.000626     -0.002394      0.023520
      6.26214      2.08670     11.68003         0.000082     -0.001211      0.013051
      8.34893      8.34772     11.67752        -0.000584     -0.001025      0.011947
      6.26183      4.17456      9.58728        -0.026669      0.007426      0.074872
      0.00000      6.26183      9.58728         0.003026      0.010046      0.065621
      6.26183      6.26183      7.50000         0.003916      0.003492     -0.589656
      0.00000      4.17456      7.50000         0.000594      0.002900     -0.592557
      6.27948      4.17692     13.81245        -0.018444      0.010290      0.037077
      0.00008      6.26562     13.80400        -0.001430      0.002446      0.021267
      6.25763      6.26288     11.68263         0.000873      0.001523      0.013271
      8.34692      4.17634     11.67474        -0.000976      0.000105      0.011519
    total drift:                               -0.001011      0.002091      0.010322

  FREE ENERGIE OF THE ION-ELECTRON SYSTEM (eV)
  free  energy   TOTEN  =      -456.74248547 eV

  energy  without entropy=     -456.74248547  energy(sigma->0) =     -456.74248547