 vasp.6.3.0 20Jan22 (build Dec 25 2023 18:06:01) complex
 executed on        HPECrayEX_GCC date 2024.01.26  06:25:03

 INCAR:
   SYSTEM = TiO2
   ISMEAR = 0
   SIGMA = 0.05
   EDIFF = 1E-5
   ALGO = ALL
   ISTART = 0
   IBRION = -1
   NSW = 0
   ISYM = 0
   ISIF = 2
   EDIFFG = -0.01
   DIPOL = 0.5 0.5 0.5
   IDIPOL = 3
   LDIPOL = .TRUE.
   LHFCALC = .TRUE.
   HFSCREEN = 0.2
   GGA = PE
   IVDW = 13
   VDW_S8 = 1.19528249
   VDW_A1 = 0.38663183
   VDW_A2 = 5.19133469
   ENCUT = 520
   PREC = Normal
   PRECFOCK = Fast
   LASPH = .TRUE.
   LREAL = .FALSE.
   ISPIN = 1
   NKREDX = 3
   NKREDY = 3
   NELM = 200
   NELMIN = 8
   NCORE = 2
   KPAR = 1
   LWAVE = .FALSE.
   LCHARG = .FALSE.

 POTCAR:    PAW_PBE N 08Apr2002
 POTCAR:    PAW_PBE H 15Jun2001
 POTCAR:    PAW_PBE Ti 08Apr2002
 POTCAR:    PAW_PBE O 08Apr2002
 POTCAR:    PAW_PBE N 08Apr2002
   VRHFIN =N: s2p3

   TITEL  = PAW_PBE N 08Apr2002
   POMASS =   14.001; ZVAL   =    5.000    mass and valenz
   ENMAX  =  400.000; ENMIN  =  300.000 eV

   TITEL  = PAW_PBE H 15Jun2001
   POMASS =    1.000; ZVAL   =    1.000    mass and valenz
   ENMAX  =  250.000; ENMIN  =  200.000 eV

[...]

   TITEL  = PAW_PBE O 08Apr2002
   POMASS =   16.000; ZVAL   =    6.000    mass and valenz
   ENMAX  =  400.000; ENMIN  =  300.000 eV

  PAW_PBE N 08Apr2002                   :
  PAW_PBE H 15Jun2001                   :
  PAW_PBE Ti 08Apr2002                  :
  PAW_PBE O 08Apr2002                   :

 POSCAR:  N  H Ti  O
  positions in direct lattice
|           W    W    AA    RRRRR   N    N  II  N    N   GGGG   !!!           |
|           W    W   A  A   R    R  NN   N  II  NN   N  G    G  !!!           |
|           W    W  A    A  R    R  N N  N  II  N N  N  G       !!!           |
|           W WW W  AAAAAA  RRRRR   N  N N  II  N  N N  G  GGG   !            |
|           WW  WW  A    A  R   R   N   NN  II  N   NN  G    G                |
|           W    W  A    A  R    R  N    N  II  N    N   GGGG   !!!           |
|     Specifying the vdW parameters                                           |
|     VDW_S8 = 1.195                                                          |
|     VDW_A1 = 0.387                                                          |
|     VDW_A2 = 5.191                                                          |
|     in the INCAR file will overwrite the defaults for hse06. Please         |
|     make sure that is what you intended.                                    |

 ion  position               nearest neighbor table
   1  0.611  0.500  0.777-   2 1.02   4 1.02   3 1.02  52 2.26
   2  0.549  0.500  0.805-   1 1.02
   3  0.670  0.428  0.779-   1 1.02
   4  0.670  0.572  0.779-   1 1.02
   5  0.807  0.833  0.295-  55 1.93  89 1.93  57 1.93  56 1.99  54 1.99  22 3.04   6 3.04   8 3.04

   6  0.591  0.667  0.327-  58 1.93  53 1.93 120 1.93  56 1.93  59 1.99  57 1.99   7 3.04  37 3.04
                             5 3.04  11 3.07
   7  0.307  0.667  0.295-  59 1.93 125 1.93  61 1.93  60 1.99  53 1.99  40 3.04   6 3.04   8 3.04

   8  0.091  0.833  0.327-  62 1.93  54 1.93  92 1.93  60 1.93  61 1.99  55 1.99  23 3.04   7 3.04
                             5 3.04   9 3.07
   9  0.944  0.833  0.422-  63 1.92  97 1.93  65 1.93  55 1.97  64 1.98  62 1.99  12 3.00  26 3.04
                            10 3.04   8 3.07
  10  0.727  0.666  0.451-  58 1.90 128 1.93  64 1.94  66 1.95  67 1.98  65 1.99  11 3.01   9 3.04
                            41 3.05  15 3.09
  11  0.444  0.666  0.422-  67 1.93 133 1.93  69 1.93  59 1.97  68 1.98  58 1.99  10 3.01  12 3.04
                            44 3.05   6 3.07
  12  0.226  0.833  0.452-  62 1.90  68 1.94 100 1.94  70 1.96  63 1.97  69 1.99   9 3.00  27 3.04
                            11 3.04  13 3.09
  13  0.086  0.833  0.550-  71 1.93 105 1.93  73 1.93  72 1.97  63 1.99  70 1.99  16 2.96  14 3.04
                            30 3.04  12 3.09
  14  0.866  0.666  0.576-  66 1.87 136 1.93  72 1.94  75 1.95  74 1.99  73 2.00  15 2.98  13 3.04
                            45 3.05  19 3.15
  15  0.584  0.666  0.549- 141 1.93  77 1.93  75 1.94  67 1.97  76 1.97  66 2.00  14 2.98  16 3.04
                            48 3.05  10 3.09
  16  0.365  0.833  0.576-  70 1.87 108 1.94  76 1.94  71 1.95  78 1.98  77 2.00  13 2.96  15 3.04
                            31 3.04
  17  0.232  0.833  0.679-  79 1.86  81 1.93 113 1.94  80 2.00  71 2.07  78 2.08  20 2.85  34 3.06
                            18 3.08
  18  0.002  0.666  0.700-  74 1.78  82 1.83 144 1.96  80 1.98  81 2.04  19 2.86  17 3.08  49 3.09

[...]

  21  0.807  0.167  0.295-  87 1.93  89 1.93 121 1.93  88 1.99  86 1.99  22 3.04  38 3.04  24 3.04

[...]

  37  0.807  0.500  0.295- 119 1.93  57 1.93 121 1.93 120 1.99 118 1.99  38 3.04   6 3.04  40 3.04

  38  0.591  0.333  0.327- 122 1.93 117 1.93 120 1.93  88 1.93 123 1.99 121 1.99  39 3.04  37 3.04
                            21 3.04  43 3.07
  39  0.307  0.333  0.295- 123 1.93 125 1.93  93 1.93 124 1.99 117 1.99  40 3.04  38 3.04  24 3.04

  40  0.091  0.500  0.327- 126 1.93 118 1.93 124 1.93  60 1.93 125 1.99 119 1.99   7 3.04  39 3.04
                            37 3.04  41 3.06
  41  0.946  0.500  0.422- 127 1.93 129 1.93  65 1.93 119 1.97 126 1.97 128 1.99  44 3.00  10 3.05
                            42 3.05  40 3.06
  42  0.727  0.334  0.451- 122 1.90 128 1.93  96 1.94 130 1.95 131 1.98 129 1.99  43 3.01  25 3.04
                            41 3.05  47 3.09
  43  0.444  0.334  0.422- 131 1.93 133 1.93 101 1.93 123 1.97 132 1.98 122 1.99  42 3.01  28 3.04
                            44 3.05  38 3.07
  44  0.226  0.500  0.453- 126 1.93  68 1.94 132 1.94 134 1.96 127 1.96 133 2.00  41 3.00  43 3.05
                            11 3.05  45 3.06
  45  0.088  0.500  0.550- 135 1.92 137 1.93  73 1.93 134 1.97 136 2.00 127 2.00  48 2.97  14 3.05
                            46 3.05  44 3.06
  46  0.866  0.334  0.576- 130 1.87 136 1.93 104 1.94 139 1.95 138 1.99 137 2.00  47 2.98  29 3.04
                            45 3.05  51 3.15
  47  0.584  0.334  0.549- 141 1.93 109 1.93 139 1.94 131 1.97 140 1.97 130 2.00  46 2.98  32 3.04
                            48 3.05  42 3.09
  48  0.366  0.500  0.579- 134 1.93  76 1.94 140 1.94 135 1.94 142 1.96 141 2.01  45 2.97  47 3.05
                            15 3.05  49 3.11
  49  0.235  0.500  0.680- 143 1.85 145 1.94  81 1.94 142 2.02 144 2.03 135 2.08  52 2.88  18 3.09
                            50 3.09  48 3.11
  50  0.002  0.334  0.700- 138 1.78 146 1.83 144 1.96 112 1.98 145 2.04  51 2.86  33 3.08  49 3.09

  51  0.730  0.333  0.677- 146 1.88 148 1.93 116 1.94 147 1.99 139 2.03 138 2.08  50 2.86  36 3.07
                            52 3.07  46 3.15
  52  0.507  0.500  0.705- 143 1.83 142 1.89 147 1.98  83 1.98 148 2.05   1 2.26  49 2.88  51 3.07
                            19 3.07
  53  0.487  0.667  0.269-   6 1.93   7 1.99
  54  0.987  0.833  0.269-   8 1.93   5 1.99
  55  0.911  0.833  0.353-   5 1.93   9 1.97   8 1.99
  56  0.627  0.833  0.321-  22 1.93   6 1.93   5 1.99
  57  0.771  0.667  0.300-  37 1.93   5 1.93   6 1.99
  58  0.623  0.667  0.395-  10 1.90   6 1.93  11 1.99
  59  0.411  0.667  0.353-   7 1.93  11 1.97   6 1.99
  60  0.127  0.667  0.321-  40 1.93   8 1.93   7 1.99
  61  0.271  0.833  0.300-  23 1.93   7 1.93   8 1.99
  62  0.123  0.833  0.395-  12 1.90   8 1.93   9 1.99
  63  0.049  0.834  0.480-   9 1.92  12 1.97  13 1.99
  64  0.764  0.833  0.447-  26 1.94  10 1.94   9 1.98
  65  0.909  0.667  0.427-   9 1.93  41 1.93  10 1.99
  66  0.763  0.666  0.520-  14 1.87  10 1.95  15 2.00
  67  0.549  0.666  0.480-  11 1.93  15 1.97  10 1.98
  68  0.264  0.667  0.448-  44 1.94  12 1.94  11 1.98
  69  0.408  0.833  0.427-  27 1.93  11 1.93  12 1.99
  70  0.263  0.833  0.521-  16 1.87  12 1.96  13 1.99
  71  0.193  0.833  0.606-  13 1.93  16 1.95  17 2.07
  72  0.904  0.833  0.573-  30 1.94  14 1.94  13 1.97
  73  0.050  0.667  0.553-  13 1.93  45 1.93  14 2.00
  74  0.913  0.667  0.645-  18 1.78  14 1.99  19 2.08
  75  0.694  0.668  0.606-  15 1.94  14 1.95  19 2.03
  76  0.404  0.667  0.574-  16 1.94  48 1.94  15 1.97
  77  0.549  0.833  0.553-  31 1.93  15 1.93  16 2.00
  78  0.411  0.836  0.645-  20 1.78  16 1.98  17 2.08
  79  0.348  0.833  0.731-  20 1.83  17 1.86
  80  0.053  0.833  0.707-  34 1.97  18 1.98  17 2.00
  81  0.195  0.666  0.681-  17 1.93  49 1.94  18 2.04
  82  0.844  0.664  0.730-  18 1.83  19 1.88
  83  0.554  0.669  0.706-  20 1.96  52 1.98  19 1.99
  84  0.695  0.834  0.679-  35 1.93  19 1.94  20 2.04
  85  0.487  0.000  0.269-  22 1.93  23 1.99
  86  0.987  0.167  0.269-  24 1.93  21 1.99
  87  0.911  0.167  0.353-  21 1.93  25 1.97  24 1.99
  88  0.627  0.167  0.321-  22 1.93  38 1.93  21 1.99
  89  0.771  0.000  0.300-   5 1.93  21 1.93  22 1.99
  90  0.623  0.000  0.395-  26 1.90  22 1.93  27 1.99
  91  0.411  0.000  0.353-  23 1.93  27 1.97  22 1.99
  92  0.127  0.000  0.321-   8 1.93  24 1.93  23 1.99
  93  0.271  0.167  0.300-  23 1.93  39 1.93  24 1.99
  94  0.123  0.167  0.395-  28 1.90  24 1.93  25 1.99
  95  0.049  0.166  0.480-  25 1.92  28 1.97  29 1.99
  96  0.764  0.167  0.447-  26 1.94  42 1.94  25 1.98
  97  0.908  1.000  0.427-  25 1.93   9 1.93  26 1.99
  98  0.763  1.000  0.520-  30 1.87  26 1.96  31 2.00
  99  0.549  1.000  0.480-  27 1.92  26 1.98  31 1.98
 100  0.264  0.000  0.448-  12 1.94  28 1.94  27 1.98
 101  0.408  0.167  0.427-  27 1.93  43 1.93  28 1.99
 102  0.263  0.167  0.521-  32 1.87  28 1.96  29 1.99
 103  0.193  0.167  0.606-  29 1.93  32 1.95  33 2.07
 104  0.904  0.167  0.573-  30 1.94  46 1.94  29 1.97
 105  0.050  1.000  0.553-  13 1.93  29 1.93  30 2.01
 106  0.913  1.000  0.645-  34 1.79  30 1.99  35 2.07
 107  0.693  1.000  0.606-  31 1.93  30 1.95  35 2.08
 108  0.403  1.000  0.573-  16 1.94  32 1.94  31 1.97
 109  0.549  0.167  0.553-  31 1.93  47 1.93  32 2.00
 110  0.411  0.164  0.645-  36 1.78  32 1.98  33 2.08
 111  0.348  0.167  0.731-  36 1.83  33 1.86
 112  0.053  0.167  0.707-  34 1.97  50 1.98  33 2.00
[...]
 134  0.264  0.500  0.522-  48 1.93  44 1.96  45 1.97
 135  0.192  0.500  0.607-  45 1.92  48 1.94  49 2.08
 136  0.904  0.500  0.573-  14 1.93  46 1.93  45 2.00
 137  0.050  0.333  0.553-  29 1.93  45 1.93  46 2.00
 138  0.913  0.333  0.645-  50 1.78  46 1.99  51 2.08
 139  0.694  0.332  0.606-  47 1.94  46 1.95  51 2.03
 140  0.404  0.333  0.574-  32 1.94  48 1.94  47 1.97
 141  0.550  0.500  0.554-  47 1.93  15 1.93  48 2.01
 142  0.411  0.500  0.648-  52 1.89  48 1.96  49 2.02
 143  0.345  0.500  0.733-  52 1.83  49 1.85
 144  0.052  0.500  0.708-  18 1.96  50 1.96  49 2.03
 145  0.195  0.334  0.681-  33 1.93  49 1.94  50 2.04
 146  0.844  0.336  0.730-  50 1.83  51 1.88
 147  0.554  0.331  0.706-  36 1.96  52 1.98  51 1.99
 148  0.693  0.500  0.678-  19 1.93  51 1.93  52 2.05

IMPORTANT INFORMATION: All symmetrisations will be switched off!
NOSYMM: (Re-)initialisation of all symmetry stuff for point group C_1.

                                     Primitive cell

  volume of cell :    3249.2297

  direct lattice vectors                    reciprocal lattice vectors
    10.254981746  0.000000000  0.000000000     0.097513582 -0.000000000  0.000000000
[...]
   9.34541571  9.46381658  9.84509201
   6.43232271  9.46381658  8.96554979
   7.90769693  7.57105327  8.37954222
   6.39199420  7.57105327 11.01816888
   4.21792484  7.57105327  9.84509201
   1.30483183  7.57105327  8.96554979
[...]
   2.70776131  5.67828994 14.55023637
   1.97255208  5.67828989 16.93863645
   9.27101273  5.67828995 15.98384319
   0.51460693  3.78674464 15.42438752
   9.35869714  3.78067101 17.98666219
   7.11449434  3.77127578 16.89606460
   4.14596770  3.78599822 16.01439010
   5.63725304  5.67829001 15.44863957
   4.21982866  5.67828985 18.07100321
   3.54082199  5.67829003 20.44787919
   0.53554856  5.67829006 19.73968081
   1.99501336  3.78831616 18.99086845
   8.65318366  3.81958953 20.36620176
   5.67656712  3.75695543 19.70423884
   7.10323904  5.67829011 18.90599907

--------------------------------------- Iteration      FINAL  ---------------------------------------

--------------------OUTCAR has been truncated-------------------------

[...]

--------------------OUTCAR has been truncated-------------------------

  FORCE on cell =-STRESS in cart. coord.  units (eV):
  Direction    XX          YY          ZZ          XY          YZ          ZX
  Alpha Z  1547.88460  1547.88460  1547.88460
  Ewald  254757.06887252874.19855************     0.01155    -0.00365  -654.07599
  Hartree266030.83073265376.00765************     0.00125    -0.00212  -294.30525
  E(xc)   -2823.59837 -2816.30534 -2808.54234    -0.00002    -0.00002    -1.89318
  Local  ************************523358.73285    -0.00851     0.00539   952.17973
  n-local -1760.91694 -1743.81859 -1789.20292    -0.00038     0.00002    -6.10047
  augment   805.07721   800.87160   802.78692    -0.00004     0.00001    -0.81920
  Kinetic 13958.75983 14037.30368 14112.55948    -0.00060     0.00080    -1.78356
  Fock    -1299.75045 -1287.08484 -1285.48127    -0.00008     0.00001     0.46078
  vdW       -27.14567   -28.63295   -23.83914    -0.00001    -0.00000    -0.25563
  Total     -84.26080   -43.52868   -34.82603     0.00317     0.00044    -6.59277
  in kB     -41.54854   -21.46375   -17.17252     0.00156     0.00022    -3.25086

 VOLUME and BASIS-vectors are now :
  energy-cutoff  :      520.00
  volume of cell :     3249.23
      direct lattice vectors                 reciprocal lattice vectors
    10.254981746  0.000000000  0.000000000     0.097513582 -0.000000000  0.000000000
     0.000000000 11.356579900  0.000000000     0.000000000  0.088054679  0.000000000
     0.000000000  0.000000000 27.899598656     0.000000000  0.000000000  0.035842810

  length of vectors
    10.254981746 11.356579900 27.899598656     0.097513582  0.088054679  0.035842810

 FORCES acting on ions:
    Electron-Ion                     Ewald-Force                    Non-Local-Force
   0.716E+01 0.679E-02 -.126E+04   -.166E+02 -.112E-01 0.124E+04   0.872E+01 -.155E-02 0.163E+02
   0.438E+02 0.420E-02 -.286E+03   -.487E+02 -.443E-02 0.291E+03   0.469E+01 0.539E-03 -.550E+01
   -.397E+02 0.547E+02 -.259E+03   0.441E+02 -.607E+02 0.260E+03   -.431E+01 0.580E+01 -.335E+00
   -.397E+02 -.547E+02 -.259E+03   0.442E+02 0.607E+02 0.260E+03   -.431E+01 -.581E+01 -.335E+00
   0.100E+02 -.144E-01 0.996E+03   -.707E+01 0.135E-01 -.993E+03   0.888E+00 -.103E-03 -.194E+01
   -.165E+01 -.493E-01 0.808E+03   0.619E+00 0.497E-01 -.809E+03   -.690E+00 -.920E-03 -.841E+00
   0.100E+02 0.711E-02 0.996E+03   -.710E+01 -.123E-01 -.993E+03   0.878E+00 -.123E-02 -.194E+01
   -.200E+01 0.647E-02 0.808E+03   0.946E+00 -.127E-01 -.809E+03   -.696E+00 -.152E-02 -.844E+00
   -.410E+00 0.376E-01 0.371E+03   0.284E+00 -.414E-01 -.371E+03   0.108E+00 -.330E-03 0.384E-01
   0.273E+00 -.692E+00 0.236E+03   -.153E+00 0.708E+00 -.236E+03   -.471E-01 0.112E-01 -.129E+00
   0.137E+00 -.248E+00 0.372E+03   -.243E+00 0.264E+00 -.372E+03   0.104E+00 0.444E-02 0.225E-01
   -.101E+01 -.468E-01 0.234E+03   0.117E+01 0.504E-01 -.234E+03   -.417E-01 0.269E-02 -.131E+00
   -.277E+01 -.901E+00 -.225E+03   0.260E+01 0.887E+00 0.224E+03   0.193E+00 0.109E-01 0.170E+00
   -.324E+01 -.182E+01 -.338E+03   0.364E+01 0.186E+01 0.339E+03   -.130E+00 -.161E-01 -.236E+00
   -.413E+00 -.956E+00 -.217E+03   0.302E+00 0.971E+00 0.217E+03   0.158E+00 0.621E-03 0.119E+00
   0.816E+00 -.532E+00 -.344E+03   -.421E+00 0.539E+00 0.345E+03   -.141E+00 -.126E-01 -.263E+00
   0.905E+01 -.445E+01 -.806E+03   -.995E+01 0.449E+01 0.805E+03   0.582E+00 -.598E-02 -.473E-02
   -.328E+02 -.856E+01 -.926E+03   0.344E+02 0.852E+01 0.926E+03   -.283E-01 0.978E-01 0.698E+00
   -.553E+01 -.156E+02 -.778E+03   0.484E+01 0.157E+02 0.778E+03   0.529E+00 -.197E-01 0.780E-01
   -.221E+02 -.135E+02 -.922E+03   0.237E+02 0.135E+02 0.923E+03   0.178E-01 0.394E-01 0.696E+00
   0.100E+02 0.144E-01 0.996E+03   -.707E+01 -.135E-01 -.993E+03   0.888E+00 0.103E-03 -.194E+01
   -.167E+01 -.276E-05 0.808E+03   0.625E+00 0.213E-05 -.809E+03   -.693E+00 -.108E-05 -.845E+00
   0.100E+02 -.119E-05 0.996E+03   -.707E+01 0.118E-05 -.993E+03   0.884E+00 -.327E-06 -.194E+01
   -.200E+01 -.647E-02 0.808E+03   0.946E+00 0.127E-01 -.809E+03   -.696E+00 0.152E-02 -.844E+00
   -.410E+00 -.376E-01 0.371E+03   0.284E+00 0.414E-01 -.371E+03   0.108E+00 0.330E-03 0.384E-01
   -.465E+00 -.686E-05 0.235E+03   0.607E+00 0.921E-05 -.235E+03   -.307E-01 0.168E-06 -.129E+00
   0.224E+00 -.626E-05 0.372E+03   -.352E+00 0.852E-05 -.372E+03   0.100E+00 0.654E-06 0.275E-01
   -.101E+01 0.468E-01 0.234E+03   0.117E+01 -.504E-01 -.234E+03   -.417E-01 -.269E-02 -.131E+00
   -.277E+01 0.901E+00 -.225E+03   0.260E+01 -.887E+00 0.224E+03   0.193E+00 -.109E-01 0.170E+00
   -.271E+01 -.242E-04 -.344E+03   0.316E+01 0.187E-04 0.345E+03   -.131E+00 -.124E-05 -.233E+00
   -.210E+01 -.825E-05 -.222E+03   0.194E+01 0.342E-05 0.222E+03   0.196E+00 -.648E-06 0.190E+00
   0.816E+00 0.532E+00 -.344E+03   -.421E+00 -.538E+00 0.345E+03   -.141E+00 0.126E-01 -.263E+00
   0.905E+01 0.445E+01 -.806E+03   -.995E+01 -.449E+01 0.805E+03   0.582E+00 0.598E-02 -.474E-02
   -.284E+02 -.787E-04 -.931E+03   0.300E+02 0.660E-04 0.931E+03   -.280E-01 -.276E-05 0.692E+00
   0.315E+01 -.123E-03 -.804E+03   -.402E+01 0.945E-04 0.804E+03   0.544E+00 -.927E-05 0.244E-01
   -.221E+02 0.135E+02 -.922E+03   0.237E+02 -.135E+02 0.923E+03   0.178E-01 -.394E-01 0.696E+00
   0.100E+02 0.155E-05 0.996E+03   -.706E+01 -.134E-05 -.993E+03   0.893E+00 0.108E-05 -.194E+01
   -.165E+01 0.493E-01 0.808E+03   0.619E+00 -.497E-01 -.809E+03   -.690E+00 0.919E-03 -.841E+00
   0.100E+02 -.711E-02 0.996E+03   -.710E+01 0.123E-01 -.993E+03   0.878E+00 0.124E-02 -.194E+01
   -.212E+01 0.177E-05 0.808E+03   0.109E+01 -.135E-05 -.809E+03   -.694E+00 -.113E-05 -.814E+00
   0.225E-01 0.741E-05 0.371E+03   -.203E+00 -.683E-05 -.371E+03   0.112E+00 0.168E-06 0.532E-01
   0.273E+00 0.692E+00 0.236E+03   -.153E+00 -.708E+00 -.236E+03   -.471E-01 -.112E-01 -.129E+00
   0.137E+00 0.248E+00 0.372E+03   -.243E+00 -.264E+00 -.372E+03   0.104E+00 -.444E-02 0.225E-01
   -.171E+01 0.570E-05 0.229E+03   0.189E+01 -.661E-05 -.229E+03   -.460E-01 0.354E-06 -.458E-01
   -.160E+01 0.120E-04 -.225E+03   0.131E+01 -.811E-05 0.224E+03   0.170E+00 0.957E-06 0.176E+00
   -.324E+01 0.182E+01 -.338E+03   0.364E+01 -.186E+01 0.339E+03   -.130E+00 0.161E-01 -.236E+00
   -.413E+00 0.956E+00 -.217E+03   0.302E+00 -.971E+00 0.217E+03   0.158E+00 -.620E-03 0.119E+00
   0.122E+01 0.351E-04 -.356E+03   -.911E+00 -.308E-04 0.356E+03   -.116E+00 0.820E-06 -.132E+00
   0.160E+02 0.137E-03 -.804E+03   -.169E+02 -.130E-03 0.803E+03   0.411E+00 0.356E-05 0.766E-01
   -.328E+02 0.856E+01 -.926E+03   0.344E+02 -.852E+01 0.926E+03   -.283E-01 -.978E-01 0.698E+00
   -.553E+01 0.156E+02 -.778E+03   0.484E+01 -.157E+02 0.778E+03   0.529E+00 0.197E-01 0.780E-01
   0.742E+01 0.154E-02 -.896E+03   -.579E+01 -.143E-02 0.897E+03   -.469E+00 -.278E-04 -.231E+00
   -.707E+01 -.378E-01 0.161E+04   0.123E+02 0.365E-01 -.163E+04   -.634E+01 0.561E-03 0.165E+02
   -.728E+01 -.289E-01 0.161E+04   0.125E+02 0.267E-01 -.163E+04   -.633E+01 0.353E-02 0.165E+02
   0.444E+02 0.624E-01 0.102E+04   -.494E+02 -.630E-01 -.102E+04   0.357E+01 0.308E-03 -.405E+01
   0.319E+02 -.206E-01 0.124E+04   -.394E+02 0.209E-01 -.124E+04   0.698E+01 0.821E-03 -.255E+01
   -.434E+02 -.550E-01 0.142E+04   0.510E+02 0.516E-01 -.142E+04   -.647E+01 0.468E-02 -.232E+00
   -.374E+02 -.475E+00 0.764E+03   0.435E+02 0.530E+00 -.768E+03   -.547E+01 -.470E-01 0.393E+01
   0.449E+02 0.135E-01 0.102E+04   -.499E+02 0.822E-02 -.102E+04   0.356E+01 -.212E-01 -.393E+01
   0.314E+02 0.330E-01 0.124E+04   -.389E+02 -.463E-01 -.124E+04   0.699E+01 0.240E-01 -.257E+01
[...]
   0.458E+02 0.700E-04 -.756E+03   -.531E+02 -.613E-04 0.764E+03   0.654E+01 -.617E-05 -.693E+01
   0.346E+02 0.868E-04 -.505E+03   -.409E+02 -.875E-04 0.509E+03   0.564E+01 -.672E-05 -.272E+01
   -.437E+02 0.936E+00 -.338E+03   0.505E+02 -.911E+00 0.335E+03   -.598E+01 -.242E-01 0.261E+01
   -.476E+02 0.827E+01 -.960E+03   0.500E+02 -.862E+01 0.950E+03   -.221E+01 0.305E+00 0.878E+01
   0.424E+02 0.746E+01 -.736E+03   -.491E+02 -.782E+01 0.742E+03   0.606E+01 0.327E+00 -.534E+01
   0.420E+02 0.785E+00 -.515E+03   -.488E+02 -.761E+00 0.518E+03   0.609E+01 -.138E-01 -.285E+01
   -.376E+02 0.461E-04 -.340E+03   0.439E+02 -.390E-04 0.337E+03   -.565E+01 -.819E-05 0.218E+01
   -.279E+02 0.222E-03 -.966E+03   0.341E+02 -.226E-03 0.960E+03   -.553E+01 0.747E-05 0.528E+01
   0.711E+02 0.911E-03 -.157E+04   -.775E+02 -.845E-03 0.160E+04   0.555E+01 -.705E-04 -.193E+02
   0.207E+02 0.240E-03 -.143E+04   -.245E+02 -.235E-03 0.144E+04   0.343E+01 -.191E-04 -.679E+01
   -.209E+02 0.755E+01 -.121E+04   0.261E+02 -.735E+01 0.121E+04   -.465E+01 -.172E+00 0.265E+01
   -.217E+02 0.327E+02 -.157E+04   0.159E+02 -.325E+02 0.159E+04   0.507E+01 -.166E+00 -.186E+02
   0.487E+02 0.459E+02 -.138E+04   -.540E+02 -.455E+02 0.139E+04   0.474E+01 -.372E+00 -.589E+01
   -.407E+02 0.100E-02 -.113E+04   0.453E+02 -.100E-02 0.113E+04   -.407E+01 -.326E-04 0.408E+01
   -.169E+02 0.390E-02 0.542E+02   -.114E-12 0.568E-13 0.909E-12   0.184E+02 -.365E-02 -.494E+02

 POSITION                                       TOTAL-FORCE (eV/Angst)
      6.27015      5.67835     21.67516         0.045235     -0.006120      0.090325
      5.62744      5.67829     22.46172         0.072597      0.000336     -0.111638
      6.87575      4.86193     21.74543        -0.093087      0.110342     -0.033385
      6.87572      6.49460     21.74542        -0.089233     -0.104671     -0.032639
      8.27721      9.46382      8.23277         4.287344     -0.001103      1.995150
      6.06281      7.57105      9.11232        -1.857410     -0.000819     -2.063419
      3.14972      7.57105      8.23277         4.256180     -0.006602      1.981383
      0.93532      9.46382      9.11232        -1.887906     -0.008124     -2.066522
      9.68574      9.46410     11.78433        -0.003702     -0.000544      0.040931
      7.45113      7.56679     12.59383        -0.016173      0.001312     -0.020934
      4.55352      7.56799     11.78125        -0.003562      0.001943      0.043877
      2.31711      9.46310     12.60153        -0.018700      0.004076     -0.020838
      0.87740      9.46482     15.33528         0.009925      0.003101      0.040842
      8.87608      7.56556     16.05643        -0.021590     -0.002525     -0.042310
      5.99374      7.56773     15.31759         0.001659      0.002486      0.030669
      3.73860      9.46387     16.07789        -0.037764      0.001949     -0.042698
      2.37607      9.45752     18.95543        -0.069234      0.000347     -0.052292
      0.02211      7.56007     19.51672         0.146621     -0.001949     -0.033313
      7.48912      7.56922     18.88910        -0.039940     -0.000456     -0.034712
      5.16964      9.47831     19.50972         0.173599      0.001725     -0.048271
      8.27721      1.89276      8.23277         4.287345      0.001102      1.995149
      6.06281      0.00000      9.11232        -1.874377     -0.000002     -2.068712
      3.14972      0.00000      8.23277         4.276376     -0.000000      1.988925
      0.93532      1.89276      9.11232        -1.887903      0.008122     -2.066521
      9.68574      1.89248     11.78433        -0.003703      0.000544      0.040933
      7.44773     11.35658     12.59560        -0.010718      0.000002     -0.015834
      4.55586     11.35658     11.78386        -0.013069      0.000003      0.041043
      2.31711      1.89348     12.60153        -0.018697     -0.004076     -0.020839
      0.87740      1.89176     15.33528         0.009927     -0.003105      0.040835
      8.86551      0.00000     16.06865        -0.025909     -0.000006     -0.047689
      5.99959      0.00000     15.32526         0.007991     -0.000004      0.037993
      3.73860      1.89271     16.07789        -0.037766     -0.001953     -0.042712
      2.37607      1.89906     18.95543        -0.069244     -0.000360     -0.052310
      0.04168      0.00000     19.51874         0.175640     -0.000015     -0.054634
      7.51837      0.00000     18.93885        -0.057038     -0.000037     -0.052289
      5.16964      1.87827     19.50972         0.173552     -0.001811     -0.048303
      8.27721      5.67829      8.23277         4.303776      0.000001      1.994101
      6.06281      3.78553      9.11232        -1.857411      0.000818     -2.063417
      3.14972      3.78553      8.23277         4.256178      0.006603      1.981385
      0.93532      5.67829      9.11232        -1.860537     -0.000001     -1.980600
      9.69911      5.67829     11.78051         0.011479      0.000001      0.029531
      7.45113      3.78979     12.59384        -0.016176     -0.001312     -0.020938
      4.55352      3.78859     11.78125        -0.003560     -0.001946      0.043876
      2.31944      5.67829     12.63105        -0.021698     -0.000000     -0.020913
      0.90547      5.67829     15.34285         0.018896      0.000004      0.022062
      8.87608      3.79102     16.05643        -0.021586      0.002531     -0.042330
      5.99374      3.78885     15.31759         0.001653     -0.002484      0.030657
      3.75516      5.67829     16.16601        -0.036016      0.000005     -0.037485
      2.41255      5.67829     18.97568        -0.032328      0.000011     -0.074201
      0.02211      3.79651     19.51672         0.146696      0.001964     -0.033354
      7.48912      3.78736     18.88911        -0.039923      0.000495     -0.034785
      5.20307      5.67829     19.68075         0.117846      0.000095     -0.096142
      4.99460      7.57105      7.50000        -2.090885     -0.000762      1.408607
     10.12209      9.46382      7.50000        -2.088203      0.001955      1.404773
      9.34542      9.46382      9.84509        -0.928963     -0.000093     -0.307367
      6.43232      9.46382      8.96555         0.576832      0.001310     -0.156649
      7.90770      7.57105      8.37954         0.164501      0.002139     -1.109360
      6.39199      7.57105     11.01817        -0.224321      0.001001      0.526352
      4.21792      7.57105      9.84509        -0.934033     -0.002718     -0.295774
      1.30483      7.57105      8.96555         0.589213      0.014711     -0.166675
[...]
      2.70776      5.67829     14.55024        -0.158779     -0.000000      0.081043
      1.97255      5.67829     16.93864         0.181187      0.000002     -0.126375
      9.27101      5.67829     15.98384         0.158322     -0.000009     -0.056775
      0.51461      3.78674     15.42439        -0.156282     -0.002924      0.075846
      9.35870      3.78067     17.98666        -0.201591      0.002444     -0.046433
      7.11449      3.77128     16.89606         0.169583      0.009960     -0.116176
      4.14597      3.78600     16.01439         0.165746      0.007889     -0.063813
      5.63725      5.67829     15.44864        -0.158986     -0.000002      0.069115
      4.21983      5.67829     18.07100        -0.149930      0.000005      0.072057
      3.54082      5.67829     20.44788         0.022730     -0.000015     -0.052014
      0.53555      5.67829     19.73968         0.119154     -0.000018     -0.073829
      1.99501      3.78832     18.99087        -0.123394     -0.000314      0.077192
      8.65318      3.81959     20.36620        -0.004171     -0.008581     -0.069299
      5.67657      3.75696     19.70424         0.130949      0.015186     -0.080475
      7.10324      5.67829     18.90600        -0.124217     -0.000044      0.074405
    total drift:                                0.045581     -0.000003     -0.022490

  FREE ENERGIE OF THE ION-ELECTRON SYSTEM (eV)
  free  energy   TOTEN  =     -1595.54581759 eV

  energy  without entropy=    -1595.54581759  energy(sigma->0) =    -1595.54581759