 vasp.6.4.2 20Jul23 (build Feb 22 2024 13:53:45) complex
 executed on              LinuxNV date 2024.08.27  20:19:10
 OpenACC runtime initialized ...    4 GPUs detected

 INCAR:
   SYSTEM = Oxide-Surface
   ISMEAR = 0
   SIGMA = 0.05
   EDIFF = 1E-5
   ALGO = Normal
   IBRION = -1
   NSW = 0
   ISYM = 0
   DIPOL = 0.5 0.5 0.5
   IDIPOL = 3
   LDIPOL = .TRUE.
   ISTART = 1
   METAGGA = R2SCAN
   ENCUT = 1000
   PREC = Normal
   PRECFOCK = Normal
   LASPH = .TRUE.
   LREAL = Auto
   ISPIN = 1
   NELM = 200
   NELMIN = 8
   NCORE = 1
   KPAR = 1
   LWAVE = .FALSE.
   LCHARG = .FALSE.

 POTCAR:    PAW_PBE N_h 06Feb2004
 POTCAR:    PAW_PBE O_h 06Feb2004
 POTCAR:    PAW_PBE Mg_sv 12Apr2007
 POTCAR:    PAW_PBE O_h 06Feb2004
 POTCAR:    PAW_PBE N_h 06Feb2004
   VRHFIN =N: s2p3

   TITEL  = PAW_PBE N_h 06Feb2004
   POMASS =   14.001; ZVAL   =    5.000    mass and valenz
   ENMAX  =  700.000; ENMIN  =  500.000 eV

[...]

   TITEL  = PAW_PBE Mg_sv 12Apr2007
   POMASS =   24.305; ZVAL   =   10.000    mass and valenz
   ENMAX  =  495.223; ENMIN  =  371.417 eV

   TITEL  = PAW_PBE O_h 06Feb2004
   POMASS =   16.000; ZVAL   =    6.000    mass and valenz
   ENMAX  =  700.000; ENMIN  =  500.000 eV

 Optimization of the real space projectors (new method)

 maximal supplied QI-value         = 34.20
 optimisation between [QCUT,QGAM] = [ 16.08, 32.15] = [ 72.37,289.48] Ry
 Optimized for a Real-space Cutoff    0.71 Angstroem

   l    n(q)    QCUT    max X(q) W(low)/X(q) W(high)/X(q)  e(spline)
   0      7    16.076   148.539    0.44E-03    0.75E-03    0.58E-07
   0      7    16.076   106.192    0.44E-03    0.75E-03    0.58E-07
   1      6    16.076    73.877    0.23E-03    0.61E-03    0.11E-06
   1      6    16.076    50.042    0.22E-03    0.60E-03    0.11E-06
 Optimization of the real space projectors (new method)

[...]

   l    n(q)    QCUT    max X(q) W(low)/X(q) W(high)/X(q)  e(spline)
   0      9    16.140     8.730    0.14E-04    0.12E-04    0.27E-07
   0      9    16.140     8.910    0.19E-04    0.17E-04    0.41E-07
   1      9    16.140     2.513    0.16E-04    0.28E-04    0.54E-07
   1      9    16.140     3.341    0.27E-04    0.13E-03    0.17E-06
   2      9    16.140     3.683    0.18E-03    0.21E-03    0.81E-07
 Optimization of the real space projectors (new method)

 maximal supplied QI-value         = 34.20
 optimisation between [QCUT,QGAM] = [ 16.08, 32.15] = [ 72.37,289.48] Ry
 Optimized for a Real-space Cutoff    0.71 Angstroem

   l    n(q)    QCUT    max X(q) W(low)/X(q) W(high)/X(q)  e(spline)
   0      7    16.076   280.207    0.42E-03    0.69E-03    0.60E-07
   0      7    16.076   228.978    0.42E-03    0.69E-03    0.61E-07
   1      6    16.076    86.127    0.11E-03    0.66E-03    0.10E-06
   1      6    16.076    65.368    0.11E-03    0.65E-03    0.10E-06
  PAW_PBE N_h 06Feb2004                 :
  PAW_PBE O_h 06Feb2004                 :
  PAW_PBE Mg_sv 12Apr2007               :
  PAW_PBE O_h 06Feb2004                 :

 POSCAR:  N  O Mg  O
  positions in direct lattice

 METAGGA = R2SCAN                                      LMAXTAU =  6    LMIXTAU =  F

 ion  position               nearest neighbor table
   1  0.493  0.519  0.704-   2 1.14
   2  0.471  0.594  0.759-   1 1.14   3 1.20
   3  0.448  0.673  0.816-   2 1.20
   4  0.000  0.750  0.184-
   5  0.250  0.000  0.184-
   6  0.000  0.000  0.308-
   7  0.250  0.750  0.308-
   8  1.000  0.750  0.433-
   9  0.250  0.000  0.433-
  10  1.000  0.000  0.557-
  11  0.250  0.750  0.556-
  12  0.000  0.250  0.184-
  13  0.250  0.500  0.184-
  14  0.000  0.500  0.308-
  15  0.250  0.250  0.308-
  16  1.000  0.250  0.433-
  17  0.250  0.500  0.433-
  18  1.000  0.500  0.556-
  19  0.250  0.250  0.556-
  20  0.500  0.750  0.184-
  21  0.750  0.000  0.184-
  22  0.500  0.000  0.308-
  23  0.750  0.750  0.308-
  24  0.500  0.750  0.433-
  25  0.750  0.000  0.433-
  26  0.500  0.000  0.556-
  27  0.750  0.750  0.556-
  28  0.500  0.250  0.184-
  29  0.750  0.500  0.184-
  30  0.500  0.500  0.308-
  31  0.750  0.250  0.308-
  32  0.500  0.250  0.433-
  33  0.750  0.500  0.433-
  34  0.500  0.499  0.559-
  35  0.750  0.250  0.556-
  36  0.000  0.750  0.308-
  37  0.250  0.000  0.308-
  38  0.000  0.000  0.184-
  39  0.250  0.750  0.184-
  40  0.000  0.750  0.559-
  41  0.250  1.000  0.559-
  42  0.000  1.000  0.432-
  43  0.250  0.750  0.432-
  44  0.000  0.250  0.308-
  45  0.250  0.500  0.308-
  46  0.000  0.500  0.184-
  47  0.250  0.250  0.184-
  48  0.000  0.250  0.559-
  49  0.249  0.500  0.559-
  50  0.000  0.500  0.432-
  51  0.250  0.250  0.432-
  52  0.500  0.750  0.308-
  53  0.750  0.000  0.308-
  54  0.500  0.000  0.184-
  55  0.750  0.750  0.184-
  56  0.500  0.751  0.560-
  57  0.750  1.000  0.559-
  58  0.500  1.000  0.432-
  59  0.750  0.750  0.432-
  60  0.500  0.250  0.308-
  61  0.750  0.500  0.308-
  62  0.500  0.500  0.184-
  63  0.750  0.250  0.184-
  64  0.500  0.249  0.559-
  65  0.751  0.500  0.559-
  66  0.500  0.500  0.433-
  67  0.750  0.250  0.432-

IMPORTANT INFORMATION: All symmetrisations will be switched off!
NOSYMM: (Re-)initialisation of all symmetry stuff for point group C_1.

                                     Primitive cell

  volume of cell :    1211.2538

  direct lattice vectors                    reciprocal lattice vectors
     8.440984654  0.000000000  0.000000000     0.118469591  0.000000000  0.000000000
     0.000000000  8.440984654  0.000000000     0.000000000  0.118469591  0.000000000
     0.000000000  0.000000000 17.000000000     0.000000000  0.000000000  0.058823529

  length of vectors
     8.440984654  8.440984654 17.000000000     0.118469591  0.118469591  0.058823529

  position of ions in fractional coordinates (direct lattice)
     0.493401810  0.519418636  0.703797525
     0.471142627  0.594219820  0.758820503
     0.447551698  0.673306372  0.816300477
     0.000003678  0.750014635  0.183699523
     0.250003678  0.000014635  0.183699523
     0.000003678  0.000014635  0.307831651
     0.250003678  0.750014635  0.307831651
     0.999958025  0.749958546  0.432677010
     0.250062895  0.000098256  0.432697074
     0.999978292  0.000093413  0.556574763
     0.249803788  0.750119214  0.556064616
     0.000003678  0.250014635  0.183699523
     0.250003678  0.500014635  0.183699523
     0.000003678  0.500014635  0.307831651
     0.250003678  0.250014635  0.307831651
     0.999996322  0.250085902  0.432737287
     0.250470277  0.499951058  0.432993793
     0.999914270  0.499958742  0.556347633
     0.250074935  0.249987426  0.556432786
     0.500003678  0.750014635  0.183699523
     0.750003678  0.000014635  0.183699523
     0.500003678  0.000014635  0.307831651
     0.750003678  0.750014635  0.307831651
     0.500022849  0.749528416  0.433004734
     0.749934873  0.000060439  0.432720256
     0.500004313  0.000298773  0.556352798
     0.750109261  0.749994940  0.556245449
     0.500003678  0.250014635  0.183699523
     0.750003678  0.500014635  0.183699523
     0.500003678  0.500014635  0.307831651
     0.750003678  0.250014635  0.307831651
     0.500018596  0.250408803  0.433022603
     0.749557443  0.499957022  0.433006493
     0.500185527  0.499326999  0.559321507
     0.749946987  0.250008855  0.556456309
     0.000003678  0.750014635  0.307831651
     0.250003678  0.000014635  0.307831651
     0.000003678  0.000014635  0.183699523
     0.250003678  0.750014635  0.183699523
     0.000015879  0.750145562  0.559430108
     0.249854125  0.999935043  0.559420358
     0.000005749  0.999985365  0.432483484
     0.249992579  0.750062832  0.432464910
     0.000003678  0.250014635  0.307831651
     0.250003678  0.500014635  0.307831651
     0.000003678  0.500014635  0.183699523
     0.250003678  0.250014635  0.183699523
     0.000025477  0.249903447  0.559432479
     0.249186912  0.500166699  0.559369032
     0.000048645  0.500056722  0.432413803
     0.249905202  0.249983746  0.432457768
     0.500003678  0.750014635  0.307831651
     0.750003678  0.000014635  0.307831651
     0.500003678  0.000014635  0.183699523
     0.750003678  0.750014635  0.183699523
     0.499913895  0.750860290  0.559719056
     0.750130870  0.999925050  0.559443888
     0.499992191  0.999840315  0.432416954
     0.749991554  0.750078916  0.432481166
     0.500003678  0.250014635  0.307831651
     0.750003678  0.500014635  0.307831651
     0.500003678  0.500014635  0.183699523
     0.750003678  0.250014635  0.183699523
     0.499988921  0.249108426  0.558920468
     0.750816707  0.500096856  0.559158266
     0.499978415  0.500099316  0.432940757
     0.750108091  0.249940033  0.432443649

  ion indices of the primitive-cell ions
   primitive index   ion index
                 1           1
                 2           2
                 3           3
                 4           4
                 5           5
                 6           6
                 7           7
                 8           8
                 9           9
                10          10
                11          11
                12          12
                13          13
                14          14
                15          15
                16          16
                17          17
                18          18
                19          19
                20          20
                21          21
                22          22
                23          23
                24          24
                25          25
                26          26
                27          27
                28          28
                29          29
                30          30
                31          31
                32          32
                33          33
                34          34
                35          35
                36          36
                37          37
                38          38
                39          39
                40          40
                41          41
                42          42
                43          43
                44          44
                45          45
                46          46
                47          47
                48          48
                49          49
                50          50
                51          51
                52          52
                53          53
                54          54
                55          55
                56          56
                57          57
                58          58
                59          59
                60          60
                61          61
                62          62
                63          63
                64          64
                65          65
                66          66
                67          67

 KPOINTS: pymatgen v2020.8.13 with grid density =

Automatic generation of k-mesh.
 Grid dimensions read from file:
 generate k-points for:    2    2    1

 Generating k-lattice:

  Cartesian coordinates                     Fractional coordinates (reciprocal lattice)
     0.059234796  0.000000000  0.000000000     0.500000000  0.000000000  0.000000000
[...]
  Alpha Z  1248.51953  1248.51953  1248.51953
  Ewald  103448.62330103696.65511************   -76.23410   384.92255  -115.18933
  Hartree120734.21785120854.34199************   -34.27687   176.05580   -53.01826
  E(xc)   -3521.10208 -3521.14114 -3522.28856     0.01413    -0.06128     0.01798
  Local  ************************232715.68660   102.69425  -522.69303   156.83100
  n-local -5529.74622 -5527.13890 -5525.26556    -0.86093     4.13674    -1.23369
  augment   832.25106   832.04481   824.59459     0.06730    -0.33069     0.09680
  Kinetic 12919.79277 12892.39988 12867.47768     9.00696   -44.19172    13.15416
  Fock        0.00000     0.00000     0.00000     0.00000     0.00000     0.00000
  Total     -39.04706   -40.35588   -11.45465     0.41072    -2.16163     0.65867
  in kB     -51.64922   -53.38046   -15.15156     0.54328    -2.85928     0.87125

 VOLUME and BASIS-vectors are now :
  energy-cutoff  :     1000.00
  volume of cell :     1211.25
      direct lattice vectors                 reciprocal lattice vectors
     8.440984654  0.000000000  0.000000000     0.118469591  0.000000000  0.000000000
     0.000000000  8.440984654  0.000000000     0.000000000  0.118469591  0.000000000
     0.000000000  0.000000000 17.000000000     0.000000000  0.000000000  0.058823529

  length of vectors
     8.440984654  8.440984654 17.000000000     0.118469591  0.118469591  0.058823529

 FORCES acting on ions
    electron-ion (+dipol)            ewald-force                    non-local-force                 convergence-correction
   -.480E+02 0.161E+03 -.838E+03   0.561E+02 -.188E+03 0.799E+03   -.823E+01 0.277E+02 0.406E+02   0.321E-04 -.847E-04 -.147E-03
   -.328E+01 0.107E+02 -.713E+03   0.422E+01 -.138E+02 0.707E+03   -.836E+00 0.270E+01 0.463E+01   0.197E-04 -.722E-04 0.605E-03
   0.500E+02 -.167E+03 -.682E+03   -.612E+02 0.205E+03 0.737E+03   0.114E+02 -.383E+02 -.560E+02   0.512E-04 -.159E-03 0.129E-02
   0.719E+00 -.135E+01 0.242E+04   -.715E+00 0.135E+01 -.241E+04   -.296E-02 -.722E-03 -.961E+01   -.445E-04 0.501E-04 -.599E-03
   0.218E+01 -.185E+01 0.242E+04   -.218E+01 0.184E+01 -.241E+04   -.477E-02 0.618E-02 -.961E+01   -.104E-03 0.987E-04 -.608E-03
   0.310E+00 -.822E+00 0.828E+03   -.314E+00 0.833E+00 -.828E+03   0.303E-02 -.906E-02 0.749E+00   -.165E-04 0.321E-04 -.659E-03
   0.134E+01 -.947E+00 0.829E+03   -.131E+01 0.921E+00 -.830E+03   -.272E-01 0.201E-01 0.762E+00   -.275E-04 0.147E-04 -.600E-03
   0.104E+01 -.438E+01 -.756E+03   -.105E+01 0.434E+01 0.756E+03   0.143E-01 0.376E-01 -.664E-01   -.815E-05 0.113E-04 -.665E-03
   0.531E+01 -.263E+01 -.756E+03   -.527E+01 0.266E+01 0.756E+03   -.359E-01 -.347E-01 -.816E-01   -.261E-04 0.213E-04 -.663E-03
   0.277E+01 -.698E+01 -.235E+04   -.278E+01 0.701E+01 0.234E+04   0.623E-02 -.292E-01 0.800E+01   -.149E-04 0.534E-04 -.123E-02
   0.375E+02 -.300E+02 -.230E+04   -.376E+02 0.301E+02 0.229E+04   0.103E+00 -.510E-01 0.809E+01   -.339E-04 0.404E-05 -.125E-02
   0.531E+00 0.133E+01 0.242E+04   -.530E+00 -.133E+01 -.241E+04   -.137E-02 0.288E-03 -.962E+01   -.434E-04 -.527E-04 -.799E-03
   0.268E+01 0.188E+01 0.242E+04   -.267E+01 -.187E+01 -.241E+04   -.678E-02 -.663E-02 -.963E+01   -.125E-03 -.101E-03 -.513E-03
   0.348E+00 0.824E+00 0.829E+03   -.345E+00 -.835E+00 -.829E+03   -.191E-02 0.833E-02 0.678E+00   -.124E-04 -.316E-04 -.655E-03
   0.118E+01 0.935E+00 0.829E+03   -.116E+01 -.907E+00 -.830E+03   -.129E-01 -.213E-01 0.730E+00   -.330E-04 -.134E-04 -.618E-03
   0.732E+00 0.435E+01 -.760E+03   -.739E+00 -.431E+01 0.760E+03   0.608E-02 -.359E-01 -.101E+00   -.119E-04 -.168E-04 -.657E-03
   0.742E+01 0.274E+01 -.746E+03   -.725E+01 -.278E+01 0.747E+03   -.177E+00 0.342E-01 -.287E+00   -.291E-04 -.188E-04 -.654E-03
   0.435E+01 0.748E+01 -.233E+04   -.440E+01 -.751E+01 0.232E+04   0.446E-01 0.298E-01 0.802E+01   -.198E-04 -.484E-04 -.122E-02
   0.278E+02 0.276E+02 -.233E+04   -.278E+02 -.276E+02 0.232E+04   -.172E-01 0.517E-01 0.806E+01   -.389E-04 -.149E-04 -.119E-02
   -.748E+00 -.185E+01 0.242E+04   0.744E+00 0.185E+01 -.240E+04   0.300E-02 0.150E-02 -.962E+01   0.451E-04 0.729E-04 -.416E-03
   -.217E+01 -.166E+01 0.242E+04   0.216E+01 0.165E+01 -.241E+04   0.472E-02 0.458E-02 -.961E+01   0.108E-03 0.971E-04 -.678E-03
   -.313E+00 -.981E+00 0.829E+03   0.316E+00 0.970E+00 -.829E+03   -.268E-02 0.813E-02 0.685E+00   0.164E-04 0.237E-04 -.635E-03
   -.134E+01 -.905E+00 0.829E+03   0.130E+01 0.883E+00 -.830E+03   0.285E-01 0.164E-01 0.759E+00   0.259E-04 0.167E-04 -.624E-03
   -.110E+01 -.644E+01 -.744E+03   0.111E+01 0.628E+01 0.745E+03   -.134E-01 0.169E+00 -.128E+00   0.755E-05 0.206E-04 -.665E-03
   -.529E+01 -.232E+01 -.758E+03   0.525E+01 0.235E+01 0.758E+03   0.357E-01 -.261E-01 -.859E-01   0.235E-04 0.238E-04 -.661E-03
   -.310E+01 -.141E+02 -.232E+04   0.311E+01 0.142E+02 0.232E+04   -.589E-02 -.160E+00 0.801E+01   0.147E-04 0.459E-04 -.125E-02
   -.361E+02 -.274E+02 -.231E+04   0.362E+02 0.275E+02 0.230E+04   -.992E-01 -.115E-01 0.806E+01   0.332E-04 -.161E-05 -.124E-02
   -.541E+00 0.181E+01 0.242E+04   0.540E+00 -.181E+01 -.241E+04   0.129E-02 -.138E-02 -.963E+01   0.389E-04 -.709E-04 -.632E-03
   -.265E+01 0.168E+01 0.242E+04   0.264E+01 -.167E+01 -.241E+04   0.655E-02 -.498E-02 -.963E+01   0.126E-03 -.964E-04 -.594E-03
   -.353E+00 0.993E+00 0.829E+03   0.352E+00 -.988E+00 -.830E+03   0.850E-03 -.420E-02 0.814E+00   0.142E-04 -.261E-04 -.575E-03
   -.117E+01 0.897E+00 0.829E+03   0.116E+01 -.876E+00 -.830E+03   0.126E-01 -.163E-01 0.717E+00   0.324E-04 -.168E-04 -.620E-03
   -.762E+00 0.637E+01 -.748E+03   0.769E+00 -.620E+01 0.748E+03   -.611E-02 -.172E+00 -.526E+00   0.131E-04 -.129E-04 -.653E-03
   -.738E+01 0.241E+01 -.747E+03   0.721E+01 -.244E+01 0.748E+03   0.178E+00 0.263E-01 -.397E+00   0.305E-04 -.229E-04 -.650E-03
   -.725E+01 0.222E+02 -.221E+04   0.730E+01 -.224E+02 0.220E+04   -.593E-01 0.220E+00 0.691E+01   0.195E-04 -.482E-04 -.143E-02
   -.273E+02 0.256E+02 -.233E+04   0.273E+02 -.256E+02 0.232E+04   0.168E-01 0.168E-01 0.806E+01   0.374E-04 -.786E-05 -.116E-02
   0.197E+00 -.589E+00 0.497E+03   -.195E+00 0.574E+00 -.496E+03   -.256E-02 0.220E-01 -.725E-01   -.891E-05 0.799E-05 -.250E-03
   0.796E+00 -.506E+00 0.496E+03   -.779E+00 0.507E+00 -.496E+03   -.216E-01 -.178E-04 -.829E-01   -.185E-04 0.156E-04 -.247E-03
   0.339E+00 -.874E+00 0.147E+04   -.338E+00 0.872E+00 -.147E+04   -.147E-02 0.228E-02 0.233E+01   -.249E-04 0.591E-04 -.471E-03
   0.165E+01 -.995E+00 0.146E+04   -.164E+01 0.992E+00 -.147E+04   -.120E-01 0.356E-02 0.234E+01   -.764E-04 0.384E-04 -.277E-03
   0.297E+01 -.907E+01 -.144E+04   -.298E+01 0.903E+01 0.144E+04   0.944E-02 0.469E-01 -.450E+01   -.108E-04 0.124E-05 -.102E-02
   0.116E+02 -.746E+01 -.143E+04   -.115E+02 0.747E+01 0.144E+04   -.520E-01 -.142E-01 -.450E+01   -.210E-04 0.344E-04 -.102E-02
   0.486E+00 -.130E+01 -.452E+03   -.488E+00 0.131E+01 0.452E+03   0.236E-02 -.148E-01 0.252E+00   -.483E-05 0.149E-04 -.345E-03
   0.399E+01 -.329E+01 -.442E+03   -.398E+01 0.328E+01 0.441E+03   -.954E-02 0.175E-01 0.413E+00   -.166E-04 0.908E-05 -.346E-03
   0.168E+00 0.590E+00 0.496E+03   -.170E+00 -.576E+00 -.496E+03   0.213E-02 -.166E-01 -.105E+00   -.110E-04 -.116E-04 -.267E-03
   0.945E+00 0.515E+00 0.496E+03   -.969E+00 -.518E+00 -.496E+03   0.298E-01 0.420E-02 -.135E+00   -.207E-04 -.174E-04 -.240E-03
   0.410E+00 0.883E+00 0.147E+04   -.408E+00 -.880E+00 -.147E+04   -.267E-02 -.307E-02 0.231E+01   -.274E-04 -.577E-04 -.408E-03
   0.127E+01 0.975E+00 0.147E+04   -.126E+01 -.972E+00 -.147E+04   -.638E-02 -.410E-02 0.232E+01   -.619E-04 -.378E-04 -.437E-03
   0.173E+01 0.875E+01 -.144E+04   -.173E+01 -.870E+01 0.145E+04   -.520E-03 -.526E-01 -.450E+01   -.109E-04 -.280E-05 -.939E-03
   0.320E+02 0.907E+01 -.140E+04   -.318E+02 -.908E+01 0.140E+04   -.268E+00 0.201E-02 -.456E+01   -.550E-04 -.302E-04 -.964E-03
   0.552E+00 0.131E+01 -.446E+03   -.557E+00 -.132E+01 0.445E+03   0.430E-02 0.785E-02 0.303E+00   -.112E-04 -.119E-04 -.345E-03
   0.358E+01 0.322E+01 -.446E+03   -.355E+01 -.320E+01 0.445E+03   -.298E-01 -.230E-01 0.308E+00   -.102E-04 -.119E-04 -.327E-03
   -.204E+00 -.742E+00 0.496E+03   0.204E+00 0.770E+00 -.496E+03   -.488E-03 -.331E-01 -.137E+00   0.878E-05 0.132E-04 -.224E-03
   -.796E+00 -.477E+00 0.496E+03   0.780E+00 0.481E+00 -.496E+03   0.206E-01 -.463E-02 -.929E-01   0.194E-04 0.166E-04 -.259E-03
   -.347E+00 -.124E+01 0.147E+04   0.346E+00 0.123E+01 -.147E+04   0.129E-02 0.722E-02 0.233E+01   0.233E-04 0.707E-04 -.329E-03
   -.163E+01 -.918E+00 0.147E+04   0.162E+01 0.916E+00 -.147E+04   0.114E-01 0.209E-02 0.233E+01   0.771E-04 0.331E-04 -.338E-03
   -.392E+01 -.309E+02 -.139E+04   0.392E+01 0.306E+02 0.139E+04   -.197E-02 0.323E+00 -.452E+01   0.865E-05 0.408E-04 -.987E-03
   -.114E+02 -.615E+01 -.144E+04   0.113E+02 0.616E+01 0.144E+04   0.526E-01 -.526E-02 -.450E+01   0.185E-04 0.350E-04 -.983E-03
   -.500E+00 -.162E+01 -.445E+03   0.502E+00 0.164E+01 0.444E+03   -.220E-02 -.198E-01 0.306E+00   0.501E-05 0.202E-04 -.346E-03
   -.395E+01 -.320E+01 -.444E+03   0.394E+01 0.318E+01 0.443E+03   0.109E-01 0.234E-01 0.365E+00   0.164E-04 0.466E-05 -.335E-03
   -.168E+00 0.723E+00 0.496E+03   0.169E+00 -.743E+00 -.496E+03   -.175E-02 0.271E-01 -.135E+00   0.107E-04 -.114E-04 -.243E-03
   -.939E+00 0.480E+00 0.496E+03   0.962E+00 -.483E+00 -.496E+03   -.276E-01 0.563E-02 -.135E+00   0.191E-04 -.187E-04 -.248E-03
   -.425E+00 0.127E+01 0.146E+04   0.423E+00 -.126E+01 -.147E+04   0.268E-02 -.862E-02 0.231E+01   0.283E-04 -.721E-04 -.260E-03
   -.126E+01 0.904E+00 0.147E+04   0.126E+01 -.902E+00 -.147E+04   0.607E-02 -.290E-02 0.231E+01   0.653E-04 -.339E-04 -.475E-03
   -.208E+01 0.268E+02 -.141E+04   0.208E+01 -.266E+02 0.141E+04   -.740E-03 -.201E+00 -.457E+01   0.130E-04 -.330E-04 -.966E-03
   -.306E+02 0.737E+01 -.140E+04   0.303E+02 -.737E+01 0.141E+04   0.232E+00 0.501E-02 -.456E+01   0.540E-04 -.319E-04 -.948E-03
   -.591E+00 0.170E+01 -.444E+03   0.598E+00 -.173E+01 0.444E+03   -.781E-02 0.308E-01 -.250E+00   0.814E-05 -.190E-04 -.365E-03
   -.356E+01 0.314E+01 -.446E+03   0.353E+01 -.311E+01 0.446E+03   0.289E-01 -.267E-01 0.299E+00   0.993E-05 -.696E-05 -.333E-03
   -.230E+01 0.776E+01 0.376E+02   0.618E-12 -.142E-13 -.375E-11   0.232E+01 -.780E+01 -.368E+02   0.945E-04 -.324E-03 -.389E-01

 POSITION                                       TOTAL-FORCE (eV/Angst)
      4.16480      4.38440     11.96456        -0.352311      1.188885      1.906729
      3.97691      5.01580     12.89995         0.059798     -0.221513     -0.416938
      3.77778      5.68337     13.87711         0.311193     -1.030516     -1.499116
      0.00003      6.33086      3.12289         0.000658      0.000520      0.459550
      2.11028      0.00012      3.12289         0.001241     -0.001345      0.459374
      0.00003      0.00012      5.23314        -0.001096      0.003343      0.109108
      2.11028      6.33086      5.23314         0.008248     -0.005568      0.110176
      8.44063      6.33039      7.35551        -0.000491     -0.002447      0.106107
      2.11078      0.00083      7.35585         0.002563      0.001526      0.105152
      8.44080      0.00079      9.46177        -0.000549      0.000196     -0.151752
      2.10859      6.33174      9.45310        -0.009774      0.006923     -0.138788
      0.00003      2.11037      3.12289         0.000167      0.000361      0.463552
      2.11028      4.22062      3.12289         0.001802      0.002495      0.462528
      0.00003      4.22062      5.23314         0.000275     -0.001910      0.124471
      2.11028      2.11037      5.23314         0.004567      0.007542      0.116446
      8.44095      2.11097      7.35653        -0.000752      0.003282      0.106313
      2.11422      4.22008      7.36089        -0.002635     -0.001141      0.111570
      8.44026      4.22014      9.45791        -0.000023      0.000160     -0.146626
      2.11088      2.11014      9.45936        -0.004603     -0.005485     -0.154294
      4.22052      6.33086      3.12289        -0.001110     -0.000095      0.459975
      6.33077      0.00012      3.12289        -0.001603     -0.000860      0.460857
      4.22052      0.00012      5.23314         0.000651     -0.001580      0.123595
      6.33077      6.33086      5.23314        -0.009111     -0.004874      0.113010
      4.22069      6.32676      7.36108         0.000377      0.003209      0.109227
      6.33019      0.00051      7.35624        -0.002882      0.002034      0.105855
      4.22053      0.00252      9.45800         0.000037      0.003917     -0.145352
      6.33166      6.33070      9.45617         0.010299      0.006073     -0.153112
      4.22052      2.11037      3.12289        -0.000555      0.000825      0.465677
      6.33077      4.22062      3.12289        -0.002148      0.001877      0.465242
      4.22052      4.22062      5.23314        -0.000168      0.000789      0.132100
      6.33077      2.11037      5.23314        -0.004779      0.006098      0.118029
      4.22065      2.11370      7.36138         0.000001     -0.001319      0.113662
      6.32700      4.22013      7.36111         0.002159     -0.001013      0.113336
      4.22206      4.21481      9.50847        -0.004203      0.012944     -0.094590
      6.33029      2.11032      9.45976         0.004284     -0.004015     -0.153746
      0.00003      6.33086      5.23314        -0.000688      0.007402      0.028516
      2.11028      0.00012      5.23314        -0.005303      0.000902      0.027266
      0.00003      0.00012      3.12289        -0.000539      0.000876     -0.418254
      2.11028      6.33086      3.12289        -0.002975      0.001098     -0.412649
      0.00013      6.33197      9.51031        -0.000396      0.003363     -0.155662
      2.10901      8.44044      9.51015        -0.002998      0.002052     -0.158654
      0.00005      8.44086      7.35222         0.000101     -0.003389     -0.006684
      2.11018      6.33127      7.35190        -0.001674      0.001670     -0.000815
      0.00003      2.11037      5.23314         0.000307     -0.001713      0.024618
      2.11028      4.22062      5.23314         0.005706      0.002394      0.033909
      0.00003      4.22062      3.12289        -0.000805     -0.000261     -0.421681
      2.11028      2.11037      3.12289        -0.001691     -0.000654     -0.416800
      0.00022      2.10943      9.51035        -0.000824     -0.003703     -0.154623
      2.10338      4.22190      9.50927        -0.002421     -0.002647     -0.152770
      0.00041      4.22097      7.35103        -0.000665      0.000508     -0.007714
      2.10945      2.11011      7.35178        -0.001245     -0.002222     -0.006008
      4.22052      6.33086      5.23314        -0.000431     -0.004441      0.034006
      6.33077      0.00012      5.23314         0.004614     -0.000068      0.026348
      4.22052      0.00012      3.12289         0.000058      0.001981     -0.418995
      6.33077      6.33086      3.12289         0.002354      0.000814     -0.413807
      4.21977      6.33800      9.51522         0.000769      0.006172     -0.155360
      6.33184      8.44035      9.51055         0.002779      0.002453     -0.154994
      4.22043      8.43964      7.35109        -0.000344      0.001647     -0.007560
      6.33067      6.33140      7.35218         0.001867      0.001693     -0.006693
      4.22052      2.11037      5.23314        -0.000690      0.007685      0.035986
      6.33077      4.22062      5.23314        -0.005673      0.002732      0.034726
      4.22052      4.22062      3.12289         0.000391     -0.001561     -0.419981
      6.33077      2.11037      3.12289         0.001138     -0.000387     -0.417965
      4.22040      2.10272      9.50165         0.000012      0.002669     -0.141265
      6.33763      4.22131      9.50569        -0.000232      0.001447     -0.144527
      4.22031      4.22133      7.35999        -0.000486      0.003531     -0.014240
      6.33165      2.10974      7.35154         0.000459     -0.001362     -0.005000
    total drift:                                0.010598     -0.041925      0.835712

  FREE ENERGIE OF THE ION-ELECTRON SYSTEM (eV)
  free  energy   TOTEN  =      -531.28851369 eV

  energy  without entropy=     -531.28851369  energy(sigma->0) =     -531.28851369

     |            E. Caldeweyher, S. Ehlert & S. Grimme          |
     |          Mulliken Center for Theoretical Chemistry        |
     |                    University of Bonn                     |

Rational (Becke-Johnson) damping: r2scan-D4-ATM
  s6         1.0000
  s8         0.6019
  s9         1.0000
  a1         0.5156
  a2         5.7734
 alp        16.0000

Dispersion energy:      -1.1562248905387E-01 Eh