 vasp.6.3.0 20Jan22 (build Apr  1 2022 16:44:48) complex
 executed on        HPECrayEX_GCC date 2022.11.13  08:18:52

 INCAR:
   SYSTEM = MgO-rocksalt
   ISMEAR = 0
   SIGMA = 0.05
   EDIFF = 1E-6
   ALGO = ALL
   ISTART = 0
   IBRION = -1
   NSW = 0
   ISYM = 0
   DIPOL = 0.5 0.5 0.5
   IDIPOL = 3
   LDIPOL = .TRUE.
   LHFCALC = .TRUE.
   GGA = B5
   AEXX = 0.2
   AGGAX = 0.72
   AGGAC = 0.81
   ALDAC = 0.19
   IVDW = 1
   VDW_S6 = 1.05
   VDW_C6 = 0.63 0.70
   VDW_R0 = 1.243 1.342
   ENCUT = 600
   PREC = Accurate
   LASPH = .TRUE.
   LREAL = .FALSE.
   ISPIN = 1
   NELM = 200
   NELMIN = 8
   NCORE = 8
   KPAR = 1
   LWAVE = .FALSE.
   LCHARG = .FALSE.

 POTCAR:    PAW_PBE Mg_pv 13Apr2007
 POTCAR:    PAW_PBE O 08Apr2002
 POTCAR:    PAW_PBE Mg_pv 13Apr2007
   VRHFIN =Mg: p6s2

   TITEL  = PAW_PBE Mg_pv 13Apr2007
   POMASS =   24.305; ZVAL   =    8.000    mass and valenz
   ENMAX  =  403.929; ENMIN  =  302.947 eV

   TITEL  = PAW_PBE O 08Apr2002
   POMASS =   16.000; ZVAL   =    6.000    mass and valenz
   ENMAX  =  400.000; ENMIN  =  300.000 eV

  PAW_PBE Mg_pv 13Apr2007               :
  PAW_PBE O 08Apr2002                   :

 POSCAR: Mg  O
  positions in direct lattice
 exchange correlation table for  LEXCH =       12
   RHO(1)=    0.500       N(1)  =     2000
   RHO(2)=  100.500       N(2)  =     4000

 ion  position               nearest neighbor table
   1  0.250  0.000  0.351-  33 2.12  35 2.12  36 2.12  43 2.12  52 2.12
   2  0.500  0.250  0.351-  34 2.12  35 2.12  36 2.12  44 2.12  51 2.12
   3  0.250  0.250  0.450-  35 2.12  34 2.12  33 2.12  41 2.12  50 2.12  39 2.13
   4  0.500  0.000  0.450-  40 2.11  36 2.12  33 2.12  34 2.12  42 2.12  49 2.12
   5  0.250  0.000  0.550-  40 2.11  56 2.12  39 2.12  33 2.12  47 2.12  37 2.15
   6  0.500  0.251  0.551-  48 2.11  38 2.11  55 2.12  39 2.12  40 2.13  34 2.14
   7  0.250  0.247  0.648-  37 2.09  39 2.10  38 2.12  54 2.12  45 2.15
   8  0.500  0.000  0.648-  38 2.10  40 2.10  46 2.11  53 2.12  37 2.13
   9  0.250  0.500  0.351-  41 2.12  35 2.12  43 2.12  44 2.12  60 2.12
  10  0.500  0.750  0.351-  42 2.12  36 2.12  43 2.12  44 2.12  59 2.12
  11  0.250  0.750  0.450-  43 2.12  41 2.12  42 2.12  33 2.12  58 2.12  47 2.12
  12  0.500  0.500  0.450-  44 2.12  41 2.12  42 2.12  34 2.12  57 2.12  48 2.14
  13  0.251  0.500  0.550-  48 2.10  39 2.11  47 2.11  64 2.12  41 2.13  45 2.19
  14  0.500  0.749  0.551-  48 2.11  63 2.12  47 2.12  40 2.12  46 2.13  42 2.14
  15  0.249  0.753  0.647-  47 2.08  37 2.09  62 2.11  46 2.12  45 2.14
  16  0.508  0.499  0.654-  61 2.07  38 2.13  46 2.14  48 2.21  45 2.23
  17  0.750  0.000  0.351-  49 2.12  36 2.12  51 2.12  52 2.12  59 2.12
  18  0.000  0.250  0.351-  50 2.12  35 2.12  51 2.12  52 2.12  60 2.12
  19  0.750  0.250  0.450-  51 2.12  49 2.12  50 2.12  34 2.12  57 2.12  55 2.12
  20  0.000  0.000  0.450-  52 2.12  49 2.12  50 2.12  33 2.12  58 2.12  56 2.12
  21  0.750  0.000  0.550-  40 2.12  55 2.12  63 2.12  56 2.12  49 2.12  53 2.15
  22  1.000  0.250  0.550-  55 2.11  39 2.11  64 2.12  56 2.12  50 2.13  54 2.15
  23  0.750  0.249  0.648-  55 2.11  53 2.11  54 2.12  38 2.12  61 2.13
  24  0.999  0.000  0.648-  56 2.11  54 2.11  53 2.11  62 2.11  37 2.12
  25  0.750  0.500  0.351-  57 2.12  51 2.12  44 2.12  59 2.12  60 2.12
  26  0.000  0.750  0.351-  58 2.12  52 2.12  43 2.12  59 2.12  60 2.12
  27  0.750  0.750  0.450-  59 2.12  49 2.12  57 2.12  58 2.12  42 2.12  63 2.12
  28  0.000  0.500  0.450-  60 2.12  50 2.12  57 2.12  58 2.12  41 2.12  64 2.12
  29  0.749  0.500  0.550-  48 2.11  55 2.12  63 2.12  64 2.13  57 2.13  61 2.14
  30  1.000  0.750  0.550-  63 2.11  64 2.11  47 2.12  56 2.12  58 2.13  62 2.15
  31  0.750  0.751  0.648-  63 2.10  53 2.11  62 2.11  46 2.12  61 2.13
  32  0.997  0.500  0.648-  61 2.07  45 2.09  64 2.10  54 2.12  62 2.13
  33  0.250  0.000  0.450-   1 2.12   3 2.12   4 2.12  11 2.12  20 2.12   5 2.12
  34  0.500  0.250  0.450-   2 2.12   3 2.12   4 2.12  12 2.12  19 2.12   6 2.14
  35  0.250  0.250  0.351-   3 2.12   2 2.12   1 2.12   9 2.12  18 2.12
  36  0.500  0.000  0.351-   4 2.12   2 2.12   1 2.12  10 2.12  17 2.12
  37  0.250  1.000  0.650-  15 2.09   7 2.09  24 2.12   8 2.13   5 2.15
  38  0.500  0.248  0.650-   8 2.10   6 2.11   7 2.12  23 2.12  16 2.13
  39  0.250  0.251  0.550-   7 2.10  13 2.11  22 2.11   5 2.12   6 2.12   3 2.13
  40  0.500  1.000  0.549-   8 2.10   5 2.11   4 2.11  21 2.12  14 2.12   6 2.13
  41  0.250  0.500  0.450-   9 2.12   3 2.12  11 2.12  12 2.12  28 2.12  13 2.13
  42  0.500  0.750  0.450-  10 2.12   4 2.12  11 2.12  12 2.12  27 2.12  14 2.14
  43  0.250  0.750  0.351-  11 2.12   9 2.12  10 2.12   1 2.12  26 2.12
  44  0.500  0.500  0.351-  12 2.12   9 2.12  10 2.12   2 2.12  25 2.12
  45  0.244  0.500  0.653-  32 2.09  15 2.14   7 2.15  13 2.19  16 2.23
  46  0.500  0.752  0.650-   8 2.11  15 2.12  31 2.12  14 2.13  16 2.14
  47  0.250  0.749  0.550-  15 2.08  13 2.11  30 2.12  14 2.12  11 2.12   5 2.12
  48  0.499  0.500  0.551-  13 2.10  14 2.11   6 2.11  29 2.11  12 2.14  16 2.21
  49  0.750  0.000  0.450-  17 2.12   4 2.12  19 2.12  20 2.12  27 2.12  21 2.12
  50  0.000  0.250  0.450-  18 2.12   3 2.12  19 2.12  20 2.12  28 2.12  22 2.13
  51  0.750  0.250  0.351-  19 2.12  17 2.12  18 2.12   2 2.12  25 2.12
  52  0.000  0.000  0.351-  20 2.12  17 2.12  18 2.12   1 2.12  26 2.12
  53  0.750  1.000  0.651-  31 2.11  23 2.11  24 2.11   8 2.12  21 2.15
  54  1.000  0.249  0.651-  24 2.11  23 2.12   7 2.12  32 2.12  22 2.15
  55  0.750  0.250  0.550-  23 2.11  22 2.11  29 2.12  21 2.12   6 2.12  19 2.12
  56  0.000  1.000  0.550-  24 2.11   5 2.12  30 2.12  20 2.12  22 2.12  21 2.12
  57  0.750  0.500  0.450-  25 2.12  19 2.12  12 2.12  27 2.12  28 2.12  29 2.13
  58  0.000  0.750  0.450-  26 2.12  20 2.12  11 2.12  27 2.12  28 2.12  30 2.13
  59  0.750  0.750  0.351-  27 2.12  17 2.12  25 2.12  26 2.12  10 2.12
  60  0.000  0.500  0.351-  28 2.12  18 2.12  25 2.12  26 2.12   9 2.12
  61  0.752  0.500  0.651-  16 2.07  32 2.07  31 2.13  23 2.13  29 2.14
  62  1.000  0.751  0.651-  24 2.11  15 2.11  31 2.11  32 2.13  30 2.15
  63  0.750  0.750  0.550-  31 2.10  30 2.11  29 2.12  14 2.12  21 2.12  27 2.12
  64  0.001  0.500  0.550-  32 2.10  30 2.11  22 2.12  13 2.12  28 2.12  29 2.13

IMPORTANT INFORMATION: All symmetrisations will be switched off!
NOSYMM: (Re-)initialisation of all symmetry stuff for point group C_1.

                                     Primitive cell

  volume of cell :    1530.6606

  direct lattice vectors                    reciprocal lattice vectors
     8.467142631  0.000000000  0.000000000     0.118103597  0.000000000  0.000000000
     0.000000000  8.467142631  0.000000000     0.000000000  0.118103597  0.000000000
     0.000000000  0.000000000 21.350356973     0.000000000  0.000000000  0.046837624

  length of vectors
     8.467142631  8.467142631 21.350356973     0.118103597  0.118103597  0.046837624

  position of ions in fractional coordinates (direct lattice)
     0.250000000  0.000000000  0.351282183
     0.500000000  0.250000000  0.351282183
     0.250000000  0.250000000  0.450427394
     0.500000000  0.000000000  0.450427394
     0.250264722  0.000179902  0.549793077
     0.500125687  0.251070989  0.550545488
     0.250105550  0.247113388  0.648190854
     0.500497328  0.000424513  0.647948916
     0.250000000  0.500000000  0.351282183
     0.500000000  0.750000000  0.351282183
     0.250000000  0.750000000  0.450427394
     0.500000000  0.500000000  0.450427394
     0.251073756  0.499797192  0.550386800
     0.500184536  0.748846880  0.550541270
     0.249373373  0.752914129  0.647432335
     0.507533811  0.499240675  0.654115664
     0.750000000  0.000000000  0.351282183
     0.000000000  0.250000000  0.351282183
     0.750000000  0.250000000  0.450427394
     0.000000000  0.000000000  0.450427394
     0.749721423  0.000079796  0.549874252
     0.999836035  0.250139509  0.550088970
     0.749927135  0.248820074  0.648371929
     0.999422222  0.000106480  0.648224466
     0.750000000  0.500000000  0.351282183
     0.000000000  0.750000000  0.351282183
     0.750000000  0.750000000  0.450427394
     0.000000000  0.500000000  0.450427394
     0.749038345  0.499877441  0.550310009
     0.999712248  0.749776244  0.549993980
     0.750328273  0.751114337  0.648133803
     0.997197931  0.499753937  0.648253977
     0.250000000  0.000000000  0.450427394
     0.500000000  0.250000000  0.450427394
     0.250000000  0.250000000  0.351282183
     0.500000000  0.000000000  0.351282183
     0.249585705  0.999794051  0.650415851
     0.499887771  0.248315324  0.649562701
     0.249595584  0.250675159  0.549964277
     0.499770397  0.999748500  0.549441756
     0.250000000  0.500000000  0.450427394
     0.500000000  0.750000000  0.450427394
     0.250000000  0.750000000  0.351282183
     0.500000000  0.500000000  0.351282183
     0.243975175  0.500270639  0.653110089
     0.499755896  0.751671263  0.650354349
     0.249695542  0.749285646  0.549878961
     0.499469303  0.500158711  0.550804860
     0.750000000  0.000000000  0.450427394
     0.000000000  0.250000000  0.450427394
     0.750000000  0.250000000  0.351282183
     0.000000000  0.000000000  0.351282183
     0.750210766  0.999854473  0.650517997
     0.999885828  0.249221872  0.650631400
     0.750373023  0.250089999  0.549693431
     0.000178120  0.999903798  0.549631109
     0.750000000  0.500000000  0.450427394
     0.000000000  0.750000000  0.450427394
     0.750000000  0.750000000  0.351282183
     0.000000000  0.500000000  0.351282183
     0.752251552  0.500164108  0.650715413
     0.999902752  0.750713033  0.650595717
     0.750214129  0.749860014  0.549714451
     0.000506868  0.500023536  0.549879667

  ion indices of the primitive-cell ions
   primitive index   ion index
                 1           1
                 2           2
                 3           3
                 4           4
                 5           5
                 6           6
                 7           7
                 8           8
                 9           9
                10          10
                11          11
                12          12
                13          13
                14          14
                15          15
                16          16
                17          17
                18          18
                19          19
                20          20
                21          21
                22          22
                23          23
                24          24
                25          25
                26          26
                27          27
                28          28
                29          29
                30          30
                31          31
                32          32
                33          33
                34          34
                35          35
                36          36
                37          37
                38          38
                39          39
                40          40
                41          41
                42          42
                43          43
                44          44
[...]
   0.50000000  0.75000000  0.45042739
   0.25000000  0.75000000  0.35128218
   0.50000000  0.50000000  0.35128218
   0.24397518  0.50027064  0.65311009
   0.49975590  0.75167126  0.65035435
   0.24969554  0.74928565  0.54987896
   0.49946930  0.50015871  0.55080486
   0.75000000  0.00000000  0.45042739
   0.00000000  0.25000000  0.45042739
   0.75000000  0.25000000  0.35128218
   0.00000000  0.00000000  0.35128218
   0.75021077  0.99985447  0.65051800
   0.99988583  0.24922187  0.65063140
   0.75037302  0.25009000  0.54969343
   0.00017812  0.99990380  0.54963111
   0.75000000  0.50000000  0.45042739
   0.00000000  0.75000000  0.45042739
   0.75000000  0.75000000  0.35128218
   0.00000000  0.50000000  0.35128218
   0.75225155  0.50016411  0.65071541
   0.99990275  0.75071303  0.65059572
   0.75021413  0.74986001  0.54971445
   0.00050687  0.50002354  0.54987967

 position of ions in cartesian coordinates  (Angst):
   2.11678566  0.00000000  7.50000000
   4.23357132  2.11678566  7.50000000
   2.11678566  2.11678566  9.61678566
   4.23357132  0.00000000  9.61678566
   2.11902709  0.00152326 11.73827846
   4.23463553  2.12585387 11.75434271
   2.11767937  2.09234430 13.83910613
   4.23778226  0.00359441 13.83394065
   2.11678566  4.23357132  7.50000000
   4.23357132  6.35035697  7.50000000
   2.11678566  6.35035697  9.61678566
   4.23357132  4.23357132  9.61678566
   2.12587730  4.23185411 11.75095466
   4.23513381  6.34059334 11.75425265
   2.11147992  6.37503132 13.82291147
   4.29736117  4.22714201 13.96560293
   6.35035697  0.00000000  7.50000000
   0.00000000  2.11678566  7.50000000
   6.35035697  2.11678566  9.61678566
   0.00000000  0.00000000  9.61678566
   6.34799822  0.00067564 11.74001158
   8.46575431  2.11796690 11.74459587
   6.34974001  2.10679505 13.84297213
   8.46225050  0.00090158 13.83982375
   6.35035697  4.23357132  7.50000000
   0.00000000  6.35035697  7.50000000
   6.35035697  6.35035697  9.61678566
   0.00000000  4.23357132  9.61678566
   6.34221450  4.23253359 11.74931515
   8.46470620  6.34846240 11.74256780
   6.35313650  6.35979222 13.83788806
   8.44341711  4.23148787 13.84045382
   2.11678566  0.00000000  9.61678566
   4.23357132  2.11678566  9.61678566
   2.11678566  2.11678566  7.50000000
   4.23357132  0.00000000  7.50000000
   2.11327776  8.46539883 13.88661060
   4.23262106  2.10252127 13.86839554
   2.11336141  2.12250233 11.74193363
   4.23162724  8.46501314 11.73077763
   2.11678566  4.23357132  9.61678566
   4.23357132  6.35035697  9.61678566
   2.11678566  6.35035697  7.50000000
   4.23357132  4.23357132  7.50000000
   2.06577261  4.23586285 13.94413354
   4.23150445  6.36450779 13.88529751
   2.11420777  6.34430844 11.74011212
   4.22907783  4.23491515 11.75988039
   6.35035697  0.00000000  9.61678566
   0.00000000  2.11678566  9.61678566
   6.35035697  2.11678566  7.50000000
   0.00000000  0.00000000  7.50000000
   6.35214156  8.46591043 13.88879145
   8.46617592  2.11019714 13.89121264
   6.35351541  2.11754769 11.73615097
   0.00150816  8.46632807 11.73482039
   6.35035697  4.23357132  9.61678566
   0.00000000  6.35035697  9.61678566
   6.35035697  6.35035697  7.50000000
   0.00000000  4.23357132  7.50000000
   6.36942118  4.23496084 13.89300636
   8.46631922  6.35639432 13.89045080
   6.35217003  6.34917169 11.73659977
   0.00429172  4.23377060 11.74012718

--------------------------------------- Iteration      FINAL  ---------------------------------------

--------------------OUTCAR has been truncated-------------------------

[...]

--------------------OUTCAR has been truncated-------------------------

  DFT-D2 method for vdW energy calculation

  Parameters of vdW forcefield:
         C6(Jnm^6/mol)     R0(A)
   Mg       0.630          1.243
   O        0.700          1.342

  vdW correction parametrized for the method åÉü      

  IVDW =   1
  VDW_RADIUS =    50.000 A
  VDW_S6 =     1.050
  VDW_SR =     1.000
  VDW_D =    20.000
  LVDW_EWALD = F

  Number of pair interactions contributing to vdW energy:  719208
  Edisp (eV):   -5.01352

 VOLUME and BASIS-vectors are now :
  energy-cutoff  :      600.00
  volume of cell :     1530.66
      direct lattice vectors                 reciprocal lattice vectors
     8.467142631  0.000000000  0.000000000     0.118103597  0.000000000  0.000000000
     0.000000000  8.467142631  0.000000000     0.000000000  0.118103597  0.000000000
     0.000000000  0.000000000 21.350356973     0.000000000  0.000000000  0.046837624

  length of vectors
     8.467142631  8.467142631 21.350356973     0.118103597  0.118103597  0.046837624

 FORCES acting on ions:
    Electron-Ion                     Ewald-Force                    Non-Local-Force
   -.216E+00 -.117E-01 0.205E+04   0.218E+00 0.116E-01 -.205E+04   -.105E-02 0.926E-05 -.636E+01
   0.139E+00 -.406E+00 0.205E+04   -.142E+00 0.414E+00 -.204E+04   0.163E-02 -.603E-02 -.638E+01
   -.129E+01 -.162E+01 0.678E+03   0.129E+01 0.172E+01 -.679E+03   -.389E-03 -.597E-01 0.464E+00
   0.352E+00 -.605E-01 0.681E+03   -.351E+00 0.400E-01 -.681E+03   -.940E-03 0.135E-01 0.307E+00
   -.727E+00 0.304E-01 -.678E+03   0.695E+00 0.484E-02 0.678E+03   -.285E-02 -.378E-01 -.523E-01
   0.263E+01 -.530E+01 -.685E+03   -.274E+01 0.577E+01 0.686E+03   0.535E-01 -.383E+00 -.580E+00
   -.393E+01 -.139E+02 -.203E+04   0.335E+01 0.141E+02 0.203E+04   0.378E+00 0.121E+00 0.542E+01
   0.194E+01 0.173E+01 -.203E+04   -.182E+01 -.191E+01 0.203E+04   -.134E+00 0.784E-01 0.544E+01
   -.302E+00 0.119E-01 0.205E+04   0.307E+00 -.119E-01 -.204E+04   -.367E-02 0.110E-04 -.640E+01
   0.134E+00 0.405E+00 0.205E+04   -.137E+00 -.414E+00 -.205E+04   0.144E-02 0.617E-02 -.639E+01
   -.135E+01 0.161E+01 0.679E+03   0.137E+01 -.170E+01 -.679E+03   -.155E-01 0.600E-01 0.439E+00
   0.670E+00 0.464E-01 0.674E+03   -.719E+00 -.303E-01 -.675E+03   0.321E-01 -.109E-01 0.634E+00
   -.605E+01 -.644E-01 -.700E+03   0.624E+01 0.343E-01 0.700E+03   -.193E+00 0.346E-01 -.725E-01
   0.255E+01 0.536E+01 -.689E+03   -.262E+01 -.582E+01 0.689E+03   0.236E-01 0.379E+00 -.449E+00
   -.642E+01 0.140E+02 -.203E+04   0.595E+01 -.142E+02 0.202E+04   0.367E+00 -.106E+00 0.525E+01
   0.289E+02 -.236E+01 -.208E+04   -.284E+02 0.251E+01 0.207E+04   -.116E+01 -.355E-01 0.628E+01
   0.216E+00 -.691E-02 0.205E+04   -.218E+00 0.648E-02 -.205E+04   0.110E-02 0.269E-03 -.636E+01
   -.139E+00 -.321E+00 0.205E+04   0.141E+00 0.327E+00 -.205E+04   -.158E-02 -.339E-02 -.638E+01
   0.127E+01 -.141E+01 0.680E+03   -.127E+01 0.143E+01 -.681E+03   0.144E-02 -.180E-01 0.432E+00
   -.367E+00 -.108E+00 0.681E+03   0.364E+00 0.113E+00 -.682E+03   0.188E-02 -.337E-02 0.357E+00
   0.726E+00 0.174E+00 -.680E+03   -.693E+00 -.175E+00 0.680E+03   -.206E-02 -.759E-02 -.289E-01
   -.210E+01 -.201E+01 -.682E+03   0.220E+01 0.213E+01 0.683E+03   -.460E-01 -.906E-01 -.267E+00
   0.127E+01 -.213E+01 -.204E+04   -.614E+00 0.134E+01 0.203E+04   -.432E+00 0.627E+00 0.564E+01
   -.153E+01 0.923E-01 -.204E+04   0.143E+01 -.107E+00 0.203E+04   0.108E+00 -.193E-02 0.540E+01
   0.301E+00 0.698E-02 0.205E+04   -.306E+00 -.662E-02 -.205E+04   0.361E-02 -.215E-03 -.637E+01
   -.134E+00 0.321E+00 0.205E+04   0.136E+00 -.326E+00 -.205E+04   -.127E-02 0.352E-02 -.638E+01
   0.133E+01 0.140E+01 0.680E+03   -.136E+01 -.143E+01 -.681E+03   0.187E-01 0.189E-01 0.435E+00
   -.637E+00 0.109E+00 0.679E+03   0.688E+00 -.118E+00 -.679E+03   -.329E-01 0.556E-02 0.369E+00
   0.373E+01 -.162E+00 -.684E+03   -.394E+01 0.166E+00 0.684E+03   0.205E+00 0.531E-02 0.140E-01
   -.193E+01 0.201E+01 -.681E+03   0.199E+01 -.213E+01 0.681E+03   -.161E-01 0.896E-01 -.257E+00
   0.322E+01 0.209E+01 -.203E+04   -.269E+01 -.133E+01 0.203E+04   -.388E+00 -.598E+00 0.554E+01
   -.707E+01 -.220E+00 -.203E+04   0.832E+01 0.233E+00 0.203E+04   -.742E+00 0.917E-02 0.506E+01
   -.490E+00 -.118E-01 0.510E+03   0.493E+00 0.167E-02 -.510E+03   -.525E-02 0.116E-01 0.393E-02
   0.552E+00 -.140E+01 0.507E+03   -.559E+00 0.135E+01 -.507E+03   0.753E-02 0.655E-01 -.146E+00
   -.197E+00 -.282E+00 0.154E+04   0.198E+00 0.293E+00 -.155E+04   -.174E-02 -.137E-01 0.313E+01
   0.850E-01 -.539E-02 0.154E+04   -.851E-01 0.359E-02 -.155E+04   0.588E-04 0.225E-02 0.313E+01
   -.135E+01 0.201E-01 -.155E+04   0.127E+01 -.106E+00 0.155E+04   0.133E+00 0.117E+00 -.476E+01
   0.482E+01 -.721E+01 -.154E+04   -.529E+01 0.725E+01 0.154E+04   0.530E+00 0.111E+00 -.372E+01
   -.206E+01 -.404E+01 -.508E+03   0.201E+01 0.416E+01 0.508E+03   0.849E-01 -.177E+00 0.382E+00
   0.400E+00 0.267E+00 -.501E+03   -.418E+00 -.295E+00 0.501E+03   0.363E-01 0.445E-01 0.550E+00
   -.102E+01 0.148E-01 0.507E+03   0.961E+00 -.412E-02 -.507E+03   0.756E-01 -.124E-01 -.179E+00
   0.525E+00 0.140E+01 0.507E+03   -.537E+00 -.134E+01 -.507E+03   0.125E-01 -.717E-01 -.173E+00
   -.203E+00 0.282E+00 0.154E+04   0.207E+00 -.293E+00 -.155E+04   -.506E-02 0.137E-01 0.313E+01
   0.110E+00 0.559E-02 0.154E+04   -.116E+00 -.363E-02 -.154E+04   0.794E-02 -.246E-02 0.312E+01
   -.184E+02 -.988E-01 -.156E+04   0.188E+02 0.214E+00 0.156E+04   0.102E+00 -.149E+00 -.478E+01
   0.494E+01 0.771E+01 -.154E+04   -.546E+01 -.779E+01 0.155E+04   0.584E+00 -.670E-01 -.411E+01
   -.260E+01 0.406E+01 -.506E+03   0.257E+01 -.418E+01 0.505E+03   0.535E-01 0.180E+00 0.544E+00
   0.447E+01 -.294E+00 -.530E+03   -.472E+01 0.314E+00 0.531E+03   0.308E+00 -.356E-01 -.772E+00
   0.496E+00 0.105E-01 0.511E+03   -.498E+00 -.137E-01 -.511E+03   0.349E-02 0.344E-02 -.166E-01
   -.543E+00 -.920E+00 0.510E+03   0.553E+00 0.933E+00 -.510E+03   -.994E-02 -.156E-01 -.107E+00
   0.197E+00 -.258E+00 0.154E+04   -.198E+00 0.263E+00 -.155E+04   0.168E-02 -.569E-02 0.314E+01
   -.851E-01 -.116E-01 0.154E+04   0.852E-01 0.123E-01 -.155E+04   -.103E-03 -.983E-03 0.314E+01
   0.103E+01 0.185E+00 -.155E+04   -.925E+00 -.266E+00 0.155E+04   -.152E+00 0.104E+00 -.468E+01
   -.265E+01 -.221E+01 -.155E+04   0.311E+01 0.265E+01 0.155E+04   -.526E+00 -.469E+00 -.479E+01
   0.168E+01 -.163E+01 -.504E+03   -.164E+01 0.161E+01 0.504E+03   -.766E-01 0.295E-01 0.489E+00
   -.426E+00 -.147E+00 -.504E+03   0.456E+00 0.132E+00 0.504E+03   -.462E-01 0.204E-01 0.279E+00
   0.101E+01 -.118E-01 0.508E+03   -.946E+00 0.167E-01 -.508E+03   -.720E-01 -.553E-02 -.839E-01
   -.522E+00 0.908E+00 0.510E+03   0.540E+00 -.916E+00 -.510E+03   -.200E-01 0.102E-01 -.859E-01
   0.203E+00 0.258E+00 0.154E+04   -.207E+00 -.262E+00 -.155E+04   0.482E-02 0.565E-02 0.313E+01
   -.109E+00 0.120E-01 0.154E+04   0.116E+00 -.127E-01 -.155E+04   -.783E-02 0.811E-03 0.313E+01
   0.824E+00 -.192E+00 -.154E+04   -.250E-01 0.283E+00 0.155E+04   -.936E+00 -.119E+00 -.384E+01
   -.231E+01 0.236E+01 -.155E+04   0.274E+01 -.283E+01 0.156E+04   -.517E+00 0.496E+00 -.491E+01
   0.217E+01 0.162E+01 -.504E+03   -.215E+01 -.159E+01 0.504E+03   -.451E-01 -.298E-01 0.513E+00
   -.271E+01 0.167E+00 -.506E+03   0.297E+01 -.160E+00 0.506E+03   -.337E+00 -.123E-01 0.312E+00
   0.304E+01 -.129E+00 0.163E+02   -.245E-12 0.383E-13 -.114E-11   -.279E+01 0.118E+00 -.143E+02

 POSITION                                       TOTAL-FORCE (eV/Angst)
      2.11679      0.00000      7.50000         0.000457     -0.000058      0.506433
      4.23357      2.11679      7.50000        -0.000698      0.002201      0.512133
      2.11679      2.11679      9.61679         0.001672      0.024496      0.036823
      4.23357      0.00000      9.61679         0.000603     -0.005319      0.027199
      2.11903      0.00152     11.73828        -0.032358     -0.005595     -0.033988
      4.23464      2.12585     11.75434        -0.042554      0.042843     -0.108286
      2.11768      2.09234     13.83911        -0.150598      0.350547     -0.022462
      4.23778      0.00359     13.83394        -0.023345     -0.087787     -0.063125
      2.11679      4.23357      7.50000         0.001175      0.000063      0.517476
      4.23357      6.35036      7.50000        -0.000650     -0.002238      0.514685
      2.11679      6.35036      9.61679         0.007583     -0.024582      0.039783
      4.23357      4.23357      9.61679        -0.013023      0.003922      0.053582
      2.12588      4.23185     11.75095        -0.025238      0.007095      0.212373
      4.23513      6.34059     11.75425        -0.040255     -0.039640     -0.050868
      2.11148      6.37503     13.82291        -0.058380     -0.360010      0.131549
      4.29736      4.22714     13.96560        -0.689370      0.103418     -0.839845
      6.35036      0.00000      7.50000        -0.000442     -0.000119      0.508069
      0.00000      2.11679      7.50000         0.000714      0.001488      0.512470
      6.35036      2.11679      9.61679        -0.002414      0.008065      0.012826
      0.00000      0.00000      9.61679        -0.000803      0.001342      0.021269
      6.34800      0.00068     11.74001         0.028681     -0.008872     -0.039854
      8.46575      2.11797     11.74460         0.041325      0.021719      0.003478
      6.34974      2.10680     13.84297         0.169199     -0.101575     -0.167267
      8.46225      0.00090     13.83982         0.018761     -0.015199     -0.068627
      6.35036      4.23357      7.50000        -0.001146      0.000130      0.509487
      0.00000      6.35036      7.50000         0.000624     -0.001507      0.511252
      6.35036      6.35036      9.61679        -0.009557     -0.008412      0.015106
      0.00000      4.23357      9.61679         0.014197     -0.002638      0.060873
      6.34221      4.23253     11.74932         0.016823      0.008796     -0.106869
      8.46471      6.34846     11.74257         0.038540     -0.019877      0.011848
      6.35314      6.35979     13.83789         0.094363      0.096781     -0.099093
      8.44342      4.23149     13.84045         0.407059      0.021401      0.042298
      2.11679      0.00000      9.61679        -0.003079      0.003117      0.047406
      4.23357      2.11679      9.61679         0.001209      0.020018      0.072301
      2.11679      2.11679      7.50000        -0.000578     -0.004589     -0.393207
      4.23357      0.00000      7.50000         0.000021      0.000763     -0.391865
      2.11328      8.46540     13.88661         0.070834      0.048629     -0.142197
      4.23262      2.10252     13.86840         0.138184      0.173168      0.219273
      2.11336      2.12250     11.74193         0.046900     -0.088775     -0.026056
      4.23163      8.46501     11.73078         0.022943      0.022973      0.086143
      2.11679      4.23357      9.61679         0.022240     -0.003406      0.044859
      4.23357      6.35036      9.61679         0.002741     -0.021946      0.061884
      2.11679      6.35036      7.50000        -0.001694      0.004611     -0.393365
      4.23357      4.23357      7.50000         0.002672     -0.000826     -0.395784
      2.06577      4.23586     13.94413         0.543846     -0.055213     -0.289878
      4.23150      6.36451     13.88530         0.149681     -0.172919      0.062705
      2.11421      6.34431     11.74011         0.032721      0.088824     -0.040453
      4.22908      4.23492     11.75988         0.109740     -0.021203     -0.010406
      6.35036      0.00000      9.61679         0.002406      0.000676      0.047089
      0.00000      2.11679      9.61679        -0.001811     -0.004742      0.038353
      6.35036      2.11679      7.50000         0.000585     -0.001904     -0.391776
      0.00000      0.00000      7.50000        -0.000019     -0.000324     -0.390967
      6.35214      8.46591     13.88879        -0.069322      0.037731     -0.127906
      8.46618      2.11020     13.89121        -0.146863     -0.088236     -0.155500
      6.35352      2.11755     11.73615        -0.046356      0.004540      0.068942
      0.00151      8.46633     11.73482        -0.022904      0.008368      0.005316
      6.35036      4.23357      9.61679        -0.021580     -0.001302      0.070530
      0.00000      6.35036      9.61679        -0.004835      0.003222      0.036145
      6.35036      6.35036      7.50000         0.001630      0.001899     -0.392031
      0.00000      4.23357      7.50000        -0.002602      0.000276     -0.393895
      6.36942      4.23496     13.89301        -0.267189     -0.045393      0.081304
      8.46632      6.35639     13.89045        -0.155345      0.091760     -0.186795
      6.35217      6.34917     11.73660        -0.031424     -0.003956      0.050172
      0.00429      4.23377     11.74013        -0.123696     -0.006719     -0.031068
    total drift:                               -0.000880     -0.000589      0.019749

  FREE ENERGIE OF THE ION-ELECTRON SYSTEM (eV)
  free  energy   TOTEN  =      -438.07160719 eV

  energy  without entropy=     -438.07160719  energy(sigma->0) =     -438.07160719