 vasp.6.3.0 20Jan22 (build Aug 21 2024 11:13:42) complex
 executed on        HPECrayEX_GCC date 2024.08.27  13:25:41

 INCAR:
   SYSTEM = MgO-rocksalt
   ISMEAR = 0
   SIGMA = 0.05
   EDIFF = 1E-6
   ALGO = ALL
   ISTART = 0
   IBRION = -1
   NSW = 0
   ISYM = 0
   DIPOL = 0.5 0.5 0.5
   IDIPOL = 3
   LDIPOL = .TRUE.
   GGA = RE
   IVDW = 13
   VDW_S8 = 1.7468
   VDW_A1 = 0.5363
   VDW_A2 = 3.0726
   ENCUT = 600
   PREC = Accurate
   LASPH = .TRUE.
   LREAL = .FALSE.
   ISPIN = 1
   NELM = 200
   NELMIN = 8
   NCORE = 8
   KPAR = 1
   LWAVE = .FALSE.
   LCHARG = .FALSE.

 POTCAR:    PAW_PBE C 08Apr2002
 POTCAR:    PAW_PBE H 15Jun2001
 POTCAR:    PAW_PBE Mg_pv 13Apr2007
 POTCAR:    PAW_PBE O 08Apr2002
 POTCAR:    PAW_PBE C 08Apr2002
   VRHFIN =C: s2p2

   TITEL  = PAW_PBE C 08Apr2002
   POMASS =   12.011; ZVAL   =    4.000    mass and valenz
   ENMAX  =  400.000; ENMIN  =  300.000 eV

   TITEL  = PAW_PBE H 15Jun2001
   POMASS =    1.000; ZVAL   =    1.000    mass and valenz
   ENMAX  =  250.000; ENMIN  =  200.000 eV

   TITEL  = PAW_PBE Mg_pv 13Apr2007
   POMASS =   24.305; ZVAL   =    8.000    mass and valenz
   ENMAX  =  403.929; ENMIN  =  302.947 eV

   TITEL  = PAW_PBE O 08Apr2002
   POMASS =   16.000; ZVAL   =    6.000    mass and valenz
   ENMAX  =  400.000; ENMIN  =  300.000 eV

  PAW_PBE C 08Apr2002                   :
  PAW_PBE H 15Jun2001                   :
  PAW_PBE Mg_pv 13Apr2007               :
  PAW_PBE O 08Apr2002                   :

 POSCAR:  C  H Mg  O
  positions in direct lattice
|           W    W    AA    RRRRR   N    N  II  N    N   GGGG   !!!           |
|           W    W   A  A   R    R  NN   N  II  NN   N  G    G  !!!           |
|           W    W  A    A  R    R  N N  N  II  N N  N  G       !!!           |
|           W WW W  AAAAAA  RRRRR   N  N N  II  N  N N  G  GGG   !            |
|           WW  WW  A    A  R   R   N   NN  II  N   NN  G    G                |
|           W    W  A    A  R    R  N    N  II  N    N   GGGG   !!!           |
|     Specifying the vdW parameters                                           |
|     VDW_S8 = 1.747                                                          |
|     VDW_A1 = 0.536                                                          |
|     VDW_A2 = 3.073                                                          |
|     in the INCAR file will overwrite the defaults for revpbe. Please        |
|     make sure that is what you intended.                                    |

 ion  position               nearest neighbor table
   1  0.500  0.500  0.796-   5 1.10   6 1.10   8 1.10   7 1.10
   2  1.000  0.500  0.796-   9 1.10  10 1.10  12 1.10  11 1.10
   3  0.500  1.000  0.796-  13 1.10  14 1.10  16 1.10  15 1.10
   4  1.000  0.000  0.796-  17 1.10  18 1.10  20 1.10  19 1.10
   5  0.500  0.606  0.825-   1 1.10
   6  0.500  0.394  0.825-   1 1.10
   7  0.607  0.500  0.766-   1 1.10
   8  0.393  0.500  0.766-   1 1.10
   9  0.894  0.500  0.825-   2 1.10
  10  0.106  0.500  0.825-   2 1.10
  11  1.000  0.607  0.766-   2 1.10
  12  1.000  0.393  0.766-   2 1.10
  13  0.394  1.000  0.825-   3 1.10
  14  0.606  1.000  0.825-   3 1.10
  15  0.500  0.107  0.766-   3 1.10
  16  0.500  0.893  0.766-   3 1.10
  17  1.000  0.106  0.825-   4 1.10
  18  1.000  0.894  0.825-   4 1.10
  19  0.107  1.000  0.766-   4 1.10
  20  0.893  1.000  0.766-   4 1.10
  21  0.000  0.750  0.352-  53 2.11  55 2.11  56 2.11  63 2.11  72 2.11
  22  0.250  0.000  0.352-  54 2.11  55 2.11  56 2.11  64 2.11  71 2.11
  23  0.000  0.000  0.451-  55 2.11  54 2.11  53 2.11  61 2.11  70 2.11  59 2.12
  24  0.250  0.750  0.451-  56 2.11  54 2.11  53 2.11  62 2.11  69 2.11  60 2.12
  25  0.000  0.750  0.550-  60 2.11  76 2.11  59 2.11  67 2.11  53 2.13  57 2.15
  26  0.250  1.000  0.550-  75 2.11  59 2.11  60 2.11  68 2.11  54 2.13  58 2.15
  27  0.000  1.000  0.649-  57 2.11  65 2.11  58 2.11  74 2.11  59 2.11
  28  0.250  0.750  0.649-  60 2.10  57 2.11  58 2.11  66 2.11  73 2.11
  29  0.000  0.250  0.352-  61 2.11  55 2.11  63 2.11  64 2.11  80 2.11
  30  0.250  0.500  0.352-  62 2.11  56 2.11  63 2.11  64 2.11  79 2.11
  31  0.000  0.500  0.451-  63 2.11  61 2.11  62 2.11  53 2.11  78 2.11  67 2.12
  32  0.250  0.250  0.451-  64 2.11  61 2.11  62 2.11  54 2.11  77 2.11  68 2.12
  33  1.000  0.250  0.550-  84 2.11  68 2.11  59 2.11  67 2.11  61 2.13  65 2.15
  34  0.250  0.500  0.550-  83 2.11  68 2.11  60 2.11  67 2.11  62 2.13  66 2.15
  35  0.000  0.500  0.649-  66 2.11  82 2.11  57 2.11  65 2.11  67 2.11
  36  0.250  0.250  0.649-  68 2.10  65 2.11  58 2.11  66 2.11  81 2.11
  37  0.500  0.750  0.352-  69 2.11  56 2.11  71 2.11  72 2.11  79 2.11
  38  0.750  0.000  0.352-  70 2.11  55 2.11  71 2.11  72 2.11  80 2.11
  39  0.500  0.000  0.451-  71 2.11  69 2.11  70 2.11  54 2.11  77 2.11  75 2.12
  40  0.750  0.750  0.451-  72 2.11  69 2.11  70 2.11  53 2.11  78 2.11  76 2.12
  41  0.500  0.750  0.550-  83 2.11  60 2.11  76 2.11  75 2.11  69 2.13  73 2.15
  42  0.750  1.000  0.550-  75 2.11  59 2.11  76 2.11  84 2.11  70 2.13  74 2.15
  43  0.500  1.000  0.649-  74 2.11  58 2.11  81 2.11  73 2.11  75 2.11
  44  0.750  0.750  0.649-  76 2.10  57 2.11  74 2.11  82 2.11  73 2.11
  45  0.500  0.250  0.352-  77 2.11  71 2.11  64 2.11  79 2.11  80 2.11
  46  0.750  0.500  0.352-  78 2.11  72 2.11  63 2.11  79 2.11  80 2.11
  47  0.500  0.500  0.451-  79 2.11  69 2.11  77 2.11  78 2.11  62 2.11  83 2.12
  48  0.750  0.250  0.451-  80 2.11  70 2.11  77 2.11  78 2.11  61 2.11  84 2.12
  49  0.500  0.250  0.550-  83 2.11  84 2.11  68 2.11  75 2.11  77 2.13  81 2.15
  50  0.750  0.500  0.550-  83 2.11  76 2.11  84 2.11  67 2.11  78 2.13  82 2.15
  51  0.500  0.500  0.649-  81 2.11  73 2.11  82 2.11  66 2.11  83 2.12
  52  0.750  0.250  0.649-  84 2.10  65 2.11  74 2.11  82 2.11  81 2.11
  53  0.000  0.750  0.451-  21 2.11  23 2.11  24 2.11  31 2.11  40 2.11  25 2.13
  54  0.250  0.000  0.451-  22 2.11  23 2.11  24 2.11  32 2.11  39 2.11  26 2.13
  55  0.000  0.000  0.352-  23 2.11  22 2.11  21 2.11  29 2.11  38 2.11
  56  0.250  0.750  0.352-  24 2.11  22 2.11  21 2.11  30 2.11  37 2.11
  57  0.000  0.750  0.651-  27 2.11  28 2.11  44 2.11  35 2.11  25 2.15
  58  0.250  1.000  0.651-  43 2.11  28 2.11  36 2.11  27 2.11  26 2.15
  59  0.000  1.000  0.550-  33 2.11  25 2.11  42 2.11  26 2.11  27 2.11  23 2.12
  60  0.250  0.750  0.550-  28 2.10  25 2.11  34 2.11  26 2.11  41 2.11  24 2.12
[...]
  70  0.750  0.000  0.451-  38 2.11  23 2.11  39 2.11  40 2.11  48 2.11  42 2.13
  71  0.500  0.000  0.352-  39 2.11  37 2.11  38 2.11  22 2.11  45 2.11
  72  0.750  0.750  0.352-  40 2.11  37 2.11  38 2.11  21 2.11  46 2.11
  73  0.500  0.750  0.651-  51 2.11  43 2.11  44 2.11  28 2.11  41 2.15
  74  0.750  1.000  0.651-  43 2.11  52 2.11  44 2.11  27 2.11  42 2.15
  75  0.500  1.000  0.550-  42 2.11  26 2.11  49 2.11  41 2.11  43 2.11  39 2.12
  76  0.750  0.750  0.550-  44 2.10  25 2.11  50 2.11  42 2.11  41 2.11  40 2.12
  77  0.500  0.250  0.451-  45 2.11  39 2.11  32 2.11  47 2.11  48 2.11  49 2.13
  78  0.750  0.500  0.451-  46 2.11  40 2.11  31 2.11  47 2.11  48 2.11  50 2.13
  79  0.500  0.500  0.352-  47 2.11  37 2.11  45 2.11  46 2.11  30 2.11
  80  0.750  0.250  0.352-  48 2.11  38 2.11  45 2.11  46 2.11  29 2.11
  81  0.500  0.250  0.651-  51 2.11  43 2.11  52 2.11  36 2.11  49 2.15
  82  0.750  0.500  0.651-  51 2.11  35 2.11  52 2.11  44 2.11  50 2.15
  83  0.500  0.500  0.550-  34 2.11  50 2.11  49 2.11  41 2.11  51 2.12  47 2.12
  84  0.750  0.250  0.550-  52 2.10  33 2.11  50 2.11  42 2.11  49 2.11  48 2.12

IMPORTANT INFORMATION: All symmetrisations will be switched off!
NOSYMM: (Re-)initialisation of all symmetry stuff for point group C_1.

                                     Primitive cell

  volume of cell :    1519.8199

  direct lattice vectors                    reciprocal lattice vectors
     8.440984654  0.000000000  0.000000000     0.118469591  0.000000000  0.000000000
     0.000000000  8.440984654  0.000000000     0.000000000  0.118469591  0.000000000
     0.000000000  0.000000000 21.330738491     0.000000000  0.000000000  0.046880702

  length of vectors
     8.440984654  8.440984654 21.330738491     0.118469591  0.118469591  0.046880702

  position of ions in fractional coordinates (direct lattice)
     0.499999938  0.500002092  0.795802507
     0.999996304  0.499998354  0.795809954
     0.499996329  0.999998350  0.795811239
     0.999999930  0.000002115  0.795809530
     0.499999986  0.606438729  0.825284404
     0.499999977  0.393559557  0.825284808
     0.606994358  0.499999897  0.766457821
     0.393005654  0.499999900  0.766457819
     0.893560893  0.499998379  0.825298307
     0.106437702  0.499998376  0.825298723
     0.999998530  0.606951264  0.766444525
     0.999998528  0.393045574  0.766444487
     0.393552364  0.999998378  0.825295765
     0.606446215  0.999998373  0.825296179
     0.499998534  0.106952617  0.766444558
     0.499998526  0.893044214  0.766444518
     0.999999986  0.106443515  0.825294164
     0.999999974  0.893554751  0.825294568
     0.106965590  0.999999892  0.766448613
     0.893034404  0.999999906  0.766448612
     0.000000000  0.750000000  0.351605267
     0.250000000  0.000000000  0.351605267
     0.000000000  0.000000000  0.450535089
     0.250000000  0.750000000  0.450535089
     0.000000032  0.750000308  0.550157654
     0.250001804  0.999999985  0.550156830
     0.000000025  0.999999965  0.649044687
     0.249949639  0.750019913  0.648553984
     0.000000000  0.250000000  0.351605267
     0.250000000  0.500000000  0.351605267
     0.000000000  0.500000000  0.450535089
     0.250000000  0.250000000  0.450535089
     0.999999999  0.249999656  0.550157653
     0.250064324  0.499999978  0.550190700
     0.000000039  0.499999976  0.649021210
     0.249949646  0.249980067  0.648553964
     0.500000000  0.750000000  0.351605267
     0.750000000  0.000000000  0.351605267
     0.500000000  0.000000000  0.450535089
     0.750000000  0.750000000  0.450535089
     0.500000024  0.749952785  0.550165678
     0.749998232  0.999999984  0.550156825
     0.500000028  0.999999995  0.648979984
     0.750050384  0.750019928  0.648553979
     0.500000000  0.250000000  0.351605267
     0.750000000  0.500000000  0.351605267
     0.500000000  0.500000000  0.450535089
     0.750000000  0.250000000  0.450535089
     0.500000019  0.250047199  0.550165663
     0.749935743  0.499999993  0.550190720
     0.500000026  0.499999955  0.649075882
     0.750050382  0.249980033  0.648553973
     0.000000000  0.750000000  0.450535089
     0.250000000  0.000000000  0.450535089
     0.000000000  0.000000000  0.351605267
     0.250000000  0.750000000  0.351605267
     0.000000028  0.750053908  0.650888780
     0.250061307  0.999999979  0.650913268
     0.000000014  0.999999991  0.549896427
     0.249990992  0.749996648  0.549890507
[...]
     0.750000000  0.000000000  0.450535089
     0.500000000  0.000000000  0.351605267
     0.750000000  0.750000000  0.351605267
     0.500000019  0.749946102  0.650910523
     0.749938711  0.999999990  0.650913287
     0.500000024  0.999999994  0.549886279
     0.750009067  0.749996662  0.549890515
[...]
   0.00000000  0.00000000  7.50000000
   2.11024616  6.33073849  7.50000000
   0.00000023  6.33119353 13.88393835
   2.11076366  8.44098447 13.88446070
   0.00000011  8.44098458 11.72969688
   2.11017013  6.33071020 11.72957061
[...]
   6.33073849  0.00000000  9.61024616
   4.22049233  0.00000000  7.50000000
   6.33073849  6.33073849  7.50000000
   4.22049249  6.33028353 13.88440214
   6.33022115  8.44098457 13.88446110
   4.22049253  8.44098461 11.72948042
   6.33081503  6.33071032 11.72957078
   4.22049233  2.11024616  9.61024616
   6.33073849  4.22049233  9.61024616
   4.22049233  4.22049233  7.50000000
   6.33073849  2.11024616  7.50000000
   4.22049258  2.11070073 13.88440225
   6.33059982  4.22049205 13.88539837
   4.22049251  4.22049226 11.73025500
   6.33081481  2.11027413 11.72957072

--------------------------------------- Iteration      FINAL  ---------------------------------------

--------------------OUTCAR has been truncated-------------------------

[...]

--------------------OUTCAR has been truncated-------------------------

  FORCE on cell =-STRESS in cart. coord.  units (eV):
  Direction    XX          YY          ZZ          XY          YZ          ZX
  Alpha Z   976.03246   976.03246   976.03246
  Ewald  151768.94090151768.73641************     0.00000     0.00473    -0.00474
  Hartree162391.55018162391.40429************    -0.00000     0.00018    -0.00021
  E(xc)   -2575.89451 -2575.89517 -2583.07396     0.00000    -0.00000     0.00000
  Local  ************************323858.50649     0.00000    -0.00324     0.00329
  n-local -2857.01700 -2857.01824 -2878.07230     0.00000    -0.00015     0.00014
  augment  1047.14200  1047.14187  1037.69881     0.00000    -0.00002     0.00002
  Kinetic  7717.00125  7717.01692  7756.88938    -0.00000    -0.00017     0.00021
  Fock        0.00000     0.00000     0.00000     0.00000     0.00000     0.00000
  vdW       -22.97251   -22.97231   -18.90120     0.00000     0.00000    -0.00000
  Total     -26.69772   -26.68970    -1.94791     0.00000     0.00134    -0.00129
  in kB     -28.14444   -28.13599    -2.05347     0.00000     0.00142    -0.00136

 VOLUME and BASIS-vectors are now :
  energy-cutoff  :      600.00
  volume of cell :     1519.82
      direct lattice vectors                 reciprocal lattice vectors
     8.440984654  0.000000000  0.000000000     0.118469591  0.000000000  0.000000000
     0.000000000  8.440984654  0.000000000     0.000000000  0.118469591  0.000000000
     0.000000000  0.000000000 21.330738491     0.000000000  0.000000000  0.046880702

  length of vectors
     8.440984654  8.440984654 21.330738491     0.118469591  0.118469591  0.046880702

 FORCES acting on ions:
    Electron-Ion                     Ewald-Force                    Non-Local-Force
   0.338E-03 0.126E-02 -.931E+03   -.329E-03 -.178E-02 0.932E+03   0.194E-04 -.792E-03 0.447E-01
   -.126E-02 -.344E-03 -.931E+03   0.179E-02 0.332E-03 0.932E+03   0.806E-03 0.213E-04 0.408E-01
   -.124E-02 -.348E-03 -.931E+03   0.176E-02 0.335E-03 0.931E+03   0.799E-03 0.241E-04 0.436E-01
   0.330E-03 0.126E-02 -.931E+03   -.321E-03 -.178E-02 0.932E+03   0.186E-04 -.800E-03 0.394E-01
   0.345E-04 -.375E+02 -.237E+03   -.338E-04 0.420E+02 0.240E+03   -.212E-05 -.452E+01 -.315E+01
   0.380E-04 0.375E+02 -.237E+03   -.378E-04 -.420E+02 0.240E+03   -.193E-05 0.452E+01 -.315E+01
   -.377E+02 0.784E-03 -.229E+03   0.422E+02 -.833E-03 0.226E+03   -.458E+01 0.111E-03 0.308E+01
   0.377E+02 0.784E-03 -.229E+03   -.422E+02 -.833E-03 0.226E+03   0.458E+01 0.111E-03 0.308E+01
   0.375E+02 -.568E-04 -.237E+03   -.420E+02 0.576E-04 0.240E+03   0.452E+01 -.142E-05 -.315E+01
   -.375E+02 -.555E-04 -.237E+03   0.420E+02 0.560E-04 0.240E+03   -.452E+01 -.134E-05 -.315E+01
   -.785E-03 -.376E+02 -.229E+03   0.835E-03 0.422E+02 0.226E+03   -.113E-03 -.458E+01 0.308E+01
   -.786E-03 0.376E+02 -.229E+03   0.836E-03 -.422E+02 0.226E+03   -.113E-03 0.458E+01 0.308E+01
   0.375E+02 -.589E-04 -.237E+03   -.420E+02 0.597E-04 0.240E+03   0.452E+01 -.159E-05 -.315E+01
   -.375E+02 -.566E-04 -.237E+03   0.420E+02 0.573E-04 0.240E+03   -.452E+01 -.122E-05 -.315E+01
   -.775E-03 -.376E+02 -.229E+03   0.825E-03 0.422E+02 0.226E+03   -.112E-03 -.458E+01 0.308E+01
   -.774E-03 0.376E+02 -.229E+03   0.823E-03 -.422E+02 0.226E+03   -.111E-03 0.458E+01 0.308E+01
   0.298E-04 -.375E+02 -.237E+03   -.287E-04 0.420E+02 0.240E+03   -.251E-05 -.452E+01 -.315E+01
   0.343E-04 0.375E+02 -.237E+03   -.341E-04 -.420E+02 0.240E+03   -.225E-05 0.452E+01 -.315E+01
   -.376E+02 0.791E-03 -.229E+03   0.422E+02 -.840E-03 0.226E+03   -.458E+01 0.113E-03 0.308E+01
   0.376E+02 0.788E-03 -.229E+03   -.422E+02 -.836E-03 0.226E+03   0.458E+01 0.112E-03 0.308E+01
   0.109E-05 0.121E-01 0.210E+04   -.240E-05 -.123E-01 -.210E+04   -.299E-05 0.112E-03 -.716E+01
   -.843E-03 0.510E-05 0.210E+04   0.674E-03 -.341E-05 -.210E+04   0.120E-03 0.552E-05 -.716E+01
   -.398E-05 0.177E-04 0.784E+03   0.247E-05 -.146E-04 -.784E+03   -.160E-05 0.718E-05 0.515E+00
   -.453E-03 0.466E-01 0.784E+03   -.402E-03 -.491E-01 -.784E+03   0.633E-03 0.172E-02 0.540E+00
   -.484E-05 0.783E-01 -.525E+03   0.199E-05 -.789E-01 0.525E+03   0.504E-05 0.461E-04 -.246E+00
   -.124E-02 0.247E-04 -.525E+03   -.621E-03 -.212E-04 0.525E+03   0.939E-03 -.407E-05 -.241E+00
   0.182E-03 0.287E-03 -.181E+04   -.172E-03 -.271E-03 0.180E+04   -.116E-04 -.126E-04 0.607E+01
   -.983E-01 0.914E-02 -.183E+04   0.103E+00 -.619E-02 0.182E+04   0.131E-02 -.396E-02 0.631E+01
   0.222E-05 -.121E-01 0.210E+04   -.180E-05 0.123E-01 -.210E+04   0.447E-05 -.112E-03 -.716E+01
   0.330E-02 -.311E-05 0.210E+04   -.318E-02 0.353E-05 -.210E+04   -.102E-03 -.495E-06 -.716E+01
   0.142E-04 -.188E-04 0.784E+03   -.151E-04 0.155E-04 -.784E+03   0.194E-05 0.437E-05 0.517E+00
   -.440E-03 -.466E-01 0.784E+03   -.416E-03 0.491E-01 -.784E+03   0.631E-03 -.172E-02 0.540E+00
   -.552E-04 -.783E-01 -.525E+03   0.504E-04 0.789E-01 0.525E+03   -.162E-05 -.467E-04 -.246E+00
   0.191E+00 -.405E-04 -.525E+03   -.188E+00 0.409E-04 0.525E+03   -.768E-02 0.169E-05 -.243E+00
   -.379E-03 -.290E-03 -.181E+04   0.368E-03 0.284E-03 0.180E+04   0.479E-05 0.279E-05 0.607E+01
   -.988E-01 -.911E-02 -.183E+04   0.104E+00 0.616E-02 0.182E+04   0.132E-02 0.396E-02 0.631E+01
   -.483E-05 0.802E-02 0.210E+04   0.254E-05 -.846E-02 -.210E+04   -.789E-06 0.333E-03 -.716E+01
   0.845E-03 0.320E-05 0.210E+04   -.674E-03 -.392E-05 -.210E+04   -.122E-03 -.116E-05 -.716E+01
   0.308E-05 0.255E-04 0.784E+03   -.355E-05 -.223E-04 -.784E+03   -.285E-05 0.196E-06 0.512E+00
   0.461E-03 0.466E-01 0.784E+03   0.395E-03 -.491E-01 -.784E+03   -.633E-03 0.173E-02 0.540E+00
   -.192E-04 -.102E+00 -.525E+03   0.136E-04 0.988E-01 0.525E+03   0.463E-05 0.705E-02 -.252E+00
   0.123E-02 0.371E-04 -.525E+03   0.627E-03 -.340E-04 0.525E+03   -.935E-03 0.396E-05 -.241E+00
   -.342E-03 -.241E-03 -.181E+04   0.333E-03 0.240E-03 0.180E+04   0.202E-05 0.329E-07 0.606E+01
   0.984E-01 0.869E-02 -.183E+04   -.103E+00 -.575E-02 0.182E+04   -.131E-02 -.395E-02 0.631E+01
   -.721E-06 -.802E-02 0.210E+04   0.216E-05 0.846E-02 -.210E+04   0.164E-06 -.330E-03 -.716E+01
   -.330E-02 -.717E-05 0.210E+04   0.318E-02 0.392E-05 -.210E+04   0.972E-04 0.113E-05 -.716E+01
   -.244E-04 -.237E-04 0.784E+03   0.266E-04 0.239E-04 -.784E+03   -.173E-05 -.513E-06 0.527E+00
   0.454E-03 -.466E-01 0.784E+03   0.405E-03 0.491E-01 -.784E+03   -.629E-03 -.173E-02 0.540E+00
   0.979E-05 0.102E+00 -.525E+03   -.704E-05 -.989E-01 0.525E+03   -.873E-06 -.704E-02 -.252E+00
   -.190E+00 -.340E-04 -.525E+03   0.188E+00 0.326E-04 0.525E+03   0.768E-02 0.875E-06 -.243E+00
   0.215E-03 0.228E-03 -.181E+04   -.202E-03 -.220E-03 0.180E+04   -.906E-05 -.290E-05 0.606E+01
   0.989E-01 -.867E-02 -.183E+04   -.104E+00 0.573E-02 0.182E+04   -.131E-02 0.395E-02 0.631E+01
   0.128E-04 0.418E-01 0.587E+03   -.116E-04 -.422E-01 -.587E+03   -.778E-07 0.500E-03 -.103E+00
   -.401E-02 0.624E-05 0.587E+03   0.411E-02 -.777E-05 -.587E+03   -.154E-03 -.127E-06 -.102E+00
   0.223E-07 -.375E-06 0.158E+04   -.533E-06 -.241E-05 -.158E+04   0.124E-05 0.223E-05 0.341E+01
   0.534E-03 0.778E-02 0.158E+04   -.640E-03 -.809E-02 -.158E+04   0.160E-03 0.440E-03 0.341E+01
   -.280E-04 -.368E+00 -.139E+04   0.231E-04 0.391E+00 0.139E+04   0.436E-05 -.245E-01 -.494E+01
   -.457E+00 -.347E-04 -.139E+04   0.489E+00 0.405E-04 0.139E+04   -.361E-01 -.453E-05 -.495E+01
   0.886E-05 0.631E-04 -.389E+03   -.299E-05 -.547E-04 0.388E+03   -.404E-05 -.415E-05 0.188E+00
   -.125E-01 0.236E-01 -.388E+03   0.117E-01 -.211E-01 0.388E+03   0.200E-02 -.313E-02 0.333E+00
[...]
   -.316E-05 0.410E-05 0.158E+04   0.629E-06 -.330E-05 -.158E+04   0.218E-06 -.764E-06 0.341E+01
   -.527E-03 0.778E-02 0.158E+04   0.639E-03 -.809E-02 -.158E+04   -.159E-03 0.442E-03 0.341E+01
   -.496E-04 0.311E+00 -.139E+04   0.443E-04 -.337E+00 0.139E+04   0.514E-05 0.291E-01 -.496E+01
   0.457E+00 0.373E-04 -.139E+04   -.489E+00 -.314E-04 0.139E+04   0.361E-01 -.525E-05 -.495E+01
   -.441E-05 0.121E-04 -.388E+03   0.275E-05 -.446E-05 0.388E+03   0.243E-05 -.854E-07 0.205E+00
   0.125E-01 0.236E-01 -.388E+03   -.117E-01 -.211E-01 0.388E+03   -.201E-02 -.313E-02 0.333E+00
   -.907E-05 -.126E-01 0.587E+03   0.484E-05 0.977E-02 -.587E+03   0.222E-05 0.378E-02 -.102E+00
   -.279E-01 -.957E-05 0.587E+03   0.316E-01 0.136E-04 -.587E+03   -.463E-02 -.167E-05 -.108E+00
   -.273E-05 0.539E-06 0.158E+04   0.300E-05 0.334E-05 -.158E+04   -.122E-05 0.380E-06 0.341E+01
   -.530E-03 -.778E-02 0.158E+04   0.640E-03 0.810E-02 -.158E+04   -.158E-03 -.439E-03 0.341E+01
   -.824E-05 -.311E+00 -.139E+04   0.354E-05 0.337E+00 0.139E+04   0.174E-05 -.291E-01 -.496E+01
   -.593E+00 -.548E-04 -.139E+04   0.615E+00 0.524E-04 0.139E+04   -.149E-01 -.307E-05 -.497E+01
   -.124E-04 -.149E-05 -.389E+03   0.188E-04 0.121E-04 0.389E+03   -.651E-05 -.520E-05 0.180E+00
   0.126E-01 -.236E-01 -.388E+03   -.117E-01 0.211E-01 0.388E+03   -.201E-02 0.313E-02 0.333E+00
   -.218E-02 0.215E-02 0.171E+02   -.412E-12 0.284E-12 0.523E-11   0.219E-02 -.208E-02 -.171E+02

 POSITION                                       TOTAL-FORCE (eV/Angst)
      4.22049      4.22051     16.97506         0.000029     -0.001301     -0.002577
      8.44095      4.22048     16.97521         0.001323      0.000008     -0.002180
      4.22046      8.44097     16.97524         0.001311      0.000009     -0.003565
      8.44098      0.00002     16.97520         0.000028     -0.001315     -0.003336
      4.22049      5.11894     17.60393        -0.000002     -0.003480     -0.000155
      4.22049      3.32203     17.60393        -0.000002      0.004655     -0.000888
      5.12363      4.22049     16.34911        -0.006058      0.000061      0.003978
      3.31735      4.22049     16.34911         0.006034      0.000061      0.003965
      7.54253      4.22048     17.60422         0.004736     -0.000002     -0.002985
      0.89844      4.22048     17.60423        -0.005931     -0.000002     -0.003729
      8.44097      5.12327     16.34883        -0.000063     -0.002745      0.006600
      8.44097      3.31769     16.34883        -0.000063      0.002737      0.006591
      3.32197      8.44097     17.60417         0.005589     -0.000002     -0.002331
      5.11900      8.44097     17.60418        -0.006771     -0.000001     -0.003066
      4.22048      0.90279     16.34883        -0.000062     -0.003620      0.006588
      4.22048      7.53817     16.34883        -0.000062      0.003611      0.006579
      8.44098      0.89849     17.60413        -0.000001     -0.005129     -0.002267
      8.44098      7.54248     17.60414        -0.000002      0.006314     -0.003007
      0.90289      8.44098     16.34891        -0.003792      0.000062      0.006324
      7.53809      8.44098     16.34891         0.003767      0.000063      0.006311
      0.00000      6.33074      7.50000        -0.000005     -0.000037      0.337245
      2.11025      0.00000      7.50000        -0.000036      0.000006      0.337149
      0.00000      0.00000      9.61025        -0.000003      0.000010      0.082234
      2.11025      6.33074      9.61025        -0.000219     -0.000714      0.077356
      0.00000      6.33074     11.73527         0.000002     -0.000544     -0.000636
      2.11026      8.44098     11.73525        -0.000923     -0.000001      0.000766
      0.00000      8.44098     13.84460        -0.000001      0.000003     -0.002130
      2.10982      6.33091     13.83414         0.005993     -0.000957     -0.004092
      0.00000      2.11025      7.50000         0.000005      0.000037      0.337241
      2.11025      4.22049      7.50000         0.000007     -0.000001      0.337337
      0.00000      4.22049      9.61025         0.000001      0.000000      0.084264
      2.11025      2.11025      9.61025        -0.000222      0.000713      0.077358
      8.44098      2.11024     11.73527        -0.000007      0.000542     -0.000632
      2.11079      4.22049     11.73597        -0.005047      0.000001     -0.002888
      0.00000      4.22049     13.84410        -0.000007     -0.000005      0.003711
      2.10982      2.11008     13.83413         0.005992      0.000957     -0.004099
      4.22049      6.33074      7.50000        -0.000003     -0.000110      0.337110
      6.33074      0.00000      7.50000         0.000035     -0.000003      0.337148
      4.22049      0.00000      9.61025        -0.000004      0.000003      0.082503
      6.33074      6.33074      9.61025         0.000221     -0.000710      0.077353
      4.22049      6.33034     11.73544        -0.000001      0.003628      0.001681
      6.33072      8.44098     11.73525         0.000925      0.000006      0.000766
      4.22049      8.44098     13.84322        -0.000007     -0.000002      0.009189
      6.33116      6.33091     13.83414        -0.005991     -0.000961     -0.004097
      4.22049      2.11025      7.50000         0.000001      0.000111      0.337113
      6.33074      4.22049      7.50000        -0.000010     -0.000003      0.337337
      4.22049      4.22049      9.61025         0.000000     -0.000001      0.081672
      6.33074      2.11025      9.61025         0.000227      0.000708      0.077360
      4.22049      2.11064     11.73544         0.000002     -0.003632      0.001675
      6.33020      4.22049     11.73597         0.005052     -0.000001     -0.002879
      4.22049      4.22049     13.84527         0.000005      0.000005      0.002038
      6.33116      2.11008     13.83414        -0.005988      0.000960     -0.004100
      0.00000      6.33074      9.61025         0.000001      0.000092      0.081186
      2.11025      0.00000      9.61025        -0.000053     -0.000003      0.081343
      0.00000      0.00000      7.50000         0.000001     -0.000001     -0.499807
      2.11025      6.33074      7.50000         0.000054      0.000128     -0.499451
      0.00000      6.33119     13.88394        -0.000001     -0.001015      0.004556
      2.11076      8.44098     13.88446        -0.003565      0.000000      0.000123
      0.00000      8.44098     11.72970         0.000002      0.000004      0.003334
      2.11017      6.33071     11.72957         0.001189     -0.000646     -0.004729
[...]
      6.33074      0.00000      9.61025         0.000050      0.000002      0.081339
      4.22049      0.00000      7.50000        -0.000002     -0.000001     -0.499696
      6.33074      6.33074      7.50000        -0.000047      0.000128     -0.499446
      4.22049      6.33028     13.88440        -0.000001      0.002530     -0.000316
      6.33022      8.44098     13.88446         0.003565     -0.000000      0.000128
      4.22049      8.44098     11.72948         0.000001      0.000007      0.003361
      6.33082      6.33071     11.72957        -0.001181     -0.000643     -0.004725
      4.22049      2.11025      9.61025        -0.000002      0.000924      0.082233
      6.33074      4.22049      9.61025        -0.001028      0.000001      0.083080
      4.22049      4.22049      7.50000        -0.000001      0.000003     -0.499900
      6.33074      2.11025      7.50000        -0.000048     -0.000130     -0.499448
      4.22049      2.11070     13.88440        -0.000003     -0.002527     -0.000312
      6.33060      4.22049     13.88540         0.007529     -0.000006     -0.003365
      4.22049      4.22049     11.73026        -0.000000      0.000005     -0.001137
      6.33081      2.11027     11.72957        -0.001190      0.000646     -0.004723
    total drift:                                0.000015      0.000071      0.003500

  FREE ENERGIE OF THE ION-ELECTRON SYSTEM (eV)
  free  energy   TOTEN  =      -468.70440357 eV

  energy  without entropy=     -468.70440357  energy(sigma->0) =     -468.70440357