 vasp.6.3.0 20Jan22 (build Apr  1 2022 16:44:48) complex
 executed on        HPECrayEX_GCC date 2023.01.23  22:21:16

 INCAR:
   SYSTEM = MgO-rocksalt
   ISMEAR = 0
   SIGMA = 0.05
   EDIFF = 1E-8
   ALGO = ALL
   ISTART = 0
   IBRION = 5
   POTIM = 0.01
   NFREE = 2
   ISYM = 0
   DIPOL = 0.5 0.5 0.5
   IDIPOL = 3
   LDIPOL = .TRUE.
   GGA = PE
   IVDW = 1
   VDW_C6 = 1.23 0.70 0.63 0.70
   VDW_R0 = 1.397 1.342 1.243 1.342
   ENCUT = 600
   PREC = Accurate
   LASPH = .TRUE.
   LREAL = .FALSE.
   ISPIN = 2
   MAGMOM = 1.0 0.0 0.0 0.0 0.0 0.0 0.0 0.0 0.0 0.0 0.0 0.0 0.0 0.0 0.0 0.0 0.0 0.0 0.0 0.0 0.0 0.0 0.0 0.0 0.0 0.0 0.0 0.0 0.0 0.0 0.0 0.0 0.0 0.0 0.0 0.0 0.0 0.0 0.0 0.0 0.0 0.0 0.0 0.0 0.0 0.0 0.0 0.0 0.0 0.0 0.0 0.0 0.0 0.0 0.0 0.0 0.0 0.0 0.0 0.0 0.0 0.0 0.0 0.0 0.0 0.0
   NELM = 200
   NELMIN = 8
   NCORE = 8
   KPAR = 1
   LWAVE = .FALSE.
   LCHARG = .FALSE.

 POTCAR:    PAW_PBE N 08Apr2002
 POTCAR:    PAW_PBE O 08Apr2002
 POTCAR:    PAW_PBE Mg_pv 13Apr2007
 POTCAR:    PAW_PBE O 08Apr2002
 POTCAR:    PAW_PBE N 08Apr2002
   VRHFIN =N: s2p3

   TITEL  = PAW_PBE N 08Apr2002
   POMASS =   14.001; ZVAL   =    5.000    mass and valenz
   ENMAX  =  400.000; ENMIN  =  300.000 eV

[...]

   TITEL  = PAW_PBE Mg_pv 13Apr2007
   POMASS =   24.305; ZVAL   =    8.000    mass and valenz
   ENMAX  =  403.929; ENMIN  =  302.947 eV

   TITEL  = PAW_PBE O 08Apr2002
   POMASS =   16.000; ZVAL   =    6.000    mass and valenz
   ENMAX  =  400.000; ENMIN  =  300.000 eV

  PAW_PBE N 08Apr2002                   :
  PAW_PBE O 08Apr2002                   :
  PAW_PBE Mg_pv 13Apr2007               :
  PAW_PBE O 08Apr2002                   :

 POSCAR:  N  O Mg  O
  positions in direct lattice
 exchange correlation table for  LEXCH =        8
   RHO(1)=    0.500       N(1)  =     2000
   RHO(2)=  100.500       N(2)  =     4000

 ion  position               nearest neighbor table
   1  0.639  0.476  0.749-   2 1.18
   2  0.696  0.565  0.785-   1 1.18
   3  0.250  0.000  0.351-  35 2.12  37 2.12  38 2.12  45 2.12  54 2.12
   4  0.500  0.250  0.351-  36 2.12  37 2.12  38 2.12  46 2.12  53 2.12
   5  0.250  0.250  0.450-  37 2.12  36 2.12  35 2.12  43 2.12  52 2.12  41 2.12
   6  0.500  0.000  0.450-  38 2.12  36 2.12  35 2.12  44 2.12  51 2.12  42 2.12
   7  0.250  0.000  0.550-  42 2.12  41 2.12  49 2.12  58 2.12  35 2.13  39 2.15
   8  0.500  0.250  0.550-  50 2.12  40 2.12  57 2.12  41 2.12  42 2.12  36 2.14
   9  0.250  0.249  0.648-  41 2.11  40 2.11  39 2.11  56 2.12  47 2.12
  10  0.499  0.000  0.648-  40 2.11  42 2.11  48 2.11  39 2.12  55 2.12
  11  0.250  0.500  0.351-  43 2.12  37 2.12  45 2.12  46 2.12  62 2.12
  12  0.500  0.750  0.351-  44 2.12  38 2.12  45 2.12  46 2.12  61 2.12
  13  0.250  0.750  0.450-  45 2.12  43 2.12  44 2.12  35 2.12  60 2.12  49 2.12
  14  0.500  0.500  0.450-  46 2.12  43 2.12  44 2.12  36 2.12  59 2.12  50 2.13
  15  0.251  0.500  0.550-  50 2.12  41 2.12  49 2.12  66 2.13  43 2.13  47 2.15
  16  0.500  0.750  0.550-  50 2.11  49 2.12  42 2.12  65 2.12  48 2.13  44 2.13
  17  0.250  0.751  0.649-  49 2.11  39 2.11  48 2.12  64 2.12  47 2.12
  18  0.497  0.500  0.651-  47 2.10  40 2.12  48 2.13  50 2.15  63 2.16
  19  0.750  0.000  0.351-  51 2.12  38 2.12  53 2.12  54 2.12  61 2.12
  20  0.000  0.250  0.351-  52 2.12  37 2.12  53 2.12  54 2.12  62 2.12
  21  0.750  0.250  0.450-  53 2.12  51 2.12  52 2.12  36 2.12  59 2.12  57 2.13
  22  0.000  0.000  0.450-  54 2.12  51 2.12  52 2.12  35 2.12  60 2.12  58 2.12
  23  0.750  0.000  0.550-  42 2.12  58 2.12  57 2.12  65 2.12  51 2.13  55 2.15
  24  1.000  0.250  0.550-  57 2.11  41 2.11  66 2.12  58 2.12  52 2.13  56 2.15
  25  0.749  0.248  0.649-  55 2.10  40 2.11  57 2.12  56 2.12  63 2.14
  26  0.000  0.000  0.649-  58 2.11  39 2.11  56 2.12  64 2.12  55 2.12
  27  0.750  0.500  0.351-  59 2.12  53 2.12  46 2.12  61 2.12  62 2.12
  28  0.000  0.750  0.351-  60 2.12  54 2.12  45 2.12  61 2.12  62 2.12
  29  0.750  0.750  0.450-  61 2.12  51 2.12  59 2.12  60 2.12  44 2.12  65 2.12
  30  0.000  0.500  0.450-  62 2.12  52 2.12  59 2.12  60 2.12  43 2.12  66 2.13
  31  0.749  0.500  0.550-  50 2.11  57 2.11  65 2.11  59 2.12  66 2.12  63 2.17
  32  0.000  0.750  0.550-  49 2.11  65 2.12  58 2.12  66 2.12  60 2.13  64 2.15
  33  0.750  0.753  0.648-  55 2.09  65 2.10  48 2.11  64 2.12  63 2.14
  34  0.003  0.500  0.649-  47 2.09  66 2.11  56 2.12  64 2.12  63 2.12
  35  0.250  0.000  0.450-   3 2.12   5 2.12   6 2.12  13 2.12  22 2.12   7 2.13
  36  0.500  0.250  0.450-   4 2.12   5 2.12   6 2.12  14 2.12  21 2.12   8 2.14
  37  0.250  0.250  0.351-   5 2.12   4 2.12   3 2.12  11 2.12  20 2.12
  38  0.500  0.000  0.351-   6 2.12   4 2.12   3 2.12  12 2.12  19 2.12
  39  0.250  1.000  0.651-  26 2.11  17 2.11   9 2.11  10 2.12   7 2.15
  40  0.500  0.249  0.650-  10 2.11   9 2.11  25 2.11   8 2.12  18 2.12
  41  0.249  0.250  0.550-   9 2.11  24 2.11  15 2.12   7 2.12   5 2.12   8 2.12
  42  0.500  1.000  0.550-  10 2.11  23 2.12   7 2.12   6 2.12  16 2.12   8 2.12
  43  0.250  0.500  0.450-  11 2.12   5 2.12  13 2.12  14 2.12  30 2.12  15 2.13
  44  0.500  0.750  0.450-  12 2.12   6 2.12  13 2.12  14 2.12  29 2.12  16 2.13
  45  0.250  0.750  0.351-  13 2.12  11 2.12  12 2.12   3 2.12  28 2.12
  46  0.500  0.500  0.351-  14 2.12  11 2.12  12 2.12   4 2.12  27 2.12
  47  0.250  0.500  0.651-  34 2.09  18 2.10  17 2.12   9 2.12  15 2.15
  48  0.500  0.751  0.650-  10 2.11  33 2.11  17 2.12  18 2.13  16 2.13
  49  0.250  0.750  0.550-  17 2.11  32 2.11  15 2.12  16 2.12   7 2.12  13 2.12
  50  0.500  0.500  0.550-  31 2.11  16 2.11   8 2.12  15 2.12  14 2.13  18 2.15
  51  0.750  0.000  0.450-  19 2.12   6 2.12  21 2.12  22 2.12  29 2.12  23 2.13
  52  0.000  0.250  0.450-  20 2.12   5 2.12  21 2.12  22 2.12  30 2.12  24 2.13
  53  0.750  0.250  0.351-  21 2.12  19 2.12  20 2.12   4 2.12  27 2.12
  54  0.000  0.000  0.351-  22 2.12  19 2.12  20 2.12   3 2.12  28 2.12
  55  0.750  0.000  0.651-  33 2.09  25 2.10  26 2.12  10 2.12  23 2.15
  56  1.000  0.250  0.651-  34 2.12  26 2.12  25 2.12   9 2.12  24 2.15
  57  0.750  0.251  0.550-  31 2.11  24 2.11  25 2.12  23 2.12   8 2.12  21 2.13
  58  1.000  0.000  0.550-  26 2.11  23 2.12  32 2.12  24 2.12   7 2.12  22 2.12
  59  0.750  0.500  0.450-  27 2.12  21 2.12  14 2.12  29 2.12  30 2.12  31 2.12
  60  0.000  0.750  0.450-  28 2.12  22 2.12  13 2.12  29 2.12  30 2.12  32 2.13
  61  0.750  0.750  0.351-  29 2.12  19 2.12  27 2.12  28 2.12  12 2.12
  62  0.000  0.500  0.351-  30 2.12  20 2.12  27 2.12  28 2.12  11 2.12
  63  0.752  0.501  0.651-  34 2.12  33 2.14  25 2.14  18 2.16  31 2.17
  64  1.000  0.750  0.651-  33 2.12  34 2.12  26 2.12  17 2.12  32 2.15
  65  0.750  0.750  0.550-  33 2.10  31 2.11  32 2.12  16 2.12  23 2.12  29 2.12
  66  0.999  0.500  0.550-  34 2.11  32 2.12  24 2.12  31 2.12  30 2.13  15 2.13

IMPORTANT INFORMATION: All symmetrisations will be switched off!
NOSYMM: (Re-)initialisation of all symmetry stuff for point group C_1.

                                     Primitive cell

  volume of cell :    1530.6606

  direct lattice vectors                    reciprocal lattice vectors
     8.467142631  0.000000000  0.000000000     0.118103597  0.000000000  0.000000000
     0.000000000  8.467142631  0.000000000     0.000000000  0.118103597  0.000000000
     0.000000000  0.000000000 21.350356973     0.000000000  0.000000000  0.046837624

  length of vectors
     8.467142631  8.467142631 21.350356973     0.118103597  0.118103597  0.046837624

  position of ions in fractional coordinates (direct lattice)
     0.638783318  0.476312711  0.749003969
     0.696084108  0.564777778  0.785379425
     0.250000000  0.000000000  0.351282183
     0.500000000  0.250000000  0.351282183
     0.250000000  0.250000000  0.450427394
     0.500000000  0.000000000  0.450427394
     0.249994189  0.000038498  0.550059457
     0.499865849  0.250274561  0.550426333
     0.250200922  0.249318378  0.648444818
     0.499451013  0.000153556  0.648347845
     0.250000000  0.500000000  0.351282183
     0.500000000  0.750000000  0.351282183
     0.250000000  0.750000000  0.450427394
     0.500000000  0.500000000  0.450427394
     0.250591829  0.499964044  0.550233449
     0.499842153  0.749572464  0.550412346
     0.250217814  0.750664754  0.648550983
     0.497292694  0.499644168  0.650901730
     0.750000000  0.000000000  0.351282183
     0.000000000  0.250000000  0.351282183
     0.750000000  0.250000000  0.450427394
     0.000000000  0.000000000  0.450427394
     0.749830653  0.000389041  0.550051103
     0.999750651  0.250046750  0.550330319
     0.749326459  0.248144603  0.649194989
     0.000377422  0.000206028  0.648631861
     0.750000000  0.500000000  0.351282183
     0.000000000  0.750000000  0.351282183
     0.750000000  0.750000000  0.450427394
     0.000000000  0.500000000  0.450427394
     0.749102685  0.499782279  0.549595095
     0.000014203  0.750046886  0.550262855
     0.749899213  0.753072152  0.648345012
     0.002912781  0.500038454  0.648626054
     0.250000000  0.000000000  0.450427394
     0.500000000  0.250000000  0.450427394
     0.250000000  0.250000000  0.351282183
     0.500000000  0.000000000  0.351282183
     0.249589783  0.999893872  0.650590383
     0.499571575  0.248824605  0.649635837
     0.249457448  0.250113299  0.549734442
     0.499983270  0.999742144  0.549595394
     0.250000000  0.500000000  0.450427394
     0.500000000  0.750000000  0.450427394
     0.250000000  0.750000000  0.351282183
     0.500000000  0.500000000  0.351282183
     0.249643718  0.500040756  0.650765042
     0.500317876  0.750649009  0.650343184
     0.249709261  0.749868087  0.549803576
     0.500427758  0.500084999  0.550242721
     0.750000000  0.000000000  0.450427394
     0.000000000  0.250000000  0.450427394
     0.750000000  0.250000000  0.351282183
     0.000000000  0.000000000  0.351282183
     0.750115623  0.000226859  0.650583810
     0.999774688  0.250221488  0.650878515
     0.750120547  0.250595458  0.550011592
     0.999802353  0.000018231  0.549797969
     0.750000000  0.500000000  0.450427394
     0.000000000  0.750000000  0.450427394
     0.750000000  0.750000000  0.351282183
     0.000000000  0.500000000  0.351282183
     0.752377861  0.500740553  0.651167790
     0.999774542  0.750020413  0.650779856
     0.750111337  0.749520086  0.549937664
     0.999337224  0.500065337  0.550036179

  ion indices of the primitive-cell ions
   primitive index   ion index
                 1           1
                 2           2
                 3           3
                 4           4
                 5           5
                 6           6
                 7           7
                 8           8
                 9           9
                10          10
                11          11
                12          12
                13          13
                14          14
                15          15
                16          16
                17          17
                18          18
                19          19
                20          20
                21          21
                22          22
[...]

 POSITION                                       TOTAL-FORCE (eV/Angst)
      5.40867      4.03301     15.99150        -0.235959     -0.365716     -0.375214
      5.89384      4.78205     16.75813         0.241237      0.367933      0.403156
      2.11679      0.00000      7.50000         0.000481      0.000174      0.396448
      4.23357      2.11679      7.50000        -0.001679     -0.001220      0.395636
      2.11679      2.11679      9.61679        -0.003706     -0.002688      0.033034
      4.23357      0.00000      9.61679        -0.007147     -0.004027      0.036732
      2.11674      0.00033     11.74397        -0.000675     -0.001360     -0.003032
      4.23244      2.11911     11.75180         0.000194     -0.000554     -0.005903
      2.11849      2.11101     13.84453        -0.000319     -0.000855     -0.003951
      4.22892      0.00130     13.84246        -0.001083      0.001576     -0.004126
      2.11679      4.23357      7.50000         0.000862     -0.000129      0.392431
      4.23357      6.35036      7.50000        -0.001751      0.001099      0.396697
      2.11679      6.35036      9.61679         0.004046      0.002770      0.029744
      4.23357      4.23357      9.61679        -0.017178      0.000640      0.031348
      2.12180      4.23327     11.74768         0.000452     -0.000660      0.000195
      4.23223      6.34674     11.75150         0.000771      0.000537     -0.005708
      2.11863      6.35599     13.84680        -0.001600     -0.001132     -0.002379
      4.21065      4.23056     13.89698         0.003429     -0.001930     -0.002036
      6.35036      0.00000      7.50000        -0.000456      0.000345      0.391733
      0.00000      2.11679      7.50000         0.001568     -0.001556      0.395516
      6.35036      2.11679      9.61679        -0.001955     -0.010591      0.021386
      0.00000      0.00000      9.61679         0.005149      0.003955      0.027329
      6.34892      0.00329     11.74379        -0.001976     -0.000203     -0.000501
      8.46503      2.11718     11.74975         0.000355      0.001921     -0.005703
      6.34465      2.10108     13.86054         0.002545      0.002013     -0.003860
      0.00320      0.00174     13.84852        -0.002925     -0.000203     -0.007533
      6.35036      4.23357      7.50000        -0.000965     -0.000237      0.385370
      0.00000      6.35036      7.50000         0.001793      0.001611      0.393255
      6.35036      6.35036      9.61679        -0.005279      0.013202      0.020802
      0.00000      4.23357      9.61679         0.012613     -0.002696      0.028577
      6.34276      4.23173     11.73405         0.004078      0.000346      0.000010
      0.00012      6.35075     11.74831        -0.000551     -0.002838     -0.005504
      6.34950      6.37637     13.84240         0.004388     -0.000250     -0.005251
      0.02466      4.23390     13.84840         0.000352     -0.000043     -0.005703
      2.11679      0.00000      9.61679        -0.008379     -0.002316      0.044557
      4.23357      2.11679      9.61679         0.007646      0.015543      0.062186
      2.11679      2.11679      7.50000        -0.000587      0.001731     -0.478306
      4.23357      0.00000      7.50000         0.002245      0.000083     -0.478578
      2.11331      8.46624     13.89034         0.005575      0.000775      0.001185
      4.22994      2.10683     13.86996        -0.002121     -0.004585      0.001458
      2.11219      2.11774     11.73703         0.002846      0.002984      0.000184
      4.23343      8.46496     11.73406         0.003826     -0.000325     -0.000789
      2.11679      4.23357      9.61679        -0.000955      0.002265      0.070714
      4.23357      6.35036      9.61679         0.007520     -0.019610      0.057058
      2.11679      6.35036      7.50000        -0.001391     -0.001696     -0.477820
      4.23357      4.23357      7.50000         0.003055     -0.000281     -0.475249
      2.11377      4.23392     13.89407        -0.003292      0.001029      0.000756
      4.23626      6.35585     13.88506        -0.000587      0.002992      0.005792
      2.11432      6.34924     11.73850         0.002751     -0.002795      0.003620
      4.23719      4.23429     11.74788        -0.007689      0.000111     -0.000347
      6.35036      0.00000      9.61679         0.005604      0.002011      0.061047
      0.00000      2.11679      9.61679        -0.014964      0.010225      0.055614
      6.35036      2.11679      7.50000         0.000322      0.002731     -0.474196
      0.00000      0.00000      7.50000        -0.002252     -0.000721     -0.477225
      6.35134      0.00192     13.89020         0.003649     -0.000872     -0.001841
      8.46523      2.11866     13.89649         0.001807     -0.000598     -0.001475
      6.35138      2.12183     11.74294         0.002184     -0.004928      0.000100
      8.46547      0.00015     11.73838        -0.002886     -0.000267      0.005707
      6.35036      4.23357      9.61679        -0.004211      0.000720      0.044499
      0.00000      6.35036      9.61679        -0.009503     -0.008641      0.059202
      6.35036      6.35036      7.50000         0.001394     -0.002576     -0.473445
      0.00000      4.23357      7.50000        -0.003264      0.000805     -0.473158
      6.37049      4.23984     13.90266         0.007513      0.001305     -0.011843
      8.46523      6.35053     13.89438         0.001485      0.001307      0.000843
      6.35130      6.34629     11.74137         0.002513      0.003713      0.001693
      8.46153      4.23412     11.74347         0.001034      0.000645      0.005058
    total drift:                               -0.002965     -0.000834      0.013400

  FREE ENERGIE OF THE ION-ELECTRON SYSTEM (eV)
  free  energy   TOTEN  =      -388.27676827 eV

  energy  without entropy=     -388.27676827  energy(sigma->0) =     -388.27676827

 d Force =-0.2638759E-03[-0.806E-02, 0.754E-02]  d Energy =-0.1910553E-03-0.728E-04
 d Force =-0.3324254E+02[-0.333E+02,-0.332E+02]  d Ewald  =-0.3324279E+02 0.246E-03

 Finite differences progress:
  Degree of freedom:   6/  6
  Displacement:        2/  2
  Total:              12/ 12

 SECOND DERIVATIVES (NOT SYMMETRIZED)
               1X          1Y          1Z          2X          2Y          2Z
  1X   -18.124088  -24.771928  -22.611543   16.380582   23.821991   23.352316
  1Y   -24.786402  -37.142673  -34.546995   23.358884   35.868309   35.755313
  1Z   -22.622586  -34.553847  -36.978797   22.314834   34.816582   37.237221
  2X    16.386557   23.359209   22.302915  -15.559896  -22.892202  -23.139838
  2Y    23.830270   35.871241   34.818630  -22.905161  -35.339066  -36.142138
  2Z    23.368587   35.755132   37.235941  -23.157593  -36.126500  -38.996231

 Eigenvectors and eigenvalues of the dynamical matrix

   1 f  =   53.506877 THz   336.193620 2PiTHz 1784.797285 cm-1   221.286561 meV
             X         Y         Z           dx          dy          dz
      5.408669  4.033008 15.991502     0.314189    0.468551    0.463353
      5.893843  4.782054 16.768131    -0.282292   -0.432887   -0.447180
      2.116786  0.000000  7.500000            0           0           0
      4.233571  2.116786  7.500000            0           0           0
      2.116786  2.116786  9.616786            0           0           0
      4.233571  0.000000  9.616786            0           0           0
      2.116736  0.000326 11.743966            0           0           0
      4.232435  2.119110 11.751799            0           0           0
      2.118487  2.111014 13.844528            0           0           0
      4.228923  0.001300 13.842458            0           0           0
      2.116786  4.233571  7.500000            0           0           0
      4.233571  6.350357  7.500000            0           0           0
      2.116786  6.350357  9.616786            0           0           0
      4.233571  4.233571  9.616786            0           0           0
      2.121797  4.233267 11.747681            0           0           0
      4.232235  6.346737 11.751500            0           0           0
      2.118630  6.355986 13.846795            0           0           0
      4.210648  4.230558 13.896984            0           0           0
      6.350357  0.000000  7.500000            0           0           0
      0.000000  2.116786  7.500000            0           0           0
      6.350357  2.116786  9.616786            0           0           0
      0.000000  0.000000  9.616786            0           0           0
      6.348923  0.003294 11.743787            0           0           0
      8.465031  2.117181 11.749749            0           0           0
      6.344654  2.101076 13.860545            0           0           0
      0.003196  0.001744 13.848522            0           0           0
      6.350357  4.233571  7.500000            0           0           0
      0.000000  6.350357  7.500000            0           0           0
      6.350357  6.350357  9.616786            0           0           0
      0.000000  4.233571  9.616786            0           0           0
      6.342759  4.231728 11.734051            0           0           0
      0.000120  6.350754 11.748308            0           0           0
      6.349504  6.376369 13.842397            0           0           0
      0.024663  4.233897 13.848398            0           0           0
      2.116786  0.000000  9.616786            0           0           0
      4.233571  2.116786  9.616786            0           0           0
      2.116786  2.116786  7.500000            0           0           0
      4.233571  0.000000  7.500000            0           0           0
      2.113312  8.466244 13.890337            0           0           0
      4.229944  2.106833 13.869957            0           0           0
      2.112192  2.117745 11.737027            0           0           0
      4.233430  8.464959 11.734058            0           0           0
      2.116786  4.233571  9.616786            0           0           0
      4.233571  6.350357  9.616786            0           0           0
      2.116786  6.350357  7.500000            0           0           0
      4.233571  4.233571  7.500000            0           0           0
      2.113769  4.233916 13.894066            0           0           0
      4.236263  6.355852 13.885059            0           0           0
      2.114324  6.349240 11.738503            0           0           0
      4.237193  4.234291 11.747879            0           0           0
      6.350357  0.000000  9.616786            0           0           0
      0.000000  2.116786  9.616786            0           0           0
      6.350357  2.116786  7.500000            0           0           0
      0.000000  0.000000  7.500000            0           0           0
      6.351336  0.001921 13.890197            0           0           0
      8.465235  2.118661 13.896489            0           0           0
      6.351378  2.121827 11.742944            0           0           0
      8.465469  0.000154 11.738383            0           0           0
      6.350357  4.233571  9.616786            0           0           0
      0.000000  6.350357  9.616786            0           0           0
      6.350357  6.350357  7.500000            0           0           0
      0.000000  4.233571  7.500000            0           0           0
      6.370491  4.239842 13.902665            0           0           0
      8.465234  6.350530 13.894382            0           0           0
      6.351300  6.346293 11.741365            0           0           0
      8.461531  4.234125 11.743469            0           0           0

[...]

   6 f  =    1.087602 THz     6.833606 2PiTHz   36.278503 cm-1     4.497959 meV
             X         Y         Z           dx          dy          dz
      5.408669  4.033008 15.991502     0.132267   -0.453875   -0.019428
      5.893843  4.782054 16.768131     0.276110   -0.810456    0.207486
      2.116786  0.000000  7.500000            0           0           0
      4.233571  2.116786  7.500000            0           0           0
      2.116786  2.116786  9.616786            0           0           0
      4.233571  0.000000  9.616786            0           0           0
      2.116736  0.000326 11.743966            0           0           0
      4.232435  2.119110 11.751799            0           0           0
      2.118487  2.111014 13.844528            0           0           0
      4.228923  0.001300 13.842458            0           0           0
      2.116786  4.233571  7.500000            0           0           0
      4.233571  6.350357  7.500000            0           0           0
      2.116786  6.350357  9.616786            0           0           0
      4.233571  4.233571  9.616786            0           0           0
      2.121797  4.233267 11.747681            0           0           0
      4.232235  6.346737 11.751500            0           0           0
      2.118630  6.355986 13.846795            0           0           0
      4.210648  4.230558 13.896984            0           0           0
      6.350357  0.000000  7.500000            0           0           0
      0.000000  2.116786  7.500000            0           0           0
      6.350357  2.116786  9.616786            0           0           0
      0.000000  0.000000  9.616786            0           0           0
      6.348923  0.003294 11.743787            0           0           0
      8.465031  2.117181 11.749749            0           0           0
      6.344654  2.101076 13.860545            0           0           0
      0.003196  0.001744 13.848522            0           0           0
      6.350357  4.233571  7.500000            0           0           0
      0.000000  6.350357  7.500000            0           0           0
      6.350357  6.350357  9.616786            0           0           0
      0.000000  4.233571  9.616786            0           0           0
      6.342759  4.231728 11.734051            0           0           0
      0.000120  6.350754 11.748308            0           0           0
      6.349504  6.376369 13.842397            0           0           0
      0.024663  4.233897 13.848398            0           0           0
      2.116786  0.000000  9.616786            0           0           0
      4.233571  2.116786  9.616786            0           0           0
      2.116786  2.116786  7.500000            0           0           0
      4.233571  0.000000  7.500000            0           0           0
      2.113312  8.466244 13.890337            0           0           0
      4.229944  2.106833 13.869957            0           0           0
      2.112192  2.117745 11.737027            0           0           0
      4.233430  8.464959 11.734058            0           0           0
      2.116786  4.233571  9.616786            0           0           0
      4.233571  6.350357  9.616786            0           0           0
      2.116786  6.350357  7.500000            0           0           0
      4.233571  4.233571  7.500000            0           0           0
      2.113769  4.233916 13.894066            0           0           0
      4.236263  6.355852 13.885059            0           0           0
      2.114324  6.349240 11.738503            0           0           0
      4.237193  4.234291 11.747879            0           0           0
      6.350357  0.000000  9.616786            0           0           0
      0.000000  2.116786  9.616786            0           0           0
      6.350357  2.116786  7.500000            0           0           0
      0.000000  0.000000  7.500000            0           0           0
      6.351336  0.001921 13.890197            0           0           0
      8.465235  2.118661 13.896489            0           0           0
      6.351378  2.121827 11.742944            0           0           0
      8.465469  0.000154 11.738383            0           0           0
      6.350357  4.233571  9.616786            0           0           0
      0.000000  6.350357  9.616786            0           0           0
      6.350357  6.350357  7.500000            0           0           0
      0.000000  4.233571  7.500000            0           0           0
      6.370491  4.239842 13.902665            0           0           0
      8.465234  6.350530 13.894382            0           0           0
      6.351300  6.346293 11.741365            0           0           0
      8.461531  4.234125 11.743469            0           0           0

 Finite differences POTIM=   1.0000000000000000E-002