 vasp.6.3.0 20Jan22 (build Mar 11 2022 13:48:16) complex

 executed on             LinuxIFC date 2023.12.29  10:32:13

 INCAR:
   SYSTEM = TiO2
   ISMEAR = 0
   SIGMA = 0.05
   EDIFF = 1E-7
   ALGO = ALL
   ISTART = 0
   IBRION = 2
   NSW = 1000
   ISYM = 0
   ISIF = 2
   EDIFFG = -0.01
   DIPOL = 0.5 0.5 0.5
   IDIPOL = 3
   LDIPOL = .TRUE.
   LHFCALC = .TRUE.
   HFSCREEN = 0.2
   GGA = PE
   IVDW = 13
   VDW_S8 = 1.19528249
   VDW_A1 = 0.38663183
   VDW_A2 = 5.19133469
   ENCUT = 520
   PREC = Normal
   PRECFOCK = Fast
   LASPH = .TRUE.
   LREAL = .FALSE.
   ISPIN = 1
   NKREDX = 3
   NKREDY = 3
   NELM = 200
   NELMIN = 8
   NCORE = 19
   KPAR = 1
   LWAVE = .FALSE.
   LCHARG = .FALSE.

 POTCAR:    PAW_PBE N 08Apr2002
 POTCAR:    PAW_PBE H 15Jun2001
 POTCAR:    PAW_PBE Ti 08Apr2002
 POTCAR:    PAW_PBE O 08Apr2002
 POTCAR:    PAW_PBE N 08Apr2002
   VRHFIN =N: s2p3

   TITEL  = PAW_PBE N 08Apr2002
   POMASS =   14.001; ZVAL   =    5.000    mass and valenz
   ENMAX  =  400.000; ENMIN  =  300.000 eV

   TITEL  = PAW_PBE H 15Jun2001
   POMASS =    1.000; ZVAL   =    1.000    mass and valenz
   ENMAX  =  250.000; ENMIN  =  200.000 eV

[...]

   TITEL  = PAW_PBE O 08Apr2002
   POMASS =   16.000; ZVAL   =    6.000    mass and valenz
   ENMAX  =  400.000; ENMIN  =  300.000 eV

  PAW_PBE N 08Apr2002                   :
  PAW_PBE H 15Jun2001                   :
  PAW_PBE Ti 08Apr2002                  :
  PAW_PBE O 08Apr2002                   :

 POSCAR:  N  H Ti  O
  positions in direct lattice
  velocities in cartesian coordinates
|           W    W    AA    RRRRR   N    N  II  N    N   GGGG   !!!           |
|           W    W   A  A   R    R  NN   N  II  NN   N  G    G  !!!           |
|           W    W  A    A  R    R  N N  N  II  N N  N  G       !!!           |
|           W WW W  AAAAAA  RRRRR   N  N N  II  N  N N  G  GGG   !            |
|           WW  WW  A    A  R   R   N   NN  II  N   NN  G    G                |
|           W    W  A    A  R    R  N    N  II  N    N   GGGG   !!!           |
|     Specifying the vdW parameters                                           |
|     VDW_S8 = 1.195                                                          |
|     VDW_A1 = 0.387                                                          |
|     VDW_A2 = 5.191                                                          |
|     in the INCAR file will overwrite the defaults for hse06. Please         |
|     make sure that is what you intended.                                    |

 ion  position               nearest neighbor table
   1  0.611  0.500  0.810-   2 1.01   3 1.02   4 1.02  52 2.25
   2  0.547  0.500  0.841-   1 1.01
   3  0.670  0.428  0.813-   1 1.02
   4  0.670  0.572  0.813-   1 1.02
   5  0.809  0.833  0.271-  55 1.93  89 1.93  57 1.93  56 1.97  54 1.97  22 3.04   8 3.04   6 3.04

   6  0.593  0.667  0.306-  53 1.93 120 1.93  58 1.93  56 1.93  59 1.97  57 1.97  37 3.04   7 3.04
                             5 3.04  11 3.06
   7  0.309  0.667  0.271-  59 1.93 125 1.93  61 1.93  60 1.97  53 1.97  40 3.04   6 3.04   8 3.04

   8  0.093  0.833  0.306-  54 1.93  92 1.93  62 1.93  60 1.93  55 1.97  61 1.97  23 3.04   5 3.04
                             7 3.04   9 3.06
   9  0.946  0.833  0.413-  63 1.92  97 1.93  65 1.93  64 1.97  55 1.97  62 1.98  12 2.99  26 3.03
                            10 3.03   8 3.06
  10  0.728  0.666  0.446-  58 1.89 128 1.93  64 1.93  66 1.95  67 1.97  65 1.98  11 3.00   9 3.03
                            41 3.04  15 3.08
  11  0.445  0.666  0.413-  67 1.92 133 1.92  69 1.93  59 1.96  68 1.97  58 1.98  10 3.00  12 3.04
                            44 3.04   6 3.06
  12  0.227  0.833  0.446-  62 1.89 100 1.93  68 1.93  70 1.95  63 1.96  69 1.98   9 2.99  27 3.04
                            11 3.04  13 3.08
  13  0.087  0.833  0.556-  71 1.92 105 1.92  73 1.93  72 1.96  70 1.98  63 1.99  16 2.94  14 3.03
                            30 3.03  12 3.08
  14  0.867  0.666  0.584-  66 1.87 136 1.92  72 1.93  75 1.94  73 1.98  74 1.98  15 2.97  13 3.03
                            45 3.04  19 3.15
  15  0.586  0.666  0.555- 141 1.92  77 1.93  75 1.93  76 1.96  67 1.97  66 1.98  14 2.97  16 3.03
                            48 3.04  10 3.08
  16  0.365  0.833  0.585-  70 1.87 108 1.93  76 1.93  71 1.94  78 1.97  77 1.99  13 2.94  15 3.03
                            31 3.03
  17  0.233  0.833  0.701-  79 1.86  81 1.92 113 1.93  80 1.99  78 2.05  71 2.07  20 2.84  34 3.05
                            18 3.07
  18  0.003  0.666  0.723-  74 1.79  82 1.83 144 1.96  80 1.97  81 2.02  19 2.85  17 3.07  49 3.08

[...]

  21  0.809  0.167  0.271-  87 1.93  89 1.93 121 1.93  88 1.97  86 1.97  22 3.04  24 3.04  38 3.04

[...]

  37  0.809  0.500  0.271- 119 1.93  57 1.93 121 1.93 120 1.97 118 1.97  38 3.04   6 3.04  40 3.04

  38  0.593  0.333  0.306- 117 1.93 120 1.93 122 1.93  88 1.93 121 1.97 123 1.97  37 3.04  39 3.04
                            21 3.04  43 3.06
  39  0.309  0.333  0.271- 123 1.93 125 1.93  93 1.93 124 1.97 117 1.97  40 3.04  38 3.04  24 3.04

  40  0.093  0.500  0.306- 118 1.93  60 1.93 124 1.93 126 1.93 125 1.97 119 1.97   7 3.04  39 3.04
                            37 3.04  41 3.05
  41  0.947  0.500  0.413- 127 1.92 129 1.93  65 1.93 119 1.96 126 1.96 128 1.97  44 2.99  10 3.04
                            42 3.04  40 3.05
  42  0.728  0.334  0.446- 122 1.89 128 1.93  96 1.93 130 1.95 131 1.97 129 1.98  43 3.00  25 3.03
                            41 3.04  47 3.08
  43  0.445  0.334  0.413- 131 1.92 133 1.92 101 1.93 123 1.96 132 1.97 122 1.98  42 3.00  28 3.04
                            44 3.04  38 3.06
  44  0.227  0.500  0.447- 126 1.92 132 1.93  68 1.93 127 1.95 134 1.95 133 1.99  41 2.99  11 3.04
                            43 3.04  45 3.05
  45  0.089  0.500  0.556- 135 1.91 137 1.93  73 1.93 134 1.96 136 1.98 127 1.99  48 2.95  14 3.04
                            46 3.04  44 3.05
  46  0.867  0.334  0.584- 130 1.87 136 1.92 104 1.93 139 1.94 137 1.98 138 1.98  47 2.97  29 3.03
                            45 3.04  51 3.15
  47  0.586  0.334  0.555- 141 1.92 109 1.93 139 1.93 140 1.96 131 1.97 130 1.98  46 2.97  32 3.03
                            48 3.04  42 3.08
  48  0.367  0.500  0.589- 134 1.92 140 1.93  76 1.93 135 1.93 142 1.96 141 2.00  45 2.95  15 3.04
                            47 3.04  49 3.11
  49  0.236  0.500  0.702- 143 1.85  81 1.93 145 1.93 142 2.00 144 2.02 135 2.08  52 2.87  50 3.08
                            18 3.08  48 3.11
  50  0.003  0.334  0.723- 138 1.79 146 1.83 144 1.96 112 1.97 145 2.02  51 2.85  33 3.07  49 3.08

  51  0.731  0.333  0.698- 146 1.88 148 1.93 116 1.93 147 1.98 139 2.02 138 2.05  50 2.85  36 3.06
                            52 3.06  46 3.15
  52  0.509  0.500  0.730- 143 1.83 142 1.89  83 1.97 147 1.97 148 2.03   1 2.25  49 2.87  51 3.06
                            19 3.06
  53  0.489  0.667  0.242-   6 1.93   7 1.97
  54  0.989  0.833  0.242-   8 1.93   5 1.97
  55  0.914  0.833  0.335-   5 1.93   9 1.97   8 1.97
  56  0.630  0.833  0.300-  22 1.93   6 1.93   5 1.97
  57  0.772  0.667  0.277-  37 1.93   5 1.93   6 1.97
  58  0.624  0.667  0.383-  10 1.89   6 1.93  11 1.98
  59  0.414  0.667  0.335-   7 1.93  11 1.96   6 1.97
  60  0.130  0.667  0.300-  40 1.93   8 1.93   7 1.97
  61  0.272  0.833  0.277-  23 1.93   7 1.93   8 1.97
  62  0.124  0.833  0.383-  12 1.89   8 1.93   9 1.98
  63  0.051  0.834  0.477-   9 1.92  12 1.96  13 1.99
  64  0.766  0.833  0.441-  26 1.93  10 1.93   9 1.97
  65  0.909  0.667  0.418-   9 1.93  41 1.93  10 1.98
  66  0.763  0.666  0.523-  14 1.87  10 1.95  15 1.98
  67  0.551  0.666  0.477-  11 1.92  15 1.97  10 1.97
  68  0.266  0.667  0.441-  44 1.93  12 1.93  11 1.97
  69  0.409  0.833  0.418-  27 1.93  11 1.93  12 1.98
  70  0.263  0.833  0.523-  16 1.87  12 1.95  13 1.98
  71  0.194  0.833  0.619-  13 1.92  16 1.94  17 2.07
  72  0.905  0.833  0.581-  30 1.93  14 1.93  13 1.96
  73  0.051  0.667  0.560-  13 1.93  45 1.93  14 1.98
  74  0.912  0.667  0.662-  18 1.79  14 1.98  19 2.05
  75  0.695  0.668  0.618-  15 1.93  14 1.94  19 2.02
  76  0.406  0.667  0.582-  16 1.93  48 1.93  15 1.96
  77  0.549  0.833  0.559-  31 1.93  15 1.93  16 1.99
  78  0.410  0.836  0.662-  20 1.79  16 1.97  17 2.05
  79  0.349  0.833  0.758-  20 1.83  17 1.86
  80  0.054  0.833  0.732-  34 1.97  18 1.97  17 1.99
  81  0.194  0.666  0.703-  17 1.92  49 1.93  18 2.02
  82  0.845  0.664  0.757-  18 1.83  19 1.88
  83  0.555  0.669  0.731-  20 1.95  52 1.97  19 1.98
  84  0.695  0.834  0.700-  35 1.92  19 1.93  20 2.02
  85  0.489  0.000  0.242-  22 1.93  23 1.97
  86  0.989  0.167  0.242-  24 1.93  21 1.97
  87  0.914  0.167  0.335-  21 1.93  25 1.97  24 1.97
  88  0.630  0.167  0.300-  22 1.93  38 1.93  21 1.97
  89  0.772  0.000  0.277-   5 1.93  21 1.93  22 1.97
  90  0.624  0.000  0.383-  26 1.89  22 1.93  27 1.98
  91  0.414  0.000  0.335-  23 1.93  27 1.96  22 1.97
  92  0.130  0.000  0.300-   8 1.93  24 1.93  23 1.97
  93  0.272  0.167  0.277-  23 1.93  39 1.93  24 1.97
  94  0.124  0.167  0.383-  28 1.89  24 1.93  25 1.98
  95  0.051  0.166  0.477-  25 1.92  28 1.96  29 1.99
  96  0.766  0.167  0.441-  26 1.93  42 1.93  25 1.97
  97  0.909  0.000  0.418-   9 1.93  25 1.93  26 1.98
  98  0.763  0.000  0.523-  30 1.87  26 1.95  31 1.98
  99  0.551  0.000  0.477-  27 1.92  26 1.97  31 1.98
 100  0.266  1.000  0.441-  12 1.93  28 1.93  27 1.97
 101  0.409  0.167  0.418-  27 1.93  43 1.93  28 1.98
 102  0.263  0.167  0.523-  32 1.87  28 1.95  29 1.98
 103  0.194  0.167  0.619-  29 1.92  32 1.94  33 2.07
 104  0.905  0.167  0.581-  30 1.93  46 1.93  29 1.96
 105  0.050  0.000  0.560-  29 1.92  13 1.92  30 1.99
 106  0.912  1.000  0.662-  34 1.79  30 1.98  35 2.05
 107  0.695  0.000  0.618-  31 1.92  30 1.94  35 2.07
 108  0.405  0.000  0.581-  32 1.93  16 1.93  31 1.96
 109  0.549  0.167  0.559-  31 1.93  47 1.93  32 1.99
 110  0.410  0.164  0.662-  36 1.79  32 1.97  33 2.05
 111  0.349  0.167  0.758-  36 1.83  33 1.86
 112  0.054  0.167  0.732-  34 1.97  50 1.97  33 1.99
[...]
 134  0.264  0.500  0.524-  48 1.92  44 1.95  45 1.96
 135  0.194  0.500  0.620-  45 1.91  48 1.93  49 2.08
 136  0.906  0.500  0.581-  46 1.92  14 1.92  45 1.98
 137  0.051  0.333  0.560-  29 1.93  45 1.93  46 1.98
 138  0.912  0.333  0.662-  50 1.79  46 1.98  51 2.05
 139  0.695  0.332  0.618-  47 1.93  46 1.94  51 2.02
 140  0.406  0.333  0.582-  32 1.93  48 1.93  47 1.96
 141  0.550  0.500  0.560-  47 1.92  15 1.92  48 2.00
 142  0.411  0.500  0.665-  52 1.89  48 1.96  49 2.00
 143  0.346  0.500  0.761-  52 1.83  49 1.85
 144  0.053  0.500  0.732-  50 1.96  18 1.96  49 2.02
 145  0.194  0.334  0.703-  33 1.92  49 1.93  50 2.02
 146  0.845  0.336  0.757-  50 1.83  51 1.88
 147  0.555  0.331  0.731-  36 1.95  52 1.97  51 1.98
 148  0.692  0.500  0.699-  51 1.93  19 1.93  52 2.03

IMPORTANT INFORMATION: All symmetrisations will be switched off!
NOSYMM: (Re-)initialisation of all symmetry stuff for point group C_1.

                                     Primitive cell

  volume of cell :    2875.9226

  direct lattice vectors                    reciprocal lattice vectors
[...]
   7.90749926  7.53889414  6.87615190
   6.38920825  7.53889414  9.50460760
   4.23882877  7.53889414  8.32909613
   1.33256919  7.53889414  7.45294423
[...]
   2.70580086  5.65417035 13.02133208
   1.98535553  5.65417067 15.39771230
   9.27101888  5.65417028 14.43631669
   0.51834634  3.77026262 13.90083195
   9.33391604  3.76507238 16.44151807
   7.11768779  3.75542084 15.35223203
   4.15307538  3.77009218 14.46924485
   5.62925553  5.65417029 13.92315228
   4.20817899  5.65416770 16.52899928
   3.54498972  5.65417184 18.90149668
   0.54575782  5.65417082 18.18992040
   1.98908807  3.77259741 17.45233074
   8.64645375  3.80216280 18.81689312
   5.67936781  3.74057213 18.15110868
   7.08749011  5.65416972 17.36097517

--------------------------------------- Iteration      FINAL  ---------------------------------------

--------------------OUTCAR has been truncated-------------------------

[...]

--------------------OUTCAR has been truncated-------------------------

  FORCE on cell =-STRESS in cart. coord.  units (eV):
  Direction    XX          YY          ZZ          XY          YZ          ZX
  Alpha Z  1748.80666  1748.80666  1748.80666
  Ewald  172851.74837170835.40951************    -0.00030     0.00054  -694.23743
  Hartree184583.07620183891.34888************     0.00004     0.00044  -305.98213
  E(xc)   -2829.98344 -2821.11137 -2813.10072     0.00000     0.00000    -1.37762
  Local  ************************359818.83598     0.00009    -0.00101  1002.13493
  n-local -1750.25232 -1736.82109 -1783.03284     0.00002    -0.00000    -7.71816
  augment   805.34229   800.74831   802.94058     0.00000     0.00001    -0.90274
  Kinetic 13979.35746 14057.90825 14133.22480     0.00004     0.00003    -2.98190
  Fock    -1303.16642 -1289.66107 -1288.18200     0.00000    -0.00000     0.68989
  vdW       -27.73749   -29.12149   -24.31735     0.00000     0.00000    -0.21155
  Total     -50.27412   -16.08372   -12.47031    -0.00011     0.00001   -10.58671
  in kB     -28.00773    -8.96024    -6.94721    -0.00006     0.00000    -5.89786

 VOLUME and BASIS-vectors are now :
  energy-cutoff  :      520.00
  volume of cell :     2875.92
      direct lattice vectors                 reciprocal lattice vectors
    10.237069764  0.000000000  0.000000000     0.097684203 -0.000000000  0.000000000
     0.000000000 11.308341211  0.000000000     0.000000000  0.088430299  0.000000000
     0.000000000  0.000000000 24.842918924     0.000000000  0.000000000  0.040252919

  length of vectors
    10.237069764 11.308341211 24.842918924     0.097684203  0.088430299  0.040252919

 FORCES acting on ions:
    Electron-Ion                     Ewald-Force                    Non-Local-Force
   0.606E+01 -.691E-03 -.107E+04   -.152E+02 0.867E-03 0.105E+04   0.844E+01 0.552E-04 0.161E+02
   0.447E+02 -.183E-03 -.244E+03   -.497E+02 0.190E-03 0.249E+03   0.483E+01 -.176E-04 -.548E+01
   -.399E+02 0.550E+02 -.221E+03   0.444E+02 -.612E+02 0.222E+03   -.434E+01 0.588E+01 -.354E+00
   -.399E+02 -.550E+02 -.221E+03   0.444E+02 0.612E+02 0.222E+03   -.434E+01 -.588E+01 -.354E+00
   0.962E+01 -.694E-01 0.882E+03   -.666E+01 0.705E-01 -.879E+03   0.934E+00 0.417E-03 -.200E+01
   -.155E+01 -.855E-01 0.711E+03   0.513E+00 0.868E-01 -.712E+03   -.714E+00 -.506E-03 -.848E+00
   0.971E+01 -.489E-01 0.882E+03   -.677E+01 0.456E-01 -.879E+03   0.924E+00 -.813E-03 -.200E+01
   -.189E+01 -.120E-01 0.711E+03   0.826E+00 0.737E-02 -.712E+03   -.722E+00 -.104E-02 -.853E+00
   -.613E+00 0.843E-01 0.327E+03   0.492E+00 -.875E-01 -.327E+03   0.115E+00 -.658E-03 0.359E-01
   0.342E+00 -.687E+00 0.208E+03   -.205E+00 0.697E+00 -.208E+03   -.431E-01 0.106E-01 -.131E+00
   -.709E-01 -.188E+00 0.327E+03   -.294E-01 0.200E+00 -.327E+03   0.109E+00 0.335E-02 0.190E-01
   -.974E+00 0.769E-01 0.206E+03   0.116E+01 -.771E-01 -.206E+03   -.394E-01 -.507E-03 -.129E+00
   -.255E+01 -.880E+00 -.200E+03   0.236E+01 0.863E+00 0.200E+03   0.195E+00 0.876E-02 0.169E+00
   -.313E+01 -.179E+01 -.298E+03   0.353E+01 0.183E+01 0.298E+03   -.130E+00 -.171E-01 -.247E+00
   -.229E+00 -.106E+01 -.192E+03   0.107E+00 0.108E+01 0.192E+03   0.157E+00 0.112E-02 0.119E+00
   0.101E+01 -.479E+00 -.304E+03   -.595E+00 0.485E+00 0.304E+03   -.140E+00 -.149E-01 -.269E+00
   0.928E+01 -.445E+01 -.710E+03   -.101E+02 0.449E+01 0.709E+03   0.581E+00 -.726E-02 0.395E-01
   -.308E+02 -.845E+01 -.816E+03   0.323E+02 0.841E+01 0.817E+03   -.130E+00 0.977E-01 0.680E+00
   -.568E+01 -.156E+02 -.683E+03   0.501E+01 0.157E+02 0.683E+03   0.521E+00 -.202E-01 0.120E+00
   -.202E+02 -.138E+02 -.813E+03   0.217E+02 0.138E+02 0.814E+03   -.886E-01 0.422E-01 0.689E+00
   0.962E+01 0.694E-01 0.882E+03   -.666E+01 -.705E-01 -.879E+03   0.934E+00 -.417E-03 -.200E+01
   -.157E+01 0.391E-05 0.711E+03   0.520E+00 -.411E-05 -.712E+03   -.717E+00 0.235E-05 -.853E+00
   0.968E+01 0.496E-05 0.882E+03   -.673E+01 -.457E-05 -.879E+03   0.931E+00 0.275E-05 -.200E+01
   -.189E+01 0.120E-01 0.711E+03   0.826E+00 -.738E-02 -.712E+03   -.722E+00 0.104E-02 -.853E+00
   -.613E+00 -.842E-01 0.327E+03   0.492E+00 0.874E-01 -.327E+03   0.115E+00 0.659E-03 0.359E-01
   -.285E+00 -.300E-05 0.207E+03   0.431E+00 0.350E-05 -.207E+03   -.298E-01 -.520E-06 -.132E+00
   -.652E-01 0.212E-04 0.327E+03   -.477E-01 -.204E-04 -.327E+03   0.109E+00 0.370E-06 0.267E-01
   -.974E+00 -.769E-01 0.206E+03   0.116E+01 0.771E-01 -.206E+03   -.394E-01 0.508E-03 -.129E+00
   -.255E+01 0.880E+00 -.200E+03   0.236E+01 -.863E+00 0.200E+03   0.195E+00 -.876E-02 0.169E+00
   -.239E+01 -.157E-04 -.304E+03   0.284E+01 0.175E-04 0.304E+03   -.134E+00 -.156E-05 -.238E+00
   -.180E+01 0.529E-04 -.198E+03   0.162E+01 -.516E-04 0.197E+03   0.192E+00 -.234E-05 0.189E+00
   0.101E+01 0.479E+00 -.304E+03   -.595E+00 -.485E+00 0.304E+03   -.140E+00 0.149E-01 -.269E+00
   0.928E+01 0.445E+01 -.710E+03   -.101E+02 -.449E+01 0.709E+03   0.581E+00 0.726E-02 0.395E-01
   -.265E+02 -.184E-04 -.821E+03   0.280E+02 0.192E-04 0.821E+03   -.132E+00 0.219E-05 0.672E+00
   0.307E+01 0.161E-05 -.708E+03   -.390E+01 0.440E-06 0.708E+03   0.542E+00 0.333E-06 0.695E-01
   -.202E+02 0.138E+02 -.813E+03   0.217E+02 -.138E+02 0.814E+03   -.886E-01 -.422E-01 0.689E+00
   0.960E+01 -.562E-06 0.882E+03   -.663E+01 0.877E-06 -.879E+03   0.938E+00 0.225E-05 -.200E+01
   -.155E+01 0.855E-01 0.711E+03   0.513E+00 -.868E-01 -.712E+03   -.714E+00 0.505E-03 -.848E+00
   0.971E+01 0.489E-01 0.882E+03   -.677E+01 -.456E-01 -.879E+03   0.924E+00 0.812E-03 -.200E+01
   -.201E+01 -.581E-05 0.711E+03   0.974E+00 0.550E-05 -.712E+03   -.719E+00 -.188E-05 -.824E+00
   -.298E+00 -.143E-04 0.326E+03   0.112E+00 0.155E-04 -.327E+03   0.116E+00 0.134E-05 0.552E-01
   0.341E+00 0.687E+00 0.208E+03   -.205E+00 -.697E+00 -.208E+03   -.431E-01 -.106E-01 -.131E+00
   -.709E-01 0.188E+00 0.327E+03   -.294E-01 -.200E+00 -.327E+03   0.109E+00 -.335E-02 0.190E-01
   -.156E+01 -.241E-04 0.202E+03   0.176E+01 0.242E-04 -.201E+03   -.455E-01 -.209E-06 -.421E-01
   -.170E+01 0.209E-04 -.200E+03   0.138E+01 -.205E-04 0.199E+03   0.177E+00 0.520E-06 0.182E+00
   -.313E+01 0.179E+01 -.298E+03   0.353E+01 -.183E+01 0.298E+03   -.130E+00 0.171E-01 -.247E+00
   -.229E+00 0.106E+01 -.192E+03   0.107E+00 -.108E+01 0.192E+03   0.157E+00 -.112E-02 0.119E+00
   0.140E+01 -.783E-04 -.314E+03   -.105E+01 0.770E-04 0.314E+03   -.117E+00 0.312E-05 -.131E+00
   0.164E+02 -.860E-06 -.707E+03   -.173E+02 -.949E-06 0.706E+03   0.411E+00 0.922E-06 0.119E+00
   -.308E+02 0.845E+01 -.816E+03   0.323E+02 -.841E+01 0.817E+03   -.130E+00 -.977E-01 0.680E+00
   -.568E+01 0.156E+02 -.683E+03   0.501E+01 -.157E+02 0.683E+03   0.521E+00 0.202E-01 0.120E+00
   0.939E+01 -.231E-04 -.784E+03   -.790E+01 0.217E-04 0.784E+03   -.535E+00 -.210E-05 -.251E+00
   -.739E+01 -.185E+00 0.142E+04   0.127E+02 0.186E+00 -.143E+04   -.635E+01 -.281E-02 0.164E+02
   -.771E+01 -.153E+00 0.142E+04   0.130E+02 0.153E+00 -.143E+04   -.635E+01 0.164E-02 0.164E+02
   0.452E+02 0.919E-01 0.898E+03   -.502E+02 -.889E-01 -.894E+03   0.338E+01 -.394E-02 -.399E+01
   0.328E+02 -.797E-01 0.109E+04   -.402E+02 0.816E-01 -.109E+04   0.682E+01 -.164E-02 -.247E+01
   -.447E+02 -.143E+00 0.125E+04   0.522E+02 0.142E+00 -.125E+04   -.628E+01 0.654E-04 -.273E+00
   -.378E+02 -.480E+00 0.674E+03   0.437E+02 0.527E+00 -.678E+03   -.524E+01 -.381E-01 0.391E+01
   0.458E+02 0.160E-02 0.898E+03   -.507E+02 0.161E-01 -.894E+03   0.336E+01 -.179E-01 -.387E+01
   0.323E+02 -.149E-01 0.109E+04   -.398E+02 0.399E-02 -.109E+04   0.684E+01 0.191E-01 -.248E+01
[...]
   0.470E+02 -.140E-04 -.672E+03   -.543E+02 0.219E-04 0.680E+03   0.637E+01 -.611E-05 -.698E+01
   0.354E+02 0.933E-04 -.446E+03   -.418E+02 -.916E-04 0.449E+03   0.555E+01 0.509E-06 -.257E+01
   -.449E+02 0.867E+00 -.300E+03   0.517E+02 -.822E+00 0.298E+03   -.593E+01 -.375E-01 0.240E+01
   -.498E+02 0.821E+01 -.845E+03   0.523E+02 -.854E+01 0.835E+03   -.215E+01 0.292E+00 0.862E+01
   0.432E+02 0.764E+01 -.652E+03   -.499E+02 -.800E+01 0.658E+03   0.584E+01 0.314E+00 -.535E+01
   0.430E+02 0.972E+00 -.455E+03   -.498E+02 -.944E+00 0.458E+03   0.597E+01 -.262E-01 -.270E+01
   -.386E+02 0.274E-04 -.300E+03   0.450E+02 -.277E-04 0.298E+03   -.554E+01 0.600E-06 0.202E+01
   -.287E+02 0.345E-03 -.848E+03   0.350E+02 -.403E-03 0.842E+03   -.548E+01 0.512E-04 0.528E+01
   0.714E+02 -.189E-03 -.138E+04   -.775E+02 0.221E-03 0.141E+04   0.537E+01 -.285E-04 -.193E+02
   0.221E+02 -.975E-04 -.126E+04   -.258E+02 0.103E-03 0.127E+04   0.319E+01 -.398E-05 -.680E+01
   -.216E+02 0.745E+01 -.107E+04   0.269E+02 -.723E+01 0.107E+04   -.462E+01 -.190E+00 0.246E+01
   -.223E+02 0.325E+02 -.138E+04   0.165E+02 -.324E+02 0.141E+04   0.502E+01 -.133E+00 -.186E+02
   0.496E+02 0.464E+02 -.121E+04   -.548E+02 -.460E+02 0.122E+04   0.456E+01 -.411E+00 -.585E+01
   -.421E+02 -.517E-04 -.990E+03   0.467E+02 0.765E-04 0.985E+03   -.402E+01 -.210E-04 0.405E+01
   -.140E+02 -.128E-03 0.566E+02   -.213E-13 0.469E-12 -.307E-11   0.155E+02 0.133E-03 -.517E+02

 POSITION                                       TOTAL-FORCE (eV/Angst)
      6.25667      5.65417     20.11485        -0.003859      0.000234      0.008236
      5.60429      5.65417     20.88891        -0.003730     -0.000012      0.002295
      6.85835      4.83931     20.18705        -0.006195      0.000739      0.003708
      6.85835      6.46904     20.18705        -0.006343     -0.000955      0.003678
      8.28544      9.42362      6.72647         4.327344      0.001573      1.861589
      6.07316      7.53889      7.60262        -1.889236      0.000633     -2.077737
      3.16690      7.53889      6.72647         4.294349     -0.004288      1.846755
      0.95463      9.42362      7.60262        -1.923421     -0.005906     -2.084080
      9.68397      9.42391     10.26710         0.000889      0.000074     -0.003306
      7.45058      7.53511     11.06814         0.002064     -0.002595     -0.000400
      4.56013      7.53641     10.26365        -0.001099      0.000701      0.000092
      2.32517      9.42330     11.07626        -0.000368      0.000173      0.001901
      0.88889      9.42484     13.80587         0.002000     -0.003885     -0.002796
      8.87052      7.53372     14.51396        -0.000104     -0.004063      0.001895
      5.99444      7.53518     13.78605         0.001201      0.002311      0.003515
      3.74136      9.42365     14.53801        -0.002182      0.001233     -0.000045
      2.38297      9.41682     17.41032         0.000751      0.003266      0.001834
      0.03293      7.52764     17.96610         0.003186      0.001366      0.004306
      7.48776      7.53755     17.33949        -0.001693      0.000773      0.003829
      5.17177      9.43823     17.96068        -0.001875     -0.004212      0.002467
      8.28544      1.88472      6.72647         4.327343     -0.001573      1.861588
      6.07316      0.00000      7.60262        -1.906073      0.000002     -2.082192
      3.16690      0.00000      6.72647         4.315403      0.000003      1.852869
      0.95463      1.88472      7.60262        -1.923423      0.005904     -2.084081
      9.68397      1.88443     10.26710         0.000888     -0.000075     -0.003308
      7.44761      0.00000     11.06987        -0.006114      0.000000      0.000128
      4.56227     11.30834     10.26625         0.001360      0.000001      0.001038
      2.32517      1.88504     11.07626        -0.000369     -0.000172      0.001900
      0.88889      1.88351     13.80587         0.002001      0.003885     -0.002795
      8.86020      0.00000     14.52587        -0.004888      0.000001      0.008151
      6.00102      0.00000     13.79508        -0.004573      0.000001      0.001443
      3.74136      1.88469     14.53801        -0.002181     -0.001227     -0.000046
      2.38297      1.89152     17.41032         0.000751     -0.003265      0.001837
      0.05267     11.30834     17.96777         0.005207      0.000002      0.005731
      7.51631     11.30834     17.39139         0.004759      0.000001     -0.003782
      5.17177      1.87011     17.96068        -0.001872      0.004215      0.002469
      8.28544      5.65417      6.72647         4.338373      0.000003      1.859001
      6.07316      3.76945      7.60262        -1.889241     -0.000633     -2.077741
      3.16690      3.76945      6.72647         4.294349      0.004287      1.846755
      0.95463      5.65417      7.60262        -1.891878     -0.000002     -2.004123
      9.69655      5.65417     10.26290        -0.003264      0.000001      0.002018
      7.45058      3.77323     11.06814         0.002063      0.002594     -0.000402
      4.56013      3.77193     10.26365        -0.001098     -0.000698      0.000092
      2.32821      5.65417     11.10379         0.001262     -0.000001      0.006130
      0.91585      5.65417     13.81150         0.005453     -0.000000      0.007004
      8.87052      3.77462     14.51397        -0.000103      0.004064      0.001894
      5.99444      3.77316     13.78606         0.001201     -0.002314      0.003517
      3.75655      5.65417     14.62409        -0.004358      0.000000     -0.002280
      2.42078      5.65417     17.43063        -0.000164     -0.000001      0.002161
      0.03293      3.78070     17.96611         0.003179     -0.001370      0.004306
      7.48777      3.77079     17.33950        -0.001696     -0.000778      0.003832
      5.20712      5.65417     18.12770         0.001074     -0.000003     -0.002317
      5.00124      7.53889      6.00000        -2.019670     -0.001880      1.184947
     10.11977      9.42362      6.00000        -2.016177      0.001944      1.182805
      9.35736      9.42362      8.32910        -1.094738     -0.001505     -0.173238
      6.45110      9.42362      7.45294         0.401633     -0.000120     -0.089558
      7.90750      7.53889      6.87615         0.349562     -0.001268     -1.178659
      6.38921      7.53889      9.50461        -0.102767      0.002748      0.424413
      4.23883      7.53889      8.32910        -1.101114     -0.002947     -0.165381
      1.33257      7.53889      7.45294         0.414123      0.011574     -0.098583
[...]
      2.70580      5.65417     13.02133        -0.002874      0.000001     -0.003786
      1.98536      5.65417     15.39771        -0.000935      0.000001     -0.000770
      9.27102      5.65417     14.43632        -0.000896      0.000002     -0.001373
      0.51835      3.77026     13.90083         0.000364      0.001989     -0.000922
      9.33392      3.76507     16.44152        -0.000747      0.002004      0.000878
      7.11769      3.75542     15.35223         0.003146      0.002939      0.000004
      4.15308      3.77009     14.46924        -0.001048     -0.001793     -0.000154
      5.62926      5.65417     13.92315         0.001320      0.000000     -0.002175
      4.20818      5.65417     16.52900         0.000699      0.000000      0.009508
      3.54499      5.65417     18.90150        -0.002955     -0.000001      0.002432
      0.54576      5.65417     18.18992        -0.001726      0.000001      0.002180
      1.98909      3.77260     17.45233         0.000986     -0.000935      0.000129
      8.64645      3.80216     18.81689        -0.000250     -0.001060     -0.000150
      5.67937      3.74057     18.15111         0.001079      0.003225      0.001086
      7.08749      5.65417     17.36098         0.002131      0.000001     -0.004065
    total drift:                                0.042915      0.000014      0.057304

  FREE ENERGIE OF THE ION-ELECTRON SYSTEM (eV)
  free  energy   TOTEN  =     -1596.03379811 eV

  energy  without entropy=    -1596.03379811  energy(sigma->0) =    -1596.03379811

 reached required accuracy - stopping structural energy minimisation