 vasp.6.4.1 05Apr23 (build Sep 19 2024 10:44:22) complex

 executed on             LinuxIFC date 2024.10.18  17:32:24

 INCAR:
   SYSTEM = TiO2
   ISMEAR = 0
   SIGMA = 0.05
   EDIFF = 1E-7
   ALGO = ALL
   ISTART = 0
   IBRION = 2
   NSW = 1000
   ISYM = 0
   ISIF = 2
   EDIFFG = -0.01
   DIPOL = 0.5 0.5 0.5
   IDIPOL = 3
   LDIPOL = .TRUE.
   GGA = MK
   LUSE_VDW = .TRUE.
   PARAM1 = 0.1234
   PARAM2 = 0.711357
   ZAB_VDW = -1.8867
   AGGAC = 0.0
   ENCUT = 600
   PREC = Accurate
   LASPH = .TRUE.
   LREAL = .FALSE.
   ISPIN = 1
   NELM = 200
   NELMIN = 8
   NCORE = 8
   KPAR = 1
   LWAVE = .FALSE.
   LCHARG = .FALSE.

 POTCAR:    PAW_PBE C 08Apr2002
 POTCAR:    PAW_PBE O 08Apr2002
 POTCAR:    PAW_PBE H 15Jun2001
 POTCAR:    PAW_PBE Ti_pv 07Sep2000
 POTCAR:    PAW_PBE O 08Apr2002
|           W    W    AA    RRRRR   N    N  II  N    N   GGGG   !!!           |
|           W    W   A  A   R    R  NN   N  II  NN   N  G    G  !!!           |
|           W    W  A    A  R    R  N N  N  II  N N  N  G       !!!           |
|           W WW W  AAAAAA  RRRRR   N  N N  II  N  N N  G  GGG   !            |
|           WW  WW  A    A  R   R   N   NN  II  N   NN  G    G                |
|           W    W  A    A  R    R  N    N  II  N    N   GGGG   !!!           |
|     For optimal performance we recommend to set                             |
|       NCORE = 2 up to number-of-cores-per-socket                            |
|     This setting can greatly improve the performance of VASP for DFT.       |
|     The default, NCORE=1 might be grossly inefficient on modern             |
|     multi-core architectures or massively parallel machines. Do your        |
|     Unfortunately you need to use the default for GW and RPA                |
|     calculations (for HF NCORE is supported but not extensively tested      |
|     yet).                                                                   |

   TITEL  = PAW_PBE C 08Apr2002
   POMASS =   12.011; ZVAL   =    4.000    mass and valenz
   ENMAX  =  400.000; ENMIN  =  300.000 eV

[...]

   TITEL  = PAW_PBE H 15Jun2001
   POMASS =    1.000; ZVAL   =    1.000    mass and valenz
   ENMAX  =  250.000; ENMIN  =  200.000 eV

   TITEL  = PAW_PBE Ti_pv 07Sep2000
   POMASS =   47.880; ZVAL   =   10.000    mass and valenz
   ENMAX  =  222.335; ENMIN  =  166.751 eV

   TITEL  = PAW_PBE O 08Apr2002
   POMASS =   16.000; ZVAL   =    6.000    mass and valenz
   ENMAX  =  400.000; ENMIN  =  300.000 eV

  PAW_PBE C 08Apr2002                   :
  PAW_PBE O 08Apr2002                   :
  PAW_PBE H 15Jun2001                   :
  PAW_PBE Ti_pv 07Sep2000               :
  PAW_PBE O 08Apr2002                   :

 POSCAR:  C  O  H Ti  O
  positions in direct lattice
 exchange correlation table for  LEXCH =       43
   RHO(1)=    0.500       N(1)  =     2000
   RHO(2)=  100.500       N(2)  =     4000

 ion  position               nearest neighbor table
   1  0.510  0.588  0.808-   3 1.09   5 1.10   6 1.10   2 1.45
   2  0.538  0.498  0.778-   4 1.00   1 1.45  86 2.18
   3  0.426  0.598  0.806-   1 1.09
   4  0.614  0.494  0.777-   2 1.00
   5  0.533  0.565  0.841-   1 1.10
   6  0.548  0.668  0.798-   1 1.10
   7  0.750  0.625  0.287-  87 1.96  88 1.96 147 1.96 148 1.96  90 1.99 169 1.99  17 2.96  37 2.96

   8  0.000  0.750  0.287-  89 1.96  90 1.96 109 1.96 110 1.96  91 1.99  38 2.96  18 2.96
   9  0.000  0.625  0.393-  91 1.96  92 1.96 151 1.96 152 1.96  93 1.99  94 1.99  19 2.96  39 2.96

[...]

  87  0.750  0.750  0.245-   7 1.96  17 1.96
  88  0.750  0.750  0.328-   7 1.96  17 1.96  10 1.99
  89  0.098  0.625  0.287-   8 1.96  38 1.96  47 1.99
  90  0.902  0.625  0.287-   8 1.96  38 1.96   7 1.99
  91  0.000  0.750  0.352-   9 1.96  19 1.96   8 1.99
  92  0.000  0.750  0.435-   9 1.96  19 1.96  12 1.99
  93  0.848  0.625  0.393-  10 1.96  40 1.96   9 1.99
  94  0.152  0.625  0.393-  50 1.96  80 1.96   9 1.99
  95  0.750  0.750  0.458-  11 1.96  21 1.96  10 1.99
  96  0.750  0.750  0.542-  11 1.96  21 1.96  14 2.11
  97  0.098  0.625  0.500-  12 1.96  42 1.96  51 1.99
  98  0.902  0.625  0.500-  12 1.96  42 1.96  11 1.99
  99  0.000  0.750  0.565-  13 1.90  23 1.90  12 2.00
 100  0.000  0.750  0.649-  16 1.82  13 2.02  23 2.02
 101  0.850  0.625  0.607-  13 1.96  44 1.98  14 1.98
 102  0.150  0.625  0.607-  13 1.96  84 1.98  54 1.98
 103  0.750  0.750  0.672-  14 1.87  15 2.10  25 2.10
 104  0.750  0.750  0.756-  25 1.83  15 1.83
 105  0.094  0.625  0.719-  16 1.95  46 1.95  55 2.04
 106  0.906  0.625  0.719-  46 1.95  16 1.95  15 2.04
 107  0.750  0.000  0.245-  17 1.96  27 1.96
 108  0.750  0.000  0.328-  17 1.96  27 1.96  20 1.99
 109  0.098  0.875  0.287-   8 1.96  18 1.96  57 1.99
 110  0.902  0.875  0.287-   8 1.96  18 1.96  17 1.99
 111  0.000  0.000  0.352-  19 1.96  29 1.96  18 1.99
 112  0.000  0.000  0.435-  19 1.96  29 1.96  22 1.99
 113  0.848  0.875  0.393-  10 1.96  20 1.96  19 1.99
 114  0.152  0.875  0.393-  50 1.96  60 1.96  19 1.99
 115  0.750  0.000  0.458-  21 1.96  31 1.96  20 1.99
 116  0.750  0.000  0.542-  21 1.96  31 1.96  24 2.11
 117  0.098  0.875  0.500-  12 1.96  22 1.96  61 1.99
 118  0.902  0.875  0.500-  12 1.96  22 1.96  21 1.99
 119  0.000  0.000  0.565-  23 1.90  33 1.90  22 2.00
 120  1.000  0.000  0.649-  26 1.82  33 2.02  23 2.02
 121  0.850  0.875  0.607-  23 1.96  14 1.98  24 1.98
 122  0.150  0.875  0.607-  23 1.96  64 1.98  54 1.98
 123  0.750  0.000  0.672-  24 1.87  35 2.10  25 2.10
 124  0.750  1.000  0.756-  25 1.83  35 1.83
 125  0.094  0.875  0.719-  26 1.95  16 1.95  65 2.04
 126  0.906  0.875  0.719-  26 1.95  16 1.95  25 2.04
 127  0.750  0.250  0.245-  27 1.96  37 1.96
 128  0.750  0.250  0.328-  27 1.96  37 1.96  30 1.99
 129  0.098  0.125  0.287-  18 1.96  28 1.96  67 1.99
 130  0.902  0.125  0.287-  18 1.96  28 1.96  27 1.99
 131  0.000  0.250  0.352-  29 1.96  39 1.96  28 1.99
 132  0.000  0.250  0.435-  29 1.96  39 1.96  32 1.99
 133  0.848  0.125  0.393-  20 1.96  30 1.96  29 1.99
 134  0.152  0.125  0.393-  60 1.96  70 1.96  29 1.99
 135  0.750  0.250  0.458-  31 1.96  41 1.96  30 1.99
 136  0.750  0.250  0.542-  31 1.96  41 1.96  34 2.11
 137  0.098  0.125  0.500-  22 1.96  32 1.96  71 1.99
 138  0.902  0.125  0.500-  22 1.96  32 1.96  31 1.99
 139  0.000  0.250  0.565-  43 1.90  33 1.90  32 2.00
 140  0.000  0.250  0.649-  36 1.82  33 2.02  43 2.02
 141  0.850  0.125  0.607-  33 1.96  34 1.98  24 1.98
 142  0.150  0.125  0.607-  33 1.96  64 1.98  74 1.98
 143  0.750  0.250  0.672-  34 1.87  35 2.10  45 2.10
 144  0.750  0.250  0.756-  45 1.83  35 1.83
 145  0.094  0.125  0.719-  36 1.95  26 1.95  75 2.04
 146  0.906  0.125  0.719-  36 1.95  26 1.95  35 2.04
[...]
 232  0.500  0.500  0.435-  49 1.96  79 1.96  82 1.99
 233  0.348  0.375  0.393-  70 1.96  80 1.96  79 1.99
 234  0.652  0.375  0.393-  30 1.96  40 1.96  79 1.99
 235  0.250  0.500  0.458-  51 1.96  81 1.96  80 1.99
 236  0.250  0.500  0.542-  51 1.96  81 1.96  84 2.11
 237  0.598  0.375  0.500-  72 1.96  82 1.96  41 1.99
 238  0.402  0.375  0.500-  72 1.96  82 1.96  81 1.99
 239  0.500  0.500  0.565-  53 1.90  83 1.90  82 2.00
 240  0.500  0.500  0.649-  86 1.82  53 2.02  83 2.02
 241  0.350  0.375  0.607-  83 1.96  74 1.98  84 1.98
 242  0.650  0.375  0.607-  83 1.96  34 1.98  44 1.98
 243  0.250  0.500  0.672-  84 1.87  85 2.10  55 2.10
 244  0.250  0.500  0.756-  85 1.83  55 1.83
 245  0.594  0.375  0.719-  76 1.95  86 1.95  45 2.04
 246  0.406  0.375  0.719-  76 1.95  86 1.95  85 2.04

IMPORTANT INFORMATION: All symmetrisations will be switched off!
NOSYMM: (Re-)initialisation of all symmetry stuff for point group C_1.

                                     Primitive cell

  volume of cell :    4737.1735

  direct lattice vectors                    reciprocal lattice vectors
    13.061198858  0.000000000  0.000000000     0.076562650  0.000000000  0.000000000
     0.000000000 11.845266045  0.000000000     0.000000000  0.084421911  0.000000000
     0.000000000  0.000000000 30.619030317     0.000000000  0.000000000  0.032659427

  length of vectors
    13.061198858 11.845266045 30.619030317     0.076562650  0.084421911  0.032659427

  position of ions in fractional coordinates (direct lattice)
     0.509532180  0.588373956  0.807664184
     0.537748420  0.498244476  0.777905916
     0.426309110  0.597719053  0.805990505
     0.614115809  0.493540926  0.776505213
     0.532829096  0.564856386  0.840907865
     0.547777744  0.667711953  0.798431834
     0.750000000  0.625000000  0.286714362
     0.000000000  0.750000000  0.286714362
     0.000000000  0.625000000  0.393357181
     0.750000000  0.750000000  0.393357181
     0.750000000  0.625000000  0.500000000
     0.000000000  0.750000000  0.500000000
     0.000000038  0.625000012  0.604439268
     0.750000022  0.749999988  0.610750177
     0.749999940  0.625000009  0.720421785
     0.000000012  0.749999988  0.708497273
     0.750000000  0.875000000  0.286714362
     0.000000000  0.000000000  0.286714362
     0.000000000  0.875000000  0.393357181
     0.750000000  0.000000000  0.393357181
     0.750000000  0.875000000  0.500000000
     0.000000000  0.000000000  0.500000000
     0.999999981  0.875000008  0.604439275
     0.750000000  0.000000010  0.610750189
     0.749999929  0.875000013  0.720421816
     0.999999966  0.999999970  0.708497268
     0.750000000  0.125000000  0.286714362
     0.000000000  0.250000000  0.286714362
     0.000000000  0.125000000  0.393357181
     0.750000000  0.250000000  0.393357181
     0.750000000  0.125000000  0.500000000
     0.000000000  0.250000000  0.500000000
     0.999999998  0.125000010  0.604439287
     0.750000012  0.249999994  0.610750204
     0.749999969  0.124999992  0.720421820
     0.999999985  0.249999987  0.708497291
     0.750000000  0.375000000  0.286714362
     0.000000000  0.500000000  0.286714362
     0.000000000  0.375000000  0.393357181
     0.750000000  0.500000000  0.393357181
     0.750000000  0.375000000  0.500000000
     0.000000000  0.500000000  0.500000000
     0.999999980  0.374999975  0.604439276
     0.750000027  0.500000018  0.610750194
     0.750000010  0.374999992  0.720421849
     0.999999973  0.500000001  0.708497251
     0.250000000  0.625000000  0.286714362
     0.500000000  0.750000000  0.286714362
     0.500000000  0.625000000  0.393357181
     0.250000000  0.750000000  0.393357181
     0.250000000  0.625000000  0.500000000
     0.500000000  0.750000000  0.500000000
     0.499999996  0.624999984  0.604439241
     0.249999994  0.750000011  0.610750197
     0.250000015  0.625000016  0.720421825
     0.500000055  0.750000054  0.708497233
     0.250000000  0.875000000  0.286714362
     0.500000000  0.000000000  0.286714362
     0.500000000  0.875000000  0.393357181
     0.250000000  0.000000000  0.393357181
[...]
     0.500000000  0.500000000  0.435125836
     0.347917178  0.375000000  0.393357181
     0.652082822  0.375000000  0.393357181
     0.250000000  0.500000000  0.458231344
     0.250000000  0.500000000  0.541768656
     0.597917178  0.375000000  0.500000000
     0.402082822  0.375000000  0.500000000
     0.499999972  0.499999984  0.565446779
     0.499999995  0.500000009  0.649151821
[...]
   4.57254372  4.44197470 18.59361466
   8.48865501  4.44197472 18.59361412
   3.26529923  5.92263294 20.57046276
   3.26529986  5.92263304 23.13864922
   7.75742008  4.44197500 22.01297835
   5.30377904  4.44197476 22.01297814

--------------------------------------- Iteration      FINAL  ---------------------------------------

--------------------OUTCAR has been truncated-------------------------

[...]

--------------------OUTCAR has been truncated-------------------------

  FORCE on cell =-STRESS in cart. coord.  units (eV):
  Direction    XX          YY          ZZ          XY          YZ          ZX
  Alpha Z  4674.71811  4674.71811  4674.71811
  Ewald  967777.98191985376.69783************   -73.40551   131.96179   -71.06054
  Hartree************************************   -39.73234    76.95523   -47.66092
  E(xc)   -8658.89627 -8653.85920 -8656.07334     0.00475    -0.02636    -0.05003
  Local  ************************************   107.50362  -199.86340   115.73571
  n-local -5512.17382 -5435.81092 -5551.58967    -1.04637     1.76991    -0.62839
  augment  5257.16586  5234.65218  5262.94635     0.42822    -0.74128     0.08094
  Kinetic 28792.50682 28346.01659 28849.50268     6.21190   -10.12091     3.48668
  Fock        0.00000     0.00000     0.00000     0.00000     0.00000     0.00000
  Total       5.64086   -38.86895   -34.51077    -0.03573    -0.06503    -0.09655
  in kB       1.90782   -13.14601   -11.67202    -0.01208    -0.02200    -0.03265

 VOLUME and BASIS-vectors are now :
  energy-cutoff  :      600.00
  volume of cell :     4737.17
      direct lattice vectors                 reciprocal lattice vectors
    13.061198858  0.000000000  0.000000000     0.076562650  0.000000000  0.000000000
     0.000000000 11.845266045  0.000000000     0.000000000  0.084421911  0.000000000
     0.000000000  0.000000000 30.619030317     0.000000000  0.000000000  0.032659427

  length of vectors
    13.061198858 11.845266045 30.619030317     0.076562650  0.084421911  0.032659427

 FORCES acting on ions:
    Electron-Ion                     Ewald-Force                    Non-Local-Force
   0.393E+02 -.894E+02 -.160E+04   -.419E+02 0.944E+02 0.161E+04   0.264E+01 -.504E+01 -.491E+01
   0.197E+02 0.123E+03 -.250E+04   -.412E+02 -.148E+03 0.249E+04   0.215E+02 0.252E+02 0.102E+02
   0.583E+02 -.134E+02 -.392E+03   -.642E+02 0.138E+02 0.391E+03   0.592E+01 -.436E+00 0.180E+00
   -.684E+02 0.150E+02 -.426E+03   0.757E+02 -.156E+02 0.426E+03   -.729E+01 0.558E+00 0.338E+00
   -.124E+02 0.690E+01 -.384E+03   0.141E+02 -.837E+01 0.389E+03   -.165E+01 0.147E+01 -.536E+01
   -.173E+02 -.618E+02 -.390E+03   0.197E+02 0.667E+02 0.389E+03   -.241E+01 -.494E+01 0.128E+01
   -.199E+00 -.189E-01 0.377E+04   0.195E+00 0.192E-01 -.377E+04   0.120E-02 -.165E-04 0.356E+00
   -.631E-01 -.628E-01 0.395E+04   0.646E-01 0.629E-01 -.394E+04   -.274E-03 -.207E-04 -.369E+01
   -.203E+00 -.443E-01 0.193E+04   0.209E+00 0.445E-01 -.193E+04   -.104E-02 0.924E-04 -.414E-01
   -.444E+00 -.625E-01 0.192E+04   0.433E+00 0.629E-01 -.192E+04   0.282E-02 0.428E-04 0.206E+00
   -.160E+01 -.970E-01 0.175E+02   0.155E+01 0.805E-01 -.168E+02   0.122E-01 0.685E-03 -.111E+00
   0.661E+00 -.878E+00 0.247E+02   -.657E+00 0.883E+00 -.257E+02   -.505E-03 -.284E-02 0.326E+00
   0.831E+01 -.183E+01 -.184E+04   -.838E+01 0.183E+01 0.184E+04   0.190E-01 -.630E-02 0.903E-01
   -.303E+01 -.978E+01 -.189E+04   0.302E+01 0.979E+01 0.189E+04   -.221E-01 -.714E-02 -.811E-01
   -.100E+03 -.159E+02 -.368E+04   0.999E+02 0.157E+02 0.368E+04   0.184E+00 0.150E+00 0.757E-01
   -.576E+01 -.529E+01 -.375E+04   0.580E+01 0.529E+01 0.375E+04   -.450E-01 -.111E-01 0.896E+00
   -.206E+00 -.669E-01 0.377E+04   0.202E+00 0.671E-01 -.377E+04   0.123E-02 0.255E-05 0.356E+00
   -.603E-01 -.302E-01 0.395E+04   0.618E-01 0.303E-01 -.394E+04   -.280E-03 -.852E-05 -.369E+01
   -.168E+00 -.137E+00 0.193E+04   0.174E+00 0.137E+00 -.193E+04   -.989E-03 0.681E-04 -.414E-01
   -.530E+00 -.781E-01 0.192E+04   0.519E+00 0.776E-01 -.192E+04   0.262E-02 -.430E-04 0.205E+00
   -.294E+01 -.945E+00 0.160E+02   0.291E+01 0.972E+00 -.153E+02   0.892E-02 -.935E-03 -.113E+00
   0.106E+01 -.258E+00 0.233E+02   -.105E+01 0.257E+00 -.243E+02   -.226E-04 -.162E-03 0.323E+00
   0.113E+02 -.283E+01 -.185E+04   -.114E+02 0.284E+01 0.185E+04   0.196E-01 -.837E-02 0.916E-01
   0.778E+00 -.176E+01 -.191E+04   -.785E+00 0.176E+01 0.191E+04   -.311E-01 0.980E-03 -.943E-01
   -.296E+02 -.285E+02 -.373E+04   0.295E+02 0.285E+02 0.373E+04   0.551E-01 0.178E-01 -.507E-01
   -.506E+01 -.217E+01 -.376E+04   0.504E+01 0.217E+01 0.376E+04   0.244E-01 -.103E-02 0.936E+00
   -.201E+00 0.188E-01 0.377E+04   0.197E+00 -.192E-01 -.377E+04   0.121E-02 0.348E-04 0.356E+00
   -.635E-01 0.627E-01 0.395E+04   0.650E-01 -.629E-01 -.394E+04   -.291E-03 0.208E-04 -.369E+01
   -.170E+00 0.473E-01 0.193E+04   0.177E+00 -.474E-01 -.193E+04   -.109E-02 -.369E-04 -.413E-01
   -.411E+00 0.626E-01 0.192E+04   0.400E+00 -.630E-01 -.192E+04   0.270E-02 -.573E-04 0.206E+00
   -.280E+01 0.418E+00 0.156E+02   0.277E+01 -.458E+00 -.149E+02   0.994E-02 0.229E-02 -.113E+00
   0.674E+00 0.905E+00 0.242E+02   -.666E+00 -.909E+00 -.252E+02   -.999E-03 0.207E-02 0.326E+00
   0.125E+02 0.149E+01 -.185E+04   -.126E+02 -.149E+01 0.185E+04   0.231E-01 0.678E-02 0.944E-01
   -.191E+01 0.925E+01 -.189E+04   0.189E+01 -.925E+01 0.189E+04   -.181E-01 -.380E-03 -.939E-01
   -.220E+02 0.155E+02 -.373E+04   0.220E+02 -.155E+02 0.373E+04   0.509E-01 -.107E-01 -.615E-01
   -.483E+01 0.480E+01 -.375E+04   0.486E+01 -.479E+01 0.375E+04   -.352E-01 0.719E-02 0.897E+00
   -.194E+00 0.670E-01 0.377E+04   0.190E+00 -.671E-01 -.377E+04   0.118E-02 -.197E-04 0.356E+00
   -.662E-01 0.302E-01 0.395E+04   0.677E-01 -.303E-01 -.394E+04   -.290E-03 0.852E-05 -.369E+01
   -.206E+00 0.134E+00 0.193E+04   0.213E+00 -.134E+00 -.193E+04   -.112E-02 -.733E-04 -.413E-01
   -.328E+00 0.780E-01 0.192E+04   0.318E+00 -.775E-01 -.192E+04   0.256E-02 -.161E-04 0.205E+00
   -.142E+01 0.627E+00 0.170E+02   0.137E+01 -.598E+00 -.163E+02   0.126E-01 -.143E-02 -.111E+00
   0.503E+00 0.286E+00 0.255E+02   -.496E+00 -.285E+00 -.265E+02   -.179E-02 -.577E-03 0.324E+00
   0.893E+01 0.325E+01 -.185E+04   -.901E+01 -.326E+01 0.185E+04   0.185E-01 0.646E-02 0.918E-01
   -.396E+01 0.172E+01 -.188E+04   0.399E+01 -.172E+01 0.188E+04   -.705E-01 0.257E-02 -.821E-01
   -.853E+02 0.251E+02 -.369E+04   0.852E+02 -.248E+02 0.369E+04   0.111E+00 -.187E+00 0.770E-01
   -.776E+01 0.279E+01 -.375E+04   0.773E+01 -.280E+01 0.375E+04   0.323E-01 0.389E-02 0.852E+00
   0.195E+00 -.143E-01 0.377E+04   -.191E+00 0.143E-01 -.377E+04   -.113E-02 0.127E-04 0.356E+00
   0.673E-01 -.512E-01 0.395E+04   -.687E-01 0.515E-01 -.394E+04   0.278E-03 -.507E-04 -.370E+01
   0.298E+00 0.150E+00 0.193E+04   -.304E+00 -.138E+00 -.193E+04   0.706E-03 -.255E-02 -.431E-01
   0.353E+00 -.103E-01 0.192E+04   -.342E+00 0.107E-01 -.192E+04   -.195E-02 -.342E-04 0.201E+00
   0.662E+00 0.181E+00 0.149E+02   -.606E+00 -.195E+00 -.141E+02   -.986E-02 0.841E-03 -.122E+00
   0.299E+01 0.993E+00 0.292E+02   -.302E+01 -.108E+01 -.300E+02   0.292E-02 0.399E-01 0.243E+00
   0.174E+02 -.140E+02 -.183E+04   -.174E+02 0.142E+02 0.183E+04   -.232E-02 -.110E+00 0.642E-01
   0.194E+02 -.684E+01 -.190E+04   -.194E+02 0.684E+01 0.190E+04   -.370E-01 0.660E-02 -.877E-01
   0.641E+02 -.155E+02 -.370E+04   -.642E+02 0.155E+02 0.369E+04   0.628E-01 0.144E-01 -.697E-01
   0.253E+02 -.819E+02 -.366E+04   -.252E+02 0.820E+02 0.366E+04   -.166E+00 -.533E-01 0.105E+01
   0.202E+00 -.624E-01 0.377E+04   -.198E+00 0.628E-01 -.377E+04   -.118E-02 -.861E-05 0.356E+00
   0.646E-01 -.380E-01 0.395E+04   -.660E-01 0.380E-01 -.394E+04   0.274E-03 -.104E-05 -.370E+01
   0.265E+00 -.107E-02 0.193E+04   -.271E+00 0.113E-02 -.193E+04   0.772E-03 -.108E-02 -.440E-01
   0.436E+00 -.850E-01 0.192E+04   -.425E+00 0.849E-01 -.192E+04   -.197E-02 0.574E-04 0.201E+00
[...]
   -.542E+02 0.186E-01 0.115E+04   0.583E+02 -.194E-01 -.115E+04   -.365E+01 0.104E-02 0.155E+00
   0.544E+02 0.316E-01 0.116E+04   -.584E+02 -.322E-01 -.116E+04   0.365E+01 0.758E-03 0.162E+00
   0.177E+00 0.143E+00 0.511E+03   -.153E+00 -.145E+00 -.516E+03   -.336E-01 0.258E-02 0.425E+01
   0.264E+01 0.613E+00 -.509E+03   -.281E+01 -.617E+00 0.516E+03   0.159E+00 0.346E-02 -.703E+01
   -.556E+02 -.404E-01 0.163E+02   0.603E+02 0.382E-01 -.165E+02   -.508E+01 0.227E-01 0.237E+00
   0.567E+02 -.121E+00 0.138E+02   -.614E+02 0.116E+00 -.139E+02   0.513E+01 0.280E-01 0.211E+00
   0.988E+01 0.129E+01 -.601E+03   -.107E+02 -.135E+01 0.594E+03   0.796E+00 0.610E-01 0.685E+01
   0.177E+02 0.270E+01 -.159E+04   -.187E+02 -.261E+01 0.159E+04   0.964E+00 -.908E-01 -.264E+01
   -.445E+02 0.387E+01 -.111E+04   0.502E+02 -.392E+01 0.110E+04   -.562E+01 0.440E-01 0.123E+01
   0.925E+01 0.616E+01 -.111E+04   -.102E+02 -.631E+01 0.111E+04   0.982E+00 0.146E+00 0.566E+00
   0.236E+02 0.262E+01 -.178E+04   -.239E+02 -.266E+01 0.178E+04   0.299E+00 0.382E-01 -.187E+01
   0.593E+02 0.102E+02 -.269E+04   -.591E+02 -.102E+02 0.271E+04   -.209E+00 0.635E-01 -.203E+02
   -.535E+02 0.586E+02 -.219E+04   0.595E+02 -.583E+02 0.220E+04   -.598E+01 -.260E+00 -.601E+00
   0.721E+02 0.496E+02 -.227E+04   -.783E+02 -.497E+02 0.227E+04   0.622E+01 0.127E+00 -.310E+01
   0.321E+01 -.176E+02 0.817E+02   -.369E-12 -.145E-11 0.227E-10   -.322E+01 0.177E+02 -.818E+02

 POSITION                                       TOTAL-FORCE (eV/Angst)
      6.65954      6.93188     24.84591         0.002961      0.007700      0.005536
      7.05535      5.89513     23.91629         0.000861     -0.001289     -0.002910
      5.56718      7.00685     24.80380        -0.002586      0.002414      0.000331
      8.06030      5.84350     23.87468         0.000432      0.000474      0.004771
      6.98247      6.64552     25.85622        -0.003561      0.002381     -0.003571
      7.12694      7.89432     24.57279        -0.004569     -0.003936      0.001663
      9.79590      7.40329      8.77892        -0.002775      0.000206     -3.481883
      0.00000      8.88395      8.77892         0.001198      0.000133      2.773371
      0.00000      7.40329     12.04422         0.005277      0.000237      0.516107
      9.79590      8.88395     12.04422        -0.008130      0.000452     -0.726889
      9.79590      7.40329     15.30952        -0.038981     -0.015883      0.587743
      0.00000      8.88395     15.30952         0.004630      0.002168     -0.700713
      0.06930      7.40441     18.50619         0.003996     -0.001514      0.001543
      9.85641      8.88556     18.68370         0.002783      0.000573      0.001205
      9.81303      7.41582     22.01693        -0.000203     -0.000747     -0.000513
      0.00606      8.88826     21.69829        -0.000185     -0.001363      0.002093
      9.79590     10.36461      8.77892        -0.002847      0.000232     -3.481937
      0.00000      0.00000      8.77892         0.001205      0.000065      2.773208
      0.00000     10.36461     12.04422         0.005096     -0.000038      0.516371
      9.79590      0.00000     12.04422        -0.008280     -0.000481     -0.727660
      9.79590     10.36461     15.30952        -0.024874      0.025742      0.596165
      0.00000      0.00000     15.30952         0.004249     -0.000806     -0.698198
      0.07136     10.36539     18.50809         0.001830     -0.000509      0.001355
      9.85213      0.00037     18.69364        -0.000800      0.000250      0.000485
      9.79879     10.36599     22.05146        -0.002770      0.000171     -0.000665
      0.00943     -0.00043     21.69696         0.000889     -0.000254      0.002239
      9.79590      1.48066      8.77892        -0.002820     -0.000367     -3.482210
      0.00000      2.96132      8.77892         0.001240     -0.000168      2.773226
      0.00000      1.48066     12.04422         0.005320     -0.000119      0.516274
      9.79590      2.96132     12.04422        -0.007853     -0.000475     -0.728673
      9.79590      1.48066     15.30952        -0.024056     -0.037466      0.588217
      0.00000      2.96132     15.30952         0.007113     -0.001892     -0.700508
      0.07354      1.48033     18.50781         0.000123      0.000937      0.002326
      9.85613      2.95988     18.68196         0.000122     -0.000879      0.001436
      9.79808      1.47270     22.05151        -0.002619     -0.002052     -0.000363
      0.00875      2.95683     21.69790         0.000118      0.001222      0.001706
      9.79590      4.44197      8.77892        -0.002749     -0.000125     -3.482142
      0.00000      5.92263      8.77892         0.001230     -0.000076      2.773400
      0.00000      4.44197     12.04422         0.005528     -0.000119      0.515997
      9.79590      5.92263     12.04422        -0.007886      0.000432     -0.727799
      9.79590      4.44197     15.30952        -0.039230      0.027331      0.580845
      0.00000      5.92263     15.30952         0.006608      0.000469     -0.702581
      0.07034      4.44189     18.50600         0.002391      0.000299      0.001699
      9.86082      5.92270     18.68929        -0.001136     -0.000201      0.000038
      9.82195      4.42115     22.01858         0.000655      0.000112      0.000520
      0.01533      5.92406     21.69648         0.002555     -0.000651     -0.000483
      3.26530      7.40329      8.77892         0.002880     -0.000073     -3.479673
      6.53060      8.88395      8.77892        -0.001072      0.000253      2.780518
      6.53060      7.40329     12.04422        -0.005006      0.008729      0.542301
      3.26530      8.88395     12.04422         0.008494      0.000339     -0.711717
      3.26530      7.40329     15.30952         0.046153     -0.013567      0.636160
      6.53060      8.88395     15.30952        -0.019554     -0.045509     -0.555275
      6.60249      7.37380     18.54933         0.002257     -0.001412     -0.000432
      3.32643      8.88331     18.69280         0.001606      0.000159      0.001217
      3.27446      7.40669     22.04988        -0.000177      0.001879     -0.001670
      6.54519      8.88617     21.65916        -0.001983     -0.002529      0.002686
      3.26530     10.36461      8.77892         0.002928      0.000323     -3.479815
      6.53060      0.00000      8.77892        -0.001072      0.000014      2.780475
      6.53060     10.36461     12.04422        -0.005203     -0.001038      0.543229
      3.26530      0.00000     12.04422         0.008730      0.000003     -0.711365
[...]
      6.53060      5.92263     13.32313         0.002858     -0.000671     -0.141070
      4.54422      4.44197     12.04422         0.414657      0.000293      0.049041
      8.51698      4.44197     12.04422        -0.408715      0.000211      0.051064
      3.26530      5.92263     14.03060        -0.010111      0.001458     -0.092073
      3.26530      5.92263     16.58843        -0.009250     -0.000151      0.017778
      7.80952      4.44197     15.30952        -0.399270      0.020470      0.059525
      5.25168      4.44197     15.30952         0.433259      0.022636      0.074958
      6.54175      5.92125     17.32046        -0.000975      0.000068     -0.000890
      6.53201      5.92667     19.89618        -0.002180     -0.000566     -0.001127
      4.57165      4.44289     18.59502         0.003117     -0.001805      0.000055
      8.50657      4.44124     18.60743         0.000977     -0.000512      0.000865
      3.27053      5.92665     20.57093         0.002150     -0.000490     -0.000228
      3.29608      5.92476     23.13675        -0.000995     -0.000140      0.002301
      7.79714      4.39642     21.88694         0.000543      0.000409     -0.000587
      5.31662      4.42988     21.99656         0.000939     -0.000185     -0.000831
    total drift:                               -0.009536      0.002578     -0.023334

  FREE ENERGIE OF THE ION-ELECTRON SYSTEM (eV)
  free  energy   TOTEN  =     -1768.79632572 eV

  energy  without entropy=    -1768.79632572  energy(sigma->0) =    -1768.79632572

 d Force = 0.2064142E-04[ 0.635E-05, 0.349E-04]  d Energy = 0.2109597E-04-0.455E-06
 d Force = 0.8059622E+01[ 0.806E+01, 0.806E+01]  d Ewald  = 0.8059622E+01-0.871E-07

 Conjugate gradient step on ions:
 trial-energy change:   -0.000021  1 .order   -0.000021   -0.000035   -0.000006
  (g-gl).g = 0.586E-04      g.g   = 0.579E-04  gl.gl    = 0.883E-04
 g(Force)  = 0.579E-04   g(Stress)= 0.000E+00 ortho     =-0.428E-05
 gamma     =   0.66379
 trial     =   0.63388
 opt step  =   0.76037  (harmonic =   0.77485) maximal distance =0.00038420
 next E    = -1768.796326   (d E  =  -0.00002)

 reached required accuracy - stopping structural energy minimisation