 vasp.6.3.0 20Jan22 (build Apr  1 2022 16:44:48) gamma-only
 executed on        HPECrayEX_GCC date 2023.03.12  00:03:09

 INCAR:
   SYSTEM = MgO-rocksalt
   ISMEAR = 0
   SIGMA = 0.05
   EDIFF = 1E-6
   ALGO = ALL
   ISTART = 0
   IBRION = -1
   NSW = 0
   ISYM = 0
   DIPOL = 0.5 0.5 0.5
   IDIPOL = 3
   LDIPOL = .TRUE.
   LHFCALC = .TRUE.
   GGA = PE
   IVDW = 13
   VDW_S8 = 1.2007
   VDW_A1 = 0.4009
   VDW_A2 = 5.0293
   ENCUT = 520
   PREC = Accurate
   LASPH = .TRUE.
   LREAL = Auto
   ISPIN = 1
   NELM = 200
   NELMIN = 8
   NCORE = 8
   KPAR = 1
   LWAVE = .FALSE.
   LCHARG = .FALSE.

 POTCAR:    PAW_PBE H 15Jun2001
 POTCAR:    PAW_PBE O 08Apr2002
 POTCAR:    PAW_PBE Mg_pv 13Apr2007
 POTCAR:    PAW_PBE O 08Apr2002
 POTCAR:    PAW_PBE H 15Jun2001
   VRHFIN =H: ultrasoft test

   TITEL  = PAW_PBE H 15Jun2001
   POMASS =    1.000; ZVAL   =    1.000    mass and valenz
   ENMAX  =  250.000; ENMIN  =  200.000 eV

   TITEL  = PAW_PBE O 08Apr2002
   POMASS =   16.000; ZVAL   =    6.000    mass and valenz
   ENMAX  =  400.000; ENMIN  =  300.000 eV

   TITEL  = PAW_PBE Mg_pv 13Apr2007
   POMASS =   24.305; ZVAL   =    8.000    mass and valenz
   ENMAX  =  403.929; ENMIN  =  302.947 eV

   TITEL  = PAW_PBE O 08Apr2002
   POMASS =   16.000; ZVAL   =    6.000    mass and valenz
   ENMAX  =  400.000; ENMIN  =  300.000 eV

 Optimization of the real space projectors (new method)

 maximal supplied QI-value         = 34.20
 optimisation between [QCUT,QGAM] = [ 11.63, 23.26] = [ 37.87,151.49] Ry
 Optimized for a Real-space Cutoff    1.21 Angstroem

   l    n(q)    QCUT    max X(q) W(low)/X(q) W(high)/X(q)  e(spline)
   0      8    11.629    19.460    0.17E-03    0.34E-03    0.21E-06
   0      8    11.629    12.209    0.16E-03    0.33E-03    0.21E-06
   1      8    11.629     4.655    0.18E-03    0.16E-03    0.26E-06
 Optimization of the real space projectors (new method)

[...]

   l    n(q)    QCUT    max X(q) W(low)/X(q) W(high)/X(q)  e(spline)
   1      8    11.527     2.974    0.44E-04    0.56E-04    0.12E-06
   1      8    11.527     4.279    0.12E-03    0.12E-03    0.26E-06
   0      9    11.527    16.381    0.46E-04    0.64E-04    0.78E-07
   0      9    11.527     5.611    0.26E-04    0.43E-04    0.55E-07
   2      8    11.527     4.652    0.22E-03    0.72E-04    0.47E-07
 Optimization of the real space projectors (new method)

 maximal supplied QI-value         = 24.76
 optimisation between [QCUT,QGAM] = [ 11.64, 23.27] = [ 37.91,151.63] Ry
 Optimized for a Real-space Cutoff    1.14 Angstroem

   l    n(q)    QCUT    max X(q) W(low)/X(q) W(high)/X(q)  e(spline)
   0      8    11.635    20.381    0.10E-03    0.33E-03    0.24E-06
   0      8    11.635    15.268    0.11E-03    0.35E-03    0.26E-06
   1      7    11.635     5.964    0.24E-03    0.31E-03    0.30E-06
   1      7    11.635     5.382    0.22E-03    0.25E-03    0.26E-06
  PAW_PBE H 15Jun2001                   :
  PAW_PBE O 08Apr2002                   :
  PAW_PBE Mg_pv 13Apr2007               :
  PAW_PBE O 08Apr2002                   :

 POSCAR:  H  O Mg  O
  positions in direct lattice
|           W    W    AA    RRRRR   N    N  II  N    N   GGGG   !!!           |
|           W    W   A  A   R    R  NN   N  II  NN   N  G    G  !!!           |
|           W    W  A    A  R    R  N N  N  II  N N  N  G       !!!           |
|           W WW W  AAAAAA  RRRRR   N  N N  II  N  N N  G  GGG   !            |
|           WW  WW  A    A  R   R   N   NN  II  N   NN  G    G                |
|           W    W  A    A  R    R  N    N  II  N    N   GGGG   !!!           |
|     Specifying the vdW parameters                                           |
|     VDW_S8 = 1.201                                                          |
|     VDW_A1 = 0.401                                                          |
|     VDW_A2 = 5.029                                                          |
|     in the INCAR file will overwrite the defaults for pbe0. Please make     |
|     sure that is what you intended.                                         |

 ion  position               nearest neighbor table
   1  0.414  0.428  0.760-   9 0.98
   2  0.328  0.391  0.766-   9 0.96
   3  0.586  0.323  0.760-  10 0.98
   4  0.673  0.359  0.765-  10 0.96
   5  0.448  0.291  0.760-  11 0.98
   6  0.485  0.204  0.768-  11 0.96
   7  0.554  0.463  0.760-  12 0.98
   8  0.516  0.550  0.763-  12 0.96
   9  0.383  0.379  0.755-   2 0.96   1 0.98  43 2.24
  10  0.618  0.372  0.755-   4 0.96   3 0.98  91 2.24
  11  0.497  0.258  0.755-   6 0.96   5 0.98 108 2.24
  12  0.504  0.494  0.754-   8 0.96   7 0.98 132 2.24
  13  0.125  0.000  0.353- 143 2.09 144 2.09 160 2.09 183 2.09 141 2.09
  14  0.250  0.125  0.353- 143 2.09 144 2.09 152 2.09 159 2.09 142 2.09
  15  0.125  0.125  0.451- 141 2.09 142 2.09 149 2.09 158 2.09 143 2.09 147 2.09
  16  0.250  0.000  0.451- 141 2.09 142 2.09 157 2.09 182 2.09 144 2.09 148 2.09
  17  0.125  1.000  0.549- 187 2.09 164 2.09 147 2.09 148 2.09 141 2.09 145 2.12
  18  0.250  0.125  0.549- 156 2.09 163 2.09 147 2.09 148 2.09 142 2.09 146 2.12
  19  0.125  0.125  0.647- 147 2.07 146 2.08 162 2.09 145 2.09 153 2.09
  20  0.250  1.000  0.647- 148 2.07 146 2.08 186 2.09 145 2.09 161 2.09
  21  0.125  0.250  0.353- 143 2.09 151 2.09 152 2.09 168 2.09 149 2.09
  22  0.250  0.375  0.353- 151 2.09 152 2.09 167 2.09 176 2.09 150 2.09
  23  0.125  0.375  0.451- 149 2.09 150 2.09 166 2.09 173 2.09 151 2.09 155 2.09
  24  0.250  0.250  0.451- 142 2.09 149 2.09 150 2.09 165 2.09 152 2.09 156 2.09
  25  0.125  0.250  0.549- 156 2.08 172 2.09 155 2.09 147 2.09 149 2.09 153 2.12
  26  0.250  0.375  0.550- 171 2.07 156 2.09 180 2.09 155 2.10 150 2.10 154 2.14
  27  0.125  0.375  0.647- 155 2.07 154 2.07 170 2.08 153 2.09 177 2.09
  28  0.250  0.250  0.646- 156 2.06 169 2.07 153 2.09 146 2.09 154 2.10
  29  0.375  0.000  0.353- 144 2.09 159 2.09 199 2.09 224 2.09 157 2.09
  30  0.000  0.125  0.353- 143 2.09 160 2.09 168 2.09 223 2.09 158 2.09
  31  0.375  0.125  0.451- 163 2.09 157 2.09 142 2.09 165 2.09 222 2.09 159 2.09
  32  0.000  0.000  0.451- 141 2.09 158 2.09 198 2.09 221 2.09 160 2.09 164 2.09
  33  0.375  1.000  0.549- 163 2.08 203 2.09 228 2.09 148 2.09 157 2.09 161 2.12
  34  0.000  0.125  0.549- 147 2.09 227 2.09 164 2.09 172 2.09 158 2.09 162 2.12
  35  0.375  0.125  0.646- 163 2.06 169 2.07 161 2.09 146 2.09 226 2.09
  36  0.000  1.000  0.647- 164 2.07 145 2.08 225 2.09 202 2.09 162 2.09
  37  0.375  0.250  0.353- 152 2.09 159 2.09 167 2.09 232 2.09 165 2.09
  38  0.000  0.375  0.353- 151 2.09 168 2.09 192 2.09 231 2.09 166 2.09
  39  0.375  0.375  0.451- 150 2.09 165 2.09 189 2.09 230 2.09 167 2.09 171 2.10
  40  0.000  0.250  0.451- 149 2.09 158 2.09 166 2.09 229 2.09 168 2.09 172 2.09
  41  0.375  0.250  0.550- 171 2.08 236 2.08 169 2.10 163 2.10 156 2.10 165 2.11
  42  0.000  0.375  0.549- 235 2.09 155 2.09 172 2.09 196 2.09 166 2.09 170 2.12
  43  0.375  0.374  0.650- 234 2.08 169 2.10 154 2.11 193 2.12 171 2.13   9 2.24
  44  0.000  0.250  0.647- 172 2.07 233 2.08 153 2.08 162 2.09 170 2.09
  45  0.125  0.500  0.353- 151 2.09 175 2.09 176 2.09 192 2.09 173 2.09
  46  0.250  0.625  0.353- 175 2.09 176 2.09 184 2.09 191 2.09 174 2.09
  47  0.125  0.625  0.451- 173 2.09 174 2.09 181 2.09 190 2.09 175 2.09 179 2.09
  48  0.250  0.500  0.451- 180 2.08 173 2.09 174 2.09 150 2.09 189 2.09 176 2.09
  49  0.125  0.500  0.549- 180 2.08 196 2.09 155 2.09 179 2.09 173 2.09 177 2.12
  50  0.250  0.625  0.549- 195 2.09 180 2.09 188 2.09 179 2.09 174 2.09 178 2.12
  51  0.125  0.625  0.647- 179 2.07 178 2.08 194 2.09 185 2.09 177 2.09
  52  0.250  0.500  0.646- 180 2.06 193 2.07 177 2.09 178 2.09 154 2.09
  53  0.125  0.750  0.353- 175 2.09 183 2.09 184 2.09 200 2.09 181 2.09
  54  0.250  0.875  0.353- 144 2.09 183 2.09 184 2.09 199 2.09 182 2.09
  55  0.125  0.875  0.451- 141 2.09 181 2.09 182 2.09 198 2.09 183 2.09 187 2.09
  56  0.250  0.750  0.451- 174 2.09 181 2.09 182 2.09 197 2.09 184 2.09 188 2.09
  57  0.125  0.750  0.549- 187 2.09 204 2.09 188 2.09 179 2.09 181 2.09 185 2.12
  58  0.250  0.875  0.549- 188 2.09 148 2.09 187 2.09 203 2.09 182 2.09 186 2.12
  59  0.125  0.875  0.647- 187 2.07 145 2.08 185 2.09 202 2.09 186 2.09
  60  0.250  0.750  0.647- 188 2.07 178 2.08 186 2.09 185 2.09 201 2.09
[...]
 254  0.500  0.625  0.451-  63 2.09 111 2.09 128 2.09 136 2.09 126 2.09 130 2.10
 255  0.875  0.625  0.353-  62 2.09 110 2.09 125 2.09 133 2.09 127 2.09
 256  0.500  0.500  0.353-  61 2.09 102 2.09 109 2.09 126 2.09 128 2.09
 257  0.875  0.500  0.649-  68 2.08 131 2.09 116 2.09 107 2.09 129 2.12
 258  0.500  0.626  0.650- 140 2.07 115 2.10  67 2.10 132 2.12 130 2.14
 259  0.875  0.625  0.549- 131 2.07  66 2.09 137 2.09 114 2.09 127 2.09 129 2.09
 260  0.500  0.501  0.550- 130 2.07  65 2.08 113 2.08 128 2.10 106 2.10 132 2.12
 261  0.875  0.750  0.451-  72 2.09 120 2.09 127 2.09 135 2.09 133 2.09 137 2.09
 262  0.500  0.875  0.451-  71 2.09  96 2.09 119 2.09 136 2.09 134 2.09 138 2.09
 263  0.875  0.875  0.353-  70 2.09  93 2.09 118 2.09 133 2.09 135 2.09
 264  0.500  0.750  0.353-  69 2.09 117 2.09 126 2.09 134 2.09 136 2.09
 265  0.875  0.750  0.649-  76 2.08 139 2.09 124 2.09 131 2.09 137 2.12
 266  0.500  0.875  0.649- 140 2.08 100 2.08 123 2.09  75 2.09 138 2.12
 267  0.875  0.875  0.549- 139 2.07  97 2.09 137 2.09  74 2.09 122 2.09 135 2.09
 268  0.500  0.750  0.549- 140 2.07 138 2.09  73 2.09 121 2.09 136 2.09 130 2.09

IMPORTANT INFORMATION: All symmetrisations will be switched off!
NOSYMM: (Re-)initialisation of all symmetry stuff for point group C_1.

                                     Primitive cell

  volume of cell :    5928.4515

  direct lattice vectors                    reciprocal lattice vectors
    16.698223653  0.000000000  0.000000000     0.059886610  0.000000000  0.000000000
     0.000000000 16.698223653  0.000000000     0.000000000  0.059886610  0.000000000
     0.000000000  0.000000000 21.261833870     0.000000000  0.000000000  0.047032632

  length of vectors
    16.698223653 16.698223653 21.261833870     0.059886610  0.059886610  0.047032632

  position of ions in fractional coordinates (direct lattice)
     0.414478792  0.428404756  0.759559192
     0.328469774  0.390766254  0.765917993
     0.586061002  0.323236759  0.760228720
     0.672785092  0.359371227  0.765424884
     0.448262519  0.290700131  0.760126168
     0.484936194  0.204460437  0.767543878
     0.553582602  0.463220145  0.759631887
     0.515832245  0.549514952  0.762677840
     0.383102281  0.379360356  0.754600866
     0.618196433  0.371640379  0.754630547
     0.496660886  0.258473987  0.754854703
     0.504278346  0.494015559  0.754377820
     0.125000000  0.000000000  0.352744737
     0.250000000  0.125000000  0.352744737
     0.125000000  0.125000000  0.450914912
     0.250000000  0.000000000  0.450914912
     0.124947106  0.999933649  0.549379795
     0.249932806  0.124970193  0.549289312
     0.124886664  0.124787375  0.646616688
     0.249795251  0.999866541  0.646605085
     0.125000000  0.250000000  0.352744737
     0.250000000  0.375000000  0.352744737
     0.125000000  0.375000000  0.450914912
     0.250000000  0.250000000  0.450914912
[...]
   4.18165724  6.26073329 11.68674642
   2.08364939  6.26168045 13.74781615
   4.17152740  4.16814059 13.73921072
   6.26183387  0.00000000  7.50000000
   0.00000000  2.08727796  7.50000000
   6.26183387  2.08727796  9.58727796
   0.00000000  0.00000000  9.58727796
   6.26178834 16.69699587 11.67935789
   0.00019997  2.08599552 11.68049336
   6.25580836  2.08380682 13.73148051
   0.00018630 16.69610054 13.75019065
   6.26183387  4.17455591  7.50000000
   0.00000000  6.26183387  7.50000000
   6.26183387  6.26183387  9.58727796
   0.00000000  4.17455591  9.58727796
   6.27005010  4.18092216 11.69350694
   0.00010872  6.26171257 11.68071569
   6.26905865  6.25170491 13.80983595
   0.00021077  4.17155568 13.74890753
   2.08727796  8.34911183  7.50000000
   4.17455591 10.43638978  7.50000000
   2.08727796 10.43638978  9.58727796
   4.17455591  8.34911183  9.58727796
   2.08600760  8.34913944 11.67920859
   4.17400547 10.43780693 11.67877480
   2.08519646 10.43995648 13.74779630
   4.17069774  8.35565495 13.73046496
   2.08727796 12.52366774  7.50000000
   4.17455591 14.61094570  7.50000000
   2.08727796 14.61094570  9.58727796
   4.17455591 12.52366774  9.58727796
   2.08628700 12.52478195 11.68099717
   4.17329707 14.61073646 11.68063558
   2.08558223 14.61086984 13.75017807
   4.17131724 12.52565948 13.74865255
[...]
   8.34911183 10.43638978  9.58727796
  14.61094570 10.43638978  7.50000000
   8.34911183  8.34911183  7.50000000
  14.61477573  8.35310888 13.80262598
   8.35136971 10.45431893 13.83040412
  14.61299768 10.43845681 11.67500875
   8.34831346  8.35939380 11.68412027
  14.61094570 12.52366774  9.58727796
   8.34911183 14.61094570  9.58727796
  14.61094570 14.61094570  7.50000000
   8.34911183 12.52366774  7.50000000
  14.61405908 12.52662170 13.80194666
   8.34924632 14.61092573 13.80454557
  14.61211886 14.61104033 11.67591435
   8.34913916 12.52417088 11.67850082

--------------------------------------- Iteration      FINAL  ---------------------------------------

--------------------OUTCAR has been truncated-------------------------

[...]

--------------------OUTCAR has been truncated-------------------------

 VOLUME and BASIS-vectors are now :
  energy-cutoff  :      520.00
  volume of cell :     5928.45
      direct lattice vectors                 reciprocal lattice vectors
    16.698223653  0.000000000  0.000000000     0.059886610  0.000000000  0.000000000
     0.000000000 16.698223653  0.000000000     0.000000000  0.059886610  0.000000000
     0.000000000  0.000000000 21.261833870     0.000000000  0.000000000  0.047032632

  length of vectors
    16.698223653 16.698223653 21.261833870     0.059886610  0.059886610  0.047032632

 FORCES acting on ions:
    Electron-Ion                     Ewald-Force                    Non-Local-Force
   -.129E+02 -.681E+02 -.290E+03   0.176E+02 0.750E+02 0.291E+03   -.449E+01 -.662E+01 -.758E+00
   0.105E+03 -.169E+02 -.296E+03   -.113E+03 0.184E+02 0.298E+03   0.803E+01 -.146E+01 -.201E+01
   0.136E+02 0.669E+02 -.291E+03   -.185E+02 -.738E+02 0.292E+03   0.460E+01 0.653E+01 -.872E+00
   -.105E+03 0.182E+02 -.295E+03   0.113E+03 -.199E+02 0.297E+03   -.804E+01 0.159E+01 -.192E+01
   0.669E+02 -.137E+02 -.290E+03   -.737E+02 0.186E+02 0.291E+03   0.653E+01 -.461E+01 -.805E+00
   0.174E+02 0.104E+03 -.297E+03   -.190E+02 -.112E+03 0.299E+03   0.152E+01 0.798E+01 -.228E+01
   -.690E+02 0.122E+02 -.291E+03   0.760E+02 -.169E+02 0.292E+03   -.667E+01 0.444E+01 -.828E+00
   -.171E+02 -.106E+03 -.293E+03   0.186E+02 0.114E+03 0.295E+03   -.147E+01 -.814E+01 -.145E+01
   0.139E+03 0.325E+02 -.170E+04   -.123E+03 -.683E+02 0.169E+04   -.145E+02 0.309E+02 0.973E+01
   -.139E+03 -.345E+02 -.170E+04   0.123E+03 0.707E+02 0.169E+04   0.142E+02 -.312E+02 0.965E+01
   -.331E+02 0.141E+03 -.170E+04   0.689E+02 -.125E+03 0.168E+04   -.308E+02 -.139E+02 0.110E+02
   0.336E+02 -.138E+03 -.170E+04   -.699E+02 0.120E+03 0.169E+04   0.313E+02 0.151E+02 0.758E+01
   0.341E+01 0.342E+01 0.214E+04   -.340E+01 -.341E+01 -.213E+04   -.681E-02 -.689E-02 -.681E+01
   0.599E+01 0.598E+01 0.214E+04   -.596E+01 -.595E+01 -.213E+04   -.222E-01 -.223E-01 -.682E+01
   0.751E+01 0.807E+01 0.729E+03   -.749E+01 -.805E+01 -.730E+03   -.114E-01 -.833E-02 0.395E+00
   0.813E+01 0.752E+01 0.729E+03   -.812E+01 -.750E+01 -.730E+03   -.822E-02 -.107E-01 0.385E+00
   0.945E+01 0.939E+01 -.687E+03   -.944E+01 -.938E+01 0.687E+03   -.191E-02 -.147E-02 -.117E+00
   0.238E+02 0.236E+02 -.665E+03   -.237E+02 -.236E+02 0.665E+03   -.187E-01 -.451E-01 -.670E-01
   0.254E+02 0.231E+02 -.209E+04   -.253E+02 -.231E+02 0.208E+04   -.890E-01 -.213E-02 0.582E+01
   0.232E+02 0.256E+02 -.209E+04   -.232E+02 -.254E+02 0.208E+04   -.138E-02 -.105E+00 0.581E+01
   0.494E+01 0.349E+01 0.214E+04   -.491E+01 -.347E+01 -.213E+04   -.215E-01 -.860E-02 -.682E+01
   0.766E+01 0.657E-01 0.215E+04   -.761E+01 -.676E-01 -.214E+04   -.361E-01 0.155E-02 -.686E+01
   0.102E+02 0.172E+00 0.735E+03   -.101E+02 -.176E+00 -.735E+03   -.742E-01 0.233E-02 0.421E+00
   0.137E+02 0.801E+01 0.743E+03   -.136E+02 -.793E+01 -.744E+03   -.723E-01 -.510E-01 0.343E+00
   0.218E+02 0.109E+02 -.672E+03   -.216E+02 -.108E+02 0.672E+03   -.135E+00 -.270E-01 -.758E-01
   0.430E+02 0.399E+00 -.644E+03   -.425E+02 -.435E+00 0.644E+03   -.485E+00 0.342E-01 0.186E+00
   0.510E+02 0.403E+00 -.207E+04   -.507E+02 -.413E+00 0.206E+04   -.276E+00 0.927E-02 0.579E+01
   0.876E+02 0.459E+02 -.203E+04   -.870E+02 -.461E+02 0.202E+04   -.523E+00 0.111E+00 0.585E+01
   0.347E+01 0.497E+01 0.214E+04   -.345E+01 -.493E+01 -.213E+04   -.896E-02 -.222E-01 -.682E+01
   -.539E-01 0.445E+01 0.214E+04   0.537E-01 -.444E+01 -.213E+04   0.185E-03 -.712E-02 -.681E+01
   0.798E+01 0.136E+02 0.744E+03   -.789E+01 -.135E+02 -.744E+03   -.540E-01 -.715E-01 0.314E+00
   -.758E-01 0.481E+01 0.724E+03   0.762E-01 -.481E+01 -.724E+03   -.235E-03 -.254E-03 0.409E+00
   0.108E+02 0.219E+02 -.671E+03   -.108E+02 -.218E+02 0.671E+03   -.293E-01 -.119E+00 -.557E-01
   -.193E+00 0.112E+02 -.685E+03   0.194E+00 -.112E+02 0.685E+03   -.657E-03 0.169E-01 -.111E+00
   0.466E+02 0.879E+02 -.203E+04   -.466E+02 -.873E+02 0.202E+04   0.711E-01 -.541E+00 0.587E+01
   -.117E+00 0.105E+02 -.210E+04   0.117E+00 -.105E+02 0.209E+04   -.534E-03 0.211E-01 0.582E+01
   0.518E+01 0.518E+01 0.215E+04   -.514E+01 -.514E+01 -.214E+04   -.244E-01 -.230E-01 -.687E+01
   -.486E-01 0.302E-01 0.214E+04   0.479E-01 -.308E-01 -.213E+04   0.484E-03 0.797E-03 -.680E+01
   0.110E+02 0.145E+00 0.759E+03   -.110E+02 -.159E+00 -.759E+03   -.359E-01 0.913E-02 0.325E+00
   -.185E+00 0.492E+01 0.730E+03   0.189E+00 -.493E+01 -.730E+03   -.169E-02 0.313E-02 0.419E+00
   0.304E+02 0.304E+02 -.615E+03   -.300E+02 -.300E+02 0.616E+03   -.356E+00 -.340E+00 -.752E+00
   -.218E+00 0.684E-01 -.677E+03   0.213E+00 -.711E-01 0.677E+03   0.396E-02 0.347E-02 -.855E-01
   0.116E+03 0.304E+01 -.186E+04   -.116E+03 -.327E+01 0.185E+04   -.709E+00 0.206E+00 0.325E+01
   -.330E+00 0.127E+02 -.209E+04   0.333E+00 -.127E+02 0.208E+04   -.210E-02 0.604E-01 0.582E+01
   0.497E+01 -.343E+01 0.214E+04   -.494E+01 0.342E+01 -.213E+04   -.207E-01 0.955E-02 -.682E+01
   0.598E+01 -.602E+01 0.214E+04   -.595E+01 0.599E+01 -.213E+04   -.213E-01 0.213E-01 -.681E+01
   0.756E+01 -.819E+01 0.730E+03   -.754E+01 0.818E+01 -.730E+03   -.955E-02 0.658E-02 0.389E+00
   0.137E+02 -.790E+01 0.744E+03   -.136E+02 0.782E+01 -.744E+03   -.674E-01 0.540E-01 0.314E+00
   0.221E+02 -.107E+02 -.671E+03   -.219E+02 0.107E+02 0.671E+03   -.110E+00 0.328E-01 -.565E-01
   0.235E+02 -.239E+02 -.664E+03   -.235E+02 0.239E+02 0.664E+03   -.259E-01 0.757E-02 -.670E-01
   0.258E+02 -.233E+02 -.209E+04   -.257E+02 0.233E+02 0.208E+04   -.945E-01 -.160E-03 0.582E+01
   0.883E+02 -.464E+02 -.202E+04   -.877E+02 0.465E+02 0.202E+04   -.526E+00 -.823E-01 0.587E+01
   0.341E+01 -.347E+01 0.214E+04   -.340E+01 0.346E+01 -.213E+04   -.635E-02 0.595E-02 -.681E+01
   0.443E+01 -.223E-01 0.214E+04   -.442E+01 0.233E-01 -.213E+04   -.634E-02 -.427E-03 -.681E+01
   0.479E+01 -.446E-01 0.724E+03   -.479E+01 0.452E-01 -.724E+03   -.551E-03 -.486E-03 0.407E+00
   0.805E+01 -.765E+01 0.729E+03   -.804E+01 0.764E+01 -.730E+03   -.686E-02 0.841E-02 0.402E+00
   0.945E+01 -.959E+01 -.687E+03   -.945E+01 0.959E+01 0.687E+03   -.287E-03 0.706E-03 -.115E+00
   0.111E+02 -.350E-01 -.685E+03   -.111E+02 0.413E-01 0.685E+03   0.177E-01 -.400E-02 -.110E+00
   0.106E+02 -.688E-01 -.210E+04   -.106E+02 0.742E-01 0.209E+04   0.188E-01 -.431E-02 0.581E+01
   0.232E+02 -.258E+02 -.209E+04   -.232E+02 0.257E+02 0.208E+04   0.316E-02 0.892E-01 0.582E+01
[...]
   -.318E+01 -.368E+01 0.161E+04   0.317E+01 0.366E+01 -.161E+04   0.131E-01 0.136E-01 0.302E+01
   0.378E-01 -.409E+01 0.161E+04   -.372E-01 0.406E+01 -.162E+04   -.724E-03 0.298E-01 0.296E+01
   -.306E+02 -.149E+02 -.158E+04   0.305E+02 0.148E+02 0.159E+04   0.673E-01 0.694E-01 -.461E+01
   0.140E+01 -.866E+02 -.153E+04   -.142E+01 0.860E+02 0.154E+04   0.191E-01 0.479E+00 -.428E+01
   -.111E+02 -.107E+02 -.503E+03   0.111E+02 0.106E+02 0.503E+03   0.338E-01 0.372E-01 0.305E+00
   -.831E-01 -.246E+02 -.447E+03   0.114E+00 0.242E+02 0.447E+03   -.270E-01 0.339E+00 -.270E+00
   -.424E+01 -.426E+01 0.544E+03   0.423E+01 0.424E+01 -.544E+03   0.184E-01 0.184E-01 -.473E-01
   0.616E-01 -.267E-01 0.548E+03   -.616E-01 0.337E-01 -.548E+03   -.104E-03 -.935E-02 -.142E-01
   -.237E+01 -.245E-01 0.160E+04   0.236E+01 0.251E-01 -.161E+04   0.513E-02 -.828E-03 0.303E+01
   0.459E-01 -.401E+01 0.161E+04   -.460E-01 0.398E+01 -.161E+04   0.106E-03 0.308E-01 0.301E+01
   -.109E+02 -.108E+02 -.160E+04   0.109E+02 0.107E+02 0.160E+04   0.319E-01 0.333E-01 -.461E+01
   0.843E-01 -.396E+00 -.159E+04   -.860E-01 0.407E+00 0.159E+04   0.192E-02 -.111E-01 -.460E+01
   -.576E+01 -.438E-01 -.511E+03   0.575E+01 0.482E-01 0.510E+03   0.146E-01 -.514E-02 0.294E+00
   0.232E+00 -.168E+02 -.495E+03   -.233E+00 0.167E+02 0.495E+03   0.160E-02 0.137E+00 0.378E+00
   -.294E+00 -.917E+00 0.607E+02   -.185E-12 -.196E-11 -.173E-10   0.251E+00 0.762E+00 -.527E+02

 POSITION                                       TOTAL-FORCE (eV/Angst)
      6.92106      7.15360     16.14962        -0.000756     -0.011184     -0.002183
      5.48486      6.52510     16.28482         0.012054      0.001463      0.001438
      9.78618      5.39748     16.16386        -0.016593     -0.014839      0.000551
     11.23432      6.00086     16.27434         0.012058     -0.001271      0.003709
      7.48519      4.85418     16.16168        -0.032140      0.022847      0.004509
      8.09757      3.41413     16.31939        -0.009727     -0.019351      0.005186
      9.24385      7.73495     16.15117        -0.006634     -0.007002     -0.001397
      8.61348      9.17592     16.21593        -0.000970     -0.002536      0.007945
      6.39713      6.33464     16.04420         0.000886      0.015572      0.019905
     10.32278      6.20573     16.04483        -0.015387      0.026459      0.004200
      8.29335      4.31606     16.04960         0.037827      0.009046      0.002083
      8.42055      8.24918     16.03946        -0.000464     -0.011901      0.013328
      2.08728      0.00000      7.50000         0.002184      0.002227      0.419741
      4.17456      2.08728      7.50000         0.007373      0.007458      0.423400
      2.08728      2.08728      9.58728         0.003043      0.002722      0.021948
      4.17456      0.00000      9.58728         0.002654      0.003270      0.024152
      2.08639     16.69712     11.68082         0.002414      0.002876      0.004516
      4.17343      2.08678     11.67890         0.002493      0.000917     -0.001502
      2.08539      2.08373     13.74826        -0.001407      0.003170      0.053287
      4.17114     16.69600     13.74801         0.002069     -0.001648      0.049639
      2.08728      4.17456      7.50000         0.007119      0.003028      0.422732
      4.17456      6.26183      7.50000         0.012126     -0.000525      0.435395
      2.08728      6.26183      9.58728         0.031902     -0.001039      0.037453
      4.17456      4.17456      9.58728         0.034843      0.020485      0.052364
      2.08681      4.17438     11.68022        -0.000049      0.000792      0.005054
      4.18166      6.26073     11.68675        -0.005578      0.001903      0.000310
      2.08365      6.26168     13.74782         0.001601      0.000159      0.056945
      4.17153      4.16814     13.73921        -0.002348      0.002122      0.055269
      6.26183      0.00000      7.50000         0.003145      0.007328      0.422708
      0.00000      2.08728      7.50000        -0.000078      0.002420      0.419725
      6.26183      2.08728      9.58728         0.022171      0.033241      0.046352
      0.00000      0.00000      9.58728         0.000153     -0.000116      0.023489
      6.26179     16.69700     11.67936         0.001323      0.000507      0.004470
      0.00020      2.08600     11.68049         0.000001      0.001016      0.007323
      6.25581      2.08381     13.73148         0.002277     -0.002590      0.056099
      0.00019     16.69610     13.75019         0.000089      0.002278      0.048050
      6.26183      4.17456      7.50000         0.008143      0.007665      0.440813
      0.00000      6.26183      7.50000        -0.000166     -0.000269      0.418489
      6.26183      6.26183      9.58728         0.022141     -0.003619      0.106458
      0.00000      4.17456      9.58728         0.001564     -0.001534      0.021281
      6.27005      4.18092     11.69351        -0.004603     -0.002810     -0.006706
      0.00011      6.26171     11.68072         0.000089      0.000806      0.011830
      6.26906      6.25170     13.80984        -0.004354      0.002113      0.029085
      0.00021      4.17156     13.74891         0.000883      0.001381      0.050170
      2.08728      8.34911      7.50000         0.006848     -0.003348      0.422324
      4.17456     10.43639      7.50000         0.007109     -0.007088      0.422637
      2.08728     10.43639      9.58728         0.002908     -0.002108      0.021333
      4.17456      8.34911      9.58728         0.031548     -0.022010      0.046434
      2.08601      8.34914     11.67921         0.000179     -0.000605      0.004414
      4.17401     10.43781     11.67877         0.002636     -0.003882     -0.001103
      2.08520     10.43996     13.74780        -0.001005     -0.003654      0.054007
      4.17070      8.35565     13.73046        -0.001028     -0.001029      0.055080
      2.08728     12.52367      7.50000         0.002076     -0.001907      0.419621
      4.17456     14.61095      7.50000         0.002155      0.000129      0.419769
      2.08728     14.61095      9.58728        -0.000083      0.000348      0.020934
      4.17456     12.52367      9.58728         0.002404     -0.001933      0.023240
      2.08629     12.52478     11.68100         0.002750     -0.003167      0.002780
      4.17330     14.61074     11.68064         0.002238      0.001704      0.005719
      2.08558     14.61087     13.75018         0.001053      0.000192      0.050399
      4.17132     12.52566     13.74865         0.001383      0.001876      0.050367
[...]
      8.34911     10.43639      9.58728        -0.001682      0.032380      0.042331
     14.61095     10.43639      7.50000         0.004317      0.004694     -0.560429
      8.34911      8.34911      7.50000        -0.000251      0.010112     -0.582167
     14.61478      8.35311     13.80263        -0.000085      0.001465      0.000979
      8.35137     10.45432     13.83040        -0.000159     -0.003796      0.001530
     14.61300     10.43846     11.67501         0.001974     -0.000791     -0.004981
      8.34831      8.35939     11.68412        -0.000278     -0.005191      0.000670
     14.61095     12.52367      9.58728         0.007948      0.006009      0.047021
      8.34911     14.61095      9.58728        -0.000058     -0.003948      0.061035
     14.61095     14.61095      7.50000         0.001611     -0.000406     -0.558958
      8.34911     12.52367      7.50000         0.000031      0.010489     -0.565759
     14.61406     12.52662     13.80195         0.001431     -0.001066      0.001467
      8.34925     14.61093     13.80455         0.000516     -0.001459     -0.002664
     14.61212     14.61104     11.67591         0.000988     -0.001815     -0.005909
      8.34914     12.52417     11.67850         0.001018      0.002106     -0.009044
    total drift:                                0.001271      0.001687     -0.056288

  FREE ENERGIE OF THE ION-ELECTRON SYSTEM (eV)
  free  energy   TOTEN  =     -1964.71552313 eV

  energy  without entropy=    -1964.71552313  energy(sigma->0) =    -1964.71552313