 vasp.6.3.0 20Jan22 (build Apr  1 2022 16:44:48) complex
 executed on        HPECrayEX_GCC date 2023.02.23  10:03:15

 INCAR:
   SYSTEM = MgO-rocksalt
   ISMEAR = 0
   SIGMA = 0.05
   EDIFF = 1E-6
   ALGO = ALL
   ISTART = 0
   IBRION = -1
   NSW = 0
   ISYM = 0
   DIPOL = 0.5 0.5 0.5
   IDIPOL = 3
   LDIPOL = .TRUE.
   LHFCALC = .TRUE.
   GGA = B5
   AEXX = 0.2
   AGGAX = 0.72
   AGGAC = 0.81
   ALDAC = 0.19
   IVDW = 1
   VDW_S6 = 1.05
   VDW_C6 = 1.23 0.14 0.63 0.70
   VDW_R0 = 1.397 1.001 1.243 1.342
   ENCUT = 600
   PREC = Accurate
   LASPH = .TRUE.
   LREAL = .FALSE.
   ISPIN = 1
   NELM = 200
   NELMIN = 8
   NCORE = 8
   KPAR = 1
   LWAVE = .FALSE.
   LCHARG = .FALSE.

 POTCAR:    PAW_PBE N 08Apr2002
 POTCAR:    PAW_PBE H 15Jun2001
 POTCAR:    PAW_PBE Mg_pv 13Apr2007
 POTCAR:    PAW_PBE O 08Apr2002
 POTCAR:    PAW_PBE N 08Apr2002
   VRHFIN =N: s2p3

   TITEL  = PAW_PBE N 08Apr2002
   POMASS =   14.001; ZVAL   =    5.000    mass and valenz
   ENMAX  =  400.000; ENMIN  =  300.000 eV

   TITEL  = PAW_PBE H 15Jun2001
   POMASS =    1.000; ZVAL   =    1.000    mass and valenz
   ENMAX  =  250.000; ENMIN  =  200.000 eV

   TITEL  = PAW_PBE Mg_pv 13Apr2007
   POMASS =   24.305; ZVAL   =    8.000    mass and valenz
   ENMAX  =  403.929; ENMIN  =  302.947 eV

   TITEL  = PAW_PBE O 08Apr2002
   POMASS =   16.000; ZVAL   =    6.000    mass and valenz
   ENMAX  =  400.000; ENMIN  =  300.000 eV

  PAW_PBE N 08Apr2002                   :
  PAW_PBE H 15Jun2001                   :
  PAW_PBE Mg_pv 13Apr2007               :
  PAW_PBE O 08Apr2002                   :

 POSCAR:  N  H Mg  O
  positions in direct lattice
 exchange correlation table for  LEXCH =       12
   RHO(1)=    0.500       N(1)  =     2000
   RHO(2)=  100.500       N(2)  =     4000

 ion  position               nearest neighbor table
   1  0.500  0.503  0.764-   4 1.02   3 1.02   2 1.02
   2  0.500  0.617  0.779-   1 1.02
   3  0.404  0.450  0.782-   1 1.02
   4  0.596  0.450  0.782-   1 1.02
   5  0.000  0.750  0.350-  37 2.14  39 2.14  40 2.14  47 2.14  56 2.14
   6  0.250  0.000  0.350-  38 2.14  39 2.14  40 2.14  48 2.14  55 2.14
   7  0.000  0.000  0.450-  39 2.14  38 2.14  37 2.14  45 2.14  54 2.14  43 2.14
   8  0.250  0.750  0.450-  40 2.14  38 2.14  37 2.14  46 2.14  53 2.14  44 2.14
   9  1.000  0.750  0.550-  51 2.13  44 2.14  60 2.14  43 2.14  37 2.14  41 2.17
  10  0.250  1.000  0.550-  59 2.13  44 2.14  52 2.14  43 2.14  38 2.14  42 2.17
  11  1.000  1.000  0.649-  43 2.12  58 2.13  42 2.13  41 2.13  49 2.13
  12  0.250  0.750  0.649-  44 2.11  41 2.13  42 2.13  50 2.14  57 2.14
  13  0.000  0.250  0.350-  45 2.14  39 2.14  47 2.14  48 2.14  64 2.14
  14  0.250  0.500  0.350-  46 2.14  40 2.14  47 2.14  48 2.14  63 2.14
  15  0.000  0.500  0.450-  47 2.14  45 2.14  46 2.14  37 2.14  62 2.14  51 2.14
  16  0.250  0.250  0.450-  48 2.14  45 2.14  46 2.14  38 2.14  61 2.14  52 2.14
  17  1.000  0.250  0.550-  51 2.13  52 2.14  68 2.14  43 2.14  45 2.14  49 2.17
  18  0.252  0.500  0.551-  67 2.12  44 2.14  52 2.14  51 2.15  46 2.16  50 2.16
  19  0.000  0.500  0.649-  66 2.11  50 2.11  51 2.12  49 2.14  41 2.14
  20  0.250  0.249  0.649-  52 2.11  42 2.13  49 2.13  65 2.14  50 2.14
  21  0.500  0.750  0.350-  53 2.14  40 2.14  55 2.14  56 2.14  63 2.14
  22  0.750  0.000  0.350-  54 2.14  39 2.14  55 2.14  56 2.14  64 2.14
  23  0.500  0.000  0.450-  55 2.14  53 2.14  54 2.14  38 2.14  61 2.14  59 2.14
  24  0.750  0.750  0.450-  56 2.14  53 2.14  54 2.14  37 2.14  62 2.14  60 2.14
  25  0.500  0.748  0.551-  67 2.12  44 2.14  60 2.14  59 2.15  53 2.16  57 2.16
  26  0.750  1.000  0.550-  59 2.13  60 2.14  68 2.14  43 2.14  54 2.14  58 2.17
  27  0.500  0.000  0.649-  65 2.11  57 2.11  59 2.12  58 2.14  42 2.14
  28  0.750  0.750  0.649-  60 2.11  41 2.13  58 2.13  66 2.14  57 2.14
  29  0.500  0.250  0.350-  61 2.14  55 2.14  48 2.14  63 2.14  64 2.14
  30  0.750  0.500  0.350-  62 2.14  56 2.14  47 2.14  63 2.14  64 2.14
  31  0.500  0.500  0.450-  63 2.14  53 2.14  61 2.14  62 2.14  46 2.14  67 2.16
  32  0.750  0.250  0.450-  64 2.14  54 2.14  61 2.14  62 2.14  45 2.14  68 2.14
  33  0.500  0.251  0.551-  67 2.12  52 2.14  68 2.14  59 2.15  61 2.16  65 2.16
  34  0.748  0.500  0.551-  67 2.12  60 2.14  68 2.14  51 2.15  62 2.16  66 2.16
  35  0.500  0.499  0.657-  65 2.16  66 2.16  50 2.16  57 2.17
  36  0.750  0.249  0.649-  68 2.11  58 2.13  49 2.13  65 2.14  66 2.14
  37  0.000  0.750  0.450-   5 2.14   7 2.14   8 2.14  15 2.14  24 2.14   9 2.14
  38  0.250  0.000  0.450-   6 2.14   7 2.14   8 2.14  16 2.14  23 2.14  10 2.14
  39  0.000  0.000  0.350-   7 2.14   6 2.14   5 2.14  13 2.14  22 2.14
  40  0.250  0.750  0.350-   8 2.14   6 2.14   5 2.14  14 2.14  21 2.14
  41  1.000  0.751  0.651-  11 2.13  28 2.13  12 2.13  19 2.14   9 2.17
  42  0.249  1.000  0.651-  11 2.13  20 2.13  12 2.13  27 2.14  10 2.17
  43  1.000  1.000  0.550-  11 2.12   7 2.14   9 2.14  10 2.14  26 2.14  17 2.14
  44  0.250  0.750  0.550-  12 2.11  10 2.14   9 2.14  25 2.14  18 2.14   8 2.14
  45  0.000  0.250  0.450-  13 2.14   7 2.14  15 2.14  16 2.14  32 2.14  17 2.14
  46  0.250  0.500  0.450-  14 2.14   8 2.14  15 2.14  16 2.14  31 2.14  18 2.16
  47  0.000  0.500  0.350-  15 2.14  13 2.14  14 2.14   5 2.14  30 2.14
  48  0.250  0.250  0.350-  16 2.14  13 2.14  14 2.14   6 2.14  29 2.14
  49  1.000  0.249  0.652-  11 2.13  36 2.13  20 2.13  19 2.14  17 2.17
  50  0.247  0.500  0.652-  19 2.11  20 2.14  12 2.14  18 2.16  35 2.16
  51  0.000  0.500  0.550-  19 2.12   9 2.13  17 2.13  15 2.14  18 2.15  34 2.15
  52  0.250  0.250  0.550-  20 2.11  17 2.14  10 2.14  18 2.14  33 2.14  16 2.14
  53  0.500  0.750  0.450-  21 2.14   8 2.14  23 2.14  24 2.14  31 2.14  25 2.16
  54  0.750  0.000  0.450-  22 2.14   7 2.14  23 2.14  24 2.14  32 2.14  26 2.14
  55  0.500  0.000  0.350-  23 2.14  21 2.14  22 2.14   6 2.14  29 2.14
  56  0.750  0.750  0.350-  24 2.14  21 2.14  22 2.14   5 2.14  30 2.14
  57  0.500  0.753  0.652-  27 2.11  28 2.14  12 2.14  25 2.16  35 2.17
  58  0.751  1.000  0.651-  11 2.13  36 2.13  28 2.13  27 2.14  26 2.17
  59  0.500  1.000  0.550-  27 2.12  10 2.13  26 2.13  23 2.14  25 2.15  33 2.15
  60  0.750  0.750  0.550-  28 2.11  26 2.14   9 2.14  25 2.14  34 2.14  24 2.14
  61  0.500  0.250  0.450-  29 2.14  23 2.14  16 2.14  31 2.14  32 2.14  33 2.16
  62  0.750  0.500  0.450-  30 2.14  24 2.14  15 2.14  31 2.14  32 2.14  34 2.16
  63  0.500  0.500  0.350-  31 2.14  21 2.14  29 2.14  30 2.14  14 2.14
  64  0.750  0.250  0.350-  32 2.14  22 2.14  29 2.14  30 2.14  13 2.14
  65  0.500  0.247  0.652-  27 2.11  36 2.14  20 2.14  33 2.16  35 2.16
  66  0.753  0.500  0.652-  19 2.11  36 2.14  28 2.14  34 2.16  35 2.16
  67  0.500  0.500  0.551-  25 2.12  18 2.12  34 2.12  33 2.12  31 2.16
  68  0.750  0.250  0.550-  36 2.11  17 2.14  26 2.14  34 2.14  33 2.14  32 2.14

IMPORTANT INFORMATION: All symmetrisations will be switched off!
NOSYMM: (Re-)initialisation of all symmetry stuff for point group C_1.

                                     Primitive cell

  volume of cell :    1563.6717

  direct lattice vectors                    reciprocal lattice vectors
     8.546113626  0.000000000  0.000000000     0.117012252  0.000000000  0.000000000
     0.000000000  8.546113626  0.000000000     0.000000000  0.117012252  0.000000000
     0.000000000  0.000000000 21.409585219     0.000000000  0.000000000  0.046708051

  length of vectors
     8.546113626  8.546113626 21.409585219     0.117012252  0.117012252  0.046708051

  position of ions in fractional coordinates (direct lattice)
     0.500001044  0.503012109  0.763914976
     0.500000691  0.616515598  0.778882947
     0.403555813  0.449968583  0.782468899
     0.596444849  0.449968772  0.782468847
     0.000000000  0.750000000  0.350310383
     0.250000000  0.000000000  0.350310383
     0.000000000  0.000000000  0.450103461
     0.250000000  0.750000000  0.450103461
     0.999999994  0.749572080  0.550067146
     0.250346608  0.999895963  0.550056130
     0.999999977  0.999862841  0.649015149
     0.249566527  0.750200457  0.648710131
     0.000000000  0.250000000  0.350310383
     0.250000000  0.500000000  0.350310383
     0.000000000  0.500000000  0.450103461
     0.250000000  0.250000000  0.450103461
     0.999999997  0.250270776  0.550043815
     0.251563977  0.499923985  0.550844194
     0.000000001  0.499860487  0.648873855
     0.249636081  0.249418926  0.648627018
     0.500000000  0.750000000  0.350310383
     0.750000000  0.000000000  0.350310383
     0.500000000  0.000000000  0.450103461
     0.750000000  0.750000000  0.450103461
     0.499999980  0.748360126  0.550869814
     0.749653357  0.999895958  0.550056137
     0.499999982  0.000005749  0.648869585
     0.750433446  0.750200476  0.648710096
     0.500000000  0.250000000  0.350310383
     0.750000000  0.500000000  0.350310383
     0.500000000  0.500000000  0.450103461
     0.750000000  0.250000000  0.450103461
     0.499999975  0.251481772  0.550816110
     0.748436019  0.499923987  0.550844225
     0.500000068  0.499401210  0.656816073
     0.750363897  0.249418900  0.648626989
     0.000000000  0.750000000  0.450103461
     0.250000000  0.000000000  0.450103461
     0.000000000  0.000000000  0.350310383
     0.250000000  0.750000000  0.350310383
     0.999999977  0.750549427  0.651475631
     0.249306243  0.999880692  0.651487381
     0.999999987  0.999914735  0.549906447
     0.249922324  0.750020047  0.550127284
     0.000000000  0.250000000  0.450103461
     0.250000000  0.500000000  0.450103461
     0.000000000  0.500000000  0.350310383
     0.250000000  0.250000000  0.350310383
     0.999999977  0.249179206  0.651501110
     0.247270654  0.499790350  0.651715755
     0.000000015  0.499926640  0.549953063
     0.249867204  0.249803207  0.550081319
     0.500000000  0.750000000  0.450103461
     0.750000000  0.000000000  0.450103461
     0.500000000  0.000000000  0.350310383
     0.750000000  0.750000000  0.350310383
     0.500000009  0.752699916  0.651860442
     0.750693715  0.999880691  0.651487379
     0.499999979  0.999883941  0.549952545
     0.750077648  0.750020060  0.550127276
     0.500000000  0.250000000  0.450103461
     0.750000000  0.500000000  0.450103461
     0.500000000  0.500000000  0.350310383
     0.750000000  0.250000000  0.350310383
     0.500000000  0.247176585  0.651592885
     0.752729396  0.499790355  0.651715722
     0.499999989  0.499961269  0.550842886
     0.750132768  0.249803194  0.550081315

  ion indices of the primitive-cell ions
   primitive index   ion index
                 1           1
                 2           2
                 3           3
                 4           4
                 5           5
                 6           6
                 7           7
                 8           8
                 9           9
                10          10
                11          11
                12          12
                13          13
                14          14
                15          15
                16          16
                17          17
                18          18
                19          19
                20          20
[...]
   4.27306574  4.29879864 16.35510279
   4.27306272  5.26881235 16.67556082
   3.44883383  3.84548264 16.75233457
   5.09728545  3.84548426 16.75233346
   0.00000000  6.40958522  7.50000000
   2.13652841  0.00000000  7.50000000
   0.00000000  0.00000000  9.63652841
   2.13652841  6.40958522  9.63652841
   8.54611357  6.40592817 11.77670944
   2.13949056  8.54522452 11.77647359
   8.54611343  8.54494145 13.89514513
   2.13282390  6.41129835 13.88861482
   0.00000000  2.13652841  7.50000000
   2.13652841  4.27305681  7.50000000
   0.00000000  4.27305681  9.63652841
   2.13652841  2.13652841  9.63652841
   8.54611360  2.13884249 11.77620994
   2.14989433  4.27240718 11.79334571
   0.00000001  4.27186452 13.89212009
   2.13341831  2.13156248 13.88683541
   4.27305681  6.40958522  7.50000000
   6.40958522  0.00000000  7.50000000
   4.27305681  0.00000000  9.63652841
   6.40958522  6.40958522  9.63652841
   4.27305664  6.39557067 11.79389423
   6.40662277  8.54522447 11.77647373
   4.27305666  0.00004913 13.89202868
   6.41328950  6.41129851 13.88861408
   4.27305681  2.13652841  7.50000000
   6.40958522  4.27305681  7.50000000
   4.27305681  4.27305681  9.63652841
   6.40958522  2.13652841  9.63652841
   4.27305660  2.14919180 11.79274444
   6.39621926  4.27240720 11.79334639
   4.27305739  4.26793949 14.06215968
   6.41269513  2.13156226 13.88683480
   0.00000000  6.40958522  9.63652841
   2.13652841  0.00000000  9.63652841
   0.00000000  0.00000000  7.50000000
   2.13652841  6.40958522  7.50000000
   8.54611343  6.41428068 13.94782304
   2.13059948  8.54509400 13.94807461
   8.54611351  8.54538494 11.77326893
   2.13586458  6.40975655 11.77799696
   0.00000000  2.13652841  9.63652841
   2.13652841  4.27305681  9.63652841
   0.00000000  4.27305681  7.50000000
   2.13652841  2.13652841  7.50000000
   8.54611343  2.12951381 13.94836854
   2.11320310  4.27126512 13.95296400
   0.00000013  4.27242987 11.77426696
   2.13539352  2.13484659 11.77701288
   4.27305681  6.40958522  9.63652841
   6.40958522  0.00000000  9.63652841
   4.27305681  0.00000000  7.50000000
   6.40958522  6.40958522  7.50000000
   4.27305689  6.43265901 13.95606168
   6.41551379  8.54509400 13.94807456
   4.27305663  8.54512177 11.77425588
   6.41024881  6.40975665 11.77799679
   4.27305681  2.13652841  9.63652841
   6.40958522  4.27305681  9.63652841
   4.27305681  4.27305681  7.50000000
   6.40958522  2.13652841  7.50000000
   4.27305681  2.11239918 13.95033340
   6.43291095  4.27126516 13.95296329
   4.27305672  4.27272582 11.79331771
   6.41071987  2.13484648 11.77701279

--------------------------------------- Iteration      FINAL  ---------------------------------------

--------------------OUTCAR has been truncated-------------------------

[...]

--------------------OUTCAR has been truncated-------------------------

  DFT-D2 method for vdW energy calculation

  Parameters of vdW forcefield:
         C6(Jnm^6/mol)     R0(A)
   N        1.230          1.397
   H        0.140          1.001
   Mg       0.630          1.243
   O        0.700          1.342

  vdW correction parametrized for the method Iý      

  IVDW =   1
  VDW_RADIUS =    50.000 A
  VDW_S6 =     1.050
  VDW_SR =     1.000
  VDW_D =    20.000
  LVDW_EWALD = F

  Number of pair interactions contributing to vdW energy:  794087
  Edisp (eV):   -4.97184

 VOLUME and BASIS-vectors are now :
  energy-cutoff  :      600.00
  volume of cell :     1563.67
      direct lattice vectors                 reciprocal lattice vectors
     8.546113626  0.000000000  0.000000000     0.117012252  0.000000000  0.000000000
     0.000000000  8.546113626  0.000000000     0.000000000  0.117012252  0.000000000
     0.000000000  0.000000000 21.409585219     0.000000000  0.000000000  0.046708051

  length of vectors
     8.546113626  8.546113626 21.409585219     0.117012252  0.117012252  0.046708051

 FORCES acting on ions:
    Electron-Ion                     Ewald-Force                    Non-Local-Force
   0.361E-03 0.233E+01 -.128E+04   -.659E-03 -.369E+01 0.125E+04   -.940E-04 0.128E+01 0.242E+02
   0.185E-03 -.678E+02 -.266E+03   -.198E-03 0.747E+02 0.268E+03   0.255E-04 -.685E+01 -.202E+01
   0.578E+02 0.320E+02 -.268E+03   -.637E+02 -.352E+02 0.270E+03   0.583E+01 0.321E+01 -.257E+01
   -.579E+02 0.320E+02 -.268E+03   0.637E+02 -.352E+02 0.270E+03   -.583E+01 0.321E+01 -.257E+01
   0.167E-04 0.883E-01 0.202E+04   -.858E-06 -.991E-01 -.201E+04   -.129E-04 0.693E-02 -.631E+01
   -.877E-01 0.183E-01 0.202E+04   0.983E-01 -.188E-01 -.201E+04   -.682E-02 0.324E-03 -.631E+01
   -.171E-04 0.635E-01 0.693E+03   0.211E-05 -.659E-01 -.693E+03   0.149E-04 0.135E-02 0.381E+00
   -.506E+00 0.501E+00 0.693E+03   0.587E+00 -.582E+00 -.693E+03   -.514E-01 0.507E-01 0.468E+00
   -.492E-04 -.232E+01 -.625E+03   0.545E-04 0.222E+01 0.625E+03   -.767E-05 0.915E-01 -.227E-02
   0.233E+01 0.104E+00 -.625E+03   -.223E+01 -.108E+00 0.625E+03   -.910E-01 0.295E-02 0.111E-01
   -.917E-04 -.985E-01 -.196E+04   0.973E-04 0.989E-01 0.195E+04   -.752E-05 -.327E-03 0.551E+01
   0.181E+02 -.179E+02 -.193E+04   -.183E+02 0.181E+02 0.192E+04   0.130E+00 -.109E+00 0.565E+01
   0.418E-04 -.887E-01 0.202E+04   -.181E-05 0.991E-01 -.201E+04   -.733E-04 -.673E-02 -.631E+01
   -.786E-01 -.190E-01 0.202E+04   0.930E-01 0.191E-01 -.201E+04   -.952E-02 -.690E-04 -.636E+01
   0.505E-04 -.798E-01 0.693E+03   -.275E-04 0.757E-01 -.693E+03   -.253E-04 0.255E-02 0.327E+00
   -.501E+00 -.515E+00 0.693E+03   0.573E+00 0.588E+00 -.693E+03   -.454E-01 -.460E-01 0.453E+00
   -.236E-04 0.232E+01 -.625E+03   0.292E-04 -.222E+01 0.625E+03   -.843E-05 -.922E-01 0.262E-01
   0.237E+01 -.110E+00 -.625E+03   -.192E+01 0.114E+00 0.626E+03   -.406E+00 -.298E-02 -.394E+00
   -.259E-03 0.801E-01 -.194E+04   0.250E-03 -.806E-01 0.193E+04   0.641E-05 0.933E-03 0.549E+01
   0.178E+02 0.180E+02 -.193E+04   -.179E+02 -.181E+02 0.192E+04   0.102E+00 0.117E+00 0.566E+01
   -.270E-05 0.793E-01 0.202E+04   0.824E-06 -.939E-01 -.201E+04   0.704E-05 0.964E-02 -.636E+01
   0.876E-01 0.183E-01 0.202E+04   -.983E-01 -.188E-01 -.201E+04   0.684E-02 0.344E-03 -.631E+01
   0.262E-04 0.732E-01 0.693E+03   -.182E-05 -.835E-01 -.693E+03   -.259E-04 0.657E-02 0.327E+00
   0.506E+00 0.502E+00 0.693E+03   -.587E+00 -.582E+00 -.693E+03   0.514E-01 0.506E-01 0.468E+00
   0.760E-04 -.230E+01 -.626E+03   -.754E-04 0.185E+01 0.627E+03   -.419E-05 0.405E+00 -.348E+00
   -.233E+01 0.104E+00 -.625E+03   0.223E+01 -.108E+00 0.625E+03   0.910E-01 0.295E-02 0.111E-01
   0.117E-03 -.350E+00 -.194E+04   -.117E-03 0.375E+00 0.193E+04   0.275E-05 -.216E-01 0.549E+01
   -.181E+02 -.179E+02 -.193E+04   0.183E+02 0.181E+02 0.192E+04   -.130E+00 -.109E+00 0.565E+01
   0.135E-04 -.796E-01 0.202E+04   0.179E-05 0.938E-01 -.201E+04   -.288E-04 -.943E-02 -.635E+01
   0.786E-01 -.190E-01 0.202E+04   -.930E-01 0.191E-01 -.201E+04   0.956E-02 -.666E-04 -.636E+01
   -.344E-04 -.926E-01 0.691E+03   0.255E-04 0.969E-01 -.691E+03   0.363E-05 -.288E-02 0.467E+00
   0.501E+00 -.515E+00 0.693E+03   -.573E+00 0.588E+00 -.693E+03   0.454E-01 -.459E-01 0.453E+00
   0.471E-04 0.239E+01 -.625E+03   -.428E-04 -.194E+01 0.625E+03   -.668E-05 -.404E+00 -.428E+00
   -.237E+01 -.110E+00 -.625E+03   0.192E+01 0.114E+00 0.626E+03   0.406E+00 -.298E-02 -.394E+00
   0.578E-03 0.637E+00 -.188E+04   -.551E-03 -.773E+00 0.188E+04   -.248E-04 0.123E+00 0.111E+01
   -.178E+02 0.180E+02 -.193E+04   0.179E+02 -.181E+02 0.192E+04   -.102E+00 0.117E+00 0.566E+01
   0.735E-05 0.149E+00 0.520E+03   0.194E-05 -.168E+00 -.520E+03   -.782E-05 0.235E-01 -.114E-02
   -.153E+00 0.534E-01 0.520E+03   0.176E+00 -.468E-01 -.520E+03   -.282E-01 -.801E-02 -.226E-02
   -.794E-05 0.134E-01 0.152E+04   -.407E-07 -.132E-01 -.152E+04   0.355E-04 -.234E-03 0.317E+01
   -.687E-01 0.689E-01 0.152E+04   0.821E-01 -.818E-01 -.152E+04   -.166E-01 0.159E-01 0.315E+01
   -.114E-03 -.672E+01 -.149E+04   0.114E-03 0.655E+01 0.149E+04   0.169E-05 0.166E+00 -.441E+01
   0.674E+01 -.635E-01 -.149E+04   -.656E+01 0.434E-01 0.149E+04   -.168E+00 0.187E-01 -.441E+01
   -.290E-04 0.250E-01 -.466E+03   0.247E-04 -.238E-01 0.466E+03   0.514E-05 -.945E-03 0.316E+00
   0.143E+01 -.145E+01 -.461E+03   -.141E+01 0.143E+01 0.460E+03   -.177E-01 0.234E-01 0.556E+00
   0.267E-05 -.162E+00 0.520E+03   -.457E-05 0.188E+00 -.520E+03   0.134E-05 -.328E-01 -.271E-02
   -.338E-02 -.695E-01 0.518E+03   -.363E-01 0.723E-01 -.518E+03   0.430E-01 -.322E-02 -.190E+00
   0.552E-04 -.132E-01 0.152E+04   -.256E-05 0.132E-01 -.152E+04   -.507E-04 -.218E-04 0.315E+01
   -.675E-01 -.685E-01 0.152E+04   0.800E-01 0.816E-01 -.152E+04   -.155E-01 -.162E-01 0.315E+01
   -.104E-03 0.673E+01 -.149E+04   0.111E-03 -.656E+01 0.149E+04   -.450E-05 -.166E+00 -.441E+01
   0.235E+02 0.710E-01 -.145E+04   -.228E+02 -.581E-01 0.146E+04   -.637E+00 -.127E-01 -.426E+01
   -.184E-04 -.296E-01 -.461E+03   0.199E-04 0.278E-01 0.460E+03   -.313E-05 0.176E-02 0.428E+00
   0.150E+01 0.146E+01 -.461E+03   -.147E+01 -.144E+01 0.460E+03   -.274E-01 -.228E-01 0.560E+00
   -.212E-05 0.271E-02 0.518E+03   0.413E-06 0.406E-01 -.518E+03   0.135E-05 -.474E-01 -.197E+00
   0.153E+00 0.534E-01 0.520E+03   -.176E+00 -.468E-01 -.520E+03   0.282E-01 -.802E-02 -.224E-02
   0.362E-04 0.146E-01 0.152E+04   -.225E-07 -.152E-01 -.152E+04   -.458E-04 0.831E-03 0.315E+01
   0.687E-01 0.690E-01 0.152E+04   -.821E-01 -.818E-01 -.152E+04   0.166E-01 0.158E-01 0.315E+01
   0.204E-03 -.234E+02 -.145E+04   -.204E-03 0.226E+02 0.146E+04   -.136E-05 0.678E+00 -.420E+01
   -.674E+01 -.635E-01 -.149E+04   0.656E+01 0.434E-01 0.149E+04   0.168E+00 0.187E-01 -.441E+01
   0.405E-04 0.118E+00 -.461E+03   -.360E-04 -.113E+00 0.460E+03   -.453E-05 -.443E-02 0.429E+00
   -.143E+01 -.145E+01 -.461E+03   0.141E+01 0.143E+01 0.460E+03   0.177E-01 0.234E-01 0.556E+00
   0.137E-04 -.114E-01 0.518E+03   0.729E-05 -.245E-01 -.518E+03   -.162E-04 0.385E-01 -.183E+00
   0.337E-02 -.695E-01 0.518E+03   0.363E-01 0.723E-01 -.518E+03   -.430E-01 -.321E-02 -.190E+00
   -.232E-04 -.145E-01 0.152E+04   0.253E-05 0.153E-01 -.152E+04   0.294E-04 -.107E-02 0.312E+01
   0.675E-01 -.686E-01 0.152E+04   -.800E-01 0.816E-01 -.152E+04   0.155E-01 -.161E-01 0.315E+01
   0.156E-03 0.235E+02 -.145E+04   -.162E-03 -.228E+02 0.146E+04   0.328E-05 -.605E+00 -.429E+01
   -.235E+02 0.710E-01 -.145E+04   0.228E+02 -.582E-01 0.146E+04   0.637E+00 -.127E-01 -.426E+01
   0.494E-04 -.191E+00 -.477E+03   -.465E-04 0.186E+00 0.478E+03   0.977E-06 0.532E-02 -.123E+01
   -.150E+01 0.146E+01 -.461E+03   0.147E+01 -.144E+01 0.460E+03   0.274E-01 -.228E-01 0.560E+00
   0.276E-03 -.114E+01 0.114E+00   -.227E-12 0.334E-12 -.296E-11   -.317E-03 0.103E+01 0.371E+00

 POSITION                                       TOTAL-FORCE (eV/Angst)
      4.27307      4.29880     16.35510        -0.000397      0.021721      0.336849
      4.27306      5.26881     16.67556         0.000014     -0.259992     -0.181133
      3.44883      3.84548     16.75233         0.228415      0.129499     -0.190235
      5.09729      3.84548     16.75233        -0.228053      0.129317     -0.190066
      0.00000      6.40959      7.50000         0.000004     -0.002961      0.622466
      2.13653      0.00000      7.50000         0.002940     -0.000113      0.622770
      0.00000      0.00000      9.63653         0.000002     -0.000818      0.001235
      2.13653      6.40959      9.63653         0.022743     -0.022856      0.012563
      8.54611      6.40593     11.77671        -0.000002     -0.001054     -0.012924
      2.13949      8.54522     11.77647         0.001142      0.000071     -0.013299
      8.54611      8.54494     13.89515        -0.000002      0.000045     -0.276390
      2.13282      6.41130     13.88861         0.004309     -0.005059     -0.271368
      0.00000      2.13653      7.50000        -0.000033      0.002873      0.622710
      2.13653      4.27306      7.50000         0.003764      0.000034      0.633323
      0.00000      4.27306      9.63653        -0.000003     -0.001181      0.041344
      2.13653      2.13653      9.63653         0.020467      0.020338      0.011814
      8.54611      2.13884     11.77621        -0.000003      0.001273     -0.013674
      2.14989      4.27241     11.79335         0.010481      0.000145     -0.005212
      0.00000      4.27186     13.89212        -0.000001      0.000496     -0.273761
      2.13342      2.13156     13.88684         0.005608      0.005007     -0.274058
      4.27306      6.40959      7.50000         0.000008     -0.003768      0.633747
      6.40959      0.00000      7.50000        -0.002943     -0.000104      0.622664
      4.27306      0.00000      9.63653        -0.000002     -0.002823      0.041272
      6.40959      6.40959      9.63653        -0.022740     -0.022852      0.012559
      4.27306      6.39557     11.79389        -0.000004     -0.010328     -0.006624
      6.40662      8.54522     11.77647        -0.001135      0.000074     -0.013312
      4.27306      0.00005     13.89203         0.000003      0.001278     -0.273792
      6.41329      6.41130     13.88861        -0.004305     -0.005057     -0.271373
      4.27306      2.13653      7.50000        -0.000013      0.003686      0.632873
      6.40959      4.27306      7.50000        -0.003741      0.000031      0.633360
      4.27306      4.27306      9.63653        -0.000003      0.000985      0.049621
      6.40959      2.13653      9.63653        -0.020450      0.020341      0.011836
      4.27306      2.14919     11.79274        -0.000003      0.010527     -0.004304
      6.39622      4.27241     11.79335        -0.010478      0.000144     -0.005189
      4.27306      4.26794     14.06216        -0.000001     -0.001887     -0.105632
      6.41270      2.13156     13.88683        -0.005601      0.004999     -0.274059
      0.00000      6.40959      9.63653         0.000002      0.008587      0.037189
      2.13653      0.00000      9.63653        -0.009968     -0.002480      0.035621
      0.00000      0.00000      7.50000         0.000032     -0.000084     -0.268375
      2.13653      6.40959      7.50000        -0.005491      0.005236     -0.273739
      8.54611      6.41428     13.94782         0.000002      0.008006     -0.149503
      2.13060      8.54509     13.94807        -0.007848      0.000792     -0.148922
      8.54611      8.54538     11.77327         0.000003      0.000166      0.022357
      2.13586      6.40976     11.77800        -0.002712      0.003145      0.022649
      0.00000      2.13653      9.63653         0.000000     -0.011294      0.034179
      2.13653      4.27306      9.63653         0.009259     -0.000796      0.045988
      0.00000      4.27306      7.50000        -0.000000      0.000005     -0.274803
      2.13653      2.13653      7.50000        -0.005117     -0.005383     -0.273698
      8.54611      2.12951     13.94837         0.000003     -0.007592     -0.148340
      2.11320      4.27127     13.95296        -0.019394     -0.001668     -0.132569
      0.00000      4.27243     11.77427        -0.000001      0.000231      0.018830
      2.13539      2.13485     11.77701        -0.003334     -0.002969      0.023162
      4.27306      6.40959      9.63653         0.000000     -0.010560      0.045950
      6.40959      0.00000      9.63653         0.009965     -0.002482      0.035633
      4.27306      0.00000      7.50000        -0.000012      0.000305     -0.274842
      6.40959      6.40959      7.50000         0.005484      0.005216     -0.273732
      4.27306      6.43266     13.95606        -0.000001      0.019531     -0.123558
      6.41551      8.54509     13.94807         0.007849      0.000793     -0.148954
      4.27306      8.54512     11.77426         0.000001     -0.000286      0.018871
      6.41025      6.40976     11.77800         0.002715      0.003144      0.022650
      4.27306      2.13653      9.63653         0.000005      0.007950      0.046045
      6.40959      4.27306      9.63653        -0.009259     -0.000798      0.045975
      4.27306      4.27306      7.50000         0.000013     -0.000369     -0.282432
      6.40959      2.13653      7.50000         0.005084     -0.005354     -0.273657
      4.27306      2.11240     13.95033        -0.000001     -0.019065     -0.138803
      6.43291      4.27127     13.95296         0.019393     -0.001672     -0.132569
      4.27306      4.27273     11.79332         0.000005      0.000679     -0.046365
      6.41072      2.13485     11.77701         0.003331     -0.002965      0.023160
    total drift:                               -0.000059     -0.000290      0.000484

  FREE ENERGIE OF THE ION-ELECTRON SYSTEM (eV)
  free  energy   TOTEN  =      -460.64905963 eV

  energy  without entropy=     -460.64905963  energy(sigma->0) =     -460.64905963