 vasp.6.3.0 20Jan22 (build Mar 11 2022 13:48:16) complex

 executed on             LinuxIFC date 2024.02.13  07:18:33

 INCAR:
   SYSTEM = Oxide-Surface
   ISMEAR = 0
   SIGMA = 0.05
   EDIFF = 1E-5
   ALGO = ALL
   ISTART = 0
   IBRION = -1
   NSW = 0
   ISYM = 2
   DIPOL = 0.5 0.5 0.5
   IDIPOL = 3
   LDIPOL = .TRUE.
   GGA = PE
   IVDW = 11
   ENCUT = 600
   PREC = Accurate
   LASPH = .TRUE.
   LREAL = .FALSE.
   ISPIN = 1
   NELM = 200
   NELMIN = 8
   NCORE = 19
   KPAR = 1
   LWAVE = .FALSE.
   LCHARG = .FALSE.

 POTCAR:    PAW_PBE Mg_pv 13Apr2007
 POTCAR:    PAW_PBE O 08Apr2002
 POTCAR:    PAW_PBE Mg_pv 13Apr2007
   VRHFIN =Mg: p6s2

   TITEL  = PAW_PBE Mg_pv 13Apr2007
   POMASS =   24.305; ZVAL   =    8.000    mass and valenz
   ENMAX  =  403.929; ENMIN  =  302.947 eV

   TITEL  = PAW_PBE O 08Apr2002
   POMASS =   16.000; ZVAL   =    6.000    mass and valenz
   ENMAX  =  400.000; ENMIN  =  300.000 eV

  PAW_PBE Mg_pv 13Apr2007               :
  PAW_PBE O 08Apr2002                   :

 POSCAR: Mg  O
  positions in direct lattice
 exchange correlation table for  LEXCH =        8
   RHO(1)=    0.500       N(1)  =     2000
   RHO(2)=  100.500       N(2)  =     4000

 ion  position               nearest neighbor table
   1  0.000  0.750  0.352-  33 2.11  35 2.11  36 2.11  43 2.11  52 2.11
   2  0.250  0.000  0.352-  34 2.11  35 2.11  36 2.11  44 2.11  51 2.11
   3  0.000  0.000  0.451-  35 2.11  34 2.11  33 2.11  41 2.11  50 2.11  39 2.12
   4  0.250  0.750  0.451-  36 2.11  34 2.11  33 2.11  42 2.11  49 2.11  40 2.12
   5  0.000  0.750  0.550-  47 2.11  40 2.11  56 2.11  39 2.11  33 2.12  37 2.16
   6  0.250  1.000  0.550-  55 2.11  48 2.11  40 2.11  39 2.11  34 2.12  38 2.16
   7  0.000  1.000  0.648-  39 2.10  38 2.11  54 2.11  45 2.11  37 2.11
   8  0.250  0.750  0.648-  40 2.09  37 2.11  38 2.11  46 2.11  53 2.11
   9  0.000  0.250  0.352-  41 2.11  35 2.11  43 2.11  44 2.11  60 2.11
  10  0.250  0.500  0.352-  42 2.11  36 2.11  43 2.11  44 2.11  59 2.11
  11  0.000  0.500  0.451-  43 2.11  41 2.11  42 2.11  33 2.11  58 2.11  47 2.11
  12  0.250  0.250  0.451-  44 2.11  41 2.11  42 2.11  34 2.11  57 2.11  48 2.12
  13  1.000  0.250  0.550-  47 2.11  64 2.11  48 2.11  39 2.11  41 2.12  45 2.16
  14  0.251  0.500  0.551-  63 2.10  48 2.11  40 2.11  47 2.12  42 2.13  46 2.15
  15  0.000  0.500  0.648-  62 2.09  46 2.09  47 2.10  45 2.12  37 2.12
  16  0.250  0.250  0.648-  48 2.10  38 2.11  45 2.11  61 2.11  46 2.11
  17  0.500  0.750  0.352-  49 2.11  36 2.11  51 2.11  52 2.11  59 2.11
  18  0.750  0.000  0.352-  50 2.11  35 2.11  51 2.11  52 2.11  60 2.11
  19  0.500  0.000  0.451-  51 2.11  49 2.11  50 2.11  34 2.11  57 2.11  55 2.11
  20  0.750  0.750  0.451-  52 2.11  49 2.11  50 2.11  33 2.11  58 2.11  56 2.12
  21  0.500  0.749  0.551-  63 2.10  56 2.11  40 2.11  55 2.12  49 2.13  53 2.15
  22  0.750  1.000  0.550-  55 2.11  64 2.11  56 2.11  39 2.11  50 2.12  54 2.16
  23  0.500  0.000  0.648-  61 2.09  53 2.09  55 2.10  38 2.12  54 2.12
  24  0.750  0.750  0.648-  56 2.09  37 2.11  54 2.11  62 2.11  53 2.11
  25  0.500  0.250  0.352-  57 2.11  51 2.11  44 2.11  59 2.11  60 2.11
  26  0.750  0.500  0.352-  58 2.11  52 2.11  43 2.11  59 2.11  60 2.11
  27  0.500  0.500  0.451-  59 2.11  49 2.11  57 2.11  58 2.11  42 2.11  63 2.14
  28  0.750  0.250  0.451-  60 2.11  50 2.11  57 2.11  58 2.11  41 2.11  64 2.12
  29  0.500  0.251  0.551-  63 2.10  48 2.11  64 2.11  55 2.12  57 2.13  61 2.14
  30  0.749  0.500  0.551-  63 2.10  64 2.11  56 2.11  47 2.12  58 2.13  62 2.15
  31  0.500  0.499  0.655-  61 2.12  62 2.13  46 2.13  53 2.15  63 2.22
  32  0.750  0.250  0.648-  64 2.10  54 2.11  45 2.11  61 2.11  62 2.11
  33  0.000  0.750  0.451-   1 2.11   3 2.11   4 2.11  11 2.11  20 2.11   5 2.12
  34  0.250  0.000  0.451-   2 2.11   3 2.11   4 2.11  12 2.11  19 2.11   6 2.12
  35  0.000  0.000  0.352-   3 2.11   2 2.11   1 2.11   9 2.11  18 2.11
  36  0.250  0.750  0.352-   4 2.11   2 2.11   1 2.11  10 2.11  17 2.11
  37  1.000  0.750  0.651-   7 2.11  24 2.11   8 2.11  15 2.12   5 2.16
  38  0.249  1.000  0.651-   7 2.11  16 2.11   8 2.11  23 2.12   6 2.16
  39  1.000  1.000  0.550-   7 2.10   5 2.11  22 2.11   6 2.11  13 2.11   3 2.12
  40  0.250  0.750  0.550-   8 2.09   6 2.11   5 2.11  21 2.11  14 2.11   4 2.12
  41  0.000  0.250  0.451-   9 2.11   3 2.11  11 2.11  12 2.11  28 2.11  13 2.12
  42  0.250  0.500  0.451-  10 2.11   4 2.11  11 2.11  12 2.11  27 2.11  14 2.13
  43  0.000  0.500  0.352-  11 2.11   9 2.11  10 2.11   1 2.11  26 2.11
  44  0.250  0.250  0.352-  12 2.11   9 2.11  10 2.11   2 2.11  25 2.11
  45  0.000  0.249  0.651-   7 2.11  32 2.11  16 2.11  15 2.12  13 2.16
  46  0.247  0.500  0.651-  15 2.09   8 2.11  16 2.11  31 2.13  14 2.15
  47  0.000  0.500  0.550-  15 2.10   5 2.11  13 2.11  11 2.11  30 2.12  14 2.12
  48  0.250  0.250  0.550-  16 2.10   6 2.11  13 2.11  14 2.11  29 2.11  12 2.12
  49  0.500  0.750  0.451-  17 2.11   4 2.11  19 2.11  20 2.11  27 2.11  21 2.13
  50  0.750  0.000  0.451-  18 2.11   3 2.11  19 2.11  20 2.11  28 2.11  22 2.12
  51  0.500  0.000  0.352-  19 2.11  17 2.11  18 2.11   2 2.11  25 2.11
  52  0.750  0.750  0.352-  20 2.11  17 2.11  18 2.11   1 2.11  26 2.11
  53  0.500  0.753  0.651-  23 2.09   8 2.11  24 2.11  31 2.15  21 2.15
  54  0.751  1.000  0.651-   7 2.11  32 2.11  24 2.11  23 2.12  22 2.16
  55  0.500  1.000  0.550-  23 2.10  22 2.11   6 2.11  19 2.11  21 2.12  29 2.12
  56  0.750  0.750  0.550-  24 2.09  22 2.11   5 2.11  21 2.11  30 2.11  20 2.12
  57  0.500  0.250  0.451-  25 2.11  19 2.11  12 2.11  27 2.11  28 2.11  29 2.13
  58  0.750  0.500  0.451-  26 2.11  20 2.11  11 2.11  27 2.11  28 2.11  30 2.13
  59  0.500  0.500  0.352-  27 2.11  17 2.11  25 2.11  26 2.11  10 2.11
  60  0.750  0.250  0.352-  28 2.11  18 2.11  25 2.11  26 2.11   9 2.11
  61  0.500  0.247  0.651-  23 2.09  16 2.11  32 2.11  31 2.12  29 2.14
  62  0.753  0.500  0.651-  15 2.09  24 2.11  32 2.11  31 2.13  30 2.15
  63  0.500  0.500  0.551-  21 2.10  14 2.10  30 2.10  29 2.10  27 2.14  31 2.22
  64  0.750  0.250  0.550-  32 2.10  22 2.11  13 2.11  30 2.11  29 2.11  28 2.12

  LATTYP: Found a simple tetragonal cell.
 ALAT       =     8.4409846542
 C/A-ratio  =     2.5270438657

  Lattice vectors:

 A1 = (   8.4409846542,   0.0000000000,   0.0000000000)
 A2 = (   0.0000000000,   8.4409846542,   0.0000000000)
 A3 = (   0.0000000000,   0.0000000000,  21.3307384906)

Analysis of symmetry for initial positions (statically):
 Subroutine PRICEL returns:
 Original cell was already a primitive cell.

 Routine SETGRP: Setting up the symmetry group for a
 simple tetragonal supercell.

 Subroutine GETGRP returns: Found  2 space group operations
 (whereof  2 operations were pure point group operations)
 out of a pool of 16 trial point group operations.

The static configuration has the point symmetry C_1h.

Analysis of symmetry for dynamics (positions and initial velocities):
 Subroutine PRICEL returns:
 Original cell was already a primitive cell.

[...]

The dynamic configuration has the point symmetry C_1h.

Analysis of constrained symmetry for selective dynamics:
 Subroutine PRICEL returns:
 Original cell was already a primitive cell.

 Routine SETGRP: Setting up the symmetry group for a
 simple tetragonal supercell.

 Subroutine GETGRP returns: Found  2 space group operations
 (whereof  2 operations were pure point group operations)
 out of a pool of 16 trial point group operations.

The constrained configuration has the point symmetry C_1h.

 Subroutine INISYM returns: Found  2 space group operations
 (whereof  2 operations are pure point group operations),
 and found     1 'primitive' translations

                                     Primitive cell

  volume of cell :    1519.8199

  direct lattice vectors                    reciprocal lattice vectors
     8.440984654  0.000000000  0.000000000     0.118469591  0.000000000  0.000000000
     0.000000000  8.440984654  0.000000000     0.000000000  0.118469591  0.000000000
     0.000000000  0.000000000 21.330738491     0.000000000  0.000000000  0.046880702

  length of vectors
     8.440984654  8.440984654 21.330738491     0.118469591  0.118469591  0.046880702

  position of ions in fractional coordinates (direct lattice)
     0.000000000  0.750000000  0.351605267
     0.250000000  0.000000000  0.351605267
     0.000000000  0.000000000  0.450535089
     0.250000000  0.750000000  0.450535089
     0.000000002  0.749683926  0.549893410
     0.250263522  0.999989873  0.549908943
     0.000000001  0.999953889  0.648375512
     0.249680169  0.750035883  0.648043586
     0.000000000  0.250000000  0.351605267
     0.250000000  0.500000000  0.351605267
     0.000000000  0.500000000  0.450535089
     0.250000000  0.250000000  0.450535089
     0.999999995  0.250229246  0.549913058
     0.251264402  0.499907421  0.550551274
     0.000000017  0.499888939  0.648188279
     0.249874845  0.249731960  0.648151920
     0.500000000  0.750000000  0.351605267
     0.750000000  0.000000000  0.351605267
     0.500000000  0.000000000  0.450535089
     0.750000000  0.750000000  0.450535089
     0.499999996  0.748689127  0.550582001
     0.749736477  0.999989873  0.549908956
     0.499999995  0.000230885  0.648178485
     0.750319838  0.750035869  0.648043580
     0.500000000  0.250000000  0.351605267
     0.750000000  0.500000000  0.351605267
     0.500000000  0.500000000  0.450535089
     0.750000000  0.250000000  0.450535089
     0.499999999  0.251188744  0.550506166
     0.748735610  0.499907415  0.550551309
     0.500000034  0.498638580  0.654927800
     0.750125161  0.249731957  0.648151929
     0.000000000  0.750000000  0.450535089
     0.250000000  0.000000000  0.450535089
     0.000000000  0.000000000  0.351605267
     0.250000000  0.750000000  0.351605267
     0.999999998  0.750486788  0.651100364
     0.249403677  0.999906086  0.651133405
     0.999999997  0.999932321  0.549747566
     0.249933154  0.750096792  0.549885275
     0.000000000  0.250000000  0.450535089
     0.250000000  0.500000000  0.450535089
     0.000000000  0.500000000  0.351605267
     0.250000000  0.250000000  0.351605267
     0.000000002  0.249363374  0.651160803
     0.247373170  0.499927644  0.651129740
     0.000000005  0.499978499  0.549670801
     0.249818529  0.249801412  0.549853953
     0.500000000  0.750000000  0.450535089
     0.750000000  0.000000000  0.450535089
     0.500000000  0.000000000  0.351605267
     0.750000000  0.750000000  0.351605267
     0.499999996  0.752917707  0.651485348
     0.750596322  0.999906078  0.651133423
     0.500000000  0.999871141  0.549675125
     0.750066839  0.750096789  0.549885280
     0.500000000  0.250000000  0.450535089
     0.750000000  0.500000000  0.450535089
     0.500000000  0.500000000  0.351605267
     0.750000000  0.250000000  0.351605267
     0.500000002  0.247330485  0.650918475
     0.752626876  0.499927627  0.651129742
     0.500000005  0.500041645  0.550741581
     0.750181473  0.249801401  0.549853959

  ion indices of the primitive-cell ions
   primitive index   ion index
                 1           1
                 2           2
                 3           3
[...]
   2.11024616  6.33073849  9.61024616
   0.00000001  6.32807051 11.72963254
   2.11247055  8.44089918 11.72996386
   0.00000000  8.44059543 13.83032849
   2.10754648  6.33104138 13.82324826
   0.00000000  2.11024616  7.50000000
   2.11024616  4.22049233  7.50000000
   0.00000000  4.22049233  9.61024616
   2.11024616  2.11024616  9.61024616
   8.44098461  2.11218123 11.73005164
   2.12091896  4.21971087 11.74366526
   0.00000015  4.21955487 13.82633468
   2.10918973  2.10798364 13.82555910
   4.22049233  6.33073849  7.50000000
   6.33073849  0.00000000  7.50000000
   4.22049233  0.00000000  9.61024616
   6.33073849  6.33073849  9.61024616
   4.22049230  6.31967343 11.74432068
   6.32851410  8.44089918 11.72996414
   4.22049228  0.00194889 13.82612576
   6.33343824  6.33104126 13.82324815
   4.22049233  2.11024616  7.50000000
   6.33073849  4.22049233  7.50000000
   4.22049233  4.22049233  9.61024616
   6.33073849  2.11024616  9.61024616
   4.22049232  2.12028034 11.74270306
   6.32006580  4.21971082 11.74366600
   4.22049261  4.20900061 13.97009364
   6.33179497  2.10798362 13.82555929
   0.00000000  6.33073849  9.61024616
   2.11024616  0.00000000  9.61024616
   0.00000000  0.00000000  7.50000000
   2.11024616  6.33073849  7.50000000
   8.44098464  6.33484746 13.88845160
   2.10521261  8.44019193 13.88915639
   8.44098463  8.44041337 11.72652157
   2.10968191  6.33155551 11.72945899
   0.00000000  2.11024616  9.61024616
   2.11024616  4.22049233  9.61024616
   0.00000000  4.22049233  7.50000000
   2.11024616  2.11024616  7.50000000
   0.00000002  2.10487242 13.88974081
   2.08807314  4.21988157 13.88907820
   0.00000005  4.22031084 11.72488410
   2.10871437  2.10856989 11.72879088
   4.22049233  6.33073849  9.61024616
   6.33073849  0.00000000  9.61024616
   4.22049233  0.00000000  7.50000000
   6.33073849  6.33073849  7.50000000
   4.22049229  6.35536681 13.89666358
   6.33577203  8.44019186 13.88915676
   4.22049233  8.43989696 11.72497634
   6.33130268  6.33155548 11.72945910
   4.22049233  2.11024616  9.61024616
   6.33073849  4.22049233  9.61024616
   4.22049233  4.22049233  7.50000000
   6.33073849  2.11024616  7.50000000
   4.22049234  2.08771283 13.88457177
   6.35291191  4.21988143 13.88907825
   4.22049237  4.22084386 11.74772465
   6.33227030  2.10856979 11.72879100

--------------------------------------- Iteration      FINAL  ---------------------------------------

--------------------OUTCAR has been truncated-------------------------

[...]

--------------------OUTCAR has been truncated-------------------------

         DFTD3 V3.0 Rev 1
 IVDW         = 11
 DF pbe
 parameters
 VDW_S6       =    1.0000
 VDW_S8       =    0.7220
 VDW_SR       =    1.2170
 rs18     =    1.0000
 alpha6   =   14.0000
 alpha8   =   16.0000
 k1-k3    =   16.0000    1.3333   -4.0000
 VDW_RADIUS   =   50.2022 A
 VDW_CNRADIUS =   21.1671 A
 Edisp (eV)   -9.23001

 E6    (eV) :    -4.2232
 E8    (eV) :    -5.0068
 % E8        : 54.25

  FORCE on cell =-STRESS in cart. coord.  units (eV):
  Direction    XX          YY          ZZ          XY          YZ          ZX
  Alpha Z   875.25928   875.25928   875.25928
  Ewald  160985.51009160985.71740************     0.00000     0.14875     0.00002
  Hartree171045.57115171045.67530************     0.00000     0.01988     0.00000
  E(xc)   -2456.48815 -2456.48787 -2461.78687     0.00000    -0.00069     0.00000
  Local  ************************342300.06624    -0.00000    -0.13152    -0.00002
  n-local -2811.99029 -2811.98658 -2832.93533     0.00002    -0.01023     0.00001
  augment  1047.87229  1047.87232  1038.50513    -0.00000    -0.00672    -0.00000
  Kinetic  7302.36916  7302.36655  7344.08652     0.00001     0.04413    -0.00005
  Fock        0.00000     0.00000     0.00000     0.00000     0.00000     0.00000
  vdW       -11.85099   -11.85087    -7.11253    -0.00000    -0.00127     0.00000
  Total     -31.21211   -31.20415    -3.20674     0.00000     0.06234     0.00000
  in kB     -32.90347   -32.89507    -3.38051     0.00000     0.06571     0.00000

 VOLUME and BASIS-vectors are now :
  energy-cutoff  :      600.00
  volume of cell :     1519.82
      direct lattice vectors                 reciprocal lattice vectors
     8.440984654  0.000000000  0.000000000     0.118469591  0.000000000  0.000000000
     0.000000000  8.440984654  0.000000000     0.000000000  0.118469591  0.000000000
     0.000000000  0.000000000 21.330738491     0.000000000  0.000000000  0.046880702

  length of vectors
     8.440984654  8.440984654 21.330738491     0.118469591  0.118469591  0.046880702

 FORCES acting on ions:
    Electron-Ion                     Ewald-Force                    Non-Local-Force
   0.282E-05 0.255E+00 0.207E+04   -.634E-05 -.259E+00 -.206E+04   -.589E-22 0.284E-02 -.703E+01
   -.255E+00 0.278E-01 0.207E+04   0.259E+00 -.285E-01 -.206E+04   -.287E-02 0.486E-03 -.704E+01
   0.930E-05 0.598E-01 0.684E+03   -.199E-04 -.583E-01 -.685E+03   -.150E-21 -.120E-02 0.459E+00
   -.144E+01 0.140E+01 0.683E+03   0.149E+01 -.145E+01 -.683E+03   -.372E-01 0.303E-01 0.562E+00
   -.287E-05 0.749E+00 -.687E+03   -.147E-04 -.733E+00 0.687E+03   0.103E-21 0.111E-01 -.151E+00
   -.765E+00 0.339E+00 -.687E+03   0.752E+00 -.341E+00 0.687E+03   -.119E-01 -.291E-02 -.152E+00
   -.833E-05 0.160E+00 -.205E+04   0.151E-04 -.151E+00 0.204E+04   0.451E-23 -.980E-02 0.579E+01
   -.326E+01 0.251E+01 -.204E+04   0.292E+01 -.209E+01 0.204E+04   0.283E+00 -.330E+00 0.588E+01
   0.264E-05 -.255E+00 0.207E+04   -.599E-05 0.259E+00 -.206E+04   -.105E-21 -.269E-02 -.704E+01
   -.328E+00 -.283E-01 0.207E+04   0.337E+00 0.287E-01 -.206E+04   -.700E-02 -.290E-03 -.706E+01
   0.186E-04 -.698E-01 0.683E+03   -.411E-04 0.649E-01 -.684E+03   -.364E-23 0.343E-02 0.439E+00
   -.136E+01 -.141E+01 0.683E+03   0.139E+01 0.145E+01 -.683E+03   -.229E-01 -.276E-01 0.556E+00
   0.938E-05 -.738E+00 -.687E+03   0.784E-05 0.723E+00 0.687E+03   -.914E-22 -.116E-01 -.135E+00
   -.415E+01 -.416E+00 -.695E+03   0.449E+01 0.420E+00 0.695E+03   -.344E+00 0.144E-02 -.265E+00
   -.577E-04 -.160E+00 -.204E+04   0.701E-04 0.148E+00 0.204E+04   0.121E-21 0.122E-01 0.570E+01
   -.165E+01 -.212E+01 -.204E+04   0.115E+01 0.168E+01 0.204E+04   0.383E+00 0.344E+00 0.594E+01
   -.287E-05 0.328E+00 0.207E+04   0.635E-05 -.337E+00 -.206E+04   0.228E-21 0.698E-02 -.706E+01
   0.255E+00 0.278E-01 0.207E+04   -.259E+00 -.285E-01 -.206E+04   0.287E-02 0.486E-03 -.704E+01
   -.988E-05 0.159E+00 0.683E+03   0.217E-04 -.176E+00 -.684E+03   0.993E-22 0.118E-01 0.438E+00
   0.144E+01 0.140E+01 0.683E+03   -.149E+01 -.145E+01 -.683E+03   0.372E-01 0.303E-01 0.562E+00
   0.578E-05 0.438E+01 -.697E+03   0.617E-05 -.471E+01 0.697E+03   -.205E-21 0.338E+00 -.232E+00
   0.765E+00 0.339E+00 -.687E+03   -.752E+00 -.341E+00 0.687E+03   0.119E-01 -.291E-02 -.152E+00
   0.126E-04 0.929E+00 -.204E+04   0.285E-05 -.110E+01 0.204E+04   0.670E-21 0.116E+00 0.568E+01
   0.326E+01 0.251E+01 -.204E+04   -.292E+01 -.209E+01 0.204E+04   -.283E+00 -.330E+00 0.588E+01
   -.273E-05 -.328E+00 0.207E+04   0.614E-05 0.337E+00 -.206E+04   -.350E-21 -.678E-02 -.705E+01
   0.328E+00 -.283E-01 0.207E+04   -.337E+00 0.287E-01 -.206E+04   0.700E-02 -.290E-03 -.706E+01
   -.213E-04 -.171E+00 0.678E+03   0.430E-04 0.183E+00 -.679E+03   0.358E-21 -.896E-02 0.707E+00
   0.136E+01 -.141E+01 0.683E+03   -.139E+01 0.145E+01 -.683E+03   0.229E-01 -.276E-01 0.556E+00
   -.148E-05 -.405E+01 -.693E+03   0.137E-04 0.438E+01 0.693E+03   0.799E-21 -.332E+00 -.264E+00
   0.415E+01 -.416E+00 -.695E+03   -.449E+01 0.420E+00 0.695E+03   0.344E+00 0.144E-02 -.265E+00
   -.315E-04 -.442E+01 -.210E+04   -.702E-04 0.436E+01 0.209E+04   0.143E-20 0.184E+00 0.694E+01
   0.165E+01 -.212E+01 -.204E+04   -.115E+01 0.168E+01 0.204E+04   -.383E+00 0.344E+00 0.594E+01
   0.781E-05 0.624E+00 0.513E+03   -.191E-04 -.627E+00 -.513E+03   -.600E-22 0.502E-02 -.404E-01
   -.628E+00 0.988E-01 0.513E+03   0.634E+00 -.983E-01 -.513E+03   -.897E-02 -.991E-03 -.487E-01
   0.173E-05 0.160E-01 0.155E+04   -.389E-05 -.157E-01 -.156E+04   -.130E-21 -.423E-03 0.349E+01
   -.228E+00 0.224E+00 0.155E+04   0.235E+00 -.230E+00 -.156E+04   -.104E-01 0.855E-02 0.349E+01
   0.859E-05 0.739E+00 -.156E+04   0.240E-04 -.744E+00 0.157E+04   0.195E-21 -.488E-01 -.545E+01
   -.787E+00 0.373E+00 -.156E+04   0.820E+00 -.440E+00 0.157E+04   0.151E-01 0.867E-01 -.545E+01
   0.333E-04 0.490E-01 -.510E+03   -.358E-05 -.501E-01 0.510E+03   -.415E-22 0.321E-02 0.169E+00
   -.212E+01 0.194E+01 -.510E+03   0.208E+01 -.189E+01 0.509E+03   0.581E-01 -.745E-01 0.509E+00
   0.587E-05 -.630E+00 0.513E+03   -.147E-04 0.637E+00 -.513E+03   0.136E-22 -.107E-01 -.504E-01
   -.104E+01 -.109E+00 0.510E+03   0.980E+00 0.114E+00 -.510E+03   0.717E-01 -.582E-02 -.169E+00
   0.267E-05 -.160E-01 0.155E+04   -.584E-05 0.158E-01 -.156E+04   0.291E-21 0.234E-03 0.349E+01
   -.219E+00 -.224E+00 0.155E+04   0.225E+00 0.230E+00 -.156E+04   -.755E-02 -.879E-02 0.349E+01
   -.278E-04 -.741E+00 -.156E+04   0.267E-04 0.749E+00 0.157E+04   0.102E-21 0.449E-01 -.544E+01
   -.661E+01 -.658E+00 -.156E+04   0.643E+01 0.725E+00 0.156E+04   0.506E+00 -.887E-01 -.456E+01
   -.573E-04 -.581E-01 -.508E+03   0.877E-06 0.595E-01 0.507E+03   0.789E-23 -.349E-02 0.478E+00
   -.172E+01 -.188E+01 -.509E+03   0.167E+01 0.184E+01 0.509E+03   0.802E-01 0.753E-01 0.489E+00
   -.850E-05 0.104E+01 0.510E+03   0.188E-04 -.978E+00 -.509E+03   -.207E-21 -.757E-01 -.184E+00
   0.628E+00 0.988E-01 0.513E+03   -.634E+00 -.983E-01 -.513E+03   0.897E-02 -.991E-03 -.487E-01
   -.175E-05 0.250E-01 0.155E+04   0.395E-05 -.267E-01 -.156E+04   0.208E-21 0.234E-02 0.349E+01
   0.228E+00 0.224E+00 0.155E+04   -.235E+00 -.230E+00 -.156E+04   0.104E-01 0.855E-02 0.349E+01
   0.414E-04 0.825E+01 -.156E+04   0.229E-07 -.818E+01 0.156E+04   -.644E-21 -.435E+00 -.472E+01
   0.787E+00 0.373E+00 -.156E+04   -.820E+00 -.440E+00 0.157E+04   -.151E-01 0.867E-01 -.545E+01
   -.491E-05 0.477E+00 -.508E+03   0.132E-04 -.502E+00 0.507E+03   -.253E-21 0.375E-01 0.472E+00
   0.212E+01 0.194E+01 -.510E+03   -.208E+01 -.189E+01 0.509E+03   -.581E-01 -.745E-01 0.509E+00
   -.769E-05 -.104E+01 0.510E+03   0.181E-04 0.990E+00 -.510E+03   0.993E-22 0.686E-01 -.152E+00
   0.104E+01 -.109E+00 0.510E+03   -.980E+00 0.114E+00 -.510E+03   -.717E-01 -.582E-02 -.169E+00
   -.276E-05 -.249E-01 0.155E+04   0.593E-05 0.268E-01 -.156E+04   0.805E-22 -.259E-02 0.347E+01
   0.219E+00 -.224E+00 0.155E+04   -.225E+00 0.230E+00 -.156E+04   0.755E-02 -.879E-02 0.349E+01
   -.909E-05 -.541E+01 -.155E+04   -.241E-04 0.511E+01 0.156E+04   0.781E-21 0.611E+00 -.445E+01
   0.661E+01 -.657E+00 -.156E+04   -.643E+01 0.725E+00 0.156E+04   -.506E+00 -.887E-01 -.456E+01
   -.510E-04 -.737E+00 -.534E+03   0.383E-05 0.767E+00 0.535E+03   0.783E-22 -.441E-01 -.964E+00
   0.172E+01 -.188E+01 -.509E+03   -.167E+01 0.184E+01 0.509E+03   -.802E-01 0.753E-01 0.489E+00
   -.604E-03 -.481E+00 0.169E+02   -.112E-12 0.170E-12 0.699E-11   0.000E+00 0.479E+00 -.168E+02

 POSITION                                       TOTAL-FORCE (eV/Angst)
      0.00000      6.33074      7.50000        -0.000000     -0.001017      0.376449
      2.11025      0.00000      7.50000         0.001062     -0.000126      0.377006
      0.00000      0.00000      9.61025        -0.000000      0.000361      0.089882
      2.11025      6.33074      9.61025         0.015031     -0.012759      0.090764
      0.00000      6.32807     11.72963        -0.000000      0.026166      0.018023
      2.11247      8.44090     11.72996        -0.024733     -0.004409      0.019419
      0.00000      8.44060     13.83033        -0.000000     -0.001020      0.053931
      2.10755      6.33104     13.82325        -0.048181      0.089502      0.089405
      0.00000      2.11025      7.50000        -0.000000      0.001050      0.377253
      2.11025      4.22049      7.50000         0.002173      0.000156      0.381025
      0.00000      4.22049      9.61025        -0.000000     -0.001383      0.103617
      2.11025      2.11025      9.61025         0.009897      0.011546      0.087336
      8.44098      2.11218     11.73005        -0.000000     -0.026325      0.017463
      2.12092      4.21971     11.74367        -0.005212      0.005007     -0.061133
      0.00000      4.21955     13.82633        -0.000000      0.000004      0.093727
      2.10919      2.10798     13.82556        -0.112599     -0.092075      0.049750
      4.22049      6.33074      7.50000        -0.000000     -0.002117      0.381997
      6.33074      0.00000      7.50000        -0.001062     -0.000126      0.377006
      4.22049      0.00000      9.61025        -0.000000     -0.004591      0.104380
      6.33074      6.33074      9.61025        -0.015031     -0.012759      0.090764
      4.22049      6.31967     11.74432        -0.000000      0.006237     -0.036715
      6.32851      8.44090     11.72996         0.024733     -0.004409      0.019419
      4.22049      0.00195     13.82613        -0.000000     -0.051317      0.100558
      6.33344      6.33104     13.82325         0.048181      0.089502      0.089405
      4.22049      2.11025      7.50000        -0.000000      0.002149      0.380052
      6.33074      4.22049      7.50000        -0.002173      0.000156      0.381025
      4.22049      4.22049      9.61025        -0.000000      0.003320      0.120076
      6.33074      2.11025      9.61025        -0.009897      0.011546      0.087336
      4.22049      2.12028     11.74270        -0.000000     -0.006996     -0.075192
      6.32007      4.21971     11.74367         0.005212      0.005007     -0.061133
      4.22049      4.20900     13.97009        -0.000000      0.117425     -0.812734
      6.33179      2.10798     13.82556         0.112599     -0.092075      0.049750
      0.00000      6.33074      9.61025        -0.000000      0.002283      0.068217
      2.11025      0.00000      9.61025        -0.003159     -0.000453      0.067218
      0.00000      0.00000      7.50000        -0.000000     -0.000084     -0.515102
      2.11025      6.33074      7.50000        -0.002983      0.002443     -0.517292
      8.44098      6.33485     13.88845        -0.000000     -0.053949     -0.093537
      2.10521      8.44019     13.88916         0.047749      0.020176     -0.095879
      8.44098      8.44041     11.72652        -0.000000      0.002240     -0.037982
      2.10968      6.33156     11.72946         0.019684     -0.028199     -0.013801
      0.00000      2.11025      9.61025        -0.000000     -0.003600      0.067017
      2.11025      4.22049      9.61025         0.016784     -0.001199      0.098514
      0.00000      4.22049      7.50000        -0.000000      0.000078     -0.517363
      2.11025      2.11025      7.50000        -0.002147     -0.002451     -0.516936
      0.00000      2.10487     13.88974        -0.000000      0.053194     -0.094140
      2.08807      4.21988     13.88908         0.328356     -0.021165      0.124549
      0.00000      4.22031     11.72488        -0.000000     -0.002073      0.027769
      2.10871      2.10857     11.72879         0.031459      0.028669     -0.002307
      4.22049      6.33074      9.61025        -0.000000     -0.017852      0.096950
      6.33074      0.00000      9.61025         0.003159     -0.000453      0.067218
      4.22049      0.00000      7.50000        -0.000000      0.000682     -0.517499
      6.33074      6.33074      7.50000         0.002983      0.002443     -0.517292
      4.22049      6.35537     13.89666        -0.000000     -0.365368      0.072046
      6.33577      8.44019     13.88916        -0.047749      0.020176     -0.095879
      4.22049      8.43990     11.72498        -0.000000      0.012345      0.024384
      6.33130      6.33156     11.72946        -0.019684     -0.028199     -0.013801
      4.22049      2.11025      9.61025        -0.000000      0.016190      0.099081
      6.33074      4.22049      9.61025        -0.016784     -0.001199      0.098514
      4.22049      4.22049      7.50000        -0.000000     -0.000710     -0.521493
      6.33074      2.11025      7.50000         0.002147     -0.002451     -0.516936
      4.22049      2.08771     13.88457        -0.000000      0.319868      0.157858
      6.35291      4.21988     13.88908        -0.328356     -0.021165      0.124549
      4.22049      4.22084     11.74772        -0.000000     -0.014514      0.035754
      6.33227      2.10857     11.72879        -0.031459      0.028669     -0.002307
    total drift:                               -0.000604     -0.002130      0.016374

  FREE ENERGIE OF THE ION-ELECTRON SYSTEM (eV)
  free  energy   TOTEN  =      -381.32644354 eV

  energy  without entropy=     -381.32644354  energy(sigma->0) =     -381.32644354