 vasp.6.3.0 20Jan22 (build Apr  1 2022 16:44:48) complex
 executed on        HPECrayEX_GCC date 2022.11.14  06:10:01

 INCAR:
   SYSTEM = MgO-rocksalt
   ISMEAR = 0
   SIGMA = 0.05
   EDIFF = 1E-6
   ALGO = ALL
   ISTART = 0
   IBRION = -1
   NSW = 0
   ISYM = 0
   DIPOL = 0.5 0.5 0.5
   IDIPOL = 3
   LDIPOL = .TRUE.
   LHFCALC = .TRUE.
   GGA = B5
   AEXX = 0.2
   AGGAX = 0.72
   AGGAC = 0.81
   ALDAC = 0.19
   IVDW = 1
   VDW_S6 = 1.05
   VDW_C6 = 0.63 0.70
   VDW_R0 = 1.243 1.342
   ENCUT = 600
   PREC = Accurate
   LASPH = .TRUE.
   LREAL = .FALSE.
   ISPIN = 2
   MAGMOM = 0.0 0.0 0.0 0.0 0.0 0.0 0.0 0.0 0.0 0.0 0.0 0.0 0.0 0.0 0.0 0.0 0.0 0.0 0.0 0.0 0.0 0.0 0.0 0.0 0.0 0.0 0.0 0.0 0.0 0.0 0.0 0.0 0.0 0.0 0.0 0.0 0.0 0.0 0.0 0.0 0.0 0.0 0.0 0.0 0.0 0.0 0.0 0.0 0.0 0.0 0.0 0.0 0.0 0.0 0.0 0.0 0.0 0.0 0.0 0.0 0.0 0.0 0.0 0.0
   NELM = 200
   NELMIN = 8
   NCORE = 8
   KPAR = 1
   LWAVE = .FALSE.
   LCHARG = .FALSE.

 POTCAR:    PAW_PBE Mg_pv 13Apr2007
 POTCAR:    PAW_PBE O 08Apr2002
 POTCAR:    PAW_PBE Mg_pv 13Apr2007
   VRHFIN =Mg: p6s2

   TITEL  = PAW_PBE Mg_pv 13Apr2007
   POMASS =   24.305; ZVAL   =    8.000    mass and valenz
   ENMAX  =  403.929; ENMIN  =  302.947 eV

   TITEL  = PAW_PBE O 08Apr2002
   POMASS =   16.000; ZVAL   =    6.000    mass and valenz
   ENMAX  =  400.000; ENMIN  =  300.000 eV

  PAW_PBE Mg_pv 13Apr2007               :
  PAW_PBE O 08Apr2002                   :

 POSCAR: Mg  O
  positions in direct lattice
 exchange correlation table for  LEXCH =       12
   RHO(1)=    0.500       N(1)  =     2000
   RHO(2)=  100.500       N(2)  =     4000

 ion  position               nearest neighbor table
   1  0.250  0.000  0.352-  33 2.11  35 2.11  36 2.11  43 2.11  52 2.11
   2  0.500  0.250  0.352-  34 2.11  35 2.11  36 2.11  44 2.11  51 2.11
   3  0.250  0.250  0.451-  35 2.11  34 2.11  33 2.11  41 2.11  50 2.11  39 2.11
   4  0.500  0.000  0.451-  40 2.11  36 2.11  33 2.11  34 2.11  42 2.11  49 2.11
   5  0.250  0.000  0.550-  40 2.11  39 2.11  47 2.11  56 2.11  33 2.12  37 2.14
   6  0.500  0.250  0.550-  48 2.11  38 2.11  55 2.11  39 2.11  40 2.11  34 2.13
   7  0.251  0.249  0.648-  39 2.10  37 2.10  38 2.11  54 2.11  45 2.12
   8  0.500  0.000  0.648-  38 2.10  40 2.11  46 2.11  37 2.11  53 2.12
   9  0.250  0.500  0.352-  41 2.11  35 2.11  43 2.11  44 2.11  60 2.11
  10  0.500  0.750  0.352-  42 2.11  36 2.11  43 2.11  44 2.11  59 2.11
  11  0.250  0.750  0.451-  43 2.11  41 2.11  42 2.11  33 2.11  58 2.11  47 2.11
  12  0.500  0.500  0.451-  44 2.11  41 2.11  42 2.11  34 2.11  57 2.11  48 2.12
  13  0.251  0.500  0.550-  48 2.11  39 2.11  47 2.11  64 2.12  41 2.12  45 2.14
  14  0.500  0.750  0.550-  48 2.11  47 2.11  40 2.11  63 2.11  46 2.12  42 2.13
  15  0.251  0.751  0.648-  37 2.10  47 2.11  46 2.11  62 2.11  45 2.12
  16  0.498  0.500  0.651-  45 2.09  38 2.12  46 2.12  48 2.15  61 2.15
  17  0.750  0.000  0.352-  49 2.11  36 2.11  51 2.11  52 2.11  59 2.11
  18  0.000  0.250  0.352-  50 2.11  35 2.11  51 2.11  52 2.11  60 2.11
  19  0.750  0.250  0.451-  51 2.11  49 2.11  50 2.11  34 2.11  57 2.11  55 2.12
  20  0.000  0.000  0.451-  52 2.11  49 2.11  50 2.11  33 2.11  58 2.11  56 2.11
  21  0.750  0.000  0.550-  40 2.11  56 2.11  55 2.11  63 2.12  49 2.12  53 2.13
  22  0.000  0.250  0.550-  55 2.11  39 2.11  56 2.11  64 2.11  50 2.12  54 2.14
  23  0.750  0.248  0.649-  53 2.09  38 2.11  55 2.11  54 2.11  61 2.13
  24  0.001  0.000  0.648-  37 2.10  56 2.11  54 2.11  62 2.11  53 2.11
  25  0.750  0.500  0.352-  57 2.11  51 2.11  44 2.11  59 2.11  60 2.11
  26  0.000  0.750  0.352-  58 2.11  52 2.11  43 2.11  59 2.11  60 2.11
  27  0.750  0.750  0.451-  59 2.11  49 2.11  57 2.11  58 2.11  42 2.11  63 2.12
  28  0.000  0.500  0.451-  60 2.11  50 2.11  57 2.11  58 2.11  41 2.11  64 2.12
  29  0.749  0.500  0.549-  48 2.10  55 2.10  63 2.11  57 2.11  64 2.11  61 2.16
  30  0.000  0.750  0.550-  47 2.11  63 2.11  56 2.11  64 2.11  58 2.12  62 2.14
  31  0.750  0.753  0.648-  53 2.08  63 2.10  46 2.11  62 2.11  61 2.13
  32  0.003  0.500  0.648-  45 2.08  64 2.10  54 2.11  62 2.11  61 2.12
  33  0.250  0.000  0.451-   1 2.11   3 2.11   4 2.11  11 2.11  20 2.11   5 2.12
  34  0.500  0.250  0.451-   2 2.11   3 2.11   4 2.11  12 2.11  19 2.11   6 2.13
  35  0.250  0.250  0.352-   3 2.11   2 2.11   1 2.11   9 2.11  18 2.11
  36  0.500  0.000  0.352-   4 2.11   2 2.11   1 2.11  10 2.11  17 2.11
  37  0.250  0.000  0.650-  24 2.10  15 2.10   7 2.10   8 2.11   5 2.14
  38  0.500  0.249  0.649-   8 2.10   7 2.11  23 2.11   6 2.11  16 2.12
  39  0.250  0.250  0.550-   7 2.10  22 2.11  13 2.11   5 2.11   3 2.11   6 2.11
  40  0.500  1.000  0.549-   8 2.11  21 2.11   4 2.11   5 2.11  14 2.11   6 2.11
  41  0.250  0.500  0.451-   9 2.11   3 2.11  11 2.11  12 2.11  28 2.11  13 2.12
  42  0.500  0.750  0.451-  10 2.11   4 2.11  11 2.11  12 2.11  27 2.11  14 2.13
  43  0.250  0.750  0.352-  11 2.11   9 2.11  10 2.11   1 2.11  26 2.11
  44  0.500  0.500  0.352-  12 2.11   9 2.11  10 2.11   2 2.11  25 2.11
  45  0.250  0.500  0.650-  32 2.08  16 2.09  15 2.12   7 2.12  13 2.14
  46  0.501  0.751  0.650-   8 2.11  31 2.11  15 2.11  16 2.12  14 2.12
  47  0.250  0.750  0.550-  15 2.11  30 2.11  13 2.11  14 2.11   5 2.11  11 2.11
  48  0.501  0.500  0.550-  29 2.10  14 2.11  13 2.11   6 2.11  12 2.12  16 2.15
  49  0.750  0.000  0.451-  17 2.11   4 2.11  19 2.11  20 2.11  27 2.11  21 2.12
  50  0.000  0.250  0.451-  18 2.11   3 2.11  19 2.11  20 2.11  28 2.11  22 2.12
  51  0.750  0.250  0.352-  19 2.11  17 2.11  18 2.11   2 2.11  25 2.11
  52  0.000  0.000  0.352-  20 2.11  17 2.11  18 2.11   1 2.11  26 2.11
  53  0.751  0.000  0.650-  31 2.08  23 2.09  24 2.11   8 2.12  21 2.13
  54  0.000  0.250  0.650-  32 2.11  24 2.11  23 2.11   7 2.11  22 2.14
  55  0.750  0.251  0.550-  29 2.10  22 2.11  23 2.11  21 2.11   6 2.11  19 2.12
  56  0.000  0.000  0.550-  24 2.11  30 2.11  21 2.11  22 2.11   5 2.11  20 2.11
  57  0.750  0.500  0.451-  29 2.11  25 2.11  12 2.11  27 2.11  28 2.11  19 2.11
  58  0.000  0.750  0.451-  26 2.11  20 2.11  11 2.11  27 2.11  28 2.11  30 2.12
  59  0.750  0.750  0.352-  27 2.11  17 2.11  25 2.11  26 2.11  10 2.11
  60  0.000  0.500  0.352-  28 2.11  18 2.11  25 2.11  26 2.11   9 2.11
  61  0.753  0.501  0.651-  32 2.12  31 2.13  23 2.13  16 2.15  29 2.16
  62  0.000  0.750  0.650-  31 2.11  32 2.11  24 2.11  15 2.11  30 2.14
  63  0.750  0.750  0.550-  31 2.10  29 2.11  30 2.11  14 2.11  21 2.12  27 2.12
  64  1.000  0.500  0.550-  32 2.10  30 2.11  22 2.11  29 2.11  28 2.12  13 2.12

IMPORTANT INFORMATION: All symmetrisations will be switched off!
NOSYMM: (Re-)initialisation of all symmetry stuff for point group C_1.

                                     Primitive cell

  volume of cell :    1519.6535

  direct lattice vectors                    reciprocal lattice vectors
     8.440582262  0.000000000  0.000000000     0.118475239  0.000000000  0.000000000
     0.000000000  8.440582262  0.000000000     0.000000000  0.118475239  0.000000000
     0.000000000  0.000000000 21.330436697     0.000000000  0.000000000  0.046881366

  length of vectors
     8.440582262  8.440582262 21.330436697     0.118475239  0.118475239  0.046881366

  position of ions in fractional coordinates (direct lattice)
     0.250000000  0.000000000  0.351610242
     0.500000000  0.250000000  0.351610242
     0.250000000  0.250000000  0.450536747
     0.500000000  0.000000000  0.450536747
     0.250202797  0.000056379  0.549834200
     0.500105005  0.250397111  0.550170429
     0.250643119  0.249392178  0.648262499
     0.499782007  0.000292357  0.648128290
     0.250000000  0.500000000  0.351610242
     0.500000000  0.750000000  0.351610242
     0.250000000  0.750000000  0.450536747
     0.500000000  0.500000000  0.450536747
     0.250883382  0.500001873  0.550060446
     0.500015870  0.749628557  0.550169583
     0.250635551  0.750749016  0.648415169
     0.497733801  0.499819334  0.650802095
     0.750000000  0.000000000  0.351610242
     0.000000000  0.250000000  0.351610242
     0.750000000  0.250000000  0.450536747
     0.000000000  0.000000000  0.450536747
     0.750023547  0.000427996  0.549804139
     0.000056232  0.250079478  0.550050991
     0.749868490  0.248085438  0.648824970
     0.000751136  0.000289921  0.648452710
     0.750000000  0.500000000  0.351610242
     0.000000000  0.750000000  0.351610242
     0.750000000  0.750000000  0.450536747
     0.000000000  0.500000000  0.450536747
     0.749358849  0.499910424  0.549430184
     0.000330768  0.750106973  0.549999636
     0.750375064  0.753363089  0.648031624
     0.003307770  0.500141658  0.648418152
     0.250000000  0.000000000  0.450536747
     0.500000000  0.250000000  0.450536747
     0.250000000  0.250000000  0.351610242
     0.500000000  0.000000000  0.351610242
     0.249990292  0.000048994  0.649941730
     0.500127753  0.249027000  0.649115670
     0.249759220  0.250169600  0.549598377
     0.500176793  0.999873324  0.549429788
     0.250000000  0.500000000  0.450536747
     0.500000000  0.750000000  0.450536747
     0.250000000  0.750000000  0.351610242
     0.500000000  0.500000000  0.351610242
     0.249966377  0.500095409  0.650175463
     0.500682045  0.750871012  0.649663604
     0.249940934  0.749894711  0.549680690
     0.500588350  0.500140380  0.550100805
     0.750000000  0.000000000  0.450536747
     0.000000000  0.250000000  0.450536747
     0.750000000  0.250000000  0.351610242
     0.000000000  0.000000000  0.351610242
     0.750530679  0.000321873  0.649873711
     0.000134487  0.250284506  0.650236667
     0.750394668  0.250605706  0.549838437
     0.000027824  0.000062978  0.549665360
     0.750000000  0.500000000  0.450536747
     0.000000000  0.750000000  0.450536747
     0.750000000  0.750000000  0.351610242
     0.000000000  0.500000000  0.351610242
     0.752738550  0.500800720  0.650522710
     0.000176142  0.750150692  0.650196492
     0.750403065  0.749660477  0.549775304
     0.999608944  0.500126347  0.549927728

  ion indices of the primitive-cell ions
   primitive index   ion index
                 1           1
                 2           2
                 3           3
                 4           4
                 5           5
                 6           6
                 7           7
                 8           8
                 9           9
                10          10
                11          11
                12          12
                13          13
                14          14
                15          15
                16          16
                17          17
                18          18
                19          19
                20          20
                21          21
                22          22
                23          23
                24          24
                25          25
                26          26
                27          27
                28          28
                29          29
                30          30
                31          31
                32          32
                33          33
                34          34
                35          35
[...]
   0.50000000  0.75000000  0.45053675
   0.25000000  0.75000000  0.35161024
   0.50000000  0.50000000  0.35161024
   0.24996638  0.50009541  0.65017546
   0.50068205  0.75087101  0.64966360
   0.24994093  0.74989471  0.54968069
   0.50058835  0.50014038  0.55010080
   0.75000000  0.00000000  0.45053675
   0.00000000  0.25000000  0.45053675
   0.75000000  0.25000000  0.35161024
   0.00000000  0.00000000  0.35161024
   0.75053068  0.00032187  0.64987371
   0.00013449  0.25028451  0.65023667
   0.75039467  0.25060571  0.54983844
   0.00002782  0.00006298  0.54966536
   0.75000000  0.50000000  0.45053675
   0.00000000  0.75000000  0.45053675
   0.75000000  0.75000000  0.35161024
   0.00000000  0.50000000  0.35161024
   0.75273855  0.50080072  0.65052271
   0.00017614  0.75015069  0.65019649
   0.75040306  0.74966048  0.54977530
   0.99960894  0.50012635  0.54992773

 position of ions in cartesian coordinates  (Angst):
   2.11014557  0.00000000  7.50000000
   4.22029113  2.11014557  7.50000000
   2.11014557  2.11014557  9.61014557
   4.22029113  0.00000000  9.61014557
   2.11185729  0.00047587 11.72820360
   4.22117743  2.11349741 11.73537550
   2.11557386  2.10501519 13.82772220
   4.21845114  0.00246766 13.82485946
   2.11014557  4.22029113  7.50000000
   4.22029113  6.33043670  7.50000000
   2.11014557  6.33043670  9.61014557
   4.22029113  4.22029113  9.61014557
   2.11760183  4.22030694 11.73302953
   4.22042508  6.32730150 11.73535747
   2.11550999  6.33675883 13.83097872
   4.20116309  4.21876621 13.88189288
   6.33043670  0.00000000  7.50000000
   0.00000000  2.11014557  7.50000000
   6.33043670  2.11014557  9.61014557
   0.00000000  0.00000000  9.61014557
   6.33063545  0.00361253 11.72756238
   0.00047463  2.11081641 11.73282785
   6.32932668  2.09398554 13.83971996
   0.00634002  0.00244711 13.83177948
   6.33043670  4.22029113  7.50000000
   0.00000000  6.33043670  7.50000000
   6.33043670  6.33043670  9.61014557
   0.00000000  4.22029113  9.61014557
   6.32502501  4.21953506 11.71958577
   0.00279187  6.33133961 11.73173243
   6.33360246  6.35882313 13.82279753
   0.02791950  4.22148681 13.83104234
   2.11014557  0.00000000  9.61014557
   4.22029113  2.11014557  9.61014557
   2.11014557  2.11014557  7.50000000
   4.22029113  0.00000000  7.50000000
   2.11006362  0.00041354 13.86354093
   4.22136944  2.10193288 13.84592071
   2.10811324  2.11157709 11.72317340
   4.22178337  8.43951304 11.71957731
   2.11014557  4.22029113  9.61014557
   4.22029113  6.33043670  9.61014557
   2.11014557  6.33043670  7.50000000
   4.22029113  4.22029113  7.50000000
   2.10986177  4.22109644 13.86852656
   4.22604799  6.33778854 13.85760838
   2.10964701  6.32954800 11.72492915
   4.22525715  4.22147602 11.73389040
   6.33043670  0.00000000  9.61014557
   0.00000000  2.11014557  9.61014557
   6.33043670  2.11014557  7.50000000
   0.00000000  0.00000000  7.50000000
   6.33491593  0.00271680 13.86209005
   0.00113515  2.11254696 13.86983206
   6.33376793  2.11525808 11.72829398
   0.00023485  0.00053157 11.72460217
   6.33043670  4.22029113  9.61014557
   0.00000000  6.33043670  9.61014557
   6.33043670  6.33043670  7.50000000
   0.00000000  4.22029113  7.50000000
   6.35355165  4.22704968 13.87593349
   0.00148674  6.33170863 13.86897512
   6.33383880  6.32757093 11.72694732
   8.43728152  4.22135758 11.73019858

--------------------------------------- Iteration      FINAL  ---------------------------------------

--------------------OUTCAR has been truncated-------------------------

[...]

--------------------OUTCAR has been truncated-------------------------

  DFT-D2 method for vdW energy calculation

  Parameters of vdW forcefield:
         C6(Jnm^6/mol)     R0(A)
   Mg       0.630          1.243
   O        0.700          1.342

  vdW correction parametrized for the method )þ      

  IVDW =   1
  VDW_RADIUS =    50.000 A
  VDW_S6 =     1.050
  VDW_SR =     1.000
  VDW_D =    20.000
  LVDW_EWALD = F

  Number of pair interactions contributing to vdW energy:  723300
  Edisp (eV):   -5.07955

 VOLUME and BASIS-vectors are now :
  energy-cutoff  :      600.00
  volume of cell :     1519.65
      direct lattice vectors                 reciprocal lattice vectors
     8.440582262  0.000000000  0.000000000     0.118475239  0.000000000  0.000000000
     0.000000000  8.440582262  0.000000000     0.000000000  0.118475239  0.000000000
     0.000000000  0.000000000 21.330436697     0.000000000  0.000000000  0.046881366

  length of vectors
     8.440582262  8.440582262 21.330436697     0.118475239  0.118475239  0.046881366

 FORCES acting on ions:
    Electron-Ion                     Ewald-Force                    Non-Local-Force
   -.105E-01 0.687E-02 0.207E+04   0.101E-01 -.726E-02 -.206E+04   0.298E-03 0.256E-03 -.638E+01
   -.704E-03 -.144E+00 0.207E+04   -.811E-03 0.145E+00 -.206E+04   0.963E-03 -.783E-03 -.640E+01
   -.171E+00 -.750E+00 0.685E+03   0.157E+00 0.778E+00 -.686E+03   0.967E-02 -.178E-01 0.401E+00
   -.147E+00 0.946E-02 0.686E+03   0.159E+00 -.230E-01 -.686E+03   -.746E-02 0.880E-02 0.334E+00
   0.367E+00 0.227E+00 -.687E+03   -.406E+00 -.237E+00 0.687E+03   0.174E-01 0.439E-02 -.807E-01
   -.122E+01 -.272E+01 -.689E+03   0.138E+01 0.296E+01 0.689E+03   -.100E+00 -.182E+00 -.486E+00
   0.898E+00 -.151E+01 -.206E+04   -.112E+01 0.118E+01 0.205E+04   0.104E+00 0.280E+00 0.574E+01
   -.805E+00 0.106E+01 -.206E+04   0.655E+00 -.110E+01 0.205E+04   0.142E+00 -.481E-02 0.572E+01
   -.182E-01 -.677E-02 0.207E+04   0.200E-01 0.727E-02 -.206E+04   -.135E-02 -.335E-03 -.639E+01
   -.812E-03 0.143E+00 0.207E+04   -.113E-02 -.145E+00 -.206E+04   0.128E-02 0.819E-03 -.640E+01
   -.182E+00 0.760E+00 0.685E+03   0.189E+00 -.786E+00 -.685E+03   -.414E-02 0.164E-01 0.426E+00
   0.447E+00 -.102E-02 0.683E+03   -.476E+00 0.130E-01 -.684E+03   0.173E-01 -.812E-02 0.484E+00
   -.703E-01 -.219E+00 -.689E+03   0.177E+00 0.233E+00 0.689E+03   -.129E+00 -.616E-02 -.487E-01
   -.107E+01 0.270E+01 -.691E+03   0.118E+01 -.293E+01 0.691E+03   -.603E-01 0.177E+00 -.370E+00
   -.219E+00 0.143E+01 -.206E+04   0.585E-02 -.109E+01 0.205E+04   0.124E+00 -.285E+00 0.573E+01
   -.133E+02 -.478E+00 -.208E+04   0.135E+02 0.637E+00 0.207E+04   0.255E+00 -.912E-01 0.608E+01
   0.116E-01 0.871E-02 0.207E+04   -.107E-01 -.803E-02 -.206E+04   -.617E-03 -.517E-03 -.639E+01
   0.412E-03 -.135E+00 0.207E+04   0.138E-02 0.134E+00 -.206E+04   -.117E-02 0.436E-03 -.640E+01
   0.199E+00 -.173E+00 0.684E+03   -.180E+00 0.164E+00 -.685E+03   -.132E-01 0.527E-02 0.416E+00
   0.158E+00 0.408E-02 0.685E+03   -.160E+00 0.389E-02 -.686E+03   0.190E-02 -.505E-02 0.402E+00
   -.247E+00 0.157E+00 -.686E+03   0.296E+00 -.108E+00 0.686E+03   -.246E-01 -.536E-01 -.658E-01
   0.102E+01 -.149E+01 -.691E+03   -.117E+01 0.166E+01 0.691E+03   0.966E-01 -.106E+00 -.231E+00
   0.521E+00 -.108E+02 -.206E+04   -.171E+00 0.110E+02 0.205E+04   -.210E+00 0.688E-01 0.579E+01
   0.635E+00 -.518E-01 -.206E+04   -.474E+00 0.383E-01 0.205E+04   -.149E+00 0.458E-02 0.566E+01
   0.198E-01 -.649E-02 0.207E+04   -.210E-01 0.660E-02 -.206E+04   0.942E-03 -.393E-04 -.638E+01
   0.155E-02 0.135E+00 0.207E+04   0.118E-02 -.134E+00 -.206E+04   -.185E-02 -.720E-03 -.640E+01
   0.222E+00 0.172E+00 0.684E+03   -.213E+00 -.146E+00 -.685E+03   -.578E-02 -.153E-01 0.388E+00
   -.450E+00 0.183E-01 0.684E+03   0.492E+00 -.180E-01 -.684E+03   -.254E-01 0.693E-04 0.395E+00
   0.783E+00 -.165E+00 -.691E+03   -.792E+00 0.149E+00 0.692E+03   0.676E-01 0.308E-01 -.296E+00
   0.861E+00 0.151E+01 -.690E+03   -.978E+00 -.168E+01 0.690E+03   0.617E-01 0.107E+00 -.240E+00
   0.124E+01 0.114E+02 -.205E+04   -.998E+00 -.117E+02 0.205E+04   -.158E+00 -.591E-01 0.566E+01
   0.841E+01 -.919E-01 -.206E+04   -.910E+01 0.119E+00 0.205E+04   0.252E+00 -.934E-02 0.560E+01
   0.595E-01 0.462E-01 0.514E+03   -.602E-01 -.458E-01 -.514E+03   -.288E-03 -.894E-03 -.417E-01
   -.774E-01 -.539E+00 0.513E+03   0.706E-01 0.512E+00 -.512E+03   0.832E-02 0.334E-01 -.122E+00
   -.154E-01 -.124E+00 0.155E+04   0.141E-01 0.127E+00 -.156E+04   0.169E-02 -.268E-02 0.312E+01
   -.204E-01 0.521E-02 0.155E+04   0.203E-01 -.637E-02 -.156E+04   0.138E-03 0.144E-02 0.313E+01
   -.172E+00 0.205E+00 -.156E+04   0.975E-01 -.240E+00 0.156E+04   0.112E+00 0.428E-01 -.421E+01
   -.264E+01 -.453E+01 -.155E+04   0.286E+01 0.468E+01 0.156E+04   -.242E+00 -.820E-01 -.364E+01
   -.415E-01 -.951E+00 -.510E+03   0.748E-02 0.953E+00 0.510E+03   0.590E-01 -.110E-01 0.414E+00
   -.276E+00 0.193E+00 -.508E+03   0.304E+00 -.209E+00 0.508E+03   -.370E-01 0.265E-01 0.420E+00
   0.678E-01 -.430E-01 0.513E+03   -.113E+00 0.400E-01 -.512E+03   0.521E-01 0.399E-02 -.941E-01
   -.833E-01 0.540E+00 0.513E+03   0.835E-01 -.511E+00 -.512E+03   0.137E-03 -.352E-01 -.139E+00
   -.180E-01 0.124E+00 0.155E+04   0.182E-01 -.127E+00 -.156E+04   -.128E-03 0.277E-02 0.312E+01
   0.317E-01 -.468E-02 0.155E+04   -.357E-01 0.594E-02 -.156E+04   0.495E-02 -.157E-02 0.313E+01
   -.149E+01 -.140E+00 -.156E+04   0.131E+01 0.163E+00 0.156E+04   0.264E+00 -.293E-01 -.390E+01
   -.207E+01 0.426E+01 -.156E+04   0.237E+01 -.447E+01 0.156E+04   -.358E+00 0.177E+00 -.389E+01
   -.304E+00 0.960E+00 -.511E+03   0.278E+00 -.969E+00 0.511E+03   0.457E-01 0.177E-01 0.362E+00
   -.142E+01 -.127E+00 -.523E+03   0.159E+01 0.132E+00 0.523E+03   -.240E+00 -.135E-01 -.317E+00
   -.329E-01 0.906E-01 0.514E+03   0.226E-01 -.113E+00 -.514E+03   0.133E-01 0.263E-01 -.523E-01
   0.820E-01 -.482E+00 0.513E+03   -.820E-01 0.484E+00 -.513E+03   -.234E-03 -.233E-02 -.133E+00
   0.158E-01 -.730E-01 0.155E+04   -.146E-01 0.711E-01 -.156E+04   -.148E-02 0.244E-02 0.313E+01
   0.197E-01 0.270E-02 0.155E+04   -.199E-01 -.236E-02 -.156E+04   0.213E-03 -.409E-03 0.313E+01
   0.283E+00 -.782E+00 -.156E+04   -.217E+00 0.837E+00 0.156E+04   -.101E+00 -.301E-01 -.414E+01
   0.170E+01 -.144E+01 -.156E+04   -.198E+01 0.174E+01 0.156E+04   0.346E+00 -.354E+00 -.424E+01
   0.239E+00 -.200E+01 -.515E+03   -.207E+00 0.218E+01 0.515E+03   -.564E-01 -.251E+00 0.499E-01
   0.211E+00 -.437E-01 -.512E+03   -.244E+00 0.322E-01 0.511E+03   0.434E-01 0.149E-01 0.278E+00
   -.331E-01 -.470E-01 0.514E+03   0.653E-01 0.503E-01 -.514E+03   -.360E-01 -.313E-02 -.157E-01
   0.103E+00 0.494E+00 0.513E+03   -.123E+00 -.506E+00 -.513E+03   0.230E-01 0.139E-01 -.120E+00
   0.176E-01 0.715E-01 0.155E+04   -.183E-01 -.701E-01 -.156E+04   0.845E-03 -.169E-02 0.313E+01
   -.328E-01 -.278E-02 0.155E+04   0.364E-01 0.219E-02 -.156E+04   -.445E-02 0.739E-03 0.313E+01
   0.488E+01 -.137E+00 -.156E+04   -.467E+01 0.332E+00 0.156E+04   -.428E+00 -.235E+00 -.379E+01
   0.123E+01 0.159E+01 -.156E+04   -.152E+01 -.191E+01 0.157E+04   0.358E+00 0.383E+00 -.431E+01
   0.470E+00 0.202E+01 -.513E+03   -.437E+00 -.223E+01 0.512E+03   -.538E-01 0.275E+00 0.222E+00
   0.106E+01 0.455E-01 -.514E+03   -.132E+01 -.334E-01 0.514E+03   0.353E+00 -.161E-01 0.114E+00
   -.418E+00 0.207E+00 0.114E+02   0.152E-12 -.244E-12 -.341E-11   0.386E+00 -.189E+00 -.100E+02

 POSITION                                       TOTAL-FORCE (eV/Angst)
      2.11015      0.00000      7.50000        -0.000178     -0.000128      0.463502
      4.22029      2.11015      7.50000        -0.000492      0.000133      0.465781
      2.11015      2.11015      9.61015        -0.003278      0.007699      0.025449
      4.22029      0.00000      9.61015         0.003384     -0.003645      0.025608
      2.11186      0.00048     11.72820        -0.018635     -0.004775     -0.043903
      4.22118      2.11350     11.73538         0.040970      0.038401     -0.080923
      2.11557      2.10502     13.82772        -0.099493     -0.023102     -0.187044
      4.21845      0.00247     13.82486         0.004383     -0.038246     -0.179501
      2.11015      4.22029      7.50000         0.000230      0.000105      0.465857
      4.22029      6.33044      7.50000        -0.000564     -0.000204      0.467487
      2.11015      6.33044      9.61015         0.002746     -0.007168      0.025901
      4.22029      4.22029      9.61015        -0.009179      0.002860      0.040263
      2.11760      4.22031     11.73303        -0.031688      0.006573     -0.072925
      4.22043      6.32730     11.73536         0.044881     -0.036040     -0.050688
      2.11551      6.33676     13.83098        -0.071893      0.026528     -0.192697
      4.20116      4.21877     13.88189         0.368341      0.054730     -0.545143
      6.33044      0.00000      7.50000         0.000145      0.000083      0.464458
      0.00000      2.11015      7.50000         0.000414     -0.000169      0.467841
      6.33044      2.11015      9.61015         0.004838     -0.002983      0.039226
      0.00000      0.00000      9.61015        -0.000668      0.002250      0.028462
      6.33064      0.00361     11.72756         0.019426     -0.008985     -0.051633
      0.00047      2.11082     11.73283        -0.040342      0.048448     -0.003160
      6.32933      2.09399     13.83972         0.112445      0.301653     -0.257833
      0.00634      0.00245     13.83178        -0.002101     -0.007907     -0.174858
      6.33044      4.22029      7.50000        -0.000244      0.000038      0.462284
      0.00000      6.33044      7.50000         0.000599      0.000195      0.467064
      6.33044      6.33044      9.61015         0.002531      0.008607      0.047883
      0.00000      4.22029      9.61015         0.012550      0.000255      0.067080
      6.32503      4.21954     11.71959         0.059946      0.016175      0.292726
      0.00279      6.33134     11.73173        -0.045907     -0.048878      0.002915
      6.33360      6.35882     13.82280         0.063066     -0.375047     -0.116731
      0.02792      4.22149     13.83104        -0.386993      0.015470     -0.139130
      2.11015      0.00000      9.61015        -0.001313     -0.000662      0.047545
      4.22029      2.11015      9.61015         0.002767      0.010721      0.056047
      2.11015      2.11015      7.50000         0.000528     -0.000963     -0.435312
      4.22029      0.00000      7.50000        -0.000034      0.000467     -0.434956
      2.11006      0.00041     13.86354         0.053465      0.013653      0.051098
      4.22137      2.10193     13.84592        -0.053050      0.062086      0.274908
      2.10811      2.11158     11.72317         0.033514     -0.010053      0.065750
      4.22178      8.43951     11.71958        -0.013770      0.014026      0.081982
      2.11015      4.22029      9.61015         0.013632      0.001542      0.055098
      4.22029      6.33044      9.61015         0.000488     -0.011389      0.049561
      2.11015      6.33044      7.50000        -0.000071      0.000948     -0.435546
      4.22029      4.22029      7.50000         0.001577     -0.000551     -0.435117
      2.10986      4.22110     13.86853         0.123339     -0.010476      0.122225
      4.22605      6.33779     13.85761        -0.108451     -0.017356      0.170652
      2.10965      6.32955     11.72493         0.025794      0.011585      0.052098
      4.22526      4.22148     11.73389        -0.099659     -0.010919     -0.004002
      6.33044      0.00000      9.61015         0.004990      0.007059      0.042040
      0.00000      2.11015      9.61015        -0.000576     -0.000065      0.039463
      6.33044      2.11015      7.50000        -0.000559      0.000767     -0.434348
      0.00000      0.00000      7.50000         0.000039     -0.000144     -0.435255
      6.33492      0.00272     13.86209        -0.049940      0.022530      0.071677
      0.00114      2.11255     13.86983         0.107718     -0.106656      0.034170
      6.33377      2.11526     11.72829        -0.033641     -0.102235     -0.027427
      0.00023      0.00053     11.72460         0.016991      0.005384      0.034504
      6.33044      4.22029      9.61015        -0.008735     -0.000340      0.015536
      0.00000      6.33044      9.61015         0.006253      0.003464      0.038936
      6.33044      6.33044      7.50000         0.000224     -0.000543     -0.434286
      0.00000      4.22029      7.50000        -0.001520      0.000228     -0.434658
      6.35355      4.22705     13.87593        -0.282203     -0.073346      0.074544
      0.00149      6.33171     13.86898         0.124178      0.112831      0.018283
      6.33384      6.32757     11.72695        -0.028861      0.111679     -0.042691
      8.43728      4.22136     11.73020         0.137646     -0.006194     -0.066134
    total drift:                                0.003964      0.001520      0.008525

  FREE ENERGIE OF THE ION-ELECTRON SYSTEM (eV)
  free  energy   TOTEN  =      -438.40709965 eV

  energy  without entropy=     -438.40709965  energy(sigma->0) =     -438.40709965