 vasp.6.3.0 20Jan22 (build Apr  1 2022 16:44:48) complex
 executed on        HPECrayEX_GCC date 2023.02.26  11:41:21

 INCAR:
   SYSTEM = MgO-rocksalt
   ISMEAR = 0
   SIGMA = 0.05
   EDIFF = 1E-7
   ALGO = ALL
   ISTART = 0
   IBRION = 2
   NSW = 1000
   ISYM = 0
   ISIF = 2
   EDIFFG = -0.01
   DIPOL = 0.5 0.5 0.5
   IDIPOL = 3
   LDIPOL = .TRUE.
   GGA = RE
   AGGAC = 0.0
   LUSE_VDW = .TRUE.
   LASPH = .TRUE.
   ENCUT = 600
   PREC = Accurate
   LASPH = .TRUE.
   LREAL = .FALSE.
   ISPIN = 1
   NELM = 200
   NELMIN = 8
   NCORE = 8
   KPAR = 1
   LWAVE = .FALSE.
   LCHARG = .FALSE.

 POTCAR:    PAW_PBE N 08Apr2002
 POTCAR:    PAW_PBE O 08Apr2002
 POTCAR:    PAW_PBE Mg_pv 13Apr2007
 POTCAR:    PAW_PBE O 08Apr2002
|               ----> ADVICE to this user running VASP <----                  |
|     You have switched on vdW-DFT.                                           |
|     This routine was written and supplied by Jiri Klimes. We recommend      |
|     that you carefully read and cite the following publications:            |
|       J. Klimes, D.R. Bowler, A. Michelides                                 |
|          J. Phys.: Cond Matt. 22 022201 (2010)                              |
|       J. Klimes, D.R. Bowler, A. Michelides                                 |
|          Phys. Rev. B. 83, 195131 (2011)                                    |
|     and references therein.                                                 |

   TITEL  = PAW_PBE N 08Apr2002
   POMASS =   14.001; ZVAL   =    5.000    mass and valenz
   ENMAX  =  400.000; ENMIN  =  300.000 eV

[...]

   TITEL  = PAW_PBE Mg_pv 13Apr2007
   POMASS =   24.305; ZVAL   =    8.000    mass and valenz
   ENMAX  =  403.929; ENMIN  =  302.947 eV

   TITEL  = PAW_PBE O 08Apr2002
   POMASS =   16.000; ZVAL   =    6.000    mass and valenz
   ENMAX  =  400.000; ENMIN  =  300.000 eV

  PAW_PBE N 08Apr2002                   :
  PAW_PBE O 08Apr2002                   :
  PAW_PBE Mg_pv 13Apr2007               :
  PAW_PBE O 08Apr2002                   :

 POSCAR:  N  O Mg  O
  positions in direct lattice
 exchange correlation table for  LEXCH =       40
   RHO(1)=    0.500       N(1)  =     2000
   RHO(2)=  100.500       N(2)  =     4000

 ion  position               nearest neighbor table
   1  0.493  0.519  0.766-   2 1.14
   2  0.471  0.593  0.810-   1 1.14   3 1.20
   3  0.448  0.671  0.856-   2 1.20
   4  0.000  0.750  0.350-  36 2.14  38 2.14  39 2.14  46 2.14  55 2.14
   5  0.250  0.000  0.350-  37 2.14  38 2.14  39 2.14  47 2.14  54 2.14
   6  0.000  0.000  0.450-  38 2.14  37 2.14  36 2.14  44 2.14  53 2.14  42 2.14
   7  0.250  0.750  0.450-  39 2.14  37 2.14  36 2.14  45 2.14  52 2.14  43 2.14
   8  0.000  0.750  0.550-  42 2.14  43 2.14  50 2.14  59 2.14  36 2.15  40 2.16
   9  0.250  0.000  0.550-  42 2.14  43 2.14  51 2.14  58 2.14  37 2.15  41 2.16
  10  0.000  0.000  0.650-  42 2.13  41 2.14  40 2.14  48 2.14  57 2.14
  11  0.250  0.750  0.650-  43 2.13  41 2.14  40 2.14  49 2.14  56 2.14
  12  0.000  0.250  0.350-  44 2.14  38 2.14  46 2.14  47 2.14  63 2.14
  13  0.250  0.500  0.350-  45 2.14  39 2.14  46 2.14  47 2.14  62 2.14
  14  0.000  0.500  0.450-  46 2.14  44 2.14  45 2.14  36 2.14  61 2.14  50 2.14
  15  0.250  0.250  0.450-  47 2.14  44 2.14  45 2.14  37 2.14  60 2.14  51 2.14
  16  0.000  0.250  0.550-  42 2.14  50 2.14  51 2.14  67 2.14  44 2.15  48 2.16
  17  0.250  0.500  0.550-  43 2.14  50 2.14  51 2.14  66 2.14  45 2.15  49 2.16
  18  0.000  0.500  0.650-  50 2.13  48 2.14  49 2.14  40 2.14  65 2.14
  19  0.250  0.250  0.650-  51 2.13  48 2.14  49 2.14  41 2.14  64 2.14
  20  0.500  0.750  0.350-  52 2.14  39 2.14  54 2.14  55 2.14  62 2.14
  21  0.750  0.000  0.350-  53 2.14  38 2.14  54 2.14  55 2.14  63 2.14
  22  0.500  0.000  0.450-  54 2.14  52 2.14  53 2.14  37 2.14  60 2.14  58 2.14
  23  0.750  0.750  0.450-  55 2.14  52 2.14  53 2.14  36 2.14  61 2.14  59 2.14
  24  0.500  0.750  0.550-  43 2.14  58 2.14  59 2.14  66 2.14  52 2.15  56 2.16
  25  0.750  0.000  0.550-  42 2.14  58 2.14  59 2.14  67 2.14  53 2.15  57 2.16
  26  0.500  0.000  0.650-  58 2.13  56 2.14  57 2.14  41 2.14  64 2.14
  27  0.750  0.750  0.650-  59 2.13  56 2.14  57 2.14  40 2.14  65 2.14
  28  0.500  0.250  0.350-  60 2.14  54 2.14  47 2.14  62 2.14  63 2.14
  29  0.750  0.500  0.350-  61 2.14  55 2.14  46 2.14  62 2.14  63 2.14
  30  0.500  0.500  0.450-  62 2.14  52 2.14  60 2.14  61 2.14  45 2.14  66 2.14
  31  0.750  0.250  0.450-  63 2.14  53 2.14  60 2.14  61 2.14  44 2.14  67 2.14
  32  0.500  0.250  0.550-  51 2.14  58 2.14  66 2.14  67 2.14  60 2.15  64 2.16
  33  0.750  0.500  0.550-  50 2.14  59 2.14  66 2.14  67 2.14  61 2.15  65 2.16
  34  0.500  0.500  0.650-  66 2.13  56 2.14  64 2.14  65 2.14  49 2.14
  35  0.750  0.250  0.650-  67 2.13  57 2.14  64 2.14  65 2.14  48 2.14
  36  0.000  0.750  0.450-   4 2.14   6 2.14   7 2.14  14 2.14  23 2.14   8 2.15
  37  0.250  0.000  0.450-   5 2.14   6 2.14   7 2.14  15 2.14  22 2.14   9 2.15
  38  0.000  0.000  0.350-   6 2.14   5 2.14   4 2.14  12 2.14  21 2.14
  39  0.250  0.750  0.350-   7 2.14   5 2.14   4 2.14  13 2.14  20 2.14
  40  0.000  0.750  0.651-  10 2.14  11 2.14  18 2.14  27 2.14   8 2.16
  41  0.250  0.000  0.651-  10 2.14  11 2.14  19 2.14  26 2.14   9 2.16
  42  0.000  0.000  0.550-  10 2.13   9 2.14   8 2.14  16 2.14  25 2.14   6 2.14
  43  0.250  0.750  0.550-  11 2.13   9 2.14   8 2.14  17 2.14  24 2.14   7 2.14
  44  0.000  0.250  0.450-  12 2.14   6 2.14  14 2.14  15 2.14  31 2.14  16 2.15
  45  0.250  0.500  0.450-  13 2.14   7 2.14  14 2.14  15 2.14  30 2.14  17 2.15
  46  0.000  0.500  0.350-  14 2.14  12 2.14  13 2.14   4 2.14  29 2.14
  47  0.250  0.250  0.350-  15 2.14  12 2.14  13 2.14   5 2.14  28 2.14
  48  0.000  0.250  0.651-  10 2.14  18 2.14  19 2.14  35 2.14  16 2.16
  49  0.250  0.500  0.651-  11 2.14  18 2.14  19 2.14  34 2.14  17 2.16
  50  0.000  0.500  0.550-  18 2.13  16 2.14  17 2.14   8 2.14  33 2.14  14 2.14
  51  0.250  0.250  0.550-  19 2.13  16 2.14  17 2.14   9 2.14  32 2.14  15 2.14
  52  0.500  0.750  0.450-  20 2.14   7 2.14  22 2.14  23 2.14  30 2.14  24 2.15
  53  0.750  0.000  0.450-  21 2.14   6 2.14  22 2.14  23 2.14  31 2.14  25 2.15
  54  0.500  0.000  0.350-  22 2.14  20 2.14  21 2.14   5 2.14  28 2.14
  55  0.750  0.750  0.350-  23 2.14  20 2.14  21 2.14   4 2.14  29 2.14
  56  0.500  0.750  0.651-  11 2.14  26 2.14  27 2.14  34 2.14  24 2.16
  57  0.750  0.000  0.651-  10 2.14  26 2.14  27 2.14  35 2.14  25 2.16
  58  0.500  0.000  0.550-  26 2.13  24 2.14  25 2.14   9 2.14  32 2.14  22 2.14
  59  0.750  0.750  0.550-  27 2.13  24 2.14  25 2.14   8 2.14  33 2.14  23 2.14
  60  0.500  0.250  0.450-  28 2.14  22 2.14  15 2.14  30 2.14  31 2.14  32 2.15
  61  0.750  0.500  0.450-  29 2.14  23 2.14  14 2.14  30 2.14  31 2.14  33 2.15
  62  0.500  0.500  0.350-  30 2.14  20 2.14  28 2.14  29 2.14  13 2.14
  63  0.750  0.250  0.350-  31 2.14  21 2.14  28 2.14  29 2.14  12 2.14
  64  0.500  0.250  0.651-  19 2.14  26 2.14  34 2.14  35 2.14  32 2.16
  65  0.750  0.500  0.651-  18 2.14  27 2.14  34 2.14  35 2.14  33 2.16
  66  0.500  0.500  0.550-  34 2.13  24 2.14  32 2.14  33 2.14  17 2.14  30 2.14
  67  0.750  0.250  0.550-  35 2.13  25 2.14  32 2.14  33 2.14  16 2.14  31 2.14

IMPORTANT INFORMATION: All symmetrisations will be switched off!
NOSYMM: (Re-)initialisation of all symmetry stuff for point group C_1.

                                     Primitive cell

  volume of cell :    1563.6717

  direct lattice vectors                    reciprocal lattice vectors
     8.546113626  0.000000000  0.000000000     0.117012252  0.000000000  0.000000000
     0.000000000  8.546113626  0.000000000     0.000000000  0.117012252  0.000000000
     0.000000000  0.000000000 21.409585219     0.000000000  0.000000000  0.046708051

  length of vectors
     8.546113626  8.546113626 21.409585219     0.117012252  0.117012252  0.046708051

  position of ions in fractional coordinates (direct lattice)
     0.493293687  0.519261665  0.766451841
     0.471437266  0.592899369  0.810251130
     0.448330849  0.670715295  0.856020752
     0.000000000  0.750000000  0.350310383
     0.250000000  0.000000000  0.350310383
     0.000000000  0.000000000  0.450103461
     0.250000000  0.750000000  0.450103461
     0.000000000  0.750000000  0.550423065
     0.250000000  0.000000000  0.550423065
     0.000000000  0.000000000  0.649678241
     0.250000000  0.750000000  0.649678241
     0.000000000  0.250000000  0.350310383
     0.250000000  0.500000000  0.350310383
     0.000000000  0.500000000  0.450103461
     0.250000000  0.250000000  0.450103461
     0.000000000  0.250000000  0.550423065
     0.250000000  0.500000000  0.550423065
     0.000000000  0.500000000  0.649678241
     0.250000000  0.250000000  0.649678241
     0.500000000  0.750000000  0.350310383
     0.750000000  0.000000000  0.350310383
     0.500000000  0.000000000  0.450103461
     0.750000000  0.750000000  0.450103461
     0.500000000  0.750000000  0.550423065
     0.750000000  0.000000000  0.550423065
     0.500000000  0.000000000  0.649678241
     0.750000000  0.750000000  0.649678241
     0.500000000  0.250000000  0.350310383
     0.750000000  0.500000000  0.350310383
     0.500000000  0.500000000  0.450103461
     0.750000000  0.250000000  0.450103461
     0.500000000  0.250000000  0.550423065
     0.750000000  0.500000000  0.550423065
     0.500000000  0.500000000  0.649678241
     0.750000000  0.250000000  0.649678241
     0.000000000  0.750000000  0.450103461
     0.250000000  0.000000000  0.450103461
     0.000000000  0.000000000  0.350310383
     0.250000000  0.750000000  0.350310383
     0.000000000  0.750000000  0.651489980
     0.250000000  0.000000000  0.651489980
     0.000000000  0.000000000  0.550159231
     0.250000000  0.750000000  0.550159231
     0.000000000  0.250000000  0.450103461
     0.250000000  0.500000000  0.450103461
     0.000000000  0.500000000  0.350310383
     0.250000000  0.250000000  0.350310383
     0.000000000  0.250000000  0.651489980
     0.250000000  0.500000000  0.651489980
     0.000000000  0.500000000  0.550159231
     0.250000000  0.250000000  0.550159231
     0.500000000  0.750000000  0.450103461
     0.750000000  0.000000000  0.450103461
     0.500000000  0.000000000  0.350310383
     0.750000000  0.750000000  0.350310383
     0.500000000  0.750000000  0.651489980
     0.750000000  0.000000000  0.651489980
     0.500000000  0.000000000  0.550159231
     0.750000000  0.750000000  0.550159231
     0.500000000  0.250000000  0.450103461
     0.750000000  0.500000000  0.450103461
     0.500000000  0.500000000  0.350310383
     0.750000000  0.250000000  0.350310383
     0.500000000  0.250000000  0.651489980
     0.750000000  0.500000000  0.651489980
     0.500000000  0.500000000  0.550159231
     0.750000000  0.250000000  0.550159231

  ion indices of the primitive-cell ions
   primitive index   ion index
                 1           1
                 2           2
                 3           3
                 4           4
                 5           5
                 6           6
                 7           7
[...]
   4.27305681  0.00000000 13.90934166
   6.40958522  6.40958522 13.90934166
   4.27305681  2.13652841  7.50000000
   6.40958522  4.27305681  7.50000000
   4.27305681  4.27305681  9.63652841
   6.40958522  2.13652841  9.63652841
   4.27305681  2.13652841 11.78432951
   6.40958522  4.27305681 11.78432951
   4.27305681  4.27305681 13.90934166
   6.40958522  2.13652841 13.90934166
   0.00000000  6.40958522  9.63652841
   2.13652841  0.00000000  9.63652841
   0.00000000  0.00000000  7.50000000
   2.13652841  6.40958522  7.50000000
   0.00000000  6.40958522 13.94813025
   2.13652841  0.00000000 13.94813025
   0.00000000  0.00000000 11.77868095
   2.13652841  6.40958522 11.77868095
   0.00000000  2.13652841  9.63652841
   2.13652841  4.27305681  9.63652841
   0.00000000  4.27305681  7.50000000
   2.13652841  2.13652841  7.50000000
   0.00000000  2.13652841 13.94813025
   2.13652841  4.27305681 13.94813025
   0.00000000  4.27305681 11.77868095
   2.13652841  2.13652841 11.77868095
   4.27305681  6.40958522  9.63652841
   6.40958522  0.00000000  9.63652841
   4.27305681  0.00000000  7.50000000
   6.40958522  6.40958522  7.50000000
   4.27305681  6.40958522 13.94813025
   6.40958522  0.00000000 13.94813025
   4.27305681  0.00000000 11.77868095
   6.40958522  6.40958522 11.77868095
   4.27305681  2.13652841  9.63652841
   6.40958522  4.27305681  9.63652841
   4.27305681  4.27305681  7.50000000
   6.40958522  2.13652841  7.50000000
   4.27305681  2.13652841 13.94813025
   6.40958522  4.27305681 13.94813025
   4.27305681  4.27305681 11.77868095
   6.40958522  2.13652841 11.77868095

--------------------------------------- Iteration      FINAL  ---------------------------------------

--------------------OUTCAR has been truncated-------------------------

[...]

--------------------OUTCAR has been truncated-------------------------

  FORCE on cell =-STRESS in cart. coord.  units (eV):
  Direction    XX          YY          ZZ          XY          YZ          ZX
  Alpha Z   900.75707   900.75707   900.75707
  Ewald  150642.18411151280.61397************  -258.57242   156.37256   -58.27569
  Hartree161275.39082161586.96047************  -116.86043    70.97371   -27.71154
  E(xc)   -2593.09191 -2590.15448 -2596.13936    -1.27739     0.75860    -0.28442
  Local  ************************321338.53452   349.10881  -211.67789    80.40586
  n-local -2861.11641 -2864.93466 -2879.34298     1.64840    -0.95921     0.39117
  augment  1087.13245  1085.03325  1078.79594     0.92448    -0.52517     0.18252
  Kinetic  7646.48797  7589.20192  7690.73794    24.94498   -14.97941     5.27306
  Fock        0.00000     0.00000     0.00000     0.00000     0.00000     0.00000
  Total     -30.65771   -30.71881    -2.55408    -0.08359    -0.03680    -0.01905
  in kB     -31.41266   -31.47526    -2.61697    -0.08564    -0.03771    -0.01952

 VOLUME and BASIS-vectors are now :
  energy-cutoff  :      600.00
  volume of cell :     1563.67
      direct lattice vectors                 reciprocal lattice vectors
     8.546113626  0.000000000  0.000000000     0.117012252  0.000000000  0.000000000
     0.000000000  8.546113626  0.000000000     0.000000000  0.117012252  0.000000000
     0.000000000  0.000000000 21.409585219     0.000000000  0.000000000  0.046708051

  length of vectors
     8.546113626  8.546113626 21.409585219     0.117012252  0.117012252  0.046708051

 FORCES acting on ions:
    Electron-Ion                     Ewald-Force                    Non-Local-Force
   -.101E+03 0.267E+03 -.111E+04   0.118E+03 -.313E+03 0.110E+04   -.172E+02 0.461E+02 0.103E+02
   -.857E+01 0.204E+02 -.111E+04   0.842E+01 -.197E+02 0.111E+04   0.138E+00 -.678E+00 -.256E+00
   0.104E+03 -.275E+03 -.132E+04   -.126E+03 0.333E+03 0.134E+04   0.220E+02 -.588E+02 -.124E+02
   0.794E-01 -.827E-01 0.202E+04   -.796E-01 0.825E-01 -.202E+04   0.157E-03 0.107E-03 -.639E+01
   0.227E+00 -.233E+00 0.202E+04   -.226E+00 0.235E+00 -.202E+04   -.104E-02 -.131E-02 -.640E+01
   0.293E+00 -.889E+00 0.711E+03   -.304E+00 0.910E+00 -.711E+03   0.821E-02 -.148E-01 0.437E+00
   0.912E+00 -.344E+00 0.713E+03   -.887E+00 0.333E+00 -.714E+03   -.180E-01 0.892E-02 0.449E+00
   0.170E+01 -.175E+01 -.591E+03   -.171E+01 0.174E+01 0.591E+03   0.127E-01 0.236E-02 -.195E+00
   0.474E+01 -.421E+01 -.590E+03   -.472E+01 0.426E+01 0.590E+03   -.164E-01 -.574E-01 -.330E+00
   0.676E+01 -.107E+02 -.191E+04   -.673E+01 0.107E+02 0.191E+04   -.291E-01 -.234E-01 0.560E+01
   0.365E+02 -.112E+02 -.185E+04   -.366E+02 0.113E+02 0.185E+04   0.155E+00 -.104E+00 0.566E+01
   0.699E-01 0.824E-01 0.202E+04   -.700E-01 -.819E-01 -.202E+04   0.570E-04 -.412E-03 -.641E+01
   0.239E+00 0.235E+00 0.202E+04   -.236E+00 -.236E+00 -.202E+04   -.171E-02 0.833E-03 -.641E+01
   0.278E+00 0.919E+00 0.711E+03   -.265E+00 -.934E+00 -.712E+03   -.909E-02 0.105E-01 0.431E+00
   0.844E+00 0.338E+00 0.711E+03   -.845E+00 -.315E+00 -.712E+03   0.142E-02 -.159E-01 0.451E+00
   0.100E+01 0.164E+01 -.599E+03   -.100E+01 -.165E+01 0.599E+03   0.609E-02 0.560E-02 -.244E+00
   0.619E+01 0.430E+01 -.588E+03   -.615E+01 -.435E+01 0.588E+03   -.356E-01 0.501E-01 -.215E+00
   0.519E+01 0.109E+02 -.191E+04   -.525E+01 -.109E+02 0.190E+04   0.614E-01 0.272E-01 0.559E+01
   0.188E+02 0.101E+02 -.190E+04   -.188E+02 -.102E+02 0.190E+04   -.566E-02 0.956E-01 0.560E+01
   -.804E-01 -.944E-01 0.202E+04   0.803E-01 0.934E-01 -.202E+04   0.244E-04 0.830E-03 -.641E+01
   -.227E+00 -.224E+00 0.202E+04   0.225E+00 0.225E+00 -.202E+04   0.126E-02 -.112E-02 -.641E+01
   -.309E+00 -.955E+00 0.712E+03   0.316E+00 0.942E+00 -.713E+03   -.519E-02 0.880E-02 0.436E+00
   -.904E+00 -.363E+00 0.712E+03   0.875E+00 0.368E+00 -.713E+03   0.204E-01 -.361E-02 0.445E+00
   -.185E+01 -.314E+01 -.581E+03   0.186E+01 0.313E+01 0.581E+03   -.103E-01 0.164E-01 -.180E+00
   -.463E+01 -.345E+01 -.594E+03   0.462E+01 0.349E+01 0.594E+03   0.132E-01 -.508E-01 -.225E+00
   -.851E+01 -.258E+02 -.188E+04   0.849E+01 0.259E+02 0.187E+04   0.229E-01 -.103E+00 0.559E+01
   -.327E+02 -.128E+02 -.188E+04   0.328E+02 0.128E+02 0.187E+04   -.108E+00 -.141E-01 0.563E+01
   -.703E-01 0.928E-01 0.202E+04   0.703E-01 -.920E-01 -.202E+04   0.481E-05 -.643E-03 -.641E+01
   -.238E+00 0.225E+00 0.202E+04   0.236E+00 -.226E+00 -.202E+04   0.159E-02 0.949E-03 -.640E+01
   -.285E+00 0.976E+00 0.713E+03   0.276E+00 -.969E+00 -.713E+03   0.701E-02 -.552E-02 0.478E+00
   -.840E+00 0.354E+00 0.711E+03   0.841E+00 -.355E+00 -.711E+03   -.614E-03 0.149E-02 0.443E+00
   -.105E+01 0.309E+01 -.589E+03   0.105E+01 -.308E+01 0.590E+03   -.484E-02 -.788E-02 -.432E+00
   -.612E+01 0.355E+01 -.588E+03   0.609E+01 -.359E+01 0.589E+03   0.316E-01 0.463E-01 -.398E+00
   -.693E+01 0.298E+02 -.183E+04   0.701E+01 -.300E+02 0.182E+04   -.794E-01 0.229E+00 0.562E+01
   -.185E+02 0.117E+02 -.191E+04   0.185E+02 -.117E+02 0.190E+04   0.422E-02 0.575E-02 0.561E+01
   0.223E+00 -.247E+00 0.534E+03   -.220E+00 0.240E+00 -.534E+03   -.390E-02 0.868E-02 -.335E-01
   0.670E+00 -.647E+00 0.533E+03   -.665E+00 0.636E+00 -.533E+03   -.673E-02 0.138E-01 -.575E-01
   0.580E-01 -.170E+00 0.152E+04   -.589E-01 0.173E+00 -.152E+04   0.133E-02 -.347E-02 0.358E+01
   0.176E+00 -.649E-01 0.152E+04   -.173E+00 0.628E-01 -.152E+04   -.503E-02 0.305E-02 0.358E+01
   0.705E+01 -.450E+01 -.144E+04   -.707E+01 0.449E+01 0.145E+04   0.216E-01 0.107E-01 -.492E+01
   0.159E+02 -.167E+02 -.143E+04   -.159E+02 0.167E+02 0.144E+04   -.280E-01 -.372E-01 -.495E+01
   0.119E+01 -.245E+01 -.443E+03   -.118E+01 0.245E+01 0.442E+03   -.533E-02 0.513E-03 0.249E+00
   0.443E+01 -.156E+01 -.431E+03   -.442E+01 0.157E+01 0.431E+03   -.143E-02 -.896E-02 0.443E+00
   0.171E+00 0.247E+00 0.532E+03   -.170E+00 -.249E+00 -.532E+03   -.554E-03 0.214E-02 -.830E-01
   0.754E+00 0.681E+00 0.534E+03   -.762E+00 -.684E+00 -.534E+03   0.116E-01 0.434E-02 -.968E-01
   0.549E-01 0.171E+00 0.152E+04   -.539E-01 -.173E+00 -.152E+04   -.133E-02 0.382E-02 0.358E+01
   0.171E+00 0.634E-01 0.152E+04   -.170E+00 -.618E-01 -.152E+04   -.912E-03 -.235E-02 0.357E+01
   0.283E+01 0.436E+01 -.146E+04   -.283E+01 -.434E+01 0.146E+04   -.222E-03 -.239E-01 -.490E+01
   0.273E+02 0.174E+02 -.142E+04   -.273E+02 -.174E+02 0.142E+04   -.692E-01 0.479E-02 -.488E+01
   0.843E+00 0.252E+01 -.440E+03   -.853E+00 -.252E+01 0.440E+03   0.110E-01 -.359E-02 0.297E+00
   0.346E+01 0.147E+01 -.440E+03   -.344E+01 -.147E+01 0.440E+03   -.901E-02 0.226E-02 0.262E+00
   -.240E+00 -.330E+00 0.535E+03   0.242E+00 0.339E+00 -.535E+03   -.245E-02 -.120E-01 -.101E+00
   -.672E+00 -.598E+00 0.533E+03   0.673E+00 0.593E+00 -.533E+03   -.101E-02 0.627E-02 -.779E-01
   -.580E-01 -.175E+00 0.152E+04   0.591E-01 0.175E+00 -.152E+04   -.161E-02 0.182E-03 0.357E+01
   -.176E+00 -.674E-01 0.152E+04   0.172E+00 0.675E-01 -.152E+04   0.479E-02 -.113E-03 0.358E+01
   -.103E+02 -.174E+02 -.138E+04   0.103E+02 0.174E+02 0.139E+04   0.159E-01 0.660E-01 -.472E+01
   -.146E+02 -.112E+02 -.145E+04   0.145E+02 0.112E+02 0.145E+04   0.372E-01 -.173E-01 -.490E+01
   -.127E+01 -.338E+01 -.436E+03   0.126E+01 0.339E+01 0.436E+03   0.886E-02 -.212E-02 0.246E+00
   -.432E+01 -.191E+01 -.435E+03   0.431E+01 0.190E+01 0.434E+03   0.655E-02 0.106E-01 0.402E+00
   -.179E+00 0.309E+00 0.533E+03   0.180E+00 -.312E+00 -.533E+03   -.169E-02 0.374E-02 -.896E-01
   -.744E+00 0.617E+00 0.533E+03   0.748E+00 -.616E+00 -.533E+03   -.641E-02 -.395E-03 -.770E-01
   -.555E-01 0.177E+00 0.152E+04   0.544E-01 -.176E+00 -.152E+04   0.156E-02 -.574E-03 0.357E+01
   -.170E+00 0.666E-01 0.152E+04   0.170E+00 -.668E-01 -.152E+04   0.833E-03 0.331E-03 0.357E+01
   -.307E+01 0.147E+02 -.143E+04   0.307E+01 -.148E+02 0.144E+04   0.253E-02 0.131E-01 -.497E+01
   -.260E+02 0.121E+02 -.143E+04   0.259E+02 -.121E+02 0.143E+04   0.454E-01 0.412E-02 -.497E+01
   -.896E+00 0.345E+01 -.432E+03   0.907E+00 -.346E+01 0.432E+03   -.986E-02 0.356E-02 0.167E+00
   -.341E+01 0.182E+01 -.441E+03   0.340E+01 -.180E+01 0.441E+03   0.113E-01 -.152E-01 0.245E+00
   -.501E+01 0.132E+02 0.163E+02   0.565E-12 -.203E-12 -.125E-11   0.501E+01 -.132E+02 -.163E+02

 POSITION                                       TOTAL-FORCE (eV/Angst)
      4.30098      4.61382     16.88667         0.001738      0.001778      0.002625
      3.91048      5.66283     17.12607        -0.004205      0.004672      0.002208
      3.49396      6.76996     17.36191        -0.005989     -0.003867     -0.001070
      0.00000      6.40959      7.50000        -0.000056     -0.000085      0.321508
      2.13653      0.00000      7.50000         0.000381      0.000410      0.322286
      0.00000      0.00000      9.63653        -0.003117      0.006034      0.021654
      2.13653      6.40959      9.63653         0.007085     -0.002766      0.020620
     -0.00078      6.41019     11.78084         0.001637      0.000488      0.002808
      2.13667      0.00283     11.78303        -0.000741     -0.003828      0.000078
     -0.00025      0.00199     13.90812         0.000713     -0.001622     -0.004187
      2.13121      6.41524     13.89607         0.001750     -0.001527      0.003987
      0.00000      2.13653      7.50000        -0.000016      0.000149      0.324096
      2.13653      4.27306      7.50000         0.000545     -0.000259      0.324640
      0.00000      4.27306      9.63653         0.003364     -0.004027      0.025247
      2.13653      2.13653      9.63653        -0.000015      0.006730      0.023200
     -0.00038      2.13717     11.78432         0.001223     -0.000367     -0.003006
      2.13807      4.27225     11.78577        -0.002169      0.002812     -0.004555
     -0.00077      4.27360     13.90588         0.000632     -0.000842      0.000339
      2.13640      2.13617     13.90971         0.000842      0.000230     -0.003983
      4.27306      6.40959      7.50000        -0.000022     -0.000258      0.324917
      6.40959      0.00000      7.50000        -0.000467      0.000342      0.323934
      4.27306      0.00000      9.63653         0.001550     -0.003437      0.027203
      6.40959      6.40959      9.63653        -0.008458      0.001057      0.020392
      4.27306      6.40868     11.78636        -0.000471      0.000832     -0.004071
      6.40860      0.00202     11.78365         0.001131     -0.003310     -0.001608
      4.27148      0.00210     13.91060         0.000705     -0.001441     -0.000715
      6.41249      6.41071     13.89835         0.000112     -0.001938      0.000031
      4.27306      2.13653      7.50000        -0.000032      0.000182      0.323612
      6.40959      4.27306      7.50000        -0.000530     -0.000304      0.323174
      4.27306      4.27306      9.63653        -0.002153      0.001400      0.029428
      6.40959      2.13653      9.63653        -0.000482      0.000266      0.023099
      4.27312      2.13676     11.78640        -0.000735     -0.001157     -0.007165
      6.40847      4.27182     11.78515         0.002708      0.002303     -0.005614
      4.27649      4.26519     13.91962         0.000122      0.001679     -0.007443
      6.40945      2.13665     13.91040         0.000006      0.000409     -0.004938
      0.00000      6.40959      9.63653        -0.000759      0.002252      0.048517
      2.13653      0.00000      9.63653        -0.001884      0.002749      0.051726
      0.00000      0.00000      7.50000         0.000354     -0.000968     -0.396210
      2.13653      6.40959      7.50000        -0.001457      0.000893     -0.396674
     -0.00051      6.41129     13.94620         0.000486     -0.002913     -0.000828
      2.13457      0.00088     13.94290         0.002979     -0.000170      0.000965
     -0.00073      0.00040     11.77759         0.000265      0.000140      0.000021
      2.13630      6.41002     11.77707         0.002072     -0.000914      0.002209
      0.00000      2.13653      9.63653         0.000030      0.000582      0.049614
      2.13653      4.27306      9.63653         0.002988      0.001736      0.052234
      0.00000      4.27306      7.50000        -0.000403      0.001095     -0.396730
      2.13653      2.13653      7.50000        -0.000273     -0.000657     -0.397241
     -0.00011      2.13733     13.94860         0.000415     -0.000396     -0.001266
      2.13546      4.27671     13.95312         0.002323      0.000815      0.001055
      0.00090      4.27413     11.77744         0.000186     -0.003051      0.002490
      2.13565      2.13782     11.77838         0.001971      0.001739      0.002481
      4.27306      6.40959      9.63653        -0.000809     -0.003275      0.053594
      6.40959      0.00000      9.63653        -0.000130      0.000925      0.048017
      4.27306      0.00000      7.50000        -0.000478      0.000077     -0.397245
      6.40959      6.40959      7.50000         0.001341     -0.000019     -0.396717
      4.27254      6.41029     13.95601         0.000226     -0.003233      0.000024
      6.40978     -0.00059     13.94866        -0.001229      0.000011      0.000916
      4.27288     -0.00119     11.77820         0.001121      0.000709      0.002853
      6.40921      6.41053     11.77700        -0.001713     -0.001012      0.001738
      4.27306      2.13653      9.63653        -0.000605      0.001304      0.057883
      6.40959      4.27306      9.63653        -0.001708      0.000502      0.055832
      4.27306      4.27306      7.50000         0.000431     -0.000173     -0.397988
      6.40959      2.13653      7.50000         0.000209      0.000109     -0.397311
      4.27290      2.13402     13.94269        -0.000372      0.000417     -0.000597
      6.41247      4.27460     13.94248        -0.000730      0.000332      0.000857
      4.27250      4.27390     11.78110         0.000695     -0.002009     -0.000237
      6.41021      2.13619     11.77803        -0.002128      0.001666      0.003288
    total drift:                                0.001271     -0.000692      0.028128

  FREE ENERGIE OF THE ION-ELECTRON SYSTEM (eV)
  free  energy   TOTEN  =      -242.80498746 eV

  energy  without entropy=     -242.80498746  energy(sigma->0) =     -242.80498746

 d Force = 0.4009543E-05[ 0.235E-05, 0.567E-05]  d Energy = 0.4017973E-05-0.843E-08
 d Force =-0.1518063E+00[-0.152E+00,-0.152E+00]  d Ewald  =-0.1518063E+00-0.990E-09

 Conjugate gradient step on ions:
 trial-energy change:   -0.000004  1 .order   -0.000004   -0.000006   -0.000002
  (g-gl).g =-0.223E-04      g.g   = 0.574E-04  gl.gl    = 0.197E-03
 g(Force)  = 0.574E-04   g(Stress)= 0.000E+00 ortho     = 0.202E-05
 gamma     =  -0.11328
 trial     =   0.09929
 opt step  =   0.16930  (harmonic =   0.16930) maximal distance =0.00013294
 next E    =  -242.804988   (d E  =  -0.00000)

 reached required accuracy - stopping structural energy minimisation