 vasp.6.3.0 20Jan22 (build Apr  1 2022 16:44:48) complex
 executed on        HPECrayEX_GCC date 2022.10.08  14:40:13

 INCAR:
   SYSTEM = MgO-rocksalt
   ISMEAR = 0
   SIGMA = 0.05
   EDIFF = 1E-7
   ALGO = ALL
   ISTART = 0
   IBRION = 2
   NSW = 1000
   ISYM = 0
   ISIF = 2
   EDIFFG = -0.01
   DIPOL = 0.5 0.5 0.5
   IDIPOL = 3
   LDIPOL = .TRUE.
   GGA = MK
   LUSE_VDW = .TRUE.
   PARAM1 = 0.1234
   PARAM2 = 0.711357
   ZAB_VDW = -1.8867
   AGGAC = 0.0
   ENCUT = 600
   PREC = Accurate
   LASPH = .TRUE.
   LREAL = .FALSE.
   ISPIN = 1
   NELM = 200
   NELMIN = 8
   NCORE = 8
   KPAR = 1
   LWAVE = .FALSE.
   LCHARG = .FALSE.

 POTCAR:    PAW_PBE C 08Apr2002
 POTCAR:    PAW_PBE H 15Jun2001
 POTCAR:    PAW_PBE Mg_pv 13Apr2007
 POTCAR:    PAW_PBE O 08Apr2002
|               ----> ADVICE to this user running VASP <----                  |
|     You have switched on vdW-DFT.                                           |
|     This routine was written and supplied by Jiri Klimes. We recommend      |
|     that you carefully read and cite the following publications:            |
|       J. Klimes, D.R. Bowler, A. Michelides                                 |
|          J. Phys.: Cond Matt. 22 022201 (2010)                              |
|       J. Klimes, D.R. Bowler, A. Michelides                                 |
|          Phys. Rev. B. 83, 195131 (2011)                                    |
|     and references therein.                                                 |

   TITEL  = PAW_PBE C 08Apr2002
   POMASS =   12.011; ZVAL   =    4.000    mass and valenz
   ENMAX  =  400.000; ENMIN  =  300.000 eV

   TITEL  = PAW_PBE H 15Jun2001
   POMASS =    1.000; ZVAL   =    1.000    mass and valenz
   ENMAX  =  250.000; ENMIN  =  200.000 eV

   TITEL  = PAW_PBE Mg_pv 13Apr2007
   POMASS =   24.305; ZVAL   =    8.000    mass and valenz
   ENMAX  =  403.929; ENMIN  =  302.947 eV

   TITEL  = PAW_PBE O 08Apr2002
   POMASS =   16.000; ZVAL   =    6.000    mass and valenz
   ENMAX  =  400.000; ENMIN  =  300.000 eV

  PAW_PBE C 08Apr2002                   :
  PAW_PBE H 15Jun2001                   :
  PAW_PBE Mg_pv 13Apr2007               :
  PAW_PBE O 08Apr2002                   :

 POSCAR:  C  H Mg  O
  positions in direct lattice
 exchange correlation table for  LEXCH =       43
   RHO(1)=    0.500       N(1)  =     2000
   RHO(2)=  100.500       N(2)  =     4000

 ion  position               nearest neighbor table
   1  0.500  0.500  0.790-   4 1.10   2 1.10   5 1.10   3 1.10
   2  0.500  0.606  0.820-   1 1.10
   3  0.500  0.394  0.820-   1 1.10
   4  0.606  0.500  0.760-   1 1.10
   5  0.394  0.500  0.760-   1 1.10
   6  0.250  0.000  0.352-  38 2.11  40 2.11  41 2.11  48 2.11  57 2.11
   7  0.500  0.250  0.352-  39 2.11  40 2.11  41 2.11  49 2.11  56 2.11
   8  0.250  0.250  0.451-  40 2.11  39 2.11  38 2.11  46 2.11  55 2.11  44 2.12
   9  0.500  0.000  0.451-  41 2.11  39 2.11  38 2.11  47 2.11  54 2.11  45 2.12
  10  0.250  0.000  0.550-  44 2.11  45 2.11  52 2.11  61 2.11  38 2.12  42 2.14
  11  0.500  0.250  0.550-  44 2.11  45 2.11  53 2.11  60 2.11  39 2.12  43 2.14
  12  0.250  0.250  0.648-  44 2.10  43 2.11  42 2.11  50 2.11  59 2.11
  13  0.500  0.000  0.648-  45 2.10  43 2.11  42 2.11  51 2.11  58 2.11
  14  0.250  0.500  0.352-  46 2.11  40 2.11  48 2.11  49 2.11  65 2.11
  15  0.500  0.750  0.352-  47 2.11  41 2.11  48 2.11  49 2.11  64 2.11
  16  0.250  0.750  0.451-  48 2.11  46 2.11  47 2.11  38 2.11  63 2.11  52 2.12
  17  0.500  0.500  0.451-  49 2.11  46 2.11  47 2.11  39 2.11  62 2.11  53 2.12
  18  0.250  0.500  0.550-  44 2.11  52 2.11  53 2.11  69 2.11  46 2.12  50 2.14
  19  0.500  0.750  0.550-  45 2.11  52 2.11  53 2.11  68 2.11  47 2.12  51 2.14
  20  0.250  0.750  0.648-  52 2.10  50 2.11  51 2.11  42 2.11  67 2.11
  21  0.500  0.500  0.648-  53 2.10  50 2.11  51 2.11  43 2.11  66 2.11
  22  0.750  0.000  0.352-  54 2.11  41 2.11  56 2.11  57 2.11  64 2.11
  23  0.000  0.250  0.352-  55 2.11  40 2.11  56 2.11  57 2.11  65 2.11
  24  0.750  0.250  0.451-  56 2.11  54 2.11  55 2.11  39 2.11  62 2.11  60 2.12
  25  0.000  0.000  0.451-  57 2.11  54 2.11  55 2.11  38 2.11  63 2.11  61 2.12
  26  0.750  0.000  0.550-  45 2.11  60 2.11  61 2.11  68 2.11  54 2.12  58 2.14
  27  0.000  0.250  0.550-  44 2.11  60 2.11  61 2.11  69 2.11  55 2.12  59 2.14
  28  0.750  0.250  0.648-  60 2.10  58 2.11  59 2.11  43 2.11  66 2.11
  29  0.000  0.000  0.648-  61 2.10  58 2.11  59 2.11  42 2.11  67 2.11
  30  0.750  0.500  0.352-  62 2.11  56 2.11  49 2.11  64 2.11  65 2.11
  31  0.000  0.750  0.352-  63 2.11  57 2.11  48 2.11  64 2.11  65 2.11
  32  0.750  0.750  0.451-  64 2.11  54 2.11  62 2.11  63 2.11  47 2.11  68 2.12
  33  0.000  0.500  0.451-  65 2.11  55 2.11  62 2.11  63 2.11  46 2.11  69 2.12
  34  0.750  0.500  0.550-  53 2.11  60 2.11  68 2.11  69 2.11  62 2.12  66 2.14
  35  0.000  0.750  0.550-  52 2.11  61 2.11  68 2.11  69 2.11  63 2.12  67 2.14
  36  0.750  0.750  0.648-  68 2.10  58 2.11  66 2.11  67 2.11  51 2.11
  37  0.000  0.500  0.648-  69 2.10  59 2.11  66 2.11  67 2.11  50 2.11
  38  0.250  0.000  0.451-   6 2.11   8 2.11   9 2.11  16 2.11  25 2.11  10 2.12
  39  0.500  0.250  0.451-   7 2.11   8 2.11   9 2.11  17 2.11  24 2.11  11 2.12
  40  0.250  0.250  0.352-   8 2.11   7 2.11   6 2.11  14 2.11  23 2.11
  41  0.500  0.000  0.352-   9 2.11   7 2.11   6 2.11  15 2.11  22 2.11
  42  0.250  0.000  0.650-  12 2.11  13 2.11  20 2.11  29 2.11  10 2.14
  43  0.500  0.250  0.650-  12 2.11  13 2.11  21 2.11  28 2.11  11 2.14
  44  0.250  0.250  0.550-  12 2.10  11 2.11  10 2.11  18 2.11  27 2.11   8 2.12
  45  0.500  0.000  0.550-  13 2.10  11 2.11  10 2.11  19 2.11  26 2.11   9 2.12
  46  0.250  0.500  0.451-  14 2.11   8 2.11  16 2.11  17 2.11  33 2.11  18 2.12
  47  0.500  0.750  0.451-  15 2.11   9 2.11  16 2.11  17 2.11  32 2.11  19 2.12
  48  0.250  0.750  0.352-  16 2.11  14 2.11  15 2.11   6 2.11  31 2.11
  49  0.500  0.500  0.352-  17 2.11  14 2.11  15 2.11   7 2.11  30 2.11
  50  0.250  0.500  0.650-  12 2.11  20 2.11  21 2.11  37 2.11  18 2.14
  51  0.500  0.750  0.650-  13 2.11  20 2.11  21 2.11  36 2.11  19 2.14
  52  0.250  0.750  0.550-  20 2.10  18 2.11  19 2.11  10 2.11  35 2.11  16 2.12
  53  0.500  0.500  0.550-  21 2.10  18 2.11  19 2.11  11 2.11  34 2.11  17 2.12
  54  0.750  0.000  0.451-  22 2.11   9 2.11  24 2.11  25 2.11  32 2.11  26 2.12
  55  0.000  0.250  0.451-  23 2.11   8 2.11  24 2.11  25 2.11  33 2.11  27 2.12
  56  0.750  0.250  0.352-  24 2.11  22 2.11  23 2.11   7 2.11  30 2.11
  57  0.000  0.000  0.352-  25 2.11  22 2.11  23 2.11   6 2.11  31 2.11
  58  0.750  0.000  0.650-  13 2.11  28 2.11  29 2.11  36 2.11  26 2.14
  59  0.000  0.250  0.650-  12 2.11  28 2.11  29 2.11  37 2.11  27 2.14
  60  0.750  0.250  0.550-  28 2.10  26 2.11  27 2.11  11 2.11  34 2.11  24 2.12
  61  0.000  0.000  0.550-  29 2.10  26 2.11  27 2.11  10 2.11  35 2.11  25 2.12
  62  0.750  0.500  0.451-  30 2.11  24 2.11  17 2.11  32 2.11  33 2.11  34 2.12
  63  0.000  0.750  0.451-  31 2.11  25 2.11  16 2.11  32 2.11  33 2.11  35 2.12
  64  0.750  0.750  0.352-  32 2.11  22 2.11  30 2.11  31 2.11  15 2.11
  65  0.000  0.500  0.352-  33 2.11  23 2.11  30 2.11  31 2.11  14 2.11
  66  0.750  0.500  0.650-  21 2.11  28 2.11  36 2.11  37 2.11  34 2.14
  67  0.000  0.750  0.650-  20 2.11  29 2.11  36 2.11  37 2.11  35 2.14
  68  0.750  0.750  0.550-  36 2.10  26 2.11  34 2.11  35 2.11  19 2.11  32 2.12
  69  0.000  0.500  0.550-  37 2.10  27 2.11  34 2.11  35 2.11  18 2.11  33 2.12

IMPORTANT INFORMATION: All symmetrisations will be switched off!
NOSYMM: (Re-)initialisation of all symmetry stuff for point group C_1.

                                     Primitive cell

  volume of cell :    1519.6535

  direct lattice vectors                    reciprocal lattice vectors
     8.440582262  0.000000000  0.000000000     0.118475239  0.000000000  0.000000000
     0.000000000  8.440582262  0.000000000     0.000000000  0.118475239  0.000000000
     0.000000000  0.000000000 21.330436697     0.000000000  0.000000000  0.046881366

  length of vectors
     8.440582262  8.440582262 21.330436697     0.118475239  0.118475239  0.046881366

  position of ions in fractional coordinates (direct lattice)
     0.500000000  0.500000000  0.789930083
     0.500000000  0.606076050  0.819610842
     0.500000000  0.393923950  0.819610842
     0.606076050  0.500000000  0.760249324
     0.393923950  0.500000000  0.760249324
     0.250000000  0.000000000  0.351610242
     0.500000000  0.250000000  0.351610242
     0.250000000  0.250000000  0.450536747
     0.500000000  0.000000000  0.450536747
     0.250000000  0.000000000  0.549966382
     0.500000000  0.250000000  0.549966382
     0.250000000  0.250000000  0.648348359
     0.500000000  0.000000000  0.648348359
     0.250000000  0.500000000  0.351610242
     0.500000000  0.750000000  0.351610242
     0.250000000  0.750000000  0.450536747
     0.500000000  0.500000000  0.450536747
     0.250000000  0.500000000  0.549966382
     0.500000000  0.750000000  0.549966382
     0.250000000  0.750000000  0.648348359
     0.500000000  0.500000000  0.648348359
     0.750000000  0.000000000  0.351610242
     0.000000000  0.250000000  0.351610242
     0.750000000  0.250000000  0.450536747
     0.000000000  0.000000000  0.450536747
     0.750000000  0.000000000  0.549966382
     0.000000000  0.250000000  0.549966382
     0.750000000  0.250000000  0.648348359
     0.000000000  0.000000000  0.648348359
     0.750000000  0.500000000  0.351610242
     0.000000000  0.750000000  0.351610242
     0.750000000  0.750000000  0.450536747
     0.000000000  0.500000000  0.450536747
     0.750000000  0.500000000  0.549966382
     0.000000000  0.750000000  0.549966382
     0.750000000  0.750000000  0.648348359
     0.000000000  0.500000000  0.648348359
     0.250000000  0.000000000  0.450536747
     0.500000000  0.250000000  0.450536747
     0.250000000  0.250000000  0.351610242
     0.500000000  0.000000000  0.351610242
     0.250000000  0.000000000  0.650177506
     0.500000000  0.250000000  0.650177506
     0.250000000  0.250000000  0.549707339
     0.500000000  0.000000000  0.549707339
     0.250000000  0.500000000  0.450536747
     0.500000000  0.750000000  0.450536747
     0.250000000  0.750000000  0.351610242
     0.500000000  0.500000000  0.351610242
     0.250000000  0.500000000  0.650177506
     0.500000000  0.750000000  0.650177506
     0.250000000  0.750000000  0.549707339
     0.500000000  0.500000000  0.549707339
     0.750000000  0.000000000  0.450536747
     0.000000000  0.250000000  0.450536747
     0.750000000  0.250000000  0.351610242
     0.000000000  0.000000000  0.351610242
     0.750000000  0.000000000  0.650177506
     0.000000000  0.250000000  0.650177506
     0.750000000  0.250000000  0.549707339
     0.000000000  0.000000000  0.549707339
     0.750000000  0.500000000  0.450536747
     0.000000000  0.750000000  0.450536747
     0.750000000  0.750000000  0.351610242
     0.000000000  0.500000000  0.351610242
     0.750000000  0.500000000  0.650177506
     0.000000000  0.750000000  0.650177506
     0.750000000  0.750000000  0.549707339
[...]
   0.00000000  4.22029113 13.82955363
   2.11014557  0.00000000  9.61014557
   4.22029113  2.11014557  9.61014557
   2.11014557  2.11014557  7.50000000
   4.22029113  0.00000000  7.50000000
   2.11014557  0.00000000 13.86857013
   4.22029113  2.11014557 13.86857013
   2.11014557  2.11014557 11.72549760
   4.22029113  0.00000000 11.72549760
   2.11014557  4.22029113  9.61014557
   4.22029113  6.33043670  9.61014557
   2.11014557  6.33043670  7.50000000
   4.22029113  4.22029113  7.50000000
   2.11014557  4.22029113 13.86857013
   4.22029113  6.33043670 13.86857013
   2.11014557  6.33043670 11.72549760
   4.22029113  4.22029113 11.72549760
   6.33043670  0.00000000  9.61014557
   0.00000000  2.11014557  9.61014557
   6.33043670  2.11014557  7.50000000
   0.00000000  0.00000000  7.50000000
   6.33043670  0.00000000 13.86857013
   0.00000000  2.11014557 13.86857013
   6.33043670  2.11014557 11.72549760
   0.00000000  0.00000000 11.72549760
   6.33043670  4.22029113  9.61014557
   0.00000000  6.33043670  9.61014557
   6.33043670  6.33043670  7.50000000
   0.00000000  4.22029113  7.50000000
   6.33043670  4.22029113 13.86857013
   0.00000000  6.33043670 13.86857013
   6.33043670  6.33043670 11.72549760
   0.00000000  4.22029113 11.72549760

--------------------------------------- Iteration      FINAL  ---------------------------------------

--------------------OUTCAR has been truncated-------------------------

[...]

--------------------OUTCAR has been truncated-------------------------

  FORCE on cell =-STRESS in cart. coord.  units (eV):
  Direction    XX          YY          ZZ          XY          YZ          ZX
  Alpha Z   900.07294   900.07294   900.07294
  Ewald  158787.19954158785.01483************     0.00000     0.00006    -0.00003
  Hartree168965.19139168963.96803************     0.00000     0.00001    -0.00002
  E(xc)   -2483.27109 -2483.28081 -2483.49391     0.00000     0.00000    -0.00000
  Local  ************************337697.86483    -0.00000    -0.00005     0.00004
  n-local -2847.94176 -2847.93974 -2867.11651     0.00000    -0.00000    -0.00000
  augment  1051.76651  1051.76805  1042.46919     0.00000    -0.00000    -0.00000
  Kinetic  7405.87661  7405.94402  7444.68534    -0.00000    -0.00000     0.00001
  Fock        0.00000     0.00000     0.00000     0.00000     0.00000     0.00000
  Total     -29.95979   -29.93740    -2.49694     0.00000     0.00001     0.00001
  in kB     -31.58674   -31.56314    -2.63254     0.00000     0.00001     0.00001

 VOLUME and BASIS-vectors are now :
  energy-cutoff  :      600.00
  volume of cell :     1519.65
      direct lattice vectors                 reciprocal lattice vectors
     8.440582262  0.000000000  0.000000000     0.118475239  0.000000000  0.000000000
     0.000000000  8.440582262  0.000000000     0.000000000  0.118475239  0.000000000
     0.000000000  0.000000000 21.330436697     0.000000000  0.000000000  0.046881366

  length of vectors
     8.440582262  8.440582262 21.330436697     0.118475239  0.118475239  0.046881366

 FORCES acting on ions:
    Electron-Ion                     Ewald-Force                    Non-Local-Force
   -.534E-06 0.974E-05 -.923E+03   0.115E-05 -.179E-04 0.923E+03   0.126E-06 -.120E-04 -.113E+00
   -.138E-04 -.428E+02 -.228E+03   0.152E-04 0.474E+02 0.232E+03   -.150E-05 -.456E+01 -.319E+01
   0.475E-05 0.428E+02 -.228E+03   -.529E-05 -.474E+02 0.232E+03   0.488E-06 0.456E+01 -.319E+01
   -.430E+02 0.112E-04 -.234E+03   0.476E+02 -.120E-04 0.230E+03   -.460E+01 0.171E-05 0.308E+01
   0.430E+02 -.721E-05 -.234E+03   -.476E+02 0.832E-05 0.230E+03   0.460E+01 -.208E-06 0.308E+01
   0.136E+00 0.319E-06 0.208E+04   -.135E+00 -.314E-06 -.207E+04   -.336E-03 -.246E-08 -.679E+01
   0.523E-06 0.133E+00 0.208E+04   -.548E-06 -.132E+00 -.207E+04   0.170E-07 -.696E-03 -.680E+01
   0.535E+00 0.520E+00 0.710E+03   -.531E+00 -.516E+00 -.710E+03   -.217E-02 -.293E-02 0.447E+00
   -.108E-05 0.270E-05 0.710E+03   0.618E-06 -.296E-05 -.710E+03   0.322E-06 0.179E-06 0.422E+00
   0.236E+01 -.239E-05 -.652E+03   -.235E+01 0.332E-05 0.652E+03   -.913E-02 -.748E-06 -.223E+00
   -.577E-06 0.354E+01 -.646E+03   0.616E-06 -.353E+01 0.646E+03   -.105E-06 -.141E-01 -.361E+00
   0.140E+02 0.142E+02 -.200E+04   -.140E+02 -.142E+02 0.199E+04   -.294E-01 0.489E-01 0.598E+01
   0.454E-05 0.376E-05 -.201E+04   -.499E-05 -.358E-05 0.200E+04   0.223E-06 -.556E-06 0.597E+01
   0.142E+00 -.286E-06 0.208E+04   -.141E+00 0.282E-06 -.207E+04   -.853E-03 0.574E-08 -.680E+01
   0.301E-06 -.133E+00 0.208E+04   -.325E-06 0.132E+00 -.207E+04   0.213E-07 0.696E-03 -.680E+01
   0.535E+00 -.520E+00 0.710E+03   -.531E+00 0.516E+00 -.710E+03   -.217E-02 0.293E-02 0.447E+00
   0.244E-05 -.282E-05 0.711E+03   -.277E-05 0.322E-05 -.711E+03   0.207E-06 -.275E-06 0.461E+00
   0.358E+01 0.932E-05 -.646E+03   -.356E+01 -.973E-05 0.647E+03   -.202E-01 0.170E-06 -.242E+00
   -.922E-06 -.354E+01 -.646E+03   0.175E-05 0.353E+01 0.646E+03   -.646E-06 0.141E-01 -.361E+00
   0.140E+02 -.142E+02 -.200E+04   -.140E+02 0.142E+02 0.199E+04   -.294E-01 -.489E-01 0.598E+01
   -.510E-05 0.670E-05 -.195E+04   0.606E-05 -.638E-05 0.195E+04   -.218E-06 -.259E-06 0.591E+01
   -.136E+00 0.538E-06 0.208E+04   0.135E+00 -.532E-06 -.207E+04   0.336E-03 -.109E-07 -.679E+01
   -.580E-06 0.126E+00 0.208E+04   0.569E-06 -.126E+00 -.207E+04   0.873E-08 -.169E-03 -.679E+01
   -.535E+00 0.520E+00 0.710E+03   0.531E+00 -.516E+00 -.710E+03   0.217E-02 -.293E-02 0.447E+00
   -.428E-06 0.100E-05 0.709E+03   0.396E-06 -.558E-06 -.709E+03   -.107E-07 -.312E-06 0.456E+00
   -.236E+01 0.920E-06 -.652E+03   0.235E+01 -.418E-06 0.652E+03   0.913E-02 -.633E-06 -.223E+00
   -.115E-05 0.229E+01 -.652E+03   0.841E-06 -.229E+01 0.652E+03   0.320E-06 0.101E-03 -.231E+00
   -.140E+02 0.142E+02 -.200E+04   0.140E+02 -.142E+02 0.199E+04   0.294E-01 0.489E-01 0.598E+01
   -.101E-04 0.214E-05 -.202E+04   0.103E-04 -.246E-05 0.201E+04   0.822E-07 0.379E-06 0.597E+01
   -.142E+00 -.519E-06 0.208E+04   0.141E+00 0.514E-06 -.207E+04   0.853E-03 0.469E-08 -.680E+01
   -.357E-06 -.126E+00 0.208E+04   0.349E-06 0.126E+00 -.207E+04   0.876E-08 0.169E-03 -.679E+01
   -.535E+00 -.520E+00 0.710E+03   0.531E+00 0.516E+00 -.710E+03   0.217E-02 0.293E-02 0.447E+00
   -.390E-05 0.904E-07 0.710E+03   0.368E-05 -.385E-06 -.710E+03   0.156E-06 0.214E-06 0.443E+00
   -.358E+01 0.324E-05 -.646E+03   0.356E+01 -.352E-05 0.647E+03   0.202E-01 0.237E-06 -.242E+00
   0.975E-07 -.229E+01 -.652E+03   -.823E-06 0.229E+01 0.652E+03   0.603E-06 -.101E-03 -.231E+00
   -.140E+02 -.142E+02 -.200E+04   0.140E+02 0.142E+02 0.199E+04   0.294E-01 -.489E-01 0.598E+01
   0.848E-05 -.566E-05 -.201E+04   -.944E-05 0.574E-05 0.200E+04   0.350E-06 0.161E-06 0.596E+01
   0.414E+00 0.127E-05 0.532E+03   -.409E+00 -.118E-05 -.531E+03   -.772E-02 -.999E-07 -.747E-01
   0.160E-05 0.418E+00 0.532E+03   -.131E-05 -.423E+00 -.532E+03   -.404E-06 0.745E-02 -.923E-01
   0.104E+00 0.969E-01 0.156E+04   -.103E+00 -.963E-01 -.156E+04   -.121E-02 -.884E-03 0.360E+01
   0.192E-06 0.428E-06 0.156E+04   -.202E-06 -.461E-06 -.156E+04   0.118E-07 0.466E-07 0.360E+01
   0.582E+01 0.201E-05 -.153E+04   -.581E+01 -.195E-05 0.153E+04   -.190E-01 -.149E-06 -.493E+01
   0.584E-05 0.176E+02 -.151E+04   -.611E-05 -.175E+02 0.151E+04   0.168E-06 -.631E-01 -.498E+01
   0.219E+01 0.215E+01 -.481E+03   -.217E+01 -.214E+01 0.481E+03   -.186E-01 -.630E-02 0.305E+00
   -.748E-05 -.638E-05 -.482E+03   0.723E-05 0.639E-05 0.482E+03   0.612E-06 0.212E-06 0.263E+00
   0.454E+00 -.229E-06 0.532E+03   -.456E+00 -.162E-07 -.532E+03   0.356E-02 0.309E-06 -.858E-01
   0.226E-06 -.418E+00 0.532E+03   0.189E-06 0.423E+00 -.532E+03   -.557E-06 -.745E-02 -.923E-01
   0.104E+00 -.969E-01 0.156E+04   -.103E+00 0.963E-01 -.156E+04   -.121E-02 0.884E-03 0.360E+01
   0.466E-06 -.439E-06 0.156E+04   -.459E-06 0.464E-06 -.156E+04   -.175E-07 -.377E-07 0.360E+01
   0.178E+02 -.807E-06 -.151E+04   -.178E+02 0.129E-05 0.151E+04   -.515E-01 -.647E-06 -.491E+01
   0.123E-04 -.176E+02 -.151E+04   -.125E-04 0.175E+02 0.151E+04   -.148E-06 0.631E-01 -.498E+01
   0.219E+01 -.215E+01 -.481E+03   -.217E+01 0.214E+01 0.481E+03   -.186E-01 0.630E-02 0.305E+00
   0.136E-05 0.398E-05 -.477E+03   -.930E-06 -.363E-05 0.477E+03   -.581E-06 -.555E-06 0.167E+00
   -.414E+00 0.273E-05 0.532E+03   0.409E+00 -.275E-05 -.531E+03   0.772E-02 0.896E-08 -.747E-01
   -.284E-05 0.376E+00 0.532E+03   0.307E-05 -.373E+00 -.531E+03   -.291E-06 -.422E-02 -.785E-01
   -.104E+00 0.969E-01 0.156E+04   0.103E+00 -.963E-01 -.156E+04   0.121E-02 -.884E-03 0.360E+01
   -.177E-06 0.188E-06 0.156E+04   0.207E-06 -.150E-06 -.156E+04   -.448E-07 -.587E-07 0.360E+01
   -.582E+01 0.619E-06 -.153E+04   0.581E+01 -.142E-05 0.153E+04   0.190E-01 0.984E-06 -.493E+01
   0.205E-05 0.606E+01 -.153E+04   -.245E-05 -.604E+01 0.153E+04   0.402E-06 -.212E-01 -.492E+01
   -.219E+01 0.215E+01 -.481E+03   0.217E+01 -.214E+01 0.481E+03   0.186E-01 -.630E-02 0.305E+00
   0.567E-05 0.277E-05 -.486E+03   -.560E-05 -.264E-05 0.485E+03   -.304E-06 -.194E-06 0.267E+00
   -.454E+00 -.211E-05 0.532E+03   0.456E+00 0.197E-05 -.532E+03   -.356E-02 0.197E-06 -.858E-01
   -.156E-05 -.376E+00 0.532E+03   0.181E-05 0.373E+00 -.531E+03   -.333E-06 0.422E-02 -.785E-01
   -.104E+00 -.969E-01 0.156E+04   0.103E+00 0.963E-01 -.156E+04   0.121E-02 0.884E-03 0.360E+01
   -.448E-06 -.169E-06 0.156E+04   0.459E-06 0.127E-06 -.156E+04   -.154E-07 0.648E-07 0.360E+01
   -.178E+02 0.515E-05 -.151E+04   0.178E+02 -.451E-05 0.151E+04   0.515E-01 -.106E-05 -.491E+01
   -.105E-04 -.606E+01 -.153E+04   0.101E-04 0.604E+01 0.153E+04   0.950E-06 0.212E-01 -.492E+01
   -.219E+01 -.215E+01 -.481E+03   0.217E+01 0.214E+01 0.481E+03   0.186E-01 0.630E-02 0.305E+00
   -.186E-05 0.133E-06 -.482E+03   0.911E-06 -.215E-06 0.482E+03   0.132E-05 0.882E-07 0.298E+00
   -.342E-05 0.176E-04 0.146E+02   -.355E-12 0.715E-14 -.244E-11   0.286E-05 -.174E-04 -.146E+02

 POSITION                                       TOTAL-FORCE (eV/Angst)
      4.22029      4.22029     17.00990         0.000001     -0.000020     -0.004682
      4.22029      5.11891     17.63966        -0.000000      0.000335      0.002375
      4.22029      3.32167     17.63966        -0.000000     -0.000317      0.002364
      5.12464      4.22029     16.38344         0.000959      0.000001      0.001158
      3.31594      4.22029     16.38344        -0.000960      0.000001      0.001158
      2.11015      0.00000      7.50000         0.000157     -0.000000      0.317716
      4.22029      2.11015      7.50000         0.000000      0.000226      0.318615
      2.11015      2.11015      9.61015         0.001272      0.001341      0.029880
      4.22029      0.00000      9.61015        -0.000000     -0.000000      0.032531
      2.11032      0.00000     11.73098         0.000867      0.000000     -0.001114
      4.22029      2.11065     11.73227        -0.000000      0.001191      0.001050
      2.11065      2.10888     13.82789         0.000299     -0.001121      0.000608
      4.22029      0.00000     13.82918        -0.000000     -0.000000     -0.001605
      2.11015      4.22029      7.50000         0.000300     -0.000000      0.318251
      4.22029      6.33044      7.50000         0.000000     -0.000226      0.318615
      2.11015      6.33044      9.61015         0.001272     -0.001341      0.029880
      4.22029      4.22029      9.61015        -0.000000      0.000000      0.035776
      2.11077      4.22029     11.73212         0.002241     -0.000000      0.000967
      4.22029      6.32993     11.73227         0.000000     -0.001191      0.001050
      2.11065      6.33171     13.82789         0.000299      0.001121      0.000608
      4.22029      4.22029     13.83970         0.000001      0.000000     -0.000787
      6.33044      0.00000      7.50000        -0.000157     -0.000000      0.317716
      0.00000      2.11015      7.50000         0.000000      0.000075      0.317764
      6.33044      2.11015      9.61015        -0.001272      0.001341      0.029880
      0.00000      0.00000      9.61015        -0.000000      0.000000      0.029168
      6.33026      0.00000     11.73098        -0.000867     -0.000000     -0.001114
     -0.00000      2.11010     11.73120         0.000000      0.000451     -0.001127
      6.32993      2.10888     13.82789        -0.000299     -0.001120      0.000608
     -0.00000      0.00000     13.83095         0.000000      0.000000     -0.003618
      6.33044      4.22029      7.50000        -0.000300     -0.000000      0.318251
      0.00000      6.33044      7.50000         0.000000     -0.000075      0.317764
      6.33044      6.33044      9.61015        -0.001273     -0.001341      0.029880
      0.00000      4.22029      9.61015        -0.000000     -0.000000      0.032079
      6.32982      4.22029     11.73212        -0.002241     -0.000000      0.000968
     -0.00000      6.33049     11.73120        -0.000000     -0.000451     -0.001127
      6.32993      6.33171     13.82789        -0.000299      0.001120      0.000608
     -0.00000      4.22029     13.82838        -0.000001      0.000000      0.000953
      2.11015      0.00000      9.61015        -0.002303     -0.000000      0.054204
      4.22029      2.11015      9.61015        -0.000000      0.002101      0.055355
      2.11015      2.11015      7.50000        -0.000339     -0.000253     -0.402976
      4.22029      0.00000      7.50000         0.000000      0.000000     -0.403120
      2.10987      0.00000     13.86973        -0.002894     -0.000000     -0.002005
      4.22029      2.10838     13.86594        -0.000000      0.001575     -0.000576
      2.10960      2.11015     11.72543        -0.001202     -0.000347     -0.000037
      4.22029      0.00000     11.72479         0.000000      0.000000     -0.002711
      2.11015      4.22029      9.61015         0.000843      0.000000      0.056504
      4.22029      6.33044      9.61015        -0.000000     -0.002101      0.055355
      2.11015      6.33044      7.50000        -0.000339      0.000253     -0.402976
      4.22029      4.22029      7.50000        -0.000000     -0.000000     -0.403414
      2.10796      4.22029     13.87113         0.001037     -0.000000     -0.000691
      4.22029      6.33221     13.86594        -0.000000     -0.001575     -0.000577
      2.10960      6.33043     11.72543        -0.001202      0.000347     -0.000037
      4.22029      4.22029     11.72754        -0.000000     -0.000000      0.000837
      6.33044      0.00000      9.61015         0.002303     -0.000000      0.054204
      0.00000      2.11015      9.61015        -0.000000     -0.001108      0.054090
      6.33044      2.11015      7.50000         0.000339     -0.000253     -0.402976
      0.00000      0.00000      7.50000        -0.000000     -0.000000     -0.402608
      6.33071      0.00000     13.86973         0.002895      0.000000     -0.002005
     -0.00000      2.10996     13.86967         0.000000     -0.001711      0.000970
      6.33098      2.11015     11.72543         0.001202     -0.000348     -0.000037
     -0.00000      0.00000     11.72607        -0.000000     -0.000000     -0.001101
      6.33044      4.22029      9.61015        -0.000843      0.000000      0.056504
      0.00000      6.33044      9.61015        -0.000000      0.001108      0.054090
      6.33044      6.33044      7.50000         0.000339      0.000253     -0.402976
      0.00000      4.22029      7.50000         0.000000      0.000000     -0.402758
      6.33262      4.22029     13.87113        -0.001037     -0.000000     -0.000691
     -0.00000      6.33062     13.86967         0.000001      0.001711      0.000969
      6.33098      6.33043     11.72543         0.001202      0.000348     -0.000038
     -0.00000      4.22029     11.72558         0.000000      0.000000     -0.001842
    total drift:                               -0.000001      0.000000     -0.008264

  FREE ENERGIE OF THE ION-ELECTRON SYSTEM (eV)
  free  energy   TOTEN  =      -287.59419096 eV

  energy  without entropy=     -287.59419096  energy(sigma->0) =     -287.59419096

 d Force = 0.1018128E-04[ 0.188E-05, 0.185E-04]  d Energy = 0.1017004E-04 0.112E-07
 d Force = 0.1976191E+01[ 0.198E+01, 0.198E+01]  d Ewald  = 0.1976191E+01-0.136E-08

 Conjugate gradient step on ions:
 trial-energy change:   -0.000010  1 .order   -0.000010   -0.000018   -0.000002
  (g-gl).g = 0.219E-04      g.g   = 0.234E-04  gl.gl    = 0.489E-04
 g(Force)  = 0.234E-04   g(Stress)= 0.000E+00 ortho     = 0.131E-05
 gamma     =   0.44702
 trial     =   0.76923
 opt step  =   0.85609  (harmonic =   0.85609) maximal distance =0.00046452
 next E    =  -287.594191   (d E  =  -0.00001)

 reached required accuracy - stopping structural energy minimisation