 vasp.6.4.2 20Jul23 (build Feb 22 2024 13:53:45) complex
 executed on              LinuxNV date 2024.08.27  14:17:11
 OpenACC runtime initialized ...    4 GPUs detected

 INCAR:
   SYSTEM = Oxide-Surface
   ISMEAR = 0
   SIGMA = 0.05
   EDIFF = 1E-5
   ALGO = Normal
   IBRION = -1
   NSW = 0
   ISYM = 0
   DIPOL = 0.5 0.5 0.5
   IDIPOL = 3
   LDIPOL = .TRUE.
   ISTART = 0
   LHFCALC = .FALSE.
   GGA = PE
   HFRCUT = -1
   ENCUT = 1000
   PREC = Normal
   PRECFOCK = Normal
   LASPH = .TRUE.
   LREAL = Auto
   ISPIN = 1
   NELM = 200
   NELMIN = 8
   NCORE = 1
   KPAR = 1
   LWAVE = .FALSE.
   LCHARG = .FALSE.

 POTCAR:    PAW_PBE C_h 06Feb2004
 POTCAR:    PAW_PBE H_h 06Feb2004
 POTCAR:    PAW_PBE Mg_sv 12Apr2007
 POTCAR:    PAW_PBE O_h 06Feb2004
 POTCAR:    PAW_PBE C_h 06Feb2004
   VRHFIN =C: s2p2

   TITEL  = PAW_PBE C_h 06Feb2004
   POMASS =   12.011; ZVAL   =    4.000    mass and valenz
   ENMAX  =  700.000; ENMIN  =  500.000 eV

[...]

   TITEL  = PAW_PBE Mg_sv 12Apr2007
   POMASS =   24.305; ZVAL   =   10.000    mass and valenz
   ENMAX  =  495.223; ENMIN  =  371.417 eV

   TITEL  = PAW_PBE O_h 06Feb2004
   POMASS =   16.000; ZVAL   =    6.000    mass and valenz
   ENMAX  =  700.000; ENMIN  =  500.000 eV

 Optimization of the real space projectors (new method)

 maximal supplied QI-value         = 34.20
 optimisation between [QCUT,QGAM] = [ 16.08, 32.15] = [ 72.37,289.48] Ry
 Optimized for a Real-space Cutoff    0.71 Angstroem

   l    n(q)    QCUT    max X(q) W(low)/X(q) W(high)/X(q)  e(spline)
   0      7    16.076   134.812    0.49E-03    0.92E-03    0.59E-07
   0      7    16.076    80.524    0.48E-03    0.91E-03    0.58E-07
   1      6    16.076    79.026    0.37E-03    0.58E-03    0.12E-06
   1      6    16.076    45.188    0.36E-03    0.56E-03    0.12E-06
 Optimization of the real space projectors (new method)

[...]

   l    n(q)    QCUT    max X(q) W(low)/X(q) W(high)/X(q)  e(spline)
   0      9    16.140     8.730    0.14E-04    0.12E-04    0.27E-07
   0      9    16.140     8.910    0.19E-04    0.17E-04    0.41E-07
   1      9    16.140     2.513    0.16E-04    0.28E-04    0.54E-07
   1      9    16.140     3.341    0.27E-04    0.13E-03    0.17E-06
   2      9    16.140     3.683    0.18E-03    0.21E-03    0.81E-07
 Optimization of the real space projectors (new method)

 maximal supplied QI-value         = 34.20
 optimisation between [QCUT,QGAM] = [ 16.08, 32.15] = [ 72.37,289.48] Ry
 Optimized for a Real-space Cutoff    0.71 Angstroem

   l    n(q)    QCUT    max X(q) W(low)/X(q) W(high)/X(q)  e(spline)
   0      7    16.076   280.207    0.42E-03    0.69E-03    0.60E-07
   0      7    16.076   228.978    0.42E-03    0.69E-03    0.61E-07
   1      6    16.076    86.127    0.11E-03    0.66E-03    0.10E-06
   1      6    16.076    65.368    0.11E-03    0.65E-03    0.10E-06
  PAW_PBE C_h 06Feb2004                 :
  PAW_PBE H_h 06Feb2004                 :
  PAW_PBE Mg_sv 12Apr2007               :
  PAW_PBE O_h 06Feb2004                 :

 POSCAR:  C  H Mg  O
  positions in direct lattice
 exchange correlation table for  LEXCH =        8
   RHO(1)=    0.500       N(1)  =     2000
   RHO(2)=  100.500       N(2)  =     4000

 ion  position               nearest neighbor table
   1  0.504  0.498  0.743-   5 1.10   3 1.10   4 1.10   2 1.53
   2  0.675  0.499  0.774-   6 1.10   8 1.10   7 1.10   1 1.53
   3  0.482  0.392  0.707-   1 1.10
   4  0.479  0.604  0.708-   1 1.10
   5  0.418  0.495  0.792-   1 1.10
   6  0.759  0.502  0.724-   2 1.10
   7  0.701  0.394  0.809-   2 1.10
   8  0.698  0.604  0.811-   2 1.10
   9  0.000  0.750  0.189-
  10  0.250  0.000  0.189-
  11  0.000  0.000  0.313-
  12  0.250  0.750  0.313-
  13  1.000  0.750  0.438-
  14  0.250  1.000  0.438-
  15  1.000  1.000  0.562-
  16  0.250  0.750  0.562-
  17  0.000  0.250  0.189-
  18  0.250  0.500  0.189-
  19  0.000  0.500  0.313-
  20  0.250  0.250  0.313-
  21  1.000  0.250  0.438-
  22  0.250  0.500  0.439-
  23  0.000  0.500  0.562-
  24  0.250  0.250  0.562-
  25  0.500  0.750  0.189-
  26  0.750  0.000  0.189-
  27  0.500  0.000  0.313-
  28  0.750  0.750  0.313-
  29  0.500  0.750  0.439-
  30  0.750  1.000  0.438-
  31  0.500  1.000  0.562-
  32  0.750  0.750  0.562-
  33  0.500  0.250  0.189-
  34  0.750  0.500  0.189-
  35  0.500  0.500  0.313-
  36  0.750  0.250  0.313-
  37  0.500  0.250  0.439-
  38  0.750  0.500  0.439-
  39  0.500  0.500  0.563-
  40  0.750  0.250  0.562-
  41  0.000  0.750  0.313-
  42  0.250  0.000  0.313-
  43  0.000  0.000  0.189-
  44  0.250  0.750  0.189-
  45  1.000  0.750  0.565-
  46  0.250  1.000  0.565-
  47  1.000  1.000  0.438-
  48  0.250  0.750  0.438-
  49  0.000  0.250  0.313-
  50  0.250  0.500  0.313-
  51  0.000  0.500  0.189-
  52  0.250  0.250  0.189-
  53  1.000  0.250  0.565-
  54  0.250  0.500  0.565-
  55  1.000  0.500  0.438-
  56  0.250  0.250  0.438-
  57  0.500  0.750  0.313-
  58  0.750  0.000  0.313-
  59  0.500  0.000  0.189-
  60  0.750  0.750  0.189-
  61  0.500  0.750  0.565-
  62  0.750  1.000  0.565-
  63  0.500  1.000  0.438-
  64  0.750  0.750  0.438-
  65  0.500  0.250  0.313-
  66  0.750  0.500  0.313-
  67  0.500  0.500  0.189-
  68  0.750  0.250  0.189-
  69  0.500  0.250  0.565-
  70  0.750  0.500  0.565-
  71  0.500  0.500  0.438-
  72  0.750  0.250  0.438-

IMPORTANT INFORMATION: All symmetrisations will be switched off!
NOSYMM: (Re-)initialisation of all symmetry stuff for point group C_1.

                                     Primitive cell

  volume of cell :    1211.2538

  direct lattice vectors                    reciprocal lattice vectors
     8.440984654  0.000000000  0.000000000     0.118469591  0.000000000  0.000000000
     0.000000000  8.440984654  0.000000000     0.000000000  0.118469591  0.000000000
     0.000000000  0.000000000 17.000000000     0.000000000  0.000000000  0.058823529

  length of vectors
     8.440984654  8.440984654 17.000000000     0.118469591  0.118469591  0.058823529

  position of ions in fractional coordinates (direct lattice)
     0.504442512  0.497603211  0.743410718
     0.675427142  0.499371115  0.773615542
     0.481946286  0.392260978  0.706770344
     0.478809683  0.604144071  0.708156302
     0.417859844  0.495031697  0.791753827
     0.759160533  0.502033602  0.724065079
     0.701478841  0.393602621  0.809133108
     0.698200527  0.603760305  0.810658094
     0.000007636  0.750031286  0.189341906
     0.250007636  0.000031286  0.189341906
     0.000007636  0.000031286  0.313474033
     0.250007636  0.750031286  0.313474033
     0.999976970  0.749963850  0.438457003
     0.249986644  0.999964140  0.438470494
     0.999992364  0.999910906  0.562348157
     0.249873245  0.749845785  0.562202626
     0.000007636  0.250031286  0.189341906
     0.250007636  0.500031286  0.189341906
     0.000007636  0.500031286  0.313474033
     0.250007636  0.250031286  0.313474033
     0.999977352  0.249980617  0.438453686
     0.250127274  0.499963970  0.438535724
     0.000145226  0.499923750  0.562114841
     0.249869118  0.249973003  0.562195641
     0.500007636  0.750031286  0.189341906
     0.750007636  0.000031286  0.189341906
     0.500007636  0.000031286  0.313474033
     0.750007636  0.750031286  0.313474033
     0.499991240  0.749815526  0.438527908
     0.749986537  0.999961265  0.438479227
     0.499961494  0.999896839  0.562145227
     0.750043134  0.749924142  0.562250345
     0.500007636  0.250031286  0.189341906
     0.750007636  0.500031286  0.189341906
     0.500007636  0.500031286  0.313474033
     0.750007636  0.250031286  0.313474033
     0.499993003  0.250082768  0.438527210
     0.749860656  0.499960669  0.438562571
     0.499843564  0.499898967  0.563085918
     0.750058171  0.249889399  0.562241868
     0.000007636  0.750031286  0.313474033
     0.250007636  0.000031286  0.313474033
     0.000007636  0.000031286  0.189341906
     0.250007636  0.750031286  0.189341906
     0.999943344  0.749886766  0.565046454
     0.249946089  0.999912111  0.565050657
     0.999971036  0.999968714  0.438179888
     0.249965036  0.750040437  0.438149594
     0.000007636  0.250031286  0.313474033
     0.250007636  0.500031286  0.313474033
     0.000007636  0.500031286  0.189341906
     0.250007636  0.250031286  0.189341906
     0.999945875  0.249945679  0.565037155
     0.249719068  0.499911441  0.564728513
     0.999971089  0.499970067  0.438088058
     0.249956936  0.249888775  0.438144915
     0.500007636  0.750031286  0.313474033
     0.750007636  0.000031286  0.313474033
     0.500007636  0.000031286  0.189341906
     0.750007636  0.750031286  0.189341906
     0.499989702  0.750219279  0.564996442
     0.750006699  0.999909280  0.565084458
     0.499996442  0.999947314  0.438110544
     0.750005020  0.750030779  0.438172055
     0.500007636  0.250031286  0.313474033
     0.750007636  0.500031286  0.313474033
     0.500007636  0.500031286  0.189341906
     0.750007636  0.250031286  0.189341906
     0.499997048  0.249555778  0.564962164
     0.750207288  0.499910047  0.564892284
     0.500015401  0.499961148  0.438334676
     0.750015257  0.249893599  0.438167343

  ion indices of the primitive-cell ions
   primitive index   ion index
                 1           1
                 2           2
                 3           3
                 4           4
                 5           5
                 6           6
                 7           7
                 8           8
                 9           9
                10          10
                11          11
                12          12
                13          13
                14          14
                15          15
                16          16
                17          17
                18          18
                19          19
                20          20
                21          21
                22          22
                23          23
                24          24
                25          25
                26          26
                27          27
                28          28
                29          29
                30          30
                31          31
                32          32
                33          33
                34          34
                35          35
                36          36
                37          37
                38          38
                39          39
                40          40
                41          41
                42          42
                43          43
                44          44
                45          45
                46          46
                47          47
                48          48
                49          49
                50          50
                51          51
                52          52
                53          53
                54          54
                55          55
                56          56
                57          57
                58          58
                59          59
                60          60
                61          61
                62          62
                63          63
                64          64
[...]
     0.000000000  8.440984654  0.000000000     0.000000000  0.118469591  0.000000000
     0.000000000  0.000000000 17.000000000     0.000000000  0.000000000  0.058823529

  length of vectors
     8.440984654  8.440984654 17.000000000     0.118469591  0.118469591  0.058823529

 FORCES acting on ions
    electron-ion (+dipol)            ewald-force                    non-local-force                 convergence-correction
   0.681E+02 0.731E+00 -.664E+03   -.689E+02 -.760E+00 0.664E+03   0.860E+00 0.723E-01 0.113E+00   0.291E-03 0.148E-04 0.122E-02
   -.683E+02 -.720E+00 -.561E+03   0.696E+02 0.746E+00 0.561E+03   -.146E+01 -.139E-01 0.887E-02   0.204E-03 0.425E-05 0.134E-02
   0.181E+02 0.467E+02 -.183E+03   -.191E+02 -.512E+02 0.180E+03   0.970E+00 0.444E+01 0.300E+01   -.270E-04 -.148E-03 -.189E-04
   0.195E+02 -.471E+02 -.183E+03   -.206E+02 0.515E+02 0.180E+03   0.110E+01 -.448E+01 0.288E+01   -.297E-04 0.148E-03 -.120E-04
   0.456E+02 0.122E+01 -.151E+03   -.492E+02 -.133E+01 0.155E+03   0.365E+01 0.108E+00 -.405E+01   0.301E-04 0.170E-05 0.192E-03
   -.448E+02 -.126E+01 -.155E+03   0.484E+02 0.137E+01 0.151E+03   -.352E+01 -.110E+00 0.422E+01   -.211E-04 -.134E-05 0.192E-03
   -.195E+02 0.464E+02 -.124E+03   0.207E+02 -.507E+02 0.127E+03   -.113E+01 0.441E+01 -.300E+01   -.391E-04 0.233E-03 0.623E-04
   -.181E+02 -.459E+02 -.123E+03   0.191E+02 0.502E+02 0.126E+03   -.989E+00 -.435E+01 -.313E+01   -.325E-04 -.229E-03 0.591E-04
   -.926E+00 -.163E+01 0.243E+04   0.926E+00 0.163E+01 -.242E+04   0.272E-03 0.100E-02 -.917E+01   0.896E-04 0.196E-03 -.150E-02
   0.992E+00 0.169E-01 0.243E+04   -.993E+00 -.172E-01 -.242E+04   0.110E-02 0.330E-03 -.917E+01   -.118E-03 -.264E-04 -.153E-02
   -.512E+00 0.204E-01 0.829E+03   0.511E+00 -.232E-01 -.830E+03   0.441E-03 0.161E-02 0.687E+00   0.133E-04 -.425E-05 0.144E-02
   0.970E+00 -.136E+01 0.830E+03   -.967E+00 0.136E+01 -.831E+03   -.160E-02 0.239E-02 0.662E+00   -.369E-04 0.990E-04 0.140E-02
   -.202E+01 -.523E+01 -.761E+03   0.202E+01 0.522E+01 0.761E+03   0.213E-02 0.694E-02 -.320E+00   0.245E-04 0.107E-03 0.226E-02
   0.355E+01 0.759E-01 -.764E+03   -.355E+01 -.764E-01 0.764E+03   -.283E-02 0.222E-03 -.324E+00   -.717E-04 -.125E-04 0.232E-02
   -.575E+01 0.123E+00 -.236E+04   0.576E+01 -.121E+00 0.235E+04   -.275E-02 0.150E-02 0.776E+01   0.579E-04 0.160E-04 0.103E-02
   0.212E+02 -.247E+02 -.234E+04   -.213E+02 0.247E+02 0.233E+04   0.703E-01 0.259E-01 0.781E+01   -.178E-03 0.171E-03 0.813E-03
   -.926E+00 0.163E+01 0.243E+04   0.926E+00 -.163E+01 -.242E+04   0.379E-03 -.571E-03 -.917E+01   0.704E-04 -.177E-03 -.150E-02
   0.128E+01 -.177E-01 0.243E+04   -.128E+01 0.176E-01 -.242E+04   0.201E-03 0.200E-03 -.917E+01   -.685E-04 0.182E-04 -.150E-02
   -.612E+00 -.317E-01 0.831E+03   0.609E+00 0.290E-01 -.831E+03   0.291E-02 0.154E-02 0.638E+00   -.785E-05 0.397E-05 0.144E-02
   0.962E+00 0.136E+01 0.830E+03   -.960E+00 -.136E+01 -.831E+03   -.107E-02 0.243E-02 0.661E+00   -.341E-04 -.987E-04 0.142E-02
   -.203E+01 0.525E+01 -.761E+03   0.203E+01 -.525E+01 0.761E+03   0.211E-02 -.769E-02 -.323E+00   0.847E-05 -.129E-03 0.224E-02
   0.534E+01 -.723E-01 -.752E+03   -.531E+01 0.728E-01 0.753E+03   -.380E-01 -.620E-03 -.533E+00   -.528E-04 0.332E-04 0.224E-02
   -.141E+02 -.112E+00 -.233E+04   0.142E+02 0.114E+00 0.232E+04   -.116E+00 -.105E-02 0.779E+01   0.170E-03 0.187E-04 0.879E-03
   0.215E+02 0.248E+02 -.234E+04   -.216E+02 -.247E+02 0.233E+04   0.793E-01 -.271E-01 0.782E+01   -.161E-03 -.190E-03 0.823E-03
   0.932E+00 -.192E+01 0.243E+04   -.932E+00 0.192E+01 -.242E+04   -.852E-04 0.195E-02 -.917E+01   -.911E-04 0.108E-03 -.146E-02
   -.995E+00 0.170E-01 0.243E+04   0.996E+00 -.171E-01 -.242E+04   -.966E-03 0.229E-03 -.917E+01   0.134E-03 -.145E-04 -.144E-02
   0.507E+00 0.194E-01 0.830E+03   -.508E+00 -.238E-01 -.831E+03   0.537E-03 0.281E-02 0.651E+00   -.219E-04 -.203E-04 0.140E-02
   -.970E+00 -.146E+01 0.831E+03   0.966E+00 0.146E+01 -.831E+03   0.341E-02 0.521E-02 0.672E+00   0.219E-04 0.768E-04 0.149E-02
   0.204E+01 -.703E+01 -.752E+03   -.204E+01 0.699E+01 0.753E+03   -.185E-02 0.382E-01 -.376E+00   0.242E-04 0.763E-04 0.222E-02
   -.354E+01 0.814E-01 -.761E+03   0.354E+01 -.819E-01 0.762E+03   0.213E-03 0.238E-03 -.321E+00   0.793E-04 -.242E-05 0.230E-02
   0.582E+01 0.404E+00 -.234E+04   -.583E+01 -.402E+00 0.233E+04   0.422E-02 -.877E-05 0.776E+01   -.322E-04 0.176E-05 0.108E-02
   -.215E+02 -.336E+02 -.232E+04   0.215E+02 0.336E+02 0.231E+04   -.643E-01 -.506E-01 0.782E+01   0.170E-03 0.273E-03 0.692E-03
   0.932E+00 0.192E+01 0.243E+04   -.932E+00 -.192E+01 -.242E+04   -.185E-03 -.141E-02 -.917E+01   -.918E-04 -.998E-04 -.149E-02
   -.129E+01 -.177E-01 0.242E+04   0.129E+01 0.175E-01 -.241E+04   -.114E-03 0.314E-03 -.917E+01   0.466E-04 -.229E-05 -.137E-02
   0.610E+00 -.189E-01 0.832E+03   -.607E+00 0.158E-01 -.832E+03   -.254E-02 0.169E-02 0.711E+00   0.415E-05 0.158E-04 0.140E-02
   -.963E+00 0.146E+01 0.831E+03   0.959E+00 -.146E+01 -.831E+03   0.274E-02 -.199E-03 0.671E+00   0.480E-04 -.732E-04 0.149E-02
   0.205E+01 0.699E+01 -.752E+03   -.205E+01 -.696E+01 0.753E+03   -.199E-02 -.380E-01 -.385E+00   0.922E-05 -.867E-04 0.220E-02
   -.539E+01 -.819E-01 -.748E+03   0.535E+01 0.831E-01 0.748E+03   0.411E-01 -.100E-02 -.450E+00   0.753E-05 0.287E-04 0.214E-02
   0.149E+02 -.636E+00 -.225E+04   -.150E+02 0.652E+00 0.224E+04   0.984E-01 -.122E-01 0.752E+01   -.103E-03 0.471E-05 0.528E-03
   -.218E+02 0.336E+02 -.232E+04   0.219E+02 -.337E+02 0.231E+04   -.743E-01 0.505E-01 0.782E+01   0.185E-03 -.292E-03 0.718E-03
   -.337E+00 -.859E+00 0.497E+03   0.340E+00 0.854E+00 -.497E+03   -.377E-02 0.525E-02 -.952E-01   0.263E-04 0.408E-04 0.435E-03
   0.565E+00 0.584E-02 0.497E+03   -.558E+00 -.156E-02 -.497E+03   -.916E-02 -.569E-02 -.102E+00   -.245E-04 -.159E-04 0.421E-03
   -.477E+00 0.995E-02 0.147E+04   0.477E+00 -.984E-02 -.147E+04   -.318E-03 -.233E-03 0.260E+01   0.295E-04 -.544E-05 -.761E-03
   0.680E+00 -.984E+00 0.147E+04   -.680E+00 0.983E+00 -.147E+04   0.123E-03 0.509E-03 0.260E+01   -.122E-04 0.472E-04 -.738E-03
   -.591E+01 -.117E+02 -.144E+04   0.591E+01 0.117E+02 0.144E+04   -.110E-02 0.172E-01 -.465E+01   0.689E-04 0.111E-03 0.979E-03
   0.727E+01 0.148E+00 -.144E+04   -.725E+01 -.152E+00 0.145E+04   -.194E-01 0.540E-02 -.464E+01   -.738E-04 0.103E-04 0.100E-02
   -.984E+00 0.272E-01 -.454E+03   0.984E+00 -.251E-01 0.454E+03   -.217E-03 -.285E-02 0.253E+00   0.267E-05 0.754E-05 0.603E-03
   0.262E+01 -.337E+01 -.449E+03   -.261E+01 0.335E+01 0.449E+03   -.453E-02 0.207E-01 0.257E+00   -.535E-04 0.632E-04 0.627E-03
   -.338E+00 0.846E+00 0.497E+03   0.341E+00 -.834E+00 -.497E+03   -.367E-02 -.154E-01 -.955E-01   0.927E-05 -.390E-04 0.422E-03
   0.638E+00 -.231E-01 0.498E+03   -.650E+00 0.272E-01 -.497E+03   0.164E-01 -.544E-02 -.107E+00   -.235E-04 0.141E-04 0.379E-03
   -.637E+00 -.979E-02 0.147E+04   0.636E+00 0.990E-02 -.147E+04   0.118E-02 -.234E-03 0.260E+01   0.409E-04 -.426E-05 -.622E-03
   0.681E+00 0.984E+00 0.147E+04   -.681E+00 -.983E+00 -.147E+04   0.228E-03 -.146E-02 0.260E+01   -.253E-04 -.497E-04 -.731E-03
   -.593E+01 0.117E+02 -.144E+04   0.593E+01 -.117E+02 0.144E+04   -.144E-02 -.131E-01 -.465E+01   0.649E-04 -.126E-03 0.986E-03
   0.210E+02 -.163E+00 -.142E+04   -.209E+02 0.160E+00 0.142E+04   -.122E+00 0.729E-04 -.476E+01   -.214E-03 -.431E-05 0.830E-03
   -.143E+01 -.474E-01 -.447E+03   0.144E+01 0.473E-01 0.447E+03   -.113E-01 0.846E-03 0.270E+00   0.450E-04 0.960E-05 0.641E-03
   0.262E+01 0.337E+01 -.449E+03   -.261E+01 -.335E+01 0.449E+03   -.269E-02 -.182E-01 0.258E+00   -.318E-04 -.685E-04 0.632E-03
   0.331E+00 -.935E+00 0.498E+03   -.330E+00 0.951E+00 -.497E+03   -.381E-03 -.211E-01 -.103E+00   -.158E-04 0.466E-04 0.412E-03
   -.569E+00 0.600E-02 0.497E+03   0.565E+00 -.153E-02 -.497E+03   0.542E-02 -.593E-02 -.999E-01   0.197E-04 -.739E-05 0.430E-03
   0.479E+00 0.111E-01 0.147E+04   -.479E+00 -.110E-01 -.147E+04   0.180E-03 -.223E-03 0.260E+01   -.389E-04 -.128E-04 -.668E-03
   -.683E+00 -.115E+01 0.147E+04   0.684E+00 0.114E+01 -.147E+04   -.391E-03 0.197E-02 0.260E+01   0.164E-04 0.689E-04 -.639E-03
   0.603E+01 -.259E+02 -.141E+04   -.603E+01 0.258E+02 0.142E+04   -.249E-02 0.114E+00 -.465E+01   -.475E-04 0.263E-03 0.778E-03
   -.733E+01 0.163E+00 -.144E+04   0.731E+01 -.167E+00 0.144E+04   0.167E-01 0.617E-02 -.465E+01   0.459E-04 0.495E-05 0.959E-03
   0.975E+00 0.654E-01 -.449E+03   -.978E+00 -.683E-01 0.449E+03   0.315E-02 0.446E-02 0.289E+00   -.114E-04 -.286E-06 0.706E-03
   -.262E+01 -.384E+01 -.447E+03   0.262E+01 0.383E+01 0.447E+03   0.368E-02 0.110E-01 0.261E+00   0.124E-04 0.607E-04 0.592E-03
   0.332E+00 0.910E+00 0.498E+03   -.332E+00 -.915E+00 -.497E+03   -.224E-03 0.728E-02 -.102E+00   -.126E-04 -.470E-04 0.434E-03
   -.641E+00 -.247E-01 0.498E+03   0.655E+00 0.290E-01 -.498E+03   -.183E-01 -.571E-02 -.111E+00   0.281E-04 0.627E-05 0.421E-03
   0.643E+00 -.106E-01 0.147E+04   -.641E+00 0.108E-01 -.147E+04   -.132E-02 -.406E-03 0.260E+01   -.427E-04 0.125E-04 -.621E-03
   -.684E+00 0.115E+01 0.147E+04   0.685E+00 -.114E+01 -.147E+04   -.477E-03 -.297E-02 0.260E+01   0.318E-04 -.664E-04 -.625E-03
   0.606E+01 0.261E+02 -.141E+04   -.606E+01 -.260E+02 0.142E+04   -.177E-02 -.107E+00 -.464E+01   -.557E-04 -.259E-03 0.775E-03
   -.216E+02 -.174E+00 -.139E+04   0.215E+02 0.170E+00 0.140E+04   0.913E-01 0.606E-02 -.470E+01   0.183E-03 0.209E-05 0.601E-03
   0.145E+01 -.259E-01 -.443E+03   -.146E+01 0.229E-01 0.443E+03   0.934E-02 0.353E-02 0.925E-01   0.925E-05 0.537E-05 0.546E-03
   -.262E+01 0.385E+01 -.447E+03   0.262E+01 -.384E+01 0.447E+03   0.228E-02 -.675E-02 0.262E+00   0.235E-04 -.742E-04 0.590E-03
   0.588E+00 -.107E-01 0.242E+02   -.423E-12 -.249E-13 0.853E-12   -.571E+00 0.647E-01 -.243E+02   0.443E-03 0.359E-04 0.370E-01

 POSITION                                       TOTAL-FORCE (eV/Angst)
      4.25799      4.20026     12.63798         0.110326      0.041883      0.095570
      5.70127      4.21518     13.15146        -0.101785      0.010907      0.023984
      4.06810      3.31107     12.01510         0.001798      0.003242      0.033872
      4.04163      5.09957     12.03866         0.001982     -0.009727      0.032553
      3.52715      4.17855     13.45982         0.021882      0.000792     -0.025867
      6.40806      4.23766     12.30911        -0.008239     -0.000922      0.040492
      5.92117      3.32239     13.75526        -0.000523      0.033202     -0.017859
      5.89350      5.09633     13.78119         0.003883     -0.034324     -0.020543
      0.00006      6.33100      3.21881        -0.000271     -0.000979      0.315853
      2.11031      0.00026      3.21881        -0.000477     -0.000665      0.316513
      0.00006      0.00026      5.32906        -0.000699     -0.001895      0.042276
      2.11031      6.33100      5.32906         0.000386     -0.001833      0.035023
      8.44079      6.33043      7.45377        -0.000182     -0.002103      0.051672
      2.11013      8.44068      7.45400         0.000096     -0.001090      0.050864
      8.44092      8.44023      9.55992        -0.000264      0.002534      0.031936
      2.10918      6.32944      9.55744        -0.009288      0.002629      0.024407
      0.00006      2.11051      3.21881        -0.000293     -0.000435      0.315889
      2.11031      4.22076      3.21881        -0.000364     -0.000631      0.316740
      0.00006      4.22076      5.32906        -0.001286     -0.001849      0.046138
      2.11031      2.11051      5.32906         0.000282     -0.000921      0.034884
      8.44079      2.11008      7.45371        -0.000051     -0.000437      0.051968
      2.11132      4.22019      7.45511        -0.001919     -0.000786      0.054393
      0.00123      4.21985      9.55595         0.007339     -0.000215      0.029130
      2.10914      2.11002      9.55733        -0.011637     -0.002938      0.025603
      4.22056      6.33100      3.21881        -0.000164     -0.001112      0.316753
      6.33080      0.00026      3.21881        -0.000001     -0.000639      0.316635
      4.22056      0.00026      5.32906        -0.000764     -0.002350      0.045979
      6.33080      6.33100      5.32906        -0.001469     -0.002631      0.035135
      4.22042      6.32918      7.45497        -0.000554      0.000831      0.052054
      6.33062      8.44066      7.45415        -0.000587     -0.001016      0.051420
      4.22017      8.44011      9.55647         0.001297      0.001012      0.033472
      6.33110      6.33010      9.55826         0.006911      0.012950      0.019605
      4.22056      2.11051      3.21881        -0.000128     -0.000325      0.316665
      6.33080      4.22076      3.21881        -0.000142     -0.000666      0.315898
      4.22056      4.22076      5.32906         0.000117     -0.002106      0.049385
      6.33080      2.11051      5.32906        -0.001322     -0.000215      0.034914
      4.22043      2.11094      7.45496        -0.000581     -0.001336      0.050970
      6.32956      4.22016      7.45556         0.000830     -0.000518      0.049643
      4.21917      4.21964      9.57246        -0.009975      0.003604      0.032025
      6.33123      2.10931      9.55811         0.008086     -0.011605      0.018658
      0.00006      6.33100      5.32906        -0.001131      0.000295      0.056969
      2.11031      0.00026      5.32906        -0.002361     -0.002179      0.056170
      0.00006      0.00026      3.21881        -0.000347     -0.000876     -0.558626
      2.11031      6.33100      3.21881        -0.000260     -0.000872     -0.560023
      8.44051      6.32978      9.60579        -0.000653      0.003086      0.047633
      2.10979      8.44024      9.60586        -0.000443      0.001209      0.050128
      8.44074      8.44072      7.44906         0.000114     -0.001512      0.013031
      2.10995      6.33108      7.44854         0.000922     -0.000464     -0.004566
      0.00006      2.11051      5.32906        -0.001111     -0.004533      0.056665
      2.11031      4.22076      5.32906         0.003286     -0.002102      0.059505
      0.00006      4.22076      3.21881        -0.000038     -0.000879     -0.558412
      2.11031      2.11051      3.21881        -0.000239     -0.001247     -0.560041
      8.44053      2.10979      9.60563        -0.000176     -0.003506      0.049197
      2.10787      4.21974      9.60038        -0.011201     -0.003085      0.030103
      8.44074      4.22024      7.44750        -0.002223     -0.000030      0.007788
      2.10988      2.10931      7.44846         0.002002      0.000423     -0.004158
      4.22056      6.33100      5.32906        -0.000345     -0.005531      0.059778
      6.33080      0.00026      5.32906         0.000963     -0.002223      0.057187
      4.22056      0.00026      3.21881        -0.000214     -0.000878     -0.559184
      6.33080      6.33100      3.21881        -0.000400     -0.000562     -0.560028
      4.22041      6.33259      9.60494        -0.002374      0.015030      0.042173
      6.33080      8.44022      9.60644         0.000423      0.001314      0.046854
      4.22046      8.44054      7.44788        -0.000073      0.000842      0.011633
      6.33078      6.33100      7.44892        -0.001087     -0.002725     -0.003605
      4.22056      2.11051      5.32906        -0.000314      0.000582      0.060021
      6.33080      4.22076      5.32906        -0.004339     -0.002157      0.060115
      4.22056      4.22076      3.21881        -0.000532     -0.000917     -0.559567
      6.33080      2.11051      3.21881        -0.000418     -0.001573     -0.559991
      4.22047      2.10650      9.60436        -0.002434     -0.016095      0.044866
      6.33249      4.21973      9.60317         0.013687      0.001071      0.030371
      4.22062      4.22016      7.45169         0.001178     -0.000263      0.006605
      6.33087      2.10935      7.44884        -0.002110      0.003037     -0.003294
    total drift:                                0.017643      0.054016     -0.081816

  FREE ENERGIE OF THE ION-ELECTRON SYSTEM (eV)
  free  energy   TOTEN  =      -413.18932391 eV

  energy  without entropy=     -413.18932391  energy(sigma->0) =     -413.18932391

     |            E. Caldeweyher, S. Ehlert & S. Grimme          |
     |          Mulliken Center for Theoretical Chemistry        |
     |                    University of Bonn                     |

Rational (Becke-Johnson) damping: hse06-D4-ATM
  s6         1.0000
  s8         1.1953
  s9         1.0000
  a1         0.3866
  a2         5.1913
 alp        16.0000

Dispersion energy:      -2.7817859753988E-01 Eh