 vasp.6.4.2 20Jul23 (build Feb 22 2024 13:53:45) complex
 executed on              LinuxNV date 2024.08.27  14:19:56
 OpenACC runtime initialized ...    4 GPUs detected

 INCAR:
   SYSTEM = Oxide-Surface
   ISMEAR = 0
   SIGMA = 0.05
   EDIFF = 1E-5
   ALGO = Normal
   IBRION = -1
   NSW = 0
   ISYM = 0
   DIPOL = 0.5 0.5 0.5
   IDIPOL = 3
   LDIPOL = .TRUE.
   ISTART = 1
   LHFCALC = .TRUE.
   HFSCREEN = 0.2
   GGA = PE
   HFRCUT = -1
   ENCUT = 520
   PREC = Normal
   PRECFOCK = Normal
   LASPH = .TRUE.
   LREAL = Auto
   ISPIN = 1
   NELM = 200
   NELMIN = 8
   NCORE = 1
   KPAR = 1
   LWAVE = .FALSE.
   LCHARG = .FALSE.

 POTCAR:    PAW_PBE C 08Apr2002
 POTCAR:    PAW_PBE H 15Jun2001
 POTCAR:    PAW_PBE Mg_pv 13Apr2007
 POTCAR:    PAW_PBE O 08Apr2002
 POTCAR:    PAW_PBE C 08Apr2002
   VRHFIN =C: s2p2

   TITEL  = PAW_PBE C 08Apr2002
   POMASS =   12.011; ZVAL   =    4.000    mass and valenz
   ENMAX  =  400.000; ENMIN  =  300.000 eV

   TITEL  = PAW_PBE H 15Jun2001
   POMASS =    1.000; ZVAL   =    1.000    mass and valenz
   ENMAX  =  250.000; ENMIN  =  200.000 eV

   TITEL  = PAW_PBE Mg_pv 13Apr2007
   POMASS =   24.305; ZVAL   =    8.000    mass and valenz
   ENMAX  =  403.929; ENMIN  =  302.947 eV

   TITEL  = PAW_PBE O 08Apr2002
   POMASS =   16.000; ZVAL   =    6.000    mass and valenz
   ENMAX  =  400.000; ENMIN  =  300.000 eV

 Optimization of the real space projectors (new method)

 maximal supplied QI-value         = 25.13
 optimisation between [QCUT,QGAM] = [ 11.56, 23.12] = [ 37.43,149.72] Ry
 Optimized for a Real-space Cutoff    1.04 Angstroem

   l    n(q)    QCUT    max X(q) W(low)/X(q) W(high)/X(q)  e(spline)
   0      7    11.561   115.676    0.20E-03    0.60E-03    0.21E-06
   0      7    11.561    87.132    0.20E-03    0.59E-03    0.21E-06
   1      7    11.561     4.429    0.23E-03    0.35E-03    0.15E-06
   1      7    11.561     2.733    0.18E-03    0.25E-03    0.12E-06
 Optimization of the real space projectors (new method)

[...]

   l    n(q)    QCUT    max X(q) W(low)/X(q) W(high)/X(q)  e(spline)
   1      8    11.527     2.974    0.16E-03    0.13E-03    0.98E-07
   1      8    11.527     4.279    0.42E-03    0.30E-03    0.22E-06
   0      8    11.527    16.381    0.13E-03    0.20E-03    0.72E-07
   0      8    11.527     5.611    0.88E-04    0.13E-03    0.50E-07
   2      7    11.527     4.652    0.25E-03    0.73E-04    0.51E-07
 Optimization of the real space projectors (new method)

 maximal supplied QI-value         = 24.76
 optimisation between [QCUT,QGAM] = [ 11.64, 23.27] = [ 37.91,151.63] Ry
 Optimized for a Real-space Cutoff    1.04 Angstroem

   l    n(q)    QCUT    max X(q) W(low)/X(q) W(high)/X(q)  e(spline)
   0      7    11.635    20.381    0.14E-03    0.49E-03    0.18E-06
   0      7    11.635    15.268    0.16E-03    0.52E-03    0.19E-06
   1      7    11.635     5.964    0.30E-03    0.44E-03    0.22E-06
   1      7    11.635     5.382    0.27E-03    0.34E-03    0.19E-06
  PAW_PBE C 08Apr2002                   :
  PAW_PBE H 15Jun2001                   :
  PAW_PBE Mg_pv 13Apr2007               :
  PAW_PBE O 08Apr2002                   :

 POSCAR:  C  H Mg  O
  positions in direct lattice
 exchange correlation table for  LEXCH =        8
   RHO(1)=    0.500       N(1)  =     2000
   RHO(2)=  100.500       N(2)  =     4000

 ion  position               nearest neighbor table
   1  0.504  0.498  0.743-   5 1.10   3 1.10   4 1.10   2 1.53
   2  0.675  0.499  0.774-   6 1.10   8 1.10   7 1.10   1 1.53
   3  0.482  0.392  0.707-   1 1.10
   4  0.479  0.604  0.708-   1 1.10
   5  0.418  0.495  0.792-   1 1.10
   6  0.759  0.502  0.724-   2 1.10
   7  0.701  0.394  0.809-   2 1.10
   8  0.698  0.604  0.811-   2 1.10
   9  0.000  0.750  0.189-  43 2.11  44 2.11  51 2.11  60 2.11  41 2.11
  10  0.250  0.000  0.189-  43 2.11  44 2.11  52 2.11  59 2.11  42 2.11
  11  0.000  0.000  0.313-  41 2.11  42 2.11  49 2.11  58 2.11  43 2.11  47 2.12
  12  0.250  0.750  0.313-  41 2.11  42 2.11  50 2.11  57 2.11  44 2.11  48 2.12
  13  1.000  0.750  0.438-  64 2.11  48 2.11  55 2.11  47 2.11  41 2.12  45 2.15
  14  0.250  1.000  0.438-  48 2.11  56 2.11  63 2.11  47 2.11  42 2.12  46 2.15
  15  1.000  1.000  0.562-  46 2.11  62 2.11  47 2.11  45 2.11  53 2.11
  16  0.250  0.750  0.562-  48 2.11  54 2.11  45 2.11  46 2.11  61 2.11
  17  0.000  0.250  0.189-  43 2.11  51 2.11  52 2.11  68 2.11  49 2.11
  18  0.250  0.500  0.189-  44 2.11  51 2.11  52 2.11  67 2.11  50 2.11
  19  0.000  0.500  0.313-  41 2.11  49 2.11  50 2.11  66 2.11  51 2.11  55 2.12
  20  0.250  0.250  0.313-  42 2.11  49 2.11  50 2.11  65 2.11  52 2.11  56 2.12
  21  1.000  0.250  0.438-  72 2.11  56 2.11  55 2.11  47 2.11  49 2.12  53 2.15
  22  0.250  0.500  0.439-  71 2.11  56 2.11  48 2.11  55 2.11  50 2.13  54 2.15
  23  0.000  0.500  0.562-  54 2.11  55 2.11  70 2.11  45 2.11  53 2.11
  24  0.250  0.250  0.562-  56 2.11  53 2.11  54 2.11  46 2.11  69 2.11
  25  0.500  0.750  0.189-  44 2.11  59 2.11  60 2.11  67 2.11  57 2.11
  26  0.750  0.000  0.189-  43 2.11  59 2.11  60 2.11  68 2.11  58 2.11
  27  0.500  0.000  0.313-  42 2.11  57 2.11  58 2.11  65 2.11  59 2.11  63 2.12
  28  0.750  0.750  0.313-  41 2.11  57 2.11  58 2.11  66 2.11  60 2.11  64 2.12
  29  0.500  0.750  0.439-  71 2.11  64 2.11  48 2.11  63 2.11  57 2.13  61 2.15
  30  0.750  1.000  0.438-  64 2.11  72 2.11  47 2.11  63 2.11  58 2.13  62 2.15
  31  0.500  1.000  0.562-  69 2.11  61 2.11  63 2.11  46 2.11  62 2.11
  32  0.750  0.750  0.562-  64 2.11  45 2.11  62 2.11  70 2.11  61 2.11
  33  0.500  0.250  0.189-  52 2.11  59 2.11  67 2.11  68 2.11  65 2.11
  34  0.750  0.500  0.189-  51 2.11  60 2.11  67 2.11  68 2.11  66 2.11
  35  0.500  0.500  0.313-  50 2.11  57 2.11  65 2.11  66 2.11  67 2.11  71 2.12
  36  0.750  0.250  0.313-  49 2.11  58 2.11  65 2.11  66 2.11  68 2.11  72 2.12
  37  0.500  0.250  0.439-  71 2.11  72 2.11  56 2.11  63 2.11  65 2.13  69 2.15
  38  0.750  0.500  0.439-  71 2.11  72 2.11  64 2.11  55 2.11  66 2.13  70 2.15
  39  0.500  0.500  0.563-  54 2.11  61 2.11  69 2.11  70 2.11  71 2.12
  40  0.750  0.250  0.562-  72 2.11  53 2.11  62 2.11  70 2.11  69 2.11
  41  0.000  0.750  0.313-  11 2.11  12 2.11  19 2.11  28 2.11   9 2.11  13 2.12
  42  0.250  0.000  0.313-  11 2.11  12 2.11  20 2.11  27 2.11  10 2.11  14 2.12
  43  0.000  0.000  0.189-   9 2.11  10 2.11  17 2.11  26 2.11  11 2.11
  44  0.250  0.750  0.189-   9 2.11  10 2.11  18 2.11  25 2.11  12 2.11
  45  1.000  0.750  0.565-  32 2.11  16 2.11  23 2.11  15 2.11  13 2.15
  46  0.250  1.000  0.565-  15 2.11  31 2.11  24 2.11  16 2.11  14 2.15
  47  1.000  1.000  0.438-  30 2.11  13 2.11  21 2.11  14 2.11  15 2.11  11 2.12
  48  0.250  0.750  0.438-  16 2.11  14 2.11  13 2.11  29 2.11  22 2.11  12 2.12
  49  0.000  0.250  0.313-  11 2.11  19 2.11  20 2.11  36 2.11  17 2.11  21 2.12
  50  0.250  0.500  0.313-  12 2.11  19 2.11  20 2.11  35 2.11  18 2.11  22 2.13
  51  0.000  0.500  0.189-   9 2.11  17 2.11  18 2.11  34 2.11  19 2.11
  52  0.250  0.250  0.189-  10 2.11  17 2.11  18 2.11  33 2.11  20 2.11
  53  1.000  0.250  0.565-  40 2.11  24 2.11  23 2.11  15 2.11  21 2.15
  54  0.250  0.500  0.565-  23 2.11  16 2.11  24 2.11  39 2.11  22 2.15
  55  1.000  0.500  0.438-  23 2.11  21 2.11  13 2.11  38 2.11  22 2.11  19 2.12
  56  0.250  0.250  0.438-  24 2.11  14 2.11  21 2.11  37 2.11  22 2.11  20 2.12
  57  0.500  0.750  0.313-  12 2.11  27 2.11  28 2.11  35 2.11  25 2.11  29 2.13
  58  0.750  0.000  0.313-  11 2.11  27 2.11  28 2.11  36 2.11  26 2.11  30 2.13
  59  0.500  0.000  0.189-  10 2.11  25 2.11  26 2.11  33 2.11  27 2.11
  60  0.750  0.750  0.189-   9 2.11  25 2.11  26 2.11  34 2.11  28 2.11
  61  0.500  0.750  0.565-  31 2.11  32 2.11  16 2.11  39 2.11  29 2.15
  62  0.750  1.000  0.565-  40 2.11  15 2.11  32 2.11  31 2.11  30 2.15
  63  0.500  1.000  0.438-  31 2.11  30 2.11  14 2.11  29 2.11  37 2.11  27 2.12
  64  0.750  0.750  0.438-  32 2.11  30 2.11  13 2.11  29 2.11  38 2.11  28 2.12
  65  0.500  0.250  0.313-  20 2.11  27 2.11  35 2.11  36 2.11  33 2.11  37 2.13
  66  0.750  0.500  0.313-  19 2.11  28 2.11  35 2.11  36 2.11  34 2.11  38 2.13
  67  0.500  0.500  0.189-  18 2.11  25 2.11  33 2.11  34 2.11  35 2.11
  68  0.750  0.250  0.189-  17 2.11  26 2.11  33 2.11  34 2.11  36 2.11
  69  0.500  0.250  0.565-  31 2.11  40 2.11  24 2.11  39 2.11  37 2.15
  70  0.750  0.500  0.565-  23 2.11  32 2.11  40 2.11  39 2.11  38 2.15
  71  0.500  0.500  0.438-  38 2.11  29 2.11  37 2.11  22 2.11  39 2.12  35 2.12
  72  0.750  0.250  0.438-  40 2.11  30 2.11  21 2.11  37 2.11  38 2.11  36 2.12

IMPORTANT INFORMATION: All symmetrisations will be switched off!
NOSYMM: (Re-)initialisation of all symmetry stuff for point group C_1.

                                     Primitive cell

  volume of cell :    1211.2538

  direct lattice vectors                    reciprocal lattice vectors
     8.440984654  0.000000000  0.000000000     0.118469591  0.000000000  0.000000000
     0.000000000  8.440984654  0.000000000     0.000000000  0.118469591  0.000000000
     0.000000000  0.000000000 17.000000000     0.000000000  0.000000000  0.058823529

  length of vectors
     8.440984654  8.440984654 17.000000000     0.118469591  0.118469591  0.058823529

  position of ions in fractional coordinates (direct lattice)
     0.504442512  0.497603211  0.743410718
     0.675427142  0.499371115  0.773615542
     0.481946286  0.392260978  0.706770344
     0.478809683  0.604144071  0.708156302
     0.417859844  0.495031697  0.791753827
     0.759160533  0.502033602  0.724065079
     0.701478841  0.393602621  0.809133108
     0.698200527  0.603760305  0.810658094
     0.000007636  0.750031286  0.189341906
     0.250007636  0.000031286  0.189341906
     0.000007636  0.000031286  0.313474033
     0.250007636  0.750031286  0.313474033
     0.999976970  0.749963850  0.438457003
     0.249986644  0.999964140  0.438470494
     0.999992364  0.999910906  0.562348157
     0.249873245  0.749845785  0.562202626
     0.000007636  0.250031286  0.189341906
     0.250007636  0.500031286  0.189341906
     0.000007636  0.500031286  0.313474033
     0.250007636  0.250031286  0.313474033
     0.999977352  0.249980617  0.438453686
     0.250127274  0.499963970  0.438535724
     0.000145226  0.499923750  0.562114841
     0.249869118  0.249973003  0.562195641
     0.500007636  0.750031286  0.189341906
     0.750007636  0.000031286  0.189341906
     0.500007636  0.000031286  0.313474033
     0.750007636  0.750031286  0.313474033
     0.499991240  0.749815526  0.438527908
     0.749986537  0.999961265  0.438479227
     0.499961494  0.999896839  0.562145227
     0.750043134  0.749924142  0.562250345
     0.500007636  0.250031286  0.189341906
     0.750007636  0.500031286  0.189341906
     0.500007636  0.500031286  0.313474033
     0.750007636  0.250031286  0.313474033
     0.499993003  0.250082768  0.438527210
     0.749860656  0.499960669  0.438562571
     0.499843564  0.499898967  0.563085918
     0.750058171  0.249889399  0.562241868
     0.000007636  0.750031286  0.313474033
     0.250007636  0.000031286  0.313474033
     0.000007636  0.000031286  0.189341906
[...]
     0.000000000  8.440984654  0.000000000     0.000000000  0.118469591  0.000000000
     0.000000000  0.000000000 17.000000000     0.000000000  0.000000000  0.058823529

  length of vectors
     8.440984654  8.440984654 17.000000000     0.118469591  0.118469591  0.058823529

 FORCES acting on ions
    electron-ion (+dipol)            ewald-force                    non-local-force                 convergence-correction
   0.690E+02 0.735E+00 -.577E+03   -.689E+02 -.748E+00 0.577E+03   -.686E-01 0.547E-02 -.244E+00   0.690E-03 0.289E-04 0.678E-01
   -.692E+02 -.734E+00 -.495E+03   0.695E+02 0.746E+00 0.494E+03   -.378E+00 -.150E-01 0.143E+00   0.253E-02 0.362E-04 0.623E-01
   0.181E+02 0.465E+02 -.155E+03   -.190E+02 -.508E+02 0.152E+03   0.949E+00 0.434E+01 0.293E+01   0.218E-03 0.363E-03 0.186E-01
   0.195E+02 -.468E+02 -.155E+03   -.205E+02 0.512E+02 0.152E+03   0.108E+01 -.438E+01 0.281E+01   0.219E-03 -.338E-03 0.186E-01
   0.457E+02 0.122E+01 -.137E+03   -.492E+02 -.133E+01 0.141E+03   0.356E+01 0.105E+00 -.396E+01   -.685E-03 -.148E-04 0.149E-01
   -.449E+02 -.127E+01 -.131E+03   0.484E+02 0.138E+01 0.127E+03   -.344E+01 -.107E+00 0.412E+01   -.260E-03 -.179E-05 0.187E-01
   -.196E+02 0.465E+02 -.113E+03   0.207E+02 -.507E+02 0.116E+03   -.110E+01 0.430E+01 -.293E+01   0.590E-03 -.475E-03 0.134E-01
   -.181E+02 -.460E+02 -.112E+03   0.191E+02 0.503E+02 0.115E+03   -.968E+00 -.425E+01 -.306E+01   0.590E-03 0.498E-03 0.133E-01
   -.743E+00 -.131E+01 0.170E+04   0.742E+00 0.131E+01 -.170E+04   0.984E-04 0.734E-03 -.685E+01   0.242E-03 0.401E-03 -.137E+00
   0.799E+00 0.134E-01 0.170E+04   -.799E+00 -.137E-01 -.170E+04   0.654E-03 0.210E-03 -.685E+01   -.204E-03 -.977E-07 -.137E+00
   -.416E+00 0.126E-01 0.582E+03   0.415E+00 -.151E-01 -.582E+03   0.677E-03 0.154E-02 0.478E+00   -.181E-04 0.251E-05 -.978E-01
   0.798E+00 -.111E+01 0.583E+03   -.796E+00 0.110E+01 -.583E+03   -.127E-02 0.176E-02 0.467E+00   0.153E-03 -.110E-03 -.973E-01
   -.164E+01 -.416E+01 -.527E+03   0.164E+01 0.416E+01 0.528E+03   0.238E-02 0.410E-02 -.189E+00   -.246E-03 -.752E-03 -.184E-01
   0.285E+01 0.598E-01 -.530E+03   -.285E+01 -.602E-01 0.530E+03   -.221E-02 0.206E-03 -.193E+00   0.722E-03 0.127E-04 -.187E-01
   -.460E+01 0.102E+00 -.165E+04   0.460E+01 -.100E+00 0.164E+04   -.147E-02 -.357E-03 0.577E+01   -.140E-03 -.207E-05 0.679E-01
   0.170E+02 -.197E+02 -.163E+04   -.171E+02 0.197E+02 0.162E+04   0.459E-01 0.191E-01 0.581E+01   0.234E-02 -.209E-02 0.685E-01
   -.743E+00 0.131E+01 0.170E+04   0.742E+00 -.131E+01 -.170E+04   0.167E-03 -.424E-03 -.685E+01   0.235E-03 -.401E-03 -.137E+00
   0.103E+01 -.140E-01 0.170E+04   -.103E+01 0.139E-01 -.169E+04   0.328E-03 0.121E-03 -.685E+01   -.312E-03 0.275E-05 -.136E+00
   -.502E+00 -.272E-01 0.583E+03   0.499E+00 0.248E-01 -.583E+03   0.221E-02 0.151E-02 0.443E+00   -.370E-04 -.280E-05 -.971E-01
   0.792E+00 0.110E+01 0.583E+03   -.791E+00 -.110E+01 -.583E+03   -.882E-03 0.162E-02 0.466E+00   0.152E-03 0.103E-03 -.973E-01
   -.165E+01 0.418E+01 -.527E+03   0.165E+01 -.418E+01 0.528E+03   0.233E-02 -.457E-02 -.191E+00   -.250E-03 0.744E-03 -.184E-01
   0.440E+01 -.571E-01 -.520E+03   -.437E+01 0.576E-01 0.521E+03   -.311E-01 -.316E-03 -.340E+00   0.833E-03 -.112E-04 -.171E-01
   -.113E+02 -.901E-01 -.163E+04   0.114E+02 0.913E-01 0.162E+04   -.774E-01 -.119E-02 0.580E+01   -.147E-02 0.109E-04 0.683E-01
   0.172E+02 0.197E+02 -.163E+04   -.173E+02 -.197E+02 0.162E+04   0.528E-01 -.192E-01 0.581E+01   0.241E-02 0.208E-02 0.685E-01
   0.748E+00 -.154E+01 0.170E+04   -.747E+00 0.154E+01 -.169E+04   0.204E-04 0.109E-02 -.685E+01   -.242E-03 0.509E-03 -.136E+00
   -.801E+00 0.135E-01 0.170E+04   0.802E+00 -.136E-01 -.170E+04   -.548E-03 0.144E-03 -.685E+01   0.214E-03 -.208E-05 -.137E+00
   0.410E+00 0.992E-02 0.583E+03   -.410E+00 -.140E-01 -.583E+03   0.421E-03 0.242E-02 0.451E+00   0.202E-04 0.558E-05 -.973E-01
   -.801E+00 -.120E+01 0.583E+03   0.797E+00 0.119E+01 -.583E+03   0.254E-02 0.355E-02 0.473E+00   -.159E-03 -.122E-03 -.970E-01
   0.166E+01 -.571E+01 -.520E+03   -.165E+01 0.568E+01 0.521E+03   -.204E-02 0.297E-01 -.236E+00   0.238E-03 -.857E-03 -.168E-01
   -.284E+01 0.642E-01 -.528E+03   0.284E+01 -.645E-01 0.528E+03   0.259E-03 0.227E-03 -.191E+00   -.711E-03 0.196E-04 -.185E-01
   0.465E+01 0.331E+00 -.164E+04   -.465E+01 -.329E+00 0.163E+04   0.143E-02 -.156E-02 0.577E+01   0.142E-03 0.590E-04 0.678E-01
   -.172E+02 -.269E+02 -.162E+04   0.172E+02 0.269E+02 0.161E+04   -.392E-01 -.301E-01 0.581E+01   -.229E-02 -.338E-02 0.689E-01
   0.748E+00 0.154E+01 0.170E+04   -.747E+00 -.154E+01 -.169E+04   -.581E-04 -.712E-03 -.685E+01   -.245E-03 -.508E-03 -.136E+00
   -.104E+01 -.140E-01 0.170E+04   0.104E+01 0.138E-01 -.169E+04   -.181E-03 0.201E-03 -.685E+01   0.321E-03 -.111E-05 -.135E+00
   0.500E+00 -.199E-01 0.584E+03   -.497E+00 0.170E-01 -.584E+03   -.165E-02 0.166E-02 0.495E+00   0.331E-04 -.314E-06 -.964E-01
   -.796E+00 0.118E+01 0.583E+03   0.792E+00 -.118E+01 -.583E+03   0.207E-02 -.361E-04 0.472E+00   -.159E-03 0.113E-03 -.970E-01
   0.166E+01 0.569E+01 -.520E+03   -.166E+01 -.566E+01 0.520E+03   -.215E-02 -.295E-01 -.243E+00   0.241E-03 0.846E-03 -.167E-01
   -.444E+01 -.634E-01 -.517E+03   0.440E+01 0.645E-01 0.517E+03   0.330E-01 -.616E-03 -.289E+00   -.842E-03 -.683E-05 -.160E-01
   0.120E+02 -.507E+00 -.156E+04   -.121E+02 0.521E+00 0.155E+04   0.597E-01 -.967E-02 0.554E+01   0.126E-02 -.990E-04 0.761E-01
   -.174E+02 0.269E+02 -.162E+04   0.175E+02 -.270E+02 0.161E+04   -.461E-01 0.299E-01 0.581E+01   -.237E-02 0.338E-02 0.689E-01
   -.341E+00 -.864E+00 0.436E+03   0.343E+00 0.861E+00 -.436E+03   -.234E-02 -.239E-03 -.144E+00   -.234E-04 -.992E-04 -.752E-01
   0.581E+00 0.875E-02 0.436E+03   -.575E+00 -.523E-02 -.436E+03   -.673E-02 -.814E-02 -.150E+00   0.129E-03 0.362E-05 -.753E-01
   -.478E+00 0.977E-02 0.128E+04   0.478E+00 -.970E-02 -.128E+04   -.143E-03 0.506E-03 0.307E+01   0.149E-03 -.903E-06 -.105E+00
   0.683E+00 -.986E+00 0.128E+04   -.683E+00 0.985E+00 -.128E+04   0.345E-03 0.103E-02 0.307E+01   -.191E-03 0.310E-03 -.104E+00
   -.594E+01 -.117E+02 -.125E+04   0.594E+01 0.117E+02 0.125E+04   -.816E-03 0.149E-01 -.460E+01   -.483E-03 -.127E-02 0.516E-01
   0.732E+01 0.147E+00 -.125E+04   -.730E+01 -.150E+00 0.126E+04   -.175E-01 0.746E-02 -.460E+01   0.101E-02 0.217E-04 0.515E-01
   -.985E+00 0.294E-01 -.394E+03   0.986E+00 -.275E-01 0.393E+03   -.338E-03 -.258E-02 0.226E+00   -.122E-03 0.792E-05 -.179E-01
   0.266E+01 -.339E+01 -.389E+03   -.265E+01 0.337E+01 0.389E+03   -.635E-02 0.175E-01 0.246E+00   0.645E-03 -.586E-03 -.172E-01
   -.342E+00 0.856E+00 0.436E+03   0.344E+00 -.847E+00 -.436E+03   -.227E-02 -.149E-01 -.144E+00   -.218E-04 0.949E-04 -.752E-01
   0.644E+00 -.195E-01 0.437E+03   -.654E+00 0.229E-01 -.437E+03   0.119E-01 -.792E-02 -.157E+00   0.122E-03 -.720E-07 -.749E-01
   -.638E+00 -.972E-02 0.128E+04   0.637E+00 0.979E-02 -.128E+04   0.873E-03 0.514E-03 0.307E+01   0.197E-03 0.208E-06 -.104E+00
   0.684E+00 0.986E+00 0.128E+04   -.684E+00 -.985E+00 -.128E+04   0.418E-03 -.371E-04 0.307E+01   -.190E-03 -.306E-03 -.104E+00
   -.596E+01 0.117E+02 -.125E+04   0.596E+01 -.117E+02 0.125E+04   0.322E-02 -.330E-02 -.460E+01   -.477E-03 0.127E-02 0.515E-01
   0.211E+02 -.168E+00 -.122E+04   -.210E+02 0.166E+00 0.123E+04   -.898E-01 0.493E-02 -.467E+01   0.277E-02 -.146E-04 0.529E-01
   -.146E+01 -.449E-01 -.387E+03   0.147E+01 0.450E-01 0.387E+03   -.742E-02 -.348E-03 0.247E+00   -.317E-03 -.288E-05 -.171E-01
   0.266E+01 0.339E+01 -.389E+03   -.266E+01 -.337E+01 0.389E+03   -.571E-02 -.178E-01 0.246E+00   0.658E-03 0.577E-03 -.172E-01
   0.337E+00 -.930E+00 0.437E+03   -.337E+00 0.944E+00 -.437E+03   -.330E-03 -.195E-01 -.155E+00   0.299E-04 -.933E-04 -.748E-01
   -.583E+00 0.904E-02 0.436E+03   0.579E+00 -.537E-02 -.436E+03   0.434E-02 -.831E-02 -.149E+00   -.118E-03 0.482E-05 -.752E-01
   0.480E+00 0.109E-01 0.128E+04   -.480E+00 -.109E-01 -.128E+04   0.370E-03 0.517E-03 0.307E+01   -.152E-03 -.431E-05 -.104E+00
   -.687E+00 -.115E+01 0.128E+04   0.687E+00 0.115E+01 -.128E+04   -.113E-03 0.208E-02 0.307E+01   0.192E-03 0.357E-03 -.104E+00
   0.604E+01 -.260E+02 -.122E+04   -.604E+01 0.259E+02 0.122E+04   -.835E-02 0.818E-01 -.457E+01   0.366E-03 -.308E-02 0.536E-01
   -.737E+01 0.162E+00 -.125E+04   0.735E+01 -.165E+00 0.125E+04   0.168E-01 0.940E-02 -.461E+01   -.101E-02 0.171E-04 0.513E-01
   0.977E+00 0.624E-01 -.389E+03   -.980E+00 -.647E-01 0.389E+03   0.188E-02 0.179E-02 0.259E+00   0.119E-03 0.273E-04 -.171E-01
   -.267E+01 -.388E+01 -.387E+03   0.266E+01 0.387E+01 0.386E+03   0.542E-02 0.117E-01 0.247E+00   -.641E-03 -.794E-03 -.170E-01
   0.338E+00 0.914E+00 0.437E+03   -.338E+00 -.919E+00 -.437E+03   -.209E-03 0.155E-02 -.154E+00   0.259E-04 0.919E-04 -.748E-01
   -.647E+00 -.207E-01 0.437E+03   0.658E+00 0.243E-01 -.437E+03   -.130E-01 -.813E-02 -.162E+00   -.121E-03 0.260E-05 -.747E-01
   0.644E+00 -.107E-01 0.128E+04   -.643E+00 0.108E-01 -.128E+04   -.689E-03 0.404E-03 0.307E+01   -.194E-03 0.380E-05 -.103E+00
   -.688E+00 0.115E+01 0.128E+04   0.688E+00 -.115E+01 -.128E+04   -.169E-03 -.111E-02 0.307E+01   0.198E-03 -.353E-03 -.104E+00
   0.607E+01 0.261E+02 -.122E+04   -.607E+01 -.260E+02 0.122E+04   -.749E-02 -.788E-01 -.456E+01   0.365E-03 0.312E-02 0.536E-01
   -.216E+02 -.180E+00 -.120E+04   0.216E+02 0.176E+00 0.121E+04   0.790E-01 0.464E-02 -.460E+01   -.252E-02 -.958E-05 0.548E-01
   0.149E+01 -.343E-01 -.382E+03   -.149E+01 0.310E-01 0.382E+03   0.539E-02 0.214E-02 0.492E-01   0.323E-03 -.136E-04 -.159E-01
   -.267E+01 0.389E+01 -.387E+03   0.266E+01 -.388E+01 0.386E+03   0.515E-02 -.108E-01 0.248E+00   -.656E-03 0.773E-03 -.169E-01
   0.434E+00 -.778E-02 0.235E+02   -.693E-12 0.139E-12 -.523E-11   -.399E+00 -.168E-01 -.187E+02   0.382E-02 0.869E-04 -.237E+01

 POSITION                                       TOTAL-FORCE (eV/Angst)
      4.25799      4.20026     12.63798         0.079744     -0.005483      0.075698
      5.70127      4.21518     13.15146        -0.088569     -0.003664      0.026602
      4.06810      3.31107     12.01510         0.051662      0.176722      0.165827
      4.04163      5.09957     12.03866         0.056783     -0.181987      0.159933
      3.52715      4.17855     13.45982         0.181378      0.005862     -0.182556
      6.40806      4.23766     12.30911        -0.161163     -0.004259      0.212988
      5.92117      3.32239     13.75526        -0.054393      0.210339     -0.134841
      5.89350      5.09633     13.78119        -0.045564     -0.207099     -0.143412
      0.00006      6.33100      3.21881        -0.000072      0.000391      0.543606
      2.11031      0.00026      3.21881        -0.000294      0.000628      0.544182
      0.00006      0.00026      5.32906        -0.000451     -0.000426      0.043404
      2.11031      6.33100      5.32906         0.000471     -0.000950      0.045037
      8.44079      6.33043      7.45377        -0.000171     -0.000564      0.052483
      2.11013      8.44068      7.45400         0.000392      0.000197      0.051652
      8.44092      8.44023      9.55992        -0.001317      0.001319     -0.134910
      2.10918      6.32944      9.55744        -0.008800      0.003775     -0.141417
      0.00006      2.11051      3.21881        -0.000102      0.000908      0.543649
      2.11031      4.22076      3.21881        -0.000232      0.000666      0.545253
      0.00006      4.22076      5.32906        -0.000935     -0.000397      0.047363
      2.11031      2.11051      5.32906         0.000345     -0.000092      0.044929
      8.44079      2.11008      7.45371        -0.000071      0.000403      0.052868
      2.11132      4.22019      7.45511        -0.000189      0.000482      0.054823
      0.00123      4.21985      9.55595         0.009461     -0.000236     -0.140484
      2.10914      2.11002      9.55733        -0.010129     -0.001940     -0.141280
      4.22056      6.33100      3.21881        -0.000046      0.000327      0.545323
      6.33080      0.00026      3.21881         0.000179      0.000655      0.544475
      4.22056      0.00026      5.32906        -0.000400     -0.000915      0.047337
      6.33080      6.33100      5.32906        -0.001496     -0.001735      0.045429
      4.22042      6.32918      7.45497        -0.000103      0.001124      0.053444
      6.33062      8.44066      7.45415        -0.000483      0.000279      0.052196
      4.22017      8.44011      9.55647         0.000718      0.000094     -0.131887
      6.33110      6.33010      9.55826         0.005057      0.012415     -0.144427
      4.22056      2.11051      3.21881        -0.000013      0.000951      0.545251
      6.33080      4.22076      3.21881         0.000081      0.000628      0.544917
      4.22056      4.22076      5.32906         0.000463     -0.000642      0.051312
      6.33080      2.11051      5.32906        -0.001330      0.000590      0.045249
      4.22043      2.11094      7.45496        -0.000145      0.000797      0.052602
      6.32956      4.22016      7.45556        -0.000691      0.000696      0.050745
      4.21917      4.21964      9.57246        -0.008428      0.003534     -0.128800
      6.33123      2.10931      9.55811         0.006633     -0.009781     -0.144758
      0.00006      6.33100      5.32906        -0.000775     -0.001547      0.032918
      2.11031      0.00026      5.32906        -0.002284     -0.004259      0.032059
      0.00006      0.00026      3.21881        -0.000107      0.000799     -0.479814
      2.11031      6.33100      3.21881         0.000021      0.000983     -0.480163
      8.44051      6.32978      9.60579        -0.001064      0.009134     -0.097382
      2.10979      8.44024      9.60586        -0.001193      0.004787     -0.095790
      8.44074      8.44072      7.44906         0.000517     -0.000500      0.028704
      2.10995      6.33108      7.44854        -0.000823      0.001921      0.025910
      0.00006      2.11051      5.32906        -0.000750     -0.006638      0.032603
      2.11031      4.22076      5.32906         0.003667     -0.004170      0.035337
      0.00006      4.22076      3.21881         0.000223      0.000804     -0.479666
      2.11031      2.11051      3.21881         0.000044      0.000611     -0.480182
      8.44053      2.10979      9.60563         0.002875     -0.000028     -0.097559
      2.10787      4.21974      9.60038        -0.010164      0.002926     -0.114738
      8.44074      4.22024      7.44750        -0.002363      0.000173      0.024306
      2.10988      2.10931      7.44846         0.000002     -0.002061      0.026017
      4.22056      6.33100      5.32906        -0.000109     -0.007714      0.035458
      6.33080      0.00026      5.32906         0.001437     -0.004308      0.032925
      4.22056      0.00026      3.21881         0.000036      0.000802     -0.480527
      6.33080      6.33100      3.21881        -0.000092      0.001341     -0.480054
      4.22041      6.33259      9.60494        -0.004443      0.014518     -0.102602
      6.33080      8.44022      9.60644         0.001877      0.006065     -0.106232
      4.22046      8.44054      7.44788        -0.000289      0.000389      0.028626
      6.33078      6.33100      7.44892        -0.000031     -0.000270      0.027536
      4.22056      2.11051      5.32906        -0.000072     -0.001253      0.035707
      6.33080      4.22076      5.32906        -0.004176     -0.004231      0.035932
      4.22056      4.22076      3.21881        -0.000284      0.000766     -0.480228
      6.33080      2.11051      3.21881        -0.000114      0.000243     -0.480003
      4.22047      2.10650      9.60436        -0.004259     -0.014553     -0.102614
      6.33249      4.21973      9.60317         0.014531      0.001637     -0.117382
      4.22062      4.22016      7.45169         0.001126     -0.000335     -0.006476
      6.33087      2.10935      7.44884        -0.000743      0.000356      0.027569
    total drift:                                0.010519     -0.023508     -0.371609

  FREE ENERGIE OF THE ION-ELECTRON SYSTEM (eV)
  free  energy   TOTEN  =      -492.57667968 eV

  energy  without entropy=     -492.57667968  energy(sigma->0) =     -492.57667968

     |            E. Caldeweyher, S. Ehlert & S. Grimme          |
     |          Mulliken Center for Theoretical Chemistry        |
     |                    University of Bonn                     |

Rational (Becke-Johnson) damping: hse06-D4-ATM
  s6         1.0000
  s8         1.1953
  s9         1.0000
  a1         0.3866
  a2         5.1913
 alp        16.0000

Dispersion energy:      -2.7817859753988E-01 Eh